# x y z rho theta phi s1 s2 stress_xx np intf bulk
-0.832223 -10.833177 -14.387413 18.029087 1.494125 2.494784 0.006822 -0.000015 -815639.000000 1 0 0
1.923177 -13.449477 -13.026713 18.822388 -1.428766 2.335171 0.019310 -0.000322 1386960.000000 1 0 0
2.070277 -11.187877 -14.793513 18.662869 -1.387820 2.485974 0.011577 0.002675 1762090.000000 1 0 0
-5.592023 -6.275677 -16.352313 18.386217 0.842941 2.666781 0.011644 -0.007364 -613217.000000 1 0 0
4.420377 -14.054777 -11.494813 18.687087 -1.266081 2.233335 0.010276 -0.003673 -240305.000000 1 0 0
13.972877 -10.694877 -7.880313 19.280068 -0.653286 1.991857 0.033790 -0.012618 -985460.000000 1 0 0
7.176877 10.819523 -10.806113 16.892061 0.985110 2.264924 0.019850 -0.014144 279880.000000 1 0 0
5.746477 -4.274277 -12.533013 14.434953 -0.639527 2.622442 0.000113 -0.002878 1403050.000000 1 0 0
13.663577 0.505323 -10.035313 16.960430 0.036966 2.203950 0.011810 -0.001505 157096.000000 1 0 0
14.175877 5.141723 -10.356813 18.293616 0.347952 2.172616 -0.000000 -0.002391 -959656.000000 1 0 0
4.128377 4.310723 -13.479213 14.741608 0.807002 2.724734 0.003577 0.000332 2181820.000000 1 0 0
10.277577 -4.976677 -13.655613 17.800889 -0.450950 2.445153 0.022321 -0.007013 -560170.000000 1 0 0
2.543277 -7.570277 -12.008113 14.421239 -1.246688 2.554706 0.000139 0.000190 611791.000000 1 0 0
-5.657623 -2.025077 -15.076113 16.229566 0.343729 2.762306 0.013702 -0.009838 295721.000000 1 0 0
10.644477 0.060723 -9.791613 14.463204 0.005705 2.314477 0.009369 0.000140 2320710.000000 1 0 0
-1.738123 -9.575977 -16.904113 19.505626 1.391242 2.619199 0.024183 -0.008626 440027.000000 1 0 0
8.596377 1.519423 -18.087713 20.084116 0.174945 2.691940 0.022109 -0.002388 -386997.000000 1 0 0
16.496477 -5.966777 -8.802313 19.626943 -0.347060 2.035862 0.051629 -0.008716 482559.000000 1 0 0
10.203077 7.608923 -10.018813 16.197997 0.640774 2.237656 0.012316 -0.008867 1586170.000000 1 0 0
13.822377 -2.276277 -10.573513 17.551032 -0.163216 2.217356 0.028124 -0.002846 -1268520.000000 1 0 0
7.165077 -1.931177 -13.712713 15.591865 -0.263270 2.645562 0.009735 -0.006902 -115279.000000 1 0 0
-2.697923 6.629323 -13.872613 15.610128 -1.184297 2.665283 0.004380 -0.003015 2357400.000000 1 0 0
11.263477 1.880123 -13.933013 18.014706 0.165397 2.455022 0.019696 -0.004466 1531310.000000 1 0 0
-2.328323 10.699023 -12.972613 16.975832 -1.356517 2.440567 0.008233 -0.000367 -1270540.000000 1 0 0
2.913077 -1.171777 -15.229113 15.549436 -0.382442 2.938263 0.006116 -0.008381 925087.000000 1 0 0
-9.046923 0.514523 -15.210713 17.705291 -0.056812 2.604316 0.017356 -0.005366 -946539.000000 1 0 0
2.412677 -1.983877 -17.977213 18.246560 -0.688175 2.969558 0.012987 -0.017031 945629.000000 1 0 0
1.076777 7.851823 -13.221613 15.414980 1.434509 2.601599 0.002187 -0.000521 -1145800.000000 1 0 0
9.373477 -9.103077 -9.853213 16.365020 -0.770764 2.216912 0.019538 -0.004793 396353.000000 1 0 0
3.964477 7.250523 -13.473213 15.805525 1.070425 2.591425 -0.000612 -0.000058 1702640.000000 1 0 0
-2.666023 9.059923 -15.531713 18.177568 -1.284609 2.595276 0.004710 0.000170 1019630.000000 1 0 0
5.531977 -7.742177 -15.114413 17.860279 -0.950389 2.579719 0.005325 -0.007107 580608.000000 1 0 0
4.236877 7.186623 -16.362513 18.366559 1.038096 2.670089 0.001388 -0.000633 809450.000000 1 0 0
-0.160923 5.029023 -13.558613 14.462121 -1.538808 2.786246 0.004516 -0.003538 1202790.000000 1 0 0
8.729577 4.132423 -16.753613 19.338200 0.442127 2.618640 0.017720 -0.004710 183567.000000 1 0 0
5.310277 0.280623 -14.367813 15.320308 0.052796 2.787115 0.002684 -0.003332 -154822.000000 1 0 0
6.321477 7.951823 -11.598713 15.418259 0.899129 2.422299 0.008083 -0.004301 703948.000000 1 0 0
2.741477 -8.408177 -15.047313 17.453789 -1.255616 2.610241 0.006680 -0.006406 416207.000000 1 0 0
4.058577 11.528323 -13.866313 18.483747 1.232294 2.419145 0.006305 -0.005551 -1342320.000000 1 0 0
0.611477 -4.575977 -13.796713 14.548634 -1.437956 2.818685 0.001660 -0.002712 1336180.000000 1 0 0
8.441977 -0.128477 -11.665213 14.400023 -0.015218 2.515090 0.006062 0.000038 290625.000000 1 0 0
-0.933523 -5.080377 -16.294713 17.093840 1.389073 2.834613 0.008509 -0.011831 1056510.000000 1 0 0
4.431077 0.870223 -11.685913 12.528060 0.193923 2.772844 0.001941 -0.001251 36603.400000 1 0 0
-2.926623 -7.212077 -15.592813 17.427421 1.185304 2.678620 0.003526 -0.006659 3398930.000000 1 0 0
11.379577 -3.753577 -11.370913 16.519133 -0.318614 2.330006 0.022636 -0.003740 1601590.000000 1 0 0
6.539877 -7.106277 -12.402113 15.718828 -0.826881 2.479972 0.007144 -0.004453 -1804510.000000 1 0 0
3.477777 -4.052677 -14.583013 15.530080 -0.861594 2.790557 0.006782 -0.008971 2579860.000000 1 0 0
-0.499723 -1.669777 -18.345913 18.428521 1.280004 3.046872 0.018881 -0.021155 1170500.000000 1 0 0
14.914577 2.885623 -8.498913 17.406980 0.191115 2.080877 0.000114 0.002455 -1178330.000000 1 0 0
6.973177 4.291023 -14.374313 16.542640 0.551638 2.623822 0.008381 0.000967 5136110.000000 1 0 0
10.127077 -9.611577 -14.048513 19.806585 -0.759288 2.359280 0.031107 -0.009524 11119.500000 1 0 0
8.998577 -3.240477 -15.594913 18.294163 -0.345653 2.591456 0.028449 -0.010529 -89988.200000 1 0 0
-5.275223 -2.174277 -18.063413 18.943135 0.390952 2.835638 0.011286 -0.005502 -357616.000000 1 0 0
5.030277 -9.117177 -11.089613 15.212039 -1.066621 2.387660 0.002063 -0.002449 2051010.000000 1 0 0
-2.405023 3.823923 -17.128813 17.714479 -1.009368 2.883735 0.006591 -0.002413 356652.000000 1 0 0
9.499877 9.366723 -14.536813 19.730740 0.778341 2.399062 0.037363 -0.013318 -1052420.000000 1 0 0
9.822377 10.007823 -11.736313 18.285969 0.794750 2.267666 0.023238 -0.013885 -27261.200000 1 0 0
12.046677 -5.985177 -9.669713 16.566476 -0.461110 2.194064 0.028863 -0.002822 -1325310.000000 1 0 0
8.232977 6.894723 -13.772913 17.464600 0.697164 2.479356 0.016050 -0.000106 692470.000000 1 0 0
4.033777 -4.307577 -17.470413 18.440225 -0.818211 2.815833 0.018653 -0.018496 -324742.000000 1 0 0
9.344077 -7.481077 -12.317113 17.175260 -0.675120 2.370490 0.019146 -0.009045 1132190.000000 1 0 0
12.031077 -8.739677 -8.872213 17.316031 -0.628242 2.108739 0.027884 -0.002741 1846190.000000 1 0 0
-3.026723 -2.609677 -13.828813 14.394705 0.711541 2.860264 0.007394 -0.007701 -2849990.000000 1 0 0
-0.421723 6.017623 -17.694813 18.694813 -1.500829 2.813036 0.008922 0.004532 1199590.000000 1 0 0
0.942077 -8.473377 -17.390913 19.368260 -1.460070 2.685790 0.020003 -0.015960 -97719.800000 1 0 0
0.101977 8.459323 -16.022113 18.118462 1.558742 2.655784 -0.001231 0.005095 -556591.000000 1 0 0
1.799577 3.354123 -15.014413 15.489390 1.078356 2.893308 0.006995 -0.002344 1660480.000000 1 0 0
-1.974023 -0.640577 -15.893413 16.028340 0.313783 3.011748 0.009917 -0.009815 1787960.000000 1 0 0
14.144377 -4.375577 -8.501613 17.072976 -0.300013 2.092038 0.031000 -0.002129 380029.000000 1 0 0
0.584277 0.597423 -14.617813 14.641678 0.796522 3.084489 0.001938 -0.006845 2856980.000000 1 0 0
8.819577 2.750323 -12.547613 15.581778 0.302286 2.506935 0.009497 0.000246 1180930.000000 1 0 0
5.837877 0.905623 -17.201013 18.187243 0.153902 2.810764 0.015169 -0.003882 1063210.000000 1 0 0
15.342677 1.543723 -12.351313 19.756916 0.100279 2.246138 0.017900 -0.006934 528408.000000 1 0 0
8.860077 -11.251277 -11.899613 18.619693 -0.903741 2.264108 0.028364 -0.009167 2333960.000000 1 0 0
-4.566123 0.704623 -15.028913 15.723047 -0.153108 2.843344 0.011633 -0.009461 807333.000000 1 0 0
2.383577 5.057423 -17.335613 18.214896 1.130369 2.829611 0.005082 0.000640 2553810.000000 1 0 0
5.879777 -11.714477 -12.329113 17.994660 -1.105611 2.325611 0.018436 -0.008516 1519420.000000 1 0 0
12.946777 7.372523 -8.693613 17.249697 0.517652 2.099004 0.009416 -0.006973 1022040.000000 1 0 0
-5.003523 3.577123 -15.736613 16.895918 -0.620670 2.768997 0.011776 -0.005736 407202.000000 1 0 0
-0.484123 -4.538577 -19.159513 19.695685 1.464530 2.907724 0.024564 -0.019201 -758980.000000 1 0 0
9.877577 4.484123 -10.280813 14.945534 0.426150 2.329368 0.005411 0.000510 363233.000000 1 0 0
13.414777 3.692923 -12.747413 18.870359 0.268634 2.312474 0.014377 -0.006501 718852.000000 1 0 0
-6.155023 5.882623 -17.092313 19.095463 -0.762773 2.679447 0.011084 -0.002322 -1262640.000000 1 0 0
-10.108423 3.221523 -15.342213 18.653202 -0.308520 2.536585 0.013385 -0.006551 -1150950.000000 1 0 0
10.755577 13.255223 -8.370513 19.011808 0.889130 2.026706 0.047344 -0.014465 543879.000000 1 0 0
7.512977 13.356823 -12.340513 19.675818 1.058420 2.248739 0.040157 -0.018108 61788.100000 1 0 0
5.335777 15.126323 -11.255913 19.595197 1.231676 2.182694 0.019576 -0.015682 1295180.000000 1 0 0
14.280277 9.581923 -10.050613 19.918694 0.590990 2.099694 0.034051 -0.013386 -513135.000000 1 0 0
8.352777 -17.261877 -1.967213 19.277220 -1.120123 1.673023 0.021593 -0.001590 -1461700.000000 1 0 0
0.585477 -16.068677 0.064087 16.079467 -1.534377 1.566811 0.012239 -0.008662 2782170.000000 1 0 0
-9.066723 -11.585677 7.568887 16.544529 0.906768 1.095631 0.013314 -0.011925 911234.000000 1 0 0
2.044377 -15.979077 -2.522013 16.305549 -1.443547 1.726092 0.013148 -0.006479 1732980.000000 1 0 0
-1.343323 -11.038177 -9.378713 14.546688 1.449694 2.271469 0.000693 0.005583 990789.000000 1 0 0
-4.838223 -12.660777 -12.910513 18.718574 1.205778 2.331894 0.007033 0.000010 -678426.000000 1 0 0
-8.242123 -17.679477 -1.884913 19.597178 1.134555 1.667128 0.003486 -0.009092 -2615690.000000 1 0 0
-11.435123 -7.087077 -8.883013 16.121310 0.554825 2.154371 0.021335 -0.004519 3576300.000000 1 0 0
-13.590023 -11.671777 -4.732313 18.528732 0.709609 1.829062 0.017011 0.001811 -168467.000000 1 0 0
-5.729923 -13.336177 9.854287 17.544019 1.164991 0.974370 0.013140 -0.017152 385545.000000 1 0 0
0.179977 -14.076177 -3.577813 14.524872 -1.558011 1.819681 0.011973 -0.003458 1704170.000000 1 0 0
-14.616223 -11.694077 1.982287 18.823254 0.674787 1.465290 -0.000004 0.000518 -183390.000000 1 0 0
-4.151423 -16.354877 -7.418713 18.432407 1.322213 1.985023 -0.001938 -0.006577 -1102260.000000 1 0 0
0.375177 -15.252777 -9.205613 17.819407 -1.546204 2.113679 0.006971 0.003631 -210695.000000 1 0 0
4.520877 -14.223177 -2.517113 15.135156 -1.263042 1.737882 0.006556 0.000875 -1089220.000000 1 0 0
-3.673323 -18.172177 -2.354013 18.688571 1.371344 1.697092 -0.002874 -0.005163 1658740.000000 1 0 0
-0.976523 -13.595477 0.711387 13.649054 1.499092 1.518653 0.007280 -0.003541 2806520.000000 1 0 0
-8.459223 -11.144077 -10.634213 17.573713 0.921511 2.220713 0.010740 -0.003964 891438.000000 1 0 0
-3.788923 -14.172377 -0.296613 14.673111 1.309560 1.591012 0.001206 -0.001282 3565020.000000 1 0 0
-1.676123 -14.932777 -7.235913 16.677999 1.459020 2.019569 -0.002487 0.002531 348153.000000 1 0 0
-14.186023 -8.070377 -1.854013 16.425943 0.517235 1.683908 -0.002685 0.002726 1974040.000000 1 0 0
-10.650323 -7.192177 -11.667813 17.357841 0.593957 2.307963 0.019126 -0.004976 -1080210.000000 1 0 0
-9.516323 -14.612677 6.988587 18.786460 0.993552 1.189632 0.006206 -0.005397 481166.000000 1 0 0
-2.590123 -14.410077 -12.290313 19.115723 1.392951 2.269130 0.012696 0.002437 522356.000000 1 0 0
2.285977 -17.782577 -4.790213 18.557798 -1.442946 1.831876 0.019021 -0.008983 -200199.000000 1 0 0
-6.579223 -9.574577 -9.241513 14.844671 0.968743 2.242790 0.006222 -0.003550 150244.000000 1 0 0
-10.929523 -15.387577 0.440187 18.879242 0.953203 1.547478 0.005885 -0.001663 -274948.000000 1 0 0
-12.643923 -11.145277 4.231287 17.377853 0.722484 1.324837 0.016017 -0.002305 2648730.000000 1 0 0
-17.051423 -8.971377 -1.521513 19.327484 0.484338 1.649601 0.003064 -0.001301 570397.000000 1 0 0
-1.511723 -19.217977 -3.908013 19.669482 1.492296 1.770811 0.005261 -0.007025 -181184.000000 1 0 0
3.153877 -14.326877 -8.815813 17.115049 -1.354115 2.111910 0.008145 -0.000100 1931830.000000 1 0 0
-4.318123 -8.028577 -13.040413 15.910896 1.077334 2.531492 -0.000878 -0.001736 1989710.000000 1 0 0
5.500477 -16.598377 1.311787 17.535169 -1.250799 1.495917 0.020980 -0.005769 4204220.000000 1 0 0
-2.796923 -13.828777 -3.126213 14.450988 1.371235 1.788852 -0.000021 -0.003821 -1166770.000000 1 0 0
-0.498123 -14.075177 3.698687 14.561560 1.535421 1.313979 0.005199 0.001028 -3796070.000000 1 0 0
1.127477 -16.235877 7.102587 17.757299 -1.501464 1.159300 0.021773 -0.006502 1729820.000000 1 0 0
-5.574323 -10.348677 -14.476013 18.647336 1.076708 2.459578 0.005449 -0.004887 -1517230.000000 1 0 0
-0.510023 -17.331777 -5.865113 18.304376 1.541378 1.896971 0.009499 -0.002819 1371140.000000 1 0 0
-6.465723 -13.342077 -1.286413 14.881917 1.119535 1.657346 -0.004469 -0.000854 1616380.000000 1 0 0
-1.853723 -17.832877 0.018087 17.928974 1.467219 1.569788 0.005026 -0.003944 1561500.000000 1 0 0
-9.568323 -9.864577 -4.852013 14.574111 0.800642 1.910195 0.014765 -0.005460 1412380.000000 1 0 0
-0.917523 -16.763277 4.920987 17.494725 1.516117 1.285664 0.018365 -0.004212 2759500.000000 1 0 0
-6.866923 -9.834377 -6.303413 13.550004 0.961241 2.054653 0.010949 -0.004236 2100840.000000 1 0 0
-6.170723 -14.493477 -8.574513 17.934909 1.168283 2.069276 0.005290 -0.007972 284619.000000 1 0 0
-5.767223 -12.136477 -10.230813 16.888590 1.127187 2.221545 0.002632 -0.003111 1718980.000000 1 0 0
-10.659523 -12.151877 -8.877213 18.441759 0.850726 2.073007 0.025030 -0.011390 -386812.000000 1 0 0
3.952277 -17.237377 6.632387 18.887462 -1.345407 1.211994 0.031547 -0.008318 1357880.000000 1 0 0
-6.698523 -14.362277 -4.193513 16.393010 1.134391 1.829483 -0.002019 -0.009272 -885584.000000 1 0 0
-2.967223 -12.189377 -7.045813 14.388496 1.332014 2.082523 0.002572 0.001994 3040980.000000 1 0 0
-7.106423 -12.828077 4.455687 15.326903 1.064907 1.275827 0.002528 0.001047 843591.000000 1 0 0
2.543577 -16.308277 2.409187 16.680344 -1.416074 1.425857 0.017342 -0.011659 2433500.000000 1 0 0
-6.102723 -11.977877 7.250787 15.273725 1.099578 1.076147 0.002162 -0.004500 3001390.000000 1 0 0
-11.341323 -12.785877 -1.062213 17.124035 0.845199 1.632867 0.011648 0.003186 206654.000000 1 0 0
-14.206123 -8.790077 4.644487 17.339281 0.554094 1.299626 0.010684 -0.006452 -983753.000000 1 0 0
-8.098023 -15.574077 4.509687 18.123662 1.091302 1.319326 0.001977 0.007270 930022.000000 1 0 0
-16.365323 -9.276277 1.281587 18.855121 0.515669 1.502774 -0.012246 0.000365 9278.060000 1 0 0
-6.714523 -17.047077 2.417687 18.480608 1.195576 1.439597 0.001685 0.003870 125581.000000 1 0 0
-11.526323 -15.083377 -4.691013 19.554283 0.918285 1.813056 0.037031 -0.007875 -523892.000000 1 0 0
-10.027723 -9.818977 -12.751113 18.962026 0.774881 2.308317 0.019950 0.000744 -1782820.000000 1 0 0
-4.378323 -16.006577 -4.422513 17.173784 1.303795 1.831246 -0.004526 -0.004183 -1158340.000000 1 0 0
-11.839323 -8.258377 0.111287 14.435468 0.609072 1.563087 -0.009332 0.003194 2128370.000000 1 0 0
-9.631023 -11.216177 3.523887 15.197928 0.861289 1.336801 0.001376 0.003356 2180950.000000 1 0 0
-14.213123 -12.952677 -0.672913 19.241557 0.739033 1.605775 0.016038 -0.000805 115479.000000 1 0 0
5.560677 -14.932777 -7.193613 17.483050 -1.214324 1.994854 0.013881 -0.006144 1042200.000000 1 0 0
-7.499823 -10.547877 -1.225913 13.000305 0.952708 1.665235 0.001269 0.000930 113200.000000 1 0 0
-11.698023 -8.221477 -6.064113 15.530934 0.612609 1.971921 0.014624 -0.002683 -406293.000000 1 0 0
-14.500723 -6.738577 -9.270213 18.482863 0.435016 2.096194 0.025728 -0.007336 1215920.000000 1 0 0
-3.972423 -16.517277 1.560587 17.059778 1.334778 1.479191 -0.000894 -0.001583 472138.000000 1 0 0
-7.893223 -15.492277 0.148587 17.387803 1.099582 1.562251 0.002922 -0.000292 550806.000000 1 0 0
0.994277 -18.529577 3.673787 18.916409 -1.517189 1.375343 0.021557 -0.011895 1254000.000000 1 0 0
-14.072723 -8.863577 -4.517113 17.233945 0.562073 1.836000 0.006502 -0.002495 -822915.000000 1 0 0
-3.363923 -14.321977 11.307487 18.555168 1.340100 0.915495 0.006942 -0.020881 173320.000000 1 0 0
-10.836123 -12.299877 -3.897513 16.849307 0.848581 1.804226 0.020995 -0.006422 1928960.000000 1 0 0
-10.015923 -10.668277 0.561487 14.643979 0.816926 1.532444 0.000299 0.003334 1225930.000000 1 0 0
-0.236723 -13.171577 -11.116913 17.237524 1.552826 2.271722 0.008052 0.001101 -221628.000000 1 0 0
-6.006423 -12.590777 -6.329913 15.319027 1.125677 1.996768 -0.000774 -0.008829 1465040.000000 1 0 0
1.707277 -15.843877 10.028587 18.828590 -1.463454 1.009097 0.021407 -0.008352 274499.000000 1 0 0
-8.930123 -15.735677 -5.710613 18.972868 1.054611 1.876525 0.016722 -0.009689 -339874.000000 1 0 0
-3.258523 -15.448677 6.007387 16.892847 1.362918 1.207222 0.003588 -0.001081 -2062480.000000 1 0 0
-17.460023 -5.574477 -6.491813 19.444044 0.309041 1.911204 0.009941 -0.001825 -416324.000000 1 0 0
18.874177 5.574623 -2.976913 19.904095 0.287192 1.720922 -0.000183 0.005571 481118.000000 1 0 0
12.739277 -12.507177 -5.860113 18.789880 -0.776205 1.887963 0.029750 -0.010310 -1154200.000000 1 0 0
10.943077 -13.569877 -1.649813 17.510408 -0.892150 1.665155 0.025054 -0.004706 2831290.000000 1 0 0
18.590877 -2.816477 4.474187 19.328000 -0.150354 1.337190 0.019303 -0.011134 -1391970.000000 1 0 0
8.719277 -16.889577 4.940887 19.639144 -1.094232 1.316480 0.039036 -0.019289 649036.000000 1 0 0
18.002477 -1.020377 6.611687 19.205331 -0.056619 1.219343 0.024502 -0.009151 -395603.000000 1 0 0
17.935277 -4.282077 -5.071813 19.124163 -0.234364 1.839212 0.048080 -0.010123 299259.000000 1 0 0
5.551777 -11.591977 14.926887 19.697922 -1.124144 0.710877 0.014003 -0.000408 1200980.000000 1 0 0
15.926677 -8.891377 -0.909213 18.263140 -0.509170 1.620601 0.049118 -0.009762 772079.000000 1 0 0
13.829577 -12.675077 -1.548513 18.823195 -0.741867 1.653156 0.043590 -0.001859 837412.000000 1 0 0
10.947777 -1.898677 13.848887 17.755294 -0.171722 0.676152 0.000693 -0.001503 -2159950.000000 1 0 0
16.850777 -6.079877 -1.432513 17.971246 -0.346270 1.650592 0.038347 -0.006906 -1402590.000000 1 0 0
17.815477 3.710623 -1.079313 18.229779 0.205345 1.630037 0.001581 0.004903 620366.000000 1 0 0
9.830877 -11.112577 9.564587 17.652672 -0.846520 0.998194 0.024740 -0.005598 1364990.000000 1 0 0
9.043077 -11.041977 4.299687 14.906033 -0.884593 1.278186 0.010875 -0.004203 373161.000000 1 0 0
13.994777 -10.089177 6.754887 18.527649 -0.624632 1.197610 0.029939 -0.010490 -54696.000000 1 0 0
16.226877 -0.549077 -4.729013 16.910842 -0.033825 1.854219 0.013068 -0.001225 1014350.000000 1 0 0
15.758477 -0.421677 -1.689913 15.854438 -0.026752 1.677588 0.009614 0.000463 730401.000000 1 0 0
12.921677 -5.084177 -0.309413 13.889360 -0.374857 1.593075 0.005606 -0.003913 267108.000000 1 0 0
14.229077 -7.546177 1.005487 16.137609 -0.487620 1.508449 0.031336 -0.001184 1866810.000000 1 0 0
15.562377 2.551823 3.647587 16.186546 0.162528 1.343497 0.010547 -0.003990 1876870.000000 1 0 0
15.976577 -7.081577 5.006887 18.178797 -0.417224 1.291765 0.033925 -0.005256 -1526570.000000 1 0 0
13.659577 -12.081777 3.294787 18.531298 -0.724180 1.392050 0.036035 -0.006817 1085420.000000 1 0 0
14.038177 -0.940977 9.230787 16.827456 -0.066930 0.990161 0.020753 -0.008461 2354690.000000 1 0 0
14.215477 -2.763277 -1.587613 14.568322 -0.191991 1.679990 0.002706 -0.000110 -1164450.000000 1 0 0
15.080777 1.892423 9.039487 17.683988 0.124833 1.034253 0.034600 -0.010479 -1487930.000000 1 0 0
14.364877 -10.216877 -3.079213 17.894575 -0.618230 1.743732 0.048775 -0.007806 908931.000000 1 0 0
7.342177 -12.649277 6.118687 15.854025 -1.044882 1.174571 0.010998 -0.007226 429971.000000 1 0 0
12.567577 -4.634177 6.990287 15.109060 -0.353272 1.089808 0.011566 -0.005062 2597180.000000 1 0 0
14.942577 -9.017277 -5.675913 18.352326 -0.542961 1.885227 0.053349 -0.010861 591298.000000 1 0 0
14.324177 -4.545577 4.669187 15.736760 -0.307285 1.269555 0.017386 -0.008375 281878.000000 1 0 0
17.149977 -4.240477 0.958187 17.692413 -0.242397 1.516612 0.024846 -0.010528 -1228780.000000 1 0 0
10.161477 -14.361477 1.124987 17.628761 -0.955021 1.506937 0.025049 -0.010237 816332.000000 1 0 0
16.405277 -2.486777 8.582187 18.680768 -0.150439 1.093462 0.026575 -0.008777 31214.500000 1 0 0
15.978177 -2.534977 3.199787 16.491418 -0.157341 1.375530 0.012076 -0.008021 1206160.000000 1 0 0
7.801377 -15.270077 2.714287 17.360993 -1.098472 1.413808 0.017877 -0.008594 2770650.000000 1 0 0
16.677377 -6.977677 7.833187 19.702327 -0.396260 1.161922 0.035465 -0.003264 -1162640.000000 1 0 0
10.170777 -8.506677 5.120087 14.213499 -0.696536 1.202285 0.011608 -0.004107 1146890.000000 1 0 0
10.963577 -11.750177 2.234087 16.225222 -0.820015 1.432665 0.021404 -0.006707 -354285.000000 1 0 0
12.392477 -7.200277 11.907687 18.633585 -0.526347 0.877541 0.009407 -0.007997 -400653.000000 1 0 0
15.229177 -9.796577 4.245587 18.599080 -0.571634 1.340497 0.040260 -0.005475 -37666.800000 1 0 0
7.399777 -10.266777 7.832687 14.883360 -0.946280 1.016587 0.010220 -0.000347 786026.000000 1 0 0
15.152577 -3.320677 -4.385713 16.120234 -0.215739 1.846332 0.021626 -0.001765 1148940.000000 1 0 0
11.857677 -8.945677 9.718787 17.750619 -0.646324 0.991401 0.014784 -0.009927 -1944040.000000 1 0 0
16.922777 -6.721977 2.315587 18.355579 -0.378103 1.444308 0.036918 -0.005958 2408450.000000 1 0 0
17.555177 4.008223 1.936387 18.110761 0.224474 1.463672 0.007112 0.000264 -178306.000000 1 0 0
14.845577 -4.923377 8.826987 17.959579 -0.320225 1.056994 0.023225 -0.003342 34669.400000 1 0 0
12.812177 -12.689377 6.074487 19.028178 -0.780583 1.245873 0.029168 -0.007254 -496877.000000 1 0 0
18.222077 0.751323 -0.838513 18.256825 0.041208 1.616741 0.016728 -0.004387 423355.000000 1 0 0
11.658977 -2.036977 10.904187 16.092927 -0.172967 0.826334 0.003791 -0.003765 1847110.000000 1 0 0
5.880877 -12.557877 10.704287 17.517613 -1.132827 0.913399 0.012957 -0.000141 -574436.000000 1 0 0
10.819977 -4.915977 10.987287 16.185154 -0.426459 0.824601 0.006605 -0.004865 913596.000000 1 0 0
17.833977 1.294123 4.917787 18.544814 0.072438 1.302402 0.025928 -0.008982 -1296790.000000 1 0 0
12.226277 -7.689277 7.105887 16.096598 -0.561409 1.113579 0.021388 -0.008373 -1883240.000000 1 0 0
10.830577 -7.837477 14.226087 19.522013 -0.626419 0.754345 0.015684 -0.007193 -809913.000000 1 0 0
14.151777 -0.212977 3.824887 14.661102 -0.015048 1.306856 0.006324 -0.001915 2085350.000000 1 0 0
11.596377 -7.634277 2.522587 14.111045 -0.582211 1.391063 0.008801 -0.000599 2072810.000000 1 0 0
9.371777 6.079923 3.523787 11.713784 0.575495 1.265240 0.004275 -0.000481 2057450.000000 1 0 0
-3.831523 14.825623 -10.057813 18.320460 -1.317891 2.151956 0.008561 0.000476 1032240.000000 1 0 0
8.892377 -6.498577 9.256587 14.387157 -0.631102 0.871875 0.002522 -0.003356 -497506.000000 1 0 0
5.733177 -10.638977 -8.513913 14.783229 -1.076527 2.184522 0.006584 -0.004601 716816.000000 1 0 0
5.393877 1.013023 0.537987 5.514486 0.185647 1.473082 0.002355 0.001014 2748220.000000 1 0 0
-0.562123 9.888023 10.974187 14.782482 -1.514009 0.734184 -0.005759 0.002855 1408980.000000 1 0 0
-6.361023 -5.100177 1.118487 8.229546 0.675829 1.434463 0.007704 -0.003712 2831460.000000 1 0 0
-1.013323 4.014823 -10.923013 11.681517 -1.323564 2.779247 0.011216 -0.005999 1691060.000000 1 0 0
11.014277 5.829023 1.217487 12.520946 0.486753 1.473406 0.002627 0.002100 2154740.000000 1 0 0
-10.163123 -1.748677 -13.629913 17.091561 0.170393 2.493877 0.018407 -0.007842 1671510.000000 1 0 0
7.472177 10.820223 -6.051513 14.475202 0.966424 2.002106 0.012103 -0.006999 1041260.000000 1 0 0
-12.429123 -2.954277 -9.673413 16.024537 0.233360 2.218884 0.010673 -0.004815 1124150.000000 1 0 0
-3.969923 -8.628277 2.574587 9.840526 1.139570 1.306085 0.006720 -0.000741 -979678.000000 1 0 0
8.036277 -6.690577 -5.919613 12.016130 -0.694274 2.085916 0.000146 -0.002694 1064480.000000 1 0 0
14.308177 3.212423 -4.320613 15.287619 0.220854 1.857322 0.006036 0.001174 987973.000000 1 0 0
-2.447423 -4.908977 9.764487 11.199694 1.108301 0.511823 0.000196 -0.004139 973931.000000 1 0 0
3.572277 -1.888177 -4.593113 6.117439 -0.486237 2.420103 -0.000185 -0.000870 -3200250.000000 1 0 0
-3.923923 8.460823 -3.566513 9.985125 -1.136546 1.936046 -0.001468 0.002398 929301.000000 1 0 0
5.790277 0.146023 11.757387 13.106669 0.025213 0.457739 -0.000891 -0.002211 2497800.000000 1 0 0
7.054877 4.765723 12.352487 15.002244 0.594108 0.603462 0.003346 0.002058 993519.000000 1 0 0
1.217277 -14.436877 12.440887 19.096619 -1.486678 0.861275 0.010764 -0.012351 739421.000000 1 0 0
3.057677 8.748223 -9.088313 12.979916 1.234549 2.346450 0.008123 -0.003127 2429970.000000 1 0 0
-4.548723 -8.953477 -4.395113 10.962329 1.100738 1.983327 0.012429 -0.003784 2529910.000000 1 0 0
5.705777 -6.581077 -4.090313 9.622740 -0.856517 2.009833 -0.002389 -0.001889 2212200.000000 1 0 0
-3.139723 3.416123 8.674487 9.837402 -0.827534 0.491160 0.000209 -0.001067 1946410.000000 1 0 0
-3.821523 3.227523 -11.073613 12.150961 -0.701330 2.717315 0.005833 -0.007855 1519470.000000 1 0 0
3.083277 -6.020677 8.576387 10.922892 -1.097504 0.667817 0.000607 0.003869 218908.000000 1 0 0
-5.108323 -8.630777 10.569287 14.570350 1.036374 0.759185 0.007631 -0.007965 1819260.000000 1 0 0
-13.254823 -2.485277 6.597487 15.013120 0.185348 1.115812 0.014975 -0.002519 532653.000000 1 0 0
3.987477 -5.946277 -8.353413 11.001713 -0.980087 2.433007 -0.002551 -0.001862 1850570.000000 1 0 0
2.888777 -0.509577 12.499587 12.839174 -0.174603 0.230507 0.001869 -0.002418 1314890.000000 1 0 0
1.507477 -1.450877 -7.562113 7.846215 -0.766268 2.871669 0.003787 -0.003575 -430335.000000 1 0 0
3.606477 -3.444477 3.508087 6.097358 -0.762427 0.957770 0.002294 -0.001526 3110650.000000 1 0 0
1.496377 0.366923 -11.851713 11.951438 0.240463 3.012319 0.003545 -0.004434 1513580.000000 1 0 0
4.079377 3.553323 -10.626213 11.924086 0.716586 2.670682 0.002249 0.001939 1337080.000000 1 0 0
2.792677 3.257423 3.308787 5.418295 0.862064 0.913891 0.000475 0.001997 -348309.000000 1 0 0
-5.419923 0.892123 2.457087 6.017369 -0.163138 1.150170 0.005811 -0.002752 1257060.000000 1 0 0
-9.518123 -9.206177 5.653487 14.398274 0.768740 1.167285 0.005450 -0.003180 -1200660.000000 1 0 0
-2.976623 3.755023 -0.636213 4.833761 -0.900520 1.702798 0.005774 -0.002548 285954.000000 1 0 0
-15.789823 -6.521577 5.056687 17.816273 0.391683 1.283016 0.023580 -0.013922 -49526.500000 1 0 0
0.993477 6.749623 -8.140213 10.621086 1.424656 2.444045 0.008446 -0.002137 1259160.000000 1 0 0
-1.612823 6.561223 -9.485613 11.645931 -1.329764 2.522664 0.007965 -0.002204 -101718.000000 1 0 0
2.030977 -0.333177 5.319087 5.703382 -0.162599 0.369190 0.001052 -0.000524 2950400.000000 1 0 0
-3.387923 -0.674877 -6.294813 7.180401 0.196627 2.639684 0.015618 -0.008326 839968.000000 1 0 0
1.966177 -1.221777 -2.404313 3.337561 -0.556004 2.375147 0.006932 -0.001802 178382.000000 1 0 0
2.415577 -8.604877 -7.640613 11.758311 -1.297118 2.278125 -0.001086 0.001400 3272440.000000 1 0 0
-2.441023 14.158623 -5.637413 15.433911 -1.400069 1.944710 0.007561 0.003924 941116.000000 1 0 0
6.889277 -5.154377 -8.203613 11.888188 -0.642331 2.332374 -0.000130 -0.004000 3205240.000000 1 0 0
-14.206623 -5.068577 -2.155813 15.236999 0.342698 1.712758 -0.007542 0.000481 354784.000000 1 0 0
-2.765323 6.875723 -6.826813 10.076108 -1.188406 2.315188 0.006430 -0.000834 -2965600.000000 1 0 0
-5.668923 -1.300977 -8.146813 10.009985 0.225587 2.521576 0.014835 -0.011201 275887.000000 1 0 0
-5.748223 -10.626277 3.478087 12.572069 1.074932 1.290488 0.002301 0.001011 -3162400.000000 1 0 0
8.033877 -7.566177 6.691187 12.905898 -0.755426 1.025748 0.004972 -0.001066 219273.000000 1 0 0
8.919777 -5.871677 13.159387 16.947226 -0.582171 0.681717 0.006604 0.000113 409707.000000 1 0 0
-4.810323 9.500223 -0.947613 10.690716 -1.102091 1.659552 -0.003790 0.005173 1616990.000000 1 0 0
2.797077 6.644823 12.142387 14.121433 1.172369 0.535810 -0.004423 0.001912 394531.000000 1 0 0
6.127777 -2.764177 11.010387 12.900347 -0.423760 0.548140 0.002539 -0.004639 326420.000000 1 0 0
-9.730023 -6.469777 -1.030713 11.730036 0.586799 1.658779 0.001436 -0.001594 -85871.400000 1 0 0
0.798177 -13.449877 6.294387 14.871301 -1.511521 1.133759 0.005945 -0.000209 146068.000000 1 0 0
-0.484423 -3.056177 8.696987 9.231060 1.413598 0.341827 -0.001980 -0.001895 818645.000000 1 0 0
4.209377 0.725623 3.448687 5.489884 0.170705 0.891572 -0.000611 0.001487 1449040.000000 1 0 0
-10.224523 5.490223 8.241687 14.234073 -0.492781 0.953281 0.007199 -0.006125 -548750.000000 1 0 0
9.484477 8.101523 -0.076413 12.473805 0.706920 1.576922 0.005061 0.001443 1670840.000000 1 0 0
4.281677 2.840823 8.210687 9.685991 0.585796 0.559187 -0.005312 0.001825 2288470.000000 1 0 0
1.354777 2.656923 -9.828213 10.270756 1.099257 2.846972 0.009121 -0.004048 1242050.000000 1 0 0
-1.445523 -10.176077 3.076787 10.728872 1.429689 1.279936 0.004018 -0.001263 -1130790.000000 1 0 0
-9.843323 9.506123 9.025387 16.392529 -0.767973 0.987738 0.010183 -0.007544 1290460.000000 1 0 0
9.813977 -1.956877 -7.728813 12.644290 -0.196816 2.228434 0.006226 -0.000441 903241.000000 1 0 0
-5.158823 -1.793677 6.743087 8.677555 0.334616 0.680796 0.002797 -0.004716 685146.000000 1 0 0
3.117977 -7.828977 -4.875413 9.735724 -1.191790 2.095291 -0.002668 -0.000223 1972880.000000 1 0 0
-5.059323 4.939223 -13.121313 14.905084 -0.773387 2.647342 0.004737 -0.009758 2197120.000000 1 0 0
-5.659223 9.696023 5.482787 12.494023 -1.042475 1.116497 -0.004181 0.004220 1973460.000000 1 0 0
-0.428723 -1.815977 -9.380513 9.564288 1.338957 2.945243 0.008438 -0.005311 -1138860.000000 1 0 0
-16.839023 0.027323 6.434187 18.026431 -0.001623 1.205816 0.020022 -0.006477 221898.000000 1 0 0
-5.861123 -2.864477 4.192787 7.754834 0.454587 0.999566 0.004700 -0.004587 2912020.000000 1 0 0
1.017777 -5.673577 -5.070213 7.676744 -1.393295 2.292233 0.006463 -0.002900 165590.000000 1 0 0
-7.076123 1.285023 -8.519513 11.149211 -0.179642 2.440497 0.004877 -0.007997 250194.000000 1 0 0
8.003877 1.892523 4.803487 9.524556 0.232186 1.042194 0.001542 0.000147 441197.000000 1 0 0
0.469977 -8.055077 -0.474913 8.082740 -1.512517 1.629587 0.006207 -0.000301 717925.000000 1 0 0
5.518477 5.567123 -3.363413 8.529888 0.789786 1.976112 0.004541 0.000032 174159.000000 1 0 0
-0.739723 -0.373777 -1.199213 1.457742 0.467873 2.536855 0.010403 -0.004313 1987700.000000 1 0 0
9.181977 6.383123 -6.357413 12.863501 0.607483 2.087735 0.003815 -0.001550 -754033.000000 1 0 0
-14.950423 -7.139877 2.538187 16.761127 0.445543 1.418779 -0.005372 -0.004459 -704372.000000 1 0 0
-6.392723 6.737723 8.910387 12.870851 -0.811667 0.806136 0.005477 -0.000328 2225680.000000 1 0 0
-9.420123 -3.196977 -9.636113 13.849695 0.327180 2.340279 0.013660 -0.007354 1537060.000000 1 0 0
14.913477 3.488123 -1.328413 15.373467 0.229760 1.657314 -0.001224 0.002667 2722850.000000 1 0 0
12.041277 1.658223 -5.818013 13.475583 0.136851 2.017223 0.007727 0.002123 -584276.000000 1 0 0
1.774377 -9.308577 12.789787 15.917810 -1.382439 0.637663 0.007526 -0.000567 314180.000000 1 0 0
-3.594423 6.275523 7.875387 10.692230 -1.050641 0.742837 -0.000890 0.000811 2078920.000000 1 0 0
-4.012123 13.131123 -12.516213 18.578996 -1.274262 2.309967 0.007975 -0.000185 1020560.000000 1 0 0
-10.241323 7.748623 6.417287 14.356442 -0.647714 1.107391 0.005621 -0.004558 -155641.000000 1 0 0
7.974077 -9.323377 -7.127113 14.188270 -0.863246 2.097081 0.003723 -0.003474 1031540.000000 1 0 0
5.891677 -3.790777 -0.325513 7.013402 -0.571730 1.617226 0.001606 -0.002595 -1425850.000000 1 0 0
-1.629923 -4.416577 4.136787 6.267042 1.217255 0.849863 0.002874 -0.002192 916584.000000 1 0 0
9.916877 -2.046177 -2.580513 10.449418 -0.203477 1.820331 -0.003523 0.000731 -3379860.000000 1 0 0
13.671077 7.145823 1.466287 15.495520 0.481639 1.476028 0.008310 0.005164 -1164610.000000 1 0 0
5.470477 -3.750877 -3.246413 7.384741 -0.601036 2.025962 0.000592 -0.004145 -1881660.000000 1 0 0
-12.261023 -5.937077 1.940087 13.760287 0.450947 1.429333 -0.007778 0.000758 1544870.000000 1 0 0
3.819677 -5.765677 -0.247413 6.920562 -0.985694 1.606554 0.002371 -0.002291 -349217.000000 1 0 0
-5.288223 3.664123 -8.667113 10.793977 -0.605934 2.503038 0.005590 -0.007685 727588.000000 1 0 0
-1.667123 -9.196777 7.274087 11.843663 1.391471 0.909456 0.002426 -0.000696 1482240.000000 1 0 0
-7.413423 -7.337477 2.686387 10.770984 0.780250 1.318726 0.008850 -0.003769 -4531700.000000 1 0 0
-5.700023 13.099723 -8.708713 16.731249 -1.160381 2.118240 0.006547 -0.002540 1913740.000000 1 0 0
9.171477 -13.979977 -4.184613 17.235624 -0.990184 1.816036 0.014086 -0.005701 496253.000000 1 0 0
-6.594323 -5.267677 -6.635213 10.735901 0.674021 2.237043 0.012546 -0.007747 792318.000000 1 0 0
3.444677 0.362623 -6.225313 7.124031 0.104884 2.633856 0.002007 -0.001560 384663.000000 1 0 0
-3.716523 5.731623 4.968287 8.446770 -0.995530 0.941980 0.000205 0.003041 662469.000000 1 0 0
-2.626423 -10.829577 -2.812513 11.492957 1.332867 1.818023 0.009309 -0.001222 1242100.000000 1 0 0
-12.563523 -0.468077 1.792087 12.699322 0.037240 1.429207 -0.002235 -0.001156 710660.000000 1 0 0
8.370977 -12.091677 -6.095013 15.919519 -0.965262 1.963691 0.009574 -0.006310 223184.000000 1 0 0
6.301877 3.887323 0.983587 7.469429 0.552718 1.438731 0.002366 0.000258 -1200480.000000 1 0 0
3.379377 -4.824077 -10.937613 12.422692 -0.959719 2.647616 -0.002438 -0.001952 64756.900000 1 0 0
-7.658423 4.148723 8.635787 12.265405 -0.496464 0.789674 0.005345 -0.002544 2756790.000000 1 0 0
8.173177 8.751523 4.088187 12.653191 0.819557 1.241798 0.007551 0.000445 1054960.000000 1 0 0
0.325477 10.551823 -6.412413 12.351759 1.539961 2.116652 0.007378 0.002076 1928860.000000 1 0 0
5.433777 8.036823 3.228687 10.224523 0.976284 1.249519 0.007671 0.000567 2688690.000000 1 0 0
8.153377 6.727123 -3.783513 11.227052 0.689843 1.914525 0.004060 -0.000447 1769390.000000 1 0 0
10.510977 2.540623 -8.285713 13.623085 0.237163 2.224601 0.002282 0.002774 -367355.000000 1 0 0
3.331777 -12.496777 -0.258913 12.935888 -1.310246 1.590813 0.001731 -0.002212 -2573490.000000 1 0 0
0.597577 2.226123 5.239587 5.724159 1.308541 0.414429 0.002526 0.001574 845752.000000 1 0 0
-4.838323 13.355023 1.419387 14.275177 -1.223219 1.471201 -0.008763 0.006094 1548060.000000 1 0 0
8.250377 4.084423 -8.099513 12.261865 0.459687 2.292341 0.000339 0.001797 -618272.000000 1 0 0
-13.837523 -0.656577 -3.599213 14.313018 0.047413 1.824989 -0.001365 -0.001957 1485530.000000 1 0 0
-8.671523 0.021423 -0.495113 8.685673 -0.002470 1.627831 0.002869 -0.002600 -826889.000000 1 0 0
1.850977 -3.889977 -1.051013 4.434260 -1.126669 1.810095 0.006934 -0.002531 -1597960.000000 1 0 0
8.139077 -5.615677 -0.303613 9.893057 -0.603959 1.601491 -0.000211 -0.001199 1588250.000000 1 0 0
-2.299623 -1.095177 7.420587 7.845559 0.444461 0.330646 0.000564 -0.002360 914063.000000 1 0 0
-5.804223 8.792223 -11.659213 15.713989 -0.987316 2.406791 0.001638 -0.007582 -1154790.000000 1 0 0
-6.251123 9.160023 -8.904613 14.222331 -0.971956 2.247339 -0.000949 -0.001957 506840.000000 1 0 0
-1.442023 14.040823 -8.439513 16.445349 -1.468453 2.109688 0.021018 -0.002685 -435857.000000 1 0 0
-1.453423 7.209523 9.728687 12.195778 -1.371865 0.647309 -0.003778 -0.001340 589732.000000 1 0 0
10.073277 2.369523 -3.980413 11.087346 0.231029 1.937998 -0.002421 0.005397 -365259.000000 1 0 0
-3.047023 -7.540277 -6.762213 10.576751 1.186761 2.264445 0.011440 -0.004105 2615090.000000 1 0 0
-5.538123 -5.040377 -1.495913 7.636358 0.738380 1.767965 0.012679 -0.005293 338388.000000 1 0 0
5.767977 7.389223 -8.841213 12.885543 0.908001 2.326958 0.006040 -0.002931 105204.000000 1 0 0
-9.511923 5.186323 -7.506813 13.180549 -0.499185 2.176739 0.001648 -0.004135 309811.000000 1 0 0
-0.450523 6.110423 -5.389713 8.160223 -1.497199 2.292262 0.009498 0.000279 -1953790.000000 1 0 0
-8.282723 2.737923 -6.397513 10.817943 -0.319251 2.203565 0.001689 -0.002854 1022530.000000 1 0 0
3.728477 1.351723 -2.030213 4.455385 0.347803 2.043928 0.003731 0.000555 1809940.000000 1 0 0
-6.743723 12.438923 -3.558713 14.590032 -1.074002 1.817196 -0.003455 0.001515 1225220.000000 1 0 0
-6.636923 3.180923 -2.441413 7.754193 -0.446932 1.891096 0.005614 -0.001311 -1203630.000000 1 0 0
12.116477 4.094623 -0.813313 12.815476 0.325889 1.634302 0.000237 0.001883 542130.000000 1 0 0
2.256377 12.321323 -5.508913 13.684091 1.389675 1.985128 0.009858 -0.001596 -546546.000000 1 0 0
-9.253023 -1.427477 -4.311713 10.307618 0.153065 2.002373 0.002086 -0.002304 -1518280.000000 1 0 0
-1.211523 5.724923 3.388887 6.762181 -1.362251 1.045866 0.003595 0.003648 2219440.000000 1 0 0
11.538177 2.681223 11.935487 16.815895 0.228326 0.781619 0.022161 -0.002710 599702.000000 1 0 0
-7.090123 -2.444077 -5.740913 9.444651 0.331960 2.224144 0.013214 -0.007700 367663.000000 1 0 0
7.614377 -7.424377 10.884487 15.217495 -0.772765 0.773798 0.006494 0.001263 718818.000000 1 0 0
-5.443523 -1.947177 -10.907613 12.345018 0.343523 2.654215 0.011515 -0.005969 112358.000000 1 0 0
0.774377 -6.137577 4.508287 7.654682 -1.445290 0.941027 -0.002885 0.001054 504476.000000 1 0 0
-4.757223 -9.289477 7.460087 12.828813 1.097509 0.950212 0.001082 -0.004484 2138970.000000 1 0 0
-8.720623 9.315423 1.625887 12.863510 -0.818365 1.444062 0.000862 -0.003276 236131.000000 1 0 0
-8.136223 7.143123 -9.148213 14.174348 -0.720493 2.272351 0.003021 -0.004822 -381223.000000 1 0 0
-1.208723 -10.731477 -0.042113 10.799416 1.458636 1.574696 0.007313 0.000552 -381109.000000 1 0 0
-3.930823 10.302623 7.757487 13.482359 -1.206308 0.957727 -0.001841 0.004275 400076.000000 1 0 0
-7.383823 12.006023 1.973387 14.232347 -1.019413 1.431693 -0.006784 -0.000915 -396570.000000 1 0 0
-8.281123 -8.242177 -2.793713 12.013131 0.783041 1.805500 0.009703 -0.003155 189988.000000 1 0 0
5.443777 4.624323 -8.114413 10.810308 0.704186 2.419793 0.003528 0.002367 2068820.000000 1 0 0
-8.969023 -0.173277 -10.182513 13.570445 0.019317 2.419380 0.012430 -0.011592 -1741930.000000 1 0 0
-15.192223 -2.314177 -1.477213 15.438304 0.151164 1.666628 -0.005559 -0.003019 -357098.000000 1 0 0
-7.085423 -5.781377 8.747987 12.655229 0.684393 0.807572 0.006741 -0.006217 -1782640.000000 1 0 0
8.192677 3.443423 -0.938413 8.936315 0.397887 1.676001 0.001643 0.003486 787449.000000 1 0 0
11.959777 7.257923 -5.868613 15.170838 0.545449 1.967993 0.004944 -0.004773 1269380.000000 1 0 0
3.754277 13.255123 -9.608713 16.796435 1.294793 2.179822 0.005279 -0.008185 25408.100000 1 0 0
-9.793323 5.383223 -0.514713 11.187189 -0.502600 1.616822 0.001908 -0.002090 1715210.000000 1 0 0
11.254977 -1.292177 -5.217813 12.472762 -0.114309 2.002410 0.005860 -0.000587 -750748.000000 1 0 0
10.664777 1.763223 -1.252613 10.881887 0.163849 1.686162 -0.001729 0.003196 118181.000000 1 0 0
14.680877 5.131123 4.833287 16.285491 0.336239 1.269472 0.016807 -0.004563 3329280.000000 1 0 0
0.829377 -0.668677 10.400087 10.454511 -0.678534 0.102082 0.002122 -0.001947 1153390.000000 1 0 0
-7.921523 1.399523 -12.546613 14.903915 -0.174869 2.571467 0.011985 -0.009792 -464510.000000 1 0 0
3.066377 -11.653577 -7.747813 14.326100 -1.313501 2.142206 -0.000325 0.003224 1386900.000000 1 0 0
2.926577 5.071623 -6.834413 8.999745 1.047423 2.433188 0.006018 0.000385 -1472340.000000 1 0 0
6.571477 8.076223 0.544887 10.426245 0.887768 1.518511 0.011122 -0.001072 219504.000000 1 0 0
-9.031923 -5.370177 6.759887 12.494419 0.536423 0.999132 0.005326 -0.002059 -2526600.000000 1 0 0
-0.280523 -6.892677 -11.790713 13.660476 1.530120 2.612224 -0.001411 0.002088 3200190.000000 1 0 0
6.380177 -13.515477 -4.655013 15.653879 -1.129746 1.872734 0.008513 -0.002808 3415770.000000 1 0 0
-3.272323 -0.364177 10.111187 10.633759 0.110834 0.314803 -0.001088 -0.002427 116198.000000 1 0 0
8.552077 8.493323 6.961787 13.919089 0.781951 1.047011 0.005017 -0.000460 -1334360.000000 1 0 0
-7.918323 5.724023 -2.726313 10.143819 -0.625919 1.842908 0.001993 -0.002399 1546170.000000 1 0 0
-5.372223 5.773023 -6.441013 10.182103 -0.821344 2.255679 0.003840 -0.001556 -548276.000000 1 0 0
3.281477 -13.555477 2.547087 14.177683 -1.333288 1.390161 0.010608 -0.005001 51322.200000 1 0 0
-11.296723 -6.992677 6.493387 14.787750 0.554273 1.116193 0.014954 -0.007055 -1047510.000000 1 0 0
-12.920923 -3.778877 -6.834713 15.097797 0.284527 2.040583 0.007493 -0.005391 -329170.000000 1 0 0
6.092877 0.373323 -7.302513 9.517837 0.061196 2.445331 -0.002249 0.003300 809835.000000 1 0 0
-1.432423 2.144323 -2.621413 3.677195 -0.981866 2.364398 0.009796 -0.002020 4222300.000000 1 0 0
7.562277 0.936823 -4.944213 9.083552 0.123253 2.146355 -0.002597 0.005571 317684.000000 1 0 0
3.777077 -4.394277 10.947187 12.386157 -0.860787 0.486821 0.002340 -0.000535 54766.400000 1 0 0
6.020977 -2.521777 2.089887 6.854134 -0.396635 1.260953 0.002224 -0.003009 -1516760.000000 1 0 0
-6.370223 7.686923 1.048587 10.038330 -0.878793 1.466147 -0.003431 0.001513 747129.000000 1 0 0
6.021277 -3.379277 8.021987 10.584307 -0.511419 0.710688 0.002587 -0.005917 -1245030.000000 1 0 0
6.770677 -2.329077 -7.834013 10.613125 -0.331315 2.401111 -0.001109 -0.001405 917311.000000 1 0 0
12.020377 -8.220977 -5.865913 15.699773 -0.599852 1.953716 0.022910 -0.004109 776128.000000 1 0 0
5.621477 -9.690677 10.024887 15.033582 -1.045144 0.840846 0.004433 0.003556 2996720.000000 1 0 0
-6.572323 7.534023 -4.554413 10.986337 -0.853468 1.998247 -0.000502 0.000783 761748.000000 1 0 0
-1.239723 -7.456977 9.694487 12.293352 1.406053 0.662274 0.003800 -0.003313 7780.550000 1 0 0
10.000977 -9.272177 0.744387 13.658218 -0.747602 1.516268 0.004715 0.000026 590831.000000 1 0 0
11.047177 6.127823 9.763987 15.966395 0.506441 0.912799 0.016829 -0.002943 1759260.000000 1 0 0
-15.273823 -4.307377 -5.004113 16.639841 0.274872 1.876255 0.000588 -0.002136 2426730.000000 1 0 0
-4.666323 -4.593977 7.897887 10.259426 0.777586 0.692241 0.004938 -0.004917 -1191200.000000 1 0 0
2.987377 10.856923 -11.150513 15.847118 1.302283 2.351290 0.004158 -0.003915 -289690.000000 1 0 0
9.907677 -1.375677 1.576387 10.126181 -0.137967 1.414486 -0.002418 -0.001067 -600679.000000 1 0 0
-1.583423 -2.687277 0.629687 3.182011 1.038334 1.371592 0.006891 -0.004265 432427.000000 1 0 0
1.550777 2.964823 0.798787 3.439934 1.088872 1.336447 0.006466 -0.000262 -1311770.000000 1 0 0
-8.876223 -2.421377 4.282487 10.148404 0.266314 1.135161 0.002696 -0.003209 4876950.000000 1 0 0
9.984877 4.895623 -2.685413 11.440119 0.455861 1.807744 -0.000380 0.003037 1748160.000000 1 0 0
2.572677 8.445823 2.431487 9.157659 1.275116 1.302059 0.003788 0.000650 2557420.000000 1 0 0
-8.202123 -0.067777 2.417387 8.551209 0.008263 1.284193 0.003909 -0.005213 -8306.460000 1 0 0
6.905377 2.104723 13.723087 15.506038 0.295850 0.484269 -0.001023 0.001914 -730179.000000 1 0 0
6.930177 4.402923 3.766987 9.033453 0.565990 1.140650 0.000348 0.000649 1016420.000000 1 0 0
-0.329023 3.420223 7.755687 8.482739 -1.474892 0.417044 -0.003748 0.001167 -61705.700000 1 0 0
2.670577 -10.273077 9.238287 14.071746 -1.316467 0.854609 0.002636 -0.000425 2922210.000000 1 0 0
1.373877 -4.533977 6.893387 8.364405 -1.276573 0.602126 -0.003117 0.000700 -585920.000000 1 0 0
-0.216523 10.770623 -2.003913 10.957594 -1.550696 1.754710 0.005908 0.001957 4676090.000000 1 0 0
8.716777 5.577423 8.006887 13.084345 0.569206 0.912280 0.002813 -0.000880 -951775.000000 1 0 0
2.651077 11.418123 -2.865813 12.067088 1.342657 1.810577 0.011931 -0.004368 1232740.000000 1 0 0
1.512977 2.477923 -6.748513 7.346539 1.022632 2.735314 0.007028 -0.002053 1587270.000000 1 0 0
-13.678123 -2.169177 3.618987 14.314100 0.157278 1.315196 -0.003255 -0.002605 262119.000000 1 0 0
-1.013223 -10.730977 -5.247513 11.988198 1.476655 2.023861 0.004846 -0.000796 1682710.000000 1 0 0
-5.663723 2.783623 0.369887 6.321640 -0.456811 1.512252 0.006194 -0.001054 1711640.000000 1 0 0
3.773377 7.291123 -4.967513 9.595574 1.093223 2.114943 0.007703 -0.001360 -2334810.000000 1 0 0
3.031377 9.766423 -6.505913 12.120197 1.269837 2.137416 0.009843 -0.001196 292920.000000 1 0 0
-12.242723 1.702223 -2.613213 12.633713 -0.138154 1.779145 -0.000094 -0.000737 914492.000000 1 0 0
-2.475223 9.682223 -5.870013 11.590048 -1.320511 2.101882 0.001811 0.001189 369979.000000 1 0 0
-1.281323 3.399223 1.681887 4.003155 -1.210321 1.137196 0.004550 0.000122 -1580580.000000 1 0 0
12.905477 3.809823 9.536687 16.492862 0.287056 0.954237 0.030930 -0.005514 1181100.000000 1 0 0
-2.502823 -9.501977 11.573887 15.182442 1.313246 0.703905 -0.000473 -0.009196 1179420.000000 1 0 0
-0.489523 -8.949577 -7.417513 11.634176 1.516153 2.262126 0.004097 0.001906 1720550.000000 1 0 0
2.373277 7.596823 -0.513513 7.975453 1.267999 1.635228 0.007594 0.001064 2552520.000000 1 0 0
-11.855823 -1.350977 -5.627913 13.193145 0.113461 2.011503 0.002632 0.001550 -629283.000000 1 0 0
-6.115923 -7.067677 -10.948613 14.395440 0.857465 2.434973 0.005280 -0.004990 2053480.000000 1 0 0
-4.761323 -2.302577 -1.365913 5.462397 0.450442 1.823536 0.010449 -0.006309 -812470.000000 1 0 0
-10.571223 3.817323 4.444787 12.086308 -0.346534 1.194204 0.005200 -0.004401 2749550.000000 1 0 0
6.807077 9.337223 -3.662713 12.121695 0.940854 1.877756 0.010520 -0.002220 245041.000000 1 0 0
1.288977 -2.765977 -11.493313 11.891524 -1.134707 2.882072 0.003325 -0.002851 -2060080.000000 1 0 0
1.260477 8.797423 7.472987 11.611589 1.428487 0.871630 -0.006249 0.008804 303699.000000 1 0 0
10.268777 0.517223 10.419887 14.638625 0.050326 0.778728 0.008001 -0.004652 824490.000000 1 0 0
-5.301023 -0.889577 -3.930513 6.658913 0.166263 2.202181 0.012444 -0.008856 -732477.000000 1 0 0
11.760577 5.698623 5.427187 14.150612 0.451214 1.177181 0.010163 -0.003806 1715110.000000 1 0 0
9.988977 -3.483877 3.687687 11.203397 -0.335581 1.235385 0.006264 -0.006577 -1634640.000000 1 0 0
7.367477 -1.637377 -3.431313 8.290635 -0.218690 1.997506 -0.003084 0.002142 -3396050.000000 1 0 0
2.333377 9.238023 10.401487 14.105908 1.323387 0.741605 -0.007790 0.004287 1030620.000000 1 0 0
2.370377 -10.919977 6.375487 12.865124 -1.357044 1.052313 -0.000550 0.002714 -108701.000000 1 0 0
5.917777 -7.510777 -1.316713 9.652232 -0.903474 1.707638 -0.002604 -0.001428 2333850.000000 1 0 0
-0.259123 -5.578677 -2.272013 6.029165 1.524381 1.957176 0.011463 -0.002222 1474540.000000 1 0 0
7.701477 -5.056577 2.638687 9.583548 -0.580982 1.291858 0.001811 -0.003997 1685250.000000 1 0 0
-2.706123 -12.478177 4.674787 13.597119 1.357235 1.219828 0.003060 0.000673 -443307.000000 1 0 0
4.845477 -10.242377 -1.091613 11.383170 -1.128915 1.666841 -0.000078 -0.001881 1741770.000000 1 0 0
0.924877 0.177823 1.094687 1.444077 0.189949 0.710473 0.005495 -0.001458 -2520560.000000 1 0 0
-1.658123 8.565623 2.492687 9.073740 -1.379583 1.292504 -0.001974 0.004842 132480.000000 1 0 0
-7.580823 0.572223 -3.077513 8.201671 -0.075340 1.955441 0.005343 -0.002345 -1992270.000000 1 0 0
4.539977 -6.267577 12.953587 15.089378 -0.943908 0.538542 0.009785 0.002197 -1021590.000000 1 0 0
-5.131923 13.021123 8.450387 16.349169 -1.195367 1.027606 -0.003385 0.000468 986996.000000 1 0 0
0.669677 6.159323 8.122987 10.216097 1.462496 0.651597 -0.007134 0.003819 873504.000000 1 0 0
8.007077 -0.530977 -0.688013 8.054103 -0.066217 1.656324 -0.000163 0.000899 4905190.000000 1 0 0
2.423477 -9.214477 -2.327513 9.808014 -1.313613 1.810389 -0.000615 0.000033 1644840.000000 1 0 0
-7.136323 12.180323 4.872887 14.934269 -1.040817 1.238421 -0.007787 0.002356 -59167.600000 1 0 0
-14.985623 0.236923 0.217387 14.989072 -0.015809 1.556293 -0.002681 -0.001824 397744.000000 1 0 0
6.905277 -0.495477 3.949987 7.970618 -0.071631 1.052307 0.000746 -0.000315 1152320.000000 1 0 0
-4.131723 -4.979977 5.188887 8.294327 0.878226 0.894903 0.004217 -0.003600 -1084290.000000 1 0 0
2.934977 5.104623 6.783787 8.982819 1.048989 0.714844 -0.004472 0.002362 -892320.000000 1 0 0
2.066777 -7.091777 1.868787 7.619530 -1.287218 1.323006 0.000615 -0.000111 2182930.000000 1 0 0
-2.376423 6.399823 -1.808013 7.062155 -1.215250 1.829693 0.001593 0.002374 680176.000000 1 0 0
2.700377 -3.847377 -6.483413 8.008058 -0.958813 2.514286 -0.000423 -0.003458 -1001490.000000 1 0 0
-5.079323 0.907523 -12.128413 13.180346 -0.176804 2.739360 0.007864 -0.007425 490354.000000 1 0 0
-7.534723 6.397223 -11.956013 15.512664 -0.703932 2.450776 0.008271 -0.009219 3506350.000000 1 0 0
-0.987823 11.239423 -9.101013 14.495822 -1.483132 2.249567 0.008077 0.001039 715228.000000 1 0 0
4.698777 5.925823 -0.562113 7.583525 0.900380 1.644987 0.007691 0.001794 -354883.000000 1 0 0
-2.643923 13.417023 3.501687 14.116255 -1.376232 1.320119 -0.005487 0.008016 182095.000000 1 0 0
1.551877 -7.774277 10.271987 12.975416 -1.373769 0.657292 -0.002245 0.000773 203348.000000 1 0 0
12.983777 -0.244077 -0.988713 13.023655 -0.018796 1.646786 0.005509 0.001324 481463.000000 1 0 0
-1.054123 3.047523 -5.487213 6.364596 -1.237783 2.610287 0.010713 -0.002879 567339.000000 1 0 0
6.544877 1.057823 7.313187 9.871024 0.160240 0.736425 0.000975 -0.001073 1796770.000000 1 0 0
5.534077 -6.049377 6.931587 10.736287 -0.829855 0.868958 0.000513 0.001229 926416.000000 1 0 0
12.229077 -4.834677 2.629487 13.410392 -0.376485 1.373439 0.005211 -0.003366 -1427930.000000 1 0 0
4.465277 -9.078877 13.888687 17.183141 -1.113705 0.629581 0.009460 0.000130 -493963.000000 1 0 0
-2.761823 -4.370777 -1.369713 5.348595 1.007262 1.829770 0.014103 -0.006279 2103390.000000 1 0 0
-9.323023 -5.222177 -7.537813 13.077023 0.510593 2.185133 0.015111 -0.005531 839549.000000 1 0 0
-10.540123 -3.077477 7.844387 13.494424 0.284080 0.950464 0.007559 -0.002820 113400.000000 1 0 0
12.006277 -0.554377 1.728187 12.142679 -0.046141 1.427988 0.001212 -0.002594 1737630.000000 1 0 0
-7.656923 4.737923 4.394987 10.019596 -0.554111 1.116713 0.004456 -0.002734 1670160.000000 1 0 0
-1.065323 10.565723 6.890487 12.658919 -1.470308 0.995220 -0.006088 0.009065 2484680.000000 1 0 0
7.308077 -10.017577 1.901387 12.544924 -0.940528 1.418644 0.002554 -0.000901 4827880.000000 1 0 0
-4.283623 -1.724077 1.679587 4.913541 0.382643 1.221935 0.004674 -0.002958 1701400.000000 1 0 0
6.636877 -15.017777 -0.880713 16.442549 -1.154670 1.624385 0.012409 -0.001698 -3033910.000000 1 0 0
-10.519923 1.636923 2.412787 10.916494 -0.154364 1.347934 -0.000043 -0.001258 -663442.000000 1 0 0
-2.973323 8.311923 -11.453513 14.460694 -1.227263 2.484947 0.004912 -0.002800 -1046150.000000 1 0 0
-1.200323 -5.191877 -6.883313 8.704962 1.343596 2.482804 0.005565 -0.002911 -350535.000000 1 0 0
12.815777 -0.481577 6.433387 14.347980 -0.037559 1.105841 0.012351 -0.006250 2616220.000000 1 0 0
5.953677 -13.269977 3.743387 15.018372 -1.149059 1.318887 0.005903 -0.003305 1167490.000000 1 0 0
-5.602523 3.381323 -5.029113 8.253096 -0.543015 2.226051 0.008008 -0.003778 321857.000000 1 0 0
-4.444223 8.104823 3.319087 9.821182 -1.069226 1.226056 -0.001910 0.004430 -1430520.000000 1 0 0
14.090477 6.259823 -3.971613 15.921703 0.418070 1.822905 0.007000 0.001118 -448496.000000 1 0 0
-6.708923 -8.435777 5.337087 12.027322 0.898931 1.111021 0.010351 -0.002575 813836.000000 1 0 0
1.626377 11.365823 2.562387 11.764049 1.428668 1.351221 0.001647 0.002911 1552710.000000 1 0 0
-7.335623 7.301423 6.004187 11.965467 -0.783062 1.045126 0.002421 -0.000164 -1525970.000000 1 0 0
-17.368423 -4.181877 5.308087 18.636684 0.236277 1.281978 0.026218 -0.014290 410504.000000 1 0 0
7.492277 -13.072777 -8.624113 17.361078 -1.050376 2.090646 0.018261 -0.007490 -241923.000000 1 0 0
-2.273923 12.881923 -2.846313 13.387164 -1.396076 1.785047 0.001292 0.003557 706553.000000 1 0 0
-5.460523 13.926023 -5.819713 16.050560 -1.197111 1.941838 0.007721 0.002778 2889430.000000 1 0 0
-5.606323 2.380823 7.397187 9.582148 -0.401589 0.688853 0.004217 -0.003094 1918640.000000 1 0 0
-7.450923 5.011923 1.405987 9.089138 -0.592139 1.415484 0.003808 0.000199 1978460.000000 1 0 0
10.753277 -5.708277 -4.988013 13.156659 -0.488015 1.959646 0.005457 -0.002447 2074100.000000 1 0 0
-9.547723 -0.664977 6.775987 11.726688 0.069535 0.954734 0.004376 -0.004504 468883.000000 1 0 0
-11.283023 -4.615677 -2.525213 12.449409 0.388311 1.775052 -0.002498 -0.001050 -36186.500000 1 0 0
6.608377 -4.243277 13.546987 15.658764 -0.570806 0.525372 0.005547 -0.004711 -892234.000000 1 0 0
0.250277 10.216223 -11.720913 15.550359 1.546303 2.424530 0.002767 0.000151 -897808.000000 1 0 0
-11.802923 -3.225377 1.504287 12.327811 0.266757 1.448468 -0.005922 -0.000728 3709090.000000 1 0 0
5.227377 5.984423 5.419587 9.618249 0.852818 0.972217 0.000444 0.002975 -4442840.000000 1 0 0
-7.180423 0.000723 8.139087 10.853719 -0.000101 0.722902 0.003484 -0.004970 427158.000000 1 0 0
1.713977 2.157823 9.672387 10.057285 0.899536 0.277551 -0.003035 -0.000620 2881520.000000 1 0 0
10.499277 -4.913577 -2.059313 11.773650 -0.437715 1.746609 -0.001804 0.000502 606787.000000 1 0 0
-9.736123 -2.358477 -1.685513 10.158517 0.237662 1.737488 0.001855 -0.001515 56298.300000 1 0 0
-1.979923 -5.294177 -9.884013 11.386049 1.212919 2.622120 0.009772 -0.004996 482125.000000 1 0 0
7.629077 -1.649377 6.569687 10.202159 -0.212919 0.871145 0.001864 -0.005283 2202780.000000 1 0 0
1.536977 -11.834177 -2.590813 12.211566 -1.441643 1.784582 0.004622 0.000618 -3533380.000000 1 0 0
-0.777023 -1.439877 4.807387 5.078187 1.075938 0.328045 0.003955 -0.003663 1966780.000000 1 0 0
7.513677 1.546723 9.906787 12.529650 0.203018 0.658898 0.002052 -0.004179 765088.000000 1 0 0
-3.822123 10.721923 -8.153113 14.001482 -1.228363 2.192356 0.004834 0.002680 3383850.000000 1 0 0
-9.580323 12.676823 6.339487 17.107704 -0.923635 1.191181 0.004430 0.002382 1202000.000000 1 0 0
-2.456423 -2.437777 -11.040813 11.570494 0.781588 2.837842 0.012650 -0.005983 -2917130.000000 1 0 0
1.149577 -11.822977 11.219187 16.339353 -1.473869 0.813945 0.002241 0.000419 709524.000000 1 0 0
1.422777 3.388823 -1.970513 4.170292 1.173301 2.062935 0.006727 0.000715 3641050.000000 1 0 0
-1.838323 -9.449677 -12.038013 15.413941 1.378658 2.467033 -0.002113 0.003216 1850120.000000 1 0 0
1.319577 -2.742877 1.598187 3.437857 -1.122389 1.087299 0.007823 -0.003253 1300190.000000 1 0 0
-1.069123 -2.224077 -6.589713 7.036609 1.122704 2.783280 0.011136 -0.007156 456727.000000 1 0 0
1.815077 5.905223 4.007087 7.363621 1.272594 0.995393 -0.001873 0.004226 576295.000000 1 0 0
-10.968423 8.581823 3.595587 14.383401 -0.663924 1.318135 0.002622 -0.006441 1780690.000000 1 0 0
-16.471223 -1.641377 3.994787 17.028025 0.099323 1.333989 0.015637 -0.009218 -399891.000000 1 0 0
-12.320323 0.290723 6.834687 14.092119 -0.023593 1.064432 0.001647 -0.000339 200127.000000 1 0 0
-5.190623 2.980623 4.609187 7.554554 -0.521257 0.914584 0.002851 -0.000829 2915250.000000 1 0 0
5.226277 -5.939477 3.992587 8.861834 -0.849185 1.103429 -0.001809 -0.001475 1347240.000000 1 0 0
9.937477 3.476223 6.226187 12.231230 0.336505 1.036727 0.003572 -0.000307 357472.000000 1 0 0
-12.275023 5.850123 3.145687 13.956915 -0.444743 1.343458 0.002127 -0.004483 807049.000000 1 0 0
-4.897023 12.343123 -1.395413 13.352179 -1.193103 1.675496 -0.007002 0.006061 748364.000000 1 0 0
-1.769523 -12.098577 10.346287 16.017254 1.425567 0.868534 0.009756 -0.011696 2254300.000000 1 0 0
5.193177 6.447823 13.875687 16.157914 0.892762 0.537962 0.000188 0.001872 -12878.500000 1 0 0
12.854877 -3.691277 -5.948013 14.637358 -0.279626 1.989261 0.005128 -0.002006 1042350.000000 1 0 0
3.568777 -2.490577 6.452687 7.783079 -0.609302 0.593361 -0.000566 0.000492 1071930.000000 1 0 0
7.219677 -11.900877 -0.598413 13.932434 -1.025501 1.613761 0.003958 -0.000973 -1682740.000000 1 0 0
-6.176123 -6.604777 -4.001613 9.888401 0.818924 1.987422 0.012081 -0.005202 -478234.000000 1 0 0
0.307977 -8.950177 5.074687 10.293346 -1.536400 1.055254 0.001314 0.000632 709106.000000 1 0 0
-10.314823 2.452623 -0.398613 10.609893 -0.233442 1.608375 0.000877 -0.000394 -1325060.000000 1 0 0
-1.934023 8.943923 -0.358713 9.157668 -1.357836 1.609977 0.000979 0.004133 1217390.000000 1 0 0
-3.520723 2.190923 -6.643813 7.831723 -0.556651 2.583602 0.012875 -0.005749 -89802.500000 1 0 0
-12.798523 3.030523 6.391087 14.623004 -0.232505 1.118472 0.005753 -0.007718 76241.300000 1 0 0
11.363877 1.714523 7.906987 13.949829 0.149745 0.968160 0.011777 -0.008309 -1909730.000000 1 0 0
6.029477 2.663723 -3.191513 7.323644 0.416000 2.021703 0.001432 0.002900 739562.000000 1 0 0
10.519677 -2.422477 6.435487 12.567716 -0.226335 1.033209 0.009975 -0.009695 3410010.000000 1 0 0
-0.962423 11.049023 4.043487 11.804955 -1.483911 1.221194 0.000376 0.005722 1748110.000000 1 0 0
-1.609123 -12.191477 7.466287 14.386342 1.439567 1.025134 0.001716 -0.000690 -1039810.000000 1 0 0
8.184877 8.600223 -7.825013 14.219243 0.810138 2.153534 0.010123 -0.007478 1489710.000000 1 0 0
-4.720223 -5.981377 -8.603013 11.492137 0.902704 2.416744 0.013779 -0.005733 1593320.000000 1 0 0
-8.503323 -5.274177 -11.628613 15.341059 0.555176 2.431047 0.014913 -0.005699 935108.000000 1 0 0
6.069977 -0.671577 -9.955513 11.679378 -0.110191 2.591356 -0.000619 0.001647 -1564720.000000 1 0 0
-11.281723 -5.474977 -5.373313 13.642769 0.451816 1.975621 0.003557 -0.005197 -1475740.000000 1 0 0
3.929577 8.930423 -2.744213 10.135321 1.156272 1.844976 0.012966 -0.003730 3035930.000000 1 0 0
11.686577 -10.466877 -3.994313 16.189074 -0.730397 1.820100 0.020575 -0.007036 -1082140.000000 1 0 0
3.899577 -11.266077 3.992387 12.572603 -1.237569 1.247655 0.001703 0.001649 689485.000000 1 0 0
-0.981523 0.915423 3.171487 3.443794 -0.750567 0.400341 0.005131 -0.001649 -2641290.000000 1 0 0
-10.567923 -5.043877 4.517687 12.551143 0.445308 1.202590 0.003146 -0.001678 4003850.000000 1 0 0
4.569577 -8.589377 2.878187 10.146053 -1.081875 1.283171 -0.002677 0.000833 5103270.000000 1 0 0
-3.725223 -5.708377 2.687187 7.326925 0.992603 1.195278 0.005813 -0.003750 786916.000000 1 0 0
9.934177 5.071023 12.199787 16.529911 0.471982 0.740631 0.019227 -0.001333 949437.000000 1 0 0
1.606577 -12.414377 -5.264913 13.580028 -1.442099 1.968926 0.003447 0.000178 3219170.000000 1 0 0
9.795877 -10.787777 -1.695813 14.670076 -0.833550 1.686652 0.005890 -0.002837 932934.000000 1 0 0
9.633577 -4.483477 -9.205913 14.059026 -0.435587 2.284720 0.012060 -0.004861 2050410.000000 1 0 0
-7.465723 -2.972877 -13.107613 15.374802 0.378957 2.591620 0.010032 -0.005223 1193480.000000 1 0 0
0.480877 6.184223 -2.585113 6.720020 1.493194 1.965666 0.007750 0.000274 1444110.000000 1 0 0
-6.053623 -9.458477 0.999387 11.274215 1.001468 1.482036 0.006411 0.000356 -416438.000000 1 0 0
-8.965523 -4.058277 0.585387 9.858646 0.425059 1.511383 -0.000555 -0.002242 2959540.000000 1 0 0
1.787477 3.852323 12.157587 12.877981 1.136361 0.336064 -0.002200 -0.003390 -462034.000000 1 0 0
6.633077 4.297823 9.566987 12.409522 0.574924 0.690482 -0.001610 0.003326 2049140.000000 1 0 0
-8.264323 9.806123 -3.621113 13.325597 -0.870514 1.845998 -0.002993 0.001682 2281750.000000 1 0 0
16.375177 2.089623 -6.029613 17.574674 0.126923 1.920996 0.002353 0.001017 -2701250.000000 1 0 0
-10.958723 2.661423 -5.123313 12.386489 -0.238246 1.997224 -0.000026 0.000584 2172160.000000 1 0 0
-13.780923 3.987123 1.483887 14.422653 -0.281632 1.467728 0.003992 0.000515 -1518140.000000 1 0 0
-17.499123 10.436623 3.385187 20.654343 -0.537774 1.406156 0.043083 -0.012053 -193896.000000 1 0 0
-14.415023 2.849223 -1.167513 14.740219 -0.195141 1.650085 0.005500 -0.000450 811432.000000 1 0 0
-14.448023 5.104123 5.071287 16.140489 -0.339589 1.251186 0.005444 -0.008582 -196673.000000 1 0 0
-17.599423 7.537223 3.145387 19.402136 -0.404633 1.407962 0.033705 -0.006274 -1230030.000000 1 0 0
-14.842623 12.482623 -3.559013 19.717655 -0.699245 1.752290 0.033286 -0.010006 -1106560.000000 1 0 0
-8.530323 12.474323 -9.667913 17.940002 -0.971005 2.139930 0.009441 -0.010769 1914790.000000 1 0 0
-12.456523 8.760523 -9.864013 18.144158 -0.612929 2.145572 0.007764 -0.003382 -223317.000000 1 0 0
-14.018823 -3.397777 -12.219113 18.904471 0.237787 2.273602 0.021950 0.000712 -59046.700000 1 0 0
-14.681123 5.588723 -7.553313 17.430483 -0.363736 2.018991 0.013549 0.002236 67056.100000 1 0 0
-10.910523 13.579523 -8.521213 19.392113 -0.893953 2.025745 0.016319 -0.007450 1725810.000000 1 0 0
-10.850223 13.541623 3.815287 17.766804 -0.895294 1.354368 0.009183 -0.004113 -624824.000000 1 0 0
-15.245323 3.233423 3.033887 15.877008 -0.208996 1.378527 0.002793 -0.000536 238893.000000 1 0 0
-11.096523 9.508623 -12.419013 19.177555 -0.708487 2.275201 0.011312 -0.012425 771404.000000 1 0 0
-13.077223 11.532223 -9.036613 19.638389 -0.722700 2.048961 0.019085 -0.014600 701169.000000 1 0 0
-8.862323 14.575423 -3.536813 17.421044 -1.024492 1.775237 0.002692 -0.005923 -286921.000000 1 0 0
-16.722023 8.138723 -3.991813 19.021026 -0.452957 1.782231 0.029127 0.001483 -1414310.000000 1 0 0
-17.012023 6.734923 0.314187 18.299367 -0.376960 1.553626 0.026045 0.001513 5852.440000 1 0 0
-10.467123 2.816823 -12.452313 16.509248 -0.262883 2.425327 0.011956 -0.010658 1371370.000000 1 0 0
-16.916923 0.795423 2.392987 17.103841 -0.046985 1.430426 0.010280 -0.004466 946090.000000 1 0 0
-12.716023 1.229123 -6.972613 14.554220 -0.096360 2.070401 0.005226 -0.003707 2440480.000000 1 0 0
-12.314423 9.004623 -5.488313 16.212644 -0.631377 1.916140 0.010816 0.000040 193582.000000 1 0 0
-9.592623 13.849323 1.199887 16.889698 -0.965026 1.499694 0.009596 -0.006123 2081000.000000 1 0 0
-12.240923 11.101923 2.634087 16.734136 -0.736642 1.412731 0.011533 -0.005021 -541416.000000 1 0 0
-12.521623 6.860223 -3.625513 14.730854 -0.501207 1.819468 0.001091 0.001103 -623737.000000 1 0 0
-15.859123 3.523623 -9.370513 18.754579 -0.218631 2.093978 0.018541 0.000617 -2032680.000000 1 0 0
-15.052223 5.797223 -4.654913 16.788253 -0.367631 1.851750 0.012751 0.004158 1695120.000000 1 0 0
-17.879623 5.191023 7.566087 20.096600 -0.282563 1.184796 0.011031 -0.009344 -604217.000000 1 0 0
-15.742423 10.138823 -2.130413 18.845643 -0.572177 1.684084 0.030163 0.000410 -903961.000000 1 0 0
-8.835123 9.868523 -8.395813 15.682373 -0.840593 2.135738 0.003599 -0.007233 66547.400000 1 0 0
-17.076523 4.209223 -1.232913 17.630805 -0.241674 1.640783 0.010698 0.001926 -293365.000000 1 0 0
-10.185623 5.454423 -4.619213 12.443262 -0.491644 1.951121 -0.000232 0.000193 1108480.000000 1 0 0
-18.155423 2.699423 6.147587 19.357146 -0.147603 1.247612 0.016727 -0.010487 -570680.000000 1 0 0
-10.308523 10.048023 -5.773613 15.510094 -0.772602 1.952227 -0.000048 -0.004936 98746.400000 1 0 0
-15.360423 0.358523 -5.851613 16.441183 -0.023336 1.934686 0.008076 -0.002323 -361825.000000 1 0 0
-16.453723 -4.224577 -8.776013 19.120420 0.251326 2.047650 0.012409 -0.011376 -627953.000000 1 0 0
-9.919923 9.547523 -1.162713 13.817090 -0.766271 1.655046 -0.000637 -0.000897 2107050.000000 1 0 0
-17.369523 -3.114277 -3.197013 17.933766 0.177410 1.750022 0.009948 -0.005397 -866648.000000 1 0 0
-11.912323 5.122823 -11.535913 17.355807 -0.406135 2.297851 0.009379 -0.005788 229175.000000 1 0 0
-16.384723 7.071023 5.849287 18.779581 -0.407416 1.254056 0.020640 -0.008924 -491174.000000 1 0 0
-12.121023 6.019923 -8.739613 16.110230 -0.460965 2.144193 0.007319 0.001941 58468.400000 1 0 0
-14.612223 8.368723 -0.116113 16.839420 -0.520120 1.577692 0.023403 -0.003007 1651570.000000 1 0 0
-14.882923 11.768823 3.820387 19.354636 -0.669081 1.372103 0.024398 -0.014019 1409420.000000 1 0 0
-17.205023 3.983923 -4.066213 18.122322 -0.227546 1.797099 0.008734 0.001274 12194.700000 1 0 0
-13.813923 13.322323 -0.879513 19.211515 -0.767284 1.616593 0.028954 -0.012654 -779579.000000 1 0 0
-10.107423 6.907823 -13.129813 17.951880 -0.599526 2.391153 0.006049 -0.011669 1549410.000000 1 0 0
-15.893423 -1.261377 -8.262713 17.957294 0.079199 2.048939 0.009005 -0.006358 -723074.000000 1 0 0
-11.459023 11.811223 -0.166313 16.457274 -0.800532 1.580902 0.013617 -0.006423 858381.000000 1 0 0
-11.977723 7.361523 -0.873213 14.086177 -0.551087 1.632827 0.001002 -0.000210 2060590.000000 1 0 0
-11.479223 0.117823 -11.642813 16.350582 -0.010264 2.363243 0.014475 -0.009640 460086.000000 1 0 0
-19.140423 -1.315677 -4.665713 19.744763 0.068630 1.809354 0.019586 -0.011103 -527566.000000 1 0 0
-17.895123 1.327623 -5.036313 18.637662 -0.074053 1.844420 0.005816 -0.003273 -1037700.000000 1 0 0
-13.356523 -0.176777 -9.471413 16.374847 0.013234 2.187577 0.012318 -0.007545 5579.130000 1 0 0
-6.097423 11.197523 -13.197713 18.350551 -1.072160 2.373446 0.000421 -0.009121 141203.000000 1 0 0
16.428677 5.924123 7.084287 18.846320 0.346084 1.185431 0.026070 -0.007322 -194802.000000 1 0 0
14.976177 10.220023 -5.563313 18.965368 0.598829 1.868516 0.033691 -0.006149 1111920.000000 1 0 0
2.381377 16.893923 4.397687 17.618605 1.430758 1.318524 0.014081 -0.004923 1232800.000000 1 0 0
-3.880523 18.206223 -6.091213 19.586421 -1.360796 1.887033 0.023563 -0.008591 2595860.000000 1 0 0
5.341177 14.608823 5.679787 16.559162 1.220281 1.220688 0.005094 -0.002994 -888885.000000 1 0 0
9.861677 5.937523 15.024987 18.927680 0.541948 0.653748 0.033566 -0.006837 -1544700.000000 1 0 0
4.709477 12.735823 -1.153713 13.627597 1.216608 1.655558 0.009065 -0.004670 1111790.000000 1 0 0
3.393077 13.757923 13.047887 19.262419 1.328995 0.826607 0.008925 -0.004037 -118584.000000 1 0 0
-0.768623 12.335323 9.208987 15.412865 -1.508566 0.930433 -0.002217 0.006664 276310.000000 1 0 0
-7.717323 13.946123 8.292887 17.967287 -1.065372 1.091049 -0.000575 -0.005099 1551480.000000 1 0 0
11.523677 12.875423 -4.238213 17.791405 0.840743 1.811326 0.040981 -0.007411 2035390.000000 1 0 0
-5.782923 16.089123 0.716587 17.111855 -1.225745 1.528907 -0.007132 0.001397 1953170.000000 1 0 0
3.213677 10.648823 6.718787 12.994893 1.277701 1.027415 -0.002542 0.008528 710460.000000 1 0 0
-1.202923 15.595923 2.364787 15.819989 -1.493818 1.420753 0.003378 0.000659 -1210210.000000 1 0 0
9.889377 8.860323 9.507587 16.330931 0.730569 0.949386 0.021074 -0.006195 2261160.000000 1 0 0
7.218177 12.269623 6.205787 15.529247 1.039027 1.159695 0.009093 -0.005568 1131680.000000 1 0 0
11.961477 14.044723 -1.596313 18.517003 0.865333 1.657111 0.032083 -0.001138 1138470.000000 1 0 0
9.675277 15.912023 -1.234413 18.663527 1.024480 1.636985 0.021961 -0.005176 1205600.000000 1 0 0
10.129577 13.679223 3.033587 17.289654 0.933398 1.394427 0.024143 -0.007099 3818860.000000 1 0 0
-5.971923 14.573523 6.238487 16.940194 -1.181888 1.193654 -0.014163 0.003949 513775.000000 1 0 0
-0.892023 18.268723 -6.305413 19.346839 -1.522007 1.902775 0.036485 -0.004217 1152370.000000 1 0 0
-3.551623 15.772423 5.340787 17.026666 -1.349311 1.251739 -0.006180 0.004107 1620140.000000 1 0 0
6.962777 12.338523 10.662887 17.731795 1.057031 0.925616 0.008990 -0.001732 2098800.000000 1 0 0
1.447477 14.605523 6.230087 15.944606 1.472014 1.169368 0.003542 0.003946 -235588.000000 1 0 0
17.418877 7.603323 -1.588313 19.072245 0.411570 1.654172 0.006061 0.008340 208917.000000 1 0 0
2.105677 16.224123 -3.406713 16.711126 1.441731 1.776094 0.009434 -0.005457 862485.000000 1 0 0
6.748577 11.223423 0.550887 13.107707 1.029426 1.528756 0.016028 -0.003160 1230090.000000 1 0 0
12.749377 9.329423 3.290087 16.137206 0.631722 1.365475 0.017295 0.001254 -989103.000000 1 0 0
6.088477 14.209523 -3.469113 15.843448 1.165983 1.791547 0.009702 -0.003973 628307.000000 1 0 0
3.160477 16.527623 1.580987 16.901197 1.381853 1.477116 0.011549 -0.010321 -1240190.000000 1 0 0
2.984377 18.844323 -2.515013 19.244228 1.413731 1.701860 0.013469 -0.014582 -556062.000000 1 0 0
3.908877 11.901523 10.776087 16.524213 1.253461 0.860394 0.002609 -0.001632 1659510.000000 1 0 0
7.975877 11.507323 3.349487 14.396255 0.964707 1.335981 0.008841 -0.001034 506877.000000 1 0 0
0.702777 12.600823 0.055087 12.620526 1.515082 1.566431 0.008387 -0.000900 -86774.900000 1 0 0
12.056177 9.873023 -4.685613 16.272153 0.686170 1.862885 0.020444 -0.003400 207630.000000 1 0 0
-1.357023 16.428423 9.942287 19.250550 -1.488381 1.028076 0.011039 -0.000227 -1437750.000000 1 0 0
8.261077 14.682223 -8.074413 18.681788 1.058287 2.017736 0.030726 -0.008981 1537240.000000 1 0 0
14.493777 7.630823 -1.343113 16.434810 0.484614 1.652611 0.006721 0.005539 -431764.000000 1 0 0
12.488277 8.357223 6.073287 16.207562 0.589758 1.186702 0.021101 -0.007687 -1009640.000000 1 0 0
-3.038823 14.125623 10.315687 17.753340 -1.358897 0.950771 0.007623 -0.003512 2133400.000000 1 0 0
-4.623623 17.179223 -3.311713 18.096161 -1.307886 1.754840 0.015158 -0.005674 871360.000000 1 0 0
-7.053023 16.428723 -1.933613 17.982962 -1.165280 1.678529 0.003039 -0.003171 -225363.000000 1 0 0
8.384277 11.229323 -1.893413 14.141386 0.929448 1.705091 0.017999 -0.003860 1268550.000000 1 0 0
8.648277 12.908923 -4.247113 16.108102 0.980527 1.837614 0.029076 -0.006964 4083760.000000 1 0 0
2.613077 14.751123 -7.358513 16.690462 1.395471 2.027377 0.000939 -0.003360 -1265480.000000 1 0 0
11.245477 11.414523 9.749587 18.756506 0.792858 1.024182 0.027380 -0.008371 397318.000000 1 0 0
8.574077 15.676123 1.530887 17.933188 1.070297 1.485326 0.012195 -0.006724 -317299.000000 1 0 0
6.028377 9.957223 7.690987 13.951305 1.026396 0.986906 0.001407 0.005641 2276130.000000 1 0 0
14.428577 11.473123 2.646987 18.623182 0.671787 1.428179 0.025260 0.000350 2890410.000000 1 0 0
12.244677 12.691223 1.102987 17.669630 0.803304 1.508333 0.027658 0.002985 612145.000000 1 0 0
5.218177 15.978323 8.219087 18.710681 1.255137 1.116008 0.018554 -0.003565 87819.300000 1 0 0
11.502577 14.915123 5.180687 19.534833 0.913863 1.302382 0.033125 -0.015316 -160123.000000 1 0 0
6.000177 16.982223 1.870487 18.107919 1.231166 1.467315 -0.001239 -0.007461 1761520.000000 1 0 0
-0.658323 16.267423 -4.271513 16.831763 -1.530350 1.827379 0.014265 -0.002150 1457100.000000 1 0 0
16.142777 6.488923 2.544287 17.583195 0.382204 1.425587 0.005458 -0.000451 -420113.000000 1 0 0
7.567377 16.723223 -3.133513 18.621232 1.145859 1.739877 0.008803 -0.004322 -426780.000000 1 0 0
14.820077 8.247223 7.608287 18.588636 0.507812 1.149112 0.036299 -0.008799 -419807.000000 1 0 0
2.109477 12.912523 8.617687 15.666770 1.408860 0.988358 0.003819 0.003862 2085040.000000 1 0 0
16.094377 7.553423 -5.832913 18.711121 0.438804 1.887815 0.006405 0.003821 -215355.000000 1 0 0
-2.953423 17.061223 0.563887 17.324145 -1.399388 1.538241 -0.000333 -0.000412 1121860.000000 1 0 0
-2.987423 18.596723 4.411987 19.344985 -1.411515 1.340703 -0.002465 -0.000137 1328770.000000 1 0 0
-0.793323 19.100223 0.741787 19.131078 -1.529285 1.532013 0.013910 -0.010876 214690.000000 1 0 0
7.043877 16.718323 -6.133713 19.150482 1.172041 1.896832 0.018714 -0.002943 139578.000000 1 0 0
11.066077 10.130023 0.796387 15.023637 0.741265 1.517763 0.011373 0.001574 -2039640.000000 1 0 0
9.110777 8.712423 14.386587 19.128159 0.763052 0.719530 0.032273 -0.001713 791314.000000 1 0 0
6.377177 12.300923 -8.410813 16.208728 1.092513 2.116367 0.023542 -0.010531 2404500.000000 1 0 0
6.335777 9.053923 13.343487 17.325249 0.960216 0.691680 0.008951 -0.003975 1917990.000000 1 0 0
16.722877 9.510823 2.947087 19.462674 0.517110 1.418789 0.024024 0.000968 -1594260.000000 1 0 0
2.622177 14.762723 -0.766013 15.013347 1.395008 1.621841 0.007773 -0.003501 1589220.000000 1 0 0
9.031477 12.938523 8.380287 17.866230 0.961394 1.082573 0.020687 -0.006808 887495.000000 1 0 0
7.142877 9.414523 10.485487 15.798714 0.921745 0.845052 0.002809 -0.001867 1637040.000000 1 0 0
4.407577 15.790823 -5.402813 17.261727 1.298601 1.889140 0.010373 -0.005472 1968370.000000 1 0 0
0.375977 16.372223 -8.199213 18.314424 1.547836 2.034978 0.014269 -0.001550 193762.000000 1 0 0
-2.438623 15.763523 -2.093013 16.087767 -1.417313 1.701266 0.005636 0.000156 -139921.000000 1 0 0
13.245677 10.516623 7.712787 18.588556 0.671051 1.142940 0.039305 -0.012488 1883300.000000 1 0 0
-1.073023 15.929223 7.012487 17.437503 -1.503536 1.156933 0.006661 0.002120 3528680.000000 1 0 0
13.245677 13.238123 6.685587 19.884490 0.785113 1.227895 0.036380 -0.018659 -213840.000000 1 0 0
5.301077 17.426123 4.615787 18.790334 1.275488 1.322609 0.003019 -0.010440 1792470.000000 1 0 0
10.919877 9.553123 -1.921013 14.635442 0.718738 1.702434 0.010792 0.000982 -344358.000000 1 0 0
3.160377 12.744923 4.698987 13.946380 1.327728 1.227139 0.002825 0.004288 1458270.000000 1 0 0
-0.193723 18.066523 3.488987 18.401354 -1.560074 1.380037 0.007793 -0.003025 2213410.000000 1 0 0
-7.687223 15.944323 -5.984013 18.684840 -1.121547 1.896801 0.018338 -0.009506 1242880.000000 1 0 0
-12.448623 -9.079177 8.252187 17.478509 0.630142 1.079087 0.024284 -0.010569 -1038010.000000 1 0 0
-13.259923 -11.676277 6.934487 18.980203 0.721975 1.196784 0.024001 -0.007954 -1536510.000000 1 0 0
-6.597223 -12.101277 12.337587 18.498116 1.071671 0.840669 0.020212 -0.019630 -1029670.000000 1 0 0
-1.786823 -10.580677 14.343287 17.912938 1.403499 0.642296 0.007933 -0.011275 -518780.000000 1 0 0
-8.899023 2.870523 11.037487 14.465775 -0.312029 0.702844 0.006085 -0.002970 2679320.000000 1 0 0
0.570377 9.984123 15.245787 18.232994 1.513730 0.580543 -0.006659 -0.008660 -14868.200000 1 0 0
1.070377 -6.710277 16.680587 18.011538 -1.412616 0.386841 0.007339 -0.009544 2289130.000000 1 0 0
6.047877 2.374423 17.937787 19.078231 0.374115 0.347513 0.007004 0.006951 2909270.000000 1 0 0
-5.085423 -2.952877 17.564287 18.522559 0.526074 0.323072 0.014149 -0.016167 70980.200000 1 0 0
-4.335923 8.089623 12.987287 15.903203 -1.078776 0.615221 0.002496 -0.003146 1088490.000000 1 0 0
0.068777 -4.931377 18.765387 19.402653 -1.556850 0.257005 0.012121 -0.012287 592953.000000 1 0 0
-11.788623 2.214523 11.195287 16.407626 -0.185689 0.819862 0.012199 -0.005206 540250.000000 1 0 0
-3.388423 -6.022677 14.323787 15.903614 1.058323 0.449505 0.010524 -0.013528 -953120.000000 1 0 0
-7.512923 -2.165177 14.549887 16.517603 0.280590 0.493096 0.009236 -0.006048 455276.000000 1 0 0
-6.177023 -1.004977 10.620987 12.327650 0.161283 0.532465 0.004212 -0.004322 2302750.000000 1 0 0
-3.881523 2.442323 11.162087 12.067450 -0.561627 0.389827 0.000327 -0.002867 321650.000000 1 0 0
-6.458823 6.228223 13.561887 16.261363 -0.767224 0.584488 -0.001220 -0.002529 863332.000000 1 0 0
-9.040923 5.488923 12.495687 16.370973 -0.545638 0.702417 0.008084 -0.004593 -1205160.000000 1 0 0
-12.233323 -2.112677 15.845687 20.129665 0.171012 0.664572 0.013283 0.001495 112463.000000 1 0 0
-3.496823 -7.527177 16.905987 18.833443 1.135901 0.456371 0.018875 -0.009397 -576271.000000 1 0 0
-0.544523 -5.359577 14.530587 15.497081 1.469546 0.355037 0.009057 -0.004838 968668.000000 1 0 0
-14.326323 -2.208577 13.801987 20.015399 0.152958 0.809903 0.032490 0.001061 -1192950.000000 1 0 0
-6.462423 1.556623 12.201587 13.894773 -0.236370 0.498831 0.003847 -0.004148 2326560.000000 1 0 0
2.176777 -2.225177 14.684287 15.010598 -0.796393 0.208892 0.007989 -0.004436 519400.000000 1 0 0
-12.621123 4.076923 9.053887 16.058858 -0.312443 0.971824 0.006789 -0.005337 -355873.000000 1 0 0
-9.040323 -3.065777 12.520187 15.744253 0.326952 0.651422 0.001296 0.000655 154090.000000 1 0 0
-7.059623 -7.141577 15.190287 18.209482 0.791169 0.584122 0.018540 -0.014258 -956221.000000 1 0 0
-3.193523 5.983123 19.455987 20.604169 -1.080511 0.335413 0.020437 -0.012523 -661624.000000 1 0 0
0.560777 5.553923 16.197487 17.132400 1.470168 0.331884 0.000192 -0.008280 384308.000000 1 0 0
3.416177 1.556223 16.816287 17.230195 0.427456 0.219632 0.006029 -0.002483 1682560.000000 1 0 0
-11.685223 11.388023 7.780187 18.076582 -0.772518 1.125859 0.010569 -0.010988 -641881.000000 1 0 0
0.699177 -9.416377 15.467387 18.121729 -1.496681 0.548079 0.000284 -0.000489 2606790.000000 1 0 0
-2.495723 -3.653977 18.668187 19.185447 0.971561 0.232736 0.021014 -0.028052 1701130.000000 1 0 0
-12.851123 2.453023 13.883587 19.076758 -0.188611 0.755724 0.007653 -0.007446 -2111240.000000 1 0 0
-5.408623 -0.575777 15.778287 16.689490 0.106056 0.331969 0.010630 -0.004569 1107640.000000 1 0 0
-4.397523 -5.894077 11.676887 13.799567 0.929801 0.562025 0.007730 -0.007906 462359.000000 1 0 0
2.413477 1.900023 14.035987 14.368155 0.666921 0.215444 0.005624 -0.002149 -503034.000000 1 0 0
0.073577 3.354823 14.396387 14.782294 1.548868 0.229000 0.007375 -0.007701 202927.000000 1 0 0
-13.041823 7.104623 12.031287 19.113259 -0.498809 0.889921 0.013436 -0.010226 434157.000000 1 0 0
0.793377 1.544223 18.224087 18.306595 1.096193 0.094978 0.018118 -0.010156 1760600.000000 1 0 0
-1.940123 6.393323 12.444787 14.124850 -1.276167 0.492706 -0.000638 -0.004681 2065960.000000 1 0 0
-13.440723 -2.570577 11.032587 17.577795 0.188971 0.892274 0.025993 -0.001982 -152035.000000 1 0 0
-2.528323 3.657823 13.509287 14.222269 -0.965994 0.317981 0.000462 -0.005218 -277294.000000 1 0 0
3.468277 6.162923 16.310187 17.777310 1.058206 0.409118 -0.001065 -0.002524 703932.000000 1 0 0
-3.684223 12.266423 12.419387 17.840398 -1.279018 0.800792 0.006550 -0.006356 -44858.600000 1 0 0
3.806477 -1.398477 17.081587 17.556356 -0.352086 0.233089 0.015399 -0.004008 -106067.000000 1 0 0
-15.860823 0.322023 9.180487 18.328959 -0.020300 1.046189 0.017860 -0.002624 455190.000000 1 0 0
-4.727923 4.609123 15.203787 16.575657 -0.772675 0.409711 0.003887 -0.006251 158477.000000 1 0 0
-7.950823 -8.087177 10.499787 15.455211 0.793900 0.823894 0.012191 -0.009101 2372970.000000 1 0 0
-2.723623 -0.425677 14.719787 14.975695 0.155037 0.185133 0.007690 -0.006075 1753150.000000 1 0 0
-1.943523 1.051323 17.136187 17.278063 -0.495858 0.128239 0.011480 -0.011797 170859.000000 1 0 0
-0.753223 -2.497477 14.490987 14.723907 1.277878 0.178107 0.010961 -0.007126 1959670.000000 1 0 0
5.053377 -8.166777 16.547987 19.132923 -1.016688 0.525853 0.011335 0.001344 -378053.000000 1 0 0
-4.489723 9.961123 10.600387 15.223330 -1.147340 0.800532 0.001707 -0.001463 -1434400.000000 1 0 0
-6.245123 2.134823 15.198287 16.569459 -0.329385 0.409683 0.006364 -0.004367 615761.000000 1 0 0
-4.908523 6.833623 17.269387 19.209990 -0.947900 0.453362 0.008066 -0.005701 -518440.000000 1 0 0
-4.044123 9.094923 15.702187 18.591160 -1.152394 0.564969 0.007858 -0.006835 -1566470.000000 1 0 0
-4.542423 -9.777777 18.412987 21.337212 1.135896 0.529714 0.027004 -0.017957 731080.000000 1 0 0
-6.802623 -4.048177 11.087587 13.623436 0.536802 0.620030 0.008016 -0.003114 659567.000000 1 0 0
-2.341723 -0.840677 19.543187 19.700928 0.344669 0.126629 0.021489 -0.014031 -1073090.000000 1 0 0
-5.693723 -4.414677 15.183487 16.806134 0.659534 0.443048 0.014931 -0.010112 2185450.000000 1 0 0
-12.976223 0.083923 9.744887 16.228131 -0.006467 0.926678 0.013471 -0.000957 278884.000000 1 0 0
-14.549223 8.800823 10.244887 19.851753 -0.544015 1.028540 0.015425 -0.008792 -1282230.000000 1 0 0
-8.344923 10.481423 12.898087 18.597275 -0.898399 0.804395 0.010643 -0.009162 -940969.000000 1 0 0
-10.435023 7.188523 10.668387 16.564391 -0.603227 0.871008 0.011877 -0.005770 -1174040.000000 1 0 0
-9.824123 -6.555377 14.783687 18.922044 0.588423 0.674059 0.015128 -0.009769 87118.200000 1 0 0
-0.787623 -13.409177 14.473887 19.746387 1.512126 0.748090 0.011853 -0.016342 515725.000000 1 0 0
3.879977 -5.514677 17.046887 18.332000 -0.957677 0.376661 0.018671 -0.006617 1811030.000000 1 0 0
-7.299023 9.216423 10.366387 15.674188 -0.900978 0.848157 0.007976 -0.005611 1717090.000000 1 0 0
-10.335923 -6.716677 11.794887 17.060610 0.576261 0.807438 0.015835 -0.008959 2704890.000000 1 0 0
-10.976323 -3.874177 10.722087 15.825677 0.339307 0.826422 0.014003 0.000864 -1421050.000000 1 0 0
-10.072623 -10.087677 9.807187 17.303176 0.786145 0.968198 0.018545 -0.016710 1622090.000000 1 0 0
-9.856723 -3.628177 15.206187 18.480984 0.352700 0.604473 0.009611 -0.002441 2076670.000000 1 0 0
5.711777 -3.263277 16.092487 17.385095 -0.519068 0.388050 0.009397 -0.000355 786932.000000 1 0 0
-11.175023 0.563123 15.295387 18.951177 -0.050349 0.631582 0.006235 -0.006562 -268917.000000 1 0 0
-3.328823 3.208223 18.689087 19.252421 -0.766952 0.242505 0.024097 -0.015648 -1210390.000000 1 0 0
0.549377 7.386423 13.929487 15.776301 1.496556 0.488714 -0.006538 -0.005353 30454.700000 1 0 0
-13.046223 -7.471677 12.145087 19.327003 0.520110 0.891302 0.013165 -0.007446 -1746640.000000 1 0 0
-1.506723 -1.101977 12.158687 12.301148 0.631473 0.152339 0.004588 -0.006373 -113434.000000 1 0 0
2.048577 -4.833277 13.229887 14.233311 -1.169901 0.377737 0.006549 -0.004847 2583770.000000 1 0 0
-14.648323 -4.087477 8.814287 17.577613 0.272119 1.045523 0.028357 -0.010057 -709173.000000 1 0 0
8.130177 1.008723 16.222187 18.173515 0.123441 0.467655 0.008485 0.004357 1171350.000000 1 0 0
-1.263323 11.248223 13.421987 17.557569 -1.458952 0.700599 0.000545 -0.005401 -616145.000000 1 0 0
2.663977 -12.262177 -13.823713 18.669569 -1.356869 2.404522 0.013415 -0.000424 40484.900000 1 0 0
0.708177 -10.594777 -14.104213 17.654451 -1.504054 2.496267 0.008581 0.002004 -986271.000000 1 0 0
3.158977 -14.281377 -12.404113 19.178083 -1.353106 2.274159 0.014975 -0.004310 -399738.000000 1 0 0
-5.114223 -10.171977 -15.990713 19.629755 1.104931 2.522863 0.009741 -0.013145 -797407.000000 1 0 0
-1.193923 -12.303477 -15.025213 19.456568 1.474060 2.453162 0.018177 -0.002381 118014.000000 1 0 0
5.577877 -14.954577 -12.080913 20.017506 -1.213791 2.218701 0.018859 -0.005350 -372403.000000 1 0 0
1.711277 -11.927577 -16.194813 20.185825 -1.428296 2.501912 0.009438 0.003587 -675973.000000 1 0 0
1.130477 -14.433077 -14.001713 20.140498 -1.492630 2.339497 0.021700 0.006623 -228865.000000 1 0 0
-1.308323 -10.739377 -15.908413 19.238595 1.449569 2.544371 0.021290 -0.007058 -470676.000000 1 0 0
-5.783923 -5.396577 -15.025013 16.980219 0.750767 2.656977 0.011449 -0.009265 -331987.000000 1 0 0
-6.520123 -7.606077 -16.349113 19.174408 0.862122 2.591838 0.012139 -0.010596 589433.000000 1 0 0
4.853977 -12.495877 -11.386913 17.588912 -1.200290 2.274953 0.012958 -0.005560 274320.000000 1 0 0
-1.872423 -15.664777 -13.135713 20.528959 1.451830 2.265116 0.019267 0.002698 495927.000000 1 0 0
15.908177 -7.483477 -8.890613 19.700648 -0.439702 2.039001 0.043137 0.001064 561648.000000 1 0 0
19.233877 -3.797477 -4.229713 20.056254 -0.194930 1.783284 0.033198 -0.012299 1014610.000000 1 0 0
14.845777 -11.792777 -8.593513 20.816223 -0.671288 1.996353 0.035552 -0.016287 -92967.900000 1 0 0
17.934677 -3.466477 -6.492313 19.386057 -0.190929 1.912291 0.058456 -0.006234 740514.000000 1 0 0
9.514077 -8.962077 -15.403613 20.201678 -0.755531 2.437952 0.035838 -0.019151 104170.000000 1 0 0
1.278477 1.873923 -15.329113 15.496057 0.972085 2.994673 0.006137 -0.008093 1459.840000 1 0 0
4.787077 -4.497977 -13.797613 15.281427 -0.754272 2.697267 0.002671 -0.006308 -374777.000000 1 0 0
13.179877 -5.585777 -8.760213 16.782473 -0.400863 2.119974 0.030163 -0.001735 -2892350.000000 1 0 0
2.944577 0.903623 -12.206613 12.589220 0.297754 2.894421 0.002865 -0.002657 -2817650.000000 1 0 0
0.682077 6.299823 -13.049813 14.506916 1.462947 2.689553 0.008344 -0.001801 45280.800000 1 0 0
3.226377 -1.342277 -16.796513 17.156167 -0.394250 2.936472 0.010542 -0.010826 -839571.000000 1 0 0
13.189977 4.565823 -11.425413 18.037802 0.333248 2.256755 0.002413 0.000061 210968.000000 1 0 0
-3.717923 9.428323 -16.718713 19.550744 -1.195183 2.596626 0.005557 0.003416 249579.000000 1 0 0
-0.153223 -5.044877 -17.690613 18.396523 1.540434 2.863672 0.014953 -0.013579 588698.000000 1 0 0
-0.618623 -8.620977 -17.478413 19.498689 1.499161 2.682352 0.019837 -0.012655 -2734320.000000 1 0 0
5.564877 -10.168277 -12.215813 16.840065 -1.070045 2.382414 0.010264 -0.005094 666496.000000 1 0 0
1.666877 -9.746077 -17.977313 20.517024 -1.401405 2.638746 0.025153 -0.012557 -671985.000000 1 0 0
10.985377 8.792023 -14.611213 20.284618 0.674947 2.375045 0.043312 -0.018460 -947227.000000 1 0 0
10.913077 -3.710877 -12.915613 17.311237 -0.327774 2.412956 0.022839 -0.007579 606536.000000 1 0 0
5.024877 7.351623 -12.292713 15.179148 0.971226 2.514679 0.000779 -0.001385 -701813.000000 1 0 0
9.636077 -5.958777 -12.558013 16.913447 -0.553826 2.407572 0.018900 -0.008104 -1309250.000000 1 0 0
-3.324823 0.205623 -15.913213 16.258139 -0.061766 2.935238 0.011415 -0.009192 -1179980.000000 1 0 0
-0.746623 10.681623 -12.892913 16.759526 -1.501012 2.448523 -0.001454 0.002037 -1337280.000000 1 0 0
6.694277 -5.525277 -12.355913 15.100020 -0.690022 2.529194 0.003896 -0.003721 -343579.000000 1 0 0
18.033877 -6.035377 -8.257813 20.732534 -0.322952 1.980461 0.056387 -0.011648 1439910.000000 1 0 0
13.299077 4.718523 -13.982513 19.865562 0.340945 2.351609 0.026844 -0.009327 509820.000000 1 0 0
14.213977 0.750823 -11.498213 18.297808 0.052774 2.250282 0.017118 -0.003447 606000.000000 1 0 0
15.156477 6.185823 -11.116713 19.787989 0.387496 2.167345 0.011197 -0.007240 89370.200000 1 0 0
8.195077 1.498323 -11.805413 14.448946 0.180835 2.527060 0.000331 0.004506 774287.000000 1 0 0
9.950677 1.243323 -8.969713 13.454277 0.124304 2.300543 0.002298 0.002259 98691.700000 1 0 0
-0.134323 -5.849677 -13.023013 14.277102 1.547838 2.719322 0.001941 -0.003222 493022.000000 1 0 0
10.654677 -5.703977 -8.942513 15.034162 -0.491526 2.207829 0.016928 -0.004479 -449339.000000 1 0 0
10.187577 8.493023 -11.322513 17.438964 0.694934 2.277414 0.016958 -0.015879 634095.000000 1 0 0
8.526277 8.116823 -14.697313 18.830593 0.760801 2.466265 0.029340 -0.003314 190829.000000 1 0 0
8.743077 10.561523 -10.684713 17.382470 0.879319 2.232781 0.029823 -0.016110 -887887.000000 1 0 0
7.028377 1.656523 -17.957113 19.354587 0.231466 2.759258 0.023406 -0.002079 -1651660.000000 1 0 0
12.175377 2.660923 -12.902413 17.938578 0.215166 2.373526 0.014123 -0.003570 -230088.000000 1 0 0
2.606677 -1.069577 -19.298213 19.502815 -0.389373 2.996615 0.020368 -0.018901 -838919.000000 1 0 0
10.275677 -2.281077 -15.523013 18.755180 -0.218446 2.545731 0.030768 -0.008460 74463.700000 1 0 0
8.227377 -0.876177 -13.085813 15.482116 -0.106095 2.577775 0.008573 -0.003119 823601.000000 1 0 0
0.597877 4.355523 -14.753613 15.394711 1.434380 2.851985 0.003681 -0.002239 -935208.000000 1 0 0
4.024377 -7.631477 -15.638713 17.860694 -1.085517 2.637460 0.012219 -0.012585 -569566.000000 1 0 0
11.395277 -5.815577 -14.395713 19.259019 -0.471893 2.415055 0.034398 -0.008501 -1360660.000000 1 0 0
-5.799223 4.351423 -16.862813 18.355390 -0.643722 2.735533 0.013110 -0.005901 -2170.820000 1 0 0
11.535377 7.984823 -9.193013 16.773008 0.605474 2.150868 0.016179 -0.011234 148448.000000 1 0 0
9.620877 6.107823 -13.466913 17.641557 0.565652 2.439300 0.020035 -0.002636 90685.900000 1 0 0
12.103677 0.616023 -10.210913 15.847436 0.050852 2.270938 0.011856 0.001276 -1371720.000000 1 0 0
5.532577 -7.327177 -13.581613 16.393814 -0.924054 2.547148 0.005747 -0.006287 -982025.000000 1 0 0
8.635677 -10.199077 -10.693213 17.115516 -0.868214 2.245630 0.021295 -0.007282 -89448.200000 1 0 0
10.045477 4.813623 -16.088213 19.568167 0.446856 2.535996 0.033232 -0.001181 449105.000000 1 0 0
9.924877 -0.347577 -11.148213 14.930058 -0.035006 2.413877 0.007084 0.000091 -909953.000000 1 0 0
-1.598823 5.454923 -14.111813 15.213668 -1.285684 2.758665 0.003265 -0.005307 390260.000000 1 0 0
1.372077 -0.767077 -15.005513 15.087625 -0.509775 3.037216 0.003744 -0.007455 -26368.000000 1 0 0
11.518977 -10.411577 -14.303313 21.110957 -0.734945 2.315196 0.046224 -0.011355 841726.000000 1 0 0
9.384777 -7.794977 -10.731113 16.247846 -0.693122 2.292233 0.019626 -0.006062 -433678.000000 1 0 0
14.069177 -0.994977 -9.694013 17.114485 -0.070603 2.172953 0.017767 -0.000891 908482.000000 1 0 0
3.982777 11.037123 -12.347013 17.033183 1.224486 2.381656 0.009763 -0.009032 -665279.000000 1 0 0
-1.174823 2.924623 -16.689913 16.984900 -1.188825 2.954948 0.004993 -0.009553 -856864.000000 1 0 0
5.830377 -0.620277 -17.687313 18.633815 -0.105988 2.821496 -0.001963 -0.002700 -240456.000000 1 0 0
6.483177 -6.770777 -15.943913 18.495496 -0.807094 2.610083 0.015683 -0.009161 -233204.000000 1 0 0
-1.698923 -5.421577 -19.756613 20.557325 1.267125 2.861572 0.028570 -0.024996 -165870.000000 1 0 0
0.042077 -4.307177 -15.272713 15.868500 -1.561028 2.866701 0.002835 -0.008525 393656.000000 1 0 0
0.413077 0.691123 -13.043013 13.067841 1.032078 3.079940 0.004853 -0.006736 1681400.000000 1 0 0
15.777577 0.646223 -13.623813 20.855642 0.040935 2.282657 0.026079 -0.009513 654975.000000 1 0 0
-0.147823 6.941523 -16.425113 17.832300 -1.549504 2.741661 0.001051 0.007062 -360391.000000 1 0 0
-5.000923 -0.615077 -18.248313 18.931151 0.122378 2.872191 0.014027 -0.009812 -306593.000000 1 0 0
10.451677 -8.410777 -13.088913 18.742955 -0.677618 2.343869 0.026364 -0.013668 1282830.000000 1 0 0
4.151577 8.483923 -17.285613 19.697841 1.115708 2.641501 0.010696 -0.009348 -615337.000000 1 0 0
9.174477 0.372623 -17.100413 19.409637 0.040593 2.648825 0.021166 -0.002263 265.287000 1 0 0
3.352177 4.874823 -18.616713 19.534149 0.968406 2.833898 0.012855 0.001141 -164694.000000 1 0 0
1.512777 -8.043177 -15.963113 17.938845 -1.384886 2.667841 0.014010 -0.011619 -407360.000000 1 0 0
4.511077 7.702023 -14.863113 17.337333 1.040958 2.600778 0.001975 -0.000392 574481.000000 1 0 0
-5.695423 -0.423177 -15.096313 16.140495 0.074165 2.779921 0.008904 -0.007939 -484199.000000 1 0 0
2.890277 3.312323 -13.818213 14.500627 0.853337 2.833583 0.002862 -0.001768 818867.000000 1 0 0
-2.648423 -10.167277 -18.082913 20.913618 1.315974 2.615245 0.035232 -0.007378 -39015.500000 1 0 0
6.081877 -9.246277 -15.119013 18.736793 -0.988982 2.509708 0.000918 -0.012919 -15449.000000 1 0 0
-1.804523 5.256823 -17.431113 18.295742 -1.240127 2.832933 0.005913 0.001478 413597.000000 1 0 0
9.989377 -12.333077 -11.552213 19.630233 -0.890008 2.199987 0.029794 -0.008609 -161708.000000 1 0 0
10.875677 3.648623 -9.364613 14.808402 0.323686 2.255425 0.003089 0.000195 -2571840.000000 1 0 0
4.812677 -0.460777 -10.921913 11.944135 -0.095451 2.724860 0.000903 -0.002370 308654.000000 1 0 0
6.454477 9.542023 -11.479413 16.263068 0.976067 2.354430 0.012722 -0.010323 262182.000000 1 0 0
10.853177 -9.654577 -9.479813 17.345580 -0.727018 2.149007 0.026650 -0.006762 115573.000000 1 0 0
3.247677 -2.490777 -14.403013 14.973248 -0.654256 2.864725 0.006264 -0.007743 -221195.000000 1 0 0
9.226577 -4.611377 -14.816613 18.053436 -0.463482 2.533447 0.022100 -0.007652 411435.000000 1 0 0
-4.046123 -6.536177 -16.565513 18.262227 1.016498 2.707119 0.000766 -0.008482 -614635.000000 1 0 0
5.954677 -7.770277 -11.063913 14.773136 -0.916919 2.417229 0.004472 -0.003264 668204.000000 1 0 0
5.503477 6.368023 -16.937013 18.913021 0.858095 2.680397 0.014452 -0.007272 -455999.000000 1 0 0
8.963477 1.155623 -19.626413 21.607301 0.128218 2.710054 0.033207 -0.010551 415395.000000 1 0 0
13.221977 5.936023 -9.360213 17.253134 0.421981 2.144233 0.002438 -0.003597 631793.000000 1 0 0
-1.695123 -1.098877 -17.430813 17.547485 0.575150 3.026213 0.011974 -0.011071 811517.000000 1 0 0
-0.385023 -0.594477 -19.508213 19.521066 0.996063 3.105302 0.022456 -0.021799 -428818.000000 1 0 0
2.853577 6.352823 -16.496113 17.905949 1.148622 2.742115 -0.000751 0.000675 133166.000000 1 0 0
7.626077 3.660323 -15.679313 17.815607 0.447499 2.646845 0.013148 -0.002681 180047.000000 1 0 0
3.003977 -9.946477 -15.068613 18.303535 -1.277493 2.537931 0.012913 0.000730 -501565.000000 1 0 0
9.078777 -10.594977 -13.334713 19.300060 -0.862313 2.333551 0.029101 -0.009124 93257.300000 1 0 0
3.797077 0.091323 -14.790713 15.270603 0.024046 2.890229 0.006189 -0.006378 -2180910.000000 1 0 0
-1.004723 -3.038377 -19.005013 19.272564 1.251438 2.974771 0.024072 -0.014321 371527.000000 1 0 0
9.173677 10.095923 -13.178513 18.967267 0.833222 2.338942 0.033778 -0.016167 -87026.200000 1 0 0
4.606177 2.041323 -10.623013 11.757222 0.417160 2.698735 0.000774 0.002684 151513.000000 1 0 0
-0.393123 6.927423 -19.030813 20.256248 -1.514108 2.791974 0.020769 0.000761 145707.000000 1 0 0
0.869677 -1.946677 -17.577513 17.706351 -1.150649 3.020885 0.016475 -0.018539 -1456750.000000 1 0 0
-4.550123 -2.405677 -13.994813 14.911261 0.486348 2.789172 0.010113 -0.009121 -4617010.000000 1 0 0
10.213677 6.053123 -10.496113 15.847015 0.534997 2.294734 0.008977 -0.000705 89772.200000 1 0 0
8.091877 5.253723 -17.673913 20.135721 0.575854 2.641920 0.030536 -0.010689 -533156.000000 1 0 0
11.509377 0.327723 -13.636113 17.847037 0.028467 2.440371 0.020247 0.001879 632008.000000 1 0 0
6.852877 12.041023 -11.772813 18.180959 1.053387 2.275142 0.030599 -0.016410 -53535.000000 1 0 0
-0.885823 0.348223 -15.249113 15.278789 -0.374550 3.079256 0.005129 -0.009569 534137.000000 1 0 0
-4.113723 -3.009177 -18.759913 19.439964 0.631554 2.876308 0.009268 -0.011633 -654258.000000 1 0 0
5.675277 -12.114377 -13.836513 19.246194 -1.132686 2.373047 0.013615 -0.009703 108216.000000 1 0 0
2.163577 -4.845277 -14.050013 15.018676 -1.150829 2.780476 0.000535 -0.004734 -371411.000000 1 0 0
11.743377 2.148923 -15.452913 19.527347 0.180988 2.483806 0.034822 -0.007869 547335.000000 1 0 0
9.687877 2.269223 -13.790513 17.005369 0.230085 2.516571 0.014564 -0.003224 961232.000000 1 0 0
-2.244923 -4.172877 -16.488613 17.155959 1.077229 2.861758 0.003558 -0.012237 -749654.000000 1 0 0
-2.911323 10.096423 -14.345413 17.782138 -1.290060 2.509396 0.005184 -0.002656 121884.000000 1 0 0
3.558977 5.719123 -13.551213 15.133078 1.014145 2.680282 -0.000880 0.000228 -508918.000000 1 0 0
-5.219023 -2.483977 -16.511913 17.494331 0.444221 2.804873 0.012937 -0.009604 344854.000000 1 0 0
-4.234223 6.127823 -13.749713 15.637566 -0.966148 2.645133 0.006030 -0.004706 419156.000000 1 0 0
5.884477 -1.166777 -14.132313 15.352873 -0.195742 2.740153 0.006336 -0.002155 -2666210.000000 1 0 0
6.707377 -3.019677 -12.635513 14.620655 -0.423022 2.614401 0.005245 -0.005924 777172.000000 1 0 0
2.949677 -3.448777 -18.243113 18.799091 -0.863244 2.897783 0.013041 -0.018503 -724753.000000 1 0 0
7.421877 -12.018177 -11.980413 18.521640 -1.017569 2.274221 0.021939 -0.009223 954071.000000 1 0 0
-6.105023 -5.454177 -17.607013 19.417164 0.729152 2.706369 0.031261 -0.007974 380525.000000 1 0 0
0.445877 8.642423 -12.001313 14.796006 1.519250 2.516858 0.003479 -0.000270 -108342.000000 1 0 0
0.418177 8.501323 -14.495913 16.810082 1.521646 2.610659 0.000507 0.004143 79258.200000 1 0 0
7.615577 -2.610077 -15.097813 17.110040 -0.330182 2.651725 0.010252 -0.011995 412060.000000 1 0 0
14.359777 1.473223 -8.975313 16.997936 0.102236 2.127068 0.009945 0.002648 407189.000000 1 0 0
2.804077 10.950523 -14.666513 18.517111 1.320115 2.484959 0.000291 0.007478 -280741.000000 1 0 0
6.067577 0.969323 -15.606613 16.772640 0.158416 2.766518 0.008123 -0.005099 712410.000000 1 0 0
16.603877 -5.402977 -10.315413 20.280252 -0.314598 2.104405 0.059790 -0.013383 244327.000000 1 0 0
4.874977 -4.267877 -11.178613 12.920587 -0.719094 2.616302 -0.001659 -0.001573 -245467.000000 1 0 0
8.813577 -3.528377 -17.184513 19.632526 -0.380795 2.636869 0.019672 -0.011309 519430.000000 1 0 0
13.342777 -9.706377 -8.930913 18.761787 -0.628921 2.066915 0.039611 -0.006060 628585.000000 1 0 0
2.327977 -7.809077 -13.612713 15.865280 -1.281073 2.602197 0.003441 -0.002815 255942.000000 1 0 0
-6.731423 -2.510677 -18.692413 20.025530 0.356997 2.774652 0.012671 0.000795 151080.000000 1 0 0
-1.482423 -6.475077 -15.729613 17.074687 1.345732 2.742012 0.003356 -0.008408 1120590.000000 1 0 0
1.345377 -7.396477 -18.476713 19.947602 -1.390869 2.755168 0.020110 -0.011053 -62188.300000 1 0 0
5.388977 10.893723 -14.492113 18.913900 1.111409 2.443726 0.019648 -0.017422 -481522.000000 1 0 0
5.405677 -3.499177 -17.390613 18.544514 -0.574486 2.786967 0.013141 -0.017132 -1023730.000000 1 0 0
4.203877 13.094123 -13.978013 19.609015 1.260141 2.364330 0.002054 -0.010999 96730.300000 1 0 0
9.205877 10.341323 -15.735613 20.959500 0.843420 2.420012 0.044220 -0.022951 171161.000000 1 0 0
2.530577 3.744423 -16.367713 16.980181 0.976480 2.872191 0.006598 -0.001009 71215.600000 1 0 0
16.660777 1.659723 -11.427713 20.271379 0.099291 2.169699 0.014091 -0.005740 291744.000000 1 0 0
9.967877 -3.722177 -10.579813 15.004853 -0.357382 2.353350 0.017126 -0.002566 650869.000000 1 0 0
14.585577 -2.189477 -11.970413 18.995359 -0.149000 2.252576 0.028537 -0.003889 156129.000000 1 0 0
-2.707523 -8.722877 -15.997013 18.420741 1.269832 2.622811 0.009310 -0.002963 -721782.000000 1 0 0
14.127477 8.384223 -8.979713 18.722074 0.535604 2.071032 0.027091 -0.007423 219024.000000 1 0 0
-8.243423 0.091223 -16.540413 18.481007 -0.011066 2.679217 0.010837 -0.007388 -415147.000000 1 0 0
-3.448823 3.813523 -15.933513 16.742586 -0.835574 2.829444 0.008162 -0.005624 -1418020.000000 1 0 0
15.044977 4.008823 -9.635113 18.310035 0.260406 2.124946 -0.001171 0.002165 395876.000000 1 0 0
5.364677 1.057323 -12.984313 14.088650 0.194596 2.743018 0.000868 0.001059 340807.000000 1 0 0
7.867477 -7.826877 -12.780413 16.926197 -0.782811 2.426553 0.016498 -0.007265 -3565100.000000 1 0 0
3.182477 -6.129077 -11.841813 13.708475 -1.091874 2.613623 0.000971 -0.001379 -887054.000000 1 0 0
-3.134223 3.277223 -18.409013 18.959306 -0.807698 2.900070 0.005370 -0.007340 -208123.000000 1 0 0
0.838577 5.063623 -17.795313 18.520709 1.406678 2.860790 0.007355 -0.005153 -441550.000000 1 0 0
6.332277 7.154123 -10.257413 14.017622 0.846262 2.391684 0.004837 -0.001455 275341.000000 1 0 0
9.774377 3.639523 -11.659613 15.643885 0.356448 2.411803 0.013212 0.000210 -310728.000000 1 0 0
4.418477 1.654623 -17.493913 18.118987 0.358313 2.878160 0.010859 -0.006353 540786.000000 1 0 0
2.634877 8.101523 -13.157913 15.675073 1.256354 2.567005 0.000917 -0.001915 -1060310.000000 1 0 0
14.402777 -3.490477 -9.781913 17.756949 -0.237763 2.154212 0.032760 -0.002543 9357.870000 1 0 0
-1.233923 9.312323 -16.213613 18.738281 -1.439059 2.616479 0.009643 0.002613 -871131.000000 1 0 0
-5.186123 1.982923 -15.699813 16.652687 -0.365200 2.801667 0.012489 -0.009015 444255.000000 1 0 0
4.663177 4.117923 -12.014113 13.529280 0.723384 2.663792 -0.000962 0.001945 445064.000000 1 0 0
9.229477 2.919623 -17.676813 20.153837 0.306376 2.640575 0.026934 -0.007409 691378.000000 1 0 0
-4.183923 14.311323 -13.548713 20.146632 -1.286372 2.308385 0.014684 0.000071 -529689.000000 1 0 0
15.532077 -4.985077 -7.970913 18.155767 -0.310568 2.025314 0.038252 -0.004894 231869.000000 1 0 0
1.341477 9.017223 -16.878013 19.182732 1.423111 2.646352 0.001206 0.005518 -715667.000000 1 0 0
0.538577 -3.322577 -12.801513 13.236628 -1.410098 2.884479 0.002077 -0.003495 358735.000000 1 0 0
7.552977 3.636923 -12.991113 15.461038 0.448756 2.568538 0.005369 0.003327 520813.000000 1 0 0
-2.794223 7.525923 -15.172113 17.165087 -1.215291 2.654920 0.002226 -0.000818 -374168.000000 1 0 0
12.165377 -5.103377 -11.009813 17.183039 -0.397203 2.266254 0.034944 -0.004474 -806299.000000 1 0 0
0.847277 -4.531377 -20.071713 20.594293 -1.385951 2.915836 0.032061 -0.020528 -383599.000000 1 0 0
3.513477 -4.663777 -16.038713 17.068557 -0.925152 2.792444 0.011959 -0.015215 373614.000000 1 0 0
-5.644623 4.110423 -14.349313 15.958074 -0.629403 2.688707 0.011156 -0.005600 768794.000000 1 0 0
12.302677 -7.535277 -9.932613 17.515509 -0.549553 2.173747 0.029025 0.001279 276756.000000 1 0 0
-2.156723 -1.939377 -14.955613 15.234270 0.732386 2.950033 0.007983 -0.008011 348587.000000 1 0 0
7.177677 5.856223 -14.368513 17.095864 0.684358 2.568941 0.013287 0.000420 234383.000000 1 0 0
4.219377 -5.662677 -18.323413 19.637121 -0.930425 2.773737 0.022577 -0.018639 94148.100000 1 0 0
7.621677 7.358123 -12.381113 16.294904 0.767806 2.433825 0.011151 -0.005724 548511.000000 1 0 0
12.276077 -2.512877 -10.913313 16.616769 -0.201908 2.287317 0.021049 -0.004998 -647479.000000 1 0 0
7.354677 -0.859577 -10.773913 13.073154 -0.116347 2.539452 0.001554 -0.001445 -2198040.000000 1 0 0
5.320877 4.050223 -14.529113 15.994098 0.650627 2.710249 0.002425 -0.000426 3013320.000000 1 0 0
14.846077 3.014123 -12.749813 19.800219 0.200302 2.270411 0.020300 -0.012698 -92443.900000 1 0 0
-6.371923 6.691523 -15.689613 18.208290 -0.809858 2.609356 0.007771 -0.004464 207934.000000 1 0 0
-11.131123 3.903523 -16.371813 20.178594 -0.337285 2.517247 0.023585 -0.015430 220982.000000 1 0 0
-4.925423 6.519223 -17.920513 19.695300 -0.923770 2.713810 0.010394 0.003785 168762.000000 1 0 0
-10.043523 1.683423 -15.601413 18.630898 -0.166069 2.563295 0.027697 -0.008068 -24396.200000 1 0 0
-7.521923 5.902523 -17.884413 20.279826 -0.665348 2.650635 0.009539 -0.004552 -966075.000000 1 0 0
-8.652523 3.845523 -15.454013 18.124037 -0.418220 2.591891 0.009789 -0.005021 -1183170.000000 1 0 0
9.078277 13.447723 -11.975013 20.165746 0.976992 2.206606 0.053936 -0.024483 -461993.000000 1 0 0
13.948977 9.082623 -11.533213 20.250506 0.577170 2.176727 0.023623 -0.008951 202482.000000 1 0 0
8.551477 15.735323 -9.250913 20.157072 1.072990 2.047600 0.046047 -0.017020 -65807.200000 1 0 0
7.351277 13.389223 -13.905913 20.656403 1.068687 2.309326 0.035520 -0.020517 -249512.000000 1 0 0
4.726677 15.936023 -12.497013 20.796000 1.282459 2.215465 0.019941 -0.019368 292916.000000 1 0 0
11.150277 10.895023 -11.610113 19.437719 0.773820 2.210924 0.044553 -0.016540 -86583.100000 1 0 0
15.820177 10.117623 -9.979113 21.265629 0.568986 2.059249 0.036133 -0.000617 1222360.000000 1 0 0
13.344377 10.801723 -9.623413 19.681455 0.680482 2.081692 0.053437 -0.013459 -70680.900000 1 0 0
10.463177 11.707823 -8.369713 17.793349 0.841478 2.060523 0.036208 -0.005617 109068.000000 1 0 0
5.512777 16.171523 -10.031213 19.812473 1.242257 2.101694 0.020601 -0.015096 -334315.000000 1 0 0
6.787177 14.573623 -11.673113 19.867507 1.134950 2.198822 0.030328 -0.007737 -234339.000000 1 0 0
11.023877 13.849723 -9.789213 20.227936 0.898521 2.075954 0.063326 -0.012203 -137822.000000 1 0 0
8.171077 -18.616577 -1.159313 20.363876 -1.157200 1.627757 0.029378 0.001168 -76562.700000 1 0 0
7.410677 -17.282477 -3.260813 19.084943 -1.165714 1.742497 0.032803 -0.009428 212869.000000 1 0 0
4.402377 -18.549077 5.849387 19.941527 -1.337771 1.273091 0.033341 0.005455 133569.000000 1 0 0
9.874377 -17.132977 -2.386113 19.918227 -1.047957 1.690880 0.032349 -0.006609 -1333790.000000 1 0 0
-9.677923 -11.956677 -10.136313 18.421975 0.890340 2.153435 0.023269 -0.009872 -1388100.000000 1 0 0
-5.034823 -6.877577 -12.151113 14.842508 0.938874 2.529887 -0.000145 -0.001875 851307.000000 1 0 0
-10.912223 -9.509477 -5.622713 15.528093 0.716817 1.941315 0.013505 -0.003341 -1124450.000000 1 0 0
-4.583923 -11.390777 -13.852613 18.510998 1.188202 2.416360 0.009171 -0.005493 -47349.700000 1 0 0
-2.809523 -15.386777 7.544487 17.365645 1.390193 1.121370 0.003562 -0.001168 93977.900000 1 0 0
-4.849123 -12.006177 -11.484913 17.307961 1.186945 2.296367 0.002104 0.001521 -190381.000000 1 0 0
-14.355223 -12.940277 -4.147413 19.766746 0.733606 1.782185 0.028875 -0.008425 -228388.000000 1 0 0
-3.164423 -12.311377 -3.165213 13.099700 1.319210 1.814836 0.005459 -0.003316 785261.000000 1 0 0
-2.598523 -17.526177 -1.366813 17.770407 1.423603 1.647787 -0.003433 -0.001136 -606690.000000 1 0 0
-5.896823 -12.203977 3.618387 14.028624 1.120688 1.309918 0.000500 0.002872 482327.000000 1 0 0
-8.796123 -10.484377 -12.027413 18.219567 0.872738 2.291798 0.011641 0.000967 -447953.000000 1 0 0
-9.797023 -12.053277 -7.530713 17.261946 0.888293 2.022235 0.019498 -0.006765 -41038.800000 1 0 0
-10.924923 -14.955377 6.329087 19.572291 0.939892 1.241508 0.022536 -0.009476 -988924.000000 1 0 0
-9.393823 -15.645677 0.610287 18.259342 1.030075 1.537367 0.006360 0.001626 -3004990.000000 1 0 0
-14.871623 -7.964777 -8.285613 18.795059 0.491696 2.027331 0.015864 0.001721 199434.000000 1 0 0
-2.499823 -16.574177 5.178687 17.543411 1.421098 1.271139 0.009591 0.001095 171973.000000 1 0 0
4.485977 -15.954677 5.833487 17.570011 -1.296703 1.232359 0.024074 -0.003892 106374.000000 1 0 0
4.055677 -14.640477 -10.070713 18.226666 -1.300555 2.156189 0.012163 -0.001419 -61958.300000 1 0 0
-7.441423 -14.013777 -0.238913 15.868768 1.082651 1.585852 -0.000152 0.002786 456893.000000 1 0 0
2.924177 -14.864377 9.566787 17.917141 -1.376553 1.007536 0.019779 -0.011016 -67574.400000 1 0 0
2.338377 -17.230077 10.600687 20.364629 -1.435906 1.023308 0.039119 -0.010536 -102961.000000 1 0 0
-8.198723 -17.154277 -6.065913 19.957043 1.124952 1.879631 0.015140 -0.006699 -73675.000000 1 0 0
-6.519723 -9.127377 -7.719313 13.616299 0.950535 2.173555 0.010660 -0.006064 164308.000000 1 0 0
-6.031723 -13.043177 -4.817113 15.156211 1.137643 1.894237 -0.002045 -0.009218 245669.000000 1 0 0
2.349977 -19.395977 -4.887613 20.139888 -1.450226 1.815927 0.022769 -0.011240 456368.000000 1 0 0
-5.401223 -12.881077 8.373287 16.285186 1.173751 1.030761 0.005711 -0.008414 981862.000000 1 0 0
2.147177 -17.401677 3.533687 17.886187 -1.448028 1.371923 0.018468 -0.013854 677521.000000 1 0 0
-17.705723 -10.152677 -2.439913 20.555356 0.520640 1.689776 0.019806 -0.008111 679767.000000 1 0 0
-3.468423 -15.511477 2.692387 16.120944 1.350811 1.402998 0.001390 -0.000355 -131254.000000 1 0 0
-9.987223 -10.288277 -14.246313 20.212637 0.800245 2.352969 0.017765 -0.001836 -442858.000000 1 0 0
6.006677 -14.675477 -5.694113 16.848523 -1.182298 1.915544 0.007286 -0.007178 380593.000000 1 0 0
-7.296323 -12.224077 -10.781213 17.857742 1.032673 2.218965 0.005637 -0.004774 -647422.000000 1 0 0
-7.290223 -14.321877 3.997587 16.560321 1.099953 1.326993 0.000423 0.004990 861552.000000 1 0 0
3.234177 -14.982777 -2.948713 15.608921 -1.358199 1.760850 0.010279 -0.004135 -1481410.000000 1 0 0
-7.486923 -11.349977 7.812587 15.681598 0.987673 1.049274 0.006079 -0.013458 327230.000000 1 0 0
-12.853923 -12.304277 -1.210213 17.834887 0.763554 1.638705 0.015115 0.003284 -794186.000000 1 0 0
-1.973223 -13.729177 4.102187 14.464157 1.428049 1.283239 0.000573 0.002746 -3346660.000000 1 0 0
-3.134023 -13.920477 5.360087 15.242451 1.349351 1.211458 0.000946 0.000508 -207847.000000 1 0 0
-14.526623 -10.386177 -4.543113 18.426484 0.620706 1.819919 0.012525 0.000318 978041.000000 1 0 0
-6.039523 -8.594277 -10.377113 14.765565 0.958235 2.350110 0.001391 -0.001932 23690.800000 1 0 0
0.889077 -19.447177 2.358587 19.609847 -1.525111 1.450229 0.028417 -0.013675 139069.000000 1 0 0
6.351777 -14.130377 -8.295713 17.573602 -1.148348 2.062417 0.016784 -0.005726 -1622060.000000 1 0 0
-4.044623 -16.578577 -5.857113 18.042006 1.331504 1.901425 -0.005612 -0.008543 -692500.000000 1 0 0
-3.727623 -13.755377 -13.184213 19.414661 1.306158 2.317312 0.019309 0.001147 -1190460.000000 1 0 0
-8.191923 -14.738377 -4.611013 17.481098 1.063494 1.837726 0.003840 -0.009032 -438027.000000 1 0 0
-4.546223 -14.313577 10.230187 18.171499 1.263257 0.972809 0.010717 -0.012168 -811856.000000 1 0 0
-0.335823 -12.095477 -9.944913 15.662523 1.543039 2.258740 0.003845 0.004306 7676.670000 1 0 0
2.358777 -17.193877 6.871387 18.665722 -1.434460 1.193801 0.020950 -0.010075 -771405.000000 1 0 0
-2.971023 -19.266277 -3.256013 19.764059 1.417793 1.736295 -0.002166 -0.004845 -620057.000000 1 0 0
0.655577 -15.475577 -3.076413 15.792010 -1.528460 1.766858 0.009452 -0.006434 -821458.000000 1 0 0
5.974477 -17.976677 0.655887 18.954827 -1.249935 1.536187 0.021423 -0.006433 -379057.000000 1 0 0
-7.115823 -16.728777 3.947387 18.602924 1.168617 1.356979 0.000335 0.007907 884526.000000 1 0 0
-5.317323 -13.553877 -9.552813 17.413723 1.196937 2.151461 0.002214 -0.003487 -142241.000000 1 0 0
5.639977 -15.236377 -2.052613 16.375889 -1.216271 1.696470 0.013041 0.000960 -1374040.000000 1 0 0
-8.925323 -10.367377 -0.554713 13.691297 0.860006 1.611323 0.000383 0.001666 -943812.000000 1 0 0
-7.354323 -18.010877 -3.196213 19.715312 1.183132 1.733633 0.001038 -0.012699 212254.000000 1 0 0
7.828677 -16.031777 -1.074213 17.873444 -1.116534 1.630934 0.016153 -0.001109 -391482.000000 1 0 0
-8.064823 -10.044977 -9.534013 16.026239 0.894307 2.207938 0.012308 -0.003232 -1280590.000000 1 0 0
-9.240623 -15.063577 -7.141613 19.060512 1.020552 1.954849 0.022767 -0.011063 -160100.000000 1 0 0
-11.331323 -10.535677 -12.220213 19.716313 0.749029 2.239287 0.021041 0.011655 -1304290.000000 1 0 0
6.524677 -16.250777 2.503787 17.689774 -1.188998 1.428781 0.021239 -0.009103 824596.000000 1 0 0
-2.372423 -11.161777 -6.041913 12.911947 1.361364 2.057746 0.003217 -0.000824 698260.000000 1 0 0
-12.173123 -15.443577 -3.256813 19.932281 0.903272 1.734926 0.025100 -0.012450 16789.900000 1 0 0
-0.481323 -19.488777 -2.714813 19.682843 1.546104 1.709165 0.024476 -0.017496 -355025.000000 1 0 0
-5.891723 -15.635077 -4.624113 17.336391 1.210425 1.840793 -0.007942 -0.006661 -2980720.000000 1 0 0
1.847377 -16.172177 -0.947513 16.304904 -1.457058 1.628941 0.014141 -0.007123 1306720.000000 1 0 0
-13.230623 -12.081177 5.382487 18.707629 0.740018 1.278955 0.022013 -0.004765 146146.000000 1 0 0
1.877477 -15.317677 -8.777713 17.753997 -1.448835 2.087950 0.012608 0.003042 -1619320.000000 1 0 0
-11.668323 -16.736077 0.076187 20.402251 0.961955 1.567062 0.025047 -0.008103 264712.000000 1 0 0
-7.600423 -16.443477 -1.102013 18.148521 1.137831 1.631556 0.003374 -0.003319 537167.000000 1 0 0
-3.016623 -14.459877 -1.705613 14.869337 1.365126 1.685756 0.001607 -0.004949 526960.000000 1 0 0
-1.760623 -10.610677 -13.125513 16.969542 1.406365 2.455102 0.001017 0.000733 -369645.000000 1 0 0
1.408277 -19.437477 4.942487 20.105396 -1.498471 1.322422 0.027475 -0.007343 -108431.000000 1 0 0
-17.365123 -9.470477 2.543787 19.942625 0.499284 1.442893 0.016854 -0.009959 109091.000000 1 0 0
-2.872923 -15.625477 -8.015313 17.794787 1.388966 2.038044 -0.002170 -0.000770 -594790.000000 1 0 0
-10.583323 -12.076477 0.144387 16.058296 0.851197 1.561805 0.004260 0.003974 256090.000000 1 0 0
-6.962723 -11.362277 -6.536213 14.842605 1.021023 2.026805 0.006549 -0.007022 -105864.000000 1 0 0
-2.323723 -13.594377 -6.611613 15.294450 1.401500 2.017825 -0.005849 0.003350 1002510.000000 1 0 0
-14.302923 -14.476377 -1.149813 20.382865 0.791425 1.627237 0.037360 -0.004965 67252.100000 1 0 0
-9.569723 -11.411277 -4.458213 15.545820 0.872946 1.861659 0.013069 -0.009062 1888370.000000 1 0 0
9.447377 -15.128877 -5.205413 18.580424 -1.012586 1.854753 0.019472 -0.011256 58517.500000 1 0 0
-5.612923 -10.845977 -9.320413 15.362624 1.093237 2.222692 0.003694 -0.002544 -585585.000000 1 0 0
-10.349523 -16.051977 -5.113713 19.771916 0.998120 1.832405 0.028565 -0.010563 -1816700.000000 1 0 0
2.178177 -17.390777 -3.266613 17.828470 -1.446196 1.755062 0.019021 -0.008179 730933.000000 1 0 0
-0.419823 -14.544277 -8.106213 16.656018 1.541939 2.079086 0.003280 0.005165 -1270220.000000 1 0 0
-0.700323 -18.406377 -7.096613 19.739480 1.532767 1.938543 0.006871 0.002083 345356.000000 1 0 0
-1.706223 -9.939577 -10.504513 14.561977 1.400794 2.376569 0.000380 0.002785 269968.000000 1 0 0
-5.209523 -17.360277 2.138587 18.250806 1.279263 1.453349 0.001997 0.000725 -1926850.000000 1 0 0
0.326977 -12.863077 -2.613413 13.129950 -1.545382 1.771177 0.006652 -0.001450 -1470540.000000 1 0 0
2.563977 -14.853277 3.072287 15.382872 -1.399861 1.369723 0.015700 -0.006401 -1047450.000000 1 0 0
-9.431323 -13.024977 6.969587 17.526409 0.944081 1.161829 0.006397 -0.007780 -68122.800000 1 0 0
-1.174023 -17.775477 -4.487513 18.370729 1.504845 1.817568 0.005805 -0.008533 260047.000000 1 0 0
-9.705823 -17.358877 -2.313213 20.022102 1.060973 1.686588 0.020133 -0.019023 -2082860.000000 1 0 0
1.259877 -16.142577 1.499687 16.260970 -1.492907 1.478439 0.013551 -0.012916 -159702.000000 1 0 0
-0.504623 -18.029977 4.008087 18.476999 1.542816 1.352135 0.023028 -0.012111 669956.000000 1 0 0
-17.290423 -9.376977 -0.022013 19.669441 0.496929 1.571915 -0.007573 -0.002621 854805.000000 1 0 0
-15.065723 -7.233777 -10.713813 19.851683 0.447640 2.140869 0.040278 -0.007790 788165.000000 1 0 0
2.709377 -12.781077 -8.790213 15.746888 -1.361905 2.163034 0.001643 0.001798 603508.000000 1 0 0
-11.613023 -14.720477 1.740787 18.830430 0.902859 1.478219 0.014422 0.000297 149951.000000 1 0 0
-2.302023 -15.416077 10.864687 18.999899 1.422565 0.962063 0.012505 -0.002083 -313452.000000 1 0 0
-7.063923 -15.836377 1.463287 17.402042 1.151226 1.486610 0.002528 0.002084 -1300100.000000 1 0 0
-12.650523 -15.255577 -5.833813 20.659181 0.878479 1.857074 0.044045 -0.010647 307848.000000 1 0 0
0.897277 -13.822677 -4.986013 14.721815 -1.505974 1.916312 0.007941 -0.001440 642278.000000 1 0 0
6.054077 -16.416877 -7.499913 19.037184 -1.217497 1.975734 0.029422 -0.014349 182701.000000 1 0 0
-6.569323 -12.825677 5.945887 15.588700 1.097436 1.179461 0.005594 -0.001851 219873.000000 1 0 0
-2.616123 -13.630577 0.673687 13.895704 1.381172 1.522296 0.007885 -0.003154 2056170.000000 1 0 0
-4.347623 -15.549977 0.345187 16.150008 1.298168 1.549421 -0.002728 -0.000936 -186654.000000 1 0 0
-17.698323 -7.550877 -1.898913 19.335259 0.403262 1.669165 -0.004305 -0.000606 329692.000000 1 0 0
0.951877 -12.747977 -12.000413 17.533593 -1.496266 2.324610 0.006353 0.002404 -1561470.000000 1 0 0
1.077877 -17.182077 -5.651313 18.119683 -1.508146 1.887976 0.016685 -0.004353 -161658.000000 1 0 0
-12.929223 -6.524677 -9.224113 17.170337 0.467357 2.137925 0.019123 -0.000140 435382.000000 1 0 0
-11.493023 -13.526977 -8.946213 19.877208 0.866513 2.037644 0.033383 -0.011923 314142.000000 1 0 0
-4.336123 -9.869677 3.558487 11.352327 1.156844 1.251963 0.003291 -0.000074 -3976650.000000 1 0 0
-7.108323 -14.177977 9.765087 18.625257 1.106058 1.018912 0.014312 -0.019369 -228962.000000 1 0 0
-5.534223 -15.770877 -7.891313 18.482992 1.233307 2.011914 0.000715 -0.014497 -1259310.000000 1 0 0
-0.284423 -13.605077 2.173087 13.780469 1.549894 1.412442 0.004397 -0.002770 651777.000000 1 0 0
-11.042423 -13.569577 -4.824013 18.147717 0.887719 1.839850 0.032630 -0.004671 -801986.000000 1 0 0
-9.737423 -10.455277 6.667087 15.766429 0.820933 1.134191 0.011704 -0.006632 -38493.000000 1 0 0
-15.451723 -8.120977 -4.733013 18.086111 0.483894 1.835572 0.005476 -0.001689 -955975.000000 1 0 0
-14.517223 -7.448377 5.510887 17.222020 0.474050 1.245077 0.019559 -0.009550 332056.000000 1 0 0
-1.631923 -19.407477 0.173187 19.476738 1.486906 1.561904 0.016450 -0.006568 -258835.000000 1 0 0
-15.502423 -12.229777 -1.271013 19.786562 0.667933 1.635077 0.016666 0.002295 270215.000000 1 0 0
-4.572123 -12.152977 -6.902613 14.705279 1.210962 2.059404 0.000750 -0.002970 -310798.000000 1 0 0
-7.633323 -18.274377 1.957587 19.901071 1.175120 1.472271 0.006536 0.002833 201619.000000 1 0 0
-2.559923 -11.784277 -8.581213 14.800662 1.356888 2.189262 -0.000815 0.003407 809851.000000 1 0 0
-1.325223 -20.398377 -4.965813 21.035905 1.505920 1.809109 0.005649 0.000900 179205.000000 1 0 0
-5.422623 -8.954777 -13.757313 17.287468 1.026301 2.491119 0.004819 -0.005354 465222.000000 1 0 0
-8.129923 -19.006877 -0.974313 20.695563 1.166611 1.617892 -0.000767 0.001363 190871.000000 1 0 0
-17.029223 -7.327477 5.670487 19.386614 0.406341 1.273961 0.034533 -0.019077 -638679.000000 1 0 0
-3.632123 -14.646777 -4.174413 15.657143 1.327719 1.840674 -0.004616 -0.004009 -3117510.000000 1 0 0
-3.147323 -14.962677 -10.902013 18.778744 1.363474 2.190201 0.005311 -0.000924 -262591.000000 1 0 0
-0.171023 -16.794177 6.341687 17.952455 1.560613 1.209755 0.024600 -0.007012 -426822.000000 1 0 0
-11.113023 -11.650677 3.978487 16.585111 0.809013 1.328551 0.008953 -0.001345 802384.000000 1 0 0
-0.286423 -14.723777 -0.145313 14.727280 1.551346 1.580663 0.003692 -0.003542 735146.000000 1 0 0
-7.366223 -9.535677 -2.472513 12.300557 0.913056 1.773183 0.007204 -0.003515 -122398.000000 1 0 0
-11.168923 -14.347777 -0.762513 18.198488 0.909339 1.612708 0.011985 -0.005369 325621.000000 1 0 0
0.213977 -14.613577 -10.636713 18.076008 -1.556155 2.199929 0.009306 0.003817 -139637.000000 1 0 0
-1.408623 -14.116877 -3.786713 14.683652 1.471343 1.831630 0.001304 -0.001993 -2108630.000000 1 0 0
-11.407423 -8.100177 -7.646813 15.944150 0.617459 2.070995 0.016243 -0.001114 640437.000000 1 0 0
-0.370423 -17.298177 -0.150613 17.302798 1.549386 1.579501 0.009042 -0.010327 -689862.000000 1 0 0
-12.838723 -9.580777 4.588587 16.663710 0.641091 1.291828 0.011999 -0.004121 -1017060.000000 1 0 0
3.920377 -16.787777 1.691787 17.322268 -1.341382 1.472975 0.020512 -0.013375 2093680.000000 1 0 0
-4.009623 -17.790677 -8.102013 19.955648 1.349122 1.988870 0.006146 -0.006465 254815.000000 1 0 0
-13.301023 -11.281377 2.775687 17.660439 0.703424 1.412972 0.001556 -0.002844 -442031.000000 1 0 0
-8.548423 -12.213077 4.159887 15.477062 0.960111 1.298673 0.005451 0.001595 -567969.000000 1 0 0
-8.374923 -9.529777 -5.868513 13.978392 0.849809 2.004052 0.011269 -0.005090 -343975.000000 1 0 0
3.692777 -17.222477 -5.289913 18.391125 -1.359578 1.862552 0.008842 -0.010029 -762961.000000 1 0 0
-2.638323 -12.888277 11.440087 17.433991 1.368879 0.855032 0.007960 -0.016046 543770.000000 1 0 0
-0.188823 -16.755677 -9.411713 19.218967 1.559528 2.082553 0.007950 0.002503 58879.300000 1 0 0
-7.091123 -10.774577 -14.534713 19.432792 0.988724 2.415761 0.008449 0.002816 -2009180.000000 1 0 0
-4.763123 -18.953077 -1.438013 19.595264 1.324584 1.644248 0.006237 -0.008998 -243644.000000 1 0 0
-2.684223 -17.397977 1.290087 17.651034 1.417720 1.497643 0.007850 -0.005667 -286083.000000 1 0 0
3.989677 -14.701877 -7.477213 16.969721 -1.305806 2.027086 0.014385 -0.001810 488318.000000 1 0 0
-1.267323 -15.902477 -6.074113 17.070142 1.491271 1.934601 -0.002291 -0.000812 -561597.000000 1 0 0
-9.544923 -15.233477 8.475287 19.874478 1.011065 1.130242 0.014453 -0.007914 -579742.000000 1 0 0
-7.156123 -12.000877 -1.771313 14.084342 1.033102 1.696895 -0.000071 -0.000124 755765.000000 1 0 0
-7.466623 -15.003477 -9.424113 19.226770 1.109023 2.083065 0.013819 -0.011388 486063.000000 1 0 0
-4.971623 -13.141777 -0.672913 14.066846 1.209130 1.618651 0.001366 0.000377 988350.000000 1 0 0
-6.668523 -13.620877 -7.332613 16.845317 1.115519 2.021158 0.005658 -0.008830 128120.000000 1 0 0
5.662077 -15.404077 0.316787 16.414782 -1.218555 1.551496 0.013235 -0.001194 223406.000000 1 0 0
-14.265323 -12.802677 0.931387 19.190505 0.731415 1.522244 -0.003829 -0.004631 698385.000000 1 0 0
0.824277 -15.194377 11.146987 18.862763 -1.516601 0.938558 0.017758 -0.012427 -380098.000000 1 0 0
-9.315623 -10.947977 1.976187 14.510146 0.865781 1.434178 0.001552 0.002021 61673.200000 1 0 0
-9.505223 -8.975277 -3.518213 13.538194 0.756730 1.833687 0.007315 -0.003783 -476336.000000 1 0 0
-12.139323 -7.057077 -12.250213 18.634195 0.526586 2.288166 0.023267 -0.004836 -258143.000000 1 0 0
-13.314823 -8.411277 -0.540113 15.758357 0.563419 1.605078 -0.005576 0.002404 467797.000000 1 0 0
-11.228023 -9.630477 0.642287 14.806320 0.708958 1.527403 -0.003682 0.002457 333693.000000 1 0 0
-15.706823 -12.289177 2.986787 20.165541 0.663923 1.422136 0.020308 -0.003696 -104219.000000 1 0 0
-10.550123 -12.675377 -2.400013 16.665244 0.876649 1.715312 0.016415 -0.005331 261881.000000 1 0 0
-3.363623 -8.889377 -12.065113 15.359099 1.209060 2.474357 -0.004344 0.002962 530901.000000 1 0 0
-0.293623 -15.614877 3.999787 16.121690 1.551994 1.320078 0.014130 -0.005388 -768234.000000 1 0 0
-15.651023 -7.802277 1.322287 17.537916 0.462459 1.495329 -0.011515 -0.001662 -55972.400000 1 0 0
-6.237823 -13.336477 -13.279313 19.827058 1.133299 2.304678 0.011408 -0.001493 -798601.000000 1 0 0
-15.244123 -10.459277 1.245787 18.529213 0.601349 1.503512 -0.001796 -0.001210 572556.000000 1 0 0
-9.898723 -8.226377 -12.582113 17.999099 0.693392 2.344852 0.022820 -0.000116 -12792.500000 1 0 0
-13.335523 -11.958077 -6.308113 18.990105 0.730994 1.909409 0.026611 0.004529 -4974.470000 1 0 0
-12.210123 -11.511477 -3.951713 17.239990 0.755955 1.802070 0.016926 -0.000239 -1918560.000000 1 0 0
-11.644723 -10.925477 -8.946413 18.303113 0.753542 2.081501 0.021535 -0.008020 -303998.000000 1 0 0
-13.216423 -8.525377 -5.809613 16.766261 0.572894 1.924640 0.007813 -0.002249 -2018230.000000 1 0 0
-13.386223 -8.407877 -3.175913 16.123579 0.560825 1.769066 0.000856 0.001237 20.614900 1 0 0
-4.425023 -17.041277 -3.219913 17.898430 1.316742 1.751680 -0.003163 -0.006194 244837.000000 1 0 0
-15.470123 -9.039077 -1.766813 18.004201 0.528790 1.669088 0.000688 0.001254 -737460.000000 1 0 0
-9.532123 -15.677177 3.775687 18.732086 1.024497 1.367843 0.005172 0.003845 -281273.000000 1 0 0
4.695777 -17.195577 8.044787 19.556502 -1.304216 1.146849 0.041343 -0.023602 231431.000000 1 0 0
-8.383123 -15.417477 6.076887 18.571589 1.072771 1.237442 0.005990 0.006325 1061380.000000 1 0 0
0.884177 -16.110977 8.646287 18.305836 -1.515971 1.078871 0.016439 -0.005528 161786.000000 1 0 0
-10.787923 -7.775677 -10.210613 16.765949 0.624534 2.225607 0.021015 -0.003273 1197280.000000 1 0 0
-4.803123 -15.812377 5.903887 17.548708 1.275896 1.227674 0.004835 -0.002254 -1105420.000000 1 0 0
-1.547923 -13.257777 -12.008313 17.954506 1.454567 2.303415 0.007025 0.000269 -1284110.000000 1 0 0
-6.383023 -14.306277 -2.587413 15.877886 1.151132 1.734483 -0.001127 -0.005700 287988.000000 1 0 0
-17.582823 -7.016177 -7.184213 20.248341 0.379675 1.933502 0.012174 -0.008390 237414.000000 1 0 0
-17.336123 -4.297477 -10.126613 20.531872 0.242993 2.086577 0.018530 -0.012355 707476.000000 1 0 0
-15.327323 -5.415577 -8.815813 18.492535 0.339637 2.067719 0.009650 -0.013949 541217.000000 1 0 0
-16.108623 -5.526477 -5.643113 17.940859 0.330493 1.890768 0.005170 -0.001000 345364.000000 1 0 0
-15.454723 -4.166877 -12.247113 20.154481 0.263356 2.223910 0.036675 -0.010452 -243423.000000 1 0 0
-18.742923 -5.377577 -5.542913 20.271640 0.279407 1.847755 0.021374 -0.006700 -111014.000000 1 0 0
-17.523223 -4.435777 -7.625213 19.618444 0.247929 1.969990 0.012130 -0.009062 723975.000000 1 0 0
12.250577 -7.798877 8.688687 16.923132 -0.566907 1.031630 0.018590 -0.007212 357610.000000 1 0 0
16.070477 -3.360277 1.802687 16.516700 -0.206126 1.461435 0.017513 -0.009117 708186.000000 1 0 0
11.804177 -2.014577 12.507287 17.315581 -0.169038 0.763654 -0.004019 -0.000598 399469.000000 1 0 0
9.632177 -9.975277 5.306187 14.847242 -0.802895 1.205329 0.012253 -0.004719 203988.000000 1 0 0
16.827177 -1.913677 7.163187 18.388238 -0.113239 1.170650 0.016607 -0.009941 -197832.000000 1 0 0
5.266877 -13.071577 9.333687 16.903367 -1.187770 0.985821 0.014708 0.004937 -86089.600000 1 0 0
15.157477 -9.060177 -2.307013 17.808937 -0.538753 1.700704 0.043167 -0.008476 360777.000000 1 0 0
10.993277 -8.408477 6.479087 15.281793 -0.652953 1.132967 0.018762 -0.007405 -3147030.000000 1 0 0
19.880077 -2.987777 3.556187 20.415453 -0.149174 1.395712 0.038058 -0.014238 -349669.000000 1 0 0
13.530977 -8.502677 6.773187 17.356812 -0.561031 1.169913 0.020486 -0.007571 -1449070.000000 1 0 0
8.366977 -11.016177 8.897187 16.447565 -0.921232 0.999239 0.013980 -0.002243 -488026.000000 1 0 0
16.802877 0.066823 -0.581713 16.813076 0.003977 1.605402 0.010941 -0.003194 -873567.000000 1 0 0
12.446177 -12.236577 2.267287 17.600617 -0.776907 1.441619 0.028805 -0.008110 -1671780.000000 1 0 0
10.394677 -11.429577 3.625787 15.869180 -0.832782 1.340280 0.015133 -0.006211 -996651.000000 1 0 0
16.287077 3.084623 2.312087 16.737070 0.187174 1.432211 0.005519 -0.001768 92334.400000 1 0 0
18.314677 -3.231277 0.503987 18.604369 -0.174634 1.543703 0.025496 -0.011532 189442.000000 1 0 0
13.481077 -11.746077 -0.312213 17.883155 -0.716731 1.588256 0.040729 -0.002674 -191442.000000 1 0 0
16.842577 -7.603477 -0.914313 18.501925 -0.424054 1.620234 0.044886 -0.007478 -114032.000000 1 0 0
10.168777 -5.650877 9.682087 15.135364 -0.507215 0.876689 0.009216 -0.008238 44669.300000 1 0 0
11.283577 -13.185977 6.127287 18.404694 -0.862988 1.231398 0.032506 -0.013203 -208971.000000 1 0 0
13.126377 -1.607177 10.345787 16.790476 -0.121832 0.906926 0.012622 -0.002596 1121090.000000 1 0 0
15.558477 -2.002777 -1.398513 15.749068 -0.128022 1.659713 0.007783 -0.002814 -1696600.000000 1 0 0
10.542877 -12.492777 9.053887 18.686749 -0.869844 1.064995 0.032162 -0.015466 190188.000000 1 0 0
14.588677 1.317623 3.443187 15.047297 0.090074 1.339927 0.005792 -0.003070 633865.000000 1 0 0
15.116177 -5.779577 5.294687 17.027508 -0.365194 1.254605 0.025928 -0.008713 -662303.000000 1 0 0
14.298277 -3.296877 -3.066413 14.990431 -0.226618 1.776808 0.007812 -0.001106 722569.000000 1 0 0
14.141177 0.667123 9.478187 17.036841 0.047141 0.980828 0.027898 -0.011175 413413.000000 1 0 0
15.376077 -3.389477 4.387187 16.345021 -0.216968 1.299053 0.016283 -0.007234 -1062370.000000 1 0 0
18.579877 4.782623 -4.339013 19.670087 0.251939 1.793215 -0.006381 0.000497 322497.000000 1 0 0
18.023177 -5.871677 -5.257513 19.671119 -0.314942 1.841356 0.052744 -0.008491 438800.000000 1 0 0
17.285177 0.052923 5.694487 18.199102 0.003062 1.252552 0.022105 -0.009832 482770.000000 1 0 0
17.017977 -6.772077 3.867987 18.719879 -0.378726 1.362673 0.034505 -0.007350 -344269.000000 1 0 0
9.923177 -6.540577 14.184087 18.505051 -0.582761 0.697426 0.010389 -0.000575 -1134170.000000 1 0 0
8.536277 -12.335077 5.157187 15.862494 -0.965438 1.239660 0.014222 -0.006420 -2117490.000000 1 0 0
16.850877 -10.211077 -0.694013 19.715471 -0.544796 1.606005 0.059022 -0.007689 358356.000000 1 0 0
14.823277 -8.823877 0.264387 17.252833 -0.536936 1.555471 0.042426 -0.005275 310739.000000 1 0 0
9.980077 -12.829977 1.565187 16.329729 -0.909695 1.474800 0.018739 -0.009336 403845.000000 1 0 0
16.989377 -8.201077 8.856287 20.840595 -0.449727 1.131886 0.041081 -0.004214 325979.000000 1 0 0
19.060977 -0.240077 -1.834013 19.150511 -0.012595 1.666712 0.028122 -0.005755 -46776.100000 1 0 0
13.378177 -1.177777 7.757087 15.509196 -0.087811 1.047012 0.013609 -0.007451 299660.000000 1 0 0
12.780677 -9.946877 -2.992413 16.469384 -0.661353 1.753507 0.023443 -0.003541 -1568810.000000 1 0 0
8.828477 -15.215677 1.477687 17.653396 -1.045046 1.486993 0.019690 -0.004772 157027.000000 1 0 0
11.487477 -8.184177 11.080487 17.936557 -0.619029 0.904905 0.015347 -0.007102 -677936.000000 1 0 0
13.929277 -3.932977 -0.529813 14.483569 -0.275190 1.607385 0.006431 -0.004669 -1444220.000000 1 0 0
7.262377 -13.305877 11.010487 18.735509 -1.071182 0.942608 0.022350 0.003737 -236844.000000 1 0 0
15.351177 -6.745877 1.815687 16.866007 -0.414035 1.462934 0.027405 -0.007513 761376.000000 1 0 0
15.685277 -6.055777 -2.543913 17.005053 -0.368449 1.720957 0.046253 -0.006428 42073.500000 1 0 0
11.181677 -8.505177 3.836587 14.563219 -0.650273 1.304206 0.014662 -0.004240 1098930.000000 1 0 0
10.729077 -14.499277 -0.390413 18.041467 -0.933743 1.592438 0.029974 -0.006792 786600.000000 1 0 0
13.347977 -12.853177 4.629987 19.099985 -0.766516 1.325949 0.027814 -0.006468 239844.000000 1 0 0
12.844077 -11.137677 6.438887 18.179038 -0.714364 1.208745 0.025517 -0.008131 -219946.000000 1 0 0
10.838577 -10.445077 1.351187 15.112911 -0.766912 1.481271 0.011565 -0.002602 184644.000000 1 0 0
13.959977 -7.589977 11.737387 19.754872 -0.497990 0.934586 0.014434 -0.014419 230127.000000 1 0 0
15.277777 -1.843477 -4.979013 16.174036 -0.120083 1.883718 0.017088 -0.001679 -23708.000000 1 0 0
12.877577 -11.437277 -6.995413 18.589758 -0.726232 1.956601 0.034812 -0.010770 -243934.000000 1 0 0
17.662177 -5.365477 1.929387 18.559724 -0.294924 1.466653 0.038082 -0.008612 427443.000000 1 0 0
10.637277 -9.794577 9.223287 17.150931 -0.744177 1.003004 0.015236 -0.006263 -1833860.000000 1 0 0
16.480777 2.057023 9.787787 19.278177 0.124171 1.038268 0.032274 -0.008934 233109.000000 1 0 0
18.188977 3.752223 0.505387 18.578845 0.203437 1.543591 0.001028 0.001205 767325.000000 1 0 0
13.334477 -3.973877 5.733887 15.049167 -0.289635 1.179908 0.016463 -0.011053 -1805130.000000 1 0 0
12.164377 -6.157977 6.635187 15.163062 -0.468619 1.117881 0.016183 -0.007147 143247.000000 1 0 0
16.609177 -10.210677 3.581987 19.823050 -0.551203 1.389100 0.041533 -0.002757 -561629.000000 1 0 0
16.293177 -8.168277 -5.357113 18.997027 -0.464712 1.856672 0.059218 -0.011698 1069500.000000 1 0 0
14.028377 -0.437577 5.385787 15.033081 -0.031182 1.204390 0.012741 -0.003754 548092.000000 1 0 0
18.151477 -4.287277 4.886787 19.280496 -0.231944 1.314543 0.028393 -0.009034 -178891.000000 1 0 0
13.684177 -13.638777 7.030787 20.559788 -0.783737 1.221786 0.040228 -0.007830 -146218.000000 1 0 0
14.872977 -13.806477 -1.010613 20.318602 -0.748228 1.620555 0.040850 0.002626 737557.000000 1 0 0
17.883577 -5.914577 7.959787 20.449028 -0.319403 1.170979 0.042813 -0.001565 68534.400000 1 0 0
14.376777 3.378023 9.055487 17.323527 0.230778 1.020749 0.033278 -0.011136 131451.000000 1 0 0
18.774477 3.641023 2.851587 19.335707 0.191557 1.422779 0.022804 -0.007116 -792449.000000 1 0 0
14.826877 -10.548977 8.057687 19.900842 -0.618387 1.153936 0.026593 -0.017051 123948.000000 1 0 0
14.927877 -4.780777 10.415487 18.819663 -0.309937 0.984312 0.015872 -0.008063 150300.000000 1 0 0
17.776677 -7.968577 1.835787 19.567283 -0.421406 1.476839 0.061833 -0.008845 -63745.700000 1 0 0
18.315077 -5.847677 -2.037813 19.333651 -0.309052 1.676395 0.040512 -0.009931 -69186.700000 1 0 0
14.182077 -13.011277 -5.414913 19.993647 -0.742370 1.845053 0.044298 -0.014785 -1010150.000000 1 0 0
15.560877 -1.462177 9.425287 18.251435 -0.093690 1.028139 0.026037 -0.008481 433243.000000 1 0 0
13.079777 -9.957577 10.100387 19.293826 -0.650691 1.019838 0.011864 -0.017885 -536509.000000 1 0 0
16.622977 2.270323 4.835187 17.460148 0.135738 1.290202 0.017316 -0.006321 -1432460.000000 1 0 0
15.105377 2.431723 -0.171613 15.300821 0.159614 1.582012 0.003818 -0.000776 -1603350.000000 1 0 0
15.023077 -9.821877 -7.066913 19.289981 -0.579032 1.945881 0.050507 -0.010211 871709.000000 1 0 0
16.057077 -0.021277 -3.234213 16.379570 -0.001325 1.769557 0.007885 0.000236 120961.000000 1 0 0
11.958277 2.541623 13.487687 18.203789 0.209425 0.736346 0.033093 -0.003705 -11332.700000 1 0 0
17.731677 -3.006377 9.327787 20.259770 -0.167951 1.092340 0.033789 -0.015302 290272.000000 1 0 0
7.871777 -18.151677 4.458387 20.281160 -1.161608 1.349157 0.043273 -0.015455 -414417.000000 1 0 0
6.800177 -11.277777 6.754987 14.800693 -1.028195 1.096855 0.010217 -0.003268 389970.000000 1 0 0
18.008477 2.193823 -1.468513 18.200951 0.121224 1.651567 0.008001 -0.000444 288199.000000 1 0 0
17.479477 -2.161977 3.553387 17.967549 -0.123062 1.371717 0.010818 -0.008322 -1331210.000000 1 0 0
12.514477 -13.441877 -2.082413 18.483307 -0.821112 1.683701 0.033577 -0.003549 1066180.000000 1 0 0
15.064477 -8.208777 4.324587 17.692499 -0.498927 1.323864 0.030709 -0.005216 -576296.000000 1 0 0
11.264377 -3.180277 14.751787 18.831239 -0.275168 0.670730 0.000563 -0.001796 68859.000000 1 0 0
11.973177 -13.771777 -6.482113 19.365862 -0.855147 1.912103 0.023962 -0.015735 77339.900000 1 0 0
10.547577 -12.086377 -1.151313 16.082830 -0.853280 1.642444 0.019833 -0.007129 -921292.000000 1 0 0
13.097777 -7.996577 2.037587 15.480593 -0.548126 1.438791 0.026657 -0.001203 -128793.000000 1 0 0
8.874677 -7.932377 10.084287 15.600492 -0.729391 0.867929 0.012778 -0.002158 -2881100.000000 1 0 0
15.615077 -3.746577 8.065887 17.970142 -0.235482 1.105319 0.023925 -0.008263 -946358.000000 1 0 0
10.226977 -17.341877 5.399087 20.844229 -1.037965 1.308788 0.046090 -0.017573 862893.000000 1 0 0
15.285177 -6.390977 8.252187 18.508912 -0.396025 1.108673 0.023127 -0.001297 -1088150.000000 1 0 0
16.520277 -4.968577 -0.303213 17.253934 -0.292150 1.588371 0.027645 -0.007364 -836863.000000 1 0 0
13.991577 -10.500277 3.461787 17.832667 -0.643803 1.375430 0.037539 -0.006486 916365.000000 1 0 0
14.805177 -10.156477 -4.572613 18.527171 -0.601274 1.820179 0.050723 -0.011874 -486431.000000 1 0 0
13.653477 -6.478277 -0.079713 15.112639 -0.443023 1.576071 0.020128 -0.002957 -136306.000000 1 0 0
17.822077 -0.910377 -4.718913 18.458693 -0.051037 1.829313 0.022224 -0.003230 1254780.000000 1 0 0
14.367277 0.302423 -1.496713 14.448192 0.021046 1.674574 0.002655 0.001973 -2676530.000000 1 0 0
4.853977 -12.920177 11.916687 18.234569 -1.211421 0.858568 0.011075 -0.000143 259695.000000 1 0 0
12.125677 -7.392477 13.447687 19.558145 -0.547488 0.812653 0.010106 -0.006258 -457574.000000 1 0 0
12.158077 -5.648977 11.473787 17.645894 -0.434951 0.862917 0.009829 -0.005044 705261.000000 1 0 0
13.373177 -4.630277 8.357487 16.435599 -0.333318 1.037356 0.016694 -0.006919 -2168650.000000 1 0 0
15.159877 -1.178077 3.008187 15.500288 -0.077554 1.375484 0.010857 -0.004197 317252.000000 1 0 0
15.193577 -10.324277 5.757887 19.250681 -0.596846 1.267047 0.040531 -0.007164 14343.900000 1 0 0
13.629277 -8.128777 -5.772913 16.886703 -0.537783 1.919693 0.038082 -0.004851 -512380.000000 1 0 0
9.458977 -1.904677 13.379487 16.495779 -0.198705 0.624791 -0.003256 -0.010737 -2154390.000000 1 0 0
10.183777 -9.161977 13.545987 19.265121 -0.732629 0.790999 0.023640 -0.001586 -344188.000000 1 0 0
20.309977 6.367723 -3.065513 21.504428 0.303820 1.713836 0.028613 -0.000833 1120940.000000 1 0 0
11.285877 -3.521577 10.430587 15.766092 -0.302460 0.847868 0.008404 -0.003356 932693.000000 1 0 0
10.175277 -14.071777 -2.962113 17.616052 -0.944736 1.739747 0.017625 -0.006068 -1112.220000 1 0 0
14.990477 -12.828377 2.783087 19.925542 -0.707833 1.430664 0.045616 0.001263 357415.000000 1 0 0
11.441177 -0.538477 14.614987 18.568477 -0.047030 0.664726 0.026394 0.003075 323839.000000 1 0 0
18.985277 -1.930477 5.703687 19.917317 -0.101335 1.280362 0.036703 -0.012295 848072.000000 1 0 0
18.856277 -0.381477 7.801087 20.409842 -0.020228 1.178597 0.034714 -0.012004 70041.900000 1 0 0
18.947577 0.852923 0.582687 18.975713 0.044985 1.540085 0.025063 -0.006657 -144484.000000 1 0 0
18.475877 0.885723 3.521287 18.829286 0.047903 1.382678 0.021681 -0.008710 98730.800000 1 0 0
16.614477 -4.003277 -4.219013 17.603043 -0.236444 1.812828 0.031511 -0.005004 411976.000000 1 0 0
11.267977 -8.104777 15.709787 20.963113 -0.623546 0.723639 0.024836 -0.009371 228546.000000 1 0 0
16.626777 -7.583377 6.388587 19.359012 -0.427910 1.234487 0.035998 -0.003775 341426.000000 1 0 0
18.952277 2.106223 5.761687 19.920392 0.110679 1.277368 0.033200 -0.010462 209988.000000 1 0 0
15.442977 1.687223 7.467487 17.236462 0.108823 1.122714 0.026790 -0.008831 284474.000000 1 0 0
8.759577 -15.731477 3.895987 18.422494 -1.062733 1.357707 0.025711 -0.015745 595348.000000 1 0 0
11.274677 -15.093877 2.042487 18.950336 -0.929237 1.462806 0.027158 -0.004228 240339.000000 1 0 0
7.954277 -16.143077 6.094687 19.000386 -1.112977 1.244258 0.033526 -0.017531 -207505.000000 1 0 0
14.580777 -11.736977 -2.574313 18.893988 -0.677759 1.707472 0.047940 -0.007788 349422.000000 1 0 0
13.655477 -4.958977 3.263887 14.890146 -0.348341 1.349804 0.013657 -0.006438 -2231410.000000 1 0 0
-1.021123 10.215123 -5.638113 11.712376 -1.471165 2.073026 0.003183 0.003219 -1522590.000000 1 0 0
8.276377 -1.804377 -8.052013 11.687134 -0.214656 2.330855 -0.002076 -0.000922 -2691120.000000 1 0 0
2.840277 -10.186677 7.664487 13.060625 -1.298880 0.943647 0.002096 0.003609 497187.000000 1 0 0
-6.185523 1.213723 8.285387 10.410642 -0.193758 0.650374 0.003085 -0.004484 -646813.000000 1 0 0
7.322077 -6.314677 -7.265713 12.094567 -0.711658 2.215225 -0.003044 -0.002641 10684.500000 1 0 0
-11.452923 -4.559077 -4.092713 12.988646 0.378842 1.891358 0.000178 -0.002190 58729.300000 1 0 0
2.073977 -3.185077 2.984187 4.832336 -0.993610 0.905178 0.003936 -0.000649 1939340.000000 1 0 0
-3.568723 -4.168077 8.908687 10.462952 0.862712 0.552051 0.000929 -0.004656 -2623090.000000 1 0 0
-4.867423 -1.125677 -2.430313 5.555662 0.227272 2.023555 0.009824 -0.004289 -112612.000000 1 0 0
5.059077 -5.193777 -3.702413 8.141096 -0.798535 2.042922 0.000349 -0.001391 -87890.100000 1 0 0
2.686677 14.153623 -8.860513 16.913071 1.383206 2.122203 0.007248 -0.008439 -201863.000000 1 0 0
5.642377 -5.492077 13.721887 15.820541 -0.771900 0.520951 0.006896 -0.001561 -1986930.000000 1 0 0
-4.791923 -0.715777 9.824387 10.954152 0.148275 0.458168 0.005742 -0.004216 -2272420.000000 1 0 0
-1.040923 11.929223 -2.809013 12.299611 -1.483759 1.801212 0.001739 0.001211 -455748.000000 1 0 0
3.110077 9.367623 -10.532913 14.434930 1.250244 2.388654 0.007919 -0.002912 -45769.300000 1 0 0
-10.813023 2.509223 1.120487 11.156754 -0.228020 1.470195 0.001672 0.000062 90290.900000 1 0 0
5.713077 -8.960177 -0.793013 10.656120 -1.003182 1.645284 -0.002460 -0.000525 775208.000000 1 0 0
-6.943723 5.356923 9.417387 12.868531 -0.657105 0.749815 0.007792 -0.001632 316604.000000 1 0 0
-5.387523 -1.730277 5.160887 7.658591 0.310758 0.831363 0.004908 -0.005900 757238.000000 1 0 0
6.661877 -3.834877 -7.342213 10.629910 -0.522319 2.333270 -0.001765 -0.002914 485121.000000 1 0 0
6.126377 4.714023 11.030887 13.469780 0.655842 0.611242 -0.000944 0.005180 876761.000000 1 0 0
3.810077 -9.763777 3.597587 11.081095 -1.198744 1.240144 -0.002143 0.002709 903014.000000 1 0 0
-6.645623 6.529623 -5.772813 10.960185 -0.776594 2.125519 0.000456 -0.003061 342094.000000 1 0 0
-11.050523 8.401923 5.189487 14.820160 -0.650073 1.213050 0.005247 -0.005480 262865.000000 1 0 0
-9.106323 -5.476877 5.160687 11.813297 0.541475 1.118698 0.002095 -0.001515 482756.000000 1 0 0
3.461777 9.838123 -8.003513 13.146436 1.232453 2.225340 0.009815 -0.005021 831058.000000 1 0 0
-8.140523 -8.475177 5.992987 13.191385 0.805536 1.099198 0.007266 -0.003437 -1920350.000000 1 0 0
-7.841323 -5.833577 -7.455413 12.292280 0.639620 2.222462 0.013132 -0.004020 -313401.000000 1 0 0
9.203377 -1.628477 6.997687 11.675689 -0.175131 0.928122 0.004418 -0.011588 2616590.000000 1 0 0
-4.141023 -0.502177 -4.905513 6.439279 0.120680 2.436900 0.016969 -0.009394 -1231020.000000 1 0 0
9.054977 1.214323 -4.481613 10.176052 0.133310 2.026849 -0.003647 0.005217 -1790640.000000 1 0 0
-1.883923 -10.561377 10.554087 15.049273 1.394274 0.793574 -0.000281 -0.006825 401208.000000 1 0 0
-12.837323 0.218423 -2.664113 13.112668 -0.017013 1.775392 -0.000589 -0.001769 163567.000000 1 0 0
-9.910623 -5.174277 -6.061113 12.717338 0.481166 2.067582 0.007584 -0.005530 -1804380.000000 1 0 0
-5.733823 8.401023 -0.268513 10.174773 -0.971902 1.597189 -0.003734 0.003341 697395.000000 1 0 0
6.348177 9.689723 0.376887 11.590174 0.990812 1.538273 0.015387 -0.003034 325876.000000 1 0 0
-0.500523 -12.151277 0.130887 12.162286 1.529629 1.560034 0.007816 -0.000360 -97545.500000 1 0 0
6.300277 4.707923 2.337187 8.204905 0.641743 1.281944 0.005895 0.000050 534719.000000 1 0 0
3.464777 -7.493577 -8.256513 11.675975 -1.137706 2.356237 -0.001300 -0.002347 1162710.000000 1 0 0
-6.496123 -9.880977 4.663187 12.711359 0.989211 1.195174 0.006136 -0.000015 -1761610.000000 1 0 0
-0.071223 6.600123 -9.270013 11.379799 -1.560006 2.522840 0.008421 -0.001977 -2786560.000000 1 0 0
-17.344623 -2.932477 4.281087 18.104228 0.167487 1.332066 0.027656 -0.014440 332047.000000 1 0 0
-8.465423 0.901823 -9.152013 12.499441 -0.106130 2.392334 0.006455 -0.008897 149812.000000 1 0 0
-9.982723 -5.774277 -11.802013 16.501047 0.524406 2.367747 0.014093 -0.005710 -1655370.000000 1 0 0
2.141377 9.538623 6.373887 11.670358 1.349962 0.993023 -0.003585 0.008230 -597694.000000 1 0 0
-11.434423 1.666723 -1.235013 11.621069 -0.144744 1.677271 -0.000784 -0.000923 -1346100.000000 1 0 0
-6.044923 -5.344977 -2.995613 8.607181 0.724022 1.926272 0.016726 -0.005217 743938.000000 1 0 0
-7.043223 -8.267177 1.366987 10.946317 0.865171 1.445588 0.008877 -0.000772 117087.000000 1 0 0
0.021277 11.068923 -7.880513 13.587641 1.568874 2.189496 0.007842 0.001297 663807.000000 1 0 0
-2.921923 9.402023 -4.377813 10.775014 -1.269483 1.989190 0.002078 0.003587 -14860.800000 1 0 0
3.417177 -4.762177 9.437787 11.109782 -0.948378 0.555755 0.001190 -0.001487 -765703.000000 1 0 0
-9.021523 1.553723 -0.431213 9.164490 -0.170551 1.617866 0.001337 -0.001089 -1777620.000000 1 0 0
2.478377 3.560223 -10.556913 11.413411 0.962673 2.751718 0.005242 -0.000910 -209977.000000 1 0 0
-13.727523 0.461223 1.160687 13.784223 -0.033586 1.486492 -0.003371 -0.001117 49621.900000 1 0 0
9.383477 -12.641977 -5.046913 16.533014 -0.932275 1.881011 0.017090 -0.007359 -2767610.000000 1 0 0
-4.746223 9.441723 -8.512213 13.569471 -1.105002 2.248886 0.002039 -0.000530 -517998.000000 1 0 0
-2.340223 7.217423 8.365987 11.294139 -1.257246 0.736630 -0.001251 0.001884 373328.000000 1 0 0
-10.766623 -1.255877 -4.520113 11.744310 0.116121 1.965871 -0.000130 -0.001416 -4672080.000000 1 0 0
2.843877 -7.113077 9.683487 12.347203 -1.190454 0.669285 0.000919 0.002916 -1117310.000000 1 0 0
-16.053923 -6.551077 3.501087 17.689055 0.387441 1.371557 0.010823 -0.008011 -731435.000000 1 0 0
-10.894623 -0.052377 6.222887 12.546708 0.004808 1.051836 0.004248 -0.003125 -1585580.000000 1 0 0
-8.316423 9.835923 9.287487 15.879726 -0.868912 0.946083 0.004432 -0.006076 -855056.000000 1 0 0
0.232177 -5.993977 -3.720913 7.058814 -1.532081 2.126016 0.008945 -0.001973 361885.000000 1 0 0
5.004377 1.485623 -2.967613 6.004797 0.288578 2.087719 0.000281 0.002932 -924890.000000 1 0 0
0.310877 5.421823 3.738587 6.593166 1.513521 0.967889 0.002454 0.004797 -822726.000000 1 0 0
6.028677 -11.284377 -1.466913 12.877653 -1.080126 1.684956 -0.001857 -0.003069 -1030070.000000 1 0 0
6.233277 -13.554277 5.320487 15.839184 -1.139761 1.228229 0.010618 -0.004558 581487.000000 1 0 0
8.047777 -8.282277 -5.899513 12.967925 -0.799757 2.043091 -0.000419 -0.003067 669174.000000 1 0 0
-13.132723 -1.457477 -4.713413 14.028860 0.110528 1.913442 -0.000578 -0.000646 -3120530.000000 1 0 0
-6.769323 -1.746777 -7.119913 9.978383 0.252534 2.365325 0.012270 -0.006632 -737355.000000 1 0 0
-5.630523 12.847423 -4.671313 14.784459 -1.157747 1.892266 0.001055 0.003330 920782.000000 1 0 0
-4.303723 6.902123 -6.727013 10.555285 -1.013250 2.261802 0.005767 -0.000872 -3744060.000000 1 0 0
-9.341123 -3.694077 -8.140313 12.929326 0.376590 2.251835 0.013347 -0.005024 616554.000000 1 0 0
-2.154723 -6.298277 9.100187 11.274951 1.241165 0.631547 0.001899 -0.001609 -498696.000000 1 0 0
7.528377 -6.077177 10.022987 13.930858 -0.679138 0.767742 0.003410 -0.000615 297794.000000 1 0 0
9.714177 -4.910977 12.128287 16.296572 -0.468076 0.731425 0.005903 -0.003134 -191889.000000 1 0 0
-6.531323 2.739423 -8.987513 11.442815 -0.397142 2.474184 0.004249 -0.006754 -1021090.000000 1 0 0
7.359077 5.535323 8.860387 12.778978 0.644892 0.804660 -0.002981 0.000336 -29398.400000 1 0 0
12.683877 3.294623 11.044787 17.138337 0.254133 0.870494 0.028356 -0.004222 -519613.000000 1 0 0
-7.607523 -7.235777 -3.819413 11.172233 0.760359 1.919699 0.011639 -0.007534 -1186400.000000 1 0 0
2.357977 1.417923 -5.856913 6.471011 0.541397 2.702411 0.003305 0.000689 -241193.000000 1 0 0
12.898477 7.032023 -7.128313 16.328898 0.499137 2.022552 0.005428 -0.003329 21572.100000 1 0 0
0.803077 -7.684577 1.050587 7.797525 -1.466669 1.435652 0.003588 -0.000396 1392940.000000 1 0 0
-10.348523 -6.002377 -8.507113 14.679626 0.525601 2.188934 0.013573 -0.004816 135419.000000 1 0 0
-6.771523 0.232523 3.019787 7.417999 -0.034325 1.151531 0.005401 -0.004622 -1278680.000000 1 0 0
10.712377 -7.896777 1.236287 13.365722 -0.635235 1.478167 0.002931 -0.000234 -175038.000000 1 0 0
6.160977 1.056123 10.522787 12.239366 0.169771 0.536018 0.003297 -0.001993 -1219580.000000 1 0 0
-13.055423 5.388123 1.813087 14.239495 -0.391416 1.443122 0.003459 -0.001594 203893.000000 1 0 0
2.080277 7.447723 3.648887 8.550468 1.298421 1.129904 -0.000664 0.003813 -2239.310000 1 0 0
9.996877 -9.423577 -0.837013 13.763791 -0.755886 1.631647 0.001974 0.000047 754225.000000 1 0 0
6.776477 -11.693477 -9.061513 16.271726 -1.045580 2.161429 0.010501 -0.009047 -529821.000000 1 0 0
10.201677 3.587223 11.749387 15.968421 0.338127 0.743965 0.012666 -0.001512 86303.100000 1 0 0
-11.137523 -3.167277 -1.853713 11.726565 0.277065 1.729540 -0.002153 0.000265 456507.000000 1 0 0
12.348677 0.962623 6.909687 14.183097 0.077796 1.061941 0.013208 -0.003475 -272720.000000 1 0 0
-9.551323 9.116123 2.988687 13.537493 -0.762089 1.348191 0.003643 -0.003989 935018.000000 1 0 0
-6.654723 7.619123 -8.882813 13.462568 -0.852860 2.291370 0.001432 -0.003988 -1463940.000000 1 0 0
8.400577 5.520423 11.971087 15.631753 0.581384 0.698483 0.011552 0.000508 -1190700.000000 1 0 0
1.351677 4.829523 -2.718413 5.704480 1.297901 2.067511 0.006758 0.000599 689420.000000 1 0 0
1.316577 0.620923 9.599687 9.709424 0.440686 0.150489 -0.000049 -0.000710 690963.000000 1 0 0
2.486477 12.531523 -3.948213 13.371986 1.374923 1.870524 0.009618 -0.003175 662976.000000 1 0 0
1.980977 0.636923 13.162587 13.326051 0.311081 0.156791 0.006142 -0.002898 472007.000000 1 0 0
-12.263123 -1.840277 0.888987 12.432261 0.148954 1.499229 -0.005708 -0.000292 -24000.000000 1 0 0
3.304977 8.649423 -1.254713 9.343966 1.205812 1.705484 0.011096 -0.001780 -294396.000000 1 0 0
3.677777 -2.889077 -5.783613 7.437942 -0.665868 2.461608 -0.000246 -0.002404 -1624250.000000 1 0 0
-7.651223 -7.232177 9.213187 13.990297 0.757250 0.851918 0.006605 -0.006325 -134555.000000 1 0 0
-7.058123 10.867723 -3.556713 13.437809 -0.994803 1.838668 -0.001884 0.003101 306878.000000 1 0 0
0.340777 0.528123 2.519087 2.596313 0.997760 0.244513 0.004057 -0.000716 -3491910.000000 1 0 0
-7.027323 4.602423 -2.023013 8.640495 -0.579835 1.807122 0.003365 -0.001197 -555950.000000 1 0 0
-7.099023 -4.053277 -5.778213 10.010641 0.518795 2.186101 0.008752 -0.006107 -490277.000000 1 0 0
3.111577 -5.997677 13.593487 15.180149 -1.092224 0.461293 0.009234 -0.000014 -572957.000000 1 0 0
-5.532523 -0.470177 -11.504313 12.774157 0.084780 2.691928 0.011550 -0.007202 -970148.000000 1 0 0
11.865977 2.522123 -0.521713 12.142269 0.209434 1.613776 -0.001497 0.004128 -663322.000000 1 0 0
6.187477 -10.980377 10.781187 16.585763 -1.057645 0.863177 0.011147 -0.001953 398205.000000 1 0 0
-8.200923 6.325323 -10.516713 14.760288 -0.656991 2.363852 0.004397 -0.008373 290062.000000 1 0 0
2.803377 7.866623 11.029787 13.834698 1.228464 0.648062 -0.005377 0.003438 773924.000000 1 0 0
-6.255723 -10.043177 -0.444513 11.840484 1.013721 1.608347 0.011081 0.001245 -544297.000000 1 0 0
11.297477 4.274623 6.027587 13.499526 0.361722 1.107942 0.008431 -0.003115 -257964.000000 1 0 0
-7.823923 10.611823 1.484587 13.267575 -0.935484 1.458666 -0.004171 -0.000164 334310.000000 1 0 0
4.326177 -2.754477 -3.548713 6.236691 -0.566969 2.176093 0.001091 -0.002199 -4401520.000000 1 0 0
6.349777 6.484423 6.319087 11.058855 0.795889 0.962579 0.000205 0.001496 -6050880.000000 1 0 0
-0.357523 10.374823 -10.264913 14.599083 -1.536349 2.350573 0.001302 0.000447 -363132.000000 1 0 0
14.013377 6.519123 -2.384813 15.638447 0.435428 1.723890 0.002042 0.004717 411818.000000 1 0 0
1.475677 9.440023 -6.371913 11.484465 1.415730 2.158954 0.007497 -0.000734 -927926.000000 1 0 0
0.619277 7.367523 7.135087 10.274890 1.486938 0.803183 -0.006410 0.005627 189097.000000 1 0 0
12.347277 6.421723 1.912787 14.048221 0.479592 1.434213 0.003532 0.000007 -509072.000000 1 0 0
-6.783223 6.742223 -3.173913 10.076875 -0.782367 1.891221 -0.000910 -0.000197 805249.000000 1 0 0
1.054377 9.757923 11.128887 14.838494 1.463161 0.722733 -0.008724 0.001462 -554024.000000 1 0 0
-3.444023 13.744523 -11.154013 18.032892 -1.325277 2.237676 0.006393 0.004191 47032.400000 1 0 0
-10.053023 -5.542577 -2.292913 11.706446 0.503867 1.767938 0.000748 -0.001507 -1031200.000000 1 0 0
-4.015823 3.978323 -12.431413 13.656278 -0.780707 2.714823 0.005612 -0.009021 -568837.000000 1 0 0
-3.242123 8.576523 2.481987 9.498861 -1.209378 1.306435 -0.001957 0.008069 -3330550.000000 1 0 0
7.037777 8.942223 7.017187 13.369165 0.904016 1.018224 0.003907 0.002781 -1737410.000000 1 0 0
-1.358723 -2.247077 -8.138113 8.551279 1.026956 2.829470 0.009661 -0.005832 -1081440.000000 1 0 0
0.811577 -1.269477 4.898687 5.125170 -1.001980 0.298394 0.003094 -0.002260 -891698.000000 1 0 0
2.627777 -8.790877 -6.056013 10.993636 -1.280330 2.154197 -0.003002 -0.000092 242492.000000 1 0 0
5.275377 3.948923 8.762087 10.963474 0.642577 0.644821 -0.002387 0.001418 150057.000000 1 0 0
6.157977 -7.488877 -2.861213 10.108932 -0.882615 1.857757 -0.002367 -0.001692 893280.000000 1 0 0
1.854177 2.316723 -8.331913 8.844544 0.895845 2.799456 0.005630 -0.002161 326705.000000 1 0 0
-5.431223 10.913623 -0.901513 12.223669 -1.109026 1.644615 -0.005120 0.003220 564378.000000 1 0 0
-5.456623 3.269923 -3.497013 7.259217 -0.539873 2.073429 0.006869 -0.000307 146253.000000 1 0 0
2.019577 13.654223 -6.399213 15.214021 1.423952 2.004917 0.003578 -0.002400 629611.000000 1 0 0
-5.190123 -2.545877 2.710787 6.384922 0.456038 1.132320 0.002446 -0.004141 648007.000000 1 0 0
10.361677 -3.346877 -1.849113 11.044689 -0.312427 1.739009 -0.005274 0.000653 -15659.100000 1 0 0
2.322477 -3.282477 7.006187 8.078070 -0.955029 0.521025 -0.001686 0.000507 -1945420.000000 1 0 0
-2.873823 9.853423 -11.711013 15.572303 -1.287011 2.421950 0.005557 -0.000378 -2639600.000000 1 0 0
0.475677 -1.925877 9.451087 9.657035 -1.328650 0.206893 0.000405 -0.002832 945179.000000 1 0 0
9.419077 2.631423 4.940887 10.956996 0.272426 1.102984 0.001711 -0.002284 -363862.000000 1 0 0
13.389777 2.169723 -5.158713 14.512276 0.160647 1.934216 0.006246 -0.000461 -2307760.000000 1 0 0
-6.484823 3.704323 7.610187 10.662546 -0.518996 0.775986 0.004868 -0.002749 765510.000000 1 0 0
10.500877 0.079123 1.915587 10.674462 0.007535 1.390364 -0.001886 0.001139 1967300.000000 1 0 0
15.374477 7.000523 -4.541813 17.493139 0.427281 1.833439 0.002453 0.004767 -759845.000000 1 0 0
8.132077 -5.052077 -9.262613 13.321042 -0.555900 2.339685 0.004955 -0.002204 1095440.000000 1 0 0
4.520277 5.777623 -2.153013 7.645214 0.906894 1.856274 0.006807 -0.001250 58078.900000 1 0 0
-1.638523 -10.482077 1.510687 10.716383 1.415735 1.429355 0.005352 -0.000067 -339073.000000 1 0 0
-2.779323 12.204023 -12.997513 18.044339 -1.346877 2.375045 0.006711 -0.000430 323780.000000 1 0 0
8.404777 4.353623 -9.634013 13.505870 0.477939 2.365021 0.002885 0.001811 -570336.000000 1 0 0
4.193777 7.598723 -8.996313 12.500480 1.066491 2.374134 0.007825 -0.003981 -400938.000000 1 0 0
-1.760623 -5.049077 -2.430213 5.873577 1.235278 1.997369 0.014112 -0.005274 -47075.300000 1 0 0
-3.230423 -8.918277 7.276587 11.954916 1.223272 0.916414 0.003637 0.000979 -1694420.000000 1 0 0
1.050877 7.226323 -1.463513 7.447547 1.426385 1.768593 0.009179 -0.000094 2168160.000000 1 0 0
0.492677 -0.733077 -2.216413 2.385921 -0.979064 2.762376 0.006879 -0.002476 -1028460.000000 1 0 0
4.123777 -6.542477 7.470387 10.752499 -1.008389 0.802713 0.002400 0.003208 -1019580.000000 1 0 0
-14.026723 3.853723 5.934987 15.710640 -0.268126 1.183411 0.002261 -0.004515 -1568830.000000 1 0 0
4.321177 6.508023 12.551687 14.784173 0.984658 0.556716 -0.002775 0.000660 -1748500.000000 1 0 0
8.384577 9.982423 -7.114713 14.851567 0.872175 2.070374 0.019732 -0.009478 690783.000000 1 0 0
12.426977 5.341323 9.493587 16.525365 0.405943 0.958821 0.032663 -0.002502 23956.600000 1 0 0
7.738177 4.009623 0.445587 8.726684 0.478071 1.519714 0.002729 0.002892 -2820760.000000 1 0 0
-10.964623 -7.477477 -0.951713 13.305690 0.598518 1.642384 -0.003502 0.000291 -1306810.000000 1 0 0
10.544877 6.932523 0.189387 12.621021 0.581581 1.555790 0.002788 0.002818 -254404.000000 1 0 0
14.599177 3.665623 4.247687 15.640192 0.245999 1.295754 0.012352 -0.004560 673517.000000 1 0 0
2.162777 5.557323 8.115387 10.070797 1.199656 0.633714 -0.007970 0.004798 -185219.000000 1 0 0
4.190177 0.130423 11.897187 12.614185 0.031116 0.338784 0.001350 -0.001940 -1024770.000000 1 0 0
-1.428923 -1.664977 -0.607013 2.276496 0.861547 1.840705 0.011431 -0.006046 -1144760.000000 1 0 0
3.088977 -5.256677 -9.458413 11.253267 -1.039523 2.569009 -0.003719 -0.001827 411487.000000 1 0 0
-3.973823 -5.401477 -1.282713 6.827340 0.936515 1.759798 0.012791 -0.005884 -148153.000000 1 0 0
-1.031923 -8.417477 8.436587 11.962223 1.448812 0.787994 0.003513 0.003076 -607028.000000 1 0 0
3.932277 8.564323 -5.936513 11.137891 1.140362 2.132940 0.010148 -0.002246 237729.000000 1 0 0
-14.199123 -1.851477 -2.617113 14.556522 0.129662 1.751569 -0.005904 -0.004469 -313148.000000 1 0 0
8.742177 -10.576577 -6.567013 15.212340 -0.880069 2.017162 0.001131 -0.006735 344600.000000 1 0 0
14.933477 6.235223 1.532487 16.255315 0.395529 1.476380 0.005365 0.003189 -1540950.000000 1 0 0
-5.879523 0.228623 -8.474413 10.316818 -0.038865 2.534688 0.010391 -0.008365 46002.200000 1 0 0
-8.075523 -4.452177 -12.925013 15.877403 0.503854 2.521889 0.012740 -0.008342 498050.000000 1 0 0
0.917477 -10.492277 12.086287 16.031468 -1.483575 0.716803 0.006613 -0.001352 -152345.000000 1 0 0
0.212077 11.739523 3.196287 12.168715 1.552733 1.305014 0.001480 0.004830 -897010.000000 1 0 0
5.112577 -13.314477 -3.659213 14.724251 -1.204171 1.821944 0.006782 -0.002194 927041.000000 1 0 0
-7.595123 1.493023 -7.041813 10.464327 -0.194102 2.308966 0.002174 -0.003717 876442.000000 1 0 0
1.455577 2.825423 4.023687 5.127551 1.095085 0.668553 0.001324 0.000971 -1952760.000000 1 0 0
17.380377 5.556023 2.245787 18.384517 0.309406 1.448334 0.006411 -0.002439 -75216.600000 1 0 0
2.491077 -8.147777 -3.470413 9.199755 -1.274085 1.957599 -0.002122 0.000703 436631.000000 1 0 0
-0.364923 -9.450077 -0.529313 9.471922 1.532200 1.626708 0.010098 0.000182 -620470.000000 1 0 0
0.794277 11.771523 -5.589313 13.055269 1.503424 2.013216 0.010017 -0.000818 -1973320.000000 1 0 0
6.103777 -4.929977 7.940087 11.162694 -0.679414 0.779442 0.003011 -0.001946 -775319.000000 1 0 0
-5.987023 -2.184877 -9.442813 11.392315 0.349918 2.547891 0.015600 -0.008365 -272860.000000 1 0 0
2.042077 -1.214077 11.327987 11.574427 -0.536388 0.206726 0.002123 -0.004173 334625.000000 1 0 0
17.923877 2.203523 -5.783913 18.962450 0.122324 1.880755 -0.003257 0.000926 -1892900.000000 1 0 0
-8.900823 4.750423 7.786687 12.744554 -0.490247 0.913496 0.007546 -0.005488 -590339.000000 1 0 0
11.451977 -7.115777 -4.869513 14.335069 -0.555976 1.917386 0.010786 -0.003923 -48147.200000 1 0 0
10.717377 0.725323 8.974587 13.997552 0.067574 0.874795 0.008202 -0.007835 185581.000000 1 0 0
-8.511823 -7.388877 -1.504913 11.371517 0.714893 1.703526 0.007945 -0.002622 -693765.000000 1 0 0
10.294977 -10.463577 -3.212313 15.026375 -0.793520 1.786237 0.011938 -0.003501 164602.000000 1 0 0
7.631177 -14.035177 -3.761013 16.412382 -1.072789 1.802008 0.009300 -0.004343 -983377.000000 1 0 0
1.706777 -1.199777 -11.644813 11.830225 -0.612702 2.964314 0.001631 -0.004309 133508.000000 1 0 0
-11.825623 -2.666577 -6.459213 13.735990 0.221782 2.060359 0.005565 -0.003490 137270.000000 1 0 0
2.734277 -12.310477 -6.368613 14.127397 -1.352235 2.038456 0.000648 0.001968 473856.000000 1 0 0
-5.551423 1.361923 0.992487 5.801566 -0.240577 1.398878 0.004597 -0.002155 576760.000000 1 0 0
0.156777 6.836223 -4.072713 7.958990 1.547867 2.107973 0.010507 0.000509 1040000.000000 1 0 0
5.397877 -11.773177 3.705187 13.471198 -1.140905 1.292160 -0.001627 -0.002188 -1691150.000000 1 0 0
-4.520123 -9.122877 1.152887 10.246343 1.110778 1.458041 0.007359 -0.000829 -1089420.000000 1 0 0
7.137877 -6.241577 -4.690413 10.578589 -0.718507 2.030171 -0.000696 -0.001919 -311871.000000 1 0 0
-7.027923 -5.921077 2.291787 9.471174 0.700128 1.326396 0.005760 -0.003655 -111369.000000 1 0 0
-6.421023 -0.917677 7.118287 9.630248 0.141956 0.738975 0.003801 -0.006415 -1575330.000000 1 0 0
4.191377 -4.939177 3.282087 7.261901 -0.867117 1.101835 -0.000875 -0.000302 -495202.000000 1 0 0
-2.415723 10.575523 -8.901913 14.032871 -1.346223 2.257979 0.002586 0.001019 -738850.000000 1 0 0
-2.363423 -4.905377 2.770587 6.109390 1.121812 1.100112 0.004431 -0.001511 -719010.000000 1 0 0
15.238477 5.171923 6.334687 17.294167 0.327200 1.195777 0.026868 -0.008392 -17393.700000 1 0 0
6.809777 0.315323 0.116787 6.818074 0.046271 1.553666 0.000588 0.000199 3552030.000000 1 0 0
-9.684723 9.256523 0.376987 13.402209 -0.762795 1.542664 -0.000576 -0.002256 -1948180.000000 1 0 0
7.256377 10.416323 -2.626813 12.963600 0.962332 1.774839 0.011154 -0.002115 -567721.000000 1 0 0
1.628677 -4.241977 -5.323613 6.999129 -1.204208 2.435050 0.004143 -0.003000 -327207.000000 1 0 0
0.850977 -8.175277 -7.848713 11.364929 -1.467078 2.333126 -0.001292 0.001496 1427480.000000 1 0 0
-10.466123 0.185823 -10.407013 14.760765 -0.017753 2.353284 0.010771 -0.009969 -4281180.000000 1 0 0
5.826477 -2.458177 0.507887 6.344164 -0.399240 1.490655 0.000952 -0.001876 79872.400000 1 0 0
-3.282323 5.215323 -1.238313 6.285432 -1.009067 1.769107 0.003888 -0.001108 1090280.000000 1 0 0
-0.430623 4.478423 -5.146313 6.835660 -1.474936 2.423197 0.009824 -0.001176 -559164.000000 1 0 0
4.006877 -9.776877 10.017587 14.560029 -1.181843 0.812040 0.001091 0.003768 226063.000000 1 0 0
7.231077 -13.552777 -0.656413 15.375211 -1.080671 1.613502 0.010001 -0.001973 238170.000000 1 0 0
12.935577 0.021623 0.568587 12.948085 0.001672 1.526869 -0.000812 -0.003723 377450.000000 1 0 0
9.354177 2.435223 -0.663513 9.688714 0.254682 1.639333 0.000235 0.002737 -1521300.000000 1 0 0
-0.765623 -5.691177 4.588987 7.350815 1.437071 0.896583 -0.000791 0.001044 -211923.000000 1 0 0
11.503877 -3.745577 3.417487 12.571704 -0.314768 1.295492 0.006190 -0.006984 -3041130.000000 1 0 0
1.788477 -8.054177 11.790487 14.390414 -1.352286 0.610556 0.003126 0.001548 326214.000000 1 0 0
9.472677 -6.047277 -5.870113 12.679093 -0.568171 2.052146 0.000246 -0.003523 -1861270.000000 1 0 0
3.268377 6.305823 -0.095913 7.103161 1.092608 1.584300 0.006135 0.002335 -1424360.000000 1 0 0
6.448377 -1.288877 11.530887 13.274190 -0.197277 0.518286 -0.002181 -0.002137 659700.000000 1 0 0
-5.001423 -7.613277 -3.681713 9.825031 0.989562 1.954900 0.013967 -0.005904 -102156.000000 1 0 0
-3.450923 -8.490477 -5.500913 10.689112 1.184745 2.111370 0.012324 -0.002625 288187.000000 1 0 0
9.853577 5.426223 2.206087 11.463145 0.503369 1.377138 0.002850 0.000676 -427271.000000 1 0 0
8.855877 -1.444577 0.329187 8.978960 -0.161697 1.534126 -0.002231 -0.000074 831769.000000 1 0 0
-3.804123 9.639423 9.184787 13.847388 -1.194917 0.845594 -0.002413 0.002068 -127162.000000 1 0 0
-14.330823 -3.603077 -6.091513 15.983153 0.246316 1.961805 0.001075 -0.003802 -635363.000000 1 0 0
10.684577 6.292823 -6.016513 13.782534 0.532265 2.022536 0.005807 -0.001964 -2563830.000000 1 0 0
-1.908123 4.548223 2.539887 5.547819 -1.173567 1.095258 0.004922 0.003034 650176.000000 1 0 0
6.994777 -3.634377 2.597587 8.299582 -0.479192 1.252469 0.000923 -0.005017 -1893560.000000 1 0 0
8.301477 -11.294477 -1.559113 14.103566 -0.936962 1.681570 0.007025 -0.003991 -2666280.000000 1 0 0
4.531677 0.476023 1.847287 4.916824 0.104660 1.185636 0.002916 0.000358 623713.000000 1 0 0
-10.811823 2.405323 3.760387 11.697077 -0.218907 1.243503 0.001794 -0.002546 261731.000000 1 0 0
-0.869123 -2.986077 4.265487 5.278865 1.287563 0.629994 0.003558 -0.004536 506938.000000 1 0 0
8.645877 -8.785877 -8.473513 14.958049 -0.793429 2.173031 0.010442 -0.001614 -397428.000000 1 0 0
12.057677 -4.693377 1.030787 12.979903 -0.371200 1.491299 0.002195 -0.001578 816634.000000 1 0 0
2.943277 4.846523 3.436087 6.630110 1.025029 1.025987 0.000000 0.001207 683856.000000 1 0 0
6.137477 7.443423 1.949687 9.842482 0.881264 1.371388 0.007582 -0.000556 -210736.000000 1 0 0
-1.619023 -1.326677 -10.229913 10.441859 0.686477 2.939767 0.012674 -0.004889 9599.030000 1 0 0
-0.983723 -8.683277 5.937887 10.565298 1.457988 0.973973 -0.003346 -0.000176 -623062.000000 1 0 0
-4.302423 -0.236677 2.270487 4.870521 0.054955 1.085841 0.005171 -0.002850 742453.000000 1 0 0
-8.359023 6.093423 -8.006513 13.080800 -0.629901 2.229486 0.002081 -0.005287 -1641100.000000 1 0 0
6.494377 11.038023 -9.332013 15.846178 1.038977 2.200509 0.014125 -0.013794 542591.000000 1 0 0
-11.150423 -5.735377 3.140787 12.926370 0.475073 1.325365 -0.004420 -0.000119 1229470.000000 1 0 0
1.460077 -6.190077 3.071487 7.062784 -1.339156 1.120888 -0.000257 -0.000253 829959.000000 1 0 0
10.081777 2.252023 7.205587 12.595012 0.219768 0.961734 0.007441 -0.002781 -1456660.000000 1 0 0
-3.969523 -2.456577 -10.659813 11.637160 0.554171 2.728827 0.011877 -0.007985 -3100200.000000 1 0 0
-8.333223 11.790523 5.868787 15.585304 -0.955539 1.184717 0.000590 0.002591 189825.000000 1 0 0
6.966577 6.039523 -2.915413 9.669988 0.714240 1.877052 0.005538 0.000711 -2079220.000000 1 0 0
3.864577 -9.911277 -2.296713 10.883164 -1.199012 1.783429 -0.004512 -0.000773 -1766990.000000 1 0 0
8.460877 -12.981677 -7.369013 17.158459 -0.993188 2.014700 0.012967 -0.006327 301527.000000 1 0 0
-1.187323 9.479723 3.715287 10.250768 -1.446196 1.199912 -0.002548 0.005327 13542.600000 1 0 0
0.442277 -13.262777 4.718287 14.084001 -1.537461 1.229180 0.005718 -0.000626 -1105980.000000 1 0 0
-11.316223 -7.030577 -5.101913 14.265884 0.555922 1.936526 0.007151 -0.003703 181862.000000 1 0 0
3.653777 10.370723 -3.353913 11.495682 1.232059 1.866857 0.013853 -0.003296 -1027730.000000 1 0 0
11.620477 -8.196577 -7.402913 16.031921 -0.614312 2.050776 0.026758 -0.003626 123888.000000 1 0 0
11.634177 -4.741877 -5.912213 13.885018 -0.387025 2.010640 0.009699 -0.002990 143560.000000 1 0 0
1.267977 -10.305677 -2.608313 10.705982 -1.448375 1.816905 0.001114 0.001822 -601718.000000 1 0 0
2.429177 -11.994077 -3.919713 12.850017 -1.370968 1.880772 0.002779 0.001738 -120737.000000 1 0 0
-7.587823 -5.587877 7.263187 11.897618 0.634758 0.914137 0.005943 -0.000927 -2883210.000000 1 0 0
-7.346623 -0.750177 9.536387 12.061439 0.101759 0.658925 0.002618 -0.005816 403756.000000 1 0 0
16.177477 2.591023 -7.528713 18.030687 0.158814 2.001544 -0.001050 0.004655 76459.700000 1 0 0
-1.995323 6.356023 -5.512413 8.646794 -1.266613 2.262058 0.006127 0.000098 -1390470.000000 1 0 0
7.699477 1.126223 8.402987 11.452533 0.145243 0.747011 0.004114 -0.005681 -319224.000000 1 0 0
7.979577 8.303523 -3.845813 12.141352 0.805290 1.893101 0.010469 -0.001859 -390788.000000 1 0 0
8.133277 0.523923 4.042887 9.097781 0.064328 1.110312 0.003307 -0.000675 534113.000000 1 0 0
-6.975823 5.881823 5.325287 10.564877 -0.700517 1.042508 0.006649 -0.004491 -234652.000000 1 0 0
-6.090923 -2.110977 -4.525113 7.876053 0.333623 2.182839 0.012393 -0.007475 -775972.000000 1 0 0
-15.184123 -2.147777 3.175087 15.660515 0.140517 1.366636 0.004529 -0.004982 -1730480.000000 1 0 0
1.085377 1.213923 -10.540113 10.665160 0.841247 2.988310 0.005948 -0.005397 528645.000000 1 0 0
1.554877 -9.135077 9.442587 13.229880 -1.402203 0.775984 0.000820 0.000655 -455821.000000 1 0 0
-0.238623 -6.797377 -1.212213 6.908743 1.535706 1.747170 0.008986 -0.001010 650452.000000 1 0 0
-0.443023 -10.296777 -8.264813 13.210867 1.527797 2.246706 0.001890 0.003118 -37857.600000 1 0 0
-4.419023 6.558023 3.787487 8.768152 -0.977848 1.124132 0.000815 0.002480 -138477.000000 1 0 0
10.776177 -1.172677 -8.763613 13.939228 -0.108395 2.250679 0.011176 -0.000114 620525.000000 1 0 0
3.088277 -0.976477 6.318787 7.100566 -0.306242 0.473672 0.000017 0.000542 636852.000000 1 0 0
1.834277 -12.349377 6.786687 14.210236 -1.423342 1.072885 0.001837 0.000105 -147424.000000 1 0 0
2.949777 -4.988677 -1.362613 5.953553 -1.036803 1.801717 0.005935 -0.001871 -1230500.000000 1 0 0
-1.100423 9.485423 -1.648113 9.690225 -1.455301 1.741707 0.003377 0.001549 515234.000000 1 0 0
4.548777 -2.490177 2.635187 5.816920 -0.500875 1.100645 0.002620 -0.001773 -1233240.000000 1 0 0
17.631677 6.531823 -2.775313 19.006396 0.354784 1.717340 -0.005845 0.001936 -262668.000000 1 0 0
-7.072323 3.447223 -5.581813 9.646644 -0.453537 2.187841 0.004430 -0.004113 -1286580.000000 1 0 0
-13.819023 -6.042877 2.322787 15.260311 0.412232 1.417991 -0.006172 -0.002482 201284.000000 1 0 0
6.685777 -6.046777 3.287087 9.595211 -0.735254 1.221139 0.000477 -0.003784 22464.700000 1 0 0
-4.733023 2.023323 3.389287 6.163003 -0.403978 0.988503 0.004846 -0.002839 907388.000000 1 0 0
6.861077 -12.191877 -5.487013 15.027427 -1.058211 1.944572 0.007309 -0.002915 465008.000000 1 0 0
2.801777 -12.188277 3.278387 12.928723 -1.344847 1.314423 0.004877 -0.002005 430329.000000 1 0 0
3.342577 11.253623 -6.015213 13.190892 1.282074 2.044306 0.009028 -0.002438 -574124.000000 1 0 0
-5.642323 -8.267177 6.558387 11.966389 0.971914 0.990744 0.008399 -0.003700 574554.000000 1 0 0
-4.012923 6.481323 6.333187 9.910618 -1.016413 0.877559 0.001676 0.002212 175148.000000 1 0 0
4.340177 4.398623 -7.035013 9.363569 0.792086 2.420852 0.003807 0.001727 -2091800.000000 1 0 0
-0.248923 -2.838977 1.528787 3.234029 1.483339 1.078423 0.004271 -0.001126 -1636060.000000 1 0 0
-13.283723 -0.956777 6.700087 14.908517 0.071902 1.104688 0.005980 0.001586 -455840.000000 1 0 0
-0.495023 -9.358877 -5.879313 11.063451 1.517952 2.131070 0.004049 0.001203 414937.000000 1 0 0
2.171477 -1.727277 -3.938613 4.817828 -0.671954 2.527867 0.001310 -0.001123 -2053720.000000 1 0 0
11.367277 -1.956477 1.196787 11.596339 -0.170445 1.467408 0.000335 -0.001666 550461.000000 1 0 0
0.606377 -4.272677 -1.948913 4.735158 -1.429818 1.994987 0.008605 -0.002843 -1083290.000000 1 0 0
1.161777 -7.439577 -11.252313 13.539261 -1.415886 2.551857 -0.003391 0.001883 -446072.000000 1 0 0
-4.536123 4.149623 -9.969513 11.712684 -0.740929 2.589011 0.004116 -0.007205 396242.000000 1 0 0
-0.992123 5.785623 -2.191413 6.265783 -1.400967 1.928093 0.006837 0.000244 -3092520.000000 1 0 0
-11.364323 1.740023 -3.903313 12.141309 -0.151933 1.898099 -0.000656 0.000008 -451422.000000 1 0 0
-1.715523 -11.310677 4.125287 12.161103 1.420271 1.224709 0.007306 0.000083 -179009.000000 1 0 0
-3.491823 -5.433677 -9.495213 11.483760 0.999622 2.544259 0.006952 -0.001078 -1414850.000000 1 0 0
-12.857223 -3.895077 -8.449613 15.870595 0.294160 2.132238 0.010533 -0.001539 53658.100000 1 0 0
11.459777 4.530523 0.510387 12.333394 0.376484 1.529402 0.002280 0.002119 -255947.000000 1 0 0
-9.026223 -2.397477 -3.092513 9.837898 0.259618 1.890565 0.002233 -0.002560 -318734.000000 1 0 0
-2.451623 -6.097577 -6.334013 9.127465 1.188511 2.337758 0.009211 -0.004423 1017300.000000 1 0 0
0.018877 2.601923 -2.000113 3.281891 1.563541 2.226149 0.008186 0.000448 1044050.000000 1 0 0
8.183977 6.058523 -5.158213 11.414479 0.637258 2.039691 0.004790 0.000036 67452.500000 1 0 0
-9.846323 -0.943477 -0.971713 9.939037 0.095529 1.668720 0.001277 -0.001638 -695770.000000 1 0 0
6.280677 0.521123 -8.872413 10.882931 0.082783 2.523974 -0.002493 0.001736 534176.000000 1 0 0
-4.088123 2.421623 7.871587 9.194503 -0.534780 0.543084 -0.000788 0.000250 -916035.000000 1 0 0
-10.167123 -3.410677 1.451687 10.821761 0.323665 1.436246 -0.002110 -0.001647 1919510.000000 1 0 0
-1.867723 -8.199477 -7.674413 11.384921 1.346832 2.310523 0.006708 -0.001165 40557.800000 1 0 0
-9.464623 -9.844477 4.216787 14.292449 0.805068 1.271303 0.001485 0.000927 140165.000000 1 0 0
-1.138723 -10.707177 7.384287 13.056340 1.464843 0.969671 0.003869 -0.000341 -2837.080000 1 0 0
9.435777 3.825123 -3.722713 10.840851 0.385140 1.921328 -0.001365 0.004022 -396690.000000 1 0 0
12.720977 -0.560477 3.183287 13.125193 -0.044031 1.325821 0.004407 -0.005004 -182252.000000 1 0 0
6.559777 11.837323 -6.872613 15.178462 1.064764 2.040685 0.017236 -0.006647 429914.000000 1 0 0
-11.859923 -0.035577 -6.497513 13.523192 0.003000 2.071989 0.003128 -0.001047 500466.000000 1 0 0
-7.583823 -6.592877 -11.376213 15.178887 0.715612 2.418067 0.013992 -0.007050 -1306880.000000 1 0 0
4.105177 6.056723 6.526387 9.804596 0.975133 0.842438 -0.003058 0.003709 -3368600.000000 1 0 0
-4.259523 -1.517577 -7.401513 8.673464 0.342257 2.593177 0.013594 -0.009978 30705.900000 1 0 0
9.669577 9.425423 0.796087 13.526754 0.772613 1.511910 0.011859 0.000841 -2498410.000000 1 0 0
-9.042223 4.087823 4.846887 11.043750 -0.424584 1.116444 0.005358 -0.004868 -347146.000000 1 0 0
-6.969823 7.858323 -12.200813 16.099426 -0.845246 2.430795 0.004793 -0.009082 -211474.000000 1 0 0
11.260877 -3.650677 7.261787 13.887705 -0.313500 1.020555 0.010121 -0.008744 1798760.000000 1 0 0
11.841177 6.929123 6.475487 15.170964 0.529445 1.129807 0.017955 -0.006976 168014.000000 1 0 0
-9.964023 -0.732377 -14.820313 17.873439 0.073370 2.548437 0.017366 -0.002674 377251.000000 1 0 0
1.770577 -12.997577 12.107687 17.851276 -1.435406 0.825413 0.009721 -0.002957 207118.000000 1 0 0
2.879177 3.078223 13.024487 13.689499 0.818797 0.312975 -0.000340 -0.000970 -883440.000000 1 0 0
-2.638723 -1.406777 11.104587 11.500162 0.489797 0.263045 0.004180 -0.006140 -263437.000000 1 0 0
2.517777 -10.158977 -8.143513 13.261253 -1.327854 2.232020 -0.002533 0.003990 -1181480.000000 1 0 0
13.889777 3.529723 -7.497413 16.173931 0.248856 2.052793 0.003689 -0.000338 -3232420.000000 1 0 0
7.338777 -1.593777 5.004987 9.024836 -0.213851 0.982939 0.001162 -0.002357 545444.000000 1 0 0
-1.247723 8.738123 10.087387 13.403991 -1.428964 0.718846 -0.005086 0.001008 -55448.400000 1 0 0
-12.294723 -4.665177 0.961887 13.185193 0.362662 1.497779 -0.008250 -0.000004 388136.000000 1 0 0
-4.897023 4.785223 -5.335213 8.680074 -0.773852 2.232739 0.006952 -0.002661 11376.200000 1 0 0
-11.249023 0.241023 2.263787 11.477079 -0.021423 1.372250 -0.001624 0.001405 -3448860.000000 1 0 0
-1.386623 2.163923 -4.210213 4.932665 -1.000922 2.593533 0.010455 -0.003229 674408.000000 1 0 0
3.262677 -9.773577 13.104787 16.670432 -1.248602 0.666307 0.009544 -0.000521 -1705150.000000 1 0 0
8.958077 4.698123 -1.448613 10.218512 0.483021 1.713039 0.002064 0.000227 -544666.000000 1 0 0
4.004677 2.285623 3.787787 5.967314 0.518626 0.883104 -0.001198 0.002765 893584.000000 1 0 0
-5.403023 -3.156477 7.552787 9.808190 0.528725 0.691878 0.005079 -0.005031 364317.000000 1 0 0
1.727977 -5.703477 7.836587 9.845184 -1.276618 0.650169 -0.002639 0.001131 -1046920.000000 1 0 0
-5.852423 -6.134577 -9.703513 12.885731 0.808932 2.423471 0.012100 -0.004958 -298004.000000 1 0 0
-11.668023 -5.700577 5.530687 14.114809 0.454457 1.168170 0.005787 -0.003643 -1707100.000000 1 0 0
10.649077 6.282123 4.477487 13.149745 0.532976 1.223348 0.004904 -0.002853 -851928.000000 1 0 0
1.524177 -3.792977 0.460587 4.113627 -1.188703 1.458595 0.008984 -0.002325 -1057770.000000 1 0 0
8.820877 4.424823 6.894387 12.038252 0.464951 0.960992 0.001330 0.001626 181180.000000 1 0 0
-7.811623 12.174623 3.484087 14.878903 -1.000326 1.334439 -0.006415 0.001131 -270112.000000 1 0 0
-6.088923 13.250423 -7.153113 16.242405 -1.140048 2.026838 0.006716 -0.003423 882930.000000 1 0 0
4.435477 -6.965277 -1.003313 8.318364 -1.003758 1.691705 -0.000026 -0.002680 -189953.000000 1 0 0
-1.865023 -8.154477 10.994087 13.814621 1.345952 0.650420 0.000184 -0.006166 -424058.000000 1 0 0
11.562677 8.818723 -5.765213 15.642987 0.651573 1.948244 0.014707 -0.006578 469547.000000 1 0 0
-3.382023 -2.976777 -1.849313 4.870240 0.721754 1.960287 0.015035 -0.007308 -2424150.000000 1 0 0
-2.121923 5.932123 4.715887 7.869703 -1.227278 0.928238 0.000609 0.003253 1189780.000000 1 0 0
0.295177 -11.530877 -5.667613 12.851852 -1.545203 2.027504 0.002973 -0.002637 1320060.000000 1 0 0
-8.908923 6.181523 -1.544013 10.952813 -0.606592 1.712237 0.002624 -0.000567 -548464.000000 1 0 0
2.915277 -0.021777 3.995087 4.945709 -0.007470 0.630405 0.001167 0.000070 -14193.400000 1 0 0
-10.068923 3.912023 -1.071913 10.855235 -0.370575 1.669704 0.004533 -0.002117 94216.100000 1 0 0
6.409977 5.541023 13.564487 15.993313 0.712816 0.558341 0.007897 0.002585 -1568900.000000 1 0 0
-8.815123 -1.645077 5.681487 10.615647 0.184498 1.006053 0.003649 -0.004436 -182307.000000 1 0 0
12.976277 -1.761877 -1.423113 13.172442 -0.134952 1.679045 0.003362 -0.000674 -1368050.000000 1 0 0
5.298877 -5.398777 5.503887 9.355088 -0.794736 0.941803 -0.002318 -0.001692 182152.000000 1 0 0
-8.972823 -1.283077 3.189987 9.609051 0.142033 1.232397 0.001882 -0.003871 341938.000000 1 0 0
1.962377 5.469823 5.525587 8.018853 1.226335 0.810585 0.001024 0.001677 -595670.000000 1 0 0
9.314177 3.089123 -7.435713 12.312043 0.320242 2.219229 0.000816 0.001713 -1650780.000000 1 0 0
2.385677 -2.453777 -1.476213 3.727154 -0.799469 1.978029 0.005077 -0.002004 285561.000000 1 0 0
-6.294023 0.312623 -3.905713 7.413977 -0.049629 2.125632 0.005741 -0.004010 -2960640.000000 1 0 0
-4.112823 4.161323 4.965787 7.674045 -0.791260 0.867037 0.003093 -0.000185 997768.000000 1 0 0
-6.393723 1.751723 -12.419813 14.078352 -0.267413 2.651294 0.008768 -0.008581 -2305740.000000 1 0 0
-0.194323 3.169023 6.216987 6.980788 -1.509553 0.472166 -0.000932 0.001107 1131220.000000 1 0 0
-8.639823 9.365723 -2.126713 12.918445 -0.825692 1.736175 -0.002082 0.001248 541917.000000 1 0 0
-1.292323 -3.764377 -6.153113 7.328126 1.240100 2.567448 0.007214 -0.004341 323186.000000 1 0 0
-3.209023 7.127723 -3.017013 8.378820 -1.147762 1.939146 0.002635 0.003125 1127020.000000 1 0 0
6.933377 -0.391677 -4.328613 8.183032 -0.056432 2.128188 -0.003444 0.004546 -354414.000000 1 0 0
-5.057223 -10.773277 6.921287 13.767470 1.131908 1.044045 0.003149 -0.002531 778846.000000 1 0 0
9.912977 8.409623 -1.554213 13.092152 0.703532 1.689790 0.009335 0.000305 -293322.000000 1 0 0
13.875277 4.739123 -4.424413 15.315287 0.329129 1.863862 0.002727 0.000744 460244.000000 1 0 0
4.676677 1.078823 -6.919013 8.420683 0.226716 2.535129 0.000100 0.002192 135379.000000 1 0 0
9.052177 -4.748877 3.428387 10.781817 -0.483142 1.247200 0.002149 -0.005251 -319291.000000 1 0 0
-8.837223 -3.319577 -0.808613 9.474701 0.359328 1.656245 -0.000072 -0.001653 -237557.000000 1 0 0
-8.502323 -4.226577 -10.430613 14.105004 0.461332 2.403120 0.014480 -0.007312 -191342.000000 1 0 0
10.409277 -1.053277 10.685187 14.954453 -0.100843 0.774865 0.005524 -0.004701 982002.000000 1 0 0
2.077977 -11.602577 9.957487 15.430144 -1.393579 0.869345 0.005237 -0.001674 -6959.150000 1 0 0
-6.445623 -10.530477 2.065287 12.518084 1.021533 1.405054 0.007522 0.001938 -955850.000000 1 0 0
-3.744823 -1.139077 6.852987 7.892061 0.295282 0.518952 0.002956 -0.000532 -2940330.000000 1 0 0
4.800177 -7.455677 3.982587 9.720587 -0.998772 1.148664 -0.003276 0.001749 132218.000000 1 0 0
11.549977 -9.570277 -5.262813 15.896206 -0.691937 1.908237 0.018529 -0.005002 93767.600000 1 0 0
11.258877 1.220423 11.411387 16.077049 0.107975 0.781591 0.007988 -0.005465 -274588.000000 1 0 0
-10.245823 -3.398277 4.380887 11.649779 0.320257 1.185268 0.005487 -0.001177 2189310.000000 1 0 0
2.119577 8.819023 8.858687 12.678490 1.334929 0.797193 -0.009225 0.006055 -95205.000000 1 0 0
6.564077 8.775323 4.109187 11.703795 0.928567 1.212052 0.005755 0.001107 143062.000000 1 0 0
-4.209223 3.472623 0.390587 5.470761 -0.689802 1.499340 0.005205 -0.000572 451679.000000 1 0 0
4.845677 6.941623 4.179987 9.441346 0.961373 1.112153 0.004640 0.001395 -1527230.000000 1 0 0
-8.191323 13.023223 1.085387 15.423365 -1.009341 1.500365 -0.005894 -0.000639 979587.000000 1 0 0
8.946577 8.153123 -9.166413 15.183471 0.739030 2.218943 0.008025 -0.008965 -679590.000000 1 0 0
7.006977 1.886523 6.055487 9.451223 0.262999 0.875375 -0.001874 -0.000123 -295023.000000 1 0 0
11.516877 -6.171877 3.044487 13.416386 -0.491952 1.341879 0.006126 -0.001850 -475400.000000 1 0 0
11.481877 4.771623 -2.132113 12.615379 0.393864 1.740620 0.001897 0.003165 -263534.000000 1 0 0
-3.921523 14.391223 -6.082013 16.108275 -1.304761 1.957968 0.003949 0.004235 -888464.000000 1 0 0
7.014677 -3.080477 6.869087 10.289771 -0.413792 0.839863 0.002196 -0.006242 -1202270.000000 1 0 0
-8.077023 -0.497177 0.905587 8.142824 0.061477 1.459353 0.002503 -0.002929 383332.000000 1 0 0
-3.187723 1.098523 10.667287 11.187464 -0.331865 0.306141 0.000622 -0.001915 195554.000000 1 0 0
7.183677 -1.200777 -1.885713 7.523496 -0.165622 1.824141 0.000112 0.001258 -2063860.000000 1 0 0
-7.724323 5.342723 2.946987 9.843505 -0.605117 1.266749 0.004913 -0.001308 918199.000000 1 0 0
9.457377 -2.214477 2.879787 10.131094 -0.230010 1.282570 -0.000378 -0.003293 -1478770.000000 1 0 0
0.254877 3.448023 1.528687 3.780305 1.497011 1.154493 0.006776 0.000624 -5412210.000000 1 0 0
-7.451923 -3.130977 4.006587 9.021470 0.397761 1.110608 0.002285 -0.003755 1263850.000000 1 0 0
-2.277923 8.420123 -6.823713 11.074767 -1.306588 2.234641 0.001904 0.000571 -74790.800000 1 0 0
4.486877 9.854223 7.297087 13.057000 1.143523 0.977781 -0.002410 0.008283 -288124.000000 1 0 0
-11.771923 -3.012777 6.807387 13.928227 0.250551 1.060143 0.015548 -0.004093 -1049590.000000 1 0 0
-4.712423 2.190523 -5.604613 7.643102 -0.435126 2.393945 0.011609 -0.004751 -383572.000000 1 0 0
-2.719023 2.924423 -1.985113 4.459373 -0.821778 2.032144 0.009572 0.000076 1669120.000000 1 0 0
2.359777 5.209423 11.594387 12.928126 1.145465 0.458236 -0.004665 -0.001331 373690.000000 1 0 0
-0.696423 1.657523 4.551487 4.893712 -1.173033 0.376198 0.003413 -0.001134 -369522.000000 1 0 0
5.059077 1.562423 7.626487 9.284327 0.299543 0.606871 -0.002975 0.001544 151529.000000 1 0 0
3.273577 -8.127077 2.013887 8.990074 -1.187880 1.344867 -0.000294 0.000233 1898380.000000 1 0 0
5.063377 6.475823 -4.602213 9.420957 0.907196 2.081175 0.009968 -0.001453 -2331660.000000 1 0 0
-4.087623 2.795623 -7.983913 9.395054 -0.599855 2.586401 0.010964 -0.007549 996761.000000 1 0 0
-8.761723 -2.104877 -12.899713 15.735339 0.235768 2.531845 0.012527 -0.008285 -421772.000000 1 0 0
-7.865523 8.086923 1.237687 11.348861 -0.799276 1.461521 0.001525 -0.001511 -2800110.000000 1 0 0
7.382777 0.873723 -6.519113 9.887751 0.117798 2.290700 -0.002926 0.003648 309257.000000 1 0 0
8.925377 8.925223 5.467487 13.755558 0.785390 1.162033 0.008944 -0.000024 279088.000000 1 0 0
9.470077 -1.020377 -1.417413 9.629776 -0.107333 1.718524 -0.002783 0.000968 1830930.000000 1 0 0
5.455177 0.124723 4.275987 6.932429 0.022859 0.906114 -0.000620 0.001145 -559036.000000 1 0 0
-4.238123 -7.309177 -7.831513 11.520345 1.045335 2.318284 0.011529 -0.005099 -52853.400000 1 0 0
-2.276223 7.390223 -0.569913 7.753798 -1.272012 1.644364 0.001956 0.002366 444937.000000 1 0 0
13.323577 -3.480377 -7.448213 15.655881 -0.255510 2.066608 0.016468 -0.001463 1129140.000000 1 0 0
-4.787323 -5.043377 1.599387 7.135275 0.811439 1.344723 0.008268 -0.003430 2607670.000000 1 0 0
-8.978923 1.350223 2.521287 9.423431 -0.149259 1.299942 0.003027 -0.003317 -1744250.000000 1 0 0
-1.120423 11.133223 10.189787 15.133927 -1.470496 0.832123 -0.004766 0.003102 17473.500000 1 0 0
-8.554123 0.419423 7.403487 11.320802 -0.048992 0.857973 0.003763 -0.004956 77038.200000 1 0 0
-6.153723 12.921323 -2.150313 14.472482 -1.126332 1.719928 -0.005105 0.003809 -21577.100000 1 0 0
-12.995123 -0.790577 3.325487 13.437154 0.060762 1.320713 -0.003743 -0.002616 311611.000000 1 0 0
-6.661823 12.760923 8.738487 16.839899 -1.089666 1.025214 -0.002660 -0.001047 -564217.000000 1 0 0
-8.047523 0.948423 -14.058013 16.226209 -0.117312 2.618697 0.013191 -0.009895 -344300.000000 1 0 0
7.291177 2.863123 3.777087 8.696270 0.374183 1.121497 0.001265 0.001426 -351500.000000 1 0 0
-1.662923 0.704223 -1.965813 2.669394 -0.400587 2.398569 0.012142 -0.003842 891676.000000 1 0 0
-6.267923 9.597623 -10.424313 15.494113 -0.992266 2.308772 0.001471 -0.004622 -269814.000000 1 0 0
-10.017923 13.718723 5.209687 17.768033 -0.940064 1.273218 -0.002712 0.001644 625933.000000 1 0 0
-5.677223 8.250123 2.371387 10.291689 -0.968076 1.338289 -0.003027 0.003265 -1654210.000000 1 0 0
-2.390023 -10.854377 -1.157213 11.174473 1.354065 1.674541 0.008042 0.000345 221192.000000 1 0 0
-2.283523 -12.426877 8.862687 15.433372 1.389067 0.959103 0.004018 -0.003469 145298.000000 1 0 0
-14.732223 -6.558377 -1.787013 16.224800 0.418832 1.681161 -0.001746 0.002807 496882.000000 1 0 0
-2.783723 -9.344277 3.356987 10.311837 1.281261 1.239206 0.002362 -0.000744 -367494.000000 1 0 0
4.661777 -2.691977 7.605687 9.318014 -0.523679 0.615933 -0.000112 0.000359 -1961550.000000 1 0 0
-15.070223 -1.279977 -0.240213 15.126390 0.084731 1.586677 -0.003511 -0.004864 248652.000000 1 0 0
5.554577 8.741523 -2.863313 10.745516 1.004736 1.840521 0.010964 -0.002438 596710.000000 1 0 0
-5.547023 -5.707477 8.626587 11.737238 0.799654 0.745165 0.006439 -0.004929 -4070640.000000 1 0 0
3.452077 3.585723 6.990787 8.581687 0.804386 0.618728 -0.002609 0.001750 687206.000000 1 0 0
3.294877 2.398523 9.370287 10.218190 0.629243 0.410252 -0.002690 -0.000743 731532.000000 1 0 0
9.959477 -3.264777 5.256687 11.725302 -0.316768 1.105911 0.008478 -0.007207 -305325.000000 1 0 0
6.523777 9.974423 -5.081313 12.956408 0.991579 1.973802 0.013852 -0.005036 175594.000000 1 0 0
-4.496923 12.057923 -8.723713 15.547315 -1.213830 2.166519 0.003777 0.000735 -390911.000000 1 0 0
-3.448823 -7.186377 2.187187 8.265723 1.123348 1.302998 0.005709 -0.002321 884945.000000 1 0 0
-7.429523 -3.913577 1.156387 8.476505 0.484826 1.433947 0.005813 -0.003177 2498170.000000 1 0 0
-1.993223 -4.009677 -10.868413 11.754695 1.109469 2.750785 0.009790 -0.004688 -815314.000000 1 0 0
-5.200523 8.337523 -4.516513 10.814741 -1.013097 2.001627 0.001118 0.001415 -698310.000000 1 0 0
-10.937623 -3.273977 -10.183613 15.298905 0.290844 2.299152 0.019054 -0.006741 453667.000000 1 0 0
4.673177 -11.513277 -7.691713 14.613575 -1.185219 2.125087 0.008769 -0.003158 -463927.000000 1 0 0
-9.351423 -3.946377 7.327587 12.518648 0.399334 0.945505 0.005536 -0.003547 -1158280.000000 1 0 0
-5.857023 -9.639877 -5.083013 12.372105 1.024820 1.994177 0.011070 -0.005388 699898.000000 1 0 0
4.862977 4.435023 -9.592513 11.633326 0.739404 2.540241 0.002706 0.003753 294376.000000 1 0 0
-3.477123 -7.175277 -14.099213 16.197617 1.119546 2.626912 -0.000851 -0.003997 -253154.000000 1 0 0
0.687777 -0.890477 -8.775513 8.847351 -0.913132 3.014072 0.007739 -0.005556 -576947.000000 1 0 0
-7.744223 2.163523 -2.992113 8.579427 -0.272427 1.927038 0.005498 -0.001434 -559858.000000 1 0 0
-2.237923 7.491723 -12.610813 14.838019 -1.280515 2.586589 0.004505 -0.004388 -276750.000000 1 0 0
-9.926223 8.929623 7.512287 15.320004 -0.732594 1.058296 0.009752 -0.006013 -376320.000000 1 0 0
-10.668623 -3.153377 -14.222913 18.056981 0.287392 2.477812 0.022442 0.001030 -410705.000000 1 0 0
-3.217123 4.753623 7.923187 9.783849 -0.975830 0.626946 -0.000166 -0.001191 -638688.000000 1 0 0
8.765877 -2.240677 -3.597913 9.736848 -0.250255 1.949284 -0.003326 0.002728 -6520490.000000 1 0 0
1.898677 -8.419677 -1.053613 8.695173 -1.349002 1.692267 0.003541 0.000156 -958358.000000 1 0 0
-13.619723 -2.789477 5.065687 14.796595 0.202018 1.221374 0.010988 -0.009177 123479.000000 1 0 0
7.048677 2.776223 -1.935413 7.819021 0.375206 1.820923 0.000702 0.001931 1249470.000000 1 0 0
-11.083123 4.374223 8.837187 14.834599 -0.375907 0.932641 0.006407 -0.006232 -2799380.000000 1 0 0
-1.709623 -2.472677 7.901387 8.453926 0.965862 0.363548 -0.000808 -0.002945 -985801.000000 1 0 0
3.058977 11.930623 -10.003813 15.867368 1.319806 2.252948 0.006387 -0.007631 354554.000000 1 0 0
3.635177 -5.050977 -7.039613 9.395905 -0.946972 2.417682 -0.003205 -0.003567 523657.000000 1 0 0
8.223277 -13.832177 -9.820113 18.851685 -1.034428 2.118718 0.019254 -0.005185 -457858.000000 1 0 0
-6.383723 -5.705077 -0.349913 8.568679 0.729319 1.611644 0.010874 -0.005248 -876139.000000 1 0 0
-1.155523 -3.995077 9.803487 10.649142 1.289243 0.401209 0.000469 -0.003153 -108546.000000 1 0 0
2.772877 3.174523 1.753187 4.565097 0.852829 1.176627 0.001303 0.001124 -605798.000000 1 0 0
-9.084523 13.340423 7.699787 17.882454 -0.972952 1.125664 0.000077 -0.006832 536092.000000 1 0 0
4.007977 -11.027377 0.024887 11.733181 -1.222184 1.568675 -0.000606 -0.001626 186644.000000 1 0 0
-12.555923 -1.497477 -9.057213 15.553995 0.118704 2.192361 0.012565 -0.005222 -37719.800000 1 0 0
-4.180323 0.850923 -13.451013 14.111305 -0.200811 2.834473 0.008787 -0.008639 585849.000000 1 0 0
4.059077 -2.975077 4.990587 7.087535 -0.632496 0.789591 0.000908 0.000209 170432.000000 1 0 0
1.688977 -1.205177 1.167187 2.380634 -0.619765 1.058381 0.007719 -0.002660 211639.000000 1 0 0
8.168377 -8.971277 7.361587 14.191517 -0.832209 1.025430 0.011294 -0.003072 -1440380.000000 1 0 0
-0.025523 2.267223 -6.410213 6.799396 -1.559539 2.801615 0.007915 -0.003702 -961576.000000 1 0 0
-3.874123 -9.907077 -3.259613 11.125830 1.198033 1.868135 0.012297 -0.003515 1175780.000000 1 0 0
-9.442123 2.235923 -5.461013 11.134438 -0.232520 2.083416 0.000571 -0.000550 -398880.000000 1 0 0
8.832177 -7.632877 5.244987 12.797580 -0.712687 1.148515 0.005347 -0.001436 1247450.000000 1 0 0
-5.467523 -4.262277 4.818887 8.442896 0.662154 0.963362 0.003854 -0.005102 -1577500.000000 1 0 0
-0.175923 -12.318577 10.493387 16.182999 1.556516 0.865289 0.009260 -0.005173 -686245.000000 1 0 0
-14.191923 -8.338677 3.160987 16.761147 0.531226 1.381070 -0.001429 -0.006650 -1755050.000000 1 0 0
10.849777 -1.353977 -3.682413 11.537377 -0.124151 1.895652 0.002998 0.000280 -794306.000000 1 0 0
-13.677823 2.963723 2.757487 14.264299 -0.213382 1.376258 0.003481 -0.002423 -848543.000000 1 0 0
-6.362623 6.100523 0.925787 8.863207 -0.764371 1.466153 0.001305 0.001092 1041990.000000 1 0 0
7.183577 -6.905377 -0.526613 9.978243 -0.765655 1.623597 0.000446 -0.003240 546138.000000 1 0 0
-6.813123 7.720823 10.042187 14.383159 -0.847771 0.797929 0.005496 -0.004148 334018.000000 1 0 0
-12.629123 -5.185677 -1.922013 13.786955 0.389622 1.710660 -0.007133 -0.001247 -1804570.000000 1 0 0
-9.362023 -5.583577 0.231287 10.903087 0.537773 1.549582 -0.000153 -0.000707 -1203220.000000 1 0 0
-1.765323 1.940623 2.165987 3.402041 -0.832665 0.880620 0.007026 -0.000574 289192.000000 1 0 0
-7.075723 7.316323 7.561587 12.679591 -0.802114 0.931839 0.003519 -0.001782 189421.000000 1 0 0
5.610277 7.259923 -0.431913 9.185218 0.912879 1.617836 0.011095 -0.001055 -1433040.000000 1 0 0
0.055877 -3.895177 7.456887 8.413126 -1.556452 0.481417 -0.002199 -0.001298 -1742750.000000 1 0 0
6.536077 0.673723 13.098487 14.654165 0.102715 0.464958 -0.001936 -0.001638 705097.000000 1 0 0
5.870477 6.126823 -7.934713 11.617234 0.806762 2.322675 0.003652 0.000501 -686115.000000 1 0 0
9.936777 5.296323 8.960987 14.390617 0.489699 0.898612 0.008129 -0.000558 -1824700.000000 1 0 0
-1.136823 -5.083977 -8.506813 9.975222 1.350806 2.592109 0.013059 -0.003799 880949.000000 1 0 0
9.979577 -3.511477 -8.007713 13.268229 -0.338337 2.218711 0.010902 -0.005287 354656.000000 1 0 0
8.416877 -5.580877 1.264087 10.177815 -0.585500 1.446275 0.002525 -0.003420 1497700.000000 1 0 0
15.747477 3.098923 -4.999913 16.810279 0.194306 1.872798 0.003505 0.000735 -975271.000000 1 0 0
-6.850523 3.579823 1.125887 7.811045 -0.481534 1.426152 0.005160 -0.001304 857282.000000 1 0 0
-1.662623 3.742723 0.199387 4.100250 -1.152753 1.522149 0.008538 -0.002469 -1636520.000000 1 0 0
-2.620923 10.101223 6.886687 12.503216 -1.316929 0.987482 -0.004613 0.007072 382291.000000 1 0 0
5.501977 -5.674977 -8.737513 11.782243 -0.800875 2.406224 -0.001946 -0.004263 -1984310.000000 1 0 0
-1.265323 -0.820677 6.233387 6.413242 0.575384 0.237387 0.002377 -0.003420 386437.000000 1 0 0
-5.657623 4.957423 -7.791813 10.830378 -0.719531 2.373793 0.004184 -0.004544 -250027.000000 1 0 0
6.734277 -1.191477 2.567787 7.305042 -0.175115 1.211614 -0.000838 0.000535 -1187410.000000 1 0 0
8.812977 7.555323 3.229687 12.049164 0.708714 1.299436 0.005758 0.000001 149520.000000 1 0 0
-5.368423 -4.930777 -7.601813 10.531861 0.742931 2.377184 0.013606 -0.008334 751113.000000 1 0 0
-2.278723 7.886023 -10.073613 12.994599 -1.289501 2.457852 0.005203 -0.001273 369546.000000 1 0 0
-2.736023 -2.155077 1.615487 3.839268 0.667176 1.136491 0.004395 -0.002392 487025.000000 1 0 0
6.047077 -2.086477 -9.240213 11.238419 -0.332248 2.536059 -0.003793 -0.000634 1038920.000000 1 0 0
1.069877 -7.571577 5.155287 9.222277 -1.430424 0.977613 -0.002917 0.002475 265030.000000 1 0 0
1.729877 11.950223 1.103287 12.125079 1.427038 1.479678 0.005012 -0.001211 591903.000000 1 0 0
-1.159023 7.043023 2.539687 7.576115 -1.407695 1.228955 0.001982 0.004299 744734.000000 1 0 0
8.762177 7.851323 -6.640413 13.509778 0.730627 2.084638 0.009003 -0.007092 -299894.000000 1 0 0
3.604277 -11.312177 5.511787 13.089536 -1.262346 1.136157 0.002675 0.000376 -744210.000000 1 0 0
8.110377 -7.044277 12.403387 16.408658 -0.715166 0.713761 0.008916 0.000476 386338.000000 1 0 0
-8.694623 -0.015077 -3.991213 9.566947 0.001734 2.001145 0.004367 -0.002204 -1587390.000000 1 0 0
-3.140023 -5.015477 11.172387 12.642665 1.011430 0.487076 0.007701 -0.008873 600047.000000 1 0 0
-8.239323 0.152423 -11.562513 14.198640 -0.018497 2.522387 0.010328 -0.009143 -1798440.000000 1 0 0
1.503577 -5.031277 5.382187 7.519470 -1.280399 0.773075 -0.001660 0.001338 -289786.000000 1 0 0
6.755977 3.694123 -7.775713 10.943102 0.500378 2.361088 -0.000787 0.003186 328846.000000 1 0 0
16.325577 4.264023 -1.341913 16.926520 0.255479 1.650158 -0.000094 0.005646 108166.000000 1 0 0
7.976477 7.566523 0.059587 10.994544 0.759029 1.565377 0.007866 -0.002153 -1360490.000000 1 0 0
5.510277 -10.257277 14.021087 18.225415 -1.077828 0.693028 0.011596 -0.000870 -315149.000000 1 0 0
-5.165923 -9.170977 9.005487 13.852522 1.057807 0.863084 0.003109 -0.007339 449989.000000 1 0 0
-12.667523 -3.183877 2.893187 13.378107 0.246241 1.352811 -0.004667 -0.000603 673671.000000 1 0 0
-2.064623 -1.351077 -5.755613 6.262201 0.579458 2.736596 0.014990 -0.008289 -1214870.000000 1 0 0
-2.425923 13.098923 -4.452513 14.046058 -1.387671 1.893354 0.004131 0.005272 604385.000000 1 0 0
4.051277 -0.412077 -4.956913 6.415110 -0.101367 2.453870 -0.000405 0.001270 -453707.000000 1 0 0
-8.933123 3.691623 -7.438313 12.196609 -0.391877 2.226689 0.000983 -0.004372 6111.660000 1 0 0
-4.503723 7.939623 -11.343013 14.559707 -1.054809 2.463975 0.004822 -0.005924 -2199640.000000 1 0 0
-10.054323 -6.411277 7.342987 14.004047 0.567654 1.018848 0.002918 -0.003326 -1143630.000000 1 0 0
8.197477 5.271623 4.156387 10.595480 0.571494 1.167688 0.001415 0.001226 -1903770.000000 1 0 0
-6.650123 -7.484577 4.102487 10.820048 0.844366 1.181912 0.009577 -0.002884 -566995.000000 1 0 0
-4.139923 11.806823 8.142187 14.927667 -1.233553 0.993879 -0.003898 0.003544 257555.000000 1 0 0
-7.308723 9.903923 -7.922313 14.637902 -0.935044 2.142683 0.002433 -0.003626 -523678.000000 1 0 0
13.119577 5.516323 4.645687 14.971156 0.398023 1.255278 0.008920 -0.002208 -96095.800000 1 0 0
5.389177 4.068923 -3.672113 7.686597 0.646705 2.068865 0.004082 0.002522 611722.000000 1 0 0
-2.850023 -4.069477 5.097887 7.118408 0.959841 0.772518 0.002751 -0.003724 -1777800.000000 1 0 0
12.420577 -2.318677 -5.320513 13.709663 -0.184556 1.969349 0.005922 -0.003078 -2789330.000000 1 0 0
-5.258023 9.813423 7.053787 13.179757 -1.078921 1.006054 -0.002781 0.006187 -641765.000000 1 0 0
1.745377 3.805123 -0.480013 4.213753 1.140738 1.684960 0.006775 0.000147 622683.000000 1 0 0
-0.029723 9.649623 7.669287 12.326154 -1.567716 0.899251 -0.005714 0.008118 -1548910.000000 1 0 0
-5.442923 2.015023 5.831987 8.227867 -0.354564 0.782988 0.004247 -0.003166 805022.000000 1 0 0
8.776077 1.009423 10.769887 13.929427 0.114517 0.686964 0.005998 -0.002695 19574.800000 1 0 0
0.407677 -2.908377 -10.204713 10.618899 -1.431530 2.861375 0.005110 -0.004468 -3289600.000000 1 0 0
1.254177 10.601723 -2.741013 11.021916 1.453044 1.822121 0.009135 -0.000383 1910600.000000 1 0 0
2.386877 -4.272677 11.769287 12.746335 -1.061346 0.394089 0.001603 -0.001459 498416.000000 1 0 0
6.604677 -3.011577 9.475387 11.936260 -0.427813 0.653712 0.001028 -0.004563 372018.000000 1 0 0
-10.700123 -8.166277 5.621487 14.587043 0.651892 1.175182 0.005496 -0.002658 -1347540.000000 1 0 0
-2.955523 0.729123 -6.908813 7.549731 -0.241869 2.726570 0.014897 -0.007152 758962.000000 1 0 0
11.074277 2.683623 -5.113213 12.489451 0.237746 1.992595 0.002467 0.003761 -2435480.000000 1 0 0
-2.066423 -4.146277 0.070487 4.633216 1.108445 1.555582 0.009502 -0.003603 1090480.000000 1 0 0
-1.312723 -6.542077 -10.604313 12.528905 1.372768 2.579962 0.004499 -0.000289 923349.000000 1 0 0
0.253477 6.806523 -6.667313 9.531320 1.533573 2.345517 0.009585 0.000946 -2595310.000000 1 0 0
2.098477 3.871923 -6.249713 7.645541 1.074137 2.527736 0.005493 -0.000124 -966292.000000 1 0 0
1.552077 -14.809977 6.605387 16.290350 -1.466378 1.153294 0.014060 -0.006000 315710.000000 1 0 0
-1.659923 5.425123 -10.597713 12.020766 -1.273872 2.650074 0.007670 -0.004143 41020.800000 1 0 0
13.700477 4.376523 -0.724313 14.400752 0.309198 1.621114 0.000952 0.004794 495230.000000 1 0 0
-2.399423 3.244023 -6.279613 7.464212 -0.933956 2.570473 0.010749 -0.004507 -1458150.000000 1 0 0
5.733177 7.897823 14.240487 17.263731 0.942886 0.600808 0.008263 0.001141 446829.000000 1 0 0
15.967577 0.558823 -5.834213 17.009228 0.034983 1.920908 0.010745 0.000597 392699.000000 1 0 0
6.238577 -8.323277 10.693687 14.918168 -0.927594 0.771561 0.005638 0.003977 2162910.000000 1 0 0
0.089577 -5.872777 -6.337513 8.640695 -1.555545 2.394179 0.004664 -0.002455 -1987560.000000 1 0 0
8.654677 5.544023 -7.557713 12.757690 0.569725 2.204836 0.004675 0.000719 -439561.000000 1 0 0
-16.077523 -0.879377 5.338787 16.963570 0.054642 1.250634 0.012364 -0.007946 -107479.000000 1 0 0
-0.386323 3.986223 -12.402413 13.032999 -1.474183 2.829250 0.006303 -0.003908 806787.000000 1 0 0
-11.454923 3.730323 5.804287 13.372372 -0.314822 1.121812 0.004143 -0.006102 315012.000000 1 0 0
4.979577 -9.840677 -9.681213 14.675183 -1.102345 2.291215 -0.001872 0.001041 33114.300000 1 0 0
1.545777 11.114623 -11.799513 16.283512 1.432607 2.381293 0.002753 0.000645 -1880220.000000 1 0 0
5.952377 2.346023 1.196587 6.508950 0.375438 1.385908 0.002538 0.001117 -69581.400000 1 0 0
5.728277 4.560523 4.859287 8.787730 0.672384 0.984880 -0.001056 0.001565 830274.000000 1 0 0
0.408177 -1.571377 -6.401313 6.603987 -1.316655 2.893206 0.006560 -0.004135 250199.000000 1 0 0
12.769877 6.874923 -4.524613 15.192315 0.493871 1.873207 0.003607 -0.002521 -935826.000000 1 0 0
7.366577 3.247123 12.734887 15.066108 0.415170 0.563731 0.002163 0.002097 -611522.000000 1 0 0
-2.362223 -0.292077 8.772387 9.089564 0.123021 0.264951 -0.004614 -0.001428 808365.000000 1 0 0
2.361577 -15.261077 13.291187 20.374817 -1.417269 0.860136 0.021064 -0.009676 929097.000000 1 0 0
18.968777 4.507423 -1.821113 19.581823 0.233296 1.663931 0.008119 0.006204 648521.000000 1 0 0
-0.410123 -13.242177 7.288187 15.120884 1.539835 1.067866 0.002319 -0.002482 -1635620.000000 1 0 0
4.408277 1.610823 -0.592313 4.730591 0.350336 1.696335 0.003815 0.000336 658397.000000 1 0 0
2.800077 -0.550477 -7.346413 7.881195 -0.194118 2.771087 -0.001256 -0.000925 -45265.700000 1 0 0
7.183177 -11.361277 0.956187 13.475568 -1.007000 1.499780 0.000073 -0.001786 366507.000000 1 0 0
-11.846023 -7.365977 1.387887 14.018278 0.556302 1.471628 -0.007309 0.002181 238147.000000 1 0 0
0.216777 -6.901177 10.042987 12.187486 -1.539395 0.602289 -0.000824 -0.001937 -635095.000000 1 0 0
-4.570423 -7.152077 10.669587 13.633821 1.002168 0.671993 0.007496 -0.006239 -1283590.000000 1 0 0
11.879377 0.763923 -1.664013 12.019655 0.064218 1.709683 0.000475 0.003192 798349.000000 1 0 0
6.418777 -9.605477 -7.465113 13.754774 -0.981704 2.144479 0.000014 -0.002428 666169.000000 1 0 0
-11.002923 4.975423 3.437287 12.555242 -0.424674 1.293483 0.003854 -0.004230 -135926.000000 1 0 0
5.925077 -9.068277 2.057087 11.025960 -0.992045 1.383129 -0.002538 -0.000718 4005450.000000 1 0 0
11.575077 -1.399977 5.907687 13.070696 -0.120363 1.101813 0.008558 -0.008122 -275848.000000 1 0 0
-6.689023 3.484923 4.245087 8.654969 -0.480299 1.058156 0.002264 -0.002869 315213.000000 1 0 0
9.556377 6.343123 -3.114813 11.885353 0.585986 1.835964 0.006724 0.001589 100653.000000 1 0 0
-2.255923 6.526223 10.891887 12.896278 -1.237984 0.565023 -0.002863 -0.002473 107049.000000 1 0 0
1.820777 9.785023 2.796187 10.338306 1.386822 1.296917 0.001968 0.002746 124516.000000 1 0 0
2.884577 6.128023 -5.636313 8.811440 1.130847 2.264850 0.005791 0.000119 -1069660.000000 1 0 0
11.923877 0.137923 -5.328813 13.061168 0.011566 1.991047 0.006813 0.001244 193418.000000 1 0 0
-2.645623 -12.389777 6.296487 14.147496 1.360423 1.109555 0.003451 -0.001015 -550153.000000 1 0 0
10.967877 1.872523 -2.783113 11.469367 0.169098 1.815899 0.000833 0.004133 317636.000000 1 0 0
-8.936223 5.210623 0.834787 10.378032 -0.527893 1.490271 0.003185 -0.001753 278720.000000 1 0 0
1.165677 -10.195477 5.607687 11.694131 -1.456958 1.070677 -0.001164 0.001280 -343845.000000 1 0 0
9.412577 -5.714877 -1.246213 11.081943 -0.545663 1.683489 -0.001667 -0.001401 -765647.000000 1 0 0
-7.766723 8.588223 -4.539613 12.437349 -0.835585 1.944427 -0.002559 0.000382 -445866.000000 1 0 0
-7.571823 -0.140977 -1.610513 7.742489 0.018616 1.780336 0.003601 -0.001983 -1865660.000000 1 0 0
4.175777 8.823123 2.595387 10.100527 1.128755 1.310926 0.009349 -0.001582 2023940.000000 1 0 0
-1.320723 -10.577677 -3.700913 11.283985 1.446580 1.904960 0.010239 -0.000607 -864498.000000 1 0 0
3.122877 7.892323 -3.679813 9.251062 1.194015 1.979883 0.013258 -0.002496 -112103.000000 1 0 0
-4.314723 1.728023 -10.970013 11.914029 -0.380933 2.740832 0.007313 -0.007957 49800.600000 1 0 0
1.243477 2.878223 11.056887 11.492831 1.162987 0.276312 -0.002117 -0.002104 461840.000000 1 0 0
2.168277 5.655523 -8.099613 10.113857 1.204689 2.499498 0.006140 -0.000928 76153.900000 1 0 0
15.592777 6.181223 4.011187 17.246212 0.377413 1.336063 0.012459 -0.007030 281642.000000 1 0 0
-4.477823 9.021723 4.611087 11.077207 -1.110083 1.141459 -0.002481 0.005594 270569.000000 1 0 0
-0.869923 -8.265677 -12.390613 14.919969 1.465937 2.550750 -0.002517 -0.000031 -463221.000000 1 0 0
14.178077 -4.224677 -5.253613 15.699242 -0.289596 1.912021 0.018506 -0.003041 161597.000000 1 0 0
-5.986623 -6.268277 -5.511413 10.271642 0.808377 2.137159 0.014136 -0.005858 650433.000000 1 0 0
-8.886323 2.619223 -12.178113 15.301422 -0.286631 2.491258 0.013226 -0.009395 398941.000000 1 0 0
10.449777 5.425623 13.651487 18.027710 0.478897 0.711704 0.026380 -0.004126 669640.000000 1 0 0
-0.429423 11.046723 5.530387 12.361216 -1.531943 1.106942 -0.003786 0.009774 503775.000000 1 0 0
0.280877 11.276823 -0.633913 11.298118 1.545894 1.626934 0.006920 0.000719 235567.000000 1 0 0
-1.545823 -0.475877 3.721687 4.057953 0.298640 0.409967 0.004088 -0.002322 658635.000000 1 0 0
-4.754323 6.633123 8.920687 12.090516 -0.948914 0.740954 -0.000093 -0.000117 839342.000000 1 0 0
3.492377 -8.704377 -11.344813 14.719635 -1.189238 2.450777 -0.003657 0.000884 634215.000000 1 0 0
6.788177 -3.786277 12.029087 14.321808 -0.508793 0.573672 0.007314 -0.003395 -664165.000000 1 0 0
-2.484923 -1.912577 -12.517813 12.904590 0.655973 2.896142 0.008436 -0.007720 1038480.000000 1 0 0
-15.978323 -5.008077 5.453887 17.610580 0.303731 1.255925 0.017767 -0.012482 1082180.000000 1 0 0
-8.875823 7.300723 5.835187 12.889150 -0.688335 1.100982 0.007173 -0.002109 -4995650.000000 1 0 0
-12.900623 1.517123 5.980687 14.300222 -0.117063 1.139308 0.002653 -0.004925 407173.000000 1 0 0
-3.472323 3.689123 10.198487 11.387528 -0.815662 0.461054 0.000990 -0.003729 499444.000000 1 0 0
2.083277 -12.249277 -1.135813 12.476975 -1.402335 1.661955 0.004823 -0.001311 -3173350.000000 1 0 0
10.235277 -5.167677 -3.611213 12.021091 -0.467551 1.875915 0.002323 0.000052 608022.000000 1 0 0
2.965777 -13.472277 0.966687 13.828686 -1.354113 1.500835 0.003313 -0.002492 653162.000000 1 0 0
10.007077 -1.628977 -6.213513 11.891295 -0.161367 2.120607 0.005568 0.000536 1032950.000000 1 0 0
11.918377 -5.357177 -1.512013 13.154210 -0.422429 1.685996 0.005809 -0.001712 -1023030.000000 1 0 0
1.405277 1.025623 5.930487 6.180403 0.630471 0.285350 0.001674 -0.000603 427520.000000 1 0 0
-10.815523 11.700323 6.509187 17.211700 -0.824675 1.182963 0.006841 -0.003022 -721572.000000 1 0 0
4.786477 -14.001277 2.985787 15.095067 -1.241391 1.371684 0.008241 -0.006302 -2071980.000000 1 0 0
5.305277 -3.481077 -1.702913 6.569914 -0.580689 1.832989 0.002327 -0.001997 -1465870.000000 1 0 0
2.062677 -2.968577 -7.688513 8.495900 -0.963544 2.702100 0.000077 -0.002213 61162.300000 1 0 0
-2.778623 14.785223 -8.830513 17.444240 -1.385031 2.101585 0.016194 -0.004662 -1355460.000000 1 0 0
-2.331823 6.067823 -8.140113 10.417164 -1.203903 2.467724 0.009536 -0.002831 -73492.000000 1 0 0
2.634577 -3.529277 -11.267313 12.097485 -0.929544 2.768972 -0.001831 -0.000341 -2360230.000000 1 0 0
14.605877 2.859023 -2.814813 15.146908 0.193301 1.757717 0.002029 0.001655 754800.000000 1 0 0
-3.440323 13.197023 2.175187 13.810455 -1.315783 1.412635 -0.008958 0.005523 -814358.000000 1 0 0
7.970577 -4.911477 13.982987 16.827853 -0.552247 0.589996 0.002632 -0.002086 -1603580.000000 1 0 0
-11.504823 7.255923 2.890887 13.905632 -0.562677 1.361376 0.005019 -0.003923 1653770.000000 1 0 0
-2.305023 11.945423 4.100787 12.838330 -1.380176 1.245682 -0.002457 0.005452 397104.000000 1 0 0
1.711877 1.398723 0.548887 2.277768 0.685063 1.327425 0.005531 -0.000272 -1275350.000000 1 0 0
-6.867123 8.644023 5.352787 12.269020 -0.899457 1.119331 -0.002595 0.000196 -774773.000000 1 0 0
-1.228623 9.178923 1.046887 9.319770 -1.437735 1.458229 0.002053 0.004814 384440.000000 1 0 0
4.883077 12.855323 -8.585513 16.211564 1.207782 2.128916 0.013481 -0.014571 -1251810.000000 1 0 0
8.875077 6.913723 7.137987 13.323566 0.661807 1.005411 0.000306 -0.000618 -1556600.000000 1 0 0
7.221877 -13.765277 2.864087 15.806371 -1.087628 1.388592 0.014927 -0.007337 485452.000000 1 0 0
4.169977 -13.391977 -1.220413 14.079175 -1.268933 1.657587 0.001748 0.003215 -3432590.000000 1 0 0
11.973777 -11.934977 -4.565013 17.511549 -0.783775 1.834529 0.020642 -0.007501 -1362360.000000 1 0 0
3.055377 -0.120277 -1.976813 3.641097 -0.039345 2.144703 0.004459 0.000602 1023880.000000 1 0 0
-13.600323 -3.175777 -10.710613 17.600329 0.229397 2.225024 0.010808 -0.005513 -129795.000000 1 0 0
-6.653823 13.715323 5.039087 16.055399 -1.119109 1.251545 -0.006659 0.004027 324679.000000 1 0 0
7.371077 -4.292477 -0.614013 8.551909 -0.527333 1.642657 -0.001227 -0.000362 -1629200.000000 1 0 0
11.711877 1.988023 -7.359013 13.974096 0.168142 2.125414 0.010588 -0.000273 -994287.000000 1 0 0
-7.407923 -4.569277 9.693187 13.027413 0.552688 0.731668 0.010888 -0.003959 119094.000000 1 0 0
0.951577 2.803823 8.465687 8.968544 1.243609 0.336455 -0.002338 0.000635 -1517180.000000 1 0 0
1.611577 8.106623 -8.745713 12.033371 1.374557 2.384431 0.008445 -0.002990 529150.000000 1 0 0
-8.624523 -2.045077 -5.606313 10.487873 0.232823 2.134774 0.009374 -0.005893 -750971.000000 1 0 0
6.621077 -0.525077 7.093487 9.717609 -0.079138 0.752530 0.001997 -0.003169 192470.000000 1 0 0
-10.870923 6.462123 7.133187 14.519585 -0.536322 1.057237 0.007232 -0.005936 124797.000000 1 0 0
-5.953623 11.123423 4.870587 13.524008 -1.079361 1.202374 -0.008985 0.006126 -377655.000000 1 0 0
6.021177 -1.202577 -6.965913 9.285726 -0.197131 2.419122 -0.002953 0.001522 -585545.000000 1 0 0
4.584477 -5.675777 11.458687 13.584306 -0.891362 0.566985 0.004880 0.000349 -1283700.000000 1 0 0
-8.967323 -7.326077 2.829987 11.920282 0.685006 1.331098 0.004215 -0.002112 -3184070.000000 1 0 0
-1.163923 12.812023 -9.405013 15.936026 -1.480199 2.202070 0.012823 -0.000865 613178.000000 1 0 0
-4.662923 9.286323 -2.457813 10.677991 -1.105448 1.803054 -0.003603 0.003854 493368.000000 1 0 0
-3.358723 9.670323 -0.210113 10.239156 -1.236509 1.591318 -0.000480 0.003490 607909.000000 1 0 0
-3.495523 10.666223 -6.603413 13.022752 -1.254107 2.102575 0.003619 0.003112 724186.000000 1 0 0
5.000077 -4.883777 0.328587 6.997143 -0.773632 1.523819 0.001295 -0.003061 -1876140.000000 1 0 0
-2.247323 3.032723 -10.745413 11.389107 -0.933064 2.803779 0.010859 -0.005881 217710.000000 1 0 0
-3.646923 12.190823 -2.384113 12.946050 -1.280117 1.756011 -0.002582 0.003984 -215779.000000 1 0 0
-0.313423 0.229423 0.177387 0.427007 -0.631875 1.142393 0.006790 -0.001744 -2322970.000000 1 0 0
-4.921323 -1.796977 0.190087 5.242583 0.350099 1.534530 0.004379 -0.003831 671564.000000 1 0 0
2.705177 2.497723 -2.469213 4.433240 0.745547 2.161538 -0.003097 0.001014 1234120.000000 1 0 0
6.099677 -9.774877 8.547587 14.346272 -1.012905 0.932528 0.004547 0.002251 -952584.000000 1 0 0
-4.146423 -5.463977 6.703587 9.590931 0.921645 0.796867 0.005947 -0.003266 33068.100000 1 0 0
-6.210923 5.435823 -12.074113 14.625592 -0.718945 2.541967 0.004218 -0.010630 2064050.000000 1 0 0
-13.019523 3.066723 7.977887 15.574320 -0.231331 1.032998 0.006077 -0.007825 435878.000000 1 0 0
4.701277 -7.555477 -4.911613 10.164211 -1.014188 2.075132 -0.003351 -0.001798 537650.000000 1 0 0
-6.043423 2.516123 -1.132513 6.643525 -0.394513 1.742102 0.006000 -0.002217 -181911.000000 1 0 0
-7.027523 -2.684877 -14.626613 16.447871 0.364939 2.666545 0.011953 -0.003441 -818340.000000 1 0 0
2.870177 -6.066577 0.960787 6.779704 -1.128889 1.428602 0.002432 -0.001503 -230958.000000 1 0 0
4.897777 -7.805477 13.033887 15.962328 -1.010416 0.615404 0.008816 0.001100 -178781.000000 1 0 0
-10.008623 -1.610677 7.973987 12.897724 0.159561 0.904285 0.007918 -0.001803 -460617.000000 1 0 0
-4.428623 13.242523 -0.133913 13.964063 -1.248064 1.580386 -0.008322 0.004627 959314.000000 1 0 0
6.781977 2.210823 -4.525413 8.447622 0.315123 2.136136 -0.000810 0.004973 -1148470.000000 1 0 0
5.294477 4.581423 -0.034713 7.001580 0.713322 1.575754 0.004399 0.001077 -982379.000000 1 0 0
-5.834423 12.186923 1.875887 13.641134 -1.124297 1.432842 -0.010004 0.003545 -1647680.000000 1 0 0
6.463777 -7.311677 6.671587 11.821637 -0.846872 0.971146 0.000661 0.002335 -1156090.000000 1 0 0
-0.318423 4.973323 7.703487 9.174914 -1.506857 0.574204 -0.005310 0.001870 -713400.000000 1 0 0
-5.861623 -3.474577 -1.481313 6.973206 0.535084 1.784857 0.009335 -0.005750 -75989.600000 1 0 0
2.303577 -6.541577 -5.151513 8.639258 -1.232213 2.209669 0.001370 -0.001608 -1557560.000000 1 0 0
-14.452923 -4.915277 -3.762713 15.722752 0.327818 1.812458 -0.002015 -0.002301 -119602.000000 1 0 0
-12.463723 -5.192877 -6.370213 14.929500 0.394768 2.011622 0.011130 -0.007643 -1732840.000000 1 0 0
-14.733623 -3.836877 -1.241313 15.275540 0.254758 1.652148 -0.007974 -0.001904 347784.000000 1 0 0
11.972677 2.998723 8.545887 15.012312 0.245415 0.965193 0.018235 -0.007427 -1725530.000000 1 0 0
8.764977 -6.573677 7.682387 13.381223 -0.643497 0.959271 0.006737 -0.005280 -168882.000000 1 0 0
-8.784523 -1.691677 -9.699713 13.195228 0.190246 2.396599 0.011048 -0.008598 -5097.650000 1 0 0
-8.754023 5.115723 -3.944213 10.879355 -0.528859 1.941789 0.002119 -0.001793 -158161.000000 1 0 0
-4.063923 -6.199777 4.211687 8.525903 0.990568 1.054127 0.006760 -0.003108 -1362200.000000 1 0 0
-0.187323 -9.252577 3.553587 9.913287 1.550554 1.204171 0.001304 -0.000589 1302550.000000 1 0 0
7.891977 -10.300877 3.387087 13.411328 -0.917042 1.315477 0.004652 -0.000096 1141270.000000 1 0 0
0.020277 6.582323 9.522487 11.576059 1.567716 0.604825 -0.007275 -0.000675 490813.000000 1 0 0
0.061877 3.556923 -9.811813 10.436820 1.553402 2.793765 0.010939 -0.004203 -847338.000000 1 0 0
4.556477 -3.058077 11.032087 12.321536 -0.591100 0.461580 0.001641 -0.002126 -1831810.000000 1 0 0
8.500377 -9.115777 1.245087 12.526134 -0.820318 1.471233 0.001275 -0.000369 155453.000000 1 0 0
-0.306023 -0.387677 11.448687 11.459336 0.902567 0.043114 0.005134 -0.003490 -2802350.000000 1 0 0
10.789377 6.044323 11.326687 16.770162 0.510649 0.829280 0.031497 -0.002137 -89327.900000 1 0 0
-6.304523 -2.845677 -11.953813 13.810812 0.423993 2.617024 0.010416 -0.006896 663189.000000 1 0 0
-1.658123 2.848623 8.434887 9.056012 -1.043658 0.372520 0.000955 -0.001043 -424341.000000 1 0 0
-1.557523 13.664023 -6.879313 15.377137 -1.457299 2.034622 0.016343 0.002893 711614.000000 1 0 0
7.656777 3.105823 9.705587 12.746403 0.385351 0.705269 0.003088 -0.001187 24735.000000 1 0 0
6.591177 8.467123 -8.057813 13.418798 0.909338 2.214906 0.012951 -0.006648 215105.000000 1 0 0
6.717177 -3.034277 -3.900413 8.339096 -0.424283 2.057513 -0.001632 -0.000312 -1603590.000000 1 0 0
1.973977 8.158723 0.950987 8.447823 1.333411 1.457985 0.006636 0.001533 945936.000000 1 0 0
-17.642923 6.290523 6.418587 19.800042 -0.342495 1.240662 0.022178 -0.008630 -238849.000000 1 0 0
-14.647123 2.976623 -10.266413 18.132781 -0.200492 2.172660 0.019238 -0.001397 -409620.000000 1 0 0
-18.232123 -0.072277 -4.269513 18.725498 0.003964 1.800825 0.016490 -0.007249 308102.000000 1 0 0
-13.106823 7.886423 0.156087 15.297348 -0.541671 1.560593 0.007708 -0.001220 350313.000000 1 0 0
-13.052323 -4.311977 -13.091313 18.982591 0.319073 2.331800 0.036065 0.008854 -720300.000000 1 0 0
-17.355823 -0.802277 -8.706013 19.433551 0.046192 2.035311 0.009637 -0.010045 -560229.000000 1 0 0
-16.649223 -2.312277 -2.082013 16.937474 0.137999 1.694031 0.004123 -0.006852 -1334850.000000 1 0 0
-15.346223 4.083123 1.702787 15.971160 -0.260042 1.463977 0.003844 0.000180 -1655000.000000 1 0 0
-13.293123 5.911723 4.354987 15.186227 -0.418455 1.279941 0.002065 -0.005950 -788821.000000 1 0 0
-10.036023 14.257423 2.667087 17.638289 -0.957447 1.419004 0.011708 -0.002965 -173837.000000 1 0 0
-11.905823 2.495823 -6.427113 13.758108 -0.206638 2.056862 0.003924 -0.002299 574891.000000 1 0 0
-15.963823 10.592223 3.798287 19.531150 -0.585817 1.375076 0.024243 -0.009467 -226160.000000 1 0 0
-12.913123 1.066223 -8.564813 15.531954 -0.082382 2.154876 0.010538 -0.005500 487738.000000 1 0 0
-12.222223 14.362923 3.942787 19.267119 -0.865747 1.364702 0.019855 -0.011356 -92276.700000 1 0 0
-10.432223 11.052323 -1.163313 15.242651 -0.814253 1.647190 0.003578 -0.004269 873457.000000 1 0 0
-16.905323 5.476923 8.801487 19.830603 -0.313306 1.110924 0.004271 -0.010757 395105.000000 1 0 0
-11.765023 12.436323 -9.237613 19.452799 -0.813129 2.065616 0.012964 -0.011650 -589057.000000 1 0 0
-17.246723 -0.558377 3.148987 17.540734 0.032365 1.390294 0.016253 -0.007387 426142.000000 1 0 0
-13.041923 14.721423 -0.728613 19.681030 -0.845818 1.607826 0.031601 -0.016622 -236157.000000 1 0 0
-16.623923 4.620723 -10.216913 20.052212 -0.271113 2.105418 0.032494 -0.003709 1736.830000 1 0 0
-11.891223 7.564523 -8.974413 16.708180 -0.566572 2.137824 0.005495 -0.000575 -342313.000000 1 0 0
-14.706223 13.347423 -2.226013 19.984540 -0.737000 1.682415 0.042927 -0.018025 894009.000000 1 0 0
-11.815723 10.532723 -5.504713 16.758623 -0.728052 1.905480 0.013474 -0.005626 472290.000000 1 0 0
-17.707623 2.787823 -0.860113 17.946355 -0.156155 1.618742 0.011750 0.000145 -325324.000000 1 0 0
-9.380123 15.194823 0.416787 17.861777 -1.017736 1.547460 0.012135 -0.009925 229287.000000 1 0 0
-8.096623 13.227423 -3.778413 15.962344 -1.021521 1.809772 -0.002243 -0.003284 -1073590.000000 1 0 0
-17.850423 11.564723 2.284587 21.391582 -0.574875 1.463794 0.059179 0.001332 11865.400000 1 0 0
-8.053623 15.673923 -7.507213 19.154398 -1.096152 1.973527 0.029108 -0.016865 -9772.630000 1 0 0
-6.279723 15.217923 -5.583913 17.383906 -1.179430 1.897805 0.008310 -0.003150 -184550.000000 1 0 0
-17.549923 5.312423 -0.204613 18.337489 -0.293935 1.581955 0.028763 0.005514 749482.000000 1 0 0
-5.261323 12.187623 -12.226513 18.047363 -1.163270 2.315111 -0.003949 -0.009359 -599551.000000 1 0 0
-11.072623 3.777023 -11.351513 16.301096 -0.328736 2.341116 0.009212 -0.009328 216829.000000 1 0 0
-11.776723 10.930023 1.129887 16.106932 -0.748127 1.500590 0.010747 -0.004053 13426.800000 1 0 0
-12.936823 0.123923 -10.945013 16.946093 -0.009579 2.272962 0.014441 -0.009073 550760.000000 1 0 0
-14.176323 -1.989877 -12.970413 19.317333 0.139455 2.306945 0.019631 -0.003568 149376.000000 1 0 0
-18.724623 -2.354677 -3.503313 19.194510 0.125096 1.754342 0.012084 -0.005194 411576.000000 1 0 0
-18.120323 4.710723 -5.187413 19.427977 -0.254339 1.841083 0.012308 -0.001046 -78379.500000 1 0 0
-8.251023 15.450423 -2.363913 17.674361 -1.080295 1.704946 0.011384 -0.005561 -11751.300000 1 0 0
-16.102723 8.876523 -5.249613 19.121945 -0.503797 1.848901 0.024063 -0.001431 28729.700000 1 0 0
-18.380123 1.463523 2.169187 18.565457 -0.079458 1.453689 0.032573 -0.005947 727259.000000 1 0 0
-15.742423 -2.814777 -8.546613 18.132607 0.176932 2.061605 0.008756 -0.010039 -108395.000000 1 0 0
-9.742823 10.459023 -7.206413 16.007690 -0.820836 2.037768 0.003168 -0.007566 9227.490000 1 0 0
-13.909623 11.931823 -7.696313 19.876601 -0.709011 1.968394 0.026378 -0.011775 401937.000000 1 0 0
-10.986023 6.591623 -3.888913 13.389019 -0.540420 1.865499 0.000052 -0.000288 -1458800.000000 1 0 0
-13.109823 5.038623 -12.623613 18.884141 -0.366933 2.302955 0.021954 -0.009218 489575.000000 1 0 0
-17.822923 9.037423 2.727287 20.168532 -0.469286 1.435156 0.040599 -0.009509 1003690.000000 1 0 0
-13.392723 8.658223 -6.610713 17.263585 -0.573902 1.963760 0.007870 -0.000310 -566616.000000 1 0 0
-15.718923 6.919923 -3.758313 17.581092 -0.414699 1.786229 0.011697 0.003119 -937624.000000 1 0 0
-14.916323 -0.481277 -9.247113 17.556692 0.032254 2.125510 0.013707 -0.011400 -455581.000000 1 0 0
-9.918023 5.824523 -6.126713 13.031840 -0.531004 2.060239 0.000450 -0.000210 391980.000000 1 0 0
-12.862923 12.081523 -0.855013 17.667740 -0.754083 1.619209 0.022387 -0.011135 -907564.000000 1 0 0
-10.647323 3.496923 -13.881513 17.840694 -0.317333 2.462402 0.011323 -0.009638 320169.000000 1 0 0
-10.962723 6.339723 -11.928913 17.397481 -0.524309 2.326319 0.002669 -0.008813 -887749.000000 1 0 0
-5.805123 11.521623 -14.755513 19.600317 -1.104077 2.423132 0.007169 -0.012135 -234446.000000 1 0 0
-15.580923 13.184023 3.553287 20.717371 -0.702263 1.398432 0.029220 -0.019698 55723.400000 1 0 0
-14.974123 10.926023 -3.279713 18.824422 -0.630356 1.745917 0.029703 -0.003979 699438.000000 1 0 0
-18.141723 7.572223 -4.454313 20.156924 -0.395410 1.793617 0.029336 0.000011 -578058.000000 1 0 0
-3.830723 16.314023 -10.669313 19.865951 -1.340163 2.137751 0.024215 -0.002647 239274.000000 1 0 0
-15.660423 4.353223 -4.351713 16.826670 -0.271131 1.832390 0.012456 0.002143 369008.000000 1 0 0
-18.760323 -1.958977 -6.069313 19.814739 0.104044 1.882103 0.019992 -0.008601 458930.000000 1 0 0
-10.777023 8.531223 -5.846813 14.936908 -0.669605 1.972986 0.000983 -0.001280 1683510.000000 1 0 0
-11.391423 13.800323 -6.967213 19.203007 -0.880731 1.942087 0.013527 -0.001464 606951.000000 1 0 0
-9.494523 10.446723 -4.437613 14.797716 -0.833112 1.875368 -0.005261 -0.001862 -587753.000000 1 0 0
-11.072623 6.270223 -0.120913 12.725302 -0.515258 1.580298 0.000986 0.001105 -500692.000000 1 0 0
-14.690123 9.232623 -1.418613 17.408432 -0.561106 1.652377 0.026800 -0.001925 -385522.000000 1 0 0
-18.382023 3.413023 4.718287 19.282368 -0.183581 1.323592 0.009546 -0.009292 119221.000000 1 0 0
-14.831423 13.286923 0.362087 19.915937 -0.730525 1.552615 0.028222 -0.004797 143365.000000 1 0 0
-16.804323 2.331323 -8.984013 19.197209 -0.137854 2.057806 0.013124 -0.005103 -337899.000000 1 0 0
-9.195523 8.384923 -8.918713 15.310389 -0.739323 2.192630 0.005235 -0.003623 -1701230.000000 1 0 0
-17.671923 4.539223 -2.653213 18.437488 -0.251425 1.715201 0.014920 0.000357 913803.000000 1 0 0
-13.466023 5.845423 -4.383413 15.320478 -0.409542 1.860966 0.004983 0.002652 -661141.000000 1 0 0
-12.109123 9.620223 3.209787 15.795008 -0.671354 1.366156 0.006505 -0.005664 535548.000000 1 0 0
-17.451923 2.422023 -4.015613 18.070998 -0.137902 1.794880 0.009886 0.001220 825923.000000 1 0 0
-11.253523 1.406123 -12.553213 16.917509 -0.124305 2.406882 0.015800 -0.005023 224019.000000 1 0 0
-11.204623 12.022223 3.424487 16.787035 -0.820584 1.365358 0.009926 -0.006017 261973.000000 1 0 0
-16.121923 13.035523 -4.363913 21.186906 -0.679938 1.778253 0.034767 -0.005379 589189.000000 1 0 0
-11.022123 4.118323 -4.497713 12.596714 -0.357579 1.935909 -0.001769 -0.001291 -201283.000000 1 0 0
-11.172023 14.964323 -9.265413 20.846893 -0.929489 2.031357 0.025373 -0.010469 307706.000000 1 0 0
-15.621423 7.153023 -0.334713 17.184488 -0.429403 1.590275 0.025576 0.000765 -708863.000000 1 0 0
-12.740723 8.378223 -4.084113 15.786090 -0.581695 1.832489 0.005176 -0.000953 761595.000000 1 0 0
-19.246023 1.775323 -5.771413 20.171028 -0.091983 1.860975 0.025845 -0.009577 232658.000000 1 0 0
-12.594223 10.034023 -8.924613 18.410453 -0.672735 2.076883 0.011214 -0.007556 499339.000000 1 0 0
-16.566223 11.084123 -1.075213 19.961303 -0.589671 1.624687 0.027751 -0.000355 899010.000000 1 0 0
-10.884723 6.623923 -14.519113 19.317303 -0.546684 2.421299 0.017813 -0.017874 -14541.300000 1 0 0
-13.502723 12.760523 -4.377413 19.087070 -0.757146 1.802195 0.020316 -0.011973 -25680.300000 1 0 0
-18.089923 7.869723 -0.150213 19.728163 -0.410338 1.578411 0.042037 0.001729 362922.000000 1 0 0
-12.766823 6.630823 -2.050913 14.531546 -0.479031 1.712404 0.000088 0.001474 592626.000000 1 0 0
-13.824323 8.325623 -10.659513 19.340453 -0.542068 2.154540 0.012549 -0.004430 634570.000000 1 0 0
-14.975523 1.350923 -0.892213 15.062780 -0.089965 1.630064 0.000773 0.000243 -605109.000000 1 0 0
-13.459923 2.746023 -2.478113 13.958912 -0.201253 1.749271 0.004434 0.000454 614314.000000 1 0 0
-11.332223 9.193023 -10.894813 18.210654 -0.681550 2.212132 0.011331 -0.009328 -606976.000000 1 0 0
-15.221223 4.132223 -8.030613 17.698916 -0.265089 2.041748 0.007319 0.001003 1007060.000000 1 0 0
-18.437023 10.593723 4.682487 21.773297 -0.521526 1.354047 0.054091 -0.018427 437405.000000 1 0 0
-15.351123 6.015723 -6.188713 17.610965 -0.373483 1.929876 0.013808 0.002961 480752.000000 1 0 0
-7.702723 11.240723 -12.964813 18.808832 -0.970037 2.331310 0.004881 -0.009450 -145652.000000 1 0 0
-16.849623 9.163223 -2.775813 19.379876 -0.498089 1.714522 0.033170 -0.002332 682253.000000 1 0 0
-20.715323 -0.971577 -4.638713 21.250558 0.046867 1.790855 0.029054 -0.013737 807747.000000 1 0 0
-15.511623 4.364923 4.131087 16.635170 -0.274304 1.319836 0.010195 -0.006511 -114140.000000 1 0 0
-6.939423 12.403923 -9.431613 17.057791 -1.060724 2.156662 0.006311 -0.011311 -161627.000000 1 0 0
-17.158923 1.483323 5.876187 18.197760 -0.086232 1.241997 0.013645 -0.007977 317107.000000 1 0 0
-10.399523 14.302123 -3.244113 17.978461 -0.942092 1.752235 0.018768 -0.012500 -525663.000000 1 0 0
-9.981123 8.461423 -12.960413 18.417133 -0.703182 2.351409 0.001111 -0.012407 581798.000000 1 0 0
-13.737223 11.600723 2.714487 18.183963 -0.701277 1.420957 0.024121 -0.009452 -700592.000000 1 0 0
-16.941523 6.757023 1.922387 18.340342 -0.379509 1.465786 0.021578 -0.002211 974719.000000 1 0 0
-9.333823 13.222223 -8.514413 18.287774 -0.956109 2.055086 0.018697 -0.013900 230489.000000 1 0 0
-5.574023 9.718823 -12.911513 17.094807 -1.050069 2.426891 0.003820 -0.006680 -439037.000000 1 0 0
-15.972823 1.809823 3.192387 16.388956 -0.112825 1.374754 0.004480 -0.001123 -192656.000000 1 0 0
-18.683223 -5.082277 4.929187 19.979721 0.265597 1.321513 0.036795 -0.010143 838917.000000 1 0 0
-5.227723 14.490023 -9.355913 18.022846 -1.224550 2.116610 0.009963 -0.000111 -210562.000000 1 0 0
-15.468423 -0.940177 -6.749113 16.902857 0.060706 1.981537 0.012524 -0.005812 696191.000000 1 0 0
-8.994823 10.963223 -9.607813 17.129191 -0.883707 2.166272 0.006729 -0.010064 127617.000000 1 0 0
-16.724323 1.156923 -6.076513 17.831586 -0.069066 1.918535 0.010634 -0.002777 -758312.000000 1 0 0
-11.171223 8.583723 -1.465513 14.164189 -0.655160 1.674448 0.003202 -0.003951 -425037.000000 1 0 0
-10.533423 10.985223 -12.632413 19.778928 -0.806391 2.263578 0.008851 -0.012346 -973835.000000 1 0 0
-13.997123 11.624423 -10.373813 20.944275 -0.693056 2.088983 0.025413 -0.013584 178741.000000 1 0 0
-13.097423 5.736223 -7.522513 16.156576 -0.412801 2.055110 0.005907 0.003812 -971567.000000 1 0 0
-8.827923 15.435123 -4.938213 18.454300 -1.051267 1.841689 0.012389 -0.012152 818015.000000 1 0 0
-8.693023 6.143123 -13.029713 16.824982 -0.615190 2.456605 0.008305 -0.009684 214398.000000 1 0 0
-16.532423 7.472923 4.339587 18.654694 -0.424529 1.336018 0.030391 -0.003829 351414.000000 1 0 0
-12.603523 5.358523 -10.088613 17.010076 -0.402007 2.205695 0.007001 -0.001671 403059.000000 1 0 0
-12.453923 9.419023 -13.284113 20.500874 -0.647527 2.275723 0.019608 -0.014509 -347268.000000 1 0 0
-10.746323 5.256123 -8.533913 14.694828 -0.454897 2.190437 0.001004 -0.001815 -1151990.000000 1 0 0
-17.711023 -4.553677 -2.579713 18.468114 0.251659 1.710939 0.002738 -0.006940 375956.000000 1 0 0
-8.855823 13.191023 -11.045913 19.350475 -0.979557 2.178318 0.019803 -0.008583 -118446.000000 1 0 0
-15.096023 6.166723 6.053387 17.394306 -0.387812 1.215349 0.010183 -0.011304 -683316.000000 1 0 0
-16.417723 -3.250877 -4.500713 17.331078 0.195482 1.833498 0.005380 -0.004957 875845.000000 1 0 0
-11.174423 -1.216577 -12.467713 16.786651 0.108444 2.407914 0.016943 -0.007149 426419.000000 1 0 0
-15.252223 6.684923 -8.636613 18.759253 -0.413075 2.049233 0.005875 0.004008 -450788.000000 1 0 0
-14.975923 9.260923 1.177787 17.647384 -0.553830 1.504007 0.024016 -0.005566 -13867.400000 1 0 0
-19.438023 5.287823 7.939087 21.652411 -0.265608 1.195379 0.030727 -0.014962 98185.400000 1 0 0
-16.348423 0.467723 0.969287 16.383810 -0.028602 1.511600 0.006869 -0.001964 -685452.000000 1 0 0
-17.417923 3.754623 7.099187 19.180190 -0.212312 1.191646 0.005093 -0.009457 982996.000000 1 0 0
-15.495923 4.031023 -1.369413 16.070099 -0.254494 1.656115 0.005041 0.000586 -1047370.000000 1 0 0
-10.768323 13.158323 0.307387 17.005668 -0.884957 1.552720 0.013738 -0.011107 -92279.200000 1 0 0
-13.519323 3.280523 0.062387 13.911787 -0.238053 1.566312 0.004679 0.000634 -869511.000000 1 0 0
-15.172123 -0.033077 -4.280513 15.764428 0.002180 1.845779 0.007396 0.000449 18455.900000 1 0 0
-19.035523 6.938623 3.548487 20.569088 -0.349542 1.397413 0.042648 -0.002904 476198.000000 1 0 0
-14.202823 1.296123 -6.338813 15.607071 -0.091006 1.989033 0.010032 -0.001454 -503642.000000 1 0 0
-14.198923 11.823923 5.271787 19.214742 -0.694384 1.292871 0.019819 -0.016251 67562.000000 1 0 0
17.751977 5.683223 6.186387 19.639325 0.309835 1.250340 0.021125 -0.007524 14069.900000 1 0 0
18.544877 7.385623 -0.477113 19.967161 0.379003 1.594693 0.013715 0.003287 -103881.000000 1 0 0
16.667077 5.303423 8.529687 19.459530 0.308067 1.117057 0.030753 -0.007589 348669.000000 1 0 0
11.463577 12.428423 10.937187 20.137064 0.825760 0.996627 0.029935 -0.011163 374370.000000 1 0 0
-2.279123 16.365823 -0.678113 16.537666 -1.432425 1.611812 0.004995 0.000061 13744.900000 1 0 0
15.138877 12.697523 3.460087 20.059533 0.697918 1.397438 0.034763 -0.002803 560324.000000 1 0 0
13.599577 11.701023 6.682487 19.144661 0.710499 1.214237 0.043376 -0.011667 875077.000000 1 0 0
-0.744523 15.858423 8.565987 18.039402 -1.523883 1.076004 0.005537 0.002044 208081.000000 1 0 0
0.732177 12.750923 9.431587 15.876931 1.513438 0.934720 -0.002646 0.002173 -1121460.000000 1 0 0
0.794777 15.614823 -4.019413 16.143421 1.519941 1.822425 0.008585 -0.002400 -319980.000000 1 0 0
5.354677 10.350823 13.582587 17.896893 1.093390 0.709120 0.012159 -0.006476 763476.000000 1 0 0
-1.305223 16.548023 -2.894813 16.849944 -1.492084 1.743452 0.011604 -0.002128 -106371.000000 1 0 0
8.583677 10.030023 3.279387 13.602766 0.862946 1.327315 0.008408 -0.001122 608642.000000 1 0 0
12.771577 13.659223 -4.952513 19.344636 0.818969 1.829694 0.057254 -0.014401 1081280.000000 1 0 0
2.546277 11.604223 7.827187 14.226959 1.354793 0.988234 0.003416 0.007327 547479.000000 1 0 0
-0.301323 15.068623 -8.798713 17.451978 -1.550802 2.099214 0.015486 0.000168 -971578.000000 1 0 0
2.423277 15.979423 0.244287 16.163969 1.420293 1.555683 0.010302 -0.006068 -432843.000000 1 0 0
1.790477 13.355523 5.286487 14.474901 1.437528 1.196930 0.004196 0.007057 499622.000000 1 0 0
17.602677 9.090623 -2.083713 19.920731 0.476708 1.675588 0.003215 0.003364 434867.000000 1 0 0
-7.137923 15.008123 7.282187 18.144529 -1.126855 1.157813 -0.005117 -0.002119 -496745.000000 1 0 0
8.556677 15.719823 -0.082813 17.897944 1.072321 1.575423 0.013532 -0.010693 689594.000000 1 0 0
15.661777 10.459423 2.214687 18.963007 0.588808 1.453739 0.020860 0.001663 900986.000000 1 0 0
14.096277 7.413323 8.752087 18.173096 0.484157 1.068322 0.037901 -0.011504 -1410420.000000 1 0 0
4.220477 18.254823 -1.658513 18.809616 1.343591 1.659085 0.007068 -0.017882 -343284.000000 1 0 0
-0.477423 17.731223 -4.903413 18.402925 -1.543877 1.840502 0.020953 0.003827 599749.000000 1 0 0
1.331477 13.803623 -0.837913 13.892982 1.474635 1.631145 0.007215 -0.003343 439372.000000 1 0 0
10.257977 14.718923 4.205587 18.427147 0.962137 1.340539 0.024588 -0.014246 90317.200000 1 0 0
-1.734823 15.473823 -5.158713 16.403083 -1.459149 1.890723 0.013556 -0.001157 70061.300000 1 0 0
15.453677 8.917123 -6.349713 18.938059 0.523353 1.912708 0.031674 -0.001738 965040.000000 1 0 0
-2.281323 18.520823 0.736887 18.675340 -1.448238 1.531328 0.008428 -0.006837 -353746.000000 1 0 0
-3.763123 19.460823 3.315387 20.096679 -1.379785 1.405067 0.009566 -0.005461 212351.000000 1 0 0
1.920877 17.712923 -2.802713 18.035870 1.462774 1.726825 0.012447 -0.006788 -469280.000000 1 0 0
2.794877 12.215123 3.271387 12.950774 1.345864 1.315428 0.005303 0.003150 648024.000000 1 0 0
-2.597423 16.135623 1.809587 16.443222 -1.411191 1.460522 -0.000977 -0.001733 -916794.000000 1 0 0
11.934377 12.863023 -2.670613 17.748771 0.822830 1.721837 0.028053 0.001394 789075.000000 1 0 0
7.174177 11.548523 4.759087 14.404378 1.014920 1.234078 0.006481 -0.001145 -290611.000000 1 0 0
7.102577 15.826823 2.005887 17.463061 1.148967 1.455678 0.003144 -0.006430 -2098620.000000 1 0 0
5.411477 12.199723 10.336687 16.880889 1.153299 0.911791 0.002394 0.003895 -1617980.000000 1 0 0
-1.379123 14.263423 3.152687 14.672650 -1.474406 1.354239 -0.001140 0.005558 -1469500.000000 1 0 0
4.673177 16.119623 1.582287 16.857771 1.288626 1.476797 0.002268 -0.008034 -2217950.000000 1 0 0
7.196777 13.230123 12.001887 19.258116 1.072595 0.897953 0.018402 -0.004503 397405.000000 1 0 0
0.891677 17.286223 -9.365213 19.680341 1.519259 2.066745 0.014389 -0.002644 211108.000000 1 0 0
9.642877 9.590423 15.647987 20.732120 0.782671 0.715493 0.037857 -0.003877 -337155.000000 1 0 0
13.569777 7.708823 -0.032613 15.606597 0.516624 1.572886 0.002677 0.006071 216222.000000 1 0 0
12.482977 13.722523 -0.097113 18.551059 0.832664 1.576031 0.029696 0.000418 788497.000000 1 0 0
9.255177 12.402223 3.603487 15.888944 0.929699 1.342014 0.015494 -0.002505 504254.000000 1 0 0
-0.750023 13.012223 0.637787 13.049416 -1.513220 1.521902 0.002797 -0.000622 518352.000000 1 0 0
15.988277 7.371923 -0.940913 17.631096 0.432032 1.624188 0.004524 0.005617 -2408340.000000 1 0 0
-4.357523 18.479923 -2.368913 19.133931 -1.339229 1.694922 0.024622 -0.007189 -15879.900000 1 0 0
11.647277 9.298923 -3.291813 15.263193 0.673751 1.788174 0.014106 0.000723 -328714.000000 1 0 0
14.689277 9.824223 7.847587 19.335843 0.589480 1.152880 0.035679 -0.012001 212517.000000 1 0 0
4.309477 13.843323 4.693487 15.239357 1.269002 1.257722 0.005116 0.004626 -258404.000000 1 0 0
2.156877 15.956023 5.688187 17.076365 1.436434 1.231204 0.006613 0.004777 175532.000000 1 0 0
5.996677 18.527123 5.527887 20.242825 1.257768 1.294204 0.016012 -0.020763 -216651.000000 1 0 0
10.712777 17.004723 -0.763813 20.112374 1.008618 1.608783 0.035392 -0.010418 -1166400.000000 1 0 0
10.099977 13.612323 -4.493313 17.535528 0.932452 1.829927 0.041653 -0.007349 1783550.000000 1 0 0
16.652377 7.994523 2.331687 18.618561 0.447587 1.445232 0.010397 0.000217 -234738.000000 1 0 0
4.018677 14.009523 -0.453813 14.581579 1.291444 1.601924 0.006383 -0.004635 1001910.000000 1 0 0
5.564177 13.106823 -2.468113 14.451313 1.169328 1.742426 0.008448 -0.004465 -257659.000000 1 0 0
-6.204523 16.895123 -3.184713 18.277956 -1.218848 1.745928 0.012974 -0.006211 -590085.000000 1 0 0
18.202277 10.050823 2.722887 20.970361 0.504511 1.440584 0.030630 -0.003044 -454104.000000 1 0 0
7.811477 12.908023 9.413287 17.783312 1.026588 1.012983 0.019299 -0.003558 288820.000000 1 0 0
-2.667123 15.790823 6.680287 17.351941 -1.403472 1.175602 0.001451 0.005106 960551.000000 1 0 0
11.012377 15.853923 6.384587 20.331804 0.963693 1.251372 0.030991 -0.016696 -357820.000000 1 0 0
13.631077 11.996123 1.314187 18.205502 0.721687 1.498547 0.029090 0.002098 -937520.000000 1 0 0
17.678477 7.792223 -5.547413 20.100275 0.415156 1.850413 0.005538 0.011210 831103.000000 1 0 0
9.413677 9.338223 8.021087 15.497018 0.781374 1.026766 0.016070 -0.004170 -70359.100000 1 0 0
-1.929623 14.237023 -2.036813 14.510854 -1.436082 1.711626 0.002852 0.000233 890499.000000 1 0 0
11.079277 11.701823 0.733387 16.131364 0.812719 1.525317 0.017759 0.004315 -277851.000000 1 0 0
11.828077 9.898423 -0.619713 15.435875 0.696815 1.610955 0.008927 0.005983 -1265640.000000 1 0 0
-0.279823 16.213023 11.133687 19.669759 -1.553539 0.969113 0.014814 -0.000710 115540.000000 1 0 0
2.295477 20.005523 -1.687313 20.207355 1.456554 1.654394 0.021712 -0.018556 -562868.000000 1 0 0
9.218977 14.249723 1.802487 17.067311 0.996562 1.464989 0.015912 -0.007956 475617.000000 1 0 0
8.529977 11.591123 -5.116613 15.273977 0.936377 1.912390 0.025552 -0.007300 -141496.000000 1 0 0
10.539577 10.095423 10.273487 17.847823 0.763877 0.957439 0.021623 -0.008262 214958.000000 1 0 0
-5.103223 15.820923 5.754487 17.591436 -1.258771 1.237543 -0.016407 0.007587 54615.500000 1 0 0
14.408977 9.107123 -1.993113 17.161900 0.563649 1.687195 0.015648 0.005481 -516184.000000 1 0 0
12.116877 9.626323 6.961287 16.968922 0.671351 1.148082 0.024826 -0.010153 -584193.000000 1 0 0
3.271877 12.949923 9.699987 16.507436 1.323319 0.942690 0.003711 0.000965 -264646.000000 1 0 0
8.571277 12.552923 -2.701413 15.438274 0.971700 1.746683 0.021615 -0.005986 -586564.000000 1 0 0
9.517577 16.826423 2.109687 19.446428 1.056030 1.462095 0.019695 -0.013578 -115539.000000 1 0 0
9.674077 14.134323 -7.546513 18.716749 0.970591 1.985803 0.046628 -0.019569 328221.000000 1 0 0
6.325777 11.469323 7.363787 15.026183 1.066772 1.058633 0.005252 0.001551 -227127.000000 1 0 0
5.516877 16.873523 -5.737313 18.656593 1.254798 1.883384 0.016045 -0.002987 -1929650.000000 1 0 0
-4.136323 17.286223 -4.806913 18.412742 -1.335928 1.834921 0.016248 -0.003881 91498.700000 1 0 0
-0.067323 18.561923 -0.616013 18.572264 -1.567169 1.603971 0.013486 -0.009867 -199134.000000 1 0 0
6.552677 15.562423 -2.716113 17.102744 1.172270 1.730283 0.010380 -0.003640 156829.000000 1 0 0
-0.814523 20.703223 0.760287 20.733184 -1.531474 1.534118 0.017966 -0.011268 22908.900000 1 0 0
-1.382323 18.797823 4.254687 19.322819 -1.497392 1.348787 0.005408 -0.003108 424125.000000 1 0 0
7.256677 13.710423 -4.448513 16.137668 1.083999 1.850073 0.020857 -0.004622 431065.000000 1 0 0
-1.021423 11.945423 7.724587 14.262036 -1.485496 0.998435 -0.004598 0.010272 409424.000000 1 0 0
7.556677 10.890923 10.936987 17.185263 0.964209 0.880953 0.009943 -0.003161 197199.000000 1 0 0
1.571577 15.949723 -7.255913 17.592947 1.472580 1.995920 0.006721 -0.006938 -548339.000000 1 0 0
8.958277 7.223423 14.858687 18.793859 0.678595 0.658985 0.032088 0.000971 73397.900000 1 0 0
11.522177 11.386423 -4.887213 16.920285 0.779472 1.863809 0.034431 -0.007071 128671.000000 1 0 0
-3.514623 17.095123 4.400687 17.998940 -1.368030 1.323795 -0.005064 0.005139 -31876.400000 1 0 0
3.997377 15.209523 -6.796213 17.131758 1.313788 1.978718 0.015041 -0.012341 -1404760.000000 1 0 0
-4.461923 13.987723 9.576187 17.529076 -1.262011 0.992852 0.004035 -0.002222 379906.000000 1 0 0
6.271677 17.933123 0.604187 19.007784 1.234366 1.539005 -0.001028 -0.006998 -55946.000000 1 0 0
9.912477 10.704623 -2.153713 14.747360 0.823801 1.717361 0.018090 -0.003036 290084.000000 1 0 0
7.146977 18.153123 -2.477913 19.666093 1.195728 1.697131 0.005889 -0.002748 52922.300000 1 0 0
3.526177 10.334223 10.523287 15.164750 1.241970 0.803862 -0.002189 0.004646 915592.000000 1 0 0
0.055077 18.563223 1.965587 18.667078 1.567829 1.465304 0.010171 -0.010624 -14851.900000 1 0 0
-0.795223 17.116623 -7.411513 18.669271 -1.524371 1.979031 0.030229 -0.006328 179131.000000 1 0 0
10.150277 8.814423 13.146687 18.803126 0.715075 0.796553 0.038370 -0.001515 132131.000000 1 0 0
3.670477 11.484623 5.492087 13.248848 1.261457 1.143367 0.001236 0.005351 520105.000000 1 0 0
13.028177 13.902123 8.135487 20.716867 0.817839 1.167232 0.037760 -0.015062 -60946.900000 1 0 0
-0.651323 17.445623 6.740687 18.713921 -1.533479 1.202318 0.008655 0.002390 -224335.000000 1 0 0
12.033377 13.520523 5.712087 18.979848 0.843529 1.265102 0.028707 -0.014940 -830424.000000 1 0 0
4.963377 14.589323 -4.531513 16.062941 1.242873 1.856789 0.007733 -0.003435 -725371.000000 1 0 0
3.699577 17.723623 4.659987 18.695699 1.365014 1.318886 0.008723 -0.003362 -347647.000000 1 0 0
7.099477 11.839523 2.034587 13.954083 1.030640 1.424469 0.012922 0.000035 585737.000000 1 0 0
6.394677 8.733023 11.759487 15.982588 0.938758 0.743995 0.003112 0.000537 630431.000000 1 0 0
-5.448723 14.827523 1.652587 15.883169 -1.218640 1.466561 -0.007282 0.004714 277193.000000 1 0 0
6.578177 13.699423 6.021287 16.346330 1.123131 1.193555 0.010802 -0.005071 -813534.000000 1 0 0
5.853877 15.962223 4.985387 17.717633 1.219293 1.285564 0.003609 -0.008689 683739.000000 1 0 0
1.193477 17.975623 4.278187 18.516217 1.504499 1.337639 0.015288 -0.005315 -95806.500000 1 0 0
7.398577 18.028223 -7.046113 20.722053 1.181366 1.917745 0.017141 -0.002785 252896.000000 1 0 0
-2.384223 18.825123 -6.207213 19.964951 -1.444816 1.886942 0.036894 -0.008040 54154.200000 1 0 0
13.632377 9.933923 -4.729213 17.518276 0.629730 1.844147 0.022155 -0.005956 -1356080.000000 1 0 0
-1.710323 18.004823 9.771887 20.556961 -1.476088 1.075427 0.019027 -0.006897 -479194.000000 1 0 0
3.477377 11.790423 -1.527913 12.387120 1.283995 1.694458 0.011150 -0.004037 492898.000000 1 0 0
4.293277 13.925923 -10.923913 18.212508 1.271748 2.214051 0.005075 -0.017840 461029.000000 1 0 0
11.592377 13.418423 2.402387 17.894377 0.858279 1.436136 0.028965 -0.004633 823553.000000 1 0 0
15.940877 6.382723 -6.939813 18.520575 0.380851 1.954878 -0.007723 -0.000938 356162.000000 1 0 0
2.513477 16.135323 2.986987 16.600853 1.416263 1.389881 0.008983 -0.004210 -13339.500000 1 0 0
13.437277 10.720923 3.612387 17.565533 0.673428 1.363666 0.024246 0.001694 -832015.000000 1 0 0
-5.012623 19.382723 -6.189413 20.955314 -1.317728 1.870631 0.027512 -0.013407 852438.000000 1 0 0
5.529177 12.156123 0.031087 13.354553 1.143919 1.568469 0.013161 -0.004805 -69897.000000 1 0 0
4.898877 15.422923 9.700087 18.866829 1.263239 1.030798 0.018100 -0.002856 16450.800000 1 0 0
7.779577 9.466023 13.926687 18.549394 0.882878 0.721540 0.019750 -0.006954 -718459.000000 1 0 0
-4.950923 13.656923 7.007887 16.128660 -1.223011 1.121314 -0.011223 0.006997 -1627100.000000 1 0 0
-4.531323 17.085923 0.571787 17.685830 -1.311556 1.538460 0.001457 -0.000006 -1249230.000000 1 0 0
-0.720723 16.557823 3.500587 16.939157 -1.527296 1.362640 0.008981 -0.000622 -1070650.000000 1 0 0
7.799777 16.880123 -4.704113 19.180817 1.137951 1.818575 0.012359 -0.003987 733720.000000 1 0 0
3.163277 16.408423 -4.589813 17.329427 1.380349 1.838852 0.004519 -0.006273 293428.000000 1 0 0
9.375277 14.472023 8.204387 19.095739 0.995955 1.126697 0.018672 -0.007241 -206978.000000 1 0 0
12.659477 10.948023 9.156887 19.078002 0.713029 1.070175 0.033856 -0.013496 176655.000000 1 0 0
3.614077 12.365723 12.280587 17.798468 1.286450 0.809335 0.005475 0.000621 498063.000000 1 0 0
-3.455223 19.296723 5.786987 20.439944 -1.393616 1.283749 0.013734 -0.004172 234483.000000 1 0 0
-2.650723 15.678523 10.332087 18.962975 -1.403313 0.994579 0.010932 -0.003244 -1549790.000000 1 0 0
1.985677 14.200323 7.655087 16.253998 1.431864 1.080410 0.006968 0.003529 -173992.000000 1 0 0
4.417777 17.380723 8.013687 19.642440 1.321890 1.150558 0.023144 -0.006581 172965.000000 1 0 0
-1.860723 13.440723 9.490287 16.558408 -1.433231 0.960464 0.003133 0.002638 -547198.000000 1 0 0
5.858877 17.856623 3.203087 19.064238 1.253757 1.401980 -0.005030 -0.009010 410878.000000 1 0 0
7.390377 15.338923 -6.891513 18.368266 1.121810 1.955394 0.022896 -0.005510 65828.200000 1 0 0
10.989377 7.681123 9.410287 16.380463 0.610027 0.958825 0.022643 -0.007404 638462.000000 1 0 0
9.031277 16.394323 -2.611013 18.898550 1.067279 1.709399 0.023056 -0.006542 -453732.000000 1 0 0
14.689077 11.391223 -6.650413 19.742263 0.659616 1.914378 0.043762 -0.005171 584275.000000 1 0 0
11.107677 6.274623 15.998387 20.462154 0.514204 0.673165 0.054776 -0.016196 247534.000000 1 0 0
8.462877 8.536923 10.202387 15.766675 0.789754 0.867041 0.006339 -0.001951 570755.000000 1 0 0
16.365777 9.469623 4.543887 19.446319 0.524553 1.334953 0.026524 -0.005502 107746.000000 1 0 0
-3.463623 14.386123 4.482787 15.461326 -1.334532 1.276637 -0.007932 0.009323 -1260830.000000 1 0 0
4.523377 14.866123 12.756987 20.104807 1.275423 0.883404 0.010331 0.003300 -658848.000000 1 0 0
16.214077 10.617423 -4.616713 19.923353 0.579761 1.804646 0.031251 -0.005970 686428.000000 1 0 0
14.587377 13.950623 6.141687 21.098146 0.763089 1.275419 0.033221 -0.011353 -303027.000000 1 0 0
6.111177 9.481123 9.237387 14.579695 0.998253 0.884626 -0.003242 0.002204 898104.000000 1 0 0
10.363277 12.115923 8.640087 18.134062 0.863208 1.074177 0.025155 -0.009408 -457646.000000 1 0 0
8.036777 11.490123 -0.332313 14.025803 0.960439 1.594492 0.015001 -0.002149 -539924.000000 1 0 0
7.451277 13.469623 -8.721213 17.692140 1.065506 2.086265 0.026816 -0.008887 -121556.000000 1 0 0
2.775677 15.254423 -2.306013 15.675442 1.390807 1.718442 0.004467 -0.004147 837912.000000 1 0 0
12.196677 13.395723 -7.661513 19.669853 0.832216 1.970891 0.046577 -0.025505 208396.000000 1 0 0
-8.156423 14.628223 9.698687 19.353983 -1.062151 1.045903 0.013396 -0.015265 447305.000000 1 0 0
11.603877 9.580623 2.232887 15.212629 0.690181 1.423486 0.016909 0.002879 -1443800.000000 1 0 0
12.073677 8.721023 4.571887 15.579861 0.625547 1.272964 0.016510 -0.004017 186818.000000 1 0 0
14.046077 8.080423 6.190487 17.346690 0.522044 1.205883 0.024299 -0.006268 -2146370.000000 1 0 0
16.191977 7.532523 7.320787 19.300594 0.435423 1.181753 0.034770 -0.009801 -844122.000000 1 0 0
13.743777 8.315223 2.557487 16.265764 0.544101 1.412910 0.012133 0.002431 -2732890.000000 1 0 0
-4.219123 17.228223 -7.342913 19.197162 -1.330627 1.963297 0.021303 -0.011374 326206.000000 1 0 0
3.563577 19.495623 -3.901013 20.198918 1.390004 1.765147 0.019140 -0.013531 692195.000000 1 0 0
-0.112823 14.915023 6.219087 16.160064 -1.563232 1.175759 0.002648 0.005499 -444684.000000 1 0 0
6.807777 16.236523 8.058287 19.362502 1.173774 1.141556 0.028511 -0.007169 -438106.000000 1 0 0
12.936877 15.231423 -2.160713 20.100441 0.866677 1.678500 0.049314 -0.007337 507264.000000 1 0 0
12.622077 15.708123 4.345787 20.614262 0.893902 1.358388 0.037133 -0.014121 -274861.000000 1 0 0
2.987777 18.131823 1.525487 18.439548 1.407483 1.487973 0.013011 -0.012350 -644429.000000 1 0 0
10.441477 14.553823 -1.529513 17.977141 0.948462 1.655980 0.028277 -0.001441 -389217.000000 1 0 0
-6.234323 15.660023 -0.784713 16.873615 -1.191925 1.617318 -0.005917 0.000008 -83884.700000 1 0 0
-3.911923 15.939523 -2.627213 16.621486 -1.330130 1.729523 0.009113 -0.000195 -1694960.000000 1 0 0
-6.960223 16.935723 1.498187 18.371390 -1.180861 1.489156 0.003309 -0.003744 604999.000000 1 0 0
0.168277 19.383523 -6.720513 20.516203 1.562115 1.904528 0.033524 -0.010713 106183.000000 1 0 0
4.727377 14.897123 7.121687 17.175296 1.263513 1.143241 0.013508 -0.000599 -551653.000000 1 0 0
8.620577 12.398923 6.942887 16.620810 0.963253 1.139859 0.017567 -0.005859 -800254.000000 1 0 0
-7.610123 17.545223 -5.731813 19.965032 -1.161543 1.861987 0.026933 -0.011362 195759.000000 1 0 0
-7.638823 17.769023 -1.359113 19.389094 -1.164786 1.640951 0.020632 -0.009868 -243613.000000 1 0 0
-13.709823 -9.059777 9.212787 18.839168 0.583947 1.059827 0.030242 -0.017341 -385122.000000 1 0 0
-12.623723 -12.848077 7.793887 19.625905 0.794206 1.162417 0.027019 -0.014009 17363.400000 1 0 0
-3.960923 -14.748477 12.729787 19.880995 1.308423 0.875908 0.011983 -0.021798 40960.400000 1 0 0
-2.127323 -14.090877 15.036887 20.716812 1.420956 0.758556 0.021622 -0.019153 -840999.000000 1 0 0
-7.113723 -13.558577 12.788087 19.949317 1.087611 0.874958 0.019631 -0.026373 231048.000000 1 0 0
-9.788523 -11.465777 8.995687 17.555672 0.864149 1.032808 0.013117 -0.015106 911445.000000 1 0 0
-10.784223 -10.576177 11.127487 18.761022 0.775659 0.935871 0.034521 -0.026268 321596.000000 1 0 0
-5.894223 -12.123577 10.877887 17.321992 1.118267 0.891840 0.016004 -0.015881 774180.000000 1 0 0
-12.556823 -10.288377 7.271287 17.787527 0.686426 1.149673 0.020372 -0.010325 -283327.000000 1 0 0
-7.860323 -11.122077 12.430187 18.438949 0.955567 0.831015 0.024447 -0.021241 -126019.000000 1 0 0
-14.781423 -11.503077 7.378487 20.130905 0.661314 1.195525 0.035329 -0.008172 -746956.000000 1 0 0
-11.077123 -9.100577 9.061187 16.959607 0.687753 1.007140 0.016939 -0.013382 -129398.000000 1 0 0
-5.519523 -11.587277 13.404987 18.558658 1.126252 0.763669 0.024662 -0.026689 -356565.000000 1 0 0
4.086977 -12.288477 14.980687 19.802299 -1.249718 0.712832 0.011641 -0.007303 315377.000000 1 0 0
6.688077 -12.620077 14.349187 20.245886 -1.083473 0.783078 0.021630 -0.002935 616887.000000 1 0 0
6.594077 -8.225877 16.131787 19.271260 -0.895065 0.578853 0.005630 -0.001816 -935334.000000 1 0 0
0.664277 -1.725777 14.689087 14.805028 -1.203362 0.125231 0.009783 -0.007610 -223907.000000 1 0 0
-0.139423 -6.227077 15.773387 16.958646 1.548410 0.376087 0.007105 -0.006735 -488268.000000 1 0 0
-1.397223 -4.720777 18.147687 18.803630 1.283038 0.264910 0.014598 -0.027926 -673892.000000 1 0 0
-5.160123 12.559423 13.006987 18.802864 -1.180966 0.806879 0.009839 -0.006269 347074.000000 1 0 0
-4.060423 8.821823 11.620287 15.144064 -1.139435 0.696151 -0.000360 0.001440 18036.400000 1 0 0
-0.745823 -3.910177 15.115387 15.630760 1.382321 0.257505 0.009171 -0.008391 160319.000000 1 0 0
-4.468523 9.134423 14.184987 17.453345 -1.115829 0.621961 0.008303 -0.008428 468441.000000 1 0 0
-13.399023 -2.285077 16.902387 21.689769 0.168915 0.677281 0.018762 0.002837 -553038.000000 1 0 0
-0.371123 1.025123 17.219887 17.254365 -1.223447 0.063228 0.013572 -0.009875 -981895.000000 1 0 0
-3.408623 -7.145277 15.377787 17.295954 1.125680 0.475427 0.010109 -0.012677 179085.000000 1 0 0
-7.491523 5.481123 12.617287 15.664021 -0.631649 0.634286 0.003581 -0.002335 -2473900.000000 1 0 0
-9.739723 10.033423 13.504087 19.439448 -0.800251 0.802829 0.012449 -0.010060 -639781.000000 1 0 0
-5.463023 2.283523 11.124687 12.602292 -0.395923 0.489111 0.002600 -0.003962 -498276.000000 1 0 0
-7.213223 -7.269377 16.794787 19.670773 0.789275 0.547566 0.019860 -0.018460 48199.900000 1 0 0
-4.906923 3.068723 18.581787 19.462214 -0.558877 0.301937 0.011812 -0.010578 -1187440.000000 1 0 0
0.986277 -8.342777 16.636187 18.636990 -1.453123 0.467620 0.008046 -0.001665 464829.000000 1 0 0
-14.973323 -3.666177 13.971787 20.805098 0.240123 0.834490 0.036603 -0.004441 161194.000000 1 0 0
-14.274223 2.118923 13.323187 19.640534 -0.147368 0.825280 0.012081 0.001641 -1713280.000000 1 0 0
-5.503123 0.977423 16.048687 16.994119 -0.175779 0.335131 0.008764 -0.006417 407927.000000 1 0 0
4.403177 5.759723 15.099087 16.749472 0.918094 0.447651 -0.002171 -0.000263 111932.000000 1 0 0
-1.092423 -11.940177 13.906487 18.361688 1.479559 0.711529 0.007340 -0.011228 11926.900000 1 0 0
-5.852623 -4.096977 16.719687 18.182034 0.610742 0.403807 0.013779 -0.012142 275265.000000 1 0 0
-13.004323 -1.477277 9.969687 16.452642 0.113114 0.919821 0.018690 0.001848 -892129.000000 1 0 0
-14.674423 10.387223 10.200887 20.671023 -0.615972 1.054702 0.014859 -0.000082 468847.000000 1 0 0
-3.562223 -3.383777 17.541387 18.216466 0.759713 0.273093 0.015755 -0.022104 -2338650.000000 1 0 0
-7.839723 9.335923 11.875887 17.019325 -0.872291 0.798491 0.005332 -0.006205 -57452.600000 1 0 0
-3.964723 10.592023 16.283987 19.826200 -1.212629 0.607046 0.001136 -0.010226 452984.000000 1 0 0
-12.429123 12.754623 8.231087 19.619233 -0.798322 1.137856 0.010573 -0.010458 555878.000000 1 0 0
-12.724523 3.289023 10.466887 16.801395 -0.252943 0.898253 0.011113 -0.003193 726087.000000 1 0 0
-10.089723 -3.502777 13.663587 17.342594 0.334145 0.663465 0.007776 0.000328 -892802.000000 1 0 0
-4.146023 -6.344477 17.800487 19.346815 0.991975 0.402529 0.020574 -0.008780 -438644.000000 1 0 0
0.965377 -3.710877 18.165487 18.565761 -1.316290 0.208027 0.016649 -0.009909 -500900.000000 1 0 0
-5.904323 1.968423 13.628887 14.982733 -0.321799 0.428381 0.002532 -0.002735 -997663.000000 1 0 0
-10.521023 8.688223 10.214887 17.044678 -0.690274 0.928169 0.010850 -0.010619 51906.200000 1 0 0
4.573377 2.502823 17.294387 18.063104 0.500737 0.292789 0.005843 -0.000039 -467706.000000 1 0 0
0.536877 -5.358577 13.355387 14.400311 -1.470939 0.383295 0.007108 -0.003492 -216763.000000 1 0 0
-4.154323 5.688023 20.725887 21.890053 -0.939982 0.327599 0.032355 -0.012588 -237049.000000 1 0 0
-10.731223 10.852523 8.927387 17.681477 -0.791018 1.041530 0.009974 -0.008857 399280.000000 1 0 0
0.587577 4.175423 13.121187 13.782052 1.430992 0.310932 0.004106 -0.005457 -3428270.000000 1 0 0
-3.108623 7.085123 13.281387 15.370678 -1.157334 0.527491 0.000606 -0.003752 274919.000000 1 0 0
0.777477 8.901823 14.143287 16.729599 1.483678 0.563473 -0.010081 -0.002885 94313.000000 1 0 0
-4.054723 -6.592477 13.026887 15.152601 1.019382 0.536089 0.012233 -0.008972 -358970.000000 1 0 0
-5.105923 8.263923 16.557987 19.197130 -1.017350 0.530560 0.012135 0.000117 468076.000000 1 0 0
1.598777 -10.764877 15.680887 19.087401 -1.423356 0.606706 0.000899 -0.001227 -12779.100000 1 0 0
-15.108423 -1.032177 14.516387 20.977496 0.068212 0.806543 0.026222 -0.001318 -299529.000000 1 0 0
-13.567523 -5.265777 8.682587 16.946782 0.370220 1.032884 0.030249 -0.006034 -340523.000000 1 0 0
-14.116323 -1.846377 12.279787 18.800874 0.130059 0.859060 0.025652 0.000386 583165.000000 1 0 0
9.470177 1.439623 17.031887 19.540776 0.150861 0.512324 0.017607 0.003431 -56070.400000 1 0 0
4.966977 -6.643277 16.836087 18.768533 -0.928788 0.457775 0.014909 -0.002311 76942.100000 1 0 0
-6.102523 -2.586577 11.007687 12.849138 0.400899 0.541984 0.005810 -0.004733 446670.000000 1 0 0
0.723477 -6.261477 18.194487 19.255360 -1.455762 0.333492 0.014386 -0.009319 69975.300000 1 0 0
-8.481123 11.882923 12.183887 19.015268 -0.950919 0.875332 0.011031 -0.006136 95408.300000 1 0 0
-6.631723 -5.641277 14.767787 17.143258 0.704871 0.532710 0.017176 -0.012209 -624673.000000 1 0 0
-4.343623 -8.839677 17.135887 19.764756 1.114070 0.521662 0.025018 -0.012710 -22655.100000 1 0 0
2.516077 -6.034077 16.366387 17.623829 -1.175740 0.380037 0.011804 -0.007232 183539.000000 1 0 0
2.124177 5.330923 16.072587 17.066310 1.191615 0.342932 0.003152 -0.004149 -2001520.000000 1 0 0
1.108477 -8.679277 14.091687 16.587170 -1.443769 0.555658 0.006968 -0.004672 -307553.000000 1 0 0
-9.940523 -2.807077 11.263587 15.282738 0.275221 0.742155 0.001878 -0.001416 -883467.000000 1 0 0
-1.202523 9.958423 12.465287 15.999988 -1.450624 0.677598 -0.005703 -0.001916 -395579.000000 1 0 0
-12.320423 -3.599377 11.485087 17.223692 0.284237 0.840864 0.018263 0.000004 -2513130.000000 1 0 0
-1.817323 6.520023 20.044587 21.156532 -1.298966 0.325653 0.014922 -0.009873 -764519.000000 1 0 0
0.129277 -13.373277 15.804387 20.703620 -1.561130 0.702292 0.004867 -0.012326 -449617.000000 1 0 0
4.075577 -8.634377 15.351587 18.078551 -1.129784 0.556403 0.012511 -0.002125 -205309.000000 1 0 0
4.532777 -4.351777 16.172587 17.350406 -0.765029 0.370585 0.013199 -0.001625 -496923.000000 1 0 0
7.946377 1.841823 14.913887 16.998860 0.227760 0.500493 0.000406 0.006834 93597.100000 1 0 0
-6.355523 -0.019477 11.912287 13.501690 0.003065 0.490110 0.005372 -0.005790 208679.000000 1 0 0
-3.435023 -10.978677 18.474187 21.762958 1.267564 0.556929 0.031419 -0.013695 301032.000000 1 0 0
3.186577 -1.536577 13.670787 14.121110 -0.449309 0.253223 0.004218 -0.002658 463027.000000 1 0 0
-2.542123 8.621323 15.831387 18.205011 -1.284058 0.516370 0.006338 -0.009746 -1645200.000000 1 0 0
-3.295123 4.041423 14.870587 15.758341 -0.886773 0.337261 0.002968 -0.004314 -743590.000000 1 0 0
-4.480723 -8.957677 19.776887 22.168494 1.106980 0.468787 0.031743 -0.016911 931.676000 1 0 0
-5.722823 -2.938177 19.013087 20.071897 0.474321 0.326255 0.012339 -0.018187 -799272.000000 1 0 0
-6.605123 -8.585977 11.149587 15.545416 0.915062 0.770982 0.014398 -0.011696 -1323480.000000 1 0 0
-11.787223 2.604823 12.746487 17.555531 -0.217492 0.758212 0.012771 -0.007971 -423981.000000 1 0 0
-11.599423 -7.696477 11.591287 18.114644 0.585823 0.876448 0.019695 -0.007181 -1257980.000000 1 0 0
-10.869023 -7.395377 15.695287 20.473625 0.597456 0.697251 0.016957 -0.015469 89597.100000 1 0 0
0.095677 5.890223 17.705587 18.659895 1.554554 0.321198 0.001479 -0.009262 78640.200000 1 0 0
-2.240423 -0.132377 13.226887 13.415944 0.059017 0.168079 0.004664 -0.004734 443024.000000 1 0 0
-6.001323 -10.508177 18.355387 21.985402 1.051891 0.582864 0.037378 -0.014292 772911.000000 1 0 0
0.273777 2.787723 19.128887 19.332891 1.472902 0.145401 0.016274 -0.013383 108566.000000 1 0 0
-0.672523 10.884323 14.856987 18.429618 -1.509087 0.633184 0.002295 -0.005145 -572390.000000 1 0 0
-12.853623 -2.197877 14.390287 19.419749 0.169355 0.736219 0.020750 -0.000033 -930026.000000 1 0 0
-13.830523 8.384423 11.587987 19.896315 -0.544985 0.949095 0.020856 -0.011799 -223646.000000 1 0 0
-18.176023 -0.646977 7.020287 19.495405 0.035580 1.202422 0.044112 -0.013867 -321019.000000 1 0 0
-2.015723 -7.747577 17.528787 19.270352 1.316265 0.428417 0.018228 -0.014216 -1075530.000000 1 0 0
5.631577 2.694823 14.458287 15.748612 0.446317 0.407619 0.000288 0.002714 -2958950.000000 1 0 0
-14.068123 -6.659377 11.201487 19.176358 0.442115 0.946988 0.027232 -0.011826 779451.000000 1 0 0
3.149977 7.741723 16.372487 18.382463 1.184370 0.472006 -0.000022 -0.009151 -47388.100000 1 0 0
1.034777 2.150323 14.763287 14.954909 1.122286 0.160255 0.009818 -0.008097 -2383120.000000 1 0 0
-14.404623 0.689923 9.676487 17.366737 -0.047859 0.979804 0.011912 -0.003310 -3361740.000000 1 0 0
-9.537623 -5.156477 15.491187 18.908527 0.495633 0.610660 0.008695 -0.003865 -415208.000000 1 0 0
-2.554223 -0.042577 18.191187 18.369680 0.016668 0.139517 0.015622 -0.012296 247032.000000 1 0 0
6.950677 3.729323 17.747687 19.421641 0.492451 0.418229 0.025630 0.006480 414273.000000 1 0 0
-4.286423 -0.762577 14.646587 15.279969 0.176063 0.288934 0.011068 -0.005309 -772754.000000 1 0 0
4.677877 -8.850077 17.957387 20.559040 -1.084556 0.508544 0.010286 0.002152 -6452.130000 1 0 0
1.984277 6.993723 13.427287 15.268974 1.294339 0.496230 -0.001675 -0.002254 -2170830.000000 1 0 0
-3.693323 -0.949577 20.387787 20.741364 0.251656 0.184909 0.025183 -0.014335 -1132050.000000 1 0 0
-10.506323 1.621123 16.331987 19.487038 -0.153092 0.577015 0.006725 -0.005698 -280291.000000 1 0 0
-3.721023 7.023223 18.383587 20.028179 -1.083581 0.408076 0.011373 -0.008694 516624.000000 1 0 0
-12.543323 1.172623 14.723787 19.377820 -0.093215 0.707750 0.012745 -0.003419 164615.000000 1 0 0
-16.103523 -4.761277 8.714787 18.919322 0.287477 1.092093 0.039916 -0.012685 -640147.000000 1 0 0
-2.431423 0.812423 15.674087 15.882344 -0.322472 0.162119 0.009739 -0.007795 -367679.000000 1 0 0
-13.648823 -8.922277 12.492587 20.541717 0.578974 0.917060 0.026061 -0.022720 505213.000000 1 0 0
6.222077 -3.084077 14.599387 16.166876 -0.460175 0.443994 0.006984 -0.002470 465135.000000 1 0 0
-15.773723 0.259023 7.620387 17.519924 -0.016420 1.120807 0.016609 -0.005867 551981.000000 1 0 0
-13.965123 5.805323 12.120287 19.381120 -0.393968 0.895196 0.012691 -0.017165 -468429.000000 1 0 0
0.427877 9.418323 16.745887 19.217508 1.525397 0.512774 -0.005114 -0.013219 -251793.000000 1 0 0
-10.491323 -5.416077 10.852987 16.037116 0.476558 0.827468 0.015344 -0.004282 217108.000000 1 0 0
-3.181923 -10.840577 15.013387 18.789479 1.285295 0.645113 0.017670 -0.015934 -1911860.000000 1 0 0
-3.398223 2.621323 12.689587 13.395704 -0.657045 0.326135 0.000581 -0.003492 -1543260.000000 1 0 0
-12.331323 -7.704477 7.450887 16.338183 0.558448 1.097254 0.022247 -0.009601 -390118.000000 1 0 0
-8.176723 -1.880577 13.120887 15.574115 0.226060 0.568925 0.004908 -0.002289 -822834.000000 1 0 0
-9.805123 6.367723 9.471887 15.046760 -0.575973 0.889891 0.009276 -0.006090 -521939.000000 1 0 0
-17.695823 -3.527677 6.754587 19.266840 0.196771 1.212605 0.028144 -0.023689 318678.000000 1 0 0
-1.305823 0.040023 20.383287 20.425111 -0.030640 0.064006 0.020707 -0.015778 -1319560.000000 1 0 0
-2.895523 2.565423 20.081287 20.450514 -0.725024 0.190312 0.029759 -0.016310 -489112.000000 1 0 0
-3.775123 11.254823 11.188087 16.312446 -1.247167 0.815009 0.001513 -0.002820 -735516.000000 1 0 0
-4.131523 -4.719377 14.840687 16.111735 0.851718 0.399873 0.012839 -0.012588 891384.000000 1 0 0
-0.111623 -14.296477 13.335287 19.550744 1.562989 0.820185 0.015363 -0.019435 110908.000000 1 0 0
-12.175323 0.524723 8.425687 14.815736 -0.043071 0.965874 0.006460 -0.001391 -322135.000000 1 0 0
-7.850723 2.069423 15.390187 17.400409 -0.257734 0.485434 0.003995 -0.003438 -296412.000000 1 0 0
3.634377 -2.163677 18.500887 18.978225 -0.536983 0.224758 0.013629 -0.004864 -139389.000000 1 0 0
-2.112423 4.823723 12.576587 13.634558 -1.158030 0.396534 -0.002661 -0.002207 -693804.000000 1 0 0
-10.383123 -6.197477 13.319687 17.989776 0.538122 0.737126 0.009257 -0.007765 -1244370.000000 1 0 0
2.270077 -3.776777 14.376787 15.036931 -1.029596 0.297411 0.008316 -0.002304 -555254.000000 1 0 0
6.827977 1.202423 17.129187 18.479073 0.174315 0.384595 0.001947 0.007928 -169435.000000 1 0 0
-1.905323 -5.816477 13.964487 15.246920 1.254239 0.413079 0.006289 -0.007282 -4600440.000000 1 0 0
-12.864623 3.825923 14.647687 19.866830 -0.289069 0.741741 0.003944 0.002610 155490.000000 1 0 0
-13.118223 -6.645677 13.514787 19.972538 0.468913 0.827568 0.010184 -0.005553 -1201970.000000 1 0 0
-9.487823 6.907423 11.898987 16.712785 -0.629292 0.778498 0.007929 -0.003017 -291086.000000 1 0 0
-1.058723 -2.454077 12.898887 13.172877 1.163506 0.204314 0.006052 -0.005276 621665.000000 1 0 0
0.065077 6.767523 15.294887 16.725345 1.561181 0.416591 -0.001521 -0.006591 383465.000000 1 0 0
-16.441523 -1.044877 9.779187 19.158496 0.063466 1.035105 0.030171 0.000239 24172.700000 1 0 0
-1.275823 2.732923 13.866287 14.190508 -1.134031 0.214174 0.004315 -0.005563 -1947550.000000 1 0 0
-11.150623 -3.234577 16.096887 19.847132 0.282332 0.624863 0.009983 -0.004782 233899.000000 1 0 0
-5.174323 -1.421477 17.063987 17.887813 0.268104 0.304674 0.018317 -0.008629 167246.000000 1 0 0
-11.903823 6.686123 10.976987 17.518547 -0.511765 0.893623 0.014299 -0.004491 -1419470.000000 1 0 0
-2.818723 4.692323 18.651487 19.438134 -1.029855 0.285465 0.018679 -0.010594 194916.000000 1 0 0
5.203377 -1.824377 16.500887 17.397780 -0.337222 0.322494 0.006237 0.001049 -1198180.000000 1 0 0
-7.988923 -4.163377 12.116087 15.098217 0.480419 0.639349 0.009017 -0.002380 -2026580.000000 1 0 0
-11.494323 -0.735677 16.149387 19.835912 0.063916 0.619534 0.012950 -0.002602 490950.000000 1 0 0
2.003477 2.103523 17.365987 17.607278 0.809753 0.165744 0.011056 -0.010071 -627136.000000 1 0 0
-8.872223 -7.376977 11.584187 16.350215 0.693637 0.783421 0.014290 -0.010370 746698.000000 1 0 0
-7.245123 6.723123 14.871887 17.856797 -0.748045 0.586574 0.002077 -0.007470 -473051.000000 1 0 0
-5.681823 3.489823 15.777587 17.128755 -0.550801 0.399856 0.002666 -0.005001 17804.500000 1 0 0
-9.397123 4.325223 11.468787 15.444952 -0.431362 0.733913 0.005092 -0.004927 -218.668000 1 0 0
-10.152123 0.147723 14.151787 17.417247 -0.014550 0.622342 0.003737 -0.002765 -596060.000000 1 0 0
8.307977 -0.540177 15.782887 17.844153 -0.064928 0.485407 0.005616 0.000597 -139279.000000 1 0 0
-8.516923 -7.442177 14.601587 18.469714 0.718156 0.659058 0.020831 -0.011500 -1558140.000000 1 0 0
-0.085823 4.230423 15.714387 16.274084 -1.550512 0.263024 0.005619 -0.010356 -247529.000000 1 0 0
-8.138023 3.006723 9.636487 12.966483 -0.353910 0.732979 0.003420 -0.002082 -97847.900000 1 0 0
-1.975223 -9.629477 13.078487 16.360781 1.368480 0.644533 -0.001611 -0.008089 399305.000000 1 0 0
-6.021723 10.226223 10.367887 15.758486 -1.038615 0.852737 0.008811 -0.006020 -1558210.000000 1 0 0
-8.561123 -2.732677 15.561987 17.970414 0.308974 0.523693 0.008380 -0.006905 -686855.000000 1 0 0
4.148177 5.614823 17.676687 19.005233 0.934508 0.376123 0.005302 -0.006359 456240.000000 1 0 0
-6.833523 -0.848977 15.130387 16.623670 0.123604 0.427099 0.008449 -0.004086 -397658.000000 1 0 0
-0.897423 -9.840277 15.445887 18.336080 1.479849 0.569118 0.005727 -0.006843 1442990.000000 1 0 0
-4.415023 5.860523 16.145987 17.735023 -0.925155 0.426544 0.006424 -0.009038 -28358.700000 1 0 0
3.713877 0.123523 17.460487 17.851519 0.033248 0.209691 0.009984 -0.003327 -583186.000000 1 0 0
1.288177 0.303523 19.090387 19.136207 0.231401 0.069215 0.018243 -0.015557 -666466.000000 1 0 0
-6.221123 6.351723 18.006987 20.082289 -0.795785 0.458630 0.002760 -0.002141 -1500110.000000 1 0 0
-12.303323 0.728823 11.073187 16.568597 -0.059169 0.838843 0.014259 -0.000693 -23782.800000 1 0 0
-5.396423 5.105223 13.853087 15.719183 -0.757676 0.492221 0.000917 -0.002763 -1314450.000000 1 0 0
-8.613123 -9.468877 10.068387 16.285513 0.832689 0.904292 0.017957 -0.010142 278466.000000 1 0 0
6.950177 -3.671277 17.043487 18.768689 -0.485974 0.432118 0.010971 0.002731 -198744.000000 1 0 0
-16.805223 1.538023 9.696787 19.463009 -0.091266 1.049256 0.027039 -0.005953 418554.000000 1 0 0
-4.110123 -9.544777 11.479987 15.485025 1.164179 0.735701 0.004621 -0.009720 686548.000000 1 0 0
-11.105223 -3.671577 9.180987 14.869330 0.319304 0.905306 0.014414 -0.002439 -635707.000000 1 0 0
3.793377 -5.232277 18.614887 19.704833 -0.943491 0.334159 0.013510 -0.003571 -134107.000000 1 0 0
2.581477 -1.887777 16.169787 16.483014 -0.631411 0.195261 0.014840 -0.006837 -231936.000000 1 0 0
-3.039623 -4.228777 20.068187 20.732921 0.947567 0.253908 0.021982 -0.022800 -1161840.000000 1 0 0
-6.302823 -3.213877 14.300287 15.954711 0.471545 0.459431 0.011332 -0.006207 398368.000000 1 0 0
-9.821723 5.208723 13.868587 17.774553 -0.487614 0.675732 0.009400 -0.006778 365177.000000 1 0 0
-5.754023 -5.071777 11.753987 14.035238 0.722461 0.578173 0.007521 -0.006122 -370504.000000 1 0 0
6.016377 1.943623 19.486087 20.486143 0.312472 0.313747 0.013977 -0.001062 79010.300000 1 0 0
-2.728923 11.742623 13.537487 18.127321 -1.342455 0.727559 0.010039 -0.014088 -2941420.000000 1 0 0
3.359977 1.492623 15.226587 15.664173 0.418050 0.236924 0.008970 -0.001681 -1549130.000000 1 0 0
-5.781623 7.443123 12.851087 15.936677 -0.910379 0.632784 -0.000572 -0.005467 -599009.000000 1 0 0
-1.953623 -1.724377 15.239387 15.460564 0.723150 0.169352 0.009974 -0.007493 498552.000000 1 0 0
-7.293823 10.621823 14.139987 19.130139 -0.969064 0.738993 0.019376 -0.011818 660008.000000 1 0 0
-10.280023 2.123323 10.685587 14.978957 -0.203684 0.776496 0.007509 -0.002868 -235370.000000 1 0 0
-13.677923 5.271523 9.044587 17.224375 -0.367860 1.017959 0.005154 -0.006420 43409.500000 1 0 0
0.136477 -4.958377 20.413387 21.007392 -1.543279 0.238370 0.005711 -0.009491 -438660.000000 1 0 0
-14.354723 -3.034277 7.646687 16.544991 0.208312 1.090350 0.020853 -0.004428 786691.000000 1 0 0
-2.594423 2.468323 17.488887 17.851746 -0.760496 0.201968 0.014754 -0.013701 466584.000000 1 0 0
-6.134223 -8.263877 14.566787 17.835685 0.932246 0.615090 0.015096 -0.012633 -732182.000000 1 0 0
-7.960323 2.110123 12.074887 14.615822 -0.259121 0.598553 0.000801 -0.004017 155071.000000 1 0 0
-14.561823 -3.416077 10.249287 18.131855 0.230425 0.970043 0.025866 -0.006928 429813.000000 1 0 0
-0.481523 7.043523 12.756187 14.579554 -1.502539 0.505491 -0.003207 -0.004899 326878.000000 1 0 0
-1.764423 -2.264777 19.033087 19.248398 0.908948 0.149712 0.020199 -0.027865 89260.300000 1 0 0
-12.865323 10.400123 7.353887 18.104109 -0.679832 1.152505 0.009712 -0.011141 218368.000000 1 0 0
-19.568323 2.134223 6.678787 20.786543 -0.108636 1.243691 0.038677 -0.016572 608335.000000 1 0 0
-16.244623 8.343523 6.781987 19.480696 -0.474482 1.215211 0.025663 -0.007238 266296.000000 1 0 0
-12.423823 7.282823 13.527887 19.758406 -0.530209 0.816653 0.021819 -0.007492 441724.000000 1 0 0
-16.041523 8.196223 10.318487 20.760051 -0.472360 1.050617 0.014834 -0.006046 -543072.000000 1 0 0
1.894777 10.922523 15.132087 18.758245 1.399031 0.632267 -0.005874 -0.012073 335791.000000 1 0 0
2.009177 14.477523 12.619487 19.310280 1.432898 0.858582 0.004712 -0.004782 -134249.000000 1 0 0
-3.094723 13.608023 11.829887 18.294858 -1.347181 0.867647 0.000232 -0.004221 50564.400000 1 0 0
8.972677 4.795423 15.630487 18.649856 0.490824 0.577001 0.025690 -0.003345 -276283.000000 1 0 0
-0.384023 12.496723 12.813087 17.902256 -1.540076 0.773135 0.001014 -0.008497 -70247.300000 1 0 0
3.510177 13.444323 14.641187 20.185032 1.315408 0.759255 0.009180 -0.004772 -55785.700000 1 0 0
-2.915723 -4.196977 -13.709013 14.630553 0.963623 2.784773 0.002491 -0.005811 -61019.800000 1 0 0
5.938777 -11.362677 16.473187 20.874515 -1.089188 0.661368 0.013655 0.001673 33916.200000 1 0 0
7.990777 -13.559677 7.295387 17.347623 -1.038278 1.136755 0.015754 -0.010263 -54310.400000 1 0 0
-0.111623 15.615623 1.213287 15.663084 -1.563648 1.493257 0.010414 -0.004968 -2330190.000000 1 0 0
-13.933623 8.154523 8.918887 18.444204 -0.529496 1.066079 0.012699 -0.007142 310049.000000 1 0 0
-15.478223 -9.764777 4.905687 18.947085 0.562811 1.308897 0.023465 -0.011730 -219437.000000 1 0 0
9.632477 -11.279777 11.132887 18.546136 -0.864008 0.926944 0.021859 -0.000970 68641.200000 1 0 0
-5.822623 -10.347077 -16.599013 20.408140 1.058231 2.520688 0.016221 -0.005501 152530.000000 1 0 0
-2.019423 -12.645277 -14.702313 19.497156 1.412436 2.425041 0.022338 -0.000689 -174670.000000 1 0 0
5.334477 -15.870477 -12.146713 20.685051 -1.246535 2.198419 0.021257 -0.006434 280399.000000 1 0 0
2.445577 -12.383177 -16.589513 20.845524 -1.375814 2.491175 0.026460 0.004168 263891.000000 1 0 0
0.768577 -14.044177 -14.789313 20.409640 -1.516125 2.381285 0.037931 0.011611 238444.000000 1 0 0
-6.576223 -5.636277 -14.559013 16.940460 0.708584 2.604935 0.015037 -0.007534 11442.000000 1 0 0
-6.468123 -8.045577 -17.189713 20.051288 0.893660 2.600773 0.014162 -0.006349 77111.400000 1 0 0
-2.394023 -16.454077 -13.221913 21.243516 1.426313 2.242599 0.021589 0.004608 231117.000000 1 0 0
16.464677 -8.250677 -8.955313 20.478205 -0.464538 2.023401 0.056734 -0.006833 -122173.000000 1 0 0
19.065877 -3.521977 -3.336213 19.673391 -0.182668 1.741200 0.028532 -0.015221 132838.000000 1 0 0
15.753777 -11.580077 -8.774613 21.430667 -0.633875 1.992639 0.044975 -0.014226 155629.000000 1 0 0
18.313777 -2.619377 -6.289213 19.539953 -0.142064 1.898494 0.126075 -0.002290 -269797.000000 1 0 0
9.008277 -9.531577 -15.971413 20.666060 -0.813616 2.454090 0.041368 -0.004496 204109.000000 1 0 0
-4.299123 10.159923 -16.547213 19.887603 -1.170498 2.553565 0.003818 0.013946 424496.000000 1 0 0
2.507677 -9.549577 -18.373413 20.858216 -1.313999 2.648497 0.026104 -0.008333 -28358.400000 1 0 0
11.075877 7.942323 -15.026313 20.286587 0.622099 2.404911 0.046075 -0.037661 349683.000000 1 0 0
18.628677 -6.456877 -8.866913 21.618071 -0.333651 1.993428 0.056476 -0.002656 257563.000000 1 0 0
12.714477 5.451523 -13.829013 19.560640 0.405055 2.356018 0.031259 -0.007770 74169.400000 1 0 0
16.066377 5.937223 -11.003813 20.358364 0.353978 2.141834 0.009569 -0.008519 170975.000000 1 0 0
3.237877 -0.370377 -19.174613 19.449597 -0.113894 2.973238 0.023710 -0.016116 154047.000000 1 0 0
10.298577 -1.607577 -14.853513 18.145849 -0.154847 2.529700 0.025284 -0.005820 190461.000000 1 0 0
12.286777 -5.618477 -14.133313 19.552051 -0.428890 2.378723 0.040991 -0.004061 232074.000000 1 0 0
10.237477 6.593823 -12.932113 17.762995 0.572207 2.386250 0.021822 -0.007531 478249.000000 1 0 0
10.486677 5.509423 -16.561213 20.361677 0.483740 2.520687 0.030385 -0.005053 398371.000000 1 0 0
11.806677 -10.426377 -15.208513 21.895338 -0.723395 2.338661 0.046726 -0.009218 326968.000000 1 0 0
-1.031923 2.225023 -17.316513 17.489346 -1.136541 3.000891 0.009346 -0.011909 359970.000000 1 0 0
6.397877 -1.137777 -17.128113 18.319378 -0.175997 2.778978 0.010805 0.001203 58640.300000 1 0 0
6.815877 -5.975577 -15.544513 17.994321 -0.719800 2.613672 0.001509 -0.013970 299867.000000 1 0 0
-2.084323 -4.872377 -20.429013 21.105190 1.166570 2.887778 0.035562 -0.027175 225428.000000 1 0 0
16.230877 -0.141877 -13.348413 21.015271 -0.008741 2.259034 0.026181 -0.003882 71905.200000 1 0 0
-4.091623 -0.401877 -18.422513 18.875695 0.097905 2.922023 0.014296 -0.015871 103880.000000 1 0 0
3.451477 8.441323 -17.926313 20.112715 1.182659 2.670984 0.011690 -0.014148 -121419.000000 1 0 0
10.114177 0.390223 -16.962313 19.752694 0.038563 2.603591 0.040953 -0.019260 -264926.000000 1 0 0
4.190377 4.481523 -18.403913 19.399673 0.818959 2.819804 0.017891 -0.002015 466209.000000 1 0 0
-3.265723 -10.860477 -17.880613 21.173834 1.278699 2.576366 0.040720 -0.022177 266222.000000 1 0 0
5.532277 -9.847777 -15.607513 19.266013 -1.058955 2.515129 0.001320 -0.014995 -87622.800000 1 0 0
9.898177 -12.517377 -10.624713 19.171415 -0.901718 2.158193 0.010598 -0.006985 -203476.000000 1 0 0
6.335777 6.816523 -17.029913 19.406828 0.821934 2.641466 0.028640 -0.011627 317778.000000 1 0 0
8.340477 1.414823 -20.295113 21.987653 0.168034 2.746662 0.035434 -0.012488 55568.900000 1 0 0
-1.123923 -0.442377 -20.085713 20.121997 0.374978 3.081530 0.024196 -0.019704 68732.100000 1 0 0
-0.541223 6.461523 -19.845413 20.877850 -1.487230 2.825794 0.021616 -0.004471 109798.000000 1 0 0
8.624277 6.033323 -17.780413 20.662096 0.610440 2.607111 0.045511 -0.024909 97031.800000 1 0 0
11.762777 0.076223 -12.755813 17.351642 0.006480 2.396663 -0.008052 -0.007148 -143628.000000 1 0 0
-3.748823 -2.698777 -19.580313 20.117796 0.623957 2.909918 -0.005757 -0.017334 518862.000000 1 0 0
6.276377 -11.700977 -14.445013 19.620504 -1.078456 2.398264 0.014912 -0.007187 -50061.300000 1 0 0
11.698277 3.054223 -15.737413 19.845506 0.255382 2.486508 0.048927 -0.006299 -167081.000000 1 0 0
-2.868923 -4.328077 -17.188013 17.955243 0.985431 2.848206 0.005004 -0.007792 310741.000000 1 0 0
-6.773423 -4.792977 -17.470413 19.340817 0.615819 2.698179 0.027776 -0.013052 54155.000000 1 0 0
3.148977 10.142023 -15.026913 18.400674 1.269745 2.526379 -0.005399 -0.012427 397824.000000 1 0 0
16.871977 -6.092477 -10.911413 20.996209 -0.346529 2.117278 0.053010 -0.013437 -19694.200000 1 0 0
9.653277 -3.424677 -17.616613 20.377910 -0.340916 2.614942 0.020269 -0.012995 89184.700000 1 0 0
-7.184423 -1.710477 -18.931013 20.320554 0.233730 2.769639 0.009274 0.005468 496511.000000 1 0 0
1.442777 -7.699777 -19.371713 20.895728 -1.385565 2.757305 0.023197 -0.012356 163825.000000 1 0 0
6.178977 11.088223 -14.001613 18.899037 1.062399 2.405152 0.022316 -0.002746 336582.000000 1 0 0
6.150977 -3.936977 -17.784613 19.225680 -0.569354 2.751950 0.017403 -0.024910 554958.000000 1 0 0
4.090377 13.567823 -14.793613 20.485800 1.277986 2.377687 0.017225 -0.007799 79969.000000 1 0 0
8.884477 11.199123 -15.483813 21.073745 0.900142 2.396086 0.044387 -0.027888 120955.000000 1 0 0
17.138677 0.842823 -11.345513 20.570981 0.049137 2.154994 0.027071 -0.001726 158501.000000 1 0 0
15.149977 -2.936377 -12.131913 19.629759 -0.191447 2.237039 0.035936 -0.005670 83947.900000 1 0 0
-8.455123 0.700023 -17.238213 19.212890 -0.082604 2.684232 0.010772 -0.017406 312453.000000 1 0 0
-3.240223 3.892723 -19.124913 19.784202 -0.876621 2.882708 0.010372 -0.008298 33484.100000 1 0 0
3.642077 1.358123 -17.033813 17.471692 0.356926 2.917238 0.005644 -0.004994 649206.000000 1 0 0
-5.070823 14.476723 -13.846313 20.664199 -1.233877 2.305090 0.013794 -0.005107 65080.600000 1 0 0
1.156977 9.148523 -17.800613 20.047341 1.444998 2.663619 0.006990 -0.003905 380956.000000 1 0 0
1.357677 -5.303877 -19.859113 20.599970 -1.320199 2.872588 0.024812 -0.010341 453628.000000 1 0 0
3.527777 -6.294777 -18.166513 19.547164 -1.059981 2.763494 0.021480 -0.017078 8158.690000 1 0 0
-6.761123 7.551723 -15.795513 18.768046 -0.840579 2.571067 0.006795 -0.004753 100811.000000 1 0 0
-11.721323 3.301923 -16.810213 20.757538 -0.274586 2.514670 0.031688 -0.016392 294854.000000 1 0 0
-4.238123 6.801823 -17.328713 19.092165 -1.013574 2.708411 0.011002 0.006783 381761.000000 1 0 0
-8.076523 5.300623 -17.402013 19.903690 -0.580791 2.634811 0.014093 -0.015497 203312.000000 1 0 0
-8.354023 4.237523 -14.641713 17.381774 -0.469426 2.572444 -0.003605 -0.028954 433143.000000 1 0 0
9.547377 13.768423 -12.736313 21.046034 0.964496 2.220769 0.053514 -0.027734 168280.000000 1 0 0
14.374477 9.676723 -12.140313 21.157782 0.592504 2.181933 0.053106 -0.015334 -14588.100000 1 0 0
8.988877 15.416123 -10.031513 20.471639 1.042909 2.082909 0.039637 -0.020492 36321.200000 1 0 0
7.767777 14.194223 -14.190313 21.521601 1.070068 2.290753 0.050172 -0.025712 226991.000000 1 0 0
3.996577 15.523723 -12.943713 20.603357 1.318819 2.250077 0.013874 -0.021043 191346.000000 1 0 0
11.136777 11.462823 -10.848613 19.316224 0.799824 2.167153 0.049680 -0.034402 219549.000000 1 0 0
15.984177 10.472623 -9.113313 21.171259 0.580013 2.015795 0.037369 -0.040061 296731.000000 1 0 0
13.411677 11.475923 -10.289213 20.431294 0.707775 2.098558 0.057315 -0.016970 9235.480000 1 0 0
11.181377 11.139423 -8.117513 17.748351 0.783519 2.045829 0.043162 -0.009572 14806.800000 1 0 0
6.380377 16.558423 -10.033313 20.385238 1.203004 2.085395 0.050052 -0.014928 35202.400000 1 0 0
11.919377 13.765323 -10.094913 20.819773 0.857144 2.077012 0.074505 -0.031948 263249.000000 1 0 0
8.330277 -19.388777 -1.689313 21.170072 -1.164999 1.650678 0.026460 -0.002124 170978.000000 1 0 0
7.555277 -16.602777 -3.908613 18.655071 -1.143742 1.781881 0.031676 -0.020994 189202.000000 1 0 0
4.054677 -18.529877 4.965487 19.607468 -1.355373 1.314764 0.041965 -0.025582 139951.000000 1 0 0
10.252077 -18.003677 -2.427313 20.859753 -1.053148 1.687424 0.028607 -0.004206 428631.000000 1 0 0
-3.309223 -14.689377 7.952487 17.028529 1.349215 1.084890 0.023874 -0.030243 147513.000000 1 0 0
-15.253323 -13.043177 -4.439413 20.554725 0.707450 1.788492 0.024605 -0.004423 183539.000000 1 0 0
-9.112423 -12.711277 -7.503513 17.346917 0.948833 2.018122 0.014736 -0.006348 -52214.600000 1 0 0
-11.424323 -15.666077 6.713987 20.518741 0.940715 1.237444 0.013297 -0.003193 413217.000000 1 0 0
-15.087323 -7.721477 -7.392913 18.490638 0.473032 1.982116 0.049289 -0.012583 -44842.300000 1 0 0
4.526977 -15.183577 6.386887 17.082941 -1.281038 1.187613 0.020891 -0.017751 208444.000000 1 0 0
2.646577 -14.023377 9.223087 16.991904 -1.384264 0.997037 0.012109 -0.005601 423153.000000 1 0 0
3.220077 -17.372777 10.276787 20.440025 -1.387524 1.043987 0.034716 -0.010753 183508.000000 1 0 0
-7.256823 -17.081577 -5.966313 19.494580 1.169067 1.881837 -0.036714 -0.004305 -113711.000000 1 0 0
2.043077 -19.934377 -4.167513 20.467577 -1.468663 1.775846 0.030914 -0.006791 45857.800000 1 0 0
-17.814323 -10.922277 -1.893613 20.981707 0.550009 1.661170 -0.018916 -0.002735 32526.900000 1 0 0
-4.094223 -14.842877 2.945087 15.676326 1.301652 1.381805 0.000627 0.002373 90777.700000 1 0 0
-10.232223 -9.660777 -14.916313 20.506716 0.756680 2.385302 0.010346 0.006603 278533.000000 1 0 0
0.916077 -20.383677 2.516087 20.558798 -1.525885 1.448104 0.034618 -0.010973 282957.000000 1 0 0
5.886077 -17.965277 -0.289913 18.907171 -1.254182 1.586130 0.012903 -0.015772 47202.900000 1 0 0
-7.564023 -18.835877 -3.618013 20.617825 1.188933 1.747189 -0.005171 -0.011786 92272.400000 1 0 0
-9.457023 -15.724677 -7.788613 19.933972 1.029339 1.972211 0.030672 -0.010150 -47633.400000 1 0 0
-11.674323 -11.178377 -12.830013 20.636259 0.763700 2.241735 0.013827 0.019301 214240.000000 1 0 0
-13.107523 -15.290277 -3.180613 20.389116 0.862111 1.727432 0.028331 -0.011898 40987.500000 1 0 0
-0.459223 -20.400177 -2.447713 20.551628 1.548289 1.690180 0.029219 -0.014154 367171.000000 1 0 0
-11.754323 -16.873577 -0.859913 20.582059 0.962348 1.612588 0.018239 -0.004317 22739.100000 1 0 0
0.771777 -19.962577 5.413187 20.697892 -1.532154 1.306186 0.031479 -0.011397 -2561.130000 1 0 0
-18.154423 -8.962277 2.398187 20.387663 0.458570 1.452894 0.031665 -0.006211 72299.900000 1 0 0
-15.138723 -14.861577 -0.913913 21.233997 0.776160 1.613850 0.044428 -0.010640 -62670.200000 1 0 0
10.315677 -15.499877 -5.100813 19.304861 -0.983579 1.838196 0.024684 -0.009704 -215557.000000 1 0 0
0.068277 -18.959677 -7.171413 20.270747 -1.567195 1.932407 0.016333 -0.002447 159239.000000 1 0 0
-9.959823 -16.446277 -2.385213 19.374399 1.026271 1.694221 0.019711 -0.016600 423380.000000 1 0 0
-14.673923 -6.779077 -11.450113 19.808710 0.432773 2.187114 0.029061 -0.004668 83824.800000 1 0 0
-12.265523 -15.235477 2.200587 19.682617 0.892976 1.458758 0.020559 -0.009656 235776.000000 1 0 0
-2.649823 -16.275377 11.072487 19.862261 1.409401 0.979469 0.011984 -0.004919 371559.000000 1 0 0
-12.515323 -14.657277 -6.559213 20.359085 0.864063 1.898824 0.036612 -0.004329 204222.000000 1 0 0
5.440677 -17.087777 -7.224213 19.333451 -1.262549 1.953752 0.033450 -0.011471 146809.000000 1 0 0
-17.244923 -7.018777 -2.542213 18.791313 0.386531 1.706499 -0.029244 -0.004748 -243633.000000 1 0 0
-12.384523 -13.453677 -8.626113 20.218498 0.826753 2.011576 0.051449 -0.032604 197737.000000 1 0 0
-7.828423 -14.015877 10.363187 19.108236 1.061420 0.997575 0.027153 -0.004983 519377.000000 1 0 0
-15.891523 -8.331677 -5.548313 18.781404 0.482886 1.870686 0.023062 0.003291 303719.000000 1 0 0
-0.750223 -19.733677 0.035987 19.747965 1.532797 1.568974 0.021354 -0.007654 87733.600000 1 0 0
-15.239623 -11.607877 -1.939213 19.254856 0.650941 1.671680 0.017995 0.006504 217504.000000 1 0 0
-7.141723 -19.027977 1.652587 20.391154 1.211739 1.489663 0.002237 0.001535 166211.000000 1 0 0
-2.112423 -20.925277 -4.894313 21.593607 1.470186 1.799439 0.005809 -0.000162 79610.400000 1 0 0
-8.887523 -19.555977 -1.138713 21.510950 1.144235 1.623758 -0.004121 0.004390 92912.900000 1 0 0
-17.491723 -7.781277 4.975787 19.780473 0.418567 1.316514 0.025221 -0.016692 -11987.900000 1 0 0
-3.081923 -15.910377 -10.891313 19.525856 1.379461 2.162516 0.009440 0.009457 112262.000000 1 0 0
-3.331723 -18.326477 -7.707113 20.158366 1.390962 1.963111 0.003086 0.002716 134678.000000 1 0 0
4.322577 -17.800977 -4.876213 18.956184 -1.332579 1.830957 0.016331 -0.000276 305524.000000 1 0 0
0.557977 -17.337577 -9.332913 19.697872 -1.538624 2.064401 0.019072 0.002425 2751.120000 1 0 0
-7.389523 -11.328077 -13.822613 19.338951 0.992792 2.367070 -0.004008 -0.033781 107127.000000 1 0 0
-5.552523 -19.264877 -1.864613 20.135610 1.290182 1.663532 0.008457 -0.012053 279480.000000 1 0 0
-10.381123 -15.255977 8.925587 20.498260 0.973303 1.120279 0.019851 -0.025041 -18753.100000 1 0 0
-7.235723 -15.754477 -9.958213 19.993130 1.140252 2.092182 0.009383 0.004040 373118.000000 1 0 0
-12.585923 -7.878377 -12.419313 19.357521 0.559295 2.267347 0.023586 -0.005353 359376.000000 1 0 0
-15.635023 -13.236277 3.006687 20.704906 0.702504 1.425065 0.025858 -0.002219 154108.000000 1 0 0
-6.252523 -14.286277 -13.289213 20.488898 1.158252 2.276547 -0.004906 0.006812 436670.000000 1 0 0
-14.034623 -11.793377 -6.929913 19.597910 0.698839 1.932218 0.029367 -0.002964 203072.000000 1 0 0
-11.621423 -10.494277 -8.100213 17.629543 0.734476 2.048193 0.024246 -0.003290 289067.000000 1 0 0
-10.073123 -14.906477 3.901987 18.409138 0.976528 1.357217 0.006416 0.006237 523956.000000 1 0 0
5.009277 -18.014377 8.410587 20.502405 -1.299577 1.148096 0.050290 -0.021444 247805.000000 1 0 0
-5.041223 -16.678077 5.593287 18.299100 1.277262 1.260166 0.008255 0.015443 521579.000000 1 0 0
-18.486923 -7.303777 -7.233413 21.152630 0.376256 1.919801 0.022177 -0.008119 113490.000000 1 0 0
-17.002123 -4.886677 -10.792813 20.722852 0.279872 2.118604 0.026812 -0.000508 -516641.000000 1 0 0
-15.869923 -4.243477 -13.098213 21.010110 0.261279 2.243911 0.028054 -0.008988 363223.000000 1 0 0
-19.512323 -5.647377 -6.030613 21.189429 0.281728 1.859390 0.040444 -0.005251 -280304.000000 1 0 0
5.644677 -13.843477 8.928787 17.413428 -1.183627 1.032408 0.035076 -0.001833 251473.000000 1 0 0
19.818177 -3.468577 2.739187 20.305032 -0.173265 1.435482 0.034525 -0.010006 -38150.300000 1 0 0
18.050077 -2.554877 -0.108413 18.230316 -0.140610 1.576743 0.024928 -0.012400 250610.000000 1 0 0
14.265577 -11.604077 0.204487 18.390299 -0.682878 1.559677 0.051369 0.000408 153894.000000 1 0 0
11.107077 -13.989277 5.651887 18.735284 -0.899743 1.264352 0.028861 0.001894 499128.000000 1 0 0
9.914777 -13.163177 8.811787 18.687419 -0.925237 1.079765 0.028364 -0.015581 -26170.900000 1 0 0
18.808277 5.238223 -5.140713 20.189532 0.271623 1.828254 0.036694 0.015707 49996.400000 1 0 0
18.849877 -6.208077 -4.932113 20.449543 -0.318155 1.814383 0.055765 -0.011487 -71356.000000 1 0 0
17.673977 -10.090677 -0.235313 20.353049 -0.518773 1.582358 0.069203 -0.007396 479515.000000 1 0 0
17.895277 -8.474377 8.771387 21.656252 -0.442268 1.153787 0.081920 -0.010489 -92200.600000 1 0 0
19.917877 0.099523 -2.063813 20.024761 0.004997 1.674043 0.039926 -0.005360 163272.000000 1 0 0
7.268577 -13.833477 11.800387 19.581788 -1.087009 0.924016 0.015042 0.009918 189308.000000 1 0 0
15.791177 -6.375677 -3.432113 17.372102 -0.383734 1.769669 0.037949 -0.007073 266731.000000 1 0 0
14.524577 -6.833677 11.845887 19.949624 -0.439763 0.935035 0.015413 -0.025282 352202.000000 1 0 0
16.471777 1.910823 10.726387 19.749077 0.115490 0.996632 0.042748 -0.009098 225366.000000 1 0 0
16.572677 -10.264677 2.634287 19.671215 -0.554543 1.436477 0.038748 -0.001347 275270.000000 1 0 0
16.209977 -7.297077 -5.726713 18.676347 -0.422987 1.882446 0.055058 -0.007473 119955.000000 1 0 0
18.544877 -4.579077 5.700787 19.934377 -0.242077 1.280770 0.105302 -0.011941 -82277.900000 1 0 0
14.042477 -13.289777 7.838387 20.862637 -0.757866 1.185629 0.061482 -0.027081 172941.000000 1 0 0
15.029777 -14.472577 -1.669613 20.931729 -0.766514 1.650646 0.041354 0.000256 167813.000000 1 0 0
18.772977 -6.239177 7.881887 21.294979 -0.320864 1.191649 0.056633 -0.007334 374834.000000 1 0 0
19.514077 3.314623 2.352587 19.932902 0.168252 1.452495 0.022038 -0.008278 144504.000000 1 0 0
15.735277 -10.272177 8.030587 20.435432 -0.578349 1.166933 0.048540 -0.035762 331525.000000 1 0 0
14.264377 -4.196577 10.763487 18.355826 -0.286127 0.944214 0.011638 -0.006218 -77877.800000 1 0 0
18.691977 -7.972277 2.090087 20.428305 -0.403147 1.468304 0.062992 -0.009618 192373.000000 1 0 0
19.046777 -6.233277 -1.570513 20.102238 -0.316276 1.649002 0.053201 -0.015482 109914.000000 1 0 0
14.603577 -13.627977 -6.001813 20.856845 -0.750855 1.862686 0.055410 -0.018678 409343.000000 1 0 0
13.942477 -9.561377 10.134887 19.711127 -0.601114 1.030756 0.012508 -0.013744 482583.000000 1 0 0
14.309977 2.102223 0.229987 14.465396 0.145863 1.554897 -0.000650 -0.002575 -231572.000000 1 0 0
12.856977 2.788123 13.671987 18.973632 0.213550 0.766160 0.026863 -0.009505 140479.000000 1 0 0
18.302077 -3.420977 8.691287 20.547690 -0.184785 1.134063 0.035600 -0.021264 107096.000000 1 0 0
7.161877 -18.330377 5.063887 20.320880 -1.198323 1.318946 0.035918 -0.022176 322243.000000 1 0 0
12.164477 -3.449677 14.610687 19.322188 -0.276331 0.713370 -0.001512 0.004135 143986.000000 1 0 0
12.511477 -14.089777 -7.197313 20.170775 -0.844660 1.935657 0.052360 -0.005000 308659.000000 1 0 0
10.800677 -17.344577 4.641887 20.953188 -1.013844 1.347407 0.042914 -0.021802 477009.000000 1 0 0
18.438977 -0.360077 -5.187013 19.158043 -0.019526 1.844967 0.034826 -0.005408 230255.000000 1 0 0
4.221477 -13.582477 11.664187 18.394505 -1.269458 0.883936 0.013455 -0.010926 37906.700000 1 0 0
9.140577 -2.694277 12.958087 16.084816 -0.286643 0.634092 0.000136 -0.018501 156824.000000 1 0 0
9.251477 -9.207277 13.722787 18.938814 -0.783004 0.760364 0.022461 -0.014140 313143.000000 1 0 0
21.085177 5.827323 -2.968213 22.076065 0.269640 1.705659 0.041647 0.001191 559636.000000 1 0 0
14.827677 -13.669877 2.373487 20.306624 -0.744792 1.453646 0.046409 0.004693 323993.000000 1 0 0
11.046177 0.226623 14.213687 18.002730 0.020513 0.660754 0.015845 -0.018545 148799.000000 1 0 0
19.051077 0.546423 7.740387 20.570749 0.028674 1.185017 0.026336 -0.013265 172466.000000 1 0 0
19.844877 1.125623 0.431387 19.881455 0.056660 1.549097 0.033896 -0.007643 275436.000000 1 0 0
18.013177 0.267723 2.967687 18.257968 0.014862 1.407530 0.020722 -0.008146 -1367.940000 1 0 0
10.561077 -8.522477 16.187487 21.123534 -0.678977 0.697696 0.029650 0.002531 227510.000000 1 0 0
19.258177 2.932523 5.406387 20.216481 0.151113 1.300077 0.038757 -0.007496 115757.000000 1 0 0
15.405777 2.496323 6.970987 17.092813 0.160642 1.150719 0.023853 -0.009872 -920.192000 1 0 0
11.165977 -16.033077 1.950187 19.635219 -0.962468 1.471311 0.004109 -0.000204 101803.000000 1 0 0
8.608877 -16.039477 6.775387 19.423786 -1.078198 1.214486 0.037248 -0.019017 435684.000000 1 0 0
6.194677 6.702123 7.230787 11.643743 0.824725 0.900776 0.000111 0.003304 -1059170.000000 1 0 0
18.358777 2.086323 -6.620313 19.627174 0.113156 1.914847 -0.005854 0.004023 15092.000000 1 0 0
14.092477 4.444023 -7.337813 16.498204 0.305477 2.031707 0.003103 -0.001647 305173.000000 1 0 0
-10.716223 -3.924477 -13.670013 17.807532 0.351050 2.445968 0.022508 -0.003938 -177650.000000 1 0 0
7.627577 -14.324877 -10.372213 19.260447 -1.081511 2.139481 0.014818 -0.000395 -134825.000000 1 0 0
2.302277 -15.476677 14.214487 21.139528 -1.423121 0.833333 0.025982 -0.017155 230955.000000 1 0 0
-9.421723 -8.030577 2.382987 12.607048 0.705855 1.380632 0.005334 0.002600 445432.000000 1 0 0
-13.828323 3.041423 -9.789113 17.213353 -0.216495 2.175712 0.015490 -0.002844 310142.000000 1 0 0
-13.438923 -4.753277 -13.838513 19.867127 0.339963 2.341379 0.046863 0.012058 124393.000000 1 0 0
-18.033723 -1.432777 -8.492913 19.984934 0.079283 2.009720 0.047604 -0.025557 472917.000000 1 0 0
-12.314523 15.246223 3.605387 19.927208 -0.891372 1.388867 0.022124 -0.015855 276141.000000 1 0 0
-17.062323 6.371223 9.080787 20.351316 -0.357375 1.108280 -0.000886 -0.009764 243455.000000 1 0 0
-13.619623 15.462223 -0.869813 20.623556 -0.848673 1.612985 0.042418 -0.016690 204360.000000 1 0 0
-16.151723 5.382323 -10.532213 20.019367 -0.321662 2.124806 0.034349 -0.003129 -143645.000000 1 0 0
-18.146523 2.868923 -0.021513 18.371921 -0.156800 1.571967 0.031254 -0.002241 -9047.650000 1 0 0
-9.576923 15.046423 -0.500613 17.842727 -1.003976 1.598857 0.007938 -0.014794 -150497.000000 1 0 0
-18.542823 12.153523 2.561087 22.318234 -0.580183 1.455790 0.080158 -0.018508 45932.000000 1 0 0
-8.522623 16.349023 -7.983313 20.091265 -1.090260 1.979426 0.041771 -0.020316 80487.300000 1 0 0
-15.000723 -1.521777 -12.909513 19.849258 0.101101 2.278878 0.017706 -0.016543 65238.100000 1 0 0
-19.000023 4.925223 -4.900013 20.230394 -0.253639 1.815440 0.038874 -0.004179 -26133.300000 1 0 0
-16.624423 9.594323 -5.588913 19.991459 -0.523428 1.854137 0.025214 0.013146 -15402.600000 1 0 0
-19.110123 0.896823 2.389287 19.279777 -0.046895 1.446550 0.037260 -0.008419 235525.000000 1 0 0
-13.412123 11.969623 -6.887813 19.250945 -0.728627 1.936697 0.019431 -0.005213 -149561.000000 1 0 0
-14.003923 5.019823 -12.303313 19.304922 -0.344190 2.261805 0.055492 -0.028814 100743.000000 1 0 0
-14.128023 9.259023 -6.581213 18.128511 -0.580138 1.942315 0.018922 -0.005284 82935.100000 1 0 0
-6.539523 11.452323 -15.354113 20.240303 -1.051957 2.431944 0.007758 -0.024018 -105069.000000 1 0 0
-15.078423 13.840923 3.085987 20.699114 -0.742633 1.421151 0.040139 -0.021472 -25334.400000 1 0 0
-18.633523 8.261723 -4.884813 20.960097 -0.417335 1.806012 0.043584 -0.003208 92918.900000 1 0 0
-3.633223 17.021223 -10.066513 20.106144 -1.360500 2.095167 0.023587 -0.002318 60781.400000 1 0 0
-19.208023 -2.775377 -6.257813 20.391447 0.143497 1.882714 0.008638 -0.010317 -96882.800000 1 0 0
-10.639123 13.822623 -6.387513 18.575688 -0.914813 1.921825 0.013850 -0.017384 154358.000000 1 0 0
-18.968723 2.871223 4.203787 19.639964 -0.150226 1.355085 0.020137 -0.009512 82433.900000 1 0 0
-15.027923 12.369923 0.513687 19.470936 -0.688686 1.544411 0.020806 -0.010268 47612.200000 1 0 0
-17.419623 2.474523 -8.274513 19.443099 -0.141110 2.010394 0.006186 -0.007030 175273.000000 1 0 0
-16.443723 12.475223 -5.060313 21.251682 -0.649022 1.811219 0.025494 -0.001356 202768.000000 1 0 0
-10.692823 15.639823 -8.800013 20.889728 -0.971099 2.005631 0.030012 -0.012244 162041.000000 1 0 0
-19.391723 1.556823 -6.684313 20.570432 -0.080111 1.901753 0.045482 -0.012846 155261.000000 1 0 0
-17.017923 10.638823 -0.367913 20.073107 -0.558710 1.589126 0.028960 0.002733 13552.500000 1 0 0
-11.775023 6.304423 -14.430713 19.663224 -0.491570 2.394833 0.023380 -0.026761 328080.000000 1 0 0
-13.594223 13.461623 -5.011913 19.777196 -0.780497 1.827009 0.036023 0.001449 371196.000000 1 0 0
-18.919323 7.672823 0.268987 20.417771 -0.385286 1.557622 0.045753 -0.003521 4533.350000 1 0 0
-14.677823 8.563723 -10.317013 19.880055 -0.528159 2.116434 0.018365 0.000498 553079.000000 1 0 0
-18.595623 11.499823 4.919687 22.410856 -0.553850 1.349471 0.047632 -0.020214 220073.000000 1 0 0
-8.165623 11.952823 -13.390413 19.719294 -0.971466 2.317266 -0.001367 -0.008280 399902.000000 1 0 0
-21.296323 -1.231877 -5.343713 21.991047 0.057780 1.816248 0.037627 -0.016500 420801.000000 1 0 0
-10.610723 13.409223 -2.997913 17.360363 -0.901383 1.744354 0.012443 -0.005667 441412.000000 1 0 0
-18.667923 -5.535677 4.094487 19.897233 0.288274 1.363534 0.026155 -0.006805 -181661.000000 1 0 0
-11.000523 11.597323 -13.188913 20.723340 -0.811802 2.260655 0.011516 -0.004246 195780.000000 1 0 0
-14.881023 11.277023 -10.350413 21.348235 -0.648482 2.076973 0.025659 -0.008670 340105.000000 1 0 0
-12.324523 9.670023 -14.191213 21.137496 -0.665290 2.306861 0.019205 -0.013558 351232.000000 1 0 0
-18.245523 -5.110977 -3.133213 19.205161 0.273122 1.734673 -0.007241 -0.004324 -375204.000000 1 0 0
-9.499523 12.729823 -11.570713 19.651227 -0.929705 2.200374 0.022594 -0.004353 -104805.000000 1 0 0
-15.915523 7.239423 -8.242713 19.330169 -0.426893 2.011324 0.019354 0.005053 23851.100000 1 0 0
-14.587623 8.808323 1.917287 17.148215 -0.543225 1.458755 0.023396 -0.005205 18074.800000 1 0 0
-19.782423 6.172723 7.910487 22.181582 -0.302457 1.206144 0.040406 -0.011739 271808.000000 1 0 0
-19.063523 5.999223 3.687287 20.322516 -0.304885 1.388347 0.033866 -0.000251 207747.000000 1 0 0
-14.413723 12.668623 5.649887 20.004266 -0.721050 1.284466 0.022075 -0.018808 113953.000000 1 0 0
18.225377 6.453723 5.895187 20.213068 0.340328 1.274843 0.023085 -0.006863 274342.000000 1 0 0
18.299277 7.033523 0.370287 19.607934 0.366952 1.551911 0.017849 -0.005876 -6168.240000 1 0 0
17.198277 4.516123 8.553087 19.731482 0.256794 1.122452 0.038785 -0.006267 -17802.000000 1 0 0
12.268977 12.932223 10.949687 20.920464 0.811710 1.019965 0.049727 -0.015961 99685.300000 1 0 0
15.621977 12.289023 4.168787 20.308743 0.666547 1.364056 0.041409 -0.009638 302965.000000 1 0 0
5.054177 10.387323 14.483087 18.525685 1.117949 0.673274 0.013033 -0.005674 206716.000000 1 0 0
13.530577 13.181623 -5.266113 19.610294 0.772335 1.842671 0.063480 -0.010504 412366.000000 1 0 0
17.702877 9.117323 -3.028013 20.141656 0.475591 1.721704 -0.000640 -0.001326 -115219.000000 1 0 0
14.576177 7.325723 9.567287 18.912010 0.465711 1.040390 0.042562 -0.008700 77338.000000 1 0 0
4.849877 18.942123 -1.474213 19.608637 1.320144 1.646049 0.004209 -0.015016 340909.000000 1 0 0
-4.328123 19.013023 2.696687 19.685015 -1.346971 1.433372 -0.004067 -0.017236 231917.000000 1 0 0
6.984877 12.739823 12.787487 19.354881 1.069281 0.849065 0.030177 -0.002983 61678.400000 1 0 0
0.290577 17.261223 -10.100413 20.001315 1.553964 2.100164 0.012919 0.008288 111117.000000 1 0 0
10.385077 9.196223 16.091087 21.244845 0.724759 0.711457 0.051766 -0.004868 -199042.000000 1 0 0
-1.464823 12.387323 0.605987 12.488342 -1.453091 1.522253 -0.002495 0.005400 503015.000000 1 0 0
-4.852223 19.279323 -2.505613 20.037826 -1.324237 1.696169 0.017403 0.001858 -1534.370000 1 0 0
6.029677 18.298923 6.449487 20.317565 1.252491 1.247774 0.023744 -0.022361 141441.000000 1 0 0
11.055277 17.414223 -1.549613 20.685154 1.005151 1.645781 0.032736 -0.004554 322421.000000 1 0 0
18.453177 10.557323 3.486387 21.543716 0.519663 1.408253 0.025587 -0.002660 334177.000000 1 0 0
11.594877 16.486323 6.788587 21.267932 0.957857 1.245918 0.040368 -0.002176 -37718.700000 1 0 0
18.150977 8.205123 -6.260713 20.880099 0.424556 1.875322 0.006155 0.020847 143183.000000 1 0 0
-0.309923 15.360723 11.552187 19.222406 -1.550623 0.926076 0.008170 0.016696 283265.000000 1 0 0
1.369577 20.076823 -1.887413 20.211801 1.502685 1.664314 0.020561 -0.017665 211826.000000 1 0 0
14.593877 9.771823 -1.340013 17.614352 0.590019 1.646945 0.023423 0.001285 93405.800000 1 0 0
10.360077 17.043223 1.727987 20.019705 1.024610 1.484374 0.044179 -0.023073 316689.000000 1 0 0
0.597177 17.891623 -0.507813 17.908787 1.537431 1.599156 0.007091 0.000280 70130.700000 1 0 0
-0.308423 21.016723 1.500687 21.072490 -1.556122 1.499521 0.022731 -0.010746 299380.000000 1 0 0
6.272777 17.411823 -0.190013 18.508253 1.225011 1.581063 0.003086 -0.017924 -10994.400000 1 0 0
6.579377 18.735623 -2.968713 20.077974 1.233080 1.719200 -0.007240 -0.011354 87203.800000 1 0 0
10.505977 9.686923 13.025687 19.335991 0.744859 0.831660 0.047245 0.001002 207368.000000 1 0 0
13.510177 14.720423 8.158187 21.581746 0.828242 1.183147 0.047647 -0.016611 247743.000000 1 0 0
0.261977 17.596123 6.954287 18.922322 1.555909 1.194458 0.007249 -0.000755 262900.000000 1 0 0
6.980977 18.137123 -7.892513 20.975725 1.203375 1.956562 0.015818 -0.004818 -169421.000000 1 0 0
-1.114423 18.568023 9.292087 20.793179 -1.510850 1.107520 0.037408 -0.011726 108793.000000 1 0 0
16.134077 6.714623 -7.808713 19.140810 0.394373 1.991016 0.018315 0.000777 -343496.000000 1 0 0
-5.033323 19.757523 -7.062013 21.576980 -1.321348 1.904235 0.020830 -0.013661 349231.000000 1 0 0
4.278877 15.973723 10.163387 19.410385 1.309071 1.019719 0.018705 0.001278 214096.000000 1 0 0
8.949177 14.903523 7.473087 18.922204 1.030028 1.164797 0.021248 -0.008015 -16578.400000 1 0 0
-2.851723 19.123023 6.499887 20.397815 -1.422762 1.246485 0.019481 -0.007200 256229.000000 1 0 0
4.833477 18.158323 8.367387 20.569403 1.310643 1.151861 0.027237 -0.010700 115584.000000 1 0 0
13.849777 11.222223 -7.062113 19.173629 0.680979 1.948002 -0.043997 -0.030923 -19238.800000 1 0 0
11.617477 7.017423 15.696987 20.751034 0.543385 0.712938 0.056896 -0.010489 199644.000000 1 0 0
16.884377 8.848723 5.041987 19.718106 0.482724 1.312221 0.017170 -0.008672 192260.000000 1 0 0
5.050177 14.745823 11.975687 19.656059 1.240835 0.915667 0.007951 -0.024111 404828.000000 1 0 0
16.440277 11.540023 -4.610113 20.608444 0.612024 1.796406 0.057359 0.027728 88163.500000 1 0 0
15.333277 13.362623 6.120987 21.239952 0.716832 1.278468 0.044083 -0.017584 379812.000000 1 0 0
12.545177 14.274223 -7.565613 20.454178 0.849779 1.949677 0.062984 -0.023387 434460.000000 1 0 0
-8.685123 15.399423 9.530787 20.085056 -1.057276 1.076376 0.019874 -0.011066 84418.000000 1 0 0
-5.133223 17.081123 -7.555913 19.370249 -1.278862 1.971513 0.019306 0.014187 39356.800000 1 0 0
2.972477 20.159223 -4.236713 20.812968 1.424401 1.775790 0.022996 -0.006912 161641.000000 1 0 0
7.223277 15.918123 8.851087 19.593471 1.144806 1.102085 0.030597 -0.028713 474507.000000 1 0 0
13.485377 15.632523 -1.496813 20.699556 0.859005 1.643171 0.059746 -0.009149 166020.000000 1 0 0
12.563577 16.642723 4.505587 21.333636 0.924167 1.357998 0.043363 -0.019288 396148.000000 1 0 0
2.998977 18.481823 0.642387 18.734575 1.409932 1.536501 0.020012 -0.013242 81730.500000 1 0 0
-7.505423 17.463023 0.926087 19.030139 -1.164876 1.522113 0.005816 0.003797 249429.000000 1 0 0
0.464277 20.026023 -6.086413 20.935653 1.547617 1.865776 0.029380 -0.003599 202960.000000 1 0 0
-7.853323 18.057223 -6.494113 20.734307 -1.160559 1.889364 0.050258 -0.016998 90401.100000 1 0 0
-7.125923 18.558823 -1.483913 19.935162 -1.204190 1.645302 0.016699 -0.010744 -44207.700000 1 0 0
-14.500523 -9.461977 8.872887 19.455650 0.578149 1.097237 0.040112 -0.009503 346699.000000 1 0 0
-12.981123 -13.669877 7.478787 20.280714 0.811236 1.193118 0.019875 -0.012468 167009.000000 1 0 0
-4.218823 -15.662577 12.749887 20.631878 1.307684 0.904638 0.041095 -0.015399 100596.000000 1 0 0
-2.075823 -15.025277 14.873587 21.243625 1.433510 0.795198 0.020524 -0.028109 526529.000000 1 0 0
-7.303723 -13.672777 13.711787 20.695466 1.080180 0.846578 0.004627 -0.018332 67714.500000 1 0 0
-10.369123 -11.358077 11.472287 19.186923 0.830884 0.929890 0.046540 -0.016692 86671.500000 1 0 0
-8.114723 -10.880077 13.312887 19.012043 0.929967 0.795071 0.035797 -0.001567 408549.000000 1 0 0
-15.224423 -12.236377 7.788887 21.028047 0.677013 1.191352 0.032240 -0.001331 321740.000000 1 0 0
-4.745723 -12.135777 13.351987 18.656756 1.198027 0.773221 0.022874 -0.029018 206970.000000 1 0 0
3.548477 -12.217677 14.201287 19.066722 -1.288135 0.730530 0.011669 -0.002166 488892.000000 1 0 0
6.594477 -13.469477 14.764087 21.045004 -1.115514 0.793228 0.016031 -0.005128 338648.000000 1 0 0
7.166477 -8.732177 16.696187 20.158670 -0.883562 0.594839 0.013366 0.001896 562749.000000 1 0 0
-5.214623 13.399423 13.447387 19.686773 -1.199663 0.818842 0.004574 -0.002841 418917.000000 1 0 0
-13.413823 -1.619877 17.580487 22.172690 0.120180 0.655260 0.026783 -0.009922 401570.000000 1 0 0
-10.143623 10.571923 14.174487 20.385650 -0.806071 0.801936 0.009000 0.030331 376242.000000 1 0 0
-7.158223 -8.152977 17.139487 20.284802 0.850276 0.564339 0.022109 -0.014544 119243.000000 1 0 0
-5.162823 2.236723 18.201287 19.051103 -0.408826 0.299809 0.016509 -0.010563 565697.000000 1 0 0
-15.573523 -3.714477 14.706587 21.739726 0.234138 0.827818 0.047090 -0.005509 8220.560000 1 0 0
-14.682823 2.759423 12.752887 19.642704 -0.185769 0.864208 0.018540 0.001580 326237.000000 1 0 0
-14.703923 10.752223 9.324287 20.463577 -0.631392 1.097691 -0.004317 0.003370 -79544.100000 1 0 0
-4.227923 11.229523 15.630687 19.705225 -1.210711 0.654708 0.006582 -0.012195 203737.000000 1 0 0
-12.814123 13.296823 7.552587 19.951161 -0.803883 1.182563 0.007558 -0.020966 34822.600000 1 0 0
-3.731523 -6.383277 18.654387 20.066306 1.041794 0.377369 0.023876 -0.009981 140192.000000 1 0 0
0.579077 -2.965477 17.720887 17.976630 -1.377950 0.168880 0.013760 -0.024601 92327.000000 1 0 0
-4.498723 6.474723 21.132187 22.555041 -0.963560 0.357095 0.023810 -0.008593 111695.000000 1 0 0
1.721077 -10.867277 16.617387 19.929811 -1.413728 0.584849 -0.001798 -0.000030 373260.000000 1 0 0
-14.580523 -0.252577 14.643587 20.666158 0.017321 0.783315 -0.007391 0.010638 -240355.000000 1 0 0
-13.785823 -5.982577 8.098587 17.071241 0.409440 1.076515 0.027279 -0.008817 -34480.600000 1 0 0
10.079677 0.747123 16.805087 19.610432 0.073986 0.541481 0.023073 0.015994 190015.000000 1 0 0
-7.654823 12.330123 12.043487 18.859317 -1.015206 0.878124 0.013151 -0.004422 104506.000000 1 0 0
-1.746723 7.462423 19.947287 21.368974 -1.340867 0.366828 0.019179 -0.015507 415515.000000 1 0 0
1.023677 -13.691877 15.770387 20.909819 -1.496170 0.716347 0.004334 -0.003977 488643.000000 1 0 0
-3.517423 -11.548877 17.718787 21.440715 1.275154 0.598097 0.030773 -0.024084 298491.000000 1 0 0
-2.108223 8.865623 16.640487 18.972340 -1.337335 0.501022 0.007763 -0.014376 350929.000000 1 0 0
-3.947523 -9.398777 20.427787 22.830121 1.173165 0.462873 0.022988 -0.020274 163128.000000 1 0 0
-6.668423 -2.850977 19.036987 20.371618 0.404015 0.363984 0.011332 -0.017696 279494.000000 1 0 0
-10.425823 -8.030877 16.245087 20.906832 0.656359 0.680874 0.019730 -0.017647 208054.000000 1 0 0
-0.051423 6.814923 17.866187 19.121884 -1.563251 0.364416 0.003766 -0.006555 141015.000000 1 0 0
-6.008423 -11.172677 19.034287 22.874308 1.077385 0.587868 0.044937 -0.016635 464720.000000 1 0 0
0.327977 3.622923 18.679387 19.030308 1.480514 0.192339 0.014454 -0.014777 76964.500000 1 0 0
-18.860423 -0.119377 7.414987 20.266027 0.006329 1.196215 0.053874 -0.014387 421036.000000 1 0 0
-1.699323 -8.560477 17.152687 19.245367 1.374836 0.470673 0.016079 -0.018704 112746.000000 1 0 0
5.789677 3.420323 15.050887 16.484786 0.533599 0.420177 0.000697 -0.000834 430794.000000 1 0 0
-14.122823 -7.085177 10.354087 18.890765 0.464993 0.990702 0.045510 -0.003660 133540.000000 1 0 0
3.771077 8.265723 16.864687 19.156223 1.142773 0.494141 0.009530 -0.003947 67603.700000 1 0 0
6.427377 4.498323 17.940787 19.581060 0.610638 0.412225 0.025844 -0.009095 332455.000000 1 0 0
5.409877 -9.249077 18.412887 21.303676 -1.041546 0.527028 0.020454 0.010730 298101.000000 1 0 0
-4.416923 -0.659777 19.844787 20.341094 0.148278 0.221355 0.018229 -0.014114 589777.000000 1 0 0
-11.061523 1.728623 17.095287 20.435123 -0.155020 0.579815 0.025846 -0.010281 229751.000000 1 0 0
-16.758823 -4.116377 8.953987 19.441620 0.240856 1.092173 0.041397 -0.014633 330447.000000 1 0 0
-13.142923 -9.579877 12.029887 20.229401 0.629860 0.933937 0.033798 -0.030382 71776.400000 1 0 0
-14.852523 6.069123 12.333387 20.237197 -0.387920 0.915440 0.024467 -0.027662 129264.000000 1 0 0
1.288977 9.228823 17.099587 19.473790 1.432025 0.498957 0.001479 -0.018091 115950.000000 1 0 0
-3.843623 -10.196977 14.788887 18.370165 1.210328 0.635038 0.020960 -0.018361 599768.000000 1 0 0
-18.611423 -3.328577 6.911287 20.130335 0.176975 1.220339 0.097390 -0.017027 -211960.000000 1 0 0
-0.588023 -0.413677 20.809187 20.821603 0.613074 0.034536 0.025073 -0.019225 385070.000000 1 0 0
-1.950123 2.479123 20.117387 20.363160 -0.904268 0.155524 0.016442 -0.023761 -87551.700000 1 0 0
-8.140923 2.507523 16.181587 18.286773 -0.298793 0.484561 0.003467 0.005800 464441.000000 1 0 0
2.977177 -1.908977 19.137887 19.461924 -0.570167 0.182736 0.020165 0.002628 119356.000000 1 0 0
-12.466423 4.568623 14.209087 19.446907 -0.351275 0.751507 0.004461 -0.003556 106425.000000 1 0 0
-13.450923 -5.762177 13.408887 19.847626 0.404734 0.829030 0.028970 0.000832 26935.300000 1 0 0
-17.383223 -1.095377 9.894387 20.031854 0.062930 1.054189 0.037171 -0.010685 321814.000000 1 0 0
-7.415623 7.657523 14.856087 18.284760 -0.801445 0.622395 0.006209 -0.009091 11916.600000 1 0 0
-9.608623 0.845723 13.805687 16.841552 -0.087791 0.609840 0.008779 -0.008406 212154.000000 1 0 0
7.864177 -0.751677 14.969987 16.926630 -0.095293 0.485580 0.004306 0.000386 138242.000000 1 0 0
4.168577 6.202923 18.422487 19.880677 0.979087 0.385387 0.010824 -0.006791 -52085.400000 1 0 0
1.807777 0.556823 19.844287 19.934238 0.298794 0.095034 0.018095 -0.015281 169927.000000 1 0 0
-6.952723 6.861323 17.678987 20.198136 -0.778782 0.504786 0.003773 -0.008505 450300.000000 1 0 0
7.624077 -3.001677 17.042787 18.910135 -0.375072 0.448147 -0.000640 0.015095 474687.000000 1 0 0
-16.667323 2.291423 9.134787 19.144049 -0.136623 1.073375 0.030891 -0.009554 290397.000000 1 0 0
3.897277 -5.959577 19.217187 20.494038 -0.991648 0.354856 0.009190 -0.002980 84139.200000 1 0 0
-3.723623 -3.720077 20.487487 21.152812 0.784922 0.251474 0.020456 -0.020649 254392.000000 1 0 0
-9.957723 5.995623 14.383187 18.492696 -0.541968 0.679676 0.013283 -0.007056 27317.900000 1 0 0
6.408377 2.594023 20.056987 21.215065 0.384626 0.331938 0.026612 -0.003037 -5177.030000 1 0 0
-7.441423 11.477923 14.524387 19.951825 -0.995600 0.755436 0.026260 -0.013325 153993.000000 1 0 0
-14.468523 5.111923 9.546587 18.072278 -0.339624 1.014264 0.008391 -0.004073 235067.000000 1 0 0
0.558577 -5.775677 20.650587 21.450343 -1.474384 0.273927 0.001368 -0.003192 15155.900000 1 0 0
-6.468523 -8.749677 13.821887 17.590998 0.934187 0.666911 0.026018 -0.000854 150004.000000 1 0 0
-12.785523 10.148823 6.441187 17.548707 -0.670933 1.194965 -0.004695 -0.016609 163348.000000 1 0 0
-19.770823 2.433523 7.557287 21.305400 -0.122471 1.208190 0.025810 -0.012512 121513.000000 1 0 0
-16.719223 9.087323 6.429687 20.086133 -0.497859 1.244955 0.052683 -0.011458 116570.000000 1 0 0
-13.132323 7.460123 14.135487 20.686308 -0.516613 0.818488 0.029065 -0.011789 238181.000000 1 0 0
-16.662623 8.893523 10.492887 21.606444 -0.490275 1.063705 0.025691 -0.013156 261115.000000 1 0 0
2.636877 10.539323 14.679387 18.262389 1.325635 0.637134 -0.003179 -0.042064 331217.000000 1 0 0
1.432277 14.833523 13.284987 19.964361 1.474538 0.842720 0.011348 -0.011301 583952.000000 1 0 0
9.008977 4.837123 16.578887 19.478679 0.492748 0.552662 0.033843 -0.005449 169096.000000 1 0 0
-0.475923 13.277123 13.346787 18.832026 -1.534966 0.783103 0.004679 0.004728 199442.000000 1 0 0
4.302277 12.994523 14.910687 20.240944 1.251072 0.742679 0.021669 0.002575 76065.900000 1 0 0
-3.597923 -4.596877 -14.235413 15.385815 0.906701 2.752437 0.000712 -0.008712 -164274.000000 1 0 0
6.232077 -12.193977 16.827387 21.695456 -1.098325 0.683103 -0.003364 0.020689 191048.000000 1 0 0
8.906077 -13.803677 7.222387 17.944988 -0.997806 1.156579 0.024103 -0.014779 281289.000000 1 0 0
-0.429223 15.263323 0.390187 15.274341 -1.542683 1.545248 0.007899 -0.002621 -314700.000000 1 0 0
-14.410123 7.492623 8.431887 18.299939 -0.479484 1.091945 0.019524 -0.009164 -192309.000000 1 0 0
-15.962923 -9.648777 5.714487 19.508182 0.543685 1.273509 0.022265 -0.011379 136224.000000 1 0 0
9.315277 -10.576977 11.687787 18.309866 -0.848740 0.878466 0.019615 0.005998 194575.000000 1 0 0
-25.060393 5.785023 31.406513 40.593828 -0.226869 0.686172 0.046735 -0.011160 -685315.000000 0 0 1
-24.015923 4.880023 31.347723 39.790186 -0.200470 0.663526 0.036534 -0.008348 -1314450.000000 0 0 1
-22.982623 5.327123 32.129713 39.860979 -0.227767 0.633359 0.026846 -0.002455 -1292120.000000 0 0 1
-21.696423 4.566223 31.818343 38.781337 -0.207432 0.608590 0.036948 -0.002668 -762146.000000 0 0 1
-21.603623 3.208323 32.153993 38.870158 -0.147431 0.596663 -0.001544 -0.000615 -25507.100000 0 0 1
-20.454623 2.604123 31.592543 37.726143 -0.126631 0.578255 0.019337 -0.000217 53248.800000 0 0 1
-20.165823 1.135623 32.126793 37.948398 -0.056255 0.561248 0.017460 -0.003815 -151850.000000 0 0 1
-20.911423 0.023723 31.710263 37.984589 -0.001134 0.582992 0.021481 0.011162 -51481.100000 0 0 1
-20.809823 -0.992477 32.687519 38.762194 0.047657 0.567433 0.017441 0.009729 -119514.000000 0 0 1
-21.555923 -2.340777 32.328213 38.926218 0.108167 0.590792 0.029253 -0.022280 -30522.800000 0 0 1
-20.718823 -3.262177 31.644213 37.964031 0.156168 0.585327 0.046198 -0.030019 65950.200000 0 0 1
-20.863723 -4.629077 31.912463 38.407403 0.218335 0.590085 0.051443 -0.034874 -726105.000000 0 0 1
-22.210323 -5.330577 31.624203 39.010303 0.235549 0.625513 0.049039 -0.027462 101692.000000 0 0 1
-23.296223 -4.904777 32.446948 40.243947 0.207509 0.633000 0.051036 -0.025241 329074.000000 0 0 1
-23.337723 -5.199277 33.861448 41.452135 0.219204 0.614814 0.046661 -0.020728 -719094.000000 0 0 1
-24.628823 -4.620377 -34.032743 42.262920 0.185445 2.506914 0.039286 -0.017908 -100480.000000 0 0 1
-24.673523 -5.047977 -32.659223 41.241844 0.201806 2.484703 0.039632 -0.015266 353450.000000 0 0 1
-25.697843 -4.475877 -31.849113 41.167689 0.172443 2.455368 0.023480 -0.008817 -40175.700000 0 0 1
-25.689703 -5.013277 -30.406993 40.120805 0.192725 2.430863 0.010186 0.000464 -1218460.000000 0 0 1
-26.090393 -6.354877 -30.424693 40.580229 0.238919 2.418468 0.021484 -0.001636 522244.000000 0 0 1
-26.003293 -6.905177 -29.120993 39.647004 0.259560 2.395736 -0.000706 0.003866 -148713.000000 0 0 1
-26.175363 -8.424877 -29.127543 40.056734 0.311392 2.384968 0.005968 0.005796 -971656.000000 0 0 1
-27.512153 -8.754377 -29.073883 40.973752 0.308070 2.359689 0.025952 0.005384 -1039760.000000 0 0 1
-27.599803 -10.126977 -28.767483 41.132382 0.351670 2.345337 0.033086 -0.001754 -92328.100000 0 0 1
-29.000363 -10.433877 -28.232183 41.796447 0.345365 2.312396 0.072010 -0.009225 -142700.000000 0 0 1
-29.088583 -11.223977 -27.105213 41.313628 0.368253 2.286414 0.086929 -0.011784 366609.000000 0 0 1
-30.462833 -11.373277 -26.722533 42.088352 0.357323 2.258695 0.083618 -0.014262 731567.000000 0 0 1
-30.588613 -12.326477 -25.471473 41.670148 0.383069 2.228453 0.072541 -0.006573 -98019.000000 0 0 1
-30.147573 -11.750777 -24.280513 40.453680 0.371661 2.214554 0.065575 -0.009231 109977.000000 0 0 1
-30.522543 -12.412277 -23.085813 40.232388 0.386234 2.181949 0.057745 -0.009615 79043.700000 0 0 1
-29.937723 -11.444677 -21.907013 38.822225 0.365140 2.170370 0.048543 -0.010596 565833.000000 0 0 1
-29.599193 -12.008377 -20.625113 38.022475 0.385410 2.144141 0.043805 -0.006055 -145341.000000 0 0 1
-28.457333 -12.810377 -20.650013 37.421232 0.422988 2.155349 0.032109 -0.009847 -1065980.000000 0 0 1
-28.055843 -13.271077 -19.261913 36.527703 0.441835 2.126244 0.025765 -0.013503 -237281.000000 0 0 1
-27.503493 -12.147377 -18.559413 35.333450 0.415902 2.123822 0.019954 -0.011605 339272.000000 0 0 1
-27.059953 -12.497377 -17.262113 34.444245 0.432657 2.095736 0.023149 -0.008051 3389.110000 0 0 1
-26.837373 -11.307477 -16.334313 33.390319 0.398761 2.081961 0.020449 -0.007888 -195933.000000 0 0 1
-25.693523 -10.566977 -16.680113 32.404387 0.390184 2.111511 0.031442 -0.012158 36402.800000 0 0 1
-25.609813 -9.497777 -15.802813 31.556286 0.355140 2.095298 0.044393 -0.018997 -666187.000000 0 0 1
-24.346823 -8.632477 -15.888513 30.327089 0.340734 2.122225 0.058740 -0.015902 -674442.000000 0 0 1
-23.327623 -9.295677 -15.227213 29.367595 0.379199 2.115897 0.040624 -0.018763 -682563.000000 0 0 1
-22.128423 -8.556877 -15.177913 28.164806 0.368981 2.139923 0.065666 -0.050577 353525.000000 0 0 1
-21.061523 -9.170777 -14.216013 27.014550 0.410670 2.124964 0.045572 -0.022680 76481.900000 0 0 1
-20.419823 -10.337977 -14.697613 27.200419 0.468652 2.141644 0.042231 -0.010968 1026560.000000 0 0 1
-19.224123 -10.517977 -13.891413 25.945445 0.500632 2.135788 0.048656 -0.002233 999206.000000 0 0 1
-18.205823 -11.539777 -14.472513 25.962898 0.564939 2.162084 0.058612 0.001775 62590.400000 0 0 1
-17.500723 -11.070077 -15.608013 25.931294 0.564010 2.216673 0.069604 -0.016810 271812.000000 0 0 1
-18.192023 -11.203077 -16.849213 27.209458 0.551973 2.238572 0.063173 -0.026540 -350284.000000 0 0 1
-17.333023 -10.677677 -17.980113 27.161203 0.552124 2.294251 0.062271 -0.020189 -351603.000000 0 0 1
-17.813323 -11.045777 -19.260713 28.465747 0.555057 2.313969 0.043223 -0.020444 249770.000000 0 0 1
-17.030523 -10.638877 -20.366513 28.601036 0.558380 2.363267 0.044961 -0.022575 -269745.000000 0 0 1
-17.795823 -10.936077 -21.674513 30.101057 0.551035 2.374683 0.051989 -0.025269 489571.000000 0 0 1
-19.054623 -10.238977 -21.605713 30.573226 0.493078 2.355602 0.046141 -0.034347 519411.000000 0 0 1
-19.953123 -10.906777 -22.474513 31.971685 0.500245 2.350334 0.044939 -0.026513 -515251.000000 0 0 1
-21.233923 -10.149477 -22.730313 32.719390 0.445880 2.338806 0.039395 -0.021869 -664589.000000 0 0 1
-20.964923 -9.008677 -23.482513 32.743132 0.405847 2.370535 0.028451 -0.026144 1007270.000000 0 0 1
-22.126123 -8.320077 -23.985213 33.676096 0.359673 2.363470 0.017423 -0.021888 730671.000000 0 0 1
-21.539423 -7.551477 -25.188263 33.991472 0.337199 2.405380 0.018578 -0.027685 83080.100000 0 0 1
-20.880423 -8.409877 -26.058343 34.434798 0.382887 2.429115 0.024738 -0.031887 -39575.700000 0 0 1
-20.066523 -7.668577 -26.936913 34.453878 0.365031 2.468384 0.014652 -0.035689 -462170.000000 0 0 1
-18.916423 -8.413177 -27.597763 34.499987 0.418484 2.497984 0.032967 -0.036577 -902040.000000 0 0 1
-19.294623 -9.366877 -28.545703 35.705434 0.451953 2.497222 0.038622 -0.032629 50108.300000 0 0 1
-18.185923 -9.946877 -29.215933 35.822324 0.500502 2.524525 0.024049 -0.019810 10508.800000 0 0 1
-18.499123 -11.158877 -30.098193 37.049147 0.542777 2.519028 0.038995 -0.014611 -191658.000000 0 0 1
-19.081923 -10.890777 -31.362593 38.292833 0.518625 2.530497 0.044091 -0.004951 290973.000000 0 0 1
-19.065923 -12.105177 -32.135753 39.277874 0.565695 2.529007 0.032868 -0.004043 195579.000000 0 0 1
-19.794023 -12.004677 -33.532503 40.747324 0.545171 2.537359 0.031983 -0.006446 64492.200000 0 0 1
-19.094723 -11.217077 34.054100 40.621583 0.531136 0.576592 0.032017 -0.005192 -189686.000000 0 0 1
-19.675423 -11.186777 32.740128 39.801787 0.516986 0.604864 0.043113 -0.015212 23688.700000 0 0 1
-19.219723 -12.311077 31.758183 39.109367 0.569699 0.623165 0.044262 -0.012806 372984.000000 0 0 1
-17.820223 -12.109177 31.507513 38.169568 0.596848 0.599777 0.050120 -0.008395 641968.000000 0 0 1
-17.233323 -12.870377 30.520253 37.337915 0.641470 0.613902 0.044600 -0.012162 -122185.000000 0 0 1
-17.209723 -14.432677 30.790553 38.112136 0.697859 0.630227 0.042722 -0.006342 -1684840.000000 0 0 1
-18.389223 -15.087477 30.437723 38.629658 0.687088 0.663345 0.041070 -0.012209 -395457.000000 0 0 1
-18.507623 -16.414577 30.949733 39.621414 0.725535 0.674312 0.047907 -0.015290 -392687.000000 0 0 1
-18.811723 -16.534077 32.417933 40.965583 0.721048 0.657790 0.020557 -0.016979 -14641.700000 0 0 1
-17.692623 -16.163077 33.228401 40.968288 0.740250 0.624807 0.041541 -0.014884 324131.000000 0 0 1
-18.041423 -16.093277 -33.918253 41.652544 0.728388 2.522343 0.038587 -0.015138 145506.000000 0 0 1
-16.873623 -15.574677 -33.058063 40.250779 0.745388 2.534487 0.042010 -0.007580 17472.900000 0 0 1
-16.503823 -14.246477 -33.307313 39.808484 0.712121 2.562005 0.035539 -0.007503 -526694.000000 0 0 1
-15.351923 -13.776177 -32.664513 38.632046 0.731354 2.578351 0.045629 -0.006007 -38113.100000 0 0 1
-15.443623 -13.543377 -31.119953 37.287800 0.719937 2.558181 0.058854 -0.012024 -153709.000000 0 0 1
-15.578723 -14.722177 -30.428583 37.220126 0.757138 2.527906 0.059784 -0.013316 -121540.000000 0 0 1
-16.193923 -14.569577 -29.157343 36.395966 0.732646 2.499952 0.045207 -0.009475 -117278.000000 0 0 1
-16.010523 -15.862077 -28.375753 36.237076 0.780741 2.470365 0.058203 -0.012597 58449.500000 0 0 1
-14.667423 -16.110177 -28.039043 35.508577 0.832241 2.481021 0.069861 -0.018919 -163904.000000 0 0 1
-13.953223 -16.891877 -28.974153 36.325328 0.880383 2.494151 0.069172 -0.016676 -176933.000000 0 0 1
-12.501723 -17.273377 -28.585033 35.661839 0.944304 2.500693 0.067051 -0.015483 -40597.300000 0 0 1
-11.633523 -16.187477 -28.583733 34.848286 0.947647 2.532615 0.067047 -0.016104 -647423.000000 0 0 1
-10.410823 -16.556377 -28.002983 34.156492 1.009462 2.531934 0.077299 -0.023682 573617.000000 0 0 1
-9.192923 -15.591777 -28.194893 33.504706 1.038058 2.570888 0.064740 -0.020428 629767.000000 0 0 1
-9.284023 -14.404277 -27.391503 32.310536 0.998274 2.582539 0.058184 -0.014901 398749.000000 0 0 1
-7.981823 -13.833777 -27.326293 31.651369 1.047475 2.612673 0.058946 -0.015997 433410.000000 0 0 1
-8.049923 -12.329177 -27.817793 31.474426 0.992374 2.654766 0.044088 -0.021569 -46813.700000 0 0 1
-8.066023 -12.189077 -29.200273 32.654100 0.986211 2.677504 0.062094 -0.021960 268696.000000 0 0 1
-7.855923 -10.862277 -29.625273 32.517094 0.944649 2.716663 0.045359 -0.026397 169549.000000 0 0 1
-6.784723 -10.650977 -30.747163 33.239492 1.003611 2.751882 0.040731 -0.011566 -183578.000000 0 0 1
-5.471923 -11.017477 -30.343203 32.741972 1.109826 2.756430 0.051868 -0.013632 415486.000000 0 0 1
-4.575823 -10.555477 -31.363303 33.406781 1.161746 2.790015 0.048836 -0.013180 -62213.800000 0 0 1
-4.090723 -9.070677 -31.288093 32.832240 1.147125 2.833681 0.038255 -0.015429 -917586.000000 0 0 1
-3.054923 -8.795077 -32.198713 33.517802 1.236489 2.860112 0.028216 -0.022465 -57932.100000 0 0 1
-3.065723 -7.406077 -32.362433 33.340301 1.178325 2.898799 0.018248 -0.020677 -43559.300000 0 0 1
-1.706123 -6.959977 -32.922693 33.693558 1.330403 2.927273 0.027849 -0.022002 -44252.700000 0 0 1
-1.386023 -7.349177 34.213803 35.021648 1.384390 0.215203 0.032102 -0.030211 -617425.000000 0 0 1
-0.102723 -6.867477 33.943213 34.631121 1.555840 0.199650 0.033405 -0.020998 -410685.000000 0 0 1
0.450377 -7.352077 32.595383 33.417284 -1.509614 0.222246 0.022993 -0.015475 -290775.000000 0 0 1
-0.091923 -6.907077 31.385833 32.136999 1.557489 0.216636 0.020625 -0.016392 63563.300000 0 0 1
0.444477 -7.696577 30.333443 31.297806 -1.513110 0.248886 0.014115 -0.014012 141117.000000 0 0 1
0.117877 -7.059977 28.912843 29.762555 -1.554101 0.239527 0.024498 -0.004894 77510.800000 0 0 1
0.737377 -5.800077 28.682003 29.271862 -1.444342 0.201093 0.020975 -0.010094 -133041.000000 0 0 1
0.637277 -5.303477 27.351263 27.867985 -1.451208 0.192870 0.018777 0.000741 464865.000000 0 0 1
-0.666623 -4.495077 27.005353 27.385018 1.423569 0.166710 0.021506 0.008278 1058520.000000 0 0 1
-1.871423 -5.248477 26.975863 27.545343 1.228285 0.203695 0.010491 0.003841 229462.000000 0 0 1
-2.958423 -4.385577 26.649093 27.169095 0.977335 0.195963 0.012167 -0.004833 494166.000000 0 0 1
-4.362923 -4.852177 27.080963 27.856010 0.838441 0.236446 0.009109 0.000230 230367.000000 0 0 1
-4.963023 -5.938377 26.421603 27.531746 0.874631 0.284943 0.014064 0.005472 -668768.000000 0 0 1
-6.260023 -6.213477 26.845473 28.257293 0.781667 0.317442 0.008751 -0.002320 10202.500000 0 0 1
-6.785723 -7.626277 26.648043 28.536369 0.843655 0.365829 0.019717 -0.006522 -39189.300000 0 0 1
-6.069123 -8.390577 27.560453 29.441716 0.944586 0.359417 0.019453 -0.010380 -270312.000000 0 0 1
-6.396023 -9.740777 27.644223 29.999915 0.989779 0.398931 0.032491 -0.014859 -70610.600000 0 0 1
-5.569823 -10.497277 28.713263 31.075187 1.082972 0.392402 0.033723 -0.016424 -97337.100000 0 0 1
-5.603023 -11.854777 28.504463 31.375692 1.129277 0.431143 0.042924 -0.020109 417440.000000 0 0 1
-5.095323 -12.419677 29.733733 32.623697 1.181475 0.424086 0.052899 -0.022454 36104.300000 0 0 1
-5.135723 -13.992277 29.726733 33.254145 1.219023 0.464768 0.061656 -0.030109 859202.000000 0 0 1
-6.498923 -14.460277 29.811433 33.764733 1.148414 0.488759 0.069198 -0.030535 895911.000000 0 0 1
-6.530323 -15.886277 29.775223 34.374159 1.180786 0.523230 0.067280 -0.031428 171562.000000 0 0 1
-6.491423 -16.447277 31.219983 35.879505 1.194884 0.515322 0.077404 -0.026062 -486864.000000 0 0 1
-7.781023 -16.431677 31.745413 36.582996 1.128542 0.520111 0.083310 -0.028857 -584884.000000 0 0 1
-7.889223 -16.756077 33.106750 37.934982 1.130758 0.510043 0.082769 -0.024927 425918.000000 0 0 1
-9.354923 -17.099177 33.565596 38.814246 1.070184 0.526094 0.090862 -0.020050 873511.000000 0 0 1
-9.888723 -18.363277 33.215402 39.220654 1.076821 0.560695 0.078616 -0.026817 230881.000000 0 0 1
-10.418923 -18.333577 31.894303 38.235070 1.054014 0.584182 0.068153 -0.027634 -475929.000000 0 0 1
-11.038923 -19.692777 31.487893 38.744686 1.059884 0.622021 0.053451 -0.030949 -709173.000000 0 0 1
-12.104623 -20.059177 32.278143 39.884471 1.027847 0.627852 0.063231 -0.025598 -156899.000000 0 0 1
-12.654423 -21.360477 32.004093 40.505140 1.035967 0.659785 0.046962 -0.021419 -106444.000000 0 0 1
-11.956323 -22.351777 32.926116 41.553396 1.079608 0.656094 0.047294 -0.023257 -182335.000000 0 0 1
-10.587123 -22.543377 32.582304 41.010945 1.131736 0.652648 0.032334 -0.022799 255060.000000 0 0 1
-9.890023 -23.125777 33.698356 42.049891 1.166673 0.641181 0.035726 -0.026981 196949.000000 0 0 1
-10.141523 -24.616777 34.071114 43.239762 1.180009 0.663311 0.042104 -0.018041 -338526.000000 0 0 1
-9.762623 -25.558367 33.099114 42.942873 1.205926 0.690746 0.036659 -0.013885 -63183.500000 0 0 1
-9.621523 -26.807557 33.672051 44.102447 1.226205 0.702087 0.042524 -0.012501 -636885.000000 0 0 1
-8.855423 -27.761867 32.751988 43.838710 1.262021 0.727105 0.043300 -0.006496 380170.000000 0 0 1
-7.464823 -27.545447 32.611274 43.335556 1.306152 0.718902 0.042138 -0.015772 86439.000000 0 0 1
-6.606523 -28.124207 33.572903 44.291726 1.340074 0.710563 0.040599 -0.018495 -78050.300000 0 0 1
-5.160823 -27.578357 33.551375 43.736651 1.385803 0.696453 0.046564 -0.026211 -34247.400000 0 0 1
-4.879023 -26.265157 33.996094 43.236533 1.387130 0.666029 0.046646 -0.022720 115028.000000 0 0 1
-5.253623 -25.232997 33.077026 41.933213 1.365524 0.661938 0.045909 -0.022916 -90319.000000 0 0 1
-4.929123 -23.868977 33.690778 41.582362 1.367151 0.626272 0.056294 -0.023912 -586683.000000 0 0 1
-3.565423 -23.629377 33.799804 41.394281 1.421037 0.615416 0.050333 -0.016328 -679183.000000 0 0 1
-3.287423 -22.478377 -33.892683 40.801943 1.425578 2.551095 0.043372 -0.022843 -23359.200000 0 0 1
34.830203 -15.055777 1.973487 37.996238 -0.408006 1.518834 0.105386 -0.045983 -18374.100000 0 0 1
35.592703 -15.698677 2.962487 39.013655 -0.415398 1.494789 0.077324 -0.039759 293846.000000 0 0 1
34.725273 -16.279177 3.913287 38.550875 -0.438377 1.469112 0.088447 -0.035552 -95316.200000 0 0 1
35.423133 -16.499777 5.203587 39.422307 -0.435908 1.438414 0.081325 -0.023762 -63798.900000 0 0 1
-35.784133 -17.392577 5.177487 40.122466 0.452419 1.441393 0.094515 -0.029364 177307.000000 0 0 1
-35.250695 -17.496977 6.492687 39.886222 0.460730 1.407289 0.078691 -0.019326 -308414.000000 0 0 1
-33.909093 -18.218577 6.597387 39.054688 0.493023 1.401056 0.055962 -0.017017 -536404.000000 0 0 1
-33.860843 -19.603677 6.438787 39.652476 0.524796 1.407694 0.072534 -0.021421 262511.000000 0 0 1
-32.801593 -20.217677 7.185987 39.196140 0.552364 1.386419 0.054108 -0.012793 211679.000000 0 0 1
-32.955893 -21.694777 7.569987 40.175352 0.582186 1.381240 0.051180 -0.012626 -500088.000000 0 0 1
-32.636723 -22.510577 6.511587 40.178135 0.603801 1.408010 0.073048 -0.012231 156425.000000 0 0 1
-33.119933 -23.834577 6.739987 41.357520 0.623789 1.407097 0.087956 -0.022462 -210058.000000 0 0 1
-32.670143 -24.818777 5.645287 41.414722 0.649666 1.434060 0.078377 -0.014952 109255.000000 0 0 1
-33.180323 -24.498177 4.352887 41.473391 0.635993 1.465647 0.077488 -0.014927 382063.000000 0 0 1
-32.626203 -25.451437 3.444587 41.522403 0.662483 1.487744 0.059209 -0.006414 53752.800000 0 0 1
-33.022133 -25.077547 1.973587 41.511922 0.649500 1.523236 0.066946 -0.012231 1242260.000000 0 0 1
-34.375078 -25.461287 1.609387 42.807864 0.637516 1.533192 0.059029 -0.010404 1101070.000000 0 0 1
-34.780160 -25.092667 0.299587 42.888125 0.624987 1.563811 0.050633 -0.005711 -71809.300000 0 0 1
-35.673637 -23.833477 0.258887 42.903497 0.588993 1.564762 0.061804 -0.012204 -99581.800000 0 0 1
35.275553 -24.160077 0.550787 42.759529 -0.600517 1.557915 0.044647 -0.006016 47475.000000 0 0 1
34.547593 -22.943277 0.624087 41.476736 -0.586228 1.555749 0.061445 -0.024176 -248883.000000 0 0 1
33.028723 -23.153377 0.586787 40.340051 -0.611402 1.556250 0.044182 -0.019319 -168195.000000 0 0 1
32.654263 -23.235277 -0.787613 40.084901 -0.618438 1.590446 0.039555 -0.025998 -415410.000000 0 0 1
31.278333 -23.065677 -0.986713 38.875869 -0.635410 1.596180 0.036035 -0.020094 -315497.000000 0 0 1
30.845413 -22.886777 -2.431813 38.485813 -0.638351 1.634026 0.034986 -0.014192 -154007.000000 0 0 1
31.185183 -21.628777 -2.929713 38.064456 -0.606390 1.647840 0.062139 -0.031542 -17334.100000 0 0 1
31.042733 -21.345077 -4.289513 37.916533 -0.602357 1.684169 0.060277 -0.041249 -12081.700000 0 0 1
30.973113 -19.870977 -4.677613 37.095411 -0.570416 1.697230 0.073470 -0.044020 450589.000000 0 0 1
29.787743 -19.327477 -4.125013 35.747402 -0.575559 1.686447 0.077567 -0.049993 249258.000000 0 0 1
29.990593 -17.911677 -3.980613 35.158343 -0.538390 1.684259 0.089268 -0.051154 413787.000000 0 0 1
29.247323 -17.360077 -2.692113 34.117820 -0.535672 1.649785 0.093490 -0.046556 365079.000000 0 0 1
29.881123 -17.667677 -1.426513 34.742816 -0.533972 1.611867 0.105912 -0.042591 -54361.200000 0 0 1
29.984623 -19.064777 -1.055813 35.547969 -0.566341 1.600502 0.087799 -0.039957 -699593.000000 0 0 1
28.765143 -19.994977 -0.935413 35.044365 -0.607437 1.597492 0.072262 -0.023170 -458496.000000 0 0 1
27.993663 -19.642677 0.206587 34.198284 -0.611855 1.564755 0.068517 -0.014369 -31326.800000 0 0 1
27.071133 -20.671477 0.473487 34.064357 -0.652148 1.556896 0.049605 -0.015963 -580757.000000 0 0 1
26.060633 -20.358477 1.613787 33.109341 -0.663170 1.522036 0.045469 -0.006748 -1314020.000000 0 0 1
25.151833 -21.359277 1.755487 33.044139 -0.704037 1.517646 0.041930 -0.002028 -727921.000000 0 0 1
24.305633 -21.227777 2.873787 32.398163 -0.717905 1.481977 0.032952 0.004233 27984.600000 0 0 1
22.929433 -20.612377 2.541787 30.936866 -0.732234 1.488543 0.019316 0.005411 -745954.000000 0 0 1
23.013033 -19.254577 2.097287 30.078847 -0.696711 1.501013 0.038663 -0.007391 239578.000000 0 0 1
23.088933 -18.302777 3.152787 29.631580 -0.670279 1.464195 0.042184 0.001994 -298575.000000 0 0 1
22.876133 -16.929977 2.576087 28.575825 -0.637117 1.480525 0.041404 0.000180 -799303.000000 0 0 1
21.609633 -16.580477 2.156187 27.322840 -0.654464 1.491799 0.039676 -0.000596 -948853.000000 0 0 1
21.661333 -15.304377 1.524987 26.566198 -0.615095 1.513361 0.052264 -0.006576 310473.000000 0 0 1
20.243833 -14.990077 0.977287 25.208536 -0.637378 1.532019 0.048355 -0.000289 508072.000000 0 0 1
19.291433 -14.815777 2.028987 24.408675 -0.654921 1.487575 0.051806 -0.001697 562829.000000 0 1 0
18.324833 -13.781977 1.850987 23.003664 -0.644839 1.490244 0.058173 -0.006577 307109.000000 0 1 0
18.916433 -12.369077 2.176187 22.705975 -0.579098 1.474807 0.075946 -0.005707 -806558.000000 0 1 0
19.807033 -11.916777 1.244487 23.149015 -0.541627 1.517011 0.072360 -0.009367 -155592.000000 0 1 0
20.333233 -10.656877 1.744887 23.022902 -0.482750 1.494934 0.081379 -0.009386 267165.000000 0 1 0
21.324633 -10.015877 0.732487 23.571048 -0.439103 1.539716 0.099965 -0.015991 505263.000000 0 1 0
20.596833 -9.602877 -0.423413 22.729365 -0.436269 1.589426 0.101018 -0.015216 753429.000000 0 1 0
21.530733 -9.011077 -1.281713 23.375516 -0.396371 1.625655 0.105412 -0.014165 -232753.000000 0 1 0
20.863933 -8.181477 -2.435213 22.542638 -0.373708 1.679035 0.129278 -0.014829 140008.000000 0 1 0
21.720233 -7.596077 -3.432413 23.264788 -0.336429 1.718874 0.115613 -0.019750 715293.000000 0 1 0
22.744033 -8.329177 -4.083713 24.563040 -0.351045 1.737826 0.104176 -0.019885 -558155.000000 0 1 0
22.375433 -9.552277 -4.936913 24.824969 -0.403487 1.771000 0.099407 -0.025724 -316433.000000 0 1 0
21.580433 -9.167377 -6.043313 24.213168 -0.401702 1.823051 0.086208 -0.033036 749268.000000 0 1 0
20.166033 -9.160277 -5.865413 22.912499 -0.426377 1.829670 0.090519 -0.023544 -21203.100000 0 1 0
19.434733 -9.226477 -7.200213 22.686555 -0.443238 1.893760 0.083300 -0.021175 -413887.000000 0 1 0
19.305933 -10.436877 -7.871813 23.315507 -0.495601 1.915185 0.077456 -0.017802 691735.000000 0 1 0
20.464433 -10.795877 -8.622013 24.691761 -0.485439 1.927498 0.066789 -0.011219 96567.300000 0 1 0
20.331733 -12.126877 -9.428613 25.482136 -0.537806 1.949815 0.050633 -0.017960 -254407.000000 0 0 1
19.313233 -12.133477 -10.401913 25.068347 -0.560931 1.998676 0.072397 -0.023828 171887.000000 0 0 1
19.146433 -13.470177 -10.823813 25.791209 -0.613094 2.003879 0.069824 -0.021332 -262349.000000 0 0 1
17.937933 -13.620777 -11.764213 25.410465 -0.649444 2.052136 0.065192 -0.023511 -30139.300000 0 0 1
17.658433 -15.016377 -11.939913 26.074381 -0.704715 2.046447 0.060816 -0.020199 379731.000000 0 0 1
16.784933 -15.253277 -13.046213 26.164864 -0.737627 2.092797 0.062871 -0.022628 23285.800000 0 0 1
16.852433 -16.705577 -13.524413 27.312827 -0.781022 2.088823 0.054115 -0.016449 19389.900000 0 0 1
16.006733 -17.491777 -12.678513 26.887217 -0.829701 2.061837 0.053789 -0.013003 532978.000000 0 0 1
16.256633 -18.891477 -12.762113 28.000670 -0.860222 2.044043 0.060354 -0.012436 -73149.400000 0 0 1
15.208533 -19.582277 -11.849813 27.480595 -0.910458 2.016626 0.066266 -0.017318 936616.000000 0 0 1
13.878133 -19.429577 -12.355613 26.884423 -0.950551 2.048321 0.056853 -0.013472 717465.000000 0 0 1
12.912133 -20.172177 -11.606513 26.614865 -1.001415 2.022047 0.061397 -0.012732 707307.000000 0 0 1
11.419333 -20.002277 -11.980313 25.961898 -1.052048 2.050434 0.052605 -0.019492 107688.000000 0 0 1
10.594933 -20.689077 -11.104713 25.760535 -1.097513 2.016480 0.069860 -0.031253 527206.000000 0 0 1
9.245733 -20.825977 -11.594413 25.566292 -1.152983 2.041489 0.053999 -0.021418 1075530.000000 0 0 1
8.247333 -21.449377 -10.591113 25.303477 -1.203721 2.002659 0.051554 -0.017351 -153739.000000 0 0 1
8.244233 -22.865677 -10.614313 26.523013 -1.224753 1.982523 0.069918 -0.022452 -69890.700000 0 0 1
7.446033 -23.440577 -9.614413 26.407215 -1.263221 1.943444 0.064208 -0.025714 -40240.400000 0 0 1
7.476633 -24.977477 -9.679213 27.811177 -1.279950 1.926269 0.066097 -0.019011 201062.000000 0 0 1
8.673933 -25.530717 -9.178913 28.483453 -1.243286 1.898906 0.068769 -0.019419 -199743.000000 0 0 1
8.849733 -26.902297 -9.534013 29.882248 -1.252988 1.895526 0.055420 -0.010236 -139680.000000 0 0 1
10.351033 -27.217987 -9.451513 30.615254 -1.207386 1.884642 0.054847 -0.000756 -130352.000000 0 0 1
10.709733 -27.302787 -8.080113 30.420861 -1.196982 1.839634 0.058166 -0.004014 1207760.000000 0 0 1
12.153233 -27.496597 -7.994213 31.107416 -1.154623 1.830700 0.060772 0.000365 1476040.000000 0 0 1
12.582933 -27.771867 -6.480013 31.170457 -1.145382 1.780213 0.050172 -0.006140 58666.600000 0 0 1
12.247233 -29.019357 -5.918613 32.049146 -1.171438 1.756535 0.049977 -0.008827 -8660.480000 0 0 1
10.861633 -29.094577 -5.637913 31.563516 -1.213498 1.750381 0.049616 -0.005281 41304.300000 0 0 1
10.449733 -30.267397 -4.669913 32.359239 -1.238362 1.715617 0.052769 -0.008948 91041.300000 0 0 1
10.510033 -31.594067 -5.159113 33.693654 -1.249653 1.724519 0.063611 -0.016463 -287110.000000 0 0 1
9.466633 -32.011147 -6.025213 33.920994 -1.283262 1.749369 0.071012 -0.018493 159131.000000 0 0 1
9.494433 -33.514987 -6.476613 35.430850 -1.294740 1.754626 0.061617 -0.016269 -6724.520000 0 0 1
9.054033 34.233747 -5.424813 35.823924 1.312240 1.722811 0.052950 -0.015637 165788.000000 0 0 1
9.617033 32.964222 -5.711213 34.810131 1.286933 1.735609 0.051267 -0.012198 241537.000000 0 0 1
9.452533 32.039308 -4.454213 33.700262 1.283906 1.703356 0.045050 -0.004487 1268770.000000 0 0 1
8.060633 31.647718 -4.352513 32.946870 1.321400 1.703291 0.050804 -0.009378 651510.000000 0 0 1
7.767333 30.761278 -3.314913 31.899472 1.323463 1.674902 0.024133 -0.004987 481781.000000 0 0 1
6.409433 30.033628 -3.585613 30.918542 1.360542 1.687028 0.029324 -0.010119 533530.000000 0 0 1
6.373533 29.289518 -4.823013 30.360488 1.356532 1.730330 0.030917 -0.018109 -9554.470000 0 0 1
5.996033 30.031758 -5.922713 31.191945 1.373731 1.761836 0.037189 -0.020743 -530329.000000 0 0 1
5.875533 29.283938 -7.277713 30.741438 1.372785 1.809805 0.065069 -0.020829 151506.000000 0 0 1
4.935633 28.225368 -7.460313 29.608920 1.397682 1.825503 0.062922 -0.021735 251656.000000 0 0 1
5.259033 27.052208 -6.791113 28.383069 1.378788 1.812406 0.052297 -0.022092 286081.000000 0 0 1
4.383433 25.844048 -7.400713 27.237839 1.402784 1.845963 0.045655 -0.023555 -87569.900000 0 0 1
3.085933 25.724378 -6.851013 26.799309 1.451405 1.829307 0.049441 -0.027168 -90121.300000 0 0 1
2.097733 26.376438 -7.654213 27.544581 1.491433 1.852388 0.052965 -0.031113 -1289.860000 0 0 1
1.680833 25.637818 -8.929413 27.200319 1.505329 1.905282 0.048592 -0.022063 -1064590.000000 0 0 1
2.672233 25.535068 -9.939213 27.531227 1.466526 1.940153 0.040732 -0.018497 -132520.000000 0 0 1
2.350833 24.873588 -11.176113 27.370190 1.476565 1.991422 0.034510 -0.013859 -410897.000000 0 0 1
2.132833 23.326128 -11.125713 25.931423 1.479615 2.014230 0.041942 -0.015233 544297.000000 0 0 1
0.945733 22.988928 -10.397613 25.248675 1.529681 1.995234 0.048374 -0.019286 375292.000000 0 0 1
1.008433 21.583128 -10.187013 23.887729 1.524107 2.011365 0.032524 -0.018235 -664815.000000 0 1 0
-0.130767 20.926128 -9.444313 22.958985 -1.564547 1.994737 0.053323 -0.014534 -400289.000000 0 1 0
-1.407167 20.956528 -10.055213 23.286552 -1.503750 2.017288 0.069893 -0.021405 -368158.000000 0 1 0
-2.309267 20.160028 -9.337213 22.337032 -1.456747 2.002055 0.063040 -0.018422 -606245.000000 0 1 0
-3.679367 20.362528 -10.011313 22.986881 -1.392032 2.021415 0.051209 -0.020663 -777543.000000 0 1 0
-4.589367 19.435528 -9.501313 22.115085 -1.338911 2.014880 0.038702 -0.026182 -744245.000000 0 1 0
-5.751367 19.497728 -10.278313 22.779011 -1.283955 2.038927 0.039453 -0.012019 -516437.000000 0 1 0
-6.743867 18.371928 -9.865213 21.916430 -1.218992 2.037706 0.042746 -0.009902 242008.000000 0 1 0
-7.741567 18.691328 -8.896713 22.100885 -1.178126 1.985097 0.054525 -0.014311 311949.000000 0 1 0
-9.023967 18.690528 -9.494413 22.823490 -1.120995 1.999831 0.058731 -0.022992 -419428.000000 0 1 0
-10.126667 18.945828 -8.492113 23.099995 -1.079926 1.947249 0.068666 -0.027645 -433820.000000 0 1 0
-10.261067 17.934328 -7.507513 21.983912 -1.051109 1.919309 0.051727 -0.021733 148704.000000 0 1 0
-11.245867 18.274728 -6.506413 22.422503 -1.019146 1.865204 0.059219 -0.023685 186195.000000 0 1 0
-11.646967 17.077328 -5.634613 21.425122 -0.972244 1.836917 0.037907 -0.023058 -553183.000000 0 1 0
-12.582367 17.406028 -4.648813 21.974923 -0.944883 1.783958 0.054197 -0.026676 -137619.000000 0 1 0
-13.039467 16.246328 -4.002713 21.213029 -0.894466 1.760626 0.047853 -0.023335 96743.100000 0 1 0
-14.419067 16.414528 -3.328213 22.100299 -0.850025 1.721967 0.051010 -0.025358 -761446.000000 0 1 0
-15.585967 16.518928 -4.057713 23.070813 -0.814450 1.747597 0.079609 -0.038182 -623841.000000 0 1 0
-16.546067 16.895328 -3.097413 23.849914 -0.795842 1.701035 0.077315 -0.034136 -607123.000000 0 1 0
-17.943667 17.111728 -3.686413 25.067430 -0.761670 1.718391 0.081667 -0.036476 -390514.000000 0 0 1
-17.971267 18.307728 -4.458813 26.038824 -0.794672 1.742882 0.082338 -0.032371 775807.000000 0 0 1
-19.201867 18.389628 -5.200713 27.091282 -0.763795 1.763965 0.058259 -0.027654 747242.000000 0 0 1
-19.059667 19.292628 -6.406913 27.866197 -0.791472 1.802789 0.048432 -0.013510 -3536.220000 0 0 1
-18.748567 20.640428 -6.106813 28.545213 -0.833391 1.786398 0.058009 -0.028283 170989.000000 0 0 1
-18.789967 21.403128 -7.279513 29.396395 -0.850322 1.821033 0.048953 -0.013942 -9531.460000 0 0 1
-18.674767 22.884728 -6.905813 30.333941 -0.886353 1.800470 0.052407 -0.014213 -896680.000000 0 0 1
-17.373167 23.282628 -6.666413 29.805180 -0.929741 1.796371 0.059142 -0.016227 -732358.000000 0 0 1
-17.257367 24.246828 -5.611513 30.285549 -0.952236 1.757160 0.064206 -0.016217 567557.000000 0 0 1
-15.824867 24.836428 -5.370413 29.935195 -1.003498 1.751174 0.057525 -0.012590 521979.000000 0 0 1
-15.850967 25.939298 -4.482113 30.727670 -1.022270 1.717184 0.061734 -0.007378 -23370.100000 0 0 1
-14.555867 26.464928 -4.287713 30.506559 -1.067949 1.711814 0.074976 -0.015795 1767.960000 0 0 1
-14.341967 27.759858 -5.057313 31.652459 -1.093922 1.731260 0.078064 -0.008391 -446535.000000 0 0 1
-15.029567 28.839068 -4.551013 32.837349 -1.090370 1.709836 0.087947 -0.006053 -186391.000000 0 0 1
-14.667367 30.012968 -5.228013 33.811862 -1.116229 1.726040 0.073078 -0.019941 -18394.500000 0 0 1
-15.463767 31.161148 -4.627713 35.093603 -1.110152 1.703049 0.078231 -0.026035 -728630.000000 0 0 1
-16.813467 31.218968 -4.928313 35.799510 -1.076774 1.708899 0.096408 -0.019079 -609999.000000 0 0 1
-17.420467 32.281088 -4.180113 36.919029 -1.075935 1.684263 0.111947 -0.024889 126663.000000 0 0 1
12.792177 -8.440577 19.051123 24.450530 -0.583250 0.677456 0.042380 0.003596 -302653.000000 0 1 0
13.620477 -9.541477 19.234623 25.426913 -0.611078 0.712902 0.059127 0.002488 -44045.300000 0 0 1
13.213977 -10.634477 18.395423 25.021848 -0.677655 0.744872 0.043076 -0.005011 -52373.900000 0 0 1
13.558077 -12.026377 19.035323 26.283050 -0.725601 0.760860 0.073313 -0.011886 15806.400000 0 0 1
14.960977 -12.117577 19.235523 27.215287 -0.680776 0.785844 0.076486 -0.011130 583657.000000 0 0 1
15.284077 -13.311177 19.959623 28.446037 -0.716513 0.793063 0.088125 -0.019115 -164769.000000 0 0 1
15.754077 -14.456777 19.091923 28.665151 -0.742483 0.841919 0.090850 -0.021814 -480950.000000 0 0 1
14.698077 -15.113177 18.440023 28.008499 -0.799322 0.852142 0.089677 -0.022256 484760.000000 0 0 1
15.217877 -16.216677 17.666723 28.402069 -0.817161 0.899473 0.088246 -0.024723 -23788.100000 0 0 1
14.327777 -16.514777 16.470423 27.373306 -0.856188 0.925173 0.072590 -0.023926 315061.000000 0 0 1
12.967677 -16.870777 16.703323 27.051521 -0.915467 0.905283 0.074618 -0.024393 539091.000000 0 0 1
12.148977 -16.922377 15.549123 25.994994 -0.948142 0.929595 0.069085 -0.026024 124058.000000 0 0 1
12.091977 -18.316077 14.817723 26.481305 -0.987295 0.976949 0.070674 -0.021420 -1032250.000000 0 0 1
13.266577 -18.693277 14.211723 26.970609 -0.953591 1.015808 0.072372 -0.020948 -630931.000000 0 0 1
13.013777 -19.836477 13.428423 27.261085 -0.990178 1.055738 0.070547 -0.020702 -98051.200000 0 0 1
14.269977 -20.634877 12.974923 28.244982 -0.965766 1.093509 0.068445 -0.017048 -230375.000000 0 0 1
15.014177 -21.152377 14.020123 29.485800 -0.953517 1.075278 0.057151 -0.017333 -298172.000000 0 0 1
15.322177 -22.477077 13.638123 30.430026 -0.972472 1.106068 0.032917 -0.015542 11649.500000 0 0 1
16.167277 -23.238977 14.700923 31.899029 -0.962964 1.091835 0.034934 -0.017550 1415870.000000 0 0 1
17.567177 -22.867577 14.749723 32.389599 -0.915740 1.097992 0.018592 -0.021231 916719.000000 0 0 1
18.250377 -23.491177 15.810023 33.687809 -0.910298 1.082287 0.013154 -0.025557 -685374.000000 0 0 1
19.631977 -22.902177 16.041923 34.165297 -0.862131 1.082028 -0.013084 -0.021600 -475100.000000 0 0 1
20.431277 -23.262977 14.942223 34.378383 -0.850115 1.121158 -0.016996 -0.022732 -125253.000000 0 0 1
21.711777 -22.646377 14.955323 34.755163 -0.806464 1.125966 -0.014273 -0.017636 660210.000000 0 0 1
22.924277 -23.419577 14.388023 35.791260 -0.796085 1.157098 -0.009271 -0.016943 190647.000000 0 0 1
23.171677 -24.565377 15.101423 36.992396 -0.814585 1.150282 -0.004778 -0.012289 -668349.000000 0 0 1
24.271477 -25.195887 14.566723 37.896263 -0.804083 1.176256 0.009678 -0.013585 -744467.000000 0 0 1
24.688577 -26.454787 15.347623 39.305612 -0.819919 1.169655 0.013887 -0.011679 -222419.000000 0 0 1
25.092377 -26.164637 16.696823 39.912398 -0.806314 1.139183 0.015771 0.001622 177337.000000 0 0 1
25.539477 -27.307827 17.350423 41.219164 -0.818847 1.136325 0.046632 0.006102 -42735.200000 0 0 1
25.919777 -27.086267 18.833723 41.954855 -0.807401 1.105257 0.031223 0.015851 982711.000000 0 0 1
24.756577 -26.821047 19.661823 41.458943 -0.825403 1.076687 0.035767 0.015887 780210.000000 0 0 1
25.093277 -26.469347 21.020623 42.097096 -0.812079 1.047963 0.043871 0.015568 498246.000000 0 0 1
23.869977 -26.257137 21.984923 41.743861 -0.832984 1.016127 0.038854 0.011651 395410.000000 0 0 1
23.285277 -27.441457 22.435623 42.409844 -0.867148 1.013352 0.044198 0.022324 238289.000000 0 0 1
22.229877 -27.171047 23.356823 42.166034 -0.885088 0.983725 0.041551 0.015226 507111.000000 0 0 1
21.493377 -28.358887 24.069523 42.959675 -0.922254 0.976070 0.049216 0.008162 182896.000000 0 0 1
22.433877 -29.231797 24.683123 44.351250 -0.916222 0.980584 0.055198 0.008066 411013.000000 0 0 1
22.725477 -30.409677 23.934333 44.878147 -0.929019 1.008278 0.055071 0.004700 -566801.000000 0 0 1
23.721777 -31.361017 24.601223 46.383793 -0.923206 1.011743 0.037820 0.003976 -498415.000000 0 0 1
23.364877 -31.896387 25.834933 47.230718 -0.938574 0.992027 0.050976 0.000355 -252372.000000 0 0 1
24.429577 -32.050307 26.731883 48.359280 -0.919516 0.985104 0.058281 0.001033 -627362.000000 0 0 1
23.849877 -32.451777 28.138443 49.129487 -0.937008 0.960951 0.043129 -0.007269 457463.000000 0 0 1
23.325277 -33.787597 28.271033 49.848988 -0.966576 0.967775 0.050481 -0.013337 -543341.000000 0 0 1
22.126277 -33.946097 27.592143 49.022811 -0.993152 0.972975 0.053771 -0.015401 -1328580.000000 0 0 1
21.479077 33.323448 27.957553 48.512140 0.998252 0.956602 0.067718 -0.028396 -104099.000000 0 0 1
20.882977 33.349514 29.261413 49.035896 1.011345 0.931371 0.054801 -0.029166 124585.000000 0 0 1
20.634277 31.972988 29.615253 48.219380 0.997686 0.909453 0.061997 -0.031376 -64545.200000 0 0 1
20.328277 31.878568 31.101903 48.957230 1.003132 0.882416 0.054297 -0.032180 -100523.000000 0 0 1
21.446577 32.267458 31.861423 50.162683 0.984191 0.882578 0.059566 -0.025316 107904.000000 0 0 1
21.135777 32.622850 33.210663 51.126506 0.995911 0.863767 0.048056 -0.025725 197197.000000 0 0 1
22.460877 32.412918 33.986266 52.059145 0.964810 0.859469 0.035038 -0.004407 327359.000000 0 0 1
22.756777 31.083028 -34.245491 51.543954 0.938831 2.297479 0.028986 0.001555 -882713.000000 0 0 1
23.999677 30.904248 -33.679643 51.627274 0.910499 2.281492 0.026122 0.019344 -870142.000000 0 0 1
24.299377 29.441308 -33.579723 50.841402 0.880788 2.292254 0.030978 0.011976 -194912.000000 0 0 1
24.570377 28.801468 33.679643 50.670962 0.864508 0.843740 0.040760 0.009690 208855.000000 0 0 1
24.061377 27.470128 33.728577 49.710911 0.851451 0.825085 0.045866 -0.001367 -5291.670000 0 0 1
24.293377 26.565788 32.513112 48.507852 0.830049 0.836231 0.070298 -0.013175 -475466.000000 0 0 1
25.585677 26.047078 32.457432 48.852452 0.794334 0.844109 0.061818 -0.019706 -421819.000000 0 0 1
25.862077 25.298408 31.276373 47.823300 0.774381 0.857938 0.080111 -0.029610 -823384.000000 0 0 1
27.236177 24.723358 31.491613 48.422882 0.737075 0.862757 0.057990 -0.021920 -1112860.000000 0 0 1
27.167877 23.870098 32.552108 48.657115 0.720874 0.837920 0.064123 -0.023439 295402.000000 0 0 1
28.269277 24.008208 33.436576 49.935465 0.704069 0.837132 0.066656 -0.024895 -700633.000000 0 0 1
28.010177 23.331028 -33.732193 49.666565 0.694511 2.317432 0.047552 -0.027047 -11795.800000 0 0 1
26.971077 23.904238 -32.934513 48.821447 0.725190 2.311207 0.049198 -0.017631 1330740.000000 0 0 1
25.605777 23.585348 -33.273133 48.156265 0.744348 2.333586 0.058639 -0.012039 765718.000000 0 0 1
25.128377 22.065928 -33.187813 47.114450 0.720599 2.352386 0.054647 -0.013350 -658448.000000 0 0 1
24.982877 21.538828 -31.867233 45.864864 0.711502 2.338948 0.044756 -0.024870 209586.000000 0 0 1
24.804277 20.130828 -31.892813 45.140380 0.681766 2.355372 0.047642 -0.012242 -100044.000000 0 0 1
24.601477 19.439328 -30.527913 43.761554 0.668718 2.342834 0.051544 -0.015862 -416487.000000 0 0 1
23.409077 19.757628 -29.876783 42.789846 0.701010 2.343706 0.048602 -0.010840 -267634.000000 0 0 1
23.235877 18.920428 -28.747963 41.525100 0.683386 2.335472 0.054412 -0.008135 -20630.600000 0 0 1
21.981277 19.199928 -27.899393 40.375610 0.717961 2.333663 0.070295 -0.011762 -100411.000000 0 0 1
22.048877 18.721128 -26.584873 39.285991 0.703956 2.314069 0.075488 -0.010309 202934.000000 0 0 1
22.840977 19.432328 -25.618973 39.441823 0.704939 2.277773 0.064359 -0.013132 239982.000000 0 0 1
22.943177 18.632928 -24.290813 38.257273 0.682096 2.258718 0.068907 0.003968 105420.000000 0 0 1
23.684977 17.429728 -24.423313 38.226585 0.634415 2.263876 0.079867 -0.006604 228353.000000 0 0 1
23.723277 16.687228 -23.294113 37.200445 0.613012 2.247438 0.084384 -0.009296 26771.900000 0 0 1
24.647877 15.414328 -23.507113 37.385876 0.558874 2.250767 0.094582 -0.012823 -117385.000000 0 0 1
25.950377 15.821828 -23.165413 38.215032 0.547518 2.222052 0.104952 -0.016654 -44047.900000 0 0 1
26.922877 14.762928 -23.080813 38.412358 0.501569 2.215385 0.103126 -0.025789 412885.000000 0 0 1
26.859577 13.821428 -21.862013 37.288287 0.475244 2.197277 0.097546 -0.020716 -1021940.000000 0 0 1
25.706177 13.053628 -21.895713 36.202583 0.469869 2.220325 0.089744 -0.018608 -593621.000000 0 0 1
25.468977 12.368628 -20.655913 35.047375 0.452090 2.201077 0.068000 -0.020632 533125.000000 0 0 1
23.995777 11.812528 -20.573013 33.742881 0.457449 2.226478 0.063250 -0.011074 260791.000000 0 0 1
23.124677 12.849228 -20.349313 33.375858 0.507171 2.226480 0.079390 -0.010428 -360656.000000 0 0 1
21.855477 12.470828 -20.896713 32.708654 0.518524 2.263830 0.074331 -0.010936 861455.000000 0 0 1
20.715477 13.532328 -20.808313 32.330184 0.578655 2.270014 0.073960 -0.012605 -172541.000000 0 0 1
20.906277 14.649228 -21.627513 33.457759 0.611202 2.273669 0.068581 -0.006786 756943.000000 0 0 1
19.800777 15.587128 -21.713113 33.263923 0.666886 2.282009 0.061769 -0.001659 775208.000000 0 0 1
18.613677 15.210328 -22.622213 33.008901 0.685116 2.325862 0.060409 0.013152 -692147.000000 0 0 1
17.644177 14.446728 -22.012113 31.694764 0.686089 2.338525 0.047025 0.004744 -450903.000000 0 0 1
16.463777 14.482328 -22.779313 31.617889 0.721456 2.375257 0.050152 -0.016317 -189000.000000 0 0 1
15.270277 13.651828 -22.279113 30.264049 0.729498 2.398172 0.030606 -0.015010 -407159.000000 0 0 1
14.173177 13.981228 -23.072113 30.474187 0.778581 2.429664 0.034282 -0.019093 -518243.000000 0 0 1
13.001977 13.325428 -22.581313 29.266604 0.797683 2.452106 0.052468 -0.017237 293409.000000 0 0 1
11.739277 13.762328 -23.353613 29.539863 0.864563 2.482551 0.049649 -0.016001 -131075.000000 0 0 1
11.412877 15.142128 -23.272813 30.019354 0.924921 2.457923 0.026770 -0.008023 295035.000000 0 0 1
10.773977 15.639028 -24.488513 30.989434 0.967548 2.481966 0.036395 -0.023342 -416452.000000 0 0 1
10.745077 17.219028 -24.473913 31.795031 1.012900 2.449230 0.031258 -0.016550 1015480.000000 0 0 1
12.024677 17.886728 -24.264113 32.454200 0.978926 2.415300 0.031168 -0.020966 1901800.000000 0 0 1
13.148277 17.616028 -25.149133 33.401804 0.929615 2.423295 0.033800 -0.025095 543731.000000 0 0 1
12.977877 17.794128 -26.661533 34.581695 0.940653 2.451163 0.042473 -0.036935 -150957.000000 0 0 1
14.122277 17.377628 -27.409633 35.393624 0.888377 2.456599 0.034703 -0.036084 438730.000000 0 0 1
13.672777 16.891328 -28.673623 35.978305 0.890316 2.493058 0.046247 -0.038494 -211858.000000 0 0 1
14.642577 17.089828 -29.851623 37.384311 0.862367 2.495607 0.046090 -0.022288 765178.000000 0 0 1
15.851777 16.299228 -29.803823 37.486151 0.799314 2.489907 0.023690 -0.020945 1047740.000000 0 0 1
16.655577 16.401428 -31.001273 38.826460 0.777710 2.495525 0.023845 -0.011643 686912.000000 0 0 1
17.915677 15.482728 -31.044713 39.044341 0.712680 2.489992 0.034451 -0.009853 -71578.200000 0 0 1
18.952877 15.998428 -30.265143 39.129786 0.701068 2.455071 0.048870 -0.014035 141257.000000 0 0 1
20.156677 15.243828 -30.360563 39.502275 0.647500 2.447411 0.062725 -0.016035 1071490.000000 0 0 1
21.382277 15.946428 -31.053793 40.936883 0.640793 2.431923 0.064664 -0.012148 336086.000000 0 0 1
21.265777 16.175728 -32.424753 42.014903 0.650280 2.452376 0.062221 -0.007651 141944.000000 0 0 1
22.517877 16.599628 -32.899243 43.185213 0.635243 2.436910 0.062546 -0.002941 20530.500000 0 0 1
22.242677 17.396528 -34.137618 44.302966 0.663745 2.450499 0.038522 0.019150 -309788.000000 0 0 1
23.321577 18.152228 33.910130 44.981066 0.661396 0.716855 0.051989 0.009407 -386326.000000 0 0 1
23.191477 18.605228 32.604503 44.125421 0.676108 0.739352 0.070842 0.004058 120271.000000 0 0 1
24.061177 19.899928 32.281273 44.911335 0.691022 0.768753 0.082871 0.003163 1165230.000000 0 0 1
25.438477 19.561728 32.089133 45.381602 0.655539 0.785414 0.057227 -0.004699 187115.000000 0 0 1
26.257877 20.704628 32.010743 46.290878 0.667696 0.807215 0.049854 -0.018043 -57362.800000 0 0 1
27.721777 20.300428 31.781313 46.804446 0.632071 0.824365 0.042780 -0.020932 -142174.000000 0 0 1
28.366577 19.593128 32.836688 47.610938 0.604465 0.809738 0.029697 -0.014849 -126899.000000 0 0 1
29.747977 19.466828 32.555152 48.205160 0.579456 0.829363 0.020810 -0.012582 152678.000000 0 0 1
30.472777 18.934428 33.819245 49.303591 0.555974 0.814903 0.010015 -0.014485 -158056.000000 0 0 1
30.505677 19.730628 -33.533653 49.440873 0.574112 2.316185 0.008647 -0.019516 -293669.000000 0 0 1
29.382477 19.586928 -32.716393 48.138758 0.587970 2.318050 0.010492 -0.024182 -500551.000000 0 0 1
29.634177 20.061728 -31.275813 47.527191 0.595108 2.289038 0.032795 -0.021138 -218268.000000 0 0 1
30.473977 19.164228 -30.605103 47.250431 0.561379 2.275386 0.034545 -0.025929 -203418.000000 0 0 1
30.977977 19.731528 -29.423423 47.060664 0.567149 2.246214 0.022532 -0.021151 79283.700000 0 0 1
32.426377 19.253928 -29.159183 47.670133 0.535829 2.228987 0.043357 -0.014248 49898.900000 0 0 1
33.418677 19.803228 -29.977053 49.067296 0.534946 2.228041 0.005585 -0.006845 -93642.600000 0 0 1
34.696977 19.662528 -29.381303 49.535403 0.515569 2.205747 0.016591 -0.003096 923417.000000 0 0 1
35.877477 20.536628 -29.950203 51.048615 0.519886 2.197774 0.004795 -0.008123 582353.000000 0 0 1
-35.618379 19.966728 -30.948763 51.236365 -0.510925 2.219356 -0.012604 -0.009155 210736.000000 0 0 1
-34.604679 20.906728 -31.326883 51.146346 -0.543472 2.230009 -0.000244 -0.015209 583571.000000 0 0 1
-33.658179 20.369828 -32.471853 51.012000 -0.544232 2.260817 -0.008822 -0.022809 329513.000000 0 0 1
-32.943879 19.170128 -32.153373 49.866145 -0.527006 2.271550 0.007457 -0.018038 228251.000000 0 0 1
-32.092779 18.797228 -33.201403 49.855947 -0.529850 2.299558 0.012446 -0.013866 -149300.000000 0 0 1
-31.356479 17.466428 -32.961243 48.731391 -0.508223 2.313642 0.006711 -0.007970 -344359.000000 0 0 1
-32.213479 16.368128 -32.993113 48.930250 -0.470118 2.310797 0.011127 -0.007373 229064.000000 0 0 1
-31.487279 15.163728 -33.140273 48.162902 -0.448805 2.329646 0.017758 -0.002991 302458.000000 0 0 1
-32.561079 14.052628 -33.329553 48.667847 -0.407429 2.325177 0.014242 -0.005056 -21584.200000 0 0 1
-32.083679 12.765828 -33.442753 48.070225 -0.378688 2.340199 0.038982 -0.019270 -133141.000000 0 0 1
-33.101079 11.827628 -33.690533 48.689077 -0.343180 2.334987 0.045635 -0.020823 -330535.000000 0 0 1
-32.548779 10.401728 -33.787013 48.053941 -0.309316 2.350552 0.055082 -0.016157 31730.600000 0 0 1
-31.804579 10.079328 33.521410 47.294916 -0.306901 0.783037 0.045084 -0.015059 322288.000000 0 0 1
-32.052379 8.774928 33.033384 46.856791 -0.267221 0.788393 0.063637 -0.023130 328451.000000 0 0 1
-30.848179 8.223528 32.171893 45.324025 -0.260522 0.781554 0.085335 -0.017947 876970.000000 0 0 1
-29.709779 7.957428 32.983124 45.098538 -0.261696 0.750487 0.058852 -0.009121 166088.000000 0 0 1
-28.744579 7.250228 32.203983 43.771145 -0.247076 0.744044 0.060057 -0.009367 145271.000000 0 0 1
20.935177 -4.270677 -32.123103 38.579970 -0.201234 2.554648 0.073859 -0.034649 -499142.000000 0 0 1
22.240777 -4.239777 -32.614163 39.702789 -0.188371 2.534759 0.059158 -0.042233 -689719.000000 0 0 1
23.033977 -3.209777 -32.110763 39.648050 -0.138458 2.514770 0.063044 -0.038466 -305354.000000 0 0 1
22.723777 -1.677477 -32.385043 39.597664 -0.073687 2.528465 0.067162 -0.028741 224043.000000 0 0 1
23.823977 -0.843177 -31.929813 39.847281 -0.035377 2.500269 0.075420 -0.035290 894225.000000 0 0 1
23.774577 0.492923 -32.274433 40.088808 0.020730 2.506596 0.053871 -0.036103 -212366.000000 0 0 1
24.906177 1.376123 -31.663713 40.308834 0.055196 2.474345 0.057415 -0.031248 392322.000000 0 0 1
26.169977 1.037623 -32.218853 41.521065 0.039629 2.459038 0.058135 -0.038384 -721045.000000 0 0 1
27.116877 1.793723 -31.536403 41.630363 0.066052 2.430323 0.068593 -0.032827 569146.000000 0 0 1
28.583477 1.567223 -32.104853 43.013869 0.054775 2.413408 0.070066 -0.035811 781398.000000 0 0 1
28.852277 2.235123 -33.329793 44.139832 0.077313 2.426596 0.068682 -0.032409 36382.300000 0 0 1
29.006277 1.249523 34.132717 44.810354 0.043051 0.704840 0.044836 -0.028355 -229274.000000 0 0 1
29.459077 1.859623 32.764565 44.100024 0.063042 0.733314 0.043067 -0.030884 -735340.000000 0 0 1
28.669277 2.820723 32.196693 43.203136 0.098073 0.729902 0.038185 -0.021950 -337026.000000 0 0 1
28.767677 4.147623 32.808205 43.831043 0.143190 0.724976 0.043400 -0.017088 -8146.760000 0 0 1
28.176077 5.186523 31.836373 42.829266 0.182038 0.732758 0.047129 -0.013737 -11089.200000 0 0 1
28.229577 6.534723 32.255113 43.359012 0.227478 0.731897 0.039265 -0.008057 211141.000000 0 0 1
27.459977 7.456023 31.478413 42.432689 0.265131 0.734981 0.028261 -0.008019 -236100.000000 0 0 1
27.837277 8.931823 31.774233 43.177463 0.310481 0.743804 0.029063 -0.001026 -546588.000000 0 0 1
29.119077 9.230123 31.346573 43.768978 0.306960 0.772479 0.023786 -0.001618 -825640.000000 0 0 1
29.263477 10.631923 31.334343 44.172728 0.348489 0.782207 0.028584 0.002775 66639.300000 0 0 1
30.643377 11.045823 30.754213 44.797861 0.345966 0.814117 0.029312 0.008441 -223326.000000 0 0 1
31.632077 10.888623 31.753383 46.124047 0.331523 0.811468 0.041985 -0.010274 -1062430.000000 0 0 1
32.890977 10.890223 31.190823 46.618460 0.319740 0.837845 0.048463 -0.010325 -654474.000000 0 0 1
33.625677 12.289023 31.309043 47.560093 0.350386 0.852232 0.053068 -0.008969 -446186.000000 0 0 1
33.860177 12.595623 32.624858 48.677948 0.356129 0.836293 0.052771 -0.012296 -33856.400000 0 0 1
34.186677 13.957223 32.928667 49.475550 0.387611 0.842560 0.060365 -0.004973 -618106.000000 0 0 1
33.206477 15.058123 32.638532 48.935580 0.425735 0.840662 0.054980 -0.015256 -1845390.000000 0 0 1
33.028077 15.349023 31.263433 47.998423 0.435033 0.861443 0.042952 -0.020813 436459.000000 0 0 1
32.023677 16.356423 31.110593 47.549106 0.472219 0.857562 0.035972 -0.018654 1042800.000000 0 0 1
30.554477 15.856623 31.384603 46.583279 0.478702 0.831550 0.029086 -0.011226 -362837.000000 0 0 1
30.044977 15.036423 30.358233 45.281530 0.464019 0.836004 0.024406 0.000010 92137.000000 0 0 1
28.728077 14.650023 30.689883 44.517351 0.471580 0.810148 0.012708 -0.001860 233371.000000 0 0 1
27.773377 14.088223 29.635483 42.989538 0.469436 0.810184 0.012113 0.006718 157596.000000 0 0 1
28.311477 12.889623 29.088613 42.589077 0.427235 0.818926 0.007985 0.006460 500558.000000 0 0 1
27.366277 12.407323 28.125373 41.156912 0.425661 0.818428 0.008510 0.003069 615619.000000 0 0 1
27.022377 10.867323 28.149983 40.505915 0.382367 0.802432 0.009553 0.012141 282408.000000 0 0 1
28.072277 10.116023 27.562843 40.621386 0.345871 0.825036 0.010625 0.009088 36973.400000 0 0 1
27.575477 8.817323 27.215213 39.734367 0.309478 0.816290 0.014264 0.010093 454437.000000 0 0 1
28.611977 7.768123 26.671923 39.879574 0.265108 0.838187 0.020729 0.002632 218041.000000 0 0 1
28.974277 8.043023 25.328243 39.315631 0.270774 0.870782 0.020380 0.006041 29003.600000 0 0 1
29.855277 7.000223 24.953563 39.535060 0.230311 0.887728 0.011949 0.014464 82375.700000 0 0 1
30.558377 7.153923 23.556013 39.241289 0.229965 0.926937 0.032160 0.011615 -51049.600000 0 0 1
31.357677 8.279123 23.328723 39.950934 0.258132 0.947230 0.032106 0.005161 195991.000000 0 0 1
30.686177 9.501823 22.993923 39.505020 0.300282 0.949548 0.039265 0.001045 -211385.000000 0 0 1
30.318477 9.685523 21.503723 38.411320 0.309212 0.976618 0.038940 0.006073 102511.000000 0 0 1
31.401977 10.083323 20.695923 38.936856 0.310705 1.010396 0.042223 -0.004151 337353.000000 0 0 1
31.014377 9.838723 19.374423 37.868989 0.307189 1.033730 0.047908 -0.014139 -747345.000000 0 0 1
31.892677 10.602423 18.298523 38.267351 0.320947 1.072220 0.053953 -0.029482 118749.000000 0 0 1
33.129777 10.063123 17.959223 39.004900 0.294892 1.092311 0.064474 -0.024520 -655875.000000 0 0 1
34.073477 10.035823 18.983723 40.275319 0.286435 1.079977 0.059829 -0.009487 -2420660.000000 0 0 1
35.393177 9.547923 18.478823 41.052487 0.263495 1.103889 0.069780 -0.014437 -1374560.000000 0 0 1
35.316977 8.239623 17.917023 40.449969 0.229205 1.111918 0.067642 -0.024128 -720965.000000 0 0 1
-35.786879 7.731623 17.507723 40.583236 -0.212776 1.124749 0.067891 -0.017540 -1137240.000000 0 0 1
-35.910379 6.210623 17.277723 40.331711 -0.171254 1.128085 0.064963 -0.015700 -346285.000000 0 0 1
35.313677 5.996723 16.401723 39.395850 0.168208 1.141390 0.049516 -0.012487 251613.000000 0 0 1
35.461877 4.819723 15.673823 39.069722 0.135085 1.157996 0.052244 -0.008920 -937174.000000 0 0 1
34.337177 3.864323 15.888623 38.031869 0.112069 1.139805 0.035255 -0.007716 -1020360.000000 0 0 1
34.081877 3.332223 17.152023 38.299738 0.097461 1.106452 0.034012 -0.002224 345560.000000 0 0 1
32.880177 2.581023 17.254323 37.222028 0.078337 1.088797 0.027714 -0.003692 189847.000000 0 0 1
32.787477 1.817823 18.574723 37.727224 0.055386 1.056017 0.031882 -0.014380 -143050.000000 0 0 1
33.456177 0.578723 18.485223 38.227662 0.017296 1.066083 0.032802 -0.013078 103383.000000 0 0 1
33.366277 -0.128277 19.692323 38.744193 -0.003844 1.037627 0.032512 -0.014860 240054.000000 0 0 1
33.647777 -1.657777 19.593323 38.972034 -0.049229 1.044015 0.036561 -0.001501 141828.000000 0 0 1
33.429177 -2.367377 20.830523 39.459157 -0.070700 1.014669 0.049505 0.000739 -40590.800000 0 0 1
33.849877 -3.718277 20.764723 39.885003 -0.109407 1.023225 0.043901 0.001262 -97091.900000 0 0 1
33.294377 -4.541877 21.953023 40.138254 -0.135579 0.992097 0.043274 0.004358 179941.000000 0 0 1
33.866277 -4.085777 23.185623 41.245502 -0.120064 0.973829 0.044454 -0.001869 401650.000000 0 0 1
33.335677 -4.820977 24.266483 41.513508 -0.143623 0.946478 0.049670 -0.001027 138897.000000 0 0 1
33.647777 -4.135977 25.616303 42.490872 -0.122306 0.923708 0.027615 0.005539 -103689.000000 0 0 1
32.938077 -4.675177 26.695063 42.654432 -0.140997 0.894582 0.041794 0.004709 -197344.000000 0 0 1
33.360377 -4.114877 27.943933 43.711673 -0.122726 0.877237 0.050937 0.004129 -9227.310000 0 0 1
32.464377 -4.449177 29.158803 43.863045 -0.136199 0.843611 0.046702 0.000509 94229.300000 0 0 1
32.453677 -5.850277 29.398453 44.178456 -0.178350 0.842703 0.032084 -0.007822 55366.400000 0 0 1
31.705777 -6.135777 30.573783 44.470892 -0.191159 0.812754 0.038004 -0.013707 23312.400000 0 0 1
31.695277 -7.652077 30.895403 44.918491 -0.236893 0.812328 0.033718 -0.012522 1098150.000000 0 0 1
32.960377 -8.052077 31.480303 46.284251 -0.239603 0.822827 0.035648 -0.010656 841193.000000 0 0 1
33.164277 -9.450477 31.321293 46.585450 -0.277602 0.833430 0.018552 0.002731 269164.000000 0 0 1
34.406577 -9.974577 32.095453 48.098054 -0.282168 0.840229 0.007490 0.006083 477987.000000 0 0 1
34.203977 -9.932177 33.498134 48.894633 -0.282609 0.816044 0.009554 -0.006981 428176.000000 0 0 1
35.485277 -10.021977 34.111731 50.232013 -0.275257 0.824283 0.016120 -0.016884 338325.000000 0 0 1
35.500077 -10.321477 -32.820403 49.436497 -0.282945 2.296805 0.036292 -0.014634 -277313.000000 0 0 1
35.014877 -9.223077 -31.993863 48.318878 -0.257554 2.294467 0.032745 -0.007270 304468.000000 0 0 1
35.736877 -8.028277 -32.065063 48.680036 -0.220981 2.289873 0.039997 -0.004390 -467706.000000 0 0 1
35.241777 -6.962677 -31.123923 47.530625 -0.195057 2.284739 0.049257 -0.003954 -280416.000000 0 0 1
35.598577 -7.147777 -29.783273 46.961609 -0.198153 2.257776 0.057802 -0.005553 105386.000000 0 0 1
35.096277 -6.065177 -29.090803 45.987062 -0.171125 2.255685 0.063297 -0.012112 -212123.000000 0 0 1
35.567077 -5.929277 -27.634633 45.429574 -0.165188 2.224708 0.060122 -0.015545 -380853.000000 0 0 1
-35.384879 -5.677577 -27.406923 45.116117 0.159096 2.223675 0.063766 -0.009336 -626024.000000 0 0 1
-35.130379 -5.239377 -26.130443 44.095291 0.148050 2.205067 0.064069 -0.012376 63027.600000 0 0 1
-33.639079 -5.004077 -25.816363 42.697928 0.147675 2.220095 0.064026 -0.014921 -819150.000000 0 0 1
-33.534379 -4.440877 -24.535713 41.788481 0.131662 2.198318 0.069700 -0.006705 358029.000000 0 0 1
-32.195179 -4.278377 -24.100413 40.443343 0.132115 2.209189 0.073631 -0.006384 314008.000000 0 0 1
-31.343779 -3.185977 -24.792013 40.090234 0.101298 2.237508 0.068201 0.004274 -529859.000000 0 0 1
-30.834979 -3.621877 -26.023713 40.511080 0.116924 2.268403 0.065571 0.009261 -94501.700000 0 0 1
-29.954879 -2.714677 -26.678573 40.204608 0.090379 2.296377 0.057485 0.007592 316428.000000 0 0 1
-29.178679 -3.397377 -27.809223 40.451086 0.115912 2.328806 0.046397 0.011782 -276442.000000 0 0 1
-30.038779 -3.786077 -28.830123 41.807160 0.125379 2.331730 0.055567 0.016730 -363501.000000 0 0 1
-29.445979 -4.694377 -29.711653 42.093767 0.158093 2.354411 0.048808 0.006629 -480848.000000 0 0 1
-30.308179 -5.055577 -30.992333 43.642517 0.165284 2.360495 0.032825 0.007967 410889.000000 0 0 1
-31.521279 -5.768677 -30.809473 44.453260 0.181006 2.336543 0.034211 0.002258 470801.000000 0 0 1
-32.647779 -5.137577 -30.239433 44.796155 0.156084 2.311822 0.052055 0.001931 -438503.000000 0 0 1
-33.444379 -4.132177 -31.103463 45.858770 0.122931 2.316167 0.069713 0.004435 -878684.000000 0 0 1
-32.852579 -3.072877 -31.822723 45.841250 0.093264 2.338096 0.077585 0.013005 -250246.000000 0 0 1
-32.343979 -2.042977 -31.015273 44.858153 0.063080 2.334232 0.058314 0.016794 -135921.000000 0 0 1
-32.196379 -0.704777 -31.809443 45.265265 0.021886 2.350029 0.066840 0.025260 800411.000000 0 0 1
-33.435779 0.008423 -31.979643 46.267148 -0.000252 2.333938 0.069341 0.013031 738847.000000 0 0 1
-33.158179 1.301923 -32.384573 46.367234 -0.039244 2.344007 0.063898 0.012128 483840.000000 0 0 1
-34.440779 2.188223 -32.540783 47.432670 -0.063451 2.326831 0.068186 0.005967 354594.000000 0 0 1
-35.138379 1.786123 -33.692553 48.714310 -0.050787 2.334548 0.066011 0.001395 271823.000000 0 0 1
35.879477 2.414723 -33.696573 49.281100 0.067200 2.323703 0.056217 0.000077 343217.000000 0 0 1
34.994877 2.051623 33.569690 48.536323 0.058559 0.807038 0.046563 -0.002375 -123955.000000 0 0 1
35.407877 2.440623 32.244783 47.952064 0.068820 0.833299 0.038131 -0.000274 320445.000000 0 0 1
-35.861479 1.614323 31.733693 47.913245 -0.044985 0.846891 0.036911 0.000780 -56079.500000 0 0 1
-35.597579 1.704023 30.208893 46.719039 -0.047833 0.867667 0.044026 -0.003234 -88041.000000 0 0 1
-35.047579 2.959423 29.824373 46.114902 -0.084240 0.867493 0.049760 -0.005511 235868.000000 0 0 1
-35.105979 3.158923 28.402563 45.267142 -0.089741 0.892531 0.045940 -0.007099 -1157.110000 0 0 1
-34.399879 4.485123 28.119353 44.656086 -0.129651 0.889646 0.050748 -0.004488 -305876.000000 0 0 1
-34.035679 4.746223 26.796823 43.577790 -0.138555 0.908513 0.053560 -0.000613 106067.000000 0 0 1
-33.422279 5.990823 26.667193 43.174968 -0.177363 0.905040 0.060983 -0.003844 -620947.000000 0 0 1
-32.504479 6.059923 25.453563 41.727062 -0.184317 0.914734 0.058866 -0.003797 -612230.000000 0 0 1
-31.423579 5.158323 25.522963 40.810186 -0.162703 0.895144 0.061570 -0.004599 701327.000000 0 0 1
-30.486879 5.291323 24.406113 39.409469 -0.171849 0.902951 0.058958 -0.010022 759781.000000 0 0 1
-31.046279 4.933823 22.994723 38.948316 -0.157600 0.939254 0.056993 -0.012226 -186851.000000 0 0 1
-31.292979 3.559123 22.789923 38.875423 -0.113249 0.944399 0.049641 -0.005664 228560.000000 0 0 1
-32.021179 3.385123 21.562023 38.752236 -0.105324 0.980741 0.055698 -0.005747 -193246.000000 0 0 1
-31.982079 1.880923 21.204423 38.418990 -0.058744 0.986125 0.054577 -0.001055 213008.000000 0 0 1
-30.898679 1.335623 20.450823 37.077600 -0.043199 0.986553 0.081631 -0.002294 186784.000000 0 0 1
-30.602279 1.917323 19.206723 36.181125 -0.062571 1.011194 0.081259 -0.003461 448261.000000 0 0 1
-29.257879 1.336323 18.625423 34.709014 -0.045642 1.004374 0.081272 -0.007749 503962.000000 0 0 1
-29.385679 -0.049477 18.261823 34.597901 0.001684 1.014752 0.090482 -0.008727 53688.100000 0 0 1
-28.202079 -0.661777 17.795723 33.353905 0.023461 1.008013 0.099311 -0.015930 -133162.000000 0 0 1
-27.854379 -0.456777 16.301323 32.277054 0.016397 1.041364 0.098757 -0.009895 -159500.000000 0 0 1
-27.492879 0.849523 15.981423 31.811727 -0.030890 1.044453 0.106344 -0.009806 214714.000000 0 0 1
-27.493779 0.931223 14.549823 31.120290 -0.033857 1.084296 0.108633 -0.010901 271.742000 0 0 1
-26.914079 2.276223 14.044323 30.443256 -0.084373 1.091305 0.106241 -0.010025 754603.000000 0 0 1
-25.486779 2.408823 14.097423 29.225258 -0.094233 1.067437 0.096852 -0.015803 751632.000000 0 0 1
-25.161079 3.692323 13.601523 28.839462 -0.145707 1.079659 0.089766 -0.012740 283265.000000 0 0 1
-23.642479 3.885923 13.315723 27.411233 -0.162905 1.063545 0.082328 -0.012794 185643.000000 0 0 1
-22.934879 4.159923 14.503223 27.452816 -0.179429 1.014204 0.070842 -0.007574 231504.000000 0 0 1
-21.579979 4.435823 14.170723 26.195065 -0.202729 0.999207 0.053965 -0.009120 164543.000000 0 0 1
-20.805279 5.096723 15.323023 26.336880 -0.240241 0.949846 0.047268 -0.010557 -357153.000000 0 0 1
-21.074679 6.515523 15.418523 26.913287 -0.299842 0.960761 0.044177 -0.004831 517918.000000 0 0 1
-20.503879 6.953323 16.635823 27.303999 -0.326952 0.915642 0.038166 -0.004121 29878.800000 0 0 1
-20.829679 8.415123 16.997023 28.170705 -0.383947 0.923091 0.044478 -0.004938 128490.000000 0 0 1
-19.979979 9.243623 16.165523 27.312420 -0.433319 0.937414 0.031533 0.000184 886360.000000 0 0 1
-20.088579 10.632123 16.456823 28.061006 -0.486782 0.944108 0.042242 0.002177 -265279.000000 0 0 1
-19.676079 11.160823 17.863823 28.824091 -0.515974 0.902368 0.049594 0.000028 -209635.000000 0 0 1
-20.362379 10.681023 19.009823 29.834277 -0.483092 0.879962 0.065046 -0.007245 454165.000000 0 0 1
-19.745479 11.276823 20.144123 30.378222 -0.518905 0.845829 0.074592 -0.014841 -155658.000000 0 0 1
-12.366223 -33.405082 -20.378113 41.037671 1.216249 2.090440 0.118382 -0.029580 -22291.600000 0 0 1
-13.124423 -33.917782 -19.289213 41.167222 1.201592 2.058454 0.134490 -0.022638 522830.000000 0 0 1
-14.373023 -33.184382 -19.245313 40.965462 1.162063 2.059853 0.114705 -0.049780 82307.700000 0 0 1
-15.426223 -33.991582 -18.525913 41.672599 1.144766 2.031478 0.100505 -0.038678 -1882310.000000 0 0 1
-15.851723 33.560323 -19.361213 41.862023 -1.129524 2.051610 0.092986 -0.047577 -71631.100000 0 0 1
-16.572123 32.516623 -18.712913 41.013890 -1.099458 2.044582 0.083551 -0.043226 1477830.000000 0 0 1
-18.047023 32.932723 -18.250413 41.753286 -1.069492 2.023170 0.085793 -0.042889 395752.000000 0 0 1
-18.076323 34.122123 -17.437313 42.369005 -1.083630 1.994959 0.087280 -0.035727 -1114960.000000 0 0 1
-19.347723 -34.202882 -16.980213 42.807700 1.055998 1.978675 0.054553 -0.032205 -637795.000000 0 0 1
-19.677123 33.828423 -15.582413 42.123188 -1.043961 1.949724 0.067541 -0.038298 -443645.000000 0 0 1
-19.475923 32.437123 -15.605813 40.927007 -1.030067 1.962008 0.067345 -0.043201 46629.800000 0 0 1
-20.110423 31.813523 -14.534113 40.345629 -1.007083 1.939322 0.075910 -0.034409 -33762.900000 0 0 1
-19.991423 30.223123 -14.553713 39.050028 -0.986406 1.952707 0.073114 -0.036477 190164.000000 0 0 1
-18.714923 29.824323 -14.072313 37.917919 -1.010397 1.951017 0.063502 -0.040110 196203.000000 0 0 1
-18.639823 28.472123 -13.679713 36.677505 -0.991146 1.953007 0.051043 -0.040633 -138323.000000 0 0 1
-17.259423 27.955123 -13.222013 35.414661 -1.017683 1.953412 0.076962 -0.033902 -314389.000000 0 0 1
-16.256823 28.133823 -14.179113 35.451989 -1.046831 1.982261 0.082392 -0.040576 -831394.000000 0 0 1
-15.126023 27.416023 -13.751813 34.198644 -1.066632 1.984623 0.095843 -0.041687 -131041.000000 0 0 1
-13.853023 27.833423 -14.525713 34.316206 -1.108981 2.007870 0.096590 -0.039136 -424146.000000 0 0 1
-13.972323 27.643423 -15.875513 34.805410 -1.102800 2.044429 0.085186 -0.040580 488139.000000 0 0 1
-12.839923 28.227023 -16.529813 35.140620 -1.143891 2.060530 0.090444 -0.037391 327644.000000 0 0 1
-13.105523 28.262723 -18.060913 36.010177 -1.136605 2.096186 0.103172 -0.047669 38189.900000 0 0 1
-12.986423 27.022223 -18.723413 35.347050 -1.122803 2.129046 0.092400 -0.045800 142154.000000 0 0 1
-13.193923 27.009823 -20.162013 36.195537 -1.116402 2.161602 0.083358 -0.047166 -452255.000000 0 0 1
-12.540523 25.818023 -20.764813 35.426155 -1.118632 2.197087 0.062616 -0.037948 782016.000000 0 0 1
-11.145323 26.089223 -21.044813 35.323504 -1.167064 2.209025 0.047810 -0.032451 787372.000000 0 0 1
-10.490723 24.988423 -21.619213 34.667952 -1.173319 2.244146 0.048055 -0.028772 506553.000000 0 0 1
-9.272823 25.475623 -22.465513 35.209259 -1.221715 2.262768 0.068845 -0.031737 524956.000000 0 0 1
-9.806023 26.211723 -23.562113 36.583954 -1.212808 2.270585 0.063111 -0.028652 -208869.000000 0 0 1
-8.778323 26.592323 -24.395213 37.139427 -1.251952 2.287436 0.043923 -0.028895 -640351.000000 0 0 1
-9.268123 27.311323 -25.693953 38.626231 -1.243640 2.298550 0.054175 -0.023459 -233470.000000 0 0 1
-9.836123 26.447223 -26.632363 38.800614 -1.214733 2.327310 0.036191 -0.017749 -299462.000000 0 0 1
-10.139223 27.096923 -27.825263 40.140906 -1.212742 2.336702 0.053631 -0.013933 -705409.000000 0 0 1
-11.427723 26.541023 -28.375153 40.498988 -1.164219 2.347088 0.032596 -0.009557 -689016.000000 0 0 1
-11.846623 27.131223 -29.566203 41.840245 -1.159107 2.355542 0.046290 -0.009858 -887660.000000 0 0 1
-13.084923 26.607223 -29.901223 42.109888 -1.113746 2.360403 0.040613 -0.003398 -866438.000000 0 0 1
-13.377123 26.785223 -31.431653 43.409036 -1.107611 2.380497 0.034126 -0.010716 61212.900000 0 0 1
-12.538923 26.252723 -32.479513 43.604459 -1.125209 2.411131 0.034719 -0.008560 194291.000000 0 0 1
-12.477423 24.821223 -32.408613 42.686033 -1.104998 2.432929 0.032044 -0.016175 40673.300000 0 0 1
-11.644423 24.261423 -33.576023 43.029740 -1.123312 2.465939 0.017951 -0.008557 193944.000000 0 0 1
-12.287723 24.438323 33.661014 43.373767 -1.104907 0.682389 0.013086 -0.004300 113674.000000 0 0 1
-11.674223 23.614623 32.678907 41.974384 -1.111668 0.678454 0.002895 -0.002936 -206853.000000 0 0 1
-12.333223 23.660623 31.276653 41.111586 -1.090289 0.706290 0.000187 0.012405 -657906.000000 0 0 1
-13.567423 23.023823 31.182953 41.067602 -1.038298 0.708548 0.017740 -0.006797 -492872.000000 0 0 1
-13.958823 22.903723 29.815553 40.104819 -1.023453 0.732596 0.026169 -0.003991 1003740.000000 0 0 1
-15.187623 21.908023 29.656333 39.876352 -0.964618 0.732197 0.030881 -0.012549 825282.000000 0 0 1
-14.784723 20.608023 29.800153 39.132183 -0.948471 0.705133 0.008649 -0.012786 -333298.000000 0 0 1
-15.839223 19.695023 29.708093 39.004432 -0.893485 0.704926 0.019125 -0.011159 -152845.000000 0 0 1
-15.309523 18.250023 29.841163 38.182979 -0.872795 0.673681 0.000217 -0.016187 -63718.800000 0 0 1
-14.785323 17.766523 28.617573 36.786147 -0.876727 0.679409 0.006835 -0.017505 -218712.000000 0 0 1
-14.276023 16.502123 28.804933 36.136534 -0.857600 0.648296 -0.003839 -0.031232 -266452.000000 0 0 1
-13.860623 15.849723 27.461083 34.604070 -0.852248 0.654127 0.018288 -0.031271 -235337.000000 0 0 1
-12.834623 16.610723 26.880643 34.105903 -0.912943 0.662995 -0.027605 -0.013287 -264517.000000 0 0 1
-12.496923 16.028023 25.636633 32.715555 -0.908561 0.670321 -0.037526 -0.006696 291848.000000 0 0 1
-11.383423 16.846923 24.896883 32.144299 -0.976568 0.684817 -0.031133 -0.001664 199182.000000 0 0 1
-11.882223 17.847823 24.015863 32.194622 -0.983427 0.728823 -0.033539 -0.001439 45161.200000 0 0 1
-12.419723 19.022623 24.607593 33.490944 -0.992391 0.745493 -0.028314 -0.009516 -257465.000000 0 0 1
-11.395323 19.949323 25.292113 34.168990 -1.051812 0.737419 -0.032453 -0.007662 -126135.000000 0 0 1
-11.025323 19.681223 26.628863 34.899923 -1.060160 0.702845 -0.033851 -0.007385 -160968.000000 0 0 1
-12.054023 19.817623 27.578193 36.036015 -1.024334 0.699296 -0.015355 -0.003022 -417268.000000 0 0 1
-11.711623 19.343323 29.008993 36.781081 -1.026371 0.662116 -0.011742 -0.004608 -170046.000000 0 0 1
-10.574223 20.031023 29.493713 37.187837 -1.085085 0.654913 -0.031840 -0.004179 -66266.800000 0 0 1
-10.643523 20.081623 30.902343 38.360279 -1.083428 0.634140 -0.018829 -0.012255 -18346.100000 0 0 1
-9.555523 20.833123 31.714753 39.129945 -1.140756 0.625794 -0.024236 -0.002575 557632.000000 0 0 1
-8.297723 20.157023 31.768193 38.527599 -1.180284 0.601378 -0.023959 -0.004464 823584.000000 0 0 1
-7.277123 21.019523 32.307203 39.224128 -1.237504 0.602968 -0.006811 -0.004191 1377900.000000 0 0 1
-5.948823 20.287323 32.782598 39.008495 -1.285563 0.572782 -0.007306 -0.003020 666446.000000 0 0 1
-6.110923 19.391323 33.863458 39.498109 -1.265511 0.540709 -0.009574 -0.007433 230372.000000 0 0 1
-4.865423 18.975223 -34.081910 39.310406 -1.319795 2.619936 -0.006704 -0.003753 683976.000000 0 0 1
-4.093523 17.865823 33.626150 38.297030 -1.345558 0.499055 -0.017056 -0.009484 -240127.000000 0 0 1
-4.804023 16.672623 33.674785 37.882003 -1.290257 0.475773 -0.013068 -0.008728 -219418.000000 0 0 1
-4.441423 15.775123 32.667518 36.547879 -1.296355 0.464986 -0.014112 -0.004659 -484498.000000 0 0 1
-5.235123 14.475123 32.584516 36.037292 -1.223769 0.441320 -0.000422 -0.013537 -181225.000000 0 0 1
-4.673423 13.576823 33.509360 36.456113 -1.239279 0.404829 0.008091 -0.013641 21723.900000 0 0 1
-5.289523 12.340223 33.282178 35.888209 -1.165846 0.383436 0.005810 -0.012546 -69660.000000 0 0 1
-4.415623 11.243923 33.855045 35.945620 -1.196588 0.342730 0.017994 -0.016901 208.241000 0 0 1
-4.256923 11.298323 -33.248003 35.372351 -1.210471 2.793260 0.031218 -0.022885 -563957.000000 0 0 1
-3.633523 10.116423 -32.890453 34.602405 -1.225975 2.825718 0.052125 -0.023181 -124033.000000 0 0 1
-3.807823 9.769523 -31.363813 33.070105 -1.199144 2.818959 0.046640 -0.022051 -143694.000000 0 0 1
-5.089423 9.274523 -31.094113 32.844526 -1.068911 2.813647 0.049187 -0.020823 -474205.000000 0 0 1
-5.169623 8.950323 -29.726043 31.471748 -1.047017 2.806960 0.062110 -0.011262 393246.000000 0 0 1
-6.261923 7.874823 -29.387953 31.062458 -0.899000 2.811747 0.048621 -0.009515 234760.000000 0 0 1
-5.953423 7.110923 -28.248393 29.731804 -0.873767 2.824375 0.046948 -0.000706 88025.800000 0 0 1
-6.905423 6.095323 -27.971113 29.448616 -0.723167 2.823481 0.048582 -0.013777 -244802.000000 0 0 1
-6.665523 5.329523 -26.667373 27.999675 -0.674476 2.831867 0.036889 -0.013051 -304578.000000 0 0 1
-6.798223 6.011323 -25.410273 26.982102 -0.724045 2.798579 0.015931 -0.005308 360667.000000 0 0 1
-5.869223 7.063923 -25.109653 26.736519 -0.877512 2.790949 0.026253 -0.001746 163817.000000 0 0 1
-6.468623 7.973123 -23.975313 26.081208 -0.889201 2.736983 0.006712 0.001872 383218.000000 0 0 1
-6.524823 7.338923 -22.720513 24.751865 -0.844052 2.733631 0.002222 0.001746 258388.000000 0 1 0
-7.805523 7.542223 -22.142313 24.659549 -0.768244 2.685818 0.009794 0.004109 232215.000000 0 1 0
-7.689223 7.684523 -20.589813 23.283394 -0.785092 2.655817 0.013598 -0.001821 -27886.500000 0 1 0
-7.164323 9.007723 -20.260613 23.301481 -0.898895 2.624983 -0.000479 0.002530 227466.000000 0 1 0
-6.974023 9.202023 -18.864213 22.117250 -0.922271 2.592347 0.002304 -0.002528 459321.000000 0 1 0
-8.286523 9.258623 -18.002413 21.874081 -0.840747 2.537472 0.009423 -0.005415 18510.100000 0 1 0
-8.021423 9.351823 -16.632713 20.698960 -0.861827 2.504037 0.011573 -0.006438 876764.000000 0 1 0
-9.201323 9.733223 -15.868613 20.765665 -0.813482 2.440558 0.015053 -0.015383 775244.000000 0 1 0
-9.695623 11.169923 -15.957813 21.758311 -0.855938 2.394124 0.015774 -0.018721 -603475.000000 0 1 0
-8.705923 12.156823 -15.688413 21.672742 -0.949324 2.380203 0.001856 -0.016408 -205433.000000 0 1 0
-8.982523 13.501223 -15.984613 22.770081 -0.983732 2.348999 0.008073 -0.018573 145114.000000 0 1 0
-7.723923 14.419823 -15.829613 22.763280 -1.079040 2.339774 0.017124 -0.015247 296075.000000 0 1 0
-7.282523 14.600823 -14.486213 21.819018 -1.108129 2.296853 0.021636 -0.011043 612255.000000 0 1 0
-8.221623 15.247623 -13.611213 22.030665 -1.076277 2.236777 0.018885 -0.019818 -40541.800000 0 1 0
-7.386623 16.136723 -12.669113 21.805102 -1.141514 2.190773 0.015767 -0.011551 284427.000000 0 1 0
-7.101823 17.402223 -13.155213 22.941946 -1.183328 2.181462 0.032985 -0.009049 127224.000000 0 1 0
-6.076223 17.519723 -14.142613 23.321121 -1.236956 2.222359 0.045155 -0.006449 2833.560000 0 1 0
-5.886523 18.996823 -14.609513 24.677283 -1.270310 2.204363 0.064398 -0.005215 17638.900000 0 1 0
-5.274623 19.803723 -13.629413 24.612395 -1.310494 2.157672 0.057461 -0.013900 -43396.600000 0 1 0
-5.210123 21.129623 -14.077313 25.918663 -1.329040 2.144962 0.058248 -0.015310 -194608.000000 0 0 1
-4.665923 22.109623 -13.037513 26.087986 -1.362812 2.094108 0.058271 -0.018786 -897617.000000 0 0 1
-4.688723 23.459223 -13.435813 27.437936 -1.373529 2.082519 0.044132 -0.020473 1109840.000000 0 0 1
-5.951923 24.189423 -13.606113 28.384501 -1.329534 2.070710 0.057122 -0.024197 1369130.000000 0 0 1
-6.840423 24.220123 -12.318913 28.020731 -1.295538 2.025989 0.057202 -0.033038 -123537.000000 0 0 1
-7.406823 22.917523 -12.032213 26.923002 -1.258198 2.034107 0.067109 -0.031399 301928.000000 0 0 1
-8.274723 22.784923 -10.874313 26.568298 -1.222440 1.992479 0.064175 -0.028094 471316.000000 0 0 1
-7.626023 23.012423 -9.487213 26.033345 -1.250798 1.943812 0.060222 -0.026671 -113769.000000 0 0 1
-7.409023 24.414823 -9.246713 27.138145 -1.276164 1.918487 0.048925 -0.026729 61030.500000 0 0 1
-6.747123 24.512623 -7.979413 26.647015 -1.302197 1.874911 0.051608 -0.031574 218688.000000 0 0 1
-6.338523 25.994523 -7.643313 27.826468 -1.331623 1.849051 0.032964 -0.029268 449767.000000 0 0 1
-5.327623 26.725323 -8.348613 28.501330 -1.374028 1.868076 0.032697 -0.028845 87913.000000 0 0 1
-5.433023 26.832623 -9.780713 29.071803 -1.371019 1.913923 0.033321 -0.025527 -358989.000000 0 0 1
-5.102923 28.244123 -10.282113 30.487574 -1.392053 1.914797 0.025127 -0.022849 158550.000000 0 0 1
-6.132923 29.190923 -10.030813 31.469667 -1.363711 1.895202 0.022508 -0.023403 19372.500000 0 0 1
-7.061523 29.302723 -11.096913 32.119405 -1.334320 1.923557 0.031111 -0.019632 319343.000000 0 0 1
-8.085123 30.429823 -10.732613 33.264581 -1.311099 1.899318 0.027289 -0.016233 810513.000000 0 0 1
-9.184123 30.081423 -9.852813 32.959339 -1.274476 1.874376 0.047865 -0.021886 914734.000000 0 0 1
-10.085323 31.189323 -9.833913 34.222704 -1.258050 1.862256 0.049023 -0.016934 -387773.000000 0 0 1
-11.377123 31.003723 -9.059213 34.245279 -1.219093 1.838522 0.063874 -0.022038 -542034.000000 0 0 1
-12.049923 29.925523 -9.651913 33.673387 -1.187996 1.861507 0.074401 -0.031137 -263463.000000 0 0 1
-13.303823 29.717423 -9.026013 33.787362 -1.149875 1.841222 0.075565 -0.026343 278685.000000 0 0 1
-14.128523 28.558923 -9.618513 33.282774 -1.111386 1.863972 0.079138 -0.026560 104941.000000 0 0 1
-13.913723 27.282623 -9.153013 31.964212 -1.099193 1.861213 0.071057 -0.026785 -296711.000000 0 0 1
-14.971223 26.498123 -9.617013 31.918255 -1.056516 1.876853 0.074397 -0.025151 -117786.000000 0 0 1
-15.149723 25.057323 -9.043813 30.645947 -1.026999 1.870363 0.071290 -0.018920 10255.000000 0 0 1
-14.087423 24.225323 -9.484313 29.585029 -1.044079 1.897136 0.071378 -0.017907 268094.000000 0 0 1
-14.266823 22.933823 -8.949913 28.453531 -1.014295 1.890774 0.069177 -0.014146 -192270.000000 0 0 1
-13.215923 21.895123 -9.353913 27.231466 -1.027733 1.921434 0.072526 -0.011962 -495658.000000 0 0 1
-13.387223 21.481923 -10.706513 27.483089 -1.013503 1.970958 0.071497 -0.008712 760343.000000 0 0 1
-12.376523 20.559223 -11.163113 26.466489 -1.028912 2.006207 0.070175 -0.010838 380569.000000 0 0 1
-12.494923 20.283223 -12.674613 26.984774 -1.018679 2.059742 0.070400 -0.002092 582148.000000 0 0 1
-13.805723 19.770323 -12.922613 27.357953 -0.961209 2.062755 0.074613 0.002648 456916.000000 0 0 1
-13.965623 19.448323 -14.322713 27.900108 -0.948033 2.109888 0.069583 0.009319 713801.000000 0 0 1
-15.385423 18.943623 -14.778313 28.530171 -0.888679 2.115295 0.066844 0.002971 875762.000000 0 0 1
-16.286723 20.036223 -14.910213 29.816472 -0.888261 2.094472 0.050472 0.003700 -603055.000000 0 0 1
-17.579623 19.551723 -15.128513 30.334550 -0.838460 2.092920 0.032666 0.005195 -508574.000000 0 0 1
-18.487923 20.640823 -15.741313 31.869042 -0.840364 2.087409 0.022800 0.005023 -100224.000000 0 0 1
-18.981623 21.613123 -14.823413 32.359893 -0.850131 2.046630 0.035603 -0.009017 264820.000000 0 0 1
-19.205323 22.838823 -15.530113 33.639867 -0.871605 2.050660 0.035445 -0.013635 -236810.000000 0 0 1
-19.739123 24.060223 -14.748413 34.438975 -0.883737 2.013349 0.034209 -0.009800 114291.000000 0 0 1
-21.090223 23.944423 -14.346213 34.984950 -0.848691 1.993325 0.050449 -0.006993 251633.000000 0 0 1
-21.420423 25.089923 -13.513913 35.650591 -0.864131 1.959583 0.047078 -0.026802 -12750.300000 0 0 1
-25.934003 -0.487077 3.553687 26.180880 0.018779 1.434640 0.110495 -0.036427 -98604.100000 0 0 1
-26.342383 0.168223 4.710187 26.760705 -0.006386 1.393863 0.112118 -0.033721 -152971.000000 0 0 1
-27.515053 -0.365577 5.249887 28.013802 0.013286 1.382278 0.109858 -0.034442 -417362.000000 0 0 1
-27.877873 0.479523 6.478087 28.624664 -0.017199 1.342507 0.106407 -0.021627 -350026.000000 0 0 1
-28.217573 1.824423 6.196387 28.947455 -0.064566 1.355071 0.119532 -0.016788 162253.000000 0 0 1
-28.654693 2.590923 7.286087 29.679814 -0.090174 1.322772 0.128256 -0.012072 313984.000000 0 0 1
-27.590683 2.956823 8.383187 28.987349 -0.106760 1.277404 0.141393 -0.013288 529365.000000 0 0 1
-26.878683 1.918823 9.081387 28.436193 -0.071267 1.245742 0.125191 -0.017988 1160220.000000 0 0 1
-25.846693 2.435523 9.961687 27.806807 -0.093952 1.204407 0.117057 -0.024565 638171.000000 0 0 1
-24.852823 1.330923 10.408287 26.977150 -0.053501 1.174701 0.093586 -0.027163 73677.000000 0 0 1
-23.978123 0.809023 9.408687 25.770687 -0.033727 1.197064 0.090804 -0.034515 745775.000000 0 0 1
-24.606823 -0.139277 8.518287 26.039899 0.005660 1.237537 0.085191 -0.025844 142685.000000 0 0 1
-23.570823 -1.130577 7.915987 24.890254 0.047928 1.247140 0.079944 -0.034717 -82360.900000 0 1 0
-22.913523 -1.987277 8.805887 24.627677 0.086513 1.205142 0.087256 -0.038897 169914.000000 0 1 0
-21.780723 -2.613977 8.222987 23.427554 0.119442 1.212161 0.096946 -0.039029 243933.000000 0 1 0
-20.603023 -2.741477 9.211187 22.734252 0.132285 1.153634 0.084225 -0.021735 -54616.900000 0 1 0
-19.880923 -1.594177 9.546887 22.111887 0.080015 1.124360 0.066612 -0.021927 427877.000000 0 1 0
-20.595523 -0.861377 10.524787 23.144949 0.041799 1.098723 0.074756 -0.028394 -298911.000000 0 1 0
-20.001323 0.545123 10.780987 22.728391 -0.027248 1.076582 0.051589 -0.016915 -239114.000000 0 1 0
-20.257723 1.529923 9.822687 22.565487 -0.075380 1.120428 0.046828 -0.016681 49255.800000 0 1 0
-20.851323 2.555923 10.530387 23.498925 -0.121970 1.106133 0.055035 -0.010835 -113712.000000 0 1 0
-21.717223 3.637123 9.797087 24.100817 -0.165936 1.152172 0.050540 -0.015950 -123521.000000 0 1 0
-21.859423 4.817523 10.582487 24.759482 -0.216919 1.129169 0.042648 -0.011967 446003.000000 0 1 0
-22.551823 5.880123 9.949087 25.340578 -0.255059 1.167323 0.045310 -0.012999 -170361.000000 0 0 1
-22.629723 7.155423 10.764987 26.061262 -0.306248 1.144980 0.050506 -0.008658 -460144.000000 0 0 1
-23.398823 6.846323 11.867787 27.114967 -0.284647 1.117775 0.049221 -0.008104 8328.430000 0 0 1
-23.277923 7.827823 12.875587 27.729357 -0.324397 1.087918 0.053977 -0.004003 -94276.400000 0 0 1
-24.200023 7.496723 14.063287 28.976163 -0.300406 1.064044 0.073315 -0.007050 508038.000000 0 0 1
-25.590693 7.525623 13.777187 30.022149 -0.286014 1.094039 0.083132 -0.009064 557841.000000 0 0 1
-26.444013 7.075023 14.826687 31.131534 -0.261424 1.074401 0.083030 -0.009699 727075.000000 0 0 1
-27.906893 6.818823 14.363187 32.118409 -0.239646 1.107170 0.083512 -0.003226 338509.000000 0 0 1
-27.969473 5.656623 13.603787 31.612527 -0.199551 1.125939 0.099033 0.001080 294867.000000 0 0 1
-29.138073 5.725123 12.800387 32.336578 -0.194011 1.163805 0.112540 -0.004818 35277.800000 0 0 1
-29.423613 4.509623 11.915487 32.063446 -0.152082 1.190041 0.133038 -0.003797 -210081.000000 0 0 1
-30.165563 3.497223 12.558987 32.862135 -0.115419 1.178651 0.116319 -0.008898 278617.000000 0 0 1
-30.802863 2.668223 11.599087 33.022335 -0.086407 1.211891 0.115818 -0.002804 350188.000000 0 0 1
-31.967553 1.856423 12.281787 34.295963 -0.058007 1.204552 0.100536 0.001871 229482.000000 0 0 1
-31.554643 0.668523 12.904387 34.097883 -0.021183 1.182674 0.097534 -0.002306 33384.100000 0 0 1
-32.661483 0.016623 13.526087 35.351489 -0.000509 1.178169 0.088983 -0.000541 235836.000000 0 0 1
-32.398613 -1.148277 14.493687 35.511345 0.035427 1.150378 0.070868 -0.009302 -240390.000000 0 0 1
-32.237923 -2.512977 14.013087 35.241529 0.077794 1.161864 0.065168 -0.011133 169677.000000 0 0 1
-32.574833 -3.395677 15.072187 36.053033 0.103867 1.139492 0.063300 -0.010301 -56720.900000 0 0 1
-32.371333 -4.854377 14.663287 35.867536 0.148850 1.149638 0.061429 -0.013159 -145535.000000 0 0 1
-33.264573 -5.224477 13.640187 36.330176 0.155786 1.185913 0.040914 -0.020839 -10088.800000 0 0 1
-33.022553 -6.542177 13.145787 36.140017 0.195580 1.198510 0.047541 -0.022600 -413594.000000 0 0 1
-34.150348 -7.006977 12.171687 36.925519 0.202372 1.234887 0.050269 -0.016958 2358980.000000 0 0 1
-35.520609 -7.113077 12.711087 38.391161 0.197638 1.233333 0.042014 -0.015826 2218450.000000 0 0 1
-36.149943 -5.881777 13.081987 38.891542 0.161292 1.227736 0.046238 -0.019043 -567261.000000 0 0 1
34.674263 -5.728177 12.664787 37.356570 -0.163721 1.224917 0.059748 -0.016948 190401.000000 0 0 1
33.715713 -6.374177 13.450187 36.854945 -0.186851 1.197218 0.050585 -0.016305 -20457.400000 0 0 1
32.416663 -6.291677 12.900787 35.452158 -0.191704 1.198352 0.058250 -0.016564 265630.000000 0 0 1
31.380583 -7.313477 13.402387 34.897735 -0.228970 1.176620 0.037882 -0.018649 -2030.450000 0 0 1
30.896153 -7.123777 14.745387 34.967798 -0.226611 1.135494 0.043312 -0.012108 127686.000000 0 0 1
29.904153 -8.078777 15.017587 34.424598 -0.263857 1.119374 0.053554 -0.012829 -41028.200000 0 0 1
29.268353 -8.066677 16.423287 34.517128 -0.268934 1.074922 0.040731 -0.005009 -95332.300000 0 0 1
30.157023 -8.589877 17.395887 35.858735 -0.277490 1.064293 0.025746 0.008091 460136.000000 0 0 1
29.477503 -8.723077 18.653587 35.957914 -0.287712 1.025395 0.028847 0.007623 196283.000000 0 0 1
30.455273 -9.375877 19.671287 37.448501 -0.298650 1.017742 0.021536 0.009338 1607700.000000 0 0 1
31.588623 -8.577977 20.145187 38.435028 -0.265159 1.019096 0.023021 0.006255 1500000.000000 0 0 1
32.719913 -8.681677 19.244787 38.940031 -0.259357 1.053864 0.012638 0.010167 502881.000000 0 0 1
33.968183 -7.970277 19.855087 40.144579 -0.230470 1.053434 0.031109 0.005229 332810.000000 0 0 1
34.335933 -8.523777 21.080187 41.182343 -0.243328 1.033431 0.030417 0.006731 -89633.000000 0 0 1
35.615073 -8.152977 21.555887 42.421230 -0.225042 1.037774 0.012996 0.010684 135007.000000 0 0 1
36.057963 -8.830577 22.875687 43.605651 -0.240172 1.018547 0.021563 0.007124 -61400.300000 0 0 1
35.546423 -8.297977 24.112287 43.747080 -0.229334 0.987025 0.030122 0.003048 226925.000000 0 0 1
35.795473 -9.268477 25.121287 44.702345 -0.253364 0.974033 0.018074 -0.000629 -330069.000000 0 0 1
35.205583 -8.775477 26.481687 44.919058 -0.244286 0.940304 0.033737 -0.005789 70791.300000 0 0 1
36.042583 -7.865677 27.215187 45.843244 -0.214864 0.935200 0.012237 -0.006531 -261777.000000 0 0 1
35.565253 -7.337677 28.427987 46.118100 -0.203461 0.906612 0.015324 -0.003827 104506.000000 0 0 1
-35.622635 -6.812977 29.383687 46.677509 0.188972 0.889881 0.018598 -0.003582 573614.000000 0 0 1
-35.079655 -7.782277 30.273687 46.985552 0.218310 0.870664 0.011931 -0.000354 -459616.000000 0 0 1
-33.795093 -7.348677 30.633887 46.201152 0.214115 0.845904 0.013841 -0.011447 -181028.000000 0 0 1
-33.307913 -8.084277 31.901987 46.824239 0.238109 0.821241 0.005725 -0.008204 -159323.000000 0 0 1
-33.230483 -9.460477 31.697387 46.888058 0.277355 0.828445 0.007415 -0.012215 162218.000000 0 0 1
-32.788133 -10.096877 32.881887 47.520807 0.298728 0.806614 0.008723 -0.014530 -428309.000000 0 0 1
-32.963513 -11.636077 32.959087 48.044697 0.339344 0.814807 0.021589 -0.020157 -149743.000000 0 0 1
-34.323826 -12.014577 32.938987 49.065792 0.336707 0.834804 0.016543 -0.020744 -33820.700000 0 0 1
-34.540809 -13.383777 32.922687 49.559018 0.369664 0.844222 0.028661 -0.029327 230043.000000 0 0 1
-36.025473 -13.638377 33.271487 50.900215 0.361902 0.858384 0.026056 -0.024179 178489.000000 0 0 1
36.034183 -15.022477 33.597787 51.506781 -0.394986 0.860184 0.029468 -0.027119 -37113.300000 0 0 1
34.725603 -15.263677 34.072087 50.987787 -0.414131 0.838956 0.013622 -0.024872 -261657.000000 0 0 1
34.411403 -16.740477 -34.111149 51.263620 -0.452774 2.298835 0.007413 -0.017539 -402156.000000 0 0 1
35.025203 -17.272877 -32.974849 51.112208 -0.458157 2.272011 0.018945 -0.023602 -129489.000000 0 0 1
34.825283 -18.655277 -32.905049 51.415581 -0.491784 2.265271 0.012140 -0.027198 -219049.000000 0 0 1
35.356443 -19.307977 -31.591249 51.194561 -0.499840 2.235826 0.026081 -0.025693 -142821.000000 0 0 1
34.517063 -19.037277 -30.516649 49.850892 -0.504019 2.229584 0.022597 -0.015354 -354407.000000 0 0 1
34.796763 -19.933077 -29.522649 49.796878 -0.520212 2.205404 0.022747 -0.008022 165032.000000 0 0 1
33.691763 -19.979477 -28.394049 48.379091 -0.535262 2.198030 0.016694 -0.004344 1872120.000000 0 0 1
32.389883 -20.538877 -28.699049 47.901831 -0.565126 2.213201 0.026790 0.000172 863592.000000 0 0 1
31.524533 -19.793877 -29.459649 47.470672 -0.560673 2.240287 0.009454 0.002411 -1026020.000000 0 0 1
30.198513 -20.493077 -29.771849 47.098613 -0.596227 2.255079 -0.000373 0.004911 -209808.000000 0 0 1
29.379533 -19.720177 -30.607649 46.785366 -0.591149 2.283939 -0.015726 0.006642 733834.000000 0 0 1
28.078273 -20.323077 -30.799949 46.368672 -0.626522 2.297274 -0.006946 0.003100 869449.000000 0 0 1
27.292183 -19.686077 -31.924949 46.385421 -0.624884 2.329876 -0.007589 0.012292 -216944.000000 0 0 1
27.891983 -19.853477 -33.152749 47.657403 -0.618601 2.340117 -0.018935 0.009931 145872.000000 0 0 1
26.862133 -20.023077 -34.114449 47.815201 -0.640552 2.365227 0.015510 -0.002908 26536.500000 0 0 1
27.404553 -20.043177 33.006287 47.351383 -0.631478 0.799521 0.024596 -0.003947 -148534.000000 0 0 1
28.073173 -18.833277 32.609987 46.970274 -0.590903 0.803393 0.001074 -0.005206 335586.000000 0 0 1
28.267433 -18.778277 31.195287 46.095741 -0.586368 0.827457 0.008214 -0.005058 -641857.000000 0 0 1
27.161233 -18.065977 30.448487 44.623116 -0.586944 0.819827 0.006789 -0.001180 -578140.000000 0 0 1
27.048633 -16.684477 30.672287 44.167743 -0.552705 0.803141 0.012088 -0.004419 -443115.000000 0 0 1
26.114433 -16.082477 29.876087 42.815771 -0.551990 0.798500 0.022411 -0.000846 -720200.000000 0 0 1
25.927833 -14.588177 30.235187 42.417378 -0.512500 0.777311 0.034501 -0.009698 570437.000000 0 0 1
27.142833 -13.799577 30.209287 42.892455 -0.470350 0.789355 0.030437 -0.000691 969434.000000 0 0 1
26.956433 -12.525677 30.858687 42.846242 -0.434981 0.766678 0.053061 -0.013223 172829.000000 0 0 1
28.328823 -11.816677 30.887087 43.545014 -0.395182 0.782272 0.040984 -0.010292 317864.000000 0 0 1
28.779263 -11.392777 29.601387 42.828536 -0.376939 0.807703 0.034499 -0.014270 43563.000000 0 0 1
30.161133 -11.081677 29.623087 43.703830 -0.352105 0.826010 0.026559 -0.010825 47723.800000 0 0 1
30.619283 -10.524877 28.277987 42.987883 -0.331081 0.852885 0.032790 -0.014266 -331982.000000 0 0 1
30.282193 -9.147177 28.099687 42.311635 -0.293350 0.844490 0.037213 -0.009366 -120724.000000 0 0 1
30.884643 -8.475977 26.964287 41.866169 -0.267845 0.871004 0.029779 -0.005114 135502.000000 0 0 1
30.626223 -6.981977 26.753887 41.261168 -0.224143 0.865311 0.035218 -0.004808 -87627.900000 0 0 1
29.250273 -6.688077 26.691787 40.159187 -0.224786 0.843772 0.050452 -0.001965 -537584.000000 0 0 1
29.059973 -5.329677 26.774887 39.872071 -0.181387 0.834538 0.059015 0.001837 -216911.000000 0 0 1
27.623933 -4.868277 26.547887 38.620876 -0.174443 0.812897 0.052749 0.000506 -594874.000000 0 0 1
27.166933 -5.022077 25.230887 37.414718 -0.182796 0.830702 0.062981 0.001735 -84340.600000 0 0 1
25.810933 -4.615777 25.188887 36.359176 -0.176960 0.805460 0.073575 -0.003248 -123996.000000 0 0 1
25.189833 -4.953077 23.832387 35.029178 -0.194153 0.822545 0.069774 0.003071 -222486.000000 0 0 1
25.512933 -3.970677 22.800287 34.446032 -0.154395 0.847428 0.075728 0.009520 175492.000000 0 0 1
25.278333 -4.410077 21.472487 33.459088 -0.172722 0.874014 0.066821 0.009843 64751.700000 0 0 1
25.547833 -3.281777 20.414987 32.866906 -0.127757 0.900598 0.078329 0.004809 419254.000000 0 0 1
24.426533 -2.426477 20.239487 31.814779 -0.099013 0.881277 0.075270 0.008838 136167.000000 0 0 1
24.757533 -1.392277 19.344587 31.449752 -0.056177 0.908290 0.091301 -0.004682 -616652.000000 0 0 1
23.590333 -0.507177 18.951087 30.263918 -0.021496 0.894134 0.059866 -0.010247 -602545.000000 0 0 1
22.638633 -1.248177 18.196487 29.071942 -0.055079 0.894496 0.076469 -0.013553 -268655.000000 0 0 1
21.722433 -0.349677 17.608287 27.964945 -0.016096 0.889686 0.077717 -0.016348 -72417.100000 0 0 1
20.496133 -1.120177 17.081487 26.704372 -0.054599 0.876752 0.060767 -0.016115 -409817.000000 0 0 1
20.793033 -1.718477 15.833187 26.191472 -0.082459 0.921637 0.082472 -0.027804 121647.000000 0 0 1
19.828533 -2.673777 15.467587 25.289643 -0.134036 0.912693 0.073603 -0.024301 -171071.000000 0 0 1
19.961633 -3.174377 14.017587 24.597484 -0.157703 0.964438 0.077069 -0.031907 -229073.000000 0 1 0
18.925233 -4.046777 13.647587 23.681163 -0.210657 0.956595 0.056254 -0.024149 579280.000000 0 1 0
19.125533 -4.497577 12.313787 23.187142 -0.230964 1.010944 0.048900 -0.022274 494389.000000 0 1 0
18.124633 -5.683677 11.948387 22.440376 -0.303876 1.009304 0.016010 -0.012612 455139.000000 0 1 0
18.559933 -6.946177 12.447987 23.402412 -0.358119 1.009941 0.059696 -0.020608 681348.000000 0 1 0
17.524933 -7.915377 12.426687 22.895393 -0.424237 0.997077 0.035988 0.000556 -238073.000000 0 1 0
17.842533 -9.250677 13.136687 24.010488 -0.478308 0.991873 0.054771 -0.007973 -913597.000000 0 1 0
18.594033 -10.114277 12.312087 24.487224 -0.498189 1.043966 0.047198 -0.012608 191011.000000 0 1 0
17.856733 -11.161577 11.712087 24.095989 -0.558644 1.063221 0.035010 -0.019318 -117077.000000 0 1 0
18.599033 -11.756477 10.506087 24.382712 -0.563690 1.125326 0.033095 -0.023149 -100965.000000 0 1 0
18.528433 -10.893177 9.360987 23.443383 -0.531487 1.160041 0.073552 -0.026791 362169.000000 0 1 0
19.248133 -11.443877 8.243487 23.862272 -0.536399 1.218066 0.074061 -0.025710 165152.000000 0 1 0
18.865433 -10.851477 6.871587 22.822748 -0.521988 1.264966 0.070115 -0.021063 -28994.300000 0 1 0
19.327633 -9.516177 6.688387 22.557694 -0.457518 1.269769 0.083415 -0.017574 561614.000000 0 1 0
19.504733 -9.244977 5.291887 22.224047 -0.442621 1.330371 0.047873 -0.019164 -364641.000000 0 1 0
20.134433 -7.876777 5.074687 22.207914 -0.372905 1.340251 0.084406 -0.017805 -424485.000000 0 1 0
20.521333 -7.562577 3.774687 22.193827 -0.353080 1.399887 0.066828 -0.021992 451231.000000 0 1 0
21.077533 -6.288177 3.666687 22.299062 -0.289929 1.405614 0.087718 -0.021043 -274359.000000 0 1 0
21.691533 -5.948777 2.270687 22.606781 -0.267663 1.470184 0.086436 -0.020956 641738.000000 0 1 0
20.743833 -6.048977 1.168987 21.639391 -0.283736 1.516749 0.066224 -0.026081 1094290.000000 0 1 0
21.273233 -5.424177 0.002687 21.953864 -0.249657 1.570674 0.072255 -0.020436 110021.000000 0 1 0
-25.646203 -15.910377 -0.092913 30.180730 0.555270 1.573875 0.048583 0.019358 -850430.000000 0 0 1
-24.899123 -15.128477 -0.974613 29.151107 0.545982 1.604236 0.048349 0.021468 -1080080.000000 0 0 1
-23.537523 -15.225577 -0.799613 28.044118 0.574168 1.599313 0.039983 0.015541 -531756.000000 0 0 1
-22.845823 -14.518677 0.441087 27.072462 0.566119 1.554503 0.056119 0.000882 -219342.000000 0 0 1
-23.192023 -15.193277 1.672887 27.775964 0.579958 1.510532 0.055425 0.014698 404932.000000 0 0 1
-22.359923 -14.723477 2.740087 26.911986 0.582311 1.468803 0.065114 0.013607 403166.000000 0 0 1
-22.822423 -15.342677 4.083387 27.801705 0.591867 1.423388 0.071444 0.013488 -260057.000000 0 0 1
-22.701023 -16.751977 4.090887 28.507903 0.635737 1.426799 0.077482 0.003603 283667.000000 0 0 1
-22.900823 -17.309977 5.370187 29.204827 0.647245 1.385864 0.069342 -0.008687 -148056.000000 0 0 1
-23.097123 -18.847777 5.327987 30.283713 0.684435 1.393940 0.055041 -0.005797 11119.100000 0 0 1
-23.481023 -19.595077 6.452687 31.256402 0.695431 1.362857 0.047821 -0.008978 65855.800000 0 0 1
-23.696323 -20.971677 6.055587 32.217962 0.724476 1.381715 0.051284 -0.010381 66575.600000 0 0 1
-24.327823 -21.937777 7.142587 33.527982 0.733785 1.356118 0.051001 -0.005395 642365.000000 0 0 1
-23.381723 -22.251477 8.162187 33.293460 0.760635 1.323113 0.048133 0.000064 357101.000000 0 0 1
-24.056523 -23.069277 9.083287 34.545824 0.764452 1.304734 0.046652 0.002861 52088.800000 0 0 1
-23.256123 -23.418677 10.329687 34.583004 0.788881 1.267474 0.041771 0.002801 -50528.100000 0 0 1
-23.136323 -22.340477 11.203587 34.057403 0.767900 1.235592 0.050159 0.004193 395048.000000 0 0 1
-22.350323 -22.749977 12.344287 34.197658 0.794259 1.201490 0.045847 0.003604 211855.000000 0 0 1
-22.773823 -22.028477 13.655987 34.501983 0.768763 1.163854 0.036441 0.009486 621573.000000 0 0 1
-24.047123 -22.493677 14.128387 35.830726 0.752032 1.165480 0.052126 0.009330 590976.000000 0 0 1
-24.433523 -21.793877 15.294787 36.137247 0.728359 1.133776 0.056740 0.014010 -67131.400000 0 0 1
-25.909953 -22.091077 15.625387 37.463236 0.706007 1.140560 0.032805 0.013815 87534.100000 0 0 1
-26.932133 -21.752177 14.660587 37.595609 0.679398 1.170214 0.044364 0.010296 629431.000000 0 0 1
-27.314213 -22.875177 13.889187 38.239371 0.697182 1.199078 0.035542 0.007940 -96450.900000 0 0 1
-28.356623 -23.833177 14.546687 39.796036 0.698941 1.196593 0.036472 0.005036 -284131.000000 0 0 1
-27.920463 -24.546777 15.702387 40.356678 0.721186 1.171153 0.035132 0.007162 453894.000000 0 0 1
-28.931343 -25.479417 16.167987 41.804630 0.722041 1.173690 0.012332 0.001328 539951.000000 0 0 1
-28.831593 -26.927627 15.627387 42.433160 0.751265 1.193635 0.025920 0.003977 31722.400000 0 0 1
-29.176833 -27.170557 14.276287 42.347835 0.749808 1.226941 0.029095 -0.001544 1707970.000000 0 0 1
-30.564523 -27.640527 14.120087 43.561057 0.735204 1.240689 0.037564 -0.014051 1698470.000000 0 0 1
-30.966963 -28.059617 12.656587 43.663304 0.736183 1.276708 0.063088 -0.020875 21815.300000 0 0 1
-30.342663 -29.258027 12.146487 43.866234 0.767202 1.290232 0.064298 -0.020418 226592.000000 0 0 1
-30.547253 -29.457277 10.750387 43.777125 0.767235 1.322688 0.063995 -0.019028 -235839.000000 0 0 1
-29.737483 -30.602607 10.180787 43.868963 0.799735 1.336588 0.048939 -0.025286 -316928.000000 0 0 1
-30.053253 -31.879827 10.757887 45.113784 0.814882 1.330015 0.043048 -0.012820 177421.000000 0 0 1
-29.221123 -32.926657 10.268187 45.204806 0.844952 1.341648 0.045978 -0.015439 -355228.000000 0 0 1
-29.383683 -34.236066 11.065287 46.453736 0.861522 1.330284 0.047693 -0.010289 949180.000000 0 0 1
-30.684293 33.755888 10.959887 46.915935 -0.833028 1.335011 0.063874 -0.018637 720405.000000 0 0 1
-30.701583 32.508568 11.612787 46.197955 -0.813977 1.316701 0.049771 -0.020003 -122853.000000 0 0 1
-32.078733 32.180978 12.277387 47.067980 -0.786989 1.306900 0.058711 -0.019432 597360.000000 0 0 1
-33.198123 31.980758 11.454387 47.498287 -0.766723 1.327242 0.054925 -0.024995 46989.800000 0 0 1
-33.692683 33.175734 10.886987 48.521673 -0.777667 1.344496 0.071526 -0.021355 -389400.000000 0 0 1
-35.164972 33.230033 10.352587 49.477130 -0.757115 1.359999 0.079911 -0.003180 782976.000000 0 0 1
-35.446359 32.454858 9.170687 48.927126 -0.741370 1.382245 0.057075 -0.002333 266875.000000 0 0 1
35.468933 32.407558 8.884487 48.859279 0.740327 1.387941 0.046027 0.000793 338030.000000 0 0 1
35.024723 31.912428 7.470087 47.968078 0.738936 1.414430 0.044338 -0.004444 61631.400000 0 0 1
35.195703 30.535758 7.176287 47.145192 0.714623 1.417986 0.058226 -0.010768 37711.900000 0 0 1
34.727743 30.284448 5.853087 46.448063 0.717159 1.444447 0.066394 -0.009011 39998.800000 0 0 1
34.968863 28.818688 5.397787 45.634135 0.689279 1.452235 0.066405 -0.009855 701013.000000 0 0 1
34.144893 27.792518 6.077387 44.443587 0.683194 1.433623 0.058795 -0.010386 576390.000000 0 0 1
34.612823 27.414038 7.365387 44.764114 0.669856 1.405507 0.056316 -0.013161 -50996.600000 0 0 1
33.737773 26.361318 8.087187 43.572457 0.663271 1.384111 0.045843 -0.001900 -6213.040000 0 0 1
33.652493 25.185538 7.330387 42.667742 0.642477 1.398138 0.049060 -0.009862 -72133.200000 0 0 1
32.627063 24.299598 7.725087 41.408606 0.640144 1.383139 0.044514 -0.001778 -491961.000000 0 0 1
32.647773 22.846928 7.078887 40.471840 0.610592 1.394983 0.048654 -0.001405 635206.000000 0 0 1
33.662853 21.924528 7.543387 40.875118 0.577287 1.385185 0.054880 -0.002448 1046310.000000 0 0 1
34.976843 22.242228 7.059687 42.046824 0.566408 1.402097 0.060605 -0.011999 1024310.000000 0 0 1
35.973523 21.011728 6.917787 42.230828 0.528638 1.406246 0.050895 -0.008980 373777.000000 0 0 1
35.635413 20.159628 5.854687 41.359045 0.514831 1.428762 0.062404 -0.020819 395407.000000 0 0 1
-35.951165 18.927728 6.072087 41.080596 -0.484610 1.422444 0.066653 -0.023939 279035.000000 0 0 1
35.908283 17.749528 5.141387 40.384210 0.459079 1.443138 0.068074 -0.026551 -210107.000000 0 0 1
-35.813832 17.705628 3.868887 40.138362 -0.459141 1.474258 0.072197 -0.024830 -96809.100000 0 0 1
36.038503 16.602828 3.142087 39.803270 0.431714 1.491774 0.071425 -0.020448 -855040.000000 0 0 1
-35.393400 16.106928 1.962387 38.935548 -0.427073 1.520374 0.071871 -0.002525 495069.000000 0 0 1
-34.275251 15.245328 2.220687 37.578509 -0.418514 1.511667 0.072772 -0.014429 933436.000000 0 0 1
-33.120793 15.968228 2.640887 36.863878 -0.449242 1.499096 0.073175 -0.016212 -133409.000000 0 0 1
-31.814283 15.154028 2.770587 35.347833 -0.444531 1.492335 0.063447 -0.020573 89989.200000 0 0 1
-31.905323 14.269528 3.875587 35.165171 -0.420561 1.460361 0.073927 -0.027538 1611020.000000 0 0 1
-30.565553 13.743628 4.127087 33.766451 -0.422558 1.448265 0.070452 -0.023574 1357600.000000 0 0 1
-30.310823 13.021828 5.508387 33.446320 -0.405769 1.405349 0.078347 -0.021555 -220035.000000 0 0 1
-30.726363 11.678428 5.533887 33.333451 -0.363216 1.404008 0.088400 -0.013860 352385.000000 0 0 1
-30.228093 11.020628 6.708687 32.866371 -0.349606 1.365232 0.076197 -0.005207 69722.400000 0 0 1
-30.468093 9.477528 6.680187 32.599895 -0.301576 1.364420 0.086953 -0.014139 871689.000000 0 0 1
-31.821163 9.068828 6.934487 33.807058 -0.277633 1.364211 0.091147 -0.006079 537895.000000 0 0 1
-31.978213 7.649828 6.743287 33.564831 -0.234807 1.368516 0.102948 -0.012650 -80874.600000 0 0 1
-33.476023 7.315728 6.626287 34.900884 -0.215154 1.379777 0.102699 -0.016424 -23237.900000 0 0 1
-34.208271 7.343928 7.860887 35.859903 -0.211473 1.349791 0.099232 -0.009403 210926.000000 0 0 1
-35.418857 6.642828 7.611387 36.831451 -0.185397 1.362642 0.067843 -0.012779 78768.900000 0 0 1
36.133793 6.168728 8.828787 37.704796 0.169089 1.334446 0.057018 -0.012757 -36994.300000 0 0 1
35.596583 7.105328 9.792287 37.596426 0.197018 1.307300 0.055599 -0.004956 879964.000000 0 0 1
-35.674739 7.633128 10.638387 38.001670 -0.210786 1.287059 0.072855 -0.012183 334434.000000 0 0 1
36.099003 8.699328 11.644787 38.915516 0.236476 1.266908 0.058972 -0.019344 -275926.000000 0 0 1
35.320623 8.147228 12.685087 38.403583 0.226700 1.234164 0.045515 -0.021799 470666.000000 0 0 1
34.783773 9.137628 13.520687 38.421557 0.256894 1.211192 0.056088 -0.030198 -487231.000000 0 0 1
33.980163 8.646228 14.708987 38.023191 0.249162 1.173591 0.055782 -0.031184 93237.800000 0 0 1
32.661133 8.153828 14.484387 36.647401 0.244649 1.164471 0.065139 -0.035864 516462.000000 0 0 1
32.124183 7.559628 15.619487 36.511361 0.231120 1.128741 0.059552 -0.027466 295646.000000 0 0 1
30.580563 7.393628 15.646587 35.137619 0.237223 1.109293 0.062839 -0.020916 -551231.000000 0 0 1
29.906073 8.582128 15.941287 34.959273 0.279460 1.097305 0.043399 -0.023706 -28373.800000 0 0 1
28.508773 8.364328 15.971187 33.731157 0.285386 1.077553 0.044556 -0.018845 256928.000000 0 0 1
27.891673 7.573128 17.190387 33.627475 0.265127 1.034215 0.039249 -0.018375 -793655.000000 0 0 1
28.065873 8.211328 18.447887 34.575189 0.284630 1.007994 0.051582 -0.024002 7413.530000 0 0 1
27.228033 7.747028 19.470387 34.358088 0.277199 0.968313 0.052268 -0.015118 -340064.000000 0 0 1
27.605133 6.456828 20.237587 34.832369 0.229769 0.950840 0.051264 -0.011140 -83072.200000 0 0 1
26.935333 6.501328 21.479487 35.059204 0.236838 0.911370 0.035782 -0.004833 2000.830000 0 0 1
27.298893 5.448928 22.310787 35.674803 0.197013 0.895161 0.038886 -0.001607 -1076480.000000 0 0 1
26.478933 5.318428 23.596887 35.864086 0.198218 0.852699 0.051098 0.003196 353703.000000 0 0 1
25.130833 4.876228 23.482587 34.738570 0.191652 0.828502 0.023659 -0.002440 449007.000000 0 0 1
24.245433 5.960128 23.107287 34.019272 0.241045 0.824068 0.033187 -0.000355 -348264.000000 0 0 1
22.774233 5.592028 23.380087 33.114422 0.240778 0.786907 0.036337 -0.005867 -164313.000000 0 0 1
22.167633 4.749428 22.444687 31.901802 0.211060 0.790408 0.033624 -0.005249 -239262.000000 0 0 1
20.781733 4.836028 22.613987 31.091156 0.228637 0.756352 0.018911 -0.012518 -2065010.000000 0 0 1
19.993733 3.631428 22.050187 29.985786 0.179670 0.744606 0.032073 -0.012549 -193573.000000 0 0 1
18.848433 4.010928 21.327887 28.744212 0.209671 0.734764 0.033199 -0.020340 -617107.000000 0 0 1
17.803733 4.500828 22.076987 28.716262 0.247615 0.693838 0.053259 -0.020516 -2178930.000000 0 0 1
16.523833 4.331928 21.234587 27.252713 0.256392 0.677450 0.072736 -0.022799 -693832.000000 0 0 1
15.980233 3.060228 21.319387 26.818820 0.189210 0.651886 0.065802 -0.016191 -29998.200000 0 0 1
15.004833 2.863528 20.305087 25.409474 0.188573 0.644975 0.068281 -0.025740 -500335.000000 0 0 1
14.137633 1.620828 20.613387 25.048183 0.114148 0.604213 0.069841 -0.021101 -701222.000000 0 0 1
14.681033 0.340028 20.673987 25.358669 0.023157 0.617613 0.052434 -0.014219 -311061.000000 0 0 1
13.874033 -0.473972 21.489087 25.583086 -0.034149 0.573564 0.050949 -0.007820 -228353.000000 0 0 1
14.172133 -2.001972 21.614487 25.923798 -0.140333 0.584895 0.035384 -0.001580 -101999.000000 0 0 1
13.723833 -2.647772 20.464987 24.782453 -0.190591 0.599203 0.031519 0.002420 -55849.100000 0 1 0
13.985833 -4.022372 20.441887 25.092902 -0.280045 0.618674 0.024841 0.007302 -11286.900000 0 0 1
13.547533 -4.648572 19.092587 23.867797 -0.330542 0.643616 0.017695 0.007556 -567328.000000 0 1 0
12.183233 -4.625972 18.833687 22.902807 -0.362885 0.605301 0.019388 0.003455 -1010760.000000 0 1 0
11.803533 -5.180472 17.623887 21.834882 -0.413578 0.631499 0.019386 0.003740 673919.000000 0 1 0
10.240533 -5.247072 17.588687 21.018140 -0.473505 0.579323 0.013694 0.006552 700518.000000 0 1 0
9.878333 -6.366672 18.301787 21.750204 -0.572505 0.570829 0.019571 0.010465 -780643.000000 0 1 0
8.487633 -6.483172 18.417887 21.290608 -0.652298 0.525504 0.019750 0.010233 8336.420000 0 1 0
7.909733 -7.596572 19.380087 22.267904 -0.765205 0.514955 0.025231 0.007162 5358.210000 0 1 0
7.989433 -8.913872 18.797487 22.285279 -0.840034 0.567042 0.024907 0.000391 744662.000000 0 1 0
9.192133 -9.628372 19.144987 23.318048 -0.808573 0.607571 0.038363 -0.004573 637737.000000 0 1 0
9.276933 -10.999772 18.423987 23.377334 -0.870161 0.663059 0.042414 -0.011125 -28781.400000 0 1 0
9.461233 -10.900872 17.062787 22.349108 -0.855983 0.702133 0.039759 -0.015501 107616.000000 0 1 0
9.853933 -12.131472 16.483687 22.715293 -0.888623 0.758796 0.041859 -0.020065 161946.000000 0 1 0
9.913933 -12.154372 14.932887 21.656545 -0.886574 0.809953 0.037802 -0.015174 -19036.500000 0 1 0
10.382433 -13.451172 14.565887 22.380661 -0.913450 0.862126 0.028944 -0.006286 -101558.000000 0 1 0
10.246833 -13.716472 13.200087 21.619007 -0.929189 0.914006 0.027036 -0.002304 -618879.000000 0 1 0
11.313733 -14.681272 12.660287 22.446006 -0.914226 0.971535 0.055574 -0.011820 824120.000000 0 1 0
12.627333 -14.115372 12.513387 22.699738 -0.840984 0.986926 0.053641 -0.022327 584220.000000 0 1 0
12.766233 -13.228872 11.394587 21.629063 -0.803193 1.015943 0.034826 -0.020326 -1327290.000000 0 1 0
14.175633 -13.174372 10.819087 22.171272 -0.748805 1.061025 0.042173 -0.026050 -450407.000000 0 1 0
14.600933 -14.337172 10.188387 22.859243 -0.776284 1.108839 0.050871 -0.027140 -17537.200000 0 1 0
15.937733 -14.129972 9.755187 23.427145 -0.725347 1.141308 0.052418 -0.028267 -158867.000000 0 1 0
16.520233 -15.485372 9.366287 24.503921 -0.753076 1.178581 0.044116 -0.027850 -286747.000000 0 1 0
16.922533 -16.253572 10.521687 25.714910 -0.765237 1.149256 0.044953 -0.024326 285503.000000 0 0 1
15.922233 -17.072472 11.152687 25.872171 -0.820245 1.125119 0.062674 -0.023222 411892.000000 0 0 1
16.438033 -17.688472 12.485287 27.184064 -0.822023 1.093604 0.046185 -0.019465 171252.000000 0 0 1
17.459033 -18.660172 12.310687 28.364994 -0.818641 1.121857 0.056157 -0.022865 70348.600000 0 0 1
17.819433 -19.119172 13.625687 29.474298 -0.820570 1.090220 0.033946 -0.027200 -428864.000000 0 0 1
19.175933 -19.866172 13.617187 30.786506 -0.803076 1.112623 0.013387 -0.029760 -256818.000000 0 0 1
20.088133 -18.859672 13.277387 30.586097 -0.753867 1.121759 0.009389 -0.025320 -570061.000000 0 0 1
21.393133 -19.385072 13.076287 31.692845 -0.736194 1.145496 -0.014070 -0.020218 501642.000000 0 0 1
22.255033 -18.634272 12.036287 31.422839 -0.697078 1.177708 0.001968 -0.014203 -470750.000000 0 0 1
22.046533 -18.818772 10.628987 30.873470 -0.706576 1.219329 0.001136 -0.002712 243287.000000 0 0 1
20.751433 -18.545172 10.085087 29.601594 -0.729313 1.223141 0.012483 -0.004223 582387.000000 0 0 1
20.348633 -17.043672 9.991787 28.361760 -0.697241 1.210771 0.046821 -0.013518 214580.000000 0 0 1
21.188433 -16.292272 9.097687 28.233946 -0.655502 1.242717 0.037971 -0.006072 327162.000000 0 0 1
20.919833 -14.941972 9.240687 27.318350 -0.620225 1.225730 0.038152 -0.012637 61527.600000 0 0 1
-34.536782 25.368923 8.005487 43.594259 -0.633538 1.386112 0.057380 -0.010634 -232157.000000 0 0 1
-33.760663 24.461623 8.734787 42.596360 -0.627020 1.364272 0.071120 -0.017609 -232961.000000 0 0 1
-32.667533 25.092023 9.329687 42.235298 -0.654987 1.348061 0.075038 -0.022705 -430696.000000 0 0 1
-31.536723 24.170523 9.816087 40.928409 -0.653930 1.328600 0.079269 -0.038975 -160501.000000 0 0 1
-30.788743 23.523123 8.812287 39.735883 -0.652412 1.347165 0.081821 -0.037050 -255223.000000 0 0 1
-29.935073 22.588023 9.381087 38.656593 -0.646418 1.325671 0.075102 -0.034846 -344724.000000 0 0 1
-29.281293 21.641023 8.387287 37.364082 -0.636471 1.344392 0.074288 -0.043277 -8910.800000 0 0 1
-30.223003 20.891623 7.664587 37.531796 -0.604829 1.365134 0.072294 -0.043832 189372.000000 0 0 1
-29.592463 20.415223 6.506687 36.535355 -0.603901 1.391748 0.062101 -0.042819 -66318.400000 0 0 1
-30.545733 19.499623 5.720587 36.687903 -0.568159 1.414232 0.056993 -0.029615 -236487.000000 0 0 1
-30.885873 18.292923 6.397287 36.462220 -0.534720 1.394434 0.058900 -0.030924 1029120.000000 0 0 1
-31.948463 17.677223 5.621087 36.942998 -0.505377 1.418047 0.047093 -0.026741 677060.000000 0 0 1
-32.460873 16.308723 6.139887 36.842651 -0.465575 1.403364 0.058703 -0.018199 2653.450000 0 0 1
-33.202773 16.390723 7.371587 37.754738 -0.458559 1.374285 0.064113 -0.017273 449848.000000 0 0 1
-34.196587 15.380323 7.427787 38.224768 -0.422656 1.375233 0.069555 -0.013072 -407832.000000 0 0 1
-35.135439 15.606623 8.593187 39.394272 -0.418007 1.350895 0.063833 -0.017345 -198046.000000 0 0 1
36.124233 16.524323 8.265387 40.574993 0.429016 1.365654 0.065773 -0.021745 167215.000000 0 0 1
35.476683 16.910323 9.443487 40.419469 0.444802 1.334980 0.068080 -0.015697 -116076.000000 0 0 1
34.540203 18.114223 9.302487 40.095972 0.483007 1.336657 0.048144 -0.005763 622473.000000 0 0 1
33.218753 17.887123 8.795387 38.740077 0.493944 1.341763 0.054704 -0.005782 651484.000000 0 0 1
32.513283 19.109323 8.762687 38.717754 0.531355 1.342496 0.045415 0.002378 -43217.200000 0 0 1
31.052733 19.042923 8.279287 37.355746 0.550101 1.347307 0.040809 0.004748 -189697.000000 0 0 1
30.513243 20.347023 8.247187 37.590896 0.588113 1.349604 0.031288 0.002480 354844.000000 0 0 1
29.216143 20.536423 7.669787 36.526063 0.612679 1.359241 0.017078 0.003771 609330.000000 0 0 1
28.870403 20.124223 6.195887 35.733367 0.608746 1.396523 0.006122 0.017528 -758155.000000 0 0 1
28.825803 18.733923 5.883887 34.878459 0.576306 1.401289 0.019272 0.015329 190935.000000 0 0 1
28.390863 18.474123 4.576987 34.180157 0.576872 1.436485 0.023203 0.014380 -104961.000000 0 0 1
26.981533 18.878723 4.071787 33.181150 0.610518 1.447772 0.032689 0.011771 -744088.000000 0 0 1
25.967333 18.067123 4.756987 31.989877 0.607877 1.421540 0.046988 0.003572 1471580.000000 0 0 1
24.602133 18.432123 4.563687 31.077891 0.642994 1.423417 0.053420 0.000108 362434.000000 0 0 1
24.220333 19.872923 4.974987 31.722359 0.687120 1.413317 0.058486 -0.000289 -1171340.000000 0 0 1
24.860833 20.835223 4.190987 32.706756 0.697530 1.442305 0.048907 -0.006799 -249142.000000 0 0 1
24.437733 22.125623 4.597687 33.284902 0.735784 1.432222 0.055628 0.002533 -416817.000000 0 0 1
25.202333 23.334123 4.100387 34.589768 0.746926 1.451974 0.029790 0.012142 -973235.000000 0 0 1
26.445133 23.444023 4.699887 35.651875 0.725315 1.438584 0.023935 0.009862 -492499.000000 0 0 1
27.073133 24.699023 4.493487 36.921372 0.739573 1.448790 0.038394 0.000374 -565564.000000 0 0 1
28.336573 24.927323 5.359287 38.118955 0.721479 1.429735 0.024823 0.001613 906498.000000 0 0 1
29.437033 24.022023 5.073587 38.331942 0.684450 1.438048 0.013572 0.000346 1023840.000000 0 0 1
30.077173 24.033423 3.809387 38.687894 0.674167 1.472172 0.021816 -0.006916 285508.000000 0 0 1
31.181263 25.138723 3.519287 40.207113 0.678518 1.483155 0.037650 -0.017884 322848.000000 0 0 1
30.568523 26.416223 3.261887 40.532596 0.712660 1.490234 0.038654 -0.013022 -591145.000000 0 0 1
31.320123 27.249823 2.472687 41.588666 0.716015 1.511305 0.054898 -0.014874 -1489900.000000 0 0 1
30.790583 28.689923 2.506587 42.159870 0.750096 1.511307 0.059103 -0.005525 44983.800000 0 0 1
29.526283 29.015523 2.012087 41.445753 0.776674 1.522230 0.075617 -0.011707 -172945.000000 0 0 1
28.420343 28.310023 2.565887 40.196481 0.783454 1.506919 0.058988 -0.003914 -1272290.000000 0 0 1
27.124233 28.965223 2.107087 39.738495 0.818209 1.517748 0.047182 -0.003511 -566033.000000 0 0 1
26.838633 30.178223 2.703687 40.476503 0.843903 1.503950 0.051297 -0.010406 908901.000000 0 0 1
25.483333 30.555923 2.361087 39.857740 0.875671 1.511524 0.050372 -0.005463 1169920.000000 0 0 1
25.079933 31.839623 3.091287 40.648748 0.903603 1.494674 0.061460 -0.011379 -53855.200000 0 0 1
24.825433 31.714423 4.501187 40.526133 0.906644 1.459498 0.050558 -0.020842 -101949.000000 0 0 1
26.018633 31.746423 5.243787 41.379970 0.884232 1.443732 0.056512 -0.024050 -203655.000000 0 0 1
25.951433 31.605823 6.745587 41.447652 0.883323 1.407320 0.071158 -0.032127 46084.400000 0 0 1
25.450633 30.374823 7.296487 40.293961 0.873377 1.388710 0.072269 -0.035741 162592.000000 0 0 1
26.286733 29.254923 7.049987 39.956791 0.838788 1.393428 0.075388 -0.035720 -49181.600000 0 0 1
25.688533 27.883023 7.391787 38.626444 0.826339 1.378243 0.068609 -0.028669 87196.100000 0 0 1
24.542833 27.518123 6.636387 37.465175 0.842486 1.392722 0.050687 -0.032858 71493.000000 0 0 1
24.039933 26.279423 6.965887 36.291184 0.829874 1.377653 0.059448 -0.031395 -168919.000000 0 0 1
22.710433 26.056223 6.181687 35.112729 0.853899 1.393821 0.066430 -0.017688 42441.600000 0 0 1
22.808433 25.805623 4.790787 34.772208 0.846973 1.432580 0.045015 -0.018194 145668.000000 0 0 1
22.996533 27.020023 4.040287 35.710588 0.865668 1.457414 0.047962 -0.018784 -145134.000000 0 0 1
23.230133 26.891323 2.447087 35.619806 0.858315 1.502042 0.046861 -0.002528 343905.000000 0 0 1
24.506533 26.319123 2.174187 36.027677 0.821046 1.510412 0.027770 0.019824 422762.000000 0 0 1
24.571433 25.934623 0.806987 35.735294 0.812382 1.548212 0.028469 0.014597 -149852.000000 0 0 1
25.784133 25.073823 0.393587 35.967666 0.771433 1.559853 0.034721 0.014745 -1561160.000000 0 0 1
26.926133 25.856023 0.288987 37.331409 0.765127 1.563055 0.057114 0.006259 -235995.000000 0 0 1
27.821363 25.442923 -0.755013 37.708628 0.740774 1.590820 0.047682 0.011097 631916.000000 0 0 1
28.656623 24.138323 -0.421213 37.470496 0.700024 1.582038 0.045150 0.003932 -706996.000000 0 0 1
27.850973 22.982323 -0.247713 36.109905 0.689913 1.577656 0.041876 0.009520 210094.000000 0 0 1
28.348043 22.195823 0.776587 36.012070 0.664274 1.549230 0.034131 0.011245 -268536.000000 0 0 1
27.225033 21.268123 1.230187 34.569478 0.663170 1.535203 0.032894 0.005137 -271501.000000 0 0 1
26.755533 20.447323 0.252687 33.675145 0.652545 1.563293 0.048266 -0.010321 209593.000000 0 0 1
25.606233 19.767523 0.720687 32.356661 0.657421 1.548521 0.056681 -0.002873 -26242.100000 0 0 1
25.045833 18.549723 -0.079513 31.167167 0.637478 1.573348 0.061376 -0.008208 -834725.000000 0 0 1
23.785333 18.156523 0.328387 29.925060 0.651990 1.559822 0.059622 -0.007014 -285838.000000 0 0 1
23.135233 17.289323 -0.618613 28.888447 0.641781 1.592212 0.061731 -0.017040 -187105.000000 0 0 1
21.734833 16.841723 -0.228513 27.497251 0.659230 1.579107 0.063405 -0.005742 -1373660.000000 0 0 1
21.204833 15.847223 -1.022713 26.491987 0.641797 1.609411 0.063400 -0.010893 604702.000000 0 0 1
19.819533 15.554123 -0.858713 25.208769 0.665396 1.604867 0.075246 -0.010297 708108.000000 0 0 1
18.758633 16.621923 -1.218313 25.093005 0.725079 1.619367 0.075216 -0.012081 -692710.000000 0 0 1
18.691533 17.761923 -0.372813 25.787561 0.759902 1.585254 0.059806 -0.007737 -152755.000000 0 0 1
17.523433 18.468823 -0.700713 25.468787 0.811659 1.598312 0.039675 -0.012508 -83970.800000 0 0 1
17.520833 19.989223 -0.406613 26.584092 0.851110 1.586092 0.042818 -0.004289 -8384.400000 0 0 1
17.243333 20.210823 0.974087 26.584934 0.864463 1.534148 0.052159 -0.004133 69598.300000 0 0 1
17.695533 21.488523 1.356487 27.869850 0.881897 1.522105 0.064931 -0.011539 -394530.000000 0 0 1
16.765133 22.670323 1.016487 28.214295 0.934037 1.534761 0.057348 -0.015344 -650111.000000 0 0 1
15.532933 22.403423 1.612187 27.309055 0.964562 1.511727 0.048890 -0.015287 -689484.000000 0 0 1
14.668833 23.484123 1.299187 27.719426 1.012465 1.523910 0.029059 -0.012629 194192.000000 0 0 1
13.174633 23.336223 1.676387 26.850708 1.056845 1.508322 0.022653 -0.010708 195170.000000 0 0 1
12.916733 23.707723 2.985587 27.162692 1.071929 1.460659 0.020023 -0.003867 -429039.000000 0 0 1
11.554333 23.478523 3.216587 26.364561 1.113470 1.448487 0.011382 -0.009556 41393.200000 0 0 1
11.114233 23.598523 4.700887 26.504996 1.130640 1.392495 0.021846 -0.012104 190761.000000 0 0 1
11.726533 22.495723 5.454087 25.948337 1.090271 1.359027 0.031424 -0.035173 494495.000000 0 0 1
11.062933 22.250423 6.716087 25.740544 1.109390 1.306827 0.023238 -0.025391 -110074.000000 0 0 1
11.830933 21.231923 7.641787 25.478666 1.062424 1.266178 0.031230 -0.020716 1134730.000000 0 0 1
13.020833 21.591923 8.362987 26.564879 1.028143 1.250536 0.036210 -0.012721 674236.000000 0 0 1
14.190033 21.782623 7.594887 27.083611 0.993411 1.286561 0.037726 -0.009097 -848450.000000 0 0 1
15.417733 22.110723 8.395687 28.232572 0.961887 1.268853 0.049780 -0.006398 -752856.000000 0 0 1
15.849933 20.979723 9.192587 27.854493 0.923792 1.234470 0.055437 -0.004187 673786.000000 0 0 1
17.155433 21.193223 9.741487 28.954415 0.890303 1.227660 0.054422 -0.013935 383675.000000 0 0 1
17.163633 21.928023 11.074687 29.967936 0.906677 1.192270 0.044686 -0.000235 -700224.000000 0 0 1
16.551433 21.281623 12.134587 29.565277 0.909781 1.147867 0.043027 -0.002596 -61055.200000 0 0 1
16.740033 21.964423 13.378787 30.686422 0.919569 1.119665 0.044998 0.007675 -409220.000000 0 0 1
17.683033 21.297123 14.407687 31.206386 0.877850 1.090896 0.054814 -0.000452 834824.000000 0 0 1
19.030233 21.458123 13.913987 31.877889 0.845292 1.119116 0.066348 -0.000912 196003.000000 0 0 1
19.934433 20.884123 14.838287 32.460791 0.808660 1.096049 0.054775 -0.006037 771357.000000 0 0 1
21.391833 21.414523 14.568187 33.592029 0.785928 1.122224 0.059252 -0.007192 566532.000000 0 0 1
22.064333 20.812223 13.501587 33.200546 0.756204 1.151993 0.063098 -0.011240 491611.000000 0 0 1
23.227233 21.579723 13.117787 34.311297 0.748646 1.178494 0.064306 -0.002944 733034.000000 0 0 1
24.075133 20.957023 11.990287 34.096566 0.716267 1.211456 0.057643 0.005951 -54246.500000 0 0 1
23.771533 21.422423 10.694587 33.739890 0.733466 1.248262 0.063588 0.004713 140355.000000 0 0 1
24.664533 20.975923 9.704287 33.800913 0.704755 1.279597 0.075705 -0.004209 -450350.000000 0 0 1
24.543733 21.813723 8.427787 33.900751 0.726576 1.319560 0.061259 -0.010238 82436.200000 0 0 1
24.889533 23.220723 8.647987 35.120913 0.750725 1.322003 0.062548 -0.003365 1175930.000000 0 0 1
26.300533 23.484623 8.532087 36.277294 0.728897 1.333381 0.048164 -0.003010 582934.000000 0 0 1
26.758533 24.714623 9.335287 37.602915 0.745711 1.319913 0.059800 -0.004292 -338983.000000 0 0 1
28.025373 25.174523 8.949087 38.720334 0.731862 1.337566 0.051677 0.001496 -51303.100000 0 0 1
28.478723 26.280923 9.730587 39.955086 0.745284 1.324784 0.061160 -0.003397 127126.000000 0 0 1
29.605063 27.104423 9.053787 41.147060 0.741331 1.348946 0.058153 -0.008437 -32709.500000 0 0 1
29.351523 27.787423 7.820687 41.168142 0.758031 1.379665 0.067223 -0.014095 322411.000000 0 0 1
30.554253 28.183423 7.149287 42.177956 0.745057 1.400471 0.067142 -0.009435 379690.000000 0 0 1
30.393843 29.293223 6.081987 42.648202 0.766960 1.427700 0.087892 -0.005739 18963.100000 0 0 1
30.400803 30.627423 6.520887 43.643669 0.789112 1.420823 0.085863 -0.014375 58463.500000 0 0 1
30.514553 31.433923 5.372287 44.137183 0.800238 1.448776 0.084575 -0.014130 73384.900000 0 0 1
30.518433 32.955723 5.605687 45.264535 0.823777 1.446635 0.068594 -0.010914 699960.000000 0 0 1
29.297083 33.313523 6.266587 44.803794 0.849460 1.430469 0.074312 -0.018550 577388.000000 0 0 1
29.256213 -33.886982 6.406987 45.225027 -0.858605 1.428649 0.063558 -0.017695 -203632.000000 0 0 1
27.935533 -33.400782 7.025287 44.106246 -0.874266 1.410834 0.080590 -0.023896 388704.000000 0 0 1
26.863833 -33.568782 6.101587 43.425315 -0.895895 1.429822 0.070092 -0.025490 -288926.000000 0 0 1
25.625833 -33.067082 6.531887 42.341242 -0.911508 1.415910 0.059018 -0.027537 96974.800000 0 0 1
24.527933 -33.184482 5.444387 41.622959 -0.934283 1.439618 0.074347 -0.023070 -191077.000000 0 0 1
24.728033 -32.276982 4.337187 40.891202 -0.917058 1.464530 0.053430 -0.009473 -433054.000000 0 0 1
23.926033 -32.465582 3.218487 40.457728 -0.935689 1.491160 0.066421 -0.015673 -328604.000000 0 0 1
24.482533 -31.739782 1.958487 40.132828 -0.913770 1.521977 0.070081 0.002591 -8084.470000 0 0 1
24.605933 -30.308182 2.088287 39.094741 -0.888867 1.517355 0.078181 0.007194 166812.000000 0 0 1
25.291433 -29.751082 0.945887 39.059930 -0.866243 1.546578 0.059342 0.011281 180785.000000 0 0 1
25.455033 -28.201582 1.124987 38.007283 -0.836541 1.541193 0.048987 0.008817 1181610.000000 0 0 1
24.184233 -27.501782 1.013187 36.636753 -0.849497 1.543138 0.052117 0.006375 1059040.000000 0 0 1
23.817833 -27.189582 -0.296213 36.147618 -0.851405 1.578991 0.057634 0.005699 100129.000000 0 0 1
22.591733 -26.256482 -0.504313 34.641645 -0.860281 1.585355 0.060727 0.003712 378793.000000 0 0 1
22.898633 -24.865782 -0.332513 33.804808 -0.826559 1.580633 0.062969 -0.013632 -92809.900000 0 0 1
23.125033 -24.346382 0.966587 33.592377 -0.811121 1.542018 0.041773 -0.000321 295136.000000 0 0 1
21.933533 -24.363782 1.980887 32.842011 -0.837842 1.510444 0.031530 -0.000167 567301.000000 0 0 1
22.202233 -23.650782 3.189487 32.595574 -0.816979 1.472789 0.011392 0.004065 276.265000 0 0 1
20.977733 -23.622682 3.908887 31.833564 -0.844632 1.447694 0.027387 0.003004 143024.000000 0 0 1
21.043233 -23.012282 5.326087 31.634633 -0.830063 1.401628 0.010418 0.007460 -53189.700000 0 0 1
21.051133 -21.587682 5.372187 30.627416 -0.797981 1.394480 0.021758 0.018140 352994.000000 0 0 1
19.873533 -20.949282 4.853187 29.281106 -0.811744 1.404283 0.017316 0.008127 43083.100000 0 0 1
19.857833 -19.422382 5.250587 28.268907 -0.774313 1.383974 0.017954 0.005394 19135.700000 0 0 1
19.458933 -19.004982 6.563287 27.980639 -0.773597 1.334025 0.030115 0.011445 406146.000000 0 0 1
18.081733 -18.646582 6.674287 26.817722 -0.800776 1.319277 0.034815 0.003291 733514.000000 0 0 1
19.461877 -26.168637 -12.138513 34.798071 -0.931333 1.927116 0.055006 -0.014991 92936.300000 0 0 1
19.624177 -24.803777 -12.379613 33.964548 -0.901458 1.943877 0.058359 -0.016475 -834791.000000 0 0 1
18.465777 -24.349877 -12.975413 33.200343 -0.921971 1.972320 0.071705 -0.015119 -478280.000000 0 0 1
18.444477 -22.829977 -13.350013 32.243285 -0.891253 1.997684 0.059301 -0.015962 -27081.500000 0 0 1
18.297677 -21.818277 -12.363813 31.043615 -0.872934 1.980429 0.070217 -0.016115 580149.000000 0 0 1
19.462577 -21.621377 -11.521613 31.289350 -0.837896 1.947899 0.058123 -0.023315 120861.000000 0 0 1
19.511277 -22.436977 -10.165913 31.423775 -0.855031 1.900233 0.061270 -0.018376 355235.000000 0 0 1
18.586377 -22.118477 -9.113913 30.294287 -0.871955 1.876376 0.070696 -0.024809 902580.000000 0 0 1
17.197577 -22.248177 -9.465013 29.670263 -0.912744 1.895478 0.078544 -0.014748 -82892.500000 0 0 1
16.366177 -21.690177 -8.351913 28.426572 -0.924394 1.869003 0.082654 -0.022934 -1303060.000000 0 0 1
16.401577 -20.274477 -8.359813 27.385263 -0.890606 1.881015 0.078818 -0.027126 443161.000000 0 0 1
15.557777 -19.646477 -7.393513 26.128385 -0.901022 1.857684 0.071403 -0.032663 258679.000000 0 0 1
14.043777 -19.662777 -7.690713 25.357436 -0.950583 1.878942 0.064107 -0.017803 -134445.000000 0 0 1
13.379177 -20.911177 -7.549913 25.947657 -1.001618 1.866034 0.053832 -0.019832 367255.000000 0 0 1
12.012877 -20.824877 -7.965413 25.326518 -1.047571 1.890735 0.045282 -0.023906 462301.000000 0 0 1
11.239077 -22.129877 -7.812113 26.020711 -1.100873 1.875727 0.050010 -0.020843 -191087.000000 0 0 1
10.975677 -22.496077 -6.474013 25.854435 -1.116881 1.823892 0.050237 -0.017196 169777.000000 0 0 1
10.464877 -23.773277 -6.192113 26.702521 -1.156126 1.804819 0.040823 -0.012236 57110.100000 0 0 1
10.642677 -24.106377 -4.778913 26.781001 -1.155043 1.750201 0.054414 -0.016561 -309846.000000 0 0 1
9.842877 -25.177187 -4.378813 27.385160 -1.198121 1.731383 0.040272 -0.012021 -553888.000000 0 0 1
10.477277 -25.996707 -3.396013 28.233580 -1.187686 1.691371 0.037890 -0.010721 73054.800000 0 0 1
9.564577 -26.846367 -2.463013 28.605506 -1.228546 1.657006 0.037814 -0.007063 186471.000000 0 0 1
8.779777 -26.094867 -1.561113 27.576505 -1.246238 1.627437 0.029091 -0.001997 -186180.000000 0 0 1
8.387377 -26.858567 -0.423613 28.140898 -1.268112 1.585850 0.036707 -0.004686 83013.200000 0 0 1
7.597577 -26.134587 0.671487 27.224818 -1.287884 1.546129 0.042896 -0.005155 -145598.000000 0 0 1
6.230077 -25.966077 0.416287 26.706260 -1.335316 1.555208 0.042946 -0.009062 -463001.000000 0 0 1
5.564277 -25.502697 1.566787 26.149638 -1.355979 1.510844 0.045623 -0.004632 -338721.000000 0 0 1
4.169977 -24.955977 1.252387 25.332942 -1.405233 1.521339 0.042917 -0.014812 -486450.000000 0 0 1
3.219577 -25.905207 0.873687 26.119126 -1.447147 1.537340 0.047865 -0.019247 -499625.000000 0 0 1
1.975877 -25.258987 0.772487 25.347924 -1.492731 1.540316 0.050230 -0.019753 -831002.000000 0 0 1
0.792077 -26.067597 0.321687 26.081612 -1.540420 1.558462 0.052108 -0.018366 -418206.000000 0 0 1
0.444677 -27.184007 1.129387 27.211091 -1.554440 1.529280 0.052059 -0.016738 -89792.400000 0 0 1
1.136477 -28.360597 0.787987 28.394295 -1.530745 1.543041 0.035810 -0.020538 -200516.000000 0 0 1
0.613577 -29.509127 1.659087 29.562098 -1.550007 1.514645 0.042211 -0.013664 422567.000000 0 0 1
1.085277 -29.514347 3.061787 29.692576 -1.534042 1.467496 0.021943 -0.010358 49574.000000 0 0 1
0.404277 -30.449357 3.842087 30.693459 -1.557520 1.445291 0.029975 -0.007063 -147408.000000 0 0 1
0.495877 -30.328297 5.345987 30.799855 -1.554447 1.396341 0.038150 -0.008377 -315326.000000 0 0 1
1.821377 -30.636917 5.709587 31.217583 -1.511416 1.386864 0.009409 0.004855 -155954.000000 0 0 1
1.957177 -30.570197 7.114187 31.448039 -1.506861 1.342601 0.024996 0.001899 809089.000000 0 0 1
3.349177 -31.089347 7.621587 32.184671 -1.463483 1.331717 0.023616 0.002084 855837.000000 0 0 1
3.431477 -32.453287 7.408687 33.464601 -1.465452 1.347558 0.009895 -0.000266 -268441.000000 0 0 1
4.718177 -32.883067 7.786187 34.120111 -1.428286 1.340569 0.004657 0.001986 -2049.720000 0 0 1
4.793377 34.244515 7.497887 35.381939 1.431725 1.357264 -0.005843 0.010440 -135175.000000 0 0 1
4.874677 33.931463 6.114487 34.820879 1.428110 1.394283 -0.009316 0.010896 -63971.800000 0 0 1
4.717377 32.541458 5.855687 33.398940 1.426834 1.394560 -0.011810 0.009678 -596330.000000 0 0 1
4.868677 32.279528 4.376987 32.936757 1.421096 1.437511 -0.005655 0.006321 -82402.800000 0 0 1
6.194777 32.287568 3.900187 33.107005 1.381237 1.452717 0.004759 0.005009 -187837.000000 0 0 1
6.858477 31.061808 4.165087 32.081499 1.353482 1.440600 -0.008200 0.004742 -116424.000000 0 0 1
8.328477 30.941948 3.684087 32.254305 1.307863 1.456326 -0.015103 0.006352 142143.000000 0 0 1
9.227877 31.781008 4.361287 33.379740 1.288209 1.439765 -0.011392 0.001905 -653460.000000 0 0 1
10.516977 31.640148 3.836387 33.562235 1.249892 1.456239 -0.008741 -0.004069 -522760.000000 0 0 1
11.627277 32.160198 4.739787 34.524448 1.223876 1.433074 0.006807 -0.017216 -331363.000000 0 0 1
12.022977 31.242948 5.734287 33.964037 1.203442 1.401150 0.012011 -0.016360 671430.000000 0 0 1
13.297777 31.642498 6.286487 34.894104 1.172955 1.389648 0.044748 -0.023105 782187.000000 0 0 1
13.968977 30.595058 7.142087 34.383125 1.142487 1.361552 0.047479 -0.028048 -320848.000000 0 0 1
13.290477 30.363348 8.374987 34.186402 1.158206 1.323297 0.027802 -0.021651 500949.000000 0 0 1
14.005877 29.326518 9.072787 33.742032 1.125242 1.298559 0.027822 -0.016612 333459.000000 0 0 1
13.782377 29.271078 10.548187 34.029607 1.130737 1.255634 0.020501 -0.012021 139768.000000 0 0 1
14.506777 30.286188 11.276287 35.423924 1.124098 1.246835 0.040608 -0.016757 363578.000000 0 0 1
14.078677 30.291128 12.614187 35.705452 1.135720 1.209717 0.034022 -0.008879 329907.000000 0 0 1
14.830577 31.313138 13.575287 37.212190 1.128473 1.197370 0.036816 -0.009518 1278590.000000 0 0 1
16.088077 30.877818 14.120187 37.571872 1.090472 1.185517 0.031911 -0.008928 729000.000000 0 0 1
16.839477 31.865598 14.779187 38.953930 1.084646 1.181647 0.037024 -0.008784 35980.500000 0 0 1
17.867977 31.303338 15.788287 39.350141 1.052123 1.157942 0.037843 -0.008401 1243450.000000 0 0 1
19.155077 30.891548 15.252087 39.418661 1.015746 1.173501 0.031582 -0.001237 1102450.000000 0 0 1
19.272377 29.497198 15.158287 38.357305 0.992061 1.164526 0.027486 0.000429 -425595.000000 0 0 1
20.621277 29.050498 14.601987 38.501773 0.953495 1.181805 0.044836 -0.006943 -1074140.000000 0 0 1
21.681577 29.125158 15.467887 39.466709 0.930871 1.168076 0.054715 -0.003805 -1790190.000000 0 0 1
22.863977 28.968398 14.780187 39.754037 0.902630 1.189859 0.061073 -0.004567 -1016530.000000 0 0 1
24.042377 29.087078 15.764587 40.897631 0.880065 1.175085 0.076188 -0.014437 -380344.000000 0 0 1
24.239977 27.961418 16.618887 40.566055 0.856568 1.148699 0.073705 -0.013006 689606.000000 0 0 1
25.223777 28.224558 17.668687 41.773761 0.841483 1.134085 0.071653 -0.016575 744430.000000 0 0 1
26.285477 27.091378 17.839687 41.750730 0.800495 1.129303 0.058847 -0.012015 -50559.500000 0 0 1
25.825977 25.909688 18.489487 40.989683 0.787016 1.102825 0.065161 -0.005727 121439.000000 0 0 1
25.446577 26.052658 19.871887 41.486879 0.797166 1.071290 0.086552 -0.009597 -80238.200000 0 0 1
24.951077 24.671588 20.322087 40.549115 0.779766 1.045844 0.088058 -0.011942 45998.700000 0 0 1
25.964277 23.698328 20.455287 40.671528 0.739803 1.043801 0.068438 -0.013027 300306.000000 0 0 1
25.323877 22.434928 20.463487 39.539588 0.724981 1.026818 0.070347 -0.018147 1118240.000000 0 0 1
26.422977 21.271528 20.405587 39.585851 0.677806 1.029232 0.050161 -0.019532 803463.000000 0 0 1
25.871277 19.953628 20.291287 38.460455 0.656973 1.015037 0.038312 -0.011971 -31418.700000 0 0 1
26.780377 18.878228 20.416987 38.606080 0.614025 1.013546 0.040546 -0.016831 -130749.000000 0 0 1
27.368177 18.686928 21.839587 39.688612 0.599087 0.988105 0.044421 -0.009745 -333085.000000 0 0 1
26.391577 18.253928 22.748187 39.334479 0.605105 0.954120 0.041406 -0.008056 5656.920000 0 0 1
26.985977 17.916428 23.994087 40.310762 0.586096 0.933247 0.044135 0.001529 -202599.000000 0 0 1
26.158377 17.023728 24.952087 39.958411 0.576934 0.896367 0.026805 0.003622 -126192.000000 0 0 1
25.823677 15.789728 24.390987 38.872845 0.548792 0.892515 0.029491 -0.007429 758250.000000 0 0 1
24.800077 15.213528 25.240687 38.517367 0.550248 0.856208 0.025964 -0.003611 424715.000000 0 0 1
24.119377 14.053528 24.488487 37.133974 0.527576 0.850692 0.024640 0.001018 190518.000000 0 0 1
23.045477 13.387728 25.164187 36.654626 0.526277 0.814102 0.017782 0.000418 551079.000000 0 0 1
22.481777 12.430328 24.306087 35.365650 0.505072 0.813059 0.022933 0.002969 -600083.000000 0 0 1
21.323777 11.638328 24.874987 34.769514 0.499606 0.773564 0.023267 -0.006858 -373200.000000 0 0 1
20.177877 12.411228 25.165787 34.561570 0.551442 0.755187 0.039631 -0.009625 55634.700000 0 0 1
18.984977 11.677128 25.134187 33.593333 0.551428 0.725467 0.045278 -0.012134 -124119.000000 0 0 1
17.670677 12.451628 25.239487 33.231424 0.613839 0.708242 0.040752 -0.020490 -185459.000000 0 0 1
17.454777 13.021228 26.487187 34.289834 0.640935 0.688106 0.060316 -0.017933 559036.000000 0 0 1
16.140077 13.578028 26.584787 33.935466 0.699399 0.670691 0.081899 -0.019229 438343.000000 0 0 1
15.780977 13.976528 28.039187 35.079603 0.724834 0.644664 0.065255 -0.014094 -58420.400000 0 0 1
15.415577 12.865328 28.851887 35.150933 0.695466 0.607986 0.061646 -0.014241 -34073.300000 0 0 1
15.607877 12.987228 30.247587 36.430625 0.694007 0.591188 0.052327 -0.016163 436200.000000 0 0 1
17.029077 12.813428 30.905187 37.540698 0.645063 0.603693 0.055603 -0.006884 260755.000000 0 0 1
17.878477 13.864028 30.609787 38.063240 0.659597 0.636498 0.072576 -0.011029 -640697.000000 0 0 1
19.217977 13.475928 30.510387 38.494350 0.611541 0.655745 0.063039 0.001476 -195824.000000 0 0 1
20.159777 14.681228 30.079387 39.073323 0.629431 0.692239 0.052712 0.006116 -6929.180000 0 0 1
19.984777 15.381128 28.877987 38.339386 0.655954 0.717853 0.068238 -0.005422 169516.000000 0 0 1
20.058077 14.623228 27.700087 37.194893 0.629954 0.730669 0.059232 -0.005897 -413910.000000 0 0 1
19.967777 15.469228 26.453587 36.575968 0.659129 0.762299 0.055246 -0.009301 -322970.000000 0 0 1
21.106577 16.235528 26.145087 37.318166 0.655687 0.794559 0.051146 -0.002203 72303.000000 0 0 1
20.916177 16.826728 24.871887 36.595573 0.677469 0.823522 0.039822 -0.009503 -1404970.000000 0 0 1
22.112477 17.473528 24.304787 37.215702 0.668744 0.859153 0.045567 -0.012213 -1604330.000000 0 0 1
21.899777 17.917228 22.940287 36.426420 0.685708 0.889539 0.051244 -0.018137 79955.900000 0 0 1
23.024477 18.527828 22.324987 37.037980 0.677601 0.923842 0.055550 -0.021346 161593.000000 0 0 1
23.430877 19.950328 22.825887 38.315045 0.705338 0.932607 0.069597 -0.025407 61240.100000 0 0 1
22.425377 20.930828 22.573887 38.086447 0.750940 0.936388 0.071797 -0.024475 349834.000000 0 0 1
22.642377 22.063128 23.374987 39.317285 0.772442 0.934125 0.091315 -0.023712 1025620.000000 0 0 1
21.521477 23.179628 23.115387 39.176399 0.822475 0.939696 0.077059 -0.020215 969929.000000 0 0 1
21.867177 23.952288 22.018287 39.200644 0.830874 0.974379 0.080422 -0.017605 -399928.000000 0 0 1
20.904777 24.903158 21.727287 39.105652 0.872463 0.981706 0.080520 -0.007632 -539842.000000 0 0 1
21.358677 25.935808 20.680387 39.452980 0.881877 1.019047 0.075247 -0.008956 -72913.200000 0 0 1
21.546277 25.418618 19.349287 38.532364 0.867664 1.044705 0.077355 -0.010772 137432.000000 0 0 1
21.599277 26.573248 18.464687 38.905153 0.888287 1.076278 0.063573 -0.004316 -104630.000000 0 0 1
21.501877 26.142738 17.002887 37.879699 0.882498 1.105301 0.055098 0.002511 -1159630.000000 0 0 1
20.265577 25.716098 16.576387 36.698609 0.903384 1.102138 0.051200 0.006156 -1040070.000000 0 0 1
20.471477 25.361488 15.269187 35.992145 0.891688 1.132678 0.054806 0.002883 -321068.000000 0 0 1
19.261777 24.867408 14.397687 34.593315 0.911749 1.141536 0.055572 0.005477 862302.000000 0 0 1
18.255477 25.805578 14.014487 34.577394 0.955105 1.153481 0.045914 0.008813 318150.000000 0 0 1
17.431177 26.171228 15.116887 34.889818 0.983225 1.122673 0.039055 0.010804 -1064240.000000 0 0 1
16.079877 26.895658 14.803987 34.656845 1.031951 1.129448 0.029288 0.013783 324464.000000 0 0 1
15.104477 26.027408 14.222187 33.284258 1.044966 1.129298 0.041401 0.010319 425380.000000 0 0 1
14.510277 25.012958 15.030087 32.589872 1.045130 1.091462 0.057890 -0.004405 -359199.000000 0 0 1
13.531377 25.467858 16.152787 33.054841 1.082414 1.060236 0.059322 -0.008540 -216085.000000 0 0 1
14.145277 26.380438 17.052487 34.450017 1.078607 1.052971 0.062632 -0.006918 -150242.000000 0 0 1
13.239977 26.707518 18.034887 34.840288 1.110563 1.026701 0.062952 -0.011544 -333521.000000 0 0 1
13.764277 27.935488 18.812987 36.383723 1.112992 1.027370 0.068224 -0.009715 -131982.000000 0 0 1
13.631977 29.084138 18.015587 36.827697 1.132494 1.059640 0.057836 -0.016439 337587.000000 0 0 1
14.328277 30.139418 18.684887 38.246687 1.127022 1.060385 0.050107 -0.016617 119993.000000 0 0 1
14.498177 31.392428 17.865387 38.921122 1.138143 1.093910 0.039107 -0.014118 -199380.000000 0 0 1
13.217277 31.915488 17.617887 38.777374 1.178165 1.099172 0.045516 -0.016651 -66059.100000 0 0 1
13.164777 33.127013 16.960487 39.476176 1.192531 1.126704 0.038673 -0.012314 873536.000000 0 0 1
11.732477 33.773551 17.217487 39.683065 1.236452 1.122007 0.043222 -0.014470 1129230.000000 0 0 1
11.442677 -33.520467 16.828787 39.214342 -1.241836 1.127246 0.039602 -0.009896 545371.000000 0 0 1
12.272077 -32.462787 17.453387 38.846585 -1.209367 1.104826 0.037894 -0.013817 624648.000000 0 0 1
11.953377 -32.305397 19.004687 39.340819 -1.216406 1.066630 0.046742 -0.023163 198737.000000 0 0 1
12.661977 -33.328447 19.720987 40.743446 -1.207724 1.065544 0.053500 -0.023076 291087.000000 0 0 1
12.709277 -33.128027 21.099587 41.281769 -1.204471 1.034319 0.049597 -0.017296 -1414780.000000 0 0 1
13.804477 -33.860557 21.742587 42.542226 -1.183682 1.034353 0.056139 -0.013782 -197469.000000 0 0 1
15.072477 -33.270957 21.356787 42.311328 -1.145432 1.041700 0.059891 -0.008463 1248340.000000 0 0 1
16.117777 -33.581027 22.319087 43.423608 -1.123303 1.030972 0.061451 -0.008256 92271.100000 0 0 1
17.399177 -32.822617 22.165487 43.259269 -1.083362 1.032834 0.056233 -0.004814 -678587.000000 0 0 1
17.206177 -31.431847 22.419387 42.268693 -1.069942 1.011722 0.070535 -0.006402 159262.000000 0 0 1
18.432477 -30.727917 22.453687 42.286276 -1.030479 1.011025 0.060259 -0.003818 111228.000000 0 0 1
-4.945023 13.055123 18.267023 22.990729 -1.208716 0.652549 0.022415 0.001324 -244527.000000 0 1 0
-4.699323 14.465723 18.045223 23.600230 -1.256692 0.700344 0.028938 0.002331 -137410.000000 0 1 0
-5.884123 15.091023 17.662223 23.964891 -1.199019 0.742169 0.023438 -0.003032 -443227.000000 0 1 0
-5.625823 16.578423 17.297023 24.610587 -1.243644 0.791430 0.036968 -0.010449 126337.000000 0 1 0
-5.185323 17.302623 18.460923 25.827776 -1.279629 0.774501 0.039026 -0.001361 195014.000000 0 0 1
-4.847923 18.622823 18.217523 26.498869 -1.316127 0.812779 0.043174 -0.007087 -601101.000000 0 0 1
-4.129323 19.150723 19.457723 27.611673 -1.358425 0.788807 0.030131 -0.004003 -352353.000000 0 0 1
-4.935223 19.247623 20.628723 28.642130 -1.319797 0.766673 0.010128 0.002190 -94349.900000 0 0 1
-4.382823 20.079723 21.650823 29.852346 -1.355896 0.759379 0.012569 0.001327 115413.000000 0 0 1
-5.497223 20.501123 22.651223 31.041801 -1.308817 0.752912 -0.001835 0.000930 275256.000000 0 0 1
-5.951623 19.396123 23.377223 30.953610 -1.273071 0.714785 -0.005511 -0.003238 -292157.000000 0 0 1
-6.583123 19.613723 24.615473 32.155204 -1.246972 0.698946 -0.024271 -0.002861 382828.000000 0 0 1
-5.636923 20.131523 25.767033 33.181216 -1.297783 0.681617 -0.027379 -0.001269 -65505.700000 0 0 1
-5.252223 21.491023 25.588813 33.826576 -1.331103 0.712896 -0.020897 -0.004732 176605.000000 0 0 1
-4.394123 21.930923 26.654153 34.795367 -1.373053 0.698161 -0.016320 0.003034 704179.000000 0 0 1
-2.874023 21.677523 26.451263 34.319737 -1.438984 0.690810 -0.001174 0.007829 -49380.400000 0 0 1
-2.564523 20.313323 26.694983 33.642681 -1.445212 0.654281 0.008537 0.011453 -886829.000000 0 0 1
-1.196023 20.128923 26.517203 33.313152 -1.511448 0.650142 0.014311 0.013926 -472614.000000 0 0 1
-0.597123 18.777123 26.994863 32.888593 -1.539006 0.607991 0.017813 0.015328 -198596.000000 0 0 1
-0.983623 17.625323 26.248233 31.632092 -1.515047 0.592051 0.026464 0.010511 -165360.000000 0 0 1
-0.356023 16.380723 26.550743 31.199308 -1.549065 0.552902 0.025039 0.007832 1281.020000 0 0 1
1.115177 16.109623 26.152943 30.736623 1.501682 0.553153 0.028544 0.009824 -242053.000000 0 0 1
1.425977 15.735223 24.837053 29.436540 1.480420 0.566566 0.025499 0.012405 -118130.000000 0 0 1
1.150777 14.340323 24.576413 28.477522 1.490720 0.529597 0.032281 0.011664 -302140.000000 0 0 1
1.203377 14.144023 23.074323 27.091067 1.485920 0.551515 0.026327 0.004854 -23929.400000 0 0 1
2.473477 14.467323 22.564923 26.918345 1.401464 0.576688 0.019974 -0.000908 -385110.000000 0 0 1
2.811377 13.574823 21.500123 25.581926 1.366581 0.572698 0.017476 -0.007155 -399682.000000 0 0 1
4.241777 13.813923 21.049223 25.532077 1.272870 0.601615 0.017997 -0.008257 -413248.000000 0 0 1
4.385177 14.886023 20.168323 25.447686 1.284316 0.655832 0.018523 -0.010288 1076350.000000 0 0 1
5.799677 15.222523 20.071723 25.850252 1.206782 0.681765 0.030857 -0.009784 1612240.000000 0 0 1
6.291377 16.138423 18.903423 25.639219 1.199081 0.741753 0.039498 -0.010742 38021.500000 0 0 1
6.092377 15.525323 17.629223 24.268132 1.196845 0.757676 0.041106 -0.024536 48827.400000 0 1 0
6.419077 16.474523 16.611923 24.260471 1.199256 0.816560 0.036157 -0.015360 -187984.000000 0 1 0
6.455677 15.838923 15.210823 22.889220 1.183770 0.843917 0.037307 -0.017723 443633.000000 0 1 0
7.638177 15.078123 14.948023 22.564019 1.101904 0.846683 0.030043 -0.016715 441901.000000 0 1 0
7.885077 13.965523 15.765023 22.488802 1.056805 0.793974 0.037753 -0.014380 -548819.000000 0 1 0
8.958777 13.037823 15.204623 21.941401 0.968755 0.805203 0.045430 -0.018103 469457.000000 0 1 0
10.326077 13.412923 15.383823 22.873486 0.914705 0.833132 0.052046 -0.018961 493560.000000 0 1 0
11.128077 12.672223 14.471523 22.222608 0.850187 0.861622 0.061093 -0.014073 11634.800000 0 1 0
12.528277 13.306123 14.306323 23.209513 0.815498 0.906635 0.058023 -0.009279 -352139.000000 0 1 0
13.326177 13.111923 15.461823 24.260616 0.777294 0.879778 0.057290 -0.012419 608978.000000 0 1 0
14.561377 13.841523 15.443223 25.339980 0.760059 0.915441 0.045632 -0.009187 899173.000000 0 0 1
15.764877 13.123623 14.777423 25.281081 0.694222 0.946502 0.046269 -0.004664 -828770.000000 0 0 1
16.996077 13.740423 14.962323 26.486543 0.679870 0.970481 0.047578 -0.012833 -823970.000000 0 0 1
17.915077 13.300523 14.035123 26.359791 0.638633 1.009311 0.047042 -0.009104 166883.000000 0 0 1
19.317477 13.985423 14.260223 27.786884 0.626638 1.031887 0.040757 -0.016250 424954.000000 0 0 1
20.094377 13.418223 15.242823 28.568800 0.588759 1.008006 0.024876 -0.014263 445824.000000 0 0 1
21.487377 13.753523 15.055823 29.623379 0.569366 1.037655 0.024868 -0.026427 636914.000000 0 0 1
22.251577 13.298423 16.274723 30.607962 0.538682 1.010172 0.037654 -0.018777 -447515.000000 0 0 1
22.547377 11.924523 16.402623 30.325311 0.486472 0.999303 0.028076 -0.016301 984020.000000 0 0 1
23.579277 11.756123 17.404723 31.577098 0.462510 0.987016 0.030363 -0.019037 266329.000000 0 0 1
23.871477 10.301923 17.746923 31.479046 0.407412 0.971854 0.027581 -0.011334 -269853.000000 0 0 1
22.706577 9.680723 18.255223 30.701111 0.403005 0.934014 0.007186 -0.011188 513005.000000 0 0 1
22.785277 8.246923 18.193123 30.301325 0.347273 0.926787 -0.007635 -0.008669 -622272.000000 0 0 1
21.400577 7.664123 18.402223 29.246629 0.343896 0.890262 0.030857 -0.006951 -811118.000000 0 0 1
21.392077 6.227523 18.122223 28.719644 0.283284 0.887949 0.043959 -0.017616 -260666.000000 0 0 1
20.282577 5.623323 18.673323 28.137123 0.270456 0.845103 0.037704 -0.015121 -918609.000000 0 0 1
20.087077 4.143823 18.206123 27.424895 0.203439 0.844836 0.061178 -0.013105 -535605.000000 0 0 1
19.419977 4.101823 16.939523 26.094212 0.208157 0.864306 0.063833 -0.022325 623834.000000 0 0 1
19.073277 2.862823 16.289723 25.245608 0.148984 0.869446 0.050499 -0.024230 -59691.400000 0 0 1
18.073877 1.972523 17.038123 24.916932 0.108706 0.817843 0.063159 -0.015043 -394016.000000 0 1 0
18.624477 1.355723 18.140823 26.034565 0.072664 0.799873 0.066221 -0.020039 378622.000000 0 0 1
17.553277 0.761123 18.886823 25.795521 0.043334 0.749287 0.061900 -0.007945 163009.000000 0 0 1
17.902477 -0.387377 19.844423 26.729195 -0.021635 0.734113 0.061118 -0.012893 -377094.000000 0 0 1
18.461777 -1.561377 19.315723 26.765132 -0.084373 0.764578 0.069329 -0.011379 -317582.000000 0 0 1
18.132377 -2.666977 20.136323 27.228062 -0.146037 0.738405 0.053327 -0.007373 130804.000000 0 0 1
18.149177 -3.994377 19.321623 26.808073 -0.216632 0.765929 0.050596 -0.003298 -56415.600000 0 0 1
17.230577 -3.978377 18.264023 25.422329 -0.226914 0.769262 0.026932 -0.002139 33376.900000 0 0 1
17.056877 -5.206577 17.657523 25.096486 -0.296264 0.790366 0.042081 -0.008424 -346270.000000 0 0 1
16.750877 -5.053377 16.137523 23.802272 -0.292996 0.825782 0.020324 -0.004962 -144844.000000 0 1 0
15.415477 -4.658177 15.904223 22.633600 -0.293451 0.791636 0.006343 -0.000004 38123.500000 0 1 0
15.078477 -4.461177 14.552823 21.425387 -0.287658 0.824080 0.007041 -0.006111 119513.000000 0 1 0
15.579077 -3.194477 13.811423 21.063422 -0.202246 0.855678 0.009349 -0.000819 77017.900000 0 1 0
14.696077 -2.121277 13.994423 20.403881 -0.143353 0.814997 0.000276 0.007737 401592.000000 0 1 0
15.396877 -0.983577 13.484323 20.490442 -0.063795 0.852532 0.015256 0.000670 500506.000000 0 1 0
14.520577 0.236523 13.059323 19.530720 0.016287 0.838397 0.022811 -0.002923 70989.600000 0 1 0
15.304977 1.348523 12.576023 19.854903 0.087883 0.884862 0.041319 -0.006885 395254.000000 0 1 0
16.000277 2.024023 13.574023 21.079840 0.125831 0.871167 0.049523 -0.014132 -226846.000000 0 1 0
16.205077 3.481923 13.234023 21.210084 0.211648 0.897010 0.049147 -0.010033 -679501.000000 0 1 0
15.076477 4.263423 13.378923 20.602731 0.275591 0.864032 0.052471 -0.006599 -299030.000000 0 1 0
15.243477 5.457423 12.712823 20.585503 0.343799 0.905157 0.053884 -0.011493 -969856.000000 0 1 0
14.134677 6.426223 12.753023 20.092910 0.426708 0.883173 0.063075 -0.017177 -1080230.000000 0 1 0
14.532377 7.587723 12.037123 20.338531 0.481191 0.937459 0.054700 -0.022550 635223.000000 0 1 0
13.547877 8.632723 12.032723 20.071256 0.567325 0.927920 0.050736 -0.019585 177026.000000 0 1 0
13.641277 9.627123 13.232723 21.304246 0.614564 0.900612 0.057285 -0.024325 97816.700000 0 1 0
13.174277 9.050723 14.451023 21.547836 0.601947 0.835714 0.062965 -0.021430 584430.000000 0 1 0
13.712377 9.850223 15.501623 22.920656 0.622933 0.828046 0.076963 -0.027290 -7764.170000 0 1 0
13.437877 9.339423 16.919323 23.538582 0.607367 0.768734 0.076374 -0.023052 457030.000000 0 1 0
12.145977 9.747923 17.387323 23.342360 0.676302 0.730437 0.073422 -0.026994 312443.000000 0 1 0
11.605777 8.911323 18.385323 23.497358 0.654818 0.672218 0.083371 -0.020326 -50315.600000 0 1 0
12.334377 8.874523 19.775623 24.939312 0.623690 0.655161 0.093399 -0.025861 553329.000000 0 1 0
13.663177 8.336123 19.796723 25.457486 0.547825 0.679895 0.096624 -0.027312 621782.000000 0 0 1
14.186177 8.443423 21.144023 26.825524 0.536873 0.662909 0.077825 -0.021545 -1140600.000000 0 0 1
15.649477 8.107923 21.101723 27.494131 0.478019 0.695865 0.065688 -0.015021 -1355420.000000 0 0 1
16.356477 9.106523 20.406223 27.692545 0.508013 0.742345 0.073413 -0.010457 -532003.000000 0 0 1
17.596577 8.597423 20.000023 27.992073 0.454474 0.774903 0.061564 -0.011261 -823151.000000 0 0 1
18.313977 9.684423 19.230023 28.266298 0.486421 0.822602 0.060156 -0.009381 -468090.000000 0 0 1
18.860077 10.732523 20.048823 29.543948 0.517359 0.824928 0.041231 -0.011029 524445.000000 0 0 1
19.643677 11.639023 19.265023 29.874437 0.534892 0.869948 0.035879 -0.011239 255726.000000 0 0 1
20.572177 12.575123 20.058023 31.363553 0.548664 0.876906 0.025463 -0.007541 -418733.000000 0 0 1
19.910177 13.727223 20.648523 31.799580 0.603615 0.864089 0.040530 -0.013656 436116.000000 0 0 1
20.639477 14.462523 21.626223 33.209127 0.611210 0.861614 0.038608 -0.012229 -329501.000000 0 0 1
21.948177 15.157423 21.201723 34.073201 0.604390 0.899195 0.019594 -0.007482 -22139.100000 0 0 1
22.983877 14.254323 20.840323 34.143277 0.555131 0.914258 -0.007242 -0.000464 -489397.000000 0 0 1
24.230777 14.864223 20.959923 35.318466 0.550246 0.935452 0.006868 -0.002936 -597481.000000 0 0 1
25.415977 13.906423 20.973123 35.766358 0.500655 0.944198 -0.004692 -0.002477 -310016.000000 0 0 1
25.585777 13.213923 19.739523 34.912584 0.476725 0.969880 -0.000441 -0.012832 -265359.000000 0 0 1
26.842677 12.608523 19.663823 35.583284 0.439131 0.985299 0.016153 -0.014466 -360490.000000 0 0 1
27.175777 11.899723 18.385023 34.901796 0.412729 1.016007 0.039803 -0.015069 -475611.000000 0 0 1
27.362677 12.816323 17.345523 34.840227 0.438039 1.049668 0.036363 -0.027901 117831.000000 0 0 1
27.885377 12.106123 16.230823 34.461458 0.409586 1.080389 0.064100 -0.037831 -337916.000000 0 0 1
26.865977 11.531923 15.229323 32.965106 0.405456 1.090566 0.065809 -0.049046 -49172.500000 0 0 1
26.325677 12.640823 14.484123 32.597876 0.447659 1.110373 0.076860 -0.045977 262128.000000 0 0 1
25.385577 12.251223 13.494923 31.251127 0.449636 1.124285 0.072408 -0.041997 187928.000000 0 0 1
24.815077 13.359223 12.592423 30.867880 0.493856 1.150593 0.064799 -0.042356 13243.000000 0 0 1
24.001777 14.362823 13.156323 30.910594 0.539247 1.131144 0.046689 -0.030337 256398.000000 0 0 1
24.154577 15.619523 12.490323 31.359548 0.574016 1.161140 0.045119 -0.027598 -306333.000000 0 0 1
23.230977 16.699323 13.077723 31.457472 0.623258 1.142054 0.042093 -0.021063 -276516.000000 0 0 1
21.865477 16.387323 13.091523 30.299033 0.643156 1.124001 0.047400 -0.024421 32494.000000 0 0 1
20.966577 17.430123 13.443523 30.399586 0.693554 1.112716 0.047164 -0.022692 -449852.000000 0 0 1
20.390777 18.302523 12.303823 30.035815 0.731481 1.148739 0.055577 -0.014478 279184.000000 0 0 1
19.245777 17.807523 11.610023 28.675781 0.746602 1.153957 0.043756 -0.007867 476592.000000 0 0 1
18.039777 17.774623 12.341523 28.172397 0.777995 1.117344 0.044337 -0.008714 -242656.000000 0 0 1
16.821477 17.153523 11.608823 26.682770 0.795171 1.120682 0.042665 0.001114 139436.000000 0 0 1
16.858577 15.762423 11.604323 25.832652 0.751808 1.104914 0.045220 0.000803 -652132.000000 0 0 1
15.717577 15.297423 11.007623 24.540194 0.771852 1.105649 0.050065 -0.006830 -855047.000000 0 1 0
15.883877 13.916023 10.265423 23.480463 0.719458 1.118324 0.058482 -0.012824 -226022.000000 0 1 0
16.120077 12.782123 11.170823 23.409973 0.670416 1.073351 0.071988 -0.005012 441185.000000 0 1 0
16.468777 11.686423 10.388023 22.709120 0.617147 1.095684 0.061798 -0.006304 -549786.000000 0 1 0
17.188977 10.596023 11.079823 23.032566 0.552422 1.068944 0.071920 -0.009301 -1528370.000000 0 1 0
17.741377 9.628023 10.256723 22.641900 0.497212 1.100672 0.070603 -0.013539 489828.000000 0 1 0
18.236177 8.419523 10.931423 22.867937 0.432536 1.072393 0.079297 -0.013930 694367.000000 0 1 0
19.390477 8.608023 11.961823 24.355161 0.417795 1.057397 0.054343 -0.014678 -690838.000000 0 1 0
18.885677 9.282423 13.086423 24.780772 0.456829 1.014449 0.037293 -0.013874 64507.300000 0 1 0
19.779777 9.806523 14.088023 26.189308 0.460270 1.002816 0.028040 -0.010792 -443789.000000 0 0 1
19.166077 9.839823 15.532223 26.559567 0.474308 0.946154 0.014074 -0.005893 203577.000000 0 0 1
18.860077 8.570723 16.160623 26.274047 0.426538 0.908310 0.036797 -0.013633 979234.000000 0 0 1
17.796077 7.843523 15.501223 24.869844 0.415130 0.897848 0.060172 -0.028363 60198.200000 0 1 0
17.313977 6.577623 16.179123 24.592742 0.363062 0.852793 0.061976 -0.020268 -929457.000000 0 1 0
16.726277 6.938823 17.400623 25.113687 0.393238 0.805329 0.086605 -0.016031 342284.000000 0 0 1
15.959077 5.932223 18.090623 24.842585 0.355887 0.755090 0.084396 -0.001282 377329.000000 0 1 0
14.591377 5.684823 17.402423 23.410891 0.371510 0.732736 0.090977 -0.021778 -777386.000000 0 1 0
14.011177 4.445023 17.657323 22.975038 0.307205 0.694234 0.087354 -0.015163 296010.000000 0 1 0
13.447577 3.769723 16.528923 21.639164 0.273312 0.701550 0.076656 -0.017665 56523.700000 0 1 0
13.151277 2.246923 16.722823 21.392933 0.169218 0.673412 0.051526 -0.010510 60463.900000 0 1 0
14.308877 1.474023 16.971223 22.247227 0.102652 0.703092 0.039434 -0.005393 205322.000000 0 1 0
14.075877 0.066623 16.847823 21.954132 0.004733 0.696004 0.034310 0.000500 -35926.000000 0 1 0
13.180377 -0.730277 17.838823 22.191874 -0.055350 0.637065 0.029791 -0.001777 1102580.000000 0 1 0
11.776877 -0.493577 17.607023 21.188339 -0.041886 0.589935 0.023811 0.001611 665579.000000 0 1 0
11.024777 -1.533877 18.224323 21.354729 -0.138243 0.548305 0.018867 -0.002195 176768.000000 0 1 0
-25.550943 14.067123 28.454983 40.748260 -0.503267 0.797760 0.074737 -0.016789 -619891.000000 0 0 1
-24.639923 14.262323 29.498143 40.996099 -0.524708 0.767663 0.067215 -0.008455 -14635.600000 0 0 1
-23.963823 13.038523 29.770313 40.379939 -0.498296 0.741798 0.057763 -0.008662 49352.700000 0 0 1
-22.792123 13.176023 30.774893 40.499167 -0.524157 0.707653 0.063576 -0.018843 -121793.000000 0 0 1
-23.171023 13.410223 32.111553 41.807682 -0.524648 0.694962 0.064532 -0.018647 251907.000000 0 0 1
-22.087623 13.306323 33.050083 41.919319 -0.542207 0.662558 0.048384 -0.013689 331979.000000 0 0 1
-22.505723 13.479923 -33.966143 42.917534 -0.539651 2.483938 0.054835 -0.014002 195151.000000 0 0 1
-23.119323 12.332823 -33.349803 42.412392 -0.490042 2.475630 0.033332 -0.009784 234493.000000 0 0 1
-23.707423 12.636223 -32.096443 41.855677 -0.489703 2.444693 0.035810 -0.016793 176290.000000 0 0 1
-24.470223 11.438523 -31.461693 41.466489 -0.437267 2.432151 0.028919 -0.021059 80676.300000 0 0 1
-23.644023 10.437623 -30.878393 40.267344 -0.415720 2.444691 0.029434 -0.023440 227670.000000 0 0 1
-23.375923 9.353823 -31.759123 40.528628 -0.380634 2.471271 0.015710 -0.015419 21636.400000 0 0 1
-22.602923 8.275623 -30.961653 39.217369 -0.350972 2.480771 0.014619 -0.011213 69611.200000 0 0 1
-23.421623 7.557123 -30.033563 38.829080 -0.312110 2.455112 0.014552 -0.014713 895743.000000 0 0 1
-22.584223 6.720423 -29.224263 37.540229 -0.289227 2.463035 0.013058 -0.005073 58651.300000 0 0 1
-23.368523 6.011723 -28.140563 37.069124 -0.251797 2.432783 0.012813 -0.004426 -690015.000000 0 0 1
-23.996123 4.873023 -28.474283 37.554561 -0.200351 2.431361 0.022008 -0.008567 -150085.000000 0 0 1
-24.441223 4.085323 -27.357463 36.911977 -0.165618 2.405584 0.038508 -0.004680 90822.700000 0 0 1
-25.362573 2.839623 -27.659213 37.634501 -0.111497 2.396379 0.041700 -0.004625 1148280.000000 0 0 1
-26.651883 2.981323 -28.271673 38.967918 -0.111399 2.382574 0.041040 -0.002303 725157.000000 0 0 1
-26.764883 3.681723 -29.512133 40.010999 -0.136700 2.400306 0.034794 -0.001182 -319192.000000 0 0 1
-28.159553 3.479223 -30.172293 41.417782 -0.122931 2.386906 0.051703 -0.001751 572391.000000 0 0 1
-29.269213 3.905823 -29.370443 41.648112 -0.132661 2.353508 0.042725 -0.002577 1193840.000000 0 0 1
-30.492613 4.097823 -30.109733 43.048666 -0.133587 2.345403 0.040675 -0.004438 934904.000000 0 0 1
-30.563983 5.560723 -30.690703 43.669188 -0.179969 2.350122 0.044013 -0.026676 -747992.000000 0 0 1
-29.794153 5.780123 -31.847963 43.993115 -0.191622 2.380279 0.060308 -0.022756 110225.000000 0 0 1
-29.974943 7.045523 -32.504673 44.773769 -0.230857 2.383249 0.057023 -0.022293 -572903.000000 0 0 1
-29.501633 8.330723 -31.759913 44.141130 -0.275216 2.373890 0.045261 -0.031523 211130.000000 0 0 1
-28.100363 8.505323 -31.556363 43.101914 -0.293911 2.392245 0.028095 -0.037224 628110.000000 0 0 1
-27.543123 7.996923 -30.334613 41.746415 -0.282573 2.384215 0.021894 -0.039791 -237118.000000 0 0 1
-27.900833 8.750523 -29.053093 41.220266 -0.303914 2.352973 0.013290 -0.029217 -537697.000000 0 0 1
-29.242983 8.725823 -28.652893 41.860248 -0.289979 2.324699 0.018328 -0.030425 -257556.000000 0 0 1
-29.565663 7.646023 -27.806543 41.301258 -0.253067 2.309407 0.022503 -0.025494 115779.000000 0 0 1
-30.947913 7.986923 -27.144943 41.933426 -0.252565 2.274878 0.017737 -0.024512 295562.000000 0 0 1
-31.014313 8.864423 -25.980813 41.418212 -0.278395 2.248852 -0.001724 -0.019224 -143096.000000 0 0 1
-30.600773 8.102223 -24.812613 40.220879 -0.258833 2.235605 0.007273 -0.014913 2959.800000 0 0 1
-29.967213 8.921623 -23.682413 39.223538 -0.289357 2.219032 0.001537 -0.008410 -268880.000000 0 0 1
-30.801023 9.981223 -23.162913 39.810154 -0.313377 2.191779 0.011174 -0.007683 159889.000000 0 0 1
-30.106043 10.955623 -22.434713 39.111582 -0.349005 2.181700 0.010108 -0.005902 -883319.000000 0 0 1
-30.943273 11.899123 -21.620313 39.579202 -0.367114 2.148682 0.008099 -0.005372 -731195.000000 0 0 1
-31.498533 11.194223 -20.525013 39.226832 -0.341467 2.121444 0.005917 -0.009504 -14734.200000 0 0 1
-32.196683 12.085823 -19.718713 39.642416 -0.359099 2.091412 0.014141 -0.011857 -76396.100000 0 0 1
-31.299873 12.871723 -18.715113 38.673231 -0.390157 2.075936 0.015679 -0.011608 -16171.400000 0 0 1
-30.794643 12.214523 -17.560713 37.495110 -0.377610 2.058215 0.037795 -0.008301 448328.000000 0 0 1
-31.800183 11.872523 -16.620713 37.794928 -0.357321 2.026128 0.032346 -0.005189 227920.000000 0 0 1
-32.335163 13.003023 -15.669213 38.212113 -0.382343 1.993315 0.032304 -0.004616 -93845.100000 0 0 1
-32.803143 14.171423 -16.294713 39.273313 -0.407797 1.998635 0.025841 -0.009993 18091.200000 0 0 1
-33.633193 14.897823 -15.455413 39.899957 -0.416976 1.968556 0.025091 -0.000634 -114695.000000 0 0 1
-34.439173 16.114723 -15.966113 41.239031 -0.437655 1.968346 0.031528 -0.007409 536202.000000 0 0 1
-35.336313 15.709623 -17.008613 42.246186 -0.418333 1.985159 0.030395 -0.015464 108946.000000 0 0 1
-36.105833 16.735223 -17.556213 43.496201 -0.434028 1.986273 0.026778 -0.016971 -145307.000000 0 0 1
35.539573 16.303823 -18.927713 43.441158 0.430108 2.021622 0.026300 -0.014212 272485.000000 0 0 1
34.438313 15.423223 -18.890613 42.198678 0.421065 2.034942 0.051817 -0.022575 -292110.000000 0 0 1
33.212443 16.098223 -18.935413 41.482153 0.451337 2.044821 0.082737 -0.030524 -89327.000000 0 0 1
31.995753 15.096823 -19.008413 40.161698 0.440866 2.063826 0.095914 -0.033602 315680.000000 0 0 1
31.865963 14.609223 -20.352513 40.535093 0.429866 2.096817 0.088715 -0.030425 74335.700000 0 0 1
30.970133 13.534323 -20.447913 39.502458 0.412001 2.114883 0.065812 -0.029266 -60972.300000 0 0 1
31.569063 12.103023 -20.129313 39.348166 0.366099 2.107806 0.059946 -0.012552 89177.500000 0 0 1
31.702693 11.937023 -18.747213 38.717067 0.360112 2.076257 0.071825 -0.017644 191208.000000 0 0 1
32.469003 10.757223 -18.556413 38.913936 0.319926 2.067873 0.057974 -0.014345 -229588.000000 0 0 1
32.520473 10.403723 -17.012113 38.147485 0.309624 2.033039 0.047419 -0.008566 -243651.000000 0 0 1
31.289433 9.898223 -16.527913 36.744732 0.306383 2.037342 0.054605 -0.010669 264731.000000 0 0 1
31.290253 9.735223 -15.135713 36.096320 0.301633 2.003487 0.039435 -0.007159 -128223.000000 0 0 1
30.816323 10.994323 -14.381313 35.739936 0.342693 1.984920 0.057439 -0.019264 -677519.000000 0 0 1
29.416083 11.085523 -14.417313 34.584009 0.360394 2.000804 0.060824 -0.017870 -294777.000000 0 0 1
29.071223 12.125523 -13.527913 34.280734 0.395158 1.976452 0.068463 -0.016250 -212867.000000 0 0 1
27.546273 12.254923 -13.373013 32.982082 0.418592 1.988282 0.086740 -0.017967 -343371.000000 0 0 1
26.991533 11.208023 -12.611913 31.831164 0.393577 1.978185 0.073234 -0.019799 162649.000000 0 0 1
25.601033 10.948323 -12.702913 30.604618 0.404114 1.998811 0.071230 -0.015410 236855.000000 0 0 1
25.127633 10.182723 -13.954113 30.492672 0.385015 2.046115 0.067169 -0.024258 -696436.000000 0 0 1
25.636433 8.879223 -13.927313 30.496513 0.333421 2.045062 0.058835 -0.020813 246365.000000 0 0 1
26.736033 8.662023 -14.781813 31.754497 0.313312 2.054999 0.070222 -0.022887 270312.000000 0 0 1
27.707893 7.532723 -14.260313 32.059722 0.265446 2.031752 0.073160 -0.013614 89577.800000 0 0 1
27.117633 6.265123 -14.272413 31.278100 0.227051 2.044637 0.068516 -0.018835 358895.000000 0 0 1
26.473633 5.784323 -13.121213 30.107771 0.215113 2.021732 0.075590 -0.018601 -103896.000000 0 0 1
25.660333 4.496123 -13.319113 29.258615 0.173456 2.043416 0.077253 -0.014503 -175778.000000 0 0 1
24.940233 4.019723 -12.212613 28.059246 0.159800 2.021105 0.079940 -0.015616 254648.000000 0 0 1
24.378733 2.749523 -12.335613 27.459968 0.112309 2.036690 0.057705 -0.015511 -329886.000000 0 0 1
23.534333 2.392223 -11.107413 26.133545 0.101300 2.009786 0.038979 -0.006084 148938.000000 0 0 1
24.291033 2.235323 -9.887713 26.321433 0.091764 1.955897 0.045596 -0.008330 1033200.000000 0 0 1
23.356433 2.173023 -8.823813 25.062016 0.092770 1.930588 0.040166 -0.003183 -18339.100000 0 0 1
23.994233 1.648423 -7.480913 25.187389 0.068593 1.872356 0.034808 -0.000607 -3726.130000 0 0 1
24.242733 0.264023 -7.178313 25.284540 0.010890 1.858657 0.024336 -0.007756 700027.000000 0 0 1
25.235533 -0.367077 -7.979913 26.469716 -0.014545 1.877034 0.034321 -0.005914 -262119.000000 0 0 1
25.419133 -1.896977 -7.859213 26.673921 -0.074490 1.869875 0.044685 -0.016063 -489303.000000 0 0 1
25.891633 -2.315277 -6.569913 26.812328 -0.089185 1.818350 0.066029 -0.015737 590547.000000 0 0 1
26.114533 -3.712877 -6.566913 27.182322 -0.141230 1.814798 0.063553 -0.017832 78354.100000 0 0 1
27.349983 -4.240077 -5.746613 28.267002 -0.153806 1.775521 0.052389 -0.022201 512864.000000 0 0 1
28.551363 -4.097277 -6.499513 29.567071 -0.142532 1.792429 0.056170 -0.022620 205985.000000 0 0 1
29.616913 -4.680777 -5.767813 30.534225 -0.156748 1.760835 0.075727 -0.017298 892381.000000 0 0 1
30.930773 -4.806877 -6.666913 32.004164 -0.154174 1.780647 0.088609 -0.019469 783177.000000 0 0 1
30.902753 -5.888377 -7.570813 32.356921 -0.188288 1.806964 0.070515 -0.013099 437788.000000 0 0 1
31.784163 -5.726077 -8.702313 33.447739 -0.178243 1.834001 0.070661 -0.020978 -271991.000000 0 0 1
31.445043 -6.756777 -9.837413 33.633606 -0.211657 1.867624 0.058693 -0.015568 803743.000000 0 0 1
30.236453 -6.570877 -10.617913 32.713294 -0.213989 1.901359 0.054436 -0.014127 1531950.000000 0 0 1
29.093063 -7.076277 -9.883013 31.530207 -0.238596 1.889616 0.050433 -0.016201 538664.000000 0 0 1
28.016563 -5.993577 -9.513513 30.188701 -0.210753 1.891395 0.042751 -0.008135 -524021.000000 0 0 1
27.229133 -5.570877 -10.622913 29.754103 -0.201808 1.935876 0.025898 -0.004171 501144.000000 0 0 1
26.079633 -4.837677 -10.267313 28.442364 -0.183412 1.940122 0.029134 -0.002669 133227.000000 0 0 1
24.822533 -5.552977 -9.756713 27.243112 -0.220084 1.937066 0.050262 -0.002501 -1560840.000000 0 0 1
25.041733 -6.445577 -8.629613 27.259935 -0.251925 1.892905 0.047324 -0.008045 1132400.000000 0 0 1
23.823633 -7.106077 -8.231513 26.188158 -0.289877 1.890539 0.061965 -0.012377 1056110.000000 0 0 1
22.608533 -6.330377 -7.628813 24.686397 -0.273008 1.884968 0.078506 -0.011777 194240.000000 0 1 0
22.021233 -5.374477 -8.506713 24.211234 -0.239379 1.929813 0.064288 -0.008169 331348.000000 0 1 0
22.018933 -4.053677 -7.989713 23.771858 -0.182061 1.913569 0.074585 -0.011725 101207.000000 0 1 0
21.553333 -2.989077 -9.054913 23.568457 -0.137804 1.965133 0.044074 -0.001332 -411670.000000 0 1 0
22.649633 -2.900677 -9.898213 24.887636 -0.127374 1.979823 0.023684 0.000668 250723.000000 0 1 0
22.491733 -2.073177 -11.003513 25.124757 -0.091915 2.024119 0.030532 0.002257 -149510.000000 0 0 1
23.777333 -2.001477 -11.868913 26.650301 -0.083978 2.032370 0.026177 -0.001180 223491.000000 0 0 1
24.845833 -1.283977 -11.269113 27.312212 -0.051632 1.996107 0.029599 -0.004796 633076.000000 0 0 1
25.966033 -1.285677 -12.128313 28.687694 -0.049473 2.007297 0.028585 -0.003964 397871.000000 0 0 1
27.128733 -0.301877 -11.760313 29.569651 -0.011127 1.979822 0.031551 -0.000891 393910.000000 0 0 1
28.259443 -0.410277 -12.606313 30.946463 -0.014517 1.990356 0.041940 -0.005972 1587990.000000 0 0 1
29.348563 0.505623 -12.185313 31.781687 0.017226 1.964278 0.056324 -0.008733 1320190.000000 0 0 1
29.440753 1.664223 -13.201513 32.308010 0.056468 1.991732 0.065902 -0.015323 -284140.000000 0 0 1
29.702253 1.287323 -14.539013 33.094772 0.043314 2.025632 0.046996 -0.011362 301576.000000 0 0 1
29.765713 2.388423 -15.383313 33.590900 0.080069 2.046496 0.049253 -0.010014 -21975.000000 0 0 1
30.088893 2.050123 -16.886013 34.564171 0.068030 2.081213 0.038294 -0.019339 534803.000000 0 0 1
28.908053 1.541723 -17.530113 33.843128 0.053281 2.115286 0.037997 -0.004936 729711.000000 0 0 1
29.191903 1.251923 -18.861113 34.777523 0.042860 2.144012 0.020964 -0.006484 -341926.000000 0 0 1
28.043133 0.554823 -19.604313 34.220669 0.019782 2.180811 0.006652 -0.002269 -630472.000000 0 0 1
28.056233 -0.828577 -19.359313 34.097239 -0.029524 2.174588 0.022089 -0.001149 289270.000000 0 0 1
27.707893 -1.494177 -20.584113 34.549466 -0.053874 2.209041 0.014611 -0.006904 -96655.400000 0 0 1
27.574923 -3.043477 -20.355313 34.408980 -0.109926 2.203801 0.031304 -0.016498 -141262.000000 0 0 1
26.470333 -3.271977 -19.511713 33.046805 -0.122985 2.202384 0.029515 -0.011391 24783.700000 0 0 1
26.080533 -4.619277 -19.505913 32.893959 -0.175298 2.205568 0.038849 -0.010171 19549.400000 0 0 1
26.914433 -5.522677 -18.548613 33.150229 -0.202385 2.164617 0.035052 -0.006457 1333070.000000 0 0 1
28.298833 -5.693577 -18.952713 34.531813 -0.198544 2.151782 0.031208 -0.010150 1193240.000000 0 0 1
29.110463 -5.821877 -17.796713 34.612661 -0.197388 2.110833 0.033389 -0.007492 -1144290.000000 0 0 1
30.580543 -5.646677 -18.019113 35.940826 -0.182593 2.095960 0.051934 -0.010759 -1181240.000000 0 0 1
31.215263 -6.576577 -18.848313 37.052704 -0.207648 2.104458 0.050067 -0.016210 -1278790.000000 0 0 1
32.507503 -6.206677 -19.122213 38.221978 -0.188660 2.094734 0.057662 -0.013893 -863179.000000 0 0 1
33.298103 -7.422777 -19.740013 39.414837 -0.219333 2.095350 0.056861 -0.009795 -48598.200000 0 0 1
33.474913 -8.407677 -18.773813 39.290137 -0.246073 2.068974 0.067093 -0.017257 -36662.800000 0 0 1
34.088463 -9.559377 -19.302313 40.323495 -0.273406 2.069954 0.059268 -0.009226 -204583.000000 0 0 1
34.974153 -10.295077 -18.292013 40.789431 -0.286277 2.035827 0.057016 -0.017355 -672870.000000 0 0 1
34.208463 -10.690377 -17.176813 39.743503 -0.302891 2.017718 0.053123 -0.013780 261861.000000 0 0 1
34.895833 -11.472377 -16.195213 40.144981 -0.317630 1.986046 0.067225 -0.022969 -177269.000000 0 0 1
-36.034383 -10.961077 -15.671413 40.794793 0.295291 1.965086 0.062812 -0.011609 -315813.000000 0 0 1
-35.420461 -11.650477 -14.587213 40.039099 0.317773 1.943703 0.063975 -0.017204 74159.600000 0 0 1
-34.890805 -12.897877 -14.944713 40.088252 0.354084 1.952816 0.057756 -0.023571 -783626.000000 0 0 1
-33.431773 -12.907777 -15.411813 39.010488 0.368460 1.976939 0.046666 -0.020063 -541578.000000 0 0 1
-33.372833 -12.265777 -16.670713 39.269682 0.352212 2.009227 0.052548 -0.015957 -233951.000000 0 0 1
-32.041733 -12.196577 -17.120813 38.321683 0.363712 2.033943 0.047701 -0.014597 -99977.800000 0 0 1
-31.747503 -11.156177 -18.220613 38.266891 0.337924 2.067063 0.064078 -0.013333 -11258.600000 0 0 1
-31.978473 -9.883977 -17.773913 37.897595 0.299768 2.058953 0.078386 -0.015039 128623.000000 0 0 1
-33.086603 -9.396877 -18.502313 39.055860 0.276722 2.064329 0.080906 -0.021629 -68129.300000 0 0 1
-33.778733 -8.119477 -18.023013 39.137676 0.235897 2.049358 0.082619 -0.020670 -269240.000000 0 0 1
-34.776948 -7.702177 -18.911813 40.328852 0.217955 2.058887 0.082448 -0.018571 150290.000000 0 0 1
-35.500000 -6.551177 -18.384413 40.511166 0.182487 2.041834 0.089323 -0.023423 229340.000000 0 0 1
24.558177 27.526123 -27.582693 46.060791 0.842320 2.212839 0.045241 0.013689 -142027.000000 0 0 1
25.056077 26.599823 -26.683313 45.247727 0.815274 2.201504 0.046484 0.003938 -313836.000000 0 0 1
26.361577 26.173323 -27.017273 45.933741 0.781815 2.199602 0.047188 -0.000323 -21325.200000 0 0 1
26.988477 25.295623 -25.913843 45.163854 0.753031 2.181903 0.039111 -0.007521 -312442.000000 0 0 1
27.376677 26.040223 -24.744613 45.164937 0.760384 2.150615 0.051598 -0.008326 340619.000000 0 0 1
27.683877 25.111423 -23.695013 44.254200 0.736712 2.135813 0.051646 -0.013474 -43300.000000 0 0 1
28.226377 25.804523 -22.416113 44.329267 0.740605 2.100958 0.051204 -0.007836 -203165.000000 0 0 1
27.273377 26.450923 -21.636613 43.722208 0.770091 2.088476 0.046752 -0.009268 -256275.000000 0 0 1
27.910177 27.152923 -20.590913 44.048211 0.771647 2.057215 0.027927 -0.011944 59371.000000 0 0 1
27.008677 28.196323 -19.851913 43.801823 0.806908 2.041172 0.037138 -0.007825 -287485.000000 0 0 1
26.043577 27.482923 -19.129913 42.420897 0.812282 2.038631 0.050673 -0.010070 -314312.000000 0 0 1
25.239877 28.400423 -18.403813 42.217718 0.844251 2.021864 0.038068 -0.009735 96701.300000 0 0 1
24.379077 27.677223 -17.348613 40.759569 0.848671 2.010458 0.046820 -0.010271 11940.000000 0 0 1
23.179277 27.078223 -17.770913 39.828562 0.862822 2.033294 0.058614 -0.008082 -99451.700000 0 0 1
22.287377 26.832523 -16.697213 38.671803 0.877667 2.017247 0.034846 0.003867 -407270.000000 0 0 1
21.147277 26.009323 -17.248213 37.698714 0.888139 2.046009 0.027510 0.003510 -930800.000000 0 0 1
20.466477 26.502323 -18.367513 38.191823 0.913205 2.072509 0.032662 0.001792 -63479.100000 0 0 1
19.790877 25.427823 -19.034113 37.423929 0.909418 2.104364 0.033087 0.002395 -37229.900000 0 0 1
19.167877 25.903723 -20.367913 38.121677 0.933748 2.134460 0.024697 0.009658 443217.000000 0 0 1
18.065077 26.756623 -20.059613 38.008577 0.976935 2.126764 0.006288 0.008802 154296.000000 0 0 1
17.120177 26.790423 -21.135813 38.177871 1.002164 2.157494 -0.002912 0.009966 181365.000000 0 0 1
16.019977 27.832823 -20.872613 38.301066 1.048527 2.147140 -0.002294 0.014029 -216115.000000 0 0 1
15.206977 27.552423 -19.776413 37.168463 1.066473 2.131846 0.004776 0.013504 -153841.000000 0 0 1
14.393977 28.625623 -19.333113 37.421680 1.104883 2.113705 0.001258 0.008161 73979.700000 0 0 1
13.908077 28.422323 -17.884313 36.347100 1.115716 2.085231 0.007978 0.000169 325510.000000 0 0 1
12.881077 27.438923 -17.807313 35.155612 1.131890 2.101950 0.009461 -0.000786 55308.400000 0 0 1
12.249677 27.478723 -16.521013 34.323151 1.151451 2.072976 0.021866 0.001957 94018.300000 0 0 1
11.397377 26.260323 -16.266113 32.925540 1.161315 2.087512 0.045515 0.000261 -356121.000000 0 0 1
12.192077 25.131723 -16.041113 32.211295 1.119118 2.092083 0.025943 0.001669 382984.000000 0 0 1
11.313477 24.009823 -15.999713 30.991243 1.130451 2.113281 0.049835 0.007641 650738.000000 0 0 1
12.213777 22.753023 -15.999913 30.378835 1.078145 2.125486 0.041258 0.003351 251242.000000 0 0 1
12.868577 22.693123 -17.246913 31.273537 1.054942 2.154941 0.041630 0.004713 -269234.000000 0 0 1
13.699777 21.539123 -17.418413 30.903379 1.004296 2.169583 0.050752 0.004970 -109750.000000 0 0 1
13.009277 20.222523 -17.848013 29.945672 0.999141 2.209323 0.055773 0.002493 -68842.900000 0 0 1
12.230477 19.732623 -16.773113 28.640850 1.015938 2.196461 0.056032 -0.002352 -181420.000000 0 0 1
11.753677 18.395923 -16.975613 27.653758 1.002244 2.231741 0.057706 -0.006292 17077.500000 0 0 1
12.842277 17.311923 -16.971113 27.434384 0.932553 2.237765 0.048638 -0.007192 -103718.000000 0 0 1
13.453977 16.999323 -15.747613 26.795033 0.901296 2.199017 0.049326 -0.010360 556946.000000 0 0 1
14.628077 16.180923 -15.893213 26.988833 0.835758 2.200470 0.053264 -0.011663 -171793.000000 0 0 1
15.170277 15.656623 -14.541913 26.205617 0.801174 2.159058 0.072104 -0.011200 -692895.000000 0 0 1
16.106677 16.447823 -13.831013 26.856151 0.795877 2.111808 0.059270 -0.005899 621855.000000 0 0 1
17.406577 16.562323 -14.394013 28.008696 0.760550 2.110536 0.049564 -0.003132 21292.700000 0 0 1
18.259277 15.258223 -14.731213 27.986125 0.696099 2.125128 0.042272 -0.010228 -583898.000000 0 0 1
18.708277 14.427023 -13.677813 27.298740 0.656905 2.095599 0.054170 -0.018747 252545.000000 0 0 1
19.534977 14.975023 -12.695513 27.695535 0.654025 2.046986 0.050626 -0.018051 -995317.000000 0 0 1
20.327077 13.946023 -11.936013 27.388867 0.601323 2.021721 0.061484 -0.019401 -585527.000000 0 0 1
19.608477 13.123323 -11.017413 26.040303 0.589801 2.007650 0.086893 -0.020944 99796.800000 0 0 1
20.349077 12.081723 -10.477413 25.881058 0.535792 1.987589 0.098252 -0.010366 -383754.000000 0 0 1
20.383977 10.795123 -11.315413 25.692017 0.487037 2.026869 0.076965 -0.013023 -886085.000000 0 0 1
21.154777 10.957023 -12.470013 26.890187 0.477901 2.053006 0.070718 -0.005079 245610.000000 0 0 1
21.335777 9.772923 -13.243813 26.946688 0.429531 2.084587 0.068285 -0.007852 134333.000000 0 0 1
22.103777 8.605223 -12.502013 26.812817 0.371257 2.055866 0.068899 -0.001934 -477103.000000 0 0 1
21.259877 7.989623 -11.550913 25.480189 0.359479 2.041293 0.059720 -0.013424 278089.000000 0 0 1
21.789877 6.900023 -10.902013 25.323170 0.306672 2.015860 0.057085 0.001335 -893171.000000 0 0 1
21.888277 5.563023 -11.741513 25.454018 0.248886 2.050237 0.053029 -0.003118 -213683.000000 0 0 1
20.736377 4.777123 -11.850913 24.356978 0.226424 2.078934 0.028276 -0.009133 244926.000000 0 1 0
19.703277 5.165223 -12.733113 24.021466 0.256381 2.129482 -0.011099 -0.013917 189353.000000 0 1 0
18.840377 3.961423 -13.216113 23.352052 0.207244 2.172382 -0.010399 -0.021889 45421.800000 0 1 0
19.621677 3.112223 -14.041513 24.328177 0.157301 2.186056 0.005788 -0.016822 640076.000000 0 1 0
18.996677 1.848623 -14.244513 23.815904 0.097008 2.211936 0.014769 -0.008916 -762707.000000 0 1 0
19.920477 0.874723 -14.899413 24.891425 0.043883 2.212519 0.036381 -0.010294 -875849.000000 0 1 0
20.965577 0.424623 -14.071413 25.253522 0.020251 2.161814 0.043321 -0.005391 225027.000000 0 0 1
22.050077 -0.035077 -14.891213 26.607430 -0.001591 2.164776 0.032904 -0.013992 203000.000000 0 0 1
22.085177 -1.465877 -15.515713 27.030375 -0.066277 2.182191 0.032925 -0.006421 -825797.000000 0 0 1
21.145377 -1.765377 -16.512513 26.886923 -0.083294 2.232101 0.021722 -0.003666 -265039.000000 0 0 1
21.567577 -2.760377 -17.369913 27.829731 -0.127295 2.244839 0.027195 -0.009116 -19069.100000 0 0 1
20.401277 -3.443577 -18.149513 27.522266 -0.167216 2.290881 0.023186 -0.013956 445701.000000 0 0 1
19.581877 -4.219777 -17.262913 26.443611 -0.212248 2.282097 0.038160 -0.012422 391174.000000 0 0 1
18.669977 -5.072477 -17.933913 26.380358 -0.265288 2.318314 0.037886 -0.013679 24594.500000 0 0 1
18.097477 -6.206377 -17.049413 25.626554 -0.330373 2.298695 0.047140 -0.019893 415602.000000 0 0 1
19.152777 -7.064077 -16.601013 26.312044 -0.353348 2.253545 0.045019 -0.010936 719762.000000 0 0 1
18.612877 -8.156277 -15.877913 25.788993 -0.413003 2.234052 0.049930 -0.009978 42865.500000 0 0 1
19.690677 -9.098377 -15.287213 26.536807 -0.432842 2.184716 0.065023 -0.010121 100742.000000 0 0 1
20.391577 -9.831877 -16.300913 27.896272 -0.449269 2.194863 0.069776 -0.015504 324700.000000 0 0 1
21.229977 -10.748977 -15.650813 28.481580 -0.468684 2.152570 0.063315 -0.019718 -569716.000000 0 0 1
21.915877 -11.762977 -16.566513 29.885157 -0.492600 2.158365 0.063589 -0.018837 -51337.700000 0 0 1
22.822077 -11.206877 -17.515813 30.874666 -0.456465 2.174044 0.064796 -0.013940 262201.000000 0 0 1
23.060277 -11.943177 -18.734213 32.021658 -0.477874 2.195736 0.057033 -0.013925 -377842.000000 0 0 1
21.967177 -11.726377 -19.803313 31.815656 -0.490331 2.242652 0.050849 -0.005457 277546.000000 0 0 1
20.687077 -12.231677 -19.494313 30.945069 -0.533977 2.252305 0.048967 -0.005099 10235.000000 0 0 1
20.504277 -13.628877 -19.642013 31.495719 -0.586629 2.244188 0.041090 -0.002739 -98934.400000 0 0 1
18.992377 -13.946177 -19.807513 30.782199 -0.633380 2.269823 0.051413 -0.000211 348681.000000 0 0 1
18.454077 -13.698977 -21.075813 31.183406 -0.638573 2.312936 0.055421 0.000938 1541560.000000 0 0 1
17.013377 -13.996577 -21.125713 30.523023 -0.688418 2.335224 0.044592 -0.000709 1887880.000000 0 0 1
16.418477 -13.391977 -22.414813 30.843723 -0.684220 2.384334 0.050134 -0.004096 -113612.000000 0 0 1
16.771077 -14.117277 -23.565513 32.185399 -0.699693 2.392314 0.044464 -0.004615 96780.900000 0 0 1
16.175377 -13.470577 -24.632813 32.401771 -0.694413 2.434464 0.060258 -0.012245 -80409.000000 0 0 1
15.997277 -14.327277 -25.931183 33.669125 -0.730383 2.449915 0.061624 -0.010767 39129.100000 0 0 1
15.004877 -15.350577 -25.844303 33.596347 -0.796786 2.448477 0.059256 -0.016227 178944.000000 0 0 1
14.943877 -16.267877 -26.929953 34.830815 -0.827793 2.454612 0.072632 -0.010810 -171537.000000 0 0 1
15.981677 -17.418177 -26.758643 35.704788 -0.828381 2.418014 0.072111 -0.012740 264420.000000 0 0 1
17.313377 -16.969477 -26.962053 36.258357 -0.775367 2.409249 0.074914 -0.005102 -268058.000000 0 0 1
18.183977 -18.046077 -26.948673 37.182642 -0.781592 2.381489 0.070827 -0.013091 151403.000000 0 0 1
19.699677 -17.714677 -26.942873 37.786313 -0.732393 2.364610 0.061713 -0.008749 362839.000000 0 0 1
20.266277 -17.229877 -25.748463 37.021264 -0.704596 2.339918 0.053673 -0.006050 283980.000000 0 0 1
21.613677 -16.821177 -25.999633 37.763527 -0.661347 2.330195 0.051048 -0.004366 493736.000000 0 0 1
22.340377 -16.432177 -24.701413 37.138507 -0.634180 2.298445 0.055658 -0.006168 -169140.000000 0 0 1
22.168877 -15.135877 -24.260513 36.181851 -0.599057 2.305701 0.064575 -0.009131 -314332.000000 0 0 1
20.852177 -14.762877 -23.872413 34.966383 -0.616060 2.322282 0.069058 -0.008025 281966.000000 0 0 1
20.694877 -13.369377 -23.228113 33.860942 -0.573575 2.326753 0.067373 -0.004831 -207281.000000 0 0 1
20.821277 -12.365077 -24.219513 34.249168 -0.535898 2.356264 0.080197 -0.004792 141124.000000 0 0 1
20.422177 -11.087677 -23.674813 33.173765 -0.497394 2.365507 0.087341 -0.006198 167193.000000 0 0 1
20.420277 -9.957477 -24.705813 33.563615 -0.453700 2.398071 0.100447 -0.012908 -91737.900000 0 0 1
20.163377 -8.698877 -24.104013 32.607295 -0.407296 2.402710 0.097398 -0.014657 22405.600000 0 0 1
20.043977 -7.651477 -25.039013 32.973600 -0.364662 2.433134 0.085539 -0.016363 -57306.300000 0 0 1
19.560577 -6.457777 -24.239113 31.809647 -0.318876 2.437200 0.077598 -0.022987 779753.000000 0 0 1
18.180077 -6.519777 -23.826913 30.671558 -0.344335 2.460429 0.082960 -0.023568 863080.000000 0 0 1
17.707477 -5.587077 -22.848813 29.442120 -0.305635 2.459188 0.071009 -0.019703 139893.000000 0 0 1
18.313677 -5.859077 -21.425513 28.788403 -0.309639 2.410194 0.058725 -0.014971 -336221.000000 0 0 1
17.844577 -6.976077 -20.616413 28.144823 -0.372668 2.392801 0.065735 -0.017263 123180.000000 0 0 1
18.064377 -8.266877 -21.051413 28.945206 -0.429184 2.385154 0.080848 -0.015544 -493039.000000 0 0 1
17.844577 -9.243877 -19.908813 28.288496 -0.477961 2.351497 0.066286 -0.013916 -723946.000000 0 0 1
16.526077 -9.332777 -19.507813 27.217030 -0.514082 2.369927 0.052160 -0.016939 -1045320.000000 0 0 1
16.244277 -10.389777 -18.662513 26.834928 -0.569027 2.339851 0.051927 -0.012337 256268.000000 0 0 1
14.741477 -10.767577 -18.412413 25.928147 -0.630856 2.360482 0.050411 -0.015395 767459.000000 0 0 1
13.935177 -9.993677 -17.543013 24.532021 -0.622147 2.367573 0.054691 -0.010586 295909.000000 0 1 0
13.774377 -8.643077 -17.901313 24.184566 -0.560377 2.404158 0.042847 -0.020568 -1282800.000000 0 1 0
12.682477 -7.817277 -17.246413 22.790213 -0.552380 2.429118 0.046571 -0.011455 -629235.000000 0 1 0
11.499977 -7.841777 -18.012413 22.763786 -0.598471 2.483688 0.035703 -0.019960 218765.000000 0 1 0
10.607977 -6.805677 -17.476413 21.546959 -0.570421 2.516801 0.021190 -0.020958 -219321.000000 0 1 0
9.168877 -6.892877 -17.935113 21.289630 -0.644632 2.572582 0.020360 -0.017422 -757320.000000 0 1 0
9.067277 -6.658077 -19.349413 22.381807 -0.633375 2.614981 0.022365 -0.019459 246498.000000 0 1 0
7.762777 -6.239477 -19.716413 22.089109 -0.677035 2.673843 0.020144 -0.019078 81624.600000 0 1 0
7.518777 -6.016477 -21.203513 23.287743 -0.674859 2.715290 0.027705 -0.018957 -55069.100000 0 1 0
7.538477 -7.148277 -22.019813 24.347457 -0.758836 2.700765 0.029091 -0.017047 384212.000000 0 1 0
6.805077 -6.851677 -23.229513 25.156805 -0.788810 2.747613 0.026807 -0.013936 -57926.300000 0 0 1
6.770077 -8.033977 -24.224713 26.404838 -0.870567 2.732381 0.023699 -0.015101 95348.800000 0 0 1
5.928477 -9.160077 -23.877713 26.252600 -0.996386 2.712965 0.018478 -0.010294 449603.000000 0 0 1
5.859777 -10.064977 -25.002913 27.582357 -1.043572 2.705673 0.013213 0.004593 108020.000000 0 0 1
5.104877 -11.394977 -24.776913 27.745282 -1.149612 2.674794 0.022272 -0.005570 439532.000000 0 0 1
5.850477 -12.220077 -23.870413 27.447313 -1.124285 2.625353 0.016288 -0.009810 282793.000000 0 0 1
5.145477 -13.402977 -23.607413 27.630159 -1.204241 2.595206 0.028150 -0.012865 -906101.000000 0 0 1
5.654277 -14.276977 -22.468713 27.214812 -1.193707 2.542072 0.038590 -0.015596 -108838.000000 0 0 1
6.730177 -15.165877 -22.787313 28.187954 -1.153134 2.512235 0.035606 -0.018147 426954.000000 0 0 1
8.014077 -14.658977 -23.125813 28.529183 -1.070489 2.515976 0.032951 -0.015009 240292.000000 0 0 1
8.778077 -14.035277 -21.920713 27.469279 -1.011888 2.494779 0.035477 -0.011238 -787792.000000 0 0 1
9.272677 -14.846077 -20.893813 27.256925 -1.012494 2.444249 0.043278 -0.010731 65357.600000 0 0 1
8.325977 -15.320577 -19.940213 26.488754 -1.072995 2.423072 0.047223 -0.012617 47132.000000 0 0 1
9.009077 -15.686277 -18.628813 25.966429 -1.049467 2.370887 0.040615 -0.011806 293547.000000 0 0 1
9.855377 -16.819377 -18.776413 27.066097 -1.040769 2.337444 0.040930 -0.007405 -607042.000000 0 0 1
10.208077 -17.452777 -17.527213 26.758316 -1.041556 2.285004 0.044231 -0.005133 -591928.000000 0 0 1
9.126077 -18.198177 -16.676313 26.316503 -1.105963 2.257101 0.036159 -0.010001 -61443.900000 0 0 1
8.778877 -19.531577 -17.122613 27.417787 -1.148382 2.245297 0.059229 -0.012877 19749.000000 0 0 1
8.078277 -19.486677 -18.342413 27.954128 -1.177807 2.286517 0.055983 -0.010374 -1071870.000000 0 0 1
6.563477 -19.308577 -18.409013 27.473481 -1.243125 2.305092 0.058230 -0.012885 -537813.000000 0 0 1
6.200877 -17.987977 -18.022513 26.207426 -1.238830 2.329095 0.055535 -0.013636 -582929.000000 0 0 1
4.853377 -17.916277 -17.656513 25.618366 -1.306253 2.331199 0.053538 -0.014194 -285602.000000 0 0 1
4.545677 -16.494277 -17.280813 24.317707 -1.301881 2.361185 0.036927 -0.006213 58547.900000 0 1 0
5.244677 -16.101377 -16.111713 23.374094 -1.255906 2.331316 0.037440 -0.005031 308944.000000 0 1 0
4.919677 -14.758677 -15.709913 22.109345 -1.249039 2.361083 0.026772 -0.002500 101661.000000 0 1 0
10.658777 30.496323 -17.855513 36.911442 1.234558 2.075718 0.046803 -0.016400 -609368.000000 0 0 1
9.877377 29.747423 -18.720413 36.509254 1.250209 2.109191 0.063384 -0.019834 -1026250.000000 0 0 1
8.949677 28.947023 -18.148013 35.318228 1.270944 2.110454 0.063167 -0.019411 -1043580.000000 0 0 1
7.927677 28.362523 -19.096013 35.098981 1.298240 2.146067 0.061627 -0.017050 -558495.000000 0 0 1
6.972877 29.288823 -19.548013 35.896810 1.337074 2.146662 0.066809 -0.032879 -755502.000000 0 0 1
6.163277 28.576823 -20.433513 35.667201 1.358376 2.180828 0.047310 -0.034436 -159030.000000 0 0 1
5.238377 29.573023 -21.177813 36.749205 1.395481 2.184965 0.060333 -0.032845 -604706.000000 0 0 1
4.075377 29.882523 -20.496813 36.464959 1.435253 2.167714 0.050805 -0.026353 -521184.000000 0 0 1
3.274977 30.836323 -21.264013 37.600034 1.464988 2.171874 0.045417 -0.028404 206316.000000 0 0 1
1.778977 30.689223 -20.826013 37.131065 1.512894 2.166243 0.053754 -0.023407 586564.000000 0 0 1
1.183477 29.394823 -21.036413 36.166102 1.530557 2.191566 0.054915 -0.030568 104945.000000 0 0 1
0.924777 29.207423 -22.428913 36.837276 1.539145 2.225425 0.082144 -0.043524 -651054.000000 0 0 1
0.260377 27.836123 -22.787213 35.974638 1.561443 2.256767 0.076990 -0.033293 118315.000000 0 0 1
-0.824123 27.554823 -21.938213 35.231132 -1.540897 2.242977 0.063386 -0.032221 -228281.000000 0 0 1
-1.248823 26.185023 -22.051913 34.256413 -1.523140 2.270160 0.074500 -0.044496 -134079.000000 0 0 1
-2.473623 25.842423 -21.212713 33.525048 -1.475368 2.255886 0.054410 -0.036857 269712.000000 0 0 1
-3.703023 26.522823 -21.513313 34.351058 -1.432077 2.247566 0.050132 -0.032216 1273430.000000 0 0 1
-4.732823 25.944823 -20.682213 33.515480 -1.390362 2.235841 0.051001 -0.037399 -78136.400000 0 0 1
-5.825523 26.901823 -20.259713 34.177489 -1.357541 2.205302 0.066222 -0.045102 277956.000000 0 0 1
-6.921323 26.264423 -19.572013 33.478177 -1.313130 2.195208 0.069444 -0.040966 -4496.670000 0 0 1
-7.783323 27.212323 -19.031513 34.107025 -1.292212 2.162763 0.073088 -0.043921 249603.000000 0 0 1
-9.107123 26.608223 -18.481113 33.652470 -1.241027 2.152174 0.082715 -0.039894 471738.000000 0 0 1
-8.943023 26.060623 -17.194313 32.477348 -1.240226 2.128719 0.079510 -0.045111 530112.000000 0 0 1
-10.212423 25.483123 -16.832413 32.202690 -1.189641 2.120814 0.068913 -0.042849 920179.000000 0 0 1
-10.259523 24.674623 -15.516113 30.900560 -1.176750 2.096857 0.078505 -0.035241 -14581.500000 0 0 1
-9.436323 23.540723 -15.602713 29.776744 -1.189557 2.122325 0.070062 -0.028297 -222015.000000 0 0 1
-9.566023 22.738623 -14.420913 28.574753 -1.172578 2.099800 0.082964 -0.025372 -297603.000000 0 0 1
-8.837623 21.400323 -14.420013 27.276623 -1.179162 2.127815 0.080393 -0.012771 -399920.000000 0 0 1
-9.495623 20.242223 -14.973513 26.909488 -1.132173 2.160891 0.064951 -0.004070 -132894.000000 0 0 1
-9.766723 20.199823 -16.401413 27.792590 -1.120431 2.202024 0.062031 -0.008581 -172212.000000 0 0 1
-8.579423 20.047123 -17.368513 27.877570 -1.166419 2.243405 0.050435 -0.016545 -216434.000000 0 0 1
-8.092823 18.735923 -17.523513 26.899853 -1.163061 2.280271 0.052489 -0.008229 -14697.700000 0 0 1
-7.503423 18.617323 -18.838313 27.527951 -1.187677 2.324486 0.049339 -0.017020 112364.000000 0 0 1
-6.909723 17.210123 -19.106313 26.626750 -1.189005 2.371090 0.039362 -0.018503 -154371.000000 0 0 1
-7.895123 16.238623 -19.255113 26.396690 -1.118254 2.388317 0.032044 -0.017451 -463530.000000 0 0 1
-7.564823 15.233823 -20.225113 26.426334 -1.109888 2.442365 0.031608 -0.016714 701897.000000 0 0 1
-6.337923 14.264023 -19.978513 25.352960 -1.152668 2.478374 0.023385 -0.017453 337224.000000 0 0 1
-6.539823 13.296623 -18.972913 24.073656 -1.113697 2.478544 0.010071 -0.015394 1261760.000000 0 1 0
-5.255723 12.647823 -18.741213 23.212564 -1.176962 2.510484 0.018330 -0.007602 1446780.000000 0 1 0
-4.480623 13.274823 -17.562113 22.466079 -1.245275 2.468210 0.022785 0.003154 -236453.000000 0 1 0
-4.075023 14.616623 -17.738713 23.343381 -1.298907 2.433961 0.033761 -0.001131 -396157.000000 0 1 0
-3.535923 15.081423 -16.541313 22.662019 -1.340500 2.388992 0.029428 0.009891 -328291.000000 0 1 0
-2.700023 16.349623 -16.593913 23.451189 -1.407131 2.356883 0.036607 0.002516 -323286.000000 0 1 0
-3.397923 17.559623 -16.828513 24.557791 -1.379651 2.325759 0.028256 -0.004853 -325724.000000 0 1 0
-2.584623 18.713123 -16.939213 25.373178 -1.433546 2.301781 0.033176 -0.006726 -79475.400000 0 0 1
-3.280923 19.852923 -17.672113 26.780713 -1.407015 2.291458 0.048419 -0.011602 121110.000000 0 0 1
-3.602623 19.638823 -19.030513 27.583014 -1.389370 2.332197 0.053812 -0.022590 -182426.000000 0 0 1
-4.015623 20.787323 -19.751413 28.954384 -1.379970 2.321504 0.070104 -0.025188 -482234.000000 0 0 1
-3.015623 21.906623 -20.092213 29.877937 -1.433998 2.308346 0.049460 -0.020888 -839376.000000 0 0 1
-1.835823 21.432323 -20.659613 29.825062 -1.485348 2.336013 0.072035 -0.033181 -715981.000000 0 0 1
-0.834723 22.392123 -20.836213 30.598230 -1.533536 2.319871 0.059331 -0.022246 -51776.100000 0 0 1
0.242677 22.342523 -19.731413 29.808990 1.559935 2.294185 0.054795 -0.017519 -144722.000000 0 0 1
-0.320423 22.406423 -18.423513 29.009934 -1.556497 2.258903 0.041314 -0.011802 -323342.000000 0 0 1
0.680577 21.874323 -17.595113 28.080904 1.539693 2.247962 0.042998 -0.006676 -121682.000000 0 0 1
0.576177 22.053123 -16.097013 27.309083 1.544675 2.201159 0.044089 -0.008690 -180513.000000 0 0 1
-0.375823 21.230723 -15.434713 26.251004 -1.553096 2.199339 0.047362 -0.002493 140977.000000 0 0 1
-0.135823 21.235423 -14.030613 25.452303 -1.564400 2.154659 0.055613 -0.009201 176210.000000 0 0 1
-0.938823 20.156923 -13.283313 24.158422 -1.524254 2.152971 0.058101 -0.013329 343619.000000 0 1 0
-0.441323 18.863523 -13.506913 23.204826 -1.547405 2.192073 0.036212 -0.006412 990735.000000 0 1 0
-1.461823 17.986123 -12.928113 22.198506 -1.489700 2.192458 0.029466 -0.002438 1103240.000000 0 1 0
-1.296223 16.435123 -12.966413 20.974302 -1.492090 2.237253 0.021463 0.001253 -340331.000000 0 1 0
-0.173223 16.013223 -12.212813 20.139665 -1.559979 2.222329 0.020810 -0.000854 78378.000000 0 1 0
-0.004323 14.629523 -12.086613 18.976543 -1.570501 2.261298 0.017579 -0.002343 505309.000000 0 1 0
0.779977 13.981723 -13.301313 19.313774 1.515069 2.330485 0.008369 -0.000443 512001.000000 0 1 0
-0.135323 13.778723 -14.401513 19.931761 -1.560975 2.378267 0.011337 -0.004133 356374.000000 0 1 0
0.322677 12.868223 -15.346913 20.030552 1.545726 2.443664 0.011015 -0.002102 -726252.000000 0 1 0
-0.312623 12.754823 -16.714313 21.027399 -1.546291 2.489610 0.015207 0.000278 -421288.000000 0 1 0
-0.326623 14.003523 -17.421413 22.354216 -1.547476 2.464399 0.020455 -0.003271 -21477.200000 0 1 0
-0.519523 13.861523 -18.793813 23.358492 -1.533334 2.505767 0.035870 -0.008323 -653239.000000 0 1 0
-1.038723 15.076323 -19.397013 24.588993 -1.502007 2.479731 0.049530 -0.015980 51245.600000 0 1 0
-0.107123 16.196423 -19.389313 25.264225 -1.564182 2.445668 0.043092 -0.021354 133955.000000 0 0 1
-0.676823 17.341823 -19.983513 26.467673 -1.531788 2.426475 0.070226 -0.022491 -191179.000000 0 0 1
0.301077 18.461523 -20.380313 27.500466 1.554489 2.405488 0.079460 -0.023085 -90097.600000 0 0 1
0.663177 18.340223 -21.706313 28.424771 1.534652 2.439730 0.089464 -0.036707 -189008.000000 0 0 1
1.456177 19.409923 -22.158513 29.493478 1.495914 2.420829 0.091170 -0.035192 -15203.500000 0 0 1
2.182877 19.134623 -23.502013 30.384920 1.457207 2.455104 0.111637 -0.045488 -528689.000000 0 0 1
3.214277 18.221523 -23.458013 29.876979 1.396193 2.473740 0.083614 -0.036859 -738615.000000 0 0 1
3.607777 18.073823 -24.793513 30.893323 1.373773 2.502358 0.090003 -0.049777 122001.000000 0 0 1
4.489077 16.840923 -25.117793 30.572406 1.310296 2.534980 0.065591 -0.035713 -134686.000000 0 0 1
5.786677 16.908223 -24.537813 30.355854 1.241051 2.512121 0.052724 -0.022658 451087.000000 0 0 1
6.642477 15.859323 -25.002213 30.343884 1.174157 2.539165 0.045114 -0.024318 317348.000000 0 0 1
7.241377 16.019223 -26.397623 31.715730 1.146245 2.554076 0.041576 -0.029269 -826391.000000 0 0 1
8.282177 16.989523 -26.571173 32.607753 1.117209 2.523306 0.021285 -0.022181 650607.000000 0 0 1
8.853777 17.039123 -27.893833 33.864244 1.091580 2.538695 0.036586 -0.031368 356827.000000 0 0 1
9.523277 15.785723 -28.539273 33.976050 1.027965 2.568047 0.024698 -0.027562 -210048.000000 0 0 1
10.714377 15.449923 -27.848913 33.601487 0.964452 2.547756 0.037897 -0.021921 112133.000000 0 0 1
11.267677 14.176823 -28.068143 33.403046 0.899237 2.568609 0.038980 -0.020276 -130606.000000 0 0 1
10.635077 13.095023 -27.151453 31.965386 0.888693 2.585647 0.031550 -0.022874 593942.000000 0 0 1
9.249077 12.830923 -27.420913 31.655718 0.946219 2.618389 0.042764 -0.028522 393078.000000 0 0 1
8.628477 12.306223 -26.293013 30.285579 0.959301 2.622298 0.050630 -0.023081 -220107.000000 0 0 1
7.227777 11.746623 -26.549913 29.918586 1.019198 2.662482 0.059652 -0.031813 485695.000000 0 0 1
6.212277 12.730223 -26.775603 30.291647 1.116799 2.654991 0.069849 -0.038229 358977.000000 0 0 1
4.892677 12.263223 -26.653083 29.744105 1.191177 2.681654 0.090374 -0.037679 248992.000000 0 0 1
3.701177 13.207523 -26.909713 30.203808 1.297572 2.670202 0.109475 -0.042425 8152.700000 0 0 1
3.336977 13.240323 -28.290583 31.413351 1.323907 2.691924 0.108483 -0.046990 176041.000000 0 0 1
3.780477 14.428623 -28.870743 32.496107 1.314544 2.664725 0.107760 -0.052729 -137734.000000 0 0 1
3.838877 14.305723 -30.420753 33.835084 1.308627 2.688480 0.133832 -0.052294 -575311.000000 0 0 1
4.906877 13.518523 -30.801203 33.993264 1.222610 2.704762 0.124516 -0.047994 -483343.000000 0 0 1
5.129777 13.351423 -32.177533 35.213190 1.203974 2.723320 0.110005 -0.042799 -624275.000000 0 0 1
6.278177 12.424623 -32.605363 35.452735 1.102917 2.738075 0.105224 -0.039562 1029880.000000 0 0 1
7.641077 12.842123 -32.379263 35.661223 1.034061 2.709206 0.106550 -0.032707 1056680.000000 0 0 1
8.133477 12.922923 -31.040023 34.592462 1.009051 2.684424 0.088877 -0.030261 -314295.000000 0 0 1
8.152677 11.649523 -30.112263 33.300539 0.960185 2.700434 0.099718 -0.030483 19026.900000 0 0 1
9.111377 10.703023 -30.554473 33.632539 0.865554 2.710428 0.072572 -0.022935 3650.300000 0 0 1
8.996977 9.529523 -29.785663 32.541406 0.814135 2.727088 0.078143 -0.025091 328566.000000 0 0 1
10.041777 8.417123 -30.091993 32.820927 0.697610 2.730923 0.059838 -0.023779 54586.300000 0 0 1
11.337277 8.616423 -29.612353 32.858302 0.649876 2.693358 0.047964 -0.027447 263506.000000 0 0 1
12.176077 7.420023 -29.581003 32.838230 0.547298 2.692428 0.018260 -0.016671 741838.000000 0 0 1
13.512277 7.570523 -28.787123 32.689339 0.510694 2.647981 0.027510 -0.009748 548768.000000 0 0 1
14.355777 6.476823 -28.587753 32.638891 0.423822 2.638053 0.020867 -0.006453 207321.000000 0 0 1
14.991677 5.913823 -29.756303 33.840231 0.375733 2.645223 0.015494 -0.002757 -627890.000000 0 0 1
15.767377 4.644423 -29.417853 33.698530 0.286458 2.632058 0.031410 -0.002586 -10020.500000 0 0 1
16.633477 4.825323 -28.322453 33.198157 0.282347 2.592758 0.005237 0.001078 313922.000000 0 0 1
17.413177 3.697523 -27.928263 33.119153 0.209233 2.574128 0.018729 0.000447 -13689.300000 0 0 1
17.998677 3.903223 -26.523223 32.290384 0.213555 2.534652 0.003787 0.009074 -305615.000000 0 0 1
19.057577 4.822323 -26.560933 33.044352 0.247837 2.504446 0.033717 -0.001830 -291843.000000 0 0 1
19.550977 5.099223 -25.323443 32.396289 0.255133 2.468147 0.035217 -0.000855 256360.000000 0 0 1
20.661777 6.211923 -25.436873 33.354633 0.292051 2.438149 0.030999 0.001596 241007.000000 0 0 1
20.165277 7.528623 -25.726533 33.543599 0.357320 2.444883 0.040874 0.000055 590912.000000 0 0 1
21.159077 8.376623 -26.323983 34.796931 0.376956 2.428746 0.057016 -0.009522 266472.000000 0 0 1
21.507777 7.976623 -27.832813 36.067665 0.355146 2.452280 0.058025 -0.014810 368983.000000 0 0 1
20.414277 8.193423 -28.706003 36.165031 0.381676 2.487746 0.056012 -0.011940 1112950.000000 0 0 1
19.266277 7.313123 -28.760513 35.381327 0.362781 2.519864 0.047832 -0.006497 658763.000000 0 0 1
18.006277 7.991423 -29.324053 35.326887 0.417697 2.550043 0.038291 -0.006985 -464334.000000 0 0 1
17.851677 8.250523 -30.715483 36.471830 0.432929 2.572091 0.031532 -0.009277 522453.000000 0 0 1
16.615277 8.907823 -30.984333 36.269073 0.492126 2.594981 0.007831 -0.006280 296715.000000 0 0 1
16.058177 8.681023 -32.411533 37.198557 0.495596 2.628665 0.006183 -0.003612 -106887.000000 0 0 1
15.304777 7.535823 -32.621933 36.813249 0.457536 2.659759 0.015138 0.000670 86954.900000 0 0 1
14.066477 7.847623 -33.263073 36.957854 0.508885 2.690628 0.012708 -0.001985 288706.000000 0 0 1
13.376477 6.588923 -33.716803 36.866880 0.457690 2.725204 0.007551 0.000143 -305175.000000 0 0 1
13.057177 5.780023 -32.612223 35.601343 0.416742 2.728887 0.035650 -0.004989 -63327.800000 0 0 1
12.344977 4.633423 -33.019623 35.555064 0.359059 2.761660 0.039735 -0.011923 -60626.300000 0 0 1
12.153077 3.557523 -31.912393 34.332988 0.284770 2.763842 0.039220 -0.009292 -660574.000000 0 0 1
13.295477 2.827723 -31.593683 34.393699 0.209561 2.735292 0.037204 -0.017442 -590004.000000 0 0 1
13.195477 1.807523 -30.563933 33.339792 0.136133 2.730639 0.037938 -0.013267 274591.000000 0 0 1
12.200677 0.609923 -30.834203 33.165895 0.049949 2.764383 0.033753 -0.004639 584358.000000 0 0 1
12.783277 -0.378177 -31.655443 34.141210 -0.029575 2.757641 0.031176 -0.006168 578505.000000 0 0 1
13.609077 -1.322377 -30.926943 33.814663 -0.096865 2.725318 0.023068 -0.007529 699542.000000 0 0 1
14.105777 -2.535277 -31.726913 34.813756 -0.177835 2.717306 0.040136 -0.016762 126863.000000 0 0 1
13.131077 -3.556077 -31.712913 34.507676 -0.264470 2.736359 0.041919 -0.020002 123605.000000 0 0 1
13.573677 -4.629977 -32.480853 35.506157 -0.328724 2.725796 0.065258 -0.030641 -357071.000000 0 0 1
12.707477 -5.887577 -32.485443 35.375804 -0.433872 2.734550 0.055405 -0.022759 -305783.000000 0 0 1
12.675077 -6.505977 -31.239923 34.335377 -0.474222 2.713710 0.061478 -0.025115 254041.000000 0 0 1
12.151477 -7.840877 -31.307663 34.486338 -0.573037 2.708871 0.084024 -0.027700 -71566.500000 0 0 1
12.212877 -8.610477 -30.037383 33.549054 -0.614096 2.679962 0.078752 -0.027071 629273.000000 0 0 1
13.569077 -8.797877 -29.586773 33.717942 -0.575233 2.641376 0.072131 -0.023978 883388.000000 0 0 1
13.714577 -9.390277 -28.340613 32.855095 -0.600379 2.611172 0.071790 -0.023928 -188202.000000 0 0 1
13.730477 -10.950977 -28.222383 33.240830 -0.673256 2.584938 0.063644 -0.020715 -440285.000000 0 0 1
12.462477 -11.482077 -28.481873 33.141643 -0.744476 2.604888 0.045132 -0.022049 -187723.000000 0 0 1
12.516377 -12.900977 -28.854933 33.995618 -0.800528 2.584477 0.042380 -0.023823 108508.000000 0 0 1
-9.900023 -2.893377 -17.731513 20.513133 0.284340 2.614748 0.018387 -0.002531 78640.700000 0 1 0
-10.763723 -2.456777 -18.755313 21.763622 0.224402 2.609552 0.025713 -0.008177 260915.000000 0 1 0
-11.717023 -3.434977 -19.114613 22.681625 0.285171 2.573141 0.024983 -0.007638 -595832.000000 0 1 0
-12.611523 -3.295577 -20.287113 24.113861 0.255599 2.570489 0.033709 -0.013803 -941419.000000 0 1 0
-13.560723 -2.278577 -20.144213 24.390048 0.166473 2.542627 0.026924 -0.006264 -300966.000000 0 1 0
-14.334323 -2.054277 -21.266413 25.728451 0.142343 2.543786 0.029968 -0.006041 223578.000000 0 0 1
-15.217323 -0.754777 -21.356013 26.233869 0.049559 2.521910 0.027396 -0.006488 544171.000000 0 0 1
-14.513723 0.441823 -21.605013 26.031134 -0.030432 2.549847 0.034434 -0.009342 133083.000000 0 0 1
-15.304923 1.519023 -21.131513 26.135970 -0.098927 2.512433 0.035815 -0.009843 277671.000000 0 0 1
-14.739423 2.888223 -21.657013 26.355619 -0.193500 2.535224 0.052485 -0.014708 562860.000000 0 0 1
-13.591523 3.436823 -21.010413 25.258240 -0.247673 2.553182 0.053494 -0.016248 435974.000000 0 0 1
-13.203823 4.644223 -21.652713 25.782741 -0.338218 2.567737 0.050639 -0.015906 255783.000000 0 0 1
-11.967623 5.318023 -20.965113 24.719250 -0.418160 2.583240 0.027810 -0.012575 254021.000000 0 1 0
-12.173523 5.871723 -19.692813 23.884695 -0.449416 2.540106 0.033491 -0.020536 773650.000000 0 1 0
-10.900723 6.171423 -19.119513 22.857559 -0.515156 2.561594 0.023547 -0.013101 355558.000000 0 1 0
-11.145023 6.807923 -17.784513 22.064638 -0.548358 2.508191 0.025068 -0.015511 62865.800000 0 1 0
-11.643923 8.143023 -17.873213 22.832904 -0.610281 2.469922 0.018711 -0.012777 176729.000000 0 1 0
-12.888323 8.223823 -17.206013 23.017103 -0.567952 2.415134 0.041289 -0.009102 -295069.000000 0 1 0
-13.573123 9.575023 -17.275613 23.965758 -0.614368 2.375818 0.041188 -0.010250 -334173.000000 0 1 0
-12.930523 10.552923 -16.451413 23.435264 -0.684496 2.348990 0.024768 -0.006335 89080.100000 0 1 0
-13.589923 11.736323 -16.607313 24.458743 -0.712340 2.317186 0.026194 -0.010802 -483125.000000 0 1 0
-12.990423 12.966423 -15.833613 24.240101 -0.784474 2.282598 0.030444 -0.008834 -451962.000000 0 1 0
-13.067423 12.954523 -14.396013 23.362842 -0.781060 2.234696 0.040742 -0.010123 255851.000000 0 1 0
-12.407923 14.034923 -13.756213 23.241536 -0.846850 2.204186 0.043732 -0.013980 -1185120.000000 0 1 0
-12.897523 14.162823 -12.296313 22.762490 -0.832123 2.141472 0.040409 -0.015159 -56184.000000 0 1 0
-14.186023 14.654223 -12.041413 23.685125 -0.801631 2.104117 0.038910 -0.014208 -50745.400000 0 1 0
-15.208323 13.807623 -12.544413 24.068773 -0.737162 2.119041 0.034400 -0.008954 -1694510.000000 0 1 0
-16.612923 14.297323 -12.252613 25.110340 -0.710624 2.080537 0.014031 0.004933 -324069.000000 0 0 1
-17.708123 13.482523 -12.617113 25.584128 -0.650741 2.086517 0.014056 -0.002143 500772.000000 0 0 1
-18.913523 13.918323 -12.006613 26.374227 -0.634411 2.043439 0.043727 -0.005049 319289.000000 0 0 1
-20.225023 13.346523 -12.586513 27.305705 -0.583304 2.049860 0.035506 -0.010681 -160211.000000 0 0 1
-20.398423 11.999323 -12.298313 26.670732 -0.531733 2.050049 0.042223 -0.010707 347708.000000 0 0 1
-21.475923 11.427023 -13.024413 27.593975 -0.488985 2.062357 0.068103 -0.013487 -167932.000000 0 0 1
-22.088523 10.154023 -12.475413 27.324768 -0.430888 2.044922 0.066078 -0.014491 -356908.000000 0 0 1
-21.215623 9.061523 -12.498313 26.237791 -0.403661 2.067293 0.063583 -0.018380 297225.000000 0 0 1
-21.719623 7.958123 -11.674813 25.910905 -0.351212 2.038206 0.057456 -0.013089 466180.000000 0 0 1
-20.666523 6.813123 -11.517513 24.620661 -0.318450 2.057595 0.056711 -0.010664 198118.000000 0 1 0
-20.680223 5.916823 -12.543513 24.900204 -0.278666 2.098732 0.072729 -0.008129 829317.000000 0 1 0
-19.468223 5.160223 -12.540413 23.725547 -0.259101 2.127702 0.070253 -0.011956 406842.000000 0 1 0
-19.565923 4.068423 -13.648213 24.200230 -0.205013 2.169982 0.077220 -0.025542 -421031.000000 0 1 0
-20.417323 3.053423 -13.259913 24.536010 -0.148450 2.141740 0.068548 -0.026601 -56847.100000 0 1 0
-20.243023 2.020423 -14.174613 24.794793 -0.099479 2.179345 0.061582 -0.028356 179562.000000 0 1 0
-21.138823 0.724123 -14.070113 25.403588 -0.034242 2.157793 0.066473 -0.021546 608054.000000 0 0 1
-22.481823 0.850823 -14.515313 26.774065 -0.037827 2.143779 0.056681 -0.022241 977230.000000 0 0 1
-23.131923 -0.465177 -14.648913 27.384173 0.020107 2.135234 0.057976 -0.030062 794116.000000 0 0 1
-24.472223 -0.574677 -15.446613 28.945083 0.023479 2.133710 0.069890 -0.028000 598630.000000 0 0 1
-25.562143 -0.042377 -14.722513 29.498769 0.001658 2.093344 0.096073 -0.036566 204496.000000 0 0 1
-26.817733 -0.239577 -15.378513 30.915156 0.008933 2.091444 0.100407 -0.029774 563031.000000 0 0 1
-27.939643 0.236323 -14.413613 31.439334 -0.008458 2.047056 0.109731 -0.023370 -196945.000000 0 0 1
-28.056743 -0.596877 -13.255013 31.035987 0.021271 2.012063 0.114507 -0.029249 566610.000000 0 0 1
-29.189953 -0.175177 -12.479213 31.746099 0.006001 1.974791 0.126452 -0.028997 638784.000000 0 0 1
-29.228733 -0.849877 -11.041113 31.256156 0.029069 1.931835 0.124037 -0.038321 -475560.000000 0 0 1
-29.575683 -2.216477 -11.025313 31.641608 0.074803 1.926706 0.123242 -0.031170 -95291.300000 0 0 1
-28.642973 -3.112377 -11.531213 31.033461 0.108236 1.951500 0.126945 -0.031788 -635216.000000 0 0 1
-28.948983 -4.592477 -11.177813 31.370017 0.157329 1.935124 0.121322 -0.030619 -11442.500000 0 0 1
-30.099643 -5.096877 -11.839713 32.743633 0.167742 1.940767 0.112756 -0.023255 317740.000000 0 0 1
-30.549223 -6.339177 -11.268413 33.172539 0.204603 1.917385 0.107797 -0.024055 -237851.000000 0 0 1
-29.813353 -7.618277 -11.657913 32.905639 0.250179 1.932944 0.090915 -0.028805 658313.000000 0 0 1
-28.453773 -7.648577 -11.195813 31.519267 0.262600 1.933930 0.084177 -0.030924 637337.000000 0 0 1
-27.639173 -8.590977 -11.841013 31.272006 0.301359 1.959129 0.073822 -0.032323 805888.000000 0 0 1
-26.126083 -8.558177 -11.410813 29.766109 0.316557 1.964216 0.069791 -0.039645 455934.000000 0 0 1
-25.438983 -7.439477 -12.001913 29.095250 0.284510 1.995998 0.056453 -0.029290 899386.000000 0 0 1
-24.049223 -7.332977 -11.694413 27.728992 0.295960 2.006159 0.064675 -0.042410 382162.000000 0 0 1
-23.723423 -6.985477 -10.206713 26.753966 0.286362 1.962218 0.066260 -0.042704 -734869.000000 0 0 1
-24.123123 -5.706777 -9.755413 26.639453 0.232298 1.945720 0.066725 -0.031112 624192.000000 0 0 1
-25.511083 -5.617277 -9.468413 27.785248 0.216731 1.918533 0.079129 -0.035241 -195348.000000 0 0 1
-25.790793 -4.309077 -8.699013 27.557322 0.165549 1.891959 0.084360 -0.035835 -323548.000000 0 0 1
-25.584373 -4.347877 -7.297013 26.957570 0.168334 1.844901 0.076057 -0.037337 375580.000000 0 0 1
-25.875713 -3.096777 -6.779813 26.927837 0.119112 1.825312 0.092695 -0.032493 -108762.000000 0 0 1
-25.743893 -2.934777 -5.269713 26.441082 0.113509 1.771440 0.092713 -0.023263 -145386.000000 0 0 1
-24.381823 -2.872177 -4.912313 25.037043 0.117260 1.768279 0.059337 -0.023085 225036.000000 0 0 1
-24.223223 -2.787077 -3.516313 24.635275 0.114554 1.714020 0.051327 -0.016589 -548245.000000 0 1 0
-22.807523 -3.119377 -3.056013 23.221818 0.135926 1.702780 0.030495 -0.013352 -502212.000000 0 1 0
-22.603323 -4.535477 -3.022613 23.251171 0.198026 1.701164 0.042263 -0.012257 643231.000000 0 1 0
-21.264023 -4.855777 -2.687513 21.976350 0.224507 1.693394 0.022079 -0.011309 -64200.800000 0 1 0
-21.045923 -6.390977 -2.700713 22.160084 0.294819 1.692973 0.027535 -0.012961 -418848.000000 0 1 0
-21.867523 -6.947477 -1.739913 23.010504 0.307622 1.646482 0.051563 -0.016777 330317.000000 0 1 0
-22.452023 -8.188177 -2.144513 23.994552 0.349707 1.660291 0.055492 -0.014775 125426.000000 0 1 0
-22.880423 -9.120577 -0.971013 24.650387 0.379316 1.610198 0.066735 -0.015557 -687481.000000 0 1 0
-21.802023 -9.489177 -0.206313 23.778462 0.410514 1.579473 0.043848 -0.007382 -387006.000000 0 1 0
-22.136423 -10.402277 0.750187 24.470214 0.439293 1.540134 0.032095 -0.002037 -492585.000000 0 1 0
-20.846323 -10.903977 1.370787 23.565758 0.481929 1.512595 0.039950 -0.004755 -256691.000000 0 1 0
-20.200723 -11.939677 0.622087 23.473647 0.533814 1.544292 0.040680 0.005168 502263.000000 0 1 0
-19.079423 -12.410777 1.347187 22.800585 0.576712 1.511676 0.026750 -0.004833 231329.000000 0 1 0
-18.365623 -13.605877 0.664187 22.866070 0.637609 1.541745 0.034996 -0.002848 -388426.000000 0 1 0
-19.269423 -14.654777 0.645487 24.217552 0.650200 1.544139 0.052584 -0.001847 240515.000000 0 1 0
-18.729423 -15.906977 0.180787 24.573479 0.704090 1.563439 0.053380 -0.008633 -134149.000000 0 1 0
-17.610923 -16.611377 0.962587 24.228269 0.756199 1.531056 0.045911 -0.010505 -551888.000000 0 1 0
-16.339723 -16.058177 0.703287 22.920432 0.776708 1.540108 0.044712 -0.007579 -95101.500000 0 1 0
-15.279723 -16.739777 1.336787 22.704120 0.830965 1.511884 0.050077 -0.010116 231783.000000 0 1 0
-15.094823 -16.549277 2.881187 22.583921 0.831329 1.442871 0.046087 -0.013964 -570206.000000 0 1 0
-14.753223 -15.296877 3.353687 21.515094 0.803488 1.414282 0.025563 -0.011606 -177086.000000 0 1 0
-14.032923 -15.412877 4.548887 21.334762 0.832228 1.355932 0.006413 -0.003306 -145275.000000 0 1 0
-14.793423 -15.737177 5.880187 22.384832 0.816300 1.304991 0.040411 -0.012510 -437655.000000 0 1 0
-15.539923 -14.647977 6.442587 22.306039 0.755860 1.277795 0.034769 -0.017962 509597.000000 0 1 0
-15.961923 -14.822977 7.781387 23.131226 0.748418 1.227703 0.043650 -0.024204 158883.000000 0 1 0
-16.932023 -15.974377 8.196487 24.679071 0.756304 1.232243 0.026940 -0.009957 -287778.000000 0 1 0
-16.324323 -17.243277 8.088987 25.084773 0.812768 1.242463 0.025556 -0.002726 -171898.000000 0 0 1
-17.012323 -18.314177 8.700387 26.467432 0.822234 1.235848 0.032847 -0.003652 -262869.000000 0 0 1
-16.604423 -18.542077 10.167687 26.886750 0.840473 1.182981 0.032090 -0.008378 488038.000000 0 0 1
-15.362723 -19.255377 10.253987 26.681961 0.897373 1.176342 0.031923 -0.011589 400474.000000 0 0 1
-15.067523 -19.796277 11.524187 27.417690 0.920211 1.136999 0.037341 -0.012665 -817636.000000 0 0 1
-13.703823 -20.450577 11.661787 27.240010 0.980424 1.128393 0.034992 -0.012894 -476332.000000 0 0 1
-12.667823 -19.524977 11.801987 26.095696 0.995265 1.101501 0.032916 -0.016944 -176112.000000 0 0 1
-11.410723 -20.100077 12.105287 26.091295 1.054469 1.088337 0.032234 -0.017914 483704.000000 0 0 1
-10.264323 -19.242077 12.656887 25.215286 1.080763 1.044941 0.036071 -0.017152 201527.000000 0 0 1
-9.582623 -18.508077 11.653387 23.878380 1.093047 1.060964 0.030318 -0.019073 -126075.000000 0 1 0
-8.549623 -17.757477 12.270787 23.216293 1.122085 1.013914 0.029432 -0.019292 134368.000000 0 1 0
-7.620223 -17.068677 11.217587 21.800041 1.150903 1.030293 0.017521 -0.017437 39765.600000 0 1 0
-6.737223 -17.940877 10.564987 21.883423 1.211567 1.066964 0.019282 -0.008288 -230991.000000 0 1 0
-6.150123 -17.259177 9.467087 20.623505 1.228485 1.093878 0.024560 -0.007593 403178.000000 0 1 0
-4.954723 -17.983277 8.774287 20.613967 1.301948 1.131119 0.015057 -0.005524 1054120.000000 0 1 0
-3.678223 -17.890277 9.413687 20.547721 1.368023 1.094897 0.024770 -0.013449 284310.000000 0 1 0
-2.732623 -18.653077 8.685087 20.756571 1.425334 1.139085 0.033731 -0.006062 -1310920.000000 0 1 0
-1.397523 -18.728377 9.301187 20.957511 1.496314 1.110949 0.027383 -0.020377 -1486060.000000 0 1 0
-0.471923 -19.439677 8.485087 21.216042 1.546525 1.159348 0.036621 -0.006906 -503744.000000 0 1 0
0.662077 -19.754077 9.248587 21.821968 -1.537293 1.133138 0.042235 -0.007719 -1247030.000000 0 1 0
1.745077 -20.185777 8.311687 21.899658 -1.484560 1.181503 0.053693 -0.024870 -940797.000000 0 1 0
1.619377 -21.461977 7.661287 22.845878 -1.495486 1.228823 0.044904 -0.016910 87070.400000 0 1 0
2.106377 -22.456177 8.606687 24.141081 -1.477271 1.206260 0.058619 -0.019612 68487.800000 0 1 0
1.772177 -23.904877 8.217587 25.339939 -1.496797 1.240531 0.055482 -0.014541 83691.200000 0 0 1
1.893677 -24.824877 9.303987 26.578651 -1.494662 1.213167 0.065244 -0.009876 -198926.000000 0 0 1
1.678477 -26.129397 8.768987 27.612639 -1.506647 1.247629 0.070205 -0.017187 -738921.000000 0 0 1
1.841577 -27.232167 9.856187 29.019420 -1.503274 1.224261 0.072155 -0.019874 478329.000000 0 0 1
0.910177 -27.162607 10.939787 29.297006 -1.537300 1.188114 0.070905 -0.024226 606053.000000 0 0 1
-0.428923 -27.577157 10.667687 29.571661 1.555244 1.201735 0.050232 -0.018879 392014.000000 0 0 1
-1.280923 -27.666907 11.932787 30.157751 1.524531 1.163989 0.048416 -0.018005 -37515.000000 0 0 1
-0.857623 -28.782447 12.728887 31.483160 1.541008 1.154574 0.045694 -0.020037 -109397.000000 0 0 1
-1.193923 -28.667357 14.063687 31.953562 1.529173 1.115054 0.035985 -0.020919 -206449.000000 0 0 1
-0.950923 -29.933637 14.890387 33.446233 1.539039 1.109395 0.025456 -0.003515 107848.000000 0 0 1
-1.198523 -29.744957 16.259787 33.920195 1.530525 1.070878 0.028685 -0.005466 -12863.400000 0 0 1
-0.697723 -30.811577 16.997387 35.195898 1.548155 1.066791 0.014994 -0.001225 -212398.000000 0 0 1
-1.053423 -30.649507 18.480887 35.805658 1.536440 1.028453 0.009452 -0.002837 -28748.700000 0 0 1
-2.439123 -30.692507 18.726887 36.037142 1.491493 1.024349 0.015605 -0.003711 -190755.000000 0 0 1
-2.619723 -30.590427 20.119487 36.707369 1.485366 0.990700 0.019252 -0.010625 474652.000000 0 0 1
-4.067123 -30.262077 20.614887 36.841666 1.437200 0.976949 0.043512 -0.017475 231520.000000 0 0 1
-4.544123 -28.987827 20.233387 35.641733 1.415302 0.967102 0.048412 -0.018258 220564.000000 0 0 1
-5.869023 -28.867167 20.745587 36.029684 1.370219 0.957224 0.043793 -0.022379 358944.000000 0 0 1
-5.970523 -27.983147 21.978487 36.079877 1.360587 0.915793 0.055282 -0.030536 -566441.000000 0 0 1
-5.396423 -28.595947 23.107387 37.159130 1.384277 0.899694 0.048556 -0.031032 24864.800000 0 0 1
-5.201623 -27.612497 24.091187 37.012054 1.384599 0.862026 0.050665 -0.032358 -789321.000000 0 0 1
-3.994823 -27.874537 24.980387 37.642638 1.428451 0.845149 0.051310 -0.033051 -458971.000000 0 0 1
-4.157723 -28.965457 25.914887 39.087923 1.428229 0.845991 0.061102 -0.026658 358045.000000 0 0 1
-3.501623 -30.154557 25.438587 39.606570 1.455192 0.873324 0.046923 -0.025971 250699.000000 0 0 1
-3.875623 -31.352827 26.285487 41.096801 1.447807 0.876819 0.060014 -0.013856 144820.000000 0 0 1
-3.414723 -31.122297 27.607287 41.742305 1.461514 0.848147 0.057928 -0.024046 202170.000000 0 0 1
-3.815523 -32.168797 28.480387 43.133771 1.452738 0.849604 0.062612 -0.018976 -457286.000000 0 0 1
-3.290923 -31.988787 29.889387 43.903168 1.468280 0.821939 0.069707 -0.022030 -871372.000000 0 0 1
-1.925623 -32.225807 29.979387 44.056490 1.511113 0.822384 0.062131 -0.018713 -708347.000000 0 0 1
-1.396223 -32.016267 31.245687 44.758058 1.527214 0.798053 0.069503 -0.033687 -224335.000000 0 0 1
-28.265243 3.002823 -10.407313 30.269673 -0.105840 1.921778 0.109679 -0.026930 -244149.000000 0 0 1
-28.947483 2.725823 -11.566713 31.291784 -0.093888 1.949418 0.105485 -0.039320 -451459.000000 0 0 1
-29.819243 3.749223 -11.941513 32.339506 -0.125075 1.949003 0.093974 -0.033989 -356187.000000 0 0 1
-30.785553 3.443823 -13.082313 33.626732 -0.111402 1.970391 0.097903 -0.030689 264182.000000 0 0 1
-31.896903 2.606123 -12.718113 34.437693 -0.081523 1.949061 0.103741 -0.033783 750284.000000 0 0 1
-32.796163 2.503223 -13.828513 35.680278 -0.076179 1.968788 0.099559 -0.028958 -243496.000000 0 0 1
-34.033216 1.730823 -13.387013 36.612398 -0.050813 1.945118 0.084354 -0.031485 -409784.000000 0 0 1
-33.704873 0.405923 -13.135313 36.176231 -0.012043 1.942381 0.113555 -0.031518 -200525.000000 0 0 1
-34.834539 -0.400477 -12.947813 37.165190 0.011496 1.926644 0.098214 -0.027596 -166816.000000 0 0 1
-34.463015 -1.826077 -12.465813 36.693739 0.052937 1.917422 0.115963 -0.026157 51237.400000 0 0 1
-34.037954 -2.710477 -13.516613 36.723669 0.079463 1.947721 0.108262 -0.020899 134096.000000 0 0 1
-33.655473 -3.937777 -12.896913 36.256411 0.116473 1.934474 0.119572 -0.019737 90849.200000 0 0 1
-33.561423 -5.112077 -13.859813 36.668745 0.151158 1.958403 0.119307 -0.019472 134968.000000 0 0 1
-33.289503 -6.392177 -13.359813 36.435361 0.189709 1.946225 0.109145 -0.026655 177711.000000 0 0 1
-33.396333 -7.288177 -14.448513 37.110539 0.214864 1.970708 0.098196 -0.016977 -446649.000000 0 0 1
-33.529383 -8.844477 -14.115913 37.439328 0.257908 1.957389 0.086614 -0.014892 126565.000000 0 0 1
-32.391753 -9.553777 -13.615213 36.412558 0.286813 1.954023 0.089565 -0.018425 703532.000000 0 0 1
-31.379833 -9.732577 -14.612713 35.957591 0.300746 1.989293 0.081020 -0.026542 522972.000000 0 0 1
-30.197593 -10.646577 -14.121513 34.995162 0.338957 1.986165 0.057629 -0.021157 67121.900000 0 0 1
-30.621783 -11.950777 -13.921913 35.697820 0.372091 1.971421 0.050027 -0.019069 -50069.000000 0 0 1
-29.612593 -12.876477 -13.546613 35.017425 0.410168 1.968013 0.045937 -0.015863 -344887.000000 0 0 1
-29.826463 -14.380977 -13.852813 35.893326 0.449270 1.967027 0.048685 -0.015515 -281260.000000 0 0 1
-29.919383 -14.635577 -15.275713 36.643103 0.454944 2.000805 0.040515 -0.013445 172273.000000 0 0 1
-30.085203 -15.948977 -15.774313 37.527567 0.487458 2.004616 0.045188 -0.017163 -112730.000000 0 0 1
-28.806043 -16.810777 -15.687113 36.857507 0.528262 2.010438 0.017600 -0.015542 209048.000000 0 0 1
-27.690013 -16.338777 -16.431313 36.106516 0.533079 2.043257 0.014362 -0.019680 554030.000000 0 0 1
-26.697723 -17.394977 -16.578113 35.919180 0.577466 2.050526 0.016229 -0.022988 638864.000000 0 0 1
-25.360543 -16.886977 -17.135113 34.956247 0.587455 2.083101 0.014713 -0.026581 -134014.000000 0 0 1
-25.447123 -16.401477 -18.430713 35.443698 0.572521 2.117647 0.016436 -0.026115 -540344.000000 0 0 1
-24.217523 -16.036377 -18.995113 34.705448 0.584891 2.149959 0.023674 -0.013647 -462984.000000 0 0 1
-24.476323 -15.325177 -20.390113 35.351211 0.559406 2.185586 0.030075 -0.019703 201855.000000 0 0 1
-24.927723 -16.268577 -21.405313 36.663952 0.578222 2.194228 0.028275 -0.023643 1017460.000000 0 0 1
-26.360943 -16.361677 -21.452913 37.720436 0.555486 2.175763 0.041796 -0.027646 609060.000000 0 0 1
-26.877243 -17.702477 -22.035413 39.004145 0.582426 2.171170 0.036577 -0.022139 -173599.000000 0 0 1
-26.431193 -17.828077 -23.333013 39.507946 0.593412 2.202587 0.033470 -0.013426 41361.000000 0 0 1
-26.843303 -19.047377 -23.899913 40.676422 0.617124 2.198839 0.029415 -0.013834 -685086.000000 0 0 1
-26.249853 -19.295177 -25.320283 41.261064 0.633870 2.231485 0.035458 -0.018861 975481.000000 0 0 1
-24.818823 -19.412077 -25.322483 40.423148 0.663762 2.247768 0.030606 -0.017293 744055.000000 0 0 1
-24.379423 -20.687377 -24.889713 40.519398 0.703657 2.232253 0.022372 -0.008374 -585463.000000 0 0 1
-22.850823 -20.886277 -24.884313 39.719337 0.740511 2.247856 0.027629 -0.003759 6418.460000 0 0 1
-22.423323 -21.264877 -26.159553 40.488549 0.758888 2.273257 0.024916 -0.006768 -712423.000000 0 0 1
-21.028423 -21.355877 -26.186273 39.799359 0.793124 2.288899 0.027112 -0.005118 -611693.000000 0 0 1
-20.594023 -21.416177 -27.683733 40.609796 0.804966 2.320881 0.040935 -0.005969 -339245.000000 0 0 1
-20.929323 -22.577277 -28.492433 41.947452 0.823258 2.317524 0.070659 -0.010152 -391484.000000 0 0 1
-21.289023 -22.180777 -29.771413 42.796570 0.805910 2.340120 0.051302 -0.021318 -75827.700000 0 0 1
-20.173723 -22.259277 -30.855783 43.064299 0.834508 2.369575 0.062241 -0.028702 295318.000000 0 0 1
-19.852623 -23.544977 -31.248533 43.874405 0.870276 2.363462 0.069888 -0.034273 -235010.000000 0 0 1
-19.031823 -23.539077 -32.389543 44.332617 0.890882 2.390001 0.069508 -0.033045 -58833.700000 0 0 1
-18.717923 -24.959777 -32.955903 45.381083 0.927344 2.383580 0.072927 -0.027763 179456.000000 0 0 1
-17.977523 -25.068077 -34.152562 46.021705 0.948654 2.406990 0.062454 -0.026322 -25902.600000 0 0 1
-18.813923 -24.833477 33.201600 45.530337 0.922447 0.753616 0.077915 -0.025491 -73251.300000 0 0 1
-18.146823 -24.570877 31.812903 44.103243 0.934664 0.765079 0.077520 -0.019756 -137580.000000 0 0 1
-17.360623 -23.397777 31.722343 43.071502 0.932449 0.742909 0.064453 -0.017848 -169926.000000 0 0 1
-16.833723 -23.384177 30.419483 41.899152 0.946855 0.758285 0.065582 -0.017830 -150339.000000 0 0 1
-16.000423 -22.156377 30.036493 40.609229 0.945353 0.738251 0.042096 -0.017084 -521293.000000 0 0 1
-16.715823 -21.002077 30.049533 40.292436 0.898553 0.729082 0.039713 -0.012646 -109349.000000 0 0 1
-15.885923 -19.867277 29.757753 39.148373 0.896298 0.707287 0.038212 -0.011587 244070.000000 0 0 1
-15.617323 -19.064777 31.031773 39.627484 0.884474 0.671182 0.043468 -0.019300 52289.600000 0 0 1
-14.887623 -17.875277 30.868903 38.653021 0.876337 0.645805 0.044451 -0.019262 -90563.300000 0 0 1
-14.505023 -17.256377 32.066443 39.197385 0.871808 0.612739 0.045553 -0.020137 73413.400000 0 0 1
-14.105523 -15.776277 31.776873 38.178873 0.841252 0.587524 0.048443 -0.017514 -578846.000000 0 0 1
-12.952223 -15.630177 31.009723 37.062993 0.878818 0.579610 0.064058 -0.024126 -289731.000000 0 0 1
-12.648323 -14.298777 30.625933 36.088542 0.846570 0.557400 0.050550 -0.023544 -351075.000000 0 0 1
-11.196223 -14.209777 30.148083 35.159353 0.903462 0.540464 0.051939 -0.021688 -155893.000000 0 0 1
-10.698323 -12.899677 30.289403 34.616524 0.878415 0.505364 0.061415 -0.025506 459899.000000 0 0 1
-9.273423 -12.822277 30.332283 34.211907 0.944651 0.480854 0.062804 -0.022667 534576.000000 0 0 1
-8.858223 -11.315377 30.307823 33.542063 0.906602 0.442751 0.055216 -0.018543 -372876.000000 0 0 1
-9.355223 -10.543277 31.411923 34.429490 0.845033 0.421796 0.059816 -0.016435 152740.000000 0 0 1
-8.997323 -9.203577 31.358703 33.897285 0.796730 0.389472 0.039711 -0.010842 -216738.000000 0 0 1
-9.828123 -8.252277 32.239083 34.699432 0.698460 0.378837 0.027887 -0.012270 417454.000000 0 0 1
-11.202623 -8.095977 31.864383 34.733018 0.625790 0.409276 0.035894 -0.013441 752168.000000 0 0 1
-12.004223 -7.293077 32.732247 35.618680 0.545947 0.405354 0.041132 -0.009874 164961.000000 0 0 1
-11.605923 -5.830877 33.071103 35.530191 0.465570 0.374232 0.022323 -0.010169 -572192.000000 0 0 1
-11.772823 -4.988177 31.930263 34.395101 0.400771 0.380881 0.038515 -0.007793 243450.000000 0 0 1
-12.038823 -3.678377 32.379333 34.740250 0.296534 0.370791 0.036267 -0.006388 -162153.000000 0 0 1
-11.457023 -2.575977 31.467793 33.587513 0.221160 0.357171 0.029473 -0.005252 1319580.000000 0 0 1
-10.028523 -2.378577 31.628183 33.265160 0.232878 0.315020 0.033423 -0.008488 1262760.000000 0 0 1
-9.486523 -1.446277 30.735733 32.198931 0.151291 0.302625 0.031309 -0.004623 -512057.000000 0 0 1
-8.019123 -1.129577 30.998673 32.039039 0.139940 0.255535 0.015120 -0.008378 -696357.000000 0 0 1
-7.774023 -0.565477 32.262033 33.190269 0.072611 0.237059 0.029695 -0.022261 1118570.000000 0 0 1
-6.410923 -0.073377 32.339413 32.968818 0.011445 0.195714 0.029428 -0.018981 995111.000000 0 0 1
-6.198423 0.706623 33.691493 34.264216 -0.113510 0.183094 0.053977 -0.032022 -160680.000000 0 0 1
-7.010423 1.877323 33.932458 34.699886 -0.261651 0.210704 0.059081 -0.032164 166765.000000 0 0 1
-6.636723 3.076423 33.273780 34.068386 -0.434061 0.216403 0.060243 -0.027990 -345248.000000 0 0 1
-7.520023 4.304423 33.550721 34.651547 -0.519874 0.252737 0.063432 -0.025424 297247.000000 0 0 1
-8.614823 4.365523 32.631553 34.030740 -0.469029 0.287751 0.045769 -0.011157 580737.000000 0 0 1
-9.553823 5.401823 32.986994 34.764882 -0.514597 0.321192 0.025049 -0.008530 568974.000000 0 0 1
-10.874823 5.192823 32.164853 34.348289 -0.445493 0.358476 0.012925 -0.003572 703772.000000 0 0 1
-11.786423 6.226223 32.608917 35.228215 -0.485994 0.388052 0.015331 -0.003626 505737.000000 0 0 1
-12.898623 6.354523 31.721643 34.828395 -0.457751 0.425583 -0.001894 0.004718 174835.000000 0 0 1
-13.699423 7.662723 31.930953 35.580575 -0.509991 0.456895 0.004037 0.000757 -367125.000000 0 0 1
-14.413923 7.575823 33.114644 36.901679 -0.483910 0.457012 0.006938 -0.006305 -542426.000000 0 0 1
-15.213523 8.682923 33.291207 37.618465 -0.518625 0.484367 0.015769 -0.007406 -189621.000000 0 0 1
-15.860423 8.948023 -33.845723 38.433749 -0.513659 2.647976 0.022578 -0.000488 -37783.200000 0 0 1
-14.916223 9.353823 -32.900953 37.315686 -0.560101 2.650233 0.014989 -0.000847 8173.690000 0 0 1
-15.613823 9.754723 -31.746713 36.698772 -0.558419 2.616070 0.015977 0.002598 -189431.000000 0 0 1
-14.642823 10.106023 -30.582973 35.381665 -0.604097 2.614699 0.020777 -0.007241 1129750.000000 0 0 1
-13.759423 11.251523 -30.686353 35.462244 -0.685460 2.616594 0.032536 -0.013552 759277.000000 0 0 1
-12.612323 11.128123 -31.511123 35.719136 -0.722962 2.651293 0.034824 -0.018742 -18770.500000 0 0 1
-11.601923 12.267123 -31.518143 35.755842 -0.813260 2.649788 0.035501 -0.020873 -344033.000000 0 0 1
-12.093823 13.345823 -32.254143 36.941864 -0.834573 2.632333 0.032804 -0.027335 154542.000000 0 0 1
-11.208523 14.457023 -32.321553 37.139188 -0.911299 2.626570 0.030771 -0.028993 166086.000000 0 0 1
-11.674523 15.617623 -31.396623 36.958796 -0.928883 2.585840 0.035061 -0.030420 -566203.000000 0 0 1
-12.908423 16.192023 -31.641153 37.814965 -0.897760 2.562092 0.036169 -0.034212 -632974.000000 0 0 1
-13.230323 17.088623 -30.617243 37.476367 -0.911975 2.526942 0.021351 -0.026520 -315925.000000 0 0 1
-14.621523 17.678723 -30.866143 38.458354 -0.879766 2.502414 0.012298 -0.032024 -436615.000000 0 0 1
-14.538523 18.564523 -31.991523 39.742518 -0.906424 2.506421 0.017075 -0.032773 815653.000000 0 0 1
-15.879923 18.964123 -32.325483 40.703154 -0.873682 2.488447 0.018666 -0.032786 894786.000000 0 0 1
-16.408923 20.137223 -31.469503 40.805516 -0.887063 2.451531 0.006929 -0.027762 -398416.000000 0 0 1
-15.827723 21.440323 -31.759483 41.459245 -0.934876 2.443456 0.014741 -0.027742 93571.500000 0 0 1
-16.396523 22.495723 -31.024383 41.682321 -0.940954 2.410291 0.001965 -0.015666 216087.000000 0 0 1
-17.741423 22.952023 -31.676593 42.952997 -0.912750 2.400115 0.012008 -0.017041 641867.000000 0 0 1
-18.855023 22.176223 -31.203973 42.672997 -0.866165 2.390926 0.023639 -0.016032 -82941.400000 0 0 1
-19.938723 22.315923 -32.069203 43.863275 -0.841598 2.390755 0.059691 -0.026907 -259096.000000 0 0 1
-21.296623 21.872623 -31.434303 43.818640 -0.798740 2.370820 0.072496 -0.035441 -552780.000000 0 0 1
-21.959823 22.771423 -30.597603 44.011190 -0.803540 2.339527 0.091916 -0.031712 388906.000000 0 0 1
-22.866323 23.629323 -31.313643 45.406584 -0.801807 2.331771 0.089225 -0.023930 417124.000000 0 0 1
-24.262523 23.036023 -31.689133 46.081770 -0.759473 2.329074 0.098105 -0.035640 -106751.000000 0 0 1
-24.115623 21.894723 -32.537473 46.039432 -0.737166 2.355663 0.115000 -0.035365 513389.000000 0 0 1
-25.404993 21.601723 -33.090793 46.979237 -0.704665 2.352332 0.120881 -0.032574 605082.000000 0 0 1
-25.340203 20.671923 34.164520 47.293432 -0.684287 0.763537 0.120832 -0.024834 37634.500000 0 0 1
-24.876123 19.363523 -34.073953 46.419843 -0.661429 2.395046 0.119631 -0.027006 140432.000000 0 0 1
-24.516623 18.657523 33.287457 45.356618 -0.650514 0.746743 0.109196 -0.041385 -314691.000000 0 0 1
-24.113923 17.202223 33.694490 44.863308 -0.619645 0.721149 0.097242 -0.031470 -435483.000000 0 0 1
-25.108383 16.229523 34.001737 45.276334 -0.573825 0.721248 0.084270 -0.020332 320192.000000 0 0 1
-25.499373 15.622723 32.740920 44.342478 -0.549684 0.740154 0.079595 -0.018754 279346.000000 0 0 1
-26.500283 14.421423 32.843916 44.597817 -0.498378 0.742994 0.050430 -0.009206 1083390.000000 0 0 1
-27.820333 14.634623 33.364017 45.839947 -0.484262 0.755634 0.053841 -0.008662 1035110.000000 0 0 1
-28.717453 13.512223 33.469696 46.124753 -0.439789 0.758841 0.050779 -0.007062 425296.000000 0 0 1
-28.261893 12.328423 -34.139010 46.002137 -0.411336 2.407021 0.047335 -0.012619 -310194.000000 0 0 1
-27.190323 11.572023 33.861668 44.942607 -0.402373 0.717514 0.051264 -0.016259 -250454.000000 0 0 1
-27.571493 10.239923 33.975581 44.937550 -0.355607 0.713521 0.052684 -0.009330 -730325.000000 0 0 1
-26.366553 9.357323 34.213358 44.196250 -0.341028 0.685467 0.045466 -0.015071 -589601.000000 0 0 1
-25.508173 9.092623 33.146310 42.802109 -0.342417 0.685017 0.030231 -0.008899 -211526.000000 0 0 1
-24.433023 9.986623 33.054469 42.300156 -0.388013 0.673847 0.014076 -0.009041 -731501.000000 0 0 1
-23.169123 9.473523 32.366903 40.916651 -0.388143 0.658281 0.022897 -0.001456 -420222.000000 0 0 1
-23.373023 9.325923 30.945023 39.885655 -0.379647 0.682746 0.024877 -0.005309 -286450.000000 0 0 1
-22.196223 9.112323 30.223423 38.589663 -0.389555 0.671000 0.034999 -0.001890 -165417.000000 0 0 1
-22.503023 8.948623 28.685973 37.541297 -0.378490 0.701124 0.048231 -0.012012 9754.820000 0 0 1
-22.908323 10.116223 28.024083 37.582955 -0.415843 0.729272 0.060011 -0.021910 22131.300000 0 0 1
-23.351823 9.888723 26.718293 36.836961 -0.400571 0.759309 0.054608 -0.028151 -742406.000000 0 0 1
-23.733423 11.154723 25.914063 36.867898 -0.439361 0.791344 0.064534 -0.030390 245382.000000 0 0 1
-24.891923 11.908223 26.227223 38.069421 -0.446216 0.810782 0.068207 -0.028562 -61360.300000 0 0 1
-26.037323 11.449023 25.523883 38.216370 -0.414269 0.839442 0.081531 -0.022503 401754.000000 0 0 1
-27.272723 12.370023 25.771663 39.509461 -0.425817 0.860193 0.078593 -0.019621 291982.000000 0 0 1
-26.960013 13.671523 25.406493 39.487248 -0.469314 0.871852 0.087876 -0.017977 219691.000000 0 0 1
-28.125323 14.470223 25.580223 40.678852 -0.475173 0.890744 0.064418 -0.016843 406208.000000 0 0 1
-28.214163 15.788523 24.799393 40.747103 -0.510180 0.916479 0.062818 -0.011544 331706.000000 0 0 1
-27.303023 16.777823 25.308533 40.834694 -0.551016 0.902334 0.079353 -0.014886 371930.000000 0 0 1
-27.275993 17.917923 24.507733 40.812507 -0.581219 0.926676 0.062970 -0.022634 -90435.500000 0 0 1
-23.170523 -9.207977 31.167833 39.913579 0.378263 0.674718 0.058365 -0.027595 -22206.500000 0 0 1
-22.071223 -8.660777 30.489153 38.623004 0.373939 0.660959 0.060522 -0.028601 -391539.000000 0 0 1
-22.192623 -8.902877 29.130023 37.687292 0.381509 0.687334 0.060097 -0.021463 -161839.000000 0 0 1
-20.989423 -8.582577 28.231273 36.210790 0.388155 0.676710 0.054201 -0.021082 -1058740.000000 0 0 1
-20.583823 -7.227577 28.242343 35.686995 0.337680 0.657716 0.058751 -0.019427 -9710.640000 0 0 1
-19.351323 -6.968777 28.878083 35.453931 0.345661 0.618888 0.062540 -0.022174 -423658.000000 0 0 1
-18.059123 -7.431577 28.208323 34.308450 0.390392 0.605535 0.065724 -0.018273 -1508590.000000 0 0 1
-17.805623 -8.814477 28.253053 34.539401 0.459671 0.612880 0.065183 -0.016892 -10741.000000 0 0 1
-17.377623 -9.360677 29.488933 35.485226 0.494097 0.589857 0.063994 -0.017348 -473480.000000 0 0 1
-16.029223 -8.960877 30.139683 35.293538 0.509752 0.547225 0.059742 -0.016443 278496.000000 0 0 1
-14.929523 -9.547777 29.441483 34.363522 0.568975 0.541832 0.060285 -0.013794 -738779.000000 0 0 1
-13.690423 -9.315377 30.003313 34.269560 0.597471 0.504308 0.047702 -0.019996 -296274.000000 0 0 1
-12.539623 -10.080277 29.297543 33.424544 0.677099 0.502196 0.047826 -0.017155 35987.600000 0 0 1
-12.124723 -9.627577 28.007113 32.001524 0.671099 0.504987 0.058084 -0.021498 -86721.600000 0 0 1
-11.182723 -10.565077 27.560243 31.563288 0.757005 0.509119 0.054918 -0.023240 -538360.000000 0 0 1
-10.619323 -10.301477 26.183103 30.073998 0.770207 0.514330 0.049039 -0.027055 68631.700000 0 0 1
-11.466623 -10.604977 25.044073 29.515328 0.746379 0.557632 0.045426 -0.022227 468019.000000 0 0 1
-10.907223 -10.274477 23.778653 28.106169 0.755535 0.562303 0.044738 -0.028815 -127577.000000 0 0 1
-11.851423 -10.742777 22.627723 27.710600 0.736370 0.615348 0.045072 -0.032263 -317055.000000 0 0 1
-11.974023 -12.133577 22.538023 28.258864 0.792016 0.647564 0.043766 -0.025390 433912.000000 0 0 1
-13.253223 -12.495277 22.045323 28.596786 0.755970 0.690540 0.033969 -0.019797 307791.000000 0 0 1
-14.414623 -12.468877 23.058323 29.915557 0.713147 0.690731 0.038653 -0.017039 -872665.000000 0 0 1
-15.617523 -12.981377 22.583723 30.371825 0.693481 0.732395 0.016734 -0.000762 -454304.000000 0 0 1
-16.713123 -12.724177 23.418683 31.458987 0.650712 0.731131 0.014009 0.005016 291585.000000 0 0 1
-18.009023 -13.513477 23.043623 32.217193 0.643740 0.773802 0.035109 -0.003920 146092.000000 0 0 1
-17.756323 -14.930077 23.068223 32.716007 0.699147 0.788225 0.031411 -0.006491 135764.000000 0 0 1
-18.959523 -15.658977 23.024023 33.686388 0.690345 0.818275 0.043181 -0.001641 -337156.000000 0 0 1
-19.780723 -15.795177 24.286333 35.079775 0.673834 0.806101 0.040654 -0.005284 -726852.000000 0 0 1
-19.319323 -16.662177 25.283133 35.917979 0.711684 0.789905 0.041878 -0.002785 -12749.300000 0 0 1
-20.176823 -16.579777 26.416183 37.145766 0.687848 0.779665 0.040383 -0.009009 2817.070000 0 0 1
-19.865523 -17.518577 27.576923 38.236452 0.722701 0.765233 0.046140 -0.006687 -168279.000000 0 0 1
-20.005623 -18.904177 27.387863 38.828957 0.757098 0.787885 0.058608 -0.000562 170317.000000 0 0 1
-19.786823 -19.678277 28.588953 39.950985 0.782648 0.773313 0.052219 -0.008849 -118048.000000 0 0 1
-19.816923 -21.196077 28.315103 40.542930 0.819013 0.797640 0.059354 0.000795 1284460.000000 0 0 1
-21.148623 -21.718577 28.017873 41.279075 0.798693 0.824747 0.071867 -0.000716 1180200.000000 0 0 1
-21.135323 -23.097277 27.642443 41.764707 0.829724 0.847497 0.081307 0.009327 -924579.000000 0 0 1
-22.466123 -23.676577 27.242303 42.514116 0.811625 0.875279 0.077867 0.007986 -976006.000000 0 0 1
-23.278323 -23.855377 28.382703 43.778273 0.797640 0.865409 0.076690 0.003499 -1053450.000000 0 0 1
-24.399323 -24.528577 27.973453 44.491484 0.788040 0.890868 0.060494 0.006252 -1073440.000000 0 0 1
-25.141283 -25.237057 29.105353 46.001247 0.787299 0.885751 0.033862 -0.000209 -90936.200000 0 0 1
-25.952133 -24.430577 29.975983 46.571728 0.755207 0.871536 0.020027 0.005698 946097.000000 0 0 1
-26.781383 -25.352437 30.756673 48.020428 0.757996 0.875658 0.023798 0.003038 335331.000000 0 0 1
-28.046103 -24.764977 31.400173 48.845254 0.723348 0.872583 0.014675 0.003858 -357887.000000 0 0 1
-28.967523 -24.387477 30.432503 48.579869 0.699767 0.893815 0.030617 0.006912 121045.000000 0 0 1
-29.958633 -23.456177 30.854233 48.986688 0.664259 0.889437 0.024235 0.000385 5909.460000 0 0 1
-31.272673 -23.378877 30.055973 49.273862 0.641952 0.914763 0.025091 -0.002771 -413954.000000 0 0 1
-32.075433 -24.476577 30.349333 50.487803 0.651829 0.925892 0.025676 -0.002736 -849600.000000 0 0 1
-33.065803 -24.669477 29.397743 50.657258 0.640983 0.951667 0.022181 -0.009942 -311951.000000 0 0 1
-34.181462 -25.552797 30.031383 52.184306 0.641940 0.957597 0.016794 -0.011674 187268.000000 0 0 1
-33.826363 -26.920567 30.070783 52.661103 0.672203 0.963043 0.024014 -0.012504 326503.000000 0 0 1
-34.911145 -27.610817 30.666903 54.051866 0.669160 0.967499 0.022744 -0.013685 385324.000000 0 0 1
-34.540577 -29.076007 31.005493 54.770487 0.699710 0.969031 0.026116 -0.017844 -50045.900000 0 0 1
-33.683843 -29.159257 32.102473 54.912952 0.713524 0.946401 0.031353 -0.008035 -338216.000000 0 0 1
-33.116273 -30.430267 32.253273 55.344036 0.743155 0.948654 0.035002 -0.014721 -446510.000000 0 0 1
-32.133213 -30.550417 33.397116 55.508907 0.760153 0.925227 0.026341 -0.009215 -259762.000000 0 0 1
-32.725373 -30.534787 -33.802473 56.088595 0.750784 2.217629 0.023034 0.002760 -378614.000000 0 0 1
-31.704843 -30.480457 -32.845383 54.891479 0.765711 2.212261 0.018460 -0.005719 1859.100000 0 0 1
-32.136023 -30.065397 -31.407403 54.065488 0.752121 2.190648 0.017083 -0.012244 -93408.000000 0 0 1
-32.404963 -28.717147 -31.119313 53.321364 0.725136 2.193974 0.020114 -0.013805 -205560.000000 0 0 1
-31.225363 -27.937737 -31.075513 52.165390 0.729886 2.208947 0.022466 -0.009724 -228715.000000 0 0 1
-31.379673 -26.380447 -30.944353 51.363069 0.699062 2.217380 0.015542 0.002684 -160459.000000 0 0 1
-31.854973 -25.991567 -29.666933 50.699386 0.684382 2.195866 0.018263 -0.005066 -84823.700000 0 0 1
-31.890323 -24.568977 -29.500463 49.908964 0.656443 2.203200 0.025858 -0.003993 403709.000000 0 0 1
-30.628093 -23.871077 -28.883643 48.396004 0.662044 2.210327 0.023753 -0.006320 198557.000000 0 0 1
-30.452773 -22.523577 -29.189193 47.819367 0.636827 2.227368 0.028812 -0.004096 517970.000000 0 0 1
-29.420543 -21.990177 -28.338323 46.391775 0.641863 2.227928 0.023893 -0.006711 435463.000000 0 0 1
-29.047023 -20.510377 -28.578993 45.619776 0.614814 2.247800 0.030291 -0.013910 -73368.600000 0 0 1
-28.532213 -20.284377 -29.859953 46.012606 0.618023 2.277002 0.035552 -0.008031 320134.000000 0 0 1
-27.977613 -18.994877 -30.010033 45.212324 0.596446 2.296628 0.034503 -0.016793 -503105.000000 0 0 1
-27.648053 -18.604277 -31.487573 45.847587 0.592303 2.327857 0.038157 -0.012039 142354.000000 0 0 1
-28.685483 -18.438477 -32.467123 47.084482 0.571283 2.331664 0.045087 -0.024887 188551.000000 0 0 1
-29.597153 -17.427677 -32.119833 47.025515 0.532165 2.322699 0.050231 -0.019553 -839342.000000 0 0 1
-30.275193 -16.722277 -33.307823 48.017007 0.504640 2.337364 0.055685 -0.028387 -111085.000000 0 0 1
-31.267813 -17.488677 -33.958033 49.362718 0.509970 2.329428 0.059134 -0.033615 893366.000000 0 0 1
-32.576183 -17.135477 -33.466043 49.747445 0.484240 2.308674 0.056108 -0.029316 1272820.000000 0 0 1
-33.804733 -17.635177 34.157708 51.190902 0.480839 0.840271 0.059511 -0.032933 751550.000000 0 0 1
-34.016663 -18.996477 -34.228918 51.861530 0.509305 2.291623 0.045150 -0.031289 -47564.900000 0 0 1
-34.914406 -19.427877 33.268916 51.993066 0.507776 0.876464 0.032480 -0.025992 -481907.000000 0 0 1
-35.295406 -20.925477 33.336382 52.867340 0.535158 0.888513 0.022270 -0.029295 -271709.000000 0 0 1
-34.260546 -21.825977 33.056598 52.372674 0.567224 0.887722 0.033436 -0.023177 -334491.000000 0 0 1
-34.631345 -23.156577 33.452370 53.428627 0.589381 0.894238 0.025188 -0.018586 -1253540.000000 0 0 1
-33.477123 -24.145977 33.471776 53.142316 0.624858 0.889434 0.021735 -0.007594 -121361.000000 0 0 1
-32.581413 -23.865877 -33.944773 52.757712 0.632207 2.269739 0.015948 -0.013404 1090360.000000 0 0 1
-31.630023 -22.756777 -34.245201 51.875457 0.623672 2.291805 0.025110 -0.013902 122847.000000 0 0 1
-30.299593 -22.838777 -33.451053 50.583080 0.645906 2.293359 0.025028 -0.012934 -154438.000000 0 0 1
-29.335983 -23.753677 -33.921053 50.749137 0.680634 2.302861 0.023869 -0.011038 564580.000000 0 0 1
-28.116353 -23.680177 -33.151283 49.500380 0.699960 2.304625 0.031516 -0.012352 608384.000000 0 0 1
-27.977533 -24.175577 -31.683043 48.693081 0.712627 2.279260 0.028372 -0.002825 -703595.000000 0 0 1
-27.929403 -25.567527 -31.449503 49.222162 0.741277 2.263903 0.029598 -0.004316 -20920.600000 0 0 1
-27.513533 -25.767507 -30.119023 48.250539 0.752640 2.244931 0.020682 -0.008371 -141771.000000 0 0 1
-27.182393 -27.278127 -29.840103 48.717661 0.787156 2.230030 0.019087 -0.012388 458953.000000 0 0 1
-28.288523 -28.189767 -29.858783 49.864320 0.783650 2.212799 0.012214 -0.000859 253040.000000 0 0 1
-27.887993 -29.393817 -29.255073 49.975954 0.811680 2.196149 0.020826 -0.004476 -83774.200000 0 0 1
-28.553473 -30.686237 -29.691973 51.366908 0.821385 2.187117 0.018698 0.003535 -460253.000000 0 0 1
-28.365513 -30.959857 -31.054343 52.225351 0.829101 2.207592 0.036820 -0.011519 225308.000000 0 0 1
-28.327293 -32.352707 -31.250633 53.157645 0.851640 2.199239 0.040181 -0.004677 -246853.000000 0 0 1
-27.974933 -32.858407 -32.652573 54.115269 0.865503 2.218541 0.035210 -0.011665 728431.000000 0 0 1
-26.594033 -32.709757 -33.014733 53.545713 0.888160 2.235176 0.032489 -0.016855 406697.000000 0 0 1
-26.344493 -33.265617 34.198300 54.499150 0.900987 0.892456 0.041124 -0.019128 -211251.000000 0 0 1
-24.873923 -33.618907 33.947881 53.864660 0.933804 0.888929 0.041610 -0.020213 -154385.000000 0 0 1
-24.657823 -34.275244 32.714640 53.413933 0.947164 0.911610 0.033581 -0.007232 -74123.300000 0 0 1
-23.456523 33.602314 32.770747 52.471381 -0.961372 0.896247 0.027169 -0.000403 -19223.100000 0 0 1
-23.315523 32.765168 31.472283 51.065394 -0.952331 0.906744 0.029514 -0.003407 9148.550000 0 0 1
-24.565723 32.127828 31.269363 51.121866 -0.918001 0.912635 0.026876 -0.018398 263601.000000 0 0 1
-24.399823 31.380078 30.111573 49.867500 -0.909890 0.922497 0.023852 -0.008007 26664.000000 0 0 1
-25.683983 30.641478 29.694863 49.803133 -0.873187 0.931981 0.026313 -0.006120 -110466.000000 0 0 1
-26.026753 29.601468 30.594503 49.896517 -0.849571 0.910743 0.025847 -0.008591 -120332.000000 0 0 1
-27.245673 29.010028 30.211773 49.966586 -0.816751 0.921483 0.031534 -0.011234 -42126.400000 0 0 1
-27.723543 28.027828 31.245183 50.303235 -0.790856 0.900604 0.034096 -0.028797 -214518.000000 0 0 1
-26.972203 26.794168 31.213423 49.190497 -0.782087 0.883381 0.035285 -0.026753 37508.300000 0 0 1
-27.488423 25.667558 31.876533 49.300612 -0.751156 0.867710 0.036337 -0.019925 -174106.000000 0 0 1
-28.654323 24.967508 31.165253 49.149972 -0.716750 0.883972 0.042904 -0.016130 75535.500000 0 0 1
-28.283283 24.535688 29.863663 47.893449 -0.714565 0.897529 0.042587 -0.009131 -67711.300000 0 0 1
-29.266583 23.729528 29.220473 47.680808 -0.681295 0.911153 0.042033 0.004877 225331.000000 0 0 1
-28.809133 23.495228 27.769283 46.401778 -0.684150 0.929228 0.053321 -0.014669 145034.000000 0 0 1
-27.652533 22.682428 27.718523 45.248996 -0.686977 0.911479 0.057309 -0.015044 -78642.400000 0 0 1
-27.097413 22.629828 26.427533 44.099812 -0.695797 0.928212 0.058412 -0.010720 1044230.000000 0 0 1
-25.623403 22.033028 26.402013 42.884489 -0.710201 0.907581 0.066640 -0.015113 1042900.000000 0 0 1
-25.647943 20.704228 26.812243 42.489745 -0.679144 0.887918 0.086686 -0.027058 -1315770.000000 0 0 1
-24.451523 20.137928 27.080963 41.674833 -0.688958 0.863454 0.101145 -0.020498 -1579050.000000 0 0 1
-24.527023 18.813728 27.854053 41.609849 -0.654331 0.837382 0.103764 -0.025454 388356.000000 0 0 1
-23.272523 18.195428 28.140723 40.799317 -0.663570 0.809673 0.111779 -0.023323 683305.000000 0 0 1
-23.511423 17.013228 28.903533 40.959140 -0.626400 0.787432 0.103360 -0.020517 491899.000000 0 0 1
-22.141423 16.295128 29.076573 40.015259 -0.634453 0.757382 0.098273 -0.027101 611697.000000 0 0 1
-21.120923 16.959828 29.820533 40.286392 -0.676560 0.737408 0.126757 -0.028707 96872.100000 0 0 1
-19.962223 16.149228 29.758393 39.304578 -0.680198 0.711899 0.104177 -0.031624 443855.000000 0 0 1
-18.775723 16.749328 30.591293 39.609279 -0.728419 0.688301 0.090836 -0.037204 89358.900000 0 0 1
-18.826223 16.433628 31.968053 40.576437 -0.717646 0.663490 0.083645 -0.032206 324681.000000 0 0 1
-17.772723 16.961128 32.766448 40.953506 -0.762036 0.643353 0.062345 -0.033749 -695388.000000 0 0 1
-17.719923 16.313728 34.214473 41.842127 -0.744104 0.613385 0.053934 -0.036968 200010.000000 0 0 1
-18.743423 16.583128 -33.341443 41.688942 -0.724322 2.497703 0.074162 -0.032089 1103990.000000 0 0 1
-20.112623 16.359428 -33.741703 42.551745 -0.682853 2.486443 0.087818 -0.024522 551167.000000 0 0 1
-21.095123 17.334628 -33.041183 42.862726 -0.687855 2.450987 0.099824 -0.040958 -403332.000000 0 0 1
-21.251523 17.056628 -31.658903 41.771305 -0.676329 2.430900 0.078577 -0.035773 101181.000000 0 0 1
-22.141623 17.898428 -30.945193 42.050091 -0.679818 2.397810 0.062783 -0.027991 -337343.000000 0 0 1
-22.236423 17.593628 -29.461953 40.890108 -0.669357 2.375342 0.060381 -0.026781 17801.100000 0 0 1
-22.836823 16.365528 -29.056723 40.418364 -0.621799 2.373013 0.068947 -0.033450 -541529.000000 0 0 1
-24.201823 16.262328 -29.316693 41.348036 -0.591649 2.358908 0.080677 -0.033695 -1009530.000000 0 0 1
-24.882623 15.216528 -28.449983 40.744192 -0.548856 2.343758 0.077813 -0.029522 -223245.000000 0 0 1
-24.624523 13.863728 -28.686963 40.268001 -0.512773 2.363710 0.045039 -0.024308 20122.500000 0 0 1
-25.510123 13.100228 -27.895733 40.006928 -0.474413 2.342382 0.027926 -0.016410 182808.000000 0 0 1
-25.230723 11.576228 -28.007833 39.433959 -0.430160 2.360645 0.030676 -0.017318 248574.000000 0 0 1
-24.244623 11.161728 -27.077833 38.020981 -0.431452 2.363397 0.029313 -0.016317 363145.000000 0 0 1
-23.276923 10.286728 -27.705483 37.619486 -0.416121 2.398628 0.023128 -0.007339 660189.000000 0 0 1
-22.189323 9.867428 -26.697123 36.089729 -0.418432 2.403485 0.033906 -0.013665 -3069.990000 0 0 1
-22.747023 8.823628 -25.869653 35.560124 -0.370034 2.385454 0.036717 -0.014140 569112.000000 0 0 1
-21.763123 8.277528 -25.025213 34.182046 -0.363450 2.392219 0.051726 -0.003222 -8958.560000 0 0 1
-22.470223 7.279728 -24.074413 33.726588 -0.313302 2.365721 0.051319 0.001310 435122.000000 0 0 1
-23.141823 6.194928 -24.701513 34.410549 -0.261561 2.371501 0.047345 -0.018251 187284.000000 0 0 1
-23.499323 5.243228 -23.757113 33.824696 -0.219527 2.349504 0.053850 -0.009565 -295917.000000 0 0 1
33.967793 24.736023 -10.673613 43.354444 0.629416 1.819548 0.043252 -0.004227 -957396.000000 0 0 1
35.064523 24.358123 -9.925213 43.833193 0.607137 1.799209 0.038758 -0.005918 -967858.000000 0 0 1
35.867023 23.585623 -10.768413 44.257018 0.581689 1.816579 0.039889 -0.007994 -718419.000000 0 0 1
-35.206440 23.057723 -10.046713 43.267638 -0.579833 1.805134 0.051346 -0.013751 -772891.000000 0 0 1
-35.488788 22.112423 -9.053413 42.782913 -0.557219 1.784021 0.006010 -0.002330 -629001.000000 0 0 1
-34.393567 21.602323 -8.355913 41.465638 -0.560820 1.773700 0.037900 0.006392 -1111900.000000 0 0 1
-34.669821 20.678423 -7.135913 40.994084 -0.537797 1.745759 0.025384 0.021680 -136809.000000 0 0 1
-35.259550 19.415923 -7.383713 40.923504 -0.503348 1.752217 0.018775 0.008692 379840.000000 0 0 1
-35.698163 18.731823 -6.223013 40.791739 -0.483234 1.723950 0.014107 -0.001940 -276735.000000 0 0 1
35.904023 17.455323 -6.686613 40.478364 0.452519 1.736747 0.022338 0.013108 -203017.000000 0 0 1
34.680683 17.712623 -7.337113 39.627263 0.472198 1.757024 0.024488 0.006665 -111246.000000 0 0 1
34.201443 16.557123 -8.017113 38.834921 0.450852 1.778732 0.040913 0.017415 653549.000000 0 0 1
32.892723 16.811123 -8.850013 37.985100 0.472480 1.805944 0.027646 0.001790 543047.000000 0 0 1
32.519793 15.709223 -9.625713 37.376075 0.450009 1.831268 0.036164 -0.007950 159511.000000 0 0 1
31.800373 16.013023 -10.819813 37.212215 0.466482 1.865817 0.057020 -0.007090 -172867.000000 0 0 1
31.024083 14.854723 -11.500213 36.268601 0.446555 1.893450 0.049229 -0.009020 701292.000000 0 0 1
29.862883 14.246023 -10.897813 34.835374 0.445118 1.888975 0.045872 -0.007230 945651.000000 0 0 1
29.987683 13.810923 -9.597113 34.381787 0.431595 1.853688 0.043627 -0.003302 -809072.000000 0 0 1
29.006823 12.644823 -9.391413 33.007362 0.411088 1.859307 0.059968 -0.003776 135510.000000 0 0 1
29.425823 11.528423 -10.127613 33.186626 0.373399 1.880915 0.064191 -0.010856 961548.000000 0 0 1
28.393023 10.550423 -9.992013 31.895384 0.355773 1.889436 0.081253 -0.011782 428023.000000 0 0 1
29.018853 9.239423 -10.616513 32.251684 0.308245 1.906228 0.092240 -0.016255 -257336.000000 0 0 1
30.085253 8.753623 -9.871313 32.851045 0.283143 1.876000 0.069484 -0.013055 -255242.000000 0 0 1
30.000003 7.390923 -9.596013 32.352888 0.241554 1.871932 0.081695 -0.011197 -441510.000000 0 0 1
31.084043 6.832723 -8.667013 32.985162 0.216373 1.836673 0.080729 -0.009287 136539.000000 0 0 1
32.405523 6.952523 -9.173213 34.389000 0.211344 1.840814 0.063737 -0.008843 -6258.710000 0 0 1
33.317543 6.525923 -8.204413 34.927908 0.193422 1.807908 0.063917 -0.009106 1207910.000000 0 0 1
34.853943 6.688223 -8.601813 36.517405 0.189588 1.808585 0.064902 -0.013212 1456920.000000 0 0 1
35.272813 5.881823 -9.645413 37.037834 0.165232 1.834254 0.070427 -0.014051 -306214.000000 0 0 1
-35.677241 6.006023 -9.973913 37.528879 -0.166780 1.839795 0.066285 -0.016251 -1083760.000000 0 0 1
-35.249945 5.355923 -11.326413 37.410322 -0.150788 1.878385 0.073570 -0.024678 -354752.000000 0 0 1
-33.870753 5.372223 -11.585313 36.198179 -0.157299 1.896581 0.083691 -0.026578 122687.000000 0 0 1
-33.284433 6.486023 -12.274313 36.063565 -0.192455 1.918088 0.058339 -0.021459 -91541.100000 0 0 1
-32.829313 7.636923 -11.323913 35.557241 -0.228560 1.894911 0.063238 -0.017652 -940081.000000 0 0 1
-33.865613 8.305623 -10.667513 36.464489 -0.240505 1.867684 0.069603 -0.010835 -242708.000000 0 0 1
-34.292170 9.494523 -11.310413 37.336635 -0.270105 1.878563 0.061233 -0.006689 62280.700000 0 0 1
-35.151016 10.344523 -10.370613 38.080871 -0.286208 1.846611 0.049575 -0.004036 184508.000000 0 0 1
-34.381595 10.886323 -9.320913 37.248967 -0.306645 1.823717 0.059005 -0.002860 314269.000000 0 0 1
-35.253509 11.555223 -8.434013 38.045573 -0.316740 1.794335 0.055451 0.000763 -88827.100000 0 0 1
-34.472471 12.447223 -7.455613 37.401481 -0.346509 1.771481 0.060760 0.001817 315817.000000 0 0 1
-33.757083 13.480923 -8.149913 37.251806 -0.379947 1.791359 0.072665 -0.005648 31109.100000 0 0 1
-33.354593 14.474623 -7.234613 37.072675 -0.409437 1.767203 0.079217 -0.003878 686115.000000 0 0 1
-32.243933 15.405523 -7.862613 36.589917 -0.445715 1.787370 0.069444 -0.006741 728226.000000 0 0 1
-32.834473 16.473823 -8.629613 37.735390 -0.465025 1.801526 0.055336 -0.005851 110327.000000 0 0 1
-31.944853 17.534423 -8.913613 37.515092 -0.501996 1.810691 0.063172 -0.001113 300739.000000 0 0 1
-32.491763 18.505623 -10.035013 38.715297 -0.517727 1.832990 0.037538 -0.005384 294986.000000 0 0 1
-32.202433 18.087223 -11.313413 38.628198 -0.511761 1.868033 0.032440 -0.008242 -217242.000000 0 0 1
-33.005723 18.809823 -12.224413 39.907687 -0.517990 1.882118 0.031056 -0.013237 -171924.000000 0 0 1
-32.580743 18.851723 -13.709013 40.060321 -0.524547 1.920063 0.028666 -0.002188 -53191.300000 0 0 1
-31.438703 19.629123 -14.006113 39.621531 -0.558140 1.932104 0.022839 -0.011857 24973.100000 0 0 1
-31.397323 20.134623 -15.355513 40.335923 -0.570224 1.961340 0.016717 -0.009597 -114029.000000 0 0 1
-30.535593 21.389623 -15.499313 40.375328 -0.611049 1.964792 0.014812 -0.012506 1565100.000000 0 0 1
-29.108603 21.256023 -15.222813 39.126249 -0.630729 1.970417 0.017696 -0.008592 1941980.000000 0 0 1
-28.203413 22.320523 -15.347213 39.104670 -0.669482 1.974106 0.035898 -0.006980 42057.700000 0 0 1
-27.918973 23.033823 -16.691213 39.857529 -0.689814 2.002889 0.002308 -0.011794 -452716.000000 0 0 1
-29.027783 23.748623 -17.246313 41.280075 -0.685701 2.001805 0.015379 -0.000218 304867.000000 0 0 1
-28.776723 24.456423 -18.469013 42.039515 -0.704418 2.025644 0.003401 -0.008522 -48319.700000 0 0 1
-27.853103 25.708123 -18.353213 42.113458 -0.745372 2.021728 0.011502 -0.010409 204333.000000 0 0 1
-28.393693 26.780923 -17.578413 42.806778 -0.756176 1.993958 0.025585 -0.008311 -579257.000000 0 0 1
-27.582313 27.882423 -17.503913 42.948812 -0.790809 1.990569 0.025116 -0.009675 -426570.000000 0 0 1
-28.274653 29.200823 -17.058513 44.081027 -0.801511 1.968151 0.018461 -0.010115 -314620.000000 0 0 1
-28.747683 29.275223 -15.739113 43.945280 -0.794490 1.937085 0.017022 -0.011377 -61676.900000 0 0 1
-27.741183 29.214023 -14.756313 42.904326 -0.811252 1.921901 0.016352 -0.009036 -442033.000000 0 0 1
-28.038853 29.907123 -13.460713 43.148628 -0.817629 1.888053 0.014511 -0.013094 -325283.000000 0 0 1
-27.910443 31.302623 -13.652813 44.104947 -0.842623 1.885519 0.023218 -0.008401 72570.500000 0 0 1
-28.362593 32.006523 -12.559913 44.571354 -0.845686 1.856459 0.013602 -0.012667 -46811.300000 0 0 1
-27.765833 33.455023 -12.455013 45.225075 -0.878061 1.849803 0.002428 -0.013176 128552.000000 0 0 1
-28.176703 -34.243382 -13.439413 46.337389 0.882285 1.865059 -0.009126 -0.018922 366812.000000 0 0 1
-27.283743 -33.103682 -13.451813 44.957843 0.881478 1.874660 0.029544 -0.018329 496727.000000 0 0 1
-27.347503 -32.229782 -14.743513 44.766237 0.867164 1.906406 0.026711 -0.018198 18045.300000 0 0 1
-26.692293 -32.907182 -15.800013 45.221694 0.889300 1.927716 0.025581 -0.014454 59668.000000 0 0 1
-26.861753 -32.131382 -16.952213 45.181379 0.874488 1.955413 0.029329 -0.006613 -171543.000000 0 0 1
-26.195783 -32.713682 -18.201813 45.691466 0.895593 1.980528 0.031541 -0.003957 -443986.000000 0 0 1
-26.611803 -33.958382 -18.722713 47.030838 0.906099 1.980235 0.028897 -0.000081 -221001.000000 0 0 1
-25.973853 33.585923 -18.092013 46.151665 -0.912515 1.973614 0.012955 -0.011832 -929048.000000 0 0 1
-26.104953 32.194123 -18.804913 45.514337 -0.889468 1.996723 0.020025 -0.024747 473965.000000 0 0 1
-27.431443 31.677423 -18.946313 45.988107 -0.857108 1.995425 0.019335 -0.015886 125702.000000 0 0 1
-28.112263 32.365923 -19.935913 47.278885 -0.855616 2.006079 0.018072 -0.009288 -798307.000000 0 0 1
-29.572663 31.922323 -20.191913 47.971767 -0.823589 2.005247 0.023309 -0.012209 145169.000000 0 0 1
-29.764473 30.621623 -20.700413 47.456451 -0.799592 2.022166 0.020983 -0.017208 -553144.000000 0 0 1
-31.112883 30.465223 -20.989113 48.339261 -0.774881 2.019951 0.022871 -0.015186 -841662.000000 0 0 1
-31.556863 28.984423 -21.147913 47.782493 -0.742933 2.029278 0.032505 -0.015802 -1140610.000000 0 0 1
-32.801113 28.688323 -21.658113 48.662170 -0.718612 2.032050 0.026198 -0.021204 -699684.000000 0 0 1
-32.896583 27.394423 -22.183513 48.215639 -0.694390 2.048892 0.027941 -0.014523 -535575.000000 0 0 1
-34.347342 26.920223 -22.253713 48.986386 -0.664762 2.042364 0.039706 -0.019204 302273.000000 0 0 1
-35.200068 27.566323 -23.266213 50.401028 -0.664371 2.050619 0.021577 -0.012513 374036.000000 0 0 1
36.014383 26.702723 -23.493013 50.616132 0.638004 2.053461 0.027364 -0.008698 412459.000000 0 0 1
35.014603 27.084523 -24.635213 50.660512 0.658385 2.078624 0.043231 -0.021479 200079.000000 0 0 1
35.644743 27.033423 -25.903663 51.694810 0.648863 2.095652 0.048077 -0.019685 -173448.000000 0 0 1
34.772183 27.509523 -26.909153 51.865027 0.669313 2.116279 0.052938 -0.020141 -53407.500000 0 0 1
35.520713 27.972323 -28.175763 53.273310 0.667068 2.128089 0.052713 -0.016437 151118.000000 0 0 1
35.889413 26.851223 -28.997573 53.384430 0.642326 2.145021 0.031965 -0.002499 -286942.000000 0 0 1
-35.835926 27.261523 -30.179603 54.205283 -0.650334 2.161283 0.010369 0.002064 -1341540.000000 0 0 1
-35.422379 26.119723 -31.116523 53.900119 -0.635375 2.186214 0.004168 -0.001583 572673.000000 0 0 1
-34.285263 25.336123 -30.778263 52.580413 -0.636411 2.196115 0.015312 -0.009534 133497.000000 0 0 1
-33.058893 26.044723 -30.769213 52.134082 -0.667275 2.202095 -0.003094 0.008027 -899564.000000 0 0 1
-32.019653 25.407423 -29.869653 50.625996 -0.670762 2.201863 -0.008525 -0.004530 -478272.000000 0 0 1
-31.741703 24.059023 -30.109843 49.929700 -0.648578 2.218109 0.013809 -0.003748 -86695.800000 0 0 1
-31.881203 23.275623 -28.919653 48.933752 -0.630626 2.203089 0.024416 -0.006373 -115656.000000 0 0 1
-31.931343 21.717923 -29.113633 48.361994 -0.597275 2.216792 0.002878 -0.014708 -797577.000000 0 0 1
-30.695923 21.120123 -29.346413 47.429013 -0.602656 2.237939 0.043817 -0.006904 -447842.000000 0 0 1
-30.721903 19.707323 -29.481003 46.918477 -0.570359 2.250221 0.029984 -0.014642 -35149.800000 0 0 1
-29.266723 19.215223 -29.638963 45.871930 -0.580970 2.273292 0.056244 -0.021789 179208.000000 0 0 1
-28.624013 19.702123 -30.854753 46.470674 -0.602835 2.296901 0.070731 -0.027123 1117330.000000 0 0 1
-27.289643 19.254823 -31.150663 45.670960 -0.614456 2.321382 0.085970 -0.034158 924914.000000 0 0 1
-27.319423 17.853123 -31.751273 45.532716 -0.578829 2.342460 0.093212 -0.029880 -152379.000000 0 0 1
-27.778653 16.740023 -31.008573 44.871077 -0.542345 2.333750 0.066800 -0.025899 141592.000000 0 0 1
-27.527643 15.607323 -31.798483 44.860932 -0.515778 2.358625 0.048693 -0.017250 81805.400000 0 0 1
-27.915303 14.266623 -31.067663 44.136157 -0.472463 2.351677 0.046659 -0.015988 1107790.000000 0 0 1
-29.331873 14.147623 -30.785813 44.813840 -0.449411 2.328109 0.025660 -0.018572 1040230.000000 0 0 1
-29.767643 12.787123 -30.793863 44.697708 -0.405730 2.330816 0.018100 -0.014607 -28112.100000 0 0 1
-29.485393 12.018423 -29.448963 43.371331 -0.387046 2.317191 0.005165 -0.026317 -260761.000000 0 0 1
-30.134283 12.561623 -28.302413 43.207592 -0.394951 2.285023 0.004577 -0.022138 253424.000000 0 0 1
-29.984763 11.627923 -27.232223 42.141293 -0.369940 2.273407 0.004425 -0.021048 9505.260000 0 0 1
-29.845763 12.371423 -25.899513 41.407807 -0.392954 2.246535 0.002037 -0.026928 592823.000000 0 0 1
-28.479273 12.741323 -25.685313 40.412196 -0.420681 2.259560 0.013124 -0.029818 461132.000000 0 0 1
-28.265433 13.350923 -24.425713 39.671114 -0.441277 2.234077 0.010789 -0.021145 -4773.910000 0 0 1
-26.775093 13.592923 -24.104813 38.506041 -0.469765 2.247211 0.022067 -0.014840 -981248.000000 0 0 1
-26.095623 14.449323 -24.955513 38.891414 -0.505685 2.267472 0.033634 -0.019334 525211.000000 0 0 1
-24.692023 14.514223 -24.658513 37.794192 -0.531408 2.281598 0.036875 -0.020789 898914.000000 0 0 1
-24.202023 15.035123 -23.282813 36.795139 -0.555887 2.255920 0.025309 -0.007410 -1203350.000000 0 0 1
-24.428323 16.419223 -23.182213 37.466637 -0.591781 2.237938 0.033111 -0.010647 183758.000000 0 0 1
-24.397223 16.851823 -21.846813 36.830581 -0.604475 2.205788 0.025996 -0.003337 -1050780.000000 0 0 1
-25.774443 17.123423 -21.305313 37.569268 -0.586402 2.173770 0.021351 -0.007951 -62666.900000 0 0 1
-26.676133 15.955423 -21.315613 37.690144 -0.539033 2.171895 0.024566 -0.010375 839115.000000 0 0 1
-27.848143 16.218423 -20.587613 38.241419 -0.527369 2.139285 0.023414 -0.010463 27467.500000 0 0 1
-28.990073 15.117323 -20.601613 38.644330 -0.480672 2.133067 0.016548 -0.014492 920378.000000 0 0 1
-29.644643 14.833023 -21.864813 39.710118 -0.463936 2.153892 0.018958 -0.013628 457731.000000 0 0 1
-30.596953 15.819823 -22.187013 40.971989 -0.477186 2.143036 0.013635 -0.015442 -472427.000000 0 0 1
-31.174713 15.897323 -23.620713 42.219968 -0.471570 2.164540 0.007536 -0.009188 550254.000000 0 0 1
-32.254903 14.975723 -23.905613 42.850080 -0.434676 2.162637 0.014859 -0.011150 685074.000000 0 0 1
-32.662383 15.138323 -25.235493 43.963965 -0.434006 2.182184 0.017992 -0.013617 -1074470.000000 0 0 1
-33.949753 14.455123 -25.573933 44.895015 -0.402531 2.176862 0.013325 -0.017358 -1001240.000000 0 0 1
-33.870843 13.069423 -25.861523 44.574232 -0.368258 2.189758 0.012146 -0.018920 -33162.300000 0 0 1
-33.671033 12.199223 -24.810213 43.567260 -0.347596 2.176656 0.010062 -0.021364 -305334.000000 0 0 1
-33.579153 10.658723 -25.094793 43.254093 -0.307362 2.189736 0.014515 -0.023813 -511595.000000 0 0 1
-34.800975 10.066323 -25.418503 44.255384 -0.281569 2.182618 0.025062 -0.018845 -471584.000000 0 0 1
-34.660491 8.871923 -26.193673 44.341506 -0.250586 2.202754 0.015158 -0.012746 -497501.000000 0 0 1
-35.996492 8.351023 -26.704053 45.591594 -0.227963 2.196568 0.036005 -0.009979 -191041.000000 0 0 1
35.388113 8.029023 -25.681673 44.455956 0.223108 2.186690 0.028243 -0.006392 -174649.000000 0 0 1
34.320043 7.254623 -26.164943 43.761846 0.208315 2.211667 0.037854 -0.002270 200410.000000 0 0 1
33.503653 6.410023 -25.138543 42.373689 0.189039 2.205897 0.044213 -0.008662 431057.000000 0 0 1
34.220293 5.280123 -24.687313 42.524952 0.153091 2.190185 0.031385 -0.013001 357579.000000 0 0 1
33.451763 4.581423 -23.713813 41.259602 0.136109 2.183091 0.033371 -0.012539 349826.000000 0 0 1
34.338923 3.574423 -22.982613 41.474554 0.103719 2.158123 0.018482 -0.007729 269151.000000 0 0 1
35.054353 2.572223 -23.699413 42.392053 0.073247 2.164040 0.019381 -0.008612 369927.000000 0 0 1
35.962223 1.931823 -22.805913 42.627727 0.053667 2.135306 0.032958 -0.009468 -256632.000000 0 0 1
-35.717805 0.657123 -23.349013 42.677510 -0.018396 2.149696 0.054886 -0.003288 -203000.000000 0 0 1
35.824353 -0.559277 -23.327513 42.753595 -0.015610 2.147933 0.035775 -0.005685 135961.000000 0 0 1
-35.857643 -1.611977 -24.061513 43.212561 0.044925 2.161346 0.048661 -0.011008 266991.000000 0 0 1
-22.756723 29.413423 27.400823 46.193322 -0.912308 0.935797 0.018474 -0.003550 -817892.000000 0 0 1
-24.087823 29.594423 26.997853 46.743312 -0.887618 0.955039 0.016339 -0.009211 11218.900000 0 0 1
-24.335723 29.098923 25.667323 45.801596 -0.874304 0.975925 0.014178 -0.007989 -399879.000000 0 0 1
-24.648923 27.624423 25.451723 44.927368 -0.842259 0.968534 0.020197 -0.005850 -70294.800000 0 0 1
-25.949883 27.349023 25.961053 45.774903 -0.811643 0.967760 0.035678 -0.003141 321101.000000 0 0 1
-26.030093 27.063423 27.345463 46.451792 -0.804858 0.941365 0.036212 -0.007235 -929124.000000 0 0 1
-25.312743 25.730223 27.819773 45.571034 -0.793577 0.914142 0.039626 -0.004273 -159280.000000 0 0 1
-23.925523 25.715223 27.940873 44.882020 -0.821436 0.898812 0.040837 -0.005013 -735472.000000 0 0 1
-23.568823 26.175523 29.231963 45.772864 -0.837752 0.878079 0.031759 -0.007216 -147789.000000 0 0 1
-22.145423 25.858423 29.714223 45.188636 -0.862592 0.853221 0.045003 -0.004660 -173209.000000 0 0 1
-21.060823 26.598423 29.163943 44.738909 -0.901071 0.860749 0.048402 -0.012074 736492.000000 0 0 1
-19.830023 26.432123 29.874013 44.545972 -0.927152 0.835734 0.057097 -0.010664 595861.000000 0 0 1
-19.012423 25.151423 29.755323 43.352573 -0.923518 0.814329 0.063954 -0.007544 -754677.000000 0 0 1
-18.359223 24.980723 28.528553 42.130463 -0.937006 0.826917 0.061282 -0.007733 124167.000000 0 0 1
-19.117123 24.246823 27.532543 41.369237 -0.903145 0.842590 0.065165 -0.016277 199841.000000 0 0 1
-19.063923 22.714223 27.462363 40.417205 -0.872550 0.823753 0.056226 -0.012224 202059.000000 0 0 1
-19.760523 22.097923 28.540873 41.150673 -0.841181 0.804363 0.073755 -0.009655 41959.700000 0 0 1
-19.882223 20.689023 28.366073 40.348142 -0.805282 0.791143 0.086589 -0.006662 442972.000000 0 0 1
-20.510223 20.069523 29.645213 41.258862 -0.774538 0.769128 0.099277 -0.020523 170414.000000 0 0 1
-19.570223 20.275023 30.667713 41.648275 -0.803085 0.743136 0.080038 -0.025121 18516.300000 0 0 1
-20.117423 20.043823 31.951543 42.747709 -0.783566 0.726589 0.087321 -0.030516 -424697.000000 0 0 1
-19.163923 20.267723 33.141808 43.317618 -0.813384 0.699618 0.081691 -0.024867 -317969.000000 0 0 1
-18.918323 21.602723 33.560493 44.168850 -0.851549 0.707756 0.045970 -0.019496 -67448.500000 0 0 1
-18.050423 22.364023 32.759271 43.579091 -0.891730 0.720130 0.063270 -0.019848 -865131.000000 0 0 1
-16.602623 22.338223 33.213572 43.333413 -0.931637 0.697476 0.044952 -0.005611 -885818.000000 0 0 1
-15.957823 21.096223 33.187656 42.439643 -0.923192 0.672934 0.049817 -0.018365 -342877.000000 0 0 1
-14.623523 21.311923 33.610682 42.399569 -0.969415 0.655550 0.029232 -0.015155 -389160.000000 0 0 1
-13.743223 20.057823 33.208089 41.157862 -0.970086 0.632001 0.020534 -0.018896 314589.000000 0 0 1
-12.391523 20.053723 33.639870 41.077275 -1.017307 0.611233 0.015624 -0.022233 201260.000000 0 0 1
-12.122323 20.059623 -33.448723 40.843069 -1.027210 2.530388 0.022715 -0.025115 -161335.000000 0 0 1
-10.623723 20.120423 -33.042193 40.118343 -1.084995 2.538558 0.010452 -0.020666 217127.000000 0 0 1
-9.941823 21.310223 -33.181223 40.668895 -1.134283 2.525058 0.011911 -0.019875 871244.000000 0 0 1
-8.608423 21.109923 -32.619773 39.796776 -1.183592 2.531611 -0.000046 -0.013940 1217380.000000 0 0 1
-7.701823 22.359423 -32.589353 40.265715 -1.239070 2.513853 0.006581 -0.014809 7782.510000 0 0 1
-7.871323 23.344023 -31.570503 40.044947 -1.245581 2.478962 0.014816 -0.011723 -71153.400000 0 0 1
-7.395123 22.888623 -30.306603 38.691951 -1.258291 2.470720 0.021401 -0.013361 -136175.000000 0 0 1
-7.165323 24.147223 -29.419753 38.729215 -1.282338 2.433536 0.032757 -0.016550 -456847.000000 0 0 1
-6.159723 24.963323 -29.894653 39.430952 -1.328878 2.431271 0.033343 -0.012805 -478888.000000 0 0 1
-5.813423 25.962023 -28.929673 39.303289 -1.350510 2.398031 0.052474 -0.016359 -61193.600000 0 0 1
-4.543923 26.735823 -29.357893 39.966703 -1.402449 2.395813 0.058558 -0.022535 -3302.870000 0 0 1
-3.387423 25.961323 -29.093103 39.139156 -1.441050 2.408823 0.061349 -0.013878 1053420.000000 0 0 1
-2.131923 26.338223 -29.699933 39.753404 -1.490028 2.414491 0.077502 -0.015501 1503690.000000 0 0 1
-1.350623 27.662623 -29.388663 40.382402 -1.522010 2.385845 0.086350 -0.027502 66184.900000 0 0 1
-0.630723 27.633423 -28.150273 39.451765 -1.547976 2.365329 0.093516 -0.042440 367871.000000 0 0 1
-0.026123 28.905823 -27.945323 40.205576 -1.569893 2.339301 0.093108 -0.035542 -470779.000000 0 0 1
0.561377 29.127923 -26.488703 39.375150 1.551526 2.308684 0.098927 -0.044280 77199.500000 0 0 1
1.584177 28.289723 -26.068293 38.501610 1.514856 2.314571 0.111607 -0.056021 -637867.000000 0 0 1
2.821577 28.313623 -26.703403 39.021715 1.471470 2.324469 0.099277 -0.047778 -492766.000000 0 0 1
4.014677 28.407623 -25.710573 38.524593 1.430402 2.301482 0.092932 -0.047306 65185.600000 0 0 1
4.198277 27.306423 -24.880113 37.179111 1.418244 2.303923 0.096461 -0.041898 832707.000000 0 0 1
5.434077 27.367823 -24.141913 36.896597 1.374789 2.284070 0.066517 -0.032393 538881.000000 0 0 1
6.064977 26.106323 -23.626613 35.728712 1.342527 2.293318 0.066025 -0.037444 -46238.000000 0 0 1
7.299977 26.401823 -23.018413 35.779788 1.301041 2.269644 0.056715 -0.041664 -252370.000000 0 0 1
8.002877 25.245623 -22.549513 34.783158 1.263817 2.276130 0.051418 -0.024528 891907.000000 0 0 1
9.452077 25.573023 -22.061913 35.072058 1.216758 2.251121 0.039505 -0.013667 -224820.000000 0 0 1
9.656377 26.312023 -20.870013 34.944608 1.219062 2.210841 0.053141 -0.006923 480398.000000 0 0 1
11.027577 26.497423 -20.508713 35.275036 1.176424 2.191238 0.072877 -0.014662 896482.000000 0 0 1
11.916877 25.290623 -20.088013 34.426092 1.130455 2.193842 0.040725 -0.000409 -166230.000000 0 0 1
12.073277 24.314323 -21.098213 34.381462 1.109913 2.231472 0.038906 -0.003626 -270695.000000 0 0 1
12.032277 23.022323 -20.544213 33.118993 1.089205 2.239941 0.022540 0.011884 -239518.000000 0 0 1
12.276877 22.092823 -21.761013 33.352005 1.063591 2.281629 0.033707 -0.006230 904761.000000 0 0 1
11.212877 22.188823 -22.771813 33.713913 1.102887 2.312361 0.040919 -0.015896 956015.000000 0 0 1
11.428977 21.376123 -23.872813 34.021631 1.079806 2.348570 0.030787 -0.023428 -266893.000000 0 0 1
10.431777 21.515423 -25.008213 34.599799 1.119341 2.378620 0.041769 -0.024124 -396559.000000 0 0 1
9.117877 21.075323 -24.813513 33.808510 1.162478 2.394905 0.038352 -0.027349 -11277.800000 0 0 1
8.504177 20.522823 -26.015363 34.209741 1.177958 2.434828 0.038978 -0.023329 441595.000000 0 0 1
6.996577 20.161223 -25.896043 33.556401 1.236769 2.452333 0.053105 -0.029335 697002.000000 0 0 1
6.018477 21.168223 -25.647603 33.795196 1.293789 2.432438 0.075489 -0.029750 230338.000000 0 0 1
6.096077 21.789523 -24.325513 33.221620 1.298000 2.392371 0.075919 -0.031907 -860284.000000 0 0 1
4.698877 22.132923 -23.803613 32.841402 1.361600 2.381548 0.089183 -0.034546 -339985.000000 0 0 1
4.179677 23.265523 -24.402413 33.973990 1.393041 2.372105 0.081422 -0.038706 -696619.000000 0 0 1
2.794477 23.247323 -24.217313 33.685685 1.451164 2.373044 0.096262 -0.033797 -458485.000000 0 0 1
2.013277 24.438023 -24.828813 34.896134 1.488599 2.362436 0.093469 -0.026258 -738738.000000 0 0 1
0.644277 24.281523 -24.718413 34.655553 1.544269 2.364934 0.106485 -0.049758 -996081.000000 0 0 1
-0.050323 25.114623 -25.607133 35.867424 -1.568793 2.365903 0.093734 -0.044073 -934797.000000 0 0 1
-1.499823 24.761923 -25.777053 35.775114 -1.510300 2.375363 0.114668 -0.044574 -1132930.000000 0 0 1
-1.756223 23.496623 -26.424313 35.403671 -1.496191 2.413390 0.128163 -0.048748 133019.000000 0 0 1
-3.002523 23.545723 -27.101543 36.026516 -1.443962 2.422292 0.119980 -0.035668 66259.100000 0 0 1
-3.404123 22.131723 -27.627003 35.561953 -1.418180 2.460475 0.089325 -0.029624 -847505.000000 0 0 1
-2.693923 21.654823 -28.683753 36.040897 -1.447029 2.491234 0.100405 -0.032775 -725106.000000 0 0 1
-3.173723 20.470923 -29.268983 35.858117 -1.416985 2.525676 0.070616 -0.027442 -22681.700000 0 0 1
-4.374123 20.649323 -30.247943 36.884489 -1.362053 2.532333 0.042190 -0.021571 -162925.000000 0 0 1
-4.180823 21.127823 -31.568103 38.215302 -1.375438 2.542875 0.035130 -0.016738 -270068.000000 0 0 1
-3.697023 22.425723 -31.711453 39.015347 -1.407410 2.519729 0.049952 -0.017282 -176854.000000 0 0 1
-3.014523 22.605423 -33.084553 40.183083 -1.438225 2.538077 0.014694 -0.009182 -200429.000000 0 0 1
-1.986923 21.684623 -33.326623 39.809980 -1.479423 2.562834 0.020343 -0.007663 -64711.200000 0 0 1
-1.455823 21.885423 33.829042 40.317431 -1.504374 0.575230 0.013877 0.002231 593251.000000 0 0 1
-0.304723 20.916423 33.444801 39.447995 -1.556229 0.558936 0.015718 0.010617 399294.000000 0 0 1
-0.882723 19.711323 32.944690 38.401407 -1.526044 0.539622 0.005887 0.019465 1362600.000000 0 0 1
0.159877 18.810823 32.437627 37.497630 1.562297 0.525530 0.027583 0.010352 1043260.000000 0 0 1
-0.503323 17.537723 31.880543 36.389478 -1.542105 0.503100 0.019767 0.006142 205601.000000 0 0 1
-1.382223 17.785723 30.798553 35.592041 -1.493237 0.525005 0.010149 0.008073 245375.000000 0 0 1
-1.901623 16.492223 30.344203 34.588730 -1.455999 0.500619 0.004352 0.004745 -256791.000000 0 0 1
-3.013323 16.577223 29.292203 33.792271 -1.390985 0.521984 0.016442 0.008416 1161120.000000 0 0 1
-4.341023 16.926123 29.787353 34.534396 -1.319739 0.530525 0.005225 0.006104 1254900.000000 0 0 1
-4.645123 18.300023 29.498403 35.023189 -1.322215 0.569346 0.007375 0.010310 -853099.000000 0 0 1
-6.140423 18.535723 29.460793 35.344252 -1.250899 0.585314 -0.016384 0.006908 -455927.000000 0 0 1
-6.731123 17.774023 28.369193 34.147255 -1.208781 0.590271 -0.027869 0.011173 85695.000000 0 0 1
-8.120223 18.058423 28.305473 34.543371 -1.148222 0.610401 -0.037102 0.014097 -315441.000000 0 0 1
-8.887723 17.021823 27.467813 33.514398 -1.089596 0.610114 -0.028979 0.004122 -491518.000000 0 0 1
-9.108323 15.716423 27.985653 33.364117 -1.045556 0.575730 -0.026664 -0.007653 184408.000000 0 0 1
-9.929923 15.665923 29.155653 34.555414 -1.005855 0.566590 -0.021741 -0.008566 -537928.000000 0 0 1
-10.427723 14.218123 29.489793 34.358992 -0.937997 0.538879 -0.019959 -0.010139 -287618.000000 0 0 1
-9.523323 13.179723 29.816843 33.962375 -0.945080 0.499259 0.000638 -0.006717 3897.630000 0 0 1
-8.716023 13.452323 30.957083 34.860795 -0.995885 0.477775 -0.000394 -0.004073 -164845.000000 0 0 1
-9.275423 13.049823 32.341843 36.087757 -0.952879 0.459668 0.027721 -0.018786 -236857.000000 0 0 1
-9.525523 11.671423 32.440507 35.767922 -0.886291 0.434758 0.034845 -0.017163 153045.000000 0 0 1
-10.078823 11.434223 33.694270 36.981454 -0.848319 0.424821 0.032772 -0.013273 -449818.000000 0 0 1
-10.508523 10.002123 33.959031 36.928137 -0.760714 0.403741 0.033955 -0.015310 -1198970.000000 0 0 1
-9.429123 9.172123 34.084891 36.535134 -0.771583 0.368317 0.036878 -0.015031 -778577.000000 0 0 1
-9.406923 8.397223 -33.214653 35.527690 -0.728747 2.778759 0.057720 -0.020329 -117551.000000 0 0 1
-8.557723 9.043323 -32.074213 34.405980 -0.812980 2.771318 0.042958 -0.020518 -218152.000000 0 0 1
-9.125723 10.217623 -31.408533 34.266231 -0.841787 2.730296 0.036804 -0.017295 598399.000000 0 0 1
-8.207023 11.008223 -30.604083 33.543197 -0.930159 2.719853 0.037318 -0.017845 66909.100000 0 0 1
-7.169023 11.820623 -31.379833 34.290173 -1.025623 2.726617 0.021979 -0.017104 -442394.000000 0 0 1
-7.682123 13.096023 -31.792643 35.231988 -1.040288 2.696057 0.020155 -0.020954 480916.000000 0 0 1
-6.653523 14.033123 -32.138013 35.693834 -1.128058 2.691438 0.006515 -0.021556 247340.000000 0 0 1
-7.226123 15.351323 -32.624193 36.772516 -1.130849 2.662014 -0.002075 -0.015672 197478.000000 0 0 1
-7.841823 15.383923 -33.937353 38.077594 -1.099386 2.670931 -0.016847 -0.020094 249864.000000 0 0 1
-8.198023 16.730723 -34.244399 38.984658 -1.115182 2.643315 0.000550 -0.020248 -678632.000000 0 0 1
-8.841723 17.034223 32.806934 38.008364 -1.092020 0.529320 0.003636 -0.021064 1374560.000000 0 0 1
-10.099123 16.450323 32.423805 37.734713 -1.020207 0.536981 -0.010324 -0.018300 930714.000000 0 0 1
-11.181023 16.726823 33.306286 38.911574 -0.981561 0.543415 0.007834 -0.029423 -271868.000000 0 0 1
-12.538323 16.142323 32.831785 38.674413 -0.910403 0.556843 0.026570 -0.034207 773.305000 0 0 1
-12.613523 14.713023 32.732929 38.039699 -0.862078 0.534558 0.017699 -0.032896 -1069260.000000 0 0 1
-13.754823 14.088823 33.120720 38.531444 -0.797393 0.536356 0.014763 -0.022072 -1140020.000000 0 0 1
-13.616923 12.556623 32.863679 37.724141 -0.744910 0.513241 0.006739 -0.015817 -145271.000000 0 0 1
-13.605323 12.254323 31.500933 36.435999 -0.733202 0.526532 -0.012788 -0.011924 143392.000000 0 0 1
-12.610423 11.359823 31.032013 35.370244 -0.733272 0.500489 -0.000758 -0.015781 -116230.000000 0 0 1
-12.965023 10.882823 29.609543 34.106491 -0.698307 0.519334 -0.002937 -0.011997 -1142000.000000 0 0 1
-13.937423 9.941223 29.450923 34.065181 -0.619580 0.526550 -0.011516 -0.009370 -660359.000000 0 0 1
-13.835623 9.404323 28.179643 32.771299 -0.596984 0.535746 -0.016120 -0.001986 103945.000000 0 0 1
-14.832323 8.243323 27.971313 32.716121 -0.507260 0.545303 -0.001239 0.002896 41734.500000 0 0 1
-14.555923 7.082323 28.776173 33.016698 -0.452838 0.512413 -0.001915 0.005958 85678.300000 0 0 1
-15.233623 5.897023 28.380543 32.745891 -0.369341 0.522268 0.000309 0.008735 602104.000000 0 0 1
-14.238023 4.621423 28.350453 32.059742 -0.313855 0.485802 0.010664 0.009281 1020060.000000 0 0 1
-13.309323 4.638623 27.262933 30.690755 -0.335360 0.477142 0.012779 -0.001958 172374.000000 0 0 1
-13.914123 4.411523 25.979153 29.799006 -0.307028 0.511905 0.017196 -0.000388 -36702.800000 0 0 1
-12.934923 4.171523 24.781893 28.264042 -0.311970 0.501631 0.012186 -0.001148 105063.000000 0 0 1
-12.011423 3.083023 24.859513 27.780834 -0.251250 0.462715 0.007744 -0.002527 198275.000000 0 0 1
-11.430523 2.861323 23.620903 26.396801 -0.245283 0.462725 0.012945 -0.004732 -470641.000000 0 0 1
-10.393423 1.742123 23.619623 25.863968 -0.166074 0.419666 0.014821 -0.013264 -856817.000000 0 0 1
-9.119523 2.135023 24.024513 25.785679 -0.229974 0.371731 0.005476 -0.014759 -436856.000000 0 0 1
-8.344523 0.976123 24.248773 25.662948 -0.116448 0.333525 0.003493 -0.009180 -23913.900000 0 0 1
-6.821323 1.220823 24.286773 25.256053 -0.177097 0.277943 0.021001 -0.014544 -782529.000000 0 0 1
-6.199223 1.226123 23.008723 23.860744 -0.195266 0.268040 0.016455 -0.012978 399405.000000 0 1 0
-4.817923 1.547523 22.931923 23.483618 -0.310792 0.217188 0.021325 -0.010790 395599.000000 0 1 0
-4.353523 2.911423 23.526443 24.102346 -0.589444 0.219043 0.034023 -0.010175 -892810.000000 0 1 0
-4.319123 2.787923 24.957233 25.481186 -0.573194 0.203141 0.039614 -0.004886 -151459.000000 0 0 1
-4.006423 4.040723 25.501403 26.128537 -0.789660 0.219538 0.042076 -0.004897 76141.500000 0 0 1
3.765877 -23.855577 12.855687 27.359442 -1.414227 1.081640 0.081910 -0.009607 215527.000000 0 0 1
3.631377 -25.063877 13.538887 28.717352 -1.426913 1.079858 0.089465 -0.019768 552384.000000 0 0 1
2.340177 -25.646357 13.278787 28.974786 -1.479800 1.094729 0.063808 -0.017746 640033.000000 0 0 1
2.120977 -26.959987 14.140687 30.517183 -1.492287 1.089004 0.057548 -0.002942 -309136.000000 0 0 1
1.848377 -26.747387 15.501387 30.969860 -1.501801 1.046584 0.073497 -0.005687 124147.000000 0 0 1
2.018777 -27.934177 16.281387 32.395637 -1.498653 1.044216 0.062112 -0.010472 -692590.000000 0 0 1
1.656677 -27.764447 17.728987 32.983724 -1.511198 1.003318 0.033921 -0.008830 -536730.000000 0 0 1
2.355377 -26.832107 18.459887 32.653900 -1.483239 0.969976 0.063095 -0.022587 -244185.000000 0 0 1
2.508977 -27.272047 19.806287 33.798647 -1.479056 0.944672 0.046480 -0.023019 421726.000000 0 0 1
3.287277 -26.197837 20.676887 33.536048 -1.445970 0.906434 0.056656 -0.019818 270760.000000 0 0 1
2.391177 -25.267867 21.171887 33.051954 -1.476444 0.875564 0.039139 -0.009243 425740.000000 0 0 1
3.153277 -24.328277 21.974587 32.934643 -1.441901 0.840329 0.060302 -0.025274 551725.000000 0 0 1
2.352177 -23.080277 22.494787 32.314817 -1.469234 0.800826 0.056718 -0.023275 32606.900000 0 0 1
1.875077 -22.228577 21.434587 30.936501 -1.486641 0.805352 0.043519 -0.013166 893313.000000 0 0 1
2.869777 -21.320777 20.934787 30.017936 -1.437000 0.799020 0.041224 -0.005407 562130.000000 0 0 1
2.048977 -20.337677 20.104987 28.671064 -1.470387 0.793676 0.019441 -0.013607 523990.000000 0 0 1
1.598377 -19.183177 20.860387 28.384940 -1.487667 0.745262 0.014741 -0.021402 -641730.000000 0 0 1
0.696877 -18.421877 20.181187 27.333706 -1.532986 0.740211 0.026174 -0.027009 -673125.000000 0 0 1
0.576277 -17.009177 20.758487 26.843230 -1.536929 0.686731 0.016104 -0.030598 -27685.600000 0 0 1
1.823477 -16.367977 20.624287 26.393123 -1.459849 0.673848 0.007330 -0.021594 -390199.000000 0 0 1
1.784377 -15.063377 21.151687 26.028507 -1.452888 0.622136 0.012060 -0.016299 -106510.000000 0 0 1
2.985677 -14.147477 20.882787 25.399925 -1.362809 0.605602 -0.006736 -0.014993 -891410.000000 0 0 1
3.191977 -13.791877 19.483287 24.083253 -1.343362 0.628352 -0.022015 -0.007272 319703.000000 0 1 0
2.063977 -13.341777 18.707587 23.070259 -1.417313 0.625114 -0.009820 0.004679 791345.000000 0 1 0
1.180277 -12.152677 19.198087 22.751861 -1.473979 0.566466 -0.004204 0.005633 126446.000000 0 1 0
1.937377 -10.933277 19.207287 22.185803 -1.395417 0.524156 -0.003158 0.009847 -48195.900000 0 1 0
1.527077 -9.892877 20.059687 22.418564 -1.417644 0.462858 0.000846 -0.003179 -238763.000000 0 1 0
0.136977 -9.241777 19.909187 21.950055 -1.555976 0.434639 0.013779 -0.009428 194889.000000 0 1 0
-0.080723 -8.366877 20.984787 22.591424 1.561149 0.379411 0.009893 -0.014260 549019.000000 0 1 0
-1.412723 -7.829277 21.027487 22.482184 1.392276 0.361703 0.019397 -0.013831 485682.000000 0 1 0
-1.761923 -7.218377 22.381187 23.582342 1.331389 0.320540 0.017312 -0.008354 -318828.000000 0 1 0
-2.057223 -8.097477 23.409887 24.856068 1.322003 0.342798 0.015580 -0.004003 128626.000000 0 1 0
-2.214423 -7.558277 24.722987 25.947202 1.285792 0.308405 0.015910 0.007803 -152742.000000 0 0 1
-2.333523 -8.656477 25.775087 27.289834 1.307486 0.334745 0.027030 0.005077 237436.000000 0 0 1
-1.190623 -9.450977 26.045087 27.732384 1.445478 0.350626 0.025013 0.001798 158565.000000 0 0 1
-1.438023 -10.213977 27.208187 29.097744 1.430926 0.362363 0.042746 -0.006505 -427555.000000 0 0 1
-0.358123 -11.209477 27.592987 29.785123 1.538859 0.386055 0.042005 -0.008296 -377769.000000 0 0 1
0.748577 -10.614577 28.233587 30.172256 -1.500389 0.360426 0.022937 -0.006193 -140105.000000 0 0 1
1.808277 -11.535077 28.388987 30.696294 -1.415299 0.390196 0.033927 -0.013844 724196.000000 0 0 1
2.986377 -11.045177 29.320887 31.474256 -1.306732 0.372053 0.035042 -0.017478 695952.000000 0 0 1
2.548277 -10.925477 30.688787 32.675089 -1.341651 0.350473 0.037518 -0.015017 220142.000000 0 0 1
3.445677 -10.235277 31.533887 33.331961 -1.246066 0.329959 0.040531 -0.020378 -520275.000000 0 0 1
2.969077 -10.291377 32.989487 34.684782 -1.289922 0.313945 0.030381 -0.019033 -262516.000000 0 0 1
3.388577 -11.374577 33.760187 35.785663 -1.281260 0.338060 0.025866 -0.028643 -252888.000000 0 0 1
2.743477 -11.539677 -33.499549 35.537454 -1.337387 2.801293 0.018256 -0.024746 -483928.000000 0 0 1
3.130077 -10.566677 -32.359649 34.184776 -1.282810 2.813349 0.015610 -0.015970 -139409.000000 0 0 1
2.711777 -9.217077 -32.441649 33.834433 -1.284658 2.853668 0.026712 -0.013433 111802.000000 0 0 1
3.280477 -8.471177 -31.390449 32.678474 -1.201328 2.859895 0.024965 -0.008420 -199421.000000 0 0 1
2.678977 -7.059477 -31.185849 32.086918 -1.208098 2.904045 0.003261 -0.005989 -52228.600000 0 0 1
2.897877 -6.249177 -32.324849 33.050655 -1.136590 2.931634 0.034742 -0.009039 120872.000000 0 0 1
2.836577 -4.890477 -31.927749 32.424437 -1.045197 2.966335 0.021074 0.000526 -83371.900000 0 0 1
3.111877 -3.902477 -33.103249 33.477428 -0.897636 2.991940 0.025131 0.001664 -529829.000000 0 0 1
2.040777 -3.883777 -33.989049 34.271037 -1.086987 3.013222 0.026581 -0.011307 -418013.000000 0 0 1
2.147577 -2.759277 33.676387 33.857418 -0.909421 0.103457 0.049609 -0.014613 163076.000000 0 0 1
1.696877 -2.951277 32.209087 32.388497 -1.048989 0.105304 0.043516 -0.019788 728572.000000 0 0 1
0.280277 -2.929577 31.994187 32.129254 -1.475415 0.091726 0.033099 -0.024000 291741.000000 0 0 1
-0.022023 -3.613177 30.796987 31.008224 1.564701 0.116791 0.025624 -0.008452 1119970.000000 0 0 1
-1.588823 -3.786377 30.763287 31.036122 1.173495 0.132693 0.022868 -0.013633 1070230.000000 0 0 1
-2.371423 -2.717977 30.342687 30.556337 0.853386 0.118323 0.033272 -0.010760 993016.000000 0 0 1
-3.800223 -2.938377 30.486087 30.862230 0.658192 0.156286 0.018820 -0.007926 1441000.000000 0 0 1
-4.655323 -1.872377 29.781787 30.201534 0.382403 0.166916 0.009718 -0.010102 -426607.000000 0 0 1
-4.336723 -1.778077 28.379187 28.763640 0.389101 0.163681 0.013000 -0.007280 315724.000000 0 0 1
-5.192423 -0.915377 27.599187 28.098297 0.174498 0.188764 0.010309 -0.004900 262523.000000 0 0 1
-5.334723 0.567023 27.952487 28.462648 -0.105892 0.189619 0.024052 -0.006312 24080.900000 0 0 1
-6.311423 0.811523 28.948487 29.639628 -0.127878 0.216376 0.018291 -0.004172 -153364.000000 0 0 1
-6.654023 2.203423 28.978587 29.814252 -0.319777 0.237322 0.023698 -0.004028 -310437.000000 0 0 1
-8.083823 2.402023 29.527887 30.708533 -0.288830 0.278193 0.015355 -0.006946 -291449.000000 0 0 1
-9.019223 1.920923 28.610487 30.059879 -0.209846 0.311799 0.003631 -0.000232 -1578570.000000 0 0 1
-10.285723 2.357723 28.892687 30.759427 -0.225330 0.350178 0.000483 0.002246 -1166500.000000 0 0 1
-11.304023 1.623423 27.984287 30.224771 -0.142639 0.387458 0.008787 0.006619 -146374.000000 0 0 1
-11.473423 0.251823 28.341087 30.576463 -0.021945 0.384750 0.019605 0.006314 -39179.600000 0 0 1
-11.855623 -0.472377 27.197587 29.673013 0.039823 0.411363 0.020473 0.005402 -1059080.000000 0 0 1
-11.895923 -2.016477 27.443487 29.978728 0.167914 0.414216 0.034901 0.000281 645297.000000 0 0 1
-10.678823 -2.701977 27.859887 29.958492 0.247821 0.376521 0.031250 -0.002089 2009580.000000 0 0 1
-9.462423 -2.447477 27.123287 28.830545 0.253105 0.345864 0.031035 -0.007427 305838.000000 0 0 1
-9.497523 -2.966777 25.647387 27.509874 0.302770 0.370083 0.022943 -0.011433 -575640.000000 0 0 1
-10.312323 -2.162377 24.773287 26.920914 0.206694 0.402142 0.019084 -0.011709 623247.000000 0 0 1
-10.421823 -2.762777 23.508087 25.862666 0.259135 0.430018 0.026800 -0.013094 -283125.000000 0 0 1
-9.261023 -2.390977 22.585287 24.527098 0.252659 0.400593 0.014637 -0.009723 902595.000000 0 1 0
-7.942823 -2.739677 23.047687 24.531411 0.332146 0.349578 0.008632 -0.010372 704107.000000 0 1 0
-6.960823 -2.463977 22.065087 23.267838 0.340214 0.322934 0.004911 -0.009242 1129290.000000 0 1 0
-5.457823 -2.588577 22.552187 23.347156 0.442867 0.261706 0.005910 -0.010542 1237860.000000 0 1 0
-4.786023 -3.846477 22.634387 23.452439 0.676987 0.264900 0.008825 -0.010013 14387.000000 0 1 0
-5.476323 -4.791577 23.423487 24.527720 0.718809 0.301203 0.018036 -0.009240 -376708.000000 0 1 0
-5.413023 -6.321877 23.100987 24.554481 0.862693 0.345798 0.026935 -0.005619 117898.000000 0 1 0
-6.307223 -6.713777 22.026887 23.875502 0.816611 0.396100 0.025356 -0.015243 512045.000000 0 1 0
-5.919423 -6.221077 20.781887 22.486178 0.810240 0.391842 0.025169 -0.016715 -266445.000000 0 1 0
-7.081723 -6.194477 19.768287 21.893093 0.718668 0.444220 0.022023 -0.017748 707758.000000 0 1 0
-8.089123 -5.192477 20.058587 22.242811 0.570666 0.446877 0.025347 -0.017362 -834.661000 0 1 0
-9.101823 -5.144177 19.121787 21.793313 0.514424 0.500349 0.029460 -0.011901 17640.900000 0 1 0
-9.886823 -3.795077 19.192787 21.920651 0.366509 0.504208 0.023408 -0.010192 -46897.100000 0 1 0
-9.044323 -2.749177 18.776887 21.022113 0.295092 0.466391 0.018507 -0.014282 -49019.200000 0 1 0
-9.571023 -1.451077 18.763887 21.113824 0.150466 0.476291 0.012785 -0.015122 -680356.000000 0 1 0
-8.545023 -0.421877 18.269787 20.173758 0.049331 0.437954 0.005842 -0.009599 121881.000000 0 1 0
-7.451623 -0.089977 19.136187 20.536028 0.012074 0.371359 0.007169 -0.003050 538976.000000 0 1 0
-7.733923 0.562523 20.332787 21.761255 -0.072607 0.364345 0.017614 -0.001736 -547479.000000 0 1 0
-7.623623 2.112523 20.314287 21.800290 -0.270320 0.371357 0.014093 -0.004731 606155.000000 0 1 0
-8.722323 2.737823 19.596387 21.623898 -0.304148 0.436499 0.005226 -0.002450 1008280.000000 0 1 0
-8.467323 4.074623 19.261387 21.431266 -0.448509 0.453882 0.004523 -0.007706 -171511.000000 0 1 0
-9.324423 4.370123 18.046487 20.777838 -0.438275 0.518537 0.005524 -0.008598 -480206.000000 0 1 0
-10.671023 4.646823 18.376087 21.751880 -0.410698 0.564597 0.009484 -0.001689 -115363.000000 0 1 0
-11.339823 5.020723 17.192187 21.198362 -0.416810 0.624912 0.010073 0.003844 -281217.000000 0 1 0
-11.330523 6.580323 17.028787 21.486298 -0.526153 0.655831 0.009241 0.004883 -980639.000000 0 1 0
-10.062523 7.117623 16.876187 20.897862 -0.615635 0.630800 0.003094 -0.001648 -302447.000000 0 1 0
-10.278823 8.419423 16.475887 21.165910 -0.686282 0.678657 -0.000584 -0.012553 176453.000000 0 1 0
-9.107823 9.401523 16.727687 21.240447 -0.801264 0.663990 0.004364 -0.006102 -33012.700000 0 1 0
-8.890423 9.854323 18.044687 22.399956 -0.836775 0.634163 0.026825 0.008401 474029.000000 0 1 0
-7.960823 10.978223 18.157487 22.662533 -0.943392 0.641479 0.032824 0.003260 358368.000000 0 1 0
-8.475023 12.365523 17.783687 23.259228 -0.969953 0.700397 0.029476 0.005657 -466540.000000 0 1 0
-8.471723 12.591723 16.407687 22.350252 -0.978559 0.746432 0.026325 -0.003016 319426.000000 0 1 0
-9.236923 13.789023 16.145087 23.154303 -0.980576 0.799197 0.033644 -0.007679 4864.150000 0 1 0
-8.977723 14.250923 14.696487 22.353412 -1.008628 0.853353 0.026553 -0.009022 408307.000000 0 1 0
-7.763723 14.981623 14.637387 22.337805 -1.092682 0.856251 0.031499 -0.002529 86721.300000 0 1 0
-7.648623 15.521523 13.356687 21.859099 -1.112945 0.913428 0.018186 -0.007246 -484642.000000 0 1 0
-6.760223 16.730923 13.396987 22.474511 -1.186799 0.932165 0.007083 -0.001435 177550.000000 0 1 0
-5.397323 16.402623 13.650987 22.011965 -1.252904 0.901847 0.009849 -0.005432 -229486.000000 0 1 0
-4.546323 17.472823 13.474487 22.528435 -1.316247 0.929655 0.008381 -0.009796 144642.000000 0 1 0
-3.074023 17.014223 13.282187 21.802520 -1.392051 0.915740 0.016813 -0.021266 1017820.000000 0 1 0
-2.166723 16.678823 14.395887 22.138640 -1.441611 0.862869 0.025764 -0.019639 789082.000000 0 1 0
-2.441823 15.434323 14.998887 21.659812 -1.413889 0.805882 0.025400 -0.007224 -91944.800000 0 1 0
-1.374523 14.981323 16.032487 21.985677 -1.479303 0.753609 0.024317 -0.001460 -404280.000000 0 1 0
-0.251223 14.374823 15.410487 21.075620 -1.553321 0.750717 0.008277 -0.018157 525259.000000 0 1 0
0.620077 13.745223 16.417187 21.420543 1.525715 0.697543 0.008584 -0.008014 526274.000000 0 1 0
1.607477 14.719723 17.080787 22.605475 1.462022 0.714221 0.012799 -0.010404 -924722.000000 0 1 0
0.988077 15.595423 17.990487 23.829627 1.507524 0.715199 0.007261 -0.012026 -367580.000000 0 1 0
1.830877 16.641123 18.354387 24.842758 1.461216 0.739475 0.019963 -0.011599 -376064.000000 0 1 0
0.944577 17.777823 18.921887 25.980397 1.517714 0.754938 0.023829 -0.011512 480553.000000 0 0 1
0.431877 18.722323 17.983087 25.963500 1.547733 0.805668 0.016896 -0.006835 -66764.800000 0 0 1
-0.742223 18.311723 17.316887 25.213978 -1.530286 0.813723 0.018267 -0.010041 -323449.000000 0 0 1
-1.484423 19.409423 16.493887 25.514261 -1.494465 0.867864 0.024031 -0.009848 34086.500000 0 0 1
-1.959623 20.456923 17.337987 26.887388 -1.475295 0.869986 0.024181 -0.011706 40122.900000 0 0 1
-2.808323 21.362623 16.671087 27.242861 -1.440086 0.912281 0.029356 -0.015505 -497383.000000 0 0 1
-3.377323 22.513623 17.514887 28.723523 -1.421894 0.915020 0.028810 -0.008919 -571195.000000 0 0 1
-4.378723 22.111023 18.409787 29.103107 -1.375292 0.885928 0.030885 -0.014264 -323430.000000 0 0 1
-4.896623 23.297823 18.990187 30.453123 -1.363636 0.897473 0.026778 0.001955 -455252.000000 0 0 1
-6.030523 23.003623 19.963987 31.049874 -1.314410 0.872433 0.013898 0.000078 -271192.000000 0 0 1
-7.218923 22.631023 19.288987 30.599691 -1.262016 0.888772 0.019598 -0.004761 46777.100000 0 0 1
-8.278823 22.464523 20.234687 31.347030 -1.217711 0.869111 0.003787 -0.013002 76228.800000 0 0 1
-9.652323 22.861323 19.697687 31.682902 -1.171290 0.899868 0.016054 -0.015178 -466729.000000 0 0 1
-9.790823 24.275423 19.777487 32.807093 -1.187429 0.923738 0.025404 -0.016994 196298.000000 0 0 1
-10.971423 24.619623 19.084987 33.026273 -1.151576 0.954676 0.020403 -0.016121 154332.000000 0 0 1
-11.747623 25.907223 19.492887 34.484250 -1.145077 0.970037 0.026760 -0.018283 -137812.000000 0 0 1
-12.443223 25.710523 20.681487 35.264553 -1.120052 0.944107 0.020348 -0.016051 -8870.490000 0 0 1
-12.965723 26.973923 21.054687 36.592381 -1.122727 0.957722 0.036541 -0.026703 -786443.000000 0 0 1
-13.614823 26.994623 22.412687 37.635112 -1.103672 0.932876 0.046281 -0.038725 -1393780.000000 0 0 1
-14.889423 26.466923 22.291787 37.671165 -1.058356 0.937572 0.034189 -0.039954 -864110.000000 0 0 1
-15.696823 26.818023 23.366887 38.879404 -1.041249 0.926033 0.022851 -0.026243 578834.000000 0 0 1
-17.184723 26.352623 23.165687 39.069483 -0.992942 0.936097 0.038807 -0.028106 655616.000000 0 0 1
-17.452123 24.991923 23.422287 38.441857 -0.961205 0.915630 0.045587 -0.031238 -658588.000000 0 0 1
-18.813623 24.712223 23.335687 38.848432 -0.920097 0.926438 0.059532 -0.027225 -499868.000000 0 0 1
27.513877 23.827123 23.522123 43.336307 0.713712 0.997052 0.084082 -0.020881 36715.900000 0 0 1
27.496277 23.226023 24.822663 43.722511 0.701407 0.967048 0.075746 -0.030512 70641.100000 0 0 1
27.328677 21.793323 24.797713 42.857112 0.673186 0.953768 0.068169 -0.022619 -409104.000000 0 0 1
26.671677 21.158623 25.995413 42.834883 0.670642 0.918674 0.074525 -0.024353 -911629.000000 0 0 1
25.390177 21.632023 26.245633 42.443359 0.705645 0.904131 0.083826 -0.018868 -738658.000000 0 0 1
24.958677 20.957323 27.382263 42.566810 0.698473 0.872025 0.074106 -0.018655 -315382.000000 0 0 1
23.483077 21.223523 27.713873 42.070793 0.734899 0.851648 0.091645 -0.020094 -325516.000000 0 0 1
23.440977 22.472923 28.403903 43.142709 0.764317 0.852144 0.095697 -0.028857 -412864.000000 0 0 1
22.315777 22.456023 29.216223 43.079630 0.788531 0.825498 0.123913 -0.022808 -679695.000000 0 0 1
21.942277 23.778923 29.927033 44.074119 0.825547 0.824375 0.115880 -0.025936 15664.900000 0 0 1
21.139177 24.563123 29.056243 43.525591 0.860177 0.839860 0.104593 -0.030506 -181145.000000 0 0 1
21.056077 25.917923 29.421043 44.504998 0.888532 0.848549 0.089134 -0.030115 236242.000000 0 0 1
19.877877 26.462323 30.292403 44.866627 0.926543 0.829607 0.088600 -0.027808 646732.000000 0 0 1
18.625777 26.423223 29.619623 43.845506 0.956788 0.829092 0.089775 -0.026772 1467350.000000 0 0 1
17.444077 26.777123 30.394293 44.103551 0.993399 0.810471 0.075836 -0.023034 1344900.000000 0 0 1
16.559377 25.649823 30.927423 43.458393 0.997525 0.778944 0.048226 -0.006324 -490276.000000 0 0 1
16.993977 25.152323 32.158513 44.222218 0.976605 0.756559 0.055323 -0.012213 175727.000000 0 0 1
16.097177 24.298423 32.854659 43.919940 0.985699 0.725666 0.024950 -0.007571 356993.000000 0 0 1
16.759677 23.886723 34.234652 44.983038 0.958976 0.705855 0.046627 -0.003181 151210.000000 0 0 1
17.145777 24.952423 -33.443643 45.111842 0.968754 2.405875 0.051538 -0.008848 305588.000000 0 0 1
17.631477 24.540623 -32.134093 44.110215 0.947788 2.386920 0.036887 -0.001668 478516.000000 0 0 1
18.182377 25.769923 -31.295223 44.430606 0.956345 2.352320 0.037216 0.009752 736451.000000 0 0 1
17.006777 26.478123 -30.839893 44.061553 0.999856 2.346092 0.041733 -0.013800 1160410.000000 0 0 1
17.295977 27.806723 -30.415413 44.692975 1.014352 2.319297 0.046456 -0.013397 -109843.000000 0 0 1
16.676977 28.287523 -29.092443 43.871127 1.038094 2.295795 0.048646 -0.004551 -150612.000000 0 0 1
17.182077 27.587223 -27.995303 42.895403 1.013761 2.281861 0.026228 0.003272 557306.000000 0 0 1
16.548277 28.127423 -26.799633 42.228163 1.039000 2.258337 0.023149 0.007644 -41810.100000 0 0 1
16.990577 27.344723 -25.536553 41.091716 1.014828 2.241392 0.016504 0.010196 135949.000000 0 0 1
18.400977 27.445423 -25.464763 41.716919 0.980174 2.227385 0.033472 0.011905 -161629.000000 0 0 1
18.963677 26.854523 -24.293013 40.877095 0.955946 2.207184 0.031695 0.010567 -119758.000000 0 0 1
20.467177 26.656823 -24.470413 41.572739 0.915999 2.200143 0.020285 0.012062 -390675.000000 0 0 1
21.194577 26.230523 -23.374713 41.032032 0.891189 2.176900 0.031605 0.007414 -628043.000000 0 0 1
22.567077 26.130623 -23.632213 41.839741 0.858445 2.171020 0.031848 0.006606 -105388.000000 0 0 1
23.459977 25.877123 -22.420513 41.505125 0.834351 2.141455 0.045166 0.000958 177323.000000 0 0 1
22.990277 24.790823 -21.628113 40.136181 0.823064 2.139889 0.038834 -0.000186 268871.000000 0 0 1
23.486777 25.069523 -20.329513 39.917399 0.817983 2.105155 0.038309 -0.000154 7384.460000 0 0 1
23.235777 23.873723 -19.416913 38.559986 0.798939 2.098500 0.041507 -0.005374 -302962.000000 0 0 1
24.055877 22.757523 -19.754913 38.559651 0.757671 2.108681 0.047168 -0.000439 108535.000000 0 0 1
23.815577 21.854323 -18.673913 37.329722 0.742480 2.094675 0.053726 -0.004031 -887591.000000 0 0 1
24.039977 20.383823 -19.197713 36.904917 0.703282 2.117874 0.070953 -0.009917 506531.000000 0 0 1
23.052877 19.891223 -20.120213 36.495463 0.711908 2.154727 0.052119 -0.008261 -3915.580000 0 0 1
21.751677 19.862623 -19.618913 35.391538 0.740035 2.158365 0.041590 -0.011720 -1096430.000000 0 0 1
20.668977 19.571123 -20.677013 35.182017 0.758122 2.199029 0.049442 -0.002256 11693.100000 0 0 1
20.470077 20.358423 -21.863913 36.214916 0.782663 2.218964 0.046877 0.000007 35347.000000 0 0 1
20.470677 21.793823 -21.689713 36.938638 0.816694 2.198370 0.042832 0.002508 -89466.100000 0 0 1
20.229577 22.573923 -23.015513 38.059580 0.840113 2.220215 0.049789 0.002095 -146331.000000 0 0 1
18.863277 22.609023 -23.303813 37.550750 0.875473 2.240298 0.055175 -0.003482 -866783.000000 0 0 1
18.589377 22.706323 -24.655413 38.327946 0.884764 2.269565 0.044327 -0.003492 448312.000000 0 0 1
17.041377 22.639223 -24.820613 37.669693 0.925546 2.290154 0.038553 -0.011838 495599.000000 0 0 1
16.377677 23.729823 -24.144313 37.606923 0.966696 2.267924 0.027149 -0.003173 -296445.000000 0 0 1
14.988177 23.590723 -24.130113 36.924653 1.004795 2.282990 0.024857 -0.007912 -284516.000000 0 0 1
14.274877 24.664023 -23.291213 36.804439 1.046131 2.256008 0.015146 -0.006484 -227780.000000 0 0 1
14.525477 25.969423 -23.740813 38.066082 1.060818 2.244230 0.005921 0.002705 -4600.480000 0 0 1
13.419477 26.774423 -23.403713 38.009023 1.106185 2.234122 0.013848 0.001134 84958.500000 0 0 1
13.528877 28.213023 -23.889713 39.366528 1.123662 2.222892 0.008673 -0.005344 37790.800000 0 0 1
13.621777 28.266823 -25.321353 40.320429 1.121733 2.249781 0.014477 -0.011285 -296329.000000 0 0 1
12.970977 29.374923 -25.952183 41.287385 1.154978 2.250515 0.029592 -0.010871 -131231.000000 0 0 1
13.664977 30.764423 -26.022643 42.548317 1.152792 2.228880 0.049273 -0.008245 446332.000000 0 0 1
14.771977 30.823623 -26.929243 43.514264 1.123893 2.238087 0.036541 0.002426 238876.000000 0 0 1
15.328677 32.126623 -27.052483 44.709340 1.125609 2.220656 0.041867 -0.004082 -179493.000000 0 0 1
16.749177 32.126923 -27.633993 45.566563 1.090220 2.222389 0.030988 0.011392 218281.000000 0 0 1
17.712777 31.546123 -26.753253 44.995965 1.059176 2.207527 0.004427 0.012476 861783.000000 0 0 1
19.033177 31.436423 -27.297173 45.778228 1.026379 2.209670 0.024147 0.013257 770357.000000 0 0 1
20.025077 30.670223 -26.347113 45.120246 0.992374 2.194359 0.007275 0.019445 -495455.000000 0 0 1
20.270577 31.250523 -25.088443 44.910149 0.995372 2.163537 0.012606 0.012687 489876.000000 0 0 1
21.217477 32.345123 -25.044513 46.082708 0.990235 2.145360 0.020156 0.004460 1522530.000000 0 0 1
22.725377 32.108323 -25.473413 46.864506 0.954873 2.145462 0.011399 0.012637 672245.000000 0 0 1
22.803077 31.793923 -26.868413 47.463096 0.948610 2.172552 0.012369 0.017639 330390.000000 0 0 1
24.057277 32.208923 -27.415403 48.659753 0.929274 2.169304 0.022771 0.025885 -25423.600000 0 0 1
24.113777 31.659723 -28.927403 49.199664 0.919878 2.199330 0.021783 0.022141 -33904.900000 0 0 1
23.156177 32.099123 -29.896463 49.602023 0.945855 2.217710 0.029530 0.011694 171815.000000 0 0 1
21.997677 31.286623 -29.837603 48.508073 0.957992 2.233317 0.018311 0.009629 -480263.000000 0 0 1
20.868177 31.736023 -30.776343 48.885982 0.989128 2.251775 0.022320 0.006596 -35632.900000 0 0 1
20.185277 32.897223 -30.180203 48.995075 1.020447 2.234431 0.033510 0.005074 530868.000000 0 0 1
19.315677 33.592423 -31.057393 49.659923 1.048961 2.246442 0.041589 -0.008303 -416056.000000 0 0 1
17.813677 33.314423 -30.978363 48.855264 1.079765 2.257620 0.051543 -0.012411 -622587.000000 0 0 1
17.349277 32.022323 -31.334153 48.044310 1.074281 2.281270 0.053800 -0.015989 129046.000000 0 0 1
17.676477 31.473023 -32.615783 48.649751 1.059061 2.305571 0.063138 -0.025213 -756187.000000 0 0 1
17.126177 32.065323 -33.920293 49.719987 1.080240 2.321600 0.068763 -0.034419 -257517.000000 0 0 1
17.540477 33.462823 -34.022913 50.842772 1.087994 2.303900 0.063528 -0.032781 244928.000000 0 0 1
17.420477 33.805323 33.114629 50.426695 1.094970 0.854377 0.052349 -0.036987 -689904.000000 0 0 1
16.067177 34.245523 32.590971 49.930766 1.132111 0.859623 0.047047 -0.037562 -1317300.000000 0 0 1
15.088877 33.212523 32.547536 48.888526 1.144362 0.842298 0.050980 -0.035686 598652.000000 0 0 1
13.730377 33.663823 32.482938 48.753641 1.183526 0.841605 0.047108 -0.033591 752126.000000 0 0 1
13.331277 -34.236682 31.181603 48.188855 -1.199474 0.867060 0.043460 -0.034474 -1560800.000000 0 0 1
13.980377 -33.039082 30.853083 47.317488 -1.170497 0.860519 0.044031 -0.021434 -165253.000000 0 0 1
13.502777 -32.478182 29.670633 46.016343 -1.176787 0.870055 0.039219 -0.018841 -282749.000000 0 0 1
13.899877 -30.991282 29.505363 44.991473 -1.149183 0.855556 0.034481 -0.010852 -38445.600000 0 0 1
13.409677 -29.990482 30.435513 44.783579 -1.150331 0.823561 0.037155 -0.011915 215371.000000 0 0 1
13.898077 -28.675882 30.257163 43.942675 -1.119495 0.811295 0.041608 -0.018688 -431937.000000 0 0 1
13.418077 -27.802682 31.455613 44.073683 -1.121151 0.776023 0.044722 -0.009148 433794.000000 0 0 1
12.030177 -27.476482 31.330793 43.373965 -1.158104 0.763615 0.044384 -0.012530 631638.000000 0 0 1
11.547677 -26.466082 30.450803 41.964911 -1.159377 0.758854 0.037848 -0.014239 -465833.000000 0 0 1
11.920177 -25.041182 30.847173 41.481315 -1.126514 0.732298 0.038604 -0.011841 -249976.000000 0 0 1
11.064477 -24.459782 31.796323 41.613817 -1.145987 0.701181 0.036079 -0.020280 41740.100000 0 0 1
11.538977 -23.213982 32.173463 41.317898 -1.109495 0.678235 0.040944 -0.021190 5521.370000 0 0 1
10.678277 -22.627182 33.309531 41.659811 -1.129862 0.644234 0.047167 -0.022622 -257016.000000 0 0 1
10.597977 -23.363282 -33.960563 42.561484 -1.144939 2.494629 0.046782 -0.020815 623028.000000 0 0 1
11.772177 -23.563282 -33.144673 42.336530 -1.107470 2.470087 0.045526 -0.012202 668142.000000 0 0 1
12.192277 -22.306782 -32.341013 41.136180 -1.070588 2.475422 0.048442 -0.017500 34630.100000 0 0 1
12.751177 -21.295082 -33.179463 41.436093 -1.031271 2.499323 0.044842 -0.017724 -17523.700000 0 0 1
13.670277 -20.493482 -32.462573 40.751416 -0.982525 2.492446 0.043915 -0.015344 -216155.000000 0 0 1
14.066977 -19.348282 -33.385283 41.070829 -0.942152 2.519861 0.033327 -0.010554 -531357.000000 0 0 1
14.697877 -19.750682 33.898837 41.895682 -0.931036 0.628135 0.054112 -0.004079 317069.000000 0 0 1
14.391477 -18.832082 32.846594 40.505070 -0.918269 0.625064 0.034595 -0.002253 10456.300000 0 0 1
15.286877 -17.566282 32.681601 40.129166 -0.854669 0.619084 0.045857 -0.006142 -538321.000000 0 0 1
15.089277 -16.557182 33.641440 40.417485 -0.831749 0.587464 0.035260 -0.003982 418013.000000 0 0 1
15.872277 -15.390082 33.388404 40.044592 -0.769975 0.584876 0.055079 -0.009162 494284.000000 0 0 1
17.346377 -15.434382 33.902436 41.091266 -0.727137 0.600502 0.068830 -0.003575 202729.000000 0 0 1
18.167477 -16.178682 33.020039 41.013778 -0.727558 0.634959 0.071113 -0.002495 274173.000000 0 0 1
19.539077 -15.971182 33.355028 41.825974 -0.685259 0.647703 0.076848 -0.002988 1027110.000000 0 0 1
20.544277 -16.723882 32.367073 41.825626 -0.683244 0.685887 0.083176 -0.009790 278984.000000 0 0 1
20.705777 -15.974082 31.203493 40.713124 -0.657107 0.697542 0.072843 -0.006894 410191.000000 0 0 1
21.430277 -16.684982 30.216693 40.628733 -0.661537 0.732168 0.065309 -0.011156 -218501.000000 0 0 1
21.501077 -15.762682 28.975073 39.374018 -0.632604 0.743811 0.059688 -0.004450 -388160.000000 0 0 1
22.216177 -14.605082 29.258883 39.534152 -0.581565 0.737590 0.053821 -0.004933 190134.000000 0 0 1
22.724477 -13.962682 28.116023 38.753956 -0.550965 0.759035 0.039912 -0.005355 226072.000000 0 0 1
23.479177 -12.599582 28.332893 38.894396 -0.492519 0.754729 0.030460 0.002239 -24523.300000 0 0 1
22.607077 -11.536682 28.606443 38.242693 -0.471864 0.725717 0.049097 -0.010570 189595.000000 0 0 1
23.238677 -10.249782 28.765033 38.373445 -0.415399 0.723327 0.039625 -0.013686 -336883.000000 0 0 1
22.219177 -9.135182 28.676383 37.409602 -0.390072 0.697343 0.055386 -0.018051 -4325.420000 0 0 1
21.411077 -9.143482 29.854123 37.859030 -0.403601 0.662332 0.067812 -0.024043 -221388.000000 0 0 1
20.208477 -8.458082 29.636633 36.854467 -0.396387 0.636547 0.068072 -0.028424 588924.000000 0 0 1
19.111977 -8.405082 30.790783 37.201954 -0.414323 0.595861 0.058764 -0.020315 652037.000000 0 0 1
19.513377 -7.799782 31.995953 38.279884 -0.380260 0.581131 0.066958 -0.023200 156767.000000 0 0 1
20.102577 -8.711782 32.943686 39.563812 -0.408936 0.586881 0.078464 -0.024168 24094.100000 0 0 1
20.108677 -8.145082 -34.086186 40.405066 -0.384855 2.574771 0.094282 -0.028225 277582.000000 0 0 1
18.806477 -8.111382 -33.524033 39.285352 -0.407201 2.593168 0.086009 -0.037714 257034.000000 0 0 1
18.807377 -7.252682 -32.405053 38.162891 -0.368057 2.585122 0.091369 -0.038163 872055.000000 0 0 1
17.388977 -7.174182 -31.709603 36.869287 -0.391296 2.606173 0.088307 -0.041335 898077.000000 0 0 1
17.358777 -6.350382 -30.557513 35.712968 -0.350708 2.597586 0.085890 -0.035948 711845.000000 0 0 1
16.056077 -6.235382 -29.966043 34.563584 -0.370423 2.619912 0.079335 -0.028681 642745.000000 0 0 1
15.921577 -5.035782 -28.965773 33.434589 -0.306331 2.618626 0.061010 -0.018219 -225343.000000 0 0 1
16.707677 -5.060382 -27.784713 32.813781 -0.294095 2.580622 0.063318 -0.017841 147330.000000 0 0 1
16.328177 -5.940182 -26.657393 31.819989 -0.348915 2.563957 0.086609 -0.028656 740154.000000 0 0 1
14.903177 -5.777882 -26.006563 30.525889 -0.369854 2.590496 0.079314 -0.024553 752040.000000 0 0 1
14.892877 -4.628582 -25.212823 29.646383 -0.301328 2.587640 0.067914 -0.014192 369855.000000 0 0 1
13.755777 -4.608582 -24.329013 28.325983 -0.323276 2.603902 0.019742 -0.020309 640404.000000 0 0 1
13.804777 -3.243682 -23.567113 27.504584 -0.230782 2.599911 0.020968 -0.015091 32319.700000 0 0 1
13.660177 -2.058682 -24.291313 27.944704 -0.149581 2.624507 0.008717 -0.016284 84995.400000 0 0 1
13.718977 -0.925682 -23.405713 27.145803 -0.067372 2.610437 0.016514 -0.014573 -53678.500000 0 0 1
14.335277 0.275318 -24.119413 28.059259 0.019203 2.605260 0.013381 -0.016679 -754205.000000 0 0 1
13.454377 0.879318 -24.986313 28.392064 0.065263 2.646755 0.023066 -0.014079 -292469.000000 0 0 1
14.060477 2.006318 -25.605443 29.280728 0.141735 2.635161 0.010324 0.006484 -9446.320000 0 0 1
13.204177 2.615318 -26.730833 29.928709 0.195537 2.675098 0.009941 0.005303 -142035.000000 0 0 1
12.280977 3.594318 -26.350703 29.293362 0.284722 2.689524 0.031780 -0.016374 125945.000000 0 0 1
11.414977 3.935318 -27.438333 29.977501 0.331990 2.727042 0.046692 -0.013205 772705.000000 0 0 1
10.111477 4.719318 -27.057063 29.267705 0.436678 2.750435 0.060828 -0.020349 387386.000000 0 0 1
10.289677 5.981318 -26.477703 29.029681 0.526551 2.719151 0.053372 -0.033264 99545.700000 0 0 1
9.030277 6.609318 -26.319103 28.599373 0.631820 2.739562 0.065097 -0.033214 188412.000000 0 0 1
7.986977 5.472223 -31.038953 32.513899 0.600685 2.839233 0.068627 -0.020811 -92740.500000 0 0 1
8.232877 4.488523 -30.085813 31.513223 0.499147 2.839461 0.055378 -0.006860 351731.000000 0 0 1
8.224477 3.232223 -30.808073 32.050377 0.374458 2.862258 0.035140 -0.000467 -196751.000000 0 0 1
7.876277 2.072723 -29.904613 30.993835 0.257326 2.875694 0.036877 -0.001253 129486.000000 0 0 1
8.888977 1.709523 -28.946223 30.328538 0.190000 2.838513 0.051848 -0.007567 746234.000000 0 0 1
8.403277 0.794523 -28.000243 29.244827 0.094269 2.848803 0.041664 -0.004612 -447215.000000 0 0 1
9.452777 0.406623 -26.959663 28.571730 0.042990 2.804071 0.033621 -0.014359 -627043.000000 0 0 1
10.472077 -0.284377 -27.581663 29.504125 -0.027149 2.778607 0.011508 0.013577 -551910.000000 0 0 1
11.349277 -0.936677 -26.692653 29.020358 -0.082345 2.738343 0.021264 0.001054 188868.000000 0 0 1
12.128377 -2.138477 -27.324883 29.971984 -0.174526 2.718153 0.006898 0.004455 293423.000000 0 0 1
11.298577 -3.285777 -27.521453 29.931330 -0.283008 2.737568 0.006109 0.000598 102863.000000 0 0 1
12.005277 -4.399777 -28.006263 30.786937 -0.351286 2.713309 0.028919 -0.013117 51878.800000 0 0 1
11.290077 -5.739877 -27.544973 30.317282 -0.470345 2.710613 0.013100 -0.011330 254624.000000 0 0 1
11.287477 -5.856777 -26.178403 29.103569 -0.478632 2.689400 0.026839 -0.009957 56505.500000 0 0 1
10.782277 -7.095577 -25.713163 28.771018 -0.582033 2.676361 0.024311 -0.014209 61361.600000 0 0 1
10.396477 -7.081077 -24.230413 27.300939 -0.597931 2.662753 0.022550 -0.013863 -701604.000000 0 0 1
11.541477 -6.986077 -23.440013 27.045243 -0.544309 2.619337 0.023880 -0.011826 -410997.000000 0 0 1
11.294177 -6.819177 -22.064213 25.707763 -0.543193 2.602686 0.020278 -0.016833 155184.000000 0 0 1
12.587177 -6.870177 -21.197613 25.592482 -0.499619 2.546818 0.034295 -0.016977 924962.000000 0 0 1
13.352477 -5.631777 -21.172813 25.657232 -0.399138 2.541385 0.026515 -0.018905 537193.000000 0 0 1
14.566577 -5.796577 -20.451113 25.768847 -0.378726 2.487560 0.036460 -0.017693 433198.000000 0 0 1
15.283177 -4.563677 -19.840213 25.456565 -0.290179 2.464464 0.045075 -0.020430 96148.600000 0 0 1
15.986277 -3.690677 -20.755713 26.457168 -0.226890 2.472690 0.034011 -0.021675 595549.000000 0 0 1
16.472277 -2.449277 -20.185413 26.168411 -0.147609 2.451781 0.036875 -0.010576 160040.000000 0 0 1
17.488277 -1.653977 -21.038013 27.407544 -0.094296 2.445883 0.011401 -0.015415 -443602.000000 0 0 1
18.728977 -2.251477 -21.062313 28.274808 -0.119639 2.411203 0.033701 -0.021982 -1457390.000000 0 0 1
19.668777 -1.644777 -21.838713 29.436295 -0.083430 2.406692 0.048553 -0.015885 684939.000000 0 0 1
21.027877 -2.459677 -22.035013 30.557543 -0.116443 2.376184 0.047415 -0.019884 -108600.000000 0 0 1
21.912977 -2.317177 -20.972413 30.420223 -0.105353 2.331489 0.026337 -0.015640 365955.000000 0 0 1
23.213277 -2.837977 -21.258713 31.604481 -0.121653 2.308579 0.024725 -0.013278 778921.000000 0 0 1
24.135077 -2.101477 -22.247213 32.891589 -0.086852 2.313633 0.039710 -0.017379 -1367650.000000 0 0 1
23.711877 -2.317277 -23.555213 33.503297 -0.097417 2.350504 0.051665 -0.022017 168213.000000 0 0 1
24.495577 -1.770077 -24.608113 34.766732 -0.072136 2.357184 0.051258 -0.018500 106087.000000 0 0 1
25.855177 -2.353877 -25.029513 36.062549 -0.090791 2.337907 0.054395 -0.025221 -70353.900000 0 0 1
26.835177 -2.384977 -23.982513 36.069042 -0.088642 2.298164 0.046718 -0.018212 1278730.000000 0 0 1
28.069577 -3.044577 -24.356413 37.288141 -0.108043 2.282592 0.034790 -0.010451 1086470.000000 0 0 1
29.111977 -2.209477 -25.153713 38.536973 -0.075751 2.281961 0.040468 -0.019474 -869649.000000 0 0 1
28.761277 -1.938677 -26.505523 39.160085 -0.067304 2.314272 0.059088 -0.024504 290290.000000 0 0 1
29.376277 -0.781277 -27.022883 39.922578 -0.026589 2.314315 0.062915 -0.033422 -292832.000000 0 0 1
28.668177 -0.447677 -28.415403 40.367065 -0.015615 2.351705 0.069490 -0.040350 -1077290.000000 0 0 1
27.344477 -0.159977 -28.298133 39.351370 -0.005850 2.373323 0.065435 -0.032369 -1443850.000000 0 0 1
27.033677 1.165923 -27.915183 38.877198 0.043102 2.371771 0.051644 -0.024804 -1272380.000000 0 0 1
25.569777 1.460523 -28.152753 38.059481 0.057057 2.403427 0.056536 -0.020925 -816732.000000 0 0 1
24.654877 0.962223 -27.195383 36.720263 0.039008 2.404774 0.058138 -0.019371 1052940.000000 0 0 1
23.292477 1.245623 -27.586413 36.126185 0.053427 2.439686 0.050283 -0.015973 596825.000000 0 0 1
22.288577 0.989723 -26.457563 34.608711 0.044376 2.441026 0.049250 -0.011666 -360607.000000 0 0 1
22.291177 1.785823 -25.323623 33.784192 0.079943 2.418209 0.050325 -0.010355 467484.000000 0 0 1
21.433377 1.245623 -24.301813 32.427139 0.058051 2.417994 0.032380 -0.001393 84912.400000 0 0 1
21.752377 1.856123 -22.942413 31.669629 0.085123 2.381003 0.031016 0.003276 -566143.000000 0 0 1
21.488077 3.250423 -22.858713 31.540822 0.150128 2.381445 0.036385 0.004123 386990.000000 0 0 1
21.819177 3.776623 -21.581513 30.920884 0.171389 2.343340 0.029346 0.001337 -511437.000000 0 0 1
21.164877 5.131723 -21.288213 30.454468 0.237874 2.344819 0.032958 0.008672 -249355.000000 0 0 1
21.705977 6.318723 -21.884213 31.464178 0.283277 2.339951 0.034066 0.010562 120081.000000 0 0 1
21.290977 7.515023 -21.237313 30.996850 0.339316 2.325598 0.040570 0.002690 -226486.000000 0 0 1
21.922277 7.826723 -19.868213 30.603753 0.342916 2.277340 0.036015 0.001076 -929846.000000 0 0 1
23.294877 8.009823 -19.752713 31.574962 0.331181 2.246673 0.032183 -0.000123 -456594.000000 0 0 1
23.727577 8.190423 -18.428113 31.139626 0.332380 2.204074 0.045269 -0.012031 -91981.600000 0 0 1
23.541577 9.574823 -17.760413 31.005086 0.386286 2.180742 0.051088 -0.026906 27581.600000 0 0 1
22.230677 9.918523 -17.331313 29.882344 0.419659 2.189507 0.052308 -0.027550 249449.000000 0 0 1
22.137677 11.302723 -17.050613 30.142191 0.472064 2.172045 0.045697 -0.023285 -510041.000000 0 0 1
20.730977 11.898023 -16.788013 29.209138 0.521026 2.183097 0.039399 -0.025436 347701.000000 0 0 1
19.921677 11.892723 -17.972613 29.348337 0.538192 2.229876 0.036348 -0.020855 632979.000000 0 0 1
19.191877 10.656723 -18.168813 28.495607 0.506882 2.262176 0.033278 -0.025524 -655936.000000 0 0 1
18.382677 10.531723 -19.422613 28.741571 0.520266 2.312801 0.051752 -0.014681 -767423.000000 0 0 1
19.116777 10.489423 -20.581313 29.984489 0.501846 2.327322 0.055748 -0.010071 -923612.000000 0 0 1
18.343077 10.313023 -21.697413 30.225894 0.512184 2.371494 0.051142 -0.010924 -663548.000000 0 0 1
19.063677 10.196023 -23.072313 31.618259 0.491130 2.388701 0.067581 -0.014016 -194985.000000 0 0 1
19.352177 11.519123 -23.465713 32.524400 0.536910 2.376734 0.067913 -0.009332 -48761.500000 0 0 1
20.174277 11.615223 -24.592813 33.863274 0.522393 2.383631 0.074273 -0.017618 -145035.000000 0 0 1
20.555777 13.084523 -24.829413 34.788568 0.566853 2.365596 0.086143 -0.021121 -151387.000000 0 0 1
21.117177 13.483523 -26.052533 36.145194 0.568255 2.375715 0.091419 -0.026976 24974.300000 0 0 1
20.911977 14.906323 -26.258033 36.728647 0.619273 2.367306 0.100215 -0.017987 -195031.000000 0 0 1
19.617477 15.422623 -26.884483 36.680760 0.666249 2.393417 0.090741 -0.017652 -92510.700000 0 0 1
18.446377 15.184223 -26.116483 35.396329 0.688701 2.400647 0.080507 -0.025438 525467.000000 0 0 1
17.313877 15.576023 -26.919573 35.595593 0.732609 2.428376 0.060143 -0.027202 802799.000000 0 0 1
15.927277 15.188623 -26.337713 34.322697 0.761664 2.445503 0.053134 -0.030091 7647.400000 0 0 1
15.769777 13.779423 -26.487583 33.766113 0.718142 2.472593 0.054462 -0.026861 -105137.000000 0 0 1
14.471677 13.337323 -26.171403 32.745319 0.744630 2.496828 0.024495 -0.027908 -422547.000000 0 0 1
14.298077 11.782823 -25.981693 31.911100 0.689255 2.522129 0.025105 -0.027529 -58523.400000 0 0 1
12.990177 11.326623 -25.682633 30.929512 0.717093 2.550550 0.030081 -0.022070 -20161.900000 0 0 1
12.826377 9.933623 -25.500143 30.223337 0.658978 2.574979 0.045407 -0.024854 -622676.000000 0 0 1
11.392677 9.466523 -25.326783 29.340315 0.693319 2.612385 0.045769 -0.038934 -195834.000000 0 0 1
10.695777 9.996223 -24.175813 28.262945 0.751603 2.597098 0.051089 -0.041248 -102310.000000 0 0 1
9.457477 9.402123 -23.922813 27.388771 0.782463 2.633047 0.057571 -0.041694 -428292.000000 0 0 1
8.749677 10.014623 -22.715313 26.321758 0.852709 2.611947 0.057488 -0.042155 -216729.000000 0 0 1
8.206277 11.288023 -23.023113 26.922596 0.942185 2.596655 0.056996 -0.040450 228614.000000 0 0 1
7.558877 11.980823 -21.935113 26.111797 1.007955 2.568165 0.055292 -0.029895 865583.000000 0 0 1
8.605277 12.713223 -21.016113 26.026022 0.975759 2.510704 0.042998 -0.028041 79064.400000 0 0 1
9.590677 11.905923 -20.470213 25.549202 0.892687 2.500107 0.058194 -0.031273 -884923.000000 0 0 1
10.456077 12.712823 -19.721913 25.688504 0.882496 2.446092 0.070092 -0.029064 -226413.000000 0 0 1
11.657677 11.920223 -19.141013 25.384474 0.796533 2.424994 0.078917 -0.032317 -161085.000000 0 0 1
12.673177 11.453823 -19.970313 26.279514 0.734902 2.433985 0.077604 -0.029555 -231435.000000 0 0 1
12.236977 10.403723 -20.837013 26.308975 0.704603 2.484893 0.076438 -0.037135 -189822.000000 0 0 1
13.388577 9.589223 -21.511613 27.091635 0.621532 2.488209 0.086291 -0.029389 389948.000000 0 0 1
14.177677 8.810123 -20.651113 26.553592 0.556012 2.461818 0.099848 -0.035774 31906.900000 0 0 1
15.018677 7.955423 -21.382313 27.313966 0.487126 2.470004 0.078163 -0.033434 -161007.000000 0 0 1
15.506977 6.712923 -20.654913 26.686234 0.408540 2.455917 0.103149 -0.031510 151417.000000 0 0 1
16.352577 6.986523 -19.552913 26.429807 0.403769 2.403577 0.075266 -0.017638 329575.000000 0 0 1
16.927277 5.830923 -18.931113 26.056082 0.331739 2.384088 0.054171 -0.024780 341544.000000 0 0 1
17.792777 6.169823 -17.668713 25.823111 0.333785 2.324331 0.075655 -0.019247 -174670.000000 0 0 1
19.069077 6.703623 -17.947813 27.031320 0.338050 2.296903 0.063850 -0.018423 -272207.000000 0 0 1
19.813977 7.099223 -16.882113 26.981445 0.344044 2.246816 0.048117 -0.024971 -501845.000000 0 0 1
20.566777 6.042423 -16.079913 26.796768 0.285755 2.214384 0.037080 -0.023502 205148.000000 0 0 1
21.777677 5.566323 -16.733013 28.022221 0.250240 2.210719 0.031401 -0.020322 1348940.000000 0 0 1
22.297877 4.416923 -16.070113 27.837979 0.195556 2.186181 0.050704 -0.027469 425602.000000 0 0 1
23.625677 3.890823 -16.703413 29.194436 0.163221 2.179914 0.016976 0.009812 679143.000000 0 0 1
24.220477 2.765223 -16.003013 29.161179 0.113677 2.151698 0.017737 0.001976 512025.000000 0 0 1
25.433177 2.296923 -16.569513 30.441273 0.090068 2.146364 0.019522 -0.003619 285192.000000 0 0 1
26.086277 1.153023 -15.761613 30.500029 0.044172 2.113874 0.035980 -0.017503 56578.700000 0 0 1
25.356677 -0.062677 -15.836513 29.895821 -0.002472 2.129071 0.040726 -0.015940 198158.000000 0 0 1
26.218177 -1.098177 -16.283713 30.882974 -0.041862 2.126183 0.039004 -0.008536 -377127.000000 0 0 1
25.616177 -2.532377 -16.545413 30.599872 -0.098538 2.142068 0.023318 -0.013166 -189226.000000 0 0 1
25.105977 -3.014977 -15.304813 29.557359 -0.119518 2.115074 0.032176 -0.009983 300213.000000 0 0 1
25.006677 -4.413777 -15.298013 29.645312 -0.174705 2.113012 0.029068 -0.008395 -1276780.000000 0 0 1
24.572777 -4.975277 -13.930913 28.681790 -0.199770 2.077967 0.028663 -0.008662 1049170.000000 0 0 1
23.182377 -4.796277 -13.609913 27.306713 -0.204015 2.092559 0.032759 -0.001674 1615410.000000 0 0 1
22.222777 -5.429977 -14.494013 27.081597 -0.239647 2.135538 0.036768 -0.007626 780997.000000 0 0 1
20.751277 -5.515477 -13.923613 25.591072 -0.259784 2.146090 0.045785 -0.008000 808927.000000 0 0 1
20.457177 -6.566877 -12.998213 25.111223 -0.310615 2.114870 0.048500 -0.004826 321980.000000 0 0 1
20.807477 -6.329177 -11.652813 24.673825 -0.295285 2.062665 0.064227 -0.004803 -509547.000000 0 1 0
20.651377 -7.540277 -10.755713 24.474895 -0.350083 2.025793 0.081494 -0.006744 -614496.000000 0 1 0
19.335977 -7.986777 -10.607613 23.456131 -0.391708 2.040063 0.092432 -0.015068 -20836.200000 0 1 0
18.953977 -8.927777 -11.547913 23.923059 -0.440199 2.074543 0.075659 -0.014496 -348045.000000 0 1 0
17.475577 -9.382977 -11.511413 22.933571 -0.492745 2.096644 0.093574 -0.024826 60168.300000 0 1 0
16.582377 -8.476777 -12.085313 22.201031 -0.472561 2.146420 0.082216 -0.013692 905111.000000 0 1 0
15.348277 -9.101777 -12.575413 21.830093 -0.535269 2.184695 0.073499 -0.008827 1988530.000000 0 1 0
14.177877 -8.051277 -12.744613 20.694454 -0.516464 2.234257 0.054928 -0.008432 361298.000000 0 1 0
14.320177 -7.089977 -13.765613 21.090930 -0.459723 2.281912 0.051919 -0.012425 69964.500000 0 1 0
15.384577 -6.178177 -13.643313 21.470796 -0.381870 2.259369 0.053449 -0.006575 -145724.000000 0 1 0
15.184377 -5.002577 -14.582513 21.638872 -0.318256 2.310276 0.034994 -0.011927 176919.000000 0 1 0
14.134977 -4.155877 -14.110413 20.400310 -0.285956 2.334604 0.041652 -0.018234 287723.000000 0 1 0
13.816177 -3.139477 -14.992213 20.627882 -0.223438 2.384438 0.033678 -0.027701 120983.000000 0 1 0
14.904377 -2.085177 -15.453413 21.570730 -0.139001 2.369434 0.038727 -0.019120 -63872.700000 0 1 0
15.876177 -2.656377 -16.359413 22.950811 -0.165783 2.364283 0.026828 -0.012535 727182.000000 0 1 0
17.073377 -1.868277 -16.375013 23.730396 -0.108993 2.332346 0.040344 -0.005153 749674.000000 0 1 0
18.077377 -2.305177 -15.243513 23.758579 -0.126833 2.267379 0.042554 -0.005218 -855954.000000 0 1 0
17.710277 -2.015777 -13.911113 22.610536 -0.113332 2.233498 0.038184 -0.002177 -132848.000000 0 1 0
18.764877 -2.360577 -13.051613 22.979067 -0.125140 2.174844 0.034221 -0.000992 -175246.000000 0 1 0
18.337877 -2.635677 -11.573913 21.844450 -0.142751 2.129200 0.039295 0.001229 -173744.000000 0 1 0
18.043377 -1.480677 -10.828513 21.095320 -0.081879 2.109838 0.030158 -0.000222 725548.000000 0 1 0
17.593877 -1.885977 -9.535913 20.100623 -0.106787 2.065089 0.035937 -0.001608 -1233940.000000 0 1 0
17.448077 -0.649877 -8.551413 19.441821 -0.037229 2.026224 0.020658 0.000622 -172824.000000 0 1 0
18.596477 -0.227077 -7.795513 20.165578 -0.012210 1.967712 0.013819 -0.001120 712623.000000 0 1 0
19.743877 0.114423 -8.516013 21.502471 0.005795 1.978005 0.021930 -0.003267 -861451.000000 0 1 0
19.661877 1.343023 -9.452113 21.857162 0.068200 2.018004 0.027225 0.002346 -946803.000000 0 1 0
19.299077 2.429623 -8.616413 21.274398 0.125234 1.987790 0.012535 -0.000999 675881.000000 0 1 0
18.887077 3.515523 -9.416313 21.395035 0.184028 2.026525 0.012017 -0.004450 -277864.000000 0 1 0
18.636277 4.828523 -8.588213 21.080390 0.253518 1.990405 0.012034 -0.008212 -329176.000000 0 1 0
18.030077 5.873323 -9.366913 21.149909 0.314911 2.029607 0.014504 -0.015648 503856.000000 0 1 0
18.523977 7.148123 -9.137113 21.856812 0.368279 2.002088 0.039322 -0.013982 -654365.000000 0 1 0
-26.683133 -29.621987 6.082987 40.329325 0.837546 1.419386 0.054581 -0.004121 250807.000000 0 0 1
-26.519093 -28.504657 6.957987 39.549859 0.821468 1.393946 0.020473 0.001148 232800.000000 0 0 1
-25.249583 -27.897567 6.724787 38.223533 0.835181 1.393943 0.047076 0.000017 75770.000000 0 0 1
-25.117383 -26.581937 7.564687 37.345774 0.813719 1.366827 0.032808 0.010199 106661.000000 0 0 1
-25.957173 -25.395277 7.321787 37.044615 0.774457 1.371839 0.033885 -0.006084 334824.000000 0 0 1
-27.303123 -25.534027 7.697087 38.166638 0.751929 1.367733 0.024201 -0.009143 -31566.400000 0 0 1
-27.662093 -25.515377 9.262287 38.755849 0.745051 1.329470 0.041999 -0.005930 -318593.000000 0 0 1
-26.911653 -26.477367 9.952187 39.042721 0.777264 1.313047 0.032717 -0.006297 43942.600000 0 0 1
-27.428523 -26.704347 11.291687 39.911756 0.772021 1.283963 0.034807 -0.007956 -436457.000000 0 0 1
-26.542583 -27.690647 12.061787 40.209046 0.806564 1.266128 0.029539 -0.003759 -260838.000000 0 0 1
-25.289223 -27.228817 12.447087 39.190347 0.822313 1.247593 0.028788 0.001366 -584875.000000 0 0 1
-25.329863 -26.255117 13.454587 38.883918 0.803333 1.217471 0.039541 0.008115 -827502.000000 0 0 1
-23.958923 -25.868697 14.030487 37.948308 0.823707 1.192082 0.045990 0.003676 -396785.000000 0 0 1
-23.266023 -26.847497 14.678187 38.438849 0.856744 1.178990 0.045527 0.004933 -610571.000000 0 0 1
-22.127323 -26.364657 15.339287 37.682984 0.872559 1.151562 0.043793 0.001656 -362474.000000 0 0 1
-21.354923 -27.499897 16.060887 38.343568 0.910521 1.138598 0.046887 -0.008581 -757266.000000 0 0 1
-21.950523 -28.196047 17.097987 39.612923 0.909306 1.124501 0.060912 -0.006341 -54850.500000 0 0 1
-21.208323 -29.344097 17.576787 40.246894 0.944967 1.118842 0.047749 0.005497 138578.000000 0 0 1
-22.041223 -30.310117 18.458387 41.775959 0.942054 1.113145 0.044739 -0.008839 -628619.000000 0 0 1
-23.168123 -30.853497 17.852187 42.513537 0.926715 1.137442 0.043381 -0.004990 -211467.000000 0 0 1
-23.668623 -31.914617 18.665687 43.899366 0.932678 1.131622 0.031881 -0.002138 -827893.000000 0 0 1
-24.693723 -32.669727 17.857287 44.676322 0.923556 1.159603 0.023248 -0.008397 -770361.000000 0 0 1
-24.273623 -33.500707 16.790787 44.647919 0.943770 1.185244 0.019935 -0.005264 -217996.000000 0 0 1
-25.305673 34.248514 16.447187 45.649182 -0.934448 1.202212 0.012195 -0.000293 -788322.000000 0 0 1
-24.962323 33.390944 15.237887 44.387678 -0.928847 1.220378 0.005077 -0.002816 167522.000000 0 0 1
-23.896123 32.460248 15.434087 43.161365 -0.936208 1.205110 0.000211 -0.009506 219950.000000 0 0 1
-22.691523 33.062350 15.008087 42.816666 -0.969307 1.212670 0.009340 -0.002162 -520269.000000 0 0 1
-21.571123 31.998788 14.819287 41.338203 -0.977649 1.204148 0.028376 -0.011403 39617.700000 0 0 1
-21.629023 31.376308 13.533087 40.440472 -0.967259 1.229571 0.026557 0.000567 77968.800000 0 0 1
-20.648923 30.371938 13.512687 39.133430 -0.973710 1.218240 0.040762 -0.002685 -63725.500000 0 0 1
-20.478523 29.842398 12.058387 38.148962 -0.969377 1.249194 0.041593 0.001063 44578.500000 0 0 1
-19.768223 30.629888 11.143787 38.120292 -0.997669 1.274132 0.037636 0.003228 -247460.000000 0 0 1
-20.022523 30.122908 9.871287 37.493110 -0.984161 1.304373 0.053446 -0.000064 -67723.500000 0 0 1
-19.361523 30.858908 8.695987 37.453451 -1.010458 1.336477 0.036465 0.000230 -180838.000000 0 0 1
-17.955223 30.745998 8.774287 36.670077 -1.042235 1.329176 0.037267 -0.008238 -448250.000000 0 0 1
-17.352823 31.336648 7.650787 36.628411 -1.065075 1.360371 0.047210 -0.010887 240198.000000 0 0 1
-16.707423 30.275068 6.668987 35.216376 -1.066531 1.380274 0.049680 -0.004405 -17674.200000 0 0 1
-17.639923 29.292828 6.234787 34.757866 -1.028766 1.390442 0.044443 0.007503 202623.000000 0 0 1
-17.613023 28.110098 7.097487 33.923009 -1.011067 1.360016 0.038877 0.004318 -74543.500000 0 0 1
-18.658923 27.102628 6.549187 33.549958 -0.967861 1.374328 0.037741 0.015138 170615.000000 0 0 1
-18.300923 26.473368 5.345287 32.624149 -0.965936 1.406210 0.044820 0.013183 -547989.000000 0 0 1
-19.395923 25.896308 4.731787 32.698783 -0.927946 1.425578 0.033385 0.017177 -1043820.000000 0 0 1
-19.230423 25.075888 3.397387 31.782882 -0.916574 1.463698 0.048756 0.005958 -964795.000000 0 0 1
-18.946523 25.780398 2.194087 32.068890 -0.937017 1.502325 0.057038 0.011025 1227990.000000 0 0 1
-17.664723 26.411348 1.972087 31.835372 -0.981297 1.508810 0.054584 0.010831 1076140.000000 0 0 1
-16.345123 25.573678 2.069287 30.421341 -1.002095 1.502723 0.057692 0.002087 -29614.200000 0 0 1
-16.247223 24.418338 1.251487 29.356323 -0.983692 1.528152 0.077461 -0.008388 43351.300000 0 0 1
-16.241623 24.694658 -0.120313 29.557248 -0.989029 1.574867 0.068670 -0.006757 -410365.000000 0 0 1
-15.918823 23.468428 -1.031013 28.376734 -0.974778 1.607137 0.076392 -0.017533 -676946.000000 0 0 1
-16.853123 22.455628 -1.162113 28.100418 -0.926970 1.612164 0.084952 -0.026640 -511288.000000 0 0 1
-16.584523 21.387828 -2.040613 27.141291 -0.911225 1.646052 0.091721 -0.029360 -34785.800000 0 0 1
-15.502023 20.408928 -1.525813 25.674212 -0.921198 1.630261 0.088319 -0.033052 152838.000000 0 0 1
-16.091223 19.698028 -0.484513 25.439625 -0.885838 1.589843 0.096170 -0.039960 129931.000000 0 0 1
-15.211923 18.813028 0.174187 24.194276 -0.890843 1.563597 0.114900 -0.051070 -253362.000000 0 1 0
-15.936123 17.800928 1.021287 23.913931 -0.840617 1.528077 0.090362 -0.036527 40938.700000 0 1 0
-16.581923 16.745628 0.307287 23.568425 -0.790310 1.557758 0.074490 -0.035080 472495.000000 0 1 0
-17.277223 15.903028 1.216087 23.513562 -0.744006 1.519055 0.084575 -0.047090 83633.700000 0 1 0
-17.892123 14.628128 0.554387 23.117473 -0.685365 1.546813 0.102897 -0.044041 -193937.000000 0 1 0
-18.741923 14.935628 -0.526013 23.971011 -0.672854 1.592742 0.096765 -0.041826 244503.000000 0 1 0
-19.311223 13.752628 -1.085413 23.732599 -0.618839 1.616547 0.075742 -0.034421 -1325930.000000 0 1 0
-20.488123 13.991728 -1.959013 24.887133 -0.599170 1.649594 0.073184 -0.022312 -2016660.000000 0 1 0
-21.237723 12.833928 -2.217613 24.913217 -0.543574 1.659928 0.064549 -0.024185 980566.000000 0 1 0
-22.368823 12.638428 -1.358213 25.728172 -0.514288 1.623612 0.084511 -0.022841 322406.000000 0 0 1
-23.564123 13.630228 -1.425413 27.259545 -0.524409 1.623111 0.081750 -0.018379 -738880.000000 0 0 1
-23.337623 14.724728 -0.563013 27.600349 -0.562862 1.591197 0.076661 -0.028658 502188.000000 0 0 1
-24.498523 15.429128 -0.129113 28.952587 -0.562042 1.575256 0.061509 -0.026989 -295791.000000 0 0 1
-24.133423 16.749128 0.629187 29.382840 -0.606703 1.549381 0.053029 -0.032998 55733.300000 0 0 1
-23.520023 16.498028 1.893187 28.791675 -0.611696 1.504994 0.057990 -0.036742 269719.000000 0 0 1
-23.155923 17.668828 2.632087 29.245720 -0.651793 1.480675 0.058948 -0.044549 57455.400000 0 0 1
-24.324023 18.529828 3.158887 30.740709 -0.651005 1.467856 0.061537 -0.044942 463369.000000 0 0 1
-25.323053 17.840628 3.968887 31.229747 -0.613754 1.443365 0.064581 -0.042496 1943400.000000 0 0 1
-26.576253 18.575828 4.061787 32.678077 -0.610030 1.446177 0.055780 -0.041177 1477380.000000 0 0 1
-27.608253 18.364528 2.926587 33.287181 -0.586974 1.482763 0.064199 -0.029846 -52466.500000 0 0 1
-28.805273 19.124328 2.958787 34.702134 -0.586097 1.485430 0.059769 -0.029043 421461.000000 0 0 1
-29.708893 18.612428 2.022287 35.115957 -0.559673 1.513176 0.057809 -0.019395 -545599.000000 0 0 1
-31.023043 19.319728 1.703887 36.586669 -0.556983 1.524208 0.059090 -0.026246 -508464.000000 0 0 1
-31.929263 19.336528 2.769187 37.430570 -0.544531 1.496747 0.071401 -0.022888 -348984.000000 0 0 1
-32.865673 20.337328 2.476287 38.728431 -0.554130 1.506813 0.062626 -0.020412 -327208.000000 0 0 1
-33.568093 20.902928 3.761587 39.722775 -0.556945 1.475958 0.051344 -0.021790 18518.500000 0 0 1
-32.679103 21.687928 4.572187 39.486642 -0.585921 1.454745 0.057467 -0.027620 567710.000000 0 0 1
-33.191693 22.380228 5.699387 40.435703 -0.593249 1.429376 0.046339 -0.033980 -72505.900000 0 0 1
-32.070193 23.376728 6.147487 40.159187 -0.629875 1.417114 0.063100 -0.036987 160232.000000 0 0 1
-31.943423 24.443228 5.233287 40.561570 -0.653161 1.441415 0.054616 -0.025807 1014520.000000 0 0 1
-30.745783 25.207948 5.455287 40.131085 -0.686748 1.434437 0.055330 -0.029795 558408.000000 0 0 1
-31.036353 26.724958 5.279887 41.295954 -0.710895 1.442591 0.050851 -0.021258 -97201.200000 0 0 1
-31.922343 27.252638 6.255787 42.436743 -0.706648 1.422843 0.048845 -0.017970 122309.000000 0 0 1
-32.248003 28.590518 6.020687 43.515516 -0.725353 1.431994 0.056200 -0.015573 -223855.000000 0 0 1
-33.450963 29.032878 6.852087 44.819929 -0.714808 1.417314 0.055435 -0.013025 -599839.000000 0 0 1
-33.027623 29.084998 8.188987 44.764054 -0.722008 1.386824 0.062370 -0.013641 131441.000000 0 0 1
-33.848713 29.716948 9.145287 45.961600 -0.720490 1.370483 0.074988 -0.018471 -680503.000000 0 0 1
-35.098684 28.979518 9.616487 46.521038 -0.690192 1.362582 0.072802 -0.012725 -532676.000000 0 0 1
-34.834867 27.828828 10.297187 45.759630 -0.674057 1.343825 0.081349 -0.028675 -648143.000000 0 0 1
-35.855817 27.452738 11.136587 46.511461 -0.653437 1.329010 0.074613 -0.024886 -503342.000000 0 0 1
-35.611633 25.982888 11.644787 45.594955 -0.630329 1.312539 0.080923 -0.020975 -246778.000000 0 0 1
-34.525312 25.972578 12.539387 44.986756 -0.644956 1.288320 0.088871 -0.028893 -101794.000000 0 0 1
-34.360588 24.733968 13.174787 44.339533 -0.623915 1.269107 0.088451 -0.025586 534547.000000 0 0 1
-32.992443 24.821948 13.938687 43.576570 -0.645005 1.245208 0.075375 -0.028252 496017.000000 0 0 1
-33.011883 25.821558 14.954887 44.499280 -0.663786 1.228055 0.065230 -0.016864 65805.800000 0 0 1
-31.778153 26.509498 15.074687 44.043736 -0.695253 1.221468 0.087385 -0.018024 229358.000000 0 0 1
-31.847503 27.554568 16.220487 45.128947 -0.713254 1.203144 0.064819 -0.000361 -220786.000000 0 0 1
-32.375703 28.820108 15.856087 46.154093 -0.727361 1.220105 0.080034 -0.013777 -12759.000000 0 0 1
-32.573303 29.678098 16.965187 47.218928 -0.738923 1.203292 0.068229 -0.015727 -156162.000000 0 0 1
-32.257773 31.100688 16.564687 47.772435 -0.767138 1.216701 0.058237 -0.001775 1236650.000000 0 0 1
-30.833563 31.145478 16.287387 46.754983 -0.790431 1.214979 0.040626 0.000788 799292.000000 0 0 1
-30.459273 32.390268 15.830587 47.196443 -0.816113 1.228746 0.036542 0.008680 -695592.000000 0 0 1
-28.933383 32.494318 15.680587 46.248267 -0.843303 1.224887 0.034084 0.001356 -219843.000000 0 0 1
-28.427403 31.936448 14.487787 45.143659 -0.843464 1.244089 0.025390 0.001734 143432.000000 0 0 1
-28.111073 30.535318 14.600487 43.997867 -0.826711 1.232537 0.033360 -0.004219 -308336.000000 0 0 1
-29.154883 29.582858 13.968187 43.820805 -0.792684 1.246379 0.058204 -0.007968 15450.700000 0 0 1
-29.182943 29.504248 12.555687 43.356546 -0.790873 1.276996 0.059846 -0.017427 -460299.000000 0 0 1
-30.219083 28.691958 12.107687 43.393750 -0.759481 1.288024 0.051772 -0.023828 -227699.000000 0 0 1
-30.342203 28.423908 10.569787 42.898581 -0.752767 1.321843 0.057223 -0.019818 561302.000000 0 0 1
-29.377253 27.481588 10.044487 41.462663 -0.752071 1.326108 0.036964 -0.009566 312340.000000 0 0 1
-29.437703 27.518728 8.649487 41.214953 -0.751719 1.359362 0.037129 -0.014679 162204.000000 0 0 1
-28.172433 26.886128 8.009587 39.758060 -0.762040 1.367950 0.050115 -0.011956 288027.000000 0 0 1
-28.012853 27.250218 6.628187 39.638708 -0.771599 1.402792 0.040993 -0.014538 220222.000000 0 0 1
-27.040303 26.392548 5.948687 38.250902 -0.773276 1.414645 0.040909 -0.010795 366768.000000 0 0 1
-26.792673 26.740718 4.427987 38.111946 -0.784428 1.454350 0.042935 -0.005520 78109.200000 0 0 1
-25.840183 27.778368 4.181787 38.168575 -0.821530 1.461015 0.028800 0.008534 529784.000000 0 0 1
-25.672763 28.205028 2.830387 38.244287 -0.832364 1.496720 0.021313 0.012433 -38506.000000 0 0 1
-24.623323 29.338928 2.693787 38.397099 -0.872564 1.500583 0.017143 0.017814 434527.000000 0 0 1
-23.289923 28.940288 2.977487 37.266959 -0.893161 1.490815 0.015907 0.021375 -121533.000000 0 0 1
-22.429523 30.043648 2.861087 37.601730 -0.929498 1.494633 0.011912 0.026364 -399256.000000 0 0 1
-21.040923 29.662128 3.377987 36.523596 -0.953821 1.478176 0.011160 0.020455 -493136.000000 0 0 1
-20.097323 30.632998 3.094187 36.767608 -0.990167 1.486541 0.023243 0.018265 -584038.000000 0 0 1
-18.756823 30.280158 3.390187 35.779879 -1.016203 1.475903 0.036566 0.006555 288096.000000 0 0 1
-17.728123 31.200178 2.741587 35.989634 -1.054083 1.494545 0.041742 0.003697 -519455.000000 0 0 1
-17.697123 32.472308 3.316587 37.130024 -1.071807 1.481354 0.039420 -0.001515 444067.000000 0 0 1
-16.664723 33.317795 2.766487 37.355614 -1.107009 1.496670 0.049586 -0.003111 523811.000000 0 0 1
-16.306623 -34.085776 3.590587 37.955743 1.124578 1.476055 0.049979 -0.010550 675386.000000 0 0 1
-17.342723 -33.073007 3.576087 37.515093 1.087838 1.475327 0.048367 -0.011692 579728.000000 0 0 1
-16.863623 -31.898597 4.211187 36.326800 1.084482 1.454610 0.048080 -0.009812 719351.000000 0 0 1
-17.940923 -30.745807 4.367987 35.864477 1.042579 1.448702 0.054749 -0.007096 677123.000000 0 0 1
-18.309223 -30.019367 3.196787 35.307358 1.023119 1.480130 0.064528 -0.018681 226966.000000 0 0 1
-19.268723 -29.003857 3.373887 34.984147 0.984399 1.474206 0.061450 -0.020066 -505994.000000 0 0 1
-19.542523 -28.036997 2.211287 34.247236 0.962069 1.506183 0.058611 -0.022047 -273272.000000 0 0 1
-18.681923 -26.929147 2.199987 32.848640 0.964282 1.503773 0.074735 -0.025216 -63432.400000 0 0 1
-19.143023 -25.832937 1.402487 32.183271 0.933060 1.527204 0.066887 -0.030632 -99849.500000 0 0 1
-18.131223 -24.671077 1.439987 30.650887 0.937018 1.523799 0.059893 -0.025467 702779.000000 0 0 1
-16.948923 -25.059667 0.737487 30.262135 0.976125 1.546424 0.076989 -0.024959 -381125.000000 0 0 1
-15.869623 -24.190577 0.858987 28.944202 0.990197 1.541115 0.064366 -0.017325 -234499.000000 0 0 1
-14.578223 -24.684677 0.191087 28.668700 1.037334 1.564131 0.057348 -0.014684 -271534.000000 0 0 1
-14.645823 -24.791777 -1.248313 28.821704 1.037204 1.614121 0.049611 -0.013524 24098.900000 0 0 1
-14.671923 -23.534477 -1.911113 27.799088 1.013332 1.639598 0.050229 -0.015351 -197112.000000 0 0 1
-14.873523 -23.633877 -3.448513 28.136703 1.009089 1.693668 0.042123 -0.010173 464539.000000 0 0 1
-13.657723 -23.958677 -4.113613 27.883210 1.052688 1.718867 0.048889 -0.007465 310276.000000 0 0 1
-13.920623 -23.933877 -5.483713 28.225615 1.043995 1.766321 0.057371 -0.012244 -234441.000000 0 0 1
-12.833623 -24.482077 -6.371313 28.366664 1.087973 1.797335 0.064808 -0.016456 -463798.000000 0 0 1
-12.890223 -25.877527 -6.340413 29.597383 1.108650 1.786692 0.030223 -0.012944 335625.000000 0 0 1
-11.773623 -26.478927 -7.018213 29.816222 1.152408 1.808408 0.050078 -0.011729 591027.000000 0 0 1
23.091877 12.502023 28.234283 38.557880 0.496219 0.749166 0.026064 0.010650 -311674.000000 0 0 1
23.849477 11.344723 28.492303 38.849860 0.444003 0.747493 0.012827 0.004635 112465.000000 0 0 1
23.282077 10.449323 29.421033 38.946638 0.421867 0.714503 0.018052 -0.002482 -350332.000000 0 0 1
23.394377 10.874823 30.895063 40.250013 0.435132 0.695741 0.032674 -0.010692 138152.000000 0 0 1
22.417877 11.804623 31.310413 40.277193 0.484678 0.680317 0.032436 -0.003218 204371.000000 0 0 1
22.814777 12.335323 32.573062 41.637467 0.495654 0.672444 0.047642 -0.009462 -445807.000000 0 0 1
21.773777 13.266723 33.144236 41.816787 0.547228 0.655725 0.037334 -0.001588 -1413040.000000 0 0 1
20.567177 12.657823 33.402212 41.218163 0.551694 0.626003 0.039659 0.002737 -1292910.000000 0 0 1
19.977577 13.369423 -34.083085 41.707334 0.589769 2.527326 0.036654 0.003166 -293617.000000 0 0 1
18.738277 12.750023 -33.393773 40.358768 0.597468 2.545300 0.028668 0.001194 828986.000000 0 0 1
17.508177 12.894223 -34.105852 40.447576 0.634785 2.574025 0.025712 0.007544 1298980.000000 0 0 1
16.350177 12.358323 -33.426303 39.209363 0.647236 2.591561 0.021455 0.001117 1294630.000000 0 0 1
15.126577 12.039323 34.162183 39.253196 0.672239 0.514979 0.013935 0.001723 436732.000000 0 0 1
15.380477 11.070723 33.167949 38.199906 0.623885 0.519086 0.016117 0.005490 -652156.000000 0 0 1
14.187477 10.725223 32.544986 37.087613 0.647307 0.500138 0.011316 0.008728 -521040.000000 0 0 1
14.335177 9.630223 31.498163 35.921759 0.591541 0.501516 0.022241 0.011472 -139116.000000 0 0 1
14.649577 8.330323 31.999093 36.165541 0.517041 0.484742 0.011601 0.002959 57566.800000 0 0 1
14.918777 7.441523 30.908683 35.118270 0.462689 0.494658 0.016573 -0.013169 12437.900000 0 0 1
15.357277 6.025423 31.439683 35.505005 0.373894 0.483227 0.050423 -0.017151 34183.100000 0 0 1
14.297277 5.140623 31.735293 35.184755 0.345159 0.446506 0.036248 -0.009628 -3851.740000 0 0 1
14.772877 3.891723 32.281423 35.713774 0.257585 0.442012 0.038994 -0.018477 96342.900000 0 0 1
13.624377 2.876423 32.506024 35.362962 0.208068 0.404724 0.023849 -0.010997 -63780.600000 0 0 1
14.036977 1.567523 32.797843 35.709836 0.111210 0.406642 0.037735 -0.025401 -285682.000000 0 0 1
12.937677 0.712423 33.029159 35.479803 0.055010 0.373849 0.032279 -0.028099 -484119.000000 0 0 1
13.354077 -0.660477 33.516618 36.085056 -0.049419 0.379574 0.013320 -0.026043 57034.900000 0 0 1
14.004277 -1.506377 32.544911 35.462095 -0.107154 0.408449 0.022282 -0.027669 229021.000000 0 0 1
14.270577 -2.835777 32.978984 36.045865 -0.196160 0.415493 0.053947 -0.038360 -224909.000000 0 0 1
14.674877 -3.779777 31.803363 35.229145 -0.252089 0.444660 0.064626 -0.038087 -1477950.000000 0 0 1
14.826277 -5.137477 32.135693 35.761920 -0.333564 0.454226 0.077890 -0.039335 1450110.000000 0 0 1
16.127777 -5.465477 32.717472 36.883731 -0.326740 0.479895 0.071705 -0.043054 1586190.000000 0 0 1
17.446177 -5.136277 31.973823 36.784179 -0.286318 0.517158 0.072017 -0.039385 -708549.000000 0 0 1
17.622177 -3.759377 31.934073 36.666866 -0.210181 0.513716 0.076135 -0.041345 447971.000000 0 0 1
18.874777 -3.273977 31.401333 36.783418 -0.171749 0.547782 0.095907 -0.050029 643088.000000 0 0 1
19.003377 -1.735377 31.290103 36.649835 -0.091067 0.547635 0.092829 -0.045948 -293762.000000 0 0 1
18.995977 -0.926477 32.434907 37.599584 -0.048734 0.530330 0.090917 -0.042559 -53173.300000 0 0 1
18.875677 0.462923 32.052693 37.200546 0.024520 0.532346 0.084519 -0.036933 -504322.000000 0 0 1
20.018077 1.341323 31.526603 37.369095 0.066906 0.566742 0.101923 -0.038069 -598686.000000 0 0 1
20.309377 1.233723 30.121643 36.349776 0.060672 0.594085 0.100938 -0.037157 81664.000000 0 0 1
21.357677 2.027823 29.583993 36.544152 0.094662 0.627426 0.091939 -0.027766 139629.000000 0 0 1
21.135477 3.527223 29.472083 36.438350 0.165362 0.628653 0.081275 -0.020762 -485601.000000 0 0 1
20.896077 4.026223 30.780303 37.420363 0.190346 0.604907 0.075406 -0.028822 168688.000000 0 0 1
20.169877 5.215923 30.673273 37.079367 0.253056 0.596632 0.067188 -0.026787 -319566.000000 0 0 1
19.751377 5.809423 32.005273 38.055273 0.286061 0.571629 0.067816 -0.022051 276837.000000 0 0 1
18.739277 5.030223 32.675330 38.001853 0.262250 0.535850 0.062130 -0.014830 701656.000000 0 0 1
18.447277 5.670123 33.899496 39.008053 0.298204 0.517541 0.051584 -0.012544 179449.000000 0 0 1
17.226677 5.063423 -33.824243 38.294596 0.285878 2.653575 0.051567 -0.013588 143158.000000 0 0 1
17.383577 3.700223 -33.589203 38.001512 0.209727 2.654914 0.048353 -0.018718 127220.000000 0 0 1
16.236677 3.158523 -32.961153 36.878768 0.192131 2.676479 0.041971 -0.025618 -92703.100000 0 0 1
16.092377 1.607723 -33.224783 36.951801 0.099575 2.688593 0.034116 -0.025952 -317217.000000 0 0 1
17.115577 0.803623 -32.674083 36.894234 0.046918 2.658613 0.039745 -0.016760 94098.400000 0 0 1
17.024777 -0.566577 -33.046063 37.178035 -0.033267 2.665647 0.047411 -0.022389 -151408.000000 0 0 1
18.079177 -1.444877 -32.302433 37.045802 -0.079750 2.629987 0.051502 -0.020967 -101386.000000 0 0 1
18.020377 -1.631677 -30.858453 35.772063 -0.090300 2.611265 0.054670 -0.016244 178425.000000 0 0 1
18.268377 -0.483977 -30.101623 35.214706 -0.026486 2.595967 0.043393 -0.010671 -436651.000000 0 0 1
17.920077 -0.749677 -28.606423 33.764162 -0.041810 2.581568 0.041105 -0.011133 611307.000000 0 0 1
16.548977 -1.111777 -28.364943 32.858403 -0.067080 2.612465 0.051202 -0.013129 823501.000000 0 0 1
16.130077 -1.098677 -27.035063 31.500494 -0.068009 2.602632 0.043320 -0.011628 -88722.300000 0 0 1
16.748277 -2.185377 -26.088923 31.079134 -0.129751 2.567040 0.057987 -0.012543 -403483.000000 0 0 1
18.054777 -1.840577 -25.675643 31.442031 -0.101593 2.526297 0.066601 -0.014242 -401978.000000 0 0 1
18.880877 -2.920277 -25.416993 31.796840 -0.153453 2.497019 0.058288 -0.016071 588.112000 0 0 1
19.668277 -3.493477 -26.624933 33.285621 -0.175787 2.497913 0.081753 -0.026859 -512005.000000 0 0 1
20.758677 -2.676477 -26.945183 34.119336 -0.128226 2.481171 0.098912 -0.021275 -621020.000000 0 0 1
21.111277 -2.846277 -28.301393 35.422537 -0.134014 2.496370 0.102048 -0.028745 736647.000000 0 0 1
22.511577 -2.194277 -28.619633 36.478341 -0.097166 2.472791 0.080549 -0.035029 950671.000000 0 0 1
23.598377 -2.982477 -28.153223 36.856241 -0.125718 2.440078 0.066907 -0.035197 382529.000000 0 0 1
24.812077 -2.375577 -28.616133 37.949514 -0.095452 2.425015 0.038413 -0.033588 783572.000000 0 0 1
26.132177 -3.160577 -28.388673 38.714295 -0.120361 2.393940 0.036913 -0.024650 167503.000000 0 0 1
26.201777 -4.392377 -29.116373 39.415597 -0.166092 2.401939 0.046615 -0.032775 -311893.000000 0 0 1
27.497377 -4.901577 -29.076023 40.318064 -0.176403 2.376281 0.042701 -0.024446 -546121.000000 0 0 1
27.636577 -6.188077 -28.248813 40.000851 -0.220276 2.354920 0.041773 -0.013883 -35585.900000 0 0 1
27.532877 -5.940077 -26.847283 38.911700 -0.212488 2.332222 0.037460 0.001042 167046.000000 0 0 1
27.592377 -7.182277 -26.177583 38.706462 -0.254648 2.313539 0.022736 0.002146 -10958.100000 0 0 1
27.566377 -6.952077 -24.619813 37.608133 -0.247043 2.284503 0.022231 -0.000999 709890.000000 0 0 1
28.814477 -6.425777 -24.139713 38.135160 -0.219415 2.256224 0.007904 0.002887 673956.000000 0 0 1
28.767677 -6.252477 -22.746413 37.203118 -0.214015 2.228639 0.016687 0.000019 613685.000000 0 0 1
30.151277 -5.765077 -22.187413 37.876337 -0.188925 2.196645 0.013968 0.000795 387386.000000 0 0 1
30.454177 -4.427277 -22.464413 38.101280 -0.144364 2.201357 0.016385 -0.007800 -132746.000000 0 0 1
31.732277 -4.064377 -21.997313 38.824455 -0.127390 2.173151 0.024868 -0.008371 -4767.860000 0 0 1
32.221477 -2.720077 -22.623613 39.464544 -0.084218 2.181281 0.031208 -0.018785 237002.000000 0 0 1
31.538477 -1.533377 -22.212013 38.605703 -0.048581 2.183835 0.015993 -0.021996 356568.000000 0 0 1
32.108877 -0.453077 -22.932413 39.459863 -0.014110 2.190947 0.022981 -0.019615 276353.000000 0 0 1
31.232377 0.812023 -22.705613 38.622087 0.025994 2.199247 0.023454 -0.015933 476211.000000 0 0 1
30.114977 0.793223 -23.598113 38.267636 0.026334 2.235289 0.028713 -0.014053 159313.000000 0 0 1
29.046377 1.530023 -23.071213 37.125649 0.052627 2.241371 0.027145 -0.008215 -329449.000000 0 0 1
27.826277 1.530823 -24.015213 36.788253 0.054958 2.282065 0.021562 -0.008336 349966.000000 0 0 1
26.857177 2.546123 -23.720713 35.923014 0.094520 2.292042 0.021318 -0.000393 1044310.000000 0 0 1
25.765577 2.651023 -24.670113 35.770202 0.102529 2.331848 0.039947 -0.005703 653311.000000 0 0 1
24.732777 3.644923 -24.136813 34.750273 0.146319 2.338631 0.033980 -0.001091 -702730.000000 0 0 1
25.262377 4.947423 -24.084413 35.252285 0.193394 2.322934 0.031766 0.005169 27300.900000 0 0 1
24.319177 5.917823 -23.685213 34.459140 0.238700 2.328619 0.031076 0.004383 -176856.000000 0 0 1
24.936977 7.168923 -22.971713 34.654666 0.279933 2.295448 0.046074 0.006731 -70704.300000 0 0 1
25.665877 7.998323 -23.825813 35.921856 0.302094 2.295973 0.041881 0.002594 -111434.000000 0 0 1
25.771777 9.333923 -23.311313 35.982272 0.347481 2.275562 0.054823 0.002833 -222297.000000 0 0 1
26.730077 10.266623 -24.074413 37.409597 0.366712 2.269905 0.078770 -0.001875 -204408.000000 0 0 1
26.430177 10.559223 -25.446163 38.177986 0.380087 2.300319 0.083629 -0.010937 601692.000000 0 0 1
25.166477 11.186823 -25.682993 37.657837 0.418281 2.321303 0.090345 -0.017965 642110.000000 0 0 1
24.651377 11.350023 -27.134763 38.377191 0.431487 2.356120 0.077716 -0.019116 -49509.800000 0 0 1
24.427577 10.159523 -27.917833 38.462031 0.394141 2.383072 0.069488 -0.017504 1316370.000000 0 0 1
25.600777 9.372223 -28.339933 39.324167 0.350938 2.375571 0.060574 -0.019764 1471170.000000 0 0 1
26.420377 9.998923 -29.534653 40.869432 0.361796 2.378437 0.056058 -0.018165 -908279.000000 0 0 1
27.336777 11.024123 -29.186813 41.481330 0.383323 2.351266 0.045758 -0.013664 340176.000000 0 0 1
28.063777 11.586223 -30.236893 42.849572 0.391537 2.354139 0.043821 -0.013078 -63361.600000 0 0 1
29.013277 10.647623 -30.990393 43.766957 0.351731 2.357568 0.039793 -0.023048 -1261170.000000 0 0 1
28.354877 9.715623 -31.820803 43.714481 0.330106 2.386085 0.034146 -0.022727 316312.000000 0 0 1
29.211077 8.577123 -32.111363 44.249222 0.285599 2.382838 0.031717 -0.019498 437312.000000 0 0 1
28.503777 7.480923 -32.984353 44.231177 0.256665 2.412421 0.037984 -0.014696 -599135.000000 0 0 1
27.570477 6.794423 -32.263533 42.979425 0.241624 2.419878 0.052779 -0.016257 -505078.000000 0 0 1
26.881077 5.845623 -33.098353 43.037943 0.214129 2.448151 0.056015 -0.017287 -555964.000000 0 0 1
25.630477 5.193423 -32.552083 41.755611 0.199920 2.464801 0.049223 -0.018236 -609563.000000 0 0 1
24.436277 5.903623 -32.732253 41.272082 0.237050 2.486653 0.075821 -0.022455 -342597.000000 0 0 1
23.920777 6.406123 -31.568883 40.122766 0.261666 2.476415 0.072098 -0.018537 -169955.000000 0 0 1
22.498477 7.018423 -31.672243 39.478737 0.302385 2.501869 0.067508 -0.023018 197131.000000 0 0 1
22.249477 8.125323 -32.463503 40.186305 0.350144 2.511249 0.066898 -0.017417 -245077.000000 0 0 1
20.898977 8.102423 -32.877603 39.791372 0.369854 2.543213 0.059438 -0.017647 -141363.000000 0 0 1
20.517277 9.227223 -33.838053 40.633904 0.422629 2.554860 0.046338 -0.010024 31922.700000 0 0 1
19.302077 8.948023 33.971675 40.083812 0.434088 0.559509 0.061098 -0.010240 312083.000000 0 0 1
19.162577 9.888123 32.923291 39.356352 0.476375 0.579853 0.042987 -0.006994 -26085.100000 0 0 1
18.193577 9.532223 31.783353 37.842450 0.482611 0.573723 0.033522 -0.008182 -415518.000000 0 0 1
18.547677 8.510123 30.851603 36.989998 0.430168 0.584383 0.039706 -0.020059 99656.100000 0 0 1
19.620177 8.788823 29.967953 36.881879 0.421146 0.622302 0.037131 -0.020166 -320875.000000 0 0 1
19.362677 9.847223 28.866483 36.126928 0.470478 0.645117 0.047735 -0.021281 -75355.000000 0 0 1
18.470777 9.526723 27.793543 34.704598 0.476186 0.642065 0.043914 -0.010055 412624.000000 0 0 1
17.149377 9.924223 28.120913 34.400248 0.524605 0.613805 0.050238 -0.019925 78372.600000 0 0 1
16.024277 9.217023 27.314473 32.981986 0.521978 0.594973 0.057486 -0.017229 -255849.000000 0 0 1
16.054177 9.535623 25.906813 31.934741 0.535970 0.624523 0.059489 -0.017198 6834.050000 0 0 1
14.848577 9.173323 25.274513 30.715324 0.553399 0.604365 0.068453 -0.014978 138007.000000 0 0 1
14.727577 7.628923 24.937943 29.950008 0.477946 0.586916 0.054483 -0.010046 -35585.100000 0 0 1
14.775877 6.780423 26.070553 30.724167 0.430218 0.557584 0.043714 -0.007588 257602.000000 0 0 1
14.270677 5.481423 25.633973 29.846253 0.366728 0.537742 0.046762 -0.010057 119120.000000 0 0 1
14.408777 4.521623 26.825143 30.783863 0.304078 0.512742 0.052424 -0.011566 72178.400000 0 0 1
15.745877 4.272423 27.198573 31.716693 0.264957 0.540313 0.042405 -0.011103 110773.000000 0 0 1
15.669077 3.864023 28.592243 32.832408 0.241778 0.513859 0.038108 -0.012268 275380.000000 0 0 1
16.794577 2.840123 28.926323 33.568680 0.167525 0.532175 0.067762 -0.026761 131864.000000 0 0 1
16.499777 1.438223 28.970723 33.370854 0.086946 0.519345 0.066365 -0.024717 18023.600000 0 0 1
15.750977 0.942023 30.067313 33.956207 0.059736 0.483285 0.051789 -0.019797 -75429.300000 0 0 1
15.432577 -0.604477 30.110953 33.840794 -0.039149 0.473927 0.057727 -0.030084 -172534.000000 0 0 1
14.465577 -1.059477 29.170373 32.577386 -0.073111 0.461427 0.045015 -0.015394 443995.000000 0 0 1
14.890777 -1.103477 27.778373 31.537136 -0.073970 0.493216 0.050706 -0.012417 -805547.000000 0 0 1
15.926877 -2.206877 27.439983 31.803905 -0.137686 0.530040 0.056317 -0.015463 1042530.000000 0 0 1
17.295477 -2.115977 27.873753 32.871827 -0.121738 0.558685 0.072712 -0.027826 871719.000000 0 0 1
17.988177 -1.032877 27.319963 32.726468 -0.057357 0.583032 0.070668 -0.027266 -1670070.000000 0 0 1
19.460377 -1.085477 27.670353 33.845723 -0.055721 0.613664 0.102428 -0.023699 -564242.000000 0 0 1
20.351477 -1.818577 26.861833 33.749784 -0.089122 0.650285 0.076905 -0.021117 -25814.100000 0 0 1
21.686177 -1.511877 27.232423 34.845099 -0.069604 0.673685 0.066907 -0.022317 1013450.000000 0 0 1
22.743277 -2.092477 26.167733 34.733059 -0.091746 0.717586 0.064788 -0.012437 698947.000000 0 0 1
22.768977 -1.332377 24.986513 33.830864 -0.058451 0.739847 0.067875 0.003080 132144.000000 0 0 1
22.452877 -2.161377 23.867373 32.839835 -0.095967 0.757172 0.073519 0.003287 -12841.100000 0 0 1
22.200077 -1.246477 22.584623 31.693254 -0.056089 0.777599 0.074981 -0.008967 -379004.000000 0 0 1
21.153177 -0.326877 22.686223 31.019808 -0.015452 0.750502 0.058849 -0.007119 -183425.000000 0 0 1
20.950177 0.467723 21.510423 30.030434 0.022322 0.772329 0.052324 -0.002373 -292508.000000 0 0 1
-29.912083 -27.536182 -10.155413 41.905924 0.744064 1.815572 -0.012407 0.017167 70567.900000 0 0 1
-29.872503 -26.397582 -9.316213 40.938864 0.723722 1.800372 -0.011049 0.017627 405470.000000 0 0 1
-30.642423 -26.658282 -8.086213 41.412666 0.715979 1.767318 0.007872 0.006533 -17280.900000 0 0 1
-30.810213 -25.344682 -7.237613 40.546334 0.688374 1.750260 0.035393 -0.006161 146352.000000 0 0 1
-29.687873 -24.614582 -6.770913 39.154728 0.692242 1.744597 0.029107 -0.005479 139003.000000 0 0 1
-28.866103 -25.212982 -5.707313 38.749449 0.717949 1.718622 0.015130 -0.003244 1490520.000000 0 0 1
-27.582213 -24.373682 -5.348513 37.194912 0.723722 1.715093 -0.001029 -0.004325 67193.300000 0 0 1
-27.843943 -23.220182 -4.528113 36.537184 0.695096 1.695047 0.017770 -0.011041 -197587.000000 0 0 1
-28.549743 -22.204282 -5.167713 36.535233 0.661020 1.712717 0.031509 -0.013537 -245946.000000 0 0 1
-28.627483 -20.999382 -4.235213 35.755333 0.632883 1.689525 0.033520 -0.014039 -206079.000000 0 0 1
-27.567943 -20.091982 -4.466513 34.403909 0.629806 1.700990 0.039355 -0.017039 118521.000000 0 0 1
-27.509093 -19.060582 -3.480713 33.647754 0.605933 1.674427 0.046859 -0.005533 -295291.000000 0 0 1
-26.467923 -17.952382 -3.656413 32.190190 0.595992 1.684630 0.044851 0.000638 -224473.000000 0 0 1
-26.730083 -17.121082 -4.781013 32.101198 0.569680 1.720288 0.042198 -0.012117 -11904.700000 0 0 1
-25.780093 -16.089382 -4.916313 30.783950 0.557953 1.731187 0.043764 -0.017219 -123083.000000 0 0 1
-26.211963 -14.980782 -5.921713 30.766175 0.519219 1.764480 0.036461 -0.032708 -256959.000000 0 0 1
-27.405413 -14.363482 -5.516613 31.429275 0.482750 1.747235 0.038623 -0.022192 -212620.000000 0 0 1
-27.756403 -13.317282 -6.388113 31.441627 0.447350 1.775395 0.066088 -0.038755 -464699.000000 0 0 1
-29.163633 -12.786982 -6.119813 32.426479 0.413213 1.760664 0.064453 -0.028061 -289909.000000 0 0 1
-30.203823 -13.483482 -6.800713 33.768697 0.419870 1.773574 0.067965 -0.024641 151789.000000 0 0 1
-31.417683 -12.786782 -6.600713 34.556360 0.386520 1.762990 0.060386 -0.028457 -783267.000000 0 0 1
-32.543363 -13.584682 -7.218913 35.996205 0.395444 1.772712 0.042227 -0.022770 -924196.000000 0 0 1
-32.883653 -14.789782 -6.515813 36.640526 0.422655 1.749578 0.044172 -0.024231 305608.000000 0 0 1
-33.280343 -15.785282 -7.484613 37.586910 0.442887 1.771265 0.055177 -0.026816 -635931.000000 0 0 1
-33.958893 -16.997982 -6.815913 38.582308 0.464084 1.748387 0.050339 -0.026599 566619.000000 0 0 1
-35.326775 -16.917582 -6.418413 39.691078 0.446616 1.733219 0.043042 -0.026436 460378.000000 0 0 1
-35.647933 -15.978382 -5.403713 39.437088 0.421379 1.708250 0.040781 -0.025955 -42172.900000 0 0 1
35.151223 -15.892782 -5.008613 38.900838 -0.424621 1.699908 0.053683 -0.030891 571611.000000 0 0 1
34.350383 -15.217782 -5.973713 38.042278 -0.417031 1.728477 0.053768 -0.039448 1687570.000000 0 0 1
32.905823 -15.325482 -5.981313 36.789125 -0.435864 1.734105 0.070319 -0.043909 1758680.000000 0 0 1
32.090543 -14.517182 -4.902413 35.561006 -0.424833 1.709096 0.089449 -0.045495 -308724.000000 0 0 1
32.082243 -15.202282 -3.676413 35.691676 -0.442512 1.673984 0.086877 -0.040834 478932.000000 0 0 1
31.672163 -14.358082 -2.626813 34.873781 -0.425623 1.646191 0.092150 -0.047860 -1163230.000000 0 0 1
31.900993 -15.043782 -1.262813 35.292824 -0.440652 1.606585 0.101409 -0.048315 -88633.400000 0 0 1
33.238383 -15.161982 -0.825313 36.542536 -0.427964 1.593383 0.108895 -0.047705 583408.000000 0 0 1
34.205573 -15.958682 -1.543813 37.776767 -0.436533 1.611674 0.085669 -0.049285 -196852.000000 0 0 1
33.802273 -17.396482 -2.037313 38.070748 -0.475302 1.624336 0.088858 -0.047566 -830812.000000 0 0 1
33.902343 -18.288882 -0.993313 38.533605 -0.494713 1.596577 0.096299 -0.047286 218209.000000 0 0 1
33.565383 -19.676882 -1.219413 38.926875 -0.530230 1.602127 0.077558 -0.044848 -211115.000000 0 0 1
34.671553 -20.452282 -1.973413 40.302690 -0.532950 1.619781 0.070446 -0.047890 68551.900000 0 0 1
34.738443 -20.051482 -3.299913 40.245631 -0.523496 1.652883 0.047047 -0.042752 173149.000000 0 0 1
35.765073 -20.576782 -4.142213 41.469294 -0.522084 1.670849 0.055012 -0.034402 186072.000000 0 0 1
35.940863 -19.890082 -5.481613 41.441635 -0.505459 1.703458 0.067507 -0.036349 -647182.000000 0 0 1
34.796063 -20.099782 -6.224413 40.663381 -0.523820 1.724472 0.058188 -0.040318 -391264.000000 0 0 1
34.687643 -19.139882 -7.221313 40.270523 -0.504207 1.751092 0.061138 -0.035689 208105.000000 0 0 1
33.522133 -19.327382 -8.239013 39.562134 -0.523003 1.780587 0.061739 -0.040590 109153.000000 0 0 1
33.806283 -20.303482 -9.252613 40.505642 -0.540848 1.801259 0.070784 -0.037532 233963.000000 0 0 1
32.713123 -20.471882 -10.125713 39.897073 -0.559175 1.827399 0.073942 -0.043847 -280571.000000 0 0 1
32.786953 -21.786182 -10.871413 40.838825 -0.586485 1.840248 0.072789 -0.036260 -68397.800000 0 0 1
32.468123 -22.891582 -10.067813 40.982489 -0.614106 1.818998 0.060889 -0.037657 80977.600000 0 0 1
32.112403 -24.036682 -10.822013 41.546173 -0.642551 1.834317 0.053113 -0.027977 -377928.000000 0 0 1
31.375643 -25.089282 -9.942413 41.385440 -0.674523 1.813409 0.047796 -0.019430 200481.000000 0 0 1
30.052823 -24.667082 -9.682213 40.067223 -0.687290 1.814861 0.049709 -0.025254 -108993.000000 0 0 1
29.252313 -25.628582 -8.986913 39.915995 -0.719465 1.797889 0.028425 -0.010415 740163.000000 0 0 1
27.827823 -25.087882 -8.675313 38.458427 -0.733665 1.798331 0.034137 -0.017600 379673.000000 0 0 1
27.096833 -24.734482 -9.827613 37.981771 -0.739852 1.832520 0.033705 -0.011980 -359495.000000 0 0 1
25.819533 -24.248682 -9.500813 36.673046 -0.754034 1.832853 0.046331 -0.024724 3046.980000 0 0 1
25.043133 -23.872182 -10.827413 36.252896 -0.761464 1.874088 0.072938 -0.031642 -16404.300000 0 0 1
24.486133 -25.041382 -11.421213 36.838643 -0.796609 1.886025 0.058404 -0.020930 -151447.000000 0 0 1
23.653533 -24.645582 -12.457913 36.360610 -0.805935 1.920502 0.060582 -0.007563 -357435.000000 0 0 1
22.999733 -25.894982 -13.143113 37.044287 -0.844543 1.933491 0.061444 -0.010437 255725.000000 0 0 1
23.914633 -26.844682 -13.741413 38.488609 -0.843059 1.935878 0.055597 -0.002483 645328.000000 0 0 1
23.395633 -28.159782 -13.568413 39.043960 -0.877545 1.925717 0.062861 0.001542 72888.300000 0 0 1
24.118033 -29.292582 -14.382713 40.578286 -0.881979 1.933115 0.055579 -0.003917 6278.540000 0 0 1
23.896333 -29.193682 -15.770313 40.890201 -0.884850 1.966735 0.058607 -0.003564 381480.000000 0 0 1
24.200033 -30.443182 -16.386913 42.201420 -0.899158 1.969585 0.059519 0.000892 -181884.000000 0 0 1
24.135933 -30.371282 -17.924813 42.734728 -0.899298 2.003629 0.059270 -0.004920 -638313.000000 0 0 1
22.882833 -30.142982 -18.480713 42.116032 -0.921469 2.025064 0.058270 -0.004155 -645514.000000 0 0 1
22.837033 -30.346982 -19.868413 42.862842 -0.925678 2.052776 0.053101 -0.002620 -46956.700000 0 0 1
21.480733 -29.985282 -20.514713 42.206545 -0.949164 2.078367 0.038822 0.003725 -19674.200000 0 0 1
21.294033 -30.179482 -21.880213 42.929951 -0.956335 2.105600 0.028531 0.001466 -223919.000000 0 0 1
19.927033 -30.043582 -22.211913 42.344687 -0.985148 2.122983 0.025594 -0.008339 -269102.000000 0 0 1
19.670533 -30.225482 -23.700213 43.153328 -0.993864 2.152214 0.030456 -0.007017 -594939.000000 0 0 1
20.283833 -29.208782 -24.386613 43.119528 -0.963810 2.171907 0.041230 -0.009961 111781.000000 0 0 1
20.197333 -29.436482 -25.783743 44.036804 -0.969438 2.196298 0.034325 -0.008315 -344759.000000 0 0 1
20.712133 -28.313482 -26.696743 44.083578 -0.939222 2.221308 0.040202 -0.017037 154740.000000 0 0 1
19.853033 -27.182082 -26.784033 43.016194 -0.939976 2.242921 0.052689 -0.027698 -364095.000000 0 0 1
18.774833 -27.419282 -27.643533 43.225875 -0.970392 2.264662 0.062260 -0.028388 -416913.000000 0 0 1
17.924233 -26.137882 -27.889903 42.217457 -0.969694 2.292447 0.062140 -0.025238 -60238.000000 0 0 1
17.234633 -25.654682 -26.756093 40.878892 -0.979253 2.284345 0.039416 -0.015295 -336875.000000 0 0 1
16.631533 -24.448982 -27.073393 40.091511 -0.973446 2.312154 0.036521 -0.011391 -293370.000000 0 0 1
15.557433 -23.975882 -26.068863 38.684134 -0.995210 2.310258 0.040937 -0.017213 -64609.200000 0 0 1
14.360533 -24.728482 -26.182173 38.771496 -1.044668 2.312160 0.064016 -0.017639 -372522.000000 0 0 1
13.276833 -24.325682 -25.383013 37.580719 -1.071187 2.312339 0.053398 -0.014537 148838.000000 0 0 1
13.332733 -24.686482 -23.883813 36.845905 -1.075599 2.276025 0.052619 -0.013458 213426.000000 0 0 1
14.337233 -23.905782 -23.185613 36.257624 -1.030569 2.264603 0.034379 -0.014735 270516.000000 0 0 1
14.612833 -24.437182 -21.907413 35.925555 -1.031867 2.226605 0.035262 -0.018346 -16124.800000 0 0 1
15.892233 -23.766782 -21.397313 35.710895 -0.981405 2.213275 0.030412 -0.023479 -106129.000000 0 0 1
15.661433 -22.432882 -20.961313 34.465799 -0.961316 2.224559 0.023011 -0.028964 539009.000000 0 0 1
16.842233 -21.892782 -20.346313 34.306372 -0.915054 2.205671 0.033269 -0.022827 24813.200000 0 0 1
16.658033 -20.352082 -20.073913 33.085636 -0.884881 2.222732 0.041639 -0.013798 351873.000000 0 0 1
15.771533 -20.079482 -19.001613 31.827475 -0.904987 2.210577 0.041605 -0.010440 247954.000000 0 0 1
14.386233 -20.105582 -19.311713 31.371012 -0.949721 2.233932 0.037508 -0.011337 -186970.000000 0 0 1
13.621833 -20.143482 -17.951613 30.225397 -0.976195 2.206725 0.048852 -0.012531 -354411.000000 0 0 1
13.862033 -18.951082 -17.167413 29.086415 -0.939264 2.202129 0.051528 -0.008897 307433.000000 0 0 1
13.395233 -19.048182 -15.826013 28.155429 -0.957907 2.167712 0.054327 -0.014444 -205337.000000 0 0 1
13.502133 -17.727082 -15.076413 26.904558 -0.919870 2.165625 0.057710 -0.017736 -352021.000000 0 0 1
12.448233 -16.803582 -15.313013 25.919245 -0.933204 2.202843 0.049627 -0.024852 260326.000000 0 0 1
12.575833 -15.607882 -14.565313 24.777125 -0.892568 2.199199 0.046122 -0.019221 -420261.000000 0 1 0
11.226033 -14.936582 -14.312113 23.536395 -0.926285 2.224442 0.044140 -0.017068 -757731.000000 0 1 0
10.677433 -14.204682 -15.349113 23.481393 -0.926218 2.283222 0.044971 -0.014997 232376.000000 0 1 0
9.488533 -13.590582 -14.850313 22.254617 -0.961300 2.301362 0.052335 -0.024557 337031.000000 0 1 0
8.520533 -13.021182 -15.911313 22.255798 -0.991363 2.367319 0.036873 -0.020175 -154950.000000 0 1 0
8.927933 -11.839282 -16.608713 22.264904 -0.924680 2.412770 0.033882 -0.008686 944494.000000 0 1 0
10.147033 -11.963682 -17.398313 23.426337 -0.867376 2.407863 0.047369 -0.009298 973317.000000 0 1 0
10.345333 -10.830982 -18.416213 23.738007 -0.808328 2.458796 0.049494 -0.007214 -144186.000000 0 1 0
9.486633 -10.970982 -19.526213 24.323479 -0.857829 2.502726 0.036030 -0.006083 145426.000000 0 1 0
9.422233 -9.820582 -20.347713 24.479619 -0.806096 2.552078 0.026009 -0.012817 -20602.100000 0 1 0
8.960333 -10.023082 -21.793513 25.606775 -0.841323 2.588843 0.024261 -0.009438 11992.600000 0 0 1
9.997333 -10.635982 -22.521913 26.838542 -0.816341 2.566539 0.021857 -0.006003 -271975.000000 0 0 1
9.634533 -10.902082 -23.849513 27.937052 -0.847041 2.593822 0.021430 -0.002554 338220.000000 0 0 1
10.732733 -11.701382 -24.623313 29.298830 -0.828549 2.568853 0.041095 -0.002128 193215.000000 0 0 1
10.825933 -13.067982 -24.352413 29.681863 -0.878958 2.532990 0.035409 -0.008751 -646514.000000 0 0 1
11.926433 -13.654482 -24.960713 30.849990 -0.852848 2.513415 0.043029 -0.020699 -382387.000000 0 0 1
12.091833 -15.154582 -24.584713 31.309454 -0.897338 2.473843 0.036296 -0.021134 132524.000000 0 0 1
10.989033 -15.841282 -25.161633 31.698783 -0.964314 2.487784 0.038052 -0.020510 50234.600000 0 0 1
10.842933 -17.090282 -24.577413 31.838596 -1.005430 2.452680 0.038346 -0.023416 -171985.000000 0 0 1
9.574633 -17.759482 -25.081323 32.189215 -1.076338 2.464159 0.045728 -0.024602 -166458.000000 0 0 1
9.819533 -18.413282 -26.315463 33.585351 -1.080876 2.471139 0.042862 -0.025105 15743.300000 0 0 1
8.599733 -18.959882 -26.764973 33.908647 -1.144973 2.480507 0.050663 -0.025037 67851.600000 0 0 1
8.818233 -19.894682 -27.959263 35.429931 -1.153573 2.480208 0.049402 -0.027361 152221.000000 0 0 1
9.486633 -21.158982 -27.678103 36.107840 -1.149315 2.444232 0.042054 -0.024084 311367.000000 0 0 1
9.602233 -21.939482 -28.906573 37.538430 -1.158244 2.449720 0.046762 -0.024899 33189.600000 0 0 1
10.568433 -23.137782 -28.767013 38.400388 -1.142334 2.417549 0.038754 -0.010883 134067.000000 0 0 1
10.395033 -24.036982 -29.868343 39.723433 -1.162624 2.421747 0.042710 -0.008293 167809.000000 0 0 1
11.136733 -25.250382 -29.683243 40.530279 -1.155408 2.392595 0.054091 -0.008280 41453.100000 0 0 1
10.618033 -26.278682 -28.635893 40.290522 -1.186799 2.361339 0.046811 -0.003554 133229.000000 0 0 1
10.836733 -25.837082 -27.333433 39.142128 -1.173657 2.343833 0.052030 -0.004624 -603283.000000 0 0 1
10.203933 -26.591382 -26.314033 38.776928 -1.204393 2.316652 0.049800 -0.002237 369230.000000 0 0 1
9.203933 -25.671282 -25.552453 37.371847 -1.226542 2.323666 0.040375 -0.004188 363177.000000 0 0 1
9.881133 -24.596682 -24.900513 36.368518 -1.188803 2.324950 0.043271 -0.005772 171918.000000 0 0 1
9.005733 -23.471682 -24.801413 35.314773 -1.204433 2.349414 0.039104 -0.003044 288650.000000 0 0 1
9.761133 -22.095582 -24.658613 34.518715 -1.154809 2.366498 0.050314 -0.014265 358285.000000 0 0 1
10.490233 -21.922482 -23.443813 33.767626 -1.124484 2.338200 0.051990 -0.017651 101642.000000 0 0 1
11.155533 -20.689182 -23.475713 33.220435 -1.076285 2.355570 0.041305 -0.021908 -363154.000000 0 0 1
12.046733 -20.423482 -22.238913 32.508640 -1.037876 2.324155 0.040119 -0.022892 -182433.000000 0 0 1
11.421533 -19.980482 -21.035213 31.179340 -1.051495 2.311290 0.044832 -0.018630 -237096.000000 0 0 1
11.015133 -18.624082 -20.982413 30.140525 -1.036691 2.340821 0.043352 -0.017459 19127.400000 0 0 1
12.093433 -17.509382 -20.837413 29.783005 -0.966351 2.345691 0.036575 -0.017188 970040.000000 0 0 1
13.034733 -17.318082 -21.945713 30.845333 -0.925591 2.362393 0.035656 -0.013467 -244960.000000 0 0 1
14.344833 -17.268482 -21.524813 31.101323 -0.877617 2.335172 0.038306 -0.015208 -1151060.000000 0 0 1
15.382333 -17.129482 -22.627913 32.280920 -0.839085 2.347551 0.023461 -0.003337 -749721.000000 0 0 1
16.641633 -17.574482 -22.239613 32.869541 -0.812655 2.313935 0.034280 -0.006622 -929793.000000 0 0 1
17.626633 -17.277282 -23.167313 33.851544 -0.775390 2.324549 0.036492 -0.005309 -712609.000000 0 0 1
19.009833 -17.623882 -22.615413 34.401045 -0.747584 2.288166 0.032620 -0.007903 -565291.000000 0 0 1
19.244833 -19.018182 -22.452113 35.158956 -0.779475 2.263459 0.034429 -0.014620 90019.400000 0 0 1
20.558133 -19.233382 -21.968413 35.709536 -0.752118 2.233433 0.026382 -0.017882 226244.000000 0 0 1
20.819333 -20.740182 -21.706813 36.534716 -0.783494 2.206995 0.037012 -0.022869 -380601.000000 0 0 1
20.093733 -21.202982 -20.595713 35.742243 -0.812252 2.184903 0.026147 -0.022347 -115005.000000 0 0 1
20.545933 -22.419782 -20.118913 36.463031 -0.828983 2.155272 0.033610 -0.016452 -886931.000000 0 0 1
-15.680023 12.631923 28.613563 34.988064 -0.678150 0.613202 0.048767 -0.028026 -831427.000000 0 0 1
-16.869623 13.195923 28.133573 35.358373 -0.663811 0.650685 0.069418 -0.035383 -256608.000000 0 0 1
-16.743123 13.550923 26.790743 34.375916 -0.680412 0.677174 0.062127 -0.034483 -237731.000000 0 0 1
-18.048023 14.152823 26.256783 34.863336 -0.665017 0.717982 0.078723 -0.039136 -124746.000000 0 0 1
-18.310523 15.429223 26.774313 35.919354 -0.700207 0.729661 0.081087 -0.039478 -98813.300000 0 0 1
-19.331923 16.162223 26.138843 36.306746 -0.696332 0.767074 0.096985 -0.038878 -528428.000000 0 0 1
-19.367423 17.667723 26.608453 37.353116 -0.739536 0.777957 0.110318 -0.028941 437422.000000 0 0 1
-18.419923 18.593223 26.062453 36.935795 -0.790080 0.787506 0.048983 -0.022139 2225400.000000 0 0 1
-17.017023 18.322123 26.425303 36.380983 -0.822312 0.757801 0.029107 -0.004637 1453140.000000 0 0 1
-15.943623 19.229923 25.833743 35.935656 -0.878559 0.768594 0.034797 -0.006706 -82981.600000 0 0 1
-16.194223 20.600723 26.227853 37.074829 -0.904589 0.784941 0.042732 -0.012858 194738.000000 0 0 1
-15.179023 21.369123 25.631603 36.660895 -0.953174 0.796583 0.042045 -0.019493 36251.500000 0 0 1
-15.517223 22.912823 25.670033 37.745626 -0.975517 0.822925 0.040732 -0.022295 55573.500000 0 0 1
-15.108623 23.617823 26.836733 38.810853 -1.001687 0.807268 0.036814 -0.014886 -12691.000000 0 0 1
-15.430223 24.982023 26.677873 39.672436 -1.017498 0.833277 0.035958 -0.017841 -529883.000000 0 0 1
-14.967723 25.889623 27.752293 40.798224 -1.046608 0.822716 0.017516 -0.006592 -798474.000000 0 0 1
-13.591223 26.058423 27.637473 40.343434 -1.090044 0.816117 0.016196 -0.012914 -1113400.000000 0 0 1
-13.132223 26.892423 28.667093 41.442248 -1.116533 0.806906 0.029267 -0.005573 -488631.000000 0 0 1
-11.613023 26.972323 28.636333 41.017168 -1.164231 0.797979 0.046244 -0.012464 -496350.000000 0 0 1
-10.988923 27.681223 27.601383 40.605947 -1.192895 0.823392 0.050263 -0.018619 -665401.000000 0 0 1
-9.618123 27.865323 27.731063 40.472168 -1.238436 0.815934 0.037626 -0.012779 -640927.000000 0 0 1
-8.990623 28.619223 26.508943 40.032678 -1.266412 0.847069 0.047003 -0.030076 -402955.000000 0 0 1
-7.603523 28.476423 26.584083 39.691734 -1.309872 0.836906 0.031629 -0.019119 -38462.400000 0 0 1
-6.838123 28.874723 25.438813 39.085071 -1.338260 0.862083 0.050775 -0.028190 306522.000000 0 0 1
-5.371623 28.417323 25.484833 38.547053 -1.383974 0.848465 0.014204 -0.020911 302473.000000 0 0 1
-4.508423 29.058723 26.455873 39.555638 -1.416875 0.838167 0.017860 -0.018509 269717.000000 0 0 1
-3.122723 28.923723 26.336393 39.242053 -1.463249 0.835069 0.000431 -0.012247 -60999.900000 0 0 1
-2.429623 29.892723 25.347053 39.267685 -1.489697 0.869126 -0.003444 -0.005653 -748810.000000 0 0 1
-2.689123 29.562923 23.992133 38.168315 -1.480083 0.891060 -0.005275 0.000707 -14284.600000 0 0 1
-2.563223 30.661623 23.086023 38.466475 -1.487393 0.927096 -0.006319 0.002385 -410428.000000 0 0 1
-2.964023 30.425123 21.664823 37.467828 -1.473683 0.954245 0.004620 0.005629 574995.000000 0 0 1
-4.353123 30.166623 21.474223 37.284274 -1.427483 0.957019 0.010087 0.004118 357815.000000 0 0 1
-4.779323 28.813123 21.636323 36.347881 -1.406420 0.933211 0.014673 -0.001850 -39685.200000 0 0 1
-6.272423 28.561923 21.303123 36.179411 -1.354620 0.941199 0.029549 -0.010076 -59020.600000 0 0 1
-6.459323 28.759723 19.878923 35.553004 -1.349866 0.977454 0.027456 -0.007050 301215.000000 0 0 1
-7.415023 27.876223 19.301523 34.707567 -1.310818 0.981088 0.032076 -0.015825 -476808.000000 0 0 1
-6.850323 26.460323 18.891423 33.225916 -1.317468 0.966024 0.021978 -0.008275 769767.000000 0 0 1
-5.793823 26.447523 17.901723 32.457843 -1.355135 0.986590 0.021092 -0.006290 1190910.000000 0 0 1
-4.498323 26.752023 18.444223 32.803887 -1.404206 0.973683 0.015190 0.001554 -400140.000000 0 0 1
-3.485923 26.910423 17.334423 32.199453 -1.441976 1.002324 0.021121 -0.000521 -591502.000000 0 0 1
-3.151523 25.724523 16.685523 30.823528 -1.448893 0.998785 0.028146 -0.005387 -184238.000000 0 0 1
-2.864323 25.990523 15.349823 30.320434 -1.461033 1.039962 0.030417 -0.015519 -79283.200000 0 0 1
-2.149323 24.814823 14.630723 28.886902 -1.484397 1.039695 0.022641 -0.016640 1025230.000000 0 0 1
-0.823523 24.554523 15.140523 28.858937 -1.537270 1.018505 0.022705 -0.017420 838551.000000 0 0 1
-0.415323 23.264323 14.649123 27.495418 -1.552946 1.008909 0.027692 -0.030095 -152631.000000 0 0 1
0.900277 22.820923 15.340623 27.512538 1.531367 0.979321 0.018142 -0.024190 -253394.000000 0 0 1
1.957277 23.656223 15.004123 28.081516 1.488246 1.007110 0.021214 -0.030241 -358396.000000 0 0 1
3.140477 23.246323 15.670423 28.210216 1.436514 0.981847 0.019679 -0.023483 150122.000000 0 0 1
4.353077 24.189123 15.528723 29.072396 1.392742 1.007306 0.026495 -0.022229 -231587.000000 0 0 1
5.569177 23.587823 15.847223 28.957479 1.338939 0.991711 0.025792 -0.015678 -248557.000000 0 0 1
6.613977 24.554323 15.852223 29.965855 1.307680 1.013363 0.030523 -0.011183 280581.000000 0 0 1
8.061877 24.009923 16.046323 29.982574 1.246852 1.006066 0.037576 -0.005056 397520.000000 0 0 1
8.659077 23.358523 14.930723 29.043531 1.215798 1.030861 0.033938 -0.000436 -234250.000000 0 0 1
9.427577 24.308323 14.259023 29.716889 1.200822 1.070337 0.030930 -0.003303 -840836.000000 0 0 1
10.042777 23.763323 12.947923 28.865232 1.170946 1.105638 0.035666 -0.000591 239853.000000 0 0 1
11.107277 22.834723 13.138323 28.590413 1.118071 1.093324 0.040012 0.001140 138422.000000 0 0 1
11.507877 22.184023 11.905423 27.682146 1.092265 1.126220 0.044263 -0.000050 185414.000000 0 0 1
12.742477 21.292123 12.115623 27.613648 1.031510 1.116584 0.038139 0.004822 -57350.800000 0 0 1
12.392977 20.091423 12.725423 26.817672 1.018094 1.076382 0.042192 0.006344 -154912.000000 0 0 1
13.447077 19.157423 12.828723 26.690951 0.958779 1.069413 0.043118 0.003302 58304.500000 0 0 1
14.000477 18.931723 14.285723 27.540976 0.934033 1.025457 0.049106 0.005067 -368108.000000 0 0 1
14.989077 17.954123 14.365623 27.448025 0.875161 1.019989 0.051768 0.002377 -141466.000000 0 0 1
15.576777 17.912423 15.680023 28.449148 0.855029 0.987043 0.050049 -0.003615 -287814.000000 0 0 1
16.821677 17.035623 15.655123 28.605317 0.791717 0.991685 0.043130 -0.012626 -608132.000000 0 0 1
17.341577 16.940323 16.972323 29.593320 0.773694 0.960002 0.053989 -0.028695 641279.000000 0 0 1
18.522477 16.119923 17.009923 29.870915 0.716156 0.964963 0.050177 -0.023739 768379.000000 0 0 1
19.121577 15.730023 18.399323 30.848070 0.688389 0.931726 0.054859 -0.027118 116662.000000 0 0 1
19.646577 16.834723 19.137023 32.181074 0.708474 0.933945 0.069470 -0.024172 20770.000000 0 0 1
18.693077 17.410823 19.962423 32.420151 0.749897 0.907470 0.060597 -0.023204 -190447.000000 0 0 1
19.271977 18.563023 20.807423 33.896073 0.766662 0.909856 0.060083 -0.025152 500735.000000 0 0 1
18.159277 19.201723 21.429123 34.024591 0.813293 0.889484 0.070750 -0.022696 595503.000000 0 0 1
18.689777 20.396323 21.924323 35.298636 0.829032 0.900639 0.067209 -0.017161 -205309.000000 0 0 1
17.713277 21.432223 22.436123 35.727860 0.880117 0.891851 0.077708 -0.014297 -454965.000000 0 0 1
16.987177 20.984423 23.563033 35.834714 0.890281 0.853237 0.078967 -0.016373 76289.000000 0 0 1
16.314977 22.089623 24.188073 36.594983 0.934643 0.848690 0.066833 -0.018280 597.444000 0 0 1
15.769477 21.676623 25.551723 37.032998 0.941859 0.809346 0.075412 -0.018861 -117743.000000 0 0 1
14.658077 20.819723 25.383733 35.953498 0.957359 0.786940 0.077535 -0.019109 -517817.000000 0 0 1
14.024177 20.706123 26.617123 36.522491 0.975471 0.754247 0.075145 -0.019743 -153343.000000 0 0 1
13.016477 19.526223 26.589863 35.464389 0.982829 0.723093 0.102473 -0.014745 -17477.200000 0 0 1
13.548077 18.201323 26.630323 34.985892 0.930924 0.705676 0.085321 -0.024365 -170293.000000 0 0 1
14.099977 17.697423 25.423973 34.035078 0.898056 0.727268 0.098525 -0.025923 -193442.000000 0 0 1
13.122777 17.404823 24.233483 32.594430 0.924757 0.732529 0.109319 -0.024356 -135102.000000 0 0 1
12.567677 18.472523 23.527563 32.445752 0.973384 0.759565 0.094410 -0.021253 -209804.000000 0 0 1
13.418977 19.177323 22.648223 32.569628 0.960251 0.801850 0.084127 -0.017841 43330.900000 0 0 1
14.108477 18.372923 21.525623 31.622237 0.915940 0.822063 0.093465 -0.019608 -287456.000000 0 0 1
13.205077 17.916823 20.579223 30.313215 0.935654 0.824552 0.065312 -0.009682 -459057.000000 0 0 1
13.811077 16.894123 19.783423 29.454050 0.885471 0.834335 0.058720 -0.011452 2239.410000 0 0 1
12.907577 16.129423 18.800123 27.932212 0.895903 0.832455 0.064624 -0.007178 -222908.000000 0 0 1
12.381877 16.912323 17.715523 27.444076 0.938836 0.869101 0.063687 0.001144 6024.190000 0 0 1
11.532777 16.081523 16.966223 26.066704 0.948656 0.862057 0.058287 -0.008266 59434.000000 0 0 1
11.057477 16.798223 15.633923 25.472881 0.988641 0.909997 0.050672 -0.001074 100045.000000 0 0 1
10.359777 18.001323 15.644523 26.002379 1.048586 0.925222 0.043031 0.001263 -55605.700000 0 0 1
9.996577 18.426123 14.328923 25.392353 1.073713 0.971210 0.040765 -0.001712 -29586.000000 0 0 1
8.998077 19.609723 14.323423 25.897241 1.140601 0.984731 0.036584 -0.002531 -777976.000000 0 0 1
7.754777 19.345523 14.837423 25.583881 1.189552 0.952127 0.039803 -0.013310 -953333.000000 0 0 1
6.928877 20.507223 14.756323 26.197416 1.244964 0.972453 0.034372 -0.013490 714203.000000 0 0 1
5.564077 20.457823 15.504723 26.265527 1.305242 0.939357 0.035290 -0.013940 816069.000000 0 0 1
4.633277 19.518523 14.918623 25.000106 1.337732 0.931361 0.041540 -0.024494 1010510.000000 0 0 1
3.464877 19.360223 15.765023 25.206340 1.393702 0.895103 0.030906 -0.019655 2142730.000000 0 0 1
2.198077 18.669323 15.073823 24.095545 1.453599 0.894915 0.023101 -0.024547 1194920.000000 0 1 0
1.490277 19.499923 14.156923 24.143040 1.494520 0.944217 0.025221 -0.030908 283857.000000 0 1 0
0.410977 18.816223 13.542523 23.186614 1.548958 0.947067 0.023480 -0.032090 120742.000000 0 1 0
-0.502523 19.575323 12.581023 23.275050 -1.545131 0.999721 0.029678 -0.040681 106816.000000 0 1 0
-1.363123 20.527123 13.208423 24.447563 -1.504488 1.000032 0.030495 -0.029599 516873.000000 0 1 0
-2.485023 20.759823 12.357023 24.286655 -1.451660 1.037007 0.027752 -0.029663 870862.000000 0 1 0
-3.688523 21.636823 12.838123 25.427834 -1.401945 1.041548 0.030672 -0.021905 386054.000000 0 0 1
-4.465823 20.936323 13.782523 25.460384 -1.360641 0.998776 0.034718 -0.021929 -578369.000000 0 0 1
-5.494523 21.815623 14.135323 26.569128 -1.324066 1.009811 0.030569 -0.008850 -603815.000000 0 0 1
-6.353523 21.279223 15.269023 26.950244 -1.280644 0.968467 0.030652 -0.011482 -629131.000000 0 0 1
-7.249723 20.209623 14.995623 26.188854 -1.226369 0.961128 0.028963 -0.004086 272168.000000 0 0 1
-8.082723 19.800223 16.036823 26.731235 -1.183229 0.927385 0.017400 0.013880 400920.000000 0 0 1
-9.262823 20.708923 16.536923 28.073639 -1.150201 0.940907 0.008963 0.021885 713617.000000 0 0 1
-10.431523 20.823223 15.728123 28.103330 -1.106384 0.976829 0.007114 0.010910 260135.000000 0 0 1
-11.458823 19.957123 16.142223 28.109834 -1.049584 0.959102 -0.003452 0.018828 581988.000000 0 0 1
-12.756323 20.138223 15.238023 28.292564 -1.006152 1.002036 0.000927 0.003927 433125.000000 0 0 1
-13.464023 21.319623 15.362323 29.526382 -1.007514 1.023604 -0.004214 0.001493 -811477.000000 0 0 1
-14.233423 21.460223 14.268123 29.439953 -0.985165 1.064831 -0.000675 -0.006505 -1731400.000000 0 0 1
-15.311323 22.518823 14.363723 30.787182 -0.973665 1.085411 0.009090 -0.005903 -358884.000000 0 0 1
-16.304323 21.995723 15.264423 31.347175 -0.932919 1.062205 0.005344 -0.019889 -719803.000000 0 0 1
-17.407323 22.812323 15.220523 32.482015 -0.918985 1.083110 0.023313 -0.025595 -1041350.000000 0 0 1
-18.624923 22.359123 16.006523 33.211849 -0.876261 1.067915 0.038017 -0.026672 -680851.000000 0 0 1
-19.465323 21.394723 15.384323 32.761416 -0.832583 1.081974 0.031698 -0.021081 424029.000000 0 0 1
-20.609723 20.983723 16.125823 33.542801 -0.794390 1.069282 0.047435 -0.021270 210017.000000 0 0 1
-21.777623 21.958523 16.043523 34.840153 -0.789534 1.092250 0.055049 -0.028054 -1151150.000000 0 0 1
-22.324923 22.128023 14.745923 34.720222 -0.780969 1.132158 0.062739 -0.032413 164872.000000 0 0 1
-23.162823 23.272723 14.734423 35.989432 -0.787765 1.148989 0.090864 -0.041282 47915.400000 0 0 1
-22.603623 24.459623 13.871823 36.078032 -0.824814 1.176136 0.056906 -0.027641 741873.000000 0 0 1
-21.511823 25.168723 14.510823 36.149511 -0.863577 1.157739 0.024006 -0.021794 583799.000000 0 0 1
-21.196123 26.237723 13.696323 36.404437 -0.891288 1.185076 0.024992 -0.012000 46901.200000 0 0 1
-19.762023 26.785323 13.963823 36.096807 -0.935154 1.173590 0.014290 -0.010791 62441.500000 0 0 1
-18.745323 25.971023 13.489923 34.754269 -0.945603 1.172171 0.017521 -0.008125 -94054.200000 0 0 1
-17.456523 26.573123 13.583823 34.574287 -0.989569 1.167026 0.021776 -0.012941 496004.000000 0 0 1
-16.384323 25.836623 12.739323 33.140119 -1.005643 1.176230 0.019034 -0.012356 953755.000000 0 0 1
-15.106323 26.505823 12.774423 33.074848 -1.052785 1.174258 0.019617 -0.006225 1090200.000000 0 0 1
-14.072423 25.820223 12.086523 31.793098 -1.071788 1.180825 0.016709 0.005649 476766.000000 0 0 1
-12.708323 26.538623 12.001223 31.777812 -1.124202 1.183528 0.012291 0.004700 -108466.000000 0 0 1
-11.580623 25.695223 11.668223 30.504143 -1.147367 1.178282 0.009550 0.003367 734254.000000 0 0 1
-10.339623 26.308323 11.908023 30.673061 -1.196324 1.172093 0.027524 -0.004023 -32658.600000 0 0 1
-9.984423 27.635223 11.146123 31.426586 -1.224096 1.208233 0.023714 -0.009975 -1169450.000000 0 0 1
-8.731823 28.151123 11.519423 31.645340 -1.270029 1.198220 0.040785 -0.016325 19597.700000 0 0 1
-8.362923 29.347223 10.855423 32.388859 -1.293190 1.229022 0.039087 -0.017629 -843261.000000 0 0 1
-7.079823 29.919423 11.410823 32.794857 -1.338441 1.215418 0.028060 -0.016351 -142254.000000 0 0 1
-5.923123 29.119023 11.122823 31.728821 -1.370123 1.212628 0.039042 -0.018899 444735.000000 0 0 1
-4.808823 29.648023 11.855823 32.290720 -1.410000 1.194844 0.052902 -0.029579 535859.000000 0 0 1
-3.474223 29.102523 11.271623 31.401856 -1.451980 1.203656 0.051095 -0.031677 -22348.700000 0 0 1
-3.173523 29.652823 9.994323 31.452308 -1.464180 1.247429 0.051883 -0.032323 1138.080000 0 0 1
-1.941223 29.202423 9.477123 30.763058 -1.504419 1.257634 0.037567 -0.028476 158653.000000 0 0 1
-1.405523 29.965823 8.256223 31.114165 -1.523926 1.302227 0.026286 -0.028406 433448.000000 0 0 1
-2.202023 29.730923 7.077923 30.641046 -1.496866 1.337696 0.048910 -0.028839 472050.000000 0 0 1
-1.846123 30.641423 6.077223 31.292773 -1.510620 1.375349 0.044908 -0.021516 -26789.000000 0 0 1
11.863277 34.306123 -26.620773 45.014586 1.237862 2.203567 0.063697 -0.011082 49191.700000 0 0 1
12.000477 -33.825582 -25.311203 43.918543 -1.229874 2.185017 0.061467 -0.011634 8429.070000 0 0 1
13.292277 -33.280982 -25.202533 43.811826 -1.190811 2.183700 0.064502 -0.007774 -254671.000000 0 0 1
13.837877 -33.222382 -23.778613 43.135090 -1.176128 2.154669 0.058172 -0.002236 -908334.000000 0 0 1
13.237477 -32.271482 -22.907013 41.730212 -1.181535 2.151881 0.062681 -0.008733 52859.300000 0 0 1
13.768277 -32.000082 -21.618713 40.999262 -1.164481 2.126210 0.043162 -0.007625 -443434.000000 0 0 1
15.266677 -31.652882 -21.510813 41.203051 -1.121396 2.120071 0.026382 -0.006452 -371389.000000 0 0 1
16.025677 -32.810982 -21.746413 42.500463 -1.116452 2.107929 0.027044 0.002817 -171044.000000 0 0 1
17.416477 -32.574082 -21.620813 42.800281 -1.079797 2.100359 0.012682 0.000232 184894.000000 0 0 1
18.309477 -33.853882 -21.622413 44.145793 -1.075014 2.082652 0.004885 0.009709 821992.000000 0 0 1
19.721277 -33.582182 -21.653513 44.559694 -1.039801 2.078239 0.013298 0.012617 1261030.000000 0 0 1
20.475677 33.826223 -21.675713 45.092164 1.026475 2.072247 0.007449 0.016306 18142.500000 0 0 1
21.990177 34.048623 -21.561213 45.910375 0.997347 2.059676 0.027307 0.020020 -234219.000000 0 0 1
22.727877 -34.282782 -22.740013 46.999721 -0.985369 2.075825 0.020647 0.015881 648164.000000 0 0 1
24.118977 -34.262282 -22.400213 47.512089 -0.957423 2.061746 0.020007 0.012753 1095250.000000 0 0 1
25.079577 -33.580182 -23.453613 48.027969 -0.929310 2.080974 0.036616 0.005263 442288.000000 0 0 1
24.988777 -32.166082 -23.606713 47.078368 -0.910321 2.096052 0.043519 0.006359 252885.000000 0 0 1
23.706277 -31.701782 -24.041713 46.314086 -0.928711 2.116596 0.024470 0.007479 586893.000000 0 0 1
23.533977 -30.182182 -23.755913 45.046150 -0.908537 2.126297 0.031435 -0.005627 -570051.000000 0 0 1
24.274777 -29.419682 -24.677313 45.428540 -0.880925 2.145054 0.028632 -0.011152 -298256.000000 0 0 1
24.226077 -28.030382 -24.430913 44.378763 -0.858071 2.153770 0.043892 -0.008625 350388.000000 0 0 1
24.903977 -27.149482 -25.525813 44.820415 -0.828510 2.176710 0.042302 -0.007810 653934.000000 0 0 1
24.048077 -26.967382 -26.671723 44.910249 -0.842560 2.206681 0.032929 -0.012100 -37993.600000 0 0 1
24.766277 -26.416282 -27.747143 45.618991 -0.817625 2.224634 0.029383 -0.009086 -709203.000000 0 0 1
23.839777 -26.047482 -28.928103 45.646921 -0.829623 2.257170 0.026435 -0.013864 816597.000000 0 0 1
23.014977 -24.870482 -28.657543 44.378878 -0.824128 2.272798 0.039387 -0.017358 784904.000000 0 0 1
21.921077 -25.058582 -27.747153 43.340174 -0.852083 2.265578 0.040387 -0.014142 -493291.000000 0 0 1
21.069577 -23.802682 -27.549363 42.064975 -0.846232 2.284878 0.041141 -0.015973 -282127.000000 0 0 1
20.601677 -23.252582 -28.725123 42.311279 -0.845773 2.317060 0.062398 -0.019585 93067.000000 0 0 1
20.093777 -21.933082 -28.511093 41.203184 -0.829135 2.335001 0.052538 -0.008197 -104337.000000 0 0 1
19.168377 -21.391982 -29.612143 41.254364 -0.840165 2.371425 0.079694 -0.012388 523543.000000 0 0 1
17.945577 -22.115282 -29.697323 41.146816 -0.889109 2.377110 0.067918 -0.019336 180431.000000 0 0 1
16.832977 -21.442282 -30.226393 40.703260 -0.905246 2.407746 0.060116 -0.020418 364879.000000 0 0 1
15.565977 -22.344382 -30.042043 40.547446 -0.962329 2.405222 0.051363 -0.022758 9339.650000 0 0 1
15.575577 -23.574782 -30.819843 41.811860 -0.986944 2.399577 0.041113 -0.010141 3692.930000 0 0 1
14.832677 -24.635582 -30.256323 41.741649 -1.028846 2.381609 0.049056 -0.014926 -157083.000000 0 0 1
14.991877 -25.965282 -30.999273 43.126641 -1.047174 2.372866 0.067790 -0.011209 30038.500000 0 0 1
14.345977 -26.951182 -30.262543 42.988310 -1.081648 2.351770 0.058812 -0.007148 -47073.900000 0 0 1
14.785477 -28.214082 -30.755573 44.278099 -1.088097 2.338660 0.087795 -0.015645 322960.000000 0 0 1
14.235977 -29.391282 -29.924373 44.294228 -1.119738 2.312550 0.076532 -0.018587 -13747.400000 0 0 1
14.569577 -29.375982 -28.524233 43.460934 -1.110379 2.286726 0.092710 -0.019431 -54538.100000 0 0 1
13.942177 -28.439382 -27.662683 42.052429 -1.114986 2.288709 0.082207 -0.009921 46239.400000 0 0 1
14.866077 -28.087382 -26.466063 41.356424 -1.084000 2.265230 0.069962 -0.013923 120574.000000 0 0 1
15.046877 -29.114182 -25.567243 41.565948 -1.093781 2.233310 0.064071 -0.020989 -32299.900000 0 0 1
15.925277 -28.829282 -24.491613 41.043648 -1.066113 2.210205 0.065713 -0.021058 -444986.000000 0 0 1
15.378377 -27.895482 -23.353013 39.497033 -1.066967 2.203417 0.049207 -0.017741 1111740.000000 0 0 1
14.309577 -28.337882 -22.456813 38.885833 -1.103186 2.186467 0.051186 -0.016421 678507.000000 0 0 1
13.057577 -28.451082 -23.086713 38.896796 -1.140526 2.206244 0.060033 -0.009521 -1265140.000000 0 0 1
11.923377 -28.198582 -22.137013 37.780607 -1.170760 2.196831 0.049156 -0.007272 -771731.000000 0 0 1
11.754477 -26.821982 -21.856713 36.541789 -1.157765 2.211961 0.042186 -0.007700 288864.000000 0 0 1
10.462177 -26.547382 -21.339413 35.631323 -1.195391 2.212917 0.046051 -0.009564 -114994.000000 0 0 1
10.238077 -25.065682 -21.202713 34.389848 -1.183027 2.235137 0.050707 -0.013452 141955.000000 0 0 1
11.006577 -24.408582 -20.206213 33.544219 -1.147169 2.217270 0.053243 -0.016265 130938.000000 0 0 1
10.399277 -23.169682 -19.989513 32.319650 -1.148915 2.237621 0.061574 -0.023493 95332.700000 0 0 1
10.815377 -22.353482 -18.686213 31.077727 -1.120165 2.215890 0.055270 -0.019081 28598.700000 0 0 1
10.275977 -22.889282 -17.458113 30.566332 -1.148822 2.178709 0.066513 -0.023428 268405.000000 0 0 1
10.493177 -21.957482 -16.417913 29.356186 -1.124996 2.164296 0.067895 -0.021715 -116683.000000 0 0 1
9.799977 -22.350582 -15.084713 28.690358 -1.157575 2.124424 0.056644 -0.019115 -131382.000000 0 0 1
10.143977 -23.627882 -14.662513 29.600108 -1.165270 2.089038 0.061611 -0.015572 -8747.820000 0 0 1
9.346677 -24.058682 -13.581313 29.165607 -1.200247 2.055179 0.059528 -0.012484 128187.000000 0 0 1
9.672577 -25.530682 -13.320313 30.377709 -1.208645 2.024714 0.075322 -0.014142 237142.000000 0 0 1
10.967477 -25.771182 -12.802813 30.795315 -1.168442 1.999552 0.069566 -0.015025 -172766.000000 0 0 1
11.310577 -27.112682 -13.037513 32.140371 -1.175577 1.988478 0.079092 -0.026082 -926780.000000 0 0 1
12.683577 -27.465282 -12.436613 32.709084 -1.138170 1.960829 0.057937 -0.024568 239117.000000 0 0 1
13.826877 -27.009082 -13.204413 33.091231 -1.097647 1.981256 0.049011 -0.021251 638783.000000 0 0 1
13.968477 -27.601682 -14.525513 34.175455 -1.102302 2.009789 0.054643 -0.018380 -625658.000000 0 0 1
15.308177 -27.300082 -15.285013 34.831974 -1.059747 2.025083 0.042062 -0.013736 994829.000000 0 0 1
16.358977 -28.187282 -14.886713 35.829502 -1.044938 1.999275 0.045782 -0.009357 694865.000000 0 0 1
17.617777 -27.852082 -15.457613 36.401406 -1.006788 2.009364 0.045612 -0.010923 13473.500000 0 0 1
18.738677 -28.840382 -15.283813 37.636426 -0.994606 1.988969 0.044659 -0.010151 -367090.000000 0 0 1
18.664277 -29.990982 -16.070813 38.808314 -1.014120 1.997758 0.039002 -0.009423 471647.000000 0 0 1
19.996977 -30.499182 -16.186213 39.900786 -0.990455 1.988499 0.047919 -0.004169 801787.000000 0 0 1
20.227977 -31.547982 -17.290513 41.272364 -1.000646 2.003070 0.039216 -0.004403 -155172.000000 0 0 1
20.076477 -32.901682 -16.872713 42.074625 -1.022913 1.983425 0.038670 -0.002023 53932.300000 0 0 1
20.519877 -33.734282 -17.900813 43.353273 -1.024311 1.996438 0.030695 0.003939 35132.600000 0 0 1
20.179377 33.455423 -17.563513 42.836311 1.028048 1.993266 0.019794 0.006607 13841.500000 0 0 1
20.946777 32.973323 -16.457013 42.389159 1.004850 1.969513 0.024188 0.003491 299608.000000 0 0 1
20.497077 31.682923 -16.070213 41.014504 0.996572 1.973403 0.012210 0.001652 -681418.000000 0 0 1
21.367377 30.957123 -15.056513 40.516748 0.966661 1.951541 0.026443 -0.006193 -426107.000000 0 0 1
22.638977 30.539223 -15.556713 41.075281 0.932881 1.959227 0.039797 -0.007721 487810.000000 0 0 1
23.610377 30.366923 -14.543413 41.123117 0.909924 1.932273 0.047388 -0.018729 121862.000000 0 0 1
23.279977 29.382123 -13.385313 39.804938 0.900757 1.913753 0.050355 -0.011446 -1224230.000000 0 0 1
23.397177 28.070723 -13.846213 39.078267 0.875955 1.932983 0.056911 -0.005022 75546.300000 0 0 1
23.078477 27.052723 -12.874013 37.818066 0.864510 1.918159 0.023815 -0.001729 829685.000000 0 0 1
21.536977 26.873823 -12.619113 36.678137 0.895196 1.922023 0.012892 0.003004 365330.000000 0 0 1
20.834477 26.489823 -13.811513 36.421752 0.904336 1.959739 0.016248 -0.001587 449135.000000 0 0 1
19.421577 26.379123 -13.680413 35.499429 0.936155 1.966405 0.023831 -0.005941 495502.000000 0 0 1
18.662077 27.732423 -13.800613 36.163757 0.978468 1.962339 0.019341 -0.008557 -540260.000000 0 0 1
18.683277 28.559523 -14.947413 37.257702 0.991483 1.983612 0.024195 -0.009814 33243.700000 0 0 1
18.118277 27.995023 -16.144213 37.049006 0.996395 2.021671 0.012242 -0.004238 -73184.500000 0 0 1
18.236877 28.881223 -17.341913 38.307319 1.007576 2.040593 0.004663 0.002783 -55198.100000 0 0 1
17.408377 30.013723 -17.298113 38.769832 1.045202 2.033283 0.005801 -0.000601 -188593.000000 0 0 1
17.604777 30.734323 -18.469713 39.945677 1.050613 2.051463 -0.000612 0.011620 213113.000000 0 0 1
16.614677 31.922923 -18.796013 40.600623 1.090913 2.052116 -0.006453 0.011058 275797.000000 0 0 1
16.805377 33.073023 -17.935013 41.205706 1.100666 2.021118 0.000671 -0.010321 312142.000000 0 0 1
16.162077 34.273723 -18.480213 42.159448 1.130159 2.024548 0.007473 -0.009929 234308.000000 0 0 1
16.082377 -33.106682 -17.575013 40.786963 -1.118594 2.016284 0.004278 -0.008024 -6280.860000 0 0 1
15.288277 -32.032982 -18.030113 39.811158 -1.125500 2.040802 0.011241 -0.008744 20732.600000 0 0 1
15.012177 -31.099782 -16.944713 38.466677 -1.121076 2.026956 0.023898 -0.005374 832282.000000 0 0 1
13.720377 -30.204382 -17.182313 37.360210 -1.144413 2.048690 0.036255 -0.014335 1093110.000000 0 0 1
12.547077 -30.996382 -17.421513 37.705622 -1.186166 2.051091 0.029395 -0.016047 615439.000000 0 0 1
11.475877 -30.046982 -17.620113 36.674041 -1.205963 2.071966 0.026616 -0.009010 195632.000000 0 0 1
10.172577 -30.698482 -18.070213 37.046062 -1.250813 2.080338 0.043925 -0.013542 -1028660.000000 0 0 1
9.465777 -31.444982 -17.098913 37.023785 -1.278398 2.050860 0.056346 -0.013670 814382.000000 0 0 1
8.336577 -32.194582 -17.603413 37.628045 -1.317418 2.057627 0.070354 -0.007483 904166.000000 0 0 1
7.084377 -31.369982 -18.043213 36.875761 -1.348689 2.082080 0.065586 -0.004332 -512229.000000 0 0 1
6.957977 -30.921982 -19.433213 37.178383 -1.349466 2.120814 0.048581 0.004562 47280.500000 0 0 1
6.965577 -32.052982 -20.338513 38.594922 -1.356809 2.125832 0.044559 -0.003404 -1142860.000000 0 0 1
7.062577 -31.602282 -21.825713 39.050557 -1.350926 2.163866 0.041017 0.008015 1279430.000000 0 0 1
8.384277 -31.223282 -22.330713 39.291859 -1.308458 2.175270 0.044510 0.007037 1587590.000000 0 0 1
9.427277 -32.188282 -22.230513 40.238722 -1.285885 2.156116 0.045959 0.002725 -205216.000000 0 0 1
9.472277 -33.394982 -23.187913 41.744798 -1.294412 2.159722 0.056192 -0.002359 -310136.000000 0 0 1
8.322077 -34.189982 -23.001713 42.039156 -1.332033 2.149752 0.053284 -0.015609 -245155.000000 0 0 1
8.104277 33.584823 -24.105213 42.126962 1.334015 2.179987 0.055579 -0.022544 -559471.000000 0 0 1
7.052177 32.505923 -23.768713 40.881780 1.357157 2.191246 0.063582 -0.035423 1772490.000000 0 0 1
5.642877 32.891223 -23.734413 40.951153 1.400889 2.189008 0.065307 -0.030242 1671690.000000 0 0 1
5.359277 33.672923 -22.589313 40.900668 1.412963 2.155913 0.052815 -0.026020 -987021.000000 0 0 1
3.989577 -34.268782 -22.699013 41.297837 -1.454898 2.152732 0.052298 -0.018272 -10600.600000 0 0 1
2.831077 33.561923 -22.618013 40.570829 1.486642 2.162161 0.053233 -0.027135 -659364.000000 0 0 1
1.717677 34.251723 -23.060113 41.326744 1.520690 2.162764 0.048535 -0.017506 -885619.000000 0 0 1
0.457677 33.646623 -22.435713 40.443367 1.557195 2.158852 0.046162 -0.026451 -517223.000000 0 0 1
0.154077 34.074423 -21.136313 40.097802 1.566275 2.126003 0.040651 -0.026639 -27278.900000 0 0 1
-1.164323 33.688023 -20.793413 39.605613 -1.536248 2.123525 0.030346 -0.027309 335488.000000 0 0 1
-1.512823 33.888023 -19.310713 39.033196 -1.526184 2.088315 0.037151 -0.023042 224285.000000 0 0 1
-0.851623 33.031123 -18.390813 37.815372 -1.545020 2.078683 0.032363 -0.021408 -147609.000000 0 0 1
-1.458023 33.166523 -17.120713 37.353218 -1.526864 2.046930 0.020690 -0.014148 81610.700000 0 0 1
-0.749623 32.341823 -16.020813 36.100165 -1.547622 2.030617 0.016245 -0.002580 -14575.800000 0 0 1
0.577477 32.791223 -15.841313 36.421765 1.553187 2.020769 0.014951 -0.010430 -433759.000000 0 0 1
1.278677 31.716323 -15.272013 35.224914 1.530502 2.019233 0.011445 -0.001836 -74857.800000 0 0 1
2.287877 32.105023 -14.171213 35.168027 1.499654 1.985542 0.025332 -0.006464 487664.000000 0 0 1
3.399477 32.847023 -14.701213 36.147047 1.467669 1.989642 0.046539 -0.012326 821439.000000 0 0 1
4.350877 33.323923 -13.744813 36.308867 1.440968 1.959028 0.059778 -0.019665 -247788.000000 0 0 1
5.700377 33.669823 -14.329513 37.033582 1.403084 1.968099 0.083298 -0.029787 -261389.000000 0 0 1
6.470977 32.513523 -14.678613 36.255543 1.374339 1.987628 0.082827 -0.023082 -53643.900000 0 0 1
7.683777 32.784723 -15.359213 37.010592 1.340581 1.998734 0.072991 -0.011675 319771.000000 0 0 1
8.515277 31.483823 -15.465613 36.096069 1.306651 2.013581 0.063788 -0.017084 -21154.900000 0 0 1
9.269977 31.292323 -14.256013 35.614265 1.282794 1.982629 0.055449 -0.020995 -123724.000000 0 0 1
10.063577 30.153423 -14.092213 34.772043 1.248675 1.988075 0.052393 -0.012826 118451.000000 0 0 1
9.249477 28.855023 -13.917213 33.344475 1.260595 2.001353 0.054850 -0.013633 106831.000000 0 0 1
8.710677 28.160123 -15.048813 33.095848 1.270805 2.042836 0.059764 -0.018347 105349.000000 0 0 1
8.156077 26.900423 -14.699513 31.721129 1.276411 2.052622 0.055873 -0.009665 -194177.000000 0 0 1
7.440677 26.103923 -15.815713 31.415207 1.293120 2.098373 0.054466 -0.006827 -175169.000000 0 0 1
8.273377 25.654923 -16.839313 31.783428 1.258839 2.129178 0.055714 -0.007014 -462474.000000 0 0 1
7.555877 24.903823 -17.819613 31.540930 1.276221 2.171191 0.043855 -0.000892 -74828.000000 0 0 1
8.417377 23.862423 -18.486613 31.337235 1.231677 2.201762 0.052033 0.006810 -647809.000000 0 0 1
7.766877 22.963323 -19.309413 30.991805 1.244646 2.243431 0.058105 0.007754 -312569.000000 0 0 1
8.615577 21.883123 -19.722013 30.692948 1.195725 2.268629 0.052186 0.008988 72968.800000 0 0 1
8.055177 20.990623 -20.914613 30.706891 1.204376 2.320067 0.038813 -0.001362 -404809.000000 0 0 1
7.108277 20.107823 -20.450213 29.547645 1.231000 2.335204 0.044272 0.004198 -561717.000000 0 0 1
6.659977 19.260123 -21.490313 29.616569 1.237876 2.382728 0.039789 0.003593 87167.900000 0 0 1
25.075077 -12.454277 -9.398313 29.532978 -0.460988 1.894659 0.066265 -0.013914 -104672.000000 0 0 1
25.743777 -12.004177 -8.229813 29.573166 -0.436321 1.852806 0.063612 -0.014816 782931.000000 0 0 1
24.960277 -12.210377 -7.034413 28.663421 -0.454964 1.818743 0.058594 -0.005608 -16476.400000 0 0 1
25.612677 -11.500077 -5.803513 28.669527 -0.422022 1.774633 0.040966 -0.003799 -256525.000000 0 0 1
25.556277 -10.113977 -5.852313 28.100985 -0.376840 1.780592 0.030784 -0.006673 -267841.000000 0 0 1
26.609177 -9.575977 -6.552513 29.029004 -0.345445 1.798481 0.035128 -0.010266 -1659250.000000 0 0 1
26.918777 -8.035577 -6.418713 28.816504 -0.290091 1.795425 0.072586 -0.008316 -233504.000000 0 0 1
27.502477 -7.522577 -5.250613 28.992143 -0.266993 1.752906 0.068452 -0.012785 1021990.000000 0 0 1
28.810277 -8.058577 -5.002213 30.331417 -0.272742 1.736472 0.066645 -0.019607 111903.000000 0 0 1
29.476377 -7.832377 -3.651113 30.716991 -0.259716 1.689941 0.078856 -0.024081 -181405.000000 0 0 1
29.626977 -6.515877 -3.213513 30.504771 -0.216484 1.676337 0.082516 -0.019917 408303.000000 0 0 1
30.303777 -6.536077 -1.960913 31.062588 -0.212431 1.633966 0.097125 -0.022538 42478.100000 0 0 1
30.442677 -5.120077 -1.336213 30.899146 -0.166628 1.614054 0.095352 -0.024076 270995.000000 0 0 1
29.235377 -4.700177 -0.713313 29.619381 -0.159406 1.594881 0.095354 -0.022501 223469.000000 0 0 1
29.211177 -3.339777 -0.268113 29.402701 -0.113838 1.579915 0.090004 -0.022292 -207363.000000 0 0 1
29.793177 -3.116377 1.130487 29.977044 -0.104221 1.533076 0.096921 -0.020296 -700583.000000 0 0 1
28.907877 -3.510477 2.099287 29.195818 -0.120845 1.498831 0.096346 -0.020071 -280884.000000 0 0 1
29.446277 -3.157077 3.328287 29.801474 -0.106807 1.458881 0.101822 -0.017057 -117288.000000 0 0 1
29.068677 -3.994877 4.555287 29.693394 -0.136573 1.416777 0.099144 -0.023771 -675001.000000 0 0 1
29.454777 -5.327177 4.340387 30.245688 -0.178925 1.426795 0.099573 -0.030212 123715.000000 0 0 1
29.546977 -6.028577 5.571987 30.666180 -0.201271 1.388083 0.097164 -0.029744 344899.000000 0 0 1
30.535877 -7.247877 5.431487 31.850786 -0.233044 1.399430 0.063007 -0.027759 1119390.000000 0 0 1
31.945977 -6.985477 5.390887 33.142178 -0.215277 1.407411 0.074737 -0.028108 695201.000000 0 0 1
32.610177 -8.242977 5.377487 34.062996 -0.247587 1.412264 0.071948 -0.021928 527654.000000 0 0 1
34.167877 -8.157477 5.457787 35.549623 -0.234360 1.416661 0.070430 -0.015666 487233.000000 0 0 1
34.763377 -7.605877 4.293187 35.843733 -0.215396 1.450733 0.078614 -0.018147 -1163350.000000 0 0 1
36.079377 -7.367577 4.616487 37.112189 -0.201435 1.446081 0.083678 -0.016404 -1063560.000000 0 0 1
-35.348679 -6.942877 3.439087 36.187843 0.193942 1.475618 0.085820 -0.015792 -184837.000000 0 0 1
-35.277979 -7.926677 2.478987 36.242425 0.221021 1.502343 0.085115 -0.017056 795415.000000 0 0 1
-34.165479 -7.663777 1.606287 35.051300 0.220661 1.524954 0.106401 -0.019285 231076.000000 0 0 1
-33.858479 -8.860977 0.663187 35.005047 0.255966 1.551850 0.089924 -0.019899 -160501.000000 0 0 1
-33.428879 -10.032777 1.371487 34.928893 0.291570 1.531521 0.085182 -0.017887 382543.000000 0 0 1
-33.250579 -11.133277 0.526987 35.068912 0.323097 1.555769 0.072473 -0.025576 -533532.000000 0 0 1
-33.188279 -12.495777 1.313987 35.487080 0.360095 1.533761 0.054747 -0.019676 626723.000000 0 0 1
-32.034179 -12.868277 2.087887 34.585264 0.381975 1.510390 0.049526 -0.014641 659922.000000 0 0 1
-30.977079 -13.368477 1.278287 33.762844 0.407414 1.532927 0.046643 -0.003616 661110.000000 0 0 1
-29.658579 -13.742677 2.053187 32.752222 0.433911 1.508067 0.049304 0.005573 534266.000000 0 0 1
-28.938479 -12.659277 2.525987 31.687119 0.412373 1.490995 0.063304 0.002496 400187.000000 0 0 1
-27.735979 -13.032277 3.199187 30.811679 0.439254 1.466779 0.064930 0.005935 456495.000000 0 0 1
-26.908779 -11.848177 3.762687 29.641517 0.414766 1.443513 0.071435 0.002641 402966.000000 0 0 1
-25.593779 -12.221477 4.189087 28.669749 0.445500 1.424156 0.062648 0.010042 838565.000000 0 0 1
-24.983279 -11.139377 4.880287 27.786096 0.419417 1.394243 0.063404 0.012912 216277.000000 0 0 1
-23.574779 -11.474777 5.466587 26.782910 0.452983 1.365245 0.066760 0.015822 422094.000000 0 0 1
-23.642179 -12.403577 6.494287 27.476847 0.483163 1.332184 0.054999 0.007350 423547.000000 0 0 1
-22.357079 -12.962877 6.743287 26.708558 0.525442 1.315557 0.060175 0.004545 975998.000000 0 0 1
-21.597579 -12.431677 8.064787 26.192419 0.522289 1.257806 0.057136 -0.007130 76346.600000 0 0 1
-21.284179 -11.046777 8.163387 25.331570 0.478742 1.242679 0.054543 -0.006822 787077.000000 0 0 1
-22.375679 -10.167677 8.476787 25.998242 0.426513 1.238672 0.055142 -0.011529 -44064.200000 0 0 1
-22.939079 -10.100177 9.941987 26.964014 0.414762 1.193172 0.054381 -0.009951 -265687.000000 0 0 1
-23.589579 -11.249377 10.396487 28.126565 0.444980 1.192183 0.040910 -0.014236 1388470.000000 0 0 1
-25.022979 -11.286477 10.164787 29.272119 0.423722 1.216158 0.034451 -0.009530 1370470.000000 0 0 1
-25.875979 -10.820777 11.397887 30.274863 0.396079 1.184802 0.048977 -0.019535 -686625.000000 0 0 1
-25.975779 -11.820477 12.444187 31.133946 0.427052 1.159609 0.044242 -0.013213 1004990.000000 0 0 1
-27.086579 -11.587377 13.357387 32.347641 0.404232 1.145125 0.033853 -0.016818 799414.000000 0 0 1
-27.164679 -12.461577 14.670187 33.293019 0.430100 1.114486 0.034221 -0.011717 -75544.800000 0 0 1
-27.168979 -13.838177 14.459587 33.745047 0.471090 1.127970 0.022010 -0.007941 245269.000000 0 0 1
-26.917179 -14.428277 15.702587 34.340660 0.492050 1.095885 0.026183 -0.006341 -608634.000000 0 0 1
-26.678479 -15.956977 15.634987 34.796827 0.539037 1.104790 0.027840 0.009737 -146705.000000 0 0 1
-27.840879 -16.744177 15.675487 36.072190 0.541466 1.121248 0.030970 0.007613 -8801.980000 0 0 1
-27.467179 -18.143877 15.566987 36.413971 0.583767 1.129070 0.023322 0.009353 405965.000000 0 0 1
-28.432179 -19.117377 16.326387 37.952784 0.591951 1.126108 0.014364 0.012440 326602.000000 0 0 1
-28.180379 -19.131477 17.731287 38.399814 0.596420 1.090824 0.032104 0.009712 129258.000000 0 0 1
-28.892079 -20.182377 18.403087 39.758700 0.609748 1.089567 0.036586 0.008405 -217945.000000 0 0 1
-28.152179 -21.500377 18.564287 39.993051 0.652224 1.088079 0.022269 0.014232 538236.000000 0 0 1
-26.892479 -21.289077 19.254387 39.333976 0.669621 1.059268 0.039778 0.016129 778314.000000 0 0 1
-26.395879 -22.562677 19.628287 39.888425 0.707263 1.056319 0.039364 0.014283 -289977.000000 0 0 1
-24.999879 -22.376277 20.262887 39.195361 0.730077 1.027487 0.047861 0.019760 -444425.000000 0 0 1
-24.032379 -22.124677 19.282687 37.932553 0.744091 1.037539 0.054263 0.012265 -1139710.000000 0 0 1
-22.806579 -22.076577 19.921987 37.475337 0.769135 1.010305 0.058666 0.020820 -1219650.000000 0 0 1
-21.690979 -21.528177 19.056087 36.015211 0.781631 1.013242 0.052270 0.016863 -409480.000000 0 0 1
-21.328479 -22.378777 18.020687 35.783500 0.809424 1.043032 0.039885 0.009658 -363293.000000 0 0 1
-20.092679 -22.074177 17.443987 34.572789 0.832355 1.041926 0.042701 0.007450 -200483.000000 0 0 1
-19.786979 -23.046577 16.240387 34.444440 0.861351 1.079811 0.044246 0.010642 -593222.000000 0 0 1
-19.711579 -24.415377 16.635387 35.516096 0.891594 1.083329 0.048478 0.002536 415646.000000 0 0 1
-18.554279 -24.990377 17.258387 35.589776 0.932140 1.064518 0.046652 0.001852 829788.000000 0 0 1
-17.186479 -24.922377 16.509587 34.482842 0.967084 1.071535 0.047740 -0.001237 257634.000000 0 0 1
-16.652779 -23.605777 16.450287 33.243942 0.956420 1.053151 0.048241 -0.006557 214386.000000 0 0 1
-15.494279 -23.658677 15.603287 32.299663 0.990978 1.066629 0.046888 -0.011400 537024.000000 0 0 1
-14.649079 -22.353477 15.518187 30.904491 0.990678 1.044732 0.049056 -0.008047 -181424.000000 0 0 1
-15.211479 -21.337877 14.767787 30.079588 0.951474 1.057608 0.049555 -0.005335 398376.000000 0 0 1
-16.358979 -20.675777 15.344387 30.504986 0.901435 1.043716 0.050645 0.002688 447123.000000 0 0 1
-16.058079 -19.488377 16.275487 30.042474 0.881602 0.998280 0.048931 -0.004803 -359102.000000 0 0 1
-15.309479 -18.481277 15.594287 28.620265 0.878990 0.994564 0.040773 -0.009246 160781.000000 0 0 1
-15.253479 -17.344377 16.440187 28.350940 0.849453 0.952213 0.026141 -0.010858 -542027.000000 0 0 1
-14.742579 -16.058777 15.810087 26.929293 0.828104 0.943329 0.032183 -0.014708 -166234.000000 0 0 1
-15.514779 -15.432177 14.809787 26.423290 0.782729 0.975828 0.036470 -0.018746 -12009.500000 0 0 1
-15.513779 -16.073977 13.546487 26.125799 0.803131 1.025689 0.043774 -0.023351 -339714.000000 0 0 1
-16.409779 -15.255377 12.624887 25.717604 0.748958 1.057669 0.040364 -0.017267 -859295.000000 0 0 1
-17.775379 -15.316077 12.886087 26.769340 0.711216 1.068574 0.032430 -0.014387 -896406.000000 0 0 1
-18.428879 -14.378177 12.116887 26.328208 0.662549 1.092548 0.047599 -0.015730 -39918.100000 0 0 1
-19.985079 -14.493177 12.240287 27.555039 0.627439 1.110501 0.040622 -0.017597 798916.000000 0 0 1
-20.678179 -15.527677 11.521187 28.309603 0.644090 1.151661 0.039978 -0.016054 273380.000000 0 0 1
-20.625679 -15.452677 10.120087 27.687904 0.642986 1.196620 0.050423 -0.011884 -463625.000000 0 0 1
-21.331079 -16.677277 9.470687 28.685195 0.663563 1.234324 0.041834 -0.002440 231136.000000 0 0 1
-20.640879 -17.922077 9.526887 28.948373 0.715012 1.235447 0.039969 0.005059 152942.000000 0 0 1
-21.397979 -18.923177 8.846887 29.903638 0.724098 1.270455 0.043651 -0.004085 192202.000000 0 0 1
-20.682279 -20.289677 8.792487 30.277640 0.775816 1.276156 0.041477 0.000832 211011.000000 0 0 1
-19.650379 -20.399777 7.830487 29.387154 0.804107 1.301078 0.059455 -0.002953 -319150.000000 0 0 1
-19.337179 -21.767777 7.771887 30.135773 0.844461 1.309953 0.053512 0.000409 59976.500000 0 0 1
-17.953979 -22.125877 7.147487 29.376630 0.889114 1.325024 0.049857 -0.013466 228025.000000 0 0 1
-16.942579 -21.534577 7.962687 28.534074 0.904180 1.287982 0.038262 -0.015331 -1055100.000000 0 0 1
-15.756179 -21.986177 7.398487 28.042589 0.948990 1.303805 0.050104 -0.021688 -90256.700000 0 0 1
-14.494879 -21.716777 8.346187 27.411289 0.982251 1.261404 0.010579 -0.008892 917207.000000 0 0 1
-13.331379 -22.082377 7.620987 26.896775 1.027652 1.283519 0.029626 -0.005614 -321459.000000 0 0 1
-12.167479 -21.820277 8.353387 26.342952 1.062120 1.248125 0.027839 -0.002915 406813.000000 0 0 1
-10.838179 -22.297577 7.686687 25.956372 1.118355 1.270149 0.018413 0.002572 417990.000000 0 0 1
-10.798779 -23.701577 7.591487 27.129487 1.143283 1.287185 0.025248 0.004509 -444084.000000 0 0 1
-9.516279 -24.096377 7.198587 26.888931 1.194672 1.299775 0.037033 -0.002784 -210422.000000 0 0 1
-9.434079 -25.627447 7.379387 28.288217 1.218067 1.306879 0.020063 0.005943 -431616.000000 0 0 1
-10.089879 -26.304467 6.359087 28.881978 1.204524 1.348803 0.014338 0.001685 -257795.000000 0 0 1
-10.116679 -27.696807 6.481787 30.190626 1.220587 1.354416 0.033551 0.002248 148482.000000 0 0 1
-9.017879 -28.472587 5.691987 30.404096 1.264070 1.382474 0.045647 0.001277 -394998.000000 0 0 1
-7.747779 -28.117387 6.166687 29.810125 1.301918 1.362426 0.042552 0.004315 -793435.000000 0 0 1
-6.705479 -28.984147 5.773987 30.304837 1.343446 1.379094 0.042822 0.003960 231428.000000 0 0 1
-6.743479 -30.482937 6.334287 31.856038 1.353081 1.370621 0.051256 -0.001291 -681054.000000 0 0 1
-6.657479 -30.395587 7.755787 32.068146 1.355174 1.326521 0.052534 0.008352 120118.000000 0 0 1
-6.653479 -31.687487 8.304187 33.426414 1.363831 1.319735 0.071986 -0.000316 1744.270000 0 0 1
-7.125479 -31.662417 9.724887 33.880002 1.349439 1.279662 0.060314 0.000393 -403756.000000 0 0 1
-6.082479 -31.187887 10.509287 33.468283 1.378187 1.251385 0.056389 0.005943 16499.100000 0 0 1
-6.343479 -31.475157 11.853887 34.226304 1.371921 1.217131 0.051085 0.001883 -87047.500000 0 0 1
-5.532479 -30.645047 12.881787 33.699669 1.392186 1.178563 0.046728 -0.005420 96374.500000 0 0 1
-5.983479 -29.332667 12.911287 32.602281 1.369570 1.163614 0.042907 0.003071 589465.000000 0 0 1
-5.132479 -28.528657 13.752687 32.083688 1.392794 1.127798 0.033084 -0.010734 376944.000000 0 0 1
-5.832479 -28.200977 15.078987 32.506750 1.366853 1.088435 0.036968 -0.002636 -102908.000000 0 0 1
-6.179479 -29.321237 15.906087 33.925278 1.363085 1.082801 0.030286 -0.009923 525139.000000 0 0 1
-5.112479 -30.107867 16.476487 34.700083 1.402595 1.076030 0.031289 -0.015298 474776.000000 0 0 1
-5.594479 -31.484367 17.021087 36.225419 1.394941 1.081658 0.028864 -0.007471 147394.000000 0 0 1
-6.157479 -32.296357 15.990687 36.560516 1.382402 1.118118 0.023697 -0.004858 210282.000000 0 0 1
-6.341479 -33.604617 16.418087 37.934657 1.384281 1.123201 0.024234 -0.008873 -371503.000000 0 0 1
-5.762479 33.911667 15.530087 37.741104 -1.402478 1.146708 0.021307 -0.012471 -407538.000000 0 0 1
-6.404479 33.678020 14.308587 37.147840 -1.382872 1.175394 0.027910 -0.016822 450283.000000 0 0 1
-5.648479 32.740079 13.484087 35.855804 -1.399953 1.185251 0.033686 -0.022015 1511330.000000 0 0 1
-4.328479 33.268183 12.776487 35.899114 -1.441414 1.206920 0.048341 -0.026419 951439.000000 0 0 1
-4.680479 33.743966 11.520487 35.962255 -1.432970 1.244698 0.048997 -0.022949 321692.000000 0 0 1
-3.539479 34.087079 10.752287 35.917524 -1.467331 1.266774 0.057770 -0.024460 -341788.000000 0 0 1
-3.872479 -34.213719 9.303287 35.666873 1.458091 1.306906 0.054847 -0.018822 -730939.000000 0 0 1
-3.992479 33.392796 8.299887 34.639672 -1.451800 1.328836 0.056621 -0.028211 726322.000000 0 0 1
-5.009479 32.374048 8.477587 33.838489 -1.417276 1.317568 0.070500 -0.027685 1690750.000000 0 0 1
-6.493479 32.767343 8.858387 34.559153 -1.375162 1.311578 0.072661 -0.020024 650083.000000 0 0 1
-7.183479 33.280982 7.703587 34.908042 -1.358214 1.348282 0.073523 -0.018900 -1120420.000000 0 0 1
-8.524479 33.436543 8.026687 35.427346 -1.321169 1.342244 0.056592 -0.013208 -853439.000000 0 0 1
-9.290979 33.877384 6.764887 35.773777 -1.303125 1.380549 0.072867 -0.015863 -175076.000000 0 0 1
-9.090079 -33.404777 6.281587 35.184755 1.305110 1.391303 0.081127 -0.011866 -156315.000000 0 0 1
-9.836179 -33.318617 5.114387 35.114635 1.283735 1.424628 0.075317 -0.013211 -549019.000000 0 0 1
-9.982479 -31.864117 4.577187 33.703449 1.267198 1.434568 0.058120 -0.011749 80268.700000 0 0 1
-10.926179 -31.029697 5.230587 33.310397 1.232234 1.413118 0.079446 -0.014645 -41882.200000 0 0 1
-12.234579 -31.197337 4.698687 33.838387 1.197060 1.431489 0.080514 -0.010008 295270.000000 0 0 1
-13.242979 -30.350727 5.567887 33.578929 1.159367 1.404212 0.070614 -0.011835 189274.000000 0 0 1
-13.458479 -30.900027 6.857487 34.394294 1.160025 1.370073 0.063991 -0.005292 -192480.000000 0 0 1
-14.226679 -30.026147 7.638187 34.092665 1.128320 1.344836 0.047792 -0.003206 -152685.000000 0 0 1
33.350663 -13.327377 -12.727213 38.103381 -0.380173 1.911359 0.061669 -0.020905 -181512.000000 0 0 1
32.451843 -13.065077 -11.676713 36.880401 -0.382745 1.892950 0.071607 -0.019842 196944.000000 0 0 1
32.038143 -14.228277 -11.027913 36.749168 -0.417940 1.875579 0.072098 -0.015803 124152.000000 0 0 1
33.092053 -14.712177 -9.974413 37.563560 -0.418340 1.839554 0.056040 -0.019665 729194.000000 0 0 1
34.319053 -15.145277 -10.569913 38.973066 -0.415602 1.845447 0.061776 -0.023291 -45086.000000 0 0 1
35.204703 -15.587377 -9.564513 39.671367 -0.416820 1.814289 0.056243 -0.021528 602277.000000 0 0 1
-35.665351 -15.710577 -10.198513 40.284602 0.414925 1.826743 0.044167 -0.028790 297887.000000 0 0 1
-34.949002 -14.514877 -10.359413 39.235594 0.393640 1.837995 0.042783 -0.017879 -234099.000000 0 0 1
-33.880963 -14.751877 -11.258313 38.630133 0.410649 1.866527 0.044483 -0.027936 -60974.500000 0 0 1
-33.268653 -13.398677 -11.579213 37.688274 0.382868 1.883084 0.048164 -0.030584 37147.100000 0 0 1
-32.496143 -12.746677 -10.531013 36.460655 0.373809 1.863803 0.060776 -0.025246 689507.000000 0 0 1
-32.014513 -11.504977 -11.055413 35.770319 0.344996 1.885008 0.068416 -0.024585 -329507.000000 0 0 1
-32.502273 -10.138177 -10.419513 35.605430 0.302358 1.867781 0.066006 -0.021797 -288043.000000 0 0 1
-32.058823 -9.888377 -9.130413 34.769420 0.299186 1.836511 0.071361 -0.019130 -498467.000000 0 0 1
-32.978583 -9.283877 -8.327213 35.257904 0.274411 1.809229 0.082186 -0.018791 -895792.000000 0 0 1
-32.474613 -9.098377 -6.921913 34.428097 0.273165 1.773230 0.078255 -0.021219 -283937.000000 0 0 1
-31.507893 -8.075077 -6.684113 33.205897 0.250887 1.773474 0.091965 -0.026443 534742.000000 0 0 1
-31.190443 -7.872777 -5.308713 32.603785 0.247246 1.734350 0.087310 -0.026075 -60464.200000 0 0 1
-30.158413 -8.837277 -4.700313 31.776096 0.285049 1.719261 0.078856 -0.019301 -614555.000000 0 0 1
-30.633073 -10.109377 -4.347613 32.549753 0.318761 1.704765 0.079865 -0.015796 -26893.700000 0 0 1
-31.296053 -10.204277 -3.136113 33.066681 0.315187 1.665781 0.067660 -0.015022 -278582.000000 0 0 1
-31.735173 -11.606077 -2.755513 33.903025 0.350607 1.652162 0.064052 -0.019909 54608.000000 0 0 1
-32.963263 -12.096977 -3.271313 35.264927 0.351724 1.663694 0.062421 -0.027250 354927.000000 0 0 1
-33.347543 -13.351177 -2.719213 36.023696 0.380821 1.646352 0.061694 -0.030689 -401401.000000 0 0 1
-34.860935 -13.431877 -2.517713 37.443811 0.367769 1.638087 0.045575 -0.032007 -468896.000000 0 0 1
-35.395706 -12.344177 -1.803913 37.529839 0.335559 1.618881 0.057560 -0.045165 205827.000000 0 0 1
35.498673 -12.429377 -1.712013 37.650713 -0.336796 1.616283 0.079860 -0.040133 79985.900000 0 0 1
35.003133 -11.496177 -0.580713 36.847234 -0.317334 1.586557 0.082492 -0.043915 -273265.000000 0 0 1
35.292663 -11.941877 0.712087 37.265098 -0.326274 1.551686 0.092549 -0.035500 41642.100000 0 0 1
35.188883 -10.795377 1.533787 36.839519 -0.297669 1.529150 0.080851 -0.033298 -197456.000000 0 0 1
35.445963 -11.155177 3.015987 37.282039 -0.304896 1.489811 0.090792 -0.032604 449552.000000 0 0 1
34.430263 -11.919577 3.681187 36.620629 -0.333281 1.470104 0.093866 -0.036006 326799.000000 0 0 1
34.896503 -12.293877 4.963987 37.330236 -0.338718 1.437426 0.082529 -0.032374 131786.000000 0 0 1
33.742693 -12.647777 5.958287 36.524468 -0.358622 1.406933 0.086833 -0.012171 678022.000000 0 0 1
33.012323 -11.486377 6.400187 35.534669 -0.334840 1.389697 0.074836 -0.018071 314656.000000 0 0 1
32.779513 -11.480677 7.768587 35.590074 -0.336888 1.350745 0.060862 -0.010649 -342451.000000 0 0 1
32.215123 -10.188977 8.390887 34.814313 -0.306324 1.327381 0.055215 -0.022485 221792.000000 0 0 1
30.810733 -10.100277 8.177987 33.439443 -0.316778 1.323729 0.060826 -0.020723 535164.000000 0 0 1
30.251243 -9.060277 8.984387 32.832081 -0.290999 1.293614 0.063024 -0.014821 -487145.000000 0 0 1
28.741873 -8.845277 9.114687 31.423108 -0.298551 1.276503 0.064749 -0.019081 11505.800000 0 0 1
28.021293 -8.378777 7.954687 30.309632 -0.290553 1.305239 0.082994 -0.020122 478013.000000 0 0 1
27.658973 -9.398677 7.031887 30.046653 -0.327564 1.334573 0.089783 -0.028755 -952593.000000 0 0 1
26.690433 -8.865977 6.014887 28.760452 -0.320710 1.360104 0.086283 -0.023538 475370.000000 0 0 1
25.436733 -8.386077 6.586587 27.581457 -0.318462 1.329661 0.093916 -0.022720 1364720.000000 0 0 1
24.474033 -7.816277 5.714087 26.319636 -0.309132 1.351950 0.100382 -0.024397 102680.000000 0 0 1
24.807333 -6.554777 4.882087 26.119028 -0.258324 1.382774 0.098743 -0.025714 -492908.000000 0 0 1
25.533833 -6.757277 3.666887 26.666148 -0.258709 1.432848 0.089909 -0.025267 406579.000000 0 0 1
25.865033 -5.485577 3.137687 26.625863 -0.208988 1.452678 0.094209 -0.028437 133316.000000 0 0 1
26.572033 -5.580777 1.739387 27.207416 -0.207016 1.506822 0.094286 -0.032959 617215.000000 0 0 1
25.595033 -5.910677 0.754487 26.279480 -0.226952 1.542082 0.093518 -0.032298 556843.000000 0 0 1
26.236033 -5.719577 -0.519313 26.857265 -0.214646 1.590134 0.083710 -0.028675 -288181.000000 0 0 1
25.393033 -5.817977 -1.801413 26.113216 -0.225230 1.639836 0.086200 -0.026751 -531601.000000 0 0 1
24.522633 -4.721877 -1.826913 25.039833 -0.190224 1.643821 0.102881 -0.022671 -246060.000000 0 0 1
23.969133 -4.751177 -3.151713 24.637904 -0.195684 1.699069 0.098140 -0.021864 -259524.000000 0 1 0
22.700133 -3.915277 -3.382613 23.282343 -0.170798 1.716599 0.078225 -0.020580 -321743.000000 0 1 0
22.832733 -2.470977 -3.249613 23.194814 -0.107801 1.711360 0.052071 -0.017854 94240.400000 0 1 0
23.314033 -1.834377 -4.352613 23.787692 -0.078519 1.754811 0.055453 -0.017426 -586637.000000 0 1 0
22.216733 -1.019377 -5.010913 22.797623 -0.045851 1.792406 0.031758 -0.007595 -181510.000000 0 1 0
22.003133 0.209223 -4.283913 22.417260 0.009508 1.763078 0.022253 -0.007860 226311.000000 0 1 0
20.955233 0.978823 -4.829013 21.526710 0.046676 1.797048 0.021724 0.000751 -682876.000000 0 1 0
20.782833 2.304023 -4.067713 21.302135 0.110411 1.762930 0.027642 -0.003426 -158105.000000 0 1 0
21.780433 3.328923 -4.177113 22.425817 0.151666 1.758154 0.043325 -0.005598 151291.000000 0 1 0
22.828033 3.121823 -3.256313 23.269474 0.135911 1.711196 0.070629 -0.004923 -611333.000000 0 1 0
24.023533 4.002723 -3.590813 24.617999 0.165100 1.717180 0.066789 -0.006500 -536061.000000 0 1 0
23.622133 5.322623 -3.706313 24.496372 0.221622 1.722680 0.066569 -0.002220 342086.000000 0 1 0
24.656233 6.102123 -3.184713 25.598987 0.242613 1.695527 0.061810 -0.009226 -197195.000000 0 0 1
24.257233 7.597423 -3.129413 25.611080 0.303525 1.693292 0.062255 -0.017326 -360220.000000 0 0 1
23.389133 7.850823 -2.070013 24.758270 0.323844 1.654503 0.077243 -0.016761 113972.000000 0 1 0
22.436033 8.840523 -2.405713 24.234642 0.375351 1.670228 0.058852 -0.008095 -74899.500000 0 1 0
21.406133 8.999723 -1.257613 23.255088 0.397991 1.624902 0.046382 -0.005777 242645.000000 0 1 0
22.101833 9.418323 -0.074213 24.025015 0.402830 1.573885 0.044227 -0.010113 1387020.000000 0 1 0
21.077633 9.870723 0.820587 23.288863 0.437970 1.535554 0.033516 -0.006102 875324.000000 0 1 0
21.651633 10.241823 2.302487 24.062202 0.441838 1.474961 0.060682 -0.004455 -565579.000000 0 1 0
22.505733 11.307923 2.427387 25.303544 0.465603 1.474718 0.070546 -0.018249 -241936.000000 0 0 1
22.060933 12.614123 2.058887 25.495880 0.519415 1.489955 0.071045 -0.013744 -224128.000000 0 0 1
21.019433 13.324323 2.982387 25.064891 0.564977 1.451527 0.059725 -0.005311 648187.000000 0 0 1
19.691633 12.756023 2.886187 23.639091 0.574819 1.448397 0.100006 -0.012135 706744.000000 0 1 0
18.727033 13.604223 3.401187 23.395399 0.628257 1.424901 0.080684 -0.008101 -583256.000000 0 1 0
18.552833 13.492923 4.905287 23.459080 0.628795 1.360142 0.052927 -0.007380 -692678.000000 0 1 0
17.943533 12.309823 5.364587 22.411624 0.601289 1.329083 0.029989 -0.004962 443115.000000 0 1 0
18.219233 12.232323 6.727087 22.952644 0.591270 1.273344 0.033129 -0.015286 -40641.900000 0 1 0
18.243033 10.753123 7.207387 22.369272 0.532617 1.242743 0.010787 -0.022427 -343896.000000 0 1 0
19.417333 10.118023 6.795587 22.925689 0.480371 1.269856 0.002818 -0.016087 68020.300000 0 1 0
19.631033 8.795423 7.350987 22.732662 0.421220 1.241511 0.022303 -0.014320 306540.000000 0 1 0
20.706633 8.115223 6.448087 23.155978 0.373516 1.288603 0.034699 -0.015123 96715.500000 0 1 0
20.181433 7.774423 5.182987 22.239497 0.367706 1.335580 0.021443 -0.012423 195547.000000 0 1 0
21.069033 7.056523 4.397287 22.650271 0.323181 1.375417 0.026484 -0.012291 -452708.000000 0 1 0
20.605733 6.768523 2.929187 21.885823 0.317374 1.436554 0.021197 -0.006104 186679.000000 0 1 0
21.665433 6.167923 2.185187 22.632041 0.277352 1.474093 0.030523 -0.007587 691754.000000 0 1 0
21.264633 5.802323 0.881287 22.059652 0.266378 1.530836 0.027230 -0.003267 127373.000000 0 1 0
22.243833 4.821623 0.139987 22.760838 0.213460 1.564646 0.046531 -0.003977 322487.000000 0 1 0
22.224133 3.491923 0.691187 22.507406 0.155849 1.540082 0.046171 -0.002293 440502.000000 0 1 0
23.420433 2.819223 0.382687 23.592608 0.119798 1.554575 0.064291 -0.001677 74394.300000 0 1 0
23.153233 1.325723 0.629987 23.199712 0.057196 1.543638 0.068404 -0.007595 -84659.500000 0 1 0
22.181833 0.771823 -0.224913 22.196396 0.034781 1.580929 0.044716 -0.016496 331540.000000 0 1 0
22.492033 -0.552477 -0.680213 22.509097 -0.024558 1.601020 0.060596 -0.017661 -722362.000000 0 1 0
22.167833 -1.783677 0.236987 22.240739 -0.080289 1.560141 0.070291 -0.015974 767104.000000 0 1 0
23.129233 -2.104077 1.283587 23.260184 -0.090721 1.515584 0.082529 -0.016576 528959.000000 0 1 0
24.402933 -2.489777 0.865287 24.544874 -0.101676 1.535536 0.092465 -0.018870 -120770.000000 0 1 0
25.561633 -2.042977 1.837787 25.708915 -0.079754 1.499251 0.102175 -0.020838 387816.000000 0 0 1
25.621733 -0.637777 1.915987 25.701186 -0.024887 1.496179 0.091704 -0.023007 258045.000000 0 0 1
26.541933 -0.181877 2.877087 26.698032 -0.006852 1.462823 0.094940 -0.023967 -182281.000000 0 0 1
26.282633 1.262323 3.256687 26.513699 0.047992 1.447655 0.094842 -0.015826 -18529.500000 0 0 1
26.462233 2.251223 2.211087 26.649703 0.084869 1.487732 0.094555 -0.013540 1105920.000000 0 0 1
27.800873 2.660023 1.843687 27.988630 0.095391 1.504876 0.102727 -0.014324 842005.000000 0 0 1
27.711943 3.905223 0.870087 27.999278 0.140000 1.539716 0.094700 -0.015417 -420657.000000 0 0 1
27.185033 3.515123 -0.384413 27.414045 0.128590 1.584819 0.103639 -0.008428 16479.800000 0 0 1
27.752063 4.097123 -1.496613 28.092762 0.146574 1.624096 0.109486 -0.004117 852506.000000 0 0 1
29.230123 3.609623 -1.819213 29.508287 0.122868 1.632486 0.098920 -0.005132 1018210.000000 0 0 1
30.224123 4.024223 -0.894413 30.503966 0.132368 1.600122 0.094936 -0.015108 288776.000000 0 0 1
31.494813 3.499223 -1.265613 31.713870 0.110651 1.610714 0.080788 -0.022140 585676.000000 0 0 1
32.656183 3.908323 -0.307113 32.890661 0.119114 1.580134 0.058611 -0.029441 142281.000000 0 0 1
32.647973 3.189523 0.920887 32.816326 0.097385 1.542731 0.063042 -0.027071 304926.000000 0 0 1
31.986253 3.938823 1.916587 32.284795 0.122524 1.511396 0.066047 -0.014840 -43934.100000 0 0 1
31.995923 3.139123 3.275287 32.315951 0.097797 1.469270 0.070274 -0.016592 -740183.000000 0 0 1
31.035573 2.142023 3.230487 31.276686 0.068909 1.467324 0.080241 -0.019703 -193869.000000 0 0 1
31.171953 1.124823 4.213987 31.475603 0.036069 1.436512 0.081725 -0.021060 -74865.500000 0 0 1
32.397523 0.166323 4.143687 32.661863 0.005134 1.443587 0.094299 -0.012984 144220.000000 0 0 1
33.630283 0.800523 4.386087 33.924542 0.023799 1.441144 0.090033 -0.028740 -117880.000000 0 0 1
34.688573 -0.057877 4.055187 34.924848 -0.001668 1.454422 0.085486 -0.033951 471254.000000 0 0 1
36.152243 0.478523 4.307987 36.411158 0.013236 1.452204 0.107185 -0.039595 977684.000000 0 0 1
-35.684075 1.587123 3.527687 35.893130 -0.044448 1.472354 0.092867 -0.042004 268143.000000 0 0 1
-35.442315 1.328623 2.155587 35.532654 -0.037469 1.510094 0.107450 -0.038753 -807116.000000 0 0 1
-35.189073 2.583123 1.251987 35.305961 -0.073276 1.535328 0.102217 -0.042031 18320.000000 0 0 1
-33.982053 3.255523 1.546787 34.172663 -0.095510 1.525517 0.109824 -0.049630 -1020270.000000 0 0 1
-32.986653 2.764923 0.789987 33.111753 -0.083624 1.546936 0.130131 -0.042268 -2174690.000000 0 0 1
-31.643753 3.456623 1.069287 31.849941 -0.108804 1.537217 0.121214 -0.032760 -438437.000000 0 0 1
-31.221703 3.101623 2.385187 31.465917 -0.099017 1.494921 0.122014 -0.035385 298468.000000 0 0 1
-30.338033 4.064523 2.960987 30.751976 -0.133181 1.474361 0.123361 -0.021991 -584170.000000 0 0 1
-30.651083 4.357823 4.424187 31.273838 -0.141229 1.428854 0.128625 -0.027130 183727.000000 0 0 1
-31.924923 4.895523 4.774187 32.649039 -0.152160 1.424043 0.121430 -0.012691 1126720.000000 0 0 1
-33.049363 4.001123 4.717587 33.623281 -0.120479 1.430025 0.115965 -0.021188 54018.800000 0 0 1
-33.239273 3.045423 5.981387 33.910188 -0.091366 1.393480 0.107737 -0.018885 -556737.000000 0 0 1
-33.638143 3.744923 7.120287 34.586813 -0.110873 1.363447 0.104405 -0.004332 153717.000000 0 0 1
-33.568353 3.137423 8.375087 34.739313 -0.093193 1.327314 0.100973 -0.006120 1030540.000000 0 0 1
-34.716555 2.098923 8.889987 35.898141 -0.060385 1.320548 0.083134 -0.009388 1028370.000000 0 0 1
-34.587783 0.901323 8.156887 35.548023 -0.026053 1.339272 0.086007 -0.017574 -12891.900000 0 0 1
-35.278189 -0.222477 8.625687 36.318075 0.006306 1.331001 0.077452 -0.013662 -231950.000000 0 0 1
-34.817977 -0.857077 10.003787 36.236747 0.024611 1.291096 0.081839 -0.004765 -338221.000000 0 0 1
-33.637543 -1.585077 9.825087 35.078898 0.047087 1.286913 0.083640 -0.011140 -269334.000000 0 0 1
-33.380063 -2.403977 10.959487 35.215310 0.071894 1.254326 0.066732 -0.007389 -575593.000000 0 0 1
-32.319853 -3.462677 10.704087 34.221930 0.106731 1.252673 0.085881 -0.007338 -305483.000000 0 0 1
-32.677103 -4.344277 9.642987 34.346077 0.132171 1.286211 0.066517 -0.013050 -41441.200000 0 0 1
-31.552153 -5.119477 9.345387 33.302908 0.160853 1.286359 0.055493 -0.021763 -65248.000000 0 0 1
-31.830733 -6.235777 8.324087 33.486877 0.193454 1.319585 0.046479 -0.007993 -42500.800000 0 0 1
-32.571073 -7.303077 8.856687 34.534774 0.220572 1.311441 0.060132 -0.007385 -113245.000000 0 0 1
-32.555513 -8.453877 8.010987 34.576081 0.254064 1.336980 0.056247 -0.000382 -460742.000000 0 0 1
-33.558673 -9.523677 8.382887 35.876981 0.276521 1.334960 0.058510 -0.000720 -1398920.000000 0 0 1
-34.839112 -9.041377 8.333287 36.945283 0.253917 1.343281 0.067967 -0.003510 -876386.000000 0 0 1
-35.776884 -10.113277 8.472787 38.132033 0.275489 1.346730 0.066970 -0.012055 149634.000000 0 0 1
7.848077 -23.765077 10.966487 27.324623 -1.251836 1.157816 0.098261 -0.021969 -164888.000000 0 0 1
7.372677 -24.368777 9.769587 27.269736 -1.277005 1.204396 0.090405 -0.019274 186613.000000 0 0 1
6.120477 -24.979877 10.083387 27.624793 -1.330514 1.197150 0.083907 -0.022055 595983.000000 0 0 1
5.672777 -26.040137 9.050487 28.145700 -1.356300 1.243421 0.067631 -0.010110 2720.490000 0 0 1
5.069077 -25.570257 7.873587 27.230993 -1.375093 1.277467 0.070036 -0.008278 -252368.000000 0 0 1
4.989077 -26.550007 6.876887 27.876250 -1.385050 1.321530 0.057756 -0.005003 -153127.000000 0 0 1
4.326177 -25.994327 5.594987 26.939278 -1.405880 1.361585 0.057803 -0.006743 1037170.000000 0 0 1
2.905377 -25.758977 5.580187 26.516120 -1.458480 1.358766 0.050942 -0.012285 571784.000000 0 0 1
2.219277 -26.795517 4.894487 27.329122 -1.488162 1.390731 0.040989 -0.007984 397476.000000 0 0 1
0.670877 -26.608497 4.936987 27.070944 -1.545589 1.387398 0.053576 -0.013983 543643.000000 0 0 1
0.183877 -26.789167 6.273687 27.514586 -1.563933 1.340760 0.044526 -0.007205 840730.000000 0 0 1
-1.238523 -26.647157 6.503887 27.457339 1.524351 1.331651 0.036290 -0.006405 1529150.000000 0 0 1
-1.980023 -28.015697 6.657687 28.863897 1.500238 1.338043 0.041272 -0.007291 91483.000000 0 0 1
-1.619323 -28.790677 7.822387 29.878337 1.514611 1.305901 0.040462 -0.006312 28653.100000 0 0 1
-2.355823 -29.975347 7.732187 31.046063 1.492366 1.319092 0.049688 -0.002273 9422.680000 0 0 1
-2.196423 -30.775117 9.040287 32.150566 1.499547 1.285767 0.052829 -0.001929 -35824.100000 0 0 1
-0.955123 -31.385137 9.291987 32.745688 1.540373 1.283081 0.052574 -0.005453 -304164.000000 0 0 1
-0.809723 -31.629397 10.671987 33.391102 1.545202 1.245483 0.044421 -0.003634 278649.000000 0 0 1
0.669677 -31.754777 11.111787 33.649460 -1.549710 1.234258 0.032177 -0.009369 191593.000000 0 0 1
1.285177 -32.971817 10.732287 34.698334 -1.531838 1.256337 0.028985 -0.006329 559537.000000 0 0 1
2.675977 -33.137657 11.024687 35.025832 -1.490218 1.250594 0.038750 -0.007167 800653.000000 0 0 1
3.157377 -33.500857 12.434987 35.873463 -1.476826 1.216815 0.037536 -0.005067 -531480.000000 0 0 1
2.946377 -32.430207 13.351087 35.194474 -1.480192 1.181701 0.029522 0.003919 332909.000000 0 0 1
3.443877 -32.830127 14.640387 36.111196 -1.466279 1.153352 0.024819 0.005671 -257514.000000 0 0 1
3.092477 -31.748047 15.641987 35.527084 -1.473696 1.114882 0.033638 0.008424 -206067.000000 0 0 1
3.513577 -30.465677 15.418987 34.325615 -1.455975 1.104929 0.042945 0.003430 342643.000000 0 0 1
4.878477 -30.170867 15.716087 34.366788 -1.410489 1.095834 0.037145 0.017947 166914.000000 0 0 1
5.472377 -28.994067 14.956287 33.080105 -1.384250 1.101652 0.050961 0.002937 -232153.000000 0 0 1
5.898777 -29.269227 13.637487 32.824751 -1.371925 1.142344 0.044289 0.004734 495570.000000 0 0 1
4.791477 -29.291207 12.714987 32.289378 -1.408652 1.166054 0.038789 0.008501 373213.000000 0 0 1
5.171877 -29.523897 11.199087 31.997318 -1.397380 1.213224 0.032664 -0.008310 78854.800000 0 0 1
5.472577 -30.871277 10.886287 33.188795 -1.395348 1.236599 0.027866 -0.001263 713150.000000 0 0 1
6.823277 -31.319057 11.122787 33.928702 -1.356285 1.236792 0.031165 0.000966 738430.000000 0 0 1
7.038677 -32.734337 10.562387 35.109028 -1.358997 1.265217 0.009077 0.010904 -436726.000000 0 0 1
6.520977 -33.648237 11.455587 36.138034 -1.379371 1.248237 -0.001364 0.002474 36580.500000 0 0 1
6.717277 33.651326 10.977687 36.028366 1.373772 1.261177 0.006979 -0.001046 -46309.100000 0 0 1
6.306977 32.554908 11.971387 35.254987 1.379433 1.224341 0.010076 0.001405 1230720.000000 0 0 1
4.870677 32.534198 12.170687 35.075963 1.422191 1.216446 0.015573 0.001361 1182940.000000 0 0 1
4.430877 31.215718 12.475587 33.907138 1.429794 1.194010 0.023189 0.002949 -157281.000000 0 0 1
3.320977 31.297088 13.521287 34.254369 1.465081 1.165020 0.035068 -0.005873 -359793.000000 0 0 1
3.793977 31.645378 14.771787 35.128762 1.451475 1.136796 0.037998 0.003514 -86990.200000 0 0 1
2.762177 31.600088 15.704487 35.395284 1.483608 1.111086 0.028104 0.002232 -122743.000000 0 0 1
3.335077 31.854528 17.130187 36.321853 1.466479 1.079667 0.019890 0.006593 67029.100000 0 0 1
3.666177 33.159641 17.426187 37.638739 1.460682 1.089436 0.032657 0.004548 378006.000000 0 0 1
4.371777 33.165579 18.682687 38.315935 1.439735 1.061462 0.024878 0.009765 75709.400000 0 0 1
4.686977 -34.001107 19.215687 39.335552 -1.433812 1.060419 0.030972 0.004353 253441.000000 0 0 1
3.511477 -33.258247 19.545387 38.735818 -1.465604 1.041899 0.031652 0.003918 216701.000000 0 0 1
3.810977 -32.403437 20.610587 38.591483 -1.453724 1.007388 0.032887 -0.000743 492462.000000 0 0 1
2.627677 -31.524697 21.173687 38.066209 -1.487636 0.980950 0.018869 -0.002213 307204.000000 0 0 1
1.630377 -32.370417 21.696487 39.003071 -1.520473 0.980898 0.019569 0.000673 -233082.000000 0 0 1
0.702077 -31.626987 22.476387 38.806535 -1.548601 0.953061 0.022131 -0.001767 317383.000000 0 0 1
-0.486323 -32.515577 22.979887 39.819273 1.555841 0.955617 0.023934 0.001372 -442307.000000 0 0 1
-1.386623 -32.848507 21.964287 39.539563 1.528609 0.981830 0.021738 -0.003058 -441148.000000 0 0 1
-2.221423 -33.927027 22.308887 40.665272 1.505413 0.990110 0.026865 0.001156 79628.300000 0 0 1
-3.570223 -33.497117 22.920387 40.744907 1.464614 0.973349 0.034395 0.003050 357936.000000 0 0 1
-4.628623 -33.186127 21.996487 40.082273 1.432216 0.989888 0.034340 -0.004693 245213.000000 0 0 1
-5.828723 -32.851867 22.643087 40.322805 1.395199 0.974544 0.046122 -0.004918 109255.000000 0 0 1
-7.090023 -32.590787 21.796487 39.843628 1.356587 0.991959 0.039480 -0.011771 79662.000000 0 0 1
-7.848523 -33.718067 21.480687 40.742205 1.342100 1.015454 0.029043 -0.003938 -1319280.000000 0 0 1
-8.858123 -33.429117 20.652487 40.280236 1.311767 1.032446 0.031584 -0.015007 -956966.000000 0 0 1
-9.981623 34.116621 20.607987 41.088511 -1.286167 1.045406 0.046713 -0.021380 272164.000000 0 0 1
-10.390823 33.881589 21.911587 41.665921 -1.273222 1.017038 0.055378 -0.021015 -174110.000000 0 0 1
-11.640123 33.221635 22.056687 41.541148 -1.233785 1.011063 0.051817 -0.014289 269246.000000 0 0 1
-12.043423 32.977309 23.545987 42.272455 -1.220642 0.980021 0.051375 -0.019504 -200514.000000 0 0 1
-12.396623 34.149076 24.297687 43.705987 -1.222574 0.981309 0.048468 -0.014833 247427.000000 0 0 1
-11.367323 -33.487737 24.321087 42.920390 1.243553 0.968355 0.040504 -0.009532 206802.000000 0 0 1
-11.820623 -32.091537 24.814087 42.253199 1.217877 0.943113 0.034177 -0.002253 -84188.500000 0 0 1
-12.083623 -32.108317 26.253887 43.199821 1.210852 0.917596 0.039891 0.003698 288529.000000 0 0 1
-12.780823 -30.891377 26.557787 42.695933 1.178506 0.899475 0.040383 -0.000660 189094.000000 0 0 1
-13.582623 -30.929067 27.904587 43.815075 1.156998 0.880362 0.045895 -0.002043 -38093.900000 0 0 1
-12.859823 -30.739407 29.122687 44.254007 1.174572 0.852530 0.029279 0.006798 287435.000000 0 0 1
-13.672523 -30.022167 30.026187 44.607626 1.143449 0.832380 0.035254 -0.003473 -124598.000000 0 0 1
-12.937723 -29.660017 31.328087 45.039431 1.159477 0.801583 0.029539 -0.003398 -479541.000000 0 0 1
-13.766523 -29.134777 32.349887 45.660350 1.129380 0.783441 0.030746 -0.009957 188767.000000 0 0 1
-13.160323 -28.785127 33.587787 46.151025 1.141978 0.755717 0.028424 -0.006510 -132525.000000 0 0 1
-12.445423 -29.945687 -34.140649 47.087330 1.176915 2.381903 0.035970 -0.005025 378168.000000 0 0 1
-11.144823 -30.338607 33.942787 46.869510 1.218751 0.760926 0.032922 -0.003176 185715.000000 0 0 1
-10.698323 -31.415897 -33.760649 47.341252 1.242575 2.364755 0.042837 -0.002581 15311.400000 0 0 1
-9.184223 -31.721927 -33.861449 47.299348 1.288979 2.368704 0.044568 -0.014086 -377003.000000 0 0 1
-8.458823 -30.993267 -32.946649 46.017562 1.304361 2.368792 0.046186 -0.015346 -1049340.000000 0 0 1
-7.129123 -31.423607 -33.076049 46.176753 1.347701 2.369271 0.057715 -0.025964 -80761.100000 0 0 1
-6.172523 -30.473337 -32.295649 44.830049 1.370945 2.375178 0.052423 -0.022233 -97209.400000 0 0 1
-6.559823 -30.501517 -30.939149 43.938648 1.358958 2.352014 0.064777 -0.027218 490535.000000 0 0 1
-5.595623 -29.983447 -29.989249 42.774679 1.386295 2.347733 0.055202 -0.020713 459411.000000 0 0 1
-6.111223 -30.102997 -28.554749 41.939375 1.370508 2.319729 0.051429 -0.025730 -183955.000000 0 0 1
-6.102223 -31.441887 -28.070849 42.588754 1.379100 2.290437 0.046347 -0.017327 138127.000000 0 0 1
-6.755423 -31.498557 -26.790249 41.898834 1.359529 2.264518 0.061928 -0.021385 -73987.000000 0 0 1
-6.436623 -32.791017 -26.028249 42.357416 1.376968 2.232537 0.057771 -0.024388 65194.600000 0 0 1
-5.260923 -32.683737 -25.262849 41.642713 1.411201 2.222645 0.030802 -0.024869 -170366.000000 0 0 1
-4.983323 -33.889877 -24.536949 42.135723 1.424798 2.192390 0.048215 -0.027679 90523.200000 0 0 1
-4.040223 -33.610247 -23.329949 41.112755 1.451162 2.174217 0.054667 -0.035931 514994.000000 0 0 1
-4.692123 -32.901557 -22.227349 39.982290 1.429141 2.160278 0.056559 -0.035003 369541.000000 0 0 1
-4.673223 -31.475247 -22.361149 38.891531 1.423400 2.183354 0.028351 -0.021812 4240.570000 0 0 1
-5.248923 -30.782317 -21.095449 37.684482 1.401903 2.164930 0.057868 -0.029637 -315086.000000 0 0 1
-6.619223 -30.996317 -20.833349 37.929068 1.360408 2.152288 0.066123 -0.035008 11772.200000 0 0 1
-7.243523 -29.868847 -20.226749 36.793179 1.332878 2.152851 0.066465 -0.038824 42770.400000 0 0 1
-7.661723 -28.729837 -21.188449 36.511038 1.310180 2.189930 0.082263 -0.043200 -570047.000000 0 0 1
-6.533723 -28.071847 -21.741049 36.102512 1.342118 2.217054 0.067122 -0.030783 -172222.000000 0 0 1
-6.819923 -27.375407 -22.955849 36.371627 1.326641 2.253828 0.088037 -0.041021 -180782.000000 0 0 1
-5.741823 -27.700837 -24.045449 37.128002 1.366411 2.275275 0.070027 -0.031739 983401.000000 0 0 1
-4.404823 -27.257007 -23.946449 36.548315 1.410578 2.285243 0.067440 -0.023757 567927.000000 0 0 1
-3.652123 -27.690477 -22.774149 36.038346 1.439662 2.254853 0.043743 -0.026284 -1011770.000000 0 0 1
-2.153623 -27.420877 -22.723149 35.677501 1.492418 2.261272 0.049515 -0.026215 -525768.000000 0 0 1
-1.800223 -26.077867 -22.977649 34.803280 1.501873 2.291901 0.057129 -0.027420 5845.160000 0 0 1
-2.171923 -25.132867 -21.940349 33.432876 1.484593 2.286635 0.058057 -0.030796 -504642.000000 0 0 1
-1.936423 -23.646577 -22.346649 32.592684 1.489088 2.326270 0.059690 -0.023084 150624.000000 0 0 1
-2.631423 -23.098677 -23.509049 33.062799 1.457364 2.361776 0.064580 -0.025858 18208.600000 0 0 1
-3.998723 -22.869277 -23.272749 32.872701 1.397695 2.357410 0.059159 -0.023375 -621943.000000 0 0 1
-4.918823 -22.950777 -24.483649 33.917283 1.359670 2.377288 0.047614 -0.019535 -233346.000000 0 0 1
-4.975923 -21.771377 -25.258949 33.715978 1.346102 2.417602 0.066381 -0.013186 74625.000000 0 0 1
-5.406323 -22.169177 -26.540949 35.001753 1.331598 2.431459 0.075470 -0.014385 125249.000000 0 0 1
-5.176223 -21.033077 -27.540049 35.037664 1.329492 2.475129 0.076764 -0.015158 170135.000000 0 0 1
-5.807023 -21.048777 -28.820049 36.157541 1.301608 2.493222 0.084211 -0.015682 14652.900000 0 0 1
-5.130723 -21.856777 -29.732349 37.256618 1.340228 2.494835 0.081253 -0.014825 -319050.000000 0 0 1
-5.973623 -22.116877 -30.950949 38.507164 1.306997 2.504403 0.084608 -0.020194 -398133.000000 0 0 1
-5.961123 -21.023177 -31.764549 38.555097 1.294499 2.539009 0.090501 -0.025698 267107.000000 0 0 1
-6.993023 -21.196877 -32.734549 39.620205 1.252132 2.543140 0.084231 -0.025719 104979.000000 0 0 1
-6.957423 -20.191177 -33.908749 40.073590 1.238960 2.579538 0.081174 -0.029551 -287099.000000 0 0 1
-5.916823 -20.645377 33.788287 40.036093 1.291684 0.566200 0.075417 -0.027657 -765570.000000 0 0 1
-5.816323 -19.870177 32.639387 38.652078 1.286035 0.565276 0.076437 -0.019338 353402.000000 0 0 1
-4.559523 -20.082077 31.755587 37.848334 1.347537 0.575313 0.049257 -0.017147 -972298.000000 0 0 1
-4.689423 -21.401077 31.234187 38.151949 1.355085 0.611690 0.046461 -0.019711 -308495.000000 0 0 1
-3.699023 -21.787477 30.333987 37.530357 1.402622 0.629619 0.039346 -0.024919 389812.000000 0 0 1
-2.244723 -21.888577 30.936687 37.963498 1.468601 0.618229 0.030913 -0.023627 -114130.000000 0 0 1
-1.601323 -20.642177 30.917087 37.209273 1.493376 0.590078 0.033968 -0.023211 -1094280.000000 0 0 1
-0.474123 -20.492677 31.682487 37.735323 1.547664 0.574254 0.046034 -0.019070 -810892.000000 0 0 1
-0.713623 -20.150877 33.159087 38.808403 1.535397 0.546342 0.031743 -0.021850 -245772.000000 0 0 1
-1.439423 -18.934577 33.267487 38.305559 1.494921 0.518675 0.021534 -0.020218 4141.130000 0 0 1
-1.656123 -18.627277 -33.832149 38.656597 1.482121 2.636640 0.025070 -0.024647 -421573.000000 0 0 1
-2.624923 -17.499777 -33.612449 37.985907 1.421909 2.657003 0.024924 -0.034601 -86531.900000 0 0 1
-2.210523 -16.201477 -34.053649 37.775988 1.435194 2.693934 0.051139 -0.035125 245185.000000 0 0 1
-3.288423 -15.401777 -33.611449 37.118162 1.360445 2.703413 0.056327 -0.036223 330668.000000 0 0 1
-3.005923 -13.870777 -33.795249 36.654507 1.357387 2.743996 0.051256 -0.041178 42666.300000 0 0 1
-2.019523 -13.330977 -32.919149 35.573358 1.420449 2.752854 0.054142 -0.032386 111568.000000 0 0 1
-1.811723 -11.950077 -33.062449 35.202446 1.420334 2.791115 0.047442 -0.028529 -15316.700000 0 0 1
-1.229923 -11.289977 34.116287 35.956882 1.462285 0.321346 0.038564 -0.026978 -445268.000000 0 0 1
-2.127623 -11.346277 33.050887 35.008941 1.385432 0.336034 0.041815 -0.024391 -260701.000000 0 0 1
-1.640623 -10.910377 31.831787 33.689622 1.421542 0.333647 0.038673 -0.016754 -175148.000000 0 0 1
-0.805723 -11.941477 31.037187 33.264922 1.503426 0.368051 0.031925 -0.018711 272874.000000 0 0 1
-1.597823 -12.980977 30.538487 33.221348 1.448323 0.404643 0.048035 -0.020520 209497.000000 0 0 1
-0.689823 -13.996877 30.215087 33.306755 1.521552 0.434274 0.043620 -0.026124 -27323.000000 0 0 1
-1.111923 -15.436577 30.622087 34.310880 1.498889 0.467963 0.038402 -0.027590 388313.000000 0 0 1
-2.080523 -16.049677 29.756587 33.872927 1.441885 0.498131 0.048083 -0.029061 584589.000000 0 0 1
-2.320123 -17.347377 30.150487 34.862105 1.437840 0.525945 0.041567 -0.022558 -192766.000000 0 0 1
-2.778323 -18.317277 29.000087 34.412887 1.420266 0.568499 0.044389 -0.024958 -473394.000000 0 0 1
-4.084023 -18.010777 28.581087 34.028604 1.347813 0.573672 0.046895 -0.019156 -300991.000000 0 0 1
-4.683823 -18.993377 27.794887 33.988856 1.329017 0.613280 0.045433 -0.017675 74495.400000 0 0 1
-4.081423 -19.212877 26.342287 32.858922 1.361476 0.640699 0.034547 -0.020856 -370633.000000 0 0 1
-4.883323 -20.030877 25.498787 32.791325 1.331671 0.679944 0.041834 -0.015718 -155450.000000 0 0 1
-4.783923 -21.425577 25.640987 33.755022 1.351119 0.708068 0.036840 -0.021474 -55713.900000 0 0 1
-29.035943 -34.224782 -0.472613 44.884798 0.867238 1.581326 0.017902 0.005581 78931.400000 0 0 1
-28.501153 -32.896282 -0.398313 43.527460 0.856861 1.579947 0.025069 0.004081 171149.000000 0 0 1
-28.836223 -32.437082 0.929387 43.411471 0.844098 1.549386 0.019396 0.008538 10389.800000 0 0 1
-28.334023 -31.051982 1.380287 42.058859 0.831134 1.537972 0.035065 -0.000922 -208616.000000 0 0 1
-26.947143 -31.028282 1.602887 41.127510 0.855677 1.531813 0.038591 -0.006748 -475462.000000 0 0 1
-26.536743 -29.721682 2.055587 39.897401 0.841950 1.519252 0.056868 -0.020214 185505.000000 0 0 1
-25.020523 -29.430982 1.953387 38.678483 0.866220 1.520272 0.059782 -0.012163 -173447.000000 0 0 1
-24.396923 -30.245182 2.916087 38.967736 0.892021 1.495893 0.046645 -0.001032 357369.000000 0 0 1
-23.013023 -29.859582 2.976787 37.816070 0.914173 1.491997 0.037182 0.000680 682666.000000 0 0 1
-22.256323 -30.599882 4.146787 38.064321 0.941960 1.461638 0.031745 -0.007313 -217605.000000 0 0 1
-22.648623 -30.200782 5.429487 38.138258 0.927337 1.427948 0.021271 0.001685 -36786.500000 0 0 1
-21.904123 -30.889482 6.399987 38.404564 0.953981 1.403369 0.021655 0.009830 -84738.800000 0 0 1
-22.428523 -30.725582 7.875187 38.847376 0.940243 1.366660 0.002471 0.026883 -194392.000000 0 0 1
-22.072423 -29.488182 8.531387 37.809117 0.928245 1.343193 0.004877 0.015372 302762.000000 0 0 1
-22.682223 -29.276382 9.812487 38.312853 0.911635 1.311796 -0.015111 0.014892 -280490.000000 0 0 1
-22.277323 -28.020682 10.501387 37.305722 0.899092 1.285444 0.017608 0.012636 227670.000000 0 0 1
-20.918123 -28.073382 10.896087 36.666161 0.930424 1.269069 0.009710 0.008249 39306.700000 0 0 1
-20.521923 -26.935082 11.668287 35.816154 0.919721 1.238957 0.027105 0.004147 271467.000000 0 0 1
-19.215723 -27.139082 12.480987 35.518289 0.954691 1.211734 0.026905 0.002579 101589.000000 0 0 1
-19.202223 -28.123982 13.495587 36.630788 0.971728 1.193485 0.023883 0.004376 -559979.000000 0 0 1
-17.915223 -28.194082 14.042487 36.236072 1.004736 1.172848 0.038705 -0.000307 -234577.000000 0 0 1
-17.766623 -29.312382 15.116887 37.461833 1.025894 1.155427 0.041889 -0.003536 -63803.700000 0 0 1
-17.943623 -30.635882 14.615687 38.394651 1.040953 1.180276 0.038067 0.001222 8610.020000 0 0 1
-17.518223 -31.642782 15.580187 39.381417 1.065175 1.164050 0.056120 0.002027 187583.000000 0 0 1
-17.864323 -33.071382 15.105387 40.509543 1.075528 1.188680 0.046252 0.001755 107777.000000 0 0 1
-17.522823 -34.174082 15.934887 41.579296 1.096999 1.177494 0.057192 0.007120 -657.729000 0 0 1
-17.537623 33.204523 15.256187 40.532207 -1.084868 1.184892 0.046484 0.001546 58638.600000 0 0 1
-17.352423 31.953823 16.184287 39.800560 -1.073307 1.152029 0.058524 -0.003794 924572.000000 0 0 1
-18.499723 31.687223 17.031387 40.452293 -1.042357 1.136222 0.055047 -0.008806 837511.000000 0 0 1
-18.407623 30.492823 17.704187 39.775509 -1.027682 1.109507 0.044776 -0.006410 100982.000000 0 0 1
-19.166023 30.512023 19.039187 40.753044 -1.009937 1.084693 0.042424 -0.012761 88700.300000 0 0 1
-18.508023 31.403223 19.968987 41.562841 -1.038232 1.069625 0.047669 -0.012792 202084.000000 0 0 1
-19.288923 31.891123 21.071587 42.814928 -1.026828 1.056233 0.041949 -0.015357 -35594.600000 0 0 1
-18.592723 32.920323 21.996487 43.741084 -1.056677 1.043870 0.026608 -0.002491 -100698.000000 0 0 1
-17.632223 32.389023 22.859787 43.387947 -1.072271 1.015883 0.023665 -0.011769 -586449.000000 0 0 1
-17.490423 33.008123 24.137587 44.475546 -1.083530 0.997129 0.018985 -0.010007 -1449.410000 0 0 1
-18.503323 32.567723 25.242087 45.168490 -1.054126 0.977807 0.016382 -0.003197 1069490.000000 0 0 1
-19.857423 32.961223 24.926787 45.848710 -1.028579 0.995987 0.025372 -0.003662 392597.000000 0 0 1
-20.740223 32.270223 25.757887 46.205983 -0.999567 0.979476 0.012592 -0.002909 -110650.000000 0 0 1
-22.224623 32.489223 25.377987 46.835091 -0.970848 0.998150 0.016351 -0.012924 -243708.000000 0 0 1
-22.500323 31.881323 24.134187 45.881830 -0.956220 1.016897 0.024534 -0.001847 105876.000000 0 0 1
-23.719223 32.221923 23.514087 46.408686 -0.936237 1.039473 0.022448 -0.004267 -83965.700000 0 0 1
-23.839323 31.767623 22.085487 45.445175 -0.927021 1.063311 0.024527 -0.012243 -177298.000000 0 0 1
-23.151623 32.555123 21.142987 45.198004 -0.952625 1.084012 0.026217 -0.018771 -78346.600000 0 0 1
-23.191523 32.055523 19.832487 44.257551 -0.944485 1.106140 0.006481 -0.003902 -115123.000000 0 0 1
-22.657323 33.099623 18.901587 44.341959 -0.970536 1.130432 0.012447 -0.000603 74699.600000 0 0 1
-21.276423 33.405323 19.030087 43.940255 -1.003673 1.122878 0.019464 0.002608 50297.500000 0 0 1
-20.808323 34.215023 17.984087 43.898536 -1.024396 1.148700 0.037610 0.008799 -397879.000000 0 0 1
-19.653723 -33.568082 18.500987 43.074023 1.041115 1.126839 0.047485 0.001645 -341166.000000 0 0 1
-20.011723 -32.544582 19.419387 42.857105 1.019492 1.100535 0.051072 -0.009207 592242.000000 0 0 1
-18.794623 -31.925182 19.831987 42.020981 1.038721 1.079290 0.041244 -0.008390 321619.000000 0 0 1
-18.931823 -30.949982 21.000887 41.920789 1.021825 1.046082 0.040755 -0.003978 -73090.600000 0 0 1
-19.424723 -29.670082 20.668987 41.046811 0.991131 1.043097 0.058682 -0.005916 169628.000000 0 0 1
-19.981223 -28.972382 21.768087 41.382337 0.967041 1.016878 0.059426 0.001152 94004.500000 0 0 1
-20.931123 -27.816582 21.355387 40.840259 0.925717 1.020546 0.061238 -0.011237 -360982.000000 0 0 1
-20.249123 -26.738582 20.730187 39.429931 0.922640 1.017203 0.058171 -0.002364 -13671.900000 0 0 1
-20.953823 -25.581782 20.354487 38.830342 0.884522 1.019032 0.058512 0.013140 229302.000000 0 0 1
-22.055923 -25.676682 19.220887 38.925548 0.861108 1.054358 0.056648 0.008398 809307.000000 0 0 1
-23.344623 -26.098882 19.632487 40.144210 0.841046 1.059797 0.054116 0.006701 479069.000000 0 0 1
-24.233023 -26.219382 18.510287 40.215994 0.824749 1.092495 0.047446 0.005897 -24128.100000 0 0 1
-25.679903 -26.557382 18.901887 41.497389 0.802195 1.097867 0.033821 0.005696 -81561.700000 0 0 1
-25.838483 -27.814882 19.544687 42.699996 0.822218 1.095366 0.026501 0.003514 -118981.000000 0 0 1
-26.011883 -28.893282 18.648187 43.118380 0.837830 1.123546 0.030086 0.003979 554431.000000 0 0 1
-27.136583 -29.935182 19.077887 44.681932 0.834395 1.129656 0.042473 -0.007403 2108110.000000 0 0 1
-28.525693 -29.531182 19.138687 45.300058 0.802715 1.134609 0.025741 -0.004025 1413490.000000 0 0 1
-29.279243 -29.774682 17.927887 45.444636 0.793788 1.165273 0.023177 0.000514 1248190.000000 0 0 1
-30.763813 -29.236082 17.996987 46.098289 0.759941 1.169725 0.017800 -0.000193 1008290.000000 0 0 1
-30.940603 -27.823382 17.970987 45.325687 0.732401 1.163111 0.028247 0.002041 -643485.000000 0 0 1
-32.289423 -27.500582 18.122187 46.122690 0.705474 1.167000 0.012828 0.024853 -555262.000000 0 0 1
-32.716293 -26.188982 17.381287 45.368797 0.675038 1.177634 0.029475 0.003953 -381367.000000 0 0 1
-32.994273 -26.318782 15.973987 45.127249 0.673323 1.208977 0.050309 -0.013142 463096.000000 0 0 1
-33.532253 -25.104082 15.408887 44.632508 0.642640 1.218303 0.054276 -0.016079 152225.000000 0 0 1
-32.427463 -24.083182 15.021187 43.094966 0.638799 1.214762 0.041773 -0.013403 425177.000000 0 0 1
-31.829873 -23.398282 16.182287 42.690594 0.633900 1.182016 0.037792 -0.002846 318352.000000 0 0 1
-31.556113 -21.988682 15.958987 41.641082 0.608583 1.177483 0.035951 -0.003299 -70612.500000 0 0 1
-32.786173 -21.049482 15.857987 42.065302 0.570747 1.184257 0.051661 -0.013897 68205.600000 0 0 1
-33.297283 -20.728382 17.126887 42.798425 0.556817 1.159088 0.063952 -0.014632 159495.000000 0 0 1
-34.387821 -19.829982 17.035387 43.196700 0.523079 1.165417 0.091504 -0.026148 23806.200000 0 0 1
-34.899973 -19.320282 18.412987 43.935402 0.505595 1.138351 0.066008 -0.011863 -751452.000000 0 0 1
-35.697684 -20.220782 19.047987 45.233069 0.515381 1.136130 0.075787 -0.010982 -437267.000000 0 0 1
-35.900339 -19.845682 20.373987 45.801581 0.504990 1.109810 0.071136 -0.002014 -643606.000000 0 0 1
34.975733 -20.027182 20.907587 45.403933 -0.520030 1.092261 0.066636 0.008500 -421161.000000 0 0 1
34.515183 -21.320382 21.193287 45.771301 -0.553340 1.089391 0.061225 0.002087 -139546.000000 0 0 1
35.304623 -22.089382 22.070487 47.132405 -0.559088 1.083469 0.035864 0.011515 -641467.000000 0 0 1
34.662653 -23.418982 22.451787 47.476636 -0.594179 1.078215 0.042452 0.019323 -107974.000000 0 0 1
33.628703 -23.192582 23.396987 47.076582 -0.603757 1.050660 0.049595 0.008667 31112.900000 0 0 1
33.498883 -24.319282 24.245287 47.973290 -0.627946 1.040961 0.046420 -0.004520 -862149.000000 0 0 1
32.578413 -24.227382 25.439587 47.911289 -0.639434 1.011048 0.047817 -0.007297 749470.000000 0 0 1
31.215413 -24.615482 25.157887 47.045119 -0.667731 1.006572 0.058638 -0.002429 425250.000000 0 0 1
30.389173 -24.543482 26.242187 47.058864 -0.679382 0.979249 0.020844 -0.000096 -1332560.000000 0 0 1
29.021273 -25.117182 25.975687 46.344832 -0.713410 0.975822 0.026802 -0.004606 -727328.000000 0 0 1
28.070183 -24.121182 25.571787 44.985363 -0.709878 0.966180 0.035965 0.004729 428158.000000 0 0 1
26.878333 -24.784282 25.145887 44.373653 -0.744887 0.968319 0.035504 0.010663 42854.700000 0 0 1
25.736933 -23.853882 24.758687 42.946362 -0.747445 0.956354 0.037440 0.008491 -578914.000000 0 0 1
25.702833 -23.241882 23.462487 41.848644 -0.735160 0.975624 0.034851 0.017118 309541.000000 0 0 1
26.759933 -22.311282 23.177187 41.845780 -0.694988 0.983789 0.033547 0.021669 462904.000000 0 0 1
26.691333 -21.785682 21.767087 40.753519 -0.684546 1.007335 0.035887 0.012516 148864.000000 0 0 1
25.841933 -20.670982 21.741987 39.595568 -0.674680 0.989508 0.025384 0.012405 -103980.000000 0 0 1
25.852133 -20.082682 20.434987 38.590615 -0.660452 1.012747 0.013042 0.007460 531873.000000 0 0 1
25.072233 -18.666582 20.374187 37.311736 -0.639980 0.993151 0.005793 0.014911 498293.000000 0 0 1
25.697033 -17.573282 21.030287 37.569013 -0.599814 0.976679 0.010894 0.001730 177144.000000 0 0 1
25.620633 -17.713682 22.436887 38.387567 -0.604920 0.946553 0.012186 0.010813 -69433.800000 0 0 1
25.846433 -16.324382 23.077487 38.302662 -0.563325 0.924162 0.030159 0.007114 -581448.000000 0 0 1
24.734933 -15.479582 23.066887 37.195640 -0.559188 0.901862 0.013890 0.003781 -232932.000000 0 0 1
25.089033 -14.316982 23.749487 37.396172 -0.518557 0.882687 0.025469 0.004381 407937.000000 0 0 1
23.844133 -13.419182 23.917487 36.340932 -0.512608 0.852448 0.027538 0.000840 407007.000000 0 0 1
22.824433 -13.898082 24.750287 36.423730 -0.546947 0.823702 0.032237 0.002415 291616.000000 0 0 1
21.563133 -13.284982 24.483687 35.226558 -0.552172 0.802328 0.033630 -0.003495 1383630.000000 0 0 1
20.240233 -13.940982 25.027087 35.076675 -0.603153 0.776320 0.037801 0.004047 683644.000000 0 0 1
19.909033 -15.062682 24.230587 34.790449 -0.647696 0.800327 0.043548 0.000314 52364.900000 0 0 1
18.522133 -15.301782 24.356387 34.211804 -0.690475 0.778555 0.060514 -0.002763 99730.400000 0 0 1
17.881333 -16.416182 23.536587 33.811300 -0.742705 0.800823 0.072347 -0.011161 -119416.000000 0 0 1
18.513733 -17.647482 23.820387 34.951434 -0.761448 0.820947 0.042918 -0.005435 283083.000000 0 0 1
18.017233 -18.721282 22.983087 34.689038 -0.804560 0.846583 0.058892 -0.011759 48660.400000 0 0 1
18.369433 -20.117182 23.478187 35.963347 -0.830779 0.859473 0.029985 -0.011681 78522.000000 0 0 1
17.455233 -20.571782 24.501787 36.444766 -0.867172 0.833486 0.023898 -0.011518 630238.000000 0 0 1
17.600933 -21.948882 24.744287 37.467666 -0.894894 0.849422 0.037008 -0.009628 -264917.000000 0 0 1
17.149233 -22.989282 23.656387 37.178326 -0.929882 0.881110 0.020242 -0.009241 -391751.000000 0 0 1
17.989033 -23.029882 22.555087 36.914939 -0.907676 0.913471 0.020123 -0.002810 302941.000000 0 0 1
19.014033 -24.032382 22.769687 38.177840 -0.901454 0.931774 0.027858 0.002154 331872.000000 0 0 1
20.059633 -24.362982 21.696787 38.297446 -0.881970 0.968503 0.024557 0.015321 -225696.000000 0 0 1
19.559433 -25.062082 20.565487 37.863157 -0.908097 0.996609 0.020634 0.002103 574007.000000 0 0 1
20.559233 -25.298582 19.557787 38.015883 -0.888381 1.030414 0.018189 -0.001409 -174281.000000 0 0 1
19.913333 -25.756082 18.279787 37.337209 -0.912643 1.059181 0.021273 -0.008633 -73931.100000 0 0 1
19.247233 -26.981182 18.460287 37.937084 -0.951162 1.062600 0.032202 -0.014994 430583.000000 0 0 1
18.437133 -27.493582 17.384287 37.390351 -0.980077 1.087229 0.046279 -0.017707 332162.000000 0 0 1
17.771333 -28.875382 17.752487 38.272167 -1.019094 1.088462 0.042362 -0.015444 549175.000000 0 0 1
16.669133 -28.691282 18.639187 38.058757 -1.044478 1.058996 0.052761 -0.020060 293856.000000 0 0 1
15.986433 -29.912082 18.968987 38.860277 -1.079972 1.060847 0.064139 -0.020187 -48202.000000 0 0 1
14.815833 -29.619882 19.904387 38.639759 -1.106990 1.029640 0.059782 -0.018293 -26549.900000 0 0 1
13.737833 -28.973782 19.234787 37.392314 -1.128044 1.030483 0.058627 -0.026804 -446055.000000 0 0 1
12.710833 -28.662982 20.133687 37.262544 -1.153396 0.999979 0.038469 -0.022917 -786635.000000 0 0 1
11.568133 -27.958782 19.432187 35.960049 -1.178487 0.999904 0.044488 -0.024587 -803356.000000 0 0 1
11.100033 -28.860282 18.498187 36.032063 -1.203625 1.031676 0.039047 -0.020450 140725.000000 0 0 1
10.271733 -28.264582 17.464787 34.776629 -1.222222 1.044657 0.057012 -0.012190 451713.000000 0 0 1
10.329633 -29.151282 16.173987 34.901238 -1.230255 1.088944 0.037929 -0.009563 -103.377000 0 0 1
9.436233 -30.223082 16.350287 35.634381 -1.268167 1.094113 0.045221 -0.009525 13113.300000 0 0 1
9.373533 -30.913782 15.084587 35.652066 -1.276392 1.133926 0.028975 0.002550 366119.000000 0 0 1
8.127733 -31.833682 14.848187 36.054293 -1.320818 1.146337 0.018828 0.008809 259070.000000 0 0 1
8.070733 -32.947782 15.656787 37.360782 -1.330571 1.138375 0.022130 0.002632 -521871.000000 0 0 1
7.157233 -33.847182 15.114487 37.753218 -1.362409 1.158898 0.003966 0.006676 -413193.000000 0 0 1
7.028233 33.603323 16.073287 37.906859 1.364616 1.132916 0.028614 0.000725 469486.000000 0 0 1
8.096533 32.635923 16.109187 37.284893 1.327619 1.124024 0.028229 -0.001331 335936.000000 0 0 1
7.940833 31.695123 17.189087 36.920216 1.325311 1.086513 0.033087 -0.009783 288107.000000 0 0 1
9.262033 30.897823 17.359587 36.630806 1.279557 1.077074 0.050840 -0.018544 310169.000000 0 0 1
9.511733 29.944623 16.321887 35.405614 1.263232 1.091678 0.045797 -0.015350 -212395.000000 0 0 1
10.708833 29.252423 16.632987 35.313448 1.219866 1.080361 0.053791 -0.014370 157633.000000 0 0 1
11.367833 28.676523 15.322687 34.443509 1.193383 1.109774 0.039341 -0.011822 147134.000000 0 0 1
10.570733 27.786223 14.563187 33.104395 1.207273 1.115290 0.041760 -0.013310 -93273.200000 0 0 1
11.349933 27.265523 13.518687 32.480527 1.176340 1.141524 0.034152 -0.004396 88995.100000 0 0 1
-9.357523 -9.348477 19.339023 23.429790 0.784915 0.599880 0.032454 -0.018324 56842.100000 0 1 0
-9.593523 -9.619877 17.982323 22.537561 0.786770 0.647022 0.026535 -0.019166 26153.000000 0 1 0
-9.486323 -10.969277 17.681723 22.868290 0.857768 0.686927 0.030649 -0.020068 48193.500000 0 1 0
-9.713823 -11.281277 16.176023 21.983842 0.859918 0.743928 0.037539 -0.020010 -276577.000000 0 1 0
-11.039223 -10.943977 15.859023 22.206839 0.781066 0.775387 0.031864 -0.026809 -23206.200000 0 1 0
-11.528423 -11.235977 14.563623 21.708313 0.772552 0.835405 0.041345 -0.031718 96996.700000 0 1 0
-11.636023 -12.753577 14.149323 22.321606 0.831187 0.884231 0.031782 -0.037291 201903.000000 0 1 0
-10.342923 -13.306377 13.825123 21.798389 0.910057 0.883788 0.034939 -0.035557 1006830.000000 0 1 0
-10.197523 -14.742677 13.838723 22.646109 0.965662 0.913364 0.041127 -0.031927 -265979.000000 0 1 0
-9.928023 -15.345277 15.256323 23.807532 0.996550 0.875231 0.050228 -0.039010 -183868.000000 0 1 0
-10.971123 -15.195177 16.181423 24.760804 0.945448 0.858584 0.050825 -0.022722 -390424.000000 0 1 0
-10.468723 -14.988777 17.442023 25.268197 0.961120 0.808926 0.054775 -0.030206 -330402.000000 0 0 1
-11.551523 -14.547077 18.462223 26.189861 0.899676 0.788461 0.034288 -0.022946 -609053.000000 0 0 1
-12.131823 -13.307277 18.107423 25.537101 0.831572 0.782627 0.033622 -0.021959 73449.100000 0 0 1
-13.417423 -13.283877 17.531923 25.765422 0.780397 0.822428 0.044704 -0.036730 -41786.700000 0 0 1
-14.604423 -13.564877 18.479723 27.180788 0.748511 0.823195 0.020921 -0.022806 -497739.000000 0 0 1
-14.596623 -14.841177 19.049323 28.216992 0.793705 0.829695 0.018636 -0.017658 125518.000000 0 0 1
-15.618923 -14.852677 20.051223 29.438144 0.760257 0.821490 0.022264 -0.013930 170201.000000 0 0 1
-16.121823 -16.233377 20.432823 30.674680 0.788846 0.841810 0.023414 -0.010268 -307798.000000 0 0 1
-17.184923 -16.583477 19.579623 30.881952 0.767589 0.884062 0.029641 -0.001647 -259147.000000 0 0 1
-17.694323 -17.864077 19.900223 32.066076 0.790172 0.901288 0.016626 0.003119 159617.000000 0 0 1
-18.920723 -18.300677 19.070823 32.505459 0.768741 0.943824 0.033294 0.005359 63768.800000 0 0 1
-18.619523 -18.448377 17.678123 31.615586 0.780781 0.977426 0.040250 0.002423 -290469.000000 0 0 1
-19.193623 -17.445477 16.894923 30.954455 0.737722 0.993453 0.040929 -0.002345 -845549.000000 0 0 1
-18.798223 -17.304077 15.447723 29.856933 0.744035 1.026996 0.044616 -0.002057 -469848.000000 0 0 1
-19.301123 -18.445677 14.696923 30.475825 0.762739 1.067577 0.049937 -0.000655 181749.000000 0 0 1
-18.955623 -18.358277 13.361423 29.578195 0.769391 1.102090 0.043432 -0.006119 -47778.300000 0 0 1
-19.218923 -19.678377 12.601323 30.255559 0.797210 1.141208 0.038734 0.004190 234636.000000 0 0 1
-18.280823 -20.716477 12.910323 30.496514 0.847774 1.133670 0.047125 0.007226 102936.000000 0 0 1
-18.558123 -21.886577 12.153423 31.162989 0.867510 1.170170 0.034656 0.003463 -616178.000000 0 0 1
-17.737323 -23.094877 12.477923 31.680981 0.915862 1.165967 0.040726 0.002537 -506830.000000 0 0 1
-17.952723 -24.236977 11.719223 32.358484 0.933263 1.200203 0.030791 -0.005329 -157285.000000 0 0 1
-17.300523 -24.250077 10.467423 31.574377 0.951119 1.232886 0.033947 -0.005840 -188135.000000 0 0 1
-17.617423 -25.468317 9.573023 32.413755 0.965636 1.270987 0.066273 -0.006629 399112.000000 0 0 1
-18.944023 -25.380887 9.069723 32.944276 0.929610 1.291889 0.042430 -0.002339 72075.300000 0 0 1
-19.047323 -26.383017 8.096123 33.532243 0.945488 1.326944 0.051791 -0.007342 -105750.000000 0 0 1
-20.290323 -26.221217 7.225623 33.933156 0.912228 1.356216 0.053629 -0.008671 -250961.000000 0 0 1
-20.132823 -25.048177 6.467823 32.780703 0.893764 1.372187 0.065920 -0.014198 6150.760000 0 0 1
-20.774423 -25.067247 5.235823 32.975102 0.878770 1.411340 0.063205 -0.021391 -234567.000000 0 0 1
-20.969623 -23.664677 4.617923 31.954143 0.845706 1.425771 0.067569 -0.020174 40948.400000 0 0 1
-21.778523 -23.679677 3.462323 32.357671 0.827196 1.463589 0.066696 -0.023910 92050.700000 0 0 1
-21.463323 -22.547077 2.729323 31.248906 0.810018 1.483343 0.061875 -0.009679 44564.100000 0 0 1
-22.039323 -22.547877 1.322123 31.557670 0.796803 1.528889 0.048117 -0.015529 -344826.000000 0 0 1
-21.332223 -23.378777 0.459223 31.651885 0.831139 1.556287 0.054200 -0.026323 33300.100000 0 0 1
-21.771723 -23.247377 -0.888577 31.862800 0.818165 1.598688 0.035403 -0.022902 -262062.000000 0 0 1
-20.948523 -24.090877 -1.860377 31.979243 0.855054 1.629004 0.043395 -0.025742 -661804.000000 0 0 1
-19.615723 -23.689677 -2.036077 30.824065 0.879197 1.636899 0.055324 -0.024968 89418.500000 0 0 1
-18.857323 -24.288377 -3.119777 30.907231 0.910617 1.671909 0.055965 -0.020795 247141.000000 0 0 1
-18.599923 -25.814957 -3.079177 31.966396 0.946438 1.667271 0.065880 -0.027272 -175365.000000 0 0 1
-19.723923 -26.633057 -3.446877 33.320172 0.933351 1.674429 0.086227 -0.033649 208862.000000 0 0 1
-19.345623 -27.964637 -3.675477 34.202093 0.965603 1.678468 0.090502 -0.028098 374859.000000 0 0 1
-20.545323 -28.922047 -4.040977 35.706086 0.953145 1.684213 0.100140 -0.031175 688462.000000 0 0 1
-21.318223 -28.419927 -5.128077 35.895070 0.927221 1.714150 0.081661 -0.023055 12091.300000 0 0 1
-22.130823 -29.438137 -5.669177 37.262807 0.926161 1.723530 0.083411 -0.038511 -37441.700000 0 0 1
-22.796223 -29.086857 -7.017677 37.615965 0.906056 1.758457 0.061200 -0.001092 441936.000000 0 0 1
-21.842623 -29.105057 -8.135077 37.287853 0.926991 1.790735 0.095166 -0.004470 784908.000000 0 0 1
-22.387223 -29.071337 -9.419677 37.882195 0.914568 1.822090 0.087133 -0.004475 169093.000000 0 0 1
-23.225423 -27.801997 -9.879277 37.549586 0.874847 1.837030 0.045515 0.005594 438777.000000 0 0 1
-22.400323 -26.683847 -10.205577 36.303663 0.872447 1.855754 0.041153 0.001599 479316.000000 0 0 1
-22.091223 -25.862217 -9.088077 35.206101 0.863875 1.831892 0.025688 -0.003333 -36618.100000 0 0 1
-21.643123 -24.402377 -9.575177 33.993893 0.845251 1.856334 0.015470 -0.003263 775198.000000 0 0 1
-22.685523 -23.611577 -10.211477 34.298889 0.805398 1.873100 -0.000346 0.001914 879200.000000 0 0 1
-22.162423 -22.378077 -10.595777 33.229833 0.790240 1.895326 -0.000678 0.007826 148120.000000 0 0 1
-23.278023 -21.297477 -10.644777 33.298050 0.740996 1.896190 -0.005692 0.007478 6683.400000 0 0 1
-24.052523 -21.451077 -11.846377 34.336704 0.728290 1.923042 -0.016321 0.013761 119754.000000 0 0 1
-25.258363 -20.745177 -11.947777 34.800814 0.687606 1.921245 -0.016241 0.009752 -238817.000000 0 0 1
-25.175443 -19.181277 -12.036377 33.861463 0.651076 1.934202 -0.014431 -0.008029 -913744.000000 0 0 1
-24.637723 -18.641877 -13.220777 33.605445 0.647737 1.975136 -0.002280 -0.006996 278244.000000 0 0 1
-24.587423 -17.197277 -13.300877 32.820741 0.610346 1.988058 0.003239 -0.007040 7126.190000 0 0 1
-23.542623 -16.516077 -12.364977 31.303811 0.611758 1.976863 -0.006356 0.001311 -215966.000000 0 0 1
-23.880223 -16.576677 -10.996077 31.079977 0.606795 1.932426 0.014019 -0.003706 69427.000000 0 0 1
-22.733323 -16.559077 -10.197577 29.916510 0.629537 1.918636 0.009929 0.000312 -553015.000000 0 0 1
-23.073523 -16.767177 -8.713277 29.823596 0.628412 1.867281 -0.006957 -0.011074 -1997.460000 0 0 1
-23.600323 -18.095777 -8.475377 30.923525 0.654141 1.848424 -0.008296 -0.004074 -257575.000000 0 0 1
-24.877123 -18.079977 -7.916177 31.755672 0.628468 1.822737 -0.002566 -0.009260 -333498.000000 0 0 1
-25.386863 -19.452877 -7.385477 32.824572 0.653825 1.797738 -0.004094 -0.002900 127864.000000 0 0 1
-25.513953 -20.347277 -8.452077 33.710697 0.673212 1.824224 -0.006054 -0.012478 7917.090000 0 0 1
-25.645713 -21.658077 -7.920277 34.489211 0.701299 1.802509 -0.001418 -0.004119 60600.900000 0 0 1
-25.961983 -22.856477 -8.888477 35.713417 0.721870 1.822324 -0.023526 0.004665 103374.000000 0 0 1
-26.398233 -24.050377 -8.252377 36.652272 0.738892 1.797897 -0.009311 0.011776 -46674.200000 0 0 1
-25.891763 -25.123527 -9.031277 37.190576 0.770340 1.816086 -0.008035 0.021275 150728.000000 0 0 1
-26.434153 -26.467057 -8.455677 38.350594 0.786020 1.793107 0.003324 0.009795 77648.500000 0 0 1
-26.038603 -26.870617 -7.143677 38.092926 0.801122 1.759446 0.021068 -0.011642 143438.000000 0 0 1
-26.645503 -28.124917 -6.904577 39.353106 0.812403 1.747161 0.020281 -0.013004 171990.000000 0 0 1
-26.174043 -28.622057 -5.525277 39.176924 0.830043 1.712302 0.039001 -0.017890 105.236000 0 0 1
-26.770653 -27.783647 -4.542177 38.848813 0.803965 1.687984 0.014233 -0.020139 147676.000000 0 0 1
-26.217493 -27.910737 -3.229577 38.429108 0.816670 1.654935 0.024001 -0.028093 -265637.000000 0 0 1
-26.449093 -29.258227 -2.458877 39.517647 0.835782 1.633059 0.024329 -0.016529 -203226.000000 0 0 1
-25.842163 -30.450967 -3.073477 40.056523 0.867087 1.647600 0.049383 -0.022428 234618.000000 0 0 1
-25.887773 -31.674577 -2.350777 40.975380 0.885593 1.628198 0.047574 -0.019644 -188086.000000 0 0 1
-24.987323 -31.750237 -1.102577 40.418554 0.904035 1.598079 0.064825 -0.029786 -349838.000000 0 0 1
-23.614723 -31.785777 -1.379477 39.621884 0.931833 1.605619 0.078835 -0.033979 -856095.000000 0 0 1
-22.828823 -31.906967 -0.248477 39.233550 0.949756 1.577130 0.084380 -0.021541 364653.000000 0 0 1
-21.717823 -30.785167 -0.143677 37.675071 0.956413 1.574610 0.087334 -0.018291 297935.000000 0 0 1
-22.128423 -29.416627 0.072023 36.810464 0.925862 1.568840 0.084195 -0.030933 -114437.000000 0 0 1
-22.550723 -28.816227 -1.157277 36.609416 0.906774 1.602413 0.085410 -0.039747 -362050.000000 0 0 1
-23.097423 -27.400237 -0.965977 35.849645 0.870401 1.597745 0.062668 -0.031275 -239420.000000 0 0 1
-24.416423 -27.459467 -0.469077 36.747845 0.843991 1.583561 0.059164 -0.033022 -247592.000000 0 0 1
-25.028693 -26.243437 -0.189277 36.265539 0.809086 1.576016 0.057901 -0.044268 -57300.200000 0 0 1
-24.537323 -25.529817 1.099823 35.426846 0.805219 1.539746 0.056912 -0.031074 -397611.000000 0 0 1
-24.879323 -26.200817 2.323123 36.205807 0.811263 1.506588 0.045247 -0.027233 103061.000000 0 0 1
-24.353023 -25.612597 3.521523 35.517263 0.810602 1.471484 0.054143 -0.023642 -18821.200000 0 0 1
-25.209533 -24.443477 4.089423 35.351485 0.769971 1.454858 0.062102 -0.020626 -3334.590000 0 0 1
-25.323723 -23.356277 3.197423 34.598123 0.745004 1.478248 0.041745 -0.016306 -213227.000000 0 0 1
-26.182113 -22.420977 3.792723 34.678351 0.708167 1.461208 0.026925 -0.002710 -259510.000000 0 0 1
-26.265723 -21.197477 2.857423 33.873088 0.679019 1.486339 0.028989 0.006951 140141.000000 0 0 1
-25.141543 -20.339477 2.830523 32.462338 0.680204 1.483491 0.036305 0.006058 13780.400000 0 0 1
-25.053923 -19.579177 1.635923 31.838962 0.663347 1.519393 0.027150 0.011643 -652477.000000 0 0 1
-23.853523 -18.679277 1.556923 30.336941 0.664340 1.519453 0.041548 0.016354 -214732.000000 0 0 1
-22.607823 -19.342677 1.301523 29.781652 0.707721 1.527080 0.038631 -0.002154 -443690.000000 0 0 1
-21.553523 -18.535877 1.633023 28.474548 0.710267 1.513415 0.043274 0.000746 -1391930.000000 0 0 1
-20.260723 -19.306277 1.408723 28.021665 0.761281 1.520502 0.053961 -0.016689 -820535.000000 0 0 1
-20.000523 -19.580977 0.096823 27.990087 0.774799 1.567337 0.032615 -0.008718 -645727.000000 0 0 1
-19.004923 -20.517677 -0.045177 27.967199 0.823655 1.572412 0.059459 -0.011855 -624069.000000 0 0 1
-18.716423 -20.810477 -1.560277 28.032390 0.838327 1.626485 0.067140 -0.015880 -144047.000000 0 0 1
-18.214823 -19.765077 -2.324677 26.978550 0.826193 1.657071 0.064961 -0.019171 -112028.000000 0 0 1
-18.153323 -20.106677 -3.697277 27.340290 0.836409 1.706444 0.064689 -0.014835 241971.000000 0 0 1
-17.217423 -19.157277 -4.520677 26.151050 0.838677 1.744537 0.071990 -0.013163 1222520.000000 0 0 1
-15.806423 -19.314377 -4.269777 25.320331 0.884950 1.740236 0.091695 -0.017677 1007190.000000 0 0 1
-15.108823 -18.592677 -5.297977 24.536355 0.888406 1.788434 0.098529 -0.016288 343936.000000 0 1 0
-13.594023 -18.362277 -5.030577 23.393960 0.933517 1.787526 0.109558 -0.025626 399316.000000 0 1 0
-12.733123 -19.421977 -5.369377 23.836439 0.990492 1.798005 0.088889 -0.024561 -193901.000000 0 1 0
-11.518923 -19.024877 -5.954277 23.023574 1.026367 1.832386 0.066907 -0.028327 206023.000000 0 1 0
-10.481723 -20.179177 -6.101177 23.543366 1.091724 1.832935 0.051450 -0.024917 478328.000000 0 1 0
-10.874923 -21.203077 -7.014977 24.840377 1.096887 1.857094 0.057001 -0.021081 -838271.000000 0 1 0
-9.784123 -22.028177 -7.159077 25.144026 1.152806 1.859514 0.052620 -0.009806 -557970.000000 0 0 1
-9.849023 -23.230077 -8.069777 26.490773 1.169792 1.880342 0.068460 -0.006295 -542685.000000 0 0 1
-10.215623 -22.870177 -9.407077 26.756253 1.150708 1.930059 0.059824 -0.008338 50443.800000 0 0 1
-10.308123 -23.941277 -10.362177 28.050256 1.164227 1.949175 0.075740 -0.004050 -217925.000000 0 0 1
-11.263423 -23.601077 -11.497877 28.567056 1.125520 1.985029 0.083941 -0.007900 -43686.500000 0 0 1
-10.717523 -22.586777 -12.344977 27.882365 1.127753 2.029462 0.060966 -0.001290 415561.000000 0 0 1
-11.733423 -22.141177 -13.232577 28.337361 1.083487 2.056653 0.066399 -0.004606 126427.000000 0 0 1
-11.193823 -20.946077 -14.131177 27.635665 1.080000 2.107538 0.059717 0.001962 51710.800000 0 0 1
-10.939923 -19.789377 -13.282377 26.224471 1.065792 2.101903 0.061947 -0.006098 -86258.200000 0 0 1
-10.608523 -18.625577 -14.021877 25.613784 1.053054 2.150092 0.055186 0.007519 -164102.000000 0 0 1
-10.217323 -17.507577 -13.076977 24.122941 1.042527 2.143727 0.055805 -0.000351 -813865.000000 0 1 0
-11.301723 -16.937077 -12.417477 23.849261 0.982371 2.118426 0.064358 -0.011788 -396704.000000 0 1 0
-11.044623 -15.745277 -11.688177 22.505798 0.959094 2.116876 0.064217 -0.016972 8652.700000 0 1 0
-10.805323 -14.461577 -12.470977 21.941228 0.929106 2.175333 0.067352 -0.002975 778031.000000 0 1 0
-12.022423 -14.077777 -13.125177 22.693451 0.863985 2.187524 0.066768 0.016072 627308.000000 0 1 0
-11.742123 -13.777677 -14.457977 23.167541 0.864993 2.244727 0.065255 0.007532 166802.000000 0 1 0
-12.883923 -12.949277 -15.154777 23.734922 0.787928 2.263346 0.058224 0.015468 358038.000000 0 1 0
-12.931723 -11.581477 -14.701577 22.748548 0.730371 2.273475 0.041118 0.008523 -687044.000000 0 1 0
-13.973723 -10.901377 -15.292177 23.408452 0.662510 2.282699 0.035754 -0.003179 -538361.000000 0 1 0
-14.311023 -9.495677 -14.651077 22.574927 0.585822 2.277063 0.034929 -0.008425 921027.000000 0 1 0
-13.203023 -8.564277 -14.738477 21.561293 0.575433 2.323428 0.031790 -0.007588 780949.000000 0 1 0
-13.028923 -8.028277 -16.041177 22.170373 0.552238 2.379715 0.029610 0.001989 -624533.000000 0 1 0
-11.966523 -6.966977 -16.024877 21.178601 0.527233 2.428977 0.018551 0.003323 -637712.000000 0 1 0
-10.658723 -7.447877 -15.844477 20.496992 0.609892 2.454376 0.013829 -0.006796 -54388.500000 0 1 0
-9.748123 -6.363677 -15.668177 19.519581 0.578348 2.502589 0.015264 -0.001410 260523.000000 0 1 0
11.282377 21.894923 16.114323 29.433843 1.094987 0.991451 0.054508 0.010366 -64099.700000 0 0 1
12.221977 21.774523 17.170823 30.304187 1.059321 0.968404 0.074378 -0.000546 -39698.100000 0 0 1
12.584777 20.448023 17.405123 29.655296 1.019092 0.943554 0.069206 0.002532 617967.000000 0 0 1
13.809677 20.241323 18.379923 30.630702 0.972082 0.927234 0.073097 -0.005062 653947.000000 0 0 1
15.064777 20.565923 17.834123 31.112066 0.938582 0.960364 0.071964 0.003515 -924436.000000 0 0 1
16.083377 20.195123 18.709323 31.883488 0.898255 0.943692 0.084574 0.000284 310066.000000 0 0 1
17.450577 20.773823 18.187323 32.662717 0.872121 0.980241 0.069866 0.004211 -134365.000000 0 0 1
17.548177 22.182823 18.298123 33.687349 0.901524 0.996582 0.072613 -0.007142 538707.000000 0 0 1
18.743877 22.806623 17.790223 34.466897 0.882867 1.028442 0.065834 -0.005667 961951.000000 0 0 1
20.088777 22.526023 18.488723 35.395106 0.842528 1.021189 0.053909 -0.010689 -3312.800000 0 0 1
20.688377 21.231223 18.203423 34.787043 0.798347 1.020099 0.066803 -0.016508 180980.000000 0 0 1
21.862577 21.027923 18.957423 35.770514 0.765941 1.012227 0.076822 -0.021454 -19461.400000 0 0 1
22.413177 19.550423 18.885123 35.230916 0.717284 1.005059 0.066184 -0.023252 -20378.500000 0 0 1
22.924077 19.201223 17.645523 34.721244 0.697251 1.037697 0.056928 -0.021397 -36029.200000 0 0 1
22.525277 17.877323 17.290323 33.555060 0.670861 1.029459 0.038440 -0.020534 382483.000000 0 0 1
23.601677 16.801723 17.633023 33.915491 0.618659 1.024050 0.029285 -0.017460 880442.000000 0 0 1
24.788077 16.790523 16.828623 34.344912 0.595371 1.058719 0.046535 -0.021971 889987.000000 0 0 1
25.646677 15.671623 17.140123 34.599648 0.548511 1.052519 0.041070 -0.008138 341035.000000 0 0 1
26.967977 15.734823 16.301723 35.222189 0.528171 1.089616 0.065317 -0.018787 -1027320.000000 0 0 1
27.939977 16.643023 16.695423 36.556390 0.537230 1.096510 0.065363 -0.016229 -460644.000000 0 0 1
28.881477 16.191823 17.625523 37.509651 0.510968 1.081627 0.069198 -0.021345 -298359.000000 0 0 1
29.880177 15.128723 17.086223 37.598434 0.468685 1.099053 0.058921 -0.021791 -1281640.000000 0 0 1
30.546377 15.656423 16.003123 37.872215 0.473634 1.134533 0.081046 -0.012972 -477890.000000 0 0 1
30.758477 14.723723 14.974723 37.243983 0.446453 1.157019 0.083545 -0.029018 -181969.000000 0 0 1
29.684477 14.677623 13.853223 35.895857 0.459201 1.174583 0.074201 -0.016435 -74775.800000 0 0 1
30.048777 15.484523 12.761423 36.132442 0.475823 1.209823 0.072328 0.001262 638274.000000 0 0 1
29.080177 15.364323 11.687023 34.904235 0.486064 1.229370 0.065657 -0.001266 1961330.000000 0 0 1
27.732777 16.214723 11.808923 34.226814 0.529077 1.218537 0.056560 -0.005725 659330.000000 0 0 1
27.899777 17.623123 11.696623 35.011184 0.563373 1.230165 0.045557 0.004676 417306.000000 0 0 1
28.616077 18.334523 12.737023 36.294164 0.569815 1.212223 0.053870 0.004505 83950.500000 0 0 1
27.766977 18.507623 13.985423 36.181890 0.587910 1.173929 0.052185 -0.004021 114942.000000 0 0 1
26.589977 19.286623 13.843523 35.646091 0.627527 1.171945 0.058275 0.002149 468216.000000 0 0 1
25.806177 19.386123 15.058723 35.616649 0.644282 1.134263 0.060809 -0.010711 38751.500000 0 0 1
26.332477 20.135923 16.332023 36.953886 0.652830 1.113017 0.066340 -0.017794 -247732.000000 0 0 1
26.121577 21.543723 16.438523 37.638993 0.689650 1.118823 0.061170 -0.012808 1087610.000000 0 0 1
24.726177 21.823423 16.707323 36.969991 0.723121 1.101885 0.071614 -0.012234 746779.000000 0 0 1
24.508577 23.323123 16.587923 37.680202 0.760619 1.114942 0.062723 -0.004507 -59760.600000 0 0 1
24.544477 23.756323 15.246223 37.406437 0.769082 1.150991 0.068481 -0.007743 136807.000000 0 0 1
24.385377 25.147923 15.128123 38.156582 0.800792 1.163123 0.076482 -0.012146 -308856.000000 0 0 1
24.510577 25.595023 13.674823 37.985186 0.807038 1.202524 0.078213 -0.011495 1242510.000000 0 0 1
23.229177 25.336023 13.029223 36.759616 0.828753 1.208477 0.069948 -0.010178 1215050.000000 0 0 1
23.117677 25.974423 11.729323 36.697066 0.843524 1.245462 0.066269 -0.019390 190431.000000 0 0 1
22.405177 24.956523 10.782723 35.229066 0.839216 1.259729 0.068972 -0.016134 245996.000000 0 0 1
21.060077 24.692623 11.181123 34.325937 0.864627 1.239008 0.075495 -0.019532 172824.000000 0 0 1
20.616277 23.375423 11.048123 33.068146 0.848036 1.230144 0.073598 -0.015988 -80165.300000 0 0 1
20.492777 22.892223 9.539223 32.171487 0.840648 1.269758 0.075710 -0.006655 -982519.000000 0 0 1
19.465677 23.491023 8.830323 31.760279 0.878832 1.289053 0.080198 -0.006311 -113786.000000 0 0 1
19.943177 23.782523 7.491023 31.928892 0.872979 1.333973 0.075751 -0.019774 940059.000000 0 0 1
18.731277 24.238723 6.590523 31.333870 0.912873 1.358882 0.061602 -0.014476 470742.000000 0 0 1
17.874777 23.185123 6.155223 29.915620 0.914016 1.363563 0.060004 -0.005812 558630.000000 0 0 1
17.007677 23.522223 5.060023 29.464553 0.944769 1.398208 0.079146 -0.021639 1094720.000000 0 0 1
15.664377 24.272123 5.420523 29.392018 0.997686 1.385313 0.062516 -0.023833 299566.000000 0 0 1
15.847577 25.507323 6.082423 30.639274 1.014866 1.370952 0.071141 -0.037207 681051.000000 0 0 1
14.598577 26.193223 6.265923 30.634379 1.062334 1.364804 0.049993 -0.038511 583132.000000 0 0 1
14.310777 27.418823 5.411023 31.398557 1.089757 1.397598 0.052215 -0.034904 -592197.000000 0 0 1
14.074077 27.167823 4.061523 30.865291 1.092819 1.438825 0.039026 -0.020490 251684.000000 0 0 1
13.806677 28.405023 3.456023 31.771272 1.118359 1.461802 0.031379 -0.021005 -355186.000000 0 0 1
13.195677 28.173723 2.046423 31.178076 1.132773 1.505112 0.042318 -0.010100 -598393.000000 0 0 1
14.101977 27.500823 1.250323 30.930961 1.096974 1.530362 0.058576 -0.019702 -160616.000000 0 0 1
13.529977 26.914823 0.081423 30.124319 1.104994 1.568093 0.043569 -0.006982 -451348.000000 0 0 1
14.562677 26.486623 -0.947577 30.240877 1.068097 1.602136 0.037661 -0.008801 -347108.000000 0 0 1
15.082577 27.566323 -1.727977 31.470179 1.070153 1.625732 0.036492 0.002642 457466.000000 0 0 1
16.069077 27.063623 -2.655477 31.586492 1.034984 1.654966 0.036533 -0.001588 359452.000000 0 0 1
15.907277 27.742323 -4.014377 32.230314 1.050170 1.695673 0.033976 -0.003912 -93396.700000 0 0 1
15.022677 27.053623 -4.904377 31.331011 1.063899 1.727977 0.044477 -0.005644 48491.400000 0 0 1
15.032077 27.678323 -6.120977 32.086122 1.073267 1.762740 0.035318 -0.001139 -242061.000000 0 0 1
13.777477 27.392123 -6.923077 31.433680 1.104774 1.792861 0.048372 -0.009879 -355159.000000 0 0 1
13.744577 26.104023 -7.468477 30.432081 1.086150 1.818744 0.043231 -0.002193 -1278040.000000 0 0 1
12.464877 25.867023 -7.900777 29.780838 1.121747 1.839309 0.036704 -0.013202 -859557.000000 0 0 1
12.085577 24.398323 -8.157277 28.423239 1.110880 1.861883 0.046813 -0.008173 73065.300000 0 0 1
12.685277 23.844823 -9.299477 28.565225 1.081883 1.902392 0.039995 -0.011098 213542.000000 0 0 1
12.085477 22.565623 -9.549977 27.321569 1.079099 1.927876 0.042641 -0.003795 255749.000000 0 0 1
12.494677 21.934523 -10.873177 27.485746 1.053003 1.977510 0.041916 -0.001107 -206572.000000 0 0 1
11.840077 20.741623 -11.150377 26.357793 1.052097 2.007593 0.050594 -0.006726 -543363.000000 0 0 1
11.942477 20.293123 -12.523877 26.669853 1.038877 2.059622 0.055639 -0.011160 -298055.000000 0 0 1
13.255077 19.599723 -12.880577 26.939849 0.976162 2.069313 0.056217 -0.002280 -520435.000000 0 0 1
14.358477 20.432023 -12.928177 28.120654 0.958231 2.048498 0.047566 -0.001829 -7453.780000 0 0 1
15.565977 19.772223 -13.358277 28.490068 0.903869 2.058813 0.042527 -0.001470 1125900.000000 0 0 1
16.836377 20.657423 -13.474377 29.862209 0.886959 2.038926 0.047430 0.004791 101132.000000 0 0 1
16.881477 21.713623 -14.447777 31.067731 0.909951 2.054478 0.052306 0.000491 -121548.000000 0 0 1
15.908177 22.734323 -14.296777 31.214057 0.960243 2.046567 0.039497 -0.000430 170870.000000 0 0 1
16.475377 24.135123 -14.742377 32.730412 0.971823 2.038030 0.037718 -0.006652 129165.000000 0 0 1
16.733777 24.337723 -16.140277 33.657875 0.968465 2.070926 0.034542 -0.004570 -763170.000000 0 0 1
15.584877 24.633523 -16.856377 33.672485 1.006701 2.095086 0.032567 0.001963 -589166.000000 0 0 1
15.715477 24.598623 -18.399977 34.505472 1.002281 2.133232 0.020122 0.005807 51488.500000 0 0 1
16.060877 23.320223 -18.908477 34.048716 0.967688 2.159563 0.032302 0.009186 43611.300000 0 0 1
16.140477 23.337223 -20.338577 34.911297 0.965717 2.192694 0.025919 0.011511 -176680.000000 0 0 1
16.601577 21.977623 -20.939577 34.599048 0.923857 2.220822 0.038079 0.007910 -385617.000000 0 0 1
15.590177 21.039923 -21.227377 33.709546 0.933093 2.251981 0.050951 0.015503 -78424.000000 0 0 1
16.052377 19.774823 -21.734377 33.482914 0.888927 2.277221 0.050408 0.002297 -11995.200000 0 0 1
14.922977 18.739123 -21.958377 32.496466 0.898282 2.312732 0.044232 0.002520 -259758.000000 0 0 1
14.671877 17.998623 -20.785477 31.164891 0.886876 2.300906 0.044437 0.003973 620200.000000 0 0 1
13.614177 17.046623 -20.823577 30.158822 0.896883 2.332926 0.043351 -0.000504 1308730.000000 0 0 1
12.103277 17.437523 -20.933777 29.812406 0.964045 2.349256 0.041195 -0.000881 1030260.000000 0 0 1
11.183777 17.054623 -19.894177 28.490618 0.990381 2.343776 0.042737 0.005471 1476190.000000 0 0 1
9.812077 17.143123 -20.340577 28.353176 1.050947 2.370860 0.035919 0.006540 1398150.000000 0 0 1
8.739977 16.731023 -19.287377 26.987353 1.089404 2.366966 0.037057 -0.006663 -37321.600000 0 0 1
8.512977 15.348023 -19.148177 25.974704 1.064380 2.399692 0.039195 -0.016210 65549.600000 0 0 1
7.283677 14.983823 -18.540877 24.926512 1.118328 2.409566 0.038655 -0.019674 251988.000000 0 1 0
7.096777 15.336223 -17.061077 24.013420 1.137393 2.360978 0.037516 -0.024551 -186524.000000 0 1 0
7.055877 16.724723 -16.736677 24.690446 1.171569 2.315645 0.040217 -0.017785 -41971.500000 0 1 0
6.411077 16.862623 -15.467577 23.763331 1.207479 2.279567 0.030113 -0.025422 8535.050000 0 1 0
6.100677 18.350723 -15.130177 24.553809 1.249842 2.234711 0.018565 -0.013323 42790.100000 0 1 0
7.224277 19.158723 -14.786277 25.256303 1.210208 2.196230 0.022210 -0.010885 223401.000000 0 0 1
7.801977 19.873223 -15.868477 26.601210 1.196696 2.209970 0.037721 -0.004229 -170720.000000 0 0 1
8.932477 20.840523 -15.510277 27.471535 1.165871 2.170738 0.033156 0.008714 -294694.000000 0 0 1
8.639277 22.059623 -14.793177 27.930309 1.197524 2.128980 0.033905 0.008329 -115836.000000 0 0 1
8.475677 21.830323 -13.386577 26.974072 1.200458 2.090100 0.018593 -0.003546 -109910.000000 0 0 1
8.306077 23.122723 -12.579877 27.602618 1.225934 2.044010 0.041110 -0.003045 -76288.500000 0 0 1
6.960377 23.523923 -12.810277 27.675350 1.283119 2.052034 0.030221 -0.000100 126639.000000 0 0 1
6.677977 24.644723 -12.008477 28.216330 1.306181 2.010406 0.028269 -0.000079 -18534.700000 0 0 1
6.168877 24.234123 -10.571977 27.149852 1.321537 1.970769 0.018818 -0.010629 -823072.000000 0 0 1
7.115677 23.813423 -9.646877 26.660349 1.280432 1.941041 0.022012 -0.007739 -13097.900000 0 0 1
6.479277 23.256723 -8.440177 25.575238 1.299088 1.907114 0.020688 -0.020092 387155.000000 0 0 1
7.490677 23.128123 -7.266377 25.373619 1.257580 1.861238 0.019250 -0.021071 221396.000000 0 0 1
7.694877 24.398723 -6.676577 26.440225 1.265290 1.826076 0.016978 -0.021230 371376.000000 0 0 1
8.651077 24.347423 -5.621377 26.443109 1.229392 1.785015 0.023053 -0.015487 266579.000000 0 0 1
9.013677 25.826223 -5.158477 27.836128 1.235001 1.757190 0.018320 -0.009343 21728.000000 0 0 1
9.469177 26.693423 -6.152777 28.983802 1.229907 1.784707 0.028631 -0.009480 37425.900000 0 0 1
9.641377 27.963223 -5.593677 30.102943 1.238772 1.757701 0.024754 -0.010544 123139.000000 0 0 1
9.734577 29.124623 -6.557277 31.400693 1.248231 1.781171 0.036282 -0.003831 308474.000000 0 0 1
11.021577 29.176323 -7.156677 31.999234 1.209610 1.796356 0.035962 -0.006078 76483.900000 0 0 1
11.081677 30.298423 -8.033477 33.246575 1.220159 1.814845 0.044196 -0.011054 734976.000000 0 0 1
12.488877 30.301123 -8.732677 33.917396 1.179852 1.831198 0.042123 -0.014104 1808050.000000 0 0 1
13.596877 30.703923 -7.884277 34.493010 1.153914 1.801411 0.031231 -0.004859 267529.000000 0 0 1
14.667277 31.210423 -8.617277 35.545421 1.131478 1.815666 0.029190 -0.006482 332319.000000 0 0 1
15.977677 31.538123 -7.838177 36.212931 1.101871 1.788970 0.030613 -0.007342 591664.000000 0 0 1
16.621677 30.438123 -7.200377 35.420402 1.070967 1.775506 0.024454 -0.001945 366137.000000 0 0 1
17.877577 30.911623 -6.690277 36.330373 1.046452 1.756004 0.026907 0.000848 789380.000000 0 0 1
18.866577 29.758623 -6.316777 35.796998 1.005761 1.748186 0.024506 -0.006300 -236535.000000 0 0 1
18.536977 29.017023 -5.176377 34.819564 1.002313 1.720012 0.031688 -0.012402 -663605.000000 0 0 1
19.533477 28.157123 -4.762077 34.598521 0.964290 1.708873 0.031334 -0.011318 -919639.000000 0 0 1
19.729477 26.895823 -5.616577 33.825781 0.937906 1.737613 0.020583 0.001789 -363876.000000 0 0 1
20.142277 27.126923 -6.926777 34.490020 0.932100 1.773006 0.012389 0.000414 112350.000000 0 0 1
19.832377 26.077523 -7.815577 33.681503 0.920599 1.804974 0.014824 -0.000767 -821075.000000 0 0 1
20.356277 26.278823 -9.258377 34.506117 0.911720 1.842436 0.012271 -0.000765 -339232.000000 0 0 1
21.740677 26.260123 -9.464477 35.381173 0.879275 1.841594 0.020765 -0.005252 -356866.000000 0 0 1
22.329677 25.001223 -9.333677 34.796453 0.841782 1.842358 0.031975 -0.004474 -919300.000000 0 0 1
23.859277 25.038923 -9.254777 35.803123 0.809518 1.832256 0.017861 -0.000830 164539.000000 0 0 1
24.603577 25.371723 -10.459477 36.857306 0.800767 1.858533 0.028222 -0.001948 -399887.000000 0 0 1
25.963277 25.462523 -10.176877 37.762424 0.775661 1.843667 0.023374 0.004428 -762557.000000 0 0 1
26.744277 25.483923 -11.487677 38.686605 0.761271 1.872285 0.034475 0.006340 -262568.000000 0 0 1
26.722577 26.727123 -12.194477 39.713228 0.785483 1.882902 0.031164 -0.004396 -35921.600000 0 0 1
27.606277 26.729323 -13.309477 40.665777 0.769260 1.904230 0.046833 -0.005842 308223.000000 0 0 1
27.304477 27.796123 -14.405777 41.541369 0.794321 1.924934 0.053586 -0.016738 71703.300000 0 0 1
27.556277 29.151723 -14.102177 42.521086 0.813525 1.908850 0.048475 -0.021518 -28372.500000 0 0 1
27.586777 29.915123 -15.267977 43.463271 0.825868 1.929739 0.052407 -0.018886 -71057.500000 0 0 1
28.138477 31.338823 -15.032277 44.719851 0.839154 1.913615 0.051009 -0.022127 1360540.000000 0 0 1
29.558077 31.374423 -14.715877 45.547682 0.815198 1.899786 0.054220 -0.021825 1343020.000000 0 0 1
30.040877 32.708723 -14.609477 46.752023 0.827888 1.888608 0.049084 -0.018922 1338.030000 0 0 1
15.522377 -32.811582 -28.463413 46.127107 -1.128919 2.235804 0.053492 -0.010127 273764.000000 0 0 1
16.720777 -33.288282 -27.846793 46.509547 -1.105309 2.212714 0.042348 -0.007622 564550.000000 0 0 1
17.044277 -32.502082 -26.724843 45.399449 -1.087815 2.200197 0.046678 -0.012547 -403093.000000 0 0 1
18.303877 -33.050482 -25.996933 45.860733 -1.065028 2.173494 0.006683 -0.008158 853855.000000 0 0 1
19.593877 -32.650782 -26.462563 46.370905 -1.030300 2.178120 0.015291 -0.013955 686049.000000 0 0 1
19.958477 -33.274882 -27.693293 47.670505 -1.030519 2.190669 0.026937 -0.010168 11085.200000 0 0 1
21.502677 -33.161682 -27.972303 48.420161 -0.995533 2.186704 0.046161 -0.007177 892363.000000 0 0 1
21.891777 -31.779082 -28.075873 47.722265 -0.967577 2.199774 0.056283 -0.021886 -111091.000000 0 0 1
23.278977 -31.593182 -27.962263 48.186389 -0.935774 2.189886 0.032214 -0.010295 -409526.000000 0 0 1
23.749377 -30.257082 -28.547863 47.900985 -0.905319 2.209278 0.020199 -0.012356 -123336.000000 0 0 1
23.980477 -30.261182 -29.975673 48.880910 -0.900676 2.230951 0.020964 -0.019031 -16624.800000 0 0 1
24.621077 -29.152582 -30.555413 48.884596 -0.869470 2.245994 0.020661 -0.032063 21941.300000 0 0 1
24.899277 -29.326782 -32.076983 50.089590 -0.866866 2.265805 0.029923 -0.022820 -228137.000000 0 0 1
26.103577 -29.930182 -32.439393 51.278911 -0.853583 2.255711 0.031792 -0.032408 -642562.000000 0 0 1
26.035877 -30.290082 -33.761633 52.299176 -0.860783 2.272537 0.029902 -0.029925 387505.000000 0 0 1
27.305777 -31.118882 -34.126801 53.652855 -0.850571 2.260187 0.031477 -0.023821 1269990.000000 0 0 1
28.483477 -30.289082 -34.192676 53.831924 -0.816110 2.259031 0.024667 -0.031144 1430780.000000 0 0 1
29.678477 -31.047182 33.936456 54.739589 -0.807934 0.902102 0.020995 -0.008407 1382710.000000 0 0 1
30.983877 -30.228982 33.860034 54.957201 -0.773066 0.906994 0.017655 -0.016732 154504.000000 0 0 1
30.986277 -29.415582 32.698894 53.801891 -0.759400 0.917554 0.008288 -0.013079 -93302.400000 0 0 1
32.115077 -28.573182 32.659659 53.985723 -0.727102 0.921070 0.013799 -0.017850 -131063.000000 0 0 1
32.168177 -27.619682 31.413793 52.768029 -0.709467 0.933134 0.014381 -0.024700 -256727.000000 0 0 1
33.399977 -26.939382 31.247983 53.082250 -0.678734 0.941382 0.000575 -0.021516 145515.000000 0 0 1
33.416777 -25.995482 30.170323 51.987445 -0.661130 0.951652 0.017309 -0.016559 -151036.000000 0 0 1
34.078877 -26.485982 28.815233 51.896000 -0.660681 0.982133 0.014884 -0.004598 155374.000000 0 0 1
33.440977 -27.595482 28.171683 51.705448 -0.689919 0.994587 0.013151 -0.017869 73669.900000 0 0 1
32.174877 -27.383282 27.615563 50.474609 -0.705119 0.991879 0.015513 -0.014284 -422207.000000 0 0 1
31.647577 -28.475582 26.633753 50.217375 -0.732689 1.011760 0.011190 -0.007475 -224828.000000 0 0 1
30.418177 -28.081582 26.084263 48.930865 -0.745477 1.008555 0.019401 -0.000555 -124758.000000 0 0 1
29.920877 -29.056682 25.155423 48.706724 -0.770746 1.028076 0.022078 0.001192 -239494.000000 0 0 1
28.570277 -28.746982 24.513803 47.366404 -0.788481 1.026828 0.025723 0.002584 -459136.000000 0 0 1
27.523177 -28.720182 25.427743 47.211696 -0.806678 1.002034 0.024475 0.004670 293.001000 0 0 1
26.249577 -28.396282 24.861703 45.972746 -0.824662 0.999418 0.032800 0.015725 1139110.000000 0 0 1
25.162777 -28.304882 26.000433 45.938592 -0.844097 0.969172 0.042775 0.009771 263872.000000 0 0 1
25.356677 -27.242682 26.900673 45.921357 -0.821239 0.944931 0.037235 0.007599 -798114.000000 0 0 1
24.151177 -26.999782 27.526033 45.496704 -0.841031 0.921016 0.041113 -0.000705 -684827.000000 0 0 1
24.100977 -25.886482 28.599923 45.485411 -0.821102 0.890824 0.051233 0.000931 -219977.000000 0 0 1
22.908577 -25.899482 29.361383 45.361624 -0.846601 0.866794 0.060457 -0.002840 213580.000000 0 0 1
22.834677 -24.847182 30.299353 45.352571 -0.827580 0.839165 0.056878 0.001488 -661015.000000 0 0 1
22.082577 -23.537582 29.895663 43.993280 -0.817281 0.823646 0.058162 -0.003974 -274515.000000 0 0 1
22.653777 -22.906282 28.769193 43.192104 -0.790940 0.841862 0.062175 -0.005393 342118.000000 0 0 1
22.206777 -21.551482 28.693943 42.201300 -0.770424 0.823129 0.054703 0.002372 -49925.800000 0 0 1
23.162677 -20.577882 29.398203 42.710809 -0.726373 0.811642 0.054580 0.002250 -101574.000000 0 0 1
22.902977 -20.613482 30.778943 43.552329 -0.732834 0.785957 0.062758 -0.003077 103834.000000 0 0 1
23.801077 -19.795782 31.468113 44.143022 -0.693784 0.777218 0.049570 -0.004915 -248703.000000 0 0 1
23.236577 -19.392482 32.852902 44.669006 -0.695466 0.744430 0.078210 -0.007252 -117183.000000 0 0 1
23.576377 -20.287282 33.871688 45.985983 -0.710554 0.742818 0.057310 -0.007766 271012.000000 0 0 1
22.956277 -19.906882 -33.374963 45.134939 -0.714375 2.403047 0.064955 -0.005129 228211.000000 0 0 1
22.738577 -21.067082 -32.385093 44.829221 -0.747260 2.378078 0.042023 0.003228 933151.000000 0 0 1
23.981977 -21.465782 -31.763213 45.219650 -0.730090 2.349589 0.023929 0.007551 753682.000000 0 0 1
23.831877 -22.562982 -30.861653 45.049841 -0.758055 2.325477 0.027025 0.000539 1042930.000000 0 0 1
25.142477 -22.777682 -29.994763 45.284134 -0.736090 2.294772 0.020010 0.001698 1297480.000000 0 0 1
26.272477 -23.340682 -30.640043 46.624486 -0.726374 2.287849 0.006305 0.000907 -450861.000000 0 0 1
27.050977 -24.032382 -29.718723 46.824280 -0.726375 2.258399 0.011846 -0.005501 -586660.000000 0 0 1
28.143077 -24.887682 -30.339093 48.289648 -0.724088 2.250128 0.003639 -0.004574 -688116.000000 0 0 1
29.100177 -24.177882 -31.120933 48.988802 -0.693271 2.259150 -0.000393 -0.004980 -159594.000000 0 0 1
28.764177 -23.855282 -32.460623 49.498933 -0.692377 2.286017 0.001414 -0.006566 -291045.000000 0 0 1
28.978577 -25.027582 -33.505983 50.880140 -0.712370 2.289657 -0.000439 -0.010106 259640.000000 0 0 1
28.019677 -26.059082 -33.308103 50.730738 -0.749160 2.287054 0.013794 -0.018304 -101376.000000 0 0 1
28.329477 -27.224082 -34.013563 51.967609 -0.765503 2.284337 0.017393 -0.023144 116502.000000 0 0 1
27.952677 -27.308482 32.905359 51.086867 -0.773741 0.870942 0.017359 -0.022597 459210.000000 0 0 1
28.916077 -26.613482 32.098153 50.741584 -0.743956 0.885915 -0.013081 -0.022111 347283.000000 0 0 1
28.547477 -26.546582 30.739023 49.644406 -0.749096 0.903093 -0.003164 -0.016999 -382441.000000 0 0 1
29.414177 -25.588582 29.884073 49.122573 -0.715957 0.916807 0.005575 -0.018910 -195462.000000 0 0 1
29.359577 -24.188982 30.124163 48.523776 -0.689138 0.901018 -0.002465 -0.014819 -128673.000000 0 0 1
29.736777 -23.750482 31.382403 49.327645 -0.673942 0.881229 -0.007088 -0.010460 -1243630.000000 0 0 1
30.284077 -22.325582 31.380183 48.992579 -0.635262 0.875636 -0.004400 -0.007331 531632.000000 0 0 1
31.570977 -22.014682 30.868993 49.338297 -0.608917 0.894819 0.000457 -0.007724 580297.000000 0 0 1
32.658377 -22.659382 31.528863 50.735455 -0.606573 0.900221 0.001722 -0.010407 437797.000000 0 0 1
34.072877 -22.250182 30.948863 51.125959 -0.578494 0.920597 -0.002294 -0.012008 887965.000000 0 0 1
34.377277 -22.725682 29.633643 50.758316 -0.584116 0.947372 0.001757 -0.003254 1271520.000000 0 0 1
35.681877 -22.238882 29.209323 51.195203 -0.557343 0.963623 -0.002139 -0.005962 1182450.000000 0 0 1
36.068177 -22.490182 27.717093 50.744053 -0.557553 0.992959 0.018918 -0.002689 -102142.000000 0 0 1
-35.827879 -23.821882 27.472833 51.047777 0.586777 1.002521 0.018638 -0.001897 244334.000000 0 0 1
-35.568179 -23.896982 26.089083 50.167733 0.591592 1.023902 0.016609 0.002352 -332015.000000 0 0 1
-35.438479 -25.348482 25.666573 50.568808 0.620908 1.038449 0.012487 -0.007144 122134.000000 0 0 1
35.682477 -26.161782 25.720793 51.178484 -0.632651 1.044227 0.024540 -0.002749 272840.000000 0 0 1
35.847977 -27.564282 25.483023 51.906180 -0.655501 1.057623 0.021214 0.004996 461513.000000 0 0 1
-35.437479 -28.331482 26.429403 52.507153 0.674423 1.043327 0.024398 -0.002987 -282541.000000 0 0 1
-35.268279 -29.706182 25.995563 52.934659 0.700002 1.057458 0.027061 -0.000886 382522.000000 0 0 1
-34.247979 -30.391082 26.722303 53.015313 0.725801 1.042516 0.045723 -0.012947 928174.000000 0 0 1
-32.786279 -29.886382 26.523943 51.688060 0.739161 1.031941 0.058871 -0.011087 -609856.000000 0 0 1
-32.313679 -29.934982 25.216333 50.755694 0.747204 1.050868 0.058414 -0.014621 -643662.000000 0 0 1
-30.977179 -29.548982 25.176063 49.664496 0.761806 1.039185 0.045291 -0.009240 -628521.000000 0 0 1
-30.518979 -29.391882 23.692603 48.545136 0.766587 1.060939 0.030840 -0.002193 -169448.000000 0 0 1
-30.393179 -30.664582 23.053623 48.944167 0.789843 1.080351 0.040042 -0.005539 209364.000000 0 0 1
-30.035479 -30.607082 21.741923 48.079462 0.794824 1.101557 0.029888 -0.002378 -789475.000000 0 0 1
-29.992679 -32.009082 21.093823 48.673314 0.817908 1.122561 0.037434 -0.002671 -144265.000000 0 0 1
-29.060979 -32.936882 21.572923 48.936385 0.847834 1.114266 0.052442 -0.015955 -1168570.000000 0 0 1
-27.765079 -32.688882 21.190923 47.838456 0.866666 1.111889 0.055796 -0.014860 -1352190.000000 0 0 1
-26.810379 -33.872382 21.350323 48.186834 0.901253 1.111772 0.050804 -0.002601 -231516.000000 0 0 1
-26.949479 33.770323 20.344123 47.755549 -0.897262 1.130723 0.041805 -0.010255 897489.000000 0 0 1
-28.099179 32.864623 20.326323 47.778727 -0.863408 1.131364 0.055742 -0.004828 955311.000000 0 0 1
-28.039579 31.603623 21.261723 47.297652 -0.845083 1.104557 0.055965 -0.002128 97641.200000 0 0 1
-27.110779 30.568023 20.977723 45.928893 -0.845266 1.096465 0.045171 -0.003738 -30756.300000 0 0 1
-27.241979 29.439823 21.851123 45.676035 -0.824154 1.071972 0.048506 -0.010298 200031.000000 0 0 1
-26.189779 28.395223 21.418923 44.169712 -0.825780 1.064521 0.043807 0.003075 1494370.000000 0 0 1
-24.810979 28.824123 21.543823 43.709851 -0.860082 1.055397 0.041734 -0.008527 1038090.000000 0 0 1
-23.889879 27.831823 21.148623 42.339119 -0.861466 1.047768 0.042752 -0.016139 1415170.000000 0 0 1
-22.360079 28.271023 21.141623 41.787464 -0.901617 1.040334 0.032973 -0.013520 1070570.000000 0 0 1
-21.943679 28.442323 22.426223 42.348864 -0.913667 1.012716 0.032929 -0.022229 192263.000000 0 0 1
-20.583279 28.847123 22.439723 41.944834 -0.951048 1.006310 0.040923 -0.021677 159337.000000 0 0 1
-20.095379 28.967323 23.889383 42.586767 -0.964294 0.975254 0.035160 -0.012987 -486152.000000 0 0 1
-20.145079 27.723823 24.552603 42.157620 -0.942418 0.949118 0.049582 -0.027567 297476.000000 0 0 1
-19.841279 27.655323 25.956143 42.804376 -0.948455 0.919284 0.050045 -0.022019 304506.000000 0 0 1
-18.359879 27.924123 26.361923 42.565159 -0.989173 0.902906 0.049890 -0.016363 -15145.600000 0 0 1
-18.053879 29.317223 26.337333 43.348555 -1.018832 0.917797 0.032604 -0.013543 162274.000000 0 0 1
-16.754279 29.645023 26.800093 43.333339 -1.056386 0.904010 0.033458 -0.009550 100380.000000 0 0 1
-16.581279 29.812023 28.364403 44.364793 -1.063210 0.877150 0.022754 -0.002756 -213216.000000 0 0 1
-16.589679 28.571423 29.065433 44.003898 -1.044735 0.849286 0.028298 -0.002192 182407.000000 0 0 1
-16.394879 28.794223 30.450553 45.001506 -1.053195 0.827584 0.025087 0.007245 22118.300000 0 0 1
-16.547879 27.547123 31.299853 44.859303 -1.029854 0.798567 0.019579 0.007631 650600.000000 0 0 1
-15.324879 26.763223 31.294533 43.937112 -1.050760 0.778087 0.019068 0.013145 992112.000000 0 0 1
-15.164779 25.737723 32.266883 43.972181 -1.038353 0.746894 0.029617 0.007185 -249405.000000 0 0 1
-15.443179 25.993423 33.805879 45.354022 -1.034713 0.729695 0.030992 0.007390 -722425.000000 0 0 1
-16.797279 26.003623 34.103225 46.058300 -0.997267 0.737077 0.035015 0.003942 -1012750.000000 0 0 1
-17.141379 27.051323 -33.509303 46.351638 -1.005993 2.378840 0.040682 -0.004840 218808.000000 0 0 1
-18.546479 26.734523 -32.966523 46.319523 -0.964292 2.362740 0.024704 -0.003157 -39730.200000 0 0 1
-19.690779 26.872323 -33.766123 47.434160 -0.938425 2.362929 0.023212 0.003039 -342823.000000 0 0 1
-20.782079 26.183423 -33.167643 47.090965 -0.899902 2.352277 0.037552 -0.003064 387382.000000 0 0 1
-21.959679 26.127323 -34.213363 48.326170 -0.871851 2.357413 0.046895 -0.012682 -247885.000000 0 0 1
-21.944379 25.282723 33.168671 47.126772 -0.855968 0.790038 0.054981 -0.011487 -279765.000000 0 0 1
-21.964779 23.884323 33.453061 46.604932 -0.827240 0.770158 0.064495 -0.017588 -76347.400000 0 0 1
-22.161379 23.018023 32.233073 45.386420 -0.804357 0.781025 0.076248 -0.019489 2030720.000000 0 0 1
-23.589779 22.732223 32.005193 45.799171 -0.766887 0.797055 0.086231 -0.024217 1647860.000000 0 0 1
-23.759779 22.156023 30.740643 44.725872 -0.750484 0.813014 0.091096 -0.024118 -128919.000000 0 0 1
-25.223379 22.104923 30.277003 45.183442 -0.719603 0.836465 0.077726 -0.018099 109137.000000 0 0 1
-25.950679 21.120723 30.985033 45.602576 -0.683147 0.823773 0.085865 -0.028879 -252180.000000 0 0 1
-27.186679 20.804923 30.387393 45.775037 -0.653197 0.844852 0.059528 -0.018242 -26650.400000 0 0 1
-27.619279 19.321923 30.721503 45.606711 -0.610445 0.831703 0.072602 -0.025711 241858.000000 0 0 1
-28.432879 19.309323 31.921503 46.906939 -0.596574 0.822313 0.059734 -0.024492 370958.000000 0 0 1
-28.707279 18.118823 32.653511 47.102563 -0.563015 0.804818 0.051995 -0.016772 270900.000000 0 0 1
-29.614179 17.018923 32.004493 46.807381 -0.521600 0.817909 0.032956 -0.013701 1453610.000000 0 0 1
-30.975779 17.436923 31.710103 47.634817 -0.512709 0.842376 0.036687 -0.011781 1018290.000000 0 0 1
-31.786579 16.344923 31.448463 47.608287 -0.474950 0.849223 0.052343 -0.003365 -785048.000000 0 0 1
-33.284179 16.581923 31.578563 48.785268 -0.462200 0.866763 0.039322 -0.009403 -783524.000000 0 0 1
-33.678779 16.672523 32.928418 49.965127 -0.459676 0.851271 0.037967 -0.010229 -930134.000000 0 0 1
-35.036779 16.859423 32.976145 50.982764 -0.448488 0.867403 0.045665 -0.017107 -1207870.000000 0 0 1
-35.605879 17.056323 -34.110455 52.174897 -0.446732 2.283354 0.038308 -0.006821 422616.000000 0 0 1
35.295177 17.253123 -33.992433 51.950989 0.454667 2.284076 0.036648 -0.013998 124655.000000 0 0 1
35.067677 17.629023 -32.659543 51.060456 0.465817 2.264807 0.025818 -0.016228 70661.500000 0 0 1
33.578777 17.718923 -32.283583 49.836976 0.485547 2.275468 0.034066 -0.019427 301124.000000 0 0 1
32.841877 16.486523 -32.550593 49.091093 0.465244 2.295702 0.033142 -0.016523 -44646.600000 0 0 1
31.632377 16.534323 -31.848303 47.836236 0.481644 2.299332 0.029720 -0.020197 -748468.000000 0 0 1
30.769777 15.309723 -32.011473 46.967022 0.461691 2.320707 0.026369 -0.023216 -427288.000000 0 0 1
30.354677 15.142323 -33.351453 47.571165 0.462724 2.347715 0.031968 -0.025013 -257664.000000 0 0 1
29.671477 13.950323 -33.596303 46.943792 0.439491 2.368380 0.024473 -0.023633 -124155.000000 0 0 1
30.584577 12.726523 -33.890013 47.391072 0.394316 2.367583 0.030640 -0.016201 -243895.000000 0 0 1
31.301877 12.201023 -32.863623 46.996704 0.371670 2.345179 0.036751 -0.014053 -308469.000000 0 0 1
32.121677 11.149823 -33.349183 47.626554 0.334100 2.346505 0.061210 -0.016639 -154355.000000 0 0 1
17.843277 -21.024577 10.162687 29.388698 -0.867065 1.217702 0.010799 -0.010585 12042.400000 0 0 1
17.443277 -22.315677 10.610787 30.246424 -0.907339 1.212359 0.004675 -0.010381 262749.000000 0 0 1
18.540577 -23.212977 10.725287 31.585235 -0.896839 1.224340 -0.002046 -0.014226 -248642.000000 0 0 1
18.287877 -24.531477 11.455487 32.672129 -0.930190 1.212564 0.006922 -0.008542 -75272.800000 0 0 1
17.418577 -25.490767 10.902587 32.742212 -0.971347 1.231331 0.018087 -0.012479 -240443.000000 0 0 1
16.053977 -25.458487 11.218187 32.120281 -1.008184 1.214020 0.018650 -0.010308 -221570.000000 0 0 1
15.204577 -26.295507 10.248987 32.057364 -1.046546 1.245375 0.021853 -0.008019 -82113.500000 0 0 1
15.276977 -25.896947 8.923187 31.363373 -1.037826 1.282301 0.028633 -0.010799 209466.000000 0 0 1
14.365077 -26.715277 8.202187 31.421924 -1.077438 1.306703 0.046098 -0.005846 82212.400000 0 0 1
14.024677 -26.148877 6.754387 30.431515 -1.078501 1.346979 0.045060 -0.007572 410164.000000 0 0 1
13.086677 -25.070197 6.974287 29.127591 -1.089703 1.329008 0.046336 -0.014996 284647.000000 0 0 1
12.827077 -24.355977 5.790387 28.129630 -1.086057 1.363468 0.052519 -0.007720 -97129.100000 0 0 1
12.183777 -22.997077 6.100587 26.730640 -1.083596 1.340543 0.055907 -0.006157 -162022.000000 0 0 1
11.599177 -22.404477 4.932887 25.706709 -1.093076 1.377708 0.052259 -0.004075 88616.900000 0 0 1
10.996377 -21.150277 5.219987 24.402926 -1.091343 1.355222 0.069445 -0.008831 149889.000000 0 1 0
10.223477 -20.614477 3.997487 23.355000 -1.110405 1.398787 0.054759 -0.014071 119361.000000 0 1 0
11.096277 -20.132077 3.011087 23.183928 -1.067052 1.440550 0.045764 -0.006651 240119.000000 0 1 0
10.284277 -19.461777 2.031587 22.105530 -1.084661 1.478762 0.035396 -0.000999 236024.000000 0 1 0
10.993377 -19.102777 0.759187 22.053272 -1.048597 1.536364 0.025095 0.003607 51269.400000 0 1 0
11.851577 -17.975677 0.944687 21.551735 -0.987903 1.526949 0.024107 0.004400 -3658.330000 0 1 0
12.501077 -17.564577 -0.248513 21.560451 -0.952247 1.582323 0.030651 -0.001434 -267784.000000 0 1 0
13.802977 -16.778077 -0.121113 21.726498 -0.882379 1.576371 0.041567 0.001963 -165553.000000 0 1 0
14.875177 -17.537377 0.381987 22.999487 -0.867349 1.554187 0.052660 0.001574 -33318.800000 0 1 0
16.105577 -16.819677 0.352687 23.289816 -0.807083 1.555652 0.055609 -0.006184 583736.000000 0 1 0
17.155777 -17.561577 1.250687 24.582390 -0.797086 1.519897 0.049942 -0.003346 121206.000000 0 1 0
17.455877 -18.817977 0.694387 25.676956 -0.822931 1.543750 0.052676 -0.011125 -245285.000000 0 0 1
18.520077 -19.371377 1.421487 26.837737 -0.807861 1.517806 0.047507 -0.005801 42501.000000 0 0 1
18.988477 -20.707977 0.750887 28.105985 -0.828687 1.544077 0.028380 -0.004033 331069.000000 0 0 1
18.100977 -21.808977 0.920087 28.357070 -0.878041 1.538344 0.040427 -0.000762 435032.000000 0 0 1
18.539977 -22.830977 0.045887 29.410650 -0.888749 1.569236 0.054111 -0.003407 355420.000000 0 0 1
17.495677 -23.948277 0.232987 29.659281 -0.939853 1.562941 0.052763 0.003811 267338.000000 0 0 1
17.462877 -24.347577 1.576087 30.004010 -0.948598 1.518243 0.038530 -0.000742 714080.000000 0 0 1
16.285577 -25.137107 1.883587 30.010699 -0.995920 1.507991 0.039945 0.000065 350376.000000 0 0 1
16.165277 -25.712447 3.320687 30.552792 -1.009545 1.461894 0.024609 0.002120 661025.000000 0 0 1
17.125377 -26.783007 3.481987 31.980185 -1.001900 1.461701 0.035737 -0.002107 727957.000000 0 0 1
18.405077 -26.254357 3.826687 32.290581 -0.959380 1.452009 0.021676 -0.001090 -341987.000000 0 0 1
19.551077 -27.270187 3.962787 33.787740 -0.948792 1.453241 0.029952 -0.002006 -145171.000000 0 0 1
19.984277 -27.684677 2.691687 34.249932 -0.945554 1.492126 0.055523 0.002962 304871.000000 0 0 1
21.033777 -28.674087 2.669987 35.661630 -0.937909 1.495856 0.075407 0.005891 478626.000000 0 0 1
20.606877 -30.099387 3.037487 36.603863 -0.970462 1.487718 0.070740 0.004273 -79794.500000 0 0 1
20.316277 -30.391127 4.370087 36.816700 -0.981530 1.451817 0.078889 -0.004456 114371.000000 0 0 1
19.529277 -31.580017 4.492787 37.401541 -1.016953 1.450383 0.075339 -0.015998 20181.600000 0 0 1
19.106677 -32.013117 5.918887 37.748351 -1.032704 1.413348 0.075919 -0.024067 -478377.000000 0 0 1
20.175477 -32.661467 6.547987 38.944800 -1.017453 1.401859 0.073105 -0.028358 -87311.100000 0 0 1
19.740677 -33.393277 7.703287 39.549285 -1.036904 1.374766 0.071191 -0.027180 -20264.800000 0 0 1
20.756277 34.267289 8.357587 40.925779 1.026184 1.365136 0.062292 -0.030999 323373.000000 0 0 1
21.760277 -33.633677 9.061387 41.071190 -0.996548 1.348340 0.064233 -0.028531 432647.000000 0 0 1
22.766877 34.145634 9.626187 42.153511 0.982730 1.340403 0.079108 -0.029175 243983.000000 0 0 1
23.750077 -33.699137 10.526087 42.549929 -0.956877 1.320819 0.071075 -0.026021 -202499.000000 0 0 1
24.488577 -32.817277 9.706787 42.081894 -0.929725 1.338036 0.065091 -0.026062 168546.000000 0 0 1
25.431777 -32.067237 10.497787 42.252651 -0.900291 1.319714 0.063667 -0.018682 632005.000000 0 0 1
26.256177 -31.158457 9.537387 41.847318 -0.870575 1.340867 0.053181 -0.021894 111851.000000 0 0 1
25.528577 -29.999337 9.219887 40.455837 -0.865739 1.340876 0.050238 -0.028517 506968.000000 0 0 1
26.176677 -29.297947 8.092587 40.113315 -0.841604 1.367659 0.061224 -0.030643 202713.000000 0 0 1
25.765777 -27.845267 8.083887 38.788960 -0.824167 1.360851 0.038469 -0.025042 -346223.000000 0 0 1
26.250677 -27.171937 9.223387 38.890655 -0.802641 1.331353 0.043183 -0.028757 55055.500000 0 0 1
25.737177 -25.816037 9.236287 37.605572 -0.786928 1.322648 0.031426 -0.018246 156985.000000 0 0 1
26.481377 -24.789877 10.169887 37.672642 -0.752419 1.297451 0.048536 -0.030298 136823.000000 0 0 1
27.858877 -24.713677 9.907787 38.536309 -0.725643 1.310773 0.069222 -0.030116 -752435.000000 0 0 1
28.577877 -23.940477 10.816687 38.818065 -0.697326 1.288407 0.055144 -0.032342 -327575.000000 0 0 1
29.993777 -23.737377 10.268687 39.604743 -0.669481 1.308520 0.068993 -0.036361 -287207.000000 0 0 1
30.078277 -22.989077 9.087687 38.933102 -0.652596 1.335205 0.080440 -0.031398 -651048.000000 0 0 1
31.439877 -22.823277 8.833087 39.842079 -0.627920 1.347236 0.078669 -0.040935 -232641.000000 0 0 1
31.680877 -21.999077 7.537487 39.299505 -0.606955 1.377805 0.079092 -0.020474 -193174.000000 0 0 1
31.292577 -20.660577 7.512987 38.243036 -0.583539 1.373056 0.084503 -0.010324 -138810.000000 0 0 1
31.529677 -19.958377 6.294487 37.842805 -0.564334 1.403687 0.075765 -0.009674 -2875.800000 0 0 1
31.012877 -18.498077 6.266287 36.650290 -0.537816 1.398977 0.078803 -0.009189 271356.000000 0 0 1
31.769877 -17.654877 7.146487 37.041761 -0.507217 1.376648 0.085392 -0.005275 249217.000000 0 0 1
31.382377 -16.314877 7.034787 36.062682 -0.479420 1.374466 0.082198 0.001510 -53575.600000 0 0 1
31.832277 -15.392677 8.210987 36.299431 -0.450406 1.342620 0.080754 -0.021877 -742701.000000 0 0 1
33.209977 -15.426077 8.319187 37.550969 -0.434848 1.347399 0.076829 -0.018209 -1288830.000000 0 0 1
33.721777 -15.191377 9.570787 38.203876 -0.423263 1.317580 0.067389 -0.033382 -872945.000000 0 0 1
35.227677 -15.340677 9.544687 39.590739 -0.410707 1.327314 0.055534 -0.039370 -844390.000000 0 0 1
35.854277 -14.216377 8.991187 39.603990 -0.377489 1.341772 0.063907 -0.021058 8696.640000 0 0 1
-35.154779 -14.454977 8.476687 38.944307 0.390108 1.351378 0.054766 -0.024157 325250.000000 0 0 1
-34.385579 -13.372577 7.736187 37.696717 0.370902 1.364106 0.049305 -0.023523 -827469.000000 0 0 1
-34.689879 -13.112077 6.365887 37.627633 0.361381 1.400798 0.073878 -0.023955 146773.000000 0 0 1
-33.701779 -12.356877 5.630987 36.334699 0.351433 1.415194 0.061559 -0.011729 -464071.000000 0 0 1
-32.629279 -13.298077 5.133587 35.607056 0.386998 1.426119 0.044554 -0.009863 -1349500.000000 0 0 1
-31.900679 -13.812977 6.218987 35.314692 0.408627 1.393771 0.052391 -0.009131 -87661.000000 0 0 1
-31.061279 -14.899477 5.711687 34.920207 0.447260 1.406494 0.042505 0.001833 509544.000000 0 0 1
-30.318879 -15.553977 6.922487 34.771849 0.474004 1.370374 0.038696 -0.006243 133310.000000 0 0 1
-31.167679 -16.394277 7.653687 36.038528 0.484233 1.356791 0.037818 -0.016242 79391.500000 0 0 1
-30.662579 -16.470377 8.937287 35.935250 0.492923 1.319453 0.027597 -0.018149 804026.000000 0 0 1
-31.726579 -17.239477 9.815187 37.418088 0.497744 1.305380 0.013333 -0.014420 942967.000000 0 0 1
-32.972879 -16.579077 10.061987 38.253368 0.465893 1.304629 0.040404 -0.015989 1366820.000000 0 0 1
-33.945979 -17.241877 10.904687 39.604596 0.469964 1.291854 0.046642 -0.018262 786729.000000 0 0 1
-34.647979 -18.533077 10.356287 40.635084 0.491173 1.313093 0.050146 -0.021995 -4780.540000 0 0 1
-33.772579 -19.722077 10.310787 40.445763 0.528547 1.313022 0.048113 -0.024968 389753.000000 0 0 1
-33.269079 -20.214377 11.521687 40.598053 0.545991 1.283043 0.047695 -0.036091 -517001.000000 0 0 1
-34.258979 -20.836977 12.568187 42.021620 0.546441 1.267059 0.066834 -0.045598 220795.000000 0 0 1
-34.600679 -22.162277 12.264687 42.881185 0.569679 1.280730 0.064644 -0.043551 -39026.300000 0 0 1
-35.850779 -22.286877 11.606887 43.780168 0.556192 1.302471 0.072663 -0.045920 -275828.000000 0 0 1
36.112477 -23.738877 11.304087 44.670210 -0.581531 1.314958 0.069573 -0.035739 -384479.000000 0 0 1
35.773277 -24.382477 12.488187 45.057600 -0.598259 1.289959 0.093481 -0.029995 -29003.600000 0 0 1
35.324877 -25.697577 12.198087 45.354225 -0.628921 1.298492 0.072960 -0.014742 -822406.000000 0 0 1
34.107277 -26.116587 13.012087 44.885375 -0.653486 1.276678 0.088950 -0.030866 -1265320.000000 0 0 1
33.134977 -25.202667 12.737487 43.535557 -0.650255 1.273876 0.091360 -0.026156 -1370700.000000 0 0 1
32.152377 -25.075227 13.719187 43.020442 -0.662356 1.246228 0.086373 0.002427 -517670.000000 0 0 1
31.861877 -23.591577 14.157687 42.097290 -0.637350 1.227802 0.079633 -0.006538 -44800.600000 0 0 1
32.832477 -22.946077 14.950287 42.755176 -0.609976 1.213575 0.088047 -0.013358 269701.000000 0 0 1
33.969477 -22.431377 14.231187 43.123297 -0.583609 1.234480 0.079329 -0.027917 907009.000000 0 0 1
35.058777 -21.829077 15.219887 44.014445 -0.556902 1.217713 0.081369 -0.033602 350610.000000 0 0 1
34.766277 -20.569877 15.809687 43.379258 -0.534266 1.197751 0.098682 -0.024653 339746.000000 0 0 1
33.679877 -20.552877 16.744387 42.861747 -0.547916 1.169447 0.087700 -0.022618 418275.000000 0 0 1
33.484077 -19.249277 17.517687 42.409756 -0.521743 1.144987 0.094294 -0.010509 -197485.000000 0 0 1
33.278777 -18.131077 16.687187 41.408636 -0.498861 1.156017 0.075533 -0.021897 87712.800000 0 0 1
33.297577 -16.876677 17.346887 41.163884 -0.469108 1.135796 0.052899 -0.010290 507200.000000 0 0 1
34.665277 -16.171577 17.667487 42.134801 -0.436496 1.138113 0.056901 -0.017866 517109.000000 0 0 1
35.438877 -16.693877 18.745387 43.427976 -0.440230 1.124483 0.049521 0.001718 -56681.000000 0 0 1
-35.767779 -15.878877 19.004687 43.504608 0.417806 1.118710 0.053172 -0.007123 -617424.000000 0 0 1
-35.361379 -15.733777 20.438487 43.768832 0.418640 1.084942 0.037438 0.002184 -336110.000000 0 0 1
-34.664379 -16.871877 20.883187 43.845033 0.452968 1.074360 0.053627 0.000011 244572.000000 0 0 1
-34.144179 -16.676077 22.197887 44.007530 0.454326 1.042097 0.038583 0.009599 20616.200000 0 0 1
-33.322279 -17.836477 22.805387 44.142948 0.491465 1.027891 0.042538 0.007757 -48900.300000 0 0 1
-34.048679 -19.087077 22.945187 45.278148 0.510931 1.039373 0.035653 0.005969 743117.000000 0 0 1
-33.273379 -20.153577 23.493687 45.444887 0.544598 1.027488 0.032284 0.005969 -263251.000000 0 0 1
-32.113379 -20.746377 22.693287 44.459718 0.573583 1.035119 0.031898 0.006121 -557103.000000 0 0 1
-30.910979 -20.046677 22.733187 43.291520 0.575341 1.017942 0.032992 0.008798 -290197.000000 0 0 1
-29.821279 -20.921177 22.483287 42.807739 0.611767 1.017828 0.041951 0.014420 291745.000000 0 0 1
-28.449279 -20.211377 22.334787 41.433126 0.617695 1.001480 0.052185 0.013346 3750.410000 0 0 1
-28.071679 -19.736177 23.579887 41.635885 0.612779 0.968743 0.036566 0.003762 -10065.800000 0 0 1
-27.216479 -18.630677 23.482887 40.488083 0.600272 0.952074 0.062582 0.003468 -444138.000000 0 0 1
-26.719479 -18.101577 24.792587 40.697298 0.595443 0.915751 0.054219 -0.005728 -922957.000000 0 0 1
-25.880379 -16.954777 24.584387 39.517725 0.579967 0.899361 0.053243 -0.006497 421134.000000 0 0 1
-25.374479 -16.558677 25.857987 39.833271 0.578181 0.864323 0.044653 -0.016728 701861.000000 0 0 1
-24.146879 -17.340477 26.462787 39.800038 0.622787 0.843445 0.043467 -0.010663 241269.000000 0 0 1
-24.568879 -18.576177 27.125387 41.042549 0.647385 0.848767 0.049254 -0.010194 -88254.700000 0 0 1
-23.541679 -19.080377 27.941587 41.218973 0.681107 0.825919 0.058988 -0.015388 -279509.000000 0 0 1
-23.979179 -20.243777 28.818587 42.606602 0.701131 0.827949 0.052713 -0.006953 -1267170.000000 0 0 1
-24.923679 -19.968177 29.738587 43.638302 0.675456 0.821015 0.040358 -0.018171 -978336.000000 0 0 1
-25.237979 -21.123877 30.427587 44.822002 0.696891 0.824596 0.031267 -0.014521 -569189.000000 0 0 1
-26.579779 -21.121877 31.144187 46.071452 0.671476 0.828479 0.023148 -0.011840 -760179.000000 0 0 1
-26.356379 -20.458377 32.422387 46.523275 0.660072 0.799721 0.031821 -0.021165 774053.000000 0 0 1
-27.437379 -20.524877 33.354187 47.818220 0.642260 0.798865 0.034939 -0.023201 361830.000000 0 0 1
-28.688679 -19.660577 33.137287 48.038093 0.600797 0.809566 0.026057 -0.027276 -24979.300000 0 0 1
-29.471879 -19.918077 31.983787 47.836012 0.594322 0.838454 0.033279 -0.026921 2021420.000000 0 0 1
-30.879179 -19.579177 32.232987 48.742521 0.565086 0.848258 0.045384 -0.034294 1347730.000000 0 0 1
-31.886579 -20.170777 31.284287 49.013476 0.564031 0.878535 0.042101 -0.006629 -709832.000000 0 0 1
-32.069179 -19.489977 30.032587 48.065037 0.546097 0.895880 0.042459 -0.019281 64506.900000 0 0 1
-33.070779 -20.041877 29.220787 48.468626 0.544841 0.923690 0.036117 -0.014202 -282054.000000 0 0 1
-33.448579 -19.124077 28.071687 47.671348 0.519385 0.941150 0.027675 -0.000513 -335776.000000 0 0 1
-34.489879 -19.694177 27.333987 48.213683 0.518833 0.968017 0.005132 0.008043 -133743.000000 0 0 1
-35.074179 -18.845977 26.393887 47.770348 0.493054 0.985416 0.019788 0.012613 -6972.750000 0 0 1
36.009777 -19.447677 25.633487 48.290701 -0.495185 1.011233 0.009163 0.013416 161728.000000 0 0 1
34.877977 -19.533577 26.478987 47.949668 -0.510530 0.985766 0.005415 0.016648 471462.000000 0 0 1
33.723777 -19.940577 25.725187 46.869019 -0.533991 0.989780 0.030212 0.019913 275429.000000 0 0 1
32.566177 -20.380377 26.621387 46.739853 -0.559185 0.964820 0.028532 0.006848 -334822.000000 0 0 1
32.044277 -19.403177 27.485687 46.462694 -0.544462 0.937798 0.025258 0.006540 135374.000000 0 0 1
30.916177 -19.941277 28.138087 46.316482 -0.572860 0.917864 0.020938 0.007343 -19731.600000 0 0 1
-30.018623 -5.873777 34.109996 45.816054 0.193230 0.731013 0.024210 -0.018402 495220.000000 0 0 1
-30.936093 -5.661077 33.004963 45.589662 0.180990 0.761275 0.026132 -0.010153 717741.000000 0 0 1
-30.491203 -4.684777 32.073033 44.501012 0.152451 0.765947 0.026301 -0.009253 -292939.000000 0 0 1
-31.201103 -4.576977 30.707013 44.015659 0.145654 0.798700 0.026744 -0.009597 -117461.000000 0 0 1
-30.931863 -5.631177 29.799573 43.318644 0.180079 0.812183 0.016132 -0.010929 607893.000000 0 0 1
-29.595853 -5.597277 29.276203 42.004049 0.186916 0.799612 0.023692 -0.012290 503434.000000 0 0 1
-29.277593 -6.579177 28.143063 41.139945 0.221045 0.817453 0.032222 -0.012325 61026.800000 0 0 1
-30.131643 -6.387577 27.043393 40.988562 0.208896 0.850272 0.025121 -0.012199 40777.900000 0 0 1
-29.543283 -7.055877 25.952253 39.951351 0.234440 0.863743 0.037966 -0.006276 158119.000000 0 0 1
-30.102423 -6.664177 24.554983 39.414646 0.217869 0.898235 0.038239 -0.001505 22441.300000 0 0 1
-29.801043 -5.336277 24.141543 38.721985 0.177186 0.897638 0.051478 -0.003422 19229.100000 0 0 1
-30.443793 -5.040877 22.903023 38.428940 0.164091 0.932306 0.061455 -0.000174 111708.000000 0 0 1
-29.891933 -3.758377 22.202423 37.424600 0.125076 0.935697 0.066685 -0.006641 18130.700000 0 0 1
-28.620123 -3.920277 21.638123 36.092775 0.136129 0.927903 0.075242 -0.006352 -375986.000000 0 0 1
-28.018593 -2.681777 21.356223 35.331597 0.095424 0.921720 0.081664 -0.008213 1053930.000000 0 0 1
-26.602473 -2.639677 20.663023 33.787868 0.098903 0.912776 0.089429 -0.009705 886862.000000 0 0 1
-26.638573 -3.226077 19.348823 33.081688 0.120519 0.946064 0.097785 -0.017382 -761651.000000 0 0 1
-25.437173 -3.029177 18.680223 31.704518 0.118526 0.940731 0.097220 -0.020262 -651277.000000 0 0 1
-25.235673 -3.874677 17.393323 30.893042 0.152350 0.972764 0.095952 -0.021440 -188502.000000 0 0 1
-26.109923 -3.440077 16.382323 31.015202 0.130999 1.014313 0.093237 -0.018427 189103.000000 0 0 1
-25.825583 -4.113877 15.188023 30.241706 0.157967 1.044631 0.092646 -0.019337 -1131030.000000 0 0 1
-27.037533 -4.190277 14.347023 30.893748 0.153757 1.087841 0.095121 -0.025038 -936247.000000 0 0 1
-27.540713 -2.968777 13.752023 30.926084 0.107381 1.109986 0.092019 -0.026249 527403.000000 0 0 1
-28.819333 -3.267077 13.182123 31.859004 0.112882 1.144211 0.086738 -0.025944 327590.000000 0 0 1
-29.337333 -2.019677 12.428123 31.925170 0.068735 1.170937 0.083231 -0.016308 -458265.000000 0 0 1
-28.545423 -1.633477 11.320723 30.751719 0.057161 1.193796 0.092798 -0.019989 136547.000000 0 0 1
-28.981923 -0.427277 10.717123 30.902931 0.014742 1.216640 0.098741 -0.010188 -28478.300000 0 0 1
-30.148173 -0.489877 9.700923 31.674283 0.016248 1.259523 0.087380 -0.005322 121437.000000 0 0 1
-29.912573 -1.117277 8.477023 31.110613 0.037334 1.294827 0.073942 -0.009263 -506497.000000 0 0 1
-31.147333 -1.334877 7.858023 32.151000 0.042831 1.323885 0.085376 -0.015208 -393983.000000 0 0 1
-31.230943 -2.232577 6.601323 31.998964 0.071365 1.363006 0.086636 -0.013483 -382609.000000 0 0 1
-30.703173 -1.598577 5.393623 31.214283 0.052019 1.397131 0.097299 -0.022799 237134.000000 0 0 1
-31.514753 -0.614977 4.805123 31.884904 0.019511 1.419518 0.101593 -0.019724 -447992.000000 0 0 1
-30.982103 0.040723 3.494423 31.178572 -0.001314 1.458483 0.101570 -0.024724 -45251.900000 0 0 1
-31.364053 -0.775077 2.400523 31.465331 0.024707 1.494431 0.101257 -0.032794 677813.000000 0 0 1
-30.633373 -0.432977 1.222523 30.660815 0.014133 1.530913 0.101248 -0.042390 -11258.200000 0 0 1
-31.426913 -1.042777 0.072723 31.444293 0.033169 1.568484 0.104367 -0.041298 -95354.800000 0 0 1
-32.774273 -0.630377 0.066223 32.780402 0.019232 1.568776 0.101799 -0.034343 -47044.900000 0 0 1
-33.417043 -0.977377 -1.151177 33.451147 0.029240 1.605217 0.113690 -0.032222 -409306.000000 0 0 1
-34.882275 -0.525377 -1.128377 34.904475 0.015060 1.603130 0.129435 -0.035677 -563792.000000 0 0 1
-35.692729 -1.438677 -0.399077 35.723941 0.040285 1.581968 0.110213 -0.028292 -501145.000000 0 0 1
35.269053 -1.088977 -0.469977 35.288990 -0.030866 1.584115 0.109058 -0.028568 -255154.000000 0 0 1
34.252303 -2.223777 -0.116977 34.324614 -0.064832 1.574204 0.102637 -0.026461 -141497.000000 0 0 1
34.416093 -2.642677 1.195423 34.538098 -0.076636 1.536178 0.094022 -0.030639 7802.050000 0 0 1
33.614603 -3.729777 1.573323 33.857468 -0.110505 1.524311 0.090072 -0.020644 -430006.000000 0 0 1
33.774463 -4.113277 3.038823 34.159447 -0.121190 1.481719 0.093141 -0.017884 276323.000000 0 0 1
33.061913 -3.218577 3.892823 33.445529 -0.097044 1.454139 0.093648 -0.026698 372020.000000 0 0 1
33.109693 -3.756677 5.234723 33.730798 -0.112978 1.414975 0.084932 -0.019880 -17444.000000 0 0 1
32.478283 -2.879077 6.322323 33.212945 -0.088415 1.379270 0.091866 -0.019149 405741.000000 0 0 1
31.059203 -2.797277 6.408823 31.836643 -0.089820 1.368108 0.083616 -0.021336 257700.000000 0 0 1
30.697743 -1.715077 7.252523 31.589429 -0.055812 1.339143 0.096998 -0.022551 -678826.000000 0 0 1
29.211953 -1.689777 7.598223 30.231218 -0.057781 1.316735 0.086788 -0.022320 -1404630.000000 0 0 1
28.404963 -1.413277 6.506223 29.174821 -0.049714 1.345897 0.088426 -0.023876 25104.800000 0 0 1
27.019033 -1.435377 6.803623 27.899422 -0.053075 1.324450 0.092805 -0.019479 399520.000000 0 0 1
26.374333 -2.882377 6.845723 27.400319 -0.108855 1.318280 0.108260 -0.028793 -741970.000000 0 0 1
26.736933 -3.698577 7.991223 28.149648 -0.137460 1.282954 0.094361 -0.029455 642105.000000 0 0 1
26.049733 -4.951277 7.965523 27.686699 -0.187830 1.278970 0.099232 -0.027560 -3137.050000 0 0 1
26.410633 -5.883377 9.196923 28.578297 -0.219187 1.243151 0.099353 -0.032745 -399954.000000 0 0 1
25.880333 -5.456077 10.396523 28.419150 -0.207777 1.196274 0.102586 -0.030013 348585.000000 0 0 1
26.156233 -6.440077 11.365023 29.236738 -0.241414 1.171550 0.098946 -0.023552 -89551.100000 0 0 1
25.248433 -6.211377 12.595123 28.891204 -0.241220 1.119703 0.089862 -0.023220 412996.000000 0 0 1
23.963333 -6.789677 12.413923 27.828879 -0.276100 1.108415 0.100245 -0.028396 623533.000000 0 0 1
23.026033 -6.379377 13.437823 27.412948 -0.270272 1.058477 0.108028 -0.026563 704078.000000 0 0 1
21.836533 -7.352377 13.575923 26.743173 -0.324778 1.038352 0.094361 -0.032024 -186654.000000 0 0 1
22.195233 -8.579377 14.206123 27.713679 -0.368851 1.032582 0.081460 -0.030654 49927.800000 0 0 1
21.277833 -9.629877 14.062823 27.262496 -0.424996 1.028820 0.107195 -0.049410 -594930.000000 0 0 1
21.887933 -10.892377 14.739723 28.547941 -0.461760 1.028254 0.098510 -0.044991 -97083.600000 0 0 1
22.031233 -10.683577 16.134023 29.322700 -0.451518 0.988165 0.111192 -0.037941 301894.000000 0 0 1
22.318533 -11.927477 16.753323 30.348895 -0.490803 0.986006 0.091651 -0.030062 -116069.000000 0 0 1
22.158433 -11.840677 18.290123 31.076139 -0.490760 0.941522 0.097077 -0.027244 -436571.000000 0 0 1
20.801733 -11.841277 18.665823 30.353598 -0.517498 0.908479 0.098751 -0.027345 -179303.000000 0 0 1
20.631233 -12.322277 20.006823 31.269142 -0.538405 0.876524 0.113042 -0.016490 138887.000000 0 0 1
20.947033 -11.318277 21.134323 31.836162 -0.495387 0.844846 0.084357 -0.018054 325589.000000 0 0 1
19.940433 -10.305577 21.363423 30.987443 -0.477011 0.810106 0.077276 -0.027818 327455.000000 0 0 1
19.994633 -9.090877 20.570223 30.092582 -0.426727 0.818161 0.083069 -0.019079 -705161.000000 0 0 1
20.985833 -7.915577 20.898123 30.656045 -0.360686 0.820717 0.067238 0.000043 2414840.000000 0 0 1
22.427133 -8.205477 20.901423 31.736031 -0.350745 0.851836 0.072237 -0.011379 2011990.000000 0 0 1
22.966733 -8.565377 19.643623 31.411915 -0.356970 0.895209 0.066116 -0.012051 -377451.000000 0 0 1
24.425733 -9.094677 19.671023 32.653924 -0.356437 0.924280 0.053151 -0.010555 72065.200000 0 0 1
24.423933 -10.398277 20.175423 33.342171 -0.402498 0.920902 0.042628 -0.012814 590550.000000 0 0 1
25.689933 -11.065977 20.009023 34.391707 -0.406732 0.949859 0.036860 -0.014295 776425.000000 0 0 1
25.562133 -12.525777 20.268223 34.944507 -0.455626 0.952053 0.016473 -0.010034 -45213.400000 0 0 1
24.794833 -13.230577 19.320123 34.104238 -0.490167 0.968541 0.049355 -0.021813 -48223.200000 0 0 1
24.820133 -14.607177 19.654723 34.867130 -0.531937 0.971934 0.036124 -0.016011 171929.000000 0 0 1
23.636433 -15.423477 19.036223 34.043243 -0.578152 0.977403 0.054151 -0.018022 -58217.200000 0 0 1
23.684433 -15.490577 17.653923 33.355230 -0.579210 1.013056 0.037189 -0.025539 -121935.000000 0 0 1
22.607533 -16.067677 16.965623 32.513123 -0.617886 1.021827 0.049431 -0.033211 -592711.000000 0 0 1
22.525033 -17.633477 17.061423 33.307789 -0.664189 1.033011 0.026425 -0.031930 640897.000000 0 0 1
23.747933 -18.214877 16.535823 34.193267 -0.654298 1.066035 0.025834 -0.020937 1084350.000000 0 0 1
23.634833 -19.603377 16.489723 34.854106 -0.692429 1.077982 0.015882 -0.019074 -466889.000000 0 0 1
24.958633 -20.266977 16.135523 35.972751 -0.682029 1.105656 0.019612 -0.002135 -550875.000000 0 0 1
25.241733 -20.122377 14.761723 35.495966 -0.673023 1.141897 0.021712 -0.016591 188610.000000 0 0 1
26.303133 -20.979777 14.361123 36.582068 -0.673285 1.167369 0.028163 -0.012872 -128257.000000 0 0 1
26.526233 -20.973277 12.855223 36.177011 -0.669021 1.207516 0.033681 -0.029801 -390386.000000 0 0 1
25.425833 -21.491577 12.156423 35.442058 -0.701739 1.220694 0.023269 -0.023839 -64820.100000 0 0 1
25.338633 -21.060277 10.812323 34.676908 -0.693450 1.253708 0.053116 -0.017002 -215535.000000 0 0 1
23.991933 -21.461777 10.206223 33.769627 -0.729791 1.263764 0.006169 -0.010845 -219622.000000 0 0 1
23.838233 -22.853577 10.005723 34.505968 -0.764313 1.276600 0.004800 -0.012590 -225625.000000 0 0 1
22.466133 -23.161177 9.989523 33.778067 -0.800630 1.270566 -0.015635 -0.000498 -23200.800000 0 0 1
21.974233 -24.023577 8.789523 33.723210 -0.829922 1.307114 -0.006196 -0.001523 -478560.000000 0 0 1
22.382133 -25.391087 8.956923 35.012764 -0.848299 1.312102 -0.009727 -0.005336 -19456.100000 0 0 1
22.076833 -26.291907 7.932723 35.236047 -0.872323 1.343719 0.002403 -0.008108 16278.000000 0 0 1
20.571833 -26.603537 7.735823 34.507846 -0.912565 1.344699 0.003483 -0.002126 152256.000000 0 0 1
19.809733 -25.516827 7.273023 33.112397 -0.910650 1.349344 0.004327 0.005140 -96576.400000 0 0 1
18.408233 -25.738657 7.441123 32.507104 -0.949943 1.339841 0.009859 -0.007663 360003.000000 0 0 1
17.650533 -24.436377 7.362923 31.030476 -0.945256 1.331231 0.010987 -0.002864 -524192.000000 0 0 1
17.467333 -23.800577 6.105923 30.147263 -0.937677 1.366849 0.029578 -0.008759 369239.000000 0 0 1
16.649933 -22.641877 6.291223 28.800249 -0.936731 1.350577 0.040748 -0.010148 202867.000000 0 0 1
16.189733 -21.867477 5.049523 27.672941 -0.933496 1.387297 0.050277 -0.002352 -238086.000000 0 0 1
15.509933 -20.691577 5.393123 26.415623 -0.927566 1.365187 0.080502 -0.007539 -125516.000000 0 0 1
14.909533 -20.219677 4.192923 25.469788 -0.935423 1.405420 0.066753 -0.009351 -65078.800000 0 0 1
14.258833 -18.857577 4.269923 24.024046 -0.923382 1.392112 0.075352 -0.004752 -277158.000000 0 1 0
15.127133 -17.808177 4.624623 23.819078 -0.866622 1.375399 0.059349 -0.002783 -189683.000000 0 1 0
14.612533 -16.557577 4.381923 22.514012 -0.847718 1.374915 0.049578 -0.003517 -193412.000000 0 1 0
15.700733 -15.519977 4.672723 22.565838 -0.779609 1.362217 0.042453 0.000561 -1379260.000000 0 1 0
16.136833 -15.312377 5.959223 23.029950 -0.759189 1.309058 0.051410 -0.008445 -694629.000000 0 1 0
17.119233 -14.353277 5.964723 23.122773 -0.697739 1.309887 0.049983 -0.010807 336930.000000 0 1 0
18.542233 -14.810477 5.481323 24.355893 -0.673974 1.343801 0.060563 -0.015072 -354618.000000 0 1 0
19.576733 -13.893077 5.661023 24.664007 -0.617188 1.339206 0.064265 -0.014701 596899.000000 0 1 0
20.918633 -14.362877 5.504823 25.965063 -0.601681 1.357166 0.060635 -0.008588 936919.000000 0 0 1
21.950033 -13.200977 5.344623 26.165526 -0.541456 1.365087 0.062652 -0.012117 10599.000000 0 0 1
22.178633 -12.623177 6.574523 26.352622 -0.517434 1.318650 0.086229 -0.018231 -187707.000000 0 0 1
23.239233 -11.734877 6.522923 26.838737 -0.467608 1.325296 0.089471 -0.017670 -387106.000000 0 0 1
23.477833 -10.864877 7.838123 27.031285 -0.433424 1.276606 0.102771 -0.021584 46558.800000 0 0 1
23.699033 -11.726077 8.980823 27.924903 -0.459472 1.243371 0.090378 -0.017354 300787.000000 0 0 1
23.558333 -11.042177 10.186123 27.940684 -0.438309 1.197633 0.112848 -0.031980 -52640.700000 0 0 1
23.937133 -11.817577 11.408423 29.030907 -0.458589 1.166932 0.083162 -0.022029 -102898.000000 0 0 1
22.916133 -12.755777 11.697123 28.717272 -0.507918 1.151278 0.082527 -0.026052 343521.000000 0 0 1
23.347333 -13.772977 12.558723 29.874979 -0.532972 1.136937 0.080685 -0.023789 -120677.000000 0 0 1
22.341733 -14.955377 12.738523 29.750400 -0.589887 1.128319 0.057176 -0.029036 -457159.000000 0 0 1
21.253633 -14.473277 13.465923 29.026260 -0.597846 1.088379 0.058818 -0.030865 -481986.000000 0 0 1
20.514033 -15.660077 13.850823 29.290081 -0.652012 1.078235 0.038021 -0.031165 2167940.000000 0 0 1
19.014133 -15.312477 14.379123 28.333168 -0.677977 1.038514 0.040261 -0.034307 1733460.000000 0 0 1
19.022733 -14.821177 15.704323 28.777724 -0.661885 0.993559 0.045594 -0.031898 121853.000000 0 0 1
18.748333 -13.460377 15.717023 27.923226 -0.622672 0.972948 0.067586 -0.039073 923549.000000 0 0 1
17.234433 -12.985977 15.682423 26.675826 -0.645731 0.942350 0.060087 -0.035190 587088.000000 0 0 1
16.578833 -13.357177 14.472823 25.743630 -0.678193 0.973764 0.057948 -0.036384 763659.000000 0 0 1
15.162033 -13.105777 14.540923 24.760595 -0.712784 0.943126 0.084793 -0.038062 842716.000000 0 1 0
14.651633 -11.724577 14.286023 23.584455 -0.674877 0.920102 0.064335 -0.028672 -741589.000000 0 1 0
15.087533 -10.719677 15.175823 23.934300 -0.617738 0.884002 0.049499 -0.017230 78249.300000 0 1 0
14.580233 -9.442577 14.847223 22.851378 -0.574706 0.863567 0.031900 -0.015829 -601347.000000 0 1 0
15.127433 -8.414677 15.883023 23.492902 -0.507631 0.828370 0.031413 -0.014208 658714.000000 0 1 0
16.548733 -8.392377 15.987123 24.492461 -0.469336 0.859605 0.037902 -0.023679 454380.000000 0 1 0
17.196533 -9.256077 16.898323 25.825356 -0.493779 0.857499 0.060931 -0.021200 892278.000000 0 0 1
18.753933 -8.986877 16.816723 26.744647 -0.446869 0.890802 0.075224 -0.029323 971660.000000 0 0 1
19.111033 -7.731377 17.330123 26.932117 -0.384423 0.871768 0.066437 -0.026334 3184.910000 0 0 1
20.394933 -7.360077 16.881023 27.478955 -0.346332 0.909265 0.062487 -0.019910 -113363.000000 0 0 1
20.908633 -5.971177 17.248623 27.755016 -0.278179 0.900192 0.054329 -0.009366 -213584.000000 0 0 1
21.498833 -5.669477 18.467923 28.903408 -0.257841 0.877660 0.069857 -0.011523 -18064.000000 0 0 1
22.215333 -4.493177 18.472123 29.239169 -0.199564 0.886975 0.073021 -0.008705 -219293.000000 0 0 1
-5.306823 -33.429682 -6.260213 34.422323 1.413364 1.753679 0.009930 -0.011633 -628233.000000 0 0 1
-6.087423 -32.288882 -6.079613 33.415421 1.384454 1.753756 0.007298 -0.011931 -206713.000000 0 0 1
-5.563623 -31.272082 -5.236213 32.191846 1.394728 1.734179 0.016296 -0.014892 -1404970.000000 0 0 1
-6.115923 -29.921782 -5.586013 31.047079 1.369176 1.751702 0.021833 -0.013325 1212.810000 0 0 1
-7.498323 -29.805382 -5.345713 31.195549 1.324335 1.743008 0.009653 -0.012911 -136148.000000 0 0 1
-8.344423 -30.343682 -6.323513 32.099147 1.302433 1.769093 0.006177 -0.011198 -1742780.000000 0 0 1
-9.793723 -30.115282 -5.972913 32.226122 1.256377 1.757218 0.045335 -0.006424 -946056.000000 0 0 1
-10.778023 -30.688082 -6.792413 33.227414 1.233042 1.776669 0.031381 -0.014282 -912382.000000 0 0 1
-12.011823 -30.341282 -6.267913 33.228964 1.193838 1.760561 0.039456 -0.013746 -871223.000000 0 0 1
-13.240623 -30.849782 -7.018513 34.296978 1.165376 1.776892 0.055404 -0.023997 -146309.000000 0 0 1
-13.474623 -30.135482 -8.222213 34.019370 1.150328 1.814906 0.070090 -0.030178 -384255.000000 0 0 1
-14.638023 -30.579882 -8.851113 35.039165 1.124349 1.826169 0.089519 -0.029725 -313748.000000 0 0 1
-14.899223 -29.876882 -10.222513 34.915823 1.108199 1.867925 0.095565 -0.029334 -425590.000000 0 0 1
-15.236023 -28.513582 -10.096813 33.868959 1.080054 1.873513 0.101265 -0.028738 324893.000000 0 0 1
-14.130123 -27.622782 -9.974013 32.590787 1.097960 1.881825 0.088903 -0.026308 -136120.000000 0 0 1
-14.490123 -26.121582 -9.677413 31.399889 1.064338 1.884096 0.084970 -0.015865 104998.000000 0 0 1
-15.090623 -25.395382 -10.769513 31.442563 1.034632 1.920388 0.100829 -0.023527 532498.000000 0 0 1
-15.310223 -24.000882 -10.410813 30.312214 1.002973 1.921387 0.080538 -0.008606 -355062.000000 0 0 1
-15.800023 -23.215282 -11.609313 30.386941 0.973218 1.962809 0.081314 -0.005510 225266.000000 0 0 1
-17.170923 -23.545682 -11.818913 31.447201 0.940702 1.956092 0.075960 -0.005873 322597.000000 0 0 1
-17.736423 -23.028082 -12.993213 31.838606 0.914487 1.991164 0.080190 -0.011652 589081.000000 0 0 1
-19.189323 -23.598482 -13.218813 33.164069 0.888083 1.980773 0.062273 -0.002085 621128.000000 0 0 1
-19.349023 -25.018282 -13.486513 34.382920 0.912490 1.973867 0.085794 -0.008400 -22949.500000 0 0 1
-19.276323 -25.765782 -12.308013 34.451986 0.928489 1.936120 0.100662 -0.021473 -1018190.000000 0 0 1
-19.325023 -27.279982 -12.493113 35.689380 0.954458 1.928422 0.108984 -0.032318 699887.000000 0 0 1
-18.324623 -27.962982 -13.262413 35.966815 0.990692 1.948450 0.105506 -0.028015 1013790.000000 0 0 1
-16.934223 -27.653282 -13.116113 34.978627 1.021326 1.955166 0.104572 -0.031444 444045.000000 0 0 1
-16.072923 -28.853482 -13.609913 35.722430 1.062554 1.961664 0.096150 -0.033982 -194770.000000 0 0 1
-16.146823 -29.019082 -15.007313 36.442372 1.063037 1.995235 0.098915 -0.033274 -420712.000000 0 0 1
-15.397923 -30.051482 -15.531413 37.167357 1.097290 2.001904 0.109792 -0.037564 -403387.000000 0 0 1
-16.030023 -31.477682 -15.523413 38.584744 1.099776 1.984846 0.103393 -0.042750 -95755.100000 0 0 1
-16.325623 -31.864682 -14.203513 38.517836 1.097324 1.948462 0.100207 -0.042757 99144.500000 0 0 1
-16.920323 -33.123682 -14.236613 39.826584 1.098528 1.936349 0.073763 -0.038285 -990265.000000 0 0 1
-17.422423 -33.699282 -12.875613 40.062000 1.093644 1.897996 0.098234 -0.033754 871349.000000 0 0 1
-18.743223 -33.328082 -12.422713 40.204394 1.058494 1.884926 0.118623 -0.036817 893393.000000 0 0 1
-19.184123 -31.988682 -12.256813 39.262397 1.030586 1.888280 0.120138 -0.042606 -643712.000000 0 0 1
-18.477623 -30.971082 -11.335813 37.803851 1.032874 1.875341 0.131178 -0.042364 -430064.000000 0 0 1
-18.586223 -31.276882 -9.922013 37.711237 1.034617 1.837035 0.124313 -0.046663 152579.000000 0 0 1
-18.414523 -30.114482 -9.154713 36.466224 1.021975 1.824557 0.124940 -0.038463 -280376.000000 0 0 1
-18.686823 -30.411482 -7.677213 36.510207 1.019808 1.782653 0.130578 -0.040393 -114941.000000 0 0 1
-17.682923 -31.245582 -7.165213 36.610278 1.055802 1.767784 0.131876 -0.045385 -46445.600000 0 0 1
-17.878823 -31.625982 -5.786113 36.787690 1.056267 1.728736 0.128605 -0.045312 -295337.000000 0 0 1
-16.897523 -32.715382 -5.300913 37.201105 1.094035 1.713776 0.128040 -0.035261 1723980.000000 0 0 1
-15.545823 -32.307682 -4.903113 36.187007 1.122317 1.706708 0.114141 -0.030125 1683550.000000 0 0 1
-15.525523 -31.739882 -3.562313 35.512703 1.115867 1.671276 0.088533 -0.030450 -872530.000000 0 0 1
-14.245423 -31.030882 -3.158713 34.290308 1.140423 1.663044 0.077196 -0.024349 47485.700000 0 0 1
-13.108423 -31.916582 -3.170313 34.648952 1.181092 1.662423 0.038254 -0.016575 18065.400000 0 0 1
-11.993723 -31.229182 -2.672113 33.559669 1.204111 1.650503 0.032310 -0.010571 580081.000000 0 0 1
-10.674923 -32.084582 -2.548213 33.909701 1.249605 1.646014 0.031755 -0.015089 328790.000000 0 0 1
-10.805723 -33.180682 -1.694213 34.936967 1.255965 1.619309 0.039773 -0.014154 -43462.600000 0 0 1
-9.655623 -34.004482 -1.696213 35.389448 1.294127 1.618745 0.040190 -0.020672 120956.000000 0 0 1
-8.478423 -33.535682 -0.800313 34.600089 1.323167 1.593929 0.037716 -0.022861 -461804.000000 0 0 1
-8.777623 -33.456982 0.569387 34.593938 1.314223 1.554336 0.054338 -0.019696 -454429.000000 0 0 1
-7.719023 -32.965782 1.354087 33.884505 1.340788 1.530824 0.052551 -0.024103 756316.000000 0 0 1
-6.688123 -34.105682 1.784587 34.801053 1.377154 1.519494 0.066475 -0.029324 407371.000000 0 0 1
-7.225023 33.770523 2.885187 34.655064 -1.360029 1.487445 0.087093 -0.031184 105407.000000 0 0 1
-6.373423 32.811823 3.458587 33.603543 -1.378944 1.467690 0.075882 -0.026682 100766.000000 0 0 1
-5.351323 33.304423 4.523287 34.033533 -1.411479 1.437495 0.067253 -0.024308 -247450.000000 0 0 1
-4.435923 34.237823 4.126087 34.769678 -1.441952 1.451847 0.065187 -0.023819 -954002.000000 0 0 1
-3.716123 -33.903782 5.227187 34.505065 1.461624 1.418720 0.039640 -0.019382 -15058.800000 0 0 1
-2.633023 -32.865882 4.909887 33.334757 1.490853 1.422968 0.064052 -0.016392 -225881.000000 0 0 1
-3.113623 -31.669682 4.350587 32.118391 1.472796 1.434924 0.054247 -0.013231 -104440.000000 0 0 1
-3.286223 -31.777082 2.937087 32.081283 1.467748 1.479117 0.062383 -0.014234 -253693.000000 0 0 1
-3.952123 -30.549782 2.380387 30.896193 1.442144 1.493675 0.052957 -0.014961 -127238.000000 0 0 1
-3.078523 -29.446182 2.354387 29.700136 1.466627 1.491441 0.050286 -0.015072 100540.000000 0 0 1
-3.731723 -28.292782 1.829687 28.596417 1.439657 1.506770 0.055227 -0.011412 92091.300000 0 0 1
-2.913823 -27.039482 2.114587 27.278113 1.463449 1.493199 0.057271 -0.012307 -95951.900000 0 0 1
-3.384023 -25.856882 1.500187 26.120500 1.440661 1.513331 0.066812 -0.018794 -332574.000000 0 0 1
-3.037823 -24.649482 2.165787 24.930222 1.448174 1.483813 0.046495 -0.015795 170187.000000 0 1 0
-4.057923 -24.187082 3.256987 24.740446 1.404572 1.438767 0.031153 -0.008093 92898.800000 0 1 0
-4.137123 -24.975082 4.413387 25.697247 1.406637 1.398195 0.046696 -0.008162 518266.000000 0 0 1
-5.099423 -24.371482 5.303687 25.457855 1.364535 1.360927 0.025853 0.001321 286050.000000 0 0 1
-5.766623 -25.340082 6.303387 26.741473 1.347038 1.332841 0.034660 -0.001656 -505869.000000 0 0 1
-4.961123 -25.836582 7.331687 27.311085 1.381086 1.299012 0.045222 0.001408 -271100.000000 0 0 1
-5.700423 -26.639282 8.243987 28.462423 1.359990 1.276941 0.045416 -0.000604 22601.300000 0 0 1
-4.948023 -27.217482 9.471387 29.240066 1.390965 1.240928 0.035998 0.005599 33715.200000 0 0 1
-4.570323 -26.340882 10.549887 28.740738 1.399000 1.194938 0.029953 -0.002394 798396.000000 0 0 1
-5.702323 -25.740982 11.229387 28.656828 1.352790 1.168147 0.028729 -0.005184 694387.000000 0 0 1
-5.320123 -24.746382 12.331187 28.155733 1.359034 1.117464 0.024221 -0.000464 45130.600000 0 0 1
-4.526623 -25.338582 13.321487 28.982686 1.394016 1.093211 0.031401 0.000182 -254886.000000 0 0 1
-3.740323 -24.399082 14.062587 28.408829 1.418683 1.052953 0.011519 -0.001713 556490.000000 0 0 1
-2.637523 -25.170382 14.887187 29.362102 1.466391 1.039072 0.013834 -0.008031 189793.000000 0 0 1
-3.106023 -25.734182 16.087887 30.507632 1.450681 1.015330 0.009268 -0.005266 97963.600000 0 0 1
-2.211023 -26.631482 16.814387 31.572901 1.487963 1.009177 0.000270 0.008748 292527.000000 0 0 1
-2.660323 -27.087782 18.215687 32.751130 1.472899 0.981008 0.017183 -0.010348 -184506.000000 0 0 1
-2.742423 -26.026882 19.094787 32.396456 1.465815 0.940468 0.009834 -0.007901 -166215.000000 0 0 1
-2.756623 -26.424682 20.438587 33.520123 1.466852 0.915063 0.028284 -0.020413 -88020.500000 0 0 1
-2.882423 -25.176082 21.349787 33.135432 1.456802 0.870664 0.026245 -0.022836 -110303.000000 0 0 1
-2.816123 -25.559582 22.733187 34.322304 1.461060 0.846853 0.028508 -0.028941 -3149.210000 0 0 1
-2.775023 -24.483682 23.725087 34.205719 1.457936 0.804322 0.019617 -0.026981 1051670.000000 0 0 1
-1.652123 -23.353182 23.522887 33.187751 1.500169 0.783026 0.016457 -0.021506 1122710.000000 0 0 1
-2.266223 -22.208782 22.877387 31.964678 1.469107 0.773158 0.033614 -0.015476 57875.500000 0 0 1
-1.313423 -21.375882 22.280387 30.904192 1.509429 0.765624 0.030647 -0.017954 -318103.000000 0 0 1
-1.967423 -20.333882 21.306287 29.517713 1.474341 0.764377 0.026746 -0.006900 -480353.000000 0 0 1
-2.677023 -19.273982 21.915487 29.307702 1.432786 0.726096 0.040291 -0.021549 -332459.000000 0 0 1
-4.002623 -19.523582 22.291687 29.901682 1.368584 0.729512 0.043806 -0.022420 -259219.000000 0 0 1
-5.096423 -19.469282 21.176687 29.214355 1.314774 0.759947 0.030153 -0.020216 -176928.000000 0 0 1
-5.063323 -20.440882 20.144287 29.142052 1.327978 0.807586 0.037626 -0.014367 -219347.000000 0 0 1
-5.509123 -21.735982 20.606987 30.454085 1.322567 0.827583 0.021298 -0.004237 96890.400000 0 0 1
-5.239823 -22.722182 19.433187 30.354605 1.344154 0.876031 0.017826 0.002824 218286.000000 0 0 1
-6.045823 -23.894482 19.442387 31.392749 1.322976 0.902911 0.017046 -0.004604 15093.700000 0 0 1
-5.678123 -24.681182 18.359487 31.280547 1.344672 0.943535 0.019561 -0.000827 332.960000 0 0 1
-6.463223 -26.016082 18.232387 32.419589 1.327294 0.973525 0.023141 -0.008104 858169.000000 0 0 1
-7.858923 -25.809382 17.998287 32.431855 1.275217 0.982485 0.038771 -0.017000 322350.000000 0 0 1
-8.547423 -26.993182 17.629287 33.353892 1.264134 1.013902 0.038917 -0.022952 454561.000000 0 0 1
-10.088723 -26.876182 17.745687 33.749384 1.211694 1.017132 0.049429 -0.017378 -337677.000000 0 0 1
-10.710523 -26.047282 16.768687 32.777509 1.180676 1.033761 0.054859 -0.019063 475462.000000 0 0 1
-12.131923 -25.984482 16.908587 33.290797 1.133985 1.038044 0.047434 -0.014094 694250.000000 0 0 1
-12.568523 -25.096482 18.104587 33.400258 1.106502 0.997922 0.047724 -0.019588 -1068680.000000 0 0 1
-12.546923 -23.702682 17.822487 32.200675 1.083948 0.984257 0.040528 -0.014030 -72422.200000 0 0 1
-12.686323 -22.792682 18.909387 32.218226 1.062903 0.943552 0.039432 -0.011765 -549646.000000 0 0 1
-11.428323 -22.407982 19.688387 31.943025 1.099172 0.906685 0.034949 -0.015182 -283976.000000 0 0 1
-10.993723 -23.332282 20.668587 33.052199 1.130469 0.895240 0.031734 -0.016262 -599173.000000 0 0 1
-9.765223 -23.841382 20.245287 32.766488 1.182049 0.904771 0.043074 -0.016820 -761295.000000 0 0 1
-9.251523 -24.764682 21.331087 33.969036 1.213274 0.891871 0.038527 -0.017903 -110860.000000 0 0 1
-8.836223 -24.070582 22.487987 34.105444 1.218973 0.850821 0.033673 -0.019778 -340907.000000 0 0 1
-7.811023 -24.710982 23.171287 34.764253 1.264639 0.841257 0.031922 -0.024366 -246963.000000 0 0 1
-7.571423 -24.059682 24.542487 35.192733 1.265914 0.799070 0.037990 -0.027498 -395934.000000 0 0 1
-6.587523 -24.728982 25.240487 35.944404 1.310453 0.792301 0.038310 -0.031525 -480691.000000 0 0 1
-6.736623 -24.400882 26.601587 36.720969 1.301425 0.760596 0.039850 -0.024583 -436370.000000 0 0 1
-5.604323 -24.965382 27.469187 37.539779 1.349973 0.749932 0.039293 -0.023598 -1055950.000000 0 0 1
-4.433823 -24.400782 27.015687 36.672937 1.391049 0.742670 0.034056 -0.021210 -1351350.000000 0 0 1
-3.320423 -24.760382 27.770687 37.353886 1.437489 0.732584 0.034475 -0.022088 -251584.000000 0 0 1
-1.991323 -24.079582 27.411287 36.539982 1.488286 0.722474 0.029886 -0.023903 -484628.000000 0 0 1
-1.941623 -22.690482 27.754987 35.902189 1.485434 0.687126 0.037294 -0.026304 -301363.000000 0 0 1
-0.906923 -22.123082 26.980487 34.902721 1.529825 0.687209 0.036007 -0.027308 -8692.200000 0 0 1
0.318777 -21.891482 27.899487 35.464348 -1.556236 0.665366 0.044446 -0.027916 -662712.000000 0 0 1
0.930077 -23.063482 28.250887 36.481528 -1.530491 0.685048 0.050277 -0.024357 -591904.000000 0 0 1
1.722877 -22.974882 29.384287 37.339655 -1.495947 0.664953 0.049503 -0.030292 -57503.600000 0 0 1
2.411577 -24.260382 29.936687 38.608122 -1.471718 0.683450 0.065303 -0.035730 30171.000000 0 0 1
3.368377 -24.846382 29.042587 38.368744 -1.436050 0.712189 0.062889 -0.042644 820664.000000 0 0 1
4.266677 -25.762282 29.665687 39.521547 -1.406669 0.721796 0.065640 -0.032643 -244808.000000 0 0 1
5.396977 -25.194982 30.598587 40.002350 -1.359777 0.699880 0.071525 -0.038602 -526811.000000 0 0 1
6.528077 -24.640982 30.029987 39.390277 -1.311818 0.703828 0.069361 -0.034978 -357375.000000 0 0 1
7.359177 -25.546182 29.337987 39.591443 -1.290317 0.736211 0.065576 -0.032470 -1073510.000000 0 0 1
8.400477 -24.840982 28.490587 38.721518 -1.244699 0.743976 0.059932 -0.021944 -211893.000000 0 0 1
7.796777 -24.208882 27.354887 37.351701 -1.259223 0.749015 0.066333 -0.029413 153760.000000 0 0 1
8.771077 -23.597382 26.521787 36.567382 -1.214925 0.759348 0.060821 -0.017378 -206208.000000 0 0 1
8.420577 -22.508382 25.547987 35.074678 -1.212807 0.754830 0.063407 -0.020046 -139824.000000 0 0 1
7.761777 -23.055282 24.396587 34.452644 -1.246055 0.783965 0.068215 -0.013233 212976.000000 0 0 1
7.115377 -22.095582 23.604187 33.105906 -1.259256 0.777043 0.067902 -0.009930 -15314.100000 0 0 1
6.548277 -22.460182 22.239487 32.279010 -1.287109 0.810720 0.070844 -0.010351 329009.000000 0 0 1
7.561577 -23.072082 21.436487 32.388600 -1.254091 0.847509 0.071445 -0.008549 696532.000000 0 0 1
7.080977 -23.191982 20.108487 31.501738 -1.274466 0.878470 0.079047 -0.002464 445979.000000 0 0 1
8.067177 -24.115982 19.350687 31.954797 -1.247982 0.920321 0.102937 -0.015239 -79614.400000 0 0 1
9.369277 -23.630282 19.305587 31.919888 -1.193316 0.921264 0.103741 -0.019142 -941752.000000 0 0 1
10.259177 -24.493282 18.656887 32.453829 -1.174141 0.958345 0.115247 -0.020088 686427.000000 0 0 1
11.529077 -23.672782 18.195287 32.006073 -1.117588 0.966121 0.086010 -0.024849 750496.000000 0 0 1
11.245777 -22.814782 17.088887 30.643300 -1.112832 0.979219 0.085756 -0.021513 255097.000000 0 0 1
12.482777 -22.331182 16.580587 30.486346 -1.061082 0.995755 0.074960 -0.025910 398302.000000 0 0 1
-12.303523 22.560123 11.426887 28.123115 -1.071518 1.152377 0.017837 -0.001588 47417.400000 0 0 1
-13.371123 21.656323 11.170187 27.794898 -1.017664 1.157228 0.003038 -0.009972 215666.000000 0 0 1
-12.855623 20.411223 10.698487 26.388306 -1.008730 1.153352 0.025544 -0.014900 -217170.000000 0 0 1
-13.651823 19.745023 9.580687 25.846233 -0.965862 1.191055 0.032780 -0.019065 -939916.000000 0 0 1
-13.702223 20.453623 8.372087 26.003720 -0.980547 1.243000 0.034886 -0.025338 -207015.000000 0 0 1
-14.149923 19.690623 7.303787 25.323631 -0.947688 1.278222 0.031051 -0.030890 -462593.000000 0 0 1
-15.656123 19.432723 7.182587 25.967951 -0.892615 1.290548 0.036960 -0.030466 -694612.000000 0 0 1
-16.244823 18.895523 8.352587 26.281187 -0.860687 1.247371 0.035748 -0.027616 556639.000000 0 0 1
-17.651323 19.213823 8.424187 27.417278 -0.827757 1.258486 0.033197 -0.021326 807614.000000 0 0 1
-18.348023 18.243323 9.414087 27.533504 -0.782537 1.221844 0.043397 -0.023849 -121824.000000 0 0 1
-18.560623 16.961523 8.922887 26.679728 -0.740412 1.229781 0.046658 -0.027325 23863.500000 0 0 1
-19.125023 16.054923 9.817287 26.831068 -0.698350 1.196205 0.058556 -0.026142 -87193.400000 0 0 1
-18.111523 15.314223 10.757887 26.043902 -0.701906 1.144977 0.051766 -0.014753 173047.000000 0 0 1
-17.231723 14.475623 10.057887 24.650295 -0.698693 1.150509 0.037407 -0.000860 -230838.000000 0 1 0
-16.500623 13.563823 10.851387 23.958307 -0.688024 1.100750 0.030342 -0.000557 252896.000000 0 1 0
-17.342223 12.523423 11.659687 24.362617 -0.625428 1.071749 0.033952 0.002782 360115.000000 0 1 0
-18.049623 11.506623 10.892487 24.017442 -0.567537 1.100081 0.019458 -0.001886 634343.000000 0 1 0
-19.018723 10.807223 11.688287 24.801693 -0.516740 1.080066 0.032998 -0.000302 639929.000000 0 1 0
-19.952623 9.804023 10.904487 24.761540 -0.456716 1.114774 0.030269 -0.003137 -2702.700000 0 1 0
-19.356823 8.752823 10.153587 23.545569 -0.424668 1.124939 0.017983 -0.004571 357220.000000 0 1 0
-18.877023 9.122823 8.847387 22.756189 -0.450180 1.171478 0.033025 -0.008523 -235963.000000 0 1 0
-20.034623 9.408123 7.837187 23.480213 -0.439028 1.230487 0.054743 -0.011226 386804.000000 0 1 0
-20.513823 8.196623 7.218887 23.240351 -0.380132 1.254952 0.035798 -0.018766 185758.000000 0 1 0
-21.335723 8.505123 6.142287 23.775573 -0.379327 1.309488 0.041943 -0.014665 -264203.000000 0 1 0
-21.781723 7.191923 5.360687 23.556404 -0.318911 1.341217 0.065101 -0.009635 -425322.000000 0 1 0
-22.578723 6.384223 6.141387 24.254354 -0.275561 1.314802 0.071359 -0.004113 44193.200000 0 1 0
-22.203723 5.060523 5.922387 23.530595 -0.224086 1.316371 0.064473 -0.012192 139597.000000 0 1 0
-23.393123 4.050723 6.142987 24.523109 -0.171459 1.317602 0.101368 -0.007393 713340.000000 0 1 0
-24.427923 4.300723 5.191287 25.341056 -0.174272 1.364479 0.103352 -0.012857 520866.000000 0 0 1
-25.139333 3.132023 4.851187 25.793985 -0.123948 1.381595 0.110643 -0.019370 798440.000000 0 0 1
-26.268103 3.251723 3.688187 26.724327 -0.123163 1.432346 0.111032 -0.020370 914424.000000 0 0 1
-25.857803 3.344323 2.338187 26.177807 -0.128621 1.481358 0.104141 -0.014746 -136489.000000 0 0 1
-26.931263 3.543223 1.481987 27.203743 -0.130814 1.516292 0.108930 -0.019155 -711618.000000 0 0 1
-26.567003 3.352723 0.001087 26.777722 -0.125535 1.570756 0.113047 -0.017298 -270032.000000 0 0 1
-25.662153 4.357523 -0.423913 26.032937 -0.168199 1.587081 0.104348 -0.014000 461304.000000 0 0 1
-25.460123 4.453723 -1.846513 25.912606 -0.173177 1.642116 0.110126 -0.012695 -584179.000000 0 0 1
-26.650703 5.116323 -2.588713 27.260561 -0.189669 1.665901 0.119167 -0.027179 79048.300000 0 0 1
-27.771403 4.273723 -2.453613 28.205243 -0.152692 1.657898 0.110799 -0.029571 -471216.000000 0 0 1
-28.975433 4.987523 -2.581613 29.514672 -0.170459 1.658377 0.098624 -0.020471 -467318.000000 0 0 1
-30.201713 4.081723 -2.689613 30.594737 -0.134335 1.658821 0.104656 -0.019130 -510886.000000 0 0 1
-30.460193 3.396223 -3.922613 30.898942 -0.111038 1.698090 0.112523 -0.020856 195632.000000 0 0 1
-31.236103 2.251823 -3.702313 31.535250 -0.071966 1.688470 0.115370 -0.026792 -64084.500000 0 0 1
-31.744283 1.495723 -4.999713 32.170387 -0.047083 1.726842 0.120346 -0.040014 236423.000000 0 0 1
-30.652883 0.827423 -5.618713 31.174570 -0.026987 1.752021 0.131047 -0.033246 345151.000000 0 0 1
-30.898223 0.144723 -6.799413 31.637844 -0.004684 1.787400 0.141418 -0.032328 -350441.000000 0 0 1
-31.276423 0.967123 -8.041613 32.308165 -0.030912 1.822344 0.132969 -0.034701 -1071530.000000 0 0 1
-32.615663 1.237523 -8.227613 33.660163 -0.037924 1.817730 0.133181 -0.036463 -780973.000000 0 0 1
-32.860423 1.995823 -9.351013 34.223269 -0.060662 1.847551 0.131176 -0.034563 -942441.000000 0 0 1
-34.362238 2.123923 -9.514113 35.718242 -0.061731 1.840417 0.132505 -0.033734 -874087.000000 0 0 1
-34.953875 2.936223 -8.541913 36.102065 -0.083806 1.809666 0.109518 -0.027848 -425997.000000 0 0 1
36.099573 2.404323 -8.223813 37.102440 0.066504 1.794304 0.106147 -0.027856 -796536.000000 0 0 1
35.461523 3.201623 -7.105413 36.307807 0.090040 1.767767 0.104410 -0.017541 -1203850.000000 0 0 1
34.141683 2.859323 -6.907013 34.950494 0.083554 1.769729 0.095945 -0.015056 -712966.000000 0 0 1
33.559733 3.649123 -5.890413 34.267605 0.108310 1.743549 0.091445 -0.030818 -899288.000000 0 0 1
32.217193 3.245823 -5.370213 32.822585 0.100409 1.735149 0.084719 -0.021805 -996458.000000 0 0 1
32.189273 2.099323 -4.516813 32.572351 0.065126 1.709915 0.109866 -0.031733 3475.550000 0 0 1
30.934323 1.467923 -4.659413 31.317683 0.047417 1.720130 0.100914 -0.034421 -36016.400000 0 0 1
30.929663 0.058023 -3.957613 31.181888 0.001876 1.698060 0.118989 -0.031455 -253675.000000 0 0 1
31.815173 -0.842077 -4.602513 32.157385 -0.026462 1.714414 0.114832 -0.038020 244263.000000 0 0 1
31.858723 -2.075877 -3.877313 32.160862 -0.065067 1.691650 0.115409 -0.025701 383490.000000 0 0 1
33.162493 -2.883877 -4.176613 33.548648 -0.086744 1.695614 0.111164 -0.032982 420662.000000 0 0 1
33.149793 -4.079377 -3.446813 33.577233 -0.122443 1.673631 0.093262 -0.030548 -135928.000000 0 0 1
34.399463 -4.724277 -3.539313 34.902272 -0.136482 1.672377 0.113915 -0.035340 158398.000000 0 0 1
34.301983 -6.133877 -3.010213 34.975875 -0.176950 1.656968 0.093566 -0.027257 -57399.100000 0 0 1
34.126963 -6.169677 -1.636613 34.718770 -0.178854 1.617953 0.098445 -0.025842 -67565.700000 0 0 1
34.088473 -7.487277 -1.144513 34.919811 -0.216209 1.603578 0.095522 -0.025496 -167147.000000 0 0 1
33.586533 -7.648877 0.259287 34.447463 -0.223917 1.563269 0.090328 -0.013858 427937.000000 0 0 1
32.163513 -7.732377 0.388687 33.082205 -0.235931 1.559047 0.083455 -0.017242 528176.000000 0 0 1
31.711913 -7.846677 1.719287 32.713479 -0.242564 1.518216 0.069835 -0.021532 -688320.000000 0 0 1
31.559363 -9.320177 2.157387 32.977468 -0.287160 1.505330 0.081633 -0.026533 -110041.000000 0 0 1
30.535233 -10.136177 1.578587 32.212334 -0.320505 1.521771 0.084240 -0.030370 1588600.000000 0 0 1
29.215173 -9.663577 2.027787 30.838660 -0.319444 1.504994 0.074941 -0.036053 -323608.000000 0 0 1
28.163463 -10.755077 1.768687 30.199016 -0.364789 1.512195 0.076780 -0.030314 262709.000000 0 0 1
26.852933 -10.618677 2.363587 28.972795 -0.376568 1.489126 0.086814 -0.026019 1268100.000000 0 0 1
26.082033 -9.496677 2.019587 27.830524 -0.349188 1.498165 0.084324 -0.024194 -1012740.000000 0 0 1
25.520933 -9.369677 0.589887 27.192955 -0.351859 1.549102 0.078828 -0.020921 -637770.000000 0 0 1
26.531833 -9.355277 -0.426113 28.136114 -0.338994 1.585942 0.073196 -0.030281 402291.000000 0 0 1
26.102833 -9.400577 -1.785013 27.801349 -0.345676 1.635047 0.073754 -0.023048 -211775.000000 0 0 1
25.464233 -10.733177 -2.328613 27.731763 -0.398902 1.654864 0.085723 -0.019757 -326616.000000 0 0 1
24.244833 -10.975577 -1.684213 26.666679 -0.425095 1.633996 0.097077 -0.016463 -315504.000000 0 0 1
23.843533 -12.326377 -1.874913 26.906671 -0.477131 1.640535 0.087314 -0.013473 -20399.600000 0 0 1
22.382833 -12.688977 -1.549013 25.775973 -0.515731 1.630928 0.100747 -0.013495 -16074.400000 0 0 1
21.384233 -12.173177 -2.400813 24.723179 -0.517509 1.668057 0.092404 -0.010861 153865.000000 0 1 0
20.120333 -12.655277 -1.989913 23.852538 -0.561456 1.654319 0.106244 -0.009031 1021310.000000 0 1 0
18.889833 -12.086177 -2.842713 22.604922 -0.569189 1.696887 0.100051 -0.011122 1014320.000000 0 1 0
18.717533 -12.773777 -4.077413 23.024785 -0.598850 1.748823 0.081933 -0.019495 715064.000000 0 1 0
17.789033 -12.085977 -4.950313 22.068668 -0.596770 1.797035 0.081892 -0.022473 390699.000000 0 1 0
17.610933 -12.646177 -6.383113 22.601214 -0.622762 1.857116 0.076802 -0.025748 -219620.000000 0 1 0
16.962133 -13.887477 -6.602213 22.894654 -0.686060 1.863324 0.068779 -0.024556 409806.000000 0 1 0
17.142433 -14.304477 -7.941413 23.696985 -0.695396 1.912532 0.068253 -0.029250 -292809.000000 0 1 0
16.193033 -15.476877 -8.330513 23.898650 -0.762789 1.926848 0.060792 -0.028031 1263660.000000 0 1 0
14.782633 -15.085877 -8.281513 22.686855 -0.795550 1.944468 0.064912 -0.026200 1611470.000000 0 1 0
13.961733 -15.994377 -8.951413 23.040787 -0.853148 1.969803 0.060735 -0.025596 -625388.000000 0 1 0
13.992533 -15.973277 -10.558113 23.715191 -0.851402 2.032199 0.067690 -0.028454 -602484.000000 0 1 0
13.143933 -14.988277 -11.183213 22.857727 -0.850864 2.082029 0.050840 -0.021145 418729.000000 0 1 0
13.332733 -13.602177 -10.868813 21.929708 -0.795401 2.089345 0.043408 -0.018348 -217251.000000 0 1 0
13.309133 -12.765577 -12.171213 22.095959 -0.764555 2.154160 0.046218 -0.009421 -111822.000000 0 1 0
14.542333 -12.751077 -12.860313 23.226215 -0.719863 2.157595 0.060222 -0.013683 56964.600000 0 1 0
14.345533 -12.420777 -14.238713 23.723637 -0.713612 2.214536 0.065681 -0.007311 -553812.000000 0 1 0
15.563433 -12.032377 -15.085913 24.790791 -0.658133 2.225002 0.068215 -0.015497 5064.910000 0 1 0
16.467033 -13.126177 -15.257613 26.004893 -0.672981 2.197800 0.069515 -0.017322 -321255.000000 0 0 1
17.534733 -12.745177 -16.069713 26.984108 -0.628522 2.208715 0.068503 -0.015134 118225.000000 0 0 1
18.662633 -13.855377 -16.064713 28.254917 -0.638628 2.175555 0.072866 -0.013673 157383.000000 0 0 1
19.391133 -13.895677 -14.855013 28.102976 -0.621780 2.127738 0.060380 -0.030417 -282893.000000 0 0 1
20.484333 -14.771477 -15.022913 29.385240 -0.624754 2.107423 0.046975 -0.018451 60631.900000 0 0 1
21.484433 -14.661977 -13.820913 29.454576 -0.598848 2.059213 0.040374 -0.021043 90052.700000 0 0 1
22.019733 -13.357377 -13.864213 29.249009 -0.545265 2.064631 0.036290 -0.022676 -209588.000000 0 0 1
22.995633 -13.163377 -12.857513 29.451473 -0.519900 2.022575 0.042020 -0.015585 253439.000000 0 0 1
23.826833 -11.860577 -13.011113 29.625670 -0.461872 2.025486 0.051137 -0.015510 -655481.000000 0 0 1
23.063733 -10.661277 -12.893213 28.492693 -0.432997 2.040374 0.040754 -0.013243 127034.000000 0 0 1
23.765333 -9.416077 -12.943213 28.652754 -0.377235 2.039496 0.053242 -0.019173 -423512.000000 0 0 1
24.802733 -9.205577 -11.836813 28.983243 -0.355393 1.991499 0.062082 -0.014733 -614355.000000 0 0 1
25.906633 -10.027977 -12.076213 30.291069 -0.369320 1.980865 0.054718 -0.012685 -319888.000000 0 0 1
26.930733 -9.779177 -11.107713 30.729106 -0.348318 1.940643 0.054742 -0.011643 -243937.000000 0 0 1
28.250823 -10.507177 -11.361213 32.211596 -0.356072 1.931257 0.065287 -0.010825 -637902.000000 0 0 1
28.946433 -10.013377 -12.427613 33.054640 -0.333042 1.956242 0.057580 -0.008595 -616289.000000 0 0 1
30.177013 -10.666277 -12.557813 34.381975 -0.339751 1.944691 0.061261 -0.011785 -245453.000000 0 0 1
30.973663 -10.400777 -13.857613 35.490525 -0.323964 1.971927 0.062218 -0.013178 -37213.800000 0 0 1
30.394283 -10.891177 -15.066613 35.629103 -0.344076 2.007411 0.061835 -0.022509 15559.700000 0 0 1
31.078243 -10.426077 -16.183813 36.557845 -0.323680 2.029393 0.052043 -0.020117 -424368.000000 0 0 1
30.621243 -11.067377 -17.509913 36.969506 -0.346819 2.064206 0.028042 -0.007928 194801.000000 0 0 1
29.302373 -10.807977 -17.950113 36.022881 -0.353362 2.092430 0.042687 -0.009568 164742.000000 0 0 1
29.160593 -9.565277 -18.676813 35.925730 -0.316962 2.117498 0.024568 0.000316 -1022820.000000 0 0 1
27.753323 -9.323077 -19.156213 34.987529 -0.324083 2.150189 0.005516 -0.002129 -810838.000000 0 0 1
27.349693 -10.129177 -20.262813 35.513202 -0.354695 2.177998 0.016289 0.001484 -310499.000000 0 0 1
26.116333 -9.689077 -20.732913 34.724555 -0.355256 2.210637 0.041359 0.005707 -461602.000000 0 0 1
25.692033 -10.273677 -22.134313 35.433837 -0.380401 2.245500 0.049622 0.005088 76463.400000 0 0 1
25.367733 -11.653677 -22.139013 35.629566 -0.430635 2.241282 0.050493 -0.004918 -107042.000000 0 0 1
24.569633 -11.971477 -23.222513 35.864582 -0.453393 2.275103 0.053484 -0.007699 -1153290.000000 0 0 1
24.649333 -13.443477 -23.578413 36.664127 -0.499296 2.269326 0.049148 -0.004759 213672.000000 0 0 1
25.805233 -13.888477 -24.278713 38.055955 -0.493742 2.262661 0.042689 -0.001633 149802.000000 0 0 1
27.022033 -13.801277 -23.570213 38.421614 -0.472204 2.231234 0.031093 0.002597 -177785.000000 0 0 1
28.246623 -14.462277 -24.282513 39.958348 -0.473202 2.223952 0.008249 0.006433 471742.000000 0 0 1
28.720223 -13.772577 -25.425853 40.755479 -0.447148 2.244473 0.005502 0.001659 5060.400000 0 0 1
30.129743 -13.682477 -25.472743 41.759696 -0.426274 2.226837 -0.010913 -0.005611 51127.900000 0 0 1
30.674903 -13.112577 -26.806903 42.796021 -0.403960 2.247707 -0.006928 0.000262 -226423.000000 0 0 1
30.533413 -13.987377 -27.892933 43.657207 -0.429570 2.263874 0.000417 -0.007202 94754.600000 0 0 1
31.334523 -13.500477 -28.951153 44.746893 -0.406815 2.274437 -0.007222 -0.009466 199420.000000 0 0 1
31.290543 -14.424877 -30.197853 45.815778 -0.431962 2.290437 -0.003093 -0.016572 29013.100000 0 0 1
31.902063 -15.647477 -29.863383 46.415588 -0.456007 2.269716 0.007151 -0.013054 -180750.000000 0 0 1
32.218943 -16.400177 -31.035313 47.646791 -0.470840 2.280174 -0.007014 -0.013466 943669.000000 0 0 1
31.007933 -17.003677 -31.899043 47.625265 -0.501587 2.304726 -0.012707 -0.006572 1158540.000000 0 0 1
30.239883 -16.048277 -32.597283 47.271350 -0.487904 2.331703 -0.014702 -0.007994 -6795.860000 0 0 1
29.150323 -16.643677 -33.268093 47.260124 -0.518793 2.351720 -0.012145 -0.007936 38082.500000 0 0 1
28.296423 -15.743177 -34.170814 47.076318 -0.507718 2.383080 0.016199 -0.009458 26494.800000 0 0 1
27.510753 -14.772777 -33.485353 45.785864 -0.492794 2.391091 0.018010 -0.012775 295818.000000 0 0 1
28.178933 -13.477877 -33.474783 45.785003 -0.446134 2.390773 0.026872 -0.012151 -349382.000000 0 0 1
27.312373 -12.287477 -33.147483 44.673297 -0.422760 2.406842 0.042508 -0.005950 -441251.000000 0 0 1
26.585133 -11.801177 -34.218643 44.910495 -0.417771 2.437084 0.045278 -0.010903 -333255.000000 0 0 1
26.114133 -10.492077 -33.990233 44.128988 -0.382038 2.450025 0.034441 -0.016187 -17969.800000 0 0 1
20.893577 -29.881582 9.632887 37.712637 -0.960599 1.312505 0.039923 -0.009600 83196.600000 0 0 1
21.281577 -29.609382 8.319387 37.400979 -0.947601 1.346482 0.043106 -0.019846 216707.000000 0 0 1
22.352477 -30.381782 7.788087 38.514156 -0.936497 1.367179 0.052043 -0.020830 91890.600000 0 0 1
22.778377 -30.004282 6.383987 38.208202 -0.921452 1.402925 0.044289 -0.014386 -191914.000000 0 0 1
23.417677 -28.739982 6.308987 37.605551 -0.887089 1.402232 0.043677 -0.009685 -116406.000000 0 0 1
23.847677 -28.557482 4.982487 37.537537 -0.875030 1.437670 0.047035 -0.005328 -205642.000000 0 0 1
24.045577 -27.079982 4.522187 36.496101 -0.844681 1.446568 0.033613 -0.007226 97559.300000 0 0 1
24.880077 -26.275282 5.333587 36.576712 -0.812665 1.424455 0.027998 -0.006786 198529.000000 0 0 1
24.737777 -24.964482 4.914187 35.487071 -0.789959 1.431872 0.020056 -0.000317 -214698.000000 0 0 1
25.443077 -23.994882 5.847387 35.458377 -0.756113 1.405131 0.014841 0.003996 937929.000000 0 0 1
26.813477 -23.722782 5.447587 36.213383 -0.724316 1.419793 0.020385 0.000765 891476.000000 0 0 1
27.547577 -23.064182 6.450087 36.502454 -0.697045 1.393161 0.040257 -0.001938 -139618.000000 0 0 1
27.207677 -21.622282 6.823087 35.416596 -0.671509 1.376932 0.030777 0.007633 -310760.000000 0 0 1
27.593277 -20.746782 5.779787 35.003198 -0.644702 1.404915 0.035462 0.004914 98544.500000 0 0 1
27.052577 -19.452282 5.914987 33.841103 -0.623400 1.395107 0.037399 -0.000495 -250110.000000 0 0 1
27.021777 -18.565882 4.648487 33.113092 -0.601996 1.429949 0.042748 0.000113 91792.900000 0 0 1
28.275977 -18.051082 4.245287 33.814123 -0.568170 1.444916 0.087123 -0.006564 178795.000000 0 0 1
28.224277 -17.638382 2.909987 33.409435 -0.558554 1.483585 0.082337 -0.015349 432609.000000 0 0 1
29.451877 -16.699782 2.702087 33.964644 -0.515816 1.491156 0.086000 -0.027210 431440.000000 0 0 1
29.267577 -15.531482 3.460487 33.313555 -0.487883 1.466732 0.085081 -0.026149 947921.000000 0 0 1
30.444677 -14.697682 3.602587 33.998218 -0.449766 1.464633 0.093224 -0.025905 968098.000000 0 0 1
30.178677 -13.484382 4.559287 33.367172 -0.420205 1.433728 0.088745 -0.027271 100616.000000 0 0 1
29.644677 -13.905682 5.779687 33.250258 -0.438606 1.396085 0.080475 -0.023384 27381.900000 0 0 1
29.320777 -12.696482 6.457187 32.597605 -0.408644 1.371390 0.077669 -0.020401 -145515.000000 0 0 1
28.947377 -12.808882 7.947287 32.637057 -0.416590 1.324818 0.083244 -0.015295 -1036570.000000 0 0 1
27.615477 -13.149082 8.087087 31.637223 -0.444385 1.312308 0.083293 -0.008745 -1034380.000000 0 0 1
27.060977 -12.965982 9.358987 31.432528 -0.446820 1.268463 0.066803 0.000314 60357.200000 0 0 1
27.419477 -14.062282 10.408787 32.525657 -0.473881 1.245048 0.070693 0.002147 -723568.000000 0 0 1
28.711477 -13.981382 10.910487 33.747099 -0.453162 1.241580 0.068600 -0.000670 -714395.000000 0 0 1
28.994277 -15.192182 11.581187 34.721670 -0.482641 1.230737 0.066820 -0.007279 681045.000000 0 0 1
30.098277 -15.180082 12.711987 36.026876 -0.467122 1.210184 0.059091 -0.010482 398870.000000 0 0 1
31.432077 -15.025782 12.317687 36.952334 -0.445926 1.230952 0.049818 -0.005374 282660.000000 0 0 1
32.272077 -15.163282 13.497287 38.125960 -0.439244 1.208932 0.044709 -0.006335 -645643.000000 0 0 1
33.745377 -14.931182 13.410387 39.262312 -0.416571 1.222221 0.050633 -0.013962 -1206050.000000 0 0 1
34.237677 -13.616782 13.377087 39.199257 -0.378534 1.222541 0.054322 -0.015120 -200420.000000 0 0 1
35.629677 -13.588582 13.497187 40.451174 -0.364356 1.230606 0.046309 -0.017551 -457037.000000 0 0 1
-36.032979 -12.167782 13.474387 40.348353 0.325662 1.230304 0.051906 -0.023077 822148.000000 0 0 1
-34.792279 -12.161082 12.716487 38.988507 0.336260 1.238558 0.061920 -0.024119 691480.000000 0 0 1
-34.154079 -10.957382 12.934587 38.129633 0.310448 1.224702 0.054073 -0.019771 11080.300000 0 0 1
-32.903979 -10.724382 12.017087 36.634609 0.315073 1.236584 0.052245 -0.018116 764401.000000 0 0 1
-31.769879 -11.543682 12.260287 35.956869 0.348521 1.222846 0.048609 -0.018238 324261.000000 0 0 1
-31.905479 -12.849582 11.684687 36.326344 0.382865 1.243315 0.047599 -0.018592 -596812.000000 0 0 1
-30.937679 -13.926382 12.179287 36.047457 0.422973 1.226145 0.031368 -0.011908 484424.000000 0 0 1
-29.575879 -13.808782 11.787587 34.703923 0.436813 1.224239 0.035447 -0.011226 245380.000000 0 0 1
-28.897779 -15.050282 11.980987 34.715079 0.480157 1.218426 0.031744 -0.003492 163771.000000 0 0 1
-27.473079 -15.061582 11.373387 33.331296 0.501484 1.222579 0.032414 0.003405 71645.800000 0 0 1
-27.394379 -15.080582 9.961887 32.819433 0.503226 1.262395 0.035959 -0.001419 -214206.000000 0 0 1
-26.057079 -14.833182 9.640287 31.494917 0.517508 1.259713 0.038897 -0.002969 -333948.000000 0 0 1
-25.896579 -14.483582 8.132787 30.766040 0.509944 1.303274 0.045620 0.006104 -97278.800000 0 0 1
-26.123379 -15.581182 7.241987 31.267404 0.537802 1.337059 0.050310 0.005178 366017.000000 0 0 1
-26.169379 -15.120182 5.888187 30.791672 0.523922 1.378385 0.062227 0.007298 -160790.000000 0 0 1
-26.646879 -16.241182 4.864687 31.583181 0.547373 1.416153 0.055812 0.005336 -262083.000000 0 0 1
-27.986779 -16.645782 4.895287 32.928798 0.536567 1.421580 0.037887 0.004295 -329834.000000 0 0 1
-28.281979 -17.743782 4.045887 33.631553 0.560315 1.450204 0.031947 0.013933 -149273.000000 0 0 1
-29.765879 -18.116982 4.014387 35.076315 0.546755 1.456098 0.045466 0.001683 -207186.000000 0 0 1
-30.640979 -17.198282 3.426087 35.304229 0.511465 1.473599 0.050673 -0.003906 717547.000000 0 0 1
-32.019079 -17.598182 3.493887 36.703197 0.502548 1.475459 0.063176 -0.007838 1029740.000000 0 0 1
-33.056379 -16.754082 2.731587 37.160262 0.469099 1.497222 0.052597 -0.014095 179638.000000 0 0 1
-33.078079 -17.005682 1.317387 37.216771 0.474870 1.535391 0.054327 -0.009507 -73882.400000 0 0 1
-34.096079 -16.222482 0.743787 37.765921 0.444091 1.551100 0.072789 -0.023624 -72094.700000 0 0 1
-34.625679 -16.738482 -0.601113 38.463954 0.450290 1.586425 0.068363 -0.028337 -219898.000000 0 0 1
-33.548379 -16.947082 -1.497413 37.615683 0.467762 1.610615 0.062971 -0.024671 369403.000000 0 0 1
-33.902379 -17.737582 -2.650413 38.353850 0.482032 1.639956 0.057531 -0.021306 -573964.000000 0 0 1
-32.709379 -18.335782 -3.342513 37.646737 0.510919 1.659700 0.053339 -0.011366 -504810.000000 0 0 1
-33.189079 -19.316782 -4.238513 38.634415 0.527096 1.680726 0.064150 -0.029238 -29047.100000 0 0 1
-32.138379 -19.967482 -4.900613 38.152218 0.555932 1.699601 0.044318 -0.016983 -608342.000000 0 0 1
-32.503679 -21.194182 -5.786813 39.232254 0.577818 1.718838 0.057480 -0.021983 83903.200000 0 0 1
-33.161379 -22.232782 -5.039313 40.241376 0.590612 1.696353 0.070226 -0.028677 225349.000000 0 0 1
-33.805679 -23.176282 -5.858213 41.403897 0.600978 1.712762 0.064077 -0.020064 131458.000000 0 0 1
-34.332279 -24.446582 -5.194613 42.465572 0.618773 1.693429 0.064627 -0.020043 -183853.000000 0 0 1
-33.308379 -25.295982 -4.744613 42.093303 0.649520 1.683753 0.063757 -0.020137 -554075.000000 0 0 1
-33.741079 -26.617982 -4.589613 43.220851 0.667929 1.677187 0.051420 -0.010163 145947.000000 0 0 1
-32.701979 -27.663982 -4.104513 43.029785 0.702134 1.666329 0.035592 -0.010078 -794602.000000 0 0 1
-31.598779 -27.907182 -4.975213 42.450517 0.723440 1.688267 0.041213 -0.006854 346647.000000 0 0 1
-30.721179 -28.899182 -4.527113 42.419905 0.754848 1.677721 0.033104 -0.005390 53209.400000 0 0 1
-29.889879 -28.568982 -3.266313 41.476022 0.762807 1.649630 0.036641 -0.011956 -1446940.000000 0 0 1
-30.670279 -28.557582 -2.070113 41.958156 0.749743 1.620154 0.033358 -0.012262 -160767.000000 0 0 1
-29.861279 -28.399682 -0.933213 41.220248 0.760316 1.593438 0.035258 -0.016437 -264003.000000 0 0 1
-30.586479 -28.217982 0.430687 41.616976 0.745142 1.560447 0.028619 -0.008402 -12706.700000 0 0 1
-31.030379 -29.429082 1.064087 42.779523 0.758919 1.545920 0.029656 -0.000884 -295258.000000 0 0 1
-31.924479 -29.057482 2.077487 43.218348 0.738419 1.522708 0.036917 0.002240 -363672.000000 0 0 1
-32.562579 -30.346382 2.661287 44.590435 0.750184 1.511078 0.022967 0.008766 -14229.500000 0 0 1
-33.603079 -30.168182 3.640587 45.304967 0.731587 1.490352 0.021474 0.006586 602753.000000 0 0 1
-34.026079 -31.400282 4.168587 46.487944 0.745286 1.481005 0.027756 0.011900 724844.000000 0 0 1
-35.156679 -32.138582 3.335687 47.749423 0.740580 1.500881 0.023897 0.008979 125464.000000 0 0 1
-35.758079 -33.207782 3.950787 48.959225 0.748436 1.490013 0.037663 0.003770 -373622.000000 0 0 1
35.578677 -33.755782 3.101387 49.141771 -0.759113 1.507643 0.040949 0.006069 -1227710.000000 0 0 1
34.407377 34.111123 3.750587 48.595300 0.781074 1.493539 0.045220 0.003674 -686095.000000 0 0 1
33.632477 -33.680082 4.610587 47.819964 -0.786105 1.474231 0.045329 0.001678 887037.000000 0 0 1
32.911677 -32.520682 4.013887 46.442271 -0.779423 1.484261 0.051914 0.000712 170177.000000 0 0 1
31.900977 -32.914782 2.865787 45.926767 -0.801038 1.508357 0.041309 0.004840 -679359.000000 0 0 1
32.472577 -33.205482 1.611087 46.472227 -0.796557 1.536122 0.042931 0.004845 -559238.000000 0 0 1
31.682677 -32.877982 0.491387 45.661748 -0.803911 1.560035 0.043655 0.007141 -889560.000000 0 0 1
32.263177 -33.415882 -0.865713 46.457327 -0.802947 1.589432 0.048572 0.002104 677685.000000 0 0 1
33.489377 -32.963682 -1.412513 47.012104 -0.777488 1.600847 0.027469 0.009950 -771133.000000 0 0 1
34.589477 -33.224282 -0.610313 47.965168 -0.765269 1.583521 0.030908 0.012804 -847405.000000 0 0 1
35.882577 -33.122682 -1.502213 48.856198 -0.745424 1.601549 0.017719 0.015968 115854.000000 0 0 1
36.127077 -34.216882 -2.350213 49.814498 -0.758250 1.617993 0.023773 0.011572 70464.600000 0 0 1
-35.340479 -33.748982 -3.379713 48.983321 0.762367 1.639848 0.023684 0.007740 -403102.000000 0 0 1
-34.724279 33.715923 -4.209113 48.582462 -0.770666 1.657544 0.026660 -0.001034 -8243.620000 0 0 1
-33.574379 33.104923 -3.659513 47.292356 -0.778358 1.648254 0.017712 0.005044 -41726.500000 0 0 1
-33.075379 32.111623 -4.521513 46.320418 -0.770615 1.668566 0.012915 -0.005478 401585.000000 0 0 1
-31.772779 31.461223 -3.956013 44.888396 -0.780471 1.659041 0.021357 -0.004132 -8148.930000 0 0 1
-30.616979 32.264023 -3.990813 44.657510 -0.811585 1.660281 0.017877 -0.008756 1028770.000000 0 0 1
-29.372079 31.505223 -3.930413 43.252124 -0.820424 1.661794 0.030742 -0.014449 1584130.000000 0 0 1
-28.835779 31.099223 -2.542813 42.486818 -0.823145 1.630682 0.027832 -0.014680 -275344.000000 0 0 1
-29.812979 30.296323 -1.890113 42.547073 -0.793439 1.615235 0.033961 -0.015854 228612.000000 0 0 1
-29.503779 30.085323 -0.548913 42.141440 -0.795157 1.583822 0.031243 -0.006779 551092.000000 0 0 1
-30.819179 29.561723 0.118787 42.705168 -0.764576 1.568015 0.023763 -0.005663 599067.000000 0 0 1
-31.235179 28.341623 -0.358013 42.178338 -0.736868 1.579285 0.028810 -0.013087 -945234.000000 0 0 1
-32.495879 28.280523 -0.910513 43.088272 -0.716151 1.591929 0.038104 -0.014719 -926449.000000 0 0 1
-33.002579 26.872723 -1.255713 42.578049 -0.683377 1.600293 0.034373 -0.008499 -350766.000000 0 0 1
-33.276379 26.054923 -0.157713 42.263475 -0.664280 1.574528 0.047184 -0.016061 -133451.000000 0 0 1
-33.739579 24.840623 -0.651213 41.902742 -0.634640 1.586338 0.046471 -0.005616 -344273.000000 0 0 1
-33.789079 23.626823 0.363587 41.231794 -0.610219 1.561978 0.046676 -0.010773 258927.000000 0 0 1
-32.510079 23.186123 0.793987 39.939103 -0.619529 1.550915 0.065723 -0.021122 229660.000000 0 0 1
-31.997279 23.898823 1.922887 39.983460 -0.641515 1.522686 0.070499 -0.032737 -1290380.000000 0 0 1
-30.519479 23.595523 2.167487 38.637874 -0.658141 1.514669 0.058110 -0.037064 261769.000000 0 0 1
-29.592579 24.365523 1.343187 38.356272 -0.688827 1.535770 0.065262 -0.032545 583226.000000 0 0 1
-29.491679 25.737423 1.732887 39.181335 -0.717527 1.526555 0.030865 -0.021849 -526957.000000 0 0 1
-28.663279 26.586623 0.744687 39.102259 -0.747829 1.551751 0.015413 -0.009890 -376940.000000 0 0 1
-27.340979 26.224323 0.519887 37.888185 -0.764555 1.557074 0.020782 -0.013272 -505667.000000 0 0 1
-26.729779 27.009123 -0.530813 38.003363 -0.790596 1.584764 0.025756 -0.014558 906755.000000 0 0 1
-25.571479 26.258823 -1.283213 36.675236 -0.798659 1.605792 0.024595 -0.010737 -136467.000000 0 0 1
-26.114279 25.345623 -2.199113 36.458089 -0.770462 1.631152 0.052823 -0.027159 716686.000000 0 0 1
-25.096379 24.726023 -3.051513 35.362638 -0.777965 1.657196 0.044641 -0.020602 2034050.000000 0 0 1
-24.045479 23.822023 -2.215813 33.920255 -0.780730 1.636167 0.044948 -0.017102 1092570.000000 0 0 1
-24.762679 22.656623 -1.741513 33.608715 -0.741014 1.622637 0.043448 -0.022080 801541.000000 0 0 1
-23.868779 21.854623 -0.960713 32.376938 -0.741376 1.600473 0.038414 -0.029487 25174.900000 0 0 1
-24.508279 20.478723 -0.598713 31.943580 -0.696065 1.589540 0.048588 -0.029339 -96700.000000 0 0 1
-25.518579 20.400123 0.381987 32.672753 -0.674389 1.559105 0.029804 -0.029172 436484.000000 0 0 1
-26.786379 21.021323 0.229787 34.050829 -0.665389 1.564048 0.033087 -0.026787 519080.000000 0 0 1
-27.634279 20.388823 -0.953613 34.355012 -0.635653 1.598558 0.038074 -0.029719 -600864.000000 0 0 1
-28.056479 19.063923 -0.788313 33.929642 -0.596824 1.594032 0.038780 -0.025124 293985.000000 0 0 1
-28.845479 18.549723 -1.837313 34.344281 -0.571490 1.624319 0.057871 -0.020774 -70008.200000 0 0 1
-29.023279 17.048423 -1.696213 33.702768 -0.531107 1.621146 0.058758 -0.019787 -161313.000000 0 0 1
-29.718679 16.629523 -0.546513 34.059354 -0.510157 1.586843 0.057603 -0.017590 249096.000000 0 0 1
-29.835979 15.237923 -0.322413 33.503491 -0.472189 1.580420 0.069224 -0.020739 -1009790.000000 0 0 1
-28.604079 14.466623 0.053287 32.054319 -0.468240 1.569134 0.073635 -0.021089 -1220310.000000 0 0 1
-28.300579 14.608323 1.448587 31.881410 -0.476511 1.525344 0.077870 -0.023541 561206.000000 0 0 1
-27.011979 14.135423 1.807687 30.540546 -0.482115 1.511572 0.078565 -0.030452 -167330.000000 0 0 1
-26.561079 12.685323 1.759087 29.487332 -0.445560 1.511105 0.091184 -0.021807 -411760.000000 0 0 1
-26.612179 12.108723 0.409387 29.240329 -0.427010 1.556795 0.092931 -0.020754 394500.000000 0 0 1
-26.129679 10.774823 0.347287 28.266191 -0.391116 1.558510 0.104405 -0.016448 -78083.800000 0 0 1
-26.144579 10.218223 -1.086113 28.091471 -0.372581 1.609469 0.106339 -0.017382 -340161.000000 0 0 1
-27.452879 9.991223 -1.539013 29.254977 -0.349040 1.623427 0.102041 -0.030030 -17048.900000 0 0 1
-27.543279 9.133523 -2.633813 29.137440 -0.320195 1.661313 0.108105 -0.032632 -971342.000000 0 0 1
-28.954779 8.925423 -3.115513 30.458970 -0.299012 1.673261 0.119590 -0.033262 -926727.000000 0 0 1
-29.024379 8.024323 -4.230813 30.408948 -0.269731 1.710380 0.146219 -0.028890 405268.000000 0 0 1
-30.306079 8.163923 -4.814113 31.753484 -0.263136 1.722992 0.136064 -0.034116 -275720.000000 0 0 1
-11.430923 18.212123 -19.213613 28.835921 -1.010290 2.300043 0.061187 -0.005927 87844.900000 0 0 1
-11.612123 17.368623 -20.327813 29.150136 -0.981478 2.342488 0.042630 0.002251 166054.000000 0 0 1
-10.633623 17.540023 -21.362413 29.615520 -1.025795 2.376510 0.035237 0.003371 203991.000000 0 0 1
-10.804623 16.504523 -22.466013 29.897507 -0.991162 2.421030 0.026519 0.001118 183139.000000 0 0 1
-10.174023 15.233423 -22.212413 28.791652 -0.981958 2.451973 0.030612 -0.000385 194789.000000 0 0 1
-10.355623 14.331523 -23.276013 29.230194 -0.945078 2.491951 0.016360 -0.000723 12265.000000 0 0 1
-9.734523 12.941023 -22.938813 28.078820 -0.925875 2.526888 0.010667 0.000776 632802.000000 0 0 1
-8.325823 12.734723 -22.953913 27.538602 -0.991762 2.556241 0.016348 -0.007359 543606.000000 0 0 1
-7.879923 11.418223 -22.581213 26.502456 -0.966733 2.590671 0.009656 -0.002683 -1349420.000000 0 0 1
-6.405923 11.302723 -22.410013 25.903592 -1.055177 2.616209 0.016415 -0.003193 -1320010.000000 0 0 1
-5.687723 11.470823 -23.615213 26.862767 -1.110480 2.644779 0.005778 -0.008120 308548.000000 0 0 1
-4.298423 11.237623 -23.349813 26.267363 -1.205464 2.665797 0.029898 -0.013182 738451.000000 0 0 1
-3.466023 10.996923 -24.645513 27.209317 -1.265471 2.704001 0.052793 -0.023416 -99285.300000 0 0 1
-3.420923 9.656723 -25.095213 27.105806 -1.230338 2.754007 0.045711 -0.017358 -19975.700000 0 0 1
-2.799523 9.545723 -26.362983 28.177385 -1.285520 2.780773 0.045837 -0.018445 -197098.000000 0 0 1
-2.681423 8.120323 -26.902983 28.229420 -1.251858 2.833825 0.060089 -0.002306 -460281.000000 0 0 1
-1.638023 7.359423 -26.346253 27.403819 -1.351791 2.862872 0.067163 -0.010014 -60945.700000 0 0 1
-1.951923 6.673423 -25.126193 26.070484 -1.286242 2.871624 0.076764 -0.016589 409457.000000 0 0 1
-0.685523 5.905123 -24.605113 25.313080 -1.455224 2.904528 0.004198 -0.007025 1256680.000000 0 0 1
0.325277 6.651323 -23.898613 24.809063 1.521931 2.869839 0.031743 -0.007291 1014710.000000 0 1 0
1.262477 5.791823 -23.205113 23.950289 1.356178 2.891488 0.022058 0.000102 623460.000000 0 1 0
1.733477 6.283323 -21.845013 22.796703 1.301607 2.851625 0.029878 -0.006460 144666.000000 0 1 0
2.505777 7.483123 -21.899813 23.278270 1.247675 2.795731 0.024698 -0.009906 161230.000000 0 1 0
2.371077 8.281823 -20.692113 22.413704 1.291956 2.747096 0.028532 -0.004134 104172.000000 0 1 0
2.885177 9.732323 -20.849613 23.189410 1.282597 2.688507 0.024955 -0.005170 85411.100000 0 1 0
2.735777 10.461723 -19.657813 22.435724 1.315021 2.638682 0.026522 -0.013687 78264.700000 0 1 0
3.327777 11.761923 -19.739513 23.217780 1.295075 2.587141 0.030783 -0.012633 283294.000000 0 1 0
4.524377 11.894123 -18.762613 22.671034 1.207311 2.545620 0.022091 -0.012891 609490.000000 0 1 0
5.648577 11.090723 -19.132713 22.824795 1.099731 2.564848 0.034292 -0.014866 60186.200000 0 1 0
6.456677 10.671623 -18.056413 21.945529 1.026685 2.537087 0.033939 -0.023192 -896508.000000 0 1 0
7.560477 9.824623 -18.542913 22.305238 0.914904 2.552285 0.055877 -0.026592 -1070340.000000 0 1 0
7.187377 8.488623 -18.761613 21.810851 0.868217 2.606451 0.054150 -0.020867 258540.000000 0 1 0
6.468877 8.164823 -19.968513 22.522260 0.900777 2.660765 0.042496 -0.018872 242547.000000 0 1 0
6.341877 6.648823 -20.239513 22.227553 0.809022 2.715432 0.060658 -0.020610 252987.000000 0 1 0
7.569177 6.110123 -20.709013 22.879888 0.679138 2.702455 0.058558 -0.008151 383569.000000 0 1 0
7.482177 4.719823 -20.833313 22.633750 0.562766 2.740035 0.055030 -0.005344 -115943.000000 0 1 0
7.492577 4.253623 -22.325013 23.929860 0.516340 2.773278 0.070014 -0.015387 -212104.000000 0 1 0
6.415477 4.888023 -22.973113 24.347793 0.651081 2.803955 0.064249 -0.016401 -82122.000000 0 1 0
6.446077 4.658223 -24.326313 25.593367 0.625763 2.825614 0.073438 -0.019084 -87615.900000 0 0 1
5.405477 5.494723 -25.119453 26.275427 0.793586 2.843865 0.055398 -0.015495 -41947.700000 0 0 1
5.483177 6.943623 -25.211133 26.718539 0.902385 2.804082 0.070620 -0.024450 36234.100000 0 0 1
5.260277 7.654323 -24.012813 25.746346 0.968693 2.772538 0.075647 -0.031957 -880910.000000 0 0 1
5.181577 9.200523 -24.284413 26.480768 1.057888 2.731436 0.088749 -0.038459 693840.000000 0 0 1
4.064377 9.633123 -25.091113 27.182350 1.171540 2.746774 0.082490 -0.037102 396904.000000 0 0 1
2.848477 9.650123 -24.404613 26.397421 1.283772 2.750538 0.062009 -0.035880 -230466.000000 0 0 1
1.546977 9.916823 -25.218653 27.142531 1.416048 2.762821 0.065322 -0.019572 289286.000000 0 0 1
1.323877 11.286323 -25.471983 27.891856 1.454031 2.721965 0.085256 -0.039737 197306.000000 0 0 1
0.309077 11.453823 -26.451993 28.826958 1.543818 2.732829 0.098941 -0.041320 -170310.000000 0 0 1
-0.081423 12.849623 -26.760003 29.685303 -1.564460 2.693918 0.095298 -0.043963 -314599.000000 0 0 1
-0.662223 13.554123 -25.721453 29.081711 -1.521977 2.656120 0.089341 -0.041176 -23336.300000 0 0 1
-0.760123 14.934423 -25.984443 29.980094 -1.519943 2.619391 0.079501 -0.046748 -138417.000000 0 0 1
-1.164523 15.714123 -24.724513 29.318788 -1.496825 2.574189 0.085675 -0.043149 -964606.000000 0 0 1
-2.385223 15.367223 -24.206113 28.771109 -1.416810 2.570543 0.068968 -0.037027 -1658450.000000 0 0 1
-2.578923 15.751923 -22.845413 27.869101 -1.408515 2.531753 0.070174 -0.042825 -447247.000000 0 0 1
-3.901423 15.150223 -22.249213 27.198857 -1.318756 2.528757 0.053413 -0.033476 77154.300000 0 0 1
-5.112623 15.570823 -22.794013 28.074125 -1.253541 2.518234 0.044265 -0.027418 -507069.000000 0 0 1
-5.283323 15.214523 -24.145613 29.024228 -1.236569 2.553341 0.044825 -0.031860 -1526900.000000 0 0 1
-6.753223 15.289223 -24.620013 29.757544 -1.154868 2.545176 0.009962 -0.022868 119675.000000 0 0 1
-7.311523 16.561123 -24.931513 30.810867 -1.155044 2.513550 0.010874 -0.018813 743083.000000 0 0 1
-8.572723 16.372323 -25.595053 31.569784 -1.088439 2.516220 0.009687 -0.012388 590541.000000 0 0 1
-9.379223 17.635323 -25.961093 32.755958 -1.082000 2.485794 0.014724 -0.014024 38052.500000 0 0 1
-9.926423 18.456923 -24.951013 32.584428 -1.077356 2.442979 0.022225 -0.016180 -115640.000000 0 0 1
-10.690723 19.430323 -25.576353 33.852309 -1.067793 2.427255 0.025913 -0.013202 -282078.000000 0 0 1
-11.341923 20.472223 -24.666313 34.002619 -1.064876 2.382446 0.030798 -0.013136 -63211.900000 0 0 1
-10.506123 21.554423 -24.261213 34.111262 -1.117261 2.362054 0.029548 -0.014833 217161.000000 0 0 1
-10.896323 22.818223 -24.768513 35.396050 -1.125288 2.345849 0.036404 -0.020812 -261833.000000 0 0 1
-10.588923 23.177423 -26.226683 36.567159 -1.142249 2.370600 0.023113 -0.020757 84850.600000 0 0 1
-11.349923 22.397523 -27.184503 37.006310 -1.101764 2.395860 0.015498 -0.016410 267598.000000 0 0 1
-11.149323 22.963723 -28.472723 38.240501 -1.118801 2.410687 0.022724 -0.011984 -28950.600000 0 0 1
-11.788423 22.197723 -29.674123 38.887780 -1.082607 2.438847 0.031329 -0.017787 625693.000000 0 0 1
-11.047623 20.987223 -30.084833 38.309407 -1.086254 2.473996 0.026991 -0.018212 363176.000000 0 0 1
-10.960323 19.933123 -29.135393 36.963890 -1.068065 2.478695 0.020731 -0.013877 -235788.000000 0 0 1
-9.851023 18.910523 -29.423943 36.337569 -1.090547 2.514503 0.010174 -0.017480 -526746.000000 0 0 1
-8.540123 19.460123 -29.335313 36.224173 -1.157251 2.514653 0.003545 -0.019664 -214846.000000 0 0 1
-7.590623 18.742323 -30.053293 36.222819 -1.185988 2.549328 0.002444 -0.018828 -192616.000000 0 0 1
-7.156623 17.338823 -29.547053 34.998291 -1.179346 2.575947 0.011823 -0.026596 -1118540.000000 0 0 1
-8.216023 16.426823 -29.541363 34.785567 -1.107022 2.585344 0.003267 -0.027378 -118361.000000 0 0 1
-7.855723 15.206423 -28.844543 33.540354 -1.093953 2.606057 -0.007596 -0.018624 -374693.000000 0 0 1
-9.014223 14.206023 -28.877393 33.421118 -1.005370 2.614049 0.000717 -0.012565 -625233.000000 0 0 1
-9.989723 14.665123 -28.010993 33.158349 -0.972807 2.576921 0.009861 -0.006587 -437880.000000 0 0 1
-11.201823 13.924823 -28.040613 33.251429 -0.893348 2.574173 0.047203 -0.011855 304604.000000 0 0 1
-12.213223 14.430423 -27.006003 32.965499 -0.868424 2.530846 0.036633 -0.006924 -167537.000000 0 0 1
-12.672623 15.747123 -27.344773 34.004468 -0.893161 2.505044 0.026411 -0.005089 -244809.000000 0 0 1
-13.656723 16.029123 -26.353523 33.733471 -0.865146 2.467426 0.011803 -0.003316 558389.000000 0 0 1
-14.539523 17.247923 -26.850983 35.069415 -0.870396 2.442851 -0.003960 -0.000915 108764.000000 0 0 1
-13.881623 18.453723 -26.816783 35.388970 -0.925863 2.430689 0.000663 -0.000337 -327519.000000 0 0 1
-14.733823 19.437423 -27.323593 36.626189 -0.922186 2.412850 0.000940 -0.000981 -24370.900000 0 0 1
-14.274523 20.910823 -27.095063 37.083244 -0.971818 2.390077 0.010641 -0.005902 -645969.000000 0 0 1
-15.280923 21.768523 -27.501423 38.258378 -0.958747 2.372920 0.002325 -0.009955 -198312.000000 0 0 1
-14.933623 23.156223 -27.449983 38.893770 -0.998009 2.354303 0.021799 -0.013688 -23391.200000 0 0 1
-14.512723 23.739123 -26.055323 38.118827 -1.022079 2.323383 -0.006138 -0.009462 130304.000000 0 0 1
-14.134023 25.115123 -26.136103 38.905474 -1.058202 2.307412 0.016917 -0.014824 36606.100000 0 0 1
-13.622923 25.603123 -24.908813 38.230262 -1.081815 2.280418 0.028521 -0.021018 81731.800000 0 0 1
-13.355423 27.158823 -24.939113 39.216430 -1.113768 2.260016 0.051776 -0.016961 1130930.000000 0 0 1
-14.525423 27.852423 -25.464963 40.437726 -1.090086 2.252006 0.059511 -0.022896 872293.000000 0 0 1
-15.024123 28.804823 -24.522813 40.703937 -1.090031 2.217386 0.061664 -0.019826 -368059.000000 0 0 1
-16.400123 29.310123 -24.921813 41.822770 -1.060660 2.209171 0.061569 -0.019792 52759.300000 0 0 1
-17.458223 28.352023 -24.946813 41.604930 -1.018864 2.213812 0.045813 -0.020267 -484922.000000 0 0 1
-18.670023 28.885423 -25.393293 42.752272 -0.996993 2.206773 0.037360 -0.013848 -153407.000000 0 0 1
-19.743823 27.775323 -25.232083 42.402183 -0.952832 2.208144 0.029631 -0.005582 -271676.000000 0 0 1
-20.208923 27.601823 -23.903413 41.732893 -0.938812 2.180679 0.034664 -0.018007 469931.000000 0 0 1
-21.199823 26.528223 -23.912413 41.532910 -0.896579 2.184313 0.037545 -0.025189 358017.000000 0 0 1
-21.806023 26.412323 -22.523813 40.993116 -0.880639 2.152506 0.033782 -0.021779 -407081.000000 0 0 1
-22.594923 27.525923 -22.213613 41.972033 -0.883465 2.128510 0.034969 -0.018770 -237531.000000 0 0 1
-22.998523 27.609523 -20.865813 41.552376 -0.876259 2.096887 0.020235 -0.017391 156561.000000 0 0 1
-24.292323 28.444823 -20.651613 42.728375 -0.863976 2.075243 0.010719 -0.011887 960449.000000 0 0 1
-25.482923 27.798323 -21.105913 43.215572 -0.828827 2.081036 0.007148 -0.007264 788791.000000 0 0 1
-26.688893 28.570923 -21.088113 44.421877 -0.819443 2.065446 0.020030 -0.005700 653458.000000 0 0 1
-27.901783 27.717623 -21.471313 44.808408 -0.782087 2.070517 0.008231 -0.006504 -289005.000000 0 0 1
-27.869033 27.390223 -22.830813 45.256528 -0.776734 2.099571 0.005550 0.001554 444802.000000 0 0 1
-29.180793 27.055923 -23.314313 46.120482 -0.747632 2.100768 0.003972 -0.001015 600832.000000 0 0 1
-29.236213 26.581123 -24.799313 46.651025 -0.737867 2.131275 0.003662 0.009930 8682.970000 0 0 1
-28.863473 25.233023 -25.012013 45.775608 -0.718388 2.148862 0.018772 0.009013 -203627.000000 0 0 1
-29.174013 24.785623 -26.309183 46.450223 -0.704249 2.172922 0.030721 0.002053 -30730.300000 0 0 1
-29.099963 23.300023 -26.479763 45.726106 -0.675161 2.188415 0.039715 -0.001395 -786859.000000 0 0 1
-27.824273 22.763623 -26.450513 44.631853 -0.685693 2.205126 0.041344 -0.004432 -683967.000000 0 0 1
-27.837163 21.539023 -27.152553 44.453327 -0.658529 2.227880 0.057221 -0.016554 -605913.000000 0 0 1
-26.654933 20.635423 -26.887043 43.118664 -0.658791 2.244084 0.058387 -0.013819 -611854.000000 0 0 1
-26.548733 20.031523 -25.602483 41.971232 -0.646387 2.226858 0.064638 -0.007700 -76336.300000 0 0 1
-25.848813 18.833023 -25.611293 40.972945 -0.629653 2.246028 0.045452 -0.016824 -160895.000000 0 0 1
-26.766713 17.576723 -25.556763 40.970065 -0.581045 2.244380 0.058134 -0.014432 205061.000000 0 0 1
-27.564973 17.421623 -26.717573 42.156487 -0.563632 2.257215 0.060322 -0.017433 472571.000000 0 0 1
-28.346483 16.221623 -26.756453 42.220516 -0.519774 2.257163 0.037012 -0.019414 -2267.820000 0 0 1
-29.155433 15.965023 -28.014143 43.470834 -0.500986 2.271081 0.032435 -0.022751 -725387.000000 0 0 1
-30.456993 16.450823 -27.988643 44.515415 -0.495236 2.250729 0.020860 -0.024291 -481160.000000 0 0 1
-31.230593 15.713023 -28.943663 45.387054 -0.466148 2.262315 0.019791 -0.016559 387047.000000 0 0 1
-32.523133 16.440923 -29.423543 46.838051 -0.468050 2.250031 0.008269 -0.015439 552289.000000 0 0 1
-33.542813 16.449423 -28.425833 46.943922 -0.455939 2.221225 0.000535 -0.011883 38524.800000 0 0 1
-34.773407 16.868523 -28.958403 48.294161 -0.451655 2.213829 0.013088 -0.013493 -49734.500000 0 0 1
-36.018340 16.395523 -28.191503 48.589040 -0.427169 2.189774 0.007778 -0.007408 -103834.000000 0 0 1
36.119913 17.054823 -26.976243 48.199925 0.441139 2.164789 0.013283 -0.008934 219466.000000 0 0 1
34.881753 16.745723 -26.352363 46.814559 0.447578 2.168698 0.025536 -0.013213 205730.000000 0 0 1
34.438613 17.832023 -25.389543 46.353295 0.477779 2.150457 0.032518 -0.005843 -118209.000000 0 0 1
34.020343 18.996823 -26.062363 46.877604 0.509266 2.160321 0.028199 -0.014364 268373.000000 0 0 1
33.411393 19.956823 -25.203423 46.366027 0.538436 2.145487 0.037539 -0.013180 -357906.000000 0 0 1
32.868233 21.218423 -25.951063 46.946777 0.573248 2.156488 0.035251 -0.014647 42444.400000 0 0 1
31.557803 21.253923 -26.451323 46.338932 0.592713 2.178304 0.035371 -0.014081 69910.900000 0 0 1
30.509323 21.434423 -25.489723 45.166129 0.612437 2.170448 0.052538 -0.006591 539905.000000 0 0 1
29.109063 21.268523 -26.139343 44.530359 0.631001 2.198145 0.023028 -0.007791 404590.000000 0 0 1
28.678113 19.927623 -26.435883 43.799546 0.607276 2.218761 0.034408 -0.016447 -180239.000000 0 0 1
27.359183 19.764323 -26.885273 43.150565 0.625603 2.243442 0.045027 -0.018583 -257867.000000 0 0 1
26.833733 18.310123 -26.770763 42.094935 0.598785 2.260050 0.061616 -0.014588 -213688.000000 0 0 1
27.506833 17.312723 -27.515533 42.584748 0.561755 2.273307 0.048785 -0.020260 -303898.000000 0 0 1
28.571443 16.781923 -26.770503 42.598358 0.531079 2.250342 0.048826 -0.012881 -874676.000000 0 0 1
29.405723 15.884423 -27.637593 43.368744 0.495274 2.261747 0.036777 -0.011762 -760758.000000 0 0 1
28.928343 14.626223 -28.075083 42.883397 0.468119 2.284561 0.049532 -0.017539 -355146.000000 0 0 1
28.427083 13.633223 -27.196733 41.636836 0.447183 2.282585 0.056123 -0.017110 -291878.000000 0 0 1
29.316563 12.967723 -26.142843 41.365093 0.416461 2.254931 0.051415 -0.014090 -280521.000000 0 0 1
29.505063 13.745823 -24.992913 41.038300 0.435981 2.225614 0.059012 -0.016626 -398617.000000 0 0 1
30.578543 13.318623 -24.221813 41.220495 0.410776 2.198905 0.047861 -0.017129 -649796.000000 0 0 1
-14.474023 -31.457082 -24.334213 42.322562 1.139559 2.183364 0.113414 -0.003663 -162476.000000 0 0 1
-13.839523 -30.288882 -24.725413 41.476437 1.142205 2.209471 0.111038 -0.009100 -21055.100000 0 0 1
-14.195223 -29.834082 -26.007633 42.047280 1.126691 2.237671 0.091303 -0.000172 -102283.000000 0 0 1
-13.426323 -28.558182 -26.444363 41.172081 1.131321 2.268277 0.082640 -0.003545 -165570.000000 0 0 1
-13.793523 -27.331782 -25.893913 40.097161 1.103420 2.272840 0.084671 -0.009408 89893.800000 0 0 1
-13.160823 -26.206182 -26.520533 39.538714 1.105388 2.306014 0.075418 -0.008946 -212316.000000 0 0 1
-13.640123 -24.868382 -25.849393 38.375520 1.069111 2.309853 0.062046 -0.004421 140993.000000 0 0 1
-13.011623 -24.545882 -24.616713 37.118529 1.083364 2.295872 0.073216 -0.010387 128250.000000 0 0 1
-13.523723 -23.324982 -24.135713 36.186717 1.045365 2.300941 0.073287 -0.004272 -137385.000000 0 0 1
-13.068323 -22.804482 -22.759713 34.768233 1.050422 2.284466 0.068061 -0.006285 396776.000000 0 0 1
-11.693223 -22.461482 -22.885513 34.132043 1.090813 2.305678 0.072981 -0.014447 229970.000000 0 0 1
-11.057523 -21.801582 -21.797513 32.752242 1.101414 2.298996 0.064866 -0.008907 1057570.000000 0 0 1
-9.497523 -21.827782 -21.973013 32.395498 1.160392 2.316207 0.054446 -0.014193 722343.000000 0 0 1
-9.042323 -20.935282 -22.987513 32.380170 1.163081 2.360189 0.059029 -0.013614 -793202.000000 0 0 1
-7.660023 -20.799482 -22.979113 31.927011 1.217931 2.374223 0.059571 -0.008840 -921994.000000 0 0 1
-7.298523 -19.521682 -23.736013 31.587384 1.213019 2.421038 0.058945 -0.000301 -116757.000000 0 0 1
-7.631023 -18.357582 -23.002013 30.402729 1.176840 2.428859 0.067877 -0.004731 -115974.000000 0 0 1
-7.934923 -17.180682 -23.762513 30.377555 1.138131 2.469048 0.060036 -0.014488 57703.900000 0 0 1
-6.902723 -16.583682 -24.785113 30.609932 1.176372 2.514451 0.069213 -0.011420 252960.000000 0 0 1
-6.705423 -17.375482 -25.972823 31.960251 1.202493 2.519499 0.069267 -0.015527 -439015.000000 0 0 1
-5.560823 -16.968882 -26.639373 32.070577 1.254118 2.551067 0.059739 -0.017025 -502268.000000 0 0 1
-5.226123 -17.486882 -28.041873 33.458184 1.280386 2.564618 0.066125 -0.012555 188793.000000 0 0 1
-6.280423 -17.199482 -28.952613 34.256674 1.220687 2.577674 0.089149 -0.017315 654055.000000 0 0 1
-5.861423 -17.785782 -30.175333 35.513956 1.252449 2.586166 0.084486 -0.028284 325469.000000 0 0 1
-6.839923 -17.313882 -31.276693 36.397618 1.194561 2.604708 0.091528 -0.023820 107406.000000 0 0 1
-6.348523 -16.287582 -32.048843 36.506402 1.199134 2.642248 0.086299 -0.021378 -7725.710000 0 0 1
-6.315623 -14.972982 -31.394443 35.350931 1.171638 2.663947 0.072977 -0.020490 -212374.000000 0 0 1
-7.068023 -14.018382 -32.314433 35.926238 1.103797 2.689343 0.076630 -0.020344 -30660.400000 0 0 1
-6.357123 -13.786682 -33.531303 36.808068 1.138745 2.716443 0.068613 -0.030094 -609.636000 0 0 1
-7.104523 -13.142182 33.957092 37.098185 1.075207 0.414469 0.067771 -0.022998 -587444.000000 0 0 1
-7.610923 -11.670182 34.217021 36.944876 0.992898 0.386685 0.046496 -0.018069 426794.000000 0 0 1
-6.645723 -10.609982 -34.073083 36.300308 1.011216 2.789475 0.027346 -0.021372 -4974.530000 0 0 1
-5.731523 -10.452882 33.375940 35.441028 1.069244 0.343054 0.036476 -0.025122 -43003.200000 0 0 1
-4.809323 -9.205782 33.443695 35.019377 1.089371 0.301118 0.036871 -0.022671 119292.000000 0 0 1
-4.606723 -8.768982 32.115643 33.608503 1.087081 0.299172 0.034851 -0.017601 264461.000000 0 0 1
-3.623023 -7.734282 32.095193 33.212149 1.132716 0.260081 0.026551 -0.022482 -523284.000000 0 0 1
-3.684823 -6.920682 30.778063 31.761029 1.081538 0.249438 0.018493 -0.015683 422527.000000 0 0 1
-4.761323 -5.987382 30.732743 31.670498 0.898973 0.243955 0.010864 -0.012136 991419.000000 0 0 1
-6.032623 -6.563182 30.405903 31.685752 0.827495 0.285190 0.013565 -0.011399 -820834.000000 0 0 1
-7.261023 -5.753782 30.396473 31.776942 0.670102 0.295840 0.009171 -0.011119 -387045.000000 0 0 1
-8.372823 -6.338682 29.716843 31.517834 0.648001 0.339690 0.015687 -0.008049 197460.000000 0 0 1
-9.532523 -5.543182 29.629983 31.615372 0.526707 0.356277 0.020488 -0.009218 350010.000000 0 0 1
-10.646123 -6.189982 28.754593 31.280704 0.526654 0.404641 0.037196 -0.006705 212061.000000 0 0 1
-10.378123 -6.015782 27.376013 29.888814 0.525329 0.412981 0.031472 -0.013097 584366.000000 0 0 1
-11.371223 -6.703282 26.650553 29.740388 0.532660 0.459878 0.035111 -0.018908 96817.100000 0 0 1
-10.989423 -6.507582 25.189733 28.242498 0.534641 0.469248 0.028485 -0.014594 419302.000000 0 0 1
-9.808423 -7.222182 24.819263 27.647078 0.634691 0.456235 0.031258 -0.013602 473619.000000 0 0 1
-9.161023 -6.795582 23.648733 26.255797 0.638228 0.449406 0.032236 -0.017555 -621522.000000 0 0 1
-9.915123 -6.921082 22.297023 25.364706 0.609405 0.496916 0.034184 -0.024308 -963291.000000 0 0 1
-11.009123 -6.083382 22.368123 25.662059 0.504819 0.512254 0.022368 -0.018473 -594984.000000 0 0 1
-11.987123 -6.405282 21.360523 25.317794 0.490746 0.566665 0.027578 -0.013057 482412.000000 0 0 1
-13.149023 -5.377982 21.459923 25.736119 0.388243 0.584760 0.025875 -0.002683 32569.000000 0 0 1
-12.756023 -4.123682 20.951223 24.873171 0.312669 0.569219 0.024219 -0.002660 -459545.000000 0 1 0
-13.818723 -3.235682 20.827123 25.203091 0.230008 0.598162 0.030251 -0.006809 -192259.000000 0 0 1
-13.402623 -1.818682 20.317223 24.407529 0.134872 0.587343 0.010230 -0.003131 -440513.000000 0 1 0
-12.443023 -1.100682 20.984623 24.421194 0.088228 0.536938 0.018930 -0.015767 -541542.000000 0 1 0
-12.717123 0.318318 20.977623 24.533390 -0.025025 0.545122 0.018729 -0.012534 -280767.000000 0 1 0
-12.311523 1.155318 19.745023 23.297517 -0.093566 0.559508 0.020211 -0.017392 -148080.000000 0 1 0
-13.053423 0.933318 18.575423 22.722440 -0.071378 0.613753 0.026071 -0.014070 45387.700000 0 1 0
-14.240123 1.725318 18.557723 23.455211 -0.120571 0.658030 0.026509 -0.010715 481837.000000 0 1 0
-15.319923 1.137318 17.593323 23.356339 -0.074102 0.717796 0.039703 -0.006037 114027.000000 0 1 0
-15.723923 -0.156682 17.962323 23.872816 0.009964 0.719072 0.035584 -0.009382 637060.000000 0 1 0
-16.822823 -0.624682 17.169723 24.045727 0.037116 0.775538 0.047672 -0.006585 348824.000000 0 1 0
-16.889423 -2.162682 17.255923 24.242456 0.127356 0.778730 0.051087 -0.005927 15293.600000 0 1 0
-17.261023 -2.637682 18.594223 25.507752 0.151638 0.753990 0.051640 -0.002540 103641.000000 0 0 1
-17.130423 -4.086082 18.630323 25.636622 0.234153 0.757280 0.058467 -0.002309 395119.000000 0 0 1
-17.921123 -4.718082 19.885923 27.182290 0.257428 0.750165 0.056446 0.003348 210572.000000 0 0 1
-17.324423 -4.383082 21.120123 27.665984 0.247800 0.702241 0.058567 0.003715 -104730.000000 0 0 1
-18.227623 -4.217782 22.166623 29.006812 0.227393 0.701017 0.056360 0.000125 -342430.000000 0 0 1
-18.646623 -5.555782 22.946123 30.084678 0.289576 0.703291 0.055705 0.006111 261214.000000 0 0 1
-17.566623 -6.198982 23.604393 30.069603 0.339242 0.668113 0.058261 -0.002290 285297.000000 0 0 1
-16.748823 -6.993882 22.782323 29.128538 0.395564 0.672718 0.044365 -0.001907 -584361.000000 0 0 1
-15.571823 -7.624682 23.500593 29.204372 0.455330 0.635636 0.043680 -0.002989 -413379.000000 0 0 1
-15.947723 -8.729482 24.262743 30.318549 0.500830 0.643067 0.050825 -0.010367 192885.000000 0 0 1
-14.868423 -9.073582 25.084573 30.539085 0.547928 0.606948 0.057738 -0.007254 117251.000000 0 0 1
-15.392823 -9.892282 26.260213 32.006172 0.571195 0.608558 0.045888 -0.011809 80006.300000 0 0 1
-15.560523 -11.278382 25.915003 32.263279 0.627182 0.638089 0.043082 -0.018018 256280.000000 0 0 1
-14.964823 -12.034682 26.984083 33.119786 0.677296 0.618512 0.035650 -0.016163 69878.400000 0 0 1
-14.992223 -13.543982 26.778613 33.545496 0.734691 0.646367 0.019924 -0.018192 408401.000000 0 0 1
-16.201423 -14.162882 27.248633 34.721195 0.718363 0.668449 0.027175 -0.022170 479628.000000 0 0 1
-16.263123 -15.581682 27.253503 35.355784 0.764003 0.690644 0.033519 -0.014350 -194129.000000 0 0 1
-15.287423 -16.449882 28.116153 35.983635 0.822009 0.673955 0.033325 -0.010280 191093.000000 0 0 1
-13.991323 -16.432682 27.545173 34.993238 0.865471 0.664611 0.037121 -0.013674 46798.400000 0 0 1
-13.209523 -17.503482 28.041253 35.597405 0.924307 0.663676 0.041215 -0.010406 123077.000000 0 0 1
-11.754123 -17.532482 27.507383 34.672806 0.980200 0.654518 0.040614 -0.018785 298968.000000 0 0 1
-10.958923 -18.574482 28.063223 35.392851 1.037763 0.655232 0.045265 -0.027626 564737.000000 0 0 1
-9.806323 -18.884482 27.270393 34.589912 1.091844 0.662606 0.035559 -0.026505 -583137.000000 0 0 1
-8.719123 -19.403682 28.172363 35.301672 1.148480 0.646750 0.048240 -0.029154 -947942.000000 0 0 1
-8.798323 -20.719882 28.697493 36.472868 1.169237 0.665161 0.045961 -0.021365 -158855.000000 0 0 1
-7.634823 -21.081382 29.397653 36.972114 1.223330 0.651574 0.058537 -0.024040 -92932.000000 0 0 1
-7.798023 -22.348482 30.309823 38.457109 1.235076 0.663005 0.054664 -0.022427 139338.000000 0 0 1
-7.913023 -23.534182 29.497693 38.556291 1.246436 0.699669 0.038409 -0.020150 -37049.500000 0 0 1
-8.528823 -24.555082 30.259563 39.891529 1.236498 0.709717 0.037241 -0.016823 -119736.000000 0 0 1
-8.691423 -25.843782 29.406413 40.102108 1.246373 0.747650 0.038734 -0.012923 -333976.000000 0 0 1
-9.690523 -25.794282 28.415933 39.581770 1.211425 0.770009 0.043772 -0.013935 116673.000000 0 0 1
-9.612423 -26.992782 27.667053 39.830576 1.228688 0.802907 0.044426 -0.017376 -218974.000000 0 0 1
-10.939723 -27.261782 26.922133 39.845747 1.189183 0.828938 0.037485 -0.012251 -8814.920000 0 0 1
-11.220523 -26.641482 25.687713 38.672048 1.172176 0.844313 0.043448 -0.013217 232748.000000 0 0 1
-11.593123 -25.291582 25.773623 37.925510 1.140997 0.823599 0.033945 -0.008950 -449539.000000 0 0 1
-11.890323 -24.664382 24.408613 36.680948 1.121583 0.842726 0.036138 -0.019569 -535843.000000 0 0 1
-13.158523 -24.968482 23.923993 36.999044 1.085779 0.867663 0.029138 -0.005487 -481648.000000 0 0 1
-13.117723 -24.855582 22.528023 36.019251 1.085190 0.895096 0.036222 -0.012321 -91827.600000 0 0 1
-14.426023 -24.904182 21.697323 36.043061 1.045766 0.924814 0.040271 -0.009701 -57689.000000 0 0 1
-14.898323 -26.223082 21.472023 37.022397 1.054134 0.952100 0.043208 -0.007439 487903.000000 0 0 1
-16.132623 -26.116082 20.754923 37.055069 1.017444 0.976277 0.041947 -0.008142 487753.000000 0 0 1
-16.355423 -27.479882 20.077223 37.758955 1.033930 1.010165 0.041640 -0.006567 -156835.000000 0 0 1
-15.495423 -27.712282 19.005923 37.004106 1.060953 1.031402 0.032421 -0.010310 -233795.000000 0 0 1
-15.595023 -29.049182 18.503723 37.808035 1.078106 1.059380 0.043224 0.002030 -365016.000000 0 0 1
-14.517023 -29.329782 17.489323 37.106017 1.111190 1.079994 0.041310 -0.007183 -436087.000000 0 0 1
-14.673823 -28.514782 16.311723 35.978969 1.095534 1.100256 0.046745 -0.011591 358169.000000 0 0 1
-13.782023 -28.943682 15.264623 35.506191 1.126396 1.126398 0.049526 -0.006656 259936.000000 0 0 1
-14.181923 -28.369682 13.848723 34.608568 1.107231 1.159113 0.035746 -0.008375 -140758.000000 0 0 1
-13.915223 -26.965282 13.748823 33.313511 1.094397 1.145369 0.042089 -0.006377 -101113.000000 0 0 1
-14.362023 -26.377782 12.567223 32.557491 1.072205 1.174504 0.046466 -0.023611 -280843.000000 0 0 1
-13.298823 -26.254582 11.477723 31.589554 1.101936 1.198947 0.040619 -0.020940 -165455.000000 0 0 1
-13.758323 -25.692682 10.280123 30.904471 1.079157 1.231693 0.039986 -0.012935 -49539.200000 0 0 1
-12.802223 -25.884382 9.277223 30.330925 1.111484 1.259948 0.044118 -0.007468 -178465.000000 0 0 1
-13.403323 -25.582582 7.911023 29.944981 1.088193 1.303437 0.054539 -0.013812 -670746.000000 0 0 1
-14.399723 -26.406182 7.422923 30.979643 1.071556 1.328836 0.045911 -0.005392 -524717.000000 0 0 1
-15.111223 -25.669982 6.464823 30.480994 1.038747 1.357080 0.054070 -0.009318 88096.900000 0 0 1
-15.966623 -26.442382 5.411023 31.359397 1.027568 1.397380 0.058469 -0.011689 379026.000000 0 0 1
-15.216523 -27.347082 4.622723 31.635029 1.063036 1.424144 0.080037 -0.009999 59584.900000 0 0 1
-15.614423 -27.161082 3.251923 31.497771 1.049051 1.467369 0.077034 -0.014752 19307.400000 0 0 1
-15.229223 -28.360282 2.306123 32.273101 1.077995 1.499279 0.073455 -0.010922 130990.000000 0 0 1
-13.843023 -28.473982 2.052223 31.727095 1.118279 1.506068 0.050918 -0.002072 -121943.000000 0 0 1
-13.548223 -29.625582 1.382323 32.605832 1.141876 1.528389 0.039740 -0.002657 -224163.000000 0 0 1
-12.085323 -29.655782 0.900123 32.036396 1.183824 1.542696 0.023798 -0.000777 -90231.400000 0 0 1
-11.820523 -28.953482 -0.334377 31.275241 1.183190 1.581488 0.031681 0.000486 -6425.790000 0 0 1
-11.928523 -27.554582 -0.381677 30.028159 1.162249 1.583507 0.022653 -0.001924 -455839.000000 0 0 1
-11.741323 -26.893482 -1.720777 29.395223 1.159153 1.629369 0.025572 0.001144 -104685.000000 0 0 1
-10.512123 -27.277582 -2.288877 29.322520 1.202960 1.648934 0.018927 -0.001469 -410686.000000 0 0 1
-10.274923 -26.734282 -3.523377 28.856716 1.203867 1.693201 0.035896 -0.001811 100009.000000 0 0 1
-8.845323 -27.052382 -3.994677 28.740713 1.254783 1.710238 0.026097 0.000514 -81399.600000 0 0 1
-8.335923 -26.046282 -4.785577 27.763252 1.261055 1.744032 0.031101 0.001614 272405.000000 0 0 1
-6.943323 -26.246082 -5.069577 27.618240 1.312174 1.755402 0.025756 0.006875 727627.000000 0 0 1
-6.373423 -25.140482 -5.943477 26.608068 1.322515 1.796068 0.020180 0.007496 -398731.000000 0 0 1
-6.823023 -24.951682 -7.266077 26.868866 1.303872 1.844633 0.035467 0.001654 -61826.600000 0 0 1
-6.124923 -23.873882 -7.884177 25.877349 1.319659 1.880393 0.027844 0.005667 -196202.000000 0 0 1
-6.455623 -23.735182 -9.378877 26.324841 1.305235 1.935074 0.043793 0.001962 32116.000000 0 0 1
-5.889323 -24.856882 -10.110577 27.473123 1.338157 1.947672 0.024931 0.002539 179741.000000 0 0 1
-5.969023 -24.784182 -11.541377 27.983715 1.334457 1.995918 0.017164 0.010419 679706.000000 0 0 1
-7.247023 -25.469282 -12.180077 29.147177 1.293583 2.001909 0.024223 0.001649 723592.000000 0 0 1
-7.332423 -25.426882 -13.611877 29.758595 1.290040 2.045877 0.034018 -0.001104 323132.000000 0 0 1
-8.477723 -26.128082 -14.095077 30.874256 1.257046 2.044889 0.047787 -0.001664 -225307.000000 0 0 1
-8.546023 -26.070682 -15.633077 31.577018 1.254032 2.088721 0.045669 -0.007969 154248.000000 0 0 1
-7.610123 -26.800182 -16.407677 32.332269 1.294121 2.103043 0.037242 -0.015734 -36994.600000 0 0 1
-6.306723 -26.273382 -16.414777 31.615032 1.335211 2.116720 0.038845 -0.009208 183545.000000 0 0 1
-5.217523 -27.191382 -17.090577 32.537388 1.381219 2.123817 0.030183 -0.015266 303067.000000 0 0 1
-5.440523 -27.036582 -18.484977 33.200458 1.372220 2.161287 0.060258 -0.022191 -558175.000000 0 0 1
-4.475223 -27.610182 -19.259177 33.959766 1.410108 2.173798 0.051899 -0.029476 -841525.000000 0 0 1
-24.715123 14.164723 -5.050713 28.930717 -0.520420 1.746275 0.057064 -0.030105 56867.500000 0 0 1
-24.866223 12.778423 -4.827913 28.371216 -0.474695 1.741798 0.061747 -0.022905 641970.000000 0 0 1
-23.623023 12.096223 -4.985713 27.004132 -0.473243 1.756489 0.061666 -0.018215 -6125.970000 0 0 1
-23.808423 10.632523 -4.618313 26.480566 -0.420012 1.746097 0.068977 -0.029050 172691.000000 0 0 1
-24.348423 9.795123 -5.650113 26.846116 -0.382479 1.782845 0.066343 -0.039597 -195077.000000 0 0 1
-25.699263 9.897223 -5.983713 28.181767 -0.367611 1.784751 0.088803 -0.043346 -754066.000000 0 0 1
-25.984693 9.376823 -7.424813 28.605191 -0.346316 1.833365 0.094234 -0.035141 -209356.000000 0 0 1
-25.859553 10.339123 -8.438513 29.100214 -0.380350 1.865003 0.104179 -0.014312 -132674.000000 0 0 1
-26.199843 9.850723 -9.706713 29.625813 -0.359633 1.904605 0.106568 -0.023027 -193184.000000 0 0 1
-26.588343 10.962723 -10.709613 30.689039 -0.391076 1.927270 0.084262 -0.022174 -683214.000000 0 0 1
-25.527603 11.771323 -11.031213 30.197851 -0.432064 1.944749 0.076085 -0.017154 -583614.000000 0 0 1
-25.796193 12.433523 -12.252713 31.147473 -0.449137 1.975099 0.079518 -0.018179 -244446.000000 0 0 1
-24.702023 13.348023 -12.848813 30.878013 -0.495413 1.999965 0.056590 -0.011023 -332134.000000 0 0 1
-24.334123 14.332623 -11.912813 30.651081 -0.532287 1.969972 0.047172 -0.014727 -235152.000000 0 0 1
-23.583223 15.327723 -12.490613 30.775362 -0.576334 1.988720 0.034596 -0.015181 -574226.000000 0 0 1
-23.771723 16.747223 -11.775113 31.372242 -0.613741 1.955555 0.021368 -0.010186 -215864.000000 0 0 1
-23.061123 16.914323 -10.556713 30.485306 -0.632829 1.924408 0.020778 0.000207 71359.400000 0 0 1
-23.120423 18.246623 -10.119913 31.143312 -0.668120 1.901752 -0.004905 0.004973 -254447.000000 0 0 1
-22.034023 18.584623 -9.073413 30.219418 -0.700680 1.875752 0.005779 0.002872 -230093.000000 0 0 1
-22.037623 18.075423 -7.728213 29.531390 -0.686942 1.835574 0.017152 -0.003823 68120.200000 0 0 1
-23.071923 18.667623 -6.977713 30.487412 -0.680269 1.801715 0.035113 -0.015929 -331094.000000 0 0 1
-23.551423 17.885223 -5.725413 30.121937 -0.649497 1.762034 0.039657 -0.016134 -403898.000000 0 0 1
-22.662023 17.816023 -4.647713 29.198959 -0.666246 1.730650 0.042617 -0.024395 -361908.000000 0 0 1
-23.248323 17.615023 -3.411113 29.366805 -0.648405 1.687215 0.032922 -0.022991 -104662.000000 0 0 1
-22.199523 17.323223 -2.292913 28.251908 -0.662639 1.652045 0.046919 -0.029896 -127250.000000 0 0 1
-21.471723 18.444423 -1.889113 28.369004 -0.709702 1.637436 0.051761 -0.035717 -64199.000000 0 0 1
-20.418323 18.116623 -1.023213 27.316056 -0.725739 1.608263 0.093694 -0.045158 199050.000000 0 0 1
-19.661023 19.357423 -0.412613 27.594128 -0.777617 1.585750 0.085437 -0.045490 278836.000000 0 0 1
-20.572823 20.106123 0.354987 28.768442 -0.773926 1.558457 0.062192 -0.037902 207530.000000 0 0 1
-20.110223 21.404323 0.607087 29.375750 -0.816560 1.550129 0.078921 -0.029665 -290593.000000 0 0 1
-20.972423 22.123123 1.621387 30.527103 -0.812093 1.517658 0.049004 -0.022557 -270381.000000 0 0 1
-20.718323 21.666423 2.917587 30.119680 -0.807763 1.473778 0.065009 -0.027534 56568.500000 0 0 1
-21.821123 21.865023 3.758887 31.118642 -0.786403 1.449709 0.037105 -0.023384 -287772.000000 0 0 1
-21.503423 21.437223 5.243387 30.813063 -0.783856 1.399797 0.049145 -0.024119 -92162.600000 0 0 1
-20.770323 22.452823 5.911587 31.152567 -0.824304 1.379876 0.048285 -0.008772 -97604.100000 0 0 1
-20.087123 21.965023 7.032387 30.584460 -0.830025 1.338787 0.051891 -0.011497 -296037.000000 0 0 1
-20.887023 21.667723 8.352987 31.233481 -0.803742 1.300064 0.043886 -0.031949 38875.100000 0 0 1
-22.029523 20.816123 8.164287 31.388954 -0.757085 1.307670 0.058540 -0.033597 1014100.000000 0 0 1
-22.599823 20.188623 9.344787 31.712104 -0.729106 1.271680 0.066731 -0.033386 31580.100000 0 0 1
-23.074723 21.148123 10.436987 32.994191 -0.741860 1.248940 0.066130 -0.031057 -831889.000000 0 0 1
-24.235023 21.848523 10.031987 34.137004 -0.733658 1.272519 0.065777 -0.029515 206747.000000 0 0 1
-24.792523 22.544023 11.118387 35.306100 -0.737934 1.250430 0.071202 -0.025319 -469338.000000 0 0 1
-25.725703 23.635623 10.627887 36.515838 -0.743081 1.275474 0.071909 -0.030258 -334414.000000 0 0 1
-26.500233 23.971223 11.768287 37.621463 -0.735332 1.252649 0.068531 -0.029193 -117483.000000 0 0 1
-26.888653 25.315423 11.698487 38.739191 -0.755271 1.264027 0.058881 -0.024875 -140188.000000 0 0 1
-27.446813 25.792323 13.073487 39.868378 -0.754332 1.236699 0.056323 -0.021676 -374194.000000 0 0 1
-26.531413 25.580623 14.080587 39.453100 -0.767155 1.205855 0.049251 -0.022790 -275919.000000 0 0 1
-27.076673 25.939723 15.350387 40.517278 -0.763956 1.182232 0.047224 -0.017336 -968.549000 0 0 1
-26.012343 26.030023 16.443387 40.306191 -0.785738 1.150576 0.042813 -0.019564 -84182.700000 0 0 1
-25.437113 24.835323 16.963587 39.390396 -0.773428 1.125580 0.066008 -0.025395 187038.000000 0 0 1
-24.660023 25.093823 18.129387 39.578926 -0.794117 1.094989 0.063422 -0.024408 94933.400000 0 0 1
-24.069823 23.767723 18.691887 38.647738 -0.779083 1.065979 0.078250 -0.021751 -161653.000000 0 0 1
-23.059323 23.913523 19.670587 38.607266 -0.803581 1.036187 0.075935 -0.026581 137841.000000 0 0 1
-22.475923 22.703823 19.980487 37.680904 -0.790442 1.011895 0.083045 -0.024535 405347.000000 0 0 1
-20.992923 22.854823 20.475487 37.179179 -0.827836 0.987564 0.066277 -0.032200 563053.000000 0 0 1
-20.050423 22.948923 19.414887 36.133231 -0.852704 1.003547 0.048316 -0.028572 695257.000000 0 0 1
-18.687923 22.781323 19.806187 35.503693 -0.883789 0.978988 0.044841 -0.030277 286083.000000 0 0 1
-18.155823 21.363223 19.645287 34.233880 -0.866382 0.959591 0.036636 -0.015156 -891799.000000 0 0 1
-18.576023 20.336923 20.536087 34.356803 -0.830620 0.930130 0.055422 -0.018359 -85178.600000 0 0 1
-17.982523 20.402823 21.809687 34.861279 -0.848368 0.894879 0.063489 -0.024434 -215721.000000 0 0 1
-18.933223 20.087223 22.997687 35.928499 -0.814964 0.876173 0.065874 -0.019064 -296682.000000 0 0 1
-19.802723 21.159823 23.201887 37.124298 -0.818516 0.895692 0.055243 -0.012603 -678583.000000 0 0 1
-20.690723 20.861323 24.230387 38.084281 -0.789504 0.881194 0.082850 -0.012349 452820.000000 0 0 1
-21.898823 21.865323 24.335887 39.368594 -0.784633 0.904403 0.086635 -0.009473 224967.000000 0 0 1
-21.410023 23.114923 24.809387 40.102300 -0.823670 0.903770 0.083079 -0.019290 534737.000000 0 0 1
-22.358723 24.161023 25.122287 41.410105 -0.824121 0.918931 0.083359 -0.023719 22828.000000 0 0 1
-23.176223 24.774723 23.992487 41.551939 -0.818722 0.955244 0.073034 -0.022973 146136.000000 0 0 1
-24.305723 23.965423 23.678387 41.542456 -0.778349 0.964314 0.070674 -0.022807 226517.000000 0 0 1
-25.049983 24.491023 22.602087 41.691320 -0.774116 0.997827 0.064622 -0.016842 -48921.300000 0 0 1
-26.078933 23.519823 21.987487 41.433590 -0.733848 1.011408 0.065490 -0.015791 854744.000000 0 0 1
-27.389843 23.614823 22.591387 42.640757 -0.711520 1.012423 0.053180 -0.012803 879805.000000 0 0 1
-28.144973 22.467523 22.219287 42.315787 -0.673690 1.017984 0.056890 -0.011606 893699.000000 0 0 1
-29.689163 22.590723 22.490087 43.561350 -0.650446 1.028288 0.055613 -0.004672 213007.000000 0 0 1
-30.325523 23.533823 21.683287 44.086768 -0.659960 1.056604 0.046579 -0.003028 -59833.500000 0 0 1
-31.709733 23.674623 21.963687 45.259237 -0.641324 1.064106 0.031682 0.006368 557327.000000 0 0 1
-32.541883 22.720123 21.008887 44.906029 -0.609504 1.083950 0.020007 -0.000597 -926017.000000 0 0 1
-32.444373 21.318623 21.291987 44.277192 -0.581338 1.069139 0.021522 0.003858 204949.000000 0 0 1
-32.980983 20.516823 20.279487 43.817153 -0.556497 1.089622 0.010330 0.006560 185279.000000 0 0 1
-34.519694 20.506023 20.072887 44.889053 -0.536024 1.107201 0.008979 0.012744 23553.500000 0 0 1
-35.058116 19.759723 18.999687 44.502879 -0.513246 1.129699 0.014865 0.005858 459316.000000 0 0 1
35.828013 19.649323 19.133387 45.120161 0.501641 1.132879 0.021915 0.007187 509376.000000 0 0 1
35.239843 18.774023 18.039687 43.814846 0.489503 1.146450 0.028897 0.001415 -340174.000000 0 0 1
35.767913 17.452123 18.004287 43.681513 0.453942 1.145960 0.035083 -0.004546 312324.000000 0 0 1
34.835383 16.610623 17.346587 42.312182 0.444942 1.148379 0.052294 -0.010787 322056.000000 0 0 1
35.289943 15.114423 17.120987 42.035152 0.404656 1.151299 0.060042 -0.012529 -332734.000000 0 0 1
34.260433 14.397523 16.532287 40.674100 0.397830 1.152223 0.075118 -0.029932 -218473.000000 0 0 1
34.683253 13.102223 16.227687 40.471399 0.361195 1.158224 0.073165 -0.034604 -387833.000000 0 0 1
33.733023 12.449923 15.256787 39.060043 0.353564 1.169515 0.072085 -0.036905 -592735.000000 0 0 1
33.760143 12.972823 13.953387 38.765170 0.366868 1.202586 0.077863 -0.038316 119055.000000 0 0 1
32.893183 12.269223 13.103287 37.472542 0.357018 1.213570 0.090228 -0.039392 -414732.000000 0 0 1
33.024553 12.647323 11.639587 37.229771 0.365737 1.252823 0.100172 -0.035037 -649754.000000 0 0 1
34.264403 12.287123 11.129987 38.064410 0.344313 1.274062 0.092905 -0.030364 -401805.000000 0 0 1
34.291663 12.380523 9.725287 37.732966 0.346472 1.310114 0.082323 -0.018512 -39636.700000 0 0 1
35.687413 12.342723 9.060687 38.833366 0.332979 1.335304 0.071883 -0.010544 -35017.200000 0 0 1
-36.018508 11.011523 9.164787 38.763125 -0.296695 1.332106 0.088782 -0.016581 135291.000000 0 0 1
-34.664212 10.992023 8.789187 37.412324 -0.307070 1.333652 0.089565 -0.009957 -164795.000000 0 0 1
-34.356866 10.896923 7.236287 36.762767 -0.307133 1.372665 0.105165 -0.018798 -405687.000000 0 0 1
-34.714803 12.124223 6.612487 37.360933 -0.336009 1.392870 0.089613 -0.025751 63474.100000 0 0 1
-34.298499 12.213223 5.260587 36.786188 -0.342087 1.427300 0.091347 -0.033931 -31111.900000 0 0 1
-35.313523 12.982323 4.378487 37.878183 -0.352294 1.454943 0.084920 -0.031347 476445.000000 0 0 1
35.763633 12.258123 4.128387 38.030811 0.330205 1.462028 0.084732 -0.031996 836613.000000 0 0 1
34.589633 13.035623 4.103687 37.191537 0.360405 1.460232 0.080419 -0.031604 253979.000000 0 0 1
34.144663 13.785623 5.419187 37.219202 0.383728 1.424675 0.084405 -0.020319 -1251920.000000 0 0 1
33.483853 14.999623 5.145287 37.049036 0.421161 1.431468 0.076228 -0.008778 229904.000000 0 0 1
32.919343 15.611823 6.313987 36.976730 0.442832 1.399200 0.062467 -0.000593 271939.000000 0 0 1
31.584823 15.059223 6.879087 35.660946 0.444905 1.376677 0.087411 -0.011690 -328220.000000 0 0 1
31.665723 13.944423 7.792387 35.466692 0.414811 1.349279 0.099232 -0.012960 179487.000000 0 0 1
30.423983 13.290523 7.973587 34.144323 0.411859 1.335094 0.104165 -0.019658 79545.600000 0 0 1
30.413493 11.931023 7.270687 33.469281 0.373845 1.351816 0.116706 -0.017664 -110213.000000 0 0 1
30.459033 12.050523 5.866087 33.277301 0.376734 1.393591 0.103919 -0.027252 325058.000000 0 0 1
30.843493 10.865023 5.147987 33.103951 0.338689 1.414653 0.106420 -0.031106 -158801.000000 0 0 1
30.708543 11.035023 3.619187 32.831157 0.344977 1.460335 0.095690 -0.030949 -1208660.000000 0 0 1
29.379013 11.026323 3.264687 31.549396 0.359045 1.467132 0.079259 -0.020337 -870541.000000 0 0 1
29.245443 11.372623 1.884287 31.435378 0.370873 1.510819 0.077488 -0.023907 -728859.000000 0 0 1
27.742223 11.343523 1.651187 30.017209 0.388147 1.515761 0.078523 -0.013131 -798443.000000 0 0 1
27.231433 10.040923 1.648887 29.070430 0.353258 1.514045 0.070266 -0.008866 -696591.000000 0 0 1
25.841133 10.092023 1.759687 27.797654 0.372326 1.507451 0.067308 -0.006376 -267144.000000 0 0 1
25.174733 8.665023 1.654487 26.675590 0.331494 1.508734 0.074894 -0.010460 173089.000000 0 0 1
25.475933 7.763623 2.755987 26.774848 0.295803 1.467682 0.076772 -0.008504 -786363.000000 0 0 1
26.701533 7.158223 2.620287 27.768290 0.261924 1.476293 0.099693 -0.017624 -1048170.000000 0 0 1
27.104933 6.458623 3.903487 28.135892 0.233920 1.431610 0.098177 -0.017476 434999.000000 0 0 1
28.516293 6.223223 3.914387 29.448767 0.214865 1.437480 0.109417 -0.022127 636104.000000 0 0 1
28.846273 5.659323 5.137787 29.841787 0.193729 1.397767 0.095026 -0.011624 452450.000000 0 0 1
30.394813 5.731023 5.319487 31.384490 0.186365 1.400480 0.087424 -0.017540 597727.000000 0 0 1
31.006953 6.990323 5.565887 32.268790 0.221737 1.397444 0.107650 -0.026489 -1167000.000000 0 0 1
32.336473 6.846023 5.883587 33.572788 0.208631 1.394638 0.081893 -0.022330 -1022750.000000 0 0 1
32.881933 8.027723 6.704187 34.505246 0.239454 1.375258 0.078736 -0.024003 -162933.000000 0 0 1
32.445493 7.995823 8.024587 34.366222 0.241624 1.335118 0.093006 -0.028698 143596.000000 0 0 1
32.958103 9.059123 8.840987 35.305344 0.268243 1.317687 0.084847 -0.026044 -32796.400000 0 0 1
32.554373 8.875523 10.302287 35.280295 0.266168 1.274466 0.087378 -0.026991 686316.000000 0 0 1
31.196033 9.279823 10.562887 34.218155 0.289132 1.256978 0.096082 -0.032626 756032.000000 0 0 1
30.788063 8.866023 11.809987 34.146551 0.280383 1.217639 0.106370 -0.041910 -1142680.000000 0 0 1
29.321783 9.135123 12.060087 32.994895 0.302017 1.196612 0.083373 -0.045547 -1176800.000000 0 0 1
28.951163 10.443023 12.441687 33.196719 0.346185 1.186630 0.090329 -0.045801 220566.000000 0 0 1
28.896043 11.477323 11.391587 33.113117 0.378085 1.219601 0.099089 -0.047970 -301896.000000 0 0 1
27.604413 11.388323 10.553587 31.671370 0.391282 1.231078 0.090892 -0.034803 -291656.000000 0 0 1
27.464553 12.549223 9.730687 31.724926 0.428597 1.259051 0.086242 -0.009177 -53345.500000 0 0 1
26.300733 12.599623 8.943787 30.503612 0.446756 1.273220 0.081386 -0.012709 -244824.000000 0 0 1
26.345533 13.716923 7.918287 30.739882 0.480034 1.310269 0.059481 -0.008018 -61240.900000 0 0 1
26.019433 14.946623 8.505387 31.189005 0.521414 1.294593 0.051487 0.000062 161977.000000 0 0 1
26.414433 15.968023 7.662487 31.802731 0.543736 1.327464 0.045805 0.001827 -830438.000000 0 0 1
26.164433 17.414023 8.172387 32.474816 0.587237 1.316408 0.057442 0.002345 770928.000000 0 0 1
24.861933 18.014923 8.260287 31.794426 0.627045 1.307978 0.064471 0.001369 1174770.000000 0 0 1
23.886333 17.259823 9.021187 30.819478 0.625721 1.273736 0.066068 0.001399 472302.000000 0 0 1
22.578633 18.085423 9.292687 30.384720 0.675349 1.259982 0.058558 -0.006776 413623.000000 0 0 1
21.950433 18.377023 8.007387 29.726330 0.697019 1.298057 0.060815 -0.007810 365935.000000 0 0 1
21.060133 19.487723 8.175487 29.835200 0.746638 1.293224 0.090987 -0.019702 742770.000000 0 0 1
20.081933 19.725623 6.967587 28.998819 0.776448 1.328151 0.073001 -0.017728 233487.000000 0 0 1
20.749433 20.397923 5.942787 29.697322 0.776856 1.369324 0.056497 -0.002840 68512.500000 0 0 1
19.928933 20.734723 4.824387 29.161032 0.805212 1.404593 0.055138 -0.005594 143319.000000 0 0 1
17.419377 17.179423 33.565689 41.535801 0.778463 0.629852 0.074617 0.002794 314640.000000 0 0 1
16.796977 17.759423 32.385013 40.574926 0.813242 0.646573 0.055187 -0.001241 431445.000000 0 0 1
16.677677 16.764423 31.425093 39.328454 0.787992 0.645096 0.068596 -0.013697 -164588.000000 0 0 1
16.179077 17.262823 30.086853 38.275140 0.817794 0.666375 0.075533 -0.019682 331043.000000 0 0 1
17.116477 17.993423 29.274203 38.389009 0.810370 0.703524 0.073306 -0.009293 365844.000000 0 0 1
16.578277 18.155923 27.928263 37.208395 0.830788 0.721841 0.081841 -0.023373 610207.000000 0 0 1
17.686777 18.389023 26.813503 37.012730 0.804862 0.760575 0.079732 -0.022789 361355.000000 0 0 1
18.374477 19.597823 26.982203 38.075390 0.817604 0.783210 0.077133 -0.018360 -159724.000000 0 0 1
19.177177 19.917723 25.890653 37.878829 0.804338 0.818232 0.078525 -0.021420 -256436.000000 0 0 1
20.029677 21.191623 26.148443 39.166490 0.813579 0.839785 0.082700 -0.017727 -541788.000000 0 0 1
19.283577 22.342823 26.054853 39.368940 0.858759 0.847563 0.073343 -0.017690 -119023.000000 0 0 1
19.894877 23.477823 26.631483 40.697054 0.867819 0.857429 0.078587 -0.015648 -267342.000000 0 0 1
19.025577 24.745123 26.451313 40.914125 0.915333 0.867798 0.091902 -0.017326 35692.500000 0 0 1
19.012377 25.319623 25.121763 40.418520 0.926723 0.900088 0.092032 -0.016647 168995.000000 0 0 1
18.161377 26.444523 24.960373 40.646877 0.969003 0.909578 0.086950 -0.022792 41921.000000 0 0 1
18.272677 27.008523 23.553563 40.225879 0.975981 0.945259 0.073156 -0.019214 245805.000000 0 0 1
19.473277 27.750523 23.350623 41.164932 0.958913 0.967639 0.077866 -0.017390 -19057.400000 0 0 1
19.313177 29.003223 22.680123 41.576120 0.983326 0.993801 0.063667 -0.010162 -712399.000000 0 0 1
20.527577 29.876523 22.445923 42.635754 0.968794 1.016368 0.063317 -0.009492 -320159.000000 0 0 1
21.353477 29.395223 21.401723 42.167332 0.942554 1.038466 0.067049 -0.010084 -644702.000000 0 0 1
22.558577 30.066923 21.232423 43.170882 0.927117 1.056614 0.065143 -0.022991 -114676.000000 0 0 1
22.874777 30.402323 19.718823 42.853105 0.925760 1.092633 0.060865 -0.025410 -130680.000000 0 0 1
22.171177 31.515923 19.277823 43.086529 0.957731 1.106917 0.050236 -0.017605 -78440.600000 0 0 1
22.057777 31.533023 17.880023 42.433151 0.960397 1.135842 0.056307 -0.016261 17216.000000 0 0 1
21.272477 32.751423 17.286823 42.708409 0.994763 1.154076 0.069506 -0.012222 -345154.000000 0 0 1
21.957677 33.980323 17.329423 44.012621 0.997106 1.166102 0.061551 -0.014454 -23435.100000 0 0 1
22.305577 -33.992082 16.154723 43.749006 -0.990075 1.192585 0.054658 -0.020017 -84616.100000 0 0 1
23.446277 34.029823 15.286223 44.061609 0.967497 1.216502 0.052235 -0.015916 -137116.000000 0 0 1
23.124577 32.849223 14.477323 42.701410 0.957417 1.224904 0.071436 -0.014820 -288909.000000 0 0 1
22.187577 32.935123 13.453423 41.928576 0.977957 1.244153 0.046924 -0.011246 -308187.000000 0 0 1
21.888377 31.596723 12.780523 40.506737 0.964958 1.249796 0.057857 -0.021315 378183.000000 0 0 1
22.923577 31.184223 11.851623 40.477242 0.936898 1.273645 0.083472 -0.030001 348195.000000 0 0 1
22.519077 30.090923 11.085823 39.185047 0.928341 1.283970 0.078925 -0.026590 -681246.000000 0 0 1
23.629877 29.559823 10.140323 39.178826 0.896426 1.308994 0.085852 -0.022805 434175.000000 0 0 1
24.769577 28.975323 10.728423 39.600509 0.863493 1.296452 0.088097 -0.018027 192788.000000 0 0 1
25.641577 29.875523 11.405623 40.989335 0.861515 1.288816 0.095942 -0.020949 -593868.000000 0 0 1
27.000077 29.196423 11.748223 41.466324 0.824462 1.283543 0.093516 -0.023685 339728.000000 0 0 1
26.991877 28.254923 12.807223 41.120883 0.808256 1.254075 0.089408 -0.021419 -246653.000000 0 0 1
28.317577 28.044023 13.222723 41.990389 0.780545 1.250446 0.079292 -0.007135 -10614.900000 0 0 1
28.454677 27.162423 14.470323 41.914867 0.762168 1.218311 0.064830 -0.014123 777435.000000 0 0 1
29.813377 27.223723 14.925323 43.043394 0.740026 1.216692 0.063825 -0.024383 602976.000000 0 0 1
29.998577 26.318323 15.956523 42.978825 0.720142 1.190426 0.065279 -0.028743 1388720.000000 0 0 1
31.245177 26.644023 16.940723 44.420188 0.706083 1.179514 0.063049 -0.031470 438094.000000 0 0 1
32.469877 26.452523 16.340723 44.956069 0.683628 1.198793 0.063529 -0.024018 -1440010.000000 0 0 1
33.462377 26.795623 17.258823 46.212585 0.675209 1.188054 0.041766 -0.018508 239689.000000 0 0 1
34.890177 26.957423 16.652923 47.131167 0.657832 1.209666 0.044867 -0.028397 269371.000000 0 0 1
35.004277 28.010623 15.718723 47.507606 0.674866 1.233574 0.075199 -0.034257 -256253.000000 0 0 1
-35.935679 28.095723 15.382023 48.138855 -0.663565 1.245558 0.081070 -0.030990 208192.000000 0 0 1
-35.553979 29.175723 14.364623 48.183510 -0.687178 1.268070 0.082909 -0.033845 -13513.100000 0 0 1
-35.935379 30.397523 14.869523 49.360547 -0.702106 1.264800 0.087923 -0.032793 -84131.200000 0 0 1
36.123377 31.312923 13.824023 49.764456 0.714185 1.289304 0.086726 -0.011191 288158.000000 0 0 1
35.273177 32.505423 14.388923 50.078345 0.744586 1.279360 0.079027 -0.019229 -222764.000000 0 0 1
35.001977 33.589223 13.495723 50.353836 0.764804 1.299461 0.063060 -0.021551 751081.000000 0 0 1
34.022477 -34.110382 14.023323 50.176695 -0.786688 1.287545 0.067871 -0.017039 1267880.000000 0 0 1
32.524777 34.141123 13.745823 49.116444 0.809639 1.287146 0.093319 -0.009526 459456.000000 0 0 1
32.003777 33.140323 14.590123 48.325919 0.802843 1.264100 0.084952 -0.026591 384566.000000 0 0 1
30.904177 32.448223 13.990823 46.943567 0.809766 1.268163 0.092572 -0.011994 237916.000000 0 0 1
30.327477 31.217023 14.701523 45.939016 0.799851 1.245043 0.090710 -0.026795 78668.500000 0 0 1
29.500277 31.516423 15.824223 45.977791 0.818429 1.219441 0.091220 -0.035057 101607.000000 0 0 1
29.257477 30.424523 16.661323 45.378974 0.804950 1.194843 0.086384 -0.031571 -167659.000000 0 0 1
28.161577 30.806223 17.660223 45.320870 0.830217 1.170522 0.077757 -0.035114 -103897.000000 0 0 1
27.772077 29.836123 18.612723 44.809775 0.821212 1.142445 0.057168 -0.023069 385940.000000 0 0 1
28.656577 29.860823 19.752823 45.858938 0.805975 1.125495 0.053929 -0.026743 437264.000000 0 0 1
28.360877 28.710823 20.710423 45.360471 0.791530 1.096655 0.047308 -0.023873 35252.200000 0 0 1
27.265077 28.886523 21.581223 45.205805 0.814266 1.073104 0.055270 -0.019323 -118739.000000 0 0 1
27.346077 27.985423 22.609823 45.190662 0.796952 1.046827 0.036122 -0.015303 400118.000000 0 0 1
26.059277 27.866523 23.502783 44.810823 0.818899 1.018682 0.059622 -0.015247 832947.000000 0 0 1
24.912777 27.352823 22.803823 43.460761 0.832050 1.018435 0.078078 -0.016516 739681.000000 0 0 1
23.746277 27.228623 23.616553 43.162775 0.853607 0.991840 0.087946 -0.023005 478119.000000 0 0 1
23.700477 26.001523 24.598713 42.928877 0.831662 0.960621 0.082997 -0.022800 -64896.000000 0 0 1
24.553477 26.181023 25.754673 44.177170 0.817467 0.948397 0.067334 -0.020825 338572.000000 0 0 1
24.497477 25.022723 26.566573 43.955043 0.796004 0.921780 0.076101 -0.019132 -250257.000000 0 0 1
25.827377 24.782923 27.314823 45.026062 0.764764 0.918963 0.072453 -0.025207 21998.500000 0 0 1
26.202777 25.841023 28.227373 46.380261 0.778447 0.916492 0.077033 -0.020920 455662.000000 0 0 1
26.960077 26.886523 27.587143 47.018947 0.784032 0.943789 0.052034 -0.009095 -318794.000000 0 0 1
27.197077 28.173023 28.429133 48.390245 0.803022 0.942834 0.025298 -0.009420 3036.120000 0 0 1
28.087977 28.034423 29.524673 49.462811 0.784444 0.931157 0.032797 -0.001862 -87561.100000 0 0 1
28.296177 29.330823 30.045833 50.633219 0.803350 0.935518 0.027013 -0.004027 982152.000000 0 0 1
29.806677 29.643723 30.404293 51.880722 0.782657 0.944631 0.004542 -0.002338 1028420.000000 0 0 1
30.511077 29.665923 29.173233 51.595255 0.771355 0.969848 -0.010697 -0.001444 -474290.000000 0 0 1
31.902977 29.812623 29.353623 52.613949 0.751540 0.978936 0.016881 -0.014306 -247447.000000 0 0 1
32.434877 30.381423 28.037633 52.546750 0.752720 1.007974 0.008829 -0.012983 -935542.000000 0 0 1
31.996477 31.628123 27.649013 52.807013 0.779609 1.019742 -0.005075 -0.012666 142280.000000 0 0 1
32.514277 31.881123 26.323803 52.597783 0.775566 1.046651 0.000740 -0.015018 -37274.900000 0 0 1
32.212877 33.344123 25.906083 53.109558 0.802652 1.061245 0.002026 -0.013667 93536.000000 0 0 1
32.995477 -34.295282 26.584643 54.512486 -0.804712 1.061366 0.014855 -0.018168 194437.000000 0 0 1
32.701577 -32.997082 26.103563 53.287865 -0.789896 1.058868 0.014443 -0.010142 -615759.000000 0 0 1
33.506677 -31.907882 26.802973 53.471579 -0.760962 1.045746 0.019976 -0.014658 -315383.000000 0 0 1
33.470177 -31.732282 28.233153 54.076810 -0.758751 1.021493 0.008198 -0.018662 427005.000000 0 0 1
34.425277 -30.754782 28.660123 54.335614 -0.729144 1.015183 0.016141 -0.025052 196827.000000 0 0 1
34.143077 -30.331782 30.115443 54.705636 -0.726354 0.987833 0.010744 -0.021428 -399916.000000 0 0 1
34.442077 -31.266982 31.158963 55.988944 -0.737115 0.980605 0.018192 -0.018595 -23122.800000 0 0 1
33.489577 -32.278582 31.358393 56.096412 -0.766987 0.977606 0.008666 -0.017047 -537219.000000 0 0 1
33.738877 -33.198582 32.531723 57.434926 -0.777327 0.968653 0.023767 -0.007833 -635057.000000 0 0 1
33.595477 -32.541582 33.760058 57.683205 -0.769465 0.945587 0.011660 -0.009787 171166.000000 0 0 1
33.897177 -33.393282 -33.602413 58.251627 -0.777910 2.185663 0.015520 -0.006798 -258352.000000 0 0 1
33.017577 33.990423 -33.349163 57.945456 0.799916 2.184045 0.027953 -0.000534 -118600.000000 0 0 1
33.002477 33.020223 34.113597 57.820724 0.785667 0.939751 0.031335 -0.003271 162231.000000 0 0 1
32.184877 31.935823 -33.947153 56.640730 0.781514 2.213475 0.038232 0.001895 247141.000000 0 0 1
32.212077 30.813223 33.452397 55.732714 0.763207 0.927009 0.025655 0.004978 143728.000000 0 0 1
33.490277 30.209223 33.451175 56.153156 0.733935 0.932643 0.036761 -0.008527 95959.900000 0 0 1
33.659677 29.352923 32.324473 55.131112 0.717157 0.944288 0.032956 -0.012890 146381.000000 0 0 1
35.134377 28.869823 32.265853 55.758196 0.687832 0.953694 0.043059 -0.019668 258193.000000 0 0 1
35.328477 27.714223 33.082229 55.772873 0.665201 0.935818 0.049979 -0.016035 477854.000000 0 0 1
-35.726479 27.085223 32.805049 55.553235 -0.648682 0.939099 0.033867 -0.014227 574146.000000 0 0 1
-35.533379 25.830623 33.685214 55.358249 -0.628578 0.916634 0.030584 -0.011232 204977.000000 0 0 1
35.910377 24.804823 33.244757 54.863907 0.604486 0.919837 0.029522 -0.011276 103126.000000 0 0 1
36.061977 23.758423 34.099061 55.024311 0.582552 0.902424 0.017968 -0.014468 129821.000000 0 0 1
35.668677 22.410123 33.415795 53.768796 0.560959 0.900176 0.016378 -0.021858 -510234.000000 0 0 1
-35.686179 21.931323 32.526518 53.032638 -0.551057 0.910526 0.022849 -0.013949 -490798.000000 0 0 1
-36.018479 20.697023 31.973133 52.421168 -0.521550 0.914827 0.022679 -0.011946 -245739.000000 0 0 1
-34.882579 19.989823 31.219783 50.902477 -0.520375 0.910532 0.016866 -0.016733 -233942.000000 0 0 1
-34.407879 20.760023 30.156483 50.242354 -0.542880 0.927020 0.016385 -0.018724 -228752.000000 0 0 1
-33.312779 20.175523 29.483703 48.847536 -0.544556 0.922805 0.043799 -0.019845 -53164.600000 0 0 1
-33.653779 19.244123 28.260703 47.974790 -0.519446 0.940884 0.045733 -0.013230 -139702.000000 0 0 1
-34.373579 18.125923 28.750173 48.339058 -0.485265 0.933828 0.042287 -0.012698 7108.450000 0 0 1
-35.043979 17.365923 27.808733 47.989388 -0.460079 0.952710 0.040724 -0.024329 -294955.000000 0 0 1
-35.751379 16.182223 28.451163 48.471581 -0.425041 0.943490 0.041991 -0.018687 -168943.000000 0 0 1
-34.880479 15.109223 28.764033 47.668711 -0.408771 0.923019 0.057408 -0.018720 242195.000000 0 0 1
-35.529879 14.084723 29.534813 48.301728 -0.377416 0.912886 0.060943 -0.025922 -193088.000000 0 0 1
-34.649879 12.885723 29.852023 47.516305 -0.356036 0.891497 0.070449 -0.019820 157758.000000 0 0 1
-33.415079 13.270723 30.454083 47.118264 -0.378045 0.868028 0.072141 -0.016789 640925.000000 0 0 1
-32.705279 12.125923 30.986423 46.656529 -0.355051 0.844455 0.068300 -0.011557 -228987.000000 0 0 1
-31.199779 12.373323 31.074833 45.740251 -0.377558 0.823884 0.070157 -0.011013 -964682.000000 0 0 1
-30.622379 12.477623 29.751203 44.480954 -0.386927 0.838132 0.069837 -0.010588 199123.000000 0 0 1
-29.281879 12.888623 29.649123 43.618982 -0.414638 0.823402 0.060956 -0.010303 638201.000000 0 0 1
-28.163179 11.859823 30.088473 42.885152 -0.398572 0.793148 0.071965 -0.005423 123298.000000 0 0 1
-28.000879 10.735223 29.228443 41.875961 -0.366105 0.798228 0.072700 -0.013969 143450.000000 0 0 1
-26.979779 9.910523 29.799653 41.402250 -0.352031 0.767341 0.051845 -0.010313 238457.000000 0 0 1
-26.561479 8.732023 28.846303 40.172996 -0.317618 0.769797 0.046247 -0.015104 405596.000000 0 0 1
-27.435479 7.594723 28.772133 40.474943 -0.270059 0.780072 0.058951 -0.015146 420660.000000 0 0 1
-28.687779 7.854023 28.130973 40.939297 -0.267228 0.813253 0.069181 -0.020584 458376.000000 0 0 1
-29.502279 6.507323 28.067983 41.237621 -0.217094 0.822160 0.070349 -0.017850 109953.000000 0 0 1
-30.165879 6.235623 29.293403 42.508431 -0.203840 0.810523 0.080533 -0.018432 319126.000000 0 0 1
-30.806579 4.949023 29.273153 42.783825 -0.159287 0.817275 0.078276 -0.011878 9872.530000 0 0 1
-31.409679 4.413523 30.605203 44.076361 -0.139601 0.803255 0.060381 -0.007790 250038.000000 0 0 1
-32.597479 5.120223 30.927363 45.225149 -0.155801 0.817766 0.062298 -0.011428 -112588.000000 0 0 1
-33.150779 4.663023 32.146243 46.412271 -0.139744 0.805676 0.060360 -0.013142 -1123190.000000 0 0 1
-34.541179 5.175023 32.321033 47.587006 -0.148716 0.824126 0.059552 -0.004260 -1183090.000000 0 0 1
-34.595679 6.594323 32.422381 47.870209 -0.188352 0.826713 0.064101 -0.006332 -898070.000000 0 0 1
-35.890879 7.035323 32.214333 48.738222 -0.193566 0.848690 0.058905 -0.000550 -672969.000000 0 0 1
-36.076179 8.500823 32.698784 49.426361 -0.231414 0.847892 0.048660 -0.001863 -35662.400000 0 0 1
36.086677 8.599223 34.081495 50.376018 0.233931 0.827740 0.057277 -0.007014 280543.000000 0 0 1
35.756577 9.922423 -33.973663 50.311003 0.270688 2.312131 0.056698 -0.008065 -125242.000000 0 0 1
35.793677 10.021023 -32.441463 49.336160 0.272977 2.288371 0.054072 -0.015860 746596.000000 0 0 1
34.613377 9.439123 -31.827413 47.960057 0.266228 2.296448 0.060673 -0.011972 832093.000000 0 0 1
34.636077 9.659523 -30.450313 47.118847 0.271976 2.273450 0.047479 -0.005658 1014180.000000 0 0 1
33.376477 8.934023 -29.796543 45.624993 0.261543 2.282434 0.044158 -0.002864 985525.000000 0 0 1
33.350177 7.511523 -29.800613 45.351227 0.221535 2.287771 0.042066 -0.001708 -895436.000000 0 0 1
32.214377 7.023223 -29.214933 44.052288 0.214656 2.295866 0.040255 -0.001542 -927153.000000 0 0 1
34.908863 6.189323 -19.942313 40.677171 0.175476 2.083182 0.031775 -0.014399 -425973.000000 0 0 1
34.362993 7.018323 -18.934013 39.856856 0.201470 2.065818 0.026054 -0.009122 468237.000000 0 0 1
35.025913 8.298123 -18.839813 40.627724 0.232625 2.052984 0.024168 -0.007574 941088.000000 0 0 1
-35.772517 8.281823 -18.308213 41.029894 -0.227505 2.033329 0.030790 -0.011873 1877510.000000 0 0 1
-34.710665 7.761523 -19.132813 40.387325 -0.219987 2.064321 0.033598 -0.017893 630895.000000 0 0 1
-34.392849 8.691823 -20.190113 40.817356 -0.247539 2.088223 0.025866 -0.013011 -578389.000000 0 0 1
-33.313443 8.148323 -21.166413 40.301336 -0.239886 2.123751 0.021992 -0.008495 -77715.200000 0 0 1
-33.558383 6.940923 -21.919013 40.679044 -0.203955 2.139842 0.014075 -0.004534 187538.000000 0 0 1
-34.496729 7.120123 -22.973913 42.053789 -0.203542 2.148735 0.013726 -0.002824 229828.000000 0 0 1
-34.611107 5.894723 -23.961913 42.507056 -0.168694 2.169674 0.033281 -0.007074 -220623.000000 0 0 1
-33.566623 5.883523 -24.889813 42.199962 -0.173516 2.201616 0.034304 -0.012997 -241428.000000 0 0 1
-33.421133 4.621923 -25.589123 42.345455 -0.137422 2.219676 0.043491 -0.002142 -162272.000000 0 0 1
-32.107693 4.419223 -26.364643 41.779515 -0.136778 2.253692 0.044432 0.000821 830309.000000 0 0 1
-30.924393 4.359823 -25.541093 40.344437 -0.140060 2.256317 0.040840 -0.006772 1073250.000000 0 0 1
-29.755913 4.099823 -26.329143 39.943043 -0.136920 2.290507 0.046926 -0.008909 1066780.000000 0 0 1
-28.365763 4.369923 -25.684633 38.515102 -0.152855 2.300799 0.050868 -0.018800 319112.000000 0 0 1
-28.090013 5.746823 -25.618823 38.449953 -0.201801 2.300019 0.033900 -0.015965 934980.000000 0 0 1
-26.707843 6.034523 -25.322523 37.295503 -0.222214 2.317155 0.042019 -0.009341 689093.000000 0 0 1
-26.394393 7.525223 -25.486723 37.454853 -0.277738 2.319194 0.037186 -0.018042 -51185.300000 0 0 1
-26.841123 8.339223 -24.416213 37.230901 -0.301234 2.286045 0.036673 -0.021409 -194422.000000 0 0 1
-26.554283 9.744023 -24.641613 37.513798 -0.351692 2.287454 0.025157 -0.019717 423403.000000 0 0 1
-25.214163 10.264223 -24.023313 36.307408 -0.386596 2.293832 0.043618 -0.012981 381736.000000 0 0 1
-25.212863 10.412823 -22.639413 35.449378 -0.391660 2.263527 0.033320 -0.010848 967107.000000 0 0 1
-23.875423 10.690423 -22.183613 34.299179 -0.420988 2.274136 0.052075 -0.016005 612162.000000 0 0 1
-23.972223 11.145423 -20.724013 33.591259 -0.435201 2.235653 0.065946 -0.021818 -886556.000000 0 0 1
-24.453423 12.472723 -20.420913 34.213337 -0.471664 2.210391 0.045975 -0.024465 1582570.000000 0 0 1
-25.859753 12.795323 -20.606613 35.455319 -0.459476 2.190998 0.047963 -0.015312 1109430.000000 0 0 1
-26.780413 11.923423 -19.700313 35.319412 -0.418879 2.162500 0.043851 -0.011239 -1120790.000000 0 0 1
-26.580713 12.171623 -18.343413 34.513237 -0.429414 2.131154 0.050035 -0.018577 -307721.000000 0 0 1
-27.500383 11.539323 -17.542213 34.599946 -0.397293 2.102498 0.044163 -0.018848 -1118720.000000 0 0 1
-27.066463 11.438623 -16.025813 33.470318 -0.399847 2.070091 0.055975 -0.016356 -8661.850000 0 0 1
-26.198743 10.378223 -15.761913 32.288071 -0.377170 2.080783 0.070408 -0.019256 380786.000000 0 0 1
-24.834223 10.563223 -16.087913 31.418804 -0.402167 2.108363 0.072238 -0.016708 -471957.000000 0 0 1
-24.005823 9.270923 -16.080713 30.344998 -0.368549 2.129314 0.078392 -0.011671 313126.000000 0 0 1
-22.605723 9.491723 -15.922113 29.233973 -0.397527 2.146761 0.078872 -0.011477 594753.000000 0 0 1
-21.921923 8.248523 -15.878713 28.297392 -0.359882 2.166555 0.072006 -0.014225 1167000.000000 0 0 1
-20.358123 8.443623 -15.679513 27.048014 -0.393161 2.189147 0.078013 -0.014106 1380580.000000 0 0 1
-19.661523 8.738223 -16.913213 27.367660 -0.418214 2.236992 0.077690 -0.024241 590118.000000 0 0 1
-18.270623 8.858223 -16.635113 26.249015 -0.451442 2.257178 0.080447 -0.027795 -79070.800000 0 0 1
-17.429923 9.342023 -17.858713 26.645999 -0.492013 2.305303 0.061548 -0.021765 -122054.000000 0 0 1
-17.073223 8.480623 -18.933913 26.868364 -0.461021 2.352785 0.080144 -0.027764 617701.000000 0 0 1
-16.289623 7.338723 -18.534313 25.743532 -0.423282 2.374541 0.078728 -0.027416 -472999.000000 0 0 1
-15.693323 6.530523 -19.750713 26.057989 -0.394337 2.430965 0.071461 -0.027697 235334.000000 0 0 1
-16.603223 5.684323 -20.455213 26.951703 -0.329855 2.432508 0.067462 -0.019708 431662.000000 0 0 1
-17.525223 6.405623 -21.299913 28.316987 -0.350424 2.422184 0.067865 -0.021154 -5870.810000 0 0 1
-18.474723 5.500123 -22.075413 29.306835 -0.289355 2.423788 0.066606 -0.007709 34723.600000 0 0 1
-19.431623 4.918823 -21.183413 29.163672 -0.247927 2.383812 0.074728 -0.012191 487353.000000 0 0 1
-20.254523 3.935223 -21.777613 29.999935 -0.191898 2.383170 0.039374 0.003035 52480.200000 0 0 1
-21.273623 3.283523 -20.803113 29.935231 -0.153139 2.339129 0.056862 -0.010860 5791.110000 0 0 1
-21.728323 2.035123 -21.265413 30.470962 -0.093390 2.343245 0.064242 -0.005199 241440.000000 0 0 1
-22.605923 1.442823 -20.327413 30.435394 -0.063739 2.302163 0.068943 -0.012272 -553327.000000 0 0 1
-23.247423 0.069223 -20.694313 31.123979 -0.002978 2.298155 0.075613 -0.004331 -703280.000000 0 0 1
-22.355223 -0.993677 -20.757113 30.522142 0.044420 2.318651 0.052276 -0.010953 -357630.000000 0 0 1
-22.869723 -2.349077 -20.866413 31.047538 0.102357 2.307810 0.049825 -0.014811 -219806.000000 0 0 1
-23.472623 -2.721877 -22.290013 32.484109 0.115444 2.327024 0.051928 -0.016023 430065.000000 0 0 1
-22.520923 -2.743877 -23.360713 32.564455 0.121239 2.370814 0.029155 -0.013205 63607.200000 0 0 1
-21.808323 -3.967477 -23.379213 32.216943 0.179957 2.382820 0.029220 -0.020134 -243397.000000 0 0 1
-20.818523 -3.861577 -24.553513 32.422179 0.183403 2.429974 0.021889 -0.018862 -90125.500000 0 0 1
-21.472023 -3.841277 -25.813413 33.795495 0.177024 2.439995 0.019462 -0.019347 769551.000000 0 0 1
-20.502723 -3.826477 -26.860613 34.007295 0.184510 2.481358 0.021614 -0.022860 208208.000000 0 0 1
-21.279223 -3.827977 -28.172373 35.512552 0.177989 2.487019 0.013059 -0.022145 10086.800000 0 0 1
-21.667423 -5.163577 -28.529153 36.194645 0.233947 2.478699 0.017555 -0.018808 145764.000000 0 0 1
-22.378723 -5.056477 -29.738133 37.559709 0.222219 2.484475 -0.000903 -0.015778 -924374.000000 0 0 1
-22.015923 -6.245977 -30.670983 38.267771 0.276439 2.500568 0.023384 -0.014457 324411.000000 0 0 1
-20.714023 -6.119677 -31.234963 37.975573 0.287265 2.536591 0.017723 -0.011841 329952.000000 0 0 1
-20.221123 -7.395677 -31.616583 38.251774 0.350628 2.543727 0.015406 -0.010831 -247051.000000 0 0 1
-18.756623 -7.385677 -32.082053 37.889540 0.375119 2.580597 0.031011 -0.012911 -571358.000000 0 0 1
-18.421723 -7.001077 -33.445993 38.820219 0.363186 2.609133 0.033982 -0.019852 383800.000000 0 0 1
-18.739123 -8.024177 34.091680 39.721340 0.404582 0.538905 0.048095 -0.020312 -583098.000000 0 0 1
-18.761723 -7.375677 32.700465 38.415144 0.374564 0.552455 0.052069 -0.022602 450856.000000 0 0 1
-17.461523 -7.070577 32.179583 37.288382 0.384743 0.529634 0.063251 -0.022407 638005.000000 0 0 1
-16.973123 -5.774377 32.448940 37.072416 0.327924 0.504771 0.040279 -0.021108 -124447.000000 0 0 1
-15.684123 -5.542777 31.632893 35.740090 0.339701 0.484127 0.048339 -0.018753 -239648.000000 0 0 1
-15.924823 -5.540177 30.229333 34.613670 0.334799 0.508789 0.054032 -0.024097 358552.000000 0 0 1
-14.823723 -4.999377 29.507713 33.398229 0.325276 0.487490 0.055886 -0.014529 320324.000000 0 0 1
-15.127323 -4.935477 27.988523 32.195532 0.315373 0.516952 0.061432 -0.019848 -7379.220000 0 0 1
-16.127523 -4.051177 27.557453 32.185746 0.246104 0.542926 0.059168 -0.024717 -296677.000000 0 0 1
-16.413323 -4.158577 26.164963 31.165626 0.248144 0.574350 0.060545 -0.018687 109041.000000 0 0 1
-15.305423 -3.720477 25.164073 29.687177 0.238457 0.559273 0.068992 -0.013187 230726.000000 0 0 1
-15.179123 -2.334777 25.102483 29.427736 0.152619 0.549049 0.062071 -0.011301 -530878.000000 0 0 1
-14.234923 -1.921477 24.190923 28.134070 0.134172 0.535831 0.052207 -0.011318 -513516.000000 0 0 1
-14.029023 -0.387277 24.298953 28.060695 0.027598 0.523764 0.047956 -0.004875 -154860.000000 0 0 1
-14.900523 0.391423 23.499473 27.828116 -0.026263 0.565257 0.056188 -0.012374 73569.500000 0 0 1
-15.276423 1.526823 24.222943 28.678411 -0.099616 0.564903 0.029165 -0.012212 -109669.000000 0 0 1
-16.140223 2.506823 23.372123 28.513981 -0.154084 0.609957 0.032340 -0.013081 -190803.000000 0 0 1
-15.308323 3.199923 22.500323 27.401621 -0.206064 0.607406 0.025184 -0.014447 203827.000000 0 0 1
-15.950123 4.304723 21.901823 27.434047 -0.263606 0.646255 0.028403 -0.011275 -153665.000000 0 0 1
-15.074823 4.864723 20.769723 26.120820 -0.312155 0.651557 0.030533 -0.002517 -19105.600000 0 0 1
-13.983423 5.608423 21.239623 26.040586 -0.381434 0.616970 0.013365 -0.006576 -311920.000000 0 0 1
-13.028523 5.876123 20.248123 24.784223 -0.423702 0.614648 0.013024 -0.004362 -373912.000000 0 1 0
-11.941023 6.840423 20.652923 24.817789 -0.520217 0.587765 0.010868 -0.004596 -219996.000000 0 1 0
-12.385023 8.156023 20.360523 25.188498 -0.582355 0.629493 0.019822 -0.004158 955863.000000 0 0 1
-11.252623 8.987923 20.120623 24.743560 -0.673972 0.621225 0.010099 -0.012741 425198.000000 0 1 0
-11.741723 10.437823 20.088923 25.502569 -0.726677 0.663695 0.004799 -0.007963 60525.700000 0 0 1
-12.285323 10.951923 18.890623 25.054529 -0.728079 0.716696 0.013374 -0.001382 654456.000000 0 0 1
-13.033323 12.155823 19.152623 26.162082 -0.750576 0.749432 0.008946 0.003218 -44446.800000 0 0 1
-13.367223 12.914023 17.878123 25.789182 -0.768156 0.804820 0.008737 0.008462 -173413.000000 0 0 1
-12.266523 13.649023 17.357423 25.259524 -0.838694 0.813219 -0.000413 0.010181 385812.000000 0 0 1
-12.100523 14.977123 17.800223 26.221839 -0.891236 0.824626 0.007355 0.004331 -212556.000000 0 0 1
-13.135323 15.956523 17.158723 26.862039 -0.882071 0.877895 0.010227 0.013066 296251.000000 0 0 1
-12.890323 16.197923 15.735323 26.002568 -0.898621 0.920848 -0.000668 0.003505 346281.000000 0 0 1
-13.561723 15.244923 14.901923 25.266486 -0.843763 0.939997 0.024389 -0.004525 -224700.000000 0 0 1
-13.984423 15.908523 13.550023 25.144549 -0.849676 1.001683 0.018065 -0.009217 25192.200000 0 0 1
-15.076223 16.785923 13.812623 26.454646 -0.839006 1.021456 0.019786 -0.005960 160315.000000 0 0 1
-15.530823 17.418923 12.655923 26.548027 -0.842638 1.073879 0.015563 -0.010521 -442566.000000 0 0 1
-16.644923 18.432623 12.904023 27.988013 -0.836318 1.091612 0.028186 -0.015691 34258.900000 0 0 1
-17.883723 17.763923 13.067423 28.392641 -0.782038 1.092531 0.040990 -0.018441 420069.000000 0 0 1
-18.984723 18.597723 13.485423 29.801873 -0.775101 1.101227 0.049550 -0.023639 -59024.800000 0 0 1
-20.255023 17.810823 13.577423 30.196652 -0.721276 1.104441 0.059891 -0.016692 -622747.000000 0 0 1
-20.854223 17.538923 12.321423 29.905349 -0.699260 1.146133 0.067701 -0.017278 802654.000000 0 0 1
-22.260823 17.236123 12.383723 30.756866 -0.658860 1.156405 0.078643 -0.021120 1087680.000000 0 0 1
-22.863423 16.588923 11.105723 30.352357 -0.627679 1.196204 0.084535 -0.016036 -180270.000000 0 0 1
-22.394723 15.314523 10.834323 29.213709 -0.599801 1.190857 0.080220 -0.007552 -138065.000000 0 0 1
-22.878523 14.792823 9.643723 28.900793 -0.573968 1.230588 0.075250 -0.018099 -255994.000000 0 0 1
-22.209423 13.453123 9.284723 27.576277 -0.544629 1.227394 0.073710 -0.007033 -347299.000000 0 0 1
-22.445523 12.233123 10.063023 27.472081 -0.499007 1.195767 0.067457 -0.004459 509144.000000 0 0 1
-23.757223 11.662323 10.103023 28.328193 -0.456338 1.206125 0.085550 -0.003448 707009.000000 0 0 1
-24.347423 11.101023 8.735723 28.148581 -0.427785 1.255242 0.086699 -0.009224 -114527.000000 0 0 1
-24.723923 12.130923 7.839623 28.633745 -0.456144 1.293465 0.088399 -0.011519 131443.000000 0 0 1
-26.049083 11.935723 7.382823 29.589226 -0.429653 1.318622 0.108819 -0.013707 -180710.000000 0 0 1
-26.514113 13.101923 6.446923 30.269149 -0.458956 1.356166 0.089346 -0.016380 -542733.000000 0 0 1
-25.887513 13.184123 5.164323 29.506858 -0.471048 1.394869 0.085709 -0.019423 516925.000000 0 0 1
-24.537723 13.615123 5.140523 28.528870 -0.506571 1.389620 0.078728 -0.021857 -285577.000000 0 0 1
-24.313523 15.117423 5.565123 29.165982 -0.556273 1.378810 0.080902 -0.027478 -538209.000000 0 0 1
-22.954423 15.454923 5.792423 28.272113 -0.592572 1.364454 0.081215 -0.034969 382311.000000 0 0 1
-22.841223 16.807923 6.322823 29.055221 -0.634389 1.351427 0.078804 -0.043116 -329956.000000 0 0 1
-21.403423 17.309923 6.495623 28.283088 -0.680051 1.339063 0.072937 -0.041753 -359643.000000 0 0 1
-20.824323 17.606323 5.231823 27.767013 -0.701858 1.381245 0.071559 -0.050649 758492.000000 0 0 1
-19.493323 18.091023 5.469823 27.151312 -0.748105 1.367951 0.067269 -0.041185 109506.000000 0 0 1
-18.961723 18.701523 4.203823 26.962308 -0.778490 1.414243 0.067236 -0.031339 -1250390.000000 0 0 1
-17.643823 19.090223 4.387123 26.362624 -0.824753 1.403604 0.051642 -0.031682 -508245.000000 0 0 1
-17.243323 20.212523 3.591223 26.809982 -0.864505 1.436442 0.057340 -0.030506 17473.800000 0 0 1
-17.569523 21.622623 4.115023 28.163085 -0.888448 1.424157 0.058539 -0.024708 -201893.000000 0 0 1
-16.889723 21.868423 5.331223 28.140942 -0.913154 1.380197 0.075188 -0.026508 154453.000000 0 0 1
-17.022623 23.237723 5.688623 29.361912 -0.938562 1.375822 0.052663 -0.012576 -82969.600000 0 0 1
-16.104523 23.404623 6.931323 29.243380 -0.968107 1.331497 0.032309 0.002704 62023.000000 0 0 1
-16.735023 22.921723 8.070923 29.506036 -0.940157 1.293730 0.035033 -0.009581 156479.000000 0 0 1
-15.887423 22.884423 9.232123 29.348580 -0.963942 1.250795 0.026760 -0.002747 68322.900000 0 0 1
-16.478023 22.288423 10.513423 29.645086 -0.934173 1.208264 0.015119 -0.011458 -121153.000000 0 0 1
-17.577723 22.957123 11.093823 30.968997 -0.917338 1.204432 0.024066 -0.002953 -615904.000000 0 0 1
-18.395423 22.075723 11.818223 31.070879 -0.876085 1.180607 0.014044 -0.009134 -403887.000000 0 0 1
-19.755723 22.660023 12.207323 32.446633 -0.853764 1.185075 0.024794 -0.022121 -326414.000000 0 0 1
-20.519523 23.223223 11.127423 32.927017 -0.847129 1.226067 0.045428 -0.025714 140142.000000 0 0 1
-20.027023 24.394123 10.487223 33.258634 -0.883395 1.249999 0.026147 -0.011635 -1287060.000000 0 0 1
-21.124923 25.144923 9.735423 34.253584 -0.872062 1.282608 0.031450 0.004212 -195652.000000 0 0 1
-21.938523 25.795523 10.679723 35.507243 -0.866025 1.265290 0.032837 -0.014425 -98354.100000 0 0 1
-22.844223 26.724423 10.117323 36.584335 -0.863518 1.290596 0.028953 -0.004408 104233.000000 0 0 1
-23.923523 27.275123 11.083823 37.935714 -0.850768 1.274297 0.016874 -0.007501 -279488.000000 0 0 1
-23.463023 28.268923 12.003423 38.648773 -0.878032 1.254996 0.013725 -0.005963 751442.000000 0 0 1
-24.433923 28.489523 13.037223 39.732087 -0.861880 1.236475 0.005951 -0.009177 253176.000000 0 0 1
8.731577 -32.509882 28.163623 43.889891 -1.308406 0.874099 0.067177 -0.021116 453901.000000 0 0 1
10.080277 -32.707682 27.745143 44.059022 -1.271840 0.889595 0.046674 -0.022562 577031.000000 0 0 1
10.420077 -32.469682 26.401873 43.126757 -1.260262 0.911966 0.055055 -0.019418 2740.430000 0 0 1
11.903177 -32.729582 26.060693 43.497941 -1.221985 0.928389 0.025315 -0.010438 88101.900000 0 0 1
12.357777 -34.073982 26.086933 44.657351 -1.222875 0.946954 0.038990 -0.022818 434776.000000 0 0 1
13.762777 -34.008682 25.823103 44.864654 -1.186258 0.957486 0.043630 -0.014712 568696.000000 0 0 1
14.457477 33.240323 25.757383 44.467747 1.160538 0.953003 0.063994 -0.016576 -103532.000000 0 0 1
14.549077 32.754523 24.418103 43.367939 1.152788 0.972731 0.053260 -0.016988 281000.000000 0 0 1
15.226177 31.511923 24.527413 42.736773 1.120689 0.959514 0.057228 -0.020655 -122758.000000 0 0 1
15.740077 30.884923 23.207223 41.715749 1.099469 0.980848 0.062485 -0.019660 -457081.000000 0 0 1
14.772477 30.199423 22.468823 40.436113 1.115855 0.981637 0.059553 -0.017904 -238906.000000 0 0 1
14.718177 28.787323 22.624123 39.461192 1.098171 0.960237 0.071693 -0.013305 351195.000000 0 0 1
14.186077 28.165123 23.985453 39.620965 1.104213 0.920562 0.077481 -0.022832 50866.500000 0 0 1
15.229677 28.261923 24.921363 40.641773 1.076534 0.910696 0.075552 -0.015616 225858.000000 0 0 1
14.718377 28.095023 26.229773 41.157769 1.088229 0.879809 0.067262 -0.022874 -351827.000000 0 0 1
15.665177 28.443023 27.385223 42.477686 1.067373 0.870170 0.066277 -0.026581 -183422.000000 0 0 1
15.749477 29.855623 27.603973 43.604857 1.085375 0.885312 0.070718 -0.033251 263321.000000 0 0 1
16.358577 30.101923 28.872503 44.803462 1.073004 0.870524 0.076017 -0.035466 6850.000000 0 0 1
16.156477 31.521123 29.323033 45.983184 1.097151 0.879300 0.079926 -0.042197 -6866.880000 0 0 1
16.770777 32.541623 28.558453 46.430609 1.094933 0.908311 0.069029 -0.030250 4993.820000 0 0 1
16.370977 33.766923 29.070943 47.469292 1.119364 0.911683 0.053582 -0.015452 -63677.300000 0 0 1
17.058677 -33.609082 28.418003 47.203303 -1.101118 0.924750 0.038386 -0.011552 -326275.000000 0 0 1
16.882477 -33.523882 27.054463 46.268917 -1.104276 0.946259 0.053319 -0.011206 -53914.200000 0 0 1
17.215677 -32.270682 26.418953 45.119148 -1.080727 0.945253 0.048219 -0.010158 1007060.000000 0 0 1
18.752877 -31.898082 26.247743 45.366310 -1.039322 0.953818 0.059731 -0.005290 1266650.000000 0 0 1
19.284877 -31.470782 27.531323 46.046611 -1.021028 0.929916 0.052729 -0.008422 120421.000000 0 0 1
20.382277 -30.602782 27.293133 45.791731 -0.983237 0.932252 0.058717 -0.005050 28470.700000 0 0 1
20.619477 -29.615582 28.457713 45.957447 -0.962600 0.903049 0.056684 -0.007560 657994.000000 0 0 1
19.405777 -28.912582 28.746613 45.154062 -0.979670 0.880671 0.062660 -0.005892 742653.000000 0 0 1
19.747377 -27.859082 29.608903 45.197063 -0.954168 0.856472 0.067706 -0.007089 36968.000000 0 0 1
18.530377 -27.072782 30.085943 44.513755 -0.970573 0.828639 0.067858 -0.005969 4756.020000 0 0 1
17.795077 -26.341782 29.126313 43.114921 -0.976672 0.829085 0.069393 -0.005582 48852.300000 0 0 1
16.546477 -25.861482 29.527383 42.596579 -1.001617 0.804895 0.062727 -0.004478 -170623.000000 0 0 1
15.681077 -25.156482 28.428323 41.072063 -1.013391 0.806323 0.055382 -0.006327 -209824.000000 0 0 1
15.087577 -26.107482 27.516323 40.821363 -1.046784 0.831096 0.047442 -0.004260 400996.000000 0 0 1
14.520777 -25.531682 26.351063 39.460085 -1.053683 0.839560 0.051389 -0.013690 -508611.000000 0 0 1
13.121677 -24.865082 26.527563 38.654396 -1.085223 0.814440 0.039168 -0.009627 912390.000000 0 0 1
12.049577 -25.813182 26.815703 39.122815 -1.134060 0.815611 0.035167 -0.009587 826295.000000 0 0 1
11.626277 -26.547582 25.664363 38.711807 -1.158016 0.846031 0.033271 -0.020400 -1037210.000000 0 0 1
10.673177 -27.686282 25.966423 39.429710 -1.202848 0.851906 0.053291 -0.024972 -377780.000000 0 0 1
9.351777 -27.310782 26.245243 39.014707 -1.240890 0.832943 0.041511 -0.031828 292764.000000 0 0 1
8.539477 -28.457782 26.633833 39.901493 -1.279270 0.839964 0.044469 -0.026354 1141330.000000 0 0 1
7.055577 -28.165182 27.075413 39.700588 -1.325340 0.820316 0.058807 -0.039576 999341.000000 0 0 1
6.035277 -27.951782 26.097303 38.714286 -1.358143 0.831051 0.066970 -0.038288 408227.000000 0 0 1
6.200877 -26.867282 25.196383 37.351833 -1.343972 0.830416 0.058769 -0.041813 -871175.000000 0 0 1
5.082977 -26.751282 24.157833 36.401493 -1.383026 0.845109 0.068119 -0.035688 -770696.000000 0 0 1
5.031177 -27.782482 23.151623 36.512693 -1.391646 0.883990 0.047574 -0.028042 -33395.100000 0 0 1
4.317377 -28.966582 23.479583 37.536562 -1.422839 0.895008 0.040983 -0.022514 -203807.000000 0 0 1
2.827377 -28.922482 23.838033 37.586645 -1.473349 0.883803 0.030422 -0.028693 -701372.000000 0 0 1
1.921177 -28.551682 22.812323 36.596333 -1.503610 0.897777 0.025563 -0.021439 513363.000000 0 0 1
0.633977 -28.166782 23.276423 36.545334 -1.548292 0.880301 0.023534 -0.025730 489018.000000 0 0 1
0.503677 -26.658682 23.695673 35.671052 -1.551905 0.844262 0.030756 -0.030043 -669415.000000 0 0 1
1.225977 -26.499082 24.862583 36.357288 -1.524564 0.817783 0.034377 -0.031819 -218959.000000 0 0 1
1.138377 -25.194882 25.403873 35.797133 -1.525644 0.781778 0.030156 -0.026390 -807607.000000 0 0 1
2.374777 -24.765382 26.179613 36.115590 -1.475198 0.759930 0.043655 -0.026054 -571874.000000 0 0 1
3.393177 -24.293882 25.293543 35.234496 -1.432022 0.770068 0.048005 -0.027150 513192.000000 0 0 1
4.483377 -23.635482 25.954443 35.388837 -1.383335 0.747475 0.060713 -0.029793 452708.000000 0 0 1
4.181377 -22.191182 26.526473 34.836565 -1.384555 0.705242 0.050770 -0.013934 -413892.000000 0 0 1
4.161077 -21.281582 25.447793 33.433673 -1.377708 0.705723 0.052182 -0.006931 270843.000000 0 0 1
3.450077 -20.067982 25.701173 32.789895 -1.400541 0.670013 0.052753 -0.019474 -59045.800000 0 0 1
3.269877 -19.076282 24.531543 31.247292 -1.401036 0.667975 0.053929 -0.019823 -155628.000000 0 0 1
4.381077 -18.314482 24.144763 30.619988 -1.335995 0.662382 0.076254 -0.018345 -488694.000000 0 0 1
4.309477 -18.057882 22.792123 29.396251 -1.336530 0.683541 0.083704 -0.018216 131497.000000 0 0 1
5.468277 -17.226782 22.167223 28.601571 -1.263427 0.684026 0.074204 -0.013928 348111.000000 0 0 1
6.699977 -17.892882 22.364023 29.414188 -1.212509 0.707000 0.066141 -0.020331 -178974.000000 0 0 1
7.745777 -17.176082 21.687723 28.729292 -1.147142 0.715296 0.047186 -0.018642 841125.000000 0 0 1
9.112877 -17.442482 22.408623 29.823332 -1.089348 0.720647 0.068747 -0.007372 366400.000000 0 0 1
9.256777 -16.811282 23.662053 30.466373 -1.067470 0.681448 0.071284 -0.004763 -267055.000000 0 0 1
10.508677 -17.058682 24.239083 31.447799 -1.018673 0.690744 0.079951 -0.005208 -239338.000000 0 0 1
10.723077 -16.293782 25.561583 32.153791 -0.988742 0.651824 0.092723 -0.027318 33041.400000 0 0 1
10.872277 -14.904582 25.460773 31.442073 -0.940572 0.627040 0.100977 -0.019392 172716.000000 0 0 1
10.776977 -14.286082 26.726643 32.164403 -0.924505 0.590004 0.089910 -0.015469 -142686.000000 0 0 1
10.983377 -12.823682 26.683113 31.576414 -0.862546 0.564169 0.079700 -0.011274 -368021.000000 0 0 1
10.001277 -12.053282 26.034383 30.382499 -0.878173 0.541595 0.075174 -0.009507 -207958.000000 0 0 1
10.250877 -10.670782 25.923113 29.848850 -0.805466 0.518670 0.069305 -0.008138 380365.000000 0 0 1
9.080277 -9.914482 25.189043 28.552343 -0.829288 0.490270 0.060220 -0.004805 188923.000000 0 0 1
7.942877 -9.719982 25.970743 28.845222 -0.885673 0.450227 0.033998 -0.005696 -470034.000000 0 0 1
6.873377 -9.405682 25.104483 27.675716 -0.939717 0.434468 0.029461 0.004218 -37126.100000 0 0 1
5.442777 -9.632282 25.613773 27.901076 -1.056467 0.407736 0.017686 0.000883 -804641.000000 0 0 1
4.948577 -8.575282 26.430373 28.223900 -1.047404 0.358416 0.014277 0.001788 864727.000000 0 0 1
3.530377 -8.590682 26.661423 28.232869 -1.180882 0.335214 0.004904 0.000011 1065570.000000 0 0 1
2.580177 -8.426982 25.475333 26.956705 -1.273679 0.333060 0.009313 0.000213 -778753.000000 0 0 1
2.685477 -7.114082 24.971083 26.103198 -1.209847 0.295594 0.007745 0.001985 -495240.000000 0 0 1
1.734477 -6.894382 23.991913 25.023046 -1.324333 0.288075 0.008259 -0.006811 -457126.000000 0 0 1
1.921177 -5.636182 23.152423 23.905902 -1.242283 0.251736 0.008362 -0.015066 -235733.000000 0 1 0
1.691477 -4.365782 23.856953 24.312042 -1.201165 0.193790 0.015574 -0.005989 -157722.000000 0 1 0
2.218377 -3.279682 23.140223 23.476530 -0.976086 0.169467 0.013054 -0.010655 -781255.000000 0 1 0
1.269677 -2.558682 22.109423 22.293172 -1.110175 0.128481 0.019978 -0.016166 14640.900000 0 1 0
0.246677 -1.829682 22.700523 22.775477 -1.436785 0.081151 0.027289 -0.015109 -301851.000000 0 1 0
-0.835323 -2.582682 23.253123 23.411018 1.257983 0.116207 0.025171 -0.017062 -6881.320000 0 1 0
-1.863023 -1.512682 23.817893 23.938486 0.681985 0.100417 0.029249 -0.024633 283270.000000 0 1 0
-1.321623 -0.762682 24.872173 24.918936 0.523396 0.061273 0.034585 -0.020332 223649.000000 0 1 0
-2.262623 0.180318 25.371303 25.472632 -0.079526 0.089226 0.040424 -0.019210 40785.000000 0 0 1
-1.724123 1.068318 26.583543 26.660808 -0.554728 0.076151 0.060615 -0.018451 -214117.000000 0 0 1
-1.853123 0.570318 27.881763 27.949097 -0.298561 0.069428 0.067816 -0.018605 -121511.000000 0 0 1
-1.174423 -0.607682 28.266173 28.297086 0.477494 0.046747 0.056431 -0.022190 -100394.000000 0 0 1
0.243377 -0.334682 28.874193 28.877158 -0.942056 0.014331 0.066334 -0.023083 739560.000000 0 0 1
1.304677 -0.040682 27.971753 28.002193 -0.031172 0.046631 0.055226 -0.020701 521686.000000 0 0 1
1.846377 -1.148682 27.174413 27.261279 -0.556531 0.079851 0.049994 -0.017272 148342.000000 0 0 1
3.046077 -1.877682 27.820373 28.049553 -0.552410 0.127919 0.033856 -0.017548 -265087.000000 0 0 1
2.604177 -2.804682 28.773833 29.027254 -0.822451 0.132236 0.030447 -0.012415 204430.000000 0 0 1
3.642577 -3.582682 29.379463 29.820410 -0.777109 0.172182 0.021725 -0.003348 180205.000000 0 0 1
4.149777 -4.780582 28.533073 29.226886 -0.855917 0.218327 0.027550 -0.002334 -890585.000000 0 0 1
4.883677 -4.367882 27.516223 28.285530 -0.729704 0.233761 0.023418 -0.006741 -1159840.000000 0 0 1
5.132077 -5.347982 26.529703 27.545676 -0.805997 0.272442 0.024145 -0.004517 -264551.000000 0 0 1
6.265677 -4.882282 25.573443 26.778655 -0.661935 0.301158 0.011875 0.003167 523963.000000 0 0 1
7.500077 -4.746182 26.338573 27.793845 -0.564201 0.325032 0.010222 -0.004516 924178.000000 0 0 1
8.447277 -5.776082 26.030543 27.969784 -0.599757 0.374566 0.033560 0.005339 342910.000000 0 0 1
9.249677 -5.577782 24.728833 26.984873 -0.542640 0.411814 0.031504 0.011985 -247379.000000 0 0 1
8.406377 -5.811282 23.546453 25.668534 -0.604859 0.409481 0.029452 0.010003 390683.000000 0 0 1
9.132077 -5.963482 22.346123 24.865783 -0.578499 0.454069 0.030254 0.009213 -30348.300000 0 1 0
9.326277 -4.627082 21.616923 23.993347 -0.460550 0.448831 0.026525 0.009263 276543.000000 0 1 0
8.103077 -4.090282 21.158123 23.022955 -0.467465 0.405257 0.022404 0.001733 -363551.000000 0 1 0
8.329277 -2.913682 20.446023 22.268953 -0.336507 0.407435 0.019127 0.005325 1019550.000000 0 1 0
6.986977 -2.095682 20.267223 21.539964 -0.291403 0.345481 0.014103 0.009469 914722.000000 0 1 0
6.656977 -1.380682 21.451923 22.503480 -0.204504 0.306911 0.014950 0.013458 61346.900000 0 1 0
5.390877 -0.762682 21.285023 21.970331 -0.140544 0.250423 0.009625 0.014970 -130965.000000 0 1 0
4.771277 -0.407682 22.605723 23.107358 -0.085238 0.208748 0.012957 0.005571 -173763.000000 0 1 0
3.453977 0.105318 22.495623 22.759484 0.030482 0.152420 0.011409 0.004471 -71.209500 0 1 0
3.066377 0.679318 23.733793 23.940699 0.218016 0.131567 0.024564 -0.001933 -973110.000000 0 1 0
1.645977 1.165318 23.717253 23.802842 0.616061 0.084828 0.023056 -0.005025 -1103690.000000 0 1 0
1.399077 2.305318 22.928323 23.086358 1.025325 0.117074 0.029436 -0.019362 68237.300000 0 1 0
0.015177 2.335318 22.669923 22.789896 1.564298 0.102654 0.021648 -0.020597 -119266.000000 0 1 0
-0.541923 3.750318 22.401823 22.720041 -1.427289 0.167564 0.030084 -0.014004 -336892.000000 0 1 0
-0.489223 4.720318 23.432983 23.908690 -1.467523 0.199816 0.038678 -0.009315 82642.900000 0 1 0
-1.345623 5.827318 23.201323 23.959752 -1.343858 0.252280 0.030322 -0.010094 -87391.500000 0 1 0
-1.082823 7.152318 23.919233 24.989155 -1.420543 0.293682 0.038792 -0.009286 -431734.000000 0 1 0
-0.082623 7.975318 23.416153 24.737194 -1.560437 0.328284 0.035042 -0.009679 -314930.000000 0 1 0
-0.185623 9.164318 24.059613 25.746537 -1.550544 0.364002 0.044313 0.000612 -871177.000000 0 0 1
0.544477 10.325318 23.403923 25.586173 1.518113 0.416007 0.033889 -0.000851 721697.000000 0 0 1
1.957577 10.539318 23.504563 25.833579 1.387149 0.427885 0.026089 -0.004678 541052.000000 0 0 1
2.422477 10.617318 24.889163 27.167375 1.346474 0.412450 0.033158 0.000685 -205375.000000 0 0 1
3.766277 11.424318 24.917453 27.669105 1.252345 0.449760 0.028083 -0.001057 775969.000000 0 0 1
4.950677 10.886318 24.336363 27.116041 1.143990 0.456752 0.034930 -0.004712 250640.000000 0 0 1
4.954077 10.639318 22.923423 25.753083 1.135014 0.473180 0.032703 -0.009904 -793218.000000 0 0 1
6.361177 10.144318 22.530023 25.514186 1.010711 0.488497 0.045961 -0.004788 476959.000000 0 0 1
7.287977 11.227318 22.308423 26.016015 0.995034 0.540429 0.050946 -0.006382 933611.000000 0 0 1
8.460677 10.673318 21.664523 25.590122 0.900526 0.561238 0.065720 -0.012843 1060050.000000 0 0 1
9.489377 11.723318 21.149123 25.976333 0.890323 0.619500 0.067490 -0.015327 -285494.000000 0 0 1
9.044677 12.332318 19.977523 25.159366 0.937996 0.653371 0.057885 -0.017164 52615.700000 0 0 1
9.839577 13.382318 19.409023 25.546309 0.936791 0.707855 0.071498 -0.016950 -384233.000000 0 0 1
11.184077 12.957318 18.854723 25.465197 0.858719 0.737114 0.080912 -0.016796 -887998.000000 0 0 1
12.219977 12.853318 19.781323 26.567581 0.810652 0.730912 0.089838 -0.016118 -190241.000000 0 0 1
13.466877 12.507318 19.207923 26.584471 0.748472 0.763350 0.082536 -0.018290 678766.000000 0 0 1
14.653477 12.339318 20.202823 27.841286 0.699875 0.758828 0.077440 -0.013839 373805.000000 0 0 1
15.084377 13.525318 20.795023 29.032837 0.730958 0.772370 0.072296 -0.014736 -739725.000000 0 0 1
16.224577 13.348318 21.548023 30.095378 0.688443 0.772754 0.073168 -0.017515 -801512.000000 0 0 1
16.875677 14.598318 22.091023 31.399246 0.713167 0.790412 0.080950 -0.017372 -283330.000000 0 0 1
16.153177 15.424318 23.022223 32.075808 0.762321 0.770239 0.084290 -0.013325 575049.000000 0 0 1
16.989777 16.496318 23.485173 33.351677 0.770663 0.789546 0.087608 -0.013562 77630.600000 0 0 1
-20.553523 12.474023 -25.056413 34.725673 -0.545481 2.376839 0.011874 -0.005962 -181648.000000 0 0 1
-20.651623 12.537023 -26.446123 35.819881 -0.545603 2.401355 0.020098 -0.020395 -69257.100000 0 0 1
-21.244323 13.715523 -26.955373 36.959829 -0.573282 2.388117 0.037943 -0.020734 -129999.000000 0 0 1
-21.056023 13.797123 -28.506593 38.030811 -0.580062 2.418202 0.038765 -0.013822 129667.000000 0 0 1
-19.721623 13.958323 -28.961483 37.716637 -0.615920 2.446306 0.034046 -0.012177 -73636.900000 0 0 1
-19.675023 14.438023 -30.294383 38.901320 -0.633068 2.463466 0.051968 -0.025618 643658.000000 0 0 1
-18.217523 14.792223 -30.734693 38.669230 -0.682002 2.489491 0.023352 -0.025451 662503.000000 0 0 1
-17.279523 13.784123 -31.076403 38.135637 -0.673346 2.523338 0.023892 -0.021776 -381375.000000 0 0 1
-15.946223 14.184623 -30.991353 37.629105 -0.727000 2.538527 0.016485 -0.015295 103707.000000 0 0 1
-15.224623 13.887123 -29.610303 36.075080 -0.739487 2.533601 0.027665 -0.008700 -207153.000000 0 0 1
-15.886323 14.440923 -28.490873 35.674155 -0.737774 2.495831 0.018222 -0.004933 -196983.000000 0 0 1
-16.639623 13.457723 -27.833623 35.109798 -0.680069 2.486119 0.034334 -0.001834 -260897.000000 0 0 1
-17.391723 13.913323 -26.571863 34.671552 -0.674739 2.443996 0.032341 -0.008309 -381507.000000 0 0 1
-16.523623 14.205123 -25.487423 33.532438 -0.710090 2.434237 0.058651 -0.005137 329101.000000 0 0 1
-17.211523 14.607923 -24.311213 33.176242 -0.703756 2.393209 0.047652 -0.004094 -91191.500000 0 0 1
-16.313523 15.262723 -23.226113 32.226295 -0.752132 2.375636 0.046783 -0.003041 59420.000000 0 0 1
-15.942223 16.593023 -23.517213 32.902009 -0.805398 2.367085 0.023354 -0.002634 -31309.500000 0 0 1
-15.094623 17.189023 -22.551913 32.123184 -0.850182 2.349061 0.031284 -0.002841 -466996.000000 0 0 1
-14.798523 18.660723 -22.876013 33.023186 -0.900320 2.336058 0.033214 -0.006864 32397.800000 0 0 1
-15.863223 19.602723 -22.844313 34.026038 -0.890449 2.306862 0.005465 -0.003371 -248821.000000 0 0 1
-16.833923 19.369623 -23.821113 35.014407 -0.855324 2.319000 -0.013479 0.003848 -871131.000000 0 0 1
-18.070223 20.248923 -23.596613 35.963203 -0.842194 2.286478 -0.012408 0.003919 -397231.000000 0 0 1
-17.909523 21.628923 -23.896913 36.873077 -0.879193 2.275864 -0.006926 -0.003193 -642075.000000 0 0 1
-19.131223 22.254823 -24.058513 37.948556 -0.860730 2.257481 0.007352 -0.010545 -663802.000000 0 0 1
-18.894323 23.794323 -24.174413 38.827406 -0.899683 2.242873 0.018458 -0.022343 136880.000000 0 0 1
-18.326923 24.408923 -23.014113 38.227229 -0.926765 2.216843 0.025737 -0.018097 -167573.000000 0 0 1
-17.579323 25.591823 -23.226813 38.774461 -0.968909 2.213077 0.023927 -0.009470 -413758.000000 0 0 1
-16.496523 25.740823 -22.127313 37.740472 -1.000866 2.197283 0.027018 -0.019611 330821.000000 0 0 1
-15.416723 24.796023 -22.156913 36.653061 -1.014543 2.219939 0.039494 -0.030876 481004.000000 0 0 1
-15.777023 23.457623 -21.876613 35.745779 -0.978714 2.229390 0.030785 -0.013291 -1546590.000000 0 0 1
-14.591823 22.503123 -21.953213 34.659132 -0.995522 2.256740 0.057407 -0.013405 31247.000000 0 0 1
-13.724823 22.778823 -20.851413 33.793889 -1.028522 2.235743 0.071238 -0.026436 263534.000000 0 0 1
-12.655423 21.844923 -20.696913 32.645407 -1.045714 2.257500 0.064245 -0.023284 365882.000000 0 0 1
-11.810923 22.101723 -19.402713 31.693049 -1.080017 2.229645 0.066394 -0.026424 414818.000000 0 0 1
-12.481923 21.904123 -18.128213 31.051910 -1.052846 2.194202 0.074286 -0.023494 334877.000000 0 0 1
-13.530623 22.799823 -17.817713 31.943397 -1.035205 2.162517 0.077831 -0.030032 86023.100000 0 0 1
-14.201223 22.715323 -16.417913 31.419874 -1.012066 2.120615 0.089053 -0.025351 136567.000000 0 0 1
-13.428323 23.298223 -15.391413 30.984232 -1.047935 2.090646 0.098632 -0.039375 110225.000000 0 0 1
-14.163623 23.412223 -14.175713 30.817061 -1.026733 2.048787 0.090194 -0.027729 185854.000000 0 0 1
-13.312223 23.769323 -12.922713 30.152819 -1.060263 2.013710 0.096714 -0.027566 -38112.100000 0 0 1
-12.811823 25.061423 -12.866913 30.947943 -1.098216 1.999574 0.095826 -0.038163 200443.000000 0 0 1
-11.861523 25.311023 -11.852913 30.361738 -1.132558 1.971851 0.076967 -0.032320 114224.000000 0 0 1
-11.397923 26.788623 -11.772613 31.402825 -1.168522 1.955075 0.082813 -0.037276 -376269.000000 0 0 1
-10.701423 27.170923 -12.897613 31.923783 -1.195598 1.986696 0.086348 -0.038761 -171200.000000 0 0 1
-10.672723 28.608623 -13.055313 33.208456 -1.213728 1.974832 0.061620 -0.022921 -683052.000000 0 0 1
-9.917823 28.990823 -14.382613 33.848051 -1.241175 2.009667 0.081172 -0.033149 359548.000000 0 0 1
-8.500423 28.984323 -14.327213 33.430782 -1.285519 2.013699 0.069152 -0.034566 133497.000000 0 0 1
-7.868923 27.704923 -14.332013 32.169695 -1.294058 2.032543 0.071378 -0.036909 -36304.700000 0 0 1
-6.438623 27.858223 -14.901113 32.242513 -1.343663 2.051223 0.063106 -0.037240 642580.000000 0 0 1
-5.423923 28.516923 -14.183513 32.307985 -1.382841 2.025292 0.045810 -0.029197 420642.000000 0 0 1
-4.186623 28.650123 -14.889513 32.558485 -1.425694 2.045771 0.051916 -0.026107 1151220.000000 0 0 1
-3.065223 29.568223 -14.291313 32.983587 -1.467499 2.018931 0.021425 -0.015216 295043.000000 0 0 1
-3.237523 30.982823 -14.384713 34.312342 -1.466680 2.003392 0.020709 -0.010277 241107.000000 0 0 1
-4.233223 31.510023 -13.503113 34.541798 -1.437251 1.972428 0.010797 -0.014404 291931.000000 0 0 1
-4.402023 33.029223 -13.738313 36.042317 -1.438301 1.961860 0.016804 -0.019670 -200205.000000 0 0 1
-3.328223 33.808023 -13.278213 36.474243 -1.472668 1.943402 0.000637 -0.018682 -218366.000000 0 0 1
-3.500923 -33.462482 -13.480813 36.245365 1.466553 1.951886 0.012929 -0.019497 455550.000000 0 0 1
-2.528423 -32.639582 -12.584513 35.072856 1.493486 1.937790 0.015448 -0.022952 -79370.300000 0 0 1
-2.861823 -32.820682 -11.221813 34.803970 1.483821 1.899091 0.001435 -0.024067 280573.000000 0 0 1
-2.121323 -32.022882 -10.261613 33.693704 1.504649 1.880268 -0.003352 -0.025235 -36404.700000 0 0 1
-2.665723 -32.107182 -8.832813 33.406524 1.487961 1.838382 -0.002122 -0.012385 -234403.000000 0 0 1
-1.980723 -31.174582 -7.995513 32.244473 1.507345 1.821376 0.010067 -0.016288 12443.300000 0 0 1
-2.144523 -31.447782 -6.643713 32.213365 1.502709 1.778528 0.008191 -0.014687 -32110.300000 0 0 1
-1.048323 -30.755782 -5.778513 31.311473 1.536724 1.756410 0.025843 -0.013134 202827.000000 0 0 1
-1.088623 -30.999082 -4.396313 31.328194 1.535693 1.711592 0.035195 -0.019835 -383736.000000 0 0 1
0.089877 -30.567982 -3.772513 30.800024 -1.567856 1.693589 0.032842 -0.011973 -432530.000000 0 0 1
0.176177 -30.725782 -2.189313 30.804185 -1.565063 1.641928 0.038798 -0.006282 -686883.000000 0 0 1
0.373677 -32.022082 -1.664313 32.067481 -1.559128 1.622720 0.042149 -0.014144 163702.000000 0 0 1
1.492877 -32.779682 -2.092313 32.880298 -1.525285 1.634474 0.040876 -0.014062 -288782.000000 0 0 1
2.889077 -32.243382 -1.788713 32.421936 -1.481433 1.625994 0.039986 -0.009110 -1455910.000000 0 0 1
3.128977 -32.464282 -0.402013 32.617200 -1.474711 1.583122 0.029706 -0.009786 1564200.000000 0 0 1
4.361877 -31.885882 0.183787 32.183369 -1.434844 1.565086 0.018917 -0.006502 1524260.000000 0 0 1
4.461577 -30.338782 0.269487 30.666268 -1.424784 1.562008 0.016435 -0.006329 -507457.000000 0 0 1
4.483977 -29.717182 -0.986713 30.069762 -1.421038 1.603616 0.031314 -0.012890 228843.000000 0 0 1
4.460777 -28.312182 -0.890813 28.675281 -1.414524 1.601867 0.048962 -0.014956 -263290.000000 0 0 1
3.968377 -27.708982 -2.260213 28.082811 -1.428547 1.651367 0.045644 -0.008001 -438419.000000 0 0 1
2.629677 -28.055882 -2.477113 28.287520 -1.477339 1.658478 0.050505 -0.015071 -434624.000000 0 0 1
1.945577 -27.280782 -3.434613 27.564886 -1.499600 1.695722 0.042274 -0.011554 47626.900000 0 0 1
2.461477 -27.215082 -4.919013 27.765379 -1.480596 1.748900 0.033107 -0.006923 -142030.000000 0 0 1
2.147477 -28.424682 -5.629513 29.056249 -1.495390 1.765775 0.026983 -0.007706 187226.000000 0 0 1
2.721977 -28.308282 -6.887413 29.260972 -1.474936 1.808405 0.033892 -0.015970 -365370.000000 0 0 1
2.170177 -29.346682 -7.867413 30.460361 -1.496981 1.832041 0.019167 -0.014001 82077.100000 0 0 1
0.840877 -28.952082 -8.198113 30.102146 -1.541761 1.846624 0.011722 -0.008205 25431.900000 0 0 1
0.595777 -29.118882 -9.586013 30.661962 -1.550339 1.888763 0.018607 -0.004698 267583.000000 0 0 1
-0.701823 -28.359782 -9.985613 30.074612 1.546054 1.909249 0.001782 -0.008650 -396860.000000 0 0 1
-0.610923 -26.974882 -9.712213 28.676551 1.548152 1.916311 -0.006713 -0.005434 -1709.670000 0 0 1
-1.868423 -26.329882 -9.794913 28.154822 1.499953 1.926121 0.008214 -0.001410 463865.000000 0 0 1
-2.904223 -26.703382 -8.700913 28.234926 1.462463 1.884056 0.015939 -0.006632 -698413.000000 0 0 1
-2.609123 -26.493182 -7.336713 27.613830 1.472630 1.839716 0.022570 -0.007212 -554666.000000 0 0 1
-1.984523 -27.535482 -6.640913 28.394416 1.498849 1.806864 0.017843 -0.005866 85277.900000 0 0 1
-1.729223 -27.137882 -5.157513 27.677695 1.507162 1.758234 0.029378 -0.006002 669515.000000 0 0 1
-2.849723 -27.341082 -4.277313 27.819977 1.466943 1.725158 0.034392 -0.012313 559957.000000 0 0 1
-2.457823 -26.927382 -2.956413 27.200463 1.479773 1.679701 0.040797 -0.007369 1007190.000000 0 0 1
-3.588023 -26.941582 -1.821013 27.240390 1.438398 1.637696 0.046079 -0.008744 1668740.000000 0 0 1
-4.738323 -26.087282 -2.030313 26.591731 1.391122 1.647222 0.040577 -0.007624 500889.000000 0 0 1
-5.520323 -26.098082 -0.848413 26.689018 1.362347 1.602591 0.050189 -0.009948 39367.500000 0 0 1
-6.664323 -25.059582 -0.840513 25.944216 1.310873 1.603199 0.022397 -0.004088 203201.000000 0 0 1
-6.157023 -23.727182 -0.758913 24.524764 1.316904 1.601746 0.021190 -0.006585 -78839.700000 0 1 0
-6.698123 -23.054382 0.329787 24.009959 1.288045 1.557060 0.017944 0.001012 -477290.000000 0 1 0
-6.139923 -21.676282 0.573687 22.536392 1.294771 1.545338 0.009458 -0.002679 -451201.000000 0 1 0
-5.095623 -21.739582 1.492387 22.378607 1.340559 1.504059 0.015310 -0.008551 -660544.000000 0 1 0
-4.466123 -20.499582 1.593087 21.040843 1.356284 1.495010 0.001838 -0.003594 -427633.000000 0 1 0
-3.490723 -20.477582 2.794987 20.960164 1.401954 1.437050 0.006386 0.003419 -346469.000000 0 1 0
-3.975823 -20.430982 4.135487 21.221085 1.378601 1.374665 0.007388 0.015879 -340215.000000 0 1 0
-2.990723 -20.079282 5.090787 20.929360 1.422938 1.325095 0.023292 0.002412 400379.000000 0 1 0
-2.016223 -21.236782 5.534587 22.038551 1.476140 1.316947 0.024448 -0.006209 631537.000000 0 1 0
-1.156123 -21.659582 4.460087 22.144220 1.517470 1.367998 0.041899 -0.009623 -144641.000000 0 1 0
-0.584023 -22.889982 4.921587 23.420384 1.545288 1.359077 0.046142 -0.010221 215835.000000 0 1 0
0.484577 -23.329882 3.837787 23.648400 -1.550029 1.407790 0.054012 -0.019270 1703910.000000 0 1 0
1.662677 -22.494882 3.720487 22.861020 -1.497017 1.407326 0.029460 -0.020230 991155.000000 0 1 0
2.752477 -22.794282 4.572887 23.410825 -1.450625 1.374200 0.044546 -0.018035 66648.800000 0 1 0
3.869477 -21.736782 4.662487 22.565446 -1.394627 1.362677 0.050345 -0.022908 315769.000000 0 1 0
4.690377 -21.721682 3.488887 22.494520 -1.358131 1.415068 0.035336 -0.015033 -956649.000000 0 1 0
5.853777 -21.042682 3.759687 22.162952 -1.299471 1.400334 0.050044 -0.010692 -669534.000000 0 1 0
6.655777 -20.649882 2.502587 21.839870 -1.258994 1.455956 0.054136 -0.006273 -112367.000000 0 1 0
7.315977 -21.726282 1.897687 23.003393 -1.245988 1.488207 0.045640 -0.000176 -405205.000000 0 1 0
6.866177 -21.924482 0.600687 22.982344 -1.267298 1.544656 0.036239 -0.004519 -838838.000000 0 1 0
7.812377 -22.679882 -0.269313 23.989223 -1.239063 1.582023 0.034207 0.001687 -896992.000000 0 1 0
8.941977 -21.877882 -0.502313 23.640072 -1.182793 1.592046 0.034239 0.000527 -979332.000000 0 1 0
9.883177 -22.697982 -1.139813 24.782549 -1.160132 1.616805 0.035665 -0.000992 -538996.000000 0 1 0
11.220277 -22.037782 -1.445713 24.771931 -1.099865 1.629190 0.038391 -0.003664 -339440.000000 0 1 0
11.125377 -21.000882 -2.374813 23.884112 -1.083627 1.670392 0.039333 -0.004641 125055.000000 0 1 0
12.346577 -20.945882 -3.098613 24.510597 -1.038169 1.697555 0.040976 -0.010354 101843.000000 0 1 0
12.302277 -19.826582 -4.091513 23.689235 -1.015444 1.744383 0.038175 -0.021539 -87161.800000 0 1 0
12.384477 -18.532182 -3.513813 22.564661 -0.981685 1.727155 0.038652 -0.017715 95335.800000 0 1 0
12.627077 -17.538582 -4.476213 22.069921 -0.946800 1.775033 0.050180 -0.025248 -770717.000000 0 1 0
13.060677 -16.178582 -3.821713 21.140797 -0.891631 1.752570 0.053382 -0.019211 1361280.000000 0 1 0
14.411477 -16.028782 -3.307913 21.807219 -0.838479 1.723073 0.053110 -0.015578 1339210.000000 0 1 0
15.444877 -16.089082 -4.267713 22.707183 -0.805824 1.759866 0.060853 -0.018839 -365233.000000 0 1 0
16.855477 -15.612882 -3.870213 23.299093 -0.747146 1.737680 0.063157 -0.019729 91245.100000 0 1 0
17.455177 -16.596982 -3.048913 24.278363 -0.760201 1.696710 0.064092 -0.022998 691017.000000 0 1 0
18.858677 -16.348682 -2.906013 25.127157 -0.714227 1.686708 0.063614 -0.012389 639167.000000 0 0 1
19.682777 -17.484482 -2.251813 26.423275 -0.726321 1.656121 0.050980 -0.019940 -708689.000000 0 0 1
21.031877 -17.144682 -2.216213 27.224834 -0.683926 1.652291 0.050827 -0.018544 -794602.000000 0 0 1
21.612077 -18.027182 -1.262713 28.171894 -0.695206 1.615633 0.040061 -0.015978 -217556.000000 0 0 1
23.116577 -18.226182 -1.523913 29.476977 -0.667656 1.622518 0.042251 -0.021907 -409915.000000 0 0 1
23.880377 -17.057182 -1.369713 29.378495 -0.620243 1.617436 0.043762 -0.010680 -336406.000000 0 0 1
25.114377 -17.390082 -0.791613 30.557708 -0.605631 1.596705 0.072328 -0.015786 -171133.000000 0 0 1
25.831877 -16.074982 -0.330813 30.426968 -0.556650 1.581669 0.055709 -0.027036 -43223.400000 0 0 1
25.150977 -15.399982 0.673587 29.498895 -0.549416 1.547960 0.034936 -0.024932 519813.000000 0 0 1
25.957677 -14.264282 1.107187 29.639443 -0.502475 1.533432 0.035138 -0.023801 662449.000000 0 0 1
25.220777 -13.400582 2.151787 28.640764 -0.488397 1.495595 0.040576 -0.024248 -242055.000000 0 0 1
24.862577 -13.937782 3.351987 28.699222 -0.510940 1.453732 0.052524 -0.007197 203226.000000 0 0 1
25.913677 -14.370382 4.216387 29.929993 -0.506328 1.429451 0.071901 -0.003065 473050.000000 0 0 1
25.347077 -14.986982 5.557487 29.966141 -0.533976 1.384257 0.053765 0.006031 382750.000000 0 0 1
24.529177 -16.127582 5.412387 29.850852 -0.581620 1.388474 0.052618 0.005960 28528.600000 0 0 1
23.774177 -16.353582 6.614187 29.604030 -0.602540 1.345473 0.034995 0.009262 321581.000000 0 0 1
23.088877 -17.743182 6.753287 29.891866 -0.655219 1.342905 0.035677 0.007660 679355.000000 0 0 1
24.065177 -18.794182 6.809287 31.284508 -0.663029 1.351383 0.041851 0.007639 166059.000000 0 0 1
23.378977 -20.005182 6.814787 31.515476 -0.707789 1.352839 0.023391 0.020709 -33822.500000 0 0 1
2.116277 23.270923 -3.046713 23.564739 1.480105 1.700450 0.027616 -0.022102 -122992.000000 0 1 0
2.844377 24.315323 -2.457713 24.604182 1.454347 1.670853 0.032907 -0.024254 -377273.000000 0 1 0
3.375377 24.981823 -3.558113 25.458688 1.436496 1.711016 0.043277 -0.019119 -311228.000000 0 0 1
4.491477 25.962523 -3.152813 26.536130 1.399493 1.689890 0.034552 -0.014474 6456.250000 0 0 1
5.560877 25.315723 -2.482413 26.037887 1.354569 1.666280 0.016780 -0.014439 -68523.000000 0 0 1
6.408877 26.270623 -1.880613 27.106384 1.331514 1.640231 0.017115 -0.013476 210288.000000 0 0 1
7.498577 25.594623 -0.974313 26.688250 1.285797 1.607312 -0.001207 -0.020977 296759.000000 0 0 1
8.635977 25.164523 -1.673713 26.657731 1.240210 1.633623 -0.002018 -0.017428 -609459.000000 0 0 1
9.610677 24.552123 -0.898913 26.381431 1.197691 1.604877 -0.007315 -0.014436 -481819.000000 0 0 1
10.732177 24.083523 -1.836213 26.430425 1.151588 1.640326 0.016380 -0.014431 -1096780.000000 0 0 1
11.655277 25.095623 -2.092413 27.749125 1.136004 1.646273 0.017942 -0.009171 -92284.900000 0 0 1
12.423577 24.956923 -3.287613 28.071367 1.108910 1.688182 0.034348 -0.012437 210820.000000 0 0 1
13.466677 23.860023 -3.545013 27.626422 1.056962 1.699471 0.041244 -0.007035 -372491.000000 0 0 1
12.881477 22.558023 -3.550013 26.218303 1.051945 1.706616 0.044218 -0.017560 -50938.000000 0 0 1
12.748177 22.117023 -4.889013 25.991944 1.047913 1.760021 0.052908 -0.018538 -64223.400000 0 0 1
11.882577 20.824023 -4.987813 24.489056 1.052261 1.775907 0.061717 -0.023589 149518.000000 0 1 0
10.519577 21.139823 -4.820713 24.099645 1.109055 1.772187 0.048392 -0.020911 -46708.100000 0 1 0
9.642277 20.012323 -4.757513 22.717845 1.121801 1.781775 0.022235 -0.020898 896720.000000 0 1 0
8.148777 20.478023 -4.774713 22.551050 1.192078 1.784140 0.015229 -0.012821 473965.000000 0 1 0
7.763377 21.070123 -3.518013 22.728760 1.217777 1.726204 0.014211 -0.012401 343763.000000 0 1 0
6.505777 21.727123 -3.523813 22.952348 1.279862 1.724933 0.013918 0.001608 434700.000000 0 1 0
5.973577 22.267823 -2.167913 23.156844 1.308707 1.664552 0.012459 -0.011739 102276.000000 0 1 0
5.450577 21.355723 -1.233213 22.074793 1.320903 1.626691 0.003157 -0.015402 -9018.070000 0 1 0
4.833677 22.088423 -0.194113 22.611956 1.355359 1.579381 0.013873 -0.011888 88048.000000 0 1 0
4.471677 21.151023 0.990187 21.641214 1.362448 1.525026 0.003368 -0.011847 -237824.000000 0 1 0
3.808177 21.836223 2.018587 22.257528 1.398136 1.479979 0.017565 -0.010327 8217.230000 0 1 0
3.526477 21.017823 3.126787 21.539771 1.404560 1.425118 0.023073 -0.009782 -73786.100000 0 1 0
2.461377 21.616423 4.086187 22.136509 1.457419 1.385141 0.018469 -0.010609 -1094170.000000 0 1 0
1.210777 21.641223 3.526987 21.960149 1.514907 1.409489 0.016495 -0.012293 -1738010.000000 0 1 0
0.309877 21.943823 4.537887 22.410261 1.556676 1.366895 0.016360 -0.023546 479274.000000 0 1 0
-1.075223 22.423523 3.960987 22.796050 -1.522882 1.396152 0.018893 -0.008097 458768.000000 0 1 0
-2.069423 22.614623 4.923687 23.236746 -1.479542 1.357286 0.026405 -0.017868 -739932.000000 0 1 0
-3.274923 22.759423 4.221787 23.378194 -1.427884 1.389214 0.035066 -0.016791 -3145.680000 0 1 0
-4.566123 22.917823 5.060687 23.909970 -1.374133 1.357527 0.036366 -0.028904 -47442.700000 0 1 0
-4.651723 24.186123 5.678287 25.275482 -1.380786 1.344206 0.055702 -0.021596 339969.000000 0 0 1
-5.831523 24.280523 6.479687 25.798000 -1.335088 1.316907 0.054042 -0.020526 431383.000000 0 0 1
-6.171023 25.749623 6.916687 27.367228 -1.335578 1.315289 0.067109 -0.022350 -708926.000000 0 0 1
-5.225023 26.326223 7.739487 27.933323 -1.374870 1.290053 0.064687 -0.025555 -659105.000000 0 0 1
-5.502423 27.609423 8.273187 29.342844 -1.374079 1.284971 0.062466 -0.022829 -199355.000000 0 0 1
-5.753023 28.745023 7.292287 30.208460 -1.373266 1.326989 0.075605 -0.022822 1509440.000000 0 0 1
-7.065123 28.715423 6.644387 30.309064 -1.329549 1.349780 0.068782 -0.025826 947664.000000 0 0 1
-7.151523 29.763423 5.700887 31.136887 -1.334988 1.386667 0.079477 -0.023221 1339910.000000 0 0 1
-8.683223 30.036423 5.318587 31.715492 -1.289379 1.402303 0.080775 -0.022921 1965130.000000 0 0 1
-9.480923 30.608323 6.354787 32.667119 -1.270419 1.375016 0.074472 -0.018176 -164667.000000 0 0 1
-10.100123 29.637423 7.166787 32.120899 -1.242350 1.345783 0.057484 -0.016516 -506448.000000 0 0 1
-11.147723 30.168223 8.159387 33.180853 -1.216840 1.322342 0.035617 -0.014075 -433329.000000 0 0 1
-10.628823 31.018223 9.167187 34.046136 -1.240672 1.298174 0.034598 -0.016197 -445297.000000 0 0 1
-11.596823 31.425523 10.088387 34.983215 -1.217274 1.278264 0.043409 -0.009474 -228992.000000 0 0 1
-10.997223 31.949023 11.442187 35.673556 -1.239288 1.244278 0.036020 -0.015105 15851.500000 0 0 1
-10.193723 33.118823 11.400687 36.479365 -1.272206 1.252947 0.018383 -0.010438 -105508.000000 0 0 1
-9.497423 33.241323 12.562287 36.783116 -1.292499 1.222259 0.029498 -0.017090 -448654.000000 0 0 1
-9.102023 -33.952482 12.862087 37.430618 1.308874 1.220022 0.030699 -0.019887 -134579.000000 0 0 1
-10.124423 -33.178982 13.446687 37.204330 1.274625 1.200997 0.024988 -0.001566 63956.100000 0 0 1
-9.725823 -31.825782 13.477687 35.904319 1.274214 1.185992 0.021805 0.018335 51430.500000 0 0 1
-10.858623 -30.961082 14.048487 35.691152 1.233482 1.166238 0.022825 0.004319 -46997.700000 0 0 1
-11.088723 -31.058482 15.484587 36.432973 1.227875 1.131817 0.021917 0.002190 199240.000000 0 0 1
-9.947623 -30.665382 16.217487 36.087779 1.257114 1.104714 0.034114 -0.002871 82290.900000 0 0 1
-10.056423 -31.008682 17.723787 37.105291 1.257189 1.072805 0.031718 -0.012396 271098.000000 0 0 1
-11.039123 -30.263482 18.449187 37.122946 1.221027 1.050687 0.042421 -0.012512 485199.000000 0 0 1
-11.504723 -30.982382 19.550087 38.398862 1.215246 1.036620 0.044234 -0.014442 -49144.500000 0 0 1
-11.669823 -30.011482 20.748887 38.306529 1.199943 0.998393 0.047660 -0.017622 206482.000000 0 0 1
-10.381023 -29.841382 21.299687 38.104467 1.236017 0.977640 0.047166 -0.018719 343619.000000 0 0 1
-10.541323 -29.000982 22.393287 38.126576 1.222162 0.943027 0.036983 -0.020201 -141526.000000 0 0 1
-9.363123 -28.810482 23.358687 38.253630 1.256573 0.913945 0.048825 -0.021753 -294188.000000 0 0 1
-9.208223 -30.009182 24.015487 39.523234 1.273070 0.917724 0.050548 -0.008607 31075.900000 0 0 1
-8.033223 -29.888082 24.779987 39.646915 1.308225 0.895643 0.055628 -0.010237 -179542.000000 0 0 1
-7.955523 -31.029382 25.823787 41.145849 1.319816 0.892309 0.063613 -0.007051 6710.510000 0 0 1
-7.820723 -32.351782 25.278887 41.795019 1.333607 0.921244 0.075762 -0.006220 235909.000000 0 0 1
-7.671923 -33.363582 26.254887 43.142857 1.344776 0.916556 0.082650 -0.011755 -145379.000000 0 0 1
-7.557623 33.814723 25.767087 43.179809 -1.350909 0.931365 0.071032 -0.017063 871979.000000 0 0 1
-6.264023 33.643623 25.138987 42.462925 -1.386717 0.937231 0.071122 -0.009462 883587.000000 0 0 1
-5.928423 32.394023 24.557087 41.080037 -1.389790 0.930059 0.061379 -0.007266 14406.200000 0 0 1
-6.821023 31.906523 23.365087 40.130784 -1.360185 0.949335 0.061446 -0.008077 229572.000000 0 0 1
-8.050423 31.385323 23.834287 40.223389 -1.319707 0.936578 0.064028 -0.015110 46053.100000 0 0 1
-8.910223 31.106623 22.759187 39.560013 -1.291825 0.957816 0.055436 -0.012780 -224189.000000 0 0 1
-9.812223 29.859323 23.010787 38.953244 -1.253298 0.938835 0.054879 -0.028711 -12367.800000 0 0 1
-9.095023 28.665523 22.778487 37.726531 -1.263562 0.922563 0.050672 -0.024752 212575.000000 0 0 1
-9.821823 27.458623 23.011787 37.148170 -1.227282 0.902742 0.043336 -0.030351 -515682.000000 0 0 1
-9.020223 26.214523 22.636187 35.790538 -1.239394 0.886068 0.034779 -0.022548 -2941.170000 0 0 1
-7.888323 25.974223 23.444787 35.868425 -1.275950 0.858421 0.019755 -0.022780 41604.900000 0 0 1
-7.166923 24.819923 23.185787 34.712737 -1.289686 0.839368 0.009202 -0.026485 734534.000000 0 0 1
-5.687523 24.735023 23.699887 34.725408 -1.344787 0.819627 -0.011665 -0.018410 694421.000000 0 0 1
-4.826123 25.646023 23.087087 34.842841 -1.384789 0.846503 0.004643 -0.014401 -730842.000000 0 0 1
-3.517723 25.537823 23.570287 34.930119 -1.433912 0.830124 -0.005325 -0.014959 -387866.000000 0 0 1
-2.482923 25.985923 22.518887 34.475112 -1.475537 0.859003 0.003441 -0.007589 -345060.000000 0 0 1
-2.331523 25.058923 21.445987 33.065329 -1.478022 0.865060 0.000952 -0.000385 -182000.000000 0 0 1
-1.467423 25.576423 20.492087 32.805981 -1.513485 0.896120 0.002760 0.004457 -295733.000000 0 0 1
-1.054723 24.497423 19.433987 31.287634 -1.527768 0.900600 0.006973 -0.001258 104963.000000 0 0 1
-0.283823 23.359323 19.940087 30.713932 -1.558647 0.864238 0.014356 -0.001992 367974.000000 0 0 1
0.008077 22.558823 18.860787 29.404589 1.570438 0.874444 0.008264 -0.000283 -499952.000000 0 0 1
1.106877 21.510823 19.194787 28.851006 1.519385 0.842891 0.013873 0.002348 1110070.000000 0 0 1
2.414677 22.112523 19.027587 29.271888 1.462028 0.863173 0.018207 -0.007167 150711.000000 0 0 1
3.432177 21.267023 19.468687 29.036113 1.410791 0.835915 0.022478 0.002726 -211962.000000 0 0 1
4.797777 21.860623 19.031287 29.378485 1.354750 0.866108 0.024086 -0.000259 594082.000000 0 0 1
5.826177 20.869623 19.224187 28.966444 1.298557 0.845081 0.037060 -0.002226 1286800.000000 0 0 1
7.125977 21.255023 18.701087 29.193941 1.247312 0.875542 0.042684 -0.004153 1098980.000000 0 0 1
8.013377 20.019723 18.443587 28.375507 1.190054 0.863235 0.049685 -0.003352 -116486.000000 0 0 1
8.583577 19.381023 19.542987 28.831063 1.153874 0.825969 0.056752 -0.001520 71814.100000 0 0 1
9.454177 18.298623 19.230687 28.178722 1.093909 0.819681 0.055489 -0.005658 138999.000000 0 0 1
9.956977 17.600523 20.505787 28.799429 1.055964 0.778425 0.081163 -0.005800 -334450.000000 0 0 1
8.989477 16.811623 21.163887 28.484232 1.079762 0.733249 0.072068 -0.005218 161419.000000 0 0 1
9.555177 16.202123 22.359087 29.218812 1.037949 0.699399 0.074437 -0.008598 1003990.000000 0 0 1
8.583177 15.101723 23.019587 28.838071 1.053968 0.646435 0.060629 -0.006023 842775.000000 0 0 1
7.541677 15.686723 23.784487 29.472903 1.122652 0.631750 0.048937 0.000821 861995.000000 0 0 1
6.385677 14.850223 24.069087 28.993567 1.164694 0.591415 0.053457 -0.002340 1187000.000000 0 0 1
6.607977 13.576023 24.955887 29.167963 1.117814 0.544102 0.053939 -0.004943 -643443.000000 0 0 1
7.003677 13.885623 26.301787 30.555622 1.103648 0.533988 0.059886 -0.010997 -118690.000000 0 0 1
7.253977 12.696923 27.020987 30.724026 1.051734 0.496040 0.060264 -0.020956 -404169.000000 0 0 1
8.192777 13.016923 28.212687 32.132812 1.009043 0.499124 0.054093 -0.024128 250401.000000 0 0 1
9.539477 13.386323 27.988087 32.458100 0.951645 0.531035 0.083071 -0.023204 181248.000000 0 0 1
9.722777 14.693723 27.405087 32.580311 0.986243 0.571381 0.073860 -0.019476 46567.700000 0 0 1
11.199377 14.795523 26.865487 32.651002 0.922866 0.604463 0.094101 -0.030352 927375.000000 0 0 1
11.299677 13.859123 25.788287 31.381423 0.886781 0.606287 0.088086 -0.027531 857552.000000 0 0 1
12.609177 13.724723 25.192887 31.337532 0.827734 0.636938 0.114422 -0.033660 613113.000000 0 0 1
12.561777 12.628123 24.095387 29.964235 0.788032 0.636572 0.097036 -0.024671 132798.000000 0 0 1
12.338677 11.252823 24.534687 29.678609 0.739403 0.597616 0.093925 -0.020851 -1750300.000000 0 0 1
11.004577 11.061023 24.615287 29.143769 0.787956 0.564949 0.096463 -0.017201 -2029000.000000 0 0 1
10.729477 9.613323 25.037687 28.886388 0.730586 0.522119 0.079914 -0.018089 -114563.000000 0 0 1
10.929377 8.752023 23.999187 27.785071 0.675216 0.528144 0.080296 -0.012831 480312.000000 0 0 1
10.406677 7.469023 24.444087 27.597076 0.622516 0.482691 0.073080 -0.017898 191815.000000 0 0 1
10.662677 6.389423 23.422487 26.516604 0.539855 0.487911 0.061668 -0.022422 398203.000000 0 0 1
12.051677 6.100623 23.251987 26.890805 0.468600 0.526280 0.068064 -0.020231 740521.000000 0 0 1
12.232177 5.023323 22.358787 25.976437 0.389666 0.534088 0.068930 -0.024904 -55302.800000 0 0 1
11.897977 3.575623 22.877987 26.033617 0.291937 0.497483 0.058434 -0.024373 226142.000000 0 0 1
12.955877 3.009423 23.671487 27.152360 0.228235 0.511927 0.055600 -0.014550 506564.000000 0 0 1
12.568377 1.779623 24.227387 27.351370 0.140660 0.482617 0.048510 -0.008196 -690016.000000 0 0 1
13.640677 1.130523 25.146487 28.630263 0.082690 0.498463 0.034858 0.001615 271766.000000 0 0 1
14.632877 0.328623 24.526587 28.561907 0.022454 0.538036 0.051328 -0.002235 1340480.000000 0 0 1
15.850077 1.097123 24.263487 29.002507 0.069109 0.579750 0.050860 -0.015499 821435.000000 0 0 1
16.973077 0.283023 23.581287 29.055852 0.016673 0.623937 0.051340 -0.013096 -39561.200000 0 0 1
17.265677 -0.878977 24.319787 29.838369 -0.050865 0.617979 0.048882 -0.013356 -168040.000000 0 0 1
18.284477 -1.676677 23.787887 30.049907 -0.091444 0.657353 0.043604 -0.001543 -286508.000000 0 0 1
18.178077 -3.146077 24.243887 30.464838 -0.171372 0.650470 0.047742 0.002105 -13321.300000 0 0 1
17.121877 -3.799377 23.591387 29.396385 -0.218364 0.639278 0.042447 0.002210 49574.300000 0 0 1
17.242577 -5.165077 23.962087 29.969419 -0.291047 0.644249 0.059101 -0.008100 47579.700000 0 0 1
16.383877 -6.234377 23.258787 29.125076 -0.363600 0.645859 0.051923 -0.010528 -293197.000000 0 0 1
16.627777 -6.367877 21.851487 28.187237 -0.365736 0.683723 0.048552 -0.009083 337619.000000 0 0 1
15.744977 -7.195577 21.086187 27.282007 -0.428666 0.687402 0.050016 -0.008980 -85333.800000 0 0 1
16.139677 -8.701577 21.036287 27.905770 -0.494469 0.716920 0.063015 -0.011032 -176944.000000 0 0 1
16.023477 -9.325877 22.295387 28.996691 -0.527089 0.693686 0.055657 -0.009663 309985.000000 0 0 1
16.883477 -10.458477 22.369287 29.913484 -0.554599 0.726055 0.059280 -0.011148 -64818.300000 0 0 1
16.528577 -11.383377 23.472387 30.882488 -0.603108 0.707399 0.071556 -0.006164 -78404.600000 0 0 1
15.296377 -12.050977 23.345087 30.400630 -0.667277 0.695217 0.086444 -0.013599 19511.600000 0 0 1
15.164977 -13.033877 24.362687 31.518233 -0.709968 0.687285 0.098148 -0.010773 226179.000000 0 0 1
14.136977 -14.121977 23.963987 31.201875 -0.784867 0.695036 0.093165 -0.021108 295781.000000 0 0 1
14.623877 -14.905977 22.900087 30.991288 -0.794951 0.739330 0.101441 -0.020682 338015.000000 0 0 1
13.679177 -15.924777 22.725687 30.938249 -0.861108 0.745793 0.103299 -0.012211 -252640.000000 0 0 1
14.006077 -16.808477 21.524687 30.692136 -0.876093 0.793564 0.079107 -0.016202 508179.000000 0 0 1
14.942677 -17.886477 21.762087 31.887272 -0.874829 0.819660 0.097077 -0.022065 476349.000000 0 0 1
15.249877 -18.548777 20.531287 31.593506 -0.882694 0.863399 0.076750 -0.016422 73168.600000 0 0 1
-23.652923 -32.162382 26.841063 48.107404 0.936691 0.978894 0.038938 -0.013699 -711003.000000 0 0 1
-23.767823 -33.482982 26.296113 48.759667 0.953492 1.001190 0.037478 -0.012580 1160720.000000 0 0 1
-25.119243 -34.002582 26.326643 49.802049 0.934537 1.013816 0.033761 -0.022600 1111560.000000 0 0 1
-25.651193 34.077623 27.678533 50.846527 -0.925551 0.995177 0.026024 -0.018639 -57376.200000 0 0 1
-26.513583 -33.707982 28.455413 51.467550 0.904300 0.984979 0.047836 -0.019385 352107.000000 0 0 1
-26.017383 -33.374882 29.713773 51.707788 0.908650 0.958622 0.029108 -0.014982 -156237.000000 0 0 1
-27.079023 -32.798582 30.694293 52.451503 0.880630 0.945677 0.025839 -0.021785 133823.000000 0 0 1
-27.517743 -31.512782 30.395343 51.712267 0.852973 0.942487 0.025527 -0.012006 580810.000000 0 0 1
-28.554613 -31.061582 31.290623 52.528953 0.827425 0.932680 0.027901 -0.004111 452396.000000 0 0 1
-28.831833 -29.533082 31.165443 51.718105 0.797412 0.924039 0.020409 -0.006907 203893.000000 0 0 1
-29.513993 -29.164682 29.937523 51.165514 0.779445 0.945779 0.023038 0.006966 531104.000000 0 0 1
-29.995123 -27.830582 29.995203 50.734219 0.747983 0.938223 0.030802 0.006256 -73264.200000 0 0 1
-30.621663 -27.409382 28.635963 50.089708 0.730100 0.962228 0.018515 0.001666 203902.000000 0 0 1
-29.733423 -27.186782 27.519083 48.790342 0.740687 0.971542 0.026661 0.010338 217012.000000 0 0 1
-29.086703 -25.953182 27.487913 47.698945 0.728528 0.956628 0.016633 0.006982 -39272.900000 0 0 1
-28.054833 -26.010682 26.314203 46.433464 0.747607 0.968292 0.023121 0.007712 195961.000000 0 0 1
-28.662843 -26.105182 25.044563 46.154840 0.738732 0.997243 0.010667 0.006532 143046.000000 0 0 1
-27.646583 -26.123782 24.083773 45.020148 0.757085 1.006341 0.020484 0.015152 168517.000000 0 0 1
-28.245433 -26.592082 22.695223 44.944594 0.755257 1.041461 -0.003248 0.019996 410022.000000 0 0 1
-28.928273 -25.597882 21.945823 44.426520 0.724395 1.054135 -0.003427 0.013260 403007.000000 0 0 1
-29.512393 -26.150282 20.736223 44.551202 0.725070 1.086657 -0.010425 0.021545 161035.000000 0 0 1
-29.926373 -24.937782 19.823823 43.708864 0.694721 1.100060 0.004298 0.012816 -139467.000000 0 0 1
-31.173683 -24.429382 20.236523 44.475950 0.664694 1.098425 0.021530 0.006692 -325262.000000 0 0 1
-31.495283 -23.301182 19.514323 43.768788 0.636961 1.108672 0.047103 -0.001391 -1258200.000000 0 0 1
-32.928793 -22.871382 19.748123 44.692213 0.607073 1.113115 0.059291 0.002338 -905024.000000 0 0 1
-33.749143 -23.891582 19.205123 45.592205 0.616019 1.135988 0.038265 -0.000794 -77323.600000 0 0 1
-35.041372 -23.387982 18.923523 46.184361 0.588537 1.148629 0.046653 -0.002332 110335.000000 0 0 1
-35.942252 -24.326482 18.105823 47.025993 0.595000 1.175570 0.054666 0.003576 -80989.000000 0 0 1
36.087603 -25.583582 18.716023 48.032534 -0.616694 1.170541 0.039385 0.005864 234810.000000 0 0 1
35.183913 -26.360482 17.931423 47.479666 -0.643002 1.183523 0.061018 0.008710 229194.000000 0 0 1
34.676593 -27.675482 18.589623 48.103768 -0.673583 1.174019 0.060921 0.012872 719484.000000 0 0 1
33.520423 -27.602882 19.440823 47.576081 -0.688886 1.149848 0.065009 0.007310 486812.000000 0 0 1
33.701473 -26.812782 20.643123 47.758278 -0.672050 1.123819 0.066193 0.006793 -185605.000000 0 0 1
32.588693 -27.068082 21.688723 47.593116 -0.693121 1.097625 0.056703 0.003524 1020170.000000 0 0 1
31.318143 -26.578082 21.238923 46.241890 -0.703709 1.093589 0.059592 0.008584 53512.100000 0 0 1
30.324333 -26.375782 22.185923 45.907104 -0.715871 1.066400 0.055682 0.017764 342752.000000 0 0 1
29.248753 -25.367482 21.576823 44.323335 -0.714453 1.062368 0.055709 0.023813 444110.000000 0 0 1
29.754933 -24.105282 21.185623 43.763584 -0.680886 1.065471 0.048863 0.024395 -239503.000000 0 0 1
30.434473 -23.411482 22.181723 44.343923 -0.655703 1.046943 0.060193 0.015318 -329601.000000 0 0 1
31.189853 -22.156482 21.690223 43.979341 -0.617655 1.055042 0.046724 0.014791 -188251.000000 0 0 1
30.364553 -21.068682 21.307423 42.660306 -0.606592 1.047813 0.048095 0.001530 16223.000000 0 0 1
31.126383 -20.058582 20.688423 42.417087 -0.572445 1.061300 0.049811 -0.002535 115084.000000 0 0 1
30.402013 -18.678982 20.878723 41.341358 -0.550940 1.041377 0.016872 0.007382 318963.000000 0 0 1
30.364153 -18.150482 22.222623 41.776390 -0.538771 1.009904 0.012593 0.008963 -163149.000000 0 0 1
29.433353 -18.735682 23.087923 41.837785 -0.566859 0.986223 0.023902 0.014681 -432741.000000 0 0 1
29.441053 -18.202582 24.580793 42.453798 -0.553747 0.953293 0.017766 0.019615 65862.000000 0 0 1
28.933223 -16.879182 24.759643 41.654269 -0.528112 0.934267 0.021102 0.006926 298860.000000 0 0 1
29.256223 -16.480582 26.085323 42.520351 -0.513011 0.910338 0.014663 0.013506 -133338.000000 0 0 1
29.165353 -14.990982 26.348673 42.066613 -0.474785 0.893927 0.018000 0.002951 800799.000000 0 0 1
27.810523 -14.500582 26.409883 41.002122 -0.480626 0.870937 0.028390 0.002234 928572.000000 0 0 1
27.688803 -13.176382 26.910823 40.798030 -0.444161 0.850495 0.021117 0.002553 -52150.900000 0 0 1
28.153263 -12.023382 25.976983 40.149366 -0.403622 0.867142 0.025328 -0.011536 -101700.000000 0 0 1
27.366613 -11.843582 24.780933 38.772369 -0.408438 0.877418 0.026870 -0.004449 251452.000000 0 0 1
27.999193 -11.072282 23.765083 38.357912 -0.376578 0.902612 0.027606 -0.000044 -46022.300000 0 0 1
28.996603 -11.832782 22.887323 38.789783 -0.387448 0.939694 0.029010 -0.008106 -201476.000000 0 0 1
28.366753 -12.886182 22.227123 38.272332 -0.426400 0.951132 0.028495 -0.008191 317615.000000 0 0 1
29.124813 -14.100682 22.326123 39.313353 -0.450885 0.966842 0.018273 -0.005913 199553.000000 0 0 1
28.513183 -15.093182 21.344323 38.683147 -0.486844 0.986307 0.020009 -0.001557 -504602.000000 0 0 1
28.831173 -14.859782 20.040223 38.126896 -0.475897 1.017354 0.017618 0.000733 -79998.300000 0 0 1
28.419813 -15.943382 19.195923 37.820109 -0.511246 1.038447 0.014281 -0.003074 -506716.000000 0 0 1
28.848923 -15.953382 17.734923 37.433919 -0.505142 1.077234 0.029613 -0.012743 228828.000000 0 0 1
28.143603 -17.000382 16.989923 37.009902 -0.543398 1.093855 0.036292 -0.017554 1935530.000000 0 0 1
26.728433 -16.726182 16.740723 35.699105 -0.559162 1.082707 0.035644 -0.023177 1184850.000000 0 0 1
26.353333 -15.673182 15.591623 34.398336 -0.536537 1.100370 0.048605 -0.020121 -303838.000000 0 0 1
26.623533 -16.156582 14.271723 34.256820 -0.545444 1.141084 0.056998 -0.023262 783135.000000 0 0 1
25.704633 -17.190082 13.814323 33.868313 -0.589446 1.150662 0.049866 -0.027879 374092.000000 0 0 1
25.943033 -17.607482 12.320923 33.687825 -0.596286 1.196371 0.050336 -0.008640 -234088.000000 0 0 1
25.467733 -16.642782 11.426423 32.498473 -0.578821 1.211518 0.058052 -0.013356 -191750.000000 0 0 1
25.401633 -17.139082 10.093723 32.262584 -0.593560 1.252592 0.043063 -0.006906 4785.400000 0 0 1
26.675933 -17.390382 9.251523 33.160541 -0.577719 1.288052 0.053506 -0.009736 182493.000000 0 0 1
27.443763 -18.497982 9.655323 34.475509 -0.593085 1.286936 0.062215 -0.009608 496982.000000 0 0 1
28.836343 -18.426482 9.314223 35.465824 -0.568605 1.305054 0.073169 -0.010169 789263.000000 0 0 1
29.720903 -19.328882 10.175023 36.884534 -0.576619 1.291310 0.086049 -0.025450 -223362.000000 0 0 1
29.821813 -18.768382 11.481723 37.059717 -0.561722 1.255796 0.082537 -0.035635 158654.000000 0 0 1
30.203753 -19.771182 12.429423 38.179273 -0.579598 1.239199 0.051463 -0.033476 -58597.800000 0 0 1
29.960733 -19.259782 13.889123 38.229471 -0.571321 1.198979 0.063947 -0.022483 112249.000000 0 0 1
29.683553 -20.291982 14.808623 38.886671 -0.599641 1.180119 0.059140 -0.014448 -89063.100000 0 0 1
29.445963 -19.786682 16.087323 38.953556 -0.591662 1.145065 0.063823 -0.016303 -29165.400000 0 0 1
29.104653 -20.860082 17.145323 39.701208 -0.621864 1.124243 0.040106 0.002182 -113032.000000 0 0 1
27.966323 -21.629682 16.872223 39.174357 -0.658322 1.125533 0.014266 0.004969 -434607.000000 0 0 1
27.642833 -22.455582 17.977723 39.894585 -0.682225 1.103325 0.043956 0.005668 938903.000000 0 0 1
26.288933 -23.269182 17.868523 39.393489 -0.724540 1.100006 0.027993 0.016916 1218690.000000 0 0 1
25.114633 -22.550782 18.249723 38.371017 -0.731661 1.075136 0.030278 0.013693 95857.600000 0 0 1
24.000033 -23.394082 18.072223 38.077420 -0.772614 1.076267 0.029429 0.009097 -380337.000000 0 0 1
22.775333 -22.903682 18.851923 37.399057 -0.788208 1.042486 0.006255 0.005982 -801729.000000 0 0 1
22.257233 -21.691282 18.440223 36.137764 -0.772521 1.035291 0.007124 -0.001540 -187479.000000 0 0 1
21.140533 -21.163682 19.124823 35.504682 -0.785945 1.001955 0.004347 -0.004640 193818.000000 0 0 1
21.416533 -20.462482 20.525223 36.037007 -0.762621 0.964826 -0.000160 0.004051 -45598.100000 0 0 1
21.876433 -21.427782 21.443523 37.383858 -0.775038 0.959898 0.005413 0.002357 -185530.000000 0 0 1
21.949233 -20.856182 22.738623 37.865474 -0.759868 0.926657 0.017006 0.012654 173937.000000 0 0 1
22.472533 -21.772882 23.905373 39.376897 -0.769587 0.918401 0.020292 0.013165 128660.000000 0 0 1
21.452333 -22.628382 24.351053 39.562862 -0.812071 0.907773 0.034851 0.009310 34449.700000 0 0 1
21.926033 -23.538382 25.402003 40.988634 -0.820847 0.902394 0.037525 0.008382 -17957.600000 0 0 1
20.832733 -24.190182 26.276793 41.347763 -0.859832 0.882131 0.050180 -0.002034 -82024.800000 0 0 1
20.150333 -25.248282 25.670833 41.261403 -0.897223 0.899309 0.053022 0.002929 410523.000000 0 0 1
18.935933 -25.638382 26.300533 41.323289 -0.934646 0.880899 0.058648 0.000901 228999.000000 0 0 1
18.168533 -26.748082 25.541473 41.205853 -0.974135 0.902244 0.063836 0.003369 -408369.000000 0 0 1
17.413033 -26.256682 24.477993 39.897359 -0.985208 0.910281 0.060521 -0.002386 17738.000000 0 0 1
16.797633 -27.319482 23.783143 39.926839 -1.019523 0.932699 0.057733 -0.006769 -379989.000000 0 0 1
15.888633 -26.759882 22.677223 38.507095 -1.034986 0.941087 0.047334 -0.011272 377545.000000 0 0 1
14.695333 -26.095282 23.124023 37.836979 -1.057920 0.913285 0.041322 -0.014174 770618.000000 0 0 1
14.074833 -25.459182 21.996023 36.470480 -1.065776 0.923391 0.038125 -0.027066 -471330.000000 0 0 1
12.664533 -24.913782 22.081923 35.618791 -1.100503 0.902115 0.055061 -0.030339 -342382.000000 0 0 1
11.653933 -25.907982 22.165623 36.032659 -1.148092 0.908215 0.054359 -0.029087 -6055.450000 0 0 1
10.374533 -25.296182 22.146523 35.185171 -1.181594 0.889980 0.068774 -0.028305 -321530.000000 0 0 1
9.286433 -26.308482 22.411123 35.785926 -1.231467 0.894056 0.069201 -0.034313 -668262.000000 0 0 1
9.059733 -27.226382 21.352023 35.766794 -1.249566 0.931066 0.070160 -0.032224 519503.000000 0 0 1
7.772433 -27.800782 21.580023 36.041526 -1.298181 0.928851 0.060119 -0.031576 302189.000000 0 0 1
7.289733 -28.657382 20.351423 35.896604 -1.321704 0.968003 0.064320 -0.022198 141829.000000 0 0 1
7.995233 -29.886082 20.218623 36.958008 -1.309394 0.991936 0.063304 -0.022831 215748.000000 0 0 1
7.537633 -30.640682 19.092923 36.880985 -1.329585 1.026647 0.043000 -0.012835 -8814.020000 0 0 1
8.129133 -32.045082 19.030423 38.146128 -1.322359 1.048488 0.037344 -0.007586 -88796.600000 0 0 1
7.604233 -32.976882 20.017123 39.319007 -1.344165 1.036663 0.042130 -0.009125 -162665.000000 0 0 1
8.384233 -34.140582 20.153323 40.521984 -1.329982 1.050263 0.046291 -0.013274 -513592.000000 0 0 1
8.005733 33.383923 21.073823 40.282553 1.335433 1.020253 0.057656 -0.017483 -201474.000000 0 0 1
7.028733 32.534723 20.505723 39.094705 1.358028 1.018652 0.043812 -0.013298 -117610.000000 0 0 1
7.084633 31.389523 21.268923 38.572805 1.348815 0.986759 0.044025 -0.024415 65767.400000 0 0 1
6.062133 30.333523 20.761223 37.254536 1.373546 0.979689 0.031631 -0.015966 317196.000000 0 0 1
4.748733 30.593623 21.255523 37.554194 1.416805 0.969155 0.028314 -0.017843 21313.100000 0 0 1
4.121733 29.326223 21.045323 36.330726 1.431163 0.952963 0.025829 -0.014977 -533151.000000 0 0 1
2.664733 29.146123 21.466123 36.295891 1.479623 0.937977 0.008396 -0.006742 -406800.000000 0 0 1
2.409133 29.184723 22.810423 37.119636 1.488435 0.909030 0.006135 -0.013489 -1122940.000000 0 0 1
1.072933 29.209223 23.138223 37.278778 1.534080 0.901186 -0.006740 -0.008941 -986142.000000 0 0 1
0.872733 28.500423 24.520753 37.607222 1.540184 0.860547 -0.002121 -0.009915 -301547.000000 0 0 1
1.138133 29.397023 25.607853 39.003108 1.532100 0.854548 0.001605 -0.014056 107898.000000 0 0 1
0.861533 28.826323 26.860493 39.410471 1.540918 0.820908 0.006846 -0.019551 -589625.000000 0 0 1
2.009133 28.050823 27.507313 39.338754 1.499294 0.796460 -0.001117 -0.021651 -523741.000000 0 0 1
2.180333 26.809623 26.907693 38.046467 1.489648 0.785221 -0.003437 -0.021203 96822.400000 0 0 1
3.125133 26.144623 27.731803 38.240825 1.451828 0.759488 0.000234 -0.017589 -15827.600000 0 0 1
3.700733 24.881623 27.095523 36.972395 1.423145 0.748283 0.016654 -0.005107 -148787.000000 0 0 1
2.734033 23.883023 27.013893 36.161086 1.456816 0.727193 0.017718 0.001611 -169766.000000 0 0 1
3.374133 22.687523 26.565393 35.097416 1.423157 0.712233 0.031924 0.011356 195163.000000 0 0 1
2.373533 21.551323 26.318703 34.099374 1.461104 0.689092 0.024693 0.012676 -177062.000000 0 0 1
2.805733 20.263823 26.714893 33.647885 1.433211 0.653510 0.035522 0.012482 -194299.000000 0 0 1
3.336833 19.544323 25.649143 32.419031 1.401695 0.658068 0.029930 0.012794 -754364.000000 0 0 1
3.816333 18.163423 26.084863 32.013972 1.363698 0.618419 0.026908 0.012814 568270.000000 0 0 1
5.092333 18.178223 26.770243 32.757069 1.297664 0.614199 0.041120 0.004350 1132390.000000 0 0 1
6.191733 18.145923 25.852163 32.186122 1.241966 0.638135 0.051575 0.002066 -508112.000000 0 0 1
7.531533 17.676823 26.502133 32.734647 1.168021 0.627318 0.044287 -0.006821 394770.000000 0 0 1
8.170533 18.554023 27.387963 34.075063 1.155984 0.637218 0.052925 -0.002690 -28180.600000 0 0 1
8.698533 19.696123 26.740473 34.331540 1.154919 0.677903 0.048423 -0.009695 -659650.000000 0 0 1
9.123633 20.876423 27.634943 35.815580 1.158780 0.689459 0.051207 -0.013521 475142.000000 0 0 1
10.235133 20.569223 28.477463 36.589845 1.109075 0.678861 0.061183 -0.027100 175664.000000 0 0 1
10.512933 21.613323 29.371093 37.951530 1.118080 0.685803 0.068435 -0.032165 -793362.000000 0 0 1
11.613033 21.345723 30.331973 38.865551 1.072537 0.675438 0.073686 -0.027963 -839832.000000 0 0 1
12.894133 21.406923 29.751673 38.854563 1.028662 0.698638 0.063633 -0.026315 -878881.000000 0 0 1
13.908833 21.322123 30.696493 39.879359 0.992792 0.692372 0.055997 -0.009094 305713.000000 0 0 1
15.312733 21.351123 30.001463 39.880296 0.948629 0.719268 0.044764 -0.015230 344197.000000 0 0 1
15.703333 22.630023 29.610723 40.441409 0.964165 0.749267 0.040181 -0.023166 218439.000000 0 0 1
17.053533 22.542523 29.168463 40.617577 0.923145 0.769693 0.079092 -0.011657 400975.000000 0 0 1
-8.434023 16.953723 4.268487 19.410859 -1.109172 1.349082 0.008893 -0.008898 -23480.500000 0 1 0
-8.370623 18.315523 4.554587 20.646307 -1.142117 1.348366 0.013090 -0.011859 157908.000000 0 1 0
-7.124723 18.681023 5.123687 20.639633 -1.206437 1.319928 0.009722 -0.001014 28953.200000 0 1 0
-6.995723 20.148523 5.664287 22.067788 -1.236611 1.311214 0.015030 -0.000678 -85122.000000 0 1 0
-7.157023 21.279123 4.816687 22.961370 -1.246342 1.359453 0.021754 -0.009608 -204825.000000 0 1 0
-8.432923 21.458523 4.223787 23.439769 -1.196350 1.389609 0.022080 -0.016123 147306.000000 0 1 0
-8.465723 22.509323 3.084887 24.245713 -1.211063 1.443216 0.052453 -0.026909 288999.000000 0 1 0
-7.812223 22.223823 1.837787 23.628512 -1.232764 1.492939 0.033395 -0.031349 -360546.000000 0 1 0
-8.368923 21.140323 1.209587 22.768734 -1.193851 1.517646 0.050036 -0.031331 -1096100.000000 0 1 0
-7.833923 21.016423 -0.266613 22.430592 -1.213998 1.582683 0.032109 -0.020713 633731.000000 0 1 0
-6.486423 20.659123 -0.560213 21.660722 -1.266569 1.596662 0.023485 -0.012472 571408.000000 0 1 0
-5.547723 21.581423 0.011187 22.283069 -1.319184 1.570294 0.032077 -0.015804 -1584650.000000 0 1 0
-4.110023 21.306723 -0.351613 21.702359 -1.380239 1.586999 0.033678 -0.012296 -916056.000000 0 1 0
-3.953423 21.475823 -1.736113 21.905584 -1.388747 1.650134 0.037032 -0.019310 123108.000000 0 1 0
-2.582223 21.405623 -2.076813 21.660603 -1.450743 1.666824 0.032970 -0.013107 22615.100000 0 1 0
-2.462923 21.593923 -3.651013 22.038453 -1.457231 1.737229 0.043334 -0.017678 51151.900000 0 1 0
-1.188223 21.948523 -4.163213 22.371452 -1.516712 1.757982 0.043758 -0.013970 350000.000000 0 1 0
-1.318523 22.439223 -5.514713 23.144530 -1.512104 1.811383 0.051680 -0.022862 -552161.000000 0 1 0
-0.050323 23.025623 -6.114613 23.823735 -1.568611 1.830362 0.047438 -0.024344 -330003.000000 0 1 0
1.041477 22.113723 -6.086813 22.959763 1.523735 1.839112 0.040101 -0.017543 -622557.000000 0 1 0
2.166077 22.724023 -6.609413 23.764626 1.475762 1.852632 0.028392 -0.017546 -1075190.000000 0 1 0
3.343677 21.777723 -6.763313 23.047598 1.418449 1.868630 0.017291 -0.009775 -516271.000000 0 1 0
3.213977 20.815423 -7.817313 22.466016 1.417602 1.926192 0.016370 -0.014692 367809.000000 0 1 0
4.324477 19.907623 -7.796413 21.812808 1.356892 1.936304 0.018595 -0.011504 504516.000000 0 1 0
4.208277 18.612923 -8.687113 20.967032 1.348441 1.997995 0.003226 -0.017716 -409205.000000 0 1 0
4.519777 18.787923 -10.039113 21.776093 1.334714 2.049935 0.007006 -0.024019 -125781.000000 0 1 0
3.349677 18.942023 -10.832513 22.076320 1.395767 2.083672 0.009688 -0.018150 -171530.000000 0 1 0
3.526877 19.268823 -12.339713 23.151564 1.389765 2.132935 0.013680 -0.016401 -112191.000000 0 1 0
3.840977 20.612823 -12.541513 24.432174 1.386570 2.109845 0.040483 -0.016660 -27773.200000 0 1 0
3.980377 20.940323 -13.921913 25.458990 1.382955 2.149378 0.039822 -0.007697 -174391.000000 0 0 1
4.173077 22.430123 -14.241413 26.895034 1.386852 2.128829 0.030203 -0.008047 -425448.000000 0 0 1
3.105677 23.334923 -14.233913 27.509419 1.438483 2.114629 0.035676 -0.012072 -714136.000000 0 0 1
3.420677 24.607723 -14.706613 28.870842 1.432673 2.105276 0.032028 -0.013875 -413832.000000 0 0 1
2.191977 25.353923 -15.233813 29.659657 1.484556 2.110196 0.029146 0.001723 -128547.000000 0 0 1
1.334577 25.743723 -14.174713 29.418410 1.519002 2.073540 0.028068 -0.007055 -383040.000000 0 0 1
1.109877 27.166023 -14.226813 30.685939 1.529964 2.052880 0.018366 -0.002040 -756515.000000 0 0 1
0.259677 27.539923 -12.977313 30.445450 1.561367 2.011137 0.026020 -0.013369 846913.000000 0 0 1
-1.155523 27.290423 -13.041113 30.268351 -1.528480 2.016231 0.013533 -0.027275 912366.000000 0 0 1
-1.667023 26.000823 -13.376913 29.287601 -1.506770 2.045127 0.013108 -0.021858 -757022.000000 0 0 1
-1.400023 24.926923 -12.314813 27.838214 -1.514690 2.029037 0.041526 -0.028490 -469402.000000 0 0 1
-2.182223 25.129023 -11.185813 27.592613 -1.484173 1.988203 0.041604 -0.028709 -288155.000000 0 0 1
-2.133423 23.985723 -10.310513 26.194906 -1.482084 1.975349 0.059320 -0.026676 76449.100000 0 0 1
-3.016123 23.898623 -8.995413 25.713005 -1.445255 1.928196 0.055970 -0.033863 129236.000000 0 0 1
-2.514423 24.467023 -7.822013 25.809716 -1.468388 1.878703 0.054325 -0.030992 -244498.000000 0 0 1
-2.194823 25.857523 -7.932213 27.135747 -1.486118 1.867444 0.046357 -0.029832 -163834.000000 0 0 1
-2.016123 26.588923 -6.585613 27.466450 -1.495115 1.812925 0.051646 -0.026890 -111438.000000 0 0 1
-0.956323 26.113923 -5.797013 26.766712 -1.534191 1.789102 0.056734 -0.026449 -152485.000000 0 0 1
-0.995523 26.595223 -4.427113 26.979553 -1.533381 1.735633 0.062536 -0.030394 -217570.000000 0 0 1
-1.911323 25.735323 -3.509913 26.043800 -1.496664 1.705977 0.061186 -0.028503 -318139.000000 0 0 1
-3.260223 25.709823 -3.835113 26.197942 -1.444661 1.717714 0.050109 -0.025445 -646978.000000 0 0 1
-4.002023 24.959723 -2.885113 25.442638 -1.411810 1.684438 0.049850 -0.021732 499930.000000 0 0 1
-5.342423 24.393923 -3.452513 25.209617 -1.355194 1.708180 0.042556 -0.020004 13597.000000 0 0 1
-6.315823 25.339923 -3.766113 26.385316 -1.326529 1.714021 0.045797 -0.019675 -1283690.000000 0 0 1
-7.367523 24.659123 -4.309313 26.094500 -1.280464 1.736699 0.040674 -0.015589 -687474.000000 0 0 1
-8.740223 25.355723 -4.390613 27.176859 -1.238847 1.733065 0.034817 -0.017195 29481.900000 0 0 1
-9.365623 25.480823 -3.121513 27.326381 -1.218568 1.685277 0.050818 -0.009545 -141144.000000 0 0 1
-10.667923 26.027523 -3.249713 28.316023 -1.181810 1.685816 0.055738 -0.009791 98611.100000 0 0 1
-11.312523 25.934723 -1.854013 28.355253 -1.159484 1.636228 0.060296 -0.014334 -526389.000000 0 0 1
-11.724623 24.762923 -1.297813 27.429062 -1.128593 1.618129 0.058500 -0.009645 -61965.600000 0 0 1
-10.758723 23.751423 -1.072513 26.096561 -1.145474 1.611906 0.062885 -0.008492 -147568.000000 0 0 1
-11.365523 22.488623 -0.420413 25.200993 -1.102846 1.587479 0.061716 -0.015195 -280722.000000 0 0 1
-11.979023 22.806523 0.813787 25.773955 -1.087157 1.539217 0.065246 -0.014035 -204334.000000 0 0 1
-12.880523 21.770923 1.085187 25.319135 -1.036547 1.527923 0.075780 -0.022358 -920137.000000 0 0 1
-13.926323 22.083823 2.101187 26.192608 -1.008172 1.490489 0.076524 -0.023096 -568144.000000 0 0 1
-13.409423 22.268023 3.432687 26.219474 -1.028773 1.439498 0.064206 -0.024650 508924.000000 0 0 1
-12.552823 23.396423 3.710687 26.809237 -1.078356 1.431940 0.071096 -0.018663 341096.000000 0 0 1
-12.283223 23.474823 5.228887 27.005298 -1.088721 1.375941 0.063708 -0.020909 -430319.000000 0 0 1
-11.369323 22.539323 5.736187 25.887959 -1.103618 1.347365 0.058020 -0.019721 -207658.000000 0 0 1
-11.521623 22.342023 7.105187 26.122739 -1.094673 1.295333 0.043927 -0.021378 -200999.000000 0 0 1
-10.307323 21.740323 7.875987 25.316274 -1.128074 1.254442 0.032674 -0.019199 351344.000000 0 0 1
-9.329223 22.788823 8.046287 25.905744 -1.182232 1.254974 0.040803 -0.019117 829755.000000 0 0 1
-8.182323 22.395823 8.835787 25.428221 -1.220512 1.215914 0.042545 -0.017352 605708.000000 0 0 1
-8.323523 22.332723 10.368987 25.991296 -1.214039 1.160435 0.036270 -0.027189 -582243.000000 0 0 1
-9.187623 21.326323 10.774087 25.598934 -1.164014 1.136381 0.036299 -0.019026 -136241.000000 0 0 1
-8.723923 20.772023 12.007587 25.529707 -1.173182 1.081123 0.028057 -0.009503 445167.000000 0 0 1
-9.707223 19.710723 12.633687 25.344680 -1.113179 1.048958 0.022927 -0.004482 149170.000000 0 0 1
-9.819423 18.582023 11.818687 24.112113 -1.084659 1.058528 0.028284 -0.019419 205345.000000 0 1 0
-10.692323 17.563123 12.314887 23.967593 -1.023936 1.031172 0.023631 -0.017207 -40617.200000 0 1 0
-10.751123 16.344523 11.317087 22.601030 -0.988970 1.046351 0.022891 -0.027919 -371089.000000 0 1 0
-11.096123 15.215623 12.097787 22.382931 -0.940702 0.999775 0.019130 -0.022033 138614.000000 0 1 0
-11.437523 14.119423 11.238487 21.365361 -0.889954 1.016889 0.017889 -0.008902 20212.000000 0 1 0
-11.700323 12.790223 11.985587 21.074669 -0.829872 0.965847 0.015434 -0.014982 469974.000000 0 1 0
-12.909023 12.822623 12.751187 22.218355 -0.782040 0.959532 0.027791 -0.011718 582915.000000 0 1 0
-13.371623 11.550223 13.149787 22.025550 -0.712443 0.931010 0.021938 -0.008578 -387426.000000 0 1 0
-14.183123 11.570823 14.406587 23.293662 -0.684311 0.903994 0.029891 -0.007553 -455567.000000 0 1 0
-15.307623 12.395723 14.203087 24.283841 -0.680673 0.946067 0.038267 -0.005089 -332260.000000 0 1 0
-15.968823 12.569723 15.439287 25.522007 -0.666851 0.921106 0.044692 -0.002836 25340.200000 0 0 1
-17.195323 13.524023 15.342587 26.720279 -0.666451 0.959179 0.050738 -0.002493 655717.000000 0 0 1
-18.347123 13.036523 14.663587 26.862402 -0.617771 0.993360 0.052643 -0.001878 247753.000000 0 0 1
-19.300923 14.060323 14.506087 27.940023 -0.629585 1.024897 0.074574 -0.008125 767446.000000 0 0 1
-20.626823 13.680023 13.727587 28.302924 -0.585609 1.064406 0.060512 -0.004946 889592.000000 0 0 1
-21.437323 12.872223 14.582987 28.946787 -0.540757 1.042820 0.065868 0.008375 302840.000000 0 0 1
-22.661123 12.631123 13.904587 29.434832 -0.508501 1.078801 0.059787 0.006162 46520.700000 0 0 1
-23.761123 11.808223 14.568187 30.269740 -0.461209 1.068683 0.057226 0.003699 -239206.000000 0 0 1
-24.312523 12.424923 15.688687 31.489878 -0.472449 1.049259 0.051360 -0.002049 818608.000000 0 0 1
-25.294353 11.518923 16.291387 32.216443 -0.427331 1.040620 0.046463 -0.000254 167317.000000 0 0 1
-25.926013 12.002223 17.565587 33.537462 -0.433564 1.019537 0.051270 -0.005587 -628854.000000 0 0 1
-26.864533 12.950423 17.167987 34.411573 -0.449196 1.048465 0.051054 0.004328 -156281.000000 0 0 1
-27.534253 13.664623 18.190887 35.717858 -0.460665 1.036432 0.043275 -0.000657 511232.000000 0 0 1
-28.653193 14.622923 17.707587 36.720485 -0.471887 1.067602 0.041719 -0.002899 684768.000000 0 0 1
-28.049883 15.828723 17.237787 36.530613 -0.513760 1.079383 0.051456 -0.004521 1028250.000000 0 0 1
-29.136373 16.683723 16.824387 37.554425 -0.520035 1.106269 0.043791 -0.007082 859729.000000 0 0 1
-28.704153 18.155423 16.720587 37.856648 -0.563976 1.113324 0.067111 -0.012650 -131002.000000 0 0 1
-28.245043 18.818623 17.885287 38.364131 -0.587723 1.085808 0.065687 -0.014188 -2757.740000 0 0 1
-29.203023 18.956023 18.924787 39.626947 -0.575750 1.072905 0.052914 -0.010320 -239209.000000 0 0 1
-28.530613 19.245123 20.309687 39.960656 -0.593436 1.037654 0.060253 -0.018889 871661.000000 0 0 1
-27.851143 18.163023 21.032087 39.343745 -0.577883 1.006794 0.055945 -0.014089 1380260.000000 0 0 1
-26.824223 17.385723 20.316787 37.875773 -0.575063 1.004624 0.073375 -0.014245 619930.000000 0 0 1
-26.403593 16.191823 21.192987 37.529556 -0.550100 0.970725 0.076461 -0.010876 215285.000000 0 0 1
-27.481883 15.307323 21.390487 38.041043 -0.508199 0.973632 0.031412 -0.002617 454211.000000 0 0 1
-26.934353 14.033123 21.741387 37.350714 -0.480316 0.949503 0.037407 -0.002221 -88734.200000 0 0 1
-28.037503 13.046723 22.078287 37.996965 -0.435530 0.950773 0.047402 -0.008039 -25209.900000 0 0 1
-28.841943 12.664823 20.954487 37.833133 -0.413762 0.983796 0.048092 -0.007220 71777.600000 0 0 1
-29.804333 11.699623 21.299387 38.455732 -0.374066 0.983794 0.064135 -0.006303 -777923.000000 0 0 1
-30.642873 11.396323 20.079887 38.367483 -0.356057 1.020011 0.058803 -0.001483 -720352.000000 0 0 1
-30.035373 10.866423 18.909287 37.118242 -0.347137 1.036270 0.072676 -0.009261 93725.300000 0 0 1
-29.334883 9.653823 19.037387 36.278834 -0.317927 1.018373 0.086285 -0.011411 -75583.600000 0 0 1
-28.551343 9.240423 17.747987 34.864820 -0.313003 1.036714 0.093790 -0.017773 -223357.000000 0 0 1
-29.349833 8.795823 16.677787 34.884492 -0.291171 1.072322 0.084654 -0.006164 96516.000000 0 0 1
-30.206323 9.702523 16.042087 35.551504 -0.310799 1.102647 0.077517 -0.007317 -273123.000000 0 0 1
-29.569093 10.910023 15.271587 35.022582 -0.353471 1.119592 0.074050 -0.009303 -101517.000000 0 0 1
-28.910713 10.637723 14.058887 33.862114 -0.352576 1.142655 0.069571 -0.009738 547356.000000 0 0 1
-27.846053 11.561623 13.831287 33.171951 -0.393539 1.140701 0.059783 0.000994 -6739.820000 0 0 1
-27.402883 11.650723 12.365087 32.242096 -0.402010 1.177205 0.070053 -0.006535 242134.000000 0 0 1
-26.621553 10.588623 11.754287 30.967552 -0.378562 1.181467 0.081248 -0.002673 841930.000000 0 0 1
-27.379733 9.419523 11.508187 31.157913 -0.331349 1.192486 0.082733 -0.000643 -82847.000000 0 0 1
-26.619353 8.303123 10.733087 29.878604 -0.302357 1.203361 0.092014 -0.006419 -207553.000000 0 0 1
-26.417263 8.675423 9.369487 29.341473 -0.317304 1.245778 0.090390 -0.007708 229957.000000 0 0 1
-25.958713 7.561323 8.663687 28.391687 -0.283440 1.260702 0.112472 -0.012348 -394654.000000 0 0 1
-25.381833 7.965623 7.275587 27.579390 -0.304098 1.303831 0.099419 -0.003766 -144157.000000 0 0 1
-26.296113 8.579023 6.388387 28.388320 -0.315359 1.343817 0.098323 -0.001841 120775.000000 0 0 1
-25.630583 8.934623 5.218787 27.640369 -0.335420 1.380846 0.090631 -0.005154 -126077.000000 0 0 1
-26.613893 9.385523 4.080487 28.513816 -0.339038 1.427198 0.079826 -0.001567 -192221.000000 0 0 1
-27.399643 8.324323 3.594287 28.860937 -0.294950 1.445934 0.106571 -0.016785 -175570.000000 0 0 1
-26.821593 7.073623 3.195887 27.922172 -0.257857 1.456088 0.116903 -0.017092 -805697.000000 0 0 1
-25.941243 7.117123 1.928287 26.968868 -0.267767 1.499235 0.136748 -0.009245 -366855.000000 0 0 1
-24.772423 7.832223 2.263687 26.079512 -0.306222 1.483888 0.121143 -0.009320 -93676.900000 0 0 1
-23.889623 7.765823 1.144087 25.146193 -0.314296 1.525283 0.128932 -0.001671 -556816.000000 0 0 1
-22.555523 8.430223 1.451287 24.123153 -0.357678 1.510598 0.110205 -0.004539 -757120.000000 0 1 0
-22.746823 9.775323 1.641587 24.812693 -0.405882 1.504589 0.091596 -0.013181 583326.000000 0 1 0
-21.648823 10.470923 2.213087 24.149731 -0.450500 1.479027 0.097376 -0.011940 -150343.000000 0 1 0
-21.976323 11.869323 2.450487 25.096703 -0.495208 1.472999 0.090415 -0.021361 2555.070000 0 0 1
-20.858223 12.697623 2.753187 24.573871 -0.546835 1.458523 0.085488 -0.020296 741626.000000 0 1 0
-21.229923 13.995623 3.212687 25.630225 -0.582844 1.445118 0.077216 -0.030212 382255.000000 0 0 1
-19.960323 14.671923 3.844587 25.069118 -0.633867 1.416829 0.052514 -0.024970 588895.000000 0 0 1
-19.352623 13.893223 4.843787 24.310655 -0.622638 1.370208 0.040239 -0.021786 -359346.000000 0 1 0
-18.398223 14.547723 5.607987 24.115978 -0.669053 1.336105 0.047572 -0.027332 -546516.000000 0 1 0
-17.962423 13.694923 6.848087 23.602878 -0.651403 1.276426 0.029253 -0.017079 -211670.000000 0 1 0
-17.130123 12.662923 6.409687 22.245782 -0.636566 1.278522 0.045133 -0.018937 -34440.000000 0 1 0
-16.655523 11.850423 7.481887 21.767352 -0.618403 1.219920 0.031687 -0.013328 -119585.000000 0 1 0
10.847377 -32.504882 -14.517813 37.215586 -1.248702 1.971537 0.049074 -0.017984 -939296.000000 0 0 1
11.964777 -32.552982 -13.701013 37.290351 -1.218575 1.947024 0.023801 -0.019977 -262175.000000 0 0 1
12.696777 -31.338182 -13.795713 36.518646 -1.185855 1.958185 0.030837 -0.028555 243791.000000 0 0 1
14.138977 -31.288882 -13.241813 36.800142 -1.146376 1.938883 0.040113 -0.023759 219441.000000 0 0 1
15.128077 -31.989482 -13.977813 38.046878 -1.129056 1.946991 0.033085 -0.018804 -100504.000000 0 0 1
16.394677 -31.701482 -13.409213 38.125797 -1.093517 1.930193 0.033503 -0.014571 6053.020000 0 0 1
17.419577 -32.678082 -14.027013 39.598684 -1.081047 1.932886 0.030142 -0.013127 -45275.900000 0 0 1
17.207577 -33.959782 -13.499813 40.393223 -1.101799 1.911563 0.025730 -0.008759 193515.000000 0 0 1
18.093177 33.832623 -14.244413 40.925698 1.079710 1.926292 0.020629 0.005443 347442.000000 0 0 1
18.068077 32.428623 -13.565813 39.523439 1.062469 1.921155 0.013822 -0.000627 -295266.000000 0 0 1
18.650977 32.402923 -12.282213 39.353032 1.048515 1.888202 0.018302 -0.012603 -114057.000000 0 0 1
18.548377 31.083323 -11.772613 38.063232 1.032784 1.885244 0.003806 -0.006490 261165.000000 0 0 1
19.338377 30.839023 -10.442813 37.869123 1.010706 1.850177 0.011469 -0.012321 281676.000000 0 0 1
20.685677 30.452123 -10.631513 38.317856 0.974109 1.851941 0.012378 -0.009957 -158670.000000 0 0 1
21.231377 30.378823 -9.355613 38.225276 0.960817 1.818058 0.013967 -0.009257 -334974.000000 0 0 1
22.518077 29.540023 -9.257713 38.280308 0.919476 1.815058 0.018356 -0.004390 678640.000000 0 0 1
23.598377 30.069923 -10.081213 39.531184 0.905403 1.828664 0.024172 -0.013521 -95474.000000 0 0 1
24.696677 29.251323 -10.000913 39.567461 0.869625 1.826324 0.027371 -0.004724 -485189.000000 0 0 1
25.882877 29.741023 -10.867813 40.896957 0.854649 1.839764 0.028646 -0.009539 62049.200000 0 0 1
26.515477 30.975223 -10.675613 42.148590 0.862816 1.826871 0.033473 -0.016133 352456.000000 0 0 1
27.724077 31.094323 -11.413213 43.194245 0.842635 1.838202 0.042310 -0.017642 235762.000000 0 0 1
28.335177 32.481723 -11.302613 44.561122 0.853474 1.827241 0.034581 -0.015296 -223560.000000 0 0 1
27.601977 33.449923 -12.041213 45.008413 0.880893 1.841628 0.043014 -0.013456 107025.000000 0 0 1
27.999477 -33.917582 -11.607213 45.487366 -0.880690 1.828824 0.039772 -0.005883 231816.000000 0 0 1
27.045977 -32.756782 -12.079113 44.163295 -0.880603 1.847837 0.034340 0.007113 1086140.000000 0 0 1
25.733077 -32.869282 -11.510913 43.302218 -0.906575 1.839858 0.051686 -0.002072 956404.000000 0 0 1
24.799377 -31.769082 -11.565913 41.929155 -0.907989 1.850264 0.051721 -0.004069 682190.000000 0 0 1
25.252877 -30.408582 -10.923213 41.008612 -0.877761 1.840415 0.034559 -0.001217 113545.000000 0 0 1
26.319577 -29.777782 -11.639213 41.411444 -0.846967 1.855698 0.032933 0.004715 205152.000000 0 0 1
26.714277 -28.568682 -11.037413 40.640456 -0.818929 1.845838 0.033697 0.001027 51586.100000 0 0 1
27.500177 -27.704582 -12.055013 40.854950 -0.789101 1.870324 0.038861 0.008967 468163.000000 0 0 1
28.758177 -28.243482 -12.464613 42.191155 -0.776369 1.870704 0.028956 0.007738 234236.000000 0 0 1
28.793277 -29.105882 -13.626913 43.149715 -0.790797 1.892102 0.032181 0.002536 85154.500000 0 0 1
30.187077 -29.704482 -13.985913 44.600691 -0.777341 1.889758 0.031215 0.004767 395704.000000 0 0 1
30.576877 -30.732282 -13.084113 45.283690 -0.787933 1.863912 0.033491 -0.001599 314376.000000 0 0 1
31.695877 -31.412682 -13.666913 46.670866 -0.780911 1.867988 0.030281 -0.007070 173980.000000 0 0 1
32.228277 -32.470682 -12.690413 47.476875 -0.789145 1.841383 0.015842 -0.006035 -391027.000000 0 0 1
33.272577 -33.186082 -13.285713 48.835342 -0.784097 1.846320 0.012790 -0.007230 -339904.000000 0 0 1
33.968677 -34.068982 -12.426013 49.688755 -0.786872 1.823556 0.019376 -0.007951 -260591.000000 0 0 1
33.243277 33.435023 -11.673313 48.572445 0.788274 1.813500 0.030214 -0.018281 -383584.000000 0 0 1
32.565177 33.920323 -10.546113 48.190243 0.805778 1.791425 0.029967 -0.019243 188103.000000 0 0 1
31.814377 32.840023 -9.924313 46.787965 0.801260 1.784532 0.037652 -0.017124 525438.000000 0 0 1
31.065277 33.296223 -8.592413 46.341336 0.820047 1.757291 0.030583 -0.007941 705514.000000 0 0 1
30.004577 34.245723 -8.729013 46.359895 0.851312 1.760215 0.022706 -0.009148 -73633.500000 0 0 1
29.330977 -34.246982 -7.506813 45.711205 -0.862567 1.735766 0.022117 -0.011830 180813.000000 0 0 1
28.319877 -33.101482 -7.615913 44.223587 -0.863091 1.743873 0.021386 -0.015006 -56436.900000 0 0 1
29.013477 -31.888582 -7.845413 43.820247 -0.832572 1.750803 0.006488 -0.007547 87100.500000 0 0 1
28.183177 -30.874882 -8.343513 42.628207 -0.830944 1.767796 0.012679 0.000820 245788.000000 0 0 1
27.339677 -30.047482 -7.315013 41.277337 -0.832548 1.748953 0.026270 -0.003269 839606.000000 0 0 1
26.420077 -29.122482 -7.910213 40.108738 -0.834015 1.769317 0.027657 -0.012440 134933.000000 0 0 1
25.492177 -28.603482 -6.993113 38.947579 -0.842850 1.751327 0.033948 -0.017687 -152555.000000 0 0 1
24.472977 -27.716882 -7.735713 37.775566 -0.847474 1.777036 0.066718 -0.024222 -232819.000000 0 0 1
23.661377 -28.422882 -8.673313 37.986147 -0.876564 1.801157 0.079108 -0.023750 11158.600000 0 0 1
22.760377 -27.524382 -9.243813 36.892742 -0.879857 1.824054 0.086797 -0.023293 -259030.000000 0 0 1
21.438177 -28.173582 -9.706813 36.709241 -0.920335 1.838403 0.077455 -0.017483 -330915.000000 0 0 1
21.543877 -28.945982 -10.850113 37.679351 -0.930967 1.862891 0.072275 -0.014407 206360.000000 0 0 1
20.441177 -29.746682 -11.302813 37.821428 -0.968730 1.874280 0.067293 -0.017279 458053.000000 0 0 1
20.163077 -31.058382 -10.492213 38.487132 -0.994984 1.846907 0.062656 -0.016848 310968.000000 0 0 1
21.229977 -31.994082 -10.636513 39.843050 -0.984948 1.841034 0.048994 -0.004671 342518.000000 0 0 1
20.843277 -33.275982 -10.224513 40.574300 -1.011208 1.825537 0.034572 -0.009770 19054.000000 0 0 1
21.939577 34.310923 -10.518213 42.062065 1.001885 1.823543 0.036936 -0.010779 392839.000000 0 0 1
22.950177 34.268423 -9.502413 42.324122 0.980684 1.797242 0.042898 -0.002090 -210093.000000 0 0 1
23.884077 33.297523 -9.845513 42.143900 0.948558 1.806592 0.030167 -0.001301 -329472.000000 0 0 1
25.266177 33.516623 -9.173313 42.963861 0.924842 1.785965 0.032117 -0.006176 -133311.000000 0 0 1
25.365677 33.303723 -7.761613 42.576967 0.919883 1.754117 0.024555 -0.010888 106470.000000 0 0 1
25.784777 31.976223 -7.533313 41.762236 0.892181 1.752175 0.029600 -0.017060 -288837.000000 0 0 1
25.741077 31.522823 -6.034213 41.142474 0.886024 1.717994 0.034027 -0.018601 -358615.000000 0 0 1
26.597277 32.088023 -5.040813 41.981736 0.878689 1.691158 0.034003 -0.006692 160590.000000 0 0 1
27.659577 31.310123 -4.535113 42.023127 0.847225 1.678926 0.043620 -0.008400 -172973.000000 0 0 1
27.206677 30.151123 -3.635213 40.773867 0.836688 1.660070 0.047081 -0.005679 -614461.000000 0 0 1
26.645677 30.672823 -2.460213 40.704629 0.855542 1.631274 0.047026 -0.001657 19781.700000 0 0 1
26.197877 29.639623 -1.558713 39.588705 0.846959 1.610179 0.043455 -0.000907 271825.000000 0 0 1
24.809177 29.010623 -1.848313 38.216852 0.863305 1.619179 0.029472 0.001891 -377274.000000 0 0 1
23.745077 29.796723 -1.368613 38.125405 0.897947 1.606702 0.031996 -0.001330 -494207.000000 0 0 1
22.603177 28.948623 -1.316013 36.751303 0.907871 1.606613 0.050701 -0.001079 -145680.000000 0 0 1
21.517677 29.693223 -0.509513 36.673662 0.943707 1.584690 0.053180 -0.008796 -322172.000000 0 0 1
21.627477 29.815823 0.909587 36.845059 0.943246 1.546107 0.073298 -0.016060 699504.000000 0 0 1
20.423777 30.408723 1.448587 36.659508 0.979357 1.531271 0.068571 -0.012525 339742.000000 0 0 1
19.812877 29.567023 2.496087 35.678977 0.980420 1.500780 0.065591 -0.030221 -672948.000000 0 0 1
19.387077 28.329123 1.962487 34.383852 0.970650 1.513689 0.064792 -0.024316 105873.000000 0 0 1
18.802477 27.563523 2.976287 33.498346 0.972150 1.481830 0.086110 -0.033293 -474238.000000 0 0 1
18.370377 26.242723 2.423487 32.125139 0.960058 1.495286 0.065594 -0.013992 122408.000000 0 0 1
19.369577 25.319823 1.968587 31.939776 0.917766 1.509123 0.069008 -0.012948 17814.400000 0 0 1
19.999377 24.652423 2.996187 31.885642 0.889231 1.476691 0.072689 -0.010721 -1213590.000000 0 0 1
21.110877 23.756523 2.471287 31.877088 0.844296 1.493193 0.061221 0.004822 -549645.000000 0 0 1
20.747477 22.636523 1.628987 30.749367 0.828913 1.517795 0.063104 0.007916 303078.000000 0 0 1
21.922477 21.927523 1.290087 31.033459 0.785513 1.529214 0.033547 0.004420 116487.000000 0 0 1
21.734677 20.932723 0.091787 30.175876 0.766605 1.567755 0.055665 -0.004152 -136528.000000 0 0 1
21.504777 21.569423 -1.195113 30.481531 0.786899 1.610014 0.037861 0.003839 396744.000000 0 0 1
21.668577 20.657023 -2.282313 30.024137 0.761503 1.646886 0.075226 -0.006537 -2782.370000 0 0 1
21.438777 21.321223 -3.643913 30.454783 0.782649 1.690734 0.057974 -0.009695 -402328.000000 0 0 1
22.268977 22.415723 -3.905513 31.837478 0.788682 1.693776 0.052135 -0.006019 216753.000000 0 0 1
21.864377 23.118523 -5.043313 32.217264 0.813271 1.727984 0.048761 -0.004696 379891.000000 0 0 1
22.895277 24.303823 -5.332113 33.812733 0.815232 1.729153 0.039446 0.003138 431091.000000 0 0 1
22.851877 25.500423 -4.556213 34.543291 0.840119 1.703080 0.029537 0.006890 217854.000000 0 0 1
23.343477 25.450123 -3.196213 34.682019 0.828546 1.663085 0.044355 0.006638 294402.000000 0 0 1
22.249677 25.137223 -2.124213 33.636890 0.846258 1.633990 0.034259 0.006540 -657548.000000 0 0 1
21.258377 26.077323 -1.880313 33.696898 0.886852 1.626626 0.042267 0.002049 580222.000000 0 0 1
20.105377 25.765523 -1.108913 32.700429 0.908171 1.604714 0.047353 -0.000181 466341.000000 0 0 1
19.170677 24.713123 -1.736313 31.325199 0.911031 1.626253 0.052438 -0.005380 -1385470.000000 0 0 1
18.631677 25.054123 -2.937313 31.360425 0.931367 1.664597 0.036923 -0.004343 -118188.000000 0 0 1
17.897877 23.971523 -3.451013 30.114405 0.929455 1.685645 0.037078 -0.010279 -182981.000000 0 0 1
17.225577 24.301023 -4.785713 30.168912 0.954161 1.730100 0.033338 -0.006833 -249030.000000 0 0 1
16.512777 23.232623 -5.372013 29.004915 0.952887 1.757082 0.033590 -0.012265 206900.000000 0 0 1
16.199377 23.530823 -6.728813 29.349555 0.967876 1.802118 0.028233 -0.005021 147325.000000 0 0 1
15.469377 22.338123 -7.450613 28.174545 0.965115 1.838425 0.035574 -0.008388 -152932.000000 0 0 1
16.263177 21.203923 -7.677113 27.803513 0.916511 1.850551 0.027805 -0.011367 87308.600000 0 0 1
15.479477 20.175923 -8.228713 26.728146 0.916362 1.883747 0.051490 -0.012385 -62258.400000 0 0 1
16.263477 18.851823 -8.477713 26.301398 0.858975 1.898985 0.044191 -0.008417 -127875.000000 0 0 1
17.268677 19.040823 -9.459113 27.390417 0.834166 1.923402 0.044409 -0.013400 35213.700000 0 0 1
17.598777 17.756523 -9.859213 26.874061 0.789860 1.946436 0.041409 -0.012023 87725.600000 0 0 1
19.102077 17.696423 -10.280313 27.995313 0.747218 1.946810 0.039301 -0.013136 339101.000000 0 0 1
19.287377 18.396223 -11.523213 29.038050 0.761754 1.978859 0.041479 -0.018307 507062.000000 0 0 1
20.674377 18.381423 -11.848113 30.094590 0.726756 1.975445 0.047535 -0.008031 457893.000000 0 0 1
20.991977 18.988923 -13.258413 31.257444 0.735340 2.008839 0.053533 -0.015561 -19455.900000 0 0 1
20.748877 17.997423 -14.287613 30.960604 0.714505 2.050456 0.054940 -0.009788 275517.000000 0 0 1
20.993677 18.542323 -15.527513 32.025862 0.723474 2.076980 0.056784 -0.011153 -68954.700000 0 0 1
20.925177 17.448123 -16.652813 31.931430 0.695034 2.119425 0.057276 -0.010298 -302131.000000 0 0 1
21.965177 16.507423 -16.576713 32.089740 0.644478 2.113641 0.063826 -0.016667 -147173.000000 0 0 1
22.019277 15.499023 -17.603213 32.170505 0.613328 2.149794 0.070468 -0.020745 -188243.000000 0 0 1
22.933977 15.795223 -18.850213 33.627175 0.603119 2.165864 0.061125 -0.019437 666241.000000 0 0 1
24.278377 16.063223 -18.393613 34.435327 0.584505 2.134298 0.072560 -0.020063 874319.000000 0 0 1
25.011177 16.539023 -19.512413 35.774747 0.584254 2.147691 0.093884 -0.020949 312430.000000 0 0 1
26.526977 16.824123 -19.323513 36.879937 0.565207 2.122287 0.075740 -0.018626 491454.000000 0 0 1
26.915977 17.983023 -18.571113 37.319501 0.589006 2.091655 0.062949 -0.017183 -24359.200000 0 0 1
28.277677 18.040623 -18.204213 38.163916 0.567880 2.068035 0.059764 -0.029064 -124523.000000 0 0 1
28.621177 19.329823 -17.426413 38.684541 0.594002 2.038093 0.062260 -0.020944 427972.000000 0 0 1
27.885277 19.314523 -16.193313 37.588068 0.605771 2.016186 0.052250 -0.021737 939666.000000 0 0 1
26.545377 19.841723 -16.267913 36.918776 0.641876 2.027109 0.045005 -0.013262 572249.000000 0 0 1
25.619677 19.263323 -15.182113 35.467450 0.644713 2.013139 0.049329 -0.005566 -367430.000000 0 0 1
25.947277 19.641323 -13.864813 35.373377 0.647947 1.973553 0.047115 -0.010100 -260342.000000 0 0 1
25.073077 19.259023 -12.831013 34.120434 0.654995 1.956327 0.056155 -0.016587 -278329.000000 0 0 1
25.585377 19.575123 -11.396113 34.171162 0.653089 1.910811 0.052358 -0.007348 -150872.000000 0 0 1
25.357777 20.932923 -11.073913 34.696335 0.690099 1.895646 0.057925 -0.007304 83315.000000 0 0 1
25.934777 21.326523 -9.827613 34.985929 0.688200 1.855530 0.055040 -0.001355 32411.400000 0 0 1
25.038277 21.157523 -8.586413 33.886318 0.701588 1.826978 0.053722 -0.001202 -730138.000000 0 0 1
24.928377 19.840523 -8.209013 32.900733 0.672237 1.822969 0.059456 -0.002122 240121.000000 0 0 1
24.134677 19.628223 -7.049013 31.897309 0.682786 1.793627 0.055297 -0.005187 -669088.000000 0 0 1
22.649277 19.545623 -7.342113 30.804671 0.711975 1.811457 0.046097 -0.011232 -1633270.000000 0 0 1
22.002977 20.763723 -7.513413 31.172336 0.756429 1.814221 0.046504 -0.007772 5219.940000 0 0 1
20.695577 20.402123 -7.950013 30.128993 0.778258 1.837824 0.045027 -0.011960 340961.000000 0 0 1
19.709577 21.622223 -7.958113 30.320282 0.831641 1.836376 0.035496 -0.011754 -131296.000000 0 0 1
20.040577 22.556623 -8.970413 31.478473 0.844396 1.859771 0.041087 -0.011505 111303.000000 0 0 1
19.541577 22.273523 -10.268313 31.359549 0.850639 1.904387 0.043362 -0.007351 -305515.000000 0 0 1
18.089877 22.690323 -10.537813 30.872964 0.897734 1.919126 0.031772 -0.009356 -430840.000000 0 0 1
17.864277 24.032123 -10.255013 31.651866 0.931565 1.900744 0.033317 -0.010606 -359131.000000 0 0 1
16.582577 24.454823 -10.624713 31.399120 0.974927 1.915987 0.031334 -0.006595 -146577.000000 0 0 1
16.125777 25.821823 -10.030813 32.053462 1.012555 1.889083 0.030285 -0.005767 240622.000000 0 0 1
17.035477 26.861323 -10.381013 33.458983 1.005608 1.886264 0.048124 0.001909 226450.000000 0 0 1
16.728177 28.085123 -9.785513 34.122753 1.033601 1.861654 0.032065 -0.009175 -42589.800000 0 0 1
19.888977 28.915023 33.764936 48.700317 0.968277 0.804709 0.045214 0.001738 917557.000000 0 0 1
18.482477 29.151223 33.654899 48.208381 1.005737 0.798038 0.052261 -0.015432 185273.000000 0 0 1
17.705077 28.056623 34.053016 47.542105 1.007860 0.772353 0.048598 -0.017388 282905.000000 0 0 1
16.213277 28.496623 34.104176 47.307745 1.053517 0.765696 0.061954 -0.026344 388094.000000 0 0 1
15.698277 28.988923 32.837647 46.530685 1.074482 0.787357 0.062509 -0.029987 -77352.900000 0 0 1
14.400077 29.541623 32.932082 46.525173 1.117239 0.784370 0.069974 -0.032208 -666.182000 0 0 1
13.730077 29.521723 31.560593 45.344439 1.135470 0.800958 0.078054 -0.038158 -286598.000000 0 0 1
13.417877 28.255023 31.057293 44.078807 1.127442 0.788957 0.077481 -0.038744 -425511.000000 0 0 1
12.040977 28.109623 30.850953 43.438662 1.166085 0.780987 0.073845 -0.025225 -526905.000000 0 0 1
11.494777 26.693123 30.716003 42.286234 1.164169 0.757752 0.063286 -0.026545 -174060.000000 0 0 1
11.663477 25.988523 29.521233 41.023691 1.148946 0.767550 0.061775 -0.020702 1118910.000000 0 0 1
13.013277 25.485123 29.368533 41.004239 1.098687 0.772409 0.049190 -0.021328 982941.000000 0 0 1
13.043677 24.557023 28.165063 39.578475 1.082534 0.778987 0.066634 -0.015366 -202799.000000 0 0 1
12.718677 25.246023 26.992573 39.086128 1.104122 0.808489 0.057376 -0.018698 140477.000000 0 0 1
12.736977 24.484423 25.776793 37.764542 1.091114 0.819528 0.065042 -0.016451 138444.000000 0 0 1
11.525277 23.529923 25.541853 36.590648 1.115331 0.798135 0.070173 -0.009132 -76950.000000 0 0 1
11.483777 23.075623 24.225573 35.372870 1.109024 0.816381 0.079051 -0.008663 84723.000000 0 0 1
10.341577 22.374023 23.749213 34.228208 1.137832 0.803976 0.079361 -0.006849 42258.700000 0 0 1
10.416177 21.995223 22.288523 33.000982 1.128519 0.829303 0.076440 -0.011352 -262855.000000 0 0 1
10.357677 23.063323 21.421723 33.137419 1.148693 0.867873 0.075258 -0.009068 -185772.000000 0 0 1
10.399377 22.669023 20.039323 31.993845 1.140691 0.893935 0.072423 0.000765 -430985.000000 0 0 1
10.123077 23.848423 19.069423 32.169347 1.169370 0.936287 0.058008 -0.004551 834427.000000 0 0 1
8.767177 24.321823 19.014323 32.092974 1.224829 0.936667 0.050462 -0.006274 683930.000000 0 0 1
8.241777 25.068223 20.143023 33.197652 1.253155 0.918818 0.048089 -0.012788 204187.000000 0 0 1
6.825377 25.642823 19.874823 33.153412 1.310657 0.927944 0.039539 -0.012108 315211.000000 0 0 1
6.827377 26.620323 18.821423 33.309168 1.319735 0.970300 0.041485 -0.016420 -322993.000000 0 0 1
5.564577 27.191923 18.623423 33.424498 1.368942 0.979812 0.027150 -0.017440 -669489.000000 0 0 1
5.602977 28.280623 17.525223 33.739005 1.375208 1.024607 0.029296 -0.013744 187.958000 0 0 1
5.976977 27.663323 16.318123 32.669019 1.358006 1.047777 0.029972 -0.014871 -52268.700000 0 0 1
6.512477 28.669423 15.480423 33.226370 1.347429 1.086136 0.024557 -0.010467 225647.000000 0 0 1
7.197177 28.165023 14.190523 32.348707 1.320614 1.116674 0.026856 -0.017055 489627.000000 0 0 1
6.284277 28.020323 13.104323 31.565074 1.350171 1.142686 0.017418 -0.017196 40058.600000 0 0 1
6.720277 26.924023 12.309023 30.357490 1.326193 1.153304 0.013620 -0.017707 281500.000000 0 0 1
6.204777 26.945723 10.823023 29.693586 1.344472 1.197711 0.008238 -0.015200 129992.000000 0 0 1
6.879877 27.825123 9.883823 30.319303 1.328404 1.238736 -0.000791 -0.009400 180676.000000 0 0 1
6.829977 29.185523 10.141923 31.643355 1.340914 1.244531 -0.005845 -0.004097 -341217.000000 0 0 1
6.877277 29.992123 8.845123 32.016567 1.345390 1.290888 -0.008244 0.002469 415964.000000 0 0 1
5.750777 29.912623 7.942323 31.478833 1.380861 1.315733 -0.008205 0.000682 445573.000000 0 0 1
5.902477 28.852223 6.986223 30.267100 1.369005 1.337877 -0.014372 0.009185 -1465840.000000 0 0 1
4.595577 28.270623 6.634823 29.400142 1.409649 1.343162 -0.013278 0.009580 -1277630.000000 0 0 1
3.794577 29.172423 5.904023 30.004776 1.441448 1.372734 -0.002001 0.006410 -416625.000000 0 0 1
2.518877 28.726423 5.535023 29.363048 1.483335 1.381159 0.002537 -0.007827 -338226.000000 0 0 1
1.703977 29.797623 4.864023 30.240049 1.513674 1.409247 0.005311 -0.004168 -909177.000000 0 0 1
2.254077 30.127923 3.582123 30.423744 1.496119 1.452782 -0.002020 -0.002164 495783.000000 0 0 1
1.476877 31.002123 2.690623 31.153688 1.523194 1.484322 -0.004533 -0.017054 962714.000000 0 0 1
0.123777 30.334523 2.273323 30.419839 1.566716 1.495995 0.023120 -0.011685 -116361.000000 0 0 1
0.417177 29.338423 1.346823 29.372283 1.556578 1.524927 0.036812 -0.005814 486737.000000 0 0 1
-0.630823 28.327623 1.311023 28.364960 -1.548531 1.524560 0.051762 -0.011412 786372.000000 0 0 1
-0.939423 27.914923 -0.102677 27.930914 -1.537156 1.574472 0.052358 -0.021493 -305489.000000 0 0 1
-1.812123 28.861323 -0.639377 28.925224 -1.508091 1.592903 0.060744 -0.020241 -313614.000000 0 0 1
-1.345823 29.344923 -1.920677 29.438491 -1.524966 1.636086 0.054939 -0.022097 -373317.000000 0 0 1
-2.157123 30.491923 -2.622077 30.680382 -1.500170 1.656365 0.050375 -0.022233 996729.000000 0 0 1
-3.473423 30.177523 -3.117077 30.536269 -1.456201 1.673052 0.041599 -0.024887 876448.000000 0 0 1
-3.473523 29.181423 -4.152577 29.679365 -1.452322 1.711172 0.030756 -0.025747 -1174520.000000 0 0 1
-4.849323 28.669823 -4.607877 29.439891 -1.403238 1.727961 0.031231 -0.022968 -396898.000000 0 0 1
-5.402323 29.730923 -5.400377 30.696530 -1.391050 1.747645 0.024367 -0.021023 -440533.000000 0 0 1
-6.307023 29.277423 -6.346777 30.614173 -1.358616 1.779626 0.021738 -0.024392 -440230.000000 0 0 1
-6.967223 30.458223 -7.093777 32.040088 -1.345918 1.794049 0.025175 -0.022158 -418645.000000 0 0 1
-7.881523 31.142323 -6.292477 32.734660 -1.322920 1.764227 0.019551 -0.014881 -109483.000000 0 0 1
-7.993823 32.461623 -6.834277 34.122800 -1.329346 1.772445 0.020383 -0.017710 -404634.000000 0 0 1
-8.893923 33.412423 -6.069977 35.104651 -1.310643 1.744581 0.023795 -0.016090 568919.000000 0 0 1
-10.289123 33.088023 -6.119677 35.187125 -1.269313 1.745603 0.038939 -0.021647 489636.000000 0 0 1
-11.149023 34.182123 -5.926177 36.439509 -1.255511 1.734152 0.033568 -0.020328 360880.000000 0 0 1
-12.644023 33.786423 -6.033777 36.575951 -1.212698 1.736520 0.070908 -0.023792 294819.000000 0 0 1
-13.081723 33.722223 -7.379077 36.915723 -1.200742 1.772042 0.070246 -0.023295 600341.000000 0 0 1
-14.510323 33.623023 -7.427377 37.366069 -1.163383 1.770902 0.084832 -0.025995 55782.500000 0 0 1
-15.003423 33.410823 -8.877977 37.685598 -1.148725 1.808612 0.104189 -0.029825 685393.000000 0 0 1
-16.426323 33.306023 -9.005977 38.212863 -1.112609 1.808714 0.131521 -0.034722 798241.000000 0 0 1
-17.136323 -34.096682 -8.944577 39.194933 1.105087 1.801033 0.128866 -0.039167 -521968.000000 0 0 1
-18.649723 -34.299582 -9.263177 40.125802 1.072779 1.803751 0.111587 -0.036671 522878.000000 0 0 1
-19.496323 33.585723 -8.406977 39.733923 -1.044843 1.783989 0.104962 -0.037802 121401.000000 0 0 1
-19.560423 34.033023 -7.092777 39.889401 -1.049151 1.749558 0.111599 -0.033545 -559920.000000 0 0 1
-20.660923 33.502923 -6.114977 39.833560 -1.018195 1.724919 0.103365 -0.024440 -302576.000000 0 0 1
-20.381823 33.935623 -4.819077 39.878173 -1.029934 1.691937 0.104963 -0.030993 457484.000000 0 0 1
-21.402623 33.467823 -3.929177 39.919993 -1.001839 1.669382 0.082766 -0.016996 613296.000000 0 0 1
-22.576823 -34.102482 -3.880177 41.082210 0.986011 1.665386 0.088885 -0.026176 -231369.000000 0 0 1
-23.369423 -34.223482 -5.028577 41.745218 0.971675 1.691548 0.083466 -0.032796 -229401.000000 0 0 1
-23.961123 -32.931682 -5.310677 41.071090 0.941785 1.700464 0.083354 -0.031333 438477.000000 0 0 1
-24.648023 -32.949382 -6.742377 41.697080 0.928540 1.733208 0.103218 -0.025333 387755.000000 0 0 1
-23.673023 -32.736682 -7.752777 41.136455 0.944712 1.760395 0.121907 -0.028671 284580.000000 0 0 1
-24.080623 -33.262482 -8.974077 42.033358 0.944172 1.785951 0.081728 -0.021161 88128.300000 0 0 1
-25.230073 -32.614282 -9.785177 42.379213 0.912368 1.803794 0.057890 -0.011019 452758.000000 0 0 1
-26.507303 -32.752282 -9.145077 43.115908 0.890394 1.784524 0.064317 -0.000133 128986.000000 0 0 1
-27.567593 -32.093882 -9.778177 43.423521 0.861119 1.797926 0.004998 0.007933 -91254.300000 0 0 1
-27.643693 -30.552882 -9.556877 42.296410 0.835346 1.798715 -0.013080 0.013307 -616964.000000 0 0 1
-26.669673 -29.860782 -10.292077 41.338416 0.841788 1.822414 -0.002178 0.016010 -227596.000000 0 0 1
-26.980913 -29.677182 -11.662177 41.769740 0.832951 1.853759 0.006255 0.008290 306609.000000 0 0 1
-25.979583 -28.688982 -12.371877 40.633235 0.834918 1.880185 0.036873 0.000362 -565798.000000 0 0 1
-24.697023 -29.189082 -12.429077 40.204818 0.868568 1.885089 0.049750 -0.011164 -1337040.000000 0 0 1
-23.961423 -28.565082 -13.436377 39.631426 0.872819 1.916686 0.049586 -0.016213 -708147.000000 0 0 1
-22.545423 -29.125182 -13.525777 39.236705 0.912057 1.922740 0.076024 -0.025142 -678451.000000 0 0 1
-22.418423 -30.401482 -14.155477 40.338733 0.935400 1.929345 0.082920 -0.032454 35521.600000 0 0 1
-22.825923 -31.547482 -13.388677 41.176730 0.944445 1.901968 0.077848 -0.030505 -112968.000000 0 0 1
-23.346723 -32.726182 -14.261677 42.655221 0.951136 1.911709 0.070558 -0.028624 162969.000000 0 0 1
-23.780223 -33.865982 -13.482777 43.522282 0.958605 1.885769 0.062061 -0.033544 65642.300000 0 0 1
-23.852923 33.607623 -14.318277 43.628515 -0.953558 1.905179 0.061721 -0.040497 -168957.000000 0 0 1
-24.218023 32.286523 -13.621977 42.596836 -0.927233 1.896303 0.042048 -0.035902 -67964.700000 0 0 1
-23.337723 31.784423 -12.636977 41.407633 -0.937451 1.880929 0.046488 -0.032264 81376.600000 0 0 1
-23.068423 32.654823 -11.527677 41.609818 -0.955766 1.851511 0.075592 -0.028296 -182012.000000 0 0 1
-22.292823 31.999823 -10.442477 40.373307 -0.962319 1.832419 0.081092 -0.027405 -383032.000000 0 0 1
-23.154423 31.115623 -9.803577 40.005242 -0.931055 1.818375 0.073461 -0.030026 44077.500000 0 0 1
-22.501823 30.509123 -8.694677 38.893907 -0.935315 1.796250 0.076763 -0.024649 -206394.000000 0 0 1
-23.282723 29.438623 -7.903277 38.355958 -0.901635 1.778334 0.064659 -0.026022 -264438.000000 0 0 1
-23.265923 28.198423 -8.610477 37.557883 -0.880949 1.802113 0.065147 -0.015576 377571.000000 0 0 1
-24.017523 27.119023 -8.087677 37.117292 -0.845975 1.790454 0.055143 -0.012685 139498.000000 0 0 1
-23.177223 26.484123 -6.926477 35.868768 -0.851889 1.765123 0.051755 -0.007067 362825.000000 0 0 1
-23.042723 27.342823 -5.806477 36.225850 -0.870536 1.731776 0.054991 -0.001325 192145.000000 0 0 1
-22.111923 26.821523 -4.880077 35.101943 -0.881348 1.710274 0.044333 0.002272 410175.000000 0 0 1
-20.735923 27.568123 -4.865377 34.837506 -0.925908 1.710914 0.054420 -0.003294 175297.000000 0 0 1
-19.903423 27.266723 -5.964177 34.281071 -0.940249 1.745665 0.068864 -0.015376 343978.000000 0 0 1
-18.734923 28.092423 -5.787377 34.258945 -0.982630 1.740541 0.080550 -0.015770 660531.000000 0 0 1
-17.697023 27.940223 -6.941177 33.793796 -1.006187 1.777667 0.075596 -0.013125 -64135.300000 0 0 1
-18.076023 28.417623 -8.272877 34.680605 -1.004265 1.811663 0.077078 -0.018688 131585.000000 0 0 1
-18.035623 29.844423 -8.348977 35.856362 -1.027205 1.805798 0.088693 -0.024307 -168800.000000 0 0 1
-18.161223 30.530723 -9.747577 36.837078 -1.034172 1.838599 0.091952 -0.029230 -831536.000000 0 0 1
-17.106923 30.294523 -10.611377 36.373153 -1.056747 1.866838 0.087229 -0.026441 -357881.000000 0 0 1
-16.989723 31.375923 -11.510977 37.491357 -1.074511 1.882867 0.084094 -0.027413 1442530.000000 0 0 1
-15.460223 31.517323 -11.981477 37.093341 -1.114753 1.899703 0.080653 -0.029570 1660660.000000 0 0 1
-15.184823 32.275123 -13.150177 38.015649 -1.131042 1.924010 0.077629 -0.028886 -134889.000000 0 0 1
-15.502223 31.540323 -14.346777 37.959727 -1.113968 1.958374 0.076906 -0.031622 -55676.700000 0 0 1
-14.817123 32.127723 -15.589977 38.662451 -1.138672 1.985843 0.094441 -0.036931 596883.000000 0 0 1
-13.403523 31.986323 -15.696477 38.067817 -1.173985 1.995806 0.082157 -0.036522 320644.000000 0 0 1
-12.969123 32.228623 -17.025977 38.688062 -1.188214 2.026488 0.077152 -0.045543 -95584.800000 0 0 1
-11.445323 32.152323 -17.238477 38.235224 -1.228811 2.038517 0.099498 -0.044485 -320036.000000 0 0 1
-10.948423 30.857423 -17.140777 36.957472 -1.229846 2.053073 0.094025 -0.048258 416475.000000 0 0 1
-9.659823 30.613723 -17.718577 36.666881 -1.265145 2.075138 0.088509 -0.045849 476153.000000 0 0 1
-9.517323 30.745523 -19.272377 37.513879 -1.270600 2.110335 0.087665 -0.044981 -12906.900000 0 0 1
-10.425523 29.845323 -19.938877 37.376378 -1.234729 2.133485 0.076456 -0.050648 548242.000000 0 0 1
-9.994023 29.634923 -21.274177 37.824592 -1.245536 2.168134 0.073503 -0.047497 -694143.000000 0 0 1
-11.194323 29.502223 -22.215177 38.590259 -1.208139 2.184217 0.075907 -0.041910 -13979.100000 0 0 1
-12.011323 30.652723 -22.371877 39.804047 -1.197334 2.167659 0.081779 -0.036685 -320633.000000 0 0 1
-13.033423 30.665523 -21.419077 39.610873 -1.168910 2.142110 0.092916 -0.036367 -672475.000000 0 0 1
-14.072723 31.805823 -21.691277 40.989796 -1.154232 2.128439 0.125435 -0.039524 171243.000000 0 0 1
-14.744723 31.751723 -22.903477 41.834770 -1.136052 2.150140 0.107476 -0.033147 -223258.000000 0 0 1
-15.414923 32.977023 -23.144277 43.136544 -1.133531 2.137122 0.103901 -0.029582 338933.000000 0 0 1
-15.961623 33.086823 -24.610377 44.217439 -1.121314 2.161055 0.088191 -0.013336 569728.000000 0 0 1
-14.895123 33.228223 -25.544077 44.480101 -1.149384 2.182522 0.095027 -0.008692 485292.000000 0 0 1
-15.412823 33.145423 -26.900777 45.385306 -1.135534 2.205228 0.091673 -0.004141 412095.000000 0 0 1
-15.886923 -34.102782 -27.455077 46.574406 1.134837 2.201222 0.079051 0.000602 561708.000000 0 0 1
-17.059423 -33.588482 -26.826077 46.247686 1.100853 2.189589 0.072181 0.010635 231147.000000 0 0 1
-17.656123 -32.567682 -27.642577 46.222339 1.074011 2.211843 0.055285 0.013010 229644.000000 0 0 1
-19.060923 -32.126282 -27.172977 46.192937 1.035309 2.199689 0.040570 0.002802 153558.000000 0 0 1
-20.008823 -33.155482 -27.300177 47.380784 1.027819 2.184852 0.030863 0.005573 -713126.000000 0 0 1
-21.336023 -32.705482 -27.144377 47.557246 0.992758 2.178243 0.026808 0.004732 -79901.100000 0 0 1
-22.319923 -33.840382 -27.234177 48.836982 0.987727 2.162354 0.011978 0.014787 -412355.000000 0 0 1
-22.190123 33.821223 -26.180177 48.183798 -0.990144 2.145207 0.029852 0.007971 -307218.000000 0 0 1
-23.307023 32.952423 -26.170877 48.103995 -0.955192 2.146050 0.016596 0.011465 242600.000000 0 0 1
-23.197523 31.710423 -27.069377 47.711918 -0.939213 2.174081 0.018111 0.005468 254840.000000 0 0 1
-22.347923 30.658723 -26.646177 46.361684 -0.940920 2.183090 0.027241 -0.017950 99669.200000 0 0 1
-23.052523 29.782923 -25.757177 45.627552 -0.912100 2.170635 0.015816 -0.014773 399575.000000 0 0 1
31.637173 9.943723 -26.313923 42.334512 0.304528 2.241543 0.028708 -0.006430 -45970.100000 0 0 1
30.993063 8.711823 -26.590103 41.755232 0.274019 2.261149 0.026161 -0.004514 -570524.000000 0 0 1
29.622963 8.778623 -26.339013 40.599603 0.288100 2.276738 0.034027 -0.003099 -239268.000000 0 0 1
29.000433 7.378623 -26.158783 39.746083 0.249145 2.289152 0.026185 0.001831 144440.000000 0 0 1
29.535693 6.827123 -24.958913 39.267214 0.227159 2.259604 0.019346 0.003196 194384.000000 0 0 1
29.032953 5.537523 -24.724913 38.534372 0.188469 2.267421 0.023702 0.008844 -85377.400000 0 0 1
29.032903 5.122223 -23.192013 37.510213 0.174631 2.237355 0.027400 0.000143 455376.000000 0 0 1
30.249643 4.906823 -22.450013 37.988431 0.160810 2.203057 0.035718 -0.005734 628050.000000 0 0 1
30.051653 4.671623 -21.112213 37.022310 0.154219 2.177614 0.024294 -0.006829 -217220.000000 0 0 1
31.388583 4.461323 -20.363713 37.680596 0.141186 2.141744 0.021139 -0.008942 142634.000000 0 0 1
31.949653 3.142623 -20.541813 38.113285 0.098046 2.140007 0.025438 -0.007513 479776.000000 0 0 1
32.852883 2.834223 -19.482913 38.300504 0.086057 2.104454 0.038392 -0.016097 117789.000000 0 0 1
33.285613 1.314923 -19.453613 38.575952 0.039484 2.099360 0.039258 -0.016146 242785.000000 0 0 1
32.232593 0.543023 -18.923113 37.380732 0.016845 2.101600 0.038718 -0.016699 121652.000000 0 0 1
32.711863 -0.835477 -18.991313 37.834296 -0.025535 2.096660 0.049983 -0.015927 494359.000000 0 0 1
31.661453 -1.939077 -18.640113 36.792138 -0.061168 2.102071 0.042646 -0.015593 305551.000000 0 0 1
31.414783 -2.206577 -17.272213 35.917780 -0.070125 2.072457 0.041006 -0.008625 -576692.000000 0 0 1
30.114013 -1.807277 -16.980513 34.618750 -0.059943 2.083460 0.044594 -0.014958 -729311.000000 0 0 1
29.535813 -2.133877 -15.582113 33.462216 -0.072122 2.055180 0.064165 -0.018260 -399209.000000 0 0 1
29.251913 -3.519177 -15.438213 33.262553 -0.119730 2.053451 0.040385 -0.017715 280718.000000 0 0 1
28.777313 -3.867177 -14.178713 32.312918 -0.133583 2.025052 0.044294 -0.015383 -218833.000000 0 0 1
28.978973 -5.417677 -14.090613 32.675334 -0.184819 2.016653 0.047946 -0.013092 65616.300000 0 0 1
28.148543 -6.165577 -14.973213 32.473865 -0.215632 2.050014 0.039495 -0.012939 464559.000000 0 0 1
27.883703 -7.490577 -14.419613 32.272819 -0.262440 2.033986 0.039088 -0.013344 101589.000000 0 0 1
26.909733 -8.312277 -15.307613 32.055431 -0.299597 2.068644 0.024476 -0.006907 -607701.000000 0 0 1
25.677633 -7.754277 -15.577413 31.018147 -0.293278 2.096941 0.032383 -0.018206 -662351.000000 0 0 1
24.957833 -8.624677 -16.433213 31.101913 -0.332723 2.127472 0.031288 -0.010817 -320786.000000 0 0 1
23.580733 -8.229977 -16.932413 30.174328 -0.335795 2.166574 0.053168 -0.012572 -429086.000000 0 0 1
23.717933 -7.196677 -17.815713 30.524287 -0.294598 2.194021 0.044163 -0.010682 1010750.000000 0 0 1
22.401333 -6.766777 -18.233613 29.666035 -0.293355 2.232712 0.042297 -0.016284 1028870.000000 0 0 1
22.136033 -7.093077 -19.724213 30.485411 -0.310094 2.274446 0.045456 -0.012800 -328896.000000 0 0 1
22.943833 -6.389877 -20.618213 31.501757 -0.271618 2.284331 0.043129 -0.015063 -76876.400000 0 0 1
22.776133 -6.857077 -21.906213 32.336572 -0.292433 2.315078 0.062281 -0.011525 540821.000000 0 0 1
24.009533 -6.414677 -22.780313 33.712734 -0.261074 2.312735 0.073323 -0.020306 470677.000000 0 0 1
23.920333 -6.703177 -24.175013 34.663326 -0.273221 2.342592 0.076400 -0.019782 131469.000000 0 0 1
23.482133 -5.590777 -24.930513 34.701554 -0.233735 2.372334 0.079919 -0.024799 -87910.600000 0 0 1
23.577033 -5.718377 -26.466883 35.903652 -0.237945 2.399660 0.091137 -0.023200 -28250.200000 0 0 1
22.649333 -6.643877 -26.980173 35.847777 -0.285332 2.422846 0.107265 -0.026984 -217188.000000 0 0 1
22.626833 -6.617677 -28.380893 36.895017 -0.284535 2.448437 0.100741 -0.029136 761391.000000 0 0 1
21.354233 -7.301977 -29.026693 36.767799 -0.329481 2.480724 0.088407 -0.032494 772600.000000 0 0 1
21.226633 -8.648977 -28.671373 36.707252 -0.386920 2.467193 0.074318 -0.019041 -477294.000000 0 0 1
20.158133 -9.268677 -29.302583 36.754592 -0.430972 2.493521 0.090783 -0.026654 -549801.000000 0 0 1
20.005333 -10.761977 -28.903573 36.762073 -0.493549 2.475486 0.094912 -0.021295 -263332.000000 0 0 1
19.222233 -11.015677 -27.745413 35.505596 -0.520382 2.467763 0.100415 -0.024221 146139.000000 0 0 1
19.251533 -12.356577 -27.293023 35.612015 -0.570624 2.444013 0.097732 -0.022679 -233626.000000 0 0 1
18.964533 -13.497277 -28.310213 36.651032 -0.618543 2.453449 0.086800 -0.012714 -304836.000000 0 0 1
17.649133 -13.597577 -28.791863 36.405458 -0.656454 2.483020 0.086025 -0.015990 22722.700000 0 0 1
17.670833 -14.581777 -29.770423 37.565471 -0.689912 2.485684 0.077687 -0.009092 221689.000000 0 0 1
16.381533 -14.703777 -30.636423 37.724609 -0.731478 2.518551 0.066699 -0.012881 669656.000000 0 0 1
15.342333 -15.511877 -30.071973 37.152780 -0.790893 2.513950 0.052616 -0.011103 1108840.000000 0 0 1
14.295233 -15.858977 -30.997123 37.638843 -0.837210 2.538421 0.042467 -0.013359 -5314.530000 0 0 1
13.100333 -16.504077 -30.311843 36.916272 -0.899870 2.534127 0.042973 -0.018009 -632425.000000 0 0 1
13.356533 -17.769477 -29.788893 37.168931 -0.926236 2.500506 0.040211 -0.019128 98960.300000 0 0 1
12.388033 -18.130877 -28.813623 36.227295 -0.971396 2.490392 0.042419 -0.024145 -35930.200000 0 0 1
12.660633 -19.469277 -28.106103 36.459531 -0.994219 2.451026 0.042818 -0.020854 -577509.000000 0 0 1
13.517233 -19.355777 -27.042973 35.898246 -0.961174 2.423897 0.053360 -0.020094 -712197.000000 0 0 1
13.679733 -20.580877 -26.376243 36.144346 -0.984169 2.388749 0.045721 -0.016174 -156251.000000 0 0 1
14.582533 -20.586277 -25.120263 35.601583 -0.954480 2.354057 0.031689 -0.014729 -846816.000000 0 0 1
15.917933 -20.710577 -25.487003 36.495149 -0.915504 2.343910 0.046039 -0.015500 -552912.000000 0 0 1
16.708833 -20.895777 -24.316713 36.154130 -0.896283 2.308492 0.047021 -0.006703 121961.000000 0 0 1
18.243433 -21.070077 -24.497713 37.106723 -0.857175 2.291876 0.029961 -0.009959 446728.000000 0 0 1
18.760233 -22.327877 -24.990113 38.405549 -0.872010 2.279289 0.036187 -0.021785 373168.000000 0 0 1
18.582933 -23.319477 -23.992813 38.272424 -0.897958 2.248358 0.031641 -0.023892 -948774.000000 0 0 1
19.234733 -24.669177 -24.283013 39.600606 -0.908552 2.230899 0.023077 -0.021455 225574.000000 0 0 1
20.665833 -24.603277 -24.167013 40.205005 -0.872158 2.215666 0.033605 -0.021594 792029.000000 0 0 1
21.244133 -25.807467 -23.629313 40.935107 -0.882082 2.186139 0.042194 -0.030211 -108405.000000 0 0 1
21.109833 -25.959337 -22.103313 40.100731 -0.888065 2.154592 0.050271 -0.025305 -390494.000000 0 0 1
19.787033 -26.068077 -21.626813 39.227418 -0.921527 2.154740 0.029236 -0.023720 112696.000000 0 0 1
19.831133 -26.185107 -20.200213 38.561409 -0.922612 2.122155 0.030573 -0.021840 -191967.000000 0 0 1
18.540033 -26.792277 -19.656413 38.051721 -0.965465 2.113638 0.025629 -0.020723 -1023100.000000 0 0 1
18.515233 -28.217817 -19.854613 39.156924 -0.990107 2.102558 0.031795 -0.015155 342398.000000 0 0 1
17.496833 -28.891547 -19.116813 38.811251 -1.026267 2.085824 0.025553 -0.008741 581955.000000 0 0 1
16.017333 -28.562837 -19.439013 38.082356 -1.059718 2.106501 0.029364 -0.014333 -581510.000000 0 0 1
15.416133 -27.473657 -18.780513 36.676514 -1.059453 2.108376 0.035965 -0.012693 -763341.000000 0 0 1
14.161233 -27.303837 -19.348513 36.337377 -1.092337 2.132311 0.040003 -0.006129 -311397.000000 0 0 1
13.170333 -26.324107 -18.630213 34.835343 -1.106897 2.135077 0.044648 -0.014438 111240.000000 0 0 1
12.593533 -26.841377 -17.429913 34.392709 -1.132104 2.102254 0.043063 -0.016351 265266.000000 0 0 1
11.733833 -25.931797 -16.732013 33.016680 -1.145875 2.102235 0.056374 -0.023443 842151.000000 0 0 1
10.227733 -26.037887 -17.129413 32.802361 -1.196511 2.120226 0.063349 -0.016228 41675.900000 0 0 1
9.433133 -26.986857 -16.445213 32.980592 -1.234527 2.092817 0.071395 -0.015264 789028.000000 0 0 1
8.036133 -26.740177 -16.699213 32.534293 -1.278857 2.109799 0.065857 -0.002010 1279550.000000 0 0 1
7.334833 -27.526757 -17.840013 33.612322 -1.310385 2.130291 0.060869 -0.002897 12698.100000 0 0 1
7.657133 -27.015947 -19.106313 33.963867 -1.294610 2.168261 0.057016 -0.005901 -68354.000000 0 0 1
6.974233 -27.918717 -19.920013 34.998594 -1.326001 2.176288 0.045065 0.000362 -11060.900000 0 0 1
6.872133 -27.289437 -21.307413 35.297952 -1.324102 2.218861 0.042983 -0.004968 118949.000000 0 0 1
5.947333 -26.189417 -21.466813 34.381396 -1.347494 2.245125 0.058819 -0.014491 426264.000000 0 0 1
6.014333 -25.645667 -22.803813 34.840871 -1.340443 2.284335 0.046508 -0.011071 587392.000000 0 0 1
4.643133 -24.992777 -23.219113 34.428546 -1.387111 2.310968 0.033747 -0.014670 861958.000000 0 0 1
3.578333 -25.939327 -23.274613 35.033709 -1.433711 2.297419 0.027106 -0.013251 223674.000000 0 0 1
2.399433 -25.315537 -23.751313 34.795956 -1.476298 2.322095 0.030607 -0.016437 491322.000000 0 0 1
1.357833 -26.318927 -24.363313 35.890119 -1.519251 2.316965 0.027914 -0.014928 167302.000000 0 0 1
1.845733 -27.010647 -25.501093 37.192574 -1.502569 2.326293 0.017326 -0.001548 -139412.000000 0 0 1
0.893133 -27.647027 -26.308563 38.174550 -1.538503 2.331132 0.025202 -0.006096 -370578.000000 0 0 1
1.553033 -28.489297 -27.418673 39.570640 -1.516337 2.336306 0.028319 0.002820 -285568.000000 0 0 1
2.310033 -27.716587 -28.302973 39.681277 -1.487644 2.364931 0.028242 -0.005374 -211846.000000 0 0 1
2.633933 -28.486957 -29.446653 41.055447 -1.478597 2.370631 0.030647 -0.001861 308630.000000 0 0 1
4.123733 -28.891077 -29.619773 41.581612 -1.429020 2.363607 0.022273 0.004299 427659.000000 0 0 1
4.656733 -29.807807 -28.627913 41.590238 -1.415824 2.329984 0.021240 0.001844 -240007.000000 0 0 1
5.832633 -30.467357 -29.006263 42.469315 -1.381646 2.322649 0.031371 0.000748 -121172.000000 0 0 1
6.122633 -31.490027 -27.918143 42.526828 -1.378761 2.286943 0.042761 -0.004294 -151998.000000 0 0 1
5.207733 -32.553877 -27.803783 43.126856 -1.412168 2.271424 0.032716 -0.015441 -11568.700000 0 0 1
5.774633 -33.676437 -27.112033 43.617785 -1.400974 2.241557 0.050415 -0.028711 19850.000000 0 0 1
4.736033 33.887730 -26.697933 43.400321 1.431939 2.233379 0.058610 -0.027815 -531954.000000 0 0 1
4.062733 33.285359 -27.726623 43.510764 1.449339 2.261703 0.049988 -0.026099 -157676.000000 0 0 1
2.967133 32.523528 -27.235923 42.525043 1.479818 2.265904 0.043157 -0.027279 482221.000000 0 0 1
1.793633 32.645687 -28.287613 43.233633 1.515909 2.284048 0.044413 -0.017602 146533.000000 0 0 1
1.678333 31.611528 -29.220133 43.080409 1.517754 2.316202 0.050072 -0.017044 -338.802000 0 0 1
0.797433 32.023678 -30.238413 44.051260 1.545900 2.327374 0.050507 -0.020935 7664.700000 0 0 1
0.524333 30.951848 -31.375573 44.076279 1.553858 2.362921 0.045418 -0.026056 47688.900000 0 0 1
1.617133 30.724038 -32.249853 44.571680 1.518211 2.379728 0.042641 -0.022025 60287.200000 0 0 1
1.344733 29.697888 -33.149093 44.526792 1.525547 2.410545 0.037860 -0.021984 -107476.000000 0 0 1
2.566333 29.349278 -34.031623 45.012416 1.483577 2.428053 0.041073 -0.016640 -3142.010000 0 0 1
2.819333 30.294068 33.420811 45.195462 1.477998 0.738510 0.035069 -0.016106 81339.400000 0 0 1
3.611233 29.771408 32.329783 44.097535 1.450087 0.747865 0.021372 -0.019347 222909.000000 0 0 1
2.810733 28.857788 31.282653 42.652978 1.473703 0.747453 0.012623 -0.019623 469558.000000 0 0 1
2.475333 27.545888 31.650643 42.031731 1.481175 0.718160 0.018522 -0.020795 -471840.000000 0 0 1
3.520433 26.674338 31.356723 41.317767 1.439576 0.709149 0.020376 -0.019630 -419621.000000 0 0 1
3.115833 25.240488 31.551723 40.525324 1.447972 0.678415 0.028530 -0.030490 -157038.000000 0 0 1
2.168733 24.757068 30.623273 39.438569 1.483419 0.681735 0.032181 -0.011672 -180879.000000 0 0 1
2.452833 23.443628 30.334493 38.416163 1.466549 0.660593 0.040826 -0.012115 -760778.000000 0 0 1
1.345633 22.727128 29.623183 37.361291 1.511657 0.655268 0.032362 -0.001043 -341991.000000 0 0 1
0.137333 22.659328 30.394683 37.911750 1.564736 0.640626 -0.000102 0.005775 208567.000000 0 0 1
-0.771767 21.862928 29.643753 36.842032 -1.535511 0.635765 0.020477 0.003333 -362188.000000 0 0 1
-2.123567 21.647928 30.329333 37.323060 -1.473014 0.622169 0.015749 0.011294 -430254.000000 0 0 1
-2.898567 22.831728 30.375503 38.109850 -1.444518 0.648400 0.023466 0.006235 274146.000000 0 0 1
-4.267467 22.433828 30.467393 38.075582 -1.382818 0.643198 0.003119 0.011558 787627.000000 0 0 1
-5.281167 23.609468 30.717313 39.100525 -1.350731 0.667134 -0.018922 -0.000855 126883.000000 0 0 1
-5.354367 23.904978 32.088743 40.370839 -1.350448 0.652037 -0.020372 0.005700 63158.800000 0 0 1
-4.500867 24.994188 32.431865 41.192149 -1.392629 0.664328 0.000708 -0.004811 232531.000000 0 0 1
-4.807267 25.472818 33.889253 42.666799 -1.384269 0.652980 0.016358 -0.000651 261074.000000 0 0 1
-6.158967 25.883538 34.018808 43.187611 -1.337191 0.663732 0.016705 -0.001533 171435.000000 0 0 1
-6.477067 26.300288 -33.151493 42.809801 -1.329328 2.456547 0.025124 -0.006279 -323643.000000 0 0 1
-7.942567 26.635928 -32.865503 43.042982 -1.281001 2.439590 0.050977 -0.005812 -452288.000000 0 0 1
-8.315967 27.912758 -33.315463 44.251525 -1.281242 2.423202 0.050449 -0.013047 887583.000000 0 0 1
-9.622367 28.374078 -32.881623 44.484597 -1.243842 2.402632 0.048703 -0.015626 1087620.000000 0 0 1
-9.715867 28.771328 -31.375343 43.664626 -1.245127 2.372516 0.055595 -0.012675 -176452.000000 0 0 1
-9.085667 30.032218 -31.123723 44.194678 -1.277019 2.352150 0.060305 -0.013990 245240.000000 0 0 1
-9.096367 30.242238 -29.718803 43.365241 -1.278621 2.325831 0.068556 -0.019029 -112564.000000 0 0 1
-8.369767 31.523658 -29.186163 43.767866 -1.311276 2.300757 0.057643 -0.022712 170447.000000 0 0 1
-6.985567 31.646228 -29.416383 43.767631 -1.353541 2.307842 0.048538 -0.024548 -321724.000000 0 0 1
-6.505467 32.884493 -28.916213 44.270288 -1.375490 2.282565 0.056630 -0.019688 -843982.000000 0 0 1
-5.005767 32.867719 -28.703213 43.922877 -1.419657 2.282984 0.062785 -0.024850 -789658.000000 0 0 1
-4.281467 34.029528 -28.343703 44.493879 -1.445638 2.261429 0.063866 -0.024914 -797.595000 0 0 1
-3.946367 -33.627787 -29.308733 44.781734 1.453976 2.284291 0.062656 -0.030423 184261.000000 0 0 1
-2.873067 -33.967797 -30.405343 45.678777 1.486415 2.299139 0.061339 -0.032195 119466.000000 0 0 1
-3.271467 33.746494 -31.442623 46.240317 -1.474156 2.318536 0.068599 -0.030803 561720.000000 0 0 1
-4.276667 34.201103 -32.374553 47.287599 -1.446397 2.324894 0.077967 -0.032028 674839.000000 0 0 1
-3.673467 -33.496757 -33.489703 47.508813 1.461566 2.353100 0.052398 -0.030299 219671.000000 0 0 1
-3.335267 -32.162517 -32.969623 46.179514 1.467465 2.365912 0.057736 -0.032559 119297.000000 0 0 1
-2.700467 -31.318617 -33.893843 46.227058 1.484783 2.393817 0.040437 -0.029401 -18070.000000 0 0 1
32.408953 19.622023 12.641823 39.939701 0.544418 1.248735 0.050526 0.001951 -78753.500000 0 0 1
33.255823 18.756023 13.310323 40.433932 0.513522 1.235354 0.052139 -0.007157 173365.000000 0 0 1
32.721383 17.456323 13.028823 39.308553 0.490074 1.232956 0.066916 -0.003292 682981.000000 0 0 1
33.708983 16.311623 13.502623 39.808107 0.450681 1.224738 0.078988 -0.014876 241232.000000 0 0 1
34.900913 16.302823 12.765623 40.580992 0.436997 1.250791 0.075892 -0.004752 -314057.000000 0 0 1
35.811963 15.375223 13.283223 41.174485 0.405534 1.242313 0.066288 -0.011185 -639795.000000 0 0 1
-35.317349 14.968123 12.415723 40.317614 -0.400869 1.257761 0.066650 -0.018778 -321360.000000 0 0 1
-34.501928 13.986923 13.062723 39.454427 -0.385149 1.233344 0.057498 -0.019254 149746.000000 0 0 1
-35.078294 12.634223 13.316423 39.590875 -0.345708 1.227757 0.058435 -0.019181 -46377.400000 0 0 1
-34.313739 11.751023 14.352523 39.006591 -0.329940 1.193992 0.055406 -0.021788 21612.400000 0 0 1
-34.214381 12.380623 15.603023 39.589873 -0.347196 1.165690 0.048500 -0.020674 105022.000000 0 0 1
-33.873723 11.480323 16.581723 39.423096 -0.326766 1.136679 0.056572 -0.020338 -136597.000000 0 0 1
-33.716773 12.255823 17.939523 40.110503 -0.348645 1.107105 0.051515 -0.009822 853130.000000 0 0 1
-34.981588 12.256523 18.631623 41.485796 -0.337005 1.105029 0.055394 -0.005919 929296.000000 0 0 1
-34.869092 13.040523 19.765823 42.149693 -0.357881 1.082702 0.054502 -0.008017 -240275.000000 0 0 1
-36.062883 12.977523 20.713623 43.566063 -0.345430 1.075317 0.060590 -0.012668 -247747.000000 0 0 1
35.978573 11.819123 21.498023 43.546692 0.317398 1.054483 0.053723 -0.004224 274126.000000 0 0 1
34.720123 11.914723 22.144623 42.869942 0.330573 1.027975 0.061463 -0.011380 260810.000000 0 0 1
34.390663 10.766723 23.082023 42.795091 0.303405 1.001118 0.050953 -0.008820 -152952.000000 0 0 1
35.276963 10.766323 24.180653 44.103082 0.296215 0.990495 0.057063 -0.003243 150895.000000 0 0 1
34.860023 11.573723 25.289613 44.595255 0.320555 0.967825 0.049632 0.000946 -986855.000000 0 0 1
36.033343 11.689323 26.282063 46.106278 0.313692 0.964251 0.059355 -0.006719 751298.000000 0 0 1
-35.354490 12.773323 26.025153 45.720962 -0.346700 0.965243 0.072273 -0.016745 375401.000000 0 0 1
-34.483709 12.534423 24.952273 44.371769 -0.348640 0.973577 0.063392 -0.013726 -725385.000000 0 0 1
-33.442833 13.698523 24.710883 43.780137 -0.388763 0.971052 0.051467 -0.016084 324903.000000 0 0 1
-32.278783 13.815323 25.455683 43.367901 -0.404409 0.943484 0.049889 -0.019194 -269842.000000 0 0 1
-32.608653 14.485923 26.642623 44.530839 -0.418050 0.929424 0.049528 -0.015870 -548989.000000 0 0 1
-31.478163 15.060023 27.510523 44.435436 -0.446241 0.903185 0.038661 -0.008025 -242366.000000 0 0 1
-30.820463 16.202823 26.974123 44.045837 -0.484008 0.911690 0.040248 -0.016844 -277727.000000 0 0 1
-30.298323 16.963823 28.002003 44.607980 -0.510407 0.892156 0.052445 -0.024848 -190040.000000 0 0 1
-29.617993 18.189723 27.400323 44.259115 -0.550755 0.903214 0.053381 -0.016634 40026.500000 0 0 1
-30.584833 19.002123 26.762913 44.863863 -0.555929 0.931618 0.053814 -0.028048 400667.000000 0 0 1
-30.014233 20.272823 26.467573 44.859491 -0.594052 0.939724 0.051827 -0.025164 -244506.000000 0 0 1
-30.935393 21.197823 25.669293 45.445119 -0.600743 0.970555 0.048417 -0.009022 14504.700000 0 0 1
-31.952013 21.785023 26.502453 46.881749 -0.598409 0.969994 0.042760 -0.013641 562870.000000 0 0 1
-32.931693 22.435423 25.732283 47.434112 -0.598046 0.997404 0.038773 -0.002137 -296595.000000 0 0 1
-32.779453 23.932823 25.657693 48.016557 -0.630654 1.007057 0.039137 -0.001577 -135273.000000 0 0 1
-33.935193 24.591123 25.184163 48.893381 -0.627078 1.029692 0.033815 0.005387 106160.000000 0 0 1
-33.716433 25.989523 25.099533 49.419022 -0.656697 1.038060 0.042628 0.001386 -63806.800000 0 0 1
-34.710745 26.710623 24.225993 50.051893 -0.655877 1.065556 0.050561 0.001727 -140067.000000 0 0 1
-34.383040 26.343823 22.878923 48.986075 -0.653780 1.084845 0.045053 0.005896 -256957.000000 0 0 1
-35.305735 26.918023 22.011623 49.553874 -0.651407 1.110520 0.053717 -0.009372 -311402.000000 0 0 1
-34.983336 26.878123 20.458923 48.629568 -0.655118 1.136569 0.046221 -0.013199 -10403.100000 0 0 1
-34.897896 25.638423 19.806323 47.618088 -0.633617 1.141819 0.043756 -0.015287 117934.000000 0 0 1
-34.406440 25.696323 18.478723 46.750052 -0.641480 1.164439 0.051891 -0.026186 -119940.000000 0 0 1
-34.618598 24.416023 17.632423 45.885639 -0.614265 1.176381 0.042344 -0.013122 911997.000000 0 0 1
-35.931792 24.139423 17.115323 46.548251 -0.591557 1.194273 0.044402 -0.018955 333718.000000 0 0 1
-35.848412 22.998623 16.303423 45.605339 -0.570413 1.205218 0.035227 -0.015209 -109454.000000 0 0 1
35.220623 22.665023 15.470623 44.649028 0.571803 1.216965 0.040040 -0.005635 -422301.000000 0 0 1
34.187733 22.106823 16.213923 43.822414 0.574003 1.191796 0.043232 -0.009720 -84283.800000 0 0 1
33.027233 21.797923 15.439423 42.477327 0.583372 1.198802 0.046345 -0.002329 321965.000000 0 0 1
31.949913 20.946423 16.163123 41.482480 0.580303 1.170559 0.042660 -0.004681 336540.000000 0 0 1
31.124293 21.543823 17.121123 41.545045 0.605463 1.146028 0.044579 -0.007439 190465.000000 0 0 1
30.051643 22.346423 16.596623 40.962321 0.639393 1.153634 0.051764 -0.002818 432715.000000 0 0 1
29.231213 23.029223 17.729023 41.220470 0.667276 1.126190 0.052523 -0.011054 520712.000000 0 0 1
30.081313 23.793223 18.582023 42.618006 0.669207 1.119632 0.045010 -0.013742 -295429.000000 0 0 1
29.325493 24.513223 19.516623 42.915979 0.696252 1.098690 0.043895 -0.006874 9937.290000 0 0 1
30.145183 25.088423 20.675123 44.335333 0.694100 1.085653 0.039368 -0.011478 -4707.450000 0 0 1
30.838793 26.259123 20.322723 45.316506 0.705362 1.105753 0.043011 -0.018672 -384675.000000 0 0 1
31.754073 26.617523 21.312723 46.594483 0.697627 1.095717 0.032772 -0.015735 814145.000000 0 0 1
33.010583 27.420423 20.675223 47.634473 0.693156 1.121825 0.049893 -0.022611 1492660.000000 0 0 1
33.930283 28.010123 21.589423 49.009533 0.690109 1.114624 0.049599 -0.015468 739791.000000 0 0 1
33.296173 29.067823 22.367223 49.536513 0.717701 1.102317 0.032721 -0.022803 -93878.600000 0 0 1
34.010883 29.363823 23.690673 50.795888 0.712202 1.085591 0.024223 -0.020343 -756636.000000 0 0 1
35.192153 30.056523 23.610013 51.954932 0.706852 1.099061 0.058013 -0.018827 -1077260.000000 0 0 1
35.596133 30.493623 24.848733 53.050968 0.708345 1.083325 0.070981 -0.011842 109035.000000 0 0 1
-35.366995 31.279523 24.730483 53.299434 -0.724144 1.088301 0.082179 -0.028837 718085.000000 0 0 1
-34.229333 30.440023 24.559703 51.975199 -0.726870 1.078640 0.076959 -0.022446 875323.000000 0 0 1
-33.013833 31.200423 24.684473 51.698189 -0.757166 1.073020 0.083772 -0.016383 1296780.000000 0 0 1
-31.618763 30.542323 24.457833 50.306712 -0.768083 1.063090 0.093389 -0.021793 557394.000000 0 0 1
-31.100423 30.392923 23.139523 49.258539 -0.773893 1.081781 0.066085 -0.006987 341424.000000 0 0 1
-31.794783 29.404823 22.356623 48.737772 -0.746366 1.094251 0.062548 -0.008639 -71617.200000 0 0 1
-31.457333 27.910023 22.638223 47.760050 -0.725717 1.076969 0.046915 0.003762 -832617.000000 0 0 1
-30.142463 27.557723 22.313823 46.539262 -0.740632 1.070754 0.050508 0.006179 -205607.000000 0 0 1
-29.606223 26.502523 23.135723 45.980146 -0.730139 1.043536 0.048092 0.002064 280727.000000 0 0 1
-29.040803 26.871523 24.530243 46.552979 -0.746620 1.015810 0.067353 -0.002329 -286795.000000 0 0 1
-30.055673 27.269923 25.411793 47.882684 -0.736841 1.011359 0.055125 -0.004729 -203902.000000 0 0 1
-29.535543 27.500023 26.664803 48.369529 -0.749725 0.986907 0.071010 -0.014449 141588.000000 0 0 1
-30.628643 28.044023 27.685343 49.910512 -0.741375 0.982794 0.072421 -0.018478 838345.000000 0 0 1
-31.382603 26.942023 28.210323 50.065584 -0.709409 0.972219 0.052894 -0.005939 38296.800000 0 0 1
-32.270193 27.304023 29.239393 51.398610 -0.702229 0.965659 0.057646 -0.001406 -547040.000000 0 0 1
-33.083173 26.188223 29.738723 51.620839 -0.669590 0.956848 0.046557 -0.006634 -905942.000000 0 0 1
-32.448143 25.280623 30.586433 51.259358 -0.661872 0.931414 0.036538 -0.007248 -405708.000000 0 0 1
-33.154273 24.063223 30.777783 51.239794 -0.627829 0.926468 0.028575 -0.023241 -134494.000000 0 0 1
-32.533573 23.073023 31.817903 51.021336 -0.616878 0.897432 0.027926 -0.031692 215268.000000 0 0 1
-31.201693 22.643223 31.573753 49.831346 -0.627770 0.884583 0.032485 -0.022687 -59947.900000 0 0 1
-30.827543 21.448323 32.273863 49.517373 -0.607869 0.860882 0.030573 -0.027413 362604.000000 0 0 1
-29.972553 21.731123 33.563590 49.971094 -0.627331 0.834349 0.037034 -0.036974 59196.100000 0 0 1
-30.754173 22.465023 -33.997253 51.052029 -0.630885 2.299541 0.061434 -0.041063 187457.000000 0 0 1
-30.558543 22.189723 -32.611463 49.897053 -0.628054 2.283095 0.044852 -0.025742 -44687.100000 0 0 1
-29.233213 22.613823 -31.888643 48.814458 -0.658414 2.282682 0.057514 -0.032545 293878.000000 0 0 1
-29.015163 23.979023 -31.676063 49.195998 -0.690651 2.270348 0.047281 -0.029530 352540.000000 0 0 1
-27.900393 24.206123 -30.790313 48.087542 -0.714618 2.265681 0.072018 -0.030745 549928.000000 0 0 1
-27.994273 25.587223 -30.121053 48.432047 -0.740505 2.241994 0.052069 -0.018895 40539.700000 0 0 1
-27.756413 26.753323 -30.894283 49.402586 -0.766998 2.246386 0.051155 -0.023978 -131452.000000 0 0 1
-28.934913 27.288523 -31.463703 50.713482 -0.756124 2.240076 0.041507 -0.019202 -108292.000000 0 0 1
-28.730553 28.731423 -32.032833 51.740137 -0.785413 2.238405 0.047735 -0.017130 -43386.600000 0 0 1
-28.828153 29.708923 -30.984813 51.708231 -0.800443 2.213328 0.044140 -0.018860 -25720.600000 0 0 1
-28.527513 31.013923 -31.398033 52.550156 -0.827133 2.211160 0.041165 -0.029125 -164832.000000 0 0 1
-28.781953 32.154823 -30.363793 52.766404 -0.840692 2.183936 0.034427 -0.010523 170621.000000 0 0 1
-27.830203 32.259623 -29.320933 51.719634 -0.858978 2.173559 0.026248 -0.007897 28089.500000 0 0 1
-28.212763 33.263223 -28.381573 52.037637 -0.867367 2.147668 0.012628 0.002857 -517526.000000 0 0 1
-27.147793 33.405223 -27.311823 50.978890 -0.888371 2.136189 0.023734 0.002874 614092.000000 0 0 1
-26.014233 34.250923 -27.682253 51.148540 -0.921231 2.142675 -0.000030 -0.005721 715912.000000 0 0 1
-26.142543 -32.945282 -27.763393 50.394743 0.900023 2.154261 0.009263 0.014648 -734145.000000 0 0 1
-26.649163 -32.157382 -26.519893 49.473021 0.878792 2.136545 -0.002357 0.017687 -10201.900000 0 0 1
-28.033783 -31.929182 -26.439263 50.043984 0.850270 2.127418 -0.003606 0.009560 -361962.000000 0 0 1
-28.332823 -30.886782 -25.488403 49.055080 0.828498 2.117164 -0.005133 0.008267 -173085.000000 0 0 1
-29.841133 -30.680582 -25.294813 49.715379 0.799267 2.104578 -0.009453 0.008990 -123746.000000 0 0 1
-30.360853 -29.845682 -26.314973 50.050214 0.776842 2.124418 -0.002739 0.000193 -557449.000000 0 0 1
-31.754943 -29.810082 -26.252733 50.854925 0.753818 2.113237 -0.008699 -0.006248 -802252.000000 0 0 1
-32.320863 -28.877582 -27.329253 51.239058 0.729193 2.133373 0.006989 -0.013549 -157107.000000 0 0 1
-33.737143 -28.946882 -27.334803 52.185326 0.709127 2.122105 0.004266 -0.009106 -113277.000000 0 0 1
-34.211191 -27.992982 -28.288653 52.481049 0.685765 2.140077 0.015245 -0.015987 339.554000 0 0 1
-35.712548 -28.264882 -28.518073 53.736116 0.669509 2.130230 0.023338 -0.016297 -121012.000000 0 0 1
35.847023 -28.177782 -27.338583 53.163846 -0.666181 2.110909 0.019094 -0.005554 -383423.000000 0 0 1
34.465263 -28.249982 -27.656703 52.448156 -0.686618 2.126234 0.018955 -0.004225 101877.000000 0 0 1
33.641813 -27.639782 -26.506353 50.973678 -0.687768 2.117648 0.021128 0.000149 -286111.000000 0 0 1
33.435413 -28.544682 -25.360423 50.753096 -0.706653 2.094028 0.026464 0.003434 86415.300000 0 0 1
32.832123 -27.866282 -24.299113 49.446181 -0.703768 2.084522 0.033809 0.004103 -126332.000000 0 0 1
32.865623 -28.645482 -22.954613 49.270956 -0.716898 2.055431 0.029754 0.008060 -111139.000000 0 0 1
32.145103 -29.861382 -22.988613 49.532677 -0.748584 2.053426 0.040989 0.005270 -42521.200000 0 0 1
31.753143 -30.411682 -21.749613 49.052810 -0.763822 2.030176 0.044556 -0.008695 -423937.000000 0 0 1
32.858903 -30.614182 -20.719613 49.459458 -0.750048 2.003053 0.014166 -0.004849 -1699780.000000 0 0 1
33.849383 -31.486382 -21.200213 50.858844 -0.749247 2.000767 0.008897 -0.004118 -468783.000000 0 0 1
34.959773 -31.369682 -20.346513 51.188116 -0.731326 1.979571 -0.003384 -0.004617 594710.000000 0 0 1
35.922183 -30.095382 -20.538913 51.166221 -0.697365 1.983858 -0.019908 0.000736 -612259.000000 0 0 1
35.361683 -28.885682 -20.071913 49.876978 -0.684940 1.984964 -0.026451 0.007299 -285185.000000 0 0 1
35.727663 -27.695482 -20.795413 49.758967 -0.659424 2.001954 -0.031613 0.008711 -755254.000000 0 0 1
34.910443 -26.510282 -20.358713 48.332301 -0.649477 2.005591 -0.032840 0.008833 -477633.000000 0 0 1
33.560683 -26.720582 -20.659313 47.614243 -0.672412 2.019602 0.003547 0.006166 -897262.000000 0 0 1
32.734823 -25.724982 -20.174413 46.263920 -0.666059 2.022026 0.043957 0.000589 260020.000000 0 0 1
31.386843 -25.519482 -20.946913 45.553826 -0.682656 2.048598 0.055501 -0.003696 565324.000000 0 0 1
30.568873 -26.656282 -21.052413 45.697018 -0.717133 2.049575 0.074964 -0.000521 -572082.000000 0 0 1
29.573473 -26.446882 -21.995413 45.363268 -0.729644 2.077014 0.067284 -0.010978 -392533.000000 0 0 1
28.912863 -27.720882 -22.472713 45.928464 -0.764354 2.082081 0.077727 -0.007054 148558.000000 0 0 1
28.287743 -28.481282 -21.420713 45.499745 -0.788807 2.060980 0.079995 -0.009667 137368.000000 0 0 1
27.505033 -29.538882 -21.940313 45.939631 -0.821037 2.068706 0.072265 -0.005784 123570.000000 0 0 1
26.736133 -30.327382 -20.864913 45.496324 -0.848250 2.047223 0.068870 -0.003291 379631.000000 0 0 1
27.595203 -31.020282 -19.934313 46.055727 -0.843765 2.018426 0.084938 -0.013941 355440.000000 0 0 1
28.318343 -32.156382 -20.380613 47.448191 -0.848778 2.014773 0.084053 -0.008589 354131.000000 0 0 1
29.321293 -32.752282 -19.367213 48.036852 -0.840615 1.985779 0.059442 -0.014659 -2609.650000 0 0 1
28.704783 -33.291882 -18.209513 47.580462 -0.859253 1.963524 0.063679 -0.013438 -159295.000000 0 0 1
28.497693 -32.383482 -17.131913 46.414554 -0.849137 1.948844 0.052933 -0.010708 -8518.880000 0 0 1
27.865953 -33.167082 -15.950213 46.162495 -0.872037 1.923593 0.049439 -0.010181 -1348410.000000 0 0 1
26.595233 -33.578382 -16.198713 45.795332 -0.900931 1.932341 0.054792 -0.002702 -1108750.000000 0 0 1
26.002333 -34.288882 -15.087313 45.601269 -0.921984 1.908004 0.060837 0.001467 -664634.000000 0 0 1
24.489633 34.297823 -15.137413 44.779728 0.950717 1.915632 0.061160 -0.003638 -350164.000000 0 0 1
23.777133 -33.191782 -14.641613 43.375376 -0.949177 1.915115 0.046137 0.002027 516834.000000 0 0 1
22.425433 -33.449782 -14.291813 42.732235 -0.980199 1.911818 0.046903 -0.005737 362107.000000 0 0 1
-0.902723 -7.417677 -28.740373 29.695890 1.449693 2.887228 0.037976 -0.015099 244324.000000 0 0 1
-0.398823 -8.745377 -28.697703 30.003314 1.525224 2.845502 0.047989 -0.015911 62784.300000 0 0 1
-0.676723 -9.435877 -29.930323 31.389775 1.499201 2.835458 0.027641 -0.016768 -248028.000000 0 0 1
-0.326523 -10.933377 -29.912773 31.849950 1.540940 2.791025 0.028907 -0.014785 669067.000000 0 0 1
1.088277 -11.134177 -29.857793 31.884825 -1.473364 2.783099 0.014707 -0.019452 407076.000000 0 0 1
1.419877 -12.456077 -29.637303 32.179802 -1.457296 2.741413 0.019020 -0.020928 -473585.000000 0 0 1
2.835077 -12.612477 -29.099473 31.841664 -1.349688 2.723538 0.016318 -0.010300 -724621.000000 0 0 1
3.840677 -12.598877 -30.096043 32.852006 -1.274903 2.729063 0.018493 -0.018264 713380.000000 0 0 1
5.177477 -12.954477 -29.717543 32.829211 -1.190577 2.702685 0.027181 -0.016404 961840.000000 0 0 1
5.472177 -14.401777 -29.304613 33.107646 -1.207680 2.657572 0.032592 -0.016333 -1299810.000000 0 0 1
4.795577 -14.827177 -28.160243 32.184500 -1.257984 2.636156 0.028568 -0.017891 -32709.600000 0 0 1
5.568577 -15.744177 -27.386073 32.076240 -1.230837 2.594001 0.031592 -0.011623 -21230.300000 0 0 1
5.345277 -17.260377 -27.777893 33.137651 -1.270478 2.564876 0.033863 -0.018836 -172219.000000 0 0 1
5.790077 -17.629077 -29.102693 34.514868 -1.253457 2.573991 0.041369 -0.034674 369473.000000 0 0 1
5.255277 -18.899677 -29.410353 35.352293 -1.299586 2.553359 0.030630 -0.028204 -109012.000000 0 0 1
5.657277 -19.321377 -30.842683 36.831936 -1.285959 2.563286 0.049064 -0.039173 -164226.000000 0 0 1
6.982977 -19.709977 -31.124803 37.496647 -1.230308 2.550028 0.048049 -0.033464 -20264.100000 0 0 1
7.101177 -20.045577 -32.470683 38.814909 -1.230339 2.561755 0.054620 -0.036533 153013.000000 0 0 1
8.598677 -20.252377 -32.819333 39.512082 -1.169285 2.551008 0.061368 -0.034964 179634.000000 0 0 1
9.266077 -19.012477 -32.937333 39.143357 -1.117305 2.570765 0.061474 -0.038872 -103941.000000 0 0 1
10.363777 -19.142677 -33.813283 40.214277 -1.074583 2.569607 0.065569 -0.039143 -318385.000000 0 0 1
10.865477 -17.747777 -34.201453 40.034754 -1.021443 2.594988 0.061164 -0.028961 -168261.000000 0 0 1
9.924477 -17.227677 33.365488 38.839978 -1.048153 0.537385 0.078950 -0.032156 342677.000000 0 0 1
10.053477 -15.863277 33.102233 38.058820 -1.005924 0.516070 0.057655 -0.024500 -386842.000000 0 0 1
8.916977 -15.398077 32.195953 36.785767 -1.045889 0.504888 0.067109 -0.033594 -352631.000000 0 0 1
8.924177 -15.960977 30.899493 35.905047 -1.060975 0.534371 0.071249 -0.035663 258860.000000 0 0 1
7.845477 -15.472077 30.092453 34.734600 -1.101506 0.522942 0.066794 -0.031588 49247.800000 0 0 1
7.722177 -16.122277 28.744273 33.849565 -1.124109 0.556371 0.069212 -0.016336 -527878.000000 0 0 1
7.177777 -17.382777 28.862283 34.448698 -1.179198 0.577493 0.082791 -0.025403 140807.000000 0 0 1
7.066177 -18.084577 27.586703 33.734389 -1.198307 0.613284 0.082475 -0.022503 -167475.000000 0 0 1
6.745877 -19.588477 27.792553 34.664698 -1.239137 0.640572 0.078944 -0.025016 -159557.000000 0 0 1
7.761477 -20.373877 28.404953 35.807496 -1.206817 0.654638 0.084019 -0.021432 529390.000000 0 0 1
7.177877 -21.365177 29.231513 36.911706 -1.246682 0.656832 0.072930 -0.023386 81524.100000 0 0 1
7.842177 -21.439777 30.665593 38.230124 -1.220136 0.639940 0.075814 -0.026627 -168935.000000 0 0 1
7.296477 -20.577977 31.706823 38.496940 -1.230050 0.603033 0.090412 -0.038103 341476.000000 0 0 1
7.300277 -19.185777 31.512153 37.608561 -1.207208 0.577375 0.075575 -0.035190 -24335.000000 0 0 1
6.447277 -18.445477 32.587406 37.996606 -1.234539 0.540134 0.073854 -0.038606 660998.000000 0 0 1
5.041977 -18.634777 32.535380 37.831566 -1.306555 0.535515 0.081871 -0.044334 -36655.100000 0 0 1
4.343877 -17.868177 33.479012 38.196665 -1.332316 0.502273 0.062660 -0.045010 460824.000000 0 0 1
2.847077 -18.317477 33.597847 38.372531 -1.416601 0.504181 0.068358 -0.043297 628392.000000 0 0 1
2.500777 -19.431877 -34.093333 39.321840 -1.442805 2.620013 0.065946 -0.047117 -22850.300000 0 0 1
2.316377 -19.037677 -32.746903 37.949419 -1.449718 2.611795 0.051589 -0.047767 -328664.000000 0 0 1
1.911077 -20.164277 -31.744753 37.656070 -1.476303 2.573666 0.042739 -0.029086 -285657.000000 0 0 1
0.775377 -20.901377 -32.204833 38.400782 -1.533716 2.565597 0.037789 -0.022767 555442.000000 0 0 1
0.198877 -21.686777 -31.110843 37.924140 -1.561626 2.532809 0.030417 -0.017745 419832.000000 0 0 1
-0.568223 -20.908377 -29.993773 36.566508 1.543626 2.532649 0.029060 -0.015121 -751473.000000 0 0 1
-1.782023 -20.417877 -30.490913 36.739095 1.483739 2.549780 0.033106 -0.030146 -746947.000000 0 0 1
-2.301223 -19.294977 -29.820903 35.593230 1.452092 2.564084 0.042575 -0.018143 136673.000000 0 0 1
-1.591123 -17.906777 -29.959393 34.939227 1.482173 2.601132 0.028477 -0.016927 -398327.000000 0 0 1
-2.483923 -16.927577 -29.548263 34.143998 1.425098 2.616747 0.038207 -0.016145 -307101.000000 0 0 1
-1.996323 -15.633877 -29.890983 33.791630 1.443791 2.656363 0.040316 -0.021471 -71964.600000 0 0 1
-2.996923 -14.540777 -29.538583 33.059698 1.367538 2.675859 0.045502 -0.014786 -118878.000000 0 0 1
-2.940323 -14.064177 -28.226693 31.673219 1.364700 2.670747 0.040548 -0.017424 -458233.000000 0 0 1
-3.942123 -13.142477 -27.990183 31.172350 1.279383 2.685810 0.043227 -0.018708 -401102.000000 0 0 1
-3.955523 -12.861777 -26.460613 29.685611 1.272436 2.671136 0.044073 -0.013108 -232062.000000 0 0 1
-4.447323 -13.957877 -25.669233 29.555212 1.262342 2.623001 0.040203 -0.002313 264962.000000 0 0 1
-4.470523 -13.678877 -24.240613 28.190505 1.254920 2.605842 0.041184 -0.000315 3854.220000 0 0 1
-5.455223 -12.552277 -23.791413 27.447230 1.160822 2.619556 0.053530 -0.008511 -1294450.000000 0 0 1
-6.754923 -12.807477 -24.124313 28.136150 1.085454 2.601019 0.046433 -0.005253 -1559780.000000 0 0 1
-7.626823 -11.925877 -23.495113 27.430190 1.001825 2.599328 0.020924 -0.006037 -1575020.000000 0 0 1
-9.055423 -12.156977 -23.843313 28.254139 0.930584 2.575284 0.046502 -0.006455 -1852370.000000 0 0 1
-9.677323 -13.156277 -23.160813 28.340103 0.936597 2.527411 0.038259 -0.008895 -459655.000000 0 0 1
-10.164223 -14.060377 -24.139513 29.727457 0.944867 2.518414 0.055551 -0.016934 -219713.000000 0 0 1
-11.202523 -15.058477 -23.585113 30.141530 0.931188 2.469433 0.054165 -0.028911 -297867.000000 0 0 1
-10.698423 -15.905577 -22.541913 29.590226 0.978683 2.436888 0.060120 -0.016251 -278434.000000 0 0 1
-11.637723 -16.852477 -22.037813 30.085009 0.966431 2.392810 0.060504 -0.011503 306033.000000 0 0 1
-12.249923 -17.947777 -22.972613 31.621579 0.971891 2.383990 0.055933 -0.010515 303833.000000 0 0 1
-13.388223 -17.383177 -23.601513 32.225002 0.914503 2.392633 0.062925 -0.011984 -100396.000000 0 0 1
-14.028523 -18.283877 -24.473513 33.616253 0.916339 2.386235 0.047911 -0.013823 -291264.000000 0 0 1
-15.251923 -17.694477 -25.140743 34.318692 0.859400 2.392882 0.063157 -0.017151 107787.000000 0 0 1
-16.355823 -17.255377 -24.341413 34.025951 0.812155 2.367961 0.055887 -0.015876 219855.000000 0 0 1
-17.421023 -16.897177 -25.177673 34.970300 0.770135 2.374560 0.036237 -0.013919 13893.200000 0 0 1
-18.273523 -15.698277 -24.663213 34.476537 0.709737 2.367939 0.051060 -0.017001 -180898.000000 0 0 1
-18.921423 -15.967677 -23.451013 34.101862 0.700939 2.329079 0.039305 -0.013668 -163937.000000 0 0 1
-19.705823 -14.819277 -23.204313 33.858095 0.644796 2.325867 0.046073 -0.016392 32608.200000 0 0 1
-20.440823 -14.808377 -21.863213 33.393343 0.626948 2.284605 0.031506 -0.021335 -475106.000000 0 0 1
-19.529923 -14.753577 -20.801713 32.121600 0.646970 2.275217 0.050757 -0.014932 -129307.000000 0 0 1
-19.962223 -14.910077 -19.419313 31.589721 0.641524 2.232847 0.032529 -0.018768 -389998.000000 0 0 1
-20.633223 -13.732577 -18.696613 31.046367 0.587234 2.217070 0.031765 -0.016132 -990802.000000 0 0 1
-21.877323 -13.500277 -19.229613 32.103781 0.552891 2.213027 0.035174 -0.021174 -907969.000000 0 0 1
-22.405223 -12.298477 -18.706013 31.672725 0.502007 2.202602 0.035932 -0.014967 -502557.000000 0 0 1
-23.746923 -11.773077 -19.193613 32.724860 0.460260 2.197545 0.049965 -0.008552 -435706.000000 0 0 1
-23.849723 -11.028577 -20.409413 33.271353 0.433134 2.231184 0.043856 -0.015977 221737.000000 0 0 1
-25.222963 -10.683677 -20.546013 34.241458 0.400658 2.214339 0.028128 -0.012682 244840.000000 0 0 1
-25.515763 -9.803877 -21.791213 34.957505 0.366837 2.243833 0.038908 -0.013433 -102202.000000 0 0 1
-25.523113 -10.545077 -22.977713 35.924967 0.391798 2.264778 0.019599 -0.010763 279670.000000 0 0 1
-26.178723 -9.832877 -24.011513 36.858700 0.359302 2.280287 0.020859 -0.004801 -485736.000000 0 0 1
-26.070693 -10.259677 -25.511453 37.891638 0.374919 2.309424 0.023387 -0.004165 70818.600000 0 0 1
-24.921723 -9.931477 -26.273373 37.550188 0.379219 2.345755 0.011345 -0.008653 -482168.000000 0 0 1
-23.897823 -10.864477 -26.281923 37.146767 0.426691 2.356773 0.017986 -0.003598 -295995.000000 0 0 1
-22.977523 -10.530677 -27.499873 37.351101 0.429738 2.398313 0.026598 -0.012526 27358.900000 0 0 1
-23.499423 -10.869477 -28.773363 38.707555 0.433235 2.408865 0.034672 -0.000645 1010340.000000 0 0 1
-22.482823 -10.594877 -29.764213 38.776760 0.440379 2.445851 0.039368 0.006892 858349.000000 0 0 1
-23.099123 -11.148877 -31.033633 40.261065 0.449675 2.450908 0.034015 0.002124 626007.000000 0 0 1
-24.180023 -10.357477 -31.528363 41.060791 0.404703 2.446268 0.033618 -0.007571 363186.000000 0 0 1
-23.759023 -9.450677 -32.517693 41.366736 0.378584 2.475243 0.036641 -0.011615 -283660.000000 0 0 1
-24.912123 -8.570277 -33.129603 42.327699 0.331338 2.469778 0.041282 -0.012786 -500234.000000 0 0 1
-25.832593 -9.311077 -33.877353 43.608417 0.345944 2.460450 0.053593 -0.025719 705919.000000 0 0 1
-26.951793 -9.832277 -33.158333 43.846868 0.349807 2.428329 0.052617 -0.021851 -66297.700000 0 0 1
-27.962343 -8.921677 -32.415523 43.729339 0.308850 2.405766 0.026110 -0.008277 334059.000000 0 0 1
-29.311173 -9.407377 -32.587583 44.828497 0.310563 2.384650 0.031973 -0.010051 666530.000000 0 0 1
-30.235183 -8.818377 -31.743023 44.716323 0.283787 2.360118 0.039297 -0.003806 -463900.000000 0 0 1
-31.712143 -9.131077 -31.975113 45.950456 0.280353 2.340414 0.040559 -0.001206 -258753.000000 0 0 1
-31.868233 -10.530777 -31.932533 46.326755 0.319151 2.331304 0.045728 -0.007653 980905.000000 0 0 1
-33.243913 -10.865577 -31.666063 47.180060 0.315899 2.306589 0.051805 -0.014798 646670.000000 0 0 1
-33.416503 -12.351477 -31.668583 47.666768 0.354047 2.297453 0.053502 -0.017977 -192036.000000 0 0 1
-34.755890 -12.787077 -31.615103 48.692874 0.352541 2.277428 0.034307 -0.019867 -76126.300000 0 0 1
-34.810837 -14.212177 -31.808183 49.249780 0.387614 2.272938 0.032958 -0.024144 -126676.000000 0 0 1
-35.894765 -14.954277 -31.029583 49.748363 0.394747 2.244303 0.032886 -0.025851 -192759.000000 0 0 1
-35.740148 -14.833377 -29.678513 48.766806 0.393399 2.225066 0.032424 -0.021823 -442113.000000 0 0 1
35.730773 -15.730177 -29.052773 48.664055 -0.414709 2.210561 0.026289 -0.018302 -292082.000000 0 0 1
35.926063 -15.619777 -27.506923 47.867424 -0.410121 2.182970 0.037002 -0.023740 1325040.000000 0 0 1
-35.044219 -16.000977 -27.063413 47.080324 0.428324 2.183199 0.037431 -0.024430 1139810.000000 0 0 1
-34.888568 -15.697777 -25.716263 46.097273 0.422804 2.162613 0.040163 -0.026861 140279.000000 0 0 1
-33.430853 -15.292577 -25.397953 44.682669 0.429023 2.175365 0.051241 -0.018286 158457.000000 0 0 1
-32.486313 -16.341877 -25.431063 44.375178 0.466076 2.181070 0.047224 -0.010972 -378485.000000 0 0 1
-31.316743 -16.002477 -24.715913 42.984812 0.472399 2.183390 0.055374 -0.000115 475059.000000 0 0 1
-30.169263 -16.991977 -25.137103 42.787681 0.512937 2.198743 0.041087 -0.003885 230290.000000 0 0 1
-30.204813 -18.134677 -24.312413 42.805265 0.540706 2.174842 0.039762 -0.006383 284765.000000 0 0 1
-30.999363 -19.257777 -24.754413 44.097658 0.555885 2.166818 0.030059 -0.009431 221341.000000 0 0 1
-30.736523 -20.528877 -23.841113 43.983716 0.588855 2.143664 0.029886 -0.007469 986660.000000 0 0 1
-29.425463 -21.126077 -23.995113 43.450368 0.622673 2.155847 0.024025 -0.002828 1004420.000000 0 0 1
-29.286733 -22.296277 -23.245713 43.533893 0.650700 2.134083 0.021390 -0.000448 -578525.000000 0 0 1
-28.043433 -23.175177 -23.544613 43.334418 0.690634 2.145187 0.032893 -0.005222 1653100.000000 0 0 1
-26.746833 -22.707977 -23.043413 41.976710 0.703911 2.151912 0.028447 -0.006900 1306850.000000 0 0 1
-26.562403 -22.487477 -21.625513 40.974513 0.702511 2.126781 0.023182 -0.009989 -564286.000000 0 0 1
-26.775623 -23.636077 -20.601213 41.231155 0.723200 2.093993 0.039492 -0.003181 -265933.000000 0 0 1
-26.449663 -23.319377 -19.250213 40.173981 0.722585 2.070506 0.030200 -0.014236 31383.900000 0 0 1
-26.591683 -24.391177 -18.283313 40.451535 0.742263 2.039781 0.030884 0.007288 47112.300000 0 0 1
-26.459253 -23.784077 -16.893113 39.384663 0.732204 2.014100 0.026704 0.002029 -450386.000000 0 0 1
-27.505453 -22.944377 -16.546813 39.456196 0.695235 2.003549 0.028529 -0.009134 -610858.000000 0 0 1
-27.133083 -21.945477 -15.617813 38.232502 0.680089 1.991602 0.015889 -0.011938 -211746.000000 0 0 1
-28.345263 -21.308877 -14.915013 38.470506 0.644628 1.968931 0.014809 -0.011222 100825.000000 0 0 1
-29.250783 -20.669477 -15.769213 39.134431 0.615162 1.985534 0.018506 -0.007015 -305762.000000 0 0 1
-30.301063 -19.978377 -15.144813 39.327539 0.582906 1.966106 0.031293 -0.011515 197767.000000 0 0 1
-31.355653 -19.473777 -16.198913 40.308929 0.555762 1.984353 0.046550 -0.020612 -174019.000000 0 0 1
-32.174893 -20.482977 -16.733213 41.650648 0.566907 1.984225 0.019595 -0.004041 -149894.000000 0 0 1
-32.966983 -19.873577 -17.737413 42.383922 0.542500 2.002583 0.024035 -0.010497 -339473.000000 0 0 1
-33.873933 -20.781777 -18.591613 43.874522 0.550289 2.008372 0.008721 0.003196 540126.000000 0 0 1
-35.041179 -21.302177 -17.962913 44.769780 0.546222 1.983654 0.000069 0.008734 262960.000000 0 0 1
-34.801716 -22.250177 -16.933513 44.642734 0.568846 1.959849 0.009009 0.006238 -414178.000000 0 0 1
-35.606467 -23.545977 -17.182813 46.016112 0.584267 1.953477 -0.004406 0.027027 346676.000000 0 0 1
35.311363 -23.455177 -16.923113 45.644599 -0.586320 1.950622 0.004233 0.013348 62805.900000 0 0 1
34.602083 -24.655677 -17.086113 45.794561 -0.619099 1.953148 -0.000895 0.005079 -32675.500000 0 0 1
33.204863 -24.553077 -16.410513 44.437838 -0.636710 1.949043 0.012524 -0.003218 -274384.000000 0 0 1
32.252793 -24.277877 -17.396113 43.957738 -0.645251 1.977677 0.024617 -0.011065 -693894.000000 0 0 1
30.997183 -24.508177 -16.806613 42.941103 -0.669019 1.972935 0.039891 -0.009465 599747.000000 0 0 1
29.703143 -24.389677 -17.700013 42.313396 -0.687484 2.002378 0.065427 -0.021690 749273.000000 0 0 1
29.264993 -23.080377 -17.919813 41.355330 -0.667793 2.018962 0.060533 -0.022368 -230062.000000 0 0 1
28.100453 -23.135877 -18.696513 40.920213 -0.688804 2.045305 0.073444 -0.028641 -614906.000000 0 0 1
34.242583 29.190623 -18.273613 48.565130 0.705924 1.956564 0.053650 -0.017135 181927.000000 0 0 1
33.328933 29.426123 -19.362913 48.493679 0.723287 1.981536 0.050388 -0.035467 343532.000000 0 0 1
33.934553 29.135423 -20.616113 49.248867 0.709452 2.002712 0.050172 -0.030464 7433.390000 0 0 1
33.062413 29.373923 -21.904313 49.353312 0.726391 2.030661 0.051640 -0.028746 -975758.000000 0 0 1
32.088963 28.379023 -22.021313 48.166469 0.724121 2.045631 0.057306 -0.031851 121864.000000 0 0 1
31.238953 28.641923 -23.152213 48.293446 0.742055 2.070775 0.064373 -0.022409 544798.000000 0 0 1
30.124703 29.715023 -23.024913 48.172886 0.778552 2.069132 0.058954 -0.017530 -676771.000000 0 0 1
30.604573 31.028223 -22.946213 49.253621 0.792272 2.055424 0.070003 -0.026546 393540.000000 0 0 1
29.510163 31.957523 -22.904213 49.160309 0.825193 2.055458 0.068176 -0.013957 464786.000000 0 0 1
30.030303 33.409023 -22.554513 50.266171 0.838607 2.036108 0.067437 -0.011114 426463.000000 0 0 1
30.506193 33.674523 -21.233413 50.154353 0.834724 2.007949 0.065698 -0.012870 1066200.000000 0 0 1
31.838543 33.161123 -20.953613 50.521350 0.805743 1.998462 0.052215 -0.014076 854026.000000 0 0 1
32.161213 33.170523 -19.424313 50.119169 0.800846 1.968782 0.046521 -0.019291 -220821.000000 0 0 1
32.405343 -34.166982 -18.849013 50.722522 -0.811854 1.951539 0.042872 -0.017751 108780.000000 0 0 1
32.333323 -34.252282 -17.449813 50.231052 -0.814210 1.925584 0.030404 -0.025308 -716291.000000 0 0 1
32.452893 -32.869982 -16.749813 49.134328 -0.791783 1.918669 0.027438 -0.008736 -164268.000000 0 0 1
33.619803 -32.097182 -16.940413 49.472193 -0.762233 1.920291 0.008745 -0.006655 -407152.000000 0 0 1
34.661953 -32.589082 -16.139013 50.239098 -0.754585 1.897839 0.004831 -0.003837 -676412.000000 0 0 1
35.933833 -31.723282 -16.190113 50.593742 -0.723245 1.896528 -0.011845 0.008779 -63224.400000 0 0 1
-35.661431 -31.742182 -17.443813 50.829031 0.727318 1.921103 -0.014632 0.001109 -215804.000000 0 0 1
-34.435882 -31.050782 -17.368613 49.514137 0.733753 1.929201 -0.025438 0.009513 316762.000000 0 0 1
-33.481403 -31.619582 -18.496513 49.627848 0.756807 1.952718 -0.012475 0.000948 -604338.000000 0 0 1
-33.117903 -32.971982 -18.283313 50.181936 0.783190 1.943721 -0.003439 -0.001831 389351.000000 0 0 1
-32.172293 -33.603782 -19.154713 50.310771 0.807158 1.961380 0.012602 0.002336 -290164.000000 0 0 1
-30.791533 -33.017182 -19.280213 49.091541 0.820264 1.974405 0.006727 -0.001158 -2003420.000000 0 0 1
-30.786083 -31.931182 -20.136213 48.711912 0.803654 1.996952 -0.004869 0.002026 998577.000000 0 0 1
-29.436753 -31.630082 -20.559113 47.850409 0.821300 2.014906 0.014299 -0.002633 1132280.000000 0 0 1
-28.584563 -32.627082 -21.360913 48.351756 0.851344 2.028380 0.014916 0.010247 -890390.000000 0 0 1
-29.153503 -33.015982 -22.550613 49.482441 0.847447 2.043988 0.005859 0.017822 -263632.000000 0 0 1
-28.498963 -34.112182 -23.195713 50.138538 0.874811 2.051759 0.002419 0.012123 527829.000000 0 0 1
-29.390123 33.951623 -24.390613 51.101801 -0.857288 2.068370 -0.004346 0.002884 184497.000000 0 0 1
-30.381273 33.026523 -23.997413 50.888592 -0.827092 2.061864 -0.004098 -0.007266 323009.000000 0 0 1
-31.157873 32.313723 -24.986713 51.374367 -0.803607 2.078721 0.002623 -0.005262 703636.000000 0 0 1
-31.992893 33.148323 -25.984833 52.892042 -0.803134 2.084356 0.002058 -0.012489 -694965.000000 0 0 1
-31.244373 33.772623 -27.008593 53.350398 -0.824265 2.101626 -0.000184 -0.010922 -379579.000000 0 0 1
-31.891873 -33.743782 -27.563283 53.995083 0.813606 2.106537 -0.004560 -0.009966 -30428.000000 0 0 1
-31.155113 -33.198382 -28.810813 53.877979 0.817138 2.134999 -0.009252 -0.011408 -179466.000000 0 0 1
-31.232033 -33.985982 -29.957053 55.026465 0.827600 2.146484 0.000482 -0.004276 -786412.000000 0 0 1
-32.402523 -33.893282 -30.680053 56.035201 0.807881 2.150187 0.002777 -0.001088 -699857.000000 0 0 1
-32.357673 33.841423 -32.010313 56.717908 -0.807808 2.170475 0.022361 -0.003409 153756.000000 0 0 1
-31.474963 -34.250182 -32.990523 57.027387 0.827598 2.187689 0.034401 -0.017835 38227.800000 0 0 1
-31.543013 33.712623 -34.233985 57.475807 -0.818634 2.208839 0.035403 -0.028460 -319511.000000 0 0 1
-30.627243 -34.311282 33.140618 56.688559 0.842069 0.946399 0.050870 -0.027780 1495810.000000 0 0 1
-29.256213 33.856123 33.199424 55.716827 -0.858154 0.932460 0.044295 -0.023415 859964.000000 0 0 1
-29.103393 32.543123 32.644556 54.513571 -0.841138 0.928752 0.051055 -0.027359 -231663.000000 0 0 1
-27.693193 31.959423 32.913065 53.587196 -0.856795 0.909429 0.041836 -0.023418 2197.650000 0 0 1
-27.318973 31.810123 -34.208887 54.115230 -0.861208 2.255120 0.040333 -0.028221 846472.000000 0 0 1
-25.915053 31.601723 -33.949963 53.130583 -0.883948 2.263982 0.041268 -0.026581 890895.000000 0 0 1
-25.400493 30.163123 34.154672 52.168388 -0.870904 0.857010 0.049550 -0.020405 -529831.000000 0 0 1
-25.808353 29.075923 -33.507773 51.324957 -0.844864 2.282144 0.054336 -0.020394 90387.600000 0 0 1
-25.364523 27.764423 -33.893023 50.625677 -0.830539 2.304309 0.044381 -0.018400 -310516.000000 0 0 1
-25.223203 26.763423 -32.748793 49.244027 -0.815017 2.298331 0.058712 -0.030939 -164595.000000 0 0 1
-24.067723 26.861123 -31.932333 48.171040 -0.840192 2.295475 0.055113 -0.023280 26612.300000 0 0 1
-24.231123 27.955423 -31.024363 48.282130 -0.856643 2.268636 0.040772 -0.016344 949919.000000 0 0 1
-22.975323 28.055623 -30.067613 47.106738 -0.884625 2.263067 0.051474 -0.014491 175760.000000 0 0 1
-21.749923 28.348323 -30.673483 47.090860 -0.916354 2.280182 0.049179 -0.014767 -344902.000000 0 0 1
-20.724923 28.178223 -29.691083 45.881315 -0.936644 2.274608 0.029864 -0.014303 209174.000000 0 0 1
-20.366423 29.393223 -28.790083 45.908840 -0.964855 2.248639 0.025310 0.001221 -444724.000000 0 0 1
-19.685023 30.412623 -29.548623 46.749854 -0.996346 2.255003 0.025232 0.011851 267251.000000 0 0 1
-19.517823 31.555523 -28.762343 46.946446 -1.016868 2.230222 0.027300 0.008952 -48537.500000 0 0 1
-19.131023 32.782623 -29.531983 48.091937 -1.042544 2.232008 0.022600 0.012113 -473900.000000 0 0 1
-17.884723 32.713123 -30.139053 47.941363 -1.070479 2.250632 0.035918 0.003860 -858185.000000 0 0 1
-17.782323 33.634123 -31.170693 49.184117 -1.084454 2.257195 0.033855 0.003831 -28554.800000 0 0 1
-16.328723 33.740723 -31.674283 49.074676 -1.120073 2.272383 0.039292 0.006629 -417822.000000 0 0 1
-15.511723 -34.293682 -30.676423 48.556288 1.146015 2.254631 0.049847 -0.001911 259885.000000 0 0 1
-14.145623 -34.111082 -31.046183 48.244482 1.177688 2.269882 0.056387 -0.002295 777184.000000 0 0 1
-13.254423 33.268323 -30.963693 47.341433 -1.191662 2.283723 0.064458 -0.013715 -829784.000000 0 0 1
-13.166123 32.724723 -29.673083 46.094969 -1.188283 2.270169 0.080802 -0.021987 -127756.000000 0 0 1
-12.825523 31.375623 -29.714833 45.076547 -1.182750 2.290562 0.069282 -0.022286 -189681.000000 0 0 1
-12.682223 30.759423 -28.255233 43.650190 -1.179729 2.274847 0.066701 -0.026282 178242.000000 0 0 1
-11.546923 31.254623 -27.557663 43.238960 -1.216903 2.261830 0.075511 -0.017957 59703.200000 0 0 1
-11.549723 30.791123 -26.230393 42.065697 -1.211939 2.244082 0.060928 -0.019430 183139.000000 0 0 1
-10.297823 31.114823 -25.375653 41.449983 -1.251182 2.229635 0.063820 -0.020344 1188910.000000 0 0 1
-9.101123 30.420123 -25.807053 40.917213 -1.280091 2.253269 0.070103 -0.015695 350698.000000 0 0 1
-7.943623 31.060823 -25.294143 40.837110 -1.320419 2.238763 0.070685 -0.022040 337949.000000 0 0 1
-6.717923 30.253423 -25.814153 40.333244 -1.352287 2.265323 0.055876 -0.021692 -124624.000000 0 0 1
-6.521223 28.947023 -25.321333 39.008030 -1.349214 2.277238 0.044287 -0.028965 336835.000000 0 0 1
-5.429023 28.322123 -26.031773 38.849326 -1.381405 2.305100 0.040734 -0.035448 604350.000000 0 0 1
-4.809723 27.136323 -25.297633 37.409674 -1.395375 2.313433 0.050981 -0.021412 -584948.000000 0 0 1
-5.675223 26.072723 -25.308203 36.776353 -1.356471 2.329753 0.058786 -0.020404 -319871.000000 0 0 1
-5.144923 24.937423 -24.630013 35.425737 -1.367338 2.339575 0.063320 -0.032767 -345.253000 0 0 1
-6.209123 23.778623 -24.418813 34.644690 -1.315378 2.352988 0.051401 -0.035990 384103.000000 0 0 1
-6.517823 23.082123 -25.568883 35.057584 -1.295586 2.388152 0.051911 -0.031661 -145745.000000 0 0 1
-7.183923 21.888023 -25.505743 34.369132 -1.253662 2.407012 0.040654 -0.036217 -752198.000000 0 0 1
-7.198823 20.988923 -26.788403 34.784716 -1.240387 2.449825 0.027450 -0.023141 451872.000000 0 0 1
-5.982923 20.292123 -27.097673 34.378038 -1.284080 2.478718 0.052696 -0.036346 201385.000000 0 0 1
-5.870523 19.136723 -26.292823 33.045268 -1.273143 2.490894 0.042247 -0.034590 -562887.000000 0 0 1
-4.610923 18.283923 -26.427473 32.464962 -1.323763 2.521855 0.059227 -0.045190 -557682.000000 0 0 1
-4.425623 17.731123 -27.700543 33.185824 -1.326198 2.558402 0.039327 -0.039202 -646927.000000 0 0 1
-3.395123 16.806423 -27.765243 32.632674 -1.371466 2.588382 0.047480 -0.040468 -678541.000000 0 0 1
-3.129323 16.353223 -29.249553 33.656454 -1.381724 2.624100 0.040099 -0.035680 -108445.000000 0 0 1
-2.616923 17.463723 -29.980653 34.794676 -1.422054 2.609298 0.041493 -0.036536 419770.000000 0 0 1
-2.046123 17.070723 -31.258533 35.674810 -1.451504 2.638732 0.030162 -0.044657 276094.000000 0 0 1
-1.286623 18.253323 -31.935383 36.806357 -1.500426 2.621271 0.045257 -0.019010 552814.000000 0 0 1
-0.006223 18.495423 -31.333643 36.385133 -1.570460 2.608356 0.071215 -0.029082 190776.000000 0 0 1
0.586777 19.609223 -31.878373 37.431225 1.540882 2.589925 0.073492 -0.007883 -117330.000000 0 0 1
0.351277 20.847723 -31.013843 37.371238 1.553948 2.549699 0.070544 -0.007293 435692.000000 0 0 1
1.263477 20.965323 -29.891373 36.532661 1.510604 2.529086 0.091047 -0.039298 220874.000000 0 0 1
1.022477 22.130223 -29.132613 36.599199 1.524626 2.491438 0.096807 -0.043224 573865.000000 0 0 1
2.126377 22.360323 -28.031183 35.920088 1.475985 2.466064 0.107893 -0.039997 1645670.000000 0 0 1
3.372077 22.782823 -28.639893 36.751481 1.423854 2.464321 0.080760 -0.037631 521711.000000 0 0 1
4.530777 22.495323 -27.892993 36.119061 1.372046 2.453174 0.078226 -0.038778 -179424.000000 0 0 1
5.211277 23.725423 -27.320003 36.557293 1.354580 2.414816 0.086307 -0.037437 -484753.000000 0 0 1
5.728277 24.509623 -28.379493 37.933236 1.341202 2.416056 0.071537 -0.037047 1427.310000 0 0 1
6.206977 25.764623 -27.947953 38.515327 1.334390 2.382749 0.058414 -0.035584 -8234.140000 0 0 1
6.856177 26.641823 -29.058233 40.014682 1.318915 2.383559 0.054816 -0.027405 -107528.000000 0 0 1
8.191177 26.240923 -29.262603 40.149488 1.268228 2.387424 0.057971 -0.024339 -410534.000000 0 0 1
8.829277 27.110723 -30.177243 41.516424 1.255954 2.384557 0.066568 -0.016765 114176.000000 0 0 1
10.344077 27.151823 -29.888383 41.683772 1.206800 2.370324 0.056988 -0.017258 68343.900000 0 0 1
11.106477 28.074523 -30.637833 43.014061 1.194083 2.363530 0.053487 -0.014101 28575.000000 0 0 1
12.342577 28.382223 -30.036773 43.128848 1.160596 2.341225 0.050978 -0.016953 115742.000000 0 0 1
13.268677 29.378623 -30.750903 44.550862 1.146576 2.332621 0.059400 -0.018278 -115440.000000 0 0 1
12.681077 30.641123 -30.877143 45.310993 1.178401 2.320537 0.059317 -0.017571 -278478.000000 0 0 1
13.427577 31.481723 -31.676433 46.634699 1.167639 2.317531 0.075896 -0.025520 -375271.000000 0 0 1
12.850077 32.888123 -31.799343 47.517905 1.198315 2.303938 0.070301 -0.023431 264794.000000 0 0 1
11.729977 32.935423 -32.678013 47.855898 1.228653 2.322442 0.061874 -0.023027 41534.300000 0 0 1
10.919977 34.025023 -32.349533 48.202078 1.260241 2.306519 0.051521 -0.010510 -339910.000000 0 0 1
9.865077 34.308423 -33.430163 48.907703 1.290809 2.323392 0.039001 -0.007804 115204.000000 0 0 1
10.415377 -33.576382 33.970477 48.886060 -1.270009 0.802528 0.037541 -0.003342 5108.030000 0 0 1
9.412177 -33.412082 33.017454 47.907292 -1.296212 0.810419 0.042255 -0.009564 -141270.000000 0 0 1
9.799877 -32.696782 31.702433 46.584991 -1.279597 0.822312 0.046400 -0.005045 -138814.000000 0 0 1
9.766677 -31.306082 31.926083 45.768259 -1.268391 0.798811 0.039054 -0.008747 15602.100000 0 0 1
9.948577 -30.533382 30.752023 44.462890 -1.255817 0.807048 0.055257 -0.008144 -566051.000000 0 0 1
9.272777 -29.145382 30.780103 43.391848 -1.262767 0.782218 0.050803 -0.022460 404803.000000 0 0 1
7.846577 -29.241582 30.641003 43.075631 -1.308636 0.779407 0.054207 -0.016448 506412.000000 0 0 1
7.234177 -29.108382 31.924033 43.803825 -1.327206 0.754235 0.052254 -0.008045 -606304.000000 0 0 1
5.704677 -28.995482 31.869213 43.461800 -1.376534 0.747678 0.048247 -0.021305 211173.000000 0 0 1
4.932277 -30.076982 31.296163 43.685261 -1.408255 0.772166 0.061923 -0.020969 338604.000000 0 0 1
4.921677 -30.229182 29.900993 42.802988 -1.409400 0.797396 0.068463 -0.025903 -448587.000000 0 0 1
4.253477 -29.224682 28.940763 41.349025 -1.426267 0.795519 0.047913 -0.033050 41415.400000 0 0 1
2.835977 -29.135382 29.022363 41.221485 -1.473764 0.789699 0.056075 -0.035873 614392.000000 0 0 1
2.267277 -28.304682 27.997213 39.876554 -1.490864 0.792458 0.052140 -0.043144 724451.000000 0 0 1
0.797477 -28.712882 27.600923 39.835619 -1.543029 0.805334 0.047393 -0.050127 766749.000000 0 0 1
0.685477 -29.951682 26.947373 40.295584 -1.547914 0.838280 0.051773 -0.041111 10235.200000 0 0 1
0.645177 -31.007982 27.930713 41.737704 -1.549993 0.837670 0.063969 -0.040328 -790754.000000 0 0 1
1.214877 -32.398182 27.586493 42.569153 -1.533316 0.865789 0.047822 -0.027113 1173460.000000 0 0 1
2.646377 -32.554282 27.435193 42.655298 -1.489683 0.872147 0.035869 -0.024729 1480980.000000 0 0 1
3.205977 -31.977882 26.212403 41.472320 -1.470874 0.886606 0.033526 -0.020720 353241.000000 0 0 1
4.754977 -32.077182 26.124163 41.641654 -1.423633 0.892642 0.052741 -0.004517 441051.000000 0 0 1
5.300277 -31.924482 24.854913 40.804806 -1.406272 0.915849 0.047974 -0.025621 1211140.000000 0 0 1
6.743477 -31.830582 24.870743 40.953807 -1.362028 0.918154 0.069059 -0.027878 1043180.000000 0 0 1
7.503777 -31.611182 23.523913 40.111694 -1.337733 0.944115 0.056410 -0.023538 4523.760000 0 0 1
8.806177 -31.177082 23.841283 40.223948 -1.295511 0.936372 0.049311 -0.014743 -290478.000000 0 0 1
9.567977 -30.985382 22.695523 39.581901 -1.271295 0.960169 0.043546 -0.018367 89458.000000 0 0 1
10.715077 -29.931782 22.868623 39.162461 -1.227027 0.947220 0.041178 -0.018978 710712.000000 0 0 1
11.856477 -30.450782 23.557323 40.283665 -1.199491 0.946180 0.041189 -0.004904 1040960.000000 0 0 1
13.001177 -29.577282 23.521193 39.963643 -1.156653 0.941514 0.054492 -0.003759 854627.000000 0 0 1
14.354477 -30.188382 23.971113 41.133973 -1.126943 0.948679 0.050497 0.002214 83198.700000 0 0 1
14.440177 -30.475582 25.362943 42.196667 -1.128305 0.925963 0.046511 -0.001643 276554.000000 0 0 1
14.939677 -29.392382 26.153233 42.084411 -1.100544 0.900208 0.045812 -0.000897 -228039.000000 0 0 1
-11.090123 -14.069177 25.652563 31.288761 0.903257 0.609621 0.046588 -0.030235 -649453.000000 0 0 1
-9.714023 -14.132577 25.517423 30.744607 0.968611 0.591724 0.044282 -0.033137 -875208.000000 0 0 1
-8.985423 -14.141277 26.721613 31.539787 1.004750 0.560038 0.042980 -0.027818 263613.000000 0 0 1
-7.451223 -14.004777 26.524263 30.906165 1.081840 0.539006 0.059194 -0.027753 220256.000000 0 0 1
-6.934823 -15.170477 25.852653 30.766781 1.142032 0.573000 0.057368 -0.030755 183035.000000 0 0 1
-6.783723 -14.927477 24.444313 29.434213 1.144252 0.590840 0.062574 -0.027947 -626014.000000 0 0 1
-6.180823 -16.145877 23.652853 29.297600 1.205195 0.631182 0.048427 -0.028421 -50714.900000 0 0 1
-6.907223 -17.331477 23.441473 29.959848 1.191552 0.672238 0.055559 -0.025533 -419113.000000 0 0 1
-7.179723 -18.078577 24.617883 31.375525 1.192758 0.668712 0.052715 -0.022798 -374970.000000 0 0 1
-7.807723 -19.404077 24.251323 32.025075 1.188244 0.711688 0.044587 -0.017760 310891.000000 0 0 1
-9.090023 -19.350977 23.623793 31.861771 1.131644 0.735573 0.028385 -0.017570 214840.000000 0 0 1
-9.545523 -20.653877 23.255123 32.534603 1.137871 0.774485 0.022748 -0.013600 1502930.000000 0 0 1
-11.130923 -20.797277 23.290323 33.149108 1.079379 0.791762 0.019028 -0.012800 1344110.000000 0 0 1
-11.457223 -20.867077 24.689713 34.297009 1.068677 0.767168 0.020718 -0.016216 135186.000000 0 0 1
-12.832123 -20.674277 24.975323 34.869125 1.015309 0.772370 0.035716 -0.012214 262925.000000 0 0 1
-13.027423 -20.783977 26.496383 36.107420 1.010903 0.746867 0.041006 -0.017055 -370851.000000 0 0 1
-12.673023 -22.030277 26.918083 37.020560 1.048771 0.756691 0.054132 -0.016079 240802.000000 0 0 1
-12.096923 -21.922777 28.228373 37.733072 1.066574 0.725592 0.041423 -0.017157 88152.600000 0 0 1
-11.785923 -23.290277 28.916483 38.955205 1.102325 0.734299 0.032839 -0.013819 561642.000000 0 0 1
-12.924523 -23.914277 29.557533 40.156988 1.075313 0.743580 0.041961 -0.013409 580343.000000 0 0 1
-12.569223 -25.052197 30.261563 41.247547 1.105773 0.747108 0.032339 -0.006614 -241320.000000 0 0 1
-13.672123 -25.562177 31.188393 42.580133 1.079653 0.748863 0.036969 -0.015179 -58561.400000 0 0 1
-13.620623 -24.957977 32.456164 43.148865 1.071228 0.719416 0.049149 -0.016542 296380.000000 0 0 1
-14.717123 -25.336387 33.304343 44.358827 1.044562 0.721533 0.053398 -0.017998 331181.000000 0 0 1
-14.633323 -24.686277 -33.777373 44.322199 1.035709 2.437327 0.044657 -0.021217 -11071.900000 0 0 1
-14.594823 -23.267977 -33.675963 43.456623 1.010581 2.457405 0.047190 -0.019363 66467.000000 0 0 1
-15.744323 -22.586577 -34.147905 43.864753 0.962043 2.463039 0.051318 -0.025140 -306356.000000 0 0 1
-15.736923 -21.094177 -33.858213 42.883489 0.929840 2.480855 0.040229 -0.028345 -28424.300000 0 0 1
-16.116823 -20.861277 -32.493303 41.842079 0.913005 2.460000 0.044387 -0.025920 157859.000000 0 0 1
-16.385023 -19.543177 -32.228213 41.098205 0.873075 2.472163 0.038570 -0.023667 -329414.000000 0 0 1
-16.330923 -19.339577 -30.678163 39.772704 0.869545 2.451736 0.043091 -0.020438 265717.000000 0 0 1
-17.487123 -19.793277 -29.970743 39.947700 0.847179 2.419236 0.044204 -0.017570 374662.000000 0 0 1
-17.425623 -19.517477 -28.580803 38.748504 0.841961 2.400302 0.041258 -0.011481 36425.300000 0 0 1
-16.465223 -20.458577 -27.799373 38.242151 0.893131 2.384637 0.032841 -0.010343 1086080.000000 0 0 1
-15.068123 -20.223377 -28.084763 37.746354 0.930449 2.409892 0.039203 -0.010611 751132.000000 0 0 1
-14.340623 -21.157677 -27.291053 37.391207 0.975127 2.388941 0.045095 -0.008808 820650.000000 0 0 1
-12.788523 -21.204877 -27.495853 37.002906 1.028105 2.408447 0.071462 -0.010710 163580.000000 0 0 1
-12.110023 -20.165677 -26.794393 35.654546 1.029990 2.421129 0.076067 -0.018670 1148850.000000 0 0 1
-10.674223 -20.248477 -26.914653 35.331833 1.085656 2.436834 0.066520 -0.019360 1292150.000000 0 0 1
-9.957823 -21.339377 -26.071803 35.132124 1.134190 2.407005 0.069807 -0.018293 -679008.000000 0 0 1
-10.206523 -22.671177 -26.552513 36.375697 1.147778 2.389048 0.063355 -0.012778 207659.000000 0 0 1
-9.694023 -23.666477 -25.642953 36.216533 1.182033 2.357523 0.072042 -0.015691 30959.800000 0 0 1
-9.719723 -25.169877 -26.090573 37.532835 1.202273 2.339411 0.070163 -0.012654 10957.300000 0 0 1
-8.723123 -25.592557 -27.049213 38.245677 1.242300 2.356396 0.067316 -0.014113 550425.000000 0 0 1
-8.922323 -26.887897 -27.647583 39.584791 1.250396 2.344011 0.062689 -0.007454 -202985.000000 0 0 1
-8.758023 -28.187537 -26.778243 39.853664 1.269547 2.307587 0.075973 -0.011550 -314309.000000 0 0 1
-9.626123 -28.273287 -25.667563 39.381021 1.242639 2.280719 0.074693 -0.018611 -61317.900000 0 0 1
-9.539523 -29.498467 -24.917713 39.775048 1.258021 2.247807 0.104535 -0.020323 340088.000000 0 0 1
-10.559623 -29.509237 -23.707913 39.298420 1.227153 2.218403 0.111690 -0.023542 546735.000000 0 0 1
-10.289723 -28.386617 -22.880313 37.883864 1.223043 2.219256 0.092399 -0.035329 116798.000000 0 0 1
-11.065823 -27.239737 -23.243513 37.479549 1.184924 2.239750 0.103849 -0.031228 -50692.300000 0 0 1
-11.018223 -26.166597 -22.133413 35.999722 1.172251 2.232956 0.104680 -0.032779 132567.000000 0 0 1
-11.557923 -26.530727 -20.842713 35.663479 1.159946 2.194971 0.082595 -0.027698 243213.000000 0 0 1
-11.605523 -25.445947 -20.006213 34.386523 1.142893 2.191741 0.070271 -0.019174 3067.370000 0 0 1
-12.230123 -25.821587 -18.606413 34.095878 1.128459 2.148031 0.081440 -0.019765 541601.000000 0 0 1
-13.613623 -26.142507 -18.730413 34.922626 1.090689 2.136891 0.102409 -0.022246 257204.000000 0 0 1
-14.035323 -26.581367 -17.483013 34.773770 1.084990 2.097590 0.094229 -0.016873 -546671.000000 0 0 1
-15.546023 -26.793947 -17.369113 35.514511 1.045058 2.081821 0.089575 -0.023563 -1368930.000000 0 0 1
-16.256923 -25.605267 -17.200713 34.868062 1.005106 2.086686 0.080806 -0.014763 1182280.000000 0 0 1
-17.620623 -25.875127 -16.757813 35.508208 0.972945 2.062288 0.083086 -0.009243 2301170.000000 0 0 1
-18.710723 -26.587587 -17.676213 37.005938 0.957565 2.068784 0.077370 -0.003715 -206498.000000 0 0 1
-18.444823 -27.947437 -17.780113 37.913100 0.987435 2.058921 0.082213 -0.024450 15158.800000 0 0 1
-18.922523 -28.816547 -16.751013 38.328210 0.989757 2.023103 0.073867 -0.024058 -440320.000000 0 0 1
-20.419123 -29.167387 -16.680513 39.318146 0.960025 2.008924 0.072957 -0.018769 -169804.000000 0 0 1
-20.848523 -30.031397 -17.700913 40.618568 0.963957 2.021705 0.059791 -0.013388 -451997.000000 0 0 1
-22.128123 -30.507397 -17.390613 41.506488 0.943268 2.003124 0.052788 -0.014318 -252626.000000 0 0 1
-22.765723 -31.428147 -18.455813 42.972359 0.943899 2.014714 0.033976 -0.013276 -96004.300000 0 0 1
-22.129823 -32.705997 -18.580713 43.642344 0.975928 2.010587 0.031954 -0.020850 234157.000000 0 0 1
-22.627923 -33.414327 -19.675113 44.895993 0.975542 2.024433 0.024219 -0.002441 -418899.000000 0 0 1
-22.039023 33.836585 -19.675113 44.919295 -0.993482 2.024180 0.015081 -0.006880 -73221.500000 0 0 1
-22.698123 32.903257 -18.852313 44.195462 -0.966919 2.011490 0.018006 -0.007109 206526.000000 0 0 1
-21.790323 31.842418 -18.729213 42.889873 -0.970673 2.022703 0.022722 -0.011963 379495.000000 0 0 1
-22.586723 30.647788 -18.163813 42.182592 -0.935682 2.015953 0.035004 -0.026769 410832.000000 0 0 1
-23.087323 30.778768 -16.815413 41.989465 -0.927228 1.982823 0.032639 -0.032883 19421.900000 0 0 1
-23.776923 29.624378 -16.380413 41.367424 -0.894464 1.977924 0.033554 -0.026653 70032.700000 0 0 1
-22.943223 28.303058 -16.190813 39.869751 -0.889609 1.988971 0.035212 -0.035885 56010.900000 0 0 1
-22.399923 27.743638 -17.390713 39.672445 -0.891566 2.024567 0.027804 -0.031058 -32908.100000 0 0 1
-21.680623 26.594878 -17.082913 38.329661 -0.886845 2.032734 0.029677 -0.029601 -110539.000000 0 0 1
-21.059923 25.809538 -18.284913 37.999877 -0.886390 2.072801 0.035965 -0.026671 -898618.000000 0 0 1
-20.756423 24.463108 -17.994113 36.783976 -0.867186 2.081950 0.036888 -0.028558 -67191.100000 0 0 1
-20.145123 23.682548 -18.981813 36.427988 -0.865936 2.118909 0.035884 -0.013582 -106742.000000 0 0 1
-18.725223 24.174828 -19.410713 36.219222 -0.911752 2.136397 0.030072 -0.019395 -431876.000000 0 0 1
-17.871423 23.933498 -18.266013 35.012103 -0.929403 2.119645 0.046420 -0.024011 704584.000000 0 0 1
-16.635623 24.649658 -18.473513 35.008860 -0.977127 2.126665 0.067005 -0.034552 496085.000000 0 0 1
-16.387023 25.993988 -17.647213 35.435097 -1.008312 2.092105 0.067523 -0.036462 117277.000000 0 0 1
-17.230523 27.014158 -18.191913 36.845642 -1.003022 2.087174 0.050238 -0.035340 50402.600000 0 0 1
-17.170223 28.160828 -17.316813 37.252125 -1.023260 2.054266 0.060336 -0.043470 -52537.900000 0 0 1
-18.411323 29.085988 -17.517513 38.624277 -1.006468 2.041526 0.059547 -0.035563 264416.000000 0 0 1
-18.551523 29.750178 -18.777813 39.772332 -1.013221 2.062505 0.059811 -0.031500 69615.700000 0 0 1
-18.945723 28.803368 -19.757213 39.735650 -0.988985 2.091184 0.042515 -0.026911 -603421.000000 0 0 1
-18.889723 29.501438 -21.139913 40.915186 -1.001271 2.113761 0.045300 -0.028997 238648.000000 0 0 1
-19.864323 30.524328 -21.252613 42.166331 -0.993880 2.099042 0.039129 -0.024148 260404.000000 0 0 1
-19.791623 30.984408 -22.586513 43.149652 -1.002363 2.121687 0.043353 -0.017183 1083190.000000 0 0 1
-20.885123 32.114338 -22.891813 44.626833 -0.994185 2.109427 0.034187 -0.008107 738340.000000 0 0 1
-20.350323 33.346418 -22.509213 45.086405 -1.022859 2.093525 0.014210 -0.007507 255729.000000 0 0 1
-20.830723 -34.255245 -23.392913 46.417337 1.024440 2.098985 0.025207 0.005655 -623144.000000 0 0 1
-19.935023 -33.024437 -23.393813 45.114178 1.027701 2.115947 0.032287 0.003588 -181537.000000 0 0 1
-19.776023 -32.220057 -22.208913 43.845855 1.020306 2.101943 0.047789 -0.001550 71925.300000 0 0 1
-19.271823 -32.770897 -21.012413 43.437960 1.039190 2.075712 0.052534 -0.016561 -600185.000000 0 0 1
-18.771723 -31.781537 -19.940413 41.953114 1.037281 2.066104 0.069929 -0.028141 -561506.000000 0 0 1
-17.638923 -31.129367 -20.402613 41.187810 1.055273 2.089040 0.083971 -0.023058 -550779.000000 0 0 1
-17.018423 -30.403667 -19.356013 39.858060 1.060499 2.077873 0.084403 -0.024522 349846.000000 0 0 1
-15.881023 -29.500007 -19.944713 38.990369 1.076949 2.107760 0.100128 -0.028732 319193.000000 0 0 1
-14.638523 -30.087227 -20.163413 39.065212 1.117978 2.113143 0.111192 -0.035716 -604708.000000 0 0 1
-13.565623 -29.201957 -20.245713 38.035106 1.135913 2.132100 0.098591 -0.035747 -446157.000000 0 0 1
-12.174823 -29.843667 -20.380213 38.134287 1.183452 2.134633 0.115935 -0.039152 139345.000000 0 0 1
-11.532123 -30.480937 -19.268713 37.859750 1.209102 2.104761 0.101259 -0.036209 331891.000000 0 0 1
-10.963923 -29.571427 -18.349013 36.487850 1.215747 2.097724 0.075157 -0.039054 -394864.000000 0 0 1
-10.272023 -30.216147 -17.144113 36.227760 1.243101 2.063752 0.057867 -0.023903 -396404.000000 0 0 1
-11.150023 -30.877267 -16.283313 36.645258 1.224260 2.031245 0.077913 -0.030245 -71658.700000 0 0 1
-11.439523 -32.274237 -16.532013 38.023631 1.230165 2.020593 0.087828 -0.025500 -126088.000000 0 0 1
-12.487023 -32.937007 -15.654213 38.546421 1.208420 1.988993 0.091009 -0.031877 -224795.000000 0 0 1
-11.976623 -33.181547 -14.365813 38.089777 1.224407 1.957521 0.078963 -0.025929 252683.000000 0 0 1
-13.069723 -33.490607 -13.523313 38.409874 1.198723 1.930588 0.075718 -0.021414 185328.000000 0 0 1
-12.647423 -33.901877 -12.077713 38.146635 1.213728 1.892953 0.062559 -0.016811 191590.000000 0 0 1
-12.033223 -32.896957 -11.261413 36.794397 1.220129 1.881851 0.056780 -0.013451 128663.000000 0 0 1
-11.719623 -33.431157 -10.021013 36.815928 1.233623 1.846467 0.062042 -0.016269 -255134.000000 0 0 1
-10.470623 -32.845337 -9.337813 35.716171 1.262195 1.835315 0.046276 -0.013933 451105.000000 0 0 1
-9.227823 -33.318207 -9.861013 35.951290 1.300608 1.848646 0.029152 -0.008327 -55378.900000 0 0 1
-8.141823 -32.695557 -9.221813 34.933230 1.326741 1.837947 0.015164 -0.007886 99616.700000 0 0 1
-6.826723 -33.238267 -9.849413 35.332669 1.368226 1.853301 0.013592 -0.011635 63669.200000 0 0 1
-6.619323 34.021541 -9.534313 35.946958 -1.378634 1.839242 0.000057 -0.005302 901600.000000 0 0 1
-5.308423 33.669082 -10.038113 35.532382 -1.414419 1.857202 0.005635 -0.007982 1155440.000000 0 0 1
-4.584623 32.478638 -9.352413 34.107893 -1.430565 1.848555 0.008715 -0.015393 -38299.700000 0 0 1
-4.057123 32.910876 -8.127213 34.141435 -1.448139 1.811149 0.014892 -0.019990 -173336.000000 0 0 1
-3.415523 31.868038 -7.433313 32.901243 -1.464027 1.798692 0.022276 -0.023690 -386212.000000 0 0 1
-2.868023 32.360898 -6.069613 33.049864 -1.482401 1.755495 0.027323 -0.020275 -1163010.000000 0 0 1
-1.834923 33.246345 -6.342913 33.895707 -1.515661 1.759036 0.019194 -0.016877 -486983.000000 0 0 1
-1.459123 34.012125 -5.174013 34.434345 -1.527923 1.721625 0.029384 -0.019378 146199.000000 0 0 1
-0.370523 33.339577 -4.297313 33.617430 -1.559683 1.698977 0.040469 -0.016881 -281289.000000 0 0 1
0.949277 33.466095 -4.777213 33.818670 1.542439 1.712530 0.045408 -0.015458 -39222.800000 0 0 1
1.837077 32.676671 -3.993213 32.970979 1.514636 1.692207 0.042306 -0.016595 263923.000000 0 0 1
3.304477 32.847653 -4.469713 33.314655 1.470534 1.705369 0.040350 -0.007141 186768.000000 0 0 1
3.936677 34.015193 -3.982913 34.473097 1.455576 1.686592 0.039109 -0.006785 -136374.000000 0 0 1
5.335677 33.901673 -4.137313 34.567474 1.414690 1.690772 0.049962 -0.006999 252775.000000 0 0 1
6.064977 -33.408857 -3.713213 34.157336 -1.391214 1.679721 0.041290 -0.000234 7860.130000 0 0 1
5.786277 -32.291467 -4.549913 33.119806 -1.393489 1.708610 0.046142 -0.001800 -24974.700000 0 0 1
5.916477 -31.113507 -3.846813 31.903808 -1.382882 1.691666 0.041602 -0.007733 -139795.000000 0 0 1
5.765077 -29.926347 -4.795013 30.851491 -1.380485 1.726851 0.040391 -0.003249 64878.300000 0 0 1
6.766677 -29.815577 -5.799313 31.118942 -1.347626 1.758252 0.053110 -0.004507 50369.300000 0 0 1
6.594777 -28.644487 -6.571213 30.119405 -1.344511 1.790737 0.063177 -0.005851 -21765.600000 0 0 1
7.069377 -27.276627 -5.993013 28.808101 -1.317203 1.780359 0.057898 -0.006153 15205.500000 0 0 1
6.320177 -26.708507 -4.935213 27.886293 -1.338435 1.748710 0.042935 -0.006640 -88279.100000 0 0 1
6.793277 -25.395817 -4.554413 26.680308 -1.309420 1.742340 0.040940 -0.011685 -355263.000000 0 0 1
5.930977 -24.837677 -3.415913 25.763446 -1.336396 1.703775 0.038676 -0.011650 280323.000000 0 0 1
4.777877 -24.141377 -3.886013 24.914560 -1.375409 1.727409 0.036315 -0.018757 84761.900000 0 1 0
3.954377 -23.801577 -2.769513 24.286259 -1.406161 1.685081 0.030863 -0.013960 -85697.700000 0 1 0
2.676977 -23.111177 -3.253313 23.492057 -1.455480 1.709728 0.038389 -0.018086 -298786.000000 0 1 0
1.802077 -23.965977 -3.935713 24.353755 -1.495744 1.733114 0.036296 -0.013591 -11411.500000 0 1 0
0.558477 -23.285077 -4.150113 23.658617 -1.546817 1.747125 0.031214 -0.012777 483588.000000 0 1 0
-15.149323 23.622223 18.277623 33.490042 -1.000550 0.993497 -0.001008 -0.012314 -82765.300000 0 0 1
-15.404923 22.931923 19.496723 33.812822 -0.979271 0.956226 0.002153 -0.006513 168635.000000 0 0 1
-15.118223 23.844423 20.541823 34.915379 -1.005726 0.941802 0.006987 -0.016612 -1183750.000000 0 0 1
-15.196523 23.109623 21.931523 35.298452 -0.989108 0.900374 0.024486 -0.024526 309843.000000 0 0 1
-14.120823 22.202723 22.317523 34.502614 -1.004329 0.867368 0.008893 -0.015030 1552650.000000 0 0 1
-12.764223 22.631223 22.176223 34.159662 -1.057261 0.864273 -0.003414 -0.022817 123581.000000 0 0 1
-12.298923 23.816623 23.041623 35.347015 -1.094114 0.860750 0.012715 -0.015237 -917268.000000 0 0 1
-12.247623 23.398223 24.366533 35.933397 -1.088571 0.825618 -0.006539 -0.007349 6370.290000 0 0 1
-11.920423 24.414623 25.220453 37.070764 -1.116593 0.822580 0.023195 -0.013222 -237146.000000 0 0 1
-11.491923 23.964023 26.644623 37.633425 -1.123643 0.784128 0.006367 -0.013461 -1144080.000000 0 0 1
-10.189823 23.535923 26.662593 36.995487 -1.162213 0.765987 -0.023645 -0.002267 -1422410.000000 0 0 1
-9.871523 22.862223 27.866723 37.372215 -1.163194 0.729281 -0.041377 0.006279 903382.000000 0 0 1
-8.311023 22.522123 27.905183 36.810574 -1.217282 0.710440 -0.029743 -0.004265 1298410.000000 0 0 1
-7.544523 23.620123 28.238043 37.579477 -1.261628 0.720582 -0.016945 -0.000048 -435404.000000 0 0 1
-7.225123 24.483423 27.175403 37.284621 -1.283839 0.754136 -0.017077 -0.001738 -1018670.000000 0 0 1
-6.219523 25.594623 27.474953 38.061007 -1.332416 0.764301 -0.015481 -0.007463 494846.000000 0 0 1
-4.907023 25.040823 27.675913 37.644095 -1.377287 0.744836 -0.019482 -0.004798 134061.000000 0 0 1
-4.013123 26.014923 28.154423 38.542871 -1.417740 0.751786 -0.013072 -0.000703 495253.000000 0 0 1
-2.542023 25.490923 28.044303 37.983312 -1.471402 0.740202 -0.010408 -0.000036 630211.000000 0 0 1
-1.973823 25.495723 26.717873 36.983410 -1.493533 0.763488 -0.011221 -0.007531 1216440.000000 0 0 1
-0.597123 25.016523 26.801793 36.667685 -1.546932 0.751101 -0.000811 -0.001761 1566140.000000 0 0 1
-0.039523 24.706223 25.342183 35.392446 -1.569197 0.772693 0.000354 -0.008105 -109064.000000 0 0 1
-0.506223 23.491623 24.791103 34.157158 -1.549251 0.758607 0.000889 -0.002971 -97946.900000 0 0 1
-0.188623 23.269923 23.459193 33.043284 -1.562691 0.781364 0.001756 0.002223 -296129.000000 0 0 1
-0.641923 21.926423 22.977023 31.766707 -1.541528 0.762220 0.004814 0.007743 142371.000000 0 0 1
0.090777 20.844823 23.526373 31.432549 1.566441 0.725042 0.012882 0.008153 57471.300000 0 0 1
-0.280523 19.712223 22.773623 30.121227 -1.556566 0.713516 0.021008 0.006122 48174.200000 0 0 1
0.718077 18.540623 22.991223 29.544317 1.532086 0.679011 0.026292 0.012180 -583049.000000 0 0 1
1.927677 18.800123 22.387923 29.298117 1.468618 0.701086 0.027296 0.007568 -913590.000000 0 0 1
2.830677 17.707023 22.379823 28.677655 1.412276 0.675503 0.013784 0.007081 -101306.000000 0 0 1
4.160377 18.014523 21.700123 28.508369 1.343830 0.705659 0.023931 0.003057 173120.000000 0 0 1
5.131477 18.622923 22.565023 29.703966 1.301922 0.708001 0.028045 0.012904 -147332.000000 0 0 1
6.362877 18.817723 21.926323 29.586425 1.244733 0.736098 0.043974 0.002996 35500.800000 0 0 1
7.521277 19.527023 22.683123 30.860951 1.203137 0.745114 0.056542 -0.000695 -8736.990000 0 0 1
7.238877 20.739023 23.423383 32.111731 1.234971 0.753302 0.050074 0.006051 -158384.000000 0 0 1
6.724777 21.798923 22.617823 32.124470 1.271568 0.789686 0.055119 -0.006771 -118245.000000 0 0 1
5.657777 22.601523 23.414913 33.031764 1.325510 0.782915 0.028126 -0.002217 -22777.100000 0 0 1
5.331277 23.792523 22.774623 33.364504 1.350364 0.819481 0.019708 -0.004291 -27156.700000 0 0 1
4.234077 24.407223 23.394823 34.072829 1.399029 0.813977 -0.004924 0.002973 -430548.000000 0 0 1
3.886177 25.785423 22.868623 34.683776 1.421210 0.850847 -0.001416 0.004955 -23724.400000 0 0 1
3.718677 25.811723 21.489023 33.791296 1.427712 0.881579 0.006225 -0.007219 857957.000000 0 0 1
2.532177 25.182823 20.948923 32.854891 1.470581 0.879392 0.005895 -0.009200 378163.000000 0 0 1
2.533977 25.566623 19.458223 32.228802 1.472006 0.922596 0.014134 -0.009496 -444089.000000 0 0 1
1.951777 26.865023 19.288423 33.129778 1.498273 0.949354 0.006059 -0.011283 355852.000000 0 0 1
1.771077 27.202323 17.932523 32.629411 1.505781 0.988933 0.012272 -0.008166 -783087.000000 0 0 1
0.707977 28.229623 17.680123 33.316656 1.545722 1.011406 0.007320 0.009569 -647843.000000 0 0 1
0.947377 29.490323 18.346523 34.744375 1.538682 1.014502 0.001098 0.012878 418578.000000 0 0 1
-0.240123 30.274923 18.461823 35.460789 -1.562865 1.023212 0.002527 0.012444 231425.000000 0 0 1
-0.253323 31.674523 19.132023 37.005052 -1.562799 1.027441 0.005606 0.016847 -207400.000000 0 0 1
0.279277 31.631923 20.394823 37.637818 1.561968 0.998135 0.001534 0.013911 92812.000000 0 0 1
0.835877 32.910023 20.795223 38.938536 1.545403 1.007410 0.009951 0.013528 98701.400000 0 0 1
1.451077 32.846323 22.175223 39.657623 1.526647 0.977416 0.014320 0.003238 -270187.000000 0 0 1
0.494377 32.842723 23.207423 40.217824 1.555745 0.955693 0.008168 0.006288 -100841.000000 0 0 1
1.047777 32.965123 24.477783 41.072607 1.539023 0.932331 0.024966 -0.006536 -631293.000000 0 0 1
0.042677 32.685323 25.586813 41.509242 1.569491 0.906618 0.022353 -0.000999 164244.000000 0 0 1
-1.017523 33.653623 25.696553 42.354628 -1.540570 0.918894 0.027231 0.001489 519645.000000 0 0 1
-1.942023 33.444523 26.737273 42.862447 -1.512794 0.897211 0.030655 -0.004708 -87738.800000 0 0 1
-1.467723 33.842223 28.166933 44.054811 -1.527454 0.877129 0.052984 -0.019783 -856764.000000 0 0 1
-0.445023 32.947623 28.519883 43.578982 -1.557290 0.857353 0.035018 -0.019365 -305933.000000 0 0 1
-0.251523 33.123223 29.951483 44.657614 -1.563203 0.835656 0.039402 -0.020037 -809573.000000 0 0 1
0.745377 32.071223 30.470243 44.244261 1.547559 0.811126 0.028630 -0.026064 -296659.000000 0 0 1
2.076477 32.211223 30.051713 44.101929 1.506421 0.821102 0.021455 -0.021213 -237073.000000 0 0 1
2.343877 31.852123 28.709583 42.945217 1.497343 0.838584 0.018558 -0.019513 -469924.000000 0 0 1
3.877377 31.705523 28.455913 42.778654 1.449107 0.843049 0.012746 -0.015369 523880.000000 0 0 1
4.402377 30.470123 28.953473 42.262429 1.427308 0.816072 0.017713 -0.022334 -22820.000000 0 0 1
5.757477 30.331323 28.565223 42.060785 1.383209 0.824204 0.039778 -0.032756 24065.200000 0 0 1
6.294877 29.022623 29.163143 41.622434 1.357209 0.794475 0.051433 -0.034174 -221899.000000 0 0 1
6.651577 29.250623 30.497053 42.777479 1.347199 0.777138 0.044599 -0.035878 156127.000000 0 0 1
7.269677 28.121423 31.136523 42.581049 1.317824 0.750674 0.043986 -0.034636 148234.000000 0 0 1
7.335177 28.163023 32.644516 43.733570 1.316003 0.728099 0.048342 -0.029665 590608.000000 0 0 1
6.006477 28.157523 33.201428 43.946089 1.360629 0.714374 0.043942 -0.028387 426155.000000 0 0 1
5.968277 27.980323 -33.908423 44.365527 1.360643 2.440746 0.052738 -0.026240 -188375.000000 0 0 1
5.917677 26.568923 -33.433533 43.112964 1.351644 2.458282 0.051439 -0.019746 703615.000000 0 0 1
7.206477 25.965423 -33.660043 43.117688 1.300069 2.466510 0.042239 -0.017001 738800.000000 0 0 1
7.454477 24.631623 -33.194343 42.001791 1.276921 2.482108 0.053416 -0.017386 547400.000000 0 0 1
8.938377 24.166323 -33.382763 42.170068 1.216532 2.484256 0.061348 -0.018721 341350.000000 0 0 1
9.170077 23.964523 33.723076 42.374928 1.205334 0.650426 0.055372 -0.011335 -286780.000000 0 0 1
10.397377 23.352923 33.463473 42.110194 1.151918 0.652342 0.063782 -0.024530 -345524.000000 0 0 1
10.349877 21.798523 33.730485 41.473379 1.127514 0.620987 0.059001 -0.025999 -805587.000000 0 0 1
9.666177 21.115423 32.683793 40.093970 1.141493 0.617757 0.061506 -0.022936 128806.000000 0 0 1
9.315377 19.749523 33.001849 39.571984 1.130064 0.584533 0.050290 -0.021661 1622210.000000 0 0 1
7.950377 19.727023 33.874861 39.998377 1.187690 0.560657 0.071483 -0.028511 1249620.000000 0 0 1
8.154177 20.210123 -33.298713 39.796281 1.187302 2.562079 0.075601 -0.028651 -276763.000000 0 0 1
6.910977 20.678623 -32.876673 39.449242 1.248258 2.556013 0.084579 -0.029588 -321063.000000 0 0 1
6.969277 21.031823 -31.364863 38.401341 1.250815 2.526578 0.089866 -0.039803 503108.000000 0 0 1
8.018877 21.956723 -31.054183 38.868526 1.220634 2.496351 0.087813 -0.034313 373267.000000 0 0 1
7.840277 22.545023 -29.771453 38.158713 1.236118 2.465783 0.060910 -0.032260 -567792.000000 0 0 1
9.176877 23.047623 -29.224693 38.333936 1.191868 2.437766 0.060648 -0.031128 -197740.000000 0 0 1
9.973877 21.938323 -28.949293 37.667357 1.144097 2.447370 0.061713 -0.036624 323730.000000 0 0 1
11.396477 22.141523 -28.890833 38.141932 1.095450 2.430204 0.060964 -0.038400 1234950.000000 0 0 1
12.174877 20.783023 -28.809643 37.552060 1.040877 2.445248 0.059012 -0.047284 -41140.300000 0 0 1
12.235277 19.899823 -29.910993 37.952239 1.019534 2.478548 0.052288 -0.037672 592931.000000 0 0 1
10.947977 19.383823 -30.286423 37.588006 1.056662 2.507732 0.067892 -0.031909 556946.000000 0 0 1
11.014077 18.402823 -31.473733 38.086345 1.031481 2.543442 0.058993 -0.026086 -132982.000000 0 0 1
11.749877 17.207323 -31.172293 37.494845 0.971679 2.552375 0.055895 -0.023099 240923.000000 0 0 1
11.744277 16.211123 -32.250943 37.958555 0.943844 2.586090 0.044802 -0.018099 99001.500000 0 0 1
12.733377 16.543723 -33.425213 39.409117 0.914818 2.583297 0.031946 0.001278 -22373.400000 0 0 1
12.527877 17.820923 -34.031943 40.406759 0.958068 2.572210 0.046873 -0.007762 -59710.500000 0 0 1
13.127477 18.049723 33.174172 39.983107 0.941985 0.592218 0.051047 -0.011063 116145.000000 0 0 1
12.460177 17.313823 31.982623 38.443630 0.946993 0.588209 0.064855 -0.028294 -1001770.000000 0 0 1
12.952777 17.661123 30.724063 37.731389 0.938000 0.619302 0.061690 -0.018041 -362268.000000 0 0 1
12.164877 17.243523 29.646893 36.390405 0.956405 0.618602 0.070173 -0.023473 906883.000000 0 0 1
10.610077 17.487623 29.658073 36.027656 1.025451 0.603767 0.057437 -0.026389 465492.000000 0 0 1
9.860777 16.603123 30.483223 36.084976 1.034866 0.564676 0.057089 -0.027265 -708676.000000 0 0 1
8.514677 16.977523 30.473663 35.907940 1.105928 0.557348 0.061550 -0.022552 -444577.000000 0 0 1
7.790477 16.066623 31.485283 36.196008 1.119313 0.515888 0.062862 -0.020952 -190646.000000 0 0 1
8.145477 16.378823 32.890711 37.635270 1.109297 0.507560 0.070033 -0.022619 191135.000000 0 0 1
7.519477 15.586723 33.889891 38.052769 1.121305 0.472128 0.087324 -0.023794 -297957.000000 0 0 1
7.774877 15.902623 -33.127913 37.560628 1.116064 2.650854 0.093797 -0.028798 -20615.600000 0 0 1
6.765877 16.795223 -32.662713 37.345809 1.187840 2.635410 0.091374 -0.029463 400296.000000 0 0 1
6.800477 16.840823 -31.277213 36.167995 1.187011 2.615500 0.093820 -0.040186 65753.300000 0 0 1
5.579477 17.602623 -30.696193 35.822328 1.263846 2.600024 0.095885 -0.045357 -301656.000000 0 0 1
5.449177 17.460123 -29.311763 34.550382 1.268283 2.583709 0.091213 -0.051901 -120000.000000 0 0 1
4.839677 18.570723 -28.750733 34.567309 1.315859 2.553016 0.106527 -0.056396 584325.000000 0 0 1
3.272577 18.637523 -28.748273 34.417005 1.396978 2.559461 0.115603 -0.056456 -731754.000000 0 0 1
2.747077 17.525523 -28.062353 33.199187 1.415314 2.577871 0.128107 -0.056394 599332.000000 0 0 1
1.371577 17.284623 -28.390033 33.266100 1.491610 2.593313 0.112473 -0.051899 1025950.000000 0 0 1
0.302277 18.343523 -28.009813 33.483217 1.554319 2.561721 0.106061 -0.055852 -938264.000000 0 0 1
0.213077 18.593423 -26.613783 32.466201 1.559337 2.531750 0.118252 -0.061023 588101.000000 0 0 1
-0.765323 19.637623 -26.407813 32.917997 -1.531844 2.501818 0.108808 -0.057764 485539.000000 0 0 1
-1.280823 19.912323 -24.966413 31.960333 -1.506562 2.467332 0.100402 -0.061384 -261404.000000 0 0 1
-2.423823 19.223623 -24.530013 31.259305 -1.445373 2.473052 0.089037 -0.044710 -290941.000000 0 0 1
-2.732423 19.483923 -23.220113 30.434570 -1.431465 2.438664 0.077668 -0.044174 -467166.000000 0 0 1
-4.045023 18.862423 -22.788013 29.857105 -1.359547 2.439103 0.058098 -0.034098 -816314.000000 0 0 1
-5.233723 19.558023 -22.923313 30.584087 -1.309323 2.418129 0.050271 -0.028151 -387178.000000 0 0 1
-6.373423 18.878223 -22.433913 30.004804 -1.245204 2.415354 0.044543 -0.028050 571205.000000 0 0 1
-7.656923 19.747023 -22.338113 30.782539 -1.200894 2.382811 0.046309 -0.025792 241814.000000 0 0 1
-7.553023 20.617523 -21.232313 30.544091 -1.219640 2.339406 0.032104 -0.029115 169451.000000 0 0 1
-7.203023 21.906623 -21.612613 31.605201 -1.253126 2.323797 0.040115 -0.024991 -165702.000000 0 0 1
-7.392823 22.914323 -20.452613 31.591603 -1.258710 2.274973 0.057856 -0.030896 -462841.000000 0 0 1
-6.498523 22.701923 -19.414213 30.569916 -1.291997 2.258903 0.070172 -0.030558 -391880.000000 0 0 1
-6.824523 23.470523 -18.283313 30.524074 -1.287829 2.213023 0.075156 -0.033387 -65898.200000 0 0 1
-5.821323 23.387023 -17.108113 29.555510 -1.326841 2.188110 0.068048 -0.028837 160768.000000 0 0 1
-4.540923 23.874623 -17.414913 29.898107 -1.382843 2.192567 0.049110 -0.029039 -468873.000000 0 0 1
-3.621823 23.717023 -16.345713 29.030968 -1.419257 2.168861 0.035109 -0.023623 59494.600000 0 0 1
-2.205623 24.207823 -16.698113 29.490854 -1.479935 2.172701 0.027526 -0.012525 -436864.000000 0 0 1
-2.050323 25.614023 -16.652613 30.620116 -1.490920 2.145809 0.007683 -0.013556 -63731.600000 0 0 1
-0.948523 26.038323 -17.430513 31.348313 -1.534384 2.160395 0.006525 -0.009724 -42597.400000 0 0 1
-0.837623 27.601623 -17.520713 32.703617 -1.540459 2.136183 -0.000139 -0.021316 -529917.000000 0 0 1
-1.967223 28.260723 -18.023713 33.576668 -1.501299 2.137428 0.018855 -0.030315 -142930.000000 0 0 1
-1.660223 29.599523 -18.330213 34.855198 -1.514766 2.124565 0.031596 -0.017808 -486248.000000 0 0 1
-2.701223 30.305123 -19.225513 35.990519 -1.481897 2.134337 0.063766 -0.022620 453859.000000 0 0 1
-3.669923 31.087923 -18.521013 36.372451 -1.453290 2.105056 0.062477 -0.021567 558066.000000 0 0 1
-4.837523 30.377823 -18.084913 35.683019 -1.412877 2.102290 0.044247 -0.021325 89386.800000 0 0 1
-5.758023 31.305023 -17.273113 36.214910 -1.388897 2.067991 0.061383 -0.014898 10858.600000 0 0 1
-6.326223 32.360623 -18.081413 37.605432 -1.377740 2.072385 0.077278 -0.025702 39571.100000 0 0 1
-6.745923 33.450723 -17.306213 38.261774 -1.371798 2.040151 0.084814 -0.040215 35083.000000 0 0 1
-7.036723 -33.906982 -18.139913 39.092907 1.366171 2.053325 0.077750 -0.029726 927548.000000 0 0 1
-8.283923 -34.087182 -18.842713 39.819684 1.332396 2.063717 0.081842 -0.033334 564994.000000 0 0 1
-8.769723 -32.946282 -19.483913 39.268160 1.310646 2.089985 0.114617 -0.043435 -92531.800000 0 0 1
29.575177 -20.928677 -25.962243 44.572847 -0.615837 2.192558 0.041615 0.002619 227124.000000 0 0 1
28.809477 -21.999477 -25.472373 44.303552 -0.652161 2.183341 0.050705 -0.005500 -797031.000000 0 0 1
27.441577 -21.945977 -25.746443 43.560824 -0.674579 2.203151 0.040232 -0.006121 -96123.800000 0 0 1
26.841577 -23.341677 -25.268483 43.632561 -0.715769 2.188445 0.048086 -0.002248 156936.000000 0 0 1
27.202777 -24.457377 -26.097843 44.936085 -0.732305 2.190479 0.050135 0.012176 83955.100000 0 0 1
28.513577 -24.976677 -25.912423 45.916360 -0.719372 2.170429 0.050549 0.016555 403969.000000 0 0 1
28.903677 -26.331407 -26.564563 47.269880 -0.738862 2.167570 0.048716 0.020587 -9438.520000 0 0 1
28.441977 -27.456247 -25.834353 47.225050 -0.767766 2.149630 0.059148 0.006134 -350424.000000 0 0 1
28.562277 -28.683207 -26.498283 48.380668 -0.787511 2.150414 0.045483 0.009988 223220.000000 0 0 1
27.583577 -29.042117 -27.662323 48.677535 -0.811150 2.175207 0.060172 -0.000136 -313854.000000 0 0 1
27.591377 -28.268577 -28.899213 48.944469 -0.797521 2.202411 0.029466 -0.001813 336475.000000 0 0 1
28.649377 -28.534647 -29.847513 50.258202 -0.783392 2.206673 0.019510 0.003432 -12985.000000 0 0 1
28.752877 -30.029367 -30.448753 51.532683 -0.807110 2.202924 0.037403 0.006008 -237781.000000 0 0 1
29.352977 -31.094677 -29.629133 52.022704 -0.814204 2.176745 0.046892 0.011241 677053.000000 0 0 1
30.608077 -30.873617 -28.997103 52.257694 -0.789717 2.159023 0.036933 0.018854 1061050.000000 0 0 1
31.886177 -30.451967 -29.819913 53.228543 -0.762395 2.165453 0.020993 0.013903 148516.000000 0 0 1
31.884977 -29.117957 -30.281753 52.739850 -0.740070 2.182389 0.030249 0.004975 -466081.000000 0 0 1
33.015977 -28.868947 -31.061243 53.742643 -0.718486 2.187026 0.019106 0.000664 -349875.000000 0 0 1
32.796277 -27.558557 -31.795523 53.348150 -0.698833 2.209307 0.011853 0.002194 292525.000000 0 0 1
32.901477 -26.354227 -31.055163 52.359102 -0.675353 2.205723 0.014412 0.010748 418599.000000 0 0 1
31.716877 -26.172247 -30.265833 51.058471 -0.689909 2.205288 0.023712 0.012894 95101.000000 0 0 1
31.583977 -24.889577 -29.362773 49.791677 -0.667408 2.201499 0.020005 0.015925 61337.100000 0 0 1
32.510477 -24.742277 -28.242233 49.666237 -0.650539 2.175648 0.021507 0.015762 761951.000000 0 0 1
32.272477 -23.565477 -27.468013 48.490579 -0.630711 2.173001 0.015046 0.014018 -214687.000000 0 0 1
33.239077 -23.502077 -26.288493 48.458938 -0.615450 2.144195 0.017554 0.011526 -466937.000000 0 0 1
32.858477 -24.243677 -25.118483 47.941355 -0.635661 2.122269 0.028761 0.009258 -176760.000000 0 0 1
32.023577 -23.470077 -24.302413 46.550631 -0.632467 2.120066 0.048745 0.011728 -343734.000000 0 0 1
32.650277 -22.298677 -23.514213 46.002063 -0.599195 2.107325 0.059115 0.003656 -491993.000000 0 0 1
32.954977 -21.164777 -24.268413 46.075310 -0.570896 2.125524 0.052962 0.008230 -7619.860000 0 0 1
33.049177 -20.002777 -23.526513 45.231140 -0.544266 2.117811 0.033507 -0.004812 -105204.000000 0 0 1
33.126477 -18.768777 -24.363713 45.202002 -0.515483 2.140041 0.026760 -0.019496 -470862.000000 0 0 1
31.990077 -18.517477 -25.121983 44.692013 -0.524723 2.167735 0.035474 -0.027723 -453775.000000 0 0 1
32.119977 -17.392277 -25.969283 44.817272 -0.496277 2.188848 0.025195 -0.021146 -104467.000000 0 0 1
30.985677 -17.185177 -26.988243 44.539957 -0.506381 2.221735 0.015111 -0.007821 233272.000000 0 0 1
29.717677 -16.800277 -26.452843 43.187296 -0.514536 2.230034 0.015191 -0.009161 338160.000000 0 0 1
28.866577 -16.716377 -27.595643 43.292448 -0.524903 2.261947 0.001187 -0.001521 1609320.000000 0 0 1
27.304177 -16.447377 -27.332043 41.988985 -0.542165 2.279610 -0.000868 -0.001583 1944330.000000 0 0 1
26.486377 -17.460577 -26.775973 41.513283 -0.582835 2.271817 0.020715 0.003328 167643.000000 0 0 1
26.893777 -17.926677 -25.458853 41.143580 -0.587938 2.237986 0.031530 -0.002711 -486838.000000 0 0 1
25.690677 -18.412377 -24.645313 40.080144 -0.621843 2.233057 0.045411 -0.008632 -355120.000000 0 0 1
26.019677 -18.572577 -23.276713 39.544526 -0.619921 2.200147 0.063093 -0.000720 317536.000000 0 0 1
24.993677 -19.307977 -22.585913 38.827894 -0.657755 2.191605 0.071547 -0.015192 419218.000000 0 0 1
24.893977 -19.005577 -21.066513 37.745463 -0.652061 2.162915 0.073470 -0.027618 -103008.000000 0 0 1
24.232077 -17.799477 -20.715513 36.512291 -0.633534 2.174089 0.060827 -0.025468 14427.100000 0 0 1
24.788977 -16.593377 -21.156413 36.570854 -0.589882 2.187691 0.066663 -0.023156 484864.000000 0 0 1
26.129077 -15.986077 -20.619613 36.924948 -0.549059 2.163276 0.066035 -0.021404 585326.000000 0 0 1
25.944777 -14.986277 -19.576213 35.790335 -0.523803 2.149536 0.062625 -0.030773 -340154.000000 0 0 1
27.002877 -14.090777 -19.466813 36.147782 -0.480955 2.139493 0.060003 -0.026989 -454619.000000 0 0 1
26.805477 -12.965577 -18.402813 35.004333 -0.450516 2.124369 0.060858 -0.019712 -138017.000000 0 0 1
26.934277 -13.526377 -17.082613 34.644391 -0.465406 2.086428 0.058998 -0.025367 223301.000000 0 0 1
26.625977 -12.503777 -16.141213 33.553328 -0.439040 2.072661 0.045615 -0.019347 138714.000000 0 0 1
27.264177 -12.834177 -14.768613 33.558358 -0.439962 2.026492 0.056100 -0.023849 -5439.890000 0 0 1
26.707777 -13.917877 -14.044913 33.230592 -0.480398 2.007164 0.063107 -0.028283 3494.510000 0 0 1
27.373877 -14.123277 -12.841913 33.372306 -0.476318 1.965796 0.070758 -0.029117 -329669.000000 0 0 1
26.937077 -15.337177 -12.015313 33.244591 -0.517593 1.940588 0.062962 -0.032016 -286875.000000 0 0 1
25.596277 -15.212177 -11.604313 31.956843 -0.536227 1.942415 0.052443 -0.033790 135195.000000 0 0 1
25.071077 -16.425577 -11.073213 31.952692 -0.579994 1.924687 0.040782 -0.030736 -1201410.000000 0 0 1
23.638677 -16.311477 -10.661213 30.635156 -0.604006 1.926239 0.058812 -0.034108 -1454000.000000 0 0 1
23.478877 -15.565177 -9.504413 29.729888 -0.585421 1.896201 0.055290 -0.033721 395617.000000 0 0 1
22.094977 -15.571777 -9.209213 28.556573 -0.613917 1.899155 0.061620 -0.030249 -143946.000000 0 0 1
21.771777 -15.472577 -7.686013 27.793627 -0.617852 1.850987 0.064001 -0.027227 -424286.000000 0 0 1
22.064077 -14.211377 -7.135713 27.197521 -0.572213 1.836270 0.070449 -0.018758 469267.000000 0 0 1
21.704377 -13.969377 -5.771713 26.448746 -0.571877 1.790789 0.066078 -0.016246 -4269.710000 0 0 1
22.607977 -14.760177 -4.755813 27.415346 -0.578393 1.745151 0.065975 -0.012204 -5597.540000 0 0 1
23.924277 -14.262977 -4.754713 28.256165 -0.537600 1.739872 0.067426 -0.016705 -19855.500000 0 0 1
24.772677 -15.003177 -3.922713 29.226162 -0.544552 1.705422 0.057583 -0.024494 8833.820000 0 0 1
26.290477 -14.814877 -4.150913 30.461448 -0.513154 1.707489 0.066138 -0.023273 114261.000000 0 0 1
26.875877 -13.710277 -3.507213 30.374084 -0.471721 1.686522 0.068068 -0.024126 -188441.000000 0 0 1
28.154877 -13.434477 -4.009413 31.452467 -0.445212 1.698619 0.069823 -0.031874 -429790.000000 0 0 1
28.773377 -12.166977 -3.375913 31.421956 -0.400053 1.678442 0.074699 -0.032570 -1139480.000000 0 0 1
29.214977 -12.392677 -2.032713 31.799768 -0.401184 1.634762 0.083611 -0.043485 242076.000000 0 0 1
29.786677 -11.261777 -1.441113 31.877116 -0.361469 1.616020 0.079826 -0.036684 505507.000000 0 0 1
31.226577 -10.795877 -1.852913 33.092044 -0.332863 1.626818 0.079706 -0.033733 -51760.000000 0 0 1
31.313777 -10.355077 -3.181113 33.134570 -0.319367 1.666950 0.072392 -0.023430 490595.000000 0 0 1
32.578977 -10.579977 -3.788913 34.462755 -0.314004 1.680961 0.080622 -0.030272 128148.000000 0 0 1
32.413577 -10.520777 -5.301913 34.488215 -0.313851 1.725140 0.075657 -0.027844 189879.000000 0 0 1
31.498877 -11.469677 -5.873713 34.032826 -0.349207 1.744254 0.057076 -0.025857 658832.000000 0 0 1
31.423177 -11.262477 -7.280113 34.165179 -0.344150 1.785528 0.050645 -0.017518 -138016.000000 0 0 1
30.192077 -11.968977 -7.861313 33.415837 -0.377423 1.808279 0.059453 -0.013815 29310.300000 0 0 1
30.330977 -13.378177 -7.802313 34.056128 -0.415406 1.801951 0.058093 -0.017466 217574.000000 0 0 1
29.025477 -13.886177 -7.917813 33.136022 -0.446230 1.812079 0.060920 -0.022082 74193.100000 0 0 1
29.047877 -15.452177 -7.944013 33.847544 -0.488884 1.807706 0.068927 -0.027280 93780.300000 0 0 1
29.552577 -15.799577 -9.236613 34.760559 -0.490963 1.839748 0.078268 -0.034178 341918.000000 0 0 1
29.589877 -17.197677 -9.275513 35.459217 -0.526482 1.835458 0.073043 -0.031841 -64918.300000 0 0 1
29.741877 -17.702777 -10.747313 36.241858 -0.536893 1.871868 0.069565 -0.035271 -312020.000000 0 0 1
31.024377 -17.430377 -11.248613 37.321057 -0.511879 1.876958 0.076739 -0.027451 -44514.800000 0 0 1
31.302177 -17.952677 -12.517013 38.194247 -0.520727 1.904685 0.073140 -0.019620 90330.100000 0 0 1
30.626877 -17.327777 -13.799113 37.797790 -0.514870 1.944512 0.072817 -0.026105 367424.000000 0 0 1
31.366677 -16.170377 -14.138913 38.016554 -0.475992 1.951867 0.064950 -0.023566 601730.000000 0 0 1
30.619377 -15.481277 -15.125213 37.496510 -0.468121 1.986000 0.064502 -0.028838 -408673.000000 0 0 1
31.438377 -14.409477 -15.902613 38.064388 -0.429768 2.001799 0.062629 -0.019975 784692.000000 0 0 1
32.554977 -14.779077 -16.727613 39.472277 -0.426153 2.008412 0.041756 -0.025185 864034.000000 0 0 1
33.680477 -15.273277 -16.013713 40.299957 -0.425741 1.979438 0.055530 -0.021672 -415772.000000 0 0 1
34.886077 -15.353877 -16.988113 41.729796 -0.414603 1.990071 0.051904 -0.017878 -633303.000000 0 0 1
-36.137679 -15.576177 -16.502713 42.671872 0.406961 1.967885 0.047763 -0.016288 -765391.000000 0 0 1
-35.345679 -16.187877 -17.478113 42.624510 0.429476 1.993303 0.044403 -0.015458 -1243130.000000 0 0 1
-33.907179 -16.116177 -17.041613 41.229171 0.443695 1.996914 0.038767 -0.012708 -1278940.000000 0 0 1
-33.401179 -16.995377 -16.037713 40.763830 0.470683 1.975156 0.037872 -0.016800 236855.000000 0 0 1
-33.882379 -16.775777 -14.711413 40.569299 0.459734 1.941879 0.048214 -0.021583 -340185.000000 0 0 1
-33.163479 -17.716777 -13.709913 40.020773 0.490652 1.920447 0.053494 -0.024609 -352739.000000 0 0 1
-31.803379 -17.451877 -13.475213 38.698893 0.501878 1.926454 0.049117 -0.026243 -78673.000000 0 0 1
-31.369079 -18.035777 -12.274213 38.209484 0.521800 1.897829 0.051957 -0.017458 -102444.000000 0 0 1
-29.862079 -17.794477 -12.047613 36.790381 0.537391 1.904417 0.065425 -0.025552 -95016.700000 0 0 1
-29.439479 -16.514977 -11.646213 35.708006 0.511235 1.903026 0.058348 -0.031140 574543.000000 0 0 1
-28.051879 -16.480177 -11.298613 34.440714 0.531170 1.905045 0.051001 -0.024910 696471.000000 0 0 1
-27.945879 -16.293277 -9.761413 33.789469 0.527848 1.863863 0.061592 -0.025226 -145745.000000 0 0 1
-28.383379 -17.401677 -9.079013 34.508884 0.549992 1.837022 0.058547 -0.024449 -283204.000000 0 0 1
-28.895479 -17.008377 -7.833313 34.432461 0.532008 1.800304 0.056839 -0.022310 -199864.000000 0 0 1
-29.395279 -18.172577 -6.952413 35.251398 0.553705 1.769322 0.044341 -0.018458 224905.000000 0 0 1
-30.404679 -19.087277 -7.383213 36.650791 0.560592 1.773632 0.048065 -0.021776 155592.000000 0 0 1
-30.190479 -19.709177 -8.678413 37.084114 0.578360 1.807006 0.041065 -0.019824 -1055220.000000 0 0 1
-31.376379 -20.487977 -9.176913 38.580437 0.578463 1.810963 0.044435 -0.022906 -285386.000000 0 0 1
-32.519079 -19.705877 -9.519913 39.197460 0.544804 1.816120 0.044271 -0.023892 213158.000000 0 0 1
-33.573779 -20.552477 -9.887213 40.587682 0.549312 1.816874 0.053159 -0.023873 -68751.100000 0 0 1
-34.926179 -19.880477 -10.202513 41.462786 0.517475 1.819414 0.057011 -0.027713 195427.000000 0 0 1
-35.189379 -19.546277 -11.557913 41.880004 0.507025 1.850402 0.056752 -0.031072 1645400.000000 0 0 1
35.791277 -18.924977 -11.721113 42.149196 -0.486390 1.852598 0.068084 -0.032784 1669160.000000 0 0 1
35.272377 -18.787477 -13.204513 42.088823 -0.489417 1.889915 0.051276 -0.025896 27494.800000 0 0 1
35.000877 -20.030177 -13.822413 42.630136 -0.519785 1.901005 0.039320 -0.020270 48769.200000 0 0 1
34.617977 -19.988077 -15.168913 42.755391 -0.523629 1.933479 0.032828 -0.015904 332520.000000 0 0 1
33.304077 -20.796077 -15.419913 42.183078 -0.558190 1.945017 0.051171 -0.026666 -432302.000000 0 0 1
32.183677 -20.179177 -14.897013 40.803299 -0.560036 1.944529 0.068926 -0.026064 -1265700.000000 0 0 1
31.036977 -20.908377 -15.159013 40.376352 -0.592829 1.955671 0.077984 -0.028889 -376994.000000 0 0 1
30.121677 -20.544377 -16.333813 39.952225 -0.598575 1.991972 0.083956 -0.033595 -375708.000000 0 0 1
29.521777 -19.265677 -16.220613 38.804767 -0.578195 2.002045 0.068850 -0.029938 655562.000000 0 0 1
28.566177 -19.067377 -17.276413 38.445621 -0.588566 2.036859 0.069524 -0.035364 582514.000000 0 0 1
27.685377 -17.780677 -17.192013 37.124088 -0.570901 2.052281 0.070309 -0.031230 313050.000000 0 0 1
26.678077 -17.792777 -16.190713 35.922721 -0.588194 2.038356 0.068129 -0.036604 127795.000000 0 0 1
26.132977 -16.523277 -16.075613 34.847905 -0.563815 2.050265 0.056738 -0.028819 132827.000000 0 0 1
24.724177 -16.562077 -15.339813 33.479803 -0.590220 2.046744 0.045699 -0.026240 1393060.000000 0 0 1
23.591177 -17.095677 -16.014413 33.245559 -0.627088 2.073391 0.049530 -0.022852 668395.000000 0 0 1
23.196577 -16.351677 -17.209113 33.190542 -0.614019 2.115886 0.053845 -0.020997 -523362.000000 0 0 1
22.167477 -17.067277 -18.136013 33.340725 -0.656131 2.145945 0.039321 -0.014996 -168355.000000 0 0 1
20.864677 -16.880277 -17.692013 32.144763 -0.680227 2.153622 0.032917 -0.007536 -1145980.000000 0 0 1
19.943377 -17.682777 -18.352713 32.361103 -0.725390 2.173804 0.029198 -0.007467 342825.000000 0 0 1
18.481677 -17.608077 -17.841013 31.143515 -0.761197 2.180793 0.039833 -0.009741 514004.000000 0 0 1
17.725577 -16.421277 -18.068913 30.171842 -0.747220 2.212882 0.042824 -0.008307 1362950.000000 0 0 1
16.335377 -16.698277 -17.763413 29.346479 -0.796383 2.220939 0.044675 -0.008421 1544930.000000 0 0 1
15.345877 -15.480377 -17.754213 28.113166 -0.789761 2.254317 0.046440 -0.009964 287241.000000 0 0 1
14.767477 -15.110777 -18.964213 28.391114 -0.796888 2.302265 0.040056 -0.004290 -522139.000000 0 0 1
13.489877 -14.581077 -18.754813 27.318997 -0.824252 2.327477 0.037583 -0.006620 -268657.000000 0 0 1
12.973377 -13.952877 -20.078313 27.679052 -0.821759 2.382408 0.032469 -0.003499 -205732.000000 0 0 1
13.503877 -12.745177 -20.545613 27.693256 -0.756502 2.406695 0.040302 -0.005406 -73586.300000 0 0 1
12.693977 -12.105577 -21.540713 27.779207 -0.761676 2.458185 0.043486 -0.009976 16405.000000 0 0 1
13.216477 -10.717077 -21.929213 27.756466 -0.681345 2.481700 0.046395 -0.008881 -326490.000000 0 0 1
14.238877 -10.755777 -22.879713 29.015748 -0.646936 2.479207 0.053423 -0.010192 -289222.000000 0 0 1
14.873877 -9.489477 -22.970313 28.964075 -0.567890 2.486616 0.070212 -0.008998 -282929.000000 0 0 1
16.027277 -9.432877 -23.948813 30.321583 -0.531959 2.481324 0.066617 -0.009009 -181777.000000 0 0 1
15.574877 -9.482777 -25.298563 31.185207 -0.546902 2.517059 0.079243 -0.010883 -208748.000000 0 0 1
16.675477 -9.755277 -26.098603 32.471126 -0.529323 2.504364 0.084840 -0.015263 -527134.000000 0 0 1
21.920577 4.999423 -7.014313 23.552208 0.224234 1.873204 0.066990 0.012014 -306281.000000 0 1 0
21.843877 6.349023 -7.284913 23.885875 0.282861 1.880722 0.062653 0.003056 680047.000000 0 1 0
21.382377 7.083923 -6.168613 23.354652 0.319917 1.838096 0.057249 0.001544 -264543.000000 0 1 0
21.241277 8.625123 -6.419413 23.807424 0.385715 1.843815 0.052543 0.004621 893279.000000 0 1 0
20.010577 9.054823 -7.106713 23.085025 0.424933 1.883728 0.011367 0.000822 1723260.000000 0 1 0
19.824477 10.461623 -7.201413 23.543912 0.485571 1.881650 0.026550 0.008228 -207783.000000 0 1 0
19.557077 11.254923 -5.910713 23.325717 0.522203 1.826989 0.048120 0.007209 -840252.000000 0 1 0
20.594477 11.355723 -5.001713 24.043753 0.503915 1.780352 0.059227 0.004570 -508696.000000 0 1 0
20.361277 12.380723 -4.080913 24.176802 0.546319 1.740403 0.084744 -0.003091 97319.000000 0 1 0
21.349877 12.572823 -2.882113 24.943931 0.532214 1.686599 0.076910 -0.014299 -209699.000000 0 1 0
22.643577 12.972523 -3.319013 26.306535 0.520255 1.697300 0.079708 -0.021064 584656.000000 0 0 1
23.481077 13.199923 -2.185913 27.025491 0.512125 1.651768 0.078880 -0.023613 43826.800000 0 0 1
24.221877 11.943823 -1.657213 27.057357 0.458113 1.632083 0.066722 -0.026478 -569705.000000 0 0 1
25.379877 11.561623 -2.403113 27.992574 0.427454 1.656750 0.055313 -0.018191 525698.000000 0 0 1
25.989977 10.452623 -1.736413 28.066909 0.382383 1.632703 0.073334 -0.027047 -492129.000000 0 0 1
27.386677 10.196123 -2.306913 29.314038 0.356403 1.649574 0.067176 -0.015813 -160398.000000 0 0 1
28.237177 11.338323 -2.266313 30.512815 0.381832 1.645139 0.051250 -0.019663 54452.100000 0 0 1
29.596977 11.006823 -2.396713 31.668208 0.356041 1.646551 0.049145 -0.015086 -22688.200000 0 0 1
30.519477 12.200723 -2.032913 32.930667 0.380307 1.632569 0.025046 -0.007799 -387342.000000 0 0 1
30.557877 12.555723 -0.702413 33.044264 0.389853 1.592055 0.044773 -0.015327 956539.000000 0 0 1
31.441377 13.620723 -0.207913 34.265544 0.408804 1.576864 0.038391 -0.012913 731357.000000 0 0 1
32.967477 13.340223 -0.095313 35.564381 0.384507 1.573476 0.047461 -0.010390 424173.000000 0 0 1
33.764577 14.460423 0.287387 36.731908 0.404639 1.562972 0.054019 -0.011706 236966.000000 0 0 1
34.510577 15.052823 -0.756213 37.658190 0.411302 1.590879 0.053341 -0.001632 -202452.000000 0 0 1
33.759077 16.078023 -1.662213 37.429147 0.444474 1.615221 0.020387 0.019574 66967.500000 0 0 1
32.638177 15.515623 -2.306313 36.211935 0.443760 1.634529 0.026225 0.021765 -21349.400000 0 0 1
31.947377 16.477823 -3.100413 36.079996 0.476192 1.656834 0.022186 0.039919 533110.000000 0 0 1
30.649877 16.009223 -3.840013 34.791606 0.481348 1.681393 0.031236 0.020233 26171.500000 0 0 1
30.836877 15.176323 -4.959913 34.725128 0.457347 1.714120 0.018721 0.016676 1101560.000000 0 0 1
29.631777 14.721123 -5.630613 33.562739 0.461086 1.739357 0.017447 0.006695 1356290.000000 0 0 1
28.545677 13.813523 -4.943513 32.095286 0.450693 1.725438 0.028266 -0.013124 417094.000000 0 0 1
27.431377 13.658923 -5.794313 31.186867 0.461991 1.757676 0.038910 -0.019344 483469.000000 0 0 1
26.345377 12.943823 -5.221313 29.814150 0.456674 1.746833 0.055695 -0.009306 203255.000000 0 0 1
25.231277 12.585323 -6.219213 28.873626 0.462686 1.787892 0.052908 -0.007322 -162410.000000 0 0 1
25.631777 11.649923 -7.234513 29.069690 0.426599 1.822308 0.053213 -0.005345 212074.000000 0 0 1
24.658377 11.545623 -8.235513 28.445749 0.437905 1.864518 0.061491 -0.003552 -285566.000000 0 0 1
24.452777 12.672723 -9.304913 29.070907 0.478143 1.896607 0.067726 -0.000079 -305454.000000 0 0 1
23.751077 13.729623 -8.751513 28.795923 0.524133 1.879596 0.071005 -0.011283 18069.800000 0 0 1
23.650077 14.812123 -9.670313 29.533711 0.559536 1.904382 0.057277 -0.013321 -767951.000000 0 0 1
22.863777 16.028023 -9.168213 29.388874 0.611412 1.888054 0.050132 -0.010321 901823.000000 0 0 1
21.461977 15.805923 -8.933213 28.111313 0.634780 1.894184 0.065483 -0.010105 1010200.000000 0 0 1
21.137877 15.097923 -7.722513 27.099711 0.620232 1.859768 0.072802 -0.013259 -970769.000000 0 0 1
19.700377 14.601723 -7.761013 25.720585 0.637839 1.877317 0.074284 -0.012679 176455.000000 0 0 1
18.664577 15.501823 -7.332313 25.346316 0.693092 1.864276 0.083778 -0.024925 1081230.000000 0 0 1
17.343577 15.012923 -7.587813 24.161176 0.713492 1.890252 0.079090 -0.028048 422762.000000 0 1 0
16.435077 15.381423 -6.431813 23.410855 0.752294 1.849112 0.087609 -0.013592 -502399.000000 0 1 0
16.615077 14.463123 -5.434213 22.688618 0.716265 1.812660 0.071452 -0.019838 429789.000000 0 1 0
16.276577 15.018423 -4.141313 22.530656 0.745217 1.755655 0.075388 -0.004613 -142171.000000 0 1 0
15.918377 13.972723 -3.127813 21.410626 0.720398 1.717408 0.057765 0.009175 -263442.000000 0 1 0
17.066877 13.266223 -2.692313 21.783469 0.660751 1.694707 0.056318 0.002984 587077.000000 0 1 0
16.776977 12.421023 -1.602913 20.936048 0.637304 1.647434 0.045930 -0.000652 27093.800000 0 1 0
16.838577 13.103123 -0.261713 21.337713 0.661282 1.583062 0.056813 -0.003210 -220623.000000 0 1 0
15.878577 14.123723 -0.139213 21.251544 0.726974 1.577347 0.057237 -0.007328 302589.000000 0 1 0
16.119677 14.872523 1.032187 21.956806 0.745179 1.523769 0.061993 -0.004849 -92782.500000 0 1 0
14.888177 15.737323 1.406387 21.709423 0.813118 1.505969 0.057105 -0.006619 -36894.100000 0 1 0
14.565577 16.752123 0.508787 22.204696 0.855103 1.547881 0.063574 -0.008353 295114.000000 0 1 0
13.654577 17.615923 1.185687 22.319813 0.911407 1.517649 0.049151 -0.016790 105974.000000 0 1 0
13.473377 19.013923 0.474887 23.308511 0.954318 1.550421 0.040105 -0.017455 19725.000000 0 1 0
12.794077 19.036323 -0.772313 22.949215 0.979050 1.604456 0.038191 -0.018731 -135375.000000 0 1 0
12.307477 20.304923 -1.052013 23.767007 1.025880 1.615074 0.033778 -0.021212 454677.000000 0 1 0
10.769677 20.485323 -0.868313 23.160060 1.086780 1.608297 0.026413 -0.023740 385157.000000 0 1 0
10.283077 20.492223 0.456787 22.932107 1.105707 1.550876 0.017668 -0.033454 88322.700000 0 1 0
8.880077 20.661323 0.347687 22.491485 1.164874 1.555337 0.014771 -0.018176 311507.000000 0 1 0
8.070677 20.734323 1.662887 22.311727 1.199598 1.496197 -0.000311 -0.015389 -99631.300000 0 1 0
8.282077 21.870823 2.499187 23.519601 1.208802 1.464336 0.004486 -0.006114 170427.000000 0 1 0
7.283277 21.817323 3.495687 23.265028 1.248599 1.419970 0.001323 -0.006790 14979.100000 0 1 0
6.924677 23.197823 4.012187 24.539515 1.280711 1.406560 0.002346 -0.002970 -567723.000000 0 1 0
7.928977 23.682223 4.813987 25.434049 1.247720 1.380374 0.001642 -0.007534 -579999.000000 0 0 1
7.514477 24.794023 5.560287 26.497693 1.276520 1.359385 -0.010019 -0.001590 -131998.000000 0 0 1
8.189077 24.920323 6.932687 27.132004 1.253302 1.312414 -0.017080 0.005625 -81400.200000 0 0 1
7.481177 24.194023 7.946687 26.541827 1.270906 1.266730 0.005866 -0.014783 105781.000000 0 0 1
7.970977 24.303023 9.254587 27.199647 1.253869 1.223617 0.005871 -0.025441 -526028.000000 0 0 1
7.559177 23.227923 10.255087 26.492345 1.256171 1.173316 0.015853 -0.022339 -453006.000000 0 0 1
6.341177 23.600423 10.827487 26.728729 1.308307 1.153721 0.013576 -0.019866 -448707.000000 0 0 1
5.691277 22.533423 11.458187 25.912079 1.323400 1.112752 0.015397 -0.015509 -359264.000000 0 0 1
4.341477 22.885523 12.078087 26.238822 1.383320 1.092448 0.031269 -0.024944 -345234.000000 0 0 1
3.309877 23.019923 11.131487 25.783369 1.427992 1.124385 0.023208 -0.025366 9745.740000 0 0 1
2.066277 23.267223 11.773787 26.158273 1.482222 1.103921 0.028523 -0.026373 410473.000000 0 0 1
0.919977 23.584723 10.768587 25.943168 1.531809 1.142761 0.034440 -0.020293 -216500.000000 0 0 1
1.017477 24.801023 10.073387 26.788041 1.529794 1.185277 0.028570 -0.020145 -103542.000000 0 0 1
0.184577 24.815923 8.932687 26.375310 1.563359 1.225287 0.026643 -0.019505 1010500.000000 0 0 1
-1.262223 25.404823 9.173587 27.039840 -1.521153 1.224664 0.038644 -0.023618 618766.000000 0 0 1
-2.105023 24.655923 9.965787 26.677005 -1.485627 1.187939 0.040297 -0.022721 -328020.000000 0 0 1
-3.436523 25.098123 9.920987 27.205725 -1.434719 1.197523 0.050999 -0.022859 127372.000000 0 0 1
-4.603123 24.365223 10.654187 26.988230 -1.384075 1.164977 0.047823 -0.025930 557930.000000 0 0 1
-4.883323 24.734523 12.023287 27.932112 -1.375874 1.125809 0.046650 -0.015261 553236.000000 0 0 1
-5.678323 25.941323 12.264287 29.250783 -1.355304 1.138144 0.040549 -0.007317 507795.000000 0 0 1
-6.258923 25.982323 13.735387 30.048562 -1.334408 1.096057 0.050681 -0.012069 538542.000000 0 0 1
-7.334723 25.055423 13.973787 29.611469 -1.286013 1.079347 0.046638 -0.013570 498058.000000 0 0 1
-7.738123 25.026223 15.321787 30.347118 -1.270920 1.041548 0.033781 0.002489 -28336.900000 0 0 1
-9.109523 24.357023 15.494887 30.271100 -1.212903 1.033435 0.029342 -0.007612 -199745.000000 0 0 1
-10.256723 25.133323 15.208687 31.115727 -1.183333 1.060108 0.029452 -0.003309 -67427.200000 0 0 1
-11.352323 24.312423 15.574287 31.024628 -1.133949 1.044889 0.021593 -0.003909 -225054.000000 0 0 1
-12.722223 24.971123 15.339687 31.948677 -1.099596 1.069987 0.014955 -0.001075 -325503.000000 0 0 1
-13.112123 25.951423 16.294087 33.330188 -1.102952 1.060004 0.012538 -0.008618 140108.000000 0 0 1
-14.316523 26.599923 15.946587 34.158635 -1.077045 1.085083 0.015634 -0.006098 -86380.600000 0 0 1
-14.885923 27.434523 17.104687 35.592332 -1.073654 1.069489 0.032283 -0.004328 246449.000000 0 0 1
-15.670223 26.742423 18.092287 35.889329 -1.040758 1.042441 0.031556 -0.011364 297541.000000 0 0 1
-16.234923 27.624323 19.040987 37.272445 -1.039467 1.034612 0.045565 -0.021112 -396384.000000 0 0 1
-17.537623 27.090523 19.672587 37.795176 -0.996271 1.023354 0.024534 -0.025245 -441850.000000 0 0 1
-18.555523 27.237823 18.733087 37.909563 -0.972772 1.053937 0.023532 -0.015754 -322974.000000 0 0 1
-19.620823 26.325523 19.009487 37.939036 -0.930300 1.045981 0.031482 -0.028037 434346.000000 0 0 1
-20.770223 26.317323 17.958387 38.032977 -0.902662 1.079035 0.034385 -0.027637 36814.800000 0 0 1
-21.501423 27.524423 18.069187 39.324300 -0.907639 1.093374 0.026861 -0.025848 1028.660000 0 0 1
-22.317323 27.610423 16.915987 39.326187 -0.891019 1.126142 0.016955 -0.024598 -526474.000000 0 0 1
-23.171923 28.879823 16.866387 40.687310 -0.894620 1.143363 0.010283 -0.018191 -390357.000000 0 0 1
-24.347023 28.727223 17.628687 41.578859 -0.867741 1.132959 0.022703 -0.024746 26003.900000 0 0 1
-25.282693 29.730623 17.294187 42.687392 -0.866075 1.153669 0.015429 -0.017269 -86990.700000 0 0 1
-26.672673 29.606723 17.929387 43.697282 -0.837485 1.148003 0.030500 -0.011609 55701.100000 0 0 1
-27.552303 28.616423 17.377387 43.358997 -0.804341 1.158429 0.040894 -0.006054 -252866.000000 0 0 1
-28.786023 28.703423 18.027987 44.469427 -0.783961 1.153378 0.057944 -0.012012 -439600.000000 0 0 1
-29.235903 27.541923 18.939287 44.407118 -0.755572 1.130185 0.064132 -0.016388 -240002.000000 0 0 1
-29.386983 26.398123 18.186787 43.488101 -0.731871 1.139332 0.050424 -0.015415 154441.000000 0 0 1
-29.821283 25.261923 18.952587 43.435863 -0.702814 1.119275 0.043317 -0.005999 127679.000000 0 0 1
-29.784883 23.952123 18.119987 42.298669 -0.677279 1.128095 0.061244 -0.007998 728056.000000 0 0 1
-30.891713 23.870623 17.199587 42.660642 -0.657884 1.155816 0.068015 -0.010067 597682.000000 0 0 1
-30.627463 22.846323 16.214987 41.508093 -0.640899 1.169463 0.059157 -0.014590 -98865.300000 0 0 1
-30.997033 21.342723 16.453887 41.073815 -0.602994 1.158632 0.053250 -0.021991 1006940.000000 0 0 1
-32.433103 21.260623 16.314887 42.072507 -0.580248 1.172574 0.049581 -0.013576 775906.000000 0 0 1
-32.740803 19.891423 16.339687 41.648701 -0.545947 1.167642 0.041540 -0.004593 372401.000000 0 0 1
-34.174864 19.641523 15.795787 42.464310 -0.521636 1.189657 0.040732 -0.015343 101668.000000 0 0 1
-34.251989 19.900123 14.372587 42.140063 -0.526326 1.222745 0.045315 -0.017090 -707686.000000 0 0 1
-35.464407 19.625423 13.759887 42.804391 -0.505437 1.243526 0.051010 -0.011413 -422087.000000 0 0 1
-35.609061 20.055423 12.254487 42.666119 -0.512930 1.279475 0.054998 -0.011859 -263582.000000 0 0 1
-35.430724 21.446223 12.035387 43.129192 -0.544308 1.287987 0.051330 -0.018710 103112.000000 0 0 1
-35.260216 21.930823 10.691087 42.878237 -0.556418 1.318802 0.032180 -0.020215 908674.000000 0 0 1
-33.959053 21.378223 9.973887 41.348811 -0.561850 1.327180 0.066266 -0.025410 210533.000000 0 0 1
-34.174357 20.115323 9.346687 40.741545 -0.532001 1.339321 0.065734 -0.017408 -232759.000000 0 0 1
-33.031693 19.540923 8.764687 39.366993 -0.534206 1.346274 0.093201 -0.023184 -412276.000000 0 0 1
-32.313303 18.574023 9.693887 38.511236 -0.521692 1.316344 0.079402 -0.027065 -221245.000000 0 0 1
-31.768183 19.153623 10.863487 38.653513 -0.542563 1.285911 0.083461 -0.029387 148114.000000 0 0 1
-31.286053 18.190023 11.770987 38.055882 -0.526638 1.256331 0.070344 -0.030958 54501.200000 0 0 1
-30.779583 18.694123 13.120787 38.327640 -0.545810 1.221398 0.050320 -0.012884 -501678.000000 0 0 1
-29.646843 19.484523 13.161187 37.839117 -0.581435 1.215552 0.058768 -0.018413 -578159.000000 0 0 1
-29.879433 20.899323 13.001087 38.711632 -0.610360 1.228295 0.053013 -0.012152 415247.000000 0 0 1
-28.507493 21.549723 13.312887 38.135294 -0.647287 1.214190 0.062675 -0.017719 447034.000000 0 0 1
-28.138043 21.407223 14.712087 38.294440 -0.650373 1.176473 0.064921 -0.013443 -36705.400000 0 0 1
-26.953703 22.101923 15.059687 37.970927 -0.686815 1.162974 0.077914 -0.028562 -8570.540000 0 0 1
-26.504933 21.741123 16.543987 38.064306 -0.686977 1.121166 0.082645 -0.026088 -165492.000000 0 0 1
-25.795873 20.543223 16.695887 36.962193 -0.672527 1.102124 0.099935 -0.027840 -227513.000000 0 0 1
-25.308633 20.361723 17.955387 37.114992 -0.677501 1.065831 0.090916 -0.019419 -64407.500000 0 0 1
-24.293623 19.191323 18.129687 35.877187 -0.668597 1.041036 0.088512 -0.017523 102.405000 0 0 1
-23.831523 19.144723 19.408987 36.210091 -0.676772 1.005092 0.086299 -0.022840 145995.000000 0 0 1
-22.766723 18.197323 19.533887 35.086165 -0.674311 0.980340 0.076831 -0.017447 463720.000000 0 0 1
-22.192023 18.151723 20.999087 35.537763 -0.685584 0.938629 0.081324 -0.017901 -124705.000000 0 0 1
-23.012823 17.464523 21.885287 36.243143 -0.649175 0.922479 0.108949 -0.015105 -15145.300000 0 0 1
-22.668923 17.818223 23.203487 37.010417 -0.666158 0.893171 0.123805 -0.023897 17419.000000 0 0 1
-23.451623 17.085023 24.316087 37.856951 -0.629613 0.873281 0.108888 -0.011367 -97627.100000 0 0 1
-22.913223 15.820123 24.523187 37.103622 -0.604279 0.848729 0.110001 -0.034670 -388179.000000 0 0 1
-23.672223 15.039723 25.346487 37.802273 -0.565995 0.835912 0.099169 -0.039152 -253770.000000 0 0 1
20.686277 24.867523 33.667488 46.688494 0.876929 0.765395 0.063231 -0.000309 225940.000000 0 0 1
21.626577 23.927223 33.181253 46.273279 0.835859 0.771205 0.077897 -0.013754 -116828.000000 0 0 1
21.467277 22.649623 33.719255 45.943852 0.812192 0.746716 0.076619 -0.012131 966692.000000 0 0 1
20.213477 21.824623 33.178516 44.561337 0.823705 0.730923 0.069716 -0.010205 844345.000000 0 0 1
20.452777 21.348923 31.904553 43.497047 0.806833 0.747357 0.090879 -0.006684 408824.000000 0 0 1
19.560977 20.308023 31.467913 42.252540 0.804133 0.730624 0.075946 -0.008187 371678.000000 0 0 1
20.107977 19.634523 30.155953 41.221678 0.773486 0.750195 0.069187 0.004790 125181.000000 0 0 1
21.267077 18.843323 30.206313 41.470239 0.725044 0.754834 0.073948 0.004290 -257341.000000 0 0 1
21.612677 18.335923 28.864203 40.453135 0.703557 0.776284 0.062514 -0.000902 550224.000000 0 0 1
22.846877 17.374623 28.804973 40.664281 0.650175 0.783623 0.067887 0.000285 333264.000000 0 0 1
24.091577 18.012323 28.899363 41.713560 0.642002 0.805425 0.077150 -0.003869 -154039.000000 0 0 1
25.117577 17.083823 29.236523 42.160692 0.597282 0.804524 0.062708 0.005649 112625.000000 0 0 1
26.524777 17.692823 29.359323 43.342469 0.588254 0.826601 0.038197 -0.001450 -326923.000000 0 0 1
27.153177 17.677823 28.104693 42.891424 0.577106 0.856280 0.039956 -0.000669 323596.000000 0 0 1
28.503977 18.098123 28.288593 44.048419 0.565710 0.873411 0.028605 -0.004605 611031.000000 0 0 1
29.572577 17.732323 27.245673 43.946550 0.540140 0.902088 0.036576 -0.002512 -22443.900000 0 0 1
29.477077 18.631523 26.137143 43.579605 0.563666 0.927600 0.041480 -0.011133 -463364.000000 0 0 1
30.456277 18.266523 25.254803 43.578157 0.540245 0.952646 0.040640 -0.002722 -733646.000000 0 0 1
30.942477 19.576223 24.502013 44.056941 0.564092 0.981057 0.044559 -0.006637 94088.100000 0 0 1
29.915677 20.064923 23.646593 43.089561 0.590801 0.989895 0.048910 -0.012546 394834.000000 0 0 1
30.332477 21.084123 22.691323 43.353149 0.607430 1.019952 0.046758 -0.017787 -108310.000000 0 0 1
30.953577 20.565723 21.379723 42.873832 0.586435 1.048737 0.047845 -0.005848 61522.400000 0 0 1
30.037077 19.752923 20.651223 41.459341 0.581712 1.049381 0.056592 -0.010582 51990.000000 0 0 1
30.539477 19.300123 19.404623 41.008460 0.563598 1.077893 0.056255 -0.006728 553977.000000 0 0 1
31.754177 18.295723 19.519423 41.521911 0.522711 1.081393 0.054488 -0.007572 348479.000000 0 0 1
31.350277 17.047023 20.015523 40.915303 0.498040 1.059631 0.066671 -0.008733 -830452.000000 0 0 1
32.377977 16.322223 20.535823 41.670954 0.466934 1.055481 0.045493 -0.006386 -1698210.000000 0 0 1
32.110377 14.862023 20.953023 41.121591 0.433482 1.036148 0.047765 -0.012141 186486.000000 0 0 1
31.299077 14.505123 22.084523 40.960432 0.433971 1.001348 0.037279 -0.009121 626520.000000 0 0 1
29.973177 14.986023 22.040923 40.109531 0.463633 0.989009 0.034565 -0.006940 -840656.000000 0 0 1
29.027877 14.461423 23.091723 39.811783 0.462199 0.952040 0.016501 -0.009987 -230701.000000 0 0 1
28.706477 13.050323 22.970823 39.013222 0.426683 0.941228 0.029168 -0.010059 280697.000000 0 0 1
27.833377 12.675923 24.044213 38.903728 0.427353 0.904544 0.015233 0.003156 187474.000000 0 0 1
27.429277 11.180623 23.884063 38.050230 0.387055 0.892203 0.020478 0.008938 -271557.000000 0 0 1
26.448177 11.070523 22.886623 36.685965 0.396415 0.897134 0.034622 0.004585 -176202.000000 0 0 1
26.137177 9.668323 22.680523 35.930970 0.354298 0.887665 0.020618 0.010218 228295.000000 0 0 1
24.815177 9.535723 21.885623 34.434046 0.366873 0.882036 0.011736 0.000559 47561.600000 0 0 1
23.574477 9.669223 22.529623 34.012259 0.389231 0.846782 0.009126 -0.002367 -49750.400000 0 0 1
22.589777 9.075023 21.738823 32.637869 0.381998 0.841880 0.008285 0.001943 905931.000000 0 0 1
21.063977 9.255223 22.129623 31.922884 0.413993 0.804847 0.010940 -0.004929 1210350.000000 0 0 1
20.682277 8.786023 23.427083 32.461962 0.401709 0.764573 0.019110 -0.007650 960631.000000 0 0 1
19.272077 8.564123 23.547333 31.610664 0.418170 0.730385 0.039931 -0.010663 721497.000000 0 0 1
18.820377 7.908923 24.900383 32.199173 0.397825 0.686729 0.044972 -0.009203 -219478.000000 0 0 1
19.049377 6.531123 24.861333 31.994065 0.330293 0.680814 0.046463 -0.008337 229315.000000 0 0 1
18.572077 5.879323 26.017023 32.501907 0.306587 0.642706 0.045995 -0.017457 -92798.800000 0 0 1
18.739277 4.320823 25.863493 32.229649 0.226615 0.639364 0.049484 -0.019150 -1244580.000000 0 0 1
20.020577 3.960123 25.548483 32.699099 0.195282 0.674017 0.056670 -0.013415 -1213300.000000 0 0 1
20.266977 2.594123 25.808433 32.917397 0.127305 0.669654 0.058071 -0.011037 -223854.000000 0 0 1
21.753977 2.308423 25.561243 33.644338 0.105719 0.707870 0.057865 -0.011388 -851984.000000 0 0 1
22.599177 2.939223 26.459063 34.920536 0.129333 0.711025 0.064769 -0.016032 34960.500000 0 0 1
23.917477 2.655123 25.936923 35.381059 0.110559 0.747966 0.062068 -0.016187 451076.000000 0 0 1
24.988077 3.086923 26.938323 36.872840 0.122913 0.751635 0.045831 -0.017541 -783854.000000 0 0 1
25.058877 2.176023 28.053943 37.678988 0.086619 0.730934 0.056744 -0.022551 67625.600000 0 0 1
25.843077 2.532223 29.192443 39.070136 0.097673 0.726987 0.055774 -0.015118 775990.000000 0 0 1
27.386877 2.384723 28.967923 39.935805 0.086856 0.759236 0.040780 -0.011360 -37202.000000 0 0 1
27.875877 3.529823 28.291733 39.874131 0.125956 0.781971 0.031486 0.006200 118728.000000 0 0 1
29.233777 3.464423 27.880013 40.545173 0.117957 0.812579 0.036160 0.006270 394254.000000 0 0 1
29.570277 2.511723 26.743783 39.949217 0.084737 0.837336 0.049335 0.005865 -639586.000000 0 0 1
29.020877 2.916023 25.520363 38.755689 0.100144 0.851981 0.046808 0.010798 -22295.100000 0 0 1
29.311977 1.962823 24.518633 38.264971 0.066863 0.875310 0.059801 0.009681 -282630.000000 0 0 1
29.069177 2.386823 23.031423 37.163967 0.081925 0.902405 0.057993 0.002704 339665.000000 0 0 1
29.922677 3.461323 22.583823 37.648060 0.115164 0.927462 0.051219 0.001578 270285.000000 0 0 1
31.227477 2.985123 22.265323 38.468310 0.095303 0.953544 0.036553 0.001034 -101918.000000 0 0 1
32.016977 4.121923 21.617523 38.850925 0.128038 0.980723 0.037619 -0.003027 -808674.000000 0 0 1
31.562977 4.524023 20.359923 37.831399 0.142364 1.002526 0.032576 -0.013671 -356254.000000 0 0 1
31.978977 5.716623 19.835823 38.063035 0.176893 1.022621 0.041787 -0.007711 122023.000000 0 0 1
33.494677 5.848623 19.425623 39.159349 0.172871 1.051734 0.033041 -0.010300 1406920.000000 0 0 1
34.569977 5.857423 20.398923 40.564871 0.167843 1.043878 0.037661 -0.003136 1186530.000000 0 0 1
34.422977 6.951823 21.248223 41.045781 0.199273 1.026669 0.036629 -0.004886 -844833.000000 0 0 1
35.075177 6.796023 22.638123 42.295846 0.191384 1.006013 0.038263 -0.008609 -105991.000000 0 0 1
34.389577 5.874023 23.468123 42.046402 0.169176 0.978644 0.036348 -0.001600 95716.200000 0 0 1
35.034477 5.557123 24.700813 43.225298 0.157308 0.962533 0.039871 0.002155 8855.770000 0 0 1
34.158477 4.656223 25.589553 42.933753 0.135477 0.932256 0.046497 0.006482 99660.400000 0 0 1
34.133477 3.306623 25.102123 42.498760 0.096572 0.938925 0.047706 0.001639 -56397.800000 0 0 1
33.440877 2.402723 25.928763 42.383559 0.071727 0.912507 0.046194 0.000161 -115239.000000 0 0 1
33.469377 0.955823 25.497363 42.085963 0.028550 0.919975 0.038576 0.004324 -140989.000000 0 0 1
32.815777 0.597323 24.297303 40.836148 0.018200 0.933537 0.046422 0.002267 -73330.300000 0 0 1
32.951877 -0.737677 23.968533 40.753662 -0.022383 0.942049 0.045423 0.004316 395141.000000 0 0 1
31.740977 -1.227277 23.094823 39.272976 -0.038646 0.942140 0.045537 0.001390 333489.000000 0 0 1
30.520077 -1.276377 23.810153 38.730190 -0.041797 0.908702 0.053925 0.009972 -903025.000000 0 0 1
29.647977 -2.018377 23.025423 37.593171 -0.067973 0.911590 0.059025 -0.000001 -1094410.000000 0 0 1
28.236777 -1.903377 23.559963 36.824045 -0.067306 0.876560 0.056931 0.006823 -674661.000000 0 0 1
27.650077 -0.611977 23.371523 36.209520 -0.022129 0.869181 0.054333 0.006211 662795.000000 0 0 1
26.244177 -0.701677 23.088023 34.961493 -0.026730 0.849466 0.066316 0.005412 815739.000000 0 0 1
25.471077 0.607023 22.831923 34.211708 0.023827 0.840122 0.069778 0.008141 -61138.400000 0 0 1
25.700677 1.281723 21.594523 33.593021 0.049830 0.872612 0.059738 -0.004478 148573.000000 0 0 1
24.837977 2.401823 21.481223 32.926233 0.096400 0.860043 0.048501 0.001466 50901.600000 0 0 1
25.070977 3.219223 20.193123 32.352427 0.127706 0.896739 0.047613 -0.008687 -66921.200000 0 0 1
24.532877 2.696823 18.986223 31.138587 0.109487 0.915073 0.057140 -0.010347 271760.000000 0 0 1
24.145977 3.777523 18.133523 30.432262 0.155187 0.932454 0.041099 -0.012824 156341.000000 0 0 1
23.563377 3.340223 16.774823 29.116739 0.140817 0.956819 0.052493 -0.017787 483071.000000 0 0 1
24.623177 3.058723 15.841523 29.438249 0.123588 1.002583 0.055605 -0.023638 868537.000000 0 0 1
24.218677 3.182023 14.473723 28.392926 0.130639 1.035885 0.049100 -0.032144 -124833.000000 0 0 1
23.433777 2.018723 13.825523 27.283003 0.085934 1.039392 0.059293 -0.021512 -281728.000000 0 0 1
22.117077 1.862323 14.286823 26.395959 0.084005 0.998873 0.049351 -0.012001 -113007.000000 0 0 1
21.598577 0.723823 13.675123 25.574038 0.033500 1.006612 0.052719 -0.015329 -1289470.000000 0 0 1
20.069577 0.734623 13.823623 24.380733 0.036587 0.967950 0.038850 -0.020933 -343038.000000 0 1 0
19.361477 1.550323 12.852723 23.290830 0.079902 0.986232 0.056938 -0.022442 461758.000000 0 1 0
19.480677 1.113023 11.484723 22.641432 0.057073 1.038813 0.059145 -0.023431 -1049820.000000 0 1 0
19.084577 -0.310977 11.052723 22.056302 -0.016293 1.045911 0.049264 -0.014357 183079.000000 0 1 0
20.133577 -1.231577 11.313823 23.127479 -0.061094 1.059631 0.057895 -0.019300 518410.000000 0 1 0
21.210577 -1.300377 10.409323 23.662915 -0.061231 1.115309 0.059098 -0.025751 316687.000000 0 1 0
22.394277 -2.152377 11.005123 25.044942 -0.095818 1.115849 0.085831 -0.031073 377783.000000 0 0 1
22.998177 -1.622577 12.162723 26.066851 -0.070436 1.085357 0.089943 -0.037145 757216.000000 0 0 1
23.975977 -2.571477 12.667723 27.238414 -0.106844 1.087085 0.094714 -0.031338 652205.000000 0 0 1
24.609277 -2.140477 14.013723 28.400398 -0.086760 1.054763 0.109917 -0.034356 -216896.000000 0 0 1
25.533077 -1.095377 14.011623 29.145556 -0.042874 1.069291 0.084507 -0.028731 -141864.000000 0 0 1
25.790377 -0.803577 15.344923 30.020925 -0.031148 1.034285 0.084644 -0.028620 -201054.000000 0 0 1
27.063377 0.028223 15.596223 31.235706 0.001043 1.047997 0.089571 -0.022214 -410774.000000 0 0 1
28.232977 -0.697177 15.391123 32.163235 -0.024689 1.071815 0.077545 -0.018648 -854106.000000 0 0 1
29.348877 0.041223 15.796123 33.329803 0.001405 1.077043 0.061050 -0.015168 805300.000000 0 0 1
30.700577 -0.809877 15.785323 34.530534 -0.026374 1.096018 0.058227 -0.011860 1061960.000000 0 0 1
31.141477 -1.206277 14.502623 34.374013 -0.038716 1.135249 0.066696 -0.015715 -708859.000000 0 0 1
32.294777 -1.951577 14.590423 35.491432 -0.060357 1.147139 0.058398 -0.014644 -784959.000000 0 0 1
32.654077 -2.551377 13.180423 35.306116 -0.077975 1.188213 0.063206 -0.016421 -511600.000000 0 0 1
33.433977 -1.682277 12.469723 35.723310 -0.050274 1.214224 0.059082 -0.015841 -415168.000000 0 0 1
33.504177 -2.155277 11.112423 35.364686 -0.064240 1.251157 0.064958 -0.018261 188686.000000 0 0 1
32.596377 -1.382277 10.105623 34.154913 -0.042380 1.270424 0.070570 -0.019471 -147434.000000 0 0 1
33.159877 -0.113077 9.899423 34.606196 -0.003410 1.280685 0.079027 -0.015762 255215.000000 0 0 1
32.305277 0.808123 9.260923 33.616197 0.025010 1.291697 0.064877 -0.016981 -363488.000000 0 0 1
32.888777 2.220023 8.928423 34.151382 0.067399 1.306286 0.056090 -0.016009 -56623.900000 0 0 1
33.652877 2.165723 7.741123 34.599588 0.064266 1.345152 0.072978 -0.019817 229320.000000 0 0 1
33.886877 3.457623 7.238523 34.823437 0.101682 1.361406 0.064993 -0.019364 21186.200000 0 0 1
34.653077 3.458223 5.881323 35.318338 0.099466 1.403494 0.070266 -0.018001 -58087.300000 0 0 1
34.755477 4.800923 5.347223 35.490630 0.137266 1.419555 0.048630 -0.009849 133997.000000 0 0 1
35.384977 4.728623 4.080823 35.932013 0.132847 1.456980 0.079792 -0.030479 -441836.000000 0 0 1
35.842977 6.088323 3.542323 36.528547 0.168255 1.473670 0.082772 -0.034983 373447.000000 0 0 1
34.785377 7.050123 3.283023 35.644143 0.199966 1.478560 0.074421 -0.037227 324035.000000 0 0 1
35.158177 8.338123 2.883423 36.248253 0.232858 1.491166 0.075499 -0.035807 -889415.000000 0 0 1
33.951277 9.255323 2.943223 35.313068 0.266139 1.487353 0.084047 -0.032371 246666.000000 0 0 1
32.786877 9.013223 2.174123 34.072633 0.268276 1.506944 0.076371 -0.037454 460531.000000 0 0 1
31.967777 7.878123 2.424123 33.013330 0.241625 1.497302 0.088164 -0.033680 -314916.000000 0 0 1
30.855377 7.750623 1.351523 31.842629 0.246100 1.528340 0.105999 -0.036785 229874.000000 0 0 1
31.345377 7.529923 0.022023 32.237135 0.235757 1.570113 0.102745 -0.036190 462879.000000 0 0 1
30.245877 7.467223 -0.865877 31.166043 0.242044 1.598583 0.116667 -0.033760 143414.000000 0 0 1
30.722177 7.386523 -2.302677 31.681464 0.235951 1.643543 0.088303 -0.019772 76454.900000 0 0 1
29.691777 6.795423 -3.093477 30.616156 0.224991 1.672010 0.104777 -0.023596 1002170.000000 0 0 1
30.178077 6.656623 -4.384577 31.213002 0.217102 1.711735 0.087875 -0.015001 217394.000000 0 0 1
29.058377 6.176123 -5.378077 30.190354 0.209425 1.749891 0.108969 -0.010176 143112.000000 0 0 1
28.775877 4.773623 -5.276077 29.642462 0.164393 1.749740 0.110278 -0.015439 1169290.000000 0 0 1
27.411877 4.456223 -5.564577 28.323726 0.161156 1.768546 0.109295 -0.024635 288129.000000 0 0 1
27.158977 2.985523 -5.669477 27.904593 0.109488 1.775394 0.105310 -0.013324 -428833.000000 0 0 1
27.066177 2.305623 -4.433677 27.523650 0.084980 1.732587 0.097050 -0.020087 445265.000000 0 0 1
27.058377 0.910123 -4.584377 27.459071 0.033623 1.738535 0.075531 -0.016153 -309158.000000 0 0 1
27.036577 0.219623 -3.187877 27.224755 0.008123 1.688160 0.080084 -0.017104 -1025310.000000 0 0 1
28.133477 0.419123 -2.393877 28.238251 0.014897 1.655672 0.099095 -0.024685 -889631.000000 0 0 1
27.962877 0.109723 -1.055677 27.983012 0.003924 1.608531 0.106137 -0.016828 196871.000000 0 0 1
29.196777 0.421223 -0.130377 29.200106 0.014426 1.575261 0.117889 -0.015392 215968.000000 0 0 1
30.319777 -0.329677 -0.529277 30.326188 -0.010873 1.588250 0.100529 -0.014101 139251.000000 0 0 1
31.474877 0.095323 0.182023 31.475548 0.003029 1.565013 0.084264 -0.020502 -62077.300000 0 0 1
-3.042523 -21.391977 -8.697013 23.291880 1.429517 1.953460 0.013506 0.014998 197488.000000 0 1 0
-3.338923 -21.789377 -7.347513 23.235992 1.418743 1.892531 0.010626 0.008607 -43990.500000 0 1 0
-2.625523 -22.984577 -6.979113 24.163861 1.457060 1.863795 0.013963 0.008341 195106.000000 0 1 0
-3.060223 -23.684477 -5.613013 24.532129 1.442300 1.801644 0.012242 0.009920 -383911.000000 0 1 0
-2.673823 -23.010877 -4.503813 23.599452 1.455117 1.762818 0.008318 0.006655 -437603.000000 0 1 0
-3.341123 -23.581477 -3.431213 24.062884 1.430049 1.713878 0.011406 0.005090 -192500.000000 0 1 0
-3.043223 -22.949777 -2.047313 23.241019 1.438962 1.659001 0.016477 -0.003025 323216.000000 0 1 0
-1.673723 -23.033977 -1.692213 23.156620 1.498261 1.643938 0.035231 -0.005107 -189313.000000 0 1 0
-1.437923 -22.500277 -0.382713 22.549425 1.506976 1.587769 0.040147 -0.019106 825069.000000 0 1 0
0.087577 -22.499477 0.001887 22.499648 -1.566904 1.570712 0.050823 -0.022203 754329.000000 0 1 0
0.761577 -21.442077 -0.655313 21.465603 -1.535293 1.601330 0.036052 -0.021535 -1208670.000000 0 1 0
2.026477 -21.284277 -0.127013 21.380907 -1.475872 1.576737 0.030481 -0.021367 -597017.000000 0 1 0
2.712077 -20.003577 -0.762713 20.200995 -1.436038 1.608562 0.026473 -0.021745 591783.000000 0 1 0
3.455377 -20.381677 -1.900813 20.759708 -1.402860 1.662487 0.027727 -0.016428 -314410.000000 0 1 0
4.601477 -19.665177 -2.242713 20.320496 -1.340941 1.681389 0.034055 -0.006910 294957.000000 0 1 0
5.524677 -20.189077 -3.423813 21.209512 -1.303689 1.732934 0.028265 -0.003522 -338717.000000 0 1 0
6.418477 -21.160777 -2.941413 22.307560 -1.276297 1.703039 0.035169 -0.007186 -40826.100000 0 1 0
7.270877 -21.691977 -3.939813 23.214858 -1.247378 1.741333 0.034717 -0.005025 573693.000000 0 1 0
8.417377 -20.854677 -4.583213 22.951593 -1.187173 1.771838 0.038798 -0.004427 -185309.000000 0 1 0
7.958477 -19.945277 -5.519813 22.172500 -1.191139 1.822391 0.034190 -0.007704 -874695.000000 0 1 0
9.080577 -19.332177 -6.023713 22.191779 -1.131670 1.845684 0.039917 -0.009856 -925547.000000 0 1 0
8.790077 -18.175677 -7.004813 21.370262 -1.120340 1.904753 0.032000 -0.007573 -610866.000000 0 1 0
9.836077 -17.856577 -7.875313 21.854663 -1.067310 1.939439 0.036565 -0.003460 136121.000000 0 1 0
9.632077 -16.510177 -8.365313 20.864834 -1.042670 1.983327 0.035988 -0.009755 232213.000000 0 1 0
10.470877 -16.362977 -9.654213 21.693089 -1.001545 2.032011 0.043068 -0.017855 -534709.000000 0 1 0
9.926377 -17.151077 -10.692613 22.517202 -1.046140 2.065606 0.048132 -0.014924 91985.200000 0 1 0
9.214277 -16.285877 -11.549613 21.989230 -1.055916 2.123793 0.033127 -0.023425 -283907.000000 0 1 0
8.559777 -16.972577 -12.742713 22.884818 -1.103691 2.161348 0.036957 -0.025531 -416083.000000 0 1 0
7.512877 -17.834377 -12.405013 22.986793 -1.172099 2.140827 0.042268 -0.018288 126535.000000 0 1 0
6.953377 -18.387377 -13.622313 23.916783 -1.209258 2.176781 0.037444 -0.013408 645972.000000 0 1 0
5.702677 -19.337877 -13.525713 24.277951 -1.284028 2.161709 0.040482 -0.003450 490827.000000 0 1 0
5.939877 -20.645877 -12.989913 25.105223 -1.290659 2.114628 0.044794 -0.005272 248024.000000 0 0 1
4.722677 -21.340077 -12.728913 25.292841 -1.353001 2.098165 0.054455 -0.003428 369789.000000 0 0 1
4.930877 -22.800777 -12.361413 26.400635 -1.357817 2.058076 0.038705 -0.003531 -301291.000000 0 0 1
5.307577 -23.592577 -13.463613 27.677589 -1.349512 2.078812 0.060016 -0.012240 -128375.000000 0 0 1
4.994177 -24.935577 -13.274913 28.687072 -1.373128 2.051890 0.043362 -0.015166 1163220.000000 0 0 1
3.564377 -25.342527 -13.834713 29.092056 -1.431065 2.066385 0.048866 -0.017881 585306.000000 0 0 1
2.480277 -24.823977 -13.133913 28.193639 -1.471212 2.055388 0.056191 -0.009978 -496854.000000 0 0 1
1.202677 -25.119327 -13.642813 28.610372 -1.522954 2.067862 0.039125 -0.016541 -177271.000000 0 0 1
0.547077 -26.476647 -13.275713 29.623583 -1.550137 2.035488 0.024565 -0.013123 -1039060.000000 0 0 1
1.057077 -27.545597 -14.043913 30.937175 -1.532440 2.041989 0.033638 -0.011684 226990.000000 0 0 1
0.677677 -28.836037 -13.562413 31.873427 -1.547300 2.010320 0.020756 -0.004746 995913.000000 0 0 1
-0.810523 -29.273677 -13.870813 32.403774 1.543116 2.013143 0.006186 -0.009801 1188810.000000 0 0 1
-1.833123 -28.521997 -13.242313 31.499579 1.506614 2.004679 0.008361 -0.012445 484976.000000 0 0 1
-3.139623 -29.026127 -13.560213 32.190879 1.463050 2.005613 0.015126 -0.006937 144977.000000 0 0 1
-4.266423 -28.229537 -12.928313 31.340874 1.420798 1.996000 0.012278 -0.003428 -493256.000000 0 0 1
-4.431723 -28.180467 -11.499913 30.757550 1.414812 1.953995 0.007311 -0.010034 63106.500000 0 0 1
-4.920923 -29.429957 -10.964913 31.789419 1.405121 1.922953 -0.000364 -0.013619 -675277.000000 0 0 1
-5.259323 -29.451527 -9.474813 31.381922 1.394083 1.877502 0.006248 -0.011705 -384505.000000 0 0 1
-6.586023 -29.166867 -9.129413 31.263845 1.348716 1.867126 0.021527 -0.010334 -334150.000000 0 0 1
-6.906423 -27.764677 -9.264613 30.073394 1.326996 1.883957 0.027723 -0.010996 -2176600.000000 0 0 1
-8.297123 -27.438417 -8.810513 29.988900 1.277148 1.868988 0.028382 -0.010143 -149551.000000 0 0 1
-9.341423 -27.654287 -9.805713 30.792431 1.245038 1.894886 0.048173 -0.014538 663956.000000 0 0 1
-9.599323 -28.990207 -10.192713 32.194262 1.251036 1.892940 0.052933 -0.020230 -972877.000000 0 0 1
-10.935923 -29.095707 -10.945413 32.953856 1.211272 1.909372 0.053533 -0.020313 -259426.000000 0 0 1
-10.843623 -28.550237 -12.269213 32.912517 1.207817 1.952802 0.063397 -0.024744 559376.000000 0 0 1
-11.871723 -29.127037 -13.091613 34.069230 1.183769 1.965208 0.071132 -0.024607 329569.000000 0 0 1
-11.980223 -28.466427 -14.477013 34.109341 1.172442 2.009128 0.077215 -0.022337 275173.000000 0 0 1
-12.944023 -27.398307 -14.630813 33.649304 1.129440 2.020616 0.069141 -0.029746 682871.000000 0 0 1
-12.533323 -26.208287 -13.899913 32.205063 1.124724 2.017069 0.067695 -0.021706 -121803.000000 0 0 1
-13.550723 -25.078157 -13.960813 31.740201 1.075400 2.026224 0.096788 -0.015831 -322244.000000 0 0 1
-13.344323 -24.321077 -15.157013 31.612036 1.068972 2.070847 0.086273 -0.010144 618687.000000 0 0 1
-14.428023 -23.409177 -15.350713 31.492885 1.018448 2.079945 0.097522 -0.011019 140158.000000 0 0 1
-14.240323 -22.631677 -16.685913 31.518238 1.009168 2.128695 0.093052 -0.006754 -47329.700000 0 0 1
-13.196823 -21.695377 -16.591413 30.333488 1.024312 2.149533 0.080126 -0.004412 179624.000000 0 0 1
-13.215223 -20.916977 -17.757713 30.454859 1.007326 2.193315 0.062997 0.003286 -176900.000000 0 0 1
-13.211523 -19.420777 -17.609113 29.356290 0.973430 2.214099 0.060366 0.000819 -903076.000000 0 0 1
-12.053423 -18.695677 -17.727313 28.444173 0.998144 2.243665 0.055778 0.005644 -820880.000000 0 0 1
-12.358923 -17.276677 -17.602913 27.587843 0.949840 2.262782 0.063250 0.010062 334017.000000 0 0 1
-11.154323 -16.323677 -17.815913 26.613683 0.971352 2.304233 0.065527 0.003745 86071.200000 0 0 1
-10.516723 -15.958677 -16.635413 25.338070 0.988122 2.287017 0.056920 0.004476 541532.000000 0 0 1
-9.231123 -15.374977 -16.954213 24.678916 1.030083 2.328138 0.052634 0.005762 401750.000000 0 1 0
-8.593223 -14.843777 -15.614513 23.194702 1.046028 2.309315 0.030781 0.004281 -474742.000000 0 1 0
-8.216123 -15.730577 -14.680613 23.032067 1.089466 2.261914 0.042552 0.009667 -308214.000000 0 1 0
-7.007323 -16.366377 -15.020713 23.293404 1.166258 2.271621 0.047076 0.003728 -464285.000000 0 1 0
-6.443423 -17.336877 -13.923013 23.150276 1.214957 2.216072 0.035089 0.007780 -294702.000000 0 1 0
-5.898523 -16.746077 -12.760413 21.864396 1.232133 2.193971 0.030870 0.002358 136772.000000 0 1 0
-5.599023 -17.620277 -11.720613 21.890546 1.263126 2.135800 0.024348 0.007280 -268712.000000 0 1 0
-4.462823 -18.647777 -11.790513 22.509389 1.335893 2.122107 0.029257 0.006139 695575.000000 0 1 0
-3.137023 -18.072377 -11.776213 21.797498 1.398928 2.141537 0.030191 0.008731 53684.900000 0 1 0
-2.158323 -19.053477 -11.598113 22.410033 1.458000 2.114771 0.023105 0.009109 19230.900000 0 1 0
-0.753023 -18.576177 -12.012913 22.134848 1.530281 2.144462 0.027623 0.008958 -734942.000000 0 1 0
-0.584023 -18.432577 -13.395913 22.793672 1.539123 2.199013 0.034588 0.008482 88654.200000 0 1 0
0.673677 -17.823777 -13.663313 22.468355 -1.533018 2.224479 0.039081 0.003582 989680.000000 0 1 0
1.885577 -18.829677 -13.727813 23.378729 -1.470990 2.198382 0.036834 -0.004841 -159490.000000 0 1 0
1.882877 -19.575177 -14.935213 24.693995 -1.474904 2.220326 0.046841 -0.000916 250374.000000 0 1 0
1.259377 -20.834377 -14.709413 25.534763 -1.510423 2.184690 0.045304 0.003516 -808511.000000 0 0 1
1.271277 -21.697777 -15.983713 26.979414 -1.512273 2.204882 0.056319 -0.003655 -104335.000000 0 0 1
2.389577 -22.493377 -16.268113 27.862405 -1.464959 2.194288 0.054832 -0.004346 -356588.000000 0 0 1
3.600277 -21.806877 -16.466913 27.561950 -1.407174 2.211115 0.050755 -0.015371 -514845.000000 0 0 1
4.804577 -22.749377 -16.700713 28.627468 -1.362659 2.193681 0.062108 -0.017275 76531.700000 0 0 1
4.893477 -23.277377 -18.003513 29.831341 -1.363589 2.218692 0.058028 -0.019348 930050.000000 0 0 1
6.251477 -23.581577 -18.385213 30.548123 -1.311657 2.216605 0.060190 -0.020024 1068330.000000 0 0 1
6.414777 -23.577077 -19.939013 31.537155 -1.305150 2.255236 0.059782 -0.013963 -78529.600000 0 0 1
6.465277 -22.215777 -20.275613 30.764282 -1.287597 2.290369 0.073191 -0.022649 61463.000000 0 0 1
6.774177 -22.158377 -21.675313 31.728573 -1.274104 2.322861 0.078739 -0.024453 112171.000000 0 0 1
7.041277 -20.718177 -22.101013 31.101081 -1.243183 2.361174 0.065562 -0.031200 145795.000000 0 0 1
5.863577 -19.962877 -22.288913 30.490878 -1.285107 2.390586 0.057786 -0.026893 172857.000000 0 0 1
6.183377 -18.595777 -22.295913 29.684083 -1.249782 2.420533 0.060213 -0.022576 80047.600000 0 0 1
4.941477 -17.810477 -22.696113 29.270204 -1.300156 2.458144 0.051715 -0.019708 -1765030.000000 0 0 1
4.313677 -18.052377 -23.930013 30.284347 -1.336241 2.481895 0.049399 -0.019126 771243.000000 0 0 1
3.036777 -17.432177 -24.128213 29.921121 -1.398322 2.508825 0.048021 -0.011577 628797.000000 0 0 1
1.932877 -17.700077 -23.121913 29.183070 -1.462026 2.485375 0.039162 0.010139 -1566250.000000 0 0 1
2.160577 -16.975677 -21.945913 27.829208 -1.444202 2.479314 0.050323 0.000701 -495531.000000 0 0 1
1.256877 -15.903077 -21.834113 27.041008 -1.491927 2.510604 0.047696 -0.004871 -55139.800000 0 0 1
1.526177 -15.169677 -20.531213 25.573014 -1.470527 2.502851 0.053423 -0.016293 349929.000000 0 0 1
2.738077 -14.432977 -20.504713 25.224019 -1.383315 2.519918 0.051209 -0.013058 -162519.000000 0 0 1
2.762577 -13.417877 -19.550913 23.872776 -1.367746 2.530397 0.046486 -0.018559 244641.000000 0 1 0
3.931377 -12.410277 -19.682613 23.598219 -1.264013 2.557245 0.052515 -0.016237 617359.000000 0 1 0
5.218277 -12.918077 -19.286313 23.792205 -1.186888 2.515998 0.046981 -0.022220 791590.000000 0 1 0
6.251877 -11.931477 -19.362813 23.587383 -1.088148 2.533776 0.035064 -0.018773 339491.000000 0 1 0
6.330577 -10.922777 -18.164213 22.120621 -1.045530 2.534209 0.032852 -0.020576 -102072.000000 0 1 0
5.187877 -10.044377 -18.041613 21.290922 -1.094039 2.581838 0.023687 -0.012203 526248.000000 0 1 0
5.116677 -8.809977 -18.742813 21.332818 -1.044628 2.643699 0.026562 -0.024080 -500246.000000 0 1 0
4.840977 -8.808677 -20.281013 22.635091 -1.068284 2.681472 0.034367 -0.020686 771724.000000 0 1 0
3.515577 -9.321577 -20.534113 22.823253 -1.210147 2.689881 0.036470 -0.020203 513614.000000 0 1 0
3.198277 -9.262277 -21.917613 24.008342 -1.238313 2.721170 0.032145 -0.019032 421037.000000 0 1 0
1.655577 -9.244177 -22.097313 24.010143 -1.393581 2.739726 0.046110 -0.015794 175802.000000 0 1 0
1.125677 -8.044677 -21.626313 23.101545 -1.431771 2.782288 0.041380 -0.016365 529402.000000 0 1 0
-0.315423 -7.999577 -21.739213 23.166487 1.531387 2.788740 0.044705 -0.017820 1450100.000000 0 1 0
-0.830823 -6.923277 -22.768413 23.812238 1.451363 2.844407 0.049139 -0.019494 44606.700000 0 1 0
-0.369523 -7.268177 -24.060113 25.136666 1.519999 2.847867 0.046290 -0.015935 -187013.000000 0 0 1
-0.953923 -6.494377 -25.122613 25.965989 1.424955 2.886025 0.046516 -0.015084 132450.000000 0 0 1
-0.643823 -4.970877 -25.269683 25.762007 1.441994 2.945778 0.055251 -0.017748 131763.000000 0 0 1
-1.204523 -4.330677 -26.435913 26.815353 1.299516 2.973167 0.052127 -0.016695 46964.700000 0 0 1
-0.547023 -3.156777 -26.955263 27.144994 1.399215 3.023291 0.035522 -0.006710 -157024.000000 0 0 1
-0.933023 -1.857177 -26.224403 26.306633 1.105240 3.062505 0.047136 -0.009336 376955.000000 0 0 1
-2.255323 -1.369177 -26.389893 26.521455 0.545614 3.041946 0.046388 -0.005816 155058.000000 0 0 1
-2.787023 -0.899977 -27.608093 27.763002 0.312347 3.035906 0.054446 -0.000618 -884779.000000 0 0 1
-4.298423 -0.984977 -27.584403 27.934672 0.225259 2.983067 0.057090 -0.003401 -945799.000000 0 0 1
-4.923023 -0.049577 -26.773833 27.222725 0.010070 2.959740 0.049510 -0.006636 -1627120.000000 0 0 1
-6.264623 -0.284677 -26.751293 27.476503 0.045411 2.911329 0.055487 -0.021920 -1776960.000000 0 0 1
-7.123623 0.627623 -25.823273 26.795174 -0.087878 2.871434 0.050515 -0.012222 -467509.000000 0 0 1
-7.462223 1.902123 -26.367503 27.469038 -0.249585 2.857438 0.049782 -0.013149 415808.000000 0 0 1
-8.367923 1.875323 -27.469383 28.776830 -0.220466 2.838996 0.072588 -0.018793 -336411.000000 0 0 1
-9.825723 1.474023 -27.185583 28.944317 -0.148906 2.791198 0.072601 -0.021378 -1646930.000000 0 0 1
-10.741023 2.072023 -28.008653 30.069045 -0.190567 2.769251 0.077899 -0.026009 -1478080.000000 0 0 1
-11.973023 1.649223 -27.570813 30.103537 -0.136884 2.728457 0.070022 -0.020546 -1463390.000000 0 0 1
-13.124623 2.245523 -28.372503 31.341618 -0.169452 2.702802 0.058544 -0.013604 294910.000000 0 0 1
-14.418923 1.715123 -27.992563 31.534593 -0.118393 2.663074 0.039254 -0.014270 1107440.000000 0 0 1
-15.503623 2.121623 -28.794343 32.771601 -0.136002 2.643797 0.029657 -0.008780 144959.000000 0 0 1
-16.268023 3.324423 -28.229793 32.750902 -0.201578 2.609909 0.022415 -0.001548 -440896.000000 0 0 1
-15.515323 4.524923 -28.277883 32.570521 -0.283772 2.622369 0.036309 -0.002319 -23335.900000 0 0 1
-15.393223 5.171223 -29.533953 33.703816 -0.324096 2.638881 0.028718 -0.000847 -736856.000000 0 0 1
-16.626523 5.528223 -30.365683 35.058198 -0.320995 2.618245 0.008952 0.007071 -284532.000000 0 0 1
-17.364923 6.568923 -29.686013 35.013578 -0.361649 2.582700 0.009983 0.010183 488867.000000 0 0 1
-18.135123 7.309823 -30.633983 36.342222 -0.383155 2.573504 -0.002783 0.013638 134146.000000 0 0 1
-18.969923 8.457323 -29.924783 36.426322 -0.419379 2.534860 0.003441 0.002111 -276703.000000 0 0 1
-18.164123 9.472223 -29.379323 35.816239 -0.480683 2.532696 -0.001423 0.000783 374600.000000 0 0 1
-18.864023 10.629223 -28.877913 36.093844 -0.513122 2.498223 0.017870 -0.001841 -138822.000000 0 0 1
-8.708123 25.066223 30.756663 40.621660 -1.236435 0.711858 -0.000886 0.002712 -154677.000000 0 0 1
-9.517923 26.248123 30.882623 41.632814 -1.222929 0.735067 0.006129 0.003474 238440.000000 0 0 1
-9.031123 27.156723 31.890023 42.848832 -1.249746 0.731393 0.022952 -0.005337 617097.000000 0 0 1
-7.602423 27.777023 31.758673 42.871589 -1.303644 0.736557 0.028122 -0.011390 457347.000000 0 0 1
-7.621623 28.792823 30.807013 42.850763 -1.312026 0.768524 0.042352 -0.003329 238751.000000 0 0 1
-6.340523 28.875923 30.223103 42.278329 -1.354648 0.774372 0.039909 -0.006352 -75075.800000 0 0 1
-6.156223 30.125823 29.306923 42.477759 -1.369221 0.809396 0.059176 -0.013259 -233275.000000 0 0 1
-6.214623 31.378623 30.007233 43.859703 -1.375274 0.817339 0.068326 -0.010719 349433.000000 0 0 1
-5.658123 32.385923 29.198813 43.970821 -1.397833 0.844574 0.085774 -0.004898 -54485.500000 0 0 1
-6.088523 33.767523 29.684463 45.370509 -1.392406 0.857582 0.077346 -0.008043 -247000.000000 0 0 1
-5.386623 34.130123 30.866273 46.331499 -1.414261 0.841688 0.080297 -0.017295 166428.000000 0 0 1
-6.114823 -33.728182 31.846213 46.788488 1.391447 0.822158 0.079005 -0.021707 1037330.000000 0 0 1
-7.228223 34.036223 32.619088 47.693989 -1.361537 0.817668 0.061022 -0.023321 817408.000000 0 0 1
-6.757323 33.270123 33.696402 47.833148 -1.370417 0.789138 0.077056 -0.024685 -18552.000000 0 0 1
-6.863423 31.908723 33.466148 46.746724 -1.358929 0.772879 0.073359 -0.018550 -37927.800000 0 0 1
-6.704323 31.144723 -33.681493 46.361457 -1.358768 2.384008 0.074252 -0.025855 1197470.000000 0 0 1
-5.317023 31.071123 -33.261353 45.825790 -1.401314 2.383025 0.075019 -0.022237 1105950.000000 0 0 1
-5.369423 30.717623 -31.901923 44.610938 -1.397745 2.367584 0.077327 -0.021495 415417.000000 0 0 1
-3.932023 30.463023 -31.311253 43.861727 -1.442431 2.365795 0.072308 -0.020662 921242.000000 0 0 1
-3.393223 29.185623 -31.601833 43.150787 -1.455052 2.392575 0.066410 -0.012458 131831.000000 0 0 1
-2.849823 29.076823 -32.916243 44.012069 -1.473098 2.415676 0.061291 -0.019238 -514442.000000 0 0 1
-2.234423 27.688323 -33.253413 43.329267 -1.490272 2.445664 0.045473 -0.010550 -965031.000000 0 0 1
-0.948823 27.572023 -32.712523 42.792825 -1.536397 2.440968 0.062570 -0.009113 -215473.000000 0 0 1
-0.262523 26.354823 -33.030333 42.256934 -1.560836 2.468111 0.068734 -0.005981 236977.000000 0 0 1
0.112377 26.093023 33.983953 42.845858 1.566490 0.654803 0.039831 -0.001662 -266513.000000 0 0 1
-0.984923 25.539723 33.250265 41.938379 -1.532251 0.655347 0.035746 0.000523 558380.000000 0 0 1
-0.727423 25.481923 31.836713 40.785216 -1.542257 0.675180 0.037971 -0.003539 -214583.000000 0 0 1
-0.542723 26.774523 31.070933 41.019173 -1.550529 0.711362 0.024921 -0.008677 -729638.000000 0 0 1
-1.750723 27.419823 30.822523 41.290915 -1.507034 0.728052 0.015485 -0.008482 -387444.000000 0 0 1
-1.541123 28.605023 30.039673 41.509088 -1.516972 0.761663 0.008217 -0.007069 -518339.000000 0 0 1
-2.480623 29.719223 30.324483 42.531870 -1.487521 0.777054 0.029400 -0.008959 -834544.000000 0 0 1
-2.136423 30.387623 31.532723 43.843866 -1.500606 0.768139 0.052525 -0.019981 146921.000000 0 0 1
-2.982323 31.496723 31.840943 44.886339 -1.476391 0.782195 0.067521 -0.013901 116227.000000 0 0 1
-2.480723 32.217923 33.118292 46.270615 -1.493950 0.773096 0.086259 -0.017403 980177.000000 0 0 1
-1.112823 32.638423 33.120045 46.512820 -1.536714 0.778365 0.055896 -0.030258 282288.000000 0 0 1
-0.507923 32.972223 -34.150078 47.472658 -1.555393 2.373681 0.051153 -0.029063 826274.000000 0 0 1
0.944877 33.509323 34.060715 47.790165 1.542606 0.777437 0.057875 -0.030057 598356.000000 0 0 1
1.046977 -33.829382 33.492486 47.615857 -1.539857 0.790642 0.077908 -0.030426 259804.000000 0 0 1
2.320477 -33.445082 33.010640 47.049554 -1.501526 0.793136 0.054538 -0.028277 -7899.050000 0 0 1
2.229977 -32.033082 32.445042 45.648351 -1.501294 0.780218 0.069107 -0.033213 56888.000000 0 0 1
1.755377 -31.054482 33.392071 45.634336 -1.514331 0.749938 0.066233 -0.021533 319361.000000 0 0 1
1.412277 -29.857782 32.778669 44.361276 -1.523531 0.739356 0.064237 -0.015457 -140093.000000 0 0 1
1.105677 -28.821782 33.854450 44.475178 -1.532453 0.705637 0.048512 -0.007523 209380.000000 0 0 1
-0.158923 -29.004182 -34.013563 44.701122 1.565317 2.435512 0.040334 -0.007317 229062.000000 0 0 1
-0.360123 -28.017382 -33.038793 43.320494 1.557943 2.438212 0.045000 -0.003327 81845.800000 0 0 1
-1.837923 -27.632482 -32.793503 42.922557 1.504381 2.440311 0.054172 -0.008510 56844.500000 0 0 1
-2.012523 -27.044282 -31.536403 41.593126 1.496517 2.431363 0.053016 -0.009687 -74028.300000 0 0 1
-3.230623 -26.337482 -31.531693 41.211013 1.448743 2.442036 0.059430 -0.015604 -91726.200000 0 0 1
-3.754523 -25.901282 -30.141153 39.918191 1.426844 2.426562 0.062989 -0.018139 -84383.100000 0 0 1
-4.321823 -26.947382 -29.356073 40.082647 1.411771 2.392620 0.060821 -0.013355 -95164.000000 0 0 1
-4.584323 -26.734482 -27.955013 38.951653 1.400972 2.371268 0.059230 -0.011629 312251.000000 0 0 1
-3.394523 -26.341282 -27.017143 37.885511 1.442636 2.364744 0.061676 -0.016744 492529.000000 0 0 1
-2.748923 -25.122482 -27.381453 37.261772 1.461809 2.396228 0.063663 -0.012408 238716.000000 0 0 1
-1.691223 -24.757682 -26.514003 36.315223 1.502591 2.389275 0.053117 -0.008656 -404131.000000 0 0 1
-1.016323 -23.387582 -26.906793 35.664933 1.527368 2.425586 0.054430 -0.007812 1372500.000000 0 0 1
-0.009323 -23.382182 -27.971693 36.457402 1.570398 2.445328 0.027650 -0.012534 2237140.000000 0 0 1
1.175777 -24.234382 -27.777573 36.881991 -1.522317 2.423630 0.032884 -0.011646 1031940.000000 0 0 1
1.948277 -24.691082 -29.041943 38.169094 -1.492053 2.435458 0.024469 -0.015005 -34140.300000 0 0 1
2.778777 -23.675182 -29.539933 37.958444 -1.453960 2.462619 0.031720 -0.016497 -231820.000000 0 0 1
3.495777 -24.233882 -30.594153 39.185504 -1.427533 2.466664 0.045755 -0.014962 -1019590.000000 0 0 1
4.205977 -23.224382 -31.509233 39.368692 -1.391636 2.498696 0.057630 -0.022784 208353.000000 0 0 1
5.400377 -22.675882 -30.931243 38.731144 -1.336997 2.495785 0.053768 -0.026901 1024350.000000 0 0 1
6.583477 -23.448682 -30.803963 39.269161 -1.297082 2.472575 0.049290 -0.017424 237000.000000 0 0 1
7.396077 -23.670282 -32.114773 40.575151 -1.267946 2.484037 0.050367 -0.013840 -222383.000000 0 0 1
6.734577 -24.703182 -32.838403 41.640875 -1.304644 2.479341 0.046037 -0.013184 89717.000000 0 0 1
6.933377 -24.635182 -34.206691 42.720740 -1.296451 2.499267 0.060380 -0.020784 -21143.300000 0 0 1
6.340377 -23.440482 33.465155 41.346985 -1.306629 0.627712 0.067062 -0.023506 -1249140.000000 0 0 1
4.981677 -23.322882 33.604247 41.207031 -1.360362 0.617207 0.076961 -0.021371 -1265060.000000 0 0 1
4.490877 -22.289782 32.754362 39.872931 -1.371981 0.606815 0.087043 -0.042933 -698651.000000 0 0 1
3.043777 -21.920382 32.991708 39.726824 -1.432823 0.590856 0.065137 -0.036292 -703788.000000 0 0 1
2.062677 -22.873182 32.675017 39.938626 -1.480861 0.612644 0.054738 -0.028549 239084.000000 0 0 1
1.455477 -23.485382 33.850907 41.225787 -1.508902 0.607443 0.059823 -0.024039 -337358.000000 0 0 1
0.093077 -24.127682 33.729603 41.470952 -1.566939 0.620942 0.058126 -0.020310 -460535.000000 0 0 1
0.135977 -25.299782 32.923777 41.521953 -1.565422 0.655202 0.066342 -0.019723 -55398.300000 0 0 1
-1.133823 -25.560082 32.348453 41.243494 1.526466 0.669183 0.048229 -0.027407 196848.000000 0 0 1
-1.159623 -26.734082 31.392253 41.249599 1.527447 0.705894 0.049927 -0.032321 -937997.000000 0 0 1
-2.365623 -26.916182 30.765463 40.946194 1.483133 0.720671 0.040991 -0.038655 -894462.000000 0 0 1
-2.321123 -27.988582 29.854663 40.988404 1.488055 0.754858 0.049144 -0.044491 204003.000000 0 0 1
-3.624123 -28.228782 29.040293 40.661247 1.443111 0.775315 0.047191 -0.030686 772239.000000 0 0 1
-4.764623 -28.638282 29.806633 41.608752 1.405934 0.772232 0.038013 -0.022859 1322580.000000 0 0 1
-5.891223 -28.968982 28.945953 41.373623 1.370169 0.795926 0.031004 -0.012117 665865.000000 0 0 1
-7.069023 -29.522982 29.755143 42.508189 1.335780 0.795418 0.033570 -0.004100 -772573.000000 0 0 1
-8.098723 -30.043782 29.003433 42.537246 1.307491 0.820526 0.054791 -0.000227 1221430.000000 0 0 1
-9.426223 -30.226082 29.600633 43.343595 1.268497 0.819030 0.050704 -0.001406 1681620.000000 0 0 1
-9.561023 -31.358082 30.719353 44.926842 1.274852 0.817888 0.045736 0.004472 -588820.000000 0 0 1
-9.441823 -32.694282 30.302463 45.566472 1.289654 0.843280 0.058303 0.003084 -207988.000000 0 0 1
-10.574723 -33.183882 29.671513 45.753617 1.262300 0.865176 0.046016 0.005942 -635515.000000 0 0 1
-10.375323 33.949323 29.283133 46.018537 -1.274199 0.881060 0.053824 -0.001019 -240623.000000 0 0 1
-10.533823 33.057523 30.393503 46.125116 -1.262317 0.851393 0.051853 -0.004087 346028.000000 0 0 1
-10.231723 31.743023 29.958853 44.831245 -1.258981 0.838931 0.054304 -0.008647 -18955.800000 0 0 1
-10.639423 30.656923 30.990873 44.871800 -1.236754 0.808404 0.054359 0.001398 -314329.000000 0 0 1
-12.027523 30.449723 30.948293 45.051568 -1.194611 0.813509 0.040851 0.003901 -364045.000000 0 0 1
-12.405923 29.214123 31.531933 44.739633 -1.169218 0.788673 0.032469 -0.000832 -8464.260000 0 0 1
-12.419423 29.088823 33.053447 45.748574 -1.167277 0.763382 0.041114 -0.005780 -870231.000000 0 0 1
-13.402923 29.906123 33.573271 46.916725 -1.149468 0.773324 0.041612 -0.001515 -210292.000000 0 0 1
-13.569323 29.667323 -33.518293 46.773417 -1.141820 2.369726 0.048515 -0.008435 89362.800000 0 0 1
-14.846623 30.294523 -32.902383 47.124804 -1.115119 2.343672 0.034887 -0.004418 145032.000000 0 0 1
-15.026323 29.636623 -31.651603 45.890563 -1.101550 2.331898 0.031894 -0.007709 -368238.000000 0 0 1
-16.281823 29.901523 -31.092753 46.108113 -1.072174 2.310873 0.041089 -0.002591 -160865.000000 0 0 1
-16.347123 29.291723 -29.698223 44.801986 -1.061771 2.295452 0.051072 -0.009542 -26091.400000 0 0 1
-16.473323 27.875223 -29.626043 43.887366 -1.037046 2.311825 0.039935 -0.013689 66099.100000 0 0 1
-16.636823 27.497123 -28.290783 42.816399 -1.026680 2.292609 0.039779 -0.011278 -147417.000000 0 0 1
-17.293723 26.116823 -28.140153 42.107357 -0.985915 2.302711 0.017660 -0.019879 210945.000000 0 0 1
-18.704523 26.140923 -28.234933 42.783390 -0.949726 2.291550 0.023863 -0.015691 -59591.100000 0 0 1
-19.300423 24.876223 -28.153773 42.237042 -0.910950 2.300389 0.006981 -0.016780 468592.000000 0 0 1
-20.813323 24.779923 -28.507863 43.126990 -0.872179 2.292975 0.032319 -0.011450 24683.800000 0 0 1
-21.690823 25.214423 -27.520663 43.169964 -0.860379 2.262040 0.026459 -0.013652 -1136940.000000 0 0 1
-22.998423 24.965923 -27.890153 43.932737 -0.826395 2.258595 0.028605 -0.022320 -859107.000000 0 0 1
-23.972923 25.052023 -26.723243 43.777124 -0.807406 2.227410 0.048948 -0.029091 -70839.800000 0 0 1
-24.355923 26.386523 -26.294013 44.506569 -0.825395 2.202833 0.031725 -0.011197 185241.000000 0 0 1
-25.466723 26.365223 -25.396223 44.594250 -0.802731 2.176688 0.037653 -0.004495 332830.000000 0 0 1
-25.189363 25.921323 -23.892013 43.327212 -0.799718 2.154876 0.028822 -0.003885 -586630.000000 0 0 1
-25.019723 24.479923 -23.633613 42.235066 -0.774493 2.164667 0.022030 -0.007434 335995.000000 0 0 1
-26.234673 23.785023 -23.323813 42.402661 -0.736464 2.153227 0.024054 -0.007250 152266.000000 0 0 1
-26.811343 24.011323 -21.927613 42.145130 -0.730360 2.117985 0.019332 -0.006231 -232351.000000 0 0 1
-26.114093 23.493423 -20.781713 40.813801 -0.732619 2.105032 0.007896 -0.003192 725159.000000 0 0 1
-24.984823 24.310723 -20.419413 40.400558 -0.771724 2.100670 0.015645 -0.002122 151713.000000 0 0 1
-24.102123 23.767223 -19.311413 38.970808 -0.778402 2.089247 0.014740 -0.010519 -458769.000000 0 0 1
-24.763023 23.718823 -18.059413 38.754771 -0.763864 2.055552 0.015662 -0.015892 315418.000000 0 0 1
-23.821623 23.703923 -17.019413 37.669697 -0.782922 2.039586 0.019121 -0.021797 -332467.000000 0 0 1
-24.534823 23.930923 -15.693713 37.695348 -0.772938 2.000202 0.016690 -0.018808 -211592.000000 0 0 1
-24.720423 25.267023 -15.350313 38.537694 -0.796332 1.980480 0.022456 -0.026993 -38729.500000 0 0 1
-25.407413 25.313223 -14.110113 38.540773 -0.783541 1.945620 0.000730 -0.026235 111050.000000 0 0 1
-25.402773 26.756123 -13.576313 39.312940 -0.811339 1.923397 0.001883 -0.021235 -1284750.000000 0 0 1
-24.134823 27.173923 -13.290013 38.698013 -0.844561 1.921362 0.022788 -0.030619 -1294380.000000 0 0 1
-24.079123 28.268423 -12.456313 39.167176 -0.865257 1.894447 0.023464 -0.017780 -812241.000000 0 0 1
-22.698823 28.729223 -12.037513 38.542270 -0.902124 1.888430 0.047162 -0.021611 -354225.000000 0 0 1
-21.931223 27.647523 -11.448913 37.100427 -0.900189 1.884509 0.044462 -0.026962 786243.000000 0 0 1
-20.791823 28.099123 -10.688813 36.552857 -0.933761 1.867554 0.045288 -0.024175 84638.600000 0 0 1
-20.114223 26.890223 -10.057913 35.054638 -0.928568 1.861808 0.065106 -0.022803 -412320.000000 0 0 1
-19.512123 26.116123 -11.069613 34.428348 -0.929135 1.898137 0.057918 -0.028918 -147598.000000 0 0 1
-18.858823 25.079723 -10.370413 33.048346 -0.926045 1.889984 0.071332 -0.018856 -309114.000000 0 0 1
-18.186023 24.033023 -11.262113 32.173791 -0.923015 1.928410 0.061451 -0.019301 -382724.000000 0 0 1
-17.651523 22.925223 -10.620113 30.820917 -0.914642 1.922582 0.045390 -0.016801 8794.550000 0 0 1
-17.280223 22.090223 -11.703913 30.390223 -0.906969 1.966135 0.061681 -0.003840 -139603.000000 0 0 1
-16.856923 20.726723 -11.374213 29.036626 -0.888002 1.973296 0.046238 0.007839 113157.000000 0 0 1
-17.917923 19.991623 -10.798913 28.936715 -0.840045 1.953242 0.032713 0.009203 194589.000000 0 0 1
-17.458423 18.644223 -10.670513 27.681464 -0.818232 1.966519 0.052397 -0.003447 -872995.000000 0 0 1
-18.514123 17.535223 -10.536413 27.591172 -0.758250 1.962622 0.038098 0.006028 -49047.900000 0 0 1
-19.100423 17.063523 -11.768113 28.186494 -0.729134 2.001498 0.027498 0.008489 276010.000000 0 0 1
-19.865923 17.994923 -12.492113 29.572370 -0.736021 2.006916 0.025885 0.013212 -923038.000000 0 0 1
-20.800723 17.415723 -13.568813 30.332988 -0.697054 2.034573 0.025269 0.009862 -286541.000000 0 0 1
-19.981423 16.860623 -14.600113 29.944969 -0.700892 2.080095 0.031807 0.002200 -5300.730000 0 0 1
-20.603523 16.594823 -15.835313 30.832620 -0.678047 2.110159 0.025422 0.004253 -248081.000000 0 0 1
-19.735723 16.276423 -17.095213 30.767954 -0.689633 2.159902 0.041222 -0.003904 -165834.000000 0 0 1
-18.917023 17.369023 -17.470113 31.060289 -0.742763 2.168152 0.023859 -0.004048 69721.600000 0 0 1
-18.301323 17.040523 -18.684913 31.216083 -0.749739 2.212507 0.029020 -0.002501 -188704.000000 0 0 1
-17.333423 18.192323 -19.180513 31.611711 -0.809570 2.222766 0.016334 0.001725 30963.400000 0 0 1
-16.173823 18.332123 -18.395813 30.595183 -0.847865 2.215880 0.044051 -0.006347 -137794.000000 0 0 1
-15.590023 19.541723 -18.810413 31.285131 -0.897410 2.215870 0.048688 -0.003968 -156956.000000 0 0 1
32.944413 31.563123 2.009787 45.668417 0.763989 1.526774 0.068312 -0.005845 196515.000000 0 0 1
34.253153 31.216123 1.582987 46.370580 0.739043 1.536652 0.074429 -0.006784 278496.000000 0 0 1
34.480393 31.626923 0.243587 46.789091 0.742261 1.565590 0.059116 -0.001703 -618201.000000 0 0 1
35.847183 31.359723 -0.360413 47.629640 0.718726 1.578363 0.038988 0.003266 89816.700000 0 0 1
-35.437451 32.269023 0.127687 47.928270 -0.738636 1.568132 0.022755 0.006205 -28816.100000 0 0 1
-34.270892 32.158523 -0.605113 47.000328 -0.753610 1.583671 0.028840 0.004252 -747837.000000 0 0 1
-33.285983 33.318523 -0.357213 47.097858 -0.785887 1.578381 0.027068 0.006976 -110857.000000 0 0 1
-32.526173 33.063223 0.809687 46.387328 -0.793586 1.553341 0.029340 0.015327 42695.300000 0 0 1
-32.166573 34.214823 1.509087 46.985316 -0.816244 1.538673 0.019710 0.009410 -515009.000000 0 0 1
-31.448073 33.969923 2.795687 46.376210 -0.823929 1.510477 0.030508 0.009603 -483310.000000 0 0 1
-31.163453 -33.498382 3.562287 45.891092 0.821492 1.493093 0.026082 0.017920 84999.200000 0 0 1
-30.505293 -33.746382 4.771087 45.740075 0.835799 1.466298 0.027962 0.009698 -558743.000000 0 0 1
-30.234293 -32.509982 5.704287 44.761036 0.821652 1.443010 0.038730 0.006003 18394.700000 0 0 1
-31.349553 -31.905982 6.344887 45.177912 0.794194 1.429888 0.042945 0.003180 287300.000000 0 0 1
-31.867693 -32.807782 7.342787 46.322964 0.799933 1.411612 0.041695 -0.015005 -1238640.000000 0 0 1
-32.854513 -32.232182 8.366387 46.779579 0.775837 1.390982 0.058461 -0.012080 1179050.000000 0 0 1
-34.133523 -31.745982 7.881787 47.276076 0.749173 1.403296 0.062900 -0.014200 1053590.000000 0 0 1
-35.023775 -32.782382 7.542987 48.561776 0.752354 1.414837 0.052331 -0.009491 -361975.000000 0 0 1
35.778063 -32.490682 7.280087 48.874471 -0.737282 1.421285 0.059223 -0.007827 591355.000000 0 0 1
35.029883 -32.537182 8.482287 48.556257 -0.748523 1.395206 0.062251 -0.004867 -368982.000000 0 0 1
33.673023 -32.273382 8.290487 47.372733 -0.764177 1.394885 0.051442 0.004959 -635769.000000 0 0 1
32.873593 -32.485582 9.585587 47.200314 -0.779462 1.366291 0.073245 -0.003952 877950.000000 0 0 1
31.438973 -32.454082 9.368787 46.145971 -0.801284 1.366350 0.067284 -0.008963 1309530.000000 0 0 1
30.624813 -32.429382 10.510387 45.825890 -0.814010 1.339382 0.074291 -0.004325 76652.100000 0 0 1
30.505993 -31.111282 11.254587 45.002147 -0.795221 1.318023 0.081125 -0.008869 -773485.000000 0 0 1
29.866263 -29.984082 10.731387 43.660068 -0.787367 1.322457 0.064642 -0.017252 -57266.400000 0 0 1
30.283243 -29.503982 9.464187 43.325865 -0.772365 1.350579 0.063118 -0.020788 -398453.000000 0 0 1
29.680613 -28.203882 8.980287 41.917100 -0.759892 1.354883 0.056449 -0.028035 -301963.000000 0 0 1
30.167223 -27.625982 7.801787 41.642816 -0.741455 1.382333 0.058339 -0.040921 -309452.000000 0 0 1
29.381043 -26.503782 7.481887 40.270023 -0.733958 1.383918 0.059092 -0.034082 -49654.100000 0 0 1
29.634143 -25.850582 6.100387 39.795097 -0.717313 1.416895 0.051199 -0.021556 -234769.000000 0 0 1
30.874093 -25.235282 5.876187 40.305814 -0.685238 1.424485 0.061129 -0.023623 -532598.000000 0 0 1
31.063463 -24.665882 4.600687 39.931326 -0.671101 1.455325 0.053936 -0.023594 76423.500000 0 0 1
32.515133 -24.242382 4.215687 40.776206 -0.640661 1.467225 0.061910 -0.024919 179363.000000 0 0 1
33.336073 -25.349782 4.094287 42.079311 -0.650144 1.473343 0.055404 -0.015207 -634124.000000 0 0 1
34.665213 -24.952282 3.841787 42.884178 -0.623896 1.481091 0.048447 -0.016669 75997.600000 0 0 1
35.720803 -26.056182 3.841587 44.380831 -0.630212 1.484128 0.048748 -0.013420 -224455.000000 0 0 1
35.620033 -26.792782 5.024187 44.854012 -0.644897 1.458549 0.041294 -0.011461 -79745.200000 0 0 1
36.077603 -28.109382 4.740687 45.980484 -0.661889 1.467511 0.038611 -0.010927 -684594.000000 0 0 1
35.520213 -29.054382 5.852487 46.261153 -0.685601 1.443947 0.055513 -0.012927 1614890.000000 0 0 1
34.158953 -29.507482 5.654587 45.491757 -0.712468 1.446175 0.041235 -0.005954 726065.000000 0 0 1
33.122023 -28.566382 5.749887 44.115392 -0.711683 1.440087 0.048268 -0.019881 -786052.000000 0 0 1
31.782233 -29.341482 5.828487 43.646353 -0.745488 1.436857 0.043852 -0.017448 -376706.000000 0 0 1
31.382683 -29.965782 4.612787 43.635979 -0.762306 1.464888 0.019415 -0.014347 494958.000000 0 0 1
30.145743 -29.379682 4.173687 42.300723 -0.772529 1.471968 0.025093 -0.013754 1973340.000000 0 0 1
28.819353 -30.256582 4.351287 42.011303 -0.809722 1.467036 0.043118 -0.018493 1375440.000000 0 0 1
28.892923 -31.302382 3.422387 42.735850 -0.825404 1.490628 0.047713 -0.004286 -684965.000000 0 0 1
27.815503 -32.172882 3.540487 42.677062 -0.857908 1.487741 0.056939 -0.003336 -886660.000000 0 0 1
27.825133 -33.489382 2.750887 43.627332 -0.877517 1.507700 0.062780 -0.000752 -304067.000000 0 0 1
27.836793 -33.277782 1.371387 43.407125 -0.874193 1.539197 0.060192 -0.000471 229454.000000 0 0 1
28.069203 34.180523 0.630487 44.233311 0.883259 1.556542 0.056392 -0.001389 -60487.600000 0 0 1
27.639073 34.209123 -0.836413 43.987294 0.891230 1.589812 0.050759 -0.004784 121820.000000 0 0 1
28.666563 -33.807382 -1.608413 44.354232 -0.867501 1.607067 0.043741 -0.001834 805096.000000 0 0 1
28.169383 -33.771982 -2.947813 44.076644 -0.875603 1.637726 0.046180 -0.001246 101057.000000 0 0 1
29.262613 -33.295482 -3.917813 44.499875 -0.849775 1.658951 0.039080 -0.002268 34337.300000 0 0 1
29.673513 -31.950982 -3.695313 43.761147 -0.822339 1.655340 0.020754 0.005559 72791.000000 0 0 1
30.437093 -31.468982 -4.784613 44.040958 -0.802065 1.679651 0.019826 0.008646 -159743.000000 0 0 1
30.886823 -29.986182 -4.701613 43.304412 -0.770604 1.679582 0.015693 0.010963 266929.000000 0 0 1
29.845403 -28.993082 -4.862313 41.892589 -0.770913 1.687125 0.009674 -0.003343 507550.000000 0 0 1
30.327753 -27.671482 -4.951113 41.352110 -0.739632 1.690815 0.014706 -0.008718 88585.200000 0 0 1
31.255513 -27.257382 -6.141513 41.923623 -0.717175 1.717818 0.026506 -0.010250 -36029.400000 0 0 1
32.585943 -27.609582 -5.835413 43.106667 -0.702916 1.706585 0.025230 0.005254 -67519.100000 0 0 1
33.599113 -27.107282 -6.696713 43.686967 -0.678865 1.724692 0.035269 -0.002502 444713.000000 0 0 1
33.841243 -28.052182 -7.917613 44.663668 -0.692137 1.749010 0.031136 -0.011799 -174023.000000 0 0 1
32.713803 -27.941482 -8.804513 43.913993 -0.706881 1.772659 0.018712 -0.006632 597368.000000 0 0 1
32.446583 -29.036882 -9.670713 44.603183 -0.729998 1.789349 0.014658 0.005536 217934.000000 0 0 1
32.086683 -30.435782 -9.087113 45.149393 -0.758999 1.773448 0.018527 0.005521 -332931.000000 0 0 1
33.156123 -30.931882 -8.327613 46.102700 -0.750706 1.752425 0.023190 0.001742 -487125.000000 0 0 1
33.010153 -32.278882 -7.908013 46.841574 -0.774198 1.740433 0.032662 -0.003355 188450.000000 0 0 1
34.357853 -32.828682 -7.377013 48.089549 -0.762642 1.724806 0.023130 -0.002959 257065.000000 0 0 1
34.309733 -34.122682 -6.786313 48.862759 -0.782665 1.710132 0.025796 -0.002252 -377185.000000 0 0 1
33.785353 -34.060082 -5.535413 48.292650 -0.789447 1.685671 0.026706 0.002681 -505078.000000 0 0 1
33.506093 33.179123 -4.939713 47.412163 0.780495 1.675172 0.026078 0.004776 375355.000000 0 0 1
32.372203 32.559323 -5.561513 46.249318 0.788280 1.691339 0.042850 -0.007324 522144.000000 0 0 1
32.251513 31.234423 -5.149313 45.191423 0.769379 1.684989 0.043064 -0.003427 -246939.000000 0 0 1
30.950993 30.615123 -5.666513 43.901698 0.779943 1.700230 0.051208 -0.007757 -530488.000000 0 0 1
30.961333 30.162823 -6.983613 43.785510 0.772335 1.730976 0.039176 -0.012310 -969232.000000 0 0 1
29.703583 29.729423 -7.328413 42.659665 0.785833 1.743441 0.029914 -0.012573 -842530.000000 0 0 1
29.638043 29.260923 -8.750813 42.558101 0.778995 1.777894 0.039197 -0.014912 205557.000000 0 0 1
30.420983 28.090323 -9.058413 42.385815 0.745587 1.786171 0.049823 -0.017031 205374.000000 0 0 1
30.650803 27.897523 -10.431213 42.738200 0.738407 1.817359 0.040151 -0.012671 811887.000000 0 0 1
32.022313 28.412023 -10.985413 44.196729 0.725730 1.821987 0.060446 -0.016069 -944035.000000 0 0 1
33.197513 27.874323 -10.502713 44.602239 0.698455 1.808504 0.049062 -0.015488 -939723.000000 0 0 1
34.324923 28.567823 -10.928813 45.975643 0.694114 1.810803 0.055275 -0.015199 -413809.000000 0 0 1
34.510303 30.045323 -10.424113 46.929144 0.716343 1.794789 0.050046 -0.015040 -1363340.000000 0 0 1
35.169113 30.058723 -9.178213 47.166014 0.707211 1.766640 0.034435 -0.009044 166524.000000 0 0 1
35.146953 31.375023 -8.584213 47.889342 0.728757 1.751021 0.034506 -0.006837 -462302.000000 0 0 1
36.120043 31.550923 -7.343713 48.518536 0.717981 1.722739 0.033520 -0.003609 1384630.000000 0 0 1
-34.794427 31.664923 -7.680813 47.668799 -0.738344 1.732631 0.037583 -0.001544 885545.000000 0 0 1
-34.135912 30.470223 -8.105413 46.469266 -0.728720 1.746118 0.035913 -0.004309 -1265980.000000 0 0 1
-32.751553 30.710223 -8.669713 45.726862 -0.753243 1.761549 0.036286 -0.000576 -622105.000000 0 0 1
-31.770473 30.886323 -7.639013 44.963123 -0.771288 1.741520 0.020773 -0.003378 443263.000000 0 0 1
-30.493413 31.352423 -8.048813 44.470283 -0.799287 1.752792 0.027587 -0.015586 309787.000000 0 0 1
-30.306483 32.743423 -8.785913 45.473145 -0.824030 1.765230 0.011117 -0.011633 -661675.000000 0 0 1
-30.346683 33.931023 -8.010013 46.221162 -0.841104 1.744973 -0.004914 0.000623 -213597.000000 0 0 1
-29.395453 34.101923 -6.993413 45.562503 -0.859384 1.724896 0.015621 -0.002073 -193135.000000 0 0 1
-29.313413 -33.090582 -6.379113 44.664929 0.845852 1.714108 0.005394 0.004754 -463638.000000 0 0 1
-30.322983 -32.750682 -5.495313 44.969867 0.823869 1.693302 -0.000059 0.000736 -458616.000000 0 0 1
-30.079653 -33.142382 -4.159513 44.950023 0.833804 1.663465 -0.003619 -0.001762 574909.000000 0 0 1
-31.403753 -33.035882 -3.324813 45.701418 0.810721 1.643611 0.005856 -0.000842 428803.000000 0 0 1
-31.823513 -31.707782 -2.981013 45.022282 0.783577 1.637057 0.012511 -0.002840 14920.300000 0 0 1
-32.588153 -31.687082 -1.793313 45.489283 0.771380 1.610229 0.021854 0.001412 -159971.000000 0 0 1
-33.265423 -30.367482 -1.549213 45.068530 0.739888 1.605178 0.030835 -0.000050 -29667.200000 0 0 1
-34.061985 -30.236282 -0.372413 45.547670 0.725969 1.578973 0.029558 0.001636 -161844.000000 0 0 1
-34.797014 -29.055982 -0.351413 45.334378 0.695729 1.578548 0.040648 0.001238 267018.000000 0 0 1
-35.854195 -28.857382 0.786187 46.031401 0.677694 1.553716 0.040251 0.004406 -220619.000000 0 0 1
35.325483 -29.696782 0.712287 46.155129 -0.699048 1.555363 0.027778 0.016075 269647.000000 0 0 1
34.344103 -29.509882 1.732887 45.313943 -0.709835 1.532545 0.024560 0.010199 819331.000000 0 0 1
33.488653 -28.169082 1.754087 43.795706 -0.699335 1.530734 0.013899 0.011737 -714559.000000 0 0 1
32.496743 -28.241782 0.769687 43.060759 -0.715459 1.552921 0.004052 0.011320 -578362.000000 0 0 1
31.791913 -27.025482 0.754487 41.733340 -0.704537 1.552717 0.006113 0.010447 -54996.500000 0 0 1
30.654413 -27.203082 -0.303913 40.985279 -0.725817 1.578212 0.003964 -0.005839 -373956.000000 0 0 1
29.449933 -27.782282 0.123587 40.486652 -0.756268 1.567744 0.010565 0.003896 -125576.000000 0 0 1
29.407533 -29.198082 0.017287 41.440696 -0.781824 1.570379 0.010565 0.008979 -281098.000000 0 0 1
28.973933 -29.738282 -1.331113 41.540656 -0.798416 1.602845 0.019056 0.001430 665996.000000 0 0 1
27.567893 -29.554582 -1.586713 40.447246 -0.820164 1.610036 0.028549 0.010754 811080.000000 0 0 1
27.259633 -29.932782 -2.955213 40.593008 -0.832104 1.643662 0.024103 0.011378 -129152.000000 0 0 1
25.781333 -30.267582 -3.190513 39.887129 -0.865270 1.650870 0.038932 0.009664 585373.000000 0 0 1
24.826533 -29.189982 -3.060913 38.441917 -0.866003 1.650505 0.050659 0.007774 748742.000000 0 0 1
23.532633 -29.635482 -3.466213 38.000806 -0.899682 1.662137 0.052400 0.003010 311898.000000 0 0 1
22.498833 -28.511882 -3.549613 36.492803 -0.902735 1.668219 0.061099 0.004156 -185390.000000 0 0 1
22.581633 -27.740682 -4.741913 36.082701 -0.887561 1.702595 0.063169 0.002599 313379.000000 0 0 1
21.913033 -26.462482 -4.627613 34.667835 -0.879167 1.704680 0.071830 -0.011152 -25650.900000 0 0 1
21.371333 -25.882682 -5.966813 34.091787 -0.880580 1.746724 0.067443 -0.033500 66924.500000 0 0 1
20.106833 -26.404882 -6.323813 33.785990 -0.919987 1.759079 0.071401 -0.031289 -127778.000000 0 0 1
19.552933 -25.717382 -7.438113 33.151568 -0.920736 1.797090 0.082159 -0.030003 1034840.000000 0 0 1
18.001033 -25.788582 -7.671913 32.372000 -0.961398 1.810065 0.074399 -0.027171 804612.000000 0 0 1
17.245833 -24.882782 -6.888113 31.048634 -0.964728 1.794507 0.071795 -0.029059 103270.000000 0 0 1
15.891633 -25.294682 -6.961613 30.672936 -1.009856 1.799754 0.069927 -0.025554 78345.900000 0 0 1
14.929233 -24.534882 -6.034513 29.347194 -1.024157 1.777899 0.063027 -0.019579 -21249.800000 0 0 1
15.179633 -24.890682 -4.685913 29.528378 -1.023164 1.730162 0.048307 -0.006585 225721.000000 0 0 1
14.396233 -24.093082 -3.838413 28.327752 -1.032198 1.706715 0.037341 -0.012046 -182275.000000 0 0 1
14.318833 -24.483782 -2.370813 28.462349 -1.041606 1.654189 0.038998 -0.005685 82192.400000 0 0 1
13.595033 -25.676982 -2.073213 29.127831 -1.083856 1.642033 0.031786 -0.001147 591809.000000 0 0 1
14.466933 -26.652482 -1.508813 30.363193 -1.073499 1.620509 0.034700 -0.002432 -843.848000 0 0 1
13.953433 -28.060882 -1.693213 31.384365 -1.109347 1.624773 0.030126 0.004917 940654.000000 0 0 1
12.789333 -28.344082 -0.857313 31.107700 -1.146931 1.598359 0.039641 -0.004417 1060210.000000 0 0 1
12.009333 -29.486182 -1.175113 31.859691 -1.184024 1.607689 0.034087 -0.003678 -20787.300000 0 0 1
12.639433 -30.851682 -0.917013 33.352998 -1.181970 1.598294 0.031301 -0.000793 -254734.000000 0 0 1
13.747333 -31.226682 -1.731113 34.162722 -1.156086 1.621491 0.034038 0.004024 85941.400000 0 0 1
14.221833 -32.526782 -1.352813 35.525796 -1.158609 1.608885 0.033237 -0.000872 207826.000000 0 0 1
15.681033 -32.777782 -1.875913 36.384019 -1.124574 1.622378 0.039093 0.003432 295916.000000 0 0 1
16.536233 -31.938682 -1.187713 35.985234 -1.093050 1.603808 0.038069 0.016661 275170.000000 0 0 1
17.927933 -32.058782 -1.557913 36.764159 -1.060901 1.613185 0.055463 0.008696 925852.000000 0 0 1
18.672133 -30.922682 -0.844513 36.132728 -1.027563 1.594171 0.061705 0.013574 -291251.000000 0 0 1
18.369233 -29.716882 -1.478313 34.967231 -1.017144 1.613086 0.056488 0.008939 124216.000000 0 0 1
18.772233 -28.656882 -0.650513 34.264220 -0.990866 1.589783 0.054141 0.008152 -50700.700000 0 0 1
18.444733 -27.254382 -1.241213 32.932509 -0.975837 1.608495 0.048115 0.007116 -546603.000000 0 0 1
19.210733 -26.865282 -2.300513 33.107220 -0.950023 1.640339 0.059752 -0.007072 -340517.000000 0 0 1
18.438333 -26.271382 -3.316613 32.266973 -0.958836 1.673765 0.065513 -0.002064 -115298.000000 0 0 1
32.507693 -29.555082 13.736987 46.032139 -0.737859 1.267758 0.079873 -0.025319 -56049.900000 0 0 1
33.279923 -30.099982 14.788187 47.246721 -0.735268 1.252447 0.080134 -0.015586 -104664.000000 0 0 1
32.545703 -30.461482 15.946987 47.343754 -0.752331 1.227244 0.083216 -0.011108 -522595.000000 0 0 1
33.346753 -31.106282 17.052787 48.686798 -0.750651 1.212953 0.074586 -0.006955 -1140110.000000 0 0 1
32.636553 -31.671782 18.077687 48.939239 -0.770397 1.192443 0.070263 -0.008172 -224701.000000 0 0 1
33.485353 -31.952782 19.156187 50.092002 -0.761982 1.178382 0.053192 -0.008334 -480801.000000 0 0 1
34.343153 -33.195182 19.075387 51.431923 -0.768402 1.190833 0.048344 -0.005019 76425.700000 0 0 1
35.343393 -33.052382 18.023287 51.637721 -0.751914 1.214257 0.054886 0.003380 431626.000000 0 0 1
35.948263 34.299923 17.798287 52.778228 0.761938 1.226826 0.043386 0.001866 -288677.000000 0 0 1
-35.238785 -34.251982 16.746687 51.917452 0.771199 1.242360 0.055616 -0.002831 -599030.000000 0 0 1
-34.068150 -33.722882 17.293687 50.960212 0.780305 1.224563 0.042936 0.002996 -927430.000000 0 0 1
-33.049143 -33.634582 16.371987 49.915658 0.794177 1.236618 0.056535 -0.000099 -869251.000000 0 0 1
-31.891143 -32.746082 16.889287 48.729857 0.798624 1.216863 0.040585 -0.003082 -254054.000000 0 0 1
-30.795953 -32.652082 16.022487 47.657836 0.814644 1.227919 0.041165 -0.005377 -275554.000000 0 0 1
-30.930213 -31.679482 15.023887 46.754517 0.797365 1.243657 0.053261 -0.002313 -1455310.000000 0 0 1
-29.711903 -31.580482 14.164887 45.615437 0.815875 1.255047 0.036108 -0.008705 -900250.000000 0 0 1
-28.608823 -31.182482 14.953187 44.882176 0.828416 1.231138 0.042436 -0.011024 -518670.000000 0 0 1
-27.466453 -31.080582 14.142987 43.822742 0.847050 1.242182 0.032616 -0.003982 -1282300.000000 0 0 1
-26.218763 -30.772082 14.877587 43.077688 0.865124 1.218167 0.035870 -0.009779 -1209280.000000 0 0 1
-25.102263 -30.862682 14.043687 42.188315 0.887966 1.231439 0.030537 -0.003109 -991565.000000 0 0 1
-23.921623 -30.522682 14.708587 41.475544 0.906053 1.208275 0.028377 -0.000824 -306003.000000 0 0 1
-22.768423 -30.255482 13.696887 40.266612 0.925672 1.223715 0.022430 0.004890 107258.000000 0 0 1
-22.338923 -31.531882 13.240487 40.848471 0.954418 1.240697 0.010156 0.006244 -429416.000000 0 0 1
-21.207423 -31.377382 12.443087 39.863835 0.976441 1.253352 -0.000465 0.005698 -328610.000000 0 0 1
-20.588123 -32.670082 11.901387 40.408515 1.008479 1.271836 0.011993 0.005665 -260965.000000 0 0 1
-21.376223 -33.305182 10.937187 41.058497 1.000187 1.301160 0.013309 0.008908 -51235.600000 0 0 1
-21.249823 33.948923 11.017587 41.538796 -1.011525 1.302348 0.020946 0.015285 458541.000000 0 0 1
-22.320823 33.205723 10.143687 41.276308 -0.978974 1.322502 0.006283 0.021062 490895.000000 0 0 1
-22.013023 33.335923 8.750887 40.895415 -0.987187 1.355147 0.011863 0.017004 584874.000000 0 0 1
-23.245723 33.423923 8.038287 41.498630 -0.963109 1.375864 0.012319 0.018626 397478.000000 0 0 1
-22.982923 33.804623 6.533587 41.396317 -0.973705 1.412303 0.024287 0.006662 118269.000000 0 0 1
-22.249623 32.943823 5.582787 40.143601 -0.976785 1.431274 0.020280 0.012953 1088430.000000 0 0 1
-20.837523 32.770523 5.733587 39.255364 -1.004424 1.424213 0.023633 0.012226 645306.000000 0 0 1
-19.954823 34.005023 5.344687 39.788217 -1.040124 1.436061 0.027501 0.005517 -321346.000000 0 0 1
-20.001023 -33.462082 6.189087 39.472227 1.032054 1.413351 0.025698 0.002805 -81759.200000 0 0 1
-19.330123 -33.768282 7.387987 39.604708 1.050892 1.383154 0.024115 0.006316 -460510.000000 0 0 1
-19.267223 -32.568582 8.324587 38.745802 1.036584 1.354257 0.018269 0.004407 -565109.000000 0 0 1
-18.496223 -31.528082 7.764287 37.368628 1.040244 1.361496 0.033078 -0.000803 -135813.000000 0 0 1
-18.561123 -30.345382 8.590487 36.594453 1.021846 1.333837 0.035749 -0.005197 84953.300000 0 0 1
-17.918523 -30.428882 10.018287 36.706354 1.038604 1.294358 0.016202 0.003307 -362783.000000 0 0 1
-16.621023 -30.924782 10.108887 36.534780 1.077627 1.290446 0.022984 -0.004065 -648101.000000 0 0 1
-16.112123 -30.762482 11.450287 36.565556 1.088323 1.252295 0.032379 -0.003353 -16719.900000 0 0 1
-14.728423 -31.410982 11.588587 36.576927 1.132342 1.248413 0.043713 -0.003831 178697.000000 0 0 1
-13.704123 -30.662382 10.919687 35.316062 1.150493 1.256446 0.041820 -0.001725 129533.000000 0 0 1
-12.628723 -31.527982 10.562387 35.567715 1.189811 1.269283 0.033419 0.010617 103962.000000 0 0 1
-11.514223 -30.707582 9.879187 34.251004 1.212058 1.278204 0.036134 0.012682 -443231.000000 0 0 1
-10.859423 -29.889182 10.778387 33.577729 1.222302 1.244013 0.039716 0.006738 -455791.000000 0 0 1
-9.751223 -29.205882 10.213787 32.440582 1.248555 1.250502 0.041404 0.007561 206997.000000 0 0 1
-8.996823 -28.497282 11.365087 31.971911 1.264991 1.207378 0.039144 0.010965 -248725.000000 0 0 1
-9.646523 -27.442482 11.962087 31.452135 1.232770 1.180647 0.042515 -0.002935 -421877.000000 0 0 1
-8.907023 -27.012282 13.094887 31.312530 1.252283 1.139334 0.036323 0.000221 112709.000000 0 0 1
-9.446223 -25.717382 13.758287 30.657876 1.218786 1.105410 0.028536 -0.007353 110689.000000 0 0 1
-9.110623 -24.427582 13.184387 29.215378 1.213811 1.102594 0.026293 -0.003375 -84131.100000 0 0 1
-9.688023 -24.163882 11.918887 28.632339 1.189489 1.141453 0.030604 -0.006664 -186354.000000 0 0 1
-9.227023 -22.861482 11.262987 27.104247 1.187186 1.142256 0.026119 -0.007830 -998994.000000 0 0 1
-8.014323 -22.976382 10.638887 26.558039 1.235185 1.158636 0.014474 -0.003668 -818308.000000 0 0 1
-7.419723 -21.749382 10.196287 25.140648 1.242031 1.153194 0.015912 0.001630 329722.000000 0 0 1
-6.215723 -22.000482 9.249987 24.662090 1.295446 1.186325 0.023325 0.004303 748701.000000 0 1 0
-5.096723 -22.616682 9.900487 25.209334 1.349147 1.167197 0.013559 0.001962 -52756.800000 0 0 1
-4.005623 -22.685382 9.021387 24.739786 1.396025 1.197538 0.019221 0.003543 538060.000000 0 1 0
-2.772823 -23.489882 9.558187 25.511214 1.453297 1.186760 0.029400 0.002068 865084.000000 0 0 1
-1.931523 -22.847782 10.510687 25.223530 1.486458 1.140982 0.028297 0.004058 -392741.000000 0 0 1
-1.028123 -23.717282 11.081587 26.198628 1.527474 1.134061 0.040620 -0.004430 -132348.000000 0 0 1
-0.069423 -23.266782 12.180587 26.262419 1.567813 1.088513 0.044404 0.003137 -296688.000000 0 0 1
-0.730223 -22.980282 13.412587 26.618116 1.539031 1.042701 0.029900 0.001568 -324460.000000 0 0 1
0.027477 -22.359282 14.408187 26.599513 -1.569567 0.998373 0.047000 -0.005501 -310131.000000 0 0 1
0.487677 -20.901782 14.137587 25.238734 -1.547469 0.976224 0.037381 -0.016065 -467959.000000 0 0 1
1.571377 -20.764682 13.280787 24.698594 -1.495265 1.003073 0.061243 -0.025078 -494137.000000 0 1 0
2.105077 -19.444482 13.281187 23.641260 -1.462955 0.974260 0.054626 -0.021644 438711.000000 0 1 0
3.655677 -19.449182 13.129287 23.748955 -1.385004 0.985032 0.057692 -0.015426 565690.000000 0 1 0
4.059077 -19.853282 11.830387 23.464590 -1.369122 1.042364 0.055252 -0.016135 -598654.000000 0 1 0
5.433877 -20.141682 11.770587 23.953311 -1.307287 1.057103 0.074587 -0.015141 115923.000000 0 1 0
5.780377 -20.968382 10.460287 24.135108 -1.301806 1.122528 0.080379 -0.021950 -53330.000000 0 1 0
5.733277 -20.179782 9.254587 22.929053 -1.293981 1.155328 0.068212 -0.021804 -407194.000000 0 1 0
5.805377 -20.941782 8.017487 23.163349 -1.300372 1.217355 0.065079 -0.027788 -816993.000000 0 1 0
7.142077 -21.592582 7.616487 23.984573 -1.251359 1.247644 0.063484 -0.016779 145587.000000 0 1 0
8.094577 -20.737782 6.982187 23.330853 -1.198654 1.266871 0.057221 -0.022391 280064.000000 0 1 0
8.608177 -19.581182 7.678487 22.726253 -1.156612 1.226145 0.066454 -0.024449 293293.000000 0 1 0
9.730977 -19.762582 8.785487 23.715741 -1.113252 1.191303 0.066909 -0.026245 356025.000000 0 1 0
9.260577 -20.154682 9.992387 24.327295 -1.140091 1.147522 0.092687 -0.029869 -942898.000000 0 1 0
10.097177 -19.847582 11.077387 24.871429 -1.100184 1.109191 0.088543 -0.023045 -31938.500000 0 1 0
9.403577 -19.944282 12.464887 25.329332 -1.130214 1.056281 0.081111 -0.019819 -99852.900000 0 0 1
9.157377 -21.209182 12.968587 26.492852 -1.163210 1.059266 0.079898 -0.019875 -182981.000000 0 0 1
8.749277 -21.217782 14.333387 27.059012 -1.179684 1.012540 0.080577 -0.018806 134918.000000 0 0 1
8.571377 -22.588982 14.962087 28.418210 -1.208130 1.016322 0.089104 -0.019213 351136.000000 0 0 1
7.722777 -23.537182 14.316687 28.611322 -1.253754 1.046753 0.094193 -0.016864 -23868.600000 0 0 1
7.784677 -24.750382 15.016987 29.978201 -1.266065 1.046123 0.099182 -0.018025 276095.000000 0 0 1
7.700277 -25.986382 14.139987 30.570011 -1.282719 1.089933 0.093221 -0.018727 290226.000000 0 0 1
8.872177 -26.286982 13.405887 30.812964 -1.245290 1.120677 0.080782 -0.012089 51421.600000 0 0 1
8.732477 -27.576482 12.798187 31.630873 -1.264123 1.154243 0.063486 -0.003439 -73146.400000 0 0 1
10.046677 -27.906382 12.078987 32.025050 -1.225229 1.184054 0.045550 -0.003972 52165.000000 0 0 1
10.992977 -28.669882 12.796287 33.264886 -1.204653 1.175937 0.037978 -0.006396 -265397.000000 0 0 1
12.010177 -29.204382 12.001387 33.781261 -1.180633 1.207596 0.037292 -0.006106 -405828.000000 0 0 1
12.911377 -30.110682 12.823387 35.182326 -1.165714 1.197718 0.034626 -0.011588 -907375.000000 0 0 1
13.505477 -29.431482 13.939087 35.254903 -1.140584 1.164315 0.037996 -0.008414 -107545.000000 0 0 1
14.463177 -30.143182 14.650187 36.502368 -1.123426 1.157807 0.052974 -0.010744 273734.000000 0 0 1
15.848977 -30.311382 13.977487 36.950509 -1.089019 1.182863 0.043797 -0.006290 -532513.000000 0 0 1
16.709677 -29.232982 13.962587 36.451809 -1.051518 1.177709 0.041353 -0.012301 -743310.000000 0 0 1
17.950377 -29.386982 13.387087 36.946243 -1.022453 1.200019 0.032201 -0.010995 -303096.000000 0 0 1
18.820777 -28.079982 13.300387 36.326400 -0.980313 1.195944 0.010692 -0.017251 1106220.000000 0 0 1
20.172277 -28.295682 12.865187 37.055086 -0.951458 1.216222 -0.002339 -0.013810 605364.000000 0 0 1
20.820577 -27.117382 12.508687 36.404891 -0.916004 1.220050 0.000823 -0.011057 174568.000000 0 0 1
22.197077 -27.423182 11.875487 37.225909 -0.890333 1.246110 0.012744 -0.013109 245002.000000 0 0 1
23.231277 -28.021582 12.636987 38.530439 -0.878592 1.236638 0.023992 -0.017988 -279730.000000 0 0 1
24.334977 -28.226582 11.812787 39.095690 -0.859302 1.263848 0.028838 -0.022979 -794346.000000 0 0 1
25.462977 -28.951882 12.610087 40.565860 -0.849427 1.254704 0.052134 -0.021678 184870.000000 0 0 1
26.425477 -28.159382 13.293587 40.840863 -0.817153 1.239259 0.039038 -0.019309 496546.000000 0 0 1
27.511377 -27.880782 12.401887 41.085529 -0.792067 1.264158 0.029421 -0.017229 391572.000000 0 0 1
28.865977 -27.410582 13.035987 41.887010 -0.759542 1.254322 0.058998 -0.020148 514974.000000 0 0 1
28.908377 -26.053882 13.330587 41.136402 -0.733509 1.240780 0.069280 -0.014443 22290.800000 0 0 1
28.235377 -25.683382 14.540487 40.844809 -0.738103 1.206819 0.052890 -0.011740 -358643.000000 0 0 1
28.977077 -25.676582 15.926387 41.864157 -0.725082 1.180535 0.055854 -0.001063 13289.800000 0 0 1
29.505277 -26.988282 16.243487 43.159931 -0.740874 1.184937 0.085214 0.002453 378391.000000 0 0 1
30.233277 -26.952882 17.459287 44.105959 -0.728098 1.163804 0.102801 0.016572 87720.900000 0 0 1
30.373677 -28.335382 18.131287 45.323258 -0.750694 1.159232 0.083391 0.023163 273750.000000 0 0 1
29.187777 -28.802782 18.775287 45.100310 -0.778759 1.141424 0.052868 0.015379 412683.000000 0 0 1
29.406877 -30.035382 19.448487 46.315572 -0.795971 1.137447 0.061583 0.001890 252853.000000 0 0 1
28.049977 -30.655082 19.857587 46.052785 -0.829745 1.124983 0.043906 0.004565 -824640.000000 0 0 1
27.329077 -29.922882 20.884087 45.589499 -0.830672 1.094951 0.048956 0.009643 1104350.000000 0 0 1
26.229677 -30.662782 21.455187 45.700407 -0.863162 1.082101 0.047516 0.002191 887067.000000 0 0 1
25.074377 -31.137982 20.563487 44.957261 -0.892852 1.095726 0.066208 0.000838 -1211060.000000 0 0 1
25.477577 -32.285682 19.908987 45.692887 -0.902719 1.119966 0.056886 -0.003794 -121909.000000 0 0 1
24.752377 -32.617982 18.716787 45.021451 -0.921651 1.142051 0.061528 0.001199 -327894.000000 0 0 1
24.985877 -31.718682 17.447787 43.986295 -0.903580 1.162916 0.056335 -0.000562 -199081.000000 0 0 1
26.343077 -31.773182 17.076587 44.666572 -0.878563 1.178499 0.068153 -0.019629 -146324.000000 0 0 1
26.548177 -30.743382 16.112087 43.698519 -0.858493 1.193175 0.065210 -0.029271 785376.000000 0 0 1
27.987977 -30.803782 15.451787 44.395468 -0.833256 1.215307 0.081029 -0.023763 910260.000000 0 0 1
28.203177 -31.837382 14.536087 44.948147 -0.845854 1.241479 0.102292 -0.022676 339720.000000 0 0 1
28.435877 -33.118182 15.139787 46.202016 -0.861320 1.236942 0.094988 -0.027994 -403478.000000 0 0 1
27.586277 -34.104382 14.350887 46.152568 -0.890666 1.254610 0.103301 -0.026338 183391.000000 0 0 1
28.097677 -34.276082 12.999387 46.187805 -0.884131 1.285495 0.112812 -0.016269 260235.000000 0 0 1
27.207177 33.519323 12.358487 44.905542 0.888970 1.291987 0.104100 -0.019322 -394533.000000 0 0 1
27.743777 33.085923 10.993787 44.556243 0.872995 1.321482 0.105016 -0.017731 -696230.000000 0 0 1
28.868777 32.296123 11.145487 44.728824 0.841374 1.318964 0.105061 -0.016149 -667324.000000 0 0 1
29.258377 31.746623 9.922287 44.298448 0.826163 1.344893 0.100979 -0.022600 797809.000000 0 0 1
30.806877 31.439123 9.857187 45.107053 0.795555 1.350490 0.081519 -0.016696 874999.000000 0 0 1
31.166877 30.542123 10.849787 44.965691 0.775274 1.327101 0.067129 -0.007730 -561671.000000 0 0 1
32.547077 30.358323 10.939687 45.832486 0.750618 1.329781 0.066768 -0.005752 -281878.000000 0 0 1
33.016477 29.434123 12.141687 45.868027 0.728098 1.302894 0.057721 0.002206 -33848.900000 0 0 1
32.808477 28.091923 11.994787 44.826635 0.708105 1.299914 0.050000 -0.007180 20184.400000 0 0 1
32.851777 27.371023 13.194787 44.749464 0.694640 1.271488 0.052334 -0.019766 -138169.000000 0 0 1
32.679277 25.882823 12.920687 43.644012 0.669860 1.270245 0.040751 -0.013598 -311386.000000 0 0 1
33.564577 25.359623 11.988587 43.742628 0.647042 1.293173 0.043715 -0.003704 -668430.000000 0 0 1
33.602477 23.952123 11.837187 42.929589 0.619270 1.291442 0.040050 -0.001824 -141343.000000 0 0 1
32.425077 23.284523 11.085787 41.430053 0.622772 1.299917 0.032685 0.003553 245031.000000 0 0 1
31.352677 22.881623 11.913787 40.601691 0.630456 1.272983 0.047539 0.003020 266109.000000 0 0 1
30.226977 22.531823 11.098987 39.300645 0.640564 1.284488 0.054443 0.008990 357955.000000 0 0 1
28.933977 22.119723 11.820587 38.290775 0.652710 1.256964 0.053801 0.015075 -84947.500000 0 0 1
28.404377 23.184823 12.524187 38.745321 0.684566 1.241641 0.061356 0.009459 -511499.000000 0 0 1
27.677477 22.824223 13.645287 38.382050 0.689592 1.207334 0.080249 0.000901 -87352.800000 0 0 1
24.113477 9.480023 25.811043 36.572402 0.374580 0.787312 0.005960 -0.001821 -314233.000000 0 0 1
23.844577 8.317423 26.605193 36.682144 0.335622 0.759341 0.012872 -0.005297 -579084.000000 0 0 1
22.512577 7.974023 26.447423 35.635198 0.340414 0.734492 0.028058 -0.012051 -865850.000000 0 0 1
22.214277 6.609823 27.111703 35.668029 0.289206 0.707311 0.048470 -0.021889 -205443.000000 0 0 1
22.423977 6.496323 28.487873 36.831995 0.281985 0.686523 0.049092 -0.021856 109618.000000 0 0 1
23.757577 6.155023 28.789323 37.830304 0.253503 0.705924 0.047992 -0.017696 -345893.000000 0 0 1
24.057077 5.985523 30.260613 39.118719 0.243854 0.686359 0.057743 -0.028925 -296709.000000 0 0 1
24.002077 7.222223 31.036083 39.893592 0.292282 0.679365 0.057709 -0.022674 255860.000000 0 0 1
23.992077 6.882223 32.399103 40.898492 0.279353 0.656418 0.068362 -0.023864 -393972.000000 0 0 1
23.791277 8.147423 33.282849 41.715146 0.329937 0.647059 0.067036 -0.018240 -393150.000000 0 0 1
24.865077 9.065423 33.334005 42.563010 0.349608 0.671051 0.051302 -0.020953 -176671.000000 0 0 1
25.108477 9.418223 -33.842603 43.179397 0.358860 2.471505 0.055840 -0.015973 -48988.700000 0 0 1
26.142677 10.569123 -33.869043 44.071056 0.384196 2.447305 0.034528 -0.014645 -187991.000000 0 0 1
25.691877 11.849723 34.183253 44.373227 0.432149 0.691395 0.024987 -0.016555 125862.000000 0 0 1
26.113077 12.844523 -33.382603 44.286259 0.457131 2.424609 0.028448 -0.016311 -316840.000000 0 0 1
25.669677 14.276723 -33.814853 44.790640 0.507568 2.426380 0.037235 -0.013505 -335925.000000 0 0 1
26.512477 14.939723 33.751930 45.445567 0.513147 0.733719 0.019899 -0.016111 34788.500000 0 0 1
26.338477 16.348223 33.737785 45.817223 0.555499 0.743128 0.031703 -0.002532 3277.640000 0 0 1
26.993877 17.119723 -33.571023 46.354804 0.565193 2.380697 0.024126 -0.012915 37729.000000 0 0 1
26.312577 17.006523 -32.320493 45.013196 0.573789 2.371753 0.026857 -0.015860 -219872.000000 0 0 1
27.211777 16.594523 -31.380743 44.728179 0.547615 2.348420 0.021569 -0.018217 -486748.000000 0 0 1
26.465977 15.905423 -30.193383 43.186465 0.541137 2.344990 0.024336 -0.014820 83681.600000 0 0 1
25.899377 14.675623 -30.591733 42.684959 0.515529 2.369836 0.033392 -0.006839 -920960.000000 0 0 1
24.778577 14.516323 -29.809363 41.392024 0.529944 2.374846 0.047348 -0.018378 -1005250.000000 0 0 1
24.064077 13.218523 -30.247753 40.850162 0.502310 2.404545 0.051866 -0.021967 -651673.000000 0 0 1
23.195877 13.288823 -31.365833 41.212340 0.520252 2.435771 0.059935 -0.021642 107932.000000 0 0 1
22.698477 12.030723 -31.707983 40.808765 0.487377 2.460666 0.060478 -0.019028 -144126.000000 0 0 1
21.820477 11.153123 -30.781063 39.344621 0.472513 2.469218 0.065852 -0.024980 452376.000000 0 0 1
20.575377 11.832823 -30.490863 38.640064 0.521907 2.480138 0.070285 -0.028204 654254.000000 0 0 1
19.852877 11.158923 -29.516893 37.281433 0.512071 2.484435 0.057401 -0.020445 -314176.000000 0 0 1
18.642477 11.928723 -28.960473 36.449216 0.569219 2.489051 0.061982 -0.018492 -34240.300000 0 0 1
17.630877 12.185823 -29.917663 36.802291 0.604771 2.519961 0.035034 -0.005898 82885.500000 0 0 1
16.429577 12.360023 -29.196863 35.709354 0.644974 2.528070 0.029723 -0.021087 -159797.000000 0 0 1
15.245177 13.050223 -29.944843 36.047432 0.707980 2.551172 0.017075 -0.016242 561121.000000 0 0 1
14.614077 12.122823 -30.852913 36.227563 0.692490 2.589906 0.009753 -0.004379 -519200.000000 0 0 1
13.391477 11.607523 -30.428983 35.213481 0.714158 2.614213 0.028354 -0.011390 -211649.000000 0 0 1
12.544777 10.942323 -31.568133 35.688274 0.717277 2.656329 0.024078 -0.008072 144493.000000 0 0 1
12.109177 11.912823 -32.448933 36.626231 0.777224 2.659330 0.030903 -0.012523 -274202.000000 0 0 1
11.005377 11.454423 -33.211113 36.814401 0.805389 2.695461 0.054896 -0.009550 207368.000000 0 0 1
10.607977 12.547723 -34.220177 37.960440 0.868973 2.693949 0.068183 -0.011133 -265223.000000 0 0 1
11.464977 12.578023 33.163287 37.275407 0.831659 0.474146 0.041452 -0.008037 -69418.300000 0 0 1
10.901477 13.230123 32.025383 36.324971 0.881598 0.491480 0.059065 -0.016711 -716305.000000 0 0 1
11.516177 12.989523 30.687743 35.257448 0.845448 0.514802 0.048365 -0.017183 -535409.000000 0 0 1
11.379077 11.676523 30.166933 34.290938 0.798299 0.495492 0.049747 -0.017187 262059.000000 0 0 1
11.857377 11.558323 28.811243 33.230708 0.772627 0.521633 0.059192 -0.011412 -191953.000000 0 0 1
12.516877 10.238423 28.489733 32.759158 0.685602 0.516258 0.054039 -0.010628 -169586.000000 0 0 1
11.572177 9.178023 28.426883 32.034966 0.670526 0.479186 0.059651 -0.020442 35275.900000 0 0 1
12.164977 7.942023 28.353983 31.859233 0.578383 0.473502 0.038196 -0.019142 -510254.000000 0 0 1
11.224477 6.713723 28.451883 31.314096 0.539045 0.430885 0.033552 -0.011688 -331059.000000 0 0 1
10.328277 6.690123 27.394193 30.031198 0.574791 0.422196 0.042428 -0.010797 -866850.000000 0 0 1
9.410277 5.643523 27.411493 29.526135 0.540213 0.380765 0.032193 -0.015443 -301787.000000 0 0 1
9.935677 4.181223 27.066753 29.134334 0.398333 0.379006 0.020919 -0.006974 104465.000000 0 0 1
10.647777 3.446223 28.075763 30.224164 0.313016 0.379317 0.019212 -0.006822 360875.000000 0 0 1
10.876077 2.161423 27.603103 29.747136 0.196176 0.381990 -0.001790 0.003946 -153659.000000 0 0 1
11.314277 1.128823 28.706103 30.876001 0.099441 0.377139 -0.011377 0.000713 352270.000000 0 0 1
10.251377 0.871923 29.602583 31.339494 0.084850 0.334491 -0.012270 -0.000535 -86078.200000 0 0 1
10.557777 -0.223577 30.465103 32.243436 -0.021173 0.333670 -0.006442 -0.006534 632437.000000 0 0 1
9.516077 -0.333377 31.637013 33.038878 -0.035019 0.292350 0.014378 -0.010857 289492.000000 0 0 1
9.819777 0.618923 32.602409 34.054782 0.062945 0.293103 0.008304 -0.011408 -521215.000000 0 0 1
8.729877 0.944423 33.413572 34.548075 0.107764 0.256981 0.020769 -0.019036 -567494.000000 0 0 1
9.000477 2.120023 -34.111844 35.342906 0.231329 2.876881 0.028407 -0.014765 -108120.000000 0 0 1
8.932677 3.452323 33.858123 35.186414 0.368799 0.275645 0.023395 -0.016270 17198.000000 0 0 1
9.857877 3.735523 32.840556 34.491071 0.362219 0.310612 0.013166 -0.010851 -510563.000000 0 0 1
9.768577 5.162423 32.203423 34.046089 0.486165 0.330509 0.019615 -0.014877 45012.700000 0 0 1
10.223077 6.199623 33.054740 35.150569 0.545137 0.347063 0.016106 -0.012421 43540.200000 0 0 1
10.444877 7.319323 32.250673 34.681030 0.611234 0.376594 0.019332 -0.013588 -178829.000000 0 0 1
10.470877 8.661923 33.042217 35.727528 0.691131 0.390184 0.047096 -0.025141 1001680.000000 0 0 1
9.188977 9.103223 33.554970 35.961674 0.780710 0.367924 0.066126 -0.030138 708270.000000 0 0 1
8.685277 8.471523 -33.802393 35.913821 0.772940 2.796986 0.063907 -0.022273 -1246810.000000 0 0 1
7.293977 8.956823 -33.496493 35.432214 0.887367 2.809519 0.079414 -0.029185 -870968.000000 0 0 1
6.754377 8.206423 -32.420253 34.118027 0.882152 2.824796 0.088254 -0.032025 -512234.000000 0 0 1
5.463377 8.586423 -32.051573 33.628537 1.004126 2.834136 0.088124 -0.028972 -257793.000000 0 0 1
4.964677 7.851523 -30.765443 32.137313 1.006950 2.848352 0.093503 -0.022072 -466903.000000 0 0 1
5.587077 8.182823 -29.555803 31.172416 0.971720 2.818127 0.097686 -0.023738 -53325.400000 0 0 1
5.035877 7.678923 -28.324843 29.776209 0.990351 2.828084 0.080075 -0.018270 310535.000000 0 0 1
3.578577 7.972223 -27.875213 29.212840 1.148874 2.837807 0.080523 -0.012860 247455.000000 0 0 1
2.606077 7.272623 -28.592863 29.618145 1.226710 2.877705 0.069095 -0.009159 235356.000000 0 0 1
1.257377 7.553623 -28.207413 29.228349 1.405849 2.876508 0.070637 -0.000270 1103670.000000 0 0 1
0.198077 6.887323 -29.154683 29.957803 1.542045 2.909519 0.062303 -0.001949 176884.000000 0 0 1
0.198277 7.471323 -30.421583 31.326230 1.544264 2.900685 0.056515 -0.005319 127776.000000 0 0 1
-0.425623 6.693423 -31.432033 32.139629 -1.507294 2.931366 0.065639 -0.002594 -469673.000000 0 0 1
-0.527023 7.354323 -32.808273 33.626576 -1.499257 2.920530 0.074213 -0.016873 -356735.000000 0 0 1
0.698577 7.777623 -33.325013 34.227707 1.481218 2.911419 0.056177 -0.014234 -4315.230000 0 0 1
1.648677 6.831223 -33.814953 34.537440 1.333981 2.936691 0.071130 -0.020752 117778.000000 0 0 1
1.458877 6.453223 33.178907 33.832119 1.348464 0.196824 0.084878 -0.029265 -464289.000000 0 0 1
0.373377 5.616823 32.880998 33.359379 1.504419 0.169556 0.082689 -0.026564 -444655.000000 0 0 1
0.193277 5.490323 31.476553 31.952377 1.535608 0.172793 0.092555 -0.025670 82635.500000 0 0 1
0.995577 4.416623 30.687943 31.020116 1.349086 0.146475 0.092906 -0.023787 102906.000000 0 0 1
0.734477 4.376523 29.341943 29.675630 1.404524 0.150104 0.084541 -0.025308 134874.000000 0 0 1
1.557777 3.384523 28.746973 28.987413 1.139439 0.128889 0.075352 -0.020678 248560.000000 0 0 1
1.496277 3.481123 27.184173 27.446973 1.164845 0.138493 0.072147 -0.012124 102259.000000 0 0 1
2.126877 4.700923 26.860533 27.351609 1.145917 0.189780 0.073965 -0.012002 35676.100000 0 0 1
2.096477 4.979823 25.474013 26.040722 1.172323 0.209006 0.054134 -0.004713 -260086.000000 0 0 1
2.513077 6.419823 25.048013 25.979466 1.197677 0.268588 0.045335 0.001046 659422.000000 0 0 1
3.914977 6.687323 25.200173 26.364675 1.041157 0.298322 0.041864 0.003526 323218.000000 0 0 1
4.574777 6.682523 23.961293 25.292850 0.970489 0.325927 0.038561 -0.005448 -728538.000000 0 0 1
6.075377 6.855723 24.239063 25.912224 0.845672 0.361324 0.039773 0.000442 -178838.000000 0 0 1
6.877677 5.917423 24.942273 26.541201 0.710490 0.348878 0.041406 -0.005842 232195.000000 0 0 1
6.847077 4.526923 24.644383 25.975394 0.584171 0.321512 0.037752 -0.006101 -1204580.000000 0 0 1
7.129677 4.101023 23.159723 24.576889 0.521988 0.341249 0.030989 -0.006480 -354958.000000 0 1 0
6.109277 4.416223 22.259123 23.500954 0.625912 0.326539 0.032573 -0.012997 -763012.000000 0 1 0
4.923877 3.696423 22.484623 23.312366 0.643958 0.267278 0.022511 -0.004411 -479967.000000 0 1 0
3.873977 3.945823 21.364923 22.068918 0.794586 0.253262 0.015678 -0.000672 70645.100000 0 1 0
3.299277 5.223123 21.414023 22.287365 1.007417 0.280871 0.007184 -0.007003 71266.100000 0 1 0
2.149977 5.323723 20.593423 21.378810 1.186977 0.271896 0.009271 -0.006997 99575.600000 0 1 0
1.570377 6.796123 20.552523 21.703907 1.343712 0.327186 0.010117 -0.008264 -116377.000000 0 1 0
2.337277 7.736623 19.840123 21.423088 1.277409 0.386831 0.005274 -0.009672 -308031.000000 0 1 0
1.814277 9.018023 20.053223 22.062368 1.372263 0.430078 0.009478 -0.011276 -379015.000000 0 1 0
2.702877 10.211623 19.784223 22.427623 1.312044 0.490417 0.007015 -0.010238 -896497.000000 0 1 0
2.768077 10.508723 18.388223 21.359360 1.313239 0.533765 -0.000232 -0.009558 -140822.000000 0 1 0
3.608377 11.577723 18.026823 21.726261 1.268672 0.592181 0.005690 -0.006741 -270477.000000 0 1 0
5.116977 11.299423 18.026423 21.881781 1.145572 0.602697 0.022909 -0.011310 -517882.000000 0 1 0
5.393477 10.193623 17.207423 20.714607 1.084138 0.590450 0.027202 -0.009501 -460743.000000 0 1 0
6.756377 9.884823 17.346623 21.077564 0.971223 0.604142 0.023613 -0.005449 -162532.000000 0 1 0
7.044877 8.399523 17.868223 20.963198 0.872885 0.550312 0.037505 -0.006279 -157075.000000 0 1 0
6.602477 8.322923 19.207723 21.949952 0.900161 0.505218 0.045839 -0.008159 -49317.100000 0 1 0
6.641077 6.985223 19.797023 22.018614 0.810649 0.453078 0.040027 -0.013825 592035.000000 0 1 0
8.051677 6.409223 20.170823 22.644420 0.672304 0.471774 0.057212 -0.017429 670545.000000 0 1 0
8.920977 6.215923 19.080123 21.960706 0.608559 0.517962 0.049997 -0.011250 846880.000000 0 1 0
10.177677 5.526323 19.259423 22.473334 0.497441 0.541396 0.052489 -0.015749 1066510.000000 0 1 0
10.040077 3.999723 19.246823 22.073539 0.379105 0.511644 0.031882 -0.007927 -495800.000000 0 1 0
9.537177 3.470923 20.411623 22.795601 0.349036 0.461424 0.044916 -0.015051 19591.800000 0 1 0
9.612377 2.044823 20.265223 22.522397 0.209604 0.451529 0.032135 -0.013996 -93592.300000 0 1 0
8.785677 1.241023 21.305023 23.078827 0.140327 0.394623 0.025788 -0.002719 -426147.000000 0 1 0
9.223477 1.335223 22.589723 24.436672 0.143765 0.391287 0.030470 0.000749 140139.000000 0 1 0
8.552377 0.424423 23.472113 24.985263 0.049586 0.349809 0.019904 -0.004147 47519.700000 0 1 0
9.231277 0.572423 24.896533 26.559019 0.061930 0.355697 0.011101 0.001923 -131435.000000 0 0 1
10.398777 -0.159277 25.194283 27.256409 -0.015316 0.391485 0.018005 0.003552 -100095.000000 0 0 1
10.306177 -1.578277 25.114313 27.192590 -0.151958 0.393502 0.027796 0.002574 30689.900000 0 0 1
11.678577 -2.246777 25.438633 28.081332 -0.190062 0.437317 0.036438 0.002524 552817.000000 0 0 1
11.691077 -3.637977 25.285003 28.093550 -0.301678 0.450961 0.043714 0.003022 -40789.700000 0 0 1
13.016377 -4.111477 25.444443 28.874729 -0.305952 0.492399 0.046259 -0.001345 26787.500000 0 0 1
13.087577 -5.660677 25.448813 29.171391 -0.408225 0.510727 0.047534 -0.007712 -205797.000000 0 0 1
12.885077 -6.338177 24.220913 28.157598 -0.457147 0.535152 0.047756 0.000828 230773.000000 0 0 1
12.798577 -7.743177 24.410953 28.629617 -0.544090 0.549766 0.062888 -0.006818 29504.500000 0 0 1
12.658577 -8.489577 23.085523 27.663222 -0.590761 0.583535 0.068589 -0.003679 34190.700000 0 0 1
12.142577 -9.767777 23.329223 28.055379 -0.677433 0.588918 0.061865 -0.001786 -362383.000000 0 0 1
12.245477 -10.603977 22.222323 27.499594 -0.713682 0.629883 0.066610 -0.006023 -22018.400000 0 0 1
11.498377 -11.905377 22.458223 27.898431 -0.802787 0.635122 0.068605 -0.009995 334506.000000 0 0 1
10.087877 -11.812077 22.278823 27.159462 -0.863967 0.608866 0.050513 -0.009297 -92844.600000 0 0 1
9.554077 -13.077877 22.558423 27.770375 -0.939858 0.622678 0.053321 -0.007787 -668406.000000 0 0 1
8.062477 -13.012677 22.875623 27.525033 -1.016099 0.589742 0.036294 -0.009573 -46419.600000 0 0 1
7.290177 -12.631577 21.724723 26.166143 -1.047356 0.591221 0.031864 -0.015317 74129.400000 0 0 1
5.902577 -12.475577 21.921023 25.903893 -1.128874 0.561900 0.018154 -0.018340 130029.000000 0 0 1
5.291477 -11.225477 21.227123 24.588652 -1.130305 0.529045 0.005574 -0.013003 175020.000000 0 1 0
5.487377 -10.055077 21.989423 24.794165 -1.071236 0.480251 0.010182 0.000777 -482210.000000 0 1 0
4.704077 -9.019177 21.530523 23.812546 -1.090047 0.441370 0.002710 0.012227 -408385.000000 0 1 0
5.093677 -7.668877 22.142423 23.980078 -0.984503 0.394035 -0.000213 0.009453 -30497.700000 0 1 0
4.587977 -6.590577 21.404623 22.861390 -0.962664 0.358916 -0.008010 0.012262 -501784.000000 0 1 0
5.382177 -5.495177 21.599223 22.927958 -0.795786 0.342114 0.009616 0.000604 -675932.000000 0 1 0
-8.177723 -15.024777 -20.752313 26.893820 1.072353 2.452210 0.038151 0.013330 31280.400000 0 0 1
-7.490323 -14.712377 -19.544713 25.584268 1.099882 2.440185 0.023288 0.008310 -4375.070000 0 0 1
-6.766823 -13.510277 -19.836813 24.936251 1.106457 2.490630 0.029255 -0.005688 330750.000000 0 1 0
-5.936523 -12.995877 -18.620013 23.469981 1.142302 2.487096 0.013176 -0.004627 171461.000000 0 1 0
-4.937323 -13.885977 -18.190613 23.411448 1.229175 2.460677 0.020945 0.004627 -215951.000000 0 1 0
-4.360423 -13.428577 -16.975413 22.079507 1.256825 2.447808 0.034388 -0.008160 -387277.000000 0 1 0
-3.381423 -14.455077 -16.474113 22.176106 1.341002 2.408154 0.042114 -0.001726 262907.000000 0 1 0
-2.157523 -14.506377 -17.249613 22.641533 1.423149 2.436972 0.041509 -0.005703 795601.000000 0 1 0
-1.307523 -15.425977 -16.561313 22.670410 1.486237 2.389888 0.043091 -0.001305 799084.000000 0 1 0
0.079877 -15.818377 -17.215113 23.379212 -1.565747 2.398445 0.040844 0.000675 874233.000000 0 1 0
0.198077 -16.762177 -18.243813 24.775926 -1.558980 2.398460 0.061798 -0.007891 -425008.000000 0 1 0
-0.256023 -18.021577 -17.772213 25.311941 1.556591 2.349177 0.046934 -0.002897 -337082.000000 0 0 1
-0.595523 -18.827477 -19.083813 26.814557 1.539176 2.362706 0.052079 -0.003016 256139.000000 0 0 1
-1.788123 -18.303377 -19.650013 26.913454 1.473412 2.389292 0.053961 -0.009440 -104910.000000 0 0 1
-1.797823 -18.401277 -21.100113 28.054481 1.473404 2.422057 0.046768 -0.009028 345481.000000 0 0 1
-2.928123 -17.487377 -21.661613 27.992994 1.404893 2.455651 0.046570 -0.006699 480270.000000 0 0 1
-2.562123 -16.095377 -21.757413 27.184750 1.412937 2.498681 0.046063 0.006842 -256885.000000 0 0 1
-2.917523 -15.272277 -20.633413 25.835869 1.382037 2.495819 0.042782 0.005821 -153008.000000 0 0 1
-2.223623 -13.922977 -20.535713 24.910024 1.412425 2.539930 0.054599 -0.009093 -98453.800000 0 1 0
-2.419123 -13.137977 -21.667113 25.454319 1.388704 2.589093 0.051818 -0.018591 -202645.000000 0 0 1
-1.507323 -12.101277 -21.585013 24.791646 1.446876 2.627332 0.040749 -0.007569 -162780.000000 0 1 0
-1.528323 -11.209977 -22.849413 25.496961 1.435296 2.681840 0.050985 0.000701 -636249.000000 0 0 1
-2.652823 -10.409977 -22.900813 25.295302 1.321273 2.702973 0.046939 -0.002918 -583224.000000 0 0 1
-2.793323 -9.739977 -24.144613 26.184578 1.291503 2.744251 0.058970 -0.006888 -201787.000000 0 0 1
-3.857923 -8.652477 -24.196213 25.984720 1.151378 2.768408 0.061401 -0.010965 375076.000000 0 0 1
-5.238523 -8.981577 -23.977013 26.134422 1.042783 2.732418 0.061106 -0.010323 1112310.000000 0 0 1
-5.968723 -7.763377 -24.058013 25.974674 0.915352 2.755030 0.066982 -0.018971 231084.000000 0 0 1
-7.484423 -7.898077 -23.652613 26.035405 0.812283 2.710426 0.031837 -0.019972 1629670.000000 0 0 1
-8.474023 -8.284977 -24.635313 27.337677 0.774118 2.693208 0.033114 -0.008772 637465.000000 0 0 1
-8.677223 -7.322777 -25.653933 28.054261 0.700947 2.724918 0.035688 -0.016123 -629871.000000 0 0 1
-9.798523 -7.614477 -26.661443 29.407888 0.660624 2.705973 0.034299 -0.026525 -109858.000000 0 0 1
-10.140123 -6.518877 -27.471303 29.999839 0.571353 2.728080 0.038205 -0.035198 327010.000000 0 0 1
-11.020823 -7.094477 -28.466623 31.339093 0.571958 2.710099 0.041837 -0.026733 333118.000000 0 0 1
-11.738723 -6.050777 -29.343553 32.178465 0.475935 2.718687 0.045001 -0.031540 -122085.000000 0 0 1
-10.838323 -5.329477 -30.122393 32.453523 0.457006 2.760262 0.035173 -0.024199 -14710.100000 0 0 1
-11.513223 -4.712277 -31.224453 33.611402 0.388491 2.762454 0.048020 -0.028254 233187.000000 0 0 1
-10.627223 -3.708877 -31.990333 33.912756 0.335782 2.803270 0.047978 -0.023597 1082650.000000 0 0 1
-9.476223 -4.205877 -32.747053 34.349057 0.417715 2.834979 0.037069 -0.018265 1122810.000000 0 0 1
-8.954423 -3.234377 -33.562183 34.886430 0.346621 2.865182 0.037492 -0.015083 -525979.000000 0 0 1
-7.862523 -3.668477 33.969150 35.059666 0.436554 0.250069 0.028285 -0.018998 -734728.000000 0 0 1
-6.606223 -3.959577 -34.010303 34.871495 0.539957 2.918889 0.021896 -0.022396 -1022220.000000 0 0 1
-5.818923 -4.545777 33.517484 34.321214 0.663176 0.216840 0.011089 -0.019484 -713876.000000 0 0 1
-4.327223 -4.379377 33.828747 34.384414 0.791388 0.180023 0.019174 -0.023969 -377093.000000 0 0 1
-4.037023 -3.004777 33.743471 34.116683 0.639846 0.148049 0.037306 -0.027734 394133.000000 0 0 1
-2.659523 -2.710377 33.997763 34.209167 0.794868 0.111231 0.038733 -0.032463 730199.000000 0 0 1
-2.546423 -1.271577 -33.978803 34.097804 0.463134 3.058022 0.048154 -0.030338 -37468.300000 0 0 1
-3.016223 -1.150777 -32.672723 32.831825 0.364483 3.043105 0.042985 -0.032312 34341.000000 0 0 1
-3.409223 0.173923 -32.400413 32.579745 -0.050971 3.036621 0.059411 -0.032104 -863025.000000 0 0 1
-3.972423 0.409623 -31.030083 31.286003 -0.102753 3.013599 0.075445 -0.030488 291584.000000 0 0 1
-5.115623 -0.356877 -30.660973 31.086850 0.069649 2.975876 0.068731 -0.034368 517422.000000 0 0 1
-6.342723 0.249123 -31.062573 31.704505 -0.039257 2.940019 0.076559 -0.033722 -15378.600000 0 0 1
-7.505123 -0.761177 -30.864273 31.772781 0.101075 2.901879 0.068581 -0.041609 35725.900000 0 0 1
-7.816423 -1.132777 -29.491533 30.530807 0.143921 2.879925 0.060727 -0.030316 790865.000000 0 0 1
-8.972123 -1.994577 -29.447783 30.848813 0.218751 2.839057 0.046567 -0.026891 529928.000000 0 0 1
-9.263123 -2.628177 -28.079253 29.684292 0.276459 2.811245 0.047284 -0.028095 -17554.200000 0 0 1
-9.999323 -1.817377 -27.177973 29.016057 0.179788 2.783745 0.052354 -0.027456 356068.000000 0 0 1
-10.273723 -2.476077 -25.923693 27.994967 0.236500 2.754506 0.046646 -0.023990 246472.000000 0 0 1
-11.265223 -1.726977 -24.996913 27.472411 0.152117 2.713819 0.055203 -0.023267 464224.000000 0 0 1
-10.658823 -0.512577 -24.525313 26.746294 0.048052 2.731192 0.058264 -0.021477 251241.000000 0 0 1
-11.514723 0.166323 -23.668813 26.321649 -0.014443 2.688767 0.059045 -0.022748 159903.000000 0 0 1
-10.722623 1.387723 -23.101613 25.506567 -0.128705 2.703854 0.051119 -0.016590 402886.000000 0 0 1
-10.476723 2.365423 -24.063013 26.351196 -0.222056 2.721781 0.037233 -0.013532 -385288.000000 0 0 1
-9.633823 3.308623 -23.515713 25.627062 -0.330817 2.732828 0.026824 -0.008903 -1074830.000000 0 0 1
-9.563623 4.603023 -24.377313 26.587668 -0.448580 2.730952 0.027053 -0.010985 -639160.000000 0 0 1
-10.716523 5.377523 -24.507613 27.283415 -0.465084 2.686591 0.032140 -0.008011 -273984.000000 0 0 1
-11.586823 4.877423 -25.511573 28.440887 -0.398432 2.683739 0.030758 -0.011002 805567.000000 0 0 1
-12.991923 5.543923 -25.773743 29.390661 -0.403327 2.640247 0.032438 0.001151 1029140.000000 0 0 1
-12.906523 6.896123 -26.302133 30.098788 -0.490720 2.633883 0.023991 0.007163 -38577.600000 0 0 1
-14.194423 7.280823 -26.726973 31.125924 -0.473942 2.603470 0.037609 0.002182 -63139.200000 0 0 1
-14.351623 8.792923 -26.977923 31.797687 -0.549689 2.583797 0.033682 0.006361 -140249.000000 0 0 1
-14.259423 9.492723 -25.724303 30.906030 -0.587344 2.554111 0.048008 0.007463 157017.000000 0 0 1
-14.491623 10.847423 -25.934283 31.626899 -0.642560 2.532220 0.035840 0.004686 -113650.000000 0 0 1
-14.199923 11.603123 -24.626913 30.704318 -0.685097 2.501544 0.029541 0.006350 -157327.000000 0 0 1
-15.026923 11.279523 -23.557713 30.133070 -0.643898 2.468327 0.048921 0.003083 -72508.900000 0 0 1
-14.649123 12.155623 -22.522513 29.489313 -0.692641 2.439902 0.038592 0.001063 91105.700000 0 0 1
-15.490123 12.036023 -21.215113 28.894477 -0.660566 2.395324 0.049904 -0.008763 -193552.000000 0 0 1
-16.811023 12.471823 -21.366813 29.911495 -0.638286 2.366469 0.047860 -0.008998 -356789.000000 0 0 1
-17.262523 13.046123 -20.156413 29.571557 -0.647170 2.320764 0.054804 -0.007431 -810857.000000 0 0 1
-18.699823 13.513123 -20.279413 30.717136 -0.625755 2.291880 0.050706 -0.011792 -795978.000000 0 0 1
-18.877323 14.582223 -21.135913 31.870384 -0.657729 2.295861 0.032892 -0.004752 668377.000000 0 0 1
-20.292723 14.755223 -21.241113 32.873943 -0.628696 2.273310 0.017345 -0.006492 604725.000000 0 0 1
-20.591523 16.182723 -21.734313 34.033391 -0.666079 2.263496 0.008990 -0.005842 -206891.000000 0 0 1
-20.320123 16.209923 -23.120813 34.788518 -0.673354 2.297769 0.016666 -0.008130 142473.000000 0 0 1
-20.839223 17.393423 -23.660613 36.008735 -0.695514 2.287735 0.001067 0.004971 23920.400000 0 0 1
-20.838223 17.354023 -25.240733 37.047109 -0.694422 2.320353 -0.001063 0.008325 635812.000000 0 0 1
-19.491523 17.427423 -25.709663 36.669078 -0.729547 2.347772 0.002835 0.000650 666717.000000 0 0 1
-19.460623 16.963123 -27.038243 37.383552 -0.716937 2.379316 0.000971 -0.005873 -190180.000000 0 0 1
-18.593023 17.753023 -28.055243 38.052161 -0.762291 2.399837 -0.014175 0.007522 -100323.000000 0 0 1
-19.088623 19.032323 -28.449393 39.191489 -0.783921 2.383149 -0.014255 -0.005104 335123.000000 0 0 1
-18.602123 20.033923 -27.596383 38.845301 -0.822440 2.360888 -0.018545 -0.016233 -1299410.000000 0 0 1
-19.247623 21.454823 -27.749033 40.009864 -0.839573 2.337208 0.020638 -0.010121 592967.000000 0 0 1
-20.331523 21.812723 -26.886783 40.150527 -0.820530 2.304533 0.023622 0.000612 754097.000000 0 0 1
-21.477723 20.969423 -27.012923 40.382017 -0.773424 2.303571 0.065949 -0.017791 -1003860.000000 0 0 1
-22.518823 21.259023 -25.944613 40.400079 -0.756629 2.268151 0.044968 -0.000978 -228127.000000 0 0 1
-22.115123 20.942023 -24.607513 39.155800 -0.758160 2.250357 -0.002757 0.009373 847401.000000 0 0 1
-23.182223 21.435723 -23.750013 39.509098 -0.746275 2.215708 0.007349 -0.006380 740419.000000 0 0 1
-23.096023 21.063023 -22.214313 38.347789 -0.739393 2.188648 0.008542 0.004122 -96073.000000 0 0 1
-22.008223 21.764823 -21.634113 37.763795 -0.779838 2.180811 0.011774 0.001313 476113.000000 0 0 1
-20.939423 20.917123 -21.183313 36.396679 -0.784865 2.191997 0.001756 0.003603 55749.300000 0 0 1
-21.087323 19.954323 -19.948513 35.224897 -0.757799 2.172829 0.009391 -0.004789 -1422260.000000 0 0 1
-21.991923 18.888923 -20.120513 35.288399 -0.709640 2.177513 0.025681 -0.006689 59682.300000 0 0 1
-22.379623 18.225723 -18.920213 34.510853 -0.683453 2.151054 0.011817 -0.005265 -817951.000000 0 0 1
-23.452223 19.078423 -18.258813 35.318228 -0.682920 2.114115 0.010668 -0.005895 -2182930.000000 0 0 1
-24.522323 19.140023 -19.135313 36.521843 -0.662746 2.122268 0.002923 -0.006112 -923225.000000 0 0 1
-25.369403 20.171423 -18.747113 37.442585 -0.671751 2.095192 0.012689 -0.011106 -575235.000000 0 0 1
-26.808593 20.181323 -19.402713 38.761472 -0.645286 2.095050 0.018745 -0.003188 912754.000000 0 0 1
-27.640593 19.111723 -18.993713 38.600796 -0.604956 2.085245 0.010367 -0.007129 260036.000000 0 0 1
-27.965753 19.078823 -17.602713 38.156786 -0.598694 2.050285 0.008596 -0.006905 -1528050.000000 0 0 1
-29.002883 18.043723 -17.220813 38.253099 -0.556537 2.037764 0.009186 -0.011103 -461974.000000 0 0 1
-28.453143 16.746423 -17.040413 37.153731 -0.531966 2.047267 0.011197 -0.022136 -191484.000000 0 0 1
-29.388683 15.899123 -16.444713 37.241179 -0.495903 2.028148 0.020222 -0.023220 -201943.000000 0 0 1
-28.805083 14.644723 -15.764413 35.954380 -0.470351 2.024676 0.039852 -0.014432 -438774.000000 0 0 1
-27.990823 14.924823 -14.673213 34.950532 -0.489857 2.004052 0.034989 -0.009224 54910.200000 0 0 1
-28.695763 15.050423 -13.414213 35.069975 -0.483041 1.963295 0.020817 -0.003085 46482.400000 0 0 1
-27.843063 15.737923 -12.372413 34.292783 -0.514466 1.939909 0.021884 -0.006894 -152181.000000 0 0 1
-27.733633 17.155123 -12.481613 34.917665 -0.553960 1.936341 0.028809 -0.000394 -201780.000000 0 0 1
-28.876583 17.820923 -12.025313 36.000701 -0.552928 1.911372 0.029137 0.000506 -190012.000000 0 0 1
-28.684673 19.340823 -12.157813 36.670019 -0.593239 1.908739 0.060234 -0.007538 131845.000000 0 0 1
-27.749483 19.915023 -11.257013 35.963347 -0.622488 1.889161 0.018707 -0.019991 17366.200000 0 0 1
-27.128243 21.040323 -11.803913 36.303845 -0.659677 1.901958 -0.006528 -0.013440 84913.700000 0 0 1
-26.030353 21.639923 -10.897213 35.561423 -0.693557 1.882240 0.019617 -0.008574 296609.000000 0 0 1
-26.612583 22.723623 -10.172413 36.442703 -0.706735 1.853689 0.040318 -0.017633 -96016.800000 0 0 1
-25.832213 23.836623 -10.062413 36.561455 -0.745242 1.849614 0.033874 -0.015324 -735579.000000 0 0 1
-26.585263 24.846423 -9.213613 37.536803 -0.751602 1.818786 0.066650 -0.006139 -193032.000000 0 0 1
-26.556683 24.448923 -7.843513 36.939517 -0.744098 1.784759 0.063386 -0.014664 85376.500000 0 0 1
-27.688923 24.898523 -7.141513 37.915882 -0.732386 1.760280 0.070307 -0.020255 -36782.100000 0 0 1
-27.739223 24.238523 -5.803413 37.291421 -0.718150 1.727055 0.068505 -0.019429 -146945.000000 0 0 1
-27.838613 22.798623 -5.899913 36.463332 -0.686194 1.733315 0.080032 -0.025583 189223.000000 0 0 1
-27.308273 22.248223 -4.711713 35.537662 -0.683644 1.703772 0.074089 -0.018239 1604.900000 0 0 1
-27.297393 20.702423 -4.872513 34.604615 -0.648857 1.712071 0.079095 -0.014131 365901.000000 0 0 1
-26.223573 20.193123 -5.670813 33.579698 -0.656202 1.740486 0.073739 -0.024156 325719.000000 0 0 1
-26.426803 20.249023 -7.096313 34.040513 -0.653808 1.780803 0.059094 -0.014702 -189826.000000 0 0 1
-27.553293 19.389623 -7.789813 34.580668 -0.613214 1.798011 0.058330 -0.015172 292207.000000 0 0 1
-27.388323 17.999423 -7.638213 33.651772 -0.581415 1.799770 0.046089 -0.010738 284649.000000 0 0 1
-26.654403 17.416923 -8.697113 33.006760 -0.578786 1.837440 0.021148 -0.006230 -99851.000000 0 0 1
-26.164863 15.973123 -8.474813 31.805081 -0.548090 1.840516 0.045093 0.004721 431876.000000 0 0 1
-27.244273 15.073623 -8.235913 32.207061 -0.505355 1.829386 0.056210 -0.004527 401353.000000 0 0 1
-26.784063 13.752423 -8.424913 31.264906 -0.474354 1.843638 0.067557 -0.014898 -319594.000000 0 0 1
-27.569243 12.786623 -7.613613 31.329347 -0.434271 1.816273 0.096312 -0.020174 -1196020.000000 0 0 1
-28.938073 12.946323 -7.806613 32.649082 -0.420673 1.812242 0.088254 -0.012859 -882886.000000 0 0 1
-29.749773 12.211523 -6.930113 32.896759 -0.389503 1.783049 0.103266 -0.022306 -43784.100000 0 0 1
-30.474873 11.138923 -7.737713 33.356644 -0.350426 1.804898 0.081074 -0.018100 -234569.000000 0 0 1
-29.629153 10.063623 -8.079813 32.317899 -0.327427 1.823487 0.085358 -0.015585 571182.000000 0 0 1
-30.447413 9.038223 -8.623813 32.910554 -0.288562 1.835930 0.077555 -0.014562 319468.000000 0 0 1
-29.575943 7.831023 -9.022413 31.897731 -0.258837 1.857565 0.099679 -0.020637 263178.000000 0 0 1
-28.862363 7.923723 -10.274613 31.644732 -0.267934 1.901476 0.096289 -0.030319 636254.000000 0 0 1
-27.979073 6.807723 -10.380013 30.609121 -0.238677 1.916772 0.103754 -0.035171 -75486.400000 0 0 1
-27.229423 6.705523 -11.726213 30.395881 -0.241456 1.966853 0.087410 -0.028078 -287049.000000 0 0 1
-26.254163 7.712123 -11.842713 29.816233 -0.285712 1.979249 0.093526 -0.026766 -6851.500000 0 0 1
-25.581383 7.612123 -13.049513 29.709281 -0.289221 2.025549 0.088800 -0.009733 -297133.000000 0 0 1
-31.652293 25.857323 -33.858763 53.074331 -0.684972 2.262629 0.027072 -0.014067 -134660.000000 0 0 1
-31.711433 27.257923 -34.014033 53.903282 -0.710019 2.253663 0.026437 -0.023050 203529.000000 0 0 1
-31.337653 27.665123 33.189462 53.375537 -0.723235 0.899744 0.043976 -0.026259 -109707.000000 0 0 1
-31.854223 29.080223 32.968492 54.288787 -0.739905 0.918164 0.049336 -0.026640 -28426.500000 0 0 1
-31.753543 29.450023 31.625213 53.625978 -0.747779 0.940063 0.058802 -0.018806 198758.000000 0 0 1
-32.331693 30.741523 31.371183 54.539259 -0.760192 0.957943 0.077693 -0.028934 148197.000000 0 0 1
-32.139133 31.332523 29.910653 53.937909 -0.772691 0.982988 0.090924 -0.034628 749756.000000 0 0 1
-30.746953 31.562523 29.673013 53.123024 -0.798486 0.978134 0.078405 -0.026397 580241.000000 0 0 1
-30.567603 32.318923 28.473483 52.816952 -0.813240 1.001431 0.074946 -0.018269 523975.000000 0 0 1
-29.106293 32.229823 27.908133 51.621717 -0.836279 0.999613 0.080296 -0.016414 375622.000000 0 0 1
-28.858823 30.915723 27.440433 50.414194 -0.819796 0.995242 0.105282 -0.021686 -10335.100000 0 0 1
-27.826333 30.808023 26.485333 49.243395 -0.836207 1.002917 0.065255 -0.010131 -258935.000000 0 0 1
-28.052853 31.399223 25.116053 49.027440 -0.841626 1.032952 0.071814 -0.018511 -366395.000000 0 0 1
-28.112893 32.840823 25.172223 50.024946 -0.862809 1.043506 0.061960 -0.023044 302525.000000 0 0 1
-29.108813 33.386523 24.311393 50.527485 -0.853740 1.068828 0.073253 -0.018684 130006.000000 0 0 1
-29.268423 -33.795682 24.669553 51.062467 0.857063 1.066576 0.074738 -0.017192 -265329.000000 0 0 1
-29.878133 -33.678182 25.889873 51.934654 0.845117 1.048919 0.077306 -0.026650 -72856.000000 0 0 1
-29.650423 -32.387282 26.439963 51.255783 0.829486 1.028804 0.068191 -0.028882 -195934.000000 0 0 1
-30.055753 -32.375082 27.918553 52.258395 0.822531 1.007187 0.077689 -0.026700 -1094650.000000 0 0 1
-31.389373 -32.674482 28.049893 53.288939 0.805455 1.016466 0.083693 -0.037997 -1211510.000000 0 0 1
-31.651193 -32.963682 29.417783 54.348950 0.805708 0.998842 0.065879 -0.032129 -601770.000000 0 0 1
-33.106033 -33.239982 29.741533 55.546959 0.787417 1.005779 0.073964 -0.038863 -571769.000000 0 0 1
-33.386873 -33.386482 31.133183 56.556305 0.785392 0.987856 0.062179 -0.033482 -21514.500000 0 0 1
-34.765640 -33.558782 31.399873 57.626328 0.767736 0.994541 0.044661 -0.037051 -48580.400000 0 0 1
-35.120252 -34.088582 32.805965 58.921090 0.770493 0.980294 0.042198 -0.020683 -373238.000000 0 0 1
-34.824272 33.150323 33.079213 58.360159 -0.760777 0.968166 0.036613 -0.006236 -136043.000000 0 0 1
-35.553553 32.675623 34.178211 59.159966 -0.743243 0.954857 0.036158 -0.004191 101901.000000 0 0 1
-35.152048 31.197423 -33.808453 57.896089 -0.725866 2.194383 0.029171 -0.003324 371126.000000 0 0 1
-34.046417 31.141823 -32.933613 56.688575 -0.740871 2.190700 0.028966 -0.005563 -391145.000000 0 0 1
-33.782893 29.819223 -32.579933 55.605053 -0.723159 2.196807 0.022314 -0.007857 394773.000000 0 0 1
-33.025573 29.729423 -31.195623 54.292669 -0.732922 2.182890 0.017037 -0.004821 516083.000000 0 0 1
-33.869763 29.997323 -30.082173 54.331734 -0.724840 2.157568 0.016622 -0.010700 -122465.000000 0 0 1
-34.023149 31.362923 -29.743903 55.008248 -0.744736 2.142086 0.011751 0.001803 27337.600000 0 0 1
-34.943722 31.585823 -28.546743 55.078530 -0.734969 2.115648 0.008472 0.002473 93737.900000 0 0 1
-34.378091 31.169523 -27.339203 53.859301 -0.736487 2.103198 -0.000988 -0.012761 66531.700000 0 0 1
-35.410547 31.099223 -26.363423 54.000913 -0.720666 2.080826 0.028487 -0.015634 299019.000000 0 0 1
-34.959118 30.560223 -24.953813 52.713944 -0.718360 2.063922 0.037648 -0.022473 85765.900000 0 0 1
-34.427705 31.623223 -24.123613 52.604599 -0.742964 2.047197 0.037110 -0.022884 25054.400000 0 0 1
-34.257881 31.343623 -22.731913 51.698791 -0.741004 2.026060 0.031930 -0.022699 -1055220.000000 0 0 1
-35.498640 30.982223 -21.896213 51.956672 -0.717567 2.005820 0.029711 -0.018684 -225988.000000 0 0 1
35.898263 32.115723 -21.859813 52.895712 0.729841 1.996830 0.031892 -0.025503 58246.000000 0 0 1
-36.064603 33.336523 -21.264613 53.517877 -0.746110 1.979409 0.035170 -0.034322 -767136.000000 0 0 1
-35.832799 33.259423 -19.712713 52.714038 -0.748170 1.954067 0.028036 -0.026856 1205150.000000 0 0 1
-34.595770 32.536123 -19.456613 51.322767 -0.754727 1.959623 0.027574 -0.026160 1045000.000000 0 0 1
-34.553196 32.288023 -18.094113 50.634343 -0.751522 1.936224 0.038778 -0.016981 -486864.000000 0 0 1
-33.311393 31.456923 -17.824813 49.162088 -0.756774 1.941823 0.027278 -0.014423 -430901.000000 0 0 1
-33.186233 31.038223 -16.481413 48.335642 -0.751965 1.918754 0.028197 -0.006682 -134240.000000 0 0 1
-31.947853 30.412823 -16.220913 46.997055 -0.760788 1.923192 0.022880 -0.007751 -433728.000000 0 0 1
-31.594083 30.437523 -14.718013 46.273630 -0.766756 1.894484 0.028510 -0.002833 -127717.000000 0 0 1
-32.563923 29.898523 -13.793513 46.309737 -0.742752 1.873240 0.038641 -0.002505 431896.000000 0 0 1
-31.973943 29.329423 -12.631313 45.189580 -0.742287 1.854089 0.059914 -0.003293 -303039.000000 0 0 1
-32.974863 28.400623 -11.951713 45.130704 -0.711007 1.838818 0.043855 -0.008760 83136.900000 0 0 1
-32.392003 27.818223 -10.781113 44.037800 -0.709580 1.818125 0.065948 -0.002828 227741.000000 0 0 1
-33.216873 26.789823 -10.307413 43.901003 -0.678699 1.807796 0.048129 -0.006105 -87513.300000 0 0 1
-32.827303 26.159823 -8.919013 42.912900 -0.672843 1.780162 0.057566 -0.004422 142655.000000 0 0 1
-32.995643 27.085823 -7.853213 43.405382 -0.687350 1.752725 0.062800 -0.012567 280877.000000 0 0 1
-31.713333 27.322823 -7.301313 42.492132 -0.711165 1.743481 0.067490 -0.020173 -174919.000000 0 0 1
-31.548623 27.763323 -5.825613 42.427061 -0.721664 1.708540 0.064525 -0.026416 356905.000000 0 0 1
-30.303843 27.361823 -5.213113 41.160282 -0.734424 1.697791 0.069209 -0.021630 927565.000000 0 0 1
-30.331243 27.710923 -3.817613 41.260801 -0.740284 1.663453 0.057684 -0.015681 -2645.300000 0 0 1
-29.607553 26.725623 -2.850813 39.987414 -0.734284 1.642150 0.060269 -0.010780 -358477.000000 0 0 1
-30.289873 25.526023 -2.912713 39.718235 -0.700255 1.644197 0.051539 -0.012453 128293.000000 0 0 1
-29.613493 24.527323 -2.170813 38.513127 -0.691730 1.627192 0.044105 -0.017892 144411.000000 0 0 1
-30.505933 23.313123 -1.929613 38.442646 -0.652537 1.621012 0.042904 -0.020257 -65317.500000 0 0 1
-30.931803 22.484623 -3.021513 38.359670 -0.628559 1.649646 0.051741 -0.012983 449608.000000 0 0 1
-31.921963 21.560723 -2.564613 38.606395 -0.594038 1.637275 0.073578 -0.008991 338277.000000 0 0 1
-32.261573 20.485023 -3.615613 38.386429 -0.565734 1.665126 0.055945 0.001875 187001.000000 0 0 1
-31.191573 19.580423 -3.842313 37.027970 -0.560572 1.674751 0.061524 -0.003219 360764.000000 0 0 1
-31.457693 18.913123 -5.045113 37.050585 -0.541319 1.707389 0.069411 -0.004495 135461.000000 0 0 1
-30.252873 18.013023 -5.405513 35.621972 -0.537042 1.723131 0.067334 -0.006832 26886.400000 0 0 1
-30.254763 16.766923 -4.761613 34.916377 -0.506055 1.707595 0.068935 -0.008374 795287.000000 0 0 1
-29.146113 15.988623 -5.256113 33.656481 -0.501743 1.727608 0.076033 -0.012446 533598.000000 0 0 1
-28.809453 14.752123 -4.331913 32.655401 -0.473248 1.703844 0.083721 -0.019056 187434.000000 0 0 1
-29.968963 13.940623 -4.127313 33.309375 -0.435396 1.695024 0.098696 -0.016364 727935.000000 0 0 1
-29.792553 12.854823 -3.209513 32.605884 -0.407345 1.669390 0.091213 -0.028746 -154007.000000 0 0 1
-31.174293 12.252223 -2.919013 33.622525 -0.374478 1.657723 0.094248 -0.037787 -71210.300000 0 0 1
-31.838343 11.452823 -3.910813 34.060853 -0.345306 1.685869 0.097231 -0.019467 144325.000000 0 0 1
-32.721193 10.581823 -3.278713 34.545643 -0.312778 1.665849 0.074330 -0.014577 -183132.000000 0 0 1
-33.814793 10.048723 -4.266113 35.533319 -0.288858 1.691146 0.057847 -0.000568 -16053.700000 0 0 1
-33.323963 9.111823 -5.174213 34.932568 -0.266907 1.719463 0.061182 -0.008001 -839220.000000 0 0 1
-34.227144 8.678623 -6.088113 35.831285 -0.248326 1.741535 0.059534 -0.006953 -847457.000000 0 0 1
-33.666573 7.715523 -7.218413 35.285591 -0.225284 1.776822 0.065558 -0.011758 -167136.000000 0 0 1
-33.149453 6.474723 -6.714413 34.436777 -0.192891 1.767031 0.069419 -0.009812 386763.000000 0 0 1
-32.623913 5.698223 -7.778013 34.018920 -0.172920 1.801475 0.078682 -0.014239 -278749.000000 0 0 1
-31.562983 4.681823 -7.259813 32.723787 -0.147259 1.794509 0.100863 -0.020877 -740740.000000 0 0 1
-30.305363 5.243923 -7.298613 31.609864 -0.171340 1.803795 0.102571 -0.023357 -734091.000000 0 0 1
-29.323263 4.414523 -6.690913 30.399179 -0.149425 1.792715 0.099238 -0.028099 662350.000000 0 0 1
-27.911753 5.067523 -6.545913 29.113480 -0.179599 1.797576 0.110893 -0.032638 144559.000000 0 0 1
-27.140913 5.063323 -7.686613 28.659212 -0.184437 1.842328 0.108642 -0.032530 -368805.000000 0 0 1
-25.774953 5.046323 -7.340213 27.270723 -0.193338 1.843318 0.119025 -0.036422 -414313.000000 0 0 1
-24.876723 5.173223 -8.553813 26.810097 -0.205032 1.895525 0.112537 -0.028640 -569640.000000 0 0 1
-25.026773 4.212923 -9.555213 27.118079 -0.166773 1.930884 0.105921 -0.036948 249468.000000 0 0 1
-24.082623 4.311323 -10.595713 26.661384 -0.177146 1.979498 0.090877 -0.030543 -410801.000000 0 0 1
-24.470123 3.573923 -11.867313 27.429783 -0.145027 2.018219 0.089138 -0.035667 -1016520.000000 0 0 1
-25.582713 4.140823 -12.415213 28.736025 -0.160468 2.017554 0.094395 -0.020926 -779865.000000 0 0 1
-26.058123 3.406023 -13.507913 29.548105 -0.129972 2.045584 0.094954 -0.023002 800637.000000 0 0 1
-27.051823 4.140723 -14.537813 30.988623 -0.151887 2.059106 0.087383 -0.012992 500047.000000 0 0 1
-26.312323 5.080823 -15.335413 30.876010 -0.190749 2.090563 0.077361 -0.010746 343001.000000 0 0 1
-26.926163 5.965823 -16.278013 32.024725 -0.218040 2.104000 0.102084 -0.014462 -635402.000000 0 0 1
-27.702023 5.429623 -17.457713 33.191183 -0.193547 2.124657 0.055441 -0.005958 627413.000000 0 0 1
-29.034603 5.011823 -17.131613 34.082528 -0.170931 2.097459 0.063987 -0.012900 615207.000000 0 0 1
-29.795313 4.572423 -18.236013 35.230951 -0.152273 2.114856 0.071735 -0.006183 894650.000000 0 0 1
-31.178383 3.930923 -17.844613 36.138261 -0.125417 2.087236 0.072164 -0.013446 488363.000000 0 0 1
-31.087123 2.753523 -17.029413 35.552665 -0.088344 2.070301 0.078033 -0.023854 206932.000000 0 0 1
-30.906423 1.518123 -17.687613 35.642157 -0.049081 2.090077 0.093866 -0.026261 -12367.300000 0 0 1
-31.073983 0.362123 -16.691813 35.275206 -0.011653 2.063703 0.100764 -0.021415 -130294.000000 0 0 1
-30.528753 -0.878777 -17.150113 35.027181 0.028777 2.082454 0.099199 -0.013559 365785.000000 0 0 1
-30.653973 -1.962977 -16.223113 34.737714 0.063949 2.056711 0.105143 -0.020129 12949.900000 0 0 1
-30.326793 -3.335477 -16.911613 34.883269 0.109544 2.076938 0.096656 -0.012939 323495.000000 0 0 1
-31.343193 -3.712577 -17.830813 36.250750 0.117900 2.085038 0.095648 -0.013504 482797.000000 0 0 1
-30.886933 -4.794277 -18.645413 36.395593 0.153991 2.108656 0.093174 -0.013602 -150380.000000 0 0 1
-32.015773 -5.240777 -19.560013 37.882312 0.162255 2.113364 0.093755 -0.018769 -478584.000000 0 0 1
-31.799223 -6.382077 -20.299113 38.261933 0.198068 2.130022 0.086224 -0.017578 -213492.000000 0 0 1
-32.769943 -6.575777 -21.305213 39.636121 0.198035 2.138290 0.081469 -0.016443 -228692.000000 0 0 1
-32.412003 -7.770077 -22.265613 40.083283 0.235288 2.159741 0.085215 -0.021454 148172.000000 0 0 1
-31.312043 -7.396477 -23.082613 39.597461 0.231966 2.193128 0.087181 -0.022142 -24840.100000 0 0 1
-31.065993 -8.384477 -24.074013 40.186484 0.263612 2.213120 0.081215 -0.018050 626361.000000 0 0 1
-29.590243 -8.449477 -24.612613 39.405036 0.278147 2.245423 0.070160 -0.010892 420483.000000 0 0 1
-29.147593 -7.311277 -25.398933 39.346445 0.245766 2.272501 0.059150 -0.005152 -13873.700000 0 0 1
-29.526783 -7.215177 -26.755623 40.493864 0.239664 2.292591 0.046353 0.001438 84751.700000 0 0 1
-31.001923 -7.022077 -27.222613 41.850919 0.222746 2.278995 0.063339 -0.002717 624645.000000 0 0 1
-31.760783 -8.264277 -27.123493 42.576161 0.254559 2.261472 0.076098 -0.017221 45623.600000 0 0 1
-32.845333 -8.372377 -28.007823 43.969885 0.249588 2.261367 0.068755 -0.015065 621931.000000 0 0 1
-33.970123 -9.402577 -27.639653 44.792054 0.270029 2.235805 0.070575 -0.020831 -19488.200000 0 0 1
-33.598753 -10.789677 -27.904183 44.988185 0.310731 2.239865 0.073189 -0.019161 866108.000000 0 0 1
-34.656011 -11.778177 -27.716253 45.912474 0.327613 2.218900 0.049118 -0.016296 1134810.000000 0 0 1
-35.991326 -11.613977 -28.495683 47.352550 0.312140 2.216521 0.045118 -0.017747 -211322.000000 0 0 1
35.434653 -10.667977 -27.973713 46.389104 -0.292430 2.218082 0.029410 -0.013110 -17533.900000 0 0 1
34.428903 -10.285277 -28.906813 46.116593 -0.290300 2.248262 0.015267 -0.008662 418805.000000 0 0 1
33.388373 -9.255277 -28.348683 44.767080 -0.270411 2.256540 0.017471 -0.007150 -13442.300000 0 0 1
32.607133 -9.876377 -27.372583 43.703847 -0.294106 2.247620 0.001214 0.000344 -493872.000000 0 0 1
31.582343 -9.018177 -26.946093 42.483689 -0.278143 2.257859 0.002450 -0.005957 78400.800000 0 0 1
30.485223 -9.688777 -26.098573 41.283855 -0.307723 2.255152 -0.004323 0.000981 -363606.000000 0 0 1
30.926363 -9.871877 -24.794613 40.849317 -0.308982 2.223048 -0.004554 0.001588 -546048.000000 0 0 1
29.976493 -10.296977 -23.877713 39.683284 -0.330874 2.216433 -0.018231 0.006354 -613848.000000 0 0 1
30.445893 -10.610577 -22.444813 39.284938 -0.335343 2.178926 -0.023084 0.000789 -5552.950000 0 0 1
31.299953 -11.726877 -22.302013 40.181917 -0.358474 2.159191 -0.014047 -0.004748 158098.000000 0 0 1
31.707033 -11.794577 -20.918013 39.774505 -0.356126 2.124587 0.010621 -0.011569 -300523.000000 0 0 1
32.750783 -12.884277 -20.576413 40.767722 -0.374807 2.099858 0.038462 -0.016757 5910.940000 0 0 1
33.984393 -12.451377 -21.128213 41.909153 -0.351197 2.099186 0.038217 -0.016012 468007.000000 0 0 1
35.086003 -13.271377 -20.674413 42.832095 -0.361619 2.074514 0.036149 -0.011319 87197.400000 0 0 1
-35.929650 -12.892477 -21.370213 43.747477 0.344516 2.081155 0.035816 -0.022587 -925197.000000 0 0 1
-35.446453 -11.510477 -21.372913 42.962117 0.313986 2.091491 0.054511 -0.015930 680977.000000 0 0 1
-36.034453 -10.606877 -22.357113 43.713020 0.286269 2.107670 0.077117 -0.030578 -314299.000000 0 0 1
-35.667361 -10.926877 -23.859613 44.281355 0.297277 2.139830 0.064637 -0.028272 175378.000000 0 0 1
36.006103 -12.029977 -24.501313 45.182675 -0.322449 2.143936 0.059339 -0.018438 1272410.000000 0 0 1
34.576533 -11.866277 -24.689013 44.112272 -0.330594 2.164803 0.074629 -0.015533 783721.000000 0 0 1
34.059323 -12.952877 -25.608253 44.537592 -0.363412 2.183377 0.026014 -0.025664 -691978.000000 0 0 1
34.136123 -14.291877 -25.181403 44.761989 -0.396500 2.168278 0.030103 -0.027119 448069.000000 0 0 1
33.438363 -14.609677 -23.950113 43.648307 -0.411918 2.151613 0.025615 -0.029422 -25720.800000 0 0 1
-29.374923 7.992323 -20.331013 36.607560 -0.265649 2.159613 0.033415 -0.009882 328262.000000 0 0 1
-28.165043 7.247323 -20.471013 35.564810 -0.251853 2.184131 0.038003 -0.006490 56414.100000 0 0 1
-27.283213 8.018423 -21.248613 35.498907 -0.285847 2.212512 0.045501 -0.015052 202698.000000 0 0 1
-25.873733 7.360023 -21.409513 34.380041 -0.277139 2.243024 0.053779 -0.016839 364965.000000 0 0 1
-25.175243 7.262623 -20.184313 33.074840 -0.280857 2.227187 0.065464 -0.006635 -805053.000000 0 0 1
-24.040823 6.505623 -20.310213 32.137036 -0.264278 2.254912 0.077419 -0.011615 -468164.000000 0 0 1
-22.726323 7.116223 -19.771113 30.951951 -0.303456 2.263692 0.067646 -0.012369 224112.000000 0 0 1
-22.182923 8.185623 -20.479313 31.280805 -0.353505 2.284572 0.065458 -0.015768 105913.000000 0 0 1
-20.915923 8.528423 -19.925113 30.120092 -0.387168 2.293643 0.059196 -0.009006 431037.000000 0 0 1
-20.176523 9.701423 -20.652613 30.458827 -0.448192 2.315903 0.054839 -0.005148 28061.400000 0 0 1
-19.612523 9.259323 -21.876713 30.805465 -0.441090 2.360517 0.065334 -0.011886 -331817.000000 0 0 1
-18.866423 10.213523 -22.534013 31.113337 -0.496185 2.380751 0.064837 -0.008115 -531213.000000 0 0 1
-17.948823 9.443923 -23.498113 31.040445 -0.484355 2.429530 0.064011 -0.001737 -498338.000000 0 0 1
-18.596223 8.791223 -24.554113 32.031384 -0.441605 2.444270 0.063601 -0.007589 -258338.000000 0 0 1
-17.738723 7.950723 -25.301553 31.906816 -0.421367 2.486486 0.051638 -0.002403 -277563.000000 0 0 1
-18.466023 7.005623 -26.280013 32.874182 -0.362604 2.497112 0.034000 0.002052 200284.000000 0 0 1
-19.182923 5.889123 -25.704233 32.609414 -0.297865 2.478749 0.046222 -0.001347 572843.000000 0 0 1
-19.814823 5.017423 -26.623493 33.565043 -0.248003 2.486828 0.035294 -0.001648 -524232.000000 0 0 1
-20.210423 3.661223 -25.966353 33.107661 -0.179212 2.472364 0.039959 0.003437 380624.000000 0 0 1
-19.207423 2.649923 -25.718163 32.208246 -0.137098 2.495589 0.038919 0.004697 520623.000000 0 0 1
-18.157023 3.106323 -24.885013 30.961114 -0.169441 2.504369 0.041781 0.001182 -401899.000000 0 0 1
-17.226223 2.020423 -24.307913 29.861338 -0.116754 2.521847 0.040901 -0.002770 -46436.900000 0 0 1
-17.740923 1.179323 -23.273113 29.287693 -0.066377 2.489207 0.038538 -0.000443 -285955.000000 0 0 1
-18.920323 0.440923 -23.475213 30.153916 -0.023300 2.463089 0.030791 0.000534 -104229.000000 0 0 1
-19.353223 -0.381777 -22.189213 29.445784 0.019724 2.424260 0.037659 -0.003144 130758.000000 0 0 1
-18.635723 -1.600177 -22.046913 28.912231 0.085656 2.438036 0.037638 -0.009115 94895.800000 0 0 1
-19.027123 -2.249777 -20.852313 28.318048 0.117694 2.398473 0.040966 -0.007579 -252898.000000 0 0 1
-18.624423 -3.718977 -20.647213 28.053651 0.197091 2.397925 0.032335 -0.022670 -197257.000000 0 0 1
-19.082523 -4.631577 -21.621013 29.207232 0.238109 2.404257 0.033455 -0.031097 265184.000000 0 0 1
-18.960923 -5.957377 -21.187513 29.050261 0.304426 2.388153 0.041788 -0.026415 -403805.000000 0 0 1
-18.899723 -7.021377 -22.345513 30.096864 0.355705 2.407521 0.021712 -0.032006 -534618.000000 0 0 1
-17.643923 -6.996877 -22.972613 29.799417 0.377537 2.451062 0.028525 -0.026648 -213429.000000 0 0 1
-17.626123 -7.797477 -24.162713 30.908212 0.416501 2.468275 0.043210 -0.032086 328619.000000 0 0 1
-16.221323 -7.940477 -24.820313 30.695772 0.455219 2.512549 0.038352 -0.038044 -711300.000000 0 0 1
-16.312823 -8.388177 -26.108303 31.907886 0.474949 2.529139 0.039509 -0.054844 -419254.000000 0 0 1
-15.090923 -8.614677 -26.759783 31.906655 0.518711 2.565669 0.056446 -0.052560 332366.000000 0 0 1
-14.004123 -9.587277 -26.140933 31.166965 0.600318 2.565759 0.050609 -0.051189 -333339.000000 0 0 1
-13.303523 -9.022877 -25.066513 29.777947 0.595967 2.571371 0.043875 -0.041121 -58974.400000 0 0 1
-12.585123 -10.022477 -24.377213 29.207600 0.672527 2.558237 0.023250 -0.030628 -306035.000000 0 0 1
-11.817723 -9.570377 -23.184113 27.726410 0.680708 2.561067 0.038903 -0.016835 69595.400000 0 0 1
-12.688723 -9.137977 -22.125713 27.093422 0.624132 2.526370 0.039688 -0.015315 755845.000000 0 0 1
-11.922823 -8.824577 -20.963913 25.680976 0.637162 2.525808 0.037965 -0.014682 -401171.000000 0 0 1
-12.786423 -8.630977 -19.729413 25.044682 0.593757 2.477974 0.029114 -0.012568 324809.000000 0 0 1
-13.581923 -7.418377 -19.698713 25.050753 0.499917 2.475678 0.019785 0.001680 2150940.000000 0 0 1
-14.975923 -7.513977 -20.154513 26.209588 0.465036 2.448032 0.020062 -0.013130 1539630.000000 0 0 1
-15.608923 -6.119077 -19.912213 26.030325 0.373612 2.441779 0.026146 -0.008800 -776302.000000 0 0 1
-15.800723 -5.835477 -18.554713 25.059789 0.353779 2.404488 0.026111 -0.004428 348668.000000 0 0 1
-15.336923 -4.559277 -18.136713 24.185710 0.288955 2.418698 0.017960 -0.005531 -439230.000000 0 1 0
-15.109123 -4.403077 -16.617113 22.886702 0.283565 2.383371 0.032331 0.005672 611821.000000 0 1 0
-16.269123 -4.129077 -15.793113 23.046823 0.248550 2.325760 0.048939 -0.008829 716807.000000 0 1 0
-16.516123 -2.726377 -15.777713 23.003297 0.163598 2.326621 0.008360 -0.010924 367964.000000 0 1 0
-17.802623 -2.333777 -14.977313 23.381613 0.130348 2.266023 0.011650 -0.012672 188272.000000 0 1 0
-17.763223 -2.804977 -13.666013 22.586720 0.156616 2.220620 0.044245 -0.012988 130424.000000 0 1 0
-18.716823 -2.159277 -12.886913 22.826618 0.114858 2.170692 0.036213 -0.016232 -397897.000000 0 1 0
-18.102723 -1.006477 -12.051313 21.770524 0.055541 2.157430 0.029927 -0.016276 -150239.000000 0 1 0
-17.690523 0.012623 -12.878813 21.881924 -0.000714 2.200072 0.041080 -0.019360 202475.000000 0 1 0
-16.874923 0.914023 -12.213613 20.851158 -0.054112 2.196604 0.049940 -0.016691 -699135.000000 0 1 0
-16.381523 2.096423 -13.096013 21.077354 -0.127283 2.241237 0.059590 -0.021436 4495.720000 0 1 0
-15.660223 1.661623 -14.232813 21.226788 -0.105709 2.305695 0.060023 -0.019470 177572.000000 0 1 0
-14.262223 1.582123 -14.039513 20.075409 -0.110479 2.345268 0.043602 -0.015520 -324966.000000 0 1 0
-13.534723 0.749723 -15.139813 20.321534 -0.055336 2.411351 0.034375 -0.018209 -86899.600000 0 1 0
-13.343823 1.244823 -16.475713 21.238086 -0.093019 2.458719 0.039678 -0.020827 207615.000000 0 1 0
-12.901923 0.221523 -17.340313 21.614697 -0.017168 2.501845 0.026648 -0.011307 -93389.100000 0 1 0
-12.418823 0.803323 -18.656713 22.426445 -0.064596 2.553331 0.042216 -0.015194 293189.000000 0 1 0
-11.230123 1.569323 -18.448913 21.655042 -0.138843 2.590486 0.035244 -0.014859 132218.000000 0 1 0
-10.783223 2.239923 -19.653613 22.529085 -0.204810 2.630818 0.033194 -0.008675 969748.000000 0 1 0
-9.299923 2.727523 -19.391113 21.678174 -0.285284 2.678106 0.022970 -0.008241 38346.900000 0 1 0
-8.388423 1.628023 -19.419313 21.216169 -0.191697 2.727066 0.028134 -0.008226 1950720.000000 0 1 0
-6.967823 1.943523 -19.172413 20.491688 -0.272015 2.780805 0.020557 -0.007204 2180890.000000 0 1 0
-6.361523 3.007223 -20.125613 21.320241 -0.441587 2.805248 0.022599 -0.005516 -1419150.000000 0 1 0
-6.472523 2.775423 -21.543213 22.665095 -0.405086 2.825643 0.023784 -0.002466 310333.000000 0 1 0
-5.984723 3.887623 -22.275713 23.390979 -0.576088 2.831550 0.012065 -0.000253 -405853.000000 0 1 0
-5.508723 3.371323 -23.656413 24.522188 -0.549194 2.875076 0.026598 -0.003985 119058.000000 0 1 0
-4.222523 2.778523 -23.548513 24.084899 -0.581996 2.930151 0.033429 -0.011754 66338.800000 0 1 0
-3.762423 2.377023 -24.826813 25.222544 -0.563460 2.964219 0.048105 -0.007612 -124022.000000 0 0 1
-2.399623 1.673523 -24.825713 24.997498 -0.608986 3.024290 0.040356 -0.008522 -322391.000000 0 1 0
-1.304223 2.482423 -24.483113 24.643178 -1.087049 3.027554 0.040739 -0.010996 -491382.000000 0 1 0
-0.061923 1.965023 -24.828713 24.906428 -1.539294 3.062575 0.041365 -0.008556 -328597.000000 0 1 0
0.727777 1.178423 -23.785213 23.825505 1.017547 3.083427 0.038658 -0.011353 -773445.000000 0 1 0
0.340177 -0.179377 -23.708313 23.711432 -0.485252 3.125373 0.042013 -0.014572 -127521.000000 0 1 0
0.983077 -0.902577 -22.707113 22.746298 -0.742733 3.082887 0.037216 -0.014681 -716074.000000 0 1 0
0.590977 -2.354677 -22.783913 22.912888 -1.324896 3.035440 0.041018 -0.016132 498043.000000 0 1 0
-0.627623 -2.727477 -22.142213 22.318392 1.344622 3.015860 0.047074 -0.019209 523142.000000 0 1 0
-1.844123 -2.726877 -22.880413 23.116011 0.976170 2.998699 0.059593 -0.021594 371907.000000 0 1 0
-2.653223 -1.427677 -22.779113 22.977507 0.493655 3.010088 0.056267 -0.022721 -1546650.000000 0 1 0
-3.248023 -1.258077 -21.546413 21.826139 0.369542 2.981321 0.038697 -0.022990 -112543.000000 0 1 0
-4.079823 -0.119677 -21.479413 21.863770 0.029325 2.953809 0.027781 -0.021515 776073.000000 0 1 0
-5.460823 -0.164977 -22.211513 22.873546 0.030202 2.900413 0.029391 -0.014384 -383475.000000 0 1 0
-6.346223 -1.128077 -21.763013 22.697485 0.175918 2.853647 0.036476 -0.008042 -285536.000000 0 1 0
-7.674423 -0.853477 -22.159313 23.466153 0.110755 2.806286 0.026457 -0.003415 300822.000000 0 1 0
-8.724723 -1.868577 -21.650213 23.416748 0.210983 2.750678 0.042556 0.000231 -6592.050000 0 1 0
-8.712523 -3.120877 -22.388813 24.226161 0.343966 2.749623 0.064124 -0.012920 218278.000000 0 1 0
-9.405223 -4.213077 -21.745513 24.063989 0.421148 2.699022 0.052978 -0.022186 -315926.000000 0 1 0
-10.225923 -5.120677 -22.665613 25.387415 0.464251 2.674296 0.045914 -0.024358 -751873.000000 0 0 1
-11.558623 -4.738877 -22.762613 25.965271 0.389085 2.639664 0.040961 -0.026048 -831744.000000 0 0 1
-12.151723 -5.478377 -23.833013 27.307316 0.423545 2.631645 0.035408 -0.035605 -808380.000000 0 0 1
-13.659923 -5.570577 -23.777513 27.982047 0.387216 2.586292 0.037394 -0.034960 -936752.000000 0 0 1
-14.279023 -4.300077 -23.901213 28.171779 0.292508 2.583770 0.039276 -0.035764 -356827.000000 0 0 1
-15.672823 -4.424677 -24.015813 29.016796 0.275154 2.545708 0.041054 -0.034582 -136019.000000 0 0 1
-16.339723 -3.067177 -24.318213 29.457929 0.185554 2.541925 0.041098 -0.028961 -535632.000000 0 0 1
-15.850923 -2.466877 -25.453913 30.087189 0.154391 2.579244 0.042487 -0.033007 -359089.000000 0 0 1
-16.458823 -1.288677 -25.852273 30.673988 0.078138 2.573275 0.040562 -0.018871 417617.000000 0 0 1
-17.932623 -1.217677 -26.393983 31.932805 0.067799 2.543742 0.036735 -0.016864 522816.000000 0 0 1
-18.074023 -1.799477 -27.674253 33.102458 0.099234 2.560782 0.046018 -0.028321 17837.100000 0 0 1
-17.760323 -1.049477 -28.833093 33.880344 0.059022 2.588735 0.033393 -0.017689 -188485.000000 0 0 1
-17.754023 -1.862977 -30.146733 35.035718 0.104550 2.606962 0.026081 -0.011017 271656.000000 0 0 1
-19.059423 -2.164577 -30.608273 36.122201 0.113085 2.581778 0.020928 -0.011074 240562.000000 0 0 1
-19.017023 -2.697777 -31.945413 37.275120 0.140921 2.600249 0.026621 -0.013686 -320416.000000 0 0 1
-20.403223 -3.180377 -32.477923 38.486644 0.154632 2.575262 0.002199 -0.006935 739615.000000 0 0 1
-21.449023 -2.266077 -32.795793 39.252512 0.105259 2.559853 0.008485 -0.015684 734665.000000 0 0 1
-21.968123 -1.676877 -31.603103 38.524881 0.076185 2.532784 0.004119 -0.000011 -1486480.000000 0 0 1
-23.050023 -0.639377 -31.828463 39.303479 0.027732 2.514629 0.006332 -0.001243 -562236.000000 0 0 1
-22.666123 0.634623 -32.297753 39.462650 -0.027991 2.529485 0.009593 -0.007905 769459.000000 0 0 1
-23.801923 1.326123 -32.853683 40.591312 -0.055657 2.513887 0.012253 -0.004911 573049.000000 0 0 1
-23.373723 2.514523 -33.762423 41.140673 -0.107167 2.533358 0.014459 -0.003162 -252709.000000 0 0 1
-22.812123 3.610323 -32.987423 40.269063 -0.156962 2.530768 0.013946 -0.004132 758441.000000 0 0 1
-23.606323 4.250423 -31.944333 39.947027 -0.178146 2.497537 0.011636 -0.009296 -64341.600000 0 0 1
-24.824123 5.074523 -32.435193 41.158591 -0.201641 2.478438 0.016935 -0.015381 -318253.000000 0 0 1
-25.936703 4.347223 -32.839883 42.072186 -0.166065 2.466358 0.028054 -0.017838 -326739.000000 0 0 1
-26.681123 4.991323 -33.867203 43.402570 -0.184936 2.465948 0.039971 -0.022561 440603.000000 0 0 1
-28.005653 4.224923 -34.204030 44.408133 -0.149731 2.449982 0.051858 -0.018263 331251.000000 0 0 1
-27.777253 2.925723 33.892175 43.918279 -0.104941 0.689271 0.049236 -0.015419 -649041.000000 0 0 1
-28.887753 2.437023 33.257736 44.119365 -0.084163 0.716951 0.049782 -0.016909 -855023.000000 0 0 1
-28.904813 0.930223 32.917379 43.816748 -0.032171 0.720841 0.051370 0.001053 -312216.000000 0 0 1
-29.314233 0.166723 33.975187 44.873883 -0.005687 0.711894 0.040693 0.004453 -33316.300000 0 0 1
-29.403203 -1.219377 33.662545 44.712439 0.041447 0.718388 0.028388 0.004915 -695372.000000 0 0 1
-28.888673 -2.125177 -33.617033 44.375407 0.073432 2.430363 -0.006303 0.011482 929956.000000 0 0 1
-27.477313 -2.006177 -33.356713 43.263123 0.072883 2.451237 0.007128 0.006488 1281920.000000 0 0 1
-27.058703 -0.737477 -32.765803 42.500766 0.027248 2.451122 0.009880 0.014660 -864416.000000 0 0 1
-27.432773 -0.440977 -31.283233 41.610001 0.016073 2.421614 0.029777 0.011077 -459521.000000 0 0 1
-26.666793 -1.147877 -30.332973 40.404514 0.043019 2.419966 0.014769 0.002528 436847.000000 0 0 1
-26.727243 -0.596377 -29.070083 39.493935 0.022310 2.398034 0.015695 0.001382 -159243.000000 0 0 1
-25.581813 -1.214077 -28.232333 38.117814 0.047423 2.404848 0.017516 0.000969 15083.900000 0 0 1
-25.676183 -2.605377 -27.958913 38.049378 0.101124 2.396177 0.010805 0.008794 727018.000000 0 0 1
-24.682523 -2.893677 -26.949933 36.659231 0.116703 2.396680 0.025171 0.000097 301684.000000 0 0 1
-24.873623 -4.230777 -26.224803 36.391440 0.168479 2.375508 0.022327 -0.005663 -92196.500000 0 0 1
-25.965133 -4.225777 -25.337643 36.524533 0.161334 2.337432 0.033111 -0.005354 -238110.000000 0 0 1
-26.053933 -5.313177 -24.480713 36.143362 0.201171 2.314913 0.025260 -0.010291 987968.000000 0 0 1
-27.273893 -5.167877 -23.460513 36.345122 0.187261 2.272465 0.047077 -0.015554 1007100.000000 0 0 1
-27.304773 -6.290877 -22.575413 35.982983 0.226443 2.248995 0.035761 -0.014506 -757348.000000 0 0 1
-28.424523 -6.217577 -21.787813 36.349973 0.215348 2.213535 0.062596 -0.015724 -890145.000000 0 0 1
-28.706063 -7.496377 -20.908713 36.296116 0.255438 2.184696 0.055008 -0.020784 12066.700000 0 0 1
-27.761163 -7.677877 -19.837113 34.973462 0.269824 2.173904 0.039136 -0.011993 422894.000000 0 0 1
-28.108333 -8.637777 -18.893413 34.952119 0.298143 2.141889 0.043211 -0.001033 15872.100000 0 0 1
-28.866023 -8.093977 -17.621413 34.774616 0.273378 2.102186 0.043162 -0.007497 24091.400000 0 0 1
-28.058483 -7.541677 -16.633913 33.478985 0.262578 2.090757 0.048512 -0.018846 75297.800000 0 0 1
-28.839933 -6.836177 -15.675713 33.529137 0.232743 2.057285 0.052908 -0.018008 349515.000000 0 0 1
-27.946343 -5.980077 -14.737713 32.155242 0.210805 2.046912 0.064440 -0.022206 390075.000000 0 0 1
-27.289333 -4.862277 -15.310413 31.666357 0.176325 2.075435 0.073329 -0.017763 547338.000000 0 0 1
-26.271593 -4.317177 -14.464813 30.299595 0.162873 2.068482 0.071918 -0.027459 192454.000000 0 0 1
-14.013623 21.016723 -5.122013 25.774392 -0.982712 1.770853 0.054759 -0.018011 68880.400000 0 0 1
-13.995023 20.415023 -6.384213 25.561534 -0.969851 1.823227 0.070417 -0.023474 -88825.500000 0 0 1
-14.846723 19.312023 -6.374313 25.179581 -0.915383 1.826735 0.066065 -0.040026 -420596.000000 0 0 1
-15.023823 18.712623 -7.796413 25.232154 -0.894307 1.884924 0.069403 -0.035301 -199274.000000 0 0 1
-13.841823 18.129523 -8.323413 24.280751 -0.918713 1.920691 0.061999 -0.026991 229726.000000 0 1 0
-14.073823 17.151523 -9.359113 24.079872 -0.883645 1.969983 0.054405 -0.026225 -336726.000000 0 1 0
-14.752423 15.854123 -8.917813 23.420388 -0.821378 1.961427 0.054848 -0.030282 1340930.000000 0 1 0
-16.135623 16.098723 -8.519513 24.333296 -0.784253 1.928493 0.060671 -0.017802 1409120.000000 0 1 0
-16.535923 15.196723 -7.432513 23.656276 -0.743221 1.890397 0.069234 -0.008294 -1574130.000000 0 1 0
-17.923623 15.425223 -6.960913 24.650519 -0.710621 1.857075 0.081529 -0.009047 -1122790.000000 0 1 0
-18.863623 14.863923 -7.901513 25.282531 -0.667361 1.888650 0.074632 -0.008932 -332856.000000 0 0 1
-20.128323 15.375923 -7.596313 26.443759 -0.652335 1.862164 0.044351 -0.007331 175488.000000 0 0 1
-21.259323 14.749323 -8.531913 27.245089 -0.606540 1.889309 0.044884 0.004257 640319.000000 0 0 1
-21.552623 13.393223 -8.161913 26.655409 -0.556021 1.881996 0.063319 -0.004149 153918.000000 0 0 1
-22.221023 12.658823 -9.156213 27.163503 -0.517825 1.914608 0.056571 -0.003939 -15548.600000 0 0 1
-22.678623 11.245923 -8.732113 26.777612 -0.460348 1.902969 0.063848 -0.008429 -579652.000000 0 0 1
-21.692223 10.280123 -8.659913 25.519161 -0.442557 1.917022 0.067033 -0.008912 -588163.000000 0 0 1
-22.142323 9.268423 -7.856613 25.256930 -0.396424 1.887113 0.083887 -0.025226 -477169.000000 0 0 1
-21.049823 8.295223 -7.400313 23.804840 -0.375389 1.886909 0.082410 -0.006805 -271489.000000 0 1 0
-20.718923 7.241223 -8.298313 23.464251 -0.336228 1.932275 0.062780 -0.010315 823276.000000 0 1 0
-19.681123 6.438423 -7.712213 22.097016 -0.316163 1.927317 0.048650 -0.002591 205755.000000 0 1 0
-19.470123 5.218923 -8.611213 21.919759 -0.261891 1.974527 0.033915 -0.010835 -747513.000000 0 1 0
-20.243923 4.102723 -8.317513 22.267236 -0.199956 1.953609 0.037598 -0.012869 150502.000000 0 1 0
-20.115823 3.150723 -9.374613 22.415547 -0.155367 2.002280 0.034531 -0.012075 69758.500000 0 1 0
-21.213823 2.027923 -9.345713 23.269747 -0.095305 1.984087 0.041541 -0.013170 406769.000000 0 1 0
-20.983323 1.152223 -8.220513 22.565556 -0.054856 1.943672 0.048750 -0.017866 740659.000000 0 1 0
-21.938823 0.056923 -8.159813 23.407216 -0.002595 1.926876 0.059855 -0.016087 36589.900000 0 1 0
-21.746023 -1.149377 -9.092013 23.598205 0.052805 1.966312 0.035417 -0.026770 -579589.000000 0 1 0
-20.573823 -1.822977 -8.759213 22.435001 0.088376 1.971891 0.030012 -0.017258 -100292.000000 0 1 0
-20.510323 -3.172577 -9.182613 22.694911 0.153466 1.987350 0.018762 -0.018716 1665.410000 0 1 0
-21.562823 -4.124577 -8.525613 23.551084 0.188999 1.941214 0.032919 -0.020777 160621.000000 0 1 0
-21.199823 -4.465177 -7.187413 22.826064 0.207589 1.891124 0.022710 -0.020423 508575.000000 0 1 0
-22.179223 -5.155577 -6.416313 23.657282 0.228395 1.845456 0.039379 -0.019282 -522397.000000 0 1 0
-22.324823 -6.696577 -6.694913 24.250025 0.291421 1.850508 0.042843 -0.022652 -352359.000000 0 1 0
-21.231323 -7.503077 -6.319513 23.388063 0.339698 1.844400 0.031814 -0.023408 699517.000000 0 1 0
-21.453923 -8.855877 -6.718013 24.162555 0.391480 1.852543 0.042042 -0.019215 -99427.000000 0 1 0
-20.398223 -9.745077 -6.018113 23.393839 0.445683 1.830974 0.039377 -0.016131 -44443.300000 0 1 0
-19.094723 -9.563877 -6.534913 22.333412 0.464339 1.867748 0.034487 -0.014950 442925.000000 0 1 0
-18.083323 -10.281077 -5.800813 21.595290 0.516965 1.842751 0.032100 -0.008850 244739.000000 0 1 0
-17.748823 -11.620377 -6.429313 22.167317 0.579681 1.865060 0.045423 -0.004791 -258894.000000 0 1 0
-16.674223 -11.569177 -7.374113 21.592895 0.606577 1.919316 0.047103 -0.004182 792273.000000 0 1 0
-16.940723 -10.827977 -8.589013 21.863310 0.568723 1.974526 0.049040 -0.011047 -330493.000000 0 1 0
-15.859123 -11.143577 -9.659513 21.656345 0.612509 2.033128 0.047061 0.001393 286928.000000 0 1 0
-15.975423 -12.387377 -10.286313 22.681920 0.659561 2.041488 0.056200 -0.002010 348983.000000 0 1 0
-14.883323 -12.609577 -11.188813 22.487870 0.702883 2.091567 0.052523 0.008677 672659.000000 0 1 0
-15.028823 -13.969577 -11.916913 23.728199 0.748887 2.096967 0.065559 0.003645 -51276.200000 0 1 0
-15.909923 -13.976077 -13.010013 24.853910 0.720781 2.121702 0.061127 0.000627 -74342.400000 0 1 0
-15.953723 -15.289977 -13.622613 25.959204 0.764157 2.123241 0.047938 0.002484 318198.000000 0 0 1
-16.833223 -15.281777 -14.922713 27.195174 0.737127 2.151637 0.076337 0.002283 205034.000000 0 0 1
-16.922723 -16.550677 -15.538713 28.315280 0.774284 2.151694 0.066931 0.008467 170212.000000 0 0 1
-17.099323 -16.412377 -16.960913 29.144906 0.764902 2.191922 0.059814 0.003216 -175190.000000 0 0 1
-17.472223 -17.728977 -17.688213 30.536340 0.792692 2.188606 0.052960 -0.005151 -254720.000000 0 0 1
-18.732223 -18.205677 -17.300213 31.331138 0.771144 2.155765 0.022965 -0.003360 -489940.000000 0 0 1
-19.609123 -18.478277 -18.391413 32.622209 0.755716 2.169739 0.026882 -0.002187 1177160.000000 0 0 1
-21.094523 -18.468877 -17.854513 33.239464 0.719130 2.137849 0.016237 -0.002298 343157.000000 0 0 1
-21.518823 -17.199777 -17.323913 32.542434 0.674308 2.132169 0.008176 0.015041 218640.000000 0 0 1
-21.403623 -17.100577 -15.890313 31.670915 0.674105 2.096396 -0.000076 0.004812 -234764.000000 0 0 1
-21.148323 -15.668577 -15.396013 30.492509 0.637645 2.100076 0.008415 0.003109 574439.000000 0 0 1
-22.283523 -14.790677 -15.586613 30.955808 0.585980 2.098455 0.010373 0.003106 924680.000000 0 0 1
-22.145623 -13.518077 -15.011713 29.975299 0.548044 2.095322 0.019330 0.002326 89462.500000 0 0 1
-23.499023 -12.812677 -14.693913 30.533258 0.499184 2.072868 0.029123 -0.005825 238404.000000 0 0 1
-24.138223 -13.210577 -13.482813 30.642445 0.500759 2.026400 0.029249 0.000970 637196.000000 0 0 1
-25.185113 -12.281177 -13.163713 30.958045 0.453708 2.009992 0.056723 -0.010155 216818.000000 0 0 1
-25.937943 -12.849077 -11.903713 31.298148 0.459943 1.960952 0.066088 -0.016873 293269.000000 0 0 1
-26.995473 -11.999077 -11.445913 31.681893 0.418258 1.940432 0.070747 -0.024592 579784.000000 0 0 1
-27.553133 -12.433577 -10.192313 31.900662 0.423900 1.896000 0.065095 -0.023291 -268122.000000 0 0 1
-28.443333 -11.408877 -9.582113 32.109229 0.381462 1.873836 0.077727 -0.026859 -630865.000000 0 0 1
-27.686823 -10.449677 -8.898213 30.902008 0.360894 1.862881 0.081781 -0.031296 -214453.000000 0 0 1
-28.475483 -9.619677 -8.095913 31.127723 0.325786 1.833909 0.098035 -0.031350 -131883.000000 0 0 1
-27.731913 -8.335677 -7.631113 29.946225 0.291989 1.828465 0.088279 -0.032170 603345.000000 0 0 1
-26.840963 -8.561377 -6.501113 28.913646 0.308765 1.797581 0.081054 -0.035987 394652.000000 0 0 1
-26.210593 -7.365377 -6.078613 27.896120 0.273943 1.790460 0.083720 -0.030201 -75380.300000 0 0 1
-27.056263 -6.318777 -5.286413 28.282759 0.229430 1.758815 0.087800 -0.031773 -805466.000000 0 0 1
-27.603913 -6.790977 -4.109613 28.722505 0.241225 1.714369 0.085376 -0.027793 67568.500000 0 0 1
-26.759223 -7.061377 -2.995713 27.836907 0.258004 1.678622 0.103714 -0.021937 -70868.700000 0 0 1
-26.135243 -5.798777 -2.379113 26.876327 0.218339 1.659433 0.107820 -0.021331 322234.000000 0 0 1
-27.086263 -5.098077 -1.566813 27.606357 0.186040 1.627582 0.107738 -0.030808 369409.000000 0 0 1
-26.519343 -3.982777 -0.942013 26.833290 0.149070 1.605910 0.087394 -0.026221 -211364.000000 0 0 1
-27.475543 -2.929877 -0.266713 27.632604 0.106234 1.580449 0.096187 -0.027827 85813.700000 0 0 1
-28.408723 -3.366777 0.673487 28.615456 0.117962 1.547258 0.091648 -0.025937 245488.000000 0 0 1
-27.793793 -3.677977 1.934187 28.102732 0.131566 1.501916 0.091924 -0.020809 -4318.630000 0 0 1
-28.887573 -3.870477 2.981787 29.297842 0.133191 1.468845 0.083758 -0.015272 186334.000000 0 0 1
-29.574303 -5.121477 2.825287 30.147159 0.171473 1.476942 0.078388 -0.008710 -571282.000000 0 0 1
-30.632283 -5.225377 3.694187 31.293583 0.168958 1.452471 0.089612 -0.008968 -804470.000000 0 0 1
-31.345143 -6.594377 3.557187 32.228208 0.207356 1.460196 0.079066 -0.008965 -511015.000000 0 0 1
-30.715673 -7.723777 4.111687 31.937678 0.246353 1.441697 0.069878 -0.000415 404504.000000 0 0 1
-31.437033 -8.938377 3.850087 32.909038 0.277016 1.453536 0.085667 -0.005389 498545.000000 0 0 1
-30.553093 -10.154777 4.312987 32.484040 0.320879 1.437631 0.064417 0.000909 361383.000000 0 0 1
-30.680853 -10.470777 5.669387 32.910392 0.328886 1.397665 0.053172 0.006495 475557.000000 0 0 1
-29.662513 -11.384777 6.057487 32.344567 0.366472 1.382404 0.043860 0.000549 -253403.000000 0 0 1
-29.755173 -11.715477 7.569487 32.862134 0.375089 1.338369 0.049677 -0.012488 -107848.000000 0 0 1
-29.369433 -10.604577 8.317287 32.314051 0.346507 1.310477 0.056454 -0.009719 367180.000000 0 0 1
-29.240213 -10.979577 9.663387 32.694376 0.359205 1.270747 0.051591 -0.011511 -436513.000000 0 0 1
-29.278143 -9.848677 10.700887 32.691208 0.324493 1.237317 0.050845 -0.014019 -921769.000000 0 0 1
-28.279363 -8.893077 10.737387 31.529362 0.304681 1.223292 0.046073 -0.010639 -287167.000000 0 0 1
-28.734813 -7.788677 11.545187 31.931870 0.264694 1.200859 0.051174 -0.017373 273298.000000 0 0 1
-27.755443 -6.585177 11.663187 30.818162 0.232950 1.182673 0.066341 -0.010578 66423.400000 0 0 1
-27.700723 -5.809777 10.482187 30.182111 0.206737 1.216108 0.071598 -0.012831 298707.000000 0 0 1
-26.768973 -4.762477 10.637087 29.196005 0.176068 1.197879 0.070525 -0.017074 -375337.000000 0 0 1
-26.886523 -3.723277 9.576587 28.782963 0.137606 1.231613 0.086864 -0.022711 -278024.000000 0 0 1
-26.378653 -4.168377 8.365287 27.985474 0.156725 1.267241 0.060836 -0.015967 52406.700000 0 0 1
-26.944683 -3.532777 7.252687 28.126463 0.130369 1.309990 0.066394 -0.030458 -294908.000000 0 0 1
-26.333073 -4.001477 5.908887 27.282916 0.150803 1.352488 0.068409 -0.017132 501292.000000 0 0 1
-24.965623 -3.593777 5.804887 25.882316 0.142967 1.344592 0.100989 -0.040360 934834.000000 0 0 1
-24.247023 -4.163877 4.749387 25.056190 0.170069 1.380093 0.105962 -0.024041 -823679.000000 0 0 1
-22.737023 -3.990377 4.825287 23.583442 0.173732 1.364736 0.103821 -0.026741 -504146.000000 0 1 0
-22.310923 -2.656877 4.613287 22.937278 0.118526 1.368289 0.069882 -0.023576 -611051.000000 0 1 0
-20.943323 -2.609477 4.383687 21.555715 0.123958 1.366002 0.058659 -0.017359 -1077860.000000 0 1 0
-20.349123 -1.221277 4.723287 20.925768 0.059944 1.343118 0.035626 -0.023996 -835284.000000 0 1 0
-20.595623 -0.159877 3.827487 20.948864 0.007763 1.387058 0.043027 -0.014848 304816.000000 0 1 0
-21.790823 0.516823 4.119087 22.182740 -0.023713 1.384023 0.033408 -0.033952 -305433.000000 0 1 0
-22.062523 1.665023 3.119187 22.344050 -0.075326 1.430741 0.063418 -0.019390 -392207.000000 0 1 0
-21.332923 2.854823 3.347987 21.781934 -0.133032 1.416480 0.035824 -0.018481 213266.000000 0 1 0
-21.610023 3.977523 2.492387 22.113927 -0.182022 1.457850 0.057598 -0.005982 99189.400000 0 1 0
-20.549723 4.406523 1.417687 21.064624 -0.211233 1.503444 0.049259 -0.000659 -95858.900000 0 1 0
-21.060023 5.130023 0.339587 21.678492 -0.238937 1.555131 0.079497 -0.000729 739918.000000 0 1 0
-22.035923 4.553023 -0.552413 22.508156 -0.203751 1.595342 0.100677 -0.004391 102369.000000 0 1 0
-21.589023 3.365923 -1.497613 21.901100 -0.154664 1.639230 0.092877 -0.006459 -197112.000000 0 1 0
-21.106623 2.224023 -0.781613 21.237861 -0.104983 1.607607 0.044347 -0.009098 650156.000000 0 1 0
-20.703523 1.169023 -1.661213 20.802935 -0.056405 1.650736 0.040869 -0.006442 -494112.000000 0 1 0
-19.810923 0.137123 -1.010513 19.837152 -0.006921 1.621759 0.031363 -0.006110 -650610.000000 0 1 0
-20.494523 -0.676377 -0.074113 20.505815 0.032991 1.574411 0.036696 -0.011913 279369.000000 0 1 0
-19.726523 -1.421077 0.802587 19.793921 0.071915 1.530238 0.030251 -0.015125 -850020.000000 0 1 0
-19.027923 -2.734977 0.400187 19.227639 0.142757 1.549982 0.016698 -0.014057 -271965.000000 0 1 0
-18.243823 -3.207777 1.465687 18.581581 0.174049 1.491836 0.017885 -0.012362 287115.000000 0 1 0
-17.323323 -4.206377 1.122787 17.862021 0.238206 1.507896 -0.003931 -0.009902 -426424.000000 0 1 0
-17.969823 -5.534677 0.721987 18.816707 0.298779 1.532417 -0.021587 -0.010139 -749531.000000 0 1 0
-18.563023 -6.136777 1.833887 19.636930 0.319281 1.477270 -0.014012 -0.016702 86925.000000 0 1 0
-19.817423 -6.658377 1.472987 20.957909 0.324136 1.500455 0.019149 -0.021027 18762.400000 0 1 0
-20.755923 -7.035477 2.677987 22.078902 0.326808 1.449205 0.055715 -0.020034 82111.700000 0 1 0
-20.211323 -8.029477 3.576487 22.039994 0.378156 1.407803 0.065368 -0.020545 768642.000000 0 1 0
-21.101423 -8.358377 4.615487 23.161072 0.377144 1.370175 0.083448 -0.025880 237158.000000 0 1 0
-20.319523 -9.261577 5.628087 23.029008 0.427664 1.323905 0.071581 -0.017551 292352.000000 0 1 0
-19.985123 -10.535477 5.104887 23.161634 0.485143 1.348569 0.073245 -0.014719 193466.000000 0 1 0
-18.809523 -11.105377 5.627487 22.556511 0.533340 1.318649 0.080844 -0.021759 -130495.000000 0 1 0
-18.347723 -12.371677 4.928187 22.671223 0.593261 1.351671 0.062851 -0.015358 66455.600000 0 1 0
-19.225223 -13.488777 5.062187 24.024613 0.611812 1.358497 0.069834 -0.010422 -52861.000000 0 1 0
-18.653423 -14.610077 4.488687 24.115407 0.664437 1.383571 0.055013 -0.007826 -8999.990000 0 1 0
-19.226323 -16.016877 4.826687 25.485069 0.694583 1.380253 0.054827 -0.004014 -329761.000000 0 0 1
-18.259223 -16.993277 4.538887 25.352952 0.749503 1.390798 0.051838 -0.016782 198957.000000 0 0 1
-18.616323 -18.316477 4.989187 26.588584 0.777280 1.382033 0.043558 -0.011034 552301.000000 0 0 1
-17.383523 -19.280477 4.858787 26.410821 0.837091 1.385773 0.043375 -0.018601 178193.000000 0 0 1
-17.247223 -19.771977 3.539387 26.474989 0.853494 1.436707 0.056185 -0.021324 147648.000000 0 0 1
-16.502323 -20.960977 3.478287 26.903303 0.903855 1.441145 0.054128 -0.024860 250185.000000 0 0 1
-14.967423 -21.047877 3.644387 26.082915 0.952651 1.430615 0.047523 -0.021516 -72691.300000 0 0 1
-14.492823 -22.325077 3.775887 26.883235 0.995003 1.429875 0.051846 -0.021164 369977.000000 0 0 1
-13.146723 -22.418077 4.267087 26.336563 1.040412 1.408058 0.057657 -0.019729 682713.000000 0 0 1
-12.551223 -23.853477 4.358887 27.304239 1.086425 1.410469 0.046669 -0.009458 -375335.000000 0 0 1
-12.338123 -24.365377 3.064487 27.482576 1.102058 1.459057 0.046052 -0.016166 226722.000000 0 0 1
-11.882623 -25.726507 3.272887 28.526509 1.138105 1.455812 0.056180 -0.012524 -92854.400000 0 0 1
18.622877 18.563623 -24.279413 35.789796 0.783805 2.316364 0.080583 -0.013118 577090.000000 0 0 1
17.642277 19.182423 -25.122643 36.198929 0.827198 2.337849 0.065319 -0.019369 785785.000000 0 0 1
18.184777 19.149923 -26.449913 37.376511 0.811244 2.356979 0.068680 -0.020572 -234173.000000 0 0 1
17.108777 19.447723 -27.445883 37.738583 0.849293 2.385122 0.050730 -0.021883 -510311.000000 0 0 1
16.976277 20.797923 -27.748393 38.609855 0.886226 2.372708 0.045152 -0.015792 -27773.100000 0 0 1
16.023277 20.991423 -28.743643 39.033092 0.918822 2.398518 0.033151 -0.019501 -482818.000000 0 0 1
15.755777 22.496423 -29.131893 40.037492 0.959823 2.385636 0.040069 -0.010545 -769462.000000 0 0 1
15.016377 23.155023 -28.200323 39.457634 0.995466 2.366990 0.037254 -0.022195 -194915.000000 0 0 1
14.840977 24.523923 -28.564513 40.467379 1.026589 2.354440 0.036690 -0.011409 -103715.000000 0 0 1
13.985377 25.380223 -27.608823 40.024912 1.067159 2.331997 0.030303 -0.015605 1514380.000000 0 0 1
12.585777 24.960823 -27.577933 39.268140 1.103777 2.349417 0.040335 -0.022407 945111.000000 0 0 1
11.924477 25.607123 -26.547723 38.764668 1.134988 2.325185 0.029068 -0.016156 -602470.000000 0 0 1
10.397777 25.405023 -26.518653 38.167629 1.182315 2.338930 0.046333 -0.021822 357873.000000 0 0 1
9.670277 26.229123 -25.598663 37.904785 1.217574 2.312224 0.033712 -0.017393 249115.000000 0 0 1
9.492077 27.554123 -26.094243 39.118266 1.239040 2.301052 0.040046 -0.017639 -820068.000000 0 0 1
9.030777 28.459823 -24.997513 38.940880 1.263529 2.267816 0.042641 -0.017178 -481479.000000 0 0 1
10.024477 28.952723 -24.129413 38.999729 1.237479 2.237892 0.029308 -0.009619 99058.300000 0 0 1
9.469577 29.592323 -22.955413 38.630680 1.261092 2.207101 0.060202 -0.018655 301170.000000 0 0 1
10.525377 29.809223 -21.824013 38.414332 1.231370 2.175018 0.042945 -0.020708 19025.400000 0 0 1
11.513077 30.734123 -22.162213 39.601779 1.212374 2.164732 0.019838 -0.014459 -282316.000000 0 0 1
12.468177 30.892023 -21.150213 39.460157 1.187186 2.136475 0.011024 -0.011811 427693.000000 0 0 1
13.621177 31.937723 -21.418813 40.796080 1.167663 2.123537 0.010486 0.000798 1716760.000000 0 0 1
14.699077 31.426023 -22.264013 41.223101 1.133292 2.141335 0.004555 0.010369 364607.000000 0 0 1
15.663877 32.359023 -22.627913 42.479240 1.119978 2.132562 0.003557 0.013563 -133437.000000 0 0 1
16.948577 31.659023 -23.137013 42.718490 1.079272 2.143154 -0.009851 0.019889 36883.100000 0 0 1
17.791977 31.117323 -22.161913 42.142527 1.051392 2.124546 -0.003974 0.026421 -562171.000000 0 0 1
18.816977 30.377423 -22.703513 42.335753 1.016206 2.136811 0.004735 0.021556 -800123.000000 0 0 1
19.801677 29.659623 -21.793613 41.794272 0.982127 2.119345 0.009165 0.018322 -16588.500000 0 0 1
20.531777 30.543923 -20.945013 42.345940 0.978969 2.088190 0.017428 0.019711 -60344.700000 0 0 1
21.510177 29.780223 -20.294713 41.969331 0.945262 2.075514 0.028747 0.017017 -291037.000000 0 0 1
22.128577 30.544423 -19.137313 42.295064 0.943834 2.040331 0.030541 0.004133 -656501.000000 0 0 1
23.128077 31.445823 -19.524913 43.645961 0.936647 2.034594 0.039863 0.001786 -117728.000000 0 0 1
23.677277 31.944423 -18.301113 43.772027 0.932950 2.002150 0.044744 0.000800 -276425.000000 0 0 1
24.995377 32.712923 -18.472613 45.123626 0.918343 1.992568 0.042743 0.000725 581146.000000 0 0 1
26.133677 31.913623 -18.827713 45.342377 0.884644 1.998997 0.042241 0.004854 1531440.000000 0 0 1
27.380977 32.566123 -18.401613 46.356117 0.871679 1.979001 0.048565 -0.002265 1173790.000000 0 0 1
28.609877 31.906623 -19.025713 46.888542 0.839821 1.988612 0.059800 -0.016581 -467322.000000 0 0 1
28.901877 30.671223 -18.431913 45.997585 0.815090 1.983093 0.058480 -0.010675 -428206.000000 0 0 1
30.143477 30.157423 -18.819013 46.607452 0.785629 1.986438 0.055861 -0.022657 -550586.000000 0 0 1
30.489177 28.939723 -17.909713 45.693055 0.759332 1.973554 0.055184 -0.026808 -286114.000000 0 0 1
30.988977 29.363323 -16.642713 45.820316 0.758469 1.942515 0.057341 -0.020399 112473.000000 0 0 1
31.243177 28.298223 -15.746513 44.998647 0.735978 1.928296 0.064535 -0.024057 -356184.000000 0 0 1
31.809777 28.793623 -14.398613 45.257648 0.735670 1.894571 0.070533 -0.024589 723906.000000 0 0 1
33.150377 29.291523 -14.406913 46.524187 0.723678 1.885637 0.049125 -0.015918 456691.000000 0 0 1
33.246377 30.618723 -14.864513 47.579213 0.744278 1.888532 0.047445 -0.019221 202141.000000 0 0 1
34.731177 31.089123 -14.965513 48.956662 0.730121 1.881458 0.049316 -0.019974 796961.000000 0 0 1
35.379577 31.231623 -13.712813 49.144379 0.723207 1.853581 0.050211 -0.016168 -1324720.000000 0 0 1
-35.583979 31.467223 -13.811913 49.468926 -0.724078 1.853761 0.038327 -0.014479 -905827.000000 0 0 1
-34.832579 31.723423 -12.466213 48.734901 -0.738717 1.829468 0.028628 -0.007202 -261191.000000 0 0 1
-35.329179 32.838423 -11.778213 49.651175 -0.748876 1.810299 0.040018 -0.012024 105676.000000 0 0 1
-34.459179 33.352423 -10.793013 49.155959 -0.769079 1.792167 0.018590 -0.004974 -66783.900000 0 0 1
-35.060579 -34.051382 -9.996413 49.886562 0.770797 1.772545 0.022562 -0.000587 329057.000000 0 0 1
-34.110179 -33.368582 -9.181513 48.592868 0.774409 1.760887 0.016912 -0.000743 204913.000000 0 0 1
-34.002779 -33.778682 -7.872413 48.571218 0.782092 1.733594 0.014632 -0.002534 288207.000000 0 0 1
-33.532179 -32.749682 -6.859713 47.370923 0.773593 1.716116 0.017961 -0.005746 176666.000000 0 0 1
-34.663579 -31.971582 -6.570713 47.612184 0.745021 1.709243 0.021155 -0.001586 222635.000000 0 0 1
-34.230279 -30.986682 -5.693513 46.522065 0.735704 1.693487 0.031979 0.000282 1093010.000000 0 0 1
-35.499979 -30.198682 -5.167113 46.892515 0.704882 1.681211 0.036386 0.001821 982866.000000 0 0 1
36.093877 -30.956982 -4.191413 47.735423 -0.708936 1.658715 0.025720 0.001494 -27569.000000 0 0 1
34.758777 -30.562382 -3.992613 46.456138 -0.721244 1.656846 0.026466 0.000433 3360.510000 0 0 1
34.429577 -29.585182 -2.795113 45.480671 -0.709866 1.632292 0.023654 0.005531 -4917.220000 0 0 1
34.980777 -28.321682 -3.078413 45.113735 -0.680589 1.639086 0.037681 -0.004763 805042.000000 0 0 1
34.182077 -27.411382 -2.311113 43.876412 -0.675912 1.623494 0.036409 -0.001568 465784.000000 0 0 1
34.712077 -25.916382 -2.472113 43.390074 -0.641328 1.627801 0.045926 -0.015692 67043.700000 0 0 1
34.541877 -25.459682 -3.781413 43.077091 -0.635173 1.658692 0.041975 -0.016568 330878.000000 0 0 1
34.451677 -24.071082 -3.872113 42.205785 -0.609847 1.662669 0.044617 -0.027477 -95370.900000 0 0 1
33.858977 -23.622182 -5.234513 41.615357 -0.609156 1.696914 0.059983 -0.030205 -80800.700000 0 0 1
34.891277 -23.650582 -6.201613 42.605296 -0.595696 1.716875 0.064752 -0.031052 553984.000000 0 0 1
34.399377 -23.461582 -7.521713 42.312399 -0.598567 1.749512 0.055246 -0.032268 -599914.000000 0 0 1
35.521377 -23.275282 -8.506313 43.311250 -0.580055 1.768481 0.052758 -0.030686 -362101.000000 0 0 1
-36.017279 -24.438782 -8.792313 44.404991 0.596170 1.770116 0.047577 -0.021665 377147.000000 0 0 1
-34.841979 -24.092482 -9.520813 43.417244 0.604984 1.791879 0.047819 -0.018837 506860.000000 0 0 1
-34.163379 -25.281782 -10.238813 43.716568 0.637087 1.807201 0.037482 -0.019993 -127639.000000 0 0 1
-33.583179 -26.277882 -9.420513 43.670391 0.663961 1.788224 0.032031 -0.010824 -119496.000000 0 0 1
-34.483679 -27.281282 -8.973313 44.876640 0.669313 1.772108 0.032342 -0.005584 -242395.000000 0 0 1
-33.855279 -28.562082 -8.428813 45.088994 0.700797 1.758840 0.019408 -0.000635 -114476.000000 0 0 1
-33.301579 -29.400282 -9.472713 45.421405 0.723258 1.780890 0.014654 -0.000465 176476.000000 0 0 1
-32.346479 -30.243682 -8.865113 45.161546 0.751815 1.768377 0.005694 -0.002374 -235707.000000 0 0 1
-31.783879 -31.219882 -9.949413 45.649609 0.776447 1.790512 0.003203 0.002688 -399708.000000 0 0 1
-31.062379 -30.562782 -10.937513 44.928657 0.777291 1.816709 -0.008714 0.015031 13863.600000 0 0 1
-30.841879 -31.475582 -12.007113 45.673893 0.795567 1.836810 -0.001769 0.015114 -179637.000000 0 0 1
-30.966279 -30.815582 -13.424613 45.702634 0.782959 1.868932 -0.014035 0.019459 -512939.000000 0 0 1
-29.976279 -29.867082 -13.747613 44.492885 0.783573 1.884921 -0.003921 0.018163 -199786.000000 0 0 1
-30.196179 -29.237582 -15.017913 44.633879 0.769271 1.913961 -0.016089 0.022041 -291235.000000 0 0 1
-29.102479 -28.289482 -15.491313 43.442259 0.771233 1.935418 0.000696 0.007934 -658830.000000 0 0 1
-27.873979 -28.897482 -15.714913 43.115910 0.803425 1.943871 0.022336 -0.003645 -549860.000000 0 0 1
-26.889379 -27.965482 -16.161213 42.027273 0.805013 1.965507 0.036201 0.005682 687905.000000 0 0 1
-25.600979 -28.714582 -16.656713 41.921158 0.842660 1.979406 0.061212 -0.001631 33344.000000 0 0 1
-25.646879 -29.504682 -17.886613 42.990925 0.855234 1.999900 0.050004 -0.004149 -62397.100000 0 0 1
-26.010179 -28.761582 -19.060213 43.209371 0.835590 2.027635 0.035096 0.005693 -178917.000000 0 0 1
-24.797679 -28.094382 -19.724613 42.347132 0.847647 2.055317 0.040490 0.005958 -27474.700000 0 0 1
-24.324679 -27.008082 -18.984713 41.006656 0.837625 2.052136 0.055243 0.000636 253433.000000 0 0 1
-22.908479 -26.864282 -19.070313 40.126860 0.864709 2.066045 0.051543 -0.009207 364970.000000 0 0 1
-22.479779 -25.660082 -18.252913 38.690427 0.851366 2.062091 0.053000 -0.007367 -252219.000000 0 0 1
-22.483679 -25.916682 -16.849313 38.224202 0.856209 2.027289 0.058760 -0.005686 221876.000000 0 0 1
-22.030379 -24.823882 -16.042113 36.863425 0.844949 2.021031 0.045750 -0.004805 81386.800000 0 0 1
-22.530279 -24.962482 -14.562613 36.644354 0.836566 1.979482 0.044184 -0.003380 -442221.000000 0 0 1
-23.903579 -24.781982 -14.393913 37.319063 0.803439 1.966761 0.012771 0.010028 -456017.000000 0 0 1
-24.229379 -24.724382 -13.010013 36.981324 0.795509 1.930289 0.003571 0.013176 -184832.000000 0 0 1
-25.723079 -24.456682 -12.756113 37.716369 0.760166 1.915812 -0.010855 0.024889 -207961.000000 0 0 1
-26.538979 -25.564182 -13.255313 39.160543 0.766691 1.916104 0.012075 0.011958 1343590.000000 0 0 1
-27.894279 -25.662682 -12.772113 39.997387 0.743755 1.895812 -0.003340 0.013276 747264.000000 0 0 1
-28.855979 -24.574882 -13.295613 40.166724 0.705445 1.908171 0.005022 0.009407 -1350890.000000 0 0 1
-28.862879 -23.278982 -12.649413 39.178878 0.678714 1.899549 -0.002274 0.009423 99483.600000 0 0 1
-29.295479 -23.320682 -11.298913 39.111951 0.672328 1.863860 0.023267 0.000527 -1059340.000000 0 0 1
-30.753279 -23.639782 -10.945013 40.303806 0.655357 1.845813 0.007181 0.000497 -378887.000000 0 0 1
-31.728579 -22.711382 -11.399613 40.650471 0.621253 1.855038 0.044313 -0.014627 248174.000000 0 0 1
-32.082679 -22.819982 -12.740213 41.380707 0.618261 1.883758 0.039512 -0.007143 -297904.000000 0 0 1
-33.553779 -22.494282 -13.157813 42.485019 0.590579 1.885679 0.022189 -0.012716 903416.000000 0 0 1
-34.510179 -23.511382 -12.998713 43.734473 0.598057 1.872575 0.027849 -0.008254 555030.000000 0 0 1
-35.856079 -23.194982 -13.336413 44.738412 0.574187 1.873495 0.049947 -0.021847 871682.000000 0 0 1
35.356677 -24.254082 -13.010213 44.806481 -0.601257 1.865404 0.040046 -0.008522 68560.800000 0 0 1
35.423777 -25.400882 -13.843213 45.734925 -0.622082 1.878303 0.008036 -0.001340 48694.000000 0 0 1
34.697877 -26.502082 -13.354213 45.657836 -0.652272 1.867620 0.005159 -0.008066 -36324.600000 0 0 1
34.676777 -27.740282 -14.316713 46.658015 -0.674721 1.882671 -0.004358 -0.008946 87648.700000 0 0 1
33.956777 -27.502682 -15.497013 46.363969 -0.680768 1.911602 0.010517 -0.018329 -164445.000000 0 0 1
33.691977 -28.660682 -16.242013 47.120983 -0.704882 1.922702 -0.006687 -0.006166 -347116.000000 0 0 1
32.795177 -28.479182 -17.470813 46.816843 -0.715077 1.953224 -0.002877 -0.007152 569706.000000 0 0 1
31.427877 -28.461282 -17.024913 45.690302 -0.735904 1.952622 0.054045 -0.014069 231781.000000 0 0 1
30.596377 -28.300182 -18.127913 45.449530 -0.746431 1.981068 0.058689 -0.019203 377961.000000 0 0 1
29.056077 -28.397682 -17.932813 44.410244 -0.773939 1.986462 0.071860 -0.018762 691052.000000 0 0 1
28.467577 -27.378382 -17.153613 43.060715 -0.765897 1.980523 0.067330 -0.019903 89134.100000 0 0 1
27.083277 -27.590082 -16.918313 42.201254 -0.794668 1.983291 0.078292 -0.014437 372126.000000 0 0 1
26.523477 -26.541982 -15.930713 40.764682 -0.785747 1.972294 0.061721 -0.016616 -139969.000000 0 0 1
26.356277 -25.262282 -16.413013 40.027781 -0.764208 1.993295 0.067311 -0.026389 -57446.900000 0 0 1
26.112977 -24.447182 -15.256813 38.888592 -0.752463 1.973950 0.047356 -0.021164 -112139.000000 0 0 1
25.876577 -22.888682 -15.461013 37.848803 -0.724204 1.991600 0.043649 -0.023206 -162718.000000 0 0 1
24.736877 -22.434782 -16.128513 37.085866 -0.736634 2.020720 0.041939 -0.021509 -305853.000000 0 0 1
24.779177 -21.010282 -16.145713 36.278418 -0.703274 2.032027 0.037155 -0.026640 528114.000000 0 0 1
23.355277 -20.359382 -16.262613 34.992085 -0.716972 2.054150 0.042309 -0.019777 215735.000000 0 0 1
22.624577 -20.486382 -15.097713 34.051494 -0.735841 2.030161 0.044576 -0.018313 116440.000000 0 0 1
21.444977 -19.671782 -15.198213 32.830652 -0.742299 2.052091 0.044214 -0.016709 448391.000000 0 0 1
21.324777 -18.542782 -14.165213 31.610665 -0.715730 2.035452 0.047337 -0.008228 -150248.000000 0 0 1
20.911077 -18.938782 -12.847313 31.000065 -0.735945 1.998111 0.041975 -0.022622 -29602.200000 0 0 1
20.484077 -17.772282 -12.207213 29.739998 -0.714632 1.993760 0.046927 -0.028868 -553468.000000 0 0 1
19.747977 -17.977482 -10.875113 28.834711 -0.738502 1.957517 0.054815 -0.022361 -478090.000000 0 0 1
20.363977 -18.502882 -9.722313 29.181699 -0.737551 1.910454 0.058340 -0.036318 -325452.000000 0 0 1
19.442877 -18.613882 -8.651213 28.272700 -0.763618 1.881776 0.064315 -0.040512 132138.000000 0 0 1
19.979177 -19.264982 -7.299513 28.698257 -0.767201 1.827976 0.065565 -0.038494 -127661.000000 0 0 1
20.895577 -18.545982 -6.515113 28.688417 -0.725897 1.799894 0.064985 -0.038924 -362490.000000 0 0 1
21.509577 -19.344782 -5.566413 29.459590 -0.732460 1.760890 0.068027 -0.031612 -386811.000000 0 0 1
22.838177 -18.646182 -5.160513 29.931477 -0.684690 1.744073 0.063117 -0.032180 -340283.000000 0 0 1
23.700777 -18.770682 -6.260713 30.874939 -0.669835 1.774989 0.048795 -0.040124 -250482.000000 0 0 1
24.599077 -17.685082 -6.275613 30.939619 -0.623320 1.775048 0.060713 -0.039263 -295676.000000 0 0 1
25.536477 -17.571282 -7.497013 31.891485 -0.602685 1.808096 0.058942 -0.045383 -361666.000000 0 0 1
26.581777 -18.490882 -7.498513 33.237498 -0.607782 1.798359 0.069349 -0.053702 -333981.000000 0 0 1
26.493877 -19.585582 -8.374413 33.994872 -0.636585 1.819702 0.070700 -0.055015 -352658.000000 0 0 1
27.467277 -20.787082 -8.126513 35.392009 -0.647835 1.802478 0.065982 -0.052841 -210191.000000 0 0 1
28.779677 -20.444682 -8.427113 36.294229 -0.617663 1.805124 0.061185 -0.041063 -764967.000000 0 0 1
29.659677 -21.531082 -8.272813 37.572907 -0.627923 1.792796 0.061952 -0.042868 17254.400000 0 0 1
-29.432763 29.991523 3.960287 42.207379 -0.794801 1.476829 0.021262 0.001988 280051.000000 0 0 1
-28.772143 30.929823 3.117287 42.358088 -0.821523 1.497136 0.017287 0.011096 -450024.000000 0 0 1
-27.747243 31.553923 3.824087 42.192217 -0.849503 1.480037 0.014191 0.025770 -306780.000000 0 0 1
-27.217503 32.778423 3.062587 42.715301 -0.877822 1.499037 0.018441 0.018185 -653549.000000 0 0 1
-26.404383 32.390323 1.992387 41.836516 -0.886859 1.523155 0.014001 0.023518 -136756.000000 0 0 1
-25.738103 33.416223 1.303887 42.199455 -0.914475 1.539893 0.025283 0.006827 -254623.000000 0 0 1
-24.502823 34.034823 1.949087 41.982811 -0.946817 1.524354 0.024145 0.004911 -594773.000000 0 0 1
-23.286723 33.626023 1.372687 40.925117 -0.965108 1.537249 0.028717 0.009930 57580.100000 0 0 1
-22.124923 34.030923 2.085987 40.644400 -0.994321 1.519451 0.033443 0.009622 857895.000000 0 0 1
-20.778423 33.568923 1.468287 39.506598 -1.016539 1.533622 0.036102 0.009984 304396.000000 0 0 1
-20.407223 34.294223 0.332087 39.908129 -1.034015 1.562475 0.054804 -0.000946 -573213.000000 0 0 1
-19.075423 34.095023 -0.010413 39.068433 -1.060705 1.571063 0.063750 -0.004945 -944874.000000 0 0 1
-18.638523 -33.705482 -1.212413 38.534712 1.065667 1.602264 0.074175 -0.015736 -83638.000000 0 0 1
-18.615623 -32.287182 -1.107113 37.285778 1.047788 1.600493 0.073673 -0.025320 333949.000000 0 0 1
-17.727223 -31.814782 -0.102113 36.420396 1.062441 1.573600 0.075141 -0.021324 -196935.000000 0 0 1
-17.544723 -30.242582 0.016787 34.963286 1.045113 1.570316 0.074987 -0.029493 5395.430000 0 0 1
-16.674423 -29.693782 -0.977713 34.069238 1.059132 1.599498 0.070953 -0.020405 325085.000000 0 0 1
-16.617223 -28.271982 -0.990013 32.808798 1.039423 1.600976 0.059351 -0.015994 379423.000000 0 0 1
-15.589623 -27.758682 -2.073113 31.904210 1.059081 1.635821 0.053719 -0.011046 217529.000000 0 0 1
-16.018123 -28.147982 -3.391013 32.563601 1.053431 1.675121 0.052535 -0.020921 406080.000000 0 0 1
-15.143723 -27.657982 -4.402613 31.838331 1.069847 1.709521 0.054357 -0.011049 139500.000000 0 0 1
-15.828923 -27.831282 -5.778213 32.534948 1.053675 1.749344 0.079902 -0.023700 -306097.000000 0 0 1
-16.859323 -26.924582 -5.895913 32.309932 1.011357 1.754304 0.082191 -0.017830 -690030.000000 0 0 1
-17.513823 -26.829082 -7.160513 32.829965 0.992461 1.790673 0.103132 -0.025060 615721.000000 0 0 1
-18.261223 -25.460182 -7.334313 32.178957 0.948589 1.800740 0.075338 -0.022493 193243.000000 0 0 1
-17.336923 -24.397082 -7.381513 30.826503 0.952982 1.812599 0.058185 -0.007761 171006.000000 0 0 1
-17.928323 -23.123682 -7.610313 30.233199 0.911284 1.825254 0.036965 -0.004262 197649.000000 0 0 1
-16.943623 -22.021282 -7.101513 28.678471 0.914982 1.821025 0.044169 -0.002350 1443070.000000 0 0 1
-15.773823 -22.025482 -7.968213 28.238764 0.949305 1.856855 0.064149 -0.007771 984017.000000 0 0 1
-14.728723 -21.164582 -7.469413 26.845241 0.962818 1.852757 0.075041 -0.019835 939324.000000 0 0 1
-13.669023 -20.875282 -8.584113 26.387622 0.991058 1.902134 0.084024 -0.019543 157342.000000 0 0 1
-14.158923 -20.134782 -9.653613 26.440061 0.957921 1.944551 0.088297 -0.017111 177747.000000 0 0 1
-13.124323 -19.840282 -10.607313 26.046108 0.986380 1.990239 0.082582 -0.018152 637822.000000 0 0 1
-13.734223 -19.052582 -11.765913 26.269117 0.946208 2.035210 0.088845 -0.016052 71119.100000 0 0 1
-14.612823 -19.805082 -12.616313 27.657679 0.935128 2.044471 0.070181 0.008498 -154222.000000 0 0 1
-15.176223 -18.940682 -13.515613 27.780191 0.895294 2.078898 0.070500 -0.001794 51225.000000 0 0 1
-16.228923 -19.609482 -14.499013 29.293875 0.879448 2.088574 0.078528 -0.001562 807806.000000 0 0 1
-17.461523 -19.780082 -13.819213 29.784679 0.847575 2.053268 0.060884 0.000848 437519.000000 0 0 1
-18.573323 -19.923482 -14.695913 30.949690 0.820456 2.065570 0.041199 0.006133 97771.300000 0 0 1
-19.959323 -20.052282 -14.068213 31.597203 0.787721 2.032234 0.017087 0.010515 -181987.000000 0 0 1
-20.920723 -20.545282 -14.958713 32.917296 0.776344 2.042532 0.016779 0.002919 -274506.000000 0 0 1
-22.250523 -20.478282 -14.508113 33.539993 0.743945 2.018128 -0.005660 0.003502 -251653.000000 0 0 1
-23.248023 -21.106382 -15.484313 35.010197 0.737151 2.028936 -0.000713 -0.000561 -444083.000000 0 0 1
-23.308323 -20.348182 -16.694213 35.157122 0.717697 2.065585 0.002952 -0.014394 -6534.690000 0 0 1
-23.954823 -21.073082 -17.675713 36.473815 0.721486 2.076718 0.017688 -0.018706 -321620.000000 0 0 1
-24.204923 -20.259382 -19.008813 36.846382 0.696895 2.112847 0.017835 -0.018660 154409.000000 0 0 1
-22.989523 -20.107582 -19.710213 36.350042 0.718627 2.143889 0.005498 -0.016258 304245.000000 0 0 1
-23.302323 -19.549882 -20.962013 36.940522 0.698054 2.174206 0.011077 -0.018462 -205649.000000 0 0 1
-22.111323 -18.770582 -21.525613 36.119211 0.703862 2.209257 0.000441 -0.009623 395139.000000 0 0 1
-21.061023 -19.644982 -21.988313 36.235037 0.750625 2.222856 -0.004394 -0.000548 195187.000000 0 0 1
-20.180323 -18.970282 -22.847013 35.904081 0.754501 2.260534 0.007305 -0.012374 -498690.000000 0 0 1
-18.900423 -19.784382 -23.093113 35.804185 0.808244 2.271798 0.030566 -0.008634 -561181.000000 0 0 1
-19.009823 -20.976082 -23.831513 37.004194 0.834532 2.270540 0.017393 -0.001972 -421631.000000 0 0 1
-17.809623 -21.688082 -23.782113 36.785112 0.883279 2.273803 0.029212 0.000655 -393251.000000 0 0 1
-17.936323 -23.050882 -24.584513 38.176605 0.909541 2.270470 0.043131 0.004078 -19850.400000 0 0 1
-18.011223 -22.899482 -25.978453 39.034222 0.904320 2.299000 0.050048 -0.003400 99105.600000 0 0 1
-18.203323 -24.163482 -26.678933 40.336092 0.925161 2.293501 0.050040 -0.006206 -34869.100000 0 0 1
-18.016923 -24.096782 -28.231003 41.258380 0.928775 2.324370 0.040249 0.002724 352425.000000 0 0 1
-16.634823 -23.859282 -28.472423 40.702108 0.961948 2.345539 0.043939 0.001374 253592.000000 0 0 1
-16.392023 -23.870582 -29.867613 41.600209 0.969050 2.371675 0.049770 -0.007247 1194400.000000 0 0 1
-14.833823 -23.823482 -30.190683 41.219873 1.013885 2.392681 0.024736 -0.010548 1397260.000000 0 0 1
-14.135023 -25.008682 -29.958523 41.505977 1.056355 2.377179 0.038322 -0.006144 1024930.000000 0 0 1
-12.759123 -24.986082 -30.414433 41.377980 1.098666 2.396521 0.048279 -0.008904 978966.000000 0 0 1
-12.061223 -26.311482 -30.020073 41.700983 1.140978 2.374439 0.055778 -0.010925 -679426.000000 0 0 1
-12.305523 -27.410682 -30.910013 43.106847 1.148831 2.370365 0.057260 -0.003067 885639.000000 0 0 1
-11.425823 -28.543682 -30.649153 43.412692 1.190038 2.354624 0.056943 -0.009866 911674.000000 0 0 1
-10.004423 -28.489282 -31.258703 43.460720 1.233085 2.373505 0.051950 -0.009636 142399.000000 0 0 1
-9.166623 -27.478682 -30.764333 42.255759 1.248814 2.386270 0.054224 -0.007233 148235.000000 0 0 1
-8.132423 -27.063882 -31.655223 42.433986 1.278890 2.412813 0.055241 -0.011393 206401.000000 0 0 1
-7.347723 -25.781982 -31.133313 41.085068 1.293162 2.430696 0.066240 -0.007991 -135949.000000 0 0 1
-7.865323 -24.456182 -31.085263 40.326936 1.259635 2.450941 0.077779 -0.011076 156824.000000 0 0 1
-8.997023 -24.332682 -30.215303 39.824495 1.216636 2.432129 0.062279 -0.010733 50023.100000 0 0 1
-9.660923 -22.951282 -30.049083 39.026173 1.172377 2.449594 0.066886 -0.013216 -284247.000000 0 0 1
-10.239223 -22.448282 -31.211003 39.785598 1.142861 2.472653 0.063753 -0.017164 -70599.200000 0 0 1
-10.406023 -21.020282 -31.193793 39.028071 1.111119 2.496868 0.065452 -0.016507 131307.000000 0 0 1
-11.299623 -20.486982 -32.357783 39.930240 1.066763 2.515559 0.055961 -0.017897 315028.000000 0 0 1
-11.788223 -19.159982 -32.116413 39.211364 1.019237 2.530565 0.058909 -0.016280 80902.700000 0 0 1
-12.657523 -18.747982 -33.128273 40.114613 0.976950 2.542487 0.057774 -0.016899 -901122.000000 0 0 1
-13.319723 -17.416382 -32.955813 39.583216 0.917902 2.554528 0.076162 -0.015539 -617279.000000 0 0 1
-12.601423 -16.219882 -33.028113 38.893916 0.910293 2.585236 0.079235 -0.016141 266936.000000 0 0 1
-11.620323 -15.899182 -32.030083 37.599762 0.939648 2.590340 0.064070 -0.010943 559797.000000 0 0 1
-11.194823 -14.365282 -31.964303 36.788613 0.908807 2.623699 0.066377 -0.008795 57155.000000 0 0 1
-10.334623 -13.801482 -32.949083 37.187732 0.928060 2.659486 0.070482 -0.016770 -42049.500000 0 0 1
-10.763223 -13.730382 34.242468 38.430678 0.905951 0.471211 0.075166 -0.018825 -502383.000000 0 0 1
-11.440323 -12.407082 33.748525 37.733005 0.825915 0.463701 0.074446 -0.013612 -395245.000000 0 0 1
-12.701823 -12.105082 34.225129 38.460744 0.761347 0.473732 0.056231 -0.009007 -481674.000000 0 0 1
-13.443623 -11.192582 33.418201 37.719770 0.694280 0.482237 0.045411 -0.011294 -74390.200000 0 0 1
-14.630923 -10.515582 34.031331 38.506790 0.623182 0.486927 0.050756 -0.005762 -383432.000000 0 0 1
-14.259023 -9.466982 -33.609793 37.716862 0.586105 2.670577 0.052905 -0.008145 -399669.000000 0 0 1
-15.380523 -8.861982 -33.060903 37.524905 0.522722 2.648850 0.058014 -0.009913 -438642.000000 0 0 1
-14.920323 -8.042482 -31.821293 36.054018 0.494381 2.652162 0.053204 -0.024353 -59578.900000 0 0 1
-14.398223 -6.753182 -32.167203 35.883746 0.438565 2.682440 0.050695 -0.025832 491819.000000 0 0 1
-15.413523 -5.750182 -32.304723 36.252399 0.357070 2.670572 0.053550 -0.023036 362690.000000 0 0 1
-15.852623 -5.004282 -31.009283 35.184146 0.305775 2.649492 0.050616 -0.034497 -71484.700000 0 0 1
-16.325823 -5.895882 -30.021963 34.678699 0.346563 2.617379 0.049371 -0.039776 -208093.000000 0 0 1
-16.692423 -5.332282 -28.756093 33.674666 0.309198 2.594304 0.051188 -0.043772 -117749.000000 0 0 1
-15.600523 -4.721682 -27.852463 32.271199 0.293897 2.612123 0.052170 -0.046465 -118196.000000 0 0 1
-15.073723 -3.592682 -28.503743 32.443610 0.233975 2.643641 0.052862 -0.035815 158371.000000 0 0 1
-13.899923 -3.094682 -27.855883 31.284743 0.219067 2.669016 0.056830 -0.037696 314388.000000 0 0 1
-13.495523 -1.845682 -28.664703 31.736428 0.135919 2.697990 0.053175 -0.018558 -33207.500000 0 0 1
-13.332923 -2.025682 -30.064033 32.950209 0.150778 2.719926 0.054130 -0.014740 278718.000000 0 0 1
-13.077123 -0.846682 -30.742353 33.418861 0.064655 2.738648 0.051913 -0.014694 -137248.000000 0 0 1
-13.319523 -0.974682 -32.260853 34.915932 0.073047 2.749099 0.044329 -0.014169 5884.190000 0 0 1
-14.648423 -0.969682 -32.759253 35.898262 0.066101 2.720293 0.032850 -0.011336 321094.000000 0 0 1
-14.720023 -1.546682 -34.048113 37.126073 0.104689 2.731526 0.023120 -0.005327 154300.000000 0 0 1
-16.116123 -1.645682 33.757254 37.443156 0.101761 0.447434 0.018769 -0.007366 186967.000000 0 0 1
-16.108923 -2.146682 32.488561 36.326468 0.132480 0.463821 0.036610 -0.017659 699524.000000 0 0 1
-17.392823 -1.938682 31.883413 36.370604 0.111006 0.501992 0.028511 -0.009585 267856.000000 0 0 1
-17.413323 -2.079682 30.328943 35.034179 0.118867 0.524258 0.045946 -0.009818 4041.230000 0 0 1
-16.815723 -1.000682 29.594193 34.052697 0.059439 0.517476 0.049593 -0.000742 107194.000000 0 0 1
-16.969923 -1.021682 28.155893 32.890370 0.060133 0.543212 0.054759 -0.010307 -7928.060000 0 0 1
-16.212023 0.135318 27.439623 31.871318 -0.008347 0.533661 0.039608 -0.007485 1095.040000 0 0 1
-16.595023 1.454318 27.789393 32.400003 -0.087412 0.540022 0.032613 -0.002444 418863.000000 0 0 1
-17.955223 1.887318 27.661443 33.031916 -0.104728 0.578259 0.034188 -0.008945 641481.000000 0 0 1
-18.324423 2.781318 26.458023 32.303981 -0.150632 0.611073 0.052154 -0.015612 -198153.000000 0 0 1
-17.851823 4.078318 26.724993 32.396690 -0.224599 0.600718 0.034616 -0.009450 237525.000000 0 0 1
-18.143323 4.827318 25.531023 31.690950 -0.260041 0.634067 0.044074 -0.008152 -163714.000000 0 0 1
-18.012823 6.369318 25.651783 31.985059 -0.339878 0.640173 0.036352 -0.016337 -85898.800000 0 0 1
-16.718123 6.904318 25.542303 31.298155 -0.391649 0.616173 0.023741 -0.017487 -305470.000000 0 0 1
-16.292923 7.097318 24.185273 30.012642 -0.410821 0.633710 0.026104 -0.006442 34444.800000 0 0 1
-15.185623 8.202318 24.123033 29.661455 -0.495239 0.621031 0.017382 -0.016682 66017.500000 0 0 1
-13.967523 7.701318 24.608243 29.325205 -0.503897 0.575078 0.005578 -0.008583 -347684.000000 0 0 1
-12.928723 8.133318 23.744803 28.233286 -0.561534 0.571628 0.018226 -0.014383 179387.000000 0 0 1
-11.513623 8.108318 24.372033 28.147901 -0.613564 0.523937 0.011086 -0.005244 -109032.000000 0 0 1
-10.511823 8.749318 23.624253 27.297515 -0.694147 0.524776 0.006732 -0.007503 398909.000000 0 0 1
-9.287423 8.915318 24.342643 27.537309 -0.764959 0.486472 0.006165 0.000531 276157.000000 0 0 1
-9.113223 10.225318 25.131833 28.621967 -0.842842 0.499001 0.005273 -0.008186 -391664.000000 0 0 1
-10.130823 10.340318 26.144163 29.884327 -0.795631 0.505680 -0.010546 -0.008103 729522.000000 0 0 1
-10.155823 11.627318 26.760663 30.894471 -0.852848 0.523258 -0.006032 -0.008511 -699887.000000 0 0 1
-10.730223 12.800318 25.915933 30.832149 -0.873147 0.572500 -0.026258 -0.009868 -799177.000000 0 0 1
-12.100523 12.819318 25.689313 31.156033 -0.814234 0.601412 -0.013037 -0.015313 -561984.000000 0 0 1
-12.536123 11.856318 24.741003 30.163619 -0.757536 0.608989 -0.007567 -0.013891 -365654.000000 0 0 1
-14.080623 11.758318 24.564533 30.658413 -0.695763 0.641443 -0.001480 -0.022837 434194.000000 0 0 1
-14.631723 12.935318 23.956523 30.908329 -0.723938 0.683950 0.001066 -0.020168 -644830.000000 0 0 1
-15.901723 12.777318 23.419333 31.057846 -0.676882 0.716582 0.022954 -0.011312 -588708.000000 0 0 1
-15.953623 12.190318 21.963723 29.757807 -0.652470 0.740572 0.024666 -0.007779 -237471.000000 0 0 1
-15.771923 10.783318 21.919123 29.077164 -0.599705 0.716931 0.027462 -0.013138 20164.800000 0 0 1
-15.926123 10.288318 20.573623 27.977935 -0.573560 0.744611 0.025010 -0.011027 -66069.500000 0 0 1
-16.267323 8.775318 20.585623 27.665861 -0.494703 0.731639 0.029825 -0.009986 1773040.000000 0 0 1
-17.676123 8.569318 20.924423 28.700349 -0.451411 0.753841 0.044642 -0.002819 1228180.000000 0 0 1
-18.115623 7.271318 20.683923 28.440685 -0.381699 0.756467 0.039683 -0.003519 -80617.500000 0 0 1
-19.574523 7.187318 21.180123 29.722334 -0.351895 0.777600 0.059146 -0.012498 10403.100000 0 0 1
-19.645123 7.373318 22.598023 30.837758 -0.359056 0.748363 0.052250 -0.018842 -694722.000000 0 0 1
-20.981823 7.398318 22.958223 31.969548 -0.338995 0.769688 0.048278 -0.015059 -685079.000000 0 0 1
-21.274723 8.381318 24.154463 33.261065 -0.375286 0.758006 0.060783 -0.022309 -869027.000000 0 0 1
-21.407123 9.807318 24.015653 33.633317 -0.429597 0.775539 0.063427 -0.023714 592360.000000 0 0 1
-20.280223 10.586318 23.552803 32.834313 -0.481094 0.770844 0.060267 -0.019619 711437.000000 0 0 1
-19.013123 10.522318 24.444113 32.706768 -0.505468 0.726699 0.054139 -0.023463 -436377.000000 0 0 1
-19.071423 11.173318 25.690213 33.890253 -0.529963 0.710492 0.064170 -0.028588 113597.000000 0 0 1
-19.701223 10.463318 26.773243 34.848612 -0.488217 0.694658 0.030144 -0.017994 -137729.000000 0 0 1
-29.802513 -14.226177 20.610523 38.927722 0.445363 1.012837 0.057837 -0.000535 -240764.000000 0 0 1
-29.519313 -15.559677 20.889723 39.368438 0.485093 1.011463 0.070211 -0.000904 -331401.000000 0 0 1
-30.277463 -16.524277 20.182123 39.963666 0.499583 1.041401 0.073911 -0.000022 -94086.800000 0 0 1
-30.244013 -16.507577 18.645823 39.177381 0.499623 1.074771 0.071999 -0.002578 286593.000000 0 0 1
-31.049863 -15.475377 18.088423 39.125086 0.462370 1.090183 0.077912 -0.014553 29306.800000 0 0 1
-30.450953 -14.982077 16.915923 37.919278 0.457233 1.108389 0.074608 -0.015485 -951923.000000 0 0 1
-31.166903 -13.814277 16.274423 37.776540 0.417214 1.125409 0.064817 -0.011475 336700.000000 0 0 1
-32.394673 -14.182577 15.624623 38.661210 0.412667 1.154756 0.084430 -0.016201 1009470.000000 0 0 1
-33.578903 -14.251477 16.397823 39.994199 0.401377 1.148337 0.080406 -0.017370 -61378.600000 0 0 1
-34.272050 -12.917477 16.883423 40.329699 0.360444 1.138855 0.069810 -0.018648 -797356.000000 0 0 1
-35.464988 -13.140777 17.558523 41.698287 0.354844 1.136155 0.047863 -0.012340 -594035.000000 0 0 1
-36.120323 -11.949077 17.843123 42.021842 0.319481 1.132259 0.044674 -0.001909 -42900.400000 0 0 1
35.291073 -12.033177 19.093223 41.890433 -0.328607 1.097537 0.055245 0.011392 -98212.600000 0 0 1
36.032673 -12.464977 20.237123 43.165615 -0.333049 1.082836 0.042289 0.009620 153354.000000 0 0 1
35.300393 -12.315177 21.430723 43.093587 -0.335666 1.050305 0.032087 0.007854 -1051960.000000 0 0 1
36.078633 -12.759877 22.690023 44.489542 -0.339939 1.035602 0.025797 0.004370 213721.000000 0 0 1
-35.097192 -11.969777 23.059723 43.667371 0.328676 1.014462 0.029312 0.002856 -167797.000000 0 0 1
-33.987913 -12.443377 22.368423 42.548352 0.350956 1.017238 0.037353 -0.003966 -833294.000000 0 0 1
-32.726343 -11.511077 22.425523 41.308867 0.338222 0.996940 0.054915 -0.003301 486347.000000 0 0 1
-32.897013 -10.275777 21.752423 40.755036 0.302759 1.007784 0.064826 -0.003365 -252369.000000 0 0 1
-31.682453 -9.606177 21.543423 39.499058 0.294392 0.993911 0.076392 -0.002936 -512911.000000 0 0 1
-31.720133 -8.219077 20.744923 38.782366 0.253536 1.006400 0.074293 -0.002680 -181434.000000 0 0 1
-32.049763 -8.270277 19.344123 38.337709 0.252536 1.041911 0.067684 -0.003476 414648.000000 0 0 1
-33.361393 -8.691577 19.008923 39.368328 0.254863 1.066892 0.067053 -0.008360 -151057.000000 0 0 1
-33.750253 -8.514777 17.516723 38.966866 0.247131 1.104559 0.065788 -0.013539 730412.000000 0 0 1
-35.093674 -8.914977 17.183823 40.079004 0.248772 1.127689 0.020634 -0.010281 943951.000000 0 0 1
-35.391627 -8.498177 15.846123 39.697429 0.235657 1.160182 0.029920 -0.008328 512447.000000 0 0 1
35.384583 -8.479077 15.527923 39.561090 -0.235192 1.167443 0.029521 -0.011850 350114.000000 0 0 1
34.807913 -9.752577 15.566523 39.357594 -0.273178 1.164168 0.025348 0.014134 -393710.000000 0 0 1
33.416143 -9.539577 15.589123 38.087569 -0.278081 1.149113 0.011437 0.009077 -5945.750000 0 0 1
32.617283 -10.893677 15.771223 37.832404 -0.322337 1.140796 0.015360 0.013415 183699.000000 0 0 1
32.616943 -11.515877 17.051323 38.564595 -0.339402 1.112802 0.004572 0.005683 137513.000000 0 0 1
31.810383 -12.684877 17.021523 38.243154 -0.379442 1.109525 0.011864 0.011178 90150.000000 0 0 1
31.512753 -13.268977 18.429423 38.842798 -0.398535 1.076444 0.006836 0.016500 -39585.400000 0 0 1
32.502373 -14.164677 18.862923 40.160331 -0.410986 1.081856 0.002533 0.010258 -126905.000000 0 0 1
32.272443 -14.317777 20.290023 40.720933 -0.417564 1.049194 0.002957 0.014897 -256795.000000 0 0 1
33.102263 -15.418377 20.912923 42.081308 -0.435899 1.050699 -0.004297 0.020340 -317720.000000 0 0 1
33.120323 -15.277077 22.311623 42.756911 -0.432178 1.021807 -0.016751 0.012368 -111998.000000 0 0 1
33.478883 -16.531277 22.888623 43.795066 -0.458661 1.020863 -0.008566 0.025046 153039.000000 0 0 1
33.719503 -16.310677 24.403233 44.705266 -0.450536 0.993370 0.004947 0.020426 1003710.000000 0 0 1
34.891313 -15.496477 24.658363 45.448646 -0.417966 0.997321 0.019426 0.022571 801845.000000 0 0 1
35.182503 -15.507277 26.060233 46.448034 -0.415149 0.975128 0.013121 0.017672 300667.000000 0 0 1
-35.931568 -14.515677 26.352053 46.863773 0.383934 0.973617 0.020556 0.007111 362318.000000 0 0 1
-34.727523 -14.942777 25.744253 45.738977 0.406340 0.972965 0.009097 0.010763 -548090.000000 0 0 1
-33.754473 -13.962077 25.870683 44.761549 0.392206 0.954561 0.014533 0.000757 -318019.000000 0 0 1
-32.345383 -14.565277 25.675893 43.790668 0.423107 0.944272 0.024369 0.001739 -720003.000000 0 0 1
-32.024473 -14.772177 24.318513 42.838933 0.432193 0.967120 0.030646 0.005633 1093730.000000 0 0 1
-30.603033 -14.972877 24.112693 41.739126 0.455020 0.954888 0.050115 -0.006645 1217660.000000 0 0 1
-30.069763 -16.355577 24.511543 42.101203 0.498164 0.949358 0.053423 -0.006986 -874902.000000 0 0 1
-30.036783 -16.494677 25.944843 42.981596 0.502190 0.922754 0.048247 -0.016714 -56452.800000 0 0 1
-30.086013 -17.867077 26.295163 43.770267 0.535897 0.926352 0.057732 -0.025356 -359148.000000 0 0 1
-29.694363 -18.061377 27.775173 44.490772 0.546458 0.896573 0.043811 -0.027728 -360225.000000 0 0 1
-28.410453 -17.560677 28.027873 43.601524 0.553627 0.872624 0.048595 -0.028279 -223901.000000 0 0 1
-27.941773 -17.906377 29.356433 44.307801 0.569913 0.846569 0.048973 -0.032113 722541.000000 0 0 1
-26.630713 -17.093777 29.641803 43.359297 0.570647 0.818069 0.037913 -0.029916 427667.000000 0 0 1
-26.839653 -15.819077 30.164573 43.364867 0.532583 0.801543 0.047892 -0.036757 293633.000000 0 0 1
-25.627843 -15.062277 30.118213 42.317435 0.531349 0.778851 0.035541 -0.029219 43144.700000 0 0 1
-25.622183 -13.708877 30.880003 42.402879 0.491285 0.755028 0.039214 -0.025153 -167924.000000 0 0 1
-25.427883 -13.823677 32.238853 43.324531 0.497949 0.731573 0.040092 -0.024241 104863.000000 0 0 1
-25.159013 -12.592877 32.820918 43.229263 0.464073 0.708668 0.049351 -0.013864 -499397.000000 0 0 1
-24.536723 -12.651677 34.233886 43.978116 0.476067 0.678635 0.048301 -0.015234 53310.100000 0 0 1
-23.141223 -12.902877 34.103614 43.186305 0.508637 0.660500 0.034905 -0.008146 493964.000000 0 0 1
-22.696123 -14.284977 34.218499 43.475053 0.561758 0.664730 0.021126 -0.011001 -173584.000000 0 0 1
-22.649823 -14.922977 -32.861093 42.609402 0.582576 2.451547 0.015923 -0.009394 -124587.000000 0 0 1
-21.480123 -14.578577 -32.110893 41.292131 0.596288 2.461718 0.010963 -0.003904 382954.000000 0 0 1
-21.534523 -15.163777 -30.804753 40.529108 0.613513 2.434209 0.020062 -0.007335 -17882.800000 0 0 1
-20.232323 -15.253477 -29.975473 39.249770 0.646003 2.439838 0.022573 -0.007527 37389.400000 0 0 1
-19.863723 -14.111277 -29.200203 38.030875 0.617675 2.446201 0.029678 -0.011600 -9887.340000 0 0 1
-20.505923 -14.047077 -27.956013 37.407912 0.600605 2.414829 0.032580 -0.008342 -268886.000000 0 0 1
-20.116423 -12.890377 -27.040743 36.083709 0.569873 2.417935 0.029403 -0.006927 -431482.000000 0 0 1
-18.826723 -13.061477 -26.514633 35.043879 0.606535 2.428913 0.029396 -0.015591 -318297.000000 0 0 1
-18.414023 -11.841877 -25.895933 33.910259 0.571502 2.439761 0.026255 -0.022242 132719.000000 0 0 1
-16.982523 -11.903177 -25.331763 32.738203 0.611335 2.455564 0.056549 -0.032330 -979875.000000 0 0 1
-16.959523 -12.676277 -24.121513 32.096118 0.641863 2.421190 0.067328 -0.034170 1311200.000000 0 0 1
-15.646023 -13.090777 -23.623413 31.212692 0.696712 2.429281 0.076663 -0.043021 1507040.000000 0 0 1
-14.759823 -13.863577 -24.657013 31.906417 0.754097 2.454024 0.054856 -0.032541 -504957.000000 0 0 1
-13.956323 -13.058377 -25.524253 31.887108 0.752171 2.498853 0.053780 -0.033495 201178.000000 0 0 1
-13.388623 -13.786077 -26.585623 32.804062 0.800023 2.515694 0.064843 -0.026089 -404731.000000 0 0 1
-12.472723 -12.915477 -27.462443 32.811037 0.802836 2.562552 0.074370 -0.024697 -352449.000000 0 0 1
-13.046723 -11.912777 -28.215403 33.290242 0.739998 2.582163 0.080732 -0.029982 -454087.000000 0 0 1
-12.063123 -11.203477 -28.903273 33.263133 0.748467 2.623829 0.074965 -0.030822 -262486.000000 0 0 1
-12.693423 -10.074577 -29.790493 33.913029 0.670878 2.643380 0.055070 -0.019043 -193924.000000 0 0 1
-11.825823 -9.194577 -30.464903 33.948500 0.660870 2.684605 0.055654 -0.008951 -252405.000000 0 0 1
-11.646223 -9.675077 -31.780013 35.202427 0.693211 2.696984 0.060289 -0.002403 -500117.000000 0 0 1
-10.830923 -8.713877 -32.638663 35.475666 0.677501 2.738952 0.056375 -0.009872 -659254.000000 0 0 1
-9.542023 -8.537777 -32.161873 34.616902 0.729910 2.762714 0.040750 -0.010400 -1120210.000000 0 0 1
-8.926623 -7.408677 -32.665113 34.663853 0.692740 2.800349 0.031385 -0.014921 -20547.100000 0 0 1
-7.399023 -7.382577 -32.370393 34.016030 0.784286 2.829268 0.033457 -0.015051 216534.000000 0 0 1
-6.944323 -7.215577 -31.013983 32.590724 0.804552 2.829262 0.026854 -0.015974 109958.000000 0 0 1
-7.347823 -6.016377 -30.301373 31.754693 0.686098 2.837881 0.041034 -0.017370 -534843.000000 0 0 1
-6.666023 -4.728677 -30.789773 31.856026 0.616987 2.882134 0.032080 -0.016798 -975470.000000 0 0 1
-5.306223 -4.794877 -30.535863 31.362171 0.734819 2.911533 0.057998 -0.020961 -668406.000000 0 0 1
-4.624623 -3.661277 -31.128863 31.682774 0.669655 2.954327 0.057612 -0.026938 1508620.000000 0 0 1
-3.130623 -3.528177 -30.603883 30.965246 0.845031 2.988670 0.031508 -0.010436 -95554.200000 0 0 1
-2.197123 -4.509477 -30.979483 31.382975 1.117422 2.981064 0.024545 -0.011880 -1010820.000000 0 0 1
-0.929823 -4.144877 -30.586943 30.880506 1.350119 3.003596 0.030588 -0.011907 -614015.000000 0 0 1
-0.248823 -2.871577 -31.267993 31.400561 1.484362 3.049671 0.027380 -0.009031 -355393.000000 0 0 1
0.897277 -2.283277 -30.577913 30.676167 -1.196358 3.061534 0.050265 -0.011913 1046730.000000 0 0 1
1.295977 -1.122977 -31.249333 31.296349 -0.714001 3.086772 0.025034 -0.001845 85050.000000 0 0 1
1.593377 0.046723 -30.332453 30.374310 0.029315 3.089088 0.032976 -0.011037 -53526.700000 0 0 1
0.377377 0.486823 -29.784803 29.791171 0.911372 3.120915 0.043572 -0.009004 -165768.000000 0 0 1
0.539677 1.767223 -29.185443 29.243878 1.274410 3.078365 0.065433 -0.018033 874570.000000 0 0 1
-0.796023 2.434523 -28.630553 28.744897 -1.254781 3.052368 0.048000 -0.002996 1067440.000000 0 0 1
-1.854623 2.682223 -29.525093 29.704630 -0.965832 3.031591 0.029782 -0.019690 -229469.000000 0 0 1
-2.775723 3.532023 -28.926383 29.273118 -0.904729 2.987526 0.058875 -0.015651 -689540.000000 0 0 1
-4.056123 3.834223 -29.676913 30.197228 -0.757283 2.955688 0.070846 -0.017875 -273068.000000 0 0 1
-3.727523 4.773723 -30.720423 31.311775 -0.907847 2.946936 0.066463 -0.019603 747938.000000 0 0 1
-4.875823 5.066723 -31.517443 32.292329 -0.804596 2.922081 0.081190 -0.017318 64832.000000 0 0 1
-4.415823 5.727323 -32.863213 33.649554 -0.913984 2.924982 0.081416 -0.019492 370568.000000 0 0 1
-3.892723 4.912023 -33.943743 34.517517 -0.900652 2.959006 0.098609 -0.021021 725926.000000 0 0 1
-2.894323 3.929823 -33.603323 33.955912 -0.935990 2.997359 0.079570 -0.021147 235840.000000 0 0 1
-2.316423 3.266923 33.565814 33.803883 -0.954020 0.118751 0.069905 -0.019668 244438.000000 0 0 1
-3.305523 2.388423 33.009785 33.260742 -0.625704 0.122920 0.064252 -0.030318 400426.000000 0 0 1
-3.102923 1.992223 31.676733 31.890634 -0.570764 0.115886 0.065910 -0.025443 -197942.000000 0 0 1
-2.955923 2.991223 30.518323 30.806703 -0.791334 0.136935 0.071621 -0.021885 -617230.000000 0 0 1
-4.111823 3.719223 30.320013 30.822766 -0.735306 0.180863 0.051548 -0.013154 -719810.000000 0 0 1
-3.896323 4.748423 29.368143 30.003611 -0.883649 0.206179 0.057176 -0.013717 806924.000000 0 0 1
-5.272623 5.428323 29.050453 30.019928 -0.799947 0.254832 0.063919 -0.009891 589224.000000 0 0 1
-5.169223 6.138023 27.845763 28.979005 -0.870869 0.280582 0.061762 -0.000416 -1966.010000 0 0 1
-6.237523 7.039823 27.565633 29.126104 -0.845751 0.328821 0.052857 0.002861 -172224.000000 0 0 1
-6.251523 7.638323 26.126813 27.929123 -0.884911 0.361214 0.048710 -0.000418 -305118.000000 0 0 1
-5.351323 8.710623 25.961103 27.901442 -1.019896 0.375137 0.051817 0.002800 311.189000 0 0 1
-5.290523 9.366523 24.746563 26.983583 -1.056636 0.410060 0.048088 -0.000381 -311589.000000 0 0 1
-4.560023 10.703423 24.714183 27.315708 -1.168050 0.439978 0.056075 -0.005991 -758741.000000 0 0 1
-4.677023 11.496123 23.558553 26.627820 -1.184412 0.484872 0.060412 -0.008539 215213.000000 0 0 1
-4.143623 12.786823 23.855783 27.381944 -1.257420 0.513108 0.048209 -0.001920 1259110.000000 0 0 1
-2.548623 12.982723 23.823963 27.251198 -1.376952 0.506938 0.040542 -0.000106 1824360.000000 0 0 1
-1.768823 12.289723 24.822123 27.754348 -1.427851 0.463818 0.045391 0.004272 303877.000000 0 0 1
-1.925423 12.852023 26.084273 29.142256 -1.422088 0.462215 0.054283 0.000147 -817767.000000 0 0 1
-1.075823 12.249923 27.223053 29.871602 -1.483198 0.424280 0.051265 -0.000762 430463.000000 0 0 1
0.294677 12.632823 27.229893 30.019030 1.547474 0.434483 0.042362 0.003930 98989.500000 0 0 1
0.790577 12.470623 28.546203 31.161309 1.507486 0.412607 0.043372 -0.009669 386531.000000 0 0 1
2.326577 12.705423 28.642703 31.420458 1.389686 0.423651 0.046873 -0.008406 498312.000000 0 0 1
2.732777 14.085023 28.601133 31.998137 1.379157 0.464965 0.038032 -0.011100 404927.000000 0 0 1
4.160277 14.097523 28.565413 32.125238 1.283835 0.475226 0.044595 -0.014117 460453.000000 0 0 1
4.767677 15.495723 28.838943 33.083724 1.272311 0.512144 0.044810 -0.010793 -230740.000000 0 0 1
4.498577 15.936423 30.185883 34.429556 1.295672 0.501748 0.049674 -0.006371 154129.000000 0 0 1
3.348077 16.743723 30.344743 34.819037 1.373439 0.512546 0.039374 -0.001061 20046.700000 0 0 1
3.442477 18.153023 29.693283 34.972474 1.383385 0.556617 0.042910 0.002714 -275668.000000 0 0 1
4.301477 19.071923 30.324593 36.080769 1.348968 0.572657 0.065367 0.002439 -163502.000000 0 0 1
4.542477 20.142923 29.463403 35.978654 1.348994 0.611281 0.050137 -0.001825 490283.000000 0 0 1
5.768877 20.975223 29.968833 37.032025 1.302400 0.627891 0.058188 0.000398 348503.000000 0 0 1
5.435777 21.751423 31.117873 38.353541 1.325908 0.624351 0.049135 -0.018780 498675.000000 0 0 1
6.567977 22.362623 31.774403 39.406065 1.285126 0.632871 0.057340 -0.020307 475733.000000 0 0 1
6.883077 23.772023 31.217183 39.837148 1.288958 0.670325 0.056615 -0.011141 -25580.900000 0 0 1
7.278777 23.778823 29.842803 38.845925 1.273750 0.694717 0.044092 -0.015215 199771.000000 0 0 1
7.421377 25.075723 29.349933 39.310142 1.283051 0.727822 0.038574 -0.019699 316527.000000 0 0 1
8.072977 25.062823 27.913243 38.372740 1.259181 0.756236 0.059226 -0.019385 103439.000000 0 0 1
7.149077 24.603823 26.964483 37.195978 1.288015 0.759863 0.043886 -0.017705 439536.000000 0 0 1
7.761677 24.525323 25.676543 36.345838 1.264293 0.786326 0.057829 -0.017012 -30203.100000 0 0 1
28.601413 2.011823 6.555287 29.411903 0.070224 1.346030 0.070513 -0.004644 -119645.000000 0 0 1
28.856923 3.007423 7.520687 29.972109 0.103844 1.317163 0.071292 -0.006966 331106.000000 0 0 1
27.928293 2.919323 8.601187 29.368221 0.104151 1.273565 0.073634 -0.006426 -230115.000000 0 0 1
28.208733 3.746723 9.809387 30.099744 0.132048 1.238837 0.068083 -0.006920 -217655.000000 0 0 1
28.112783 5.163723 9.698287 30.183594 0.181654 1.243684 0.062079 -0.012505 614035.000000 0 0 1
29.216213 5.798723 9.029087 31.124535 0.195930 1.276470 0.079137 -0.019918 388873.000000 0 0 1
28.952343 7.304223 8.816287 31.133852 0.247127 1.283695 0.090297 -0.027233 384154.000000 0 0 1
27.941753 7.655423 7.868487 30.020995 0.267416 1.305599 0.076622 -0.021136 116832.000000 0 0 1
28.150763 8.945523 7.290887 30.424412 0.307681 1.328802 0.102149 -0.040107 -109815.000000 0 0 1
27.240933 9.385923 6.115687 29.454467 0.331813 1.361643 0.089796 -0.027084 196701.000000 0 0 1
26.002833 9.929923 6.562387 28.597476 0.364787 1.339259 0.075146 -0.017095 198240.000000 0 0 1
25.228233 10.197423 5.403487 27.742546 0.384128 1.374771 0.093800 -0.022298 -473050.000000 0 0 1
23.781633 10.617323 5.605087 26.640394 0.419898 1.358814 0.042407 -0.013399 -520240.000000 0 0 1
23.647733 11.805323 6.346187 27.181888 0.463020 1.335150 0.043803 -0.022244 -508640.000000 0 0 1
22.292833 12.105723 6.436587 26.171522 0.497478 1.322308 0.038694 -0.007544 -649660.000000 0 0 1
22.084133 13.567423 6.799487 26.795838 0.550905 1.314239 0.032990 -0.001411 -155018.000000 0 0 1
22.195733 14.453223 5.697587 27.092595 0.577198 1.358914 0.043137 0.003809 190040.000000 0 0 1
21.961333 15.743023 6.159787 27.714362 0.621947 1.346665 0.045702 -0.005328 -300539.000000 0 0 1
21.564233 16.630623 4.987987 27.685263 0.656940 1.389640 0.048368 -0.005552 -817920.000000 0 0 1
20.275933 16.325423 4.540887 26.424469 0.677881 1.398095 0.056774 -0.007289 -311539.000000 0 0 1
20.001233 17.194323 3.482887 26.604972 0.710077 1.439508 0.066480 -0.005041 -796486.000000 0 0 1
18.517333 17.223723 3.152387 25.485011 0.749220 1.446783 0.054101 -0.007472 -697760.000000 0 0 1
17.793733 18.024623 4.063987 25.651900 0.791844 1.411698 0.057916 -0.008744 -815686.000000 0 0 1
16.459733 18.070123 3.705287 24.722081 0.832002 1.420352 0.039675 -0.018530 -1243520.000000 0 1 0
15.711633 19.203723 4.416987 25.202146 0.885083 1.394624 0.057918 -0.020861 -1101490.000000 0 0 1
14.353933 18.996723 4.317387 24.198155 0.923721 1.391418 0.061576 -0.024837 -1204400.000000 0 1 0
13.537733 20.152423 4.345987 24.663292 0.979271 1.393659 0.046240 -0.025231 -827575.000000 0 1 0
12.158933 19.661423 3.986887 23.458612 1.016946 1.400013 0.038164 -0.025883 -721587.000000 0 1 0
11.370533 19.321023 5.137387 22.999645 1.038871 1.345528 0.028004 -0.023100 -70807.000000 0 1 0
10.009333 19.117123 4.845287 22.116237 1.088464 1.349922 0.029729 -0.021620 -88793.600000 0 1 0
9.302533 18.516423 6.047987 21.586412 1.105236 1.286819 0.016800 -0.022565 -624557.000000 0 1 0
9.082433 19.458223 7.071287 22.607878 1.134088 1.252678 0.020523 -0.023970 -154443.000000 0 1 0
8.657533 18.812623 8.278887 22.302637 1.139494 1.190488 0.028360 -0.019226 16128.000000 0 1 0
7.623233 19.686023 9.036587 22.963299 1.201337 1.166336 0.026783 -0.020843 1762950.000000 0 1 0
6.357633 20.023923 8.379387 22.618380 1.263361 1.191283 0.025669 -0.023142 1255660.000000 0 1 0
6.419033 21.295723 7.614587 23.509439 1.278034 1.240953 0.022442 -0.014448 -1437170.000000 0 1 0
5.245633 21.432923 6.701087 23.060603 1.330768 1.275957 0.013078 -0.005618 761968.000000 0 1 0
3.940433 21.722923 7.313987 23.257403 1.391352 1.250888 0.012276 -0.005852 1465330.000000 0 1 0
3.733733 22.933923 8.022787 24.581918 1.409408 1.238336 0.013233 -0.013068 -680938.000000 0 1 0
3.815533 24.187623 7.166287 25.513821 1.414338 1.286087 0.012402 -0.014010 15026.600000 0 0 1
2.788333 24.259323 6.171387 25.186813 1.456360 1.323251 0.016936 -0.012738 365959.000000 0 0 1
3.015333 25.179523 5.120787 25.871279 1.451611 1.371547 0.016802 -0.006623 547209.000000 0 0 1
1.702433 25.483923 4.301287 25.900380 1.504091 1.403953 0.021093 -0.010502 162216.000000 0 0 1
0.614233 25.916923 5.065887 26.414530 1.547101 1.377817 0.035222 -0.013840 -1834450.000000 0 0 1
-0.396567 26.049423 4.196987 26.388338 -1.555574 1.411071 0.041164 -0.018841 -2681420.000000 0 0 1
-1.624067 26.556823 4.865887 27.047723 -1.509718 1.389911 0.048788 -0.016740 -1351620.000000 0 0 1
-2.602367 26.864323 3.903287 27.270860 -1.474227 1.427173 0.070939 -0.022004 -535621.000000 0 0 1
-3.510167 27.749123 4.453287 28.322550 -1.444968 1.412906 0.064882 -0.020788 252429.000000 0 0 1
-4.578067 28.394623 3.420887 28.964043 -1.410942 1.452412 0.054365 -0.025123 743343.000000 0 0 1
-4.078267 29.351623 2.477987 29.737022 -1.432735 1.487370 0.058923 -0.023218 -303594.000000 0 0 1
-4.997467 29.693523 1.505087 30.148719 -1.404057 1.520853 0.076044 -0.027322 -607750.000000 0 0 1
-4.301967 30.588523 0.422487 30.892445 -1.431073 1.557120 0.067020 -0.025888 153699.000000 0 0 1
-3.974067 31.920623 0.849987 32.178282 -1.446935 1.544378 0.061477 -0.021482 -248228.000000 0 0 1
-2.889067 31.969223 1.723487 32.145736 -1.480671 1.517156 0.064832 -0.022686 -1196990.000000 0 0 1
-2.269567 33.416223 1.934387 33.549020 -1.502982 1.513106 0.054392 -0.020200 -137035.000000 0 0 1
-1.417867 33.828723 0.883587 33.869951 -1.528908 1.544706 0.030416 -0.011202 217526.000000 0 0 1
-0.664067 -33.606782 0.951487 33.626807 1.551039 1.542497 0.025398 -0.011520 -582317.000000 0 0 1
0.670033 -33.730082 1.621587 33.775686 -1.550934 1.522767 0.011873 -0.002450 -1132230.000000 0 0 1
0.433033 -33.846182 3.045087 33.985646 -1.558003 1.481077 0.008861 -0.004972 538904.000000 0 0 1
1.625033 -34.141582 3.768887 34.387394 -1.523235 1.460975 -0.004050 -0.003211 422489.000000 0 0 1
1.290033 -33.994482 5.221887 34.417395 -1.532866 1.418486 -0.000638 -0.009467 704489.000000 0 0 1
0.288633 33.755723 5.792587 34.250346 1.562246 1.400855 0.009372 -0.012359 394699.000000 0 0 1
-0.013467 33.999723 7.135987 34.740519 -1.570400 1.363916 0.019005 -0.016449 145990.000000 0 0 1
1.047433 33.631523 8.212887 34.635646 1.539662 1.331394 0.012575 -0.014453 -36782.900000 0 0 1
1.334433 32.275323 8.272187 33.345258 1.529475 1.320102 0.014241 -0.020425 202179.000000 0 0 1
2.428533 31.994923 9.138287 33.362871 1.495038 1.293344 0.027244 -0.013899 104297.000000 0 0 1
2.906433 30.447223 9.131487 31.919662 1.475627 1.280666 0.013969 -0.012562 -63256.400000 0 0 1
2.054533 29.582923 9.863987 31.251699 1.501458 1.249675 0.025894 -0.019666 380626.000000 0 0 1
2.492233 28.236223 9.708387 29.962448 1.482761 1.240822 0.025214 -0.018573 87878.300000 0 0 1
2.185533 27.322723 10.964787 29.521760 1.490977 1.190265 0.018498 -0.030343 -127276.000000 0 0 1
2.832733 27.826423 12.145787 30.493513 1.469346 1.161126 0.015317 -0.012104 -28603.600000 0 0 1
2.738733 27.075623 13.356387 30.314734 1.469988 1.114540 0.015511 -0.008819 -907542.000000 0 0 1
1.364033 26.840323 13.987887 30.297269 1.520020 1.090899 0.016755 -0.015590 -31240.500000 0 0 1
0.780533 28.038023 14.601487 31.621881 1.542965 1.090826 0.021113 -0.014260 51669.000000 0 0 1
0.045733 28.787023 13.681887 31.873011 1.569208 1.127120 0.023148 -0.020093 -669639.000000 0 0 1
-0.766167 29.902823 14.349887 33.176574 -1.545180 1.123499 0.016624 -0.011975 -425585.000000 0 0 1
-1.818367 29.575223 15.193487 33.299284 -1.509391 1.096997 0.018197 -0.008967 -356672.000000 0 0 1
-2.499667 30.766223 15.575287 34.574534 -1.489727 1.103489 0.017753 -0.005440 -510941.000000 0 0 1
-3.833667 30.486323 16.250187 34.758905 -1.445703 1.084323 0.024905 -0.007466 -321302.000000 0 0 1
-4.803167 29.945323 15.360687 33.996228 -1.411753 1.101975 0.027585 -0.015781 -182198.000000 0 0 1
-6.005067 29.672723 16.027687 34.255190 -1.371117 1.083894 0.028974 -0.011042 -1111000.000000 0 0 1
-7.159767 29.539723 15.060587 33.921657 -1.333004 1.110759 0.033172 -0.018366 -699673.000000 0 0 1
-8.385667 29.343223 15.737087 34.336570 -1.292437 1.094694 0.029097 -0.012596 -65339.100000 0 0 1
-9.360867 28.927923 14.815987 33.822537 -1.257838 1.117367 0.024580 -0.009328 262767.000000 0 0 1
-10.706067 28.352323 15.350987 33.972443 -1.209741 1.101941 0.033431 -0.007332 863138.000000 0 0 1
-11.507367 29.233623 16.191687 35.343952 -1.195789 1.094920 0.034039 -0.018948 663346.000000 0 0 1
-11.061167 29.398323 17.511587 35.962015 -1.210929 1.062206 0.038694 -0.022451 -544172.000000 0 0 1
-11.816267 30.496623 18.351087 37.502408 -1.201146 1.059474 0.040961 -0.020017 192463.000000 0 0 1
-13.203067 30.238323 18.474687 37.815225 -1.159113 1.060367 0.055184 -0.013693 547673.000000 0 0 1
-14.008467 31.244023 19.056087 39.186229 -1.149310 1.062951 0.053040 -0.014789 445686.000000 0 0 1
-14.972967 30.809823 20.181987 39.758616 -1.118427 1.038384 0.051838 -0.019869 77860.700000 0 0 1
-14.443867 30.901323 21.490987 40.315997 -1.133552 1.008579 0.051337 -0.026187 303145.000000 0 0 1
-15.316567 30.352523 22.481887 40.759148 -1.103458 0.986540 0.048665 -0.019529 -92954.600000 0 0 1
-14.680867 30.497823 23.846987 41.404394 -1.122160 0.957027 0.048984 -0.020078 164125.000000 0 0 1
-13.491467 29.675623 24.017387 40.490705 -1.144098 0.935821 0.044201 -0.024063 1069980.000000 0 0 1
-13.026167 29.469023 25.327887 40.982999 -1.154591 0.904588 0.043438 -0.017388 -100446.000000 0 0 1
-12.618767 30.749723 26.149387 42.291479 -1.181382 0.904201 0.043478 -0.009607 -1239970.000000 0 0 1
-13.674467 31.490423 26.620687 43.443052 -1.161124 0.911233 0.042781 -0.005451 -486795.000000 0 0 1
-13.217167 32.618123 27.325487 44.556904 -1.185807 0.910600 0.040669 -0.002656 -405658.000000 0 0 1
-14.346167 33.522023 27.864187 45.890647 -1.166419 0.918281 0.048003 -0.003767 -183625.000000 0 0 1
-14.994667 32.994923 28.977987 46.402896 -1.144245 0.896322 0.019206 -0.000957 128127.000000 0 0 1
-14.222067 33.129923 30.148487 46.997769 -1.165305 0.874360 0.041131 0.000443 -96730.300000 0 0 1
-14.929667 32.321523 31.296187 47.402818 -1.138081 0.849688 0.027263 -0.000709 344347.000000 0 0 1
-16.118067 32.983223 31.699687 48.503147 -1.116250 0.858519 0.023926 -0.002015 -249436.000000 0 0 1
-16.751767 32.412823 32.788487 49.054028 -1.093779 0.838720 0.013948 0.003979 230656.000000 0 0 1
-18.227667 32.845323 32.976887 49.985380 -1.064157 0.850336 0.018201 0.003509 244582.000000 0 0 1
-18.386367 34.240123 33.293987 51.175522 -1.078002 0.862443 0.029531 -0.002702 -327322.000000 0 0 1
-19.735167 -33.988482 33.274287 51.496329 1.044732 0.868269 0.023698 -0.000287 -185667.000000 0 0 1
-19.908167 -32.432882 33.532987 50.721674 1.020272 0.848489 0.033884 -0.003635 -221995.000000 0 0 1
-19.535767 -31.874482 -33.674349 50.314914 1.020948 2.304025 0.042222 -0.004011 -114484.000000 0 0 1
-20.402867 -32.284282 -32.626349 50.229777 1.007197 2.277778 0.038203 -0.007529 66346.200000 0 0 1
-20.077067 -31.628682 -31.289449 48.810775 1.005199 2.266643 0.048467 -0.006909 64251.000000 0 0 1
-20.177067 -30.223382 -31.415449 48.036417 0.982149 2.283646 0.067064 -0.011601 -14827.100000 0 0 1
-19.766267 -29.532482 -30.251049 46.669035 0.980969 2.276020 0.061192 -0.006090 -121796.000000 0 0 1
-20.047967 -28.005182 -30.392049 45.933516 0.949501 2.293818 0.062232 -0.016108 847341.000000 0 0 1
-21.432967 -27.787982 -30.076749 46.218556 0.913800 2.279369 0.059250 -0.016226 539360.000000 0 0 1
-21.707467 -26.421682 -30.244049 45.651089 0.883036 2.294954 0.060565 -0.018656 285802.000000 0 0 1
-23.061267 -26.042082 -29.568649 45.654322 0.846029 2.275311 0.054283 -0.020481 399080.000000 0 0 1
-23.044267 -26.183882 -28.173449 44.837230 0.849089 2.250226 0.050339 -0.013351 220030.000000 0 0 1
-22.342667 -25.125982 -27.518449 43.448530 0.843966 2.256680 0.062785 -0.020331 -101247.000000 0 0 1
-22.232267 -25.372182 -26.010449 42.597709 0.851261 2.227623 0.054748 -0.012054 173454.000000 0 0 1
-23.497667 -25.365782 -25.364049 42.882377 0.823611 2.203689 0.036354 -0.008911 183766.000000 0 0 1
-23.414967 -25.599182 -23.943249 42.152793 0.829932 2.174883 0.040612 0.001282 -454146.000000 0 0 1
-24.750567 -25.441982 -23.214649 42.412321 0.799173 2.149998 0.034475 0.004115 1084340.000000 0 0 1
-25.867167 -26.393182 -23.420549 43.751943 0.795463 2.135663 0.022761 0.005996 886523.000000 0 0 1
-25.639567 -27.760982 -23.279249 44.384490 0.825104 2.122913 0.028419 0.013700 -176064.000000 0 0 1
-26.962367 -28.619782 -23.117349 45.612202 0.815209 2.102293 0.005906 0.010762 1741040.000000 0 0 1
-27.789667 -28.374382 -21.942049 45.374273 0.795809 2.075535 0.018698 0.012692 539900.000000 0 0 1
-28.528267 -27.162282 -21.962949 45.100141 0.760875 2.079427 0.017749 0.011532 -433086.000000 0 0 1
-29.158667 -26.723082 -20.629949 44.608808 0.741841 2.051568 0.023272 0.020005 354204.000000 0 0 1
-30.185267 -27.619682 -20.175749 45.618615 0.741044 2.028925 0.006635 0.015887 494638.000000 0 0 1
-30.683767 -27.246782 -18.882249 45.171009 0.726138 2.002058 0.006616 0.014276 -376893.000000 0 0 1
-31.709867 -28.278882 -18.345449 46.279222 0.728267 1.978397 -0.008685 0.011214 -613895.000000 0 0 1
-33.030867 -28.275782 -18.815749 47.377109 0.707991 1.979204 -0.015265 0.016452 -150623.000000 0 0 1
-33.858467 -27.228582 -18.384149 47.178050 0.677290 1.971076 -0.025963 0.018594 -572238.000000 0 0 1
-34.177667 -27.080882 -16.866549 46.754332 0.670063 1.939866 -0.005984 0.018325 -831966.000000 0 0 1
-33.052067 -26.534182 -16.227349 45.385337 0.676446 1.936435 -0.011403 0.021191 94350.800000 0 0 1
-33.344667 -25.922582 -14.981849 44.814093 0.660816 1.911671 -0.010845 0.017221 -52402.300000 0 0 1
-33.309367 -26.847982 -13.718649 44.928047 0.678400 1.881099 0.010578 0.022210 -111306.000000 0 0 1
-34.274567 -27.856182 -13.680749 46.237168 0.682459 1.871175 0.004699 0.018254 54084.500000 0 0 1
-33.922367 -28.667282 -12.537449 46.148973 0.701634 1.845928 -0.005935 0.002901 56800.100000 0 0 1
-34.622867 -30.033782 -12.328949 47.463396 0.714541 1.833567 0.002053 0.004572 -122321.000000 0 0 1
-34.136267 -31.023682 -13.244649 47.991398 0.737666 1.850405 -0.010775 0.008619 100199.000000 0 0 1
-34.663067 -32.275982 -12.989949 49.112178 0.749753 1.838477 -0.008586 -0.000998 -412746.000000 0 0 1
-34.205467 -33.281782 -14.074349 49.757194 0.771712 1.857572 -0.008832 0.015939 -43824.700000 0 0 1
-32.807667 -33.536482 -14.040949 48.971287 0.796383 1.861596 -0.008211 0.012261 341712.000000 0 0 1
-32.394267 -34.245182 -15.208049 49.531867 0.813166 1.882873 0.009667 -0.008116 1327930.000000 0 0 1
-30.821467 34.183223 -15.305949 48.504924 -0.837068 1.891837 0.006739 -0.003207 1355890.000000 0 0 1
-30.486667 33.351323 -16.364949 48.057873 -0.830242 1.918272 0.013395 -0.004516 -183908.000000 0 0 1
-29.095267 33.069723 -16.324249 46.974698 -0.849245 1.925712 0.020238 -0.006025 19096.900000 0 0 1
9.421877 19.824523 -8.787713 23.643337 1.127133 1.951612 0.035051 -0.017895 -892635.000000 0 1 0
8.071077 20.154023 -8.906413 23.465956 1.189885 1.960102 0.036091 -0.015797 -278388.000000 0 1 0
7.534077 20.363823 -10.228613 24.001502 1.216440 2.011046 0.042393 -0.013459 281830.000000 0 1 0
7.476477 19.112423 -11.161113 23.361354 1.197913 2.068899 0.030795 -0.006828 43877.300000 0 1 0
8.758477 18.644423 -11.581613 23.631741 1.131629 2.082986 0.048016 -0.010084 257920.000000 0 1 0
8.602377 17.431223 -12.334013 23.021214 1.112359 2.136213 0.039153 -0.017887 118310.000000 0 1 0
9.845877 17.114723 -13.190013 23.745136 1.048746 2.159740 0.051969 -0.012379 313163.000000 0 1 0
9.657177 15.873823 -13.863613 23.182732 1.024244 2.211818 0.053730 -0.028568 538119.000000 0 1 0
10.825877 15.690023 -14.662013 24.048930 0.966824 2.226446 0.073885 -0.027811 128184.000000 0 1 0
10.694377 14.446523 -15.595113 23.796623 0.933549 2.285442 0.075199 -0.028344 -262869.000000 0 1 0
10.588277 13.176923 -14.941813 22.561043 0.893896 2.294659 0.072031 -0.030520 610267.000000 0 1 0
11.732977 12.725723 -14.200913 22.389120 0.825965 2.257870 0.074081 -0.035598 -101814.000000 0 1 0
12.816277 12.042523 -15.027613 23.132412 0.754282 2.277900 0.084293 -0.037292 -746537.000000 0 1 0
13.677677 12.915123 -15.727313 24.519943 0.756731 2.267130 0.087766 -0.029909 -161523.000000 0 1 0
14.478377 12.132923 -16.549513 25.114092 0.697488 2.290249 0.088889 -0.039200 -376162.000000 0 0 1
15.060977 12.890523 -17.798113 26.641536 0.707903 2.302393 0.067037 -0.027106 80631.600000 0 0 1
16.123477 13.742623 -17.385813 27.406070 0.705849 2.258000 0.047454 -0.016239 19248.600000 0 0 1
16.665977 14.262123 -18.608213 28.765057 0.707830 2.274313 0.034894 -0.006842 -135238.000000 0 0 1
17.935777 15.108223 -18.392013 29.802963 0.700037 2.235874 0.035427 -0.000433 -482850.000000 0 0 1
17.857177 16.370023 -17.765813 30.041314 0.741976 2.203565 0.038155 -0.006099 -44285.000000 0 0 1
17.440077 17.387623 -18.585313 30.852870 0.783892 2.217282 0.051965 -0.000164 -360758.000000 0 0 1
17.274777 18.792823 -17.922413 31.189758 0.827462 2.182942 0.051390 0.009172 205290.000000 0 0 1
18.439377 19.581223 -17.677213 32.185692 0.815421 2.152234 0.046199 0.004337 308847.000000 0 0 1
18.065077 20.915523 -17.371213 32.642995 0.858393 2.131943 0.037209 0.010260 -174260.000000 0 0 1
19.147477 22.018023 -17.526413 34.038131 0.855017 2.111693 0.044555 0.000554 166484.000000 0 0 1
20.199077 21.942723 -16.581413 34.123732 0.826750 2.078212 0.041837 -0.001702 -446872.000000 0 0 1
19.936677 22.368623 -15.270413 33.630520 0.842821 2.042118 0.041223 -0.000895 -452274.000000 0 0 1
21.099477 23.016923 -14.459713 34.410027 0.828834 2.004482 0.036080 -0.002737 -100664.000000 0 0 1
21.991277 22.071823 -13.895113 34.115331 0.787226 1.990290 0.048661 -0.006182 -539534.000000 0 0 1
22.995377 22.709823 -13.197713 34.909928 0.779151 1.958486 0.043879 -0.004501 -235087.000000 0 0 1
24.372977 22.800823 -13.902013 36.155020 0.752084 1.965475 0.051829 -0.007296 -43838.400000 0 0 1
24.347277 23.656123 -14.998313 37.112686 0.771001 1.986823 0.045031 -0.009098 -494127.000000 0 0 1
25.690877 23.866923 -15.270213 38.246968 0.748610 1.981498 0.047299 -0.005579 -629049.000000 0 0 1
25.927477 24.388523 -16.705313 39.320498 0.754822 2.009592 0.040673 -0.012127 -11777.600000 0 0 1
26.695877 23.507523 -17.536513 39.658577 0.721975 2.028832 0.043503 -0.015894 369002.000000 0 0 1
26.791077 24.015123 -18.857313 40.621253 0.730814 2.053553 0.040687 -0.016723 -961741.000000 0 0 1
27.237277 23.007623 -19.899113 40.831295 0.701415 2.079848 0.041306 -0.019057 -1351450.000000 0 0 1
28.592577 22.766123 -19.773613 41.555115 0.672435 2.066716 0.034217 -0.017492 -1172470.000000 0 0 1
29.050277 22.055023 -20.889013 42.032053 0.649364 2.090909 0.036860 -0.015431 24134.800000 0 0 1
30.588377 22.194223 -20.999913 43.234577 0.627686 2.077983 0.054608 -0.008935 68136.200000 0 0 1
31.018177 23.389723 -21.696913 44.496769 0.646098 2.080142 0.044040 -0.015526 -880332.000000 0 0 1
32.400677 23.374923 -21.620613 45.427324 0.624966 2.066827 0.054384 -0.008030 -888551.000000 0 0 1
33.038077 24.698723 -22.081413 46.788142 0.641953 2.062292 0.041502 -0.013271 -279548.000000 0 0 1
33.054377 24.853623 -23.496413 47.564439 0.644717 2.087470 0.041844 -0.011510 -261261.000000 0 0 1
31.837777 25.248823 -24.058213 47.222290 0.670486 2.105362 0.033564 -0.015430 -701800.000000 0 0 1
31.912277 25.301223 -25.599433 48.102768 0.670358 2.131972 0.039339 -0.014718 -297049.000000 0 0 1
31.796077 26.658523 -25.979103 48.954889 0.697734 2.130192 0.046583 -0.020403 -672721.000000 0 0 1
30.530977 27.139623 -26.344163 48.607763 0.726660 2.143581 0.051495 -0.012691 -244783.000000 0 0 1
30.186577 26.876723 -27.809123 49.060524 0.727460 2.173453 0.041258 -0.007757 -258952.000000 0 0 1
29.716177 25.585823 -28.036313 48.204983 0.710849 2.191498 0.029161 -0.013216 -224006.000000 0 0 1
29.562677 25.328623 -29.412243 48.791096 0.708415 2.217827 0.032762 -0.014971 -184238.000000 0 0 1
28.812877 23.964523 -29.647363 47.785420 0.693791 2.240083 0.032657 -0.014399 750121.000000 0 0 1
27.492977 24.022323 -29.085473 46.678694 0.718128 2.243496 0.039202 -0.011329 1026210.000000 0 0 1
26.702777 22.826223 -29.448473 45.839800 0.707289 2.268450 0.046923 -0.018608 1302780.000000 0 0 1
25.266777 22.807223 -28.820833 44.600671 0.734281 2.273387 0.048367 -0.015438 503143.000000 0 0 1
25.249177 22.678123 -27.411063 43.625504 0.731805 2.250197 0.052198 -0.008251 -211708.000000 0 0 1
23.980077 22.795123 -26.824723 42.593749 0.760071 2.252067 0.054186 -0.014611 -292036.000000 0 0 1
24.010977 23.068223 -25.331763 41.837401 0.765376 2.221167 0.050990 -0.007683 -52475.400000 0 0 1
24.506777 21.942623 -24.604413 41.078437 0.730251 2.213000 0.050771 -0.010256 263139.000000 0 0 1
24.896977 22.352523 -23.303613 40.774417 0.731599 2.179160 0.048208 -0.002156 -179948.000000 0 0 1
25.260877 21.234823 -22.333313 39.847289 0.699024 2.165753 0.063665 -0.002145 136618.000000 0 0 1
26.586577 20.764123 -22.527013 40.564285 0.663048 2.159569 0.041150 -0.007532 189448.000000 0 0 1
26.620177 19.455123 -22.017113 39.647054 0.631126 2.159553 0.073498 -0.012617 332232.000000 0 0 1
27.709777 18.542623 -22.714113 40.343420 0.589735 2.168831 0.078683 -0.012182 189779.000000 0 0 1
28.977077 18.867923 -22.210013 41.096888 0.577171 2.141745 0.078757 -0.020157 -718111.000000 0 0 1
29.981177 18.350723 -23.032713 42.025300 0.549251 2.150849 0.057611 -0.018811 -500965.000000 0 0 1
31.316377 18.031023 -22.372313 42.501219 0.522413 2.125148 0.067155 -0.014571 -272882.000000 0 0 1
32.004777 19.236823 -22.042813 43.361812 0.541199 2.104060 0.056283 -0.011531 229903.000000 0 0 1
33.263177 18.938723 -21.443913 43.874316 0.517585 2.081462 0.056616 -0.012146 598566.000000 0 0 1
33.730077 20.023823 -20.465413 44.243697 0.535736 2.051678 0.044851 -0.014024 143472.000000 0 0 1
32.791577 20.137723 -19.408313 43.098701 0.550732 2.037923 0.056468 -0.018288 364963.000000 0 0 1
33.283477 21.079423 -18.449713 43.503147 0.564567 2.008765 0.053359 -0.005076 121481.000000 0 0 1
32.500977 21.033523 -17.114213 42.327519 0.574380 1.987041 0.061677 -0.019478 -18367.500000 0 0 1
32.798877 19.887023 -16.352813 41.697416 0.545063 1.973795 0.066057 -0.030794 175200.000000 0 0 1
32.544577 19.948023 -14.943413 40.992422 0.549883 1.943936 0.064343 -0.024557 -108030.000000 0 0 1
33.152177 18.726023 -14.193913 40.634935 0.514173 1.927624 0.060022 -0.028146 892368.000000 0 0 1
34.580977 18.547623 -14.345713 41.781069 0.492306 1.921282 0.057304 -0.031140 969780.000000 0 0 1
35.097577 17.417723 -13.653913 41.492726 0.460656 1.906112 0.042144 -0.014660 102246.000000 0 0 1
35.266877 17.587723 -12.116313 41.229669 0.462610 1.869073 0.054476 -0.021869 -732285.000000 0 0 1
36.110977 18.660323 -11.829113 42.333653 0.476957 1.853992 0.049917 -0.024674 177522.000000 0 0 1
35.691377 19.298323 -10.579113 41.931102 0.495675 1.825850 0.030326 -0.012604 749287.000000 0 0 1
34.348877 20.124123 -10.615313 41.200856 0.529968 1.831383 0.033273 -0.013823 248365.000000 0 0 1
33.165577 19.405023 -10.781613 39.909317 0.529388 1.844348 0.057058 -0.031037 -1215960.000000 0 0 1
32.109977 20.275923 -10.560113 39.416743 0.563226 1.842019 0.045793 -0.013092 -448896.000000 0 0 1
30.747877 19.640923 -10.939513 38.090297 0.568442 1.862098 0.033158 -0.010836 54634.800000 0 0 1
30.506977 19.376723 -12.336613 38.188022 0.565870 1.899746 0.050846 -0.015787 174261.000000 0 0 1
29.274077 18.675323 -12.482513 36.899219 0.567856 1.915892 0.048027 -0.015110 370350.000000 0 0 1
29.048777 18.001023 -13.859613 36.877597 0.554766 1.956086 0.081481 -0.027428 -554217.000000 0 0 1
29.935277 16.926723 -13.989613 37.126056 0.514623 1.957151 0.081209 -0.025970 -106909.000000 0 0 1
29.713677 16.036923 -15.054113 36.969066 0.494913 1.990192 0.070267 -0.027973 963982.000000 0 0 1
31.076377 15.423023 -15.612213 38.044080 0.460679 1.993658 0.081697 -0.037319 1041770.000000 0 0 1
31.644577 14.441023 -14.779513 37.793603 0.428123 1.972578 0.067468 -0.034997 251568.000000 0 0 1
32.879677 14.043823 -15.352013 38.909978 0.403672 1.976377 0.074236 -0.029679 78755.000000 0 0 1
33.834477 13.220823 -14.475313 39.103666 0.372507 1.949997 0.054515 -0.037740 -693129.000000 0 0 1
34.612577 13.921923 -13.567913 39.698094 0.382420 1.919604 0.052661 -0.020283 -231503.000000 0 0 1
35.302977 12.953623 -12.818013 39.729057 0.351674 1.899309 0.035217 -0.014478 -174674.000000 0 0 1
-36.033879 13.519023 -11.752113 40.240733 -0.358924 1.867161 0.059704 -0.007583 215515.000000 0 0 1
-34.913079 14.139223 -12.354913 39.641955 -0.384795 1.887739 0.056141 -0.015125 -354468.000000 0 0 1
-34.100379 14.721423 -11.390613 38.849739 -0.407539 1.868365 0.047580 -0.008316 768021.000000 0 0 1
-32.593179 14.970623 -11.852113 37.774429 -0.430575 1.889947 0.064390 -0.019782 1436840.000000 0 0 1
-31.817279 13.915723 -12.368213 36.864065 -0.412296 1.912941 0.055805 -0.014787 213233.000000 0 0 1
-31.509979 12.868723 -11.463413 35.915076 -0.387728 1.895662 0.074721 -0.006034 -405036.000000 0 0 1
-30.492579 11.785623 -11.920213 34.796405 -0.368821 1.920448 0.085588 -0.017100 161862.000000 0 0 1
-30.887279 10.952523 -13.005513 35.257980 -0.340764 1.948586 0.062002 -0.006416 114212.000000 0 0 1
-30.026979 9.852323 -12.974313 34.161682 -0.317047 1.960367 0.081732 -0.012584 -171397.000000 0 0 1
-30.015879 9.045123 -14.322013 34.465741 -0.292690 1.999337 0.073174 -0.014142 -541561.000000 0 0 1
-31.217379 8.407523 -14.625213 35.483913 -0.263080 1.995625 0.048891 -0.008484 -258724.000000 0 0 1
-31.105579 7.507823 -15.726513 35.654560 -0.236836 2.027598 0.066577 -0.018370 20375.300000 0 0 1
-32.420479 7.098023 -16.459413 37.045670 -0.215536 2.031190 0.063342 -0.021832 257034.000000 0 0 1
-33.177579 6.213523 -15.631213 37.198044 -0.185136 2.004480 0.066088 -0.020219 319544.000000 0 0 1
-34.316579 5.693923 -16.295613 38.413479 -0.164425 2.008892 0.042972 -0.029223 288334.000000 0 0 1
-35.186979 4.790223 -15.366613 38.693701 -0.135304 1.979189 0.045523 -0.028336 1450240.000000 0 0 1
35.958477 4.080923 -15.898613 39.527609 0.113006 1.984732 0.044016 -0.026380 1256520.000000 0 0 1
34.965977 3.723023 -14.964713 38.215482 0.106076 1.973153 0.054096 -0.023926 347266.000000 0 0 1
33.923777 2.730323 -15.521713 37.405894 0.080311 1.998688 0.058392 -0.022447 -196282.000000 0 0 1
34.461777 1.372823 -15.468613 37.799163 0.039815 1.992408 0.072863 -0.024454 -180581.000000 0 0 1
33.566277 0.323123 -15.491713 36.970157 0.009626 2.003176 0.057039 -0.019103 -453591.000000 0 0 1
32.951577 0.046423 -14.086013 35.836076 0.001409 1.974762 0.068206 -0.023380 -263854.000000 0 0 1
33.926277 -0.464777 -13.204313 36.408270 -0.013699 1.941931 0.095307 -0.025072 -36161.800000 0 0 1
33.642277 -0.430277 -11.862113 35.674888 -0.012789 1.909756 0.089203 -0.022887 -553767.000000 0 0 1
33.919477 0.844823 -11.107713 35.701904 0.024902 1.887172 0.088863 -0.028321 -433624.000000 0 0 1
33.260777 1.903123 -11.725513 35.318392 0.057156 1.909214 0.073666 -0.021977 197489.000000 0 0 1
33.403577 3.078623 -10.977913 35.295771 0.091905 1.887069 0.076066 -0.018069 331759.000000 0 0 1
32.279877 4.132023 -11.304313 34.450712 0.127314 1.905120 0.072588 -0.021830 303173.000000 0 0 1
32.355477 4.495523 -12.700113 35.048245 0.138058 1.941596 0.058543 -0.013973 471121.000000 0 0 1
31.411177 5.477923 -13.124013 34.480565 0.172658 1.961264 0.060435 -0.018931 45607.800000 0 0 1
31.737277 6.191023 -14.485913 35.431980 0.192652 1.991976 0.038715 -0.013708 -376607.000000 0 0 1
31.674977 5.257423 -15.572013 35.685182 0.164481 2.022359 0.036014 -0.006522 270724.000000 0 0 1
31.948777 5.835223 -16.852913 36.589546 0.180652 2.049460 0.025859 -0.008143 -893026.000000 0 0 1
30.920977 6.879923 -17.352213 36.118409 0.218934 2.071936 0.033879 -0.009812 1046400.000000 0 0 1
29.696077 6.478423 -18.010313 35.329850 0.214792 2.105721 0.026226 -0.006177 1167410.000000 0 0 1
28.822077 5.682423 -17.230813 34.057348 0.194659 2.101262 0.018508 0.000151 -1197660.000000 0 0 1
27.433577 5.533523 -17.860513 33.199683 0.199036 2.138826 0.016710 0.002306 -340032.000000 0 0 1
27.466077 4.703423 -19.031113 33.744493 0.169600 2.169990 0.016533 0.001765 446320.000000 0 0 1
26.264277 4.888623 -19.767913 33.233737 0.184026 2.207831 0.015675 0.003914 148024.000000 0 0 1
25.829577 3.642723 -20.535013 33.198241 0.140105 2.237702 0.016553 0.013436 -394887.000000 0 0 1
25.140977 2.716023 -19.767313 32.096607 0.107614 2.234285 0.023969 0.005167 -18544.500000 0 0 1
24.818777 1.529023 -20.498513 32.225745 0.061530 2.260218 0.025743 0.003304 -29568.600000 0 0 1
23.822677 0.618223 -19.627413 30.872925 0.025945 2.259774 0.030376 -0.001361 822548.000000 0 0 1
22.521477 1.179123 -19.634213 29.901665 0.052308 2.287133 0.028651 -0.004636 -110561.000000 0 0 1
21.632877 0.445823 -18.837213 28.688338 0.020606 2.287119 0.027802 -0.010337 -11088.900000 0 0 1
20.304977 1.208023 -18.623313 27.578600 0.059424 2.312142 0.030189 -0.012883 -785462.000000 0 0 1
19.609277 1.492423 -19.827413 27.926285 0.075962 2.360282 0.035978 -0.015070 184707.000000 0 0 1
18.462277 2.302723 -19.697913 27.095497 0.124085 2.384711 0.021356 -0.010868 645885.000000 0 0 1
17.191177 1.718223 -19.016113 25.692439 0.099617 2.404081 0.046758 -0.013428 -726993.000000 0 0 1
17.373077 1.387723 -17.668513 24.817855 0.079709 2.363035 0.042357 -0.019670 616116.000000 0 1 0
16.142377 1.283723 -16.924813 23.423782 0.079358 2.378278 0.030833 -0.018981 917085.000000 0 1 0
15.344177 2.592223 -16.599813 22.753399 0.167358 2.388465 0.053170 -0.020817 -29924.100000 0 1 0
14.821177 3.294623 -17.692813 23.314319 0.218735 2.432391 0.059098 -0.013729 74934.000000 0 1 0
13.955977 4.276623 -17.191213 22.552086 0.297351 2.437639 0.076974 -0.023625 -254648.000000 0 1 0
-19.721323 -22.104777 -17.776813 34.548037 0.842321 2.111283 0.035734 -0.005752 231653.000000 0 0 1
-19.422923 -22.618177 -19.067513 35.389291 0.861255 2.139800 0.047255 -0.004474 -38443.800000 0 0 1
-20.500523 -22.281477 -19.892313 36.227611 0.827003 2.152074 0.041232 -0.000898 -137775.000000 0 0 1
-20.393123 -23.096577 -21.197213 37.398572 0.847481 2.173403 0.040063 0.006958 86636.000000 0 0 1
-20.693523 -24.472477 -20.964113 38.296450 0.868872 2.150070 0.037451 0.005215 13819.700000 0 0 1
-19.976823 -25.173097 -21.914713 38.897467 0.899983 2.169288 0.042731 -0.000193 1988.290000 0 0 1
-19.690023 -26.635487 -21.525213 39.502924 0.934217 2.147068 0.052452 0.011944 -133477.000000 0 0 1
-20.857923 -27.384057 -21.728913 40.707311 0.919861 2.133865 0.038714 0.019851 -88320.100000 0 0 1
-20.612123 -28.737117 -21.617713 41.448848 0.948577 2.119465 0.066832 -0.003932 540215.000000 0 0 1
-21.952223 -29.519407 -21.881813 42.803145 0.931369 2.107400 0.054932 -0.001576 686219.000000 0 0 1
-22.527623 -29.308607 -23.159813 43.621843 0.915475 2.130485 0.029419 0.005812 -64322.200000 0 0 1
-21.800423 -29.767877 -24.262213 44.159256 0.938689 2.152473 0.032402 0.000323 -1100890.000000 0 0 1
-22.444723 -29.198717 -25.501343 44.795638 0.915441 2.176428 0.018404 0.016844 -308594.000000 0 0 1
-23.725623 -29.723687 -25.752603 45.930375 0.897150 2.166013 0.013234 0.015978 -41712.100000 0 0 1
-24.402623 -29.097467 -26.807013 46.484046 0.872928 2.185471 0.011195 0.018744 -137978.000000 0 0 1
-23.816923 -29.274317 -28.221053 47.123872 0.887831 2.212885 0.029873 -0.001645 -357076.000000 0 0 1
-24.314723 -30.507327 -28.751133 48.461639 0.897880 2.205919 0.014034 0.007275 229365.000000 0 0 1
-23.758323 -30.815217 -30.003273 49.134834 0.913994 2.227654 0.046855 -0.004244 -97522.000000 0 0 1
-24.357323 -32.064947 -30.725773 50.650895 0.921164 2.222597 0.027492 -0.002691 -147320.000000 0 0 1
-23.792423 -33.284207 -30.378683 50.958632 0.950189 2.209486 0.023629 -0.006111 -226666.000000 0 0 1
-24.596023 34.308457 -30.871453 52.298004 -0.948812 2.202225 0.032538 -0.004878 -30041.600000 0 0 1
-23.890323 32.915741 -30.922333 51.091919 -0.942962 2.220850 0.038397 0.001152 107060.000000 0 0 1
-22.766723 32.853754 -31.756913 51.050900 -0.964803 2.242172 0.031026 -0.010421 -250276.000000 0 0 1
-22.210123 31.545768 -31.737783 49.957101 -0.957351 2.259194 0.034847 -0.003031 -71776.800000 0 0 1
-21.048423 31.419458 -32.739163 50.020708 -0.980547 2.284334 0.031638 -0.001571 -159705.000000 0 0 1
-21.396023 31.265298 -34.110864 50.979012 -0.970659 2.303815 0.023610 0.008017 116918.000000 0 0 1
-21.103323 29.937948 33.944266 49.938404 -0.956788 0.823412 0.011238 0.012305 -37795.100000 0 0 1
-21.167923 29.682508 32.471737 48.821573 -0.951303 0.843155 0.015989 0.009706 26336.800000 0 0 1
-20.264023 30.382658 31.623893 48.309494 -0.982591 0.857129 0.019765 0.008228 174397.000000 0 0 1
-20.469023 30.314278 30.177513 47.419602 -0.976891 0.880983 0.021134 0.010612 -269826.000000 0 0 1
-20.014723 31.578378 29.455473 47.596302 -1.005886 0.903505 0.017126 -0.002779 9250.480000 0 0 1
-20.777623 32.715582 29.804683 48.891084 -1.004968 0.915223 0.018570 -0.001529 -14917.400000 0 0 1
-20.092623 33.880753 29.431233 49.171297 -1.035511 0.929113 0.016485 -0.014927 253374.000000 0 0 1
-21.065523 -33.527857 29.452313 49.348883 1.009828 0.931267 0.026888 -0.022719 297895.000000 0 0 1
-21.324723 -33.050817 30.771953 49.940098 0.997796 0.906916 0.023556 -0.018424 -272532.000000 0 0 1
-22.450923 -32.221547 30.903903 49.973226 0.962243 0.904080 0.039176 -0.018294 -404269.000000 0 0 1
-22.212123 -30.724297 30.667823 48.763472 0.944833 0.890646 0.049575 -0.016389 -384296.000000 0 0 1
-22.098123 -30.442547 29.301873 47.683073 0.942901 0.909028 0.029717 -0.013089 -63602.600000 0 0 1
-22.025423 -29.076927 28.933103 46.558688 0.922520 0.900226 0.043130 -0.019220 -705466.000000 0 0 1
-23.331823 -28.492267 28.413243 46.513392 0.884647 0.913648 0.044814 -0.011634 -719644.000000 0 0 1
-24.346823 -28.445557 29.455383 47.639659 0.862881 0.904224 0.048689 -0.008608 1231730.000000 0 0 1
-25.389873 -29.438387 29.315453 48.689425 0.859104 0.924679 0.040678 -0.000575 487756.000000 0 0 1
-26.348943 -29.335187 28.073243 48.403791 0.838975 0.952092 0.032727 0.001915 -78757.200000 0 0 1
-25.703873 -29.502857 26.784823 47.418714 0.854104 0.970536 0.031379 0.000985 -27775.500000 0 0 1
-26.726193 -29.767507 25.883413 47.648137 0.839181 0.996529 0.026525 0.004131 -293773.000000 0 0 1
-26.191693 -30.187197 24.528673 46.892723 0.856149 1.020335 0.034157 -0.004999 -122451.000000 0 0 1
-25.563103 -29.178077 23.723863 45.471465 0.851340 1.021918 0.022777 -0.002662 579375.000000 0 0 1
-24.999123 -29.619767 22.492523 44.812949 0.869795 1.044979 0.040447 -0.010994 80128.500000 0 0 1
-23.692123 -30.417297 22.445223 44.612966 0.909052 1.043603 0.039206 -0.017649 -695939.000000 0 0 1
-23.983023 -31.823777 22.335123 45.681461 0.924983 1.059931 0.035745 -0.020315 456992.000000 0 0 1
-22.902923 -32.651447 21.919723 45.509726 0.959107 1.068261 0.042226 -0.011506 40443.600000 0 0 1
-22.018323 -33.180787 23.060723 46.017042 0.984929 1.045887 0.039854 -0.007797 -392540.000000 0 0 1
-21.329723 -32.198397 23.758313 45.344805 0.985721 1.019317 0.045675 -0.005015 -338285.000000 0 0 1
-20.818823 -32.763007 24.930053 46.133996 1.004727 0.999903 0.041632 -0.015391 -683452.000000 0 0 1
-19.813523 -31.792837 25.606983 45.377062 1.013487 0.971192 0.038036 -0.003186 -341177.000000 0 0 1
-18.519823 -31.890617 24.999523 44.553019 1.044667 0.975060 0.051325 -0.005951 176923.000000 0 0 1
-17.565423 -31.238097 25.787113 44.151308 1.058553 0.947072 0.073723 -0.003795 -272694.000000 0 0 1
-16.985523 -32.016267 26.973453 45.178718 1.083026 0.930991 0.055339 -0.019652 -796178.000000 0 0 1
-17.732423 -31.961657 28.195683 46.162570 1.064273 0.913737 0.042284 -0.011593 803736.000000 0 0 1
-16.914623 -32.508217 29.240173 46.881514 1.091026 0.897324 0.034949 -0.011295 189598.000000 0 0 1
-17.299623 -31.987067 30.585413 47.517543 1.075019 0.871518 0.051991 -0.011338 -33660.800000 0 0 1
-16.983023 -30.603737 30.614403 46.500037 1.064174 0.852140 0.047336 -0.014068 182416.000000 0 0 1
-17.615723 -29.949877 31.692093 47.028689 1.039118 0.831337 0.053260 -0.015119 -37499.400000 0 0 1
-17.399123 -28.436587 31.587293 45.925223 1.021704 0.812345 0.058080 -0.014624 64068.100000 0 0 1
-18.118523 -27.622407 30.642013 45.057865 0.990260 0.822953 0.076430 -0.016288 218092.000000 0 0 1
-17.927823 -27.960747 29.271573 44.272285 1.000648 0.848417 0.078032 -0.009502 598296.000000 0 0 1
-16.518623 -27.749177 28.593633 43.133254 1.033852 0.846092 0.070736 -0.001695 618819.000000 0 0 1
-16.320423 -26.351387 28.505753 42.110922 1.016279 0.827225 0.063728 -0.001485 375506.000000 0 0 1
-15.302223 -26.083037 27.533543 40.897174 1.040233 0.832217 0.059842 0.001905 305208.000000 0 0 1
-15.427723 -24.616977 27.000623 39.661617 1.010968 0.821977 0.049489 0.007536 451650.000000 0 0 1
-16.454423 -24.466877 25.999883 39.311195 0.978754 0.848131 0.066324 -0.000189 463080.000000 0 0 1
-16.268423 -23.243177 25.285843 38.003694 0.960122 0.842831 0.046529 -0.000923 89196.400000 0 0 1
-16.704323 -21.907577 25.901193 37.813333 0.919349 0.816227 0.056496 -0.000405 -159525.000000 0 0 1
-16.340123 -20.801777 25.111743 36.473459 0.904950 0.811386 0.036580 0.000657 115592.000000 0 0 1
-16.990223 -19.656277 25.614083 36.484492 0.858021 0.792519 0.054117 0.001087 109284.000000 0 0 1
-16.739623 -18.378777 24.674393 35.025992 0.832039 0.789135 0.036210 -0.008351 -186423.000000 0 0 1
-15.392123 -18.003177 24.780443 34.279764 0.863426 0.762823 0.021100 -0.007748 -407690.000000 0 0 1
-15.108823 -16.868577 23.999183 32.996761 0.840374 0.756388 0.023751 -0.002275 802280.000000 0 0 1
-13.624123 -16.361277 23.989193 32.074749 0.876429 0.725881 0.027300 -0.013486 800863.000000 0 0 1
-12.641823 -17.267777 23.472983 31.764332 0.938847 0.739252 0.009343 -0.005923 365188.000000 0 0 1
-11.316923 -16.778877 23.482503 31.000507 0.977408 0.711340 0.015777 -0.014907 -487241.000000 0 0 1
-11.012523 -15.895177 22.223323 29.458588 0.964904 0.716069 0.023947 -0.023416 -475436.000000 0 0 1
-10.573823 -16.689577 21.125123 28.924359 1.006066 0.751951 0.037977 -0.015737 11658.300000 0 0 1
-9.276823 -17.225577 21.323523 28.939119 1.076787 0.742411 0.031895 -0.012632 -638842.000000 0 0 1
-8.846123 -18.371277 20.416023 28.854319 1.122042 0.784764 0.034727 -0.006259 -23158.600000 0 0 1
-8.734223 -18.017477 19.063023 27.646247 1.119412 0.809951 0.033901 -0.011431 -349775.000000 0 0 1
-8.273823 -19.065677 18.349123 27.724475 1.161357 0.847528 0.035212 -0.008304 -151316.000000 0 0 1
-7.994823 -18.772577 16.845523 26.459374 1.168182 0.880642 0.032388 -0.014187 244805.000000 0 0 1
-6.962923 -17.777277 16.685623 25.355944 1.197487 0.852563 0.032107 -0.017326 332621.000000 0 0 1
-6.649523 -17.658677 15.339223 24.317418 1.210660 0.888223 0.037694 -0.025681 199597.000000 0 1 0
-5.675323 -16.437877 15.153023 23.065715 1.238351 0.854030 0.031268 -0.031741 118795.000000 0 1 0
-6.228623 -15.195577 15.488223 22.574020 1.181787 0.814670 0.039379 -0.041351 -1026930.000000 0 1 0
-5.293823 -14.243877 15.706323 21.854089 1.214961 0.768879 0.035873 -0.035297 -1420530.000000 0 1 0
-5.551523 -13.228777 16.873023 22.147660 1.173462 0.704644 0.020121 -0.017940 -443296.000000 0 1 0
-5.361623 -13.796577 18.192923 23.453678 1.200139 0.682979 0.033225 -0.010964 144712.000000 0 1 0
-6.177523 -14.891977 18.689023 24.682228 1.177578 0.711803 0.048119 -0.021887 186715.000000 0 1 0
-7.481323 -14.369477 19.342623 25.230718 1.090773 0.697220 0.051242 -0.025850 -227430.000000 0 0 1
-7.269123 -13.512677 20.462423 25.576226 1.077253 0.643407 0.050269 -0.022669 262060.000000 0 0 1
-8.499423 -13.161677 21.077523 26.262748 0.997400 0.639216 0.049235 -0.017816 560556.000000 0 0 1
-8.130323 -12.225877 22.262823 26.668474 0.983942 0.583028 0.056812 -0.009152 -133540.000000 0 0 1
-7.717823 -10.902377 21.815623 25.580227 0.954786 0.549412 0.050524 -0.010709 297643.000000 0 0 1
-7.293323 -10.033877 22.848523 25.998582 0.942264 0.497377 0.043538 -0.013750 612007.000000 0 0 1
-5.824423 -10.256977 23.374323 26.181835 1.054352 0.467342 0.051514 -0.013136 633943.000000 0 0 1
-5.612823 -11.488077 24.117413 27.297057 1.116328 0.487478 0.056580 -0.014184 -429862.000000 0 0 1
-4.255323 -11.660777 24.390623 27.367572 1.220887 0.470761 0.051876 -0.008062 -652871.000000 0 0 1
-4.028523 -12.820777 25.390693 28.727837 1.266347 0.486797 0.055962 -0.016172 -271912.000000 0 0 1
-2.715323 -13.116177 25.853603 29.117278 1.366659 0.478009 0.055461 -0.014211 305864.000000 0 0 1
-2.638423 -14.179277 26.808313 30.441728 1.386824 0.493577 0.055527 -0.018735 -99325.200000 0 0 1
-2.765723 -15.597377 26.244823 30.654822 1.395301 0.543043 0.055301 -0.027577 7024.330000 0 0 1
-1.812623 -15.785277 25.187303 29.780208 1.456467 0.562784 0.053069 -0.028155 499058.000000 0 0 1
-1.971123 -17.044477 24.573833 29.971200 1.455662 0.609534 0.047607 -0.026667 72000.800000 0 0 1
-0.591523 -17.773277 24.595143 30.350623 1.537527 0.626018 0.041258 -0.029802 496672.000000 0 0 1
-0.197423 -18.152377 25.874983 31.607950 1.559921 0.611788 0.047135 -0.034629 149467.000000 0 0 1
0.474377 -17.269777 26.758693 31.851184 -1.543335 0.573299 0.064552 -0.036727 -416595.000000 0 0 1
0.908877 -17.900277 28.125023 33.350606 -1.520065 0.567377 0.059074 -0.031880 -299458.000000 0 0 1
2.017277 -18.812677 28.084313 33.863179 -1.463975 0.592859 0.055345 -0.033810 395119.000000 0 0 1
2.740877 -18.887277 29.279403 34.950323 -1.426685 0.577659 0.057463 -0.039097 180662.000000 0 0 1
3.770677 -17.771577 29.559513 34.695991 -1.361722 0.551084 0.082966 -0.035075 -770384.000000 0 0 1
3.199577 -16.523177 29.847983 34.265942 -1.379522 0.513423 0.065322 -0.042272 -45056.600000 0 0 1
4.173777 -15.597877 30.297953 34.331912 -1.309336 0.489642 0.072405 -0.044324 -350588.000000 0 0 1
3.600777 -14.520877 31.157023 34.562719 -1.327727 0.447658 0.067118 -0.041349 -32202.700000 0 0 1
3.014177 -15.042077 32.341153 35.795245 -1.373033 0.442920 0.054997 -0.046360 135437.000000 0 0 1
1.903577 -14.243977 32.725941 35.742156 -1.437943 0.413769 0.048811 -0.034042 -54126.200000 0 0 1
1.177777 -14.775577 33.990178 37.081492 -1.491253 0.411218 0.030893 -0.027748 46682.900000 0 0 1
1.876477 -14.729677 -33.287223 36.448920 -1.444085 2.722004 0.047396 -0.025487 -356069.000000 0 0 1
1.274777 -15.627377 -32.452913 36.042080 -1.489403 2.691524 0.020775 -0.029933 504898.000000 0 0 1
2.147577 -15.664677 -31.169413 34.950343 -1.434549 2.672149 0.018621 -0.022473 524583.000000 0 0 1
1.422477 -16.446677 -30.249213 34.460579 -1.484521 2.642029 0.026387 -0.023907 197687.000000 0 0 1
1.954177 -16.378577 -28.910173 33.284752 -1.452045 2.623108 0.021023 -0.021080 -199041.000000 0 0 1
1.441577 -17.461477 -27.949203 32.986956 -1.488426 2.581640 0.035393 -0.022713 -293714.000000 0 0 1
2.044877 -18.715177 -28.211523 33.916506 -1.461965 2.553127 0.041046 -0.018424 170767.000000 0 0 1
1.789377 -19.692877 -27.208243 33.634800 -1.480181 2.513128 0.041267 -0.020823 -1392220.000000 0 0 1
2.616377 -20.949577 -27.431803 34.615517 -1.446550 2.485647 0.042551 -0.023084 979803.000000 0 0 1
4.023777 -20.830777 -27.107273 34.422613 -1.379981 2.477513 0.043864 -0.022245 1104310.000000 0 0 1
4.295577 -20.688977 -25.745903 33.306715 -1.366079 2.454344 0.050589 -0.021565 -1277870.000000 0 0 1
5.537177 -21.459377 -25.272483 33.613444 -1.318274 2.421670 0.049249 -0.027042 -395602.000000 0 0 1
5.565677 -22.884477 -25.378883 34.623168 -1.332221 2.393522 0.056794 -0.024797 185650.000000 0 0 1
5.994177 -23.243477 -26.710773 35.911764 -1.318409 2.409518 0.046256 -0.018876 -342511.000000 0 0 1
5.380677 -24.576977 -27.115363 36.989490 -1.355265 2.393600 0.035657 -0.011418 -164080.000000 0 0 1
5.948177 -25.583897 -26.391973 37.235102 -1.342358 2.358582 0.046819 -0.005469 -350081.000000 0 0 1
5.247377 -26.753297 -26.623233 38.106042 -1.377116 2.344322 0.040275 -0.002265 -101203.000000 0 0 1
5.788777 -27.902367 -25.766143 38.418045 -1.366233 2.305919 0.035828 -0.002641 37791.500000 0 0 1
7.129277 -28.278027 -25.962483 39.045152 -1.323829 2.298203 0.052248 -0.003825 -340530.000000 0 0 1
7.520577 -29.295137 -25.046913 39.269734 -1.319505 2.262457 0.049867 -0.001820 -370333.000000 0 0 1
8.866177 -29.923307 -25.415783 40.248918 -1.282741 2.254237 0.053148 -0.008671 -361076.000000 0 0 1
9.004477 -30.349797 -26.750763 41.446280 -1.282379 2.272385 0.050587 0.001902 -1333380.000000 0 0 1
10.184777 -30.992707 -26.993313 42.342845 -1.253295 2.262038 0.067780 0.002684 -973682.000000 0 0 1
10.659377 -30.625297 -28.416993 43.116779 -1.235853 2.290378 0.060814 -0.004610 66334.500000 0 0 1
9.941277 -31.325177 -29.400873 44.096565 -1.263492 2.300620 0.050441 -0.009392 128290.000000 0 0 1
10.394377 -30.848967 -30.683223 44.734349 -1.245800 2.326634 0.053679 -0.003908 319120.000000 0 0 1
-34.157229 -4.612277 -5.897513 34.968129 0.134219 1.740260 0.143725 -0.025351 -99275.300000 0 0 1
-34.030597 -3.973677 -4.612213 34.570857 0.116241 1.704609 0.126172 -0.035444 259788.000000 0 0 1
-33.487823 -2.653777 -4.653913 33.913651 0.079081 1.708459 0.141997 -0.038650 -157813.000000 0 0 1
-34.411948 -1.507077 -5.144113 34.826934 0.043767 1.719044 0.145428 -0.034056 187193.000000 0 0 1
-35.462561 -1.214477 -4.211013 35.732350 0.034233 1.688920 0.121505 -0.034813 516348.000000 0 0 1
35.908863 -0.391677 -4.882613 36.241409 -0.010907 1.705932 0.130970 -0.041073 -315082.000000 0 0 1
35.328123 0.614623 -3.875213 35.545341 0.017396 1.680035 0.122179 -0.034610 -173808.000000 0 0 1
-36.050143 1.555623 -3.337913 36.237749 -0.043125 1.663039 0.118358 -0.026454 385297.000000 0 0 1
35.653583 2.453923 -2.403313 35.818649 0.068718 1.637943 0.111540 -0.028406 -163933.000000 0 0 1
-35.934088 3.808523 -2.249413 36.205295 -0.105592 1.632966 0.094241 -0.027719 -306796.000000 0 0 1
-35.991459 4.624223 -3.412013 36.447365 -0.127781 1.664548 0.096908 -0.029420 362449.000000 0 0 1
-34.712366 4.883823 -3.955213 35.276675 -0.139777 1.683152 0.076621 -0.016727 60243.100000 0 0 1
-33.901923 6.054123 -3.384913 34.604197 -0.176715 1.668771 0.067787 -0.015758 -354478.000000 0 0 1
-33.433683 5.936923 -2.073213 34.019942 -0.175741 1.631775 0.082224 -0.021654 347244.000000 0 0 1
-33.202893 7.227423 -1.490913 34.013094 -0.214331 1.614644 0.090750 -0.031510 -117011.000000 0 0 1
-32.474083 7.108323 -0.137613 33.243244 -0.215493 1.574936 0.091107 -0.036233 -267160.000000 0 0 1
-31.076643 6.876823 -0.156513 31.828807 -0.217777 1.575714 0.089424 -0.030871 668774.000000 0 0 1
-30.383743 7.267923 1.031487 31.257935 -0.234793 1.537791 0.093005 -0.036207 241879.000000 0 0 1
-30.119163 8.787123 1.239987 31.399285 -0.283867 1.531295 0.093889 -0.035309 -794232.000000 0 0 1
-31.336743 9.465523 1.326487 32.761977 -0.293344 1.530297 0.086227 -0.039672 -311495.000000 0 0 1
-31.226663 10.795823 1.773587 33.087761 -0.332861 1.517168 0.078744 -0.027052 -262054.000000 0 0 1
-32.478723 11.656323 1.566587 34.542604 -0.344574 1.525428 0.090619 -0.029810 -1003230.000000 0 0 1
-32.816463 11.827923 0.214287 34.883606 -0.345933 1.564653 0.080862 -0.026121 280240.000000 0 0 1
-33.897663 12.733123 0.067187 36.210337 -0.359327 1.568941 0.071305 -0.018187 332092.000000 0 0 1
-35.317596 12.150323 0.291387 37.350339 -0.331347 1.562995 0.076543 -0.029708 -506680.000000 0 0 1
-35.578798 11.182323 -0.660613 37.300558 -0.304521 1.588508 0.069430 -0.027465 176766.000000 0 0 1
35.486313 10.529223 -0.420513 37.017830 0.288438 1.582156 0.067716 -0.027888 352300.000000 0 0 1
35.174383 9.190723 -1.146213 36.373347 0.255576 1.602314 0.066907 -0.022822 85227.300000 0 0 1
34.750623 9.449523 -2.458213 36.096289 0.265504 1.638951 0.057438 -0.010925 40914.900000 0 0 1
34.256033 8.363323 -3.144613 35.402112 0.239457 1.659739 0.052545 -0.019200 -196248.000000 0 0 1
33.704033 8.714523 -4.556613 35.109364 0.253019 1.700947 0.041242 -0.004753 1821210.000000 0 0 1
32.410993 9.445523 -4.541813 34.063447 0.283576 1.704529 0.061321 -0.019016 1965700.000000 0 0 1
32.052803 9.784723 -5.867113 34.022728 0.296284 1.744110 0.051128 -0.009800 1141930.000000 0 0 1
30.560823 10.278223 -6.087313 32.812515 0.324436 1.757395 0.065898 -0.009551 1395730.000000 0 0 1
29.528473 9.300723 -5.937513 31.522821 0.305138 1.760284 0.073757 -0.009281 550267.000000 0 0 1
28.290243 9.875723 -6.268613 30.613122 0.335860 1.777024 0.086750 -0.007512 341631.000000 0 0 1
27.063033 8.902223 -6.442913 29.209047 0.317795 1.793205 0.104780 -0.008673 369103.000000 0 0 1
27.183933 8.027423 -7.586413 29.342109 0.287140 1.832318 0.106687 -0.014375 1322780.000000 0 0 1
25.921933 7.386323 -7.869613 28.079088 0.277588 1.854868 0.108122 -0.017503 863012.000000 0 0 1
26.128933 6.343223 -8.959313 28.341258 0.238159 1.892436 0.102906 -0.017614 -88041.300000 0 0 1
27.026433 5.340523 -8.554513 28.846645 0.195090 1.871876 0.103524 -0.020608 373423.000000 0 0 1
26.992933 4.240923 -9.484913 28.923475 0.155838 1.904909 0.094056 -0.018269 -250309.000000 0 0 1
28.001803 3.140523 -9.116913 29.615569 0.111688 1.883720 0.085111 -0.016945 -828933.000000 0 0 1
29.345053 3.464123 -9.377613 31.001160 0.117504 1.878103 0.105080 -0.014291 713839.000000 0 0 1
30.266713 2.707723 -8.521913 31.559922 0.089225 1.844214 0.084904 -0.020222 410125.000000 0 0 1
30.309853 1.190123 -8.380913 31.469720 0.039245 1.840366 0.086636 -0.026207 -197086.000000 0 0 1
29.106073 0.697423 -7.748413 30.127857 0.023957 1.830904 0.098627 -0.028339 1107760.000000 0 0 1
29.191653 -0.697077 -7.390213 30.120653 -0.023875 1.818681 0.090876 -0.026552 -311399.000000 0 0 1
29.130303 -1.723777 -8.507113 30.396002 -0.059106 1.854461 0.077391 -0.025836 -656383.000000 0 0 1
30.251553 -1.886377 -9.335913 31.715519 -0.062276 1.869586 0.083674 -0.024974 12093.900000 0 0 1
30.052023 -2.902177 -10.254713 31.885825 -0.096273 1.898223 0.064858 -0.028844 -547555.000000 0 0 1
31.111973 -3.036577 -11.345713 33.255088 -0.097293 1.918960 0.076468 -0.025459 84144.000000 0 0 1
32.416603 -3.382077 -10.852513 34.351879 -0.103956 1.892225 0.105777 -0.023661 320708.000000 0 0 1
33.149113 -3.864577 -11.946413 35.447361 -0.116058 1.914545 0.087572 -0.026683 -582289.000000 0 0 1
34.592423 -4.088277 -11.471413 36.673465 -0.117638 1.888935 0.115830 -0.021602 -570851.000000 0 0 1
34.742763 -5.166677 -10.620213 36.695273 -0.147630 1.864413 0.105565 -0.023204 -159475.000000 0 0 1
36.063123 -5.494577 -10.295913 37.904420 -0.151197 1.845881 0.118821 -0.017579 -328944.000000 0 0 1
36.049813 -6.818077 -9.508413 37.900991 -0.186921 1.824380 0.110871 -0.023221 -157787.000000 0 0 1
35.755483 -6.683377 -8.142013 37.274850 -0.184787 1.791004 0.091911 -0.015330 343043.000000 0 0 1
35.655033 -7.997177 -7.651913 37.333470 -0.220641 1.777220 0.078369 -0.012492 -294287.000000 0 0 1
35.269993 -8.058777 -6.140113 36.696284 -0.224632 1.738910 0.077018 -0.011850 4916.840000 0 0 1
-35.951688 -7.793677 -5.226013 37.156110 0.213479 1.711914 0.080522 -0.015675 727058.000000 0 0 1
-35.850402 -8.782677 -4.181113 37.146581 0.240250 1.683593 0.082968 -0.019437 -96679.900000 0 0 1
-35.346840 -10.192577 -4.676613 37.083129 0.280743 1.697245 0.082696 -0.019316 -647568.000000 0 0 1
35.979953 -10.854877 -5.432913 37.972383 -0.293009 1.714364 0.059433 -0.022126 221015.000000 0 0 1
-35.877104 -12.084977 -6.022213 38.333801 0.324907 1.728549 0.052023 -0.018093 -102075.000000 0 0 1
35.647723 -12.405077 -7.310513 38.445932 -0.334884 1.762112 0.040783 -0.015947 -33890.300000 0 0 1
35.832153 -11.405877 -8.315013 38.512033 -0.308173 1.788417 0.068811 -0.015100 242646.000000 0 0 1
35.482263 -12.017077 -9.556213 38.661639 -0.326553 1.820561 0.065611 -0.009246 -141504.000000 0 0 1
35.833033 -11.262077 -10.814313 39.086954 -0.304518 1.851127 0.054292 -0.017535 -294786.000000 0 0 1
35.023633 -10.133977 -10.931213 38.063680 -0.281655 1.862080 0.062029 -0.014343 163188.000000 0 0 1
35.299683 -9.549977 -12.196113 38.548863 -0.264215 1.892708 0.065276 -0.021335 -29036.400000 0 0 1
34.266403 -8.466877 -12.554613 37.463218 -0.242238 1.912527 0.070607 -0.017511 -147380.000000 0 0 1
34.408093 -7.882177 -13.859113 37.922560 -0.225194 1.944921 0.085044 -0.015212 67673.800000 0 0 1
33.246233 -7.196677 -14.242613 36.877584 -0.213177 1.967319 0.075474 -0.018602 -245456.000000 0 0 1
33.386023 -6.180177 -15.413213 37.287910 -0.183041 1.996934 0.071810 -0.024320 114276.000000 0 0 1
34.402443 -5.208077 -15.181013 37.962024 -0.150246 1.982204 0.075572 -0.015443 485677.000000 0 0 1
34.254643 -4.090877 -16.026313 38.038908 -0.118863 2.005690 0.084120 -0.023725 -130995.000000 0 0 1
35.449943 -3.161477 -15.849013 38.960038 -0.088946 1.989747 0.087585 -0.022152 110823.000000 0 0 1
-35.911509 -3.152477 -16.923713 39.824448 0.087560 2.009712 0.093039 -0.025285 459263.000000 0 0 1
-34.696195 -2.449177 -16.771013 38.614651 0.070472 2.020077 0.102455 -0.020364 170341.000000 0 0 1
-34.792522 -0.857577 -16.578613 38.550038 0.024643 2.015349 0.090692 -0.013203 -514236.000000 0 0 1
-35.064569 -0.126377 -17.755413 39.303876 0.003604 2.039519 0.072097 -0.015947 233105.000000 0 0 1
-34.969310 1.244223 -17.360113 39.061160 -0.035565 2.031339 0.074993 -0.023719 -21132.700000 0 0 1
-35.335339 2.233023 -18.516813 39.955537 -0.063111 2.052665 0.049181 -0.020047 753831.000000 0 0 1
-34.256621 2.310723 -19.482413 39.476828 -0.067351 2.086923 0.055475 -0.015628 1013200.000000 0 0 1
-34.386761 3.463323 -20.199513 40.030792 -0.100378 2.099714 0.045561 -0.014250 -159192.000000 0 0 1
-33.430983 3.655823 -21.402313 39.862949 -0.108922 2.137551 0.047754 -0.013339 -753921.000000 0 0 1
-32.089123 3.890223 -21.125513 38.615191 -0.120643 2.149666 0.057322 -0.013942 -454976.000000 0 0 1
-31.352963 3.987223 -22.311213 38.687162 -0.126493 2.185490 0.047888 -0.012223 248119.000000 0 0 1
-29.881913 4.471823 -22.150813 37.464442 -0.148547 2.203403 0.064709 -0.016254 711053.000000 0 0 1
-29.016643 3.542223 -21.471313 36.270239 -0.121475 2.204312 0.073372 -0.007595 -384885.000000 0 0 1
-27.714913 4.014223 -21.581613 35.355288 -0.143840 2.227388 0.061860 -0.003937 -1010480.000000 0 0 1
-26.698633 3.014523 -21.048313 34.131156 -0.112433 2.235326 0.081693 -0.008807 -654305.000000 0 0 1
-26.530733 3.097423 -19.713713 33.197956 -0.116222 2.206598 0.077949 -0.003189 -85422.600000 0 0 1
-25.797783 2.054323 -19.122213 32.177708 -0.079464 2.207153 0.077598 -0.009185 -733889.000000 0 0 1
-25.088863 2.339123 -17.768613 30.832550 -0.092965 2.184983 0.080883 -0.012921 -6658.400000 0 0 1
-23.962523 3.170823 -17.922113 30.090842 -0.131560 2.208809 0.074160 -0.006177 -62593.900000 0 0 1
-23.315123 3.405523 -16.669713 28.862985 -0.145039 2.186516 0.079449 -0.009396 609758.000000 0 0 1
-22.148723 4.464323 -16.750213 28.125891 -0.198896 2.208739 0.073133 -0.013334 403665.000000 0 0 1
-21.044623 3.933223 -17.439113 27.612842 -0.184767 2.254357 0.079614 -0.017399 -534521.000000 0 0 1
-19.989223 4.855523 -17.492013 27.002142 -0.238292 2.275491 0.064240 -0.015916 254473.000000 0 0 1
-18.695423 4.204023 -18.090813 26.352802 -0.221190 2.327441 0.071687 -0.016501 190569.000000 0 0 1
-18.252523 3.113023 -17.324613 25.357203 -0.168928 2.322963 0.081578 -0.020818 -268795.000000 0 0 1
-17.221623 2.467423 -18.017813 25.046238 -0.142306 2.373709 0.062345 -0.019670 -674073.000000 0 0 1
-17.110323 1.007523 -17.461213 24.467779 -0.058816 2.365479 0.051218 -0.015970 382618.000000 0 1 0
-18.028523 -0.025277 -17.884513 25.394568 0.001402 2.352184 0.044140 -0.018221 -397477.000000 0 0 1
-19.273523 0.158523 -17.316813 25.910728 -0.008225 2.302752 0.049488 -0.020799 -678271.000000 0 0 1
-20.384323 -0.861677 -17.767013 27.054202 0.042246 2.287256 0.047272 -0.022037 278296.000000 0 0 1
-20.337623 -2.083277 -17.112613 26.660842 0.102079 2.267722 0.035771 -0.019761 513673.000000 0 0 1
-21.340923 -2.974377 -17.593913 27.817759 0.138482 2.255535 0.047286 -0.017866 155493.000000 0 0 1
-21.415823 -4.232577 -16.701313 27.486106 0.195123 2.223866 0.060073 -0.023506 12924.300000 0 0 1
-21.886823 -3.804577 -15.406613 27.034636 0.172110 2.177161 0.053532 -0.027041 375427.000000 0 0 1
-22.073223 -4.831077 -14.465913 26.829631 0.215468 2.140256 0.051207 -0.034728 -194223.000000 0 0 1
-22.460623 -4.287577 -13.078013 26.341931 0.188624 2.090325 0.054726 -0.036100 321608.000000 0 0 1
-23.664723 -3.522377 -13.008413 27.233161 0.147760 2.068795 0.053944 -0.033453 552508.000000 0 0 1
-23.798823 -3.031977 -11.698513 26.691423 0.126718 2.024489 0.058318 -0.039433 -153652.000000 0 0 1
-24.823123 -1.864777 -11.626713 27.474448 0.074982 2.007752 0.097528 -0.039829 -143753.000000 0 0 1
-25.057803 -1.495077 -10.331913 27.145482 0.059594 1.961255 0.090265 -0.039264 299793.000000 0 0 1
-25.668843 -0.249277 -10.252013 27.641552 0.009711 1.950765 0.102032 -0.043946 -736168.000000 0 0 1
-26.052113 0.139023 -8.792413 27.496153 -0.005336 1.896282 0.108205 -0.032525 -227845.000000 0 0 1
-25.007023 0.460123 -7.894513 26.227586 -0.018398 1.876538 0.082853 -0.030334 256573.000000 0 0 1
-25.542303 0.798123 -6.642313 26.403912 -0.031237 1.825094 0.088893 -0.035825 331307.000000 0 0 1
-24.363023 1.162523 -5.696513 25.047128 -0.047681 1.800236 0.062875 -0.024069 173707.000000 0 0 1
-23.873423 2.485523 -5.884613 24.713293 -0.103739 1.811221 0.074702 -0.025253 83891.100000 0 1 0
-22.570223 2.647623 -5.385913 23.354506 -0.116772 1.803507 0.065385 -0.009080 -137721.000000 0 1 0
-22.077423 4.133123 -5.491213 23.122473 -0.185068 1.810571 0.070542 -0.014441 -196411.000000 0 1 0
-22.582423 4.882923 -4.423513 23.523950 -0.212948 1.759965 0.072956 -0.017223 637805.000000 0 1 0
-22.273423 6.239223 -4.725113 23.608473 -0.273120 1.772302 0.077834 -0.018648 -388413.000000 0 1 0
-22.758523 7.271023 -3.669213 24.171911 -0.309236 1.723182 0.084596 -0.020061 -372619.000000 0 1 0
-22.207823 7.185923 -2.349713 23.459455 -0.312944 1.671125 0.075059 -0.014636 1308320.000000 0 1 0
-20.803223 7.483823 -2.233713 22.220962 -0.345328 1.671489 0.073567 -0.010596 565683.000000 0 1 0
-20.285923 8.938223 -2.398813 22.297193 -0.415020 1.678589 0.063312 -0.017206 -1016950.000000 0 1 0
-20.278423 9.426523 -3.751913 22.674890 -0.435138 1.737026 0.059803 -0.014621 507752.000000 0 1 0
-19.683323 10.692423 -3.872313 22.732266 -0.497625 1.741975 0.063792 -0.011909 -657040.000000 0 1 0
-19.591923 11.338323 -5.271813 23.242053 -0.524629 1.799610 0.063650 -0.010655 -210304.000000 0 1 0
-18.656323 10.726023 -6.134413 22.377153 -0.521779 1.848489 0.047845 -0.008690 415540.000000 0 1 0
-18.786723 11.389223 -7.391213 23.179417 -0.544994 1.895333 0.057343 -0.001808 -133712.000000 0 1 0
-17.500423 11.468523 -8.248113 22.490513 -0.580112 1.946296 0.053705 0.005917 32302.300000 0 1 0
-16.958423 10.291123 -8.795813 21.699347 -0.545437 1.988157 0.030844 0.011177 412063.000000 0 1 0
-17.765823 9.534023 -9.727413 22.386260 -0.492536 2.020308 0.031625 0.007591 194053.000000 0 1 0
-17.846823 10.038623 -11.221013 23.349394 -0.512380 2.072101 0.034976 0.004324 -80441.800000 0 1 0
-16.797223 9.560223 -12.009413 22.754572 -0.517430 2.126781 0.036270 0.004025 -435023.000000 0 1 0
-16.701923 10.387223 -13.172013 23.671725 -0.556380 2.160897 0.028321 0.003669 388137.000000 0 1 0
-15.577623 9.917123 -14.143213 23.260313 -0.566916 2.224386 0.021730 0.002217 -235282.000000 0 1 0
-15.777723 8.619523 -14.703813 23.225737 -0.500006 2.256326 0.030975 -0.013561 -27246.800000 0 1 0
-15.591023 7.467923 -13.852113 22.152447 -0.446698 2.246323 0.028383 -0.010174 -108599.000000 0 1 0
-15.816723 6.145523 -14.606613 22.389491 -0.370593 2.281526 0.045486 -0.012041 144430.000000 0 1 0
-14.908323 6.049323 -15.700513 22.480180 -0.385469 2.343978 0.058445 -0.013407 435381.000000 0 1 0
-14.692923 4.704923 -16.101313 22.299564 -0.309900 2.377552 0.044639 -0.020346 97655.500000 0 1 0
32.213903 -15.854077 28.547033 45.869602 -0.457348 0.899053 0.000279 0.003445 -19460.500000 0 0 1
31.417853 -14.726177 28.895033 45.153790 -0.438312 0.876396 -0.001038 0.004702 288334.000000 0 0 1
30.482853 -14.970577 29.970443 45.294039 -0.456514 0.847731 0.000404 0.000983 694274.000000 0 0 1
31.119613 -15.025777 31.390873 46.686092 -0.449825 0.833375 -0.007961 -0.005563 95349.300000 0 0 1
31.590633 -13.768777 31.834543 46.914661 -0.411025 0.824992 -0.010424 -0.004114 27497.600000 0 0 1
31.478593 -13.734377 33.235206 47.792404 -0.411410 0.801809 -0.016537 -0.002068 -284389.000000 0 0 1
31.543363 -12.239377 33.541076 47.642312 -0.370134 0.789756 0.004386 -0.004193 -51851.200000 0 0 1
31.431163 -12.038377 -33.574163 47.540140 -0.365773 2.354952 -0.010408 -0.007661 15696.300000 0 0 1
31.514853 -10.669177 -33.351393 47.109794 -0.326433 2.357388 0.000318 -0.003698 -87599.600000 0 0 1
31.306313 -10.242677 -31.841503 45.813524 -0.316199 2.339250 0.010236 -0.006038 713119.000000 0 0 1
29.953603 -10.516477 -31.465813 44.698009 -0.337648 2.351760 0.043051 -0.006903 558406.000000 0 0 1
29.714683 -10.083277 -30.122003 43.496780 -0.327144 2.335760 0.035629 -0.009211 302005.000000 0 0 1
28.399833 -10.674377 -29.531583 42.339193 -0.359525 2.342699 0.033531 0.003779 288798.000000 0 0 1
28.058663 -10.178677 -28.268783 41.109830 -0.348000 2.329031 0.025863 0.003252 325357.000000 0 0 1
27.091833 -11.080577 -27.711963 40.307561 -0.388241 2.328855 0.050137 -0.000530 -479798.000000 0 0 1
26.532733 -10.899077 -26.337543 38.941520 -0.389764 2.313573 0.038319 0.006140 71569.400000 0 0 1
25.585833 -9.825477 -26.076153 37.830419 -0.366655 2.331306 0.038718 0.009122 2113910.000000 0 0 1
24.325333 -9.732377 -26.797513 37.477296 -0.380586 2.367468 0.043284 0.002588 1246740.000000 0 0 1
23.340133 -10.918277 -26.865703 37.225483 -0.437549 2.377054 0.056433 0.003755 -701586.000000 0 0 1
23.854833 -11.847777 -27.742493 38.458663 -0.460973 2.376559 0.048094 -0.002257 106355.000000 0 0 1
23.244033 -13.084777 -27.449963 38.275278 -0.512716 2.370532 0.055823 -0.016756 23275.300000 0 0 1
24.067333 -14.233777 -28.042003 39.600389 -0.534083 2.357635 0.040728 -0.002565 -89852.900000 0 0 1
24.141833 -14.143577 -29.450513 40.622673 -0.529953 2.381798 0.038702 -0.006170 -313555.000000 0 0 1
25.141033 -14.938577 -29.980053 41.881215 -0.536137 2.368616 0.034950 0.001791 -666778.000000 0 0 1
25.068133 -15.070577 -31.511263 42.994107 -0.541290 2.393401 0.043857 -0.005908 -549635.000000 0 0 1
23.948533 -15.668277 -32.100703 43.005607 -0.579356 2.413478 0.062802 -0.004637 -346047.000000 0 0 1
24.129333 -16.026377 -33.474603 44.267579 -0.586284 2.428264 0.064372 -0.008337 155623.000000 0 0 1
24.320033 -14.917377 34.005555 44.388849 -0.550198 0.698071 0.045000 -0.009681 113182.000000 0 0 1
23.060633 -14.329277 33.787268 43.343978 -0.555988 0.676906 0.058828 -0.012390 185481.000000 0 0 1
23.193033 -13.441777 32.694689 42.279319 -0.525255 0.686763 0.054873 -0.013284 -323072.000000 0 0 1
22.455233 -12.035277 32.777645 41.514569 -0.492006 0.660728 0.077184 -0.022723 686294.000000 0 0 1
21.035033 -12.037477 32.781338 40.767507 -0.519772 0.636629 0.064907 -0.016195 607565.000000 0 0 1
20.503733 -12.379977 31.464553 39.543457 -0.543203 0.650641 0.061691 -0.010242 -345492.000000 0 0 1
18.977233 -12.677177 31.511643 38.907966 -0.588939 0.626811 0.067877 -0.008897 -37062.600000 0 0 1
18.277933 -11.513077 31.678543 38.342716 -0.562108 0.598477 0.064129 -0.015504 -233051.000000 0 0 1
17.056433 -11.786977 32.369523 38.440093 -0.604699 0.569673 0.052065 -0.007828 856403.000000 0 0 1
16.212033 -10.491277 32.715430 37.989423 -0.574354 0.533225 0.056425 -0.016406 249057.000000 0 0 1
15.411233 -9.913377 31.621483 36.547221 -0.571620 0.525202 0.069900 -0.020502 775025.000000 0 0 1
14.583433 -8.794377 31.914473 36.173902 -0.542651 0.490173 0.072082 -0.021339 717766.000000 0 0 1
13.523033 -9.025977 33.054187 36.836395 -0.588546 0.457127 0.070961 -0.024524 -1335860.000000 0 0 1
12.588333 -9.958577 32.733628 36.457232 -0.669288 0.455903 0.063319 -0.016493 -738985.000000 0 0 1
11.442133 -9.986577 33.537166 36.815698 -0.717577 0.425221 0.047841 -0.014349 654347.000000 0 0 1
10.185933 -9.144377 33.112918 35.830688 -0.731568 0.391993 0.043798 -0.015131 23102.500000 0 0 1
10.447833 -7.761477 33.223894 35.682277 -0.638928 0.373370 0.069091 -0.020765 296927.000000 0 0 1
9.514833 -6.959977 32.521418 34.592137 -0.631547 0.347758 0.059044 -0.018052 -88741.800000 0 0 1
9.946333 -5.510277 32.403873 34.340991 -0.505910 0.337481 0.056213 -0.018806 -91637.800000 0 0 1
9.947833 -4.785977 33.621767 35.387684 -0.448420 0.317246 0.048882 -0.024286 533202.000000 0 0 1
10.524433 -3.469477 33.444131 35.232241 -0.318440 0.319960 0.032921 -0.022033 -87211.700000 0 0 1
10.341333 -2.629677 -33.724363 35.372179 -0.249010 2.835157 0.025091 -0.016947 -834832.000000 0 0 1
9.053333 -2.181577 -33.478413 34.749478 -0.236461 2.870288 0.026054 -0.004585 -625699.000000 0 0 1
9.052533 -1.371777 -32.312553 33.584687 -0.150391 2.865477 0.028098 -0.001866 317544.000000 0 0 1
7.615833 -0.954677 -31.918313 32.828205 -0.124704 2.905602 0.025323 0.003814 52971.500000 0 0 1
6.902533 -0.148677 -32.825353 33.543567 -0.021536 2.934285 0.025862 -0.003479 241243.000000 0 0 1
5.579433 0.018323 -32.314783 32.792920 0.003284 2.970619 0.033660 -0.004297 368907.000000 0 0 1
4.744733 0.948223 -33.223133 33.573623 0.197249 2.996971 0.045232 -0.007640 -254539.000000 0 0 1
5.229333 2.247223 -33.179713 33.664362 0.405874 2.971703 0.045887 -0.012625 -91807.800000 0 0 1
4.730333 3.011223 34.212769 34.669253 0.566881 0.162455 0.047861 -0.014305 -120089.000000 0 0 1
5.432933 4.335223 34.132442 34.832952 0.673491 0.200890 0.052647 -0.019402 -161348.000000 0 0 1
4.957833 5.193423 33.131896 33.900948 0.808602 0.213408 0.075367 -0.029209 -545783.000000 0 0 1
5.680533 6.354823 32.995270 34.078440 0.841365 0.252802 0.066182 -0.028842 -484097.000000 0 0 1
5.240433 7.406223 31.887873 33.153442 0.955007 0.277195 0.077041 -0.026678 309407.000000 0 0 1
4.036633 8.086023 32.295123 33.535849 1.107780 0.272864 0.091213 -0.022318 430278.000000 0 0 1
4.010733 9.352623 31.572363 33.171850 1.165682 0.311804 0.088350 -0.033371 56989.800000 0 0 1
3.683733 9.263223 30.078693 31.687615 1.192298 0.320031 0.077391 -0.033065 -222677.000000 0 0 1
2.384633 8.723523 29.923883 31.260600 1.303959 0.293492 0.087610 -0.027640 -75906.200000 0 0 1
2.139633 8.416423 28.545143 29.836880 1.321849 0.295328 0.067943 -0.013401 -29066.300000 0 0 1
0.757733 7.862123 28.177213 29.263330 1.474715 0.273303 0.071703 -0.006823 -452078.000000 0 0 1
-0.347867 8.618423 28.517113 29.793019 -1.530455 0.293717 0.072630 -0.004954 4986.810000 0 0 1
-1.464967 8.443723 27.599913 28.899789 -1.399009 0.301065 0.066499 -0.002810 1407920.000000 0 0 1
-2.815167 8.639723 28.353363 29.773867 -1.255805 0.310142 0.051059 -0.003088 39324.100000 0 0 1
-3.045767 9.966123 28.686103 30.520367 -1.274199 0.348458 0.057531 0.000372 449138.000000 0 0 1
-4.387967 10.187623 29.133673 31.173913 -1.164095 0.363796 0.048995 -0.000464 481364.000000 0 0 1
-4.555367 11.616823 29.794083 32.301538 -1.197088 0.396616 0.029959 -0.003438 -89043.700000 0 0 1
-4.634667 12.722823 28.891203 31.906927 -1.221457 0.438278 0.030096 -0.006924 1415160.000000 0 0 1
-5.856367 12.783623 28.078073 31.402169 -1.141215 0.464280 0.026420 -0.007734 1300970.000000 0 0 1
-6.150567 14.218223 27.547423 31.604555 -1.162520 0.512282 0.010243 -0.005948 -218778.000000 0 0 1
-5.111367 14.598223 26.697583 30.854418 -1.234000 0.525096 0.020348 0.002196 -92137.900000 0 0 1
-5.283267 15.961923 26.293663 31.209816 -1.251155 0.568925 0.003762 0.007763 557449.000000 0 0 1
-3.993367 16.544523 25.598953 30.740440 -1.333955 0.586749 0.028619 0.006043 497745.000000 0 0 1
-3.783767 16.048223 24.327333 29.388459 -1.339250 0.595648 0.028984 0.006939 76984.900000 0 0 1
-2.781767 16.779323 23.613703 29.101390 -1.406505 0.624204 0.031769 0.004723 272747.000000 0 0 1
-2.606167 16.529323 22.098023 27.718825 -1.414414 0.648119 0.032393 0.003045 106513.000000 0 0 1
-1.878867 15.386123 21.693523 26.662181 -1.449284 0.620403 0.033387 0.002676 -159248.000000 0 0 1
-1.947867 15.309523 20.278123 25.482895 -1.444244 0.650544 0.030770 -0.002540 224404.000000 0 0 1
-1.204967 14.076923 19.687523 24.232422 -1.485406 0.622462 0.031137 -0.008762 -66182.800000 0 1 0
-1.620067 12.783623 20.086923 23.864830 -1.444738 0.570380 0.036799 -0.006065 -8079.890000 0 1 0
-0.948467 11.791523 19.305923 22.641958 -1.490533 0.549738 0.033221 -0.013105 -118650.000000 0 1 0
-1.724167 10.450423 19.144623 21.879230 -1.407284 0.505332 0.021127 -0.013226 -582257.000000 0 1 0
-1.862567 9.714323 20.366023 22.640939 -1.381361 0.452122 0.026324 -0.013934 203804.000000 0 1 0
-2.879367 10.029423 21.290923 23.710409 -1.291223 0.455692 0.043256 -0.010375 1290670.000000 0 1 0
-4.419567 10.006023 20.870123 23.563003 -1.154874 0.482763 0.036333 -0.007868 1174960.000000 0 1 0
-4.964367 8.696223 20.738823 23.029720 -1.052075 0.449822 0.025706 -0.016421 -627266.000000 0 1 0
-6.343067 8.814023 20.886123 23.540426 -0.947000 0.479458 0.026438 -0.009416 -718496.000000 0 1 0
-7.144567 7.537723 21.046223 23.469248 -0.812169 0.458410 0.025124 -0.010162 -387586.000000 0 1 0
-7.013667 6.984723 22.348123 24.442105 -0.783330 0.416949 0.024898 -0.009594 -53531.400000 0 1 0
-7.589667 5.736423 22.397223 24.334034 -0.647216 0.401675 0.019214 -0.007554 -183450.000000 0 1 0
-7.648967 5.045723 23.808243 25.510752 -0.583137 0.367404 0.016474 -0.006145 -51371.400000 0 0 1
-8.455467 5.743823 24.742253 26.770609 -0.596700 0.391777 0.012913 -0.006607 -99770.500000 0 0 1
-9.004667 4.924823 25.695093 27.669039 -0.500475 0.380016 0.000872 0.006413 -12653.800000 0 0 1
-10.052467 5.648023 26.583483 28.976436 -0.511899 0.409256 0.000897 0.007178 229609.000000 0 0 1
-9.351867 6.454923 27.517543 29.771440 -0.604138 0.391616 0.007418 0.005373 -27846.200000 0 0 1
-10.237267 7.007723 28.446313 31.033894 -0.600268 0.411253 0.003852 -0.002393 -128393.000000 0 0 1
-9.715867 8.264923 29.195443 31.860335 -0.704879 0.411912 0.021870 0.003044 404367.000000 0 0 1
-8.719467 7.916323 30.164243 32.381767 -0.737158 0.372228 0.023802 0.003812 388312.000000 0 0 1
-8.201467 8.953623 30.927923 33.226012 -0.829215 0.374106 0.031349 -0.003643 158044.000000 0 0 1
-7.192067 8.516223 32.051003 33.934034 -0.869496 0.334699 0.047536 -0.008901 636349.000000 0 0 1
-5.929267 8.146923 31.478563 33.051906 -0.941660 0.309789 0.046221 -0.005898 -34757.300000 0 0 1
-5.147567 7.627823 32.526499 33.803170 -0.977156 0.275710 0.068674 -0.010858 1000480.000000 0 0 1
-3.588067 7.528123 32.288623 33.348194 -1.126026 0.252755 0.051828 -0.008881 1199010.000000 0 0 1
-2.998367 8.778123 32.065963 33.380708 -1.241649 0.281594 0.042565 -0.012996 -1091000.000000 0 0 1
-1.616267 8.630923 31.967263 33.151336 -1.385676 0.268074 0.052562 -0.013982 -505549.000000 0 0 1
-1.009467 9.949923 31.427793 32.980694 -1.469688 0.308089 0.061055 -0.018201 -151696.000000 0 0 1
-1.052667 11.022523 32.319683 34.163812 -1.475584 0.330066 0.053864 -0.028651 -69128.300000 0 0 1
-1.174267 12.272223 31.612363 33.931223 -1.475402 0.371841 0.040620 -0.024560 -347425.000000 0 0 1
-1.439267 13.453223 32.550630 35.250592 -1.464219 0.393933 0.030838 -0.037032 -718709.000000 0 0 1
-0.319967 13.838023 33.298162 36.060517 -1.547678 0.393959 0.066477 -0.033746 -930910.000000 0 0 1
-0.498567 14.737323 -34.149347 37.196978 -1.536979 2.733975 0.060499 -0.034604 430942.000000 0 0 1
0.838933 15.200623 -33.476433 36.775458 1.515662 2.714787 0.061122 -0.036515 528044.000000 0 0 1
1.526633 16.205023 -34.204939 37.880222 1.476866 2.697443 0.059749 -0.031064 140049.000000 0 0 1
2.795733 16.465623 -33.645313 37.562481 1.402608 2.680835 0.076746 -0.033818 -153410.000000 0 0 1
3.589633 17.542823 34.136124 38.547517 1.368961 0.483099 0.090673 -0.023934 -213665.000000 0 0 1
3.055433 18.850023 34.161662 39.136661 1.410102 0.509720 0.070942 -0.015701 63693.100000 0 0 1
3.947633 19.759623 33.518346 39.108900 1.373610 0.541277 0.054933 -0.002428 -10628.300000 0 0 1
3.574333 21.221023 33.600435 39.901089 1.403929 0.569644 0.053472 -0.003362 -422073.000000 0 0 1
3.698733 21.730823 -33.581213 40.169729 1.402205 2.560718 0.062631 -0.016131 119745.000000 0 0 1
3.641133 23.171123 -33.604393 40.980654 1.414930 2.532218 0.047910 -0.017357 24450.500000 0 0 1
3.319133 23.708023 -32.209193 40.131273 1.431700 2.502431 0.045325 -0.012976 89327.600000 0 0 1
3.061433 25.128923 -32.067353 40.855235 1.449565 2.473334 0.051448 -0.012281 146404.000000 0 0 1
2.980933 25.396123 -30.706773 39.959416 1.453953 2.447210 0.061571 -0.020471 -47800.200000 0 0 1
2.720833 26.880423 -30.477543 40.728868 1.469920 2.416297 0.070171 -0.019494 420655.000000 0 0 1
3.894733 27.694523 -30.336043 41.260527 1.431081 2.396805 0.056171 -0.018320 371437.000000 0 0 1
3.608733 29.071623 -30.171423 42.053501 1.447296 2.370936 0.055193 -0.015904 -590354.000000 0 0 1
4.855833 29.970723 -30.136303 42.778734 1.410173 2.352471 0.068677 -0.024781 -261732.000000 0 0 1
5.589033 29.669723 -28.985633 41.853275 1.384603 2.335819 0.047000 -0.028379 -322040.000000 0 0 1
6.220833 30.887123 -28.572993 42.533858 1.372050 2.307393 0.040068 -0.024678 -488272.000000 0 0 1
7.360333 30.651123 -27.517713 41.843642 1.335126 2.288467 0.046832 -0.023281 1003830.000000 0 0 1
8.575433 30.120723 -28.069493 42.055825 1.293433 2.301554 0.046327 -0.015344 1581440.000000 0 0 1
9.653533 30.994823 -28.567903 43.243437 1.268863 2.292454 0.061213 -0.022936 1113770.000000 0 0 1
9.285633 32.151923 -29.560253 44.651738 1.289642 2.294304 0.055813 -0.021621 -1373450.000000 0 0 1
8.605233 33.229623 -28.984053 44.925863 1.317400 2.272020 0.049485 -0.019506 -36.076500 0 0 1
8.369133 -34.301182 -29.833993 46.224243 -1.331482 2.272368 0.045025 -0.013837 -78078.100000 0 0 1
7.055233 34.223423 -30.653093 46.482589 1.367492 2.290888 0.021112 -0.003816 -193913.000000 0 0 1
7.084733 33.243023 -31.679193 46.463569 1.360818 2.321026 0.008140 -0.000364 210840.000000 0 0 1
5.963633 33.357823 -32.541513 46.981479 1.393888 2.335947 0.019220 0.000171 13803.200000 0 0 1
5.980133 32.340023 -33.712553 47.097508 1.387947 2.368570 0.021527 -0.009880 116584.000000 0 0 1
6.847733 32.716323 33.729709 47.486235 1.364469 0.780865 0.038876 -0.008797 177443.000000 0 0 1
6.538133 31.997223 32.528616 46.094255 1.369237 0.787389 0.038723 -0.010619 297392.000000 0 0 1
5.588333 32.733223 31.495153 45.767216 1.401703 0.811847 0.042642 -0.019479 718402.000000 0 0 1
6.212433 33.847523 30.890193 46.243412 1.389275 0.839290 0.045124 -0.017353 280551.000000 0 0 1
5.187933 -34.001282 30.326053 45.854894 -1.419384 0.848182 0.040964 -0.025523 200287.000000 0 0 1
17.920077 -21.832777 29.709823 40.993571 -0.883508 0.760134 0.073894 -0.006405 -1287750.000000 0 0 1
16.814377 -21.040177 29.707393 40.099146 -0.896570 0.736464 0.072506 -0.007272 -679242.000000 0 0 1
15.598477 -21.650777 30.125593 40.244503 -0.946472 0.724902 0.072004 -0.009483 367904.000000 0 0 1
15.366577 -22.141077 31.627083 41.552754 -0.964088 0.705741 0.049663 -0.011321 -824532.000000 0 0 1
16.044977 -23.304777 31.974273 42.695527 -0.967841 0.724410 0.068487 -0.013512 162000.000000 0 0 1
15.680377 -23.721277 33.303910 43.791822 -0.986709 0.706705 0.063059 -0.010271 -68431.100000 0 0 1
16.534377 -24.865277 33.837638 45.129296 -0.983977 0.723047 0.069591 -0.012192 -297255.000000 0 0 1
16.122377 -26.178547 33.462043 45.441783 -1.018795 0.743104 0.065996 -0.013648 -16775.400000 0 0 1
16.877677 -27.178977 34.114099 46.768841 -1.015091 0.753324 0.069232 -0.012220 -44449.000000 0 0 1
16.508377 -28.565167 33.637341 47.116515 -1.046770 0.775718 0.060574 -0.013410 -50961.800000 0 0 1
17.179677 -29.067597 32.504444 46.867957 -1.037002 0.804416 0.055494 -0.019904 201399.000000 0 0 1
16.658377 -30.352887 32.194933 47.279097 -1.068857 0.821731 0.063716 -0.024925 -134610.000000 0 0 1
17.565077 -31.016667 31.183223 47.359888 -1.055517 0.852064 0.059833 -0.025346 -160633.000000 0 0 1
18.800877 -31.487257 31.648343 48.441077 -1.032516 0.858813 0.074867 -0.037402 -176788.000000 0 0 1
19.524077 -32.242227 30.673963 48.596737 -1.026311 0.887705 0.065347 -0.034478 39436.300000 0 0 1
20.923577 -32.691307 31.154923 49.770944 -1.001458 0.894427 0.067965 -0.043277 -195089.000000 0 0 1
21.819777 -31.626777 31.266903 49.537611 -0.966871 0.887729 0.068756 -0.038879 365403.000000 0 0 1
23.114477 -32.126707 31.649623 50.676454 -0.947117 0.896250 0.069925 -0.040793 700876.000000 0 0 1
24.181777 -31.004207 31.750853 50.538459 -0.908400 0.891493 0.053132 -0.039884 -23262.700000 0 0 1
24.668077 -30.658337 30.483883 49.776649 -0.893249 0.911687 0.043642 -0.035689 45726.800000 0 0 1
25.583577 -29.535267 30.583533 49.620600 -0.856970 0.906700 0.030836 -0.031968 628955.000000 0 0 1
26.633777 -29.547657 29.451943 49.495849 -0.837217 0.933483 0.023767 -0.026218 -131046.000000 0 0 1
27.732177 -30.374607 29.682763 50.722350 -0.830842 0.945669 0.011877 -0.018704 259307.000000 0 0 1
28.715377 -30.428407 28.629123 50.696031 -0.814354 0.970701 0.005487 -0.026167 617553.000000 0 0 1
29.937277 -31.331117 28.824243 52.045331 -0.808144 0.983840 -0.014157 -0.010831 -166596.000000 0 0 1
29.641177 -32.709197 28.873193 52.746111 -0.834565 0.991543 -0.011961 -0.014808 145086.000000 0 0 1
30.773777 -33.499167 29.237503 54.074496 -0.827776 0.999540 -0.006487 -0.010451 -605233.000000 0 0 1
30.398477 33.750942 29.903213 54.381942 0.837611 0.988583 -0.006806 -0.010903 -403144.000000 0 0 1
29.778377 33.781238 31.158133 54.760871 0.848293 0.965525 0.014116 -0.004007 2100030.000000 0 0 1
28.543577 -34.036837 31.343553 54.365986 -0.872953 0.956322 0.004983 0.004385 1591480.000000 0 0 1
27.265477 -34.287258 30.521373 53.390791 -0.898985 0.962269 0.015608 -0.001247 -81471.100000 0 0 1
26.609277 33.060444 30.753523 52.410169 0.893094 0.943713 0.007268 -0.000819 -975437.000000 0 0 1
25.250577 33.294960 30.616163 51.802466 0.921947 0.938477 0.026164 -0.007603 -743710.000000 0 0 1
24.435077 31.989678 30.676813 50.611060 0.918495 0.919612 0.043404 -0.018306 -220197.000000 0 0 1
24.604677 31.117818 29.577573 49.482740 0.901755 0.930123 0.042059 -0.011185 -65779.400000 0 0 1
23.891477 29.928688 29.822163 48.537516 0.897105 0.909152 0.073316 -0.020591 -111925.000000 0 0 1
23.352277 29.179248 28.583003 47.050456 0.895870 0.917891 0.071506 -0.021312 -349763.000000 0 0 1
22.083977 29.620728 28.190413 46.473530 0.930144 0.919031 0.087759 -0.025440 -610701.000000 0 0 1
21.767677 29.240838 26.885873 45.295790 0.930871 0.935318 0.078866 -0.017784 -31591.100000 0 0 1
20.422277 29.821128 26.417963 44.769162 0.970327 0.939622 0.086118 -0.012314 41813.800000 0 0 1
20.474377 31.144608 25.934723 45.407010 0.989239 0.962876 0.074111 -0.022204 490832.000000 0 0 1
19.129577 31.601288 25.744613 45.026295 1.026458 0.962137 0.061450 -0.018435 434216.000000 0 0 1
18.935277 32.926121 24.994133 45.468460 1.048899 0.988788 0.073734 -0.018094 -320877.000000 0 0 1
19.425477 33.138718 23.735733 45.154278 1.040596 1.017307 0.074662 -0.013734 78824.400000 0 0 1
20.738877 33.696449 23.725493 46.135135 1.019085 1.030651 0.069036 -0.004985 326916.000000 0 0 1
21.277577 33.722387 22.304323 45.688264 1.007921 1.060787 0.070551 -0.010458 -47605.700000 0 0 1
20.631077 -33.917887 21.511623 45.153232 -1.024321 1.074225 0.055717 0.000684 453350.000000 0 0 1
21.357877 -33.651007 20.294823 44.726156 -1.005261 1.099819 0.062613 -0.006592 197213.000000 0 0 1
21.033277 -32.300787 19.639023 43.260037 -0.993600 1.099574 0.056408 -0.009150 -258125.000000 0 0 1
21.561377 -31.220777 20.403623 43.080596 -0.966400 1.077405 0.053054 0.004141 161775.000000 0 0 1
21.238177 -29.937797 19.997923 41.800105 -0.953783 1.071944 0.056688 -0.008258 136770.000000 0 0 1
22.112577 -29.334677 18.842823 41.286091 -0.924866 1.096855 0.045701 -0.009788 287885.000000 0 0 1
21.630977 -29.874097 17.637223 40.883156 -0.944097 1.124746 0.031293 -0.021591 599116.000000 0 0 1
22.319077 -29.219957 16.570723 40.330335 -0.918503 1.147383 0.031558 -0.022072 -35900.000000 0 0 1
21.895977 -29.781337 15.209923 39.971285 -0.936819 1.180436 0.018981 -0.016175 49460.900000 0 0 1
22.518577 -31.044517 14.880523 41.137310 -0.943250 1.200675 0.043590 -0.018872 164500.000000 0 0 1
22.576077 -31.269887 13.480423 40.855928 -0.945474 1.234545 0.047728 -0.020249 -443151.000000 0 0 1
21.291477 -31.606957 12.718623 40.175740 -0.977987 1.248680 0.038265 -0.020688 -553190.000000 0 0 1
20.610877 -32.754447 13.103923 40.857984 -1.009144 1.244308 0.040281 -0.019128 -90314.000000 0 0 1
19.496477 -33.013027 12.278223 40.258258 -1.037340 1.260872 0.044474 -0.007327 -491558.000000 0 0 1
18.409377 -33.849977 12.895623 40.632785 -1.072686 1.247842 0.054361 -0.006039 -472810.000000 0 0 1
17.848477 -33.176417 14.049223 40.207256 -1.077223 1.213844 0.046379 -0.007542 333522.000000 0 0 1
18.393877 -33.569407 15.305923 41.225127 -1.069539 1.190413 0.032320 -0.014848 -657142.000000 0 0 1
18.175177 -32.479787 16.372923 40.661360 -1.060625 1.156369 0.033914 -0.018036 1801200.000000 0 0 1
16.772477 -32.230267 16.715123 39.993767 -1.090966 1.139616 0.042846 -0.025599 2304940.000000 0 0 1
15.905277 -33.231777 17.348523 40.722231 -1.124401 1.130706 0.050739 -0.014004 288811.000000 0 0 1
16.439877 -33.947397 18.688723 42.094699 -1.119808 1.110773 0.039442 -0.018592 578938.000000 0 0 1
17.395377 33.599869 18.486523 42.110591 1.093072 1.116312 0.033728 -0.013543 666672.000000 0 0 1
17.850077 33.052349 19.733123 42.432054 1.075621 1.087103 0.033469 -0.008481 222838.000000 0 0 1
18.589277 31.681888 19.706323 41.685038 1.040178 1.078395 0.038825 -0.013169 381360.000000 0 0 1
17.778577 30.534228 19.344923 40.282042 1.043530 1.069872 0.031573 -0.008310 -100042.000000 0 0 1
18.538877 29.433058 18.940423 39.607253 1.008706 1.072186 0.034692 -0.011824 34481.800000 0 0 1
17.725177 28.102018 18.777223 38.163981 1.008077 1.056394 0.044076 0.003860 248437.000000 0 0 1
17.393677 27.346508 19.932223 38.048193 1.004292 1.019411 0.057974 -0.004316 -149877.000000 0 0 1
16.882477 26.101028 19.535423 36.713954 0.996665 1.009720 0.057547 -0.007631 -502238.000000 0 0 1
16.831077 25.118458 20.731823 36.661023 0.980443 0.969756 0.069583 -0.007352 437356.000000 0 0 1
15.736077 25.064488 21.656123 36.672065 1.010169 0.939075 0.075710 -0.008203 426417.000000 0 0 1
14.618377 24.291758 21.252923 35.432657 1.029067 0.927531 0.073775 -0.002758 -44315.300000 0 0 1
13.356877 24.662698 22.038523 35.670034 1.074439 0.904798 0.075474 -0.014289 -257244.000000 0 0 1
12.805177 25.902998 21.618923 36.087612 1.111678 0.928460 0.079134 -0.013391 -442593.000000 0 0 1
11.519177 26.114588 22.110423 36.104487 1.155367 0.911702 0.064541 -0.019660 -600789.000000 0 0 1
10.748077 27.333388 21.572423 36.441799 1.196147 0.937296 0.052377 -0.021846 -292752.000000 0 0 1
11.242077 28.617768 21.803123 37.692667 1.196481 0.953976 0.052170 -0.025860 189652.000000 0 0 1
10.605577 29.471538 20.814323 37.606992 1.225366 0.984272 0.050809 -0.024684 478885.000000 0 0 1
11.183077 30.909478 20.912023 38.958565 1.223647 1.004185 0.045145 -0.023212 29692.000000 0 0 1
10.684777 31.649198 22.020823 40.009410 1.245210 0.987964 0.054190 -0.021781 1996.880000 0 0 1
11.353077 31.450098 23.263623 40.733244 1.224367 0.962925 0.052637 -0.020644 123584.000000 0 0 1
10.660777 32.363538 24.282543 41.841279 1.252584 0.951639 0.044656 -0.017876 -844905.000000 0 0 1
9.357477 32.053438 24.572033 41.458052 1.286756 0.936394 0.038821 -0.012800 -1316420.000000 0 0 1
8.931677 32.840044 25.659063 42.621953 1.305244 0.924774 0.048572 -0.013834 -447709.000000 0 0 1
7.535777 32.663784 26.268253 42.587931 1.344056 0.906125 0.081986 -0.026386 -632617.000000 0 0 1
6.449177 33.475148 25.846103 42.780819 1.380472 0.922095 0.057786 -0.015415 385136.000000 0 0 1
5.804177 33.024241 24.674393 41.630694 1.396818 0.936393 0.049674 -0.023346 -418928.000000 0 0 1
4.935477 31.769688 24.813513 40.612590 1.416677 0.913497 0.030091 -0.022963 -1039660.000000 0 0 1
5.640577 30.585338 25.128733 39.984150 1.388425 0.891215 0.037505 -0.027939 -494443.000000 0 0 1
4.836177 29.423858 25.065993 38.954538 1.407890 0.871776 0.018614 -0.023067 -763612.000000 0 0 1
5.610877 28.116298 25.342543 38.265554 1.373824 0.846938 0.041940 -0.030048 -371716.000000 0 0 1
6.444777 27.590928 24.343533 37.355081 1.341327 0.861000 0.067579 -0.029931 675469.000000 0 0 1
7.628677 28.357918 24.075103 37.973396 1.308004 0.884083 0.078084 -0.037413 -436611.000000 0 0 1
8.883477 28.162908 24.897823 38.625991 1.265243 0.870313 0.055467 -0.035122 -1236900.000000 0 0 1
8.695477 28.287988 26.271763 39.573061 1.272573 0.844801 0.058766 -0.031444 1377570.000000 0 0 1
9.890977 27.914158 27.039483 40.101936 1.230264 0.830822 0.069846 -0.015965 1106590.000000 0 0 1
11.120977 28.809168 27.091343 41.080228 1.202398 0.850677 0.059435 -0.016937 -610689.000000 0 0 1
10.989577 29.862218 27.935513 42.342836 1.218168 0.850316 0.058961 -0.029922 213825.000000 0 0 1
12.176377 30.639688 27.962773 43.231601 1.192529 0.867398 0.069885 -0.020693 71521.300000 0 0 1
12.003277 31.971078 28.777763 44.658573 1.211638 0.870564 0.044005 -0.026447 24596.300000 0 0 1
11.729477 31.793778 30.162423 45.367353 1.217363 0.843505 0.038623 -0.042834 21835.400000 0 0 1
10.367377 31.667978 30.510633 45.180107 1.254416 0.829410 0.062491 -0.039804 -161003.000000 0 0 1
10.179277 31.607348 32.042863 46.145284 1.259231 0.803223 0.077694 -0.033405 -310982.000000 0 0 1
10.340677 30.358438 32.647725 45.765034 1.242503 0.776491 0.059599 -0.034686 149117.000000 0 0 1
10.462877 30.430558 34.112684 46.895265 1.239631 0.756238 0.079415 -0.026735 -49623.100000 0 0 1
10.505077 29.040628 -33.773533 45.764246 1.223704 2.400882 0.067492 -0.019401 606858.000000 0 0 1
11.756177 28.375088 -34.027803 45.839336 1.178012 2.407334 0.078584 -0.018561 641642.000000 0 0 1
11.697177 26.981248 -33.658943 44.696042 1.161723 2.423502 0.077052 -0.020220 199308.000000 0 0 1
13.063277 26.274138 -33.888773 44.826649 1.109398 2.427971 0.083374 -0.018567 277306.000000 0 0 1
13.167977 24.896808 -33.678513 43.903176 1.084295 2.445118 0.069145 -0.020733 -196310.000000 0 0 1
13.467077 24.518958 -32.335913 42.756903 1.068528 2.428395 0.070780 -0.015175 -212820.000000 0 0 1
13.549077 22.970928 -32.086813 41.722950 1.037884 2.448142 0.050756 -0.029491 -319133.000000 0 0 1
14.609377 22.235128 -32.627453 42.099709 0.989488 2.457518 0.044509 -0.014293 -300776.000000 0 0 1
14.433077 20.882128 -32.374243 41.139623 0.966022 2.476623 0.038855 -0.008433 -169670.000000 0 0 1
15.697977 20.091228 -32.707303 41.471093 0.907541 2.479451 0.058176 -0.011804 -155063.000000 0 0 1
16.811777 20.365928 -31.906893 41.418072 0.880708 2.450204 0.051469 -0.015128 -188947.000000 0 0 1
17.980377 19.679328 -32.322513 41.896477 0.830481 2.451969 0.058718 -0.013773 910915.000000 0 0 1
19.196377 20.093628 -31.385133 41.919940 0.808231 2.416883 0.050046 -0.010838 641253.000000 0 0 1
19.793077 21.340528 -31.750753 43.073128 0.823001 2.399619 0.046944 -0.003578 -539547.000000 0 0 1
20.843877 21.783628 -30.979503 43.228732 0.807440 2.369771 0.044064 0.003447 -378032.000000 0 0 1
20.395477 22.277728 -29.620013 42.303875 0.829478 2.346436 0.048796 -0.012473 -12928.200000 0 0 1
19.702377 23.510828 -29.673623 42.678643 0.873303 2.339606 0.038062 0.004679 -137047.000000 0 0 1
19.262077 23.998668 -28.417663 41.887077 0.894453 2.316427 0.034916 0.004094 305499.000000 0 0 1
20.369777 24.613458 -27.480693 42.141887 0.879459 2.281146 0.032885 -0.002554 385130.000000 0 0 1
21.060777 25.711528 -28.037523 43.482660 0.884506 2.271555 0.035783 0.003338 -783727.000000 0 0 1
20.416277 26.932768 -28.118243 43.964007 0.922166 2.264741 0.029658 0.005581 -675362.000000 0 0 1
21.213677 27.965658 -28.940723 45.493555 0.921838 2.260294 0.023902 0.007425 -276484.000000 0 0 1
21.253977 27.815948 -30.362603 46.339467 0.918336 2.285272 0.038062 0.007455 2503.340000 0 0 1
21.753077 26.613058 -30.982003 46.274569 0.885545 2.304366 0.042675 0.004367 862169.000000 0 0 1
23.226877 26.093038 -30.728563 46.525037 0.843447 2.292246 0.046216 -0.002529 215289.000000 0 0 1
24.197877 26.944128 -31.145703 47.765867 0.839045 2.281081 0.038449 0.006861 -1254910.000000 0 0 1
25.465177 26.376428 -30.961493 47.987553 0.802974 2.272079 0.048400 -0.001387 -67332.500000 0 0 1
26.688577 27.262618 -31.276723 49.333192 0.796038 2.257497 0.034485 0.010723 -64308.600000 0 0 1
26.889777 28.280038 -30.323923 49.420248 0.810593 2.231399 0.028728 0.010724 179068.000000 0 0 1
27.765277 29.341558 -30.718673 50.749133 0.812993 2.220945 0.035284 0.008570 425947.000000 0 0 1
27.663077 30.516268 -29.695403 50.777016 0.834400 2.195454 0.033362 0.014695 -65792.700000 0 0 1
28.213477 30.243498 -28.427913 50.187804 0.820111 2.172965 0.044854 0.001714 241765.000000 0 0 1
27.663177 31.138878 -27.502673 49.912705 0.844438 2.154377 0.032290 0.002133 -297514.000000 0 0 1
28.192477 30.843688 -26.083233 49.259353 0.830276 2.128817 0.053909 -0.006444 -167193.000000 0 0 1
27.970277 29.533808 -25.511323 48.014683 0.812581 2.130958 0.050645 0.002072 842604.000000 0 0 1
26.610777 29.202208 -25.180853 46.850590 0.831795 2.138232 0.044151 -0.001609 629509.000000 0 0 1
26.155177 29.495148 -23.723613 46.009421 0.845343 2.112533 0.046108 0.005715 -102710.000000 0 0 1
26.124477 30.876658 -23.326213 46.690133 0.868576 2.093929 0.059870 0.002510 -101255.000000 0 0 1
25.637377 30.918378 -22.049013 45.818994 0.878505 2.072842 0.047400 0.007410 -45089.900000 0 0 1
3.365677 -26.158737 -19.701613 32.920523 -1.442836 2.212374 0.049435 -0.014531 -341284.000000 0 0 1
3.332877 -27.180737 -18.776413 33.203226 -1.448786 2.171835 0.056312 -0.008840 267237.000000 0 0 1
3.251077 -26.802967 -17.421013 32.131919 -1.450091 2.143816 0.063062 -0.009810 -58806.300000 0 0 1
3.236177 -27.956447 -16.476413 32.611470 -1.455551 2.100449 0.055218 -0.015275 145770.000000 0 0 1
4.548177 -28.362427 -16.144813 32.950996 -1.411791 2.082845 0.061937 -0.014285 50214.400000 0 0 1
4.487577 -29.320127 -15.097013 33.282548 -1.418920 2.041599 0.063586 -0.022112 318128.000000 0 0 1
5.894177 -29.889817 -14.780313 33.861485 -1.376098 2.022494 0.090849 -0.018822 267950.000000 0 0 1
6.797077 -28.892937 -14.236613 32.919344 -1.339747 2.018026 0.082264 -0.012722 551759.000000 0 0 1
8.134577 -29.352157 -14.090613 33.559884 -1.300444 2.004093 0.087761 -0.010940 454067.000000 0 0 1
8.392977 -30.481797 -13.039113 34.199422 -1.302110 1.961963 0.083104 -0.015823 -1264480.000000 0 0 1
8.398777 -30.042187 -11.712513 33.320495 -1.298190 1.929981 0.077502 -0.018296 -17763.000000 0 0 1
8.683177 -31.047087 -10.760613 33.986909 -1.298087 1.892950 0.080835 -0.012489 -12019.300000 0 0 1
10.032277 -31.795917 -10.689413 35.012719 -1.265162 1.881051 0.069878 -0.016195 -852386.000000 0 0 1
11.019277 -31.026377 -10.130813 34.448424 -1.229534 1.869296 0.079644 -0.019955 -814968.000000 0 0 1
12.110377 -31.853577 -9.785913 35.455263 -1.207484 1.850434 0.066225 -0.019262 316403.000000 0 0 1
13.264277 -31.117527 -9.033813 35.012159 -1.167856 1.831768 0.057574 -0.017616 544571.000000 0 0 1
14.220177 -30.346077 -9.789513 34.913212 -1.132583 1.855003 0.059272 -0.027523 498120.000000 0 0 1
15.228077 -30.022637 -8.870213 34.812839 -1.101390 1.828434 0.058970 -0.021921 -448923.000000 0 0 1
16.500277 -29.318627 -9.359513 34.920503 -1.058185 1.842137 0.058563 -0.028605 -274041.000000 0 0 1
16.518577 -27.917447 -9.576913 33.822544 -1.036507 1.857875 0.066638 -0.028339 49578.100000 0 0 1
15.754277 -27.453337 -10.680013 33.405772 -1.049822 1.896215 0.058390 -0.027090 -358464.000000 0 0 1
15.422677 -25.916787 -10.716413 32.005942 -1.033999 1.912217 0.071594 -0.026333 -230839.000000 0 0 1
14.339077 -25.558807 -9.856013 30.919294 -1.059530 1.895223 0.060342 -0.023565 675116.000000 0 0 1
13.718777 -24.257077 -10.031913 29.618405 -1.056087 1.916337 0.057193 -0.013493 456329.000000 0 0 1
13.134677 -23.797177 -11.360313 29.459838 -1.066463 1.966676 0.044763 -0.005192 578803.000000 0 0 1
14.171277 -23.351677 -12.290413 29.952966 -1.025346 1.993605 0.052551 -0.011977 723917.000000 0 0 1
13.632977 -23.210677 -13.617313 30.166617 -1.039724 2.039134 0.063597 -0.017253 241183.000000 0 0 1
14.603277 -22.700877 -14.708813 30.739790 -0.999152 2.069735 0.054230 -0.017668 368861.000000 0 0 1
15.623877 -23.609077 -15.123713 32.097052 -0.986189 2.061432 0.045370 -0.016090 500068.000000 0 0 1
16.253377 -23.133977 -16.329213 32.649600 -0.958344 2.094551 0.052145 -0.015854 -267785.000000 0 0 1
17.101477 -24.168977 -17.106513 34.194045 -0.955001 2.094716 0.049805 -0.014760 1732850.000000 0 0 1
18.420177 -24.563877 -16.641413 34.923110 -0.927366 2.067484 0.052200 -0.015020 734034.000000 0 0 1
19.468777 -23.646977 -16.759613 34.915576 -0.882003 2.071456 0.046058 -0.013975 -106434.000000 0 0 1
20.859077 -24.302377 -16.545313 36.047940 -0.861495 2.047644 0.039021 -0.015806 320252.000000 0 0 1
21.198277 -25.285747 -17.500613 37.349798 -0.873105 2.058456 0.039303 -0.014236 -60838.900000 0 0 1
22.253377 -26.112657 -17.020713 38.298672 -0.865023 2.031324 0.051720 -0.010641 237318.000000 0 0 1
23.073177 -26.871127 -18.055913 39.754810 -0.861296 2.042250 0.061512 -0.007669 -452012.000000 0 0 1
23.756577 -26.001007 -18.912813 39.976516 -0.830475 2.063600 0.072289 -0.011187 -182480.000000 0 0 1
24.523677 -26.804997 -19.834213 41.392205 -0.829814 2.070514 0.072987 -0.010954 431416.000000 0 0 1
25.749077 -26.010127 -20.325813 41.865025 -0.790442 2.077741 0.067409 -0.017683 81777.800000 0 0 1
25.280777 -24.995177 -21.229313 41.407249 -0.779718 2.109118 0.069151 -0.020149 187188.000000 0 0 1
25.231277 -23.733377 -20.544413 40.273607 -0.754816 2.106122 0.078957 -0.019317 -535342.000000 0 0 1
23.894077 -22.985177 -20.780213 39.128794 -0.766012 2.130662 0.112604 -0.024812 -675883.000000 0 0 1
23.688077 -22.299277 -21.937613 39.238267 -0.755208 2.164081 0.101401 -0.016574 -163042.000000 0 0 1
23.530577 -23.049677 -23.106513 40.235390 -0.775074 2.182525 0.059419 -0.019550 -479408.000000 0 0 1
22.855177 -22.308777 -24.270213 40.113388 -0.773301 2.220613 0.047489 -0.020200 -63542.100000 0 0 1
23.742477 -21.470077 -24.976013 40.601363 -0.735180 2.233375 0.047833 -0.005839 -34790.000000 0 0 1
23.038277 -20.630377 -25.864243 40.315428 -0.730314 2.267310 0.038991 -0.007047 119063.000000 0 0 1
23.872377 -20.192077 -27.082423 41.365058 -0.702071 2.284605 0.038600 -0.000627 38980.200000 0 0 1
23.064877 -19.338277 -27.885433 41.031145 -0.697738 2.318036 0.037008 0.004296 258673.000000 0 0 1
23.707677 -18.767577 -29.007273 41.901047 -0.669613 2.335441 0.049809 0.007660 105271.000000 0 0 1
22.748377 -17.820977 -29.784443 41.499264 -0.664534 2.371305 0.077868 0.000874 -362045.000000 0 0 1
21.617877 -18.401477 -30.351943 41.559444 -0.705199 2.389595 0.081790 0.000339 -541805.000000 0 0 1
20.966877 -17.438277 -31.089213 41.355079 -0.693777 2.421528 0.096439 -0.002226 -392602.000000 0 0 1
19.559377 -17.813277 -31.566693 41.186626 -0.738711 2.444062 0.080273 -0.002425 -206278.000000 0 0 1
19.707977 -18.707977 -32.677913 42.499868 -0.759373 2.447907 0.073325 -0.000826 17102.200000 0 0 1
18.507477 -19.176877 -33.232633 42.599146 -0.803160 2.465661 0.069374 -0.007327 -265670.000000 0 0 1
18.721477 -20.127477 34.009141 43.729060 -0.821574 0.679759 0.087264 -0.010069 -78212.600000 0 0 1
19.498777 -21.241177 -34.173471 44.712594 -0.828141 2.440739 0.090022 -0.008547 -3565.680000 0 0 1
19.812477 -22.087377 33.234442 44.552381 -0.839639 0.728816 0.085297 -0.014397 13370.800000 0 0 1
20.619377 -23.313377 33.713530 45.883269 -0.846642 0.745473 0.071579 -0.011285 264447.000000 0 0 1
19.911477 -24.262977 -33.922543 46.215775 -0.883589 2.394995 0.078043 -0.013688 376995.000000 0 0 1
19.867777 -23.993277 -32.573303 45.071343 -0.879181 2.378505 0.083046 -0.013017 -508561.000000 0 0 1
19.007577 -25.011577 -31.869253 44.749483 -0.920957 2.363381 0.087300 -0.014647 -474996.000000 0 0 1
19.453377 -26.366287 -31.839963 45.688053 -0.935141 2.341861 0.083505 -0.022182 -493393.000000 0 0 1
20.446077 -26.640817 -30.918613 45.647955 -0.916207 2.314920 0.072815 -0.031686 -478299.000000 0 0 1
20.616377 -28.189247 -30.794783 46.561651 -0.939334 2.293449 0.066582 -0.038291 -372455.000000 0 0 1
19.400977 -28.790857 -30.468353 46.191253 -0.977831 2.291100 0.066730 -0.034463 -409887.000000 0 0 1
19.508677 -30.205937 -30.537213 47.175295 -0.997340 2.274851 0.064234 -0.030631 398709.000000 0 0 1
18.217877 -30.951267 -30.076583 46.845201 -1.038802 2.267955 0.085788 -0.024361 1725140.000000 0 0 1
17.026677 -30.978397 -30.941403 46.978072 -1.068237 2.289800 0.096696 -0.030162 1160740.000000 0 0 1
17.114777 -31.739917 -32.156653 48.315507 -1.076268 2.299034 0.100311 -0.031851 -550713.000000 0 0 1
15.787877 -32.304157 -32.688953 48.594066 -1.116209 2.308640 0.086544 -0.029763 -37137.400000 0 0 1
14.901377 -31.339247 -33.197313 48.023547 -1.126951 2.334044 0.080223 -0.022448 -600517.000000 0 0 1
13.765377 -31.967677 -33.738383 48.473668 -1.164189 2.340628 0.045701 -0.017215 117827.000000 0 0 1
12.852377 -30.933307 34.035268 47.754084 -1.177011 0.777429 0.041909 -0.004748 102472.000000 0 0 1
12.186977 -30.026857 -33.613463 46.690464 -1.185241 2.374485 0.055346 -0.008361 314174.000000 0 0 1
11.450677 -29.084507 34.045186 46.217975 -1.195730 0.742734 0.044419 -0.002213 423258.000000 0 0 1
10.741577 -27.834137 -33.796723 45.081472 -1.202492 2.418376 0.046659 -0.008012 771858.000000 0 0 1
9.747377 -28.338827 -32.893253 44.497939 -1.239514 2.402691 0.047852 -0.005636 286192.000000 0 0 1
8.833677 -27.335037 -32.421873 43.317617 -1.258227 2.416546 0.041631 -0.000408 859228.000000 0 0 1
7.655977 -27.980867 -31.607193 42.901720 -1.303718 2.399025 0.031783 0.005525 641952.000000 0 0 1
6.660677 -28.671087 -32.361663 43.745549 -1.342532 2.403525 0.037139 0.001683 37054.100000 0 0 1
6.950277 -30.039997 -32.619483 44.885838 -1.343430 2.384333 0.030353 0.001255 -636653.000000 0 0 1
5.795277 -30.916957 -33.099803 45.662243 -1.385500 2.381661 0.029468 0.000352 -597749.000000 0 0 1
4.974477 -31.199727 -32.027843 44.988344 -1.412687 2.363017 0.032245 -0.001472 -390919.000000 0 0 1
4.019077 -32.191007 -32.386773 45.840124 -1.446588 2.355359 0.050046 -0.014633 -391024.000000 0 0 1
3.126077 -32.655497 -31.232283 45.294694 -1.475358 2.331643 0.037937 -0.020558 339953.000000 0 0 1
2.083777 -31.816927 -30.736993 44.287941 -1.505397 2.337863 0.049054 -0.020868 20975.100000 0 0 1
0.832777 -32.072677 -31.304693 44.825595 -1.544837 2.343909 0.043712 0.003469 -172696.000000 0 0 1
-0.270023 -31.041047 -30.909703 43.806726 1.562098 2.354055 0.034262 0.001956 273785.000000 0 0 1
-0.692223 -31.152507 -29.533543 42.932366 1.548580 2.329400 0.019663 -0.008624 346320.000000 0 0 1
-1.536323 -30.042917 -29.147483 41.886906 1.519703 2.340415 0.043851 -0.003921 65201.500000 0 0 1
-2.181923 -30.282977 -27.839343 41.192821 1.498869 2.312887 0.038785 -0.010490 -113465.000000 0 0 1
-1.260723 -30.239187 -26.755373 40.396136 1.529129 2.294714 0.029513 -0.005515 -58480.200000 0 0 1
-1.982423 -30.256597 -25.600603 39.683530 1.505369 2.271975 0.035306 -0.009535 346420.000000 0 0 1
-1.006523 -30.740857 -24.474113 39.306432 1.538066 2.242920 0.027749 -0.009714 45172.500000 0 0 1
-1.479823 -30.575567 -23.176313 38.395269 1.522435 2.218835 0.045214 -0.021972 -610741.000000 0 0 1
-0.519823 -30.878727 -22.204613 38.036967 1.553964 2.194153 0.048092 -0.012921 -273770.000000 0 0 1
-1.088223 -30.846607 -20.795113 37.217390 1.535532 2.163671 0.017676 -0.014630 -230669.000000 0 0 1
-1.217723 -29.531347 -20.239613 35.822133 1.529585 2.171233 0.014798 -0.018140 292963.000000 0 0 1
-0.025623 -28.883287 -19.783813 35.009201 1.569909 2.171355 0.031152 -0.025032 18246.900000 0 0 1
-0.253023 -27.524957 -19.185713 33.552628 1.561604 2.179506 0.028792 -0.026903 -153252.000000 0 0 1
-1.040823 -27.515987 -18.019413 32.907630 1.532988 2.150260 0.025762 -0.023316 18930.700000 0 0 1
-1.085823 -26.206327 -17.455813 31.506444 1.529386 2.158005 0.034150 -0.021324 143856.000000 0 0 1
-1.852023 -26.252477 -16.108513 30.856227 1.500366 2.120050 0.024869 -0.015041 -198229.000000 0 0 1
-1.918623 -24.956377 -15.643413 29.516406 1.494068 2.129386 0.017606 -0.003675 -285516.000000 0 0 1
-2.670623 -25.002877 -14.492013 29.022311 1.464387 2.093634 0.016189 0.001158 -561994.000000 0 0 1
-2.566023 -23.820177 -13.461913 27.481055 1.463485 2.082727 0.016961 0.008546 78569.100000 0 0 1
-1.363723 -23.871077 -12.714313 27.080285 1.513730 2.059526 0.019185 0.004730 -402474.000000 0 0 1
-1.305423 -22.763177 -11.892613 25.715766 1.513511 2.051568 0.021142 0.005760 555182.000000 0 0 1
-0.083923 -22.754677 -10.914113 25.236882 1.567108 2.018023 0.019812 0.002180 423007.000000 0 0 1
0.218477 -21.540277 -10.357913 23.902252 -1.560654 2.018997 0.018852 0.004270 -210654.000000 0 1 0
1.390177 -21.549977 -9.575913 23.622705 -1.506376 1.988179 0.012028 0.001872 144691.000000 0 1 0
1.863077 -20.102477 -9.306013 22.230216 -1.478381 2.002722 0.021727 0.003969 -723631.000000 0 1 0
2.322777 -19.418477 -10.490413 22.192821 -1.451745 2.063142 0.025241 0.007491 209493.000000 0 1 0
3.046077 -18.199077 -10.301613 21.133107 -1.404958 2.079978 0.013472 0.000231 -373881.000000 0 1 0
4.508577 -18.423177 -9.923713 21.406093 -1.330790 2.052842 0.029226 -0.015385 -748452.000000 0 1 0
4.561977 -19.004077 -8.628513 21.363937 -1.335202 1.986553 0.033705 -0.013331 1815.480000 0 1 0
5.721077 -19.815277 -8.426013 22.279444 -1.289720 1.958644 0.040772 -0.007214 122795.000000 0 1 0
5.480977 -20.938977 -7.374713 22.866313 -1.314781 1.899181 0.043732 -0.007937 -437513.000000 0 1 0
4.535377 -21.859377 -7.795913 23.646950 -1.366219 1.906760 0.038400 -0.016143 -323324.000000 0 1 0
4.322977 -22.866177 -6.830713 24.253017 -1.383946 1.856303 0.038008 -0.014636 -209236.000000 0 1 0
3.316977 -23.902577 -7.315913 25.216227 -1.432906 1.865156 0.027978 -0.014088 -358567.000000 0 0 1
3.779877 -24.682277 -8.362213 26.333038 -1.418836 1.893947 0.033469 -0.010731 -414701.000000 0 0 1
2.741377 -25.378067 -8.972913 27.056877 -1.463192 1.908829 0.024239 -0.004689 -229560.000000 0 0 1
3.169177 -26.107097 -10.248213 28.224990 -1.449996 1.942378 0.035667 -0.009437 -52906.500000 0 0 1
3.678977 -27.383647 -9.953313 29.367796 -1.437247 1.916564 0.034283 -0.009538 -174491.000000 0 0 1
4.296577 -27.942627 -11.095713 30.370476 -1.418227 1.944800 0.054607 -0.008921 183790.000000 0 0 1
4.552177 -29.471877 -10.992613 31.782879 -1.417549 1.923958 0.063299 -0.012428 -16016.000000 0 0 1
3.398477 -30.210897 -11.295613 32.432065 -1.458776 1.926538 0.063016 -0.009485 56421.900000 0 0 1
3.648977 -31.597187 -11.268113 33.744150 -1.455821 1.911264 0.069714 -0.008635 209099.000000 0 0 1
2.299577 -32.333717 -11.474713 34.386427 -1.499796 1.911021 0.057428 -0.018021 226795.000000 0 0 1
1.900377 -32.152607 -12.849213 34.677137 -1.511760 1.950385 0.059278 -0.020476 925915.000000 0 0 1
1.005377 -33.195647 -13.356213 35.795952 -1.540519 1.953167 0.047680 -0.018570 179027.000000 0 0 1
0.763177 -32.897187 -14.836513 36.096114 -1.547602 1.994378 0.048791 -0.013307 127052.000000 0 0 1
-0.251123 -31.958417 -15.187513 35.384517 1.562939 2.014418 0.045060 -0.017047 196129.000000 0 0 1
-0.501723 -31.952257 -16.569913 35.996673 1.555095 2.049150 0.031542 -0.018617 147503.000000 0 0 1
-1.705623 -31.030507 -16.886913 35.369045 1.515886 2.068545 0.029693 -0.014507 491566.000000 0 0 1
-2.948823 -31.480477 -16.363713 35.601785 1.477397 2.048377 0.031658 -0.018352 -187346.000000 0 0 1
-4.002623 -30.791877 -16.981113 35.390943 1.441532 2.071240 0.033674 -0.016165 614260.000000 0 0 1
-5.411323 -31.060587 -16.348713 35.515108 1.398309 2.049165 0.035552 -0.014321 276189.000000 0 0 1
-5.620823 -29.981707 -15.449613 34.193376 1.385472 2.039613 0.021583 -0.005211 -440032.000000 0 0 1
-6.967423 -29.828357 -15.096213 34.149254 1.341327 2.028697 0.041942 -0.013906 -427946.000000 0 0 1
-7.516723 -30.703007 -13.980013 34.563225 1.330698 1.987203 0.030947 -0.012739 -283095.000000 0 0 1
-7.754923 -32.045107 -14.351013 35.958021 1.333361 1.981336 0.035685 -0.007243 -68885.800000 0 0 1
-8.437823 -32.723257 -13.287313 36.311997 1.318439 1.945418 0.045567 -0.007545 442440.000000 0 0 1
-8.924923 -34.155320 -13.684113 37.861525 1.315207 1.940592 0.069492 -0.016515 431547.000000 0 0 1
-7.820823 33.595836 -13.957513 37.210988 -1.342078 1.955291 0.055157 -0.013399 575386.000000 0 0 1
-8.261323 32.227998 -14.108413 36.137801 -1.319860 1.971869 0.071670 -0.020957 70202.000000 0 0 1
-7.647623 -22.089577 -3.646713 23.658700 1.237502 1.725552 0.033949 0.003553 218576.000000 0 1 0
-7.278323 -20.926877 -4.368313 22.582965 1.236085 1.765457 0.017636 -0.002226 -295541.000000 0 1 0
-6.058123 -21.075177 -5.039913 22.500326 1.290890 1.796706 0.010243 0.005926 -75986.300000 0 1 0
-5.970823 -20.033077 -6.228913 21.812250 1.281131 1.860397 0.008860 0.004988 -100505.000000 0 1 0
-6.977623 -20.249577 -7.172013 22.586951 1.238957 1.893919 0.022537 -0.004695 -434553.000000 0 1 0
-6.988223 -19.196877 -8.100913 21.976809 1.221678 1.948312 0.009653 -0.009084 -343262.000000 0 1 0
-7.935723 -19.396077 -9.287613 22.922549 1.182435 1.987965 0.023047 -0.012031 -66246.800000 0 1 0
-7.523523 -20.408377 -10.231513 24.037244 1.217605 2.010479 0.046070 0.001372 -254852.000000 0 1 0
-8.369923 -20.461877 -11.366713 24.858523 1.182513 2.045704 0.040023 0.002951 -40734.300000 0 1 0
-7.813023 -21.297677 -12.575813 25.938108 1.219191 2.076976 0.037947 0.006238 -292688.000000 0 0 1
-6.814823 -20.634177 -13.299613 25.477260 1.251806 2.120013 0.046131 0.008893 -325153.000000 0 0 1
-6.389223 -21.441077 -14.434613 26.625176 1.281185 2.143780 0.032035 0.011053 -317417.000000 0 0 1
-5.448723 -20.651677 -15.303313 26.274926 1.312835 2.192512 0.029595 0.010439 -651508.000000 0 0 1
-4.139723 -20.626877 -14.783413 25.712928 1.372732 2.183328 0.024943 0.009345 369818.000000 0 0 1
-3.132023 -19.932577 -15.557713 25.478611 1.414940 2.227638 0.031573 0.015706 630835.000000 0 0 1
-3.207423 -18.396477 -15.660813 24.371684 1.398182 2.268660 0.044543 0.015610 245965.000000 0 1 0
-4.287723 -17.769377 -16.454313 24.594303 1.334024 2.303698 0.043867 0.018359 973160.000000 0 1 0
-4.291623 -17.969977 -17.837413 25.680954 1.336366 2.338629 0.051214 0.008591 208311.000000 0 0 1
-5.716823 -17.858477 -18.490613 26.334579 1.260986 2.349198 0.034239 0.023476 820477.000000 0 0 1
-6.613123 -18.781477 -17.931013 26.795494 1.232244 2.303901 0.038303 0.020062 -352802.000000 0 0 1
-7.867123 -18.828877 -18.568013 27.589660 1.175021 2.309062 0.030650 0.018562 -36951.000000 0 0 1
-8.759023 -19.923777 -18.015613 28.253136 1.156602 2.262240 0.053428 0.011284 -100100.000000 0 0 1
-8.305223 -21.194277 -18.511713 29.340375 1.197325 2.253547 0.048150 0.018545 387057.000000 0 0 1
-9.095923 -22.228577 -17.981613 30.003064 1.182385 2.213455 0.059301 0.018873 66735.200000 0 0 1
-8.486623 -23.607777 -18.320313 31.064188 1.225697 2.201554 0.063650 -0.003230 -572542.000000 0 0 1
-8.585823 -23.894677 -19.720913 32.149438 1.225843 2.231172 0.048430 -0.009555 558383.000000 0 0 1
-7.652623 -24.920577 -20.112513 32.925841 1.272856 2.227921 0.050801 -0.028700 1705340.000000 0 0 1
-6.120423 -24.509977 -20.218913 32.357426 1.326089 2.245751 0.038391 -0.019601 531764.000000 0 0 1
-5.883523 -23.345577 -20.966613 31.925392 1.323919 2.287281 0.043624 -0.015405 -185063.000000 0 0 1
-5.753323 -22.063677 -20.253113 30.497461 1.315717 2.297075 0.041553 -0.009620 -134283.000000 0 0 1
-4.718623 -21.965577 -19.082313 29.476883 1.359193 2.274919 0.047129 0.001380 1166040.000000 0 0 1
-3.375723 -22.331277 -19.439213 29.798732 1.420767 2.281478 0.039259 -0.009470 551092.000000 0 0 1
-2.463823 -22.233777 -18.384813 28.955356 1.460432 2.258723 0.013891 -0.002351 -901467.000000 0 0 1
-1.108323 -22.844077 -18.603213 29.481516 1.522317 2.253654 0.038708 -0.007656 -797554.000000 0 0 1
-0.373223 -22.062877 -19.533913 29.470046 1.553882 2.295401 0.054528 -0.013866 539288.000000 0 0 1
0.969077 -22.601677 -19.613213 29.940826 -1.527946 2.285066 0.037603 -0.019375 937643.000000 0 0 1
1.886477 -21.957077 -20.651613 30.202006 -1.485090 2.323731 0.050297 -0.021727 -94960.300000 0 0 1
1.595077 -22.132377 -22.035813 31.272407 -1.498851 2.352713 0.047100 -0.029302 -810623.000000 0 0 1
0.766677 -21.165777 -22.546413 30.934102 -1.534590 2.387442 0.052230 -0.022737 -597977.000000 0 0 1
0.399977 -21.562177 -24.008613 32.272294 -1.552249 2.409742 0.050472 -0.022817 44882.500000 0 0 1
-0.022623 -20.586877 -24.985813 32.374540 1.569697 2.452422 0.052102 -0.020586 696764.000000 0 0 1
-1.391023 -20.148577 -24.853213 32.024714 1.501867 2.459196 0.048767 -0.020468 921615.000000 0 0 1
-1.690923 -18.831277 -25.595723 31.821647 1.481243 2.505376 0.041922 -0.007086 216776.000000 0 0 1
-0.996923 -17.752377 -24.971513 30.654807 1.514698 2.522842 0.032739 -0.010493 166831.000000 0 0 1
-1.500723 -16.527377 -25.476263 30.404709 1.480242 2.564230 0.036983 -0.008112 -1194.620000 0 0 1
-0.731923 -15.328377 -24.931313 29.275676 1.523083 2.589836 0.034651 -0.001568 344658.000000 0 0 1
0.573677 -15.163077 -25.483513 29.659020 -1.532981 2.604532 0.038766 -0.016913 117821.000000 0 0 1
1.271077 -14.010177 -25.081973 28.757713 -1.480319 2.630443 0.038276 -0.018216 194467.000000 0 0 1
0.817677 -12.750077 -25.855803 28.840173 -1.506753 2.682648 0.031662 -0.014532 -183308.000000 0 0 1
1.331177 -11.556577 -25.371853 27.911600 -1.456114 2.711693 0.024145 -0.010219 -1766.550000 0 0 1
0.721677 -10.514777 -26.097703 28.145541 -1.502269 2.757773 0.023958 -0.010615 -174315.000000 0 0 1
1.489177 -9.141977 -25.928163 27.532944 -1.409320 2.798486 0.030518 -0.013308 -297403.000000 0 0 1
2.791877 -9.064077 -26.402563 28.054365 -1.272002 2.796728 0.043365 -0.008110 -838063.000000 0 0 1
2.952677 -9.153577 -27.776313 29.394384 -1.258763 2.808247 0.037651 -0.007880 605291.000000 0 0 1
4.453177 -9.022677 -28.278483 30.015198 -1.112319 2.799751 0.024311 -0.000063 579884.000000 0 0 1
4.737877 -7.671477 -28.577493 29.966183 -1.017539 2.835964 0.017292 0.003134 -756184.000000 0 0 1
6.005877 -7.498977 -29.100403 30.645369 -0.895511 2.822708 0.024491 0.003103 -1186600.000000 0 0 1
7.170677 -7.370977 -28.079973 29.903759 -0.799172 2.790541 0.023257 -0.003076 -276092.000000 0 0 1
7.763377 -8.562977 -27.606653 29.928613 -0.834335 2.745089 0.016517 -0.003026 553005.000000 0 0 1
8.562977 -9.283877 -28.560943 31.228871 -0.825770 2.725236 0.027956 -0.015899 -378904.000000 0 0 1
8.957277 -10.623877 -27.930923 31.196731 -0.870306 2.679936 0.042029 -0.018776 312644.000000 0 0 1
7.802477 -11.431377 -27.650083 30.920578 -0.971879 2.677502 0.027122 -0.019791 523755.000000 0 0 1
7.975877 -12.618077 -26.879023 30.745932 -1.007108 2.634644 0.039299 -0.019192 -77313.000000 0 0 1
8.949977 -13.743777 -27.373153 31.910547 -0.993576 2.601788 0.036779 -0.025193 226873.000000 0 0 1
8.369177 -14.467077 -28.423523 32.973263 -1.046337 2.610032 0.044456 -0.031646 -327968.000000 0 0 1
9.321377 -15.350477 -28.976623 34.090613 -1.025073 2.586759 0.039190 -0.032199 -126393.000000 0 0 1
8.823177 -16.195677 -30.153193 35.346336 -1.071965 2.592653 0.048854 -0.035050 -278785.000000 0 0 1
8.411977 -15.389377 -31.241843 35.828020 -1.070560 2.630059 0.046232 -0.033977 87249.000000 0 0 1
7.821077 -16.223877 -32.178023 36.875583 -1.121594 2.631318 0.059488 -0.037342 -863499.000000 0 0 1
6.638677 -15.593177 -32.879573 36.990344 -1.168297 2.665667 0.072092 -0.040012 -513251.000000 0 0 1
7.019777 -14.468877 -33.645143 37.291035 -1.119088 2.695712 0.064167 -0.036721 534828.000000 0 0 1
5.862977 -13.786877 -34.131604 37.274909 -1.168707 2.727974 0.059231 -0.039486 461669.000000 0 0 1
6.259577 -12.527477 33.551527 36.356911 -1.107415 0.395413 0.075511 -0.030927 -240118.000000 0 0 1
6.853977 -12.773477 32.295903 35.400058 -1.078316 0.421901 0.070963 -0.026701 78424.600000 0 0 1
6.758177 -11.640377 31.441263 34.201233 -1.044778 0.404493 0.073846 -0.026387 -62398.800000 0 0 1
7.413477 -11.827277 30.014753 33.101806 -1.010895 0.435307 0.055653 -0.023982 808162.000000 0 0 1
6.558777 -12.587877 29.128443 32.402753 -1.090459 0.453431 0.052144 -0.021573 879168.000000 0 0 1
7.148677 -12.442277 27.831843 31.313341 -1.049302 0.476038 0.039461 -0.019940 321451.000000 0 0 1
6.409577 -13.115077 26.594393 30.337265 -1.116215 0.501995 0.036218 -0.032206 -116468.000000 0 0 1
6.496877 -14.511477 26.521263 30.921995 -1.149852 0.540050 0.046015 -0.026993 -144956.000000 0 0 1
5.996477 -15.079577 25.331623 30.083925 -1.192313 0.569757 0.038035 -0.025588 107772.000000 0 0 1
4.467777 -15.316477 25.395593 29.991526 -1.286974 0.560933 0.027187 -0.031174 50659.300000 0 0 1
3.660777 -14.161377 25.215343 29.150633 -1.317830 0.525643 0.009931 -0.035501 579655.000000 0 0 1
2.283277 -14.552977 25.022563 29.036721 -1.415171 0.532076 0.008459 -0.031042 917704.000000 0 0 1
1.512977 -13.233077 24.844963 28.189992 -1.456958 0.492106 0.020633 -0.027513 -590597.000000 0 0 1
1.605477 -12.728377 23.576593 26.841104 -1.445325 0.498342 0.002167 -0.013527 393073.000000 0 0 1
0.642677 -11.698277 23.235423 26.022060 -1.515914 0.467023 0.014499 0.001291 1566880.000000 0 0 1
-0.814123 -12.210077 22.920223 25.982406 1.504219 0.490401 0.029283 0.002044 134221.000000 0 0 1
-0.896923 -12.977177 21.772423 25.362374 1.501791 0.538549 0.026652 -0.002847 -195704.000000 0 0 1
-2.099923 -13.709177 21.735223 25.783156 1.418801 0.567959 0.041958 -0.003236 -70274.200000 0 0 1
-2.395523 -14.116577 20.296023 24.838374 1.402702 0.614393 0.052011 -0.015982 -195514.000000 0 1 0
-1.465623 -14.969277 19.683423 24.772252 1.473199 0.652488 0.060347 -0.031533 -607155.000000 0 1 0
-1.700523 -15.237277 18.317723 23.887348 1.459653 0.696896 0.058292 -0.035267 327671.000000 0 1 0
-2.803923 -16.300077 18.031123 24.467854 1.400445 0.742277 0.034581 -0.039057 428816.000000 0 1 0
-2.284823 -17.640077 17.892723 25.229790 1.441989 0.782447 0.017984 -0.024153 -189342.000000 0 0 1
-3.336023 -18.566377 17.861923 25.978601 1.393013 0.812669 0.020938 -0.005905 56329.900000 0 0 1
-2.922723 -19.895577 17.223723 26.477027 1.424936 0.862533 0.013455 -0.010398 589146.000000 0 0 1
-1.992823 -20.718077 17.952423 27.486352 1.474904 0.859073 0.016778 -0.006313 81671.700000 0 0 1
-2.110423 -22.077777 17.545623 28.279516 1.475496 0.901498 0.011984 -0.016461 202611.000000 0 0 1
-0.939723 -22.931777 18.115923 29.239291 1.529840 0.902596 0.024041 -0.007936 234437.000000 0 0 1
0.305877 -22.718377 17.515023 28.687876 -1.557333 0.914057 0.044640 -0.014797 -1167240.000000 0 0 1
1.271877 -23.491877 18.130723 29.702005 -1.516708 0.914205 0.056804 -0.017812 -778985.000000 0 0 1
2.602277 -23.324077 17.381723 29.204601 -1.459685 0.933318 0.079205 -0.023668 -514354.000000 0 0 1
3.110277 -22.043477 17.627223 28.395558 -1.430624 0.901067 0.067890 -0.022046 -251781.000000 0 0 1
4.139877 -21.761777 16.681123 27.730369 -1.382806 0.925360 0.071908 -0.022061 -76433.000000 0 0 1
4.780277 -20.445677 16.932423 26.973760 -1.341118 0.892154 0.070030 -0.014381 -1048600.000000 0 0 1
5.706977 -20.558477 18.009123 27.920406 -1.300017 0.869751 0.073276 -0.010177 -73487.600000 0 0 1
6.247477 -19.307277 18.355223 27.362678 -1.257848 0.835493 0.065058 -0.012437 397105.000000 0 0 1
7.393077 -18.818577 17.425823 26.691867 -1.196460 0.859454 0.077444 -0.018398 -926412.000000 0 0 1
6.910277 -18.326977 16.227023 25.435139 -1.210225 0.878929 0.058166 -0.021265 505140.000000 0 0 1
7.898977 -17.685277 15.376123 24.730306 -1.150739 0.899818 0.062678 -0.021418 156885.000000 0 1 0
7.300577 -16.696777 14.394223 23.222283 -1.158600 0.902251 0.044460 -0.025462 -388561.000000 0 1 0
6.409077 -17.319277 13.519123 22.886684 -1.216368 0.938872 0.046387 -0.025460 148543.000000 0 1 0
5.739577 -16.340777 12.679923 21.464953 -1.233015 0.938837 0.037114 -0.029182 101330.000000 0 1 0
6.139177 -16.431677 11.232823 20.829446 -1.213237 1.001219 0.038102 -0.027808 -821679.000000 0 1 0
7.474377 -16.088377 11.080923 20.916239 -1.135882 1.012460 0.042602 -0.024986 -864043.000000 0 1 0
7.933477 -16.326877 9.773123 20.616035 -1.118480 1.076906 0.047766 -0.026667 -249343.000000 0 1 0
9.420977 -15.958477 9.800623 20.963779 -1.037508 1.084333 0.043400 -0.018552 -543639.000000 0 1 0
10.097377 -16.035877 8.590323 20.806250 -1.008843 1.145191 0.046948 -0.028608 -955690.000000 0 1 0
11.462177 -15.844377 8.809323 21.448309 -0.944523 1.147549 0.046291 -0.019609 -290232.000000 0 1 0
12.444677 -16.696177 7.992823 22.305101 -0.930271 1.204306 0.056394 -0.025182 22944.400000 0 1 0
12.662377 -17.987177 8.574123 23.609107 -0.957413 1.199128 0.056505 -0.027361 162312.000000 0 1 0
13.590877 -18.761777 7.818123 24.450752 -0.943887 1.245331 0.058717 -0.020992 180716.000000 0 1 0
14.206977 -20.010177 8.446723 25.953661 -0.953399 1.239304 0.057039 -0.021162 172512.000000 0 0 1
13.279077 -20.993977 8.908123 26.390067 -1.006809 1.226477 0.061307 -0.020560 173979.000000 0 0 1
13.982477 -22.076577 9.533723 27.816844 -1.006206 1.220973 0.059039 -0.013258 63960.200000 0 0 1
13.020777 -23.058477 10.155823 28.361501 -1.056749 1.204580 0.067403 -0.013441 -224403.000000 0 0 1
12.501777 -22.549277 11.358123 28.173947 -1.064566 1.155848 0.063970 -0.022197 42275.900000 0 0 1
11.473877 -23.331977 12.014623 28.642314 -1.113757 1.137934 0.079077 -0.021477 367491.000000 0 0 1
11.770477 -24.732277 12.533523 30.121734 -1.126601 1.141649 0.058528 -0.019154 -298209.000000 0 0 1
12.866677 -24.773877 13.421423 30.974683 -1.091777 1.122642 0.031805 -0.019039 -72442.500000 0 0 1
12.778977 -25.966947 14.139823 32.210545 -1.113469 1.116332 0.035903 -0.020352 330441.000000 0 0 1
14.056777 -26.325597 14.957323 33.381905 -1.080352 1.106195 0.037246 -0.018973 284163.000000 0 0 1
14.135577 -25.568327 16.129723 33.372471 -1.065764 1.066348 0.040391 -0.018516 542790.000000 0 0 1
15.053377 -26.183967 17.052823 34.684335 -1.049031 1.056804 0.047916 -0.015168 -100497.000000 0 0 1
14.779277 -25.691387 18.442523 34.908467 -1.048765 1.014186 0.050570 -0.016174 64526.100000 0 0 1
15.284177 -24.365977 18.704823 34.310018 -1.010562 0.994203 0.025177 -0.015963 411639.000000 0 0 1
16.607677 -24.268977 19.212523 35.127186 -0.970674 0.992090 0.023721 -0.015032 35703.100000 0 0 1
17.058777 -22.806477 19.505523 34.519599 -0.928590 0.970295 0.019884 -0.018711 -108835.000000 0 0 1
17.163377 -21.947777 18.427123 33.404271 -0.907122 0.986467 0.018585 -0.019896 306960.000000 0 0 1
15.932077 -21.394277 17.992923 32.175945 -0.930703 0.977371 0.033249 -0.018723 -414889.000000 0 0 1
16.062577 -20.204177 17.042523 30.929965 -0.899104 0.987230 0.017441 -0.015799 -133778.000000 0 0 1
16.725077 -19.063577 17.542523 30.836477 -0.850647 0.965642 0.018152 -0.016108 6454.610000 0 0 1
18.097177 -19.076677 17.204023 31.423014 -0.811741 0.991426 0.024639 -0.016267 -398883.000000 0 0 1
18.721777 -17.728477 17.529423 31.178270 -0.758154 0.973714 0.041818 -0.016754 -544665.000000 0 0 1
18.933877 -17.566177 18.916423 32.013955 -0.747945 0.938646 0.038946 -0.014800 -1559.930000 0 0 1
19.658177 -16.403177 19.126123 31.958046 -0.695379 0.929199 0.053599 -0.018208 -627351.000000 0 0 1
20.038877 -16.227077 20.573523 32.987035 -0.680676 0.897348 0.040325 -0.010484 -624789.000000 0 0 1
21.123877 -17.033077 20.891123 34.245918 -0.678596 0.914695 0.028105 -0.006585 -512904.000000 0 0 1
21.523177 -16.749777 22.226223 35.182484 -0.661319 0.886999 0.024476 0.001317 -1738.250000 0 0 1
33.613953 -1.201077 -7.749013 34.516483 -0.035716 1.797228 0.121829 -0.035475 -18677.200000 0 0 1
34.913783 -0.892677 -8.205413 35.876147 -0.025562 1.801554 0.123944 -0.038470 259168.000000 0 0 1
35.695923 -2.090677 -8.369613 36.723565 -0.058502 1.800725 0.144435 -0.045446 -511925.000000 0 0 1
-35.223070 -1.683877 -8.820913 36.349809 0.047770 1.815911 0.118941 -0.035036 -871107.000000 0 0 1
-34.240057 -2.670077 -8.592013 35.402451 0.077824 1.815940 0.120468 -0.020056 -416328.000000 0 0 1
-33.011043 -2.211277 -9.086313 34.310054 0.066886 1.838823 0.162041 -0.026993 -520473.000000 0 0 1
-31.889993 -3.246777 -8.849813 33.254059 0.101462 1.840170 0.149281 -0.021809 -263285.000000 0 0 1
-31.574993 -3.423077 -7.467813 32.626153 0.107989 1.801734 0.143765 -0.026996 507590.000000 0 0 1
-30.352713 -4.092277 -7.185813 31.459018 0.134016 1.801249 0.132435 -0.035017 239786.000000 0 0 1
-29.944703 -4.096677 -5.696913 30.755858 0.135964 1.757102 0.124519 -0.040053 -264022.000000 0 0 1
-29.616513 -2.805777 -5.233313 30.205923 0.094455 1.744930 0.121860 -0.034418 425645.000000 0 0 1
-29.360813 -2.730277 -3.868013 29.740096 0.092724 1.701226 0.121767 -0.034299 -225661.000000 0 0 1
-29.101843 -1.300877 -3.295113 29.316673 0.044671 1.683432 0.137115 -0.038572 -1348530.000000 0 0 1
-27.822843 -0.869177 -3.501613 28.055790 0.031230 1.695932 0.111793 -0.031185 -925588.000000 0 0 1
-27.579663 0.479223 -3.084213 27.755717 -0.017374 1.682146 0.113038 -0.034092 409279.000000 0 0 1
-26.059423 0.689823 -2.777513 26.216101 -0.026465 1.676942 0.095426 -0.020930 299974.000000 0 0 1
-25.778073 -0.074877 -1.627313 25.829495 0.002905 1.633840 0.082379 -0.023856 708462.000000 0 0 1
-24.444323 0.126023 -1.155313 24.471934 -0.005155 1.618024 0.077101 -0.022201 394264.000000 0 1 0
-24.137423 -0.517477 0.239787 24.144160 0.021436 1.560865 0.078782 -0.024458 -57455.600000 0 1 0
-24.061123 -1.963877 0.236387 24.142294 0.081440 1.561005 0.079737 -0.022096 -126164.000000 0 1 0
-23.248823 -2.416677 1.233187 23.406599 0.103576 1.518086 0.066696 -0.025058 -934693.000000 0 1 0
-23.104723 -3.925277 1.116587 23.462370 0.168284 1.523188 0.054066 -0.013384 448542.000000 0 1 0
-24.271323 -4.701077 1.495587 24.767600 0.191320 1.510375 0.061768 -0.016901 993966.000000 0 1 0
-24.222623 -6.108077 1.269187 25.013095 0.247014 1.520034 0.045515 -0.007044 -255313.000000 0 0 1
-25.522073 -6.855677 1.647087 26.478093 0.262423 1.508550 0.062021 -0.003299 110417.000000 0 0 1
-25.726153 -6.873177 3.053287 26.802949 0.261069 1.456632 0.064951 -0.003168 -877206.000000 0 0 1
-26.963083 -7.386577 3.337287 28.155050 0.267391 1.451985 0.068491 0.006003 -916430.000000 0 0 1
-27.191113 -7.481177 4.894687 28.623113 0.268490 1.398947 0.065294 -0.008140 74270.100000 0 0 1
-26.434803 -8.577977 5.377087 28.307129 0.313776 1.379680 0.068842 0.008998 120038.000000 0 0 1
-26.667043 -8.791977 6.783687 28.886822 0.318472 1.333746 0.041524 0.000076 -150750.000000 0 0 1
-26.052393 -7.806677 7.801587 28.293748 0.291138 1.291442 0.051240 -0.001976 -710164.000000 0 0 1
-24.664523 -7.698777 7.751087 26.975715 0.302557 1.279352 0.069656 -0.017492 -467339.000000 0 0 1
-24.254523 -6.553477 8.428587 26.500397 0.263895 1.247119 0.071275 -0.022680 533.911000 0 0 1
-22.887023 -6.024777 7.919687 24.956667 0.257400 1.247876 0.092977 -0.029109 708493.000000 0 1 0
-21.757523 -6.834377 8.260687 24.255669 0.304356 1.223276 0.095454 -0.039255 1036590.000000 0 1 0
-20.515823 -6.297377 7.776187 22.825973 0.297823 1.223164 0.086118 -0.035808 676786.000000 0 1 0
-19.341023 -6.610977 8.716187 22.220534 0.329361 1.167711 0.104660 -0.034934 -212331.000000 0 1 0
-19.323423 -5.784577 9.855587 22.449691 0.290866 1.116302 0.095469 -0.022557 111096.000000 0 1 0
-18.231623 -6.119277 10.672687 21.994178 0.323826 1.064147 0.090098 -0.026469 -260135.000000 0 1 0
-17.691923 -5.128677 11.703687 21.823926 0.282154 1.004775 0.063629 -0.011076 -39699.800000 0 1 0
-18.632623 -4.923077 12.727987 23.095735 0.258315 0.987118 0.072225 -0.013267 83050.900000 0 1 0
-18.630323 -3.583377 13.259087 23.145905 0.190021 0.960820 0.063689 -0.005409 130269.000000 0 1 0
-19.909923 -3.463477 14.111987 24.648507 0.172234 0.961209 0.067996 -0.015363 111393.000000 0 1 0
-19.822123 -4.125477 15.394087 25.434505 0.205196 0.920724 0.081814 -0.011896 818181.000000 0 0 1
-21.028123 -3.928477 16.160487 26.810003 0.184691 0.923818 0.074922 -0.007108 683094.000000 0 0 1
-20.893323 -4.576077 17.570387 27.680136 0.215616 0.883092 0.069732 0.000050 -497511.000000 0 0 1
-22.050423 -4.562577 18.342187 29.042626 0.204036 0.887232 0.066000 0.000727 152811.000000 0 0 1
-21.735623 -5.243477 19.552587 29.702441 0.236716 0.852262 0.064782 0.013722 -454235.000000 0 0 1
-22.617023 -4.799777 20.669187 31.012625 0.209117 0.841324 0.053180 0.006588 -809240.000000 0 0 1
-22.487323 -3.447177 20.967187 30.938417 0.152110 0.826156 0.061010 -0.001732 290690.000000 0 0 1
-22.820023 -3.146377 22.321987 32.076849 0.137014 0.801137 0.066286 0.001494 -88444.400000 0 0 1
-22.915923 -1.638677 22.515387 32.167801 0.071387 0.795489 0.068857 -0.001634 -464277.000000 0 0 1
-24.037523 -1.114877 21.875187 32.520290 0.046347 0.832995 0.077456 -0.012391 -487765.000000 0 0 1
-24.073423 0.314423 21.914587 32.555763 -0.013060 0.832350 0.075507 -0.013287 82791.300000 0 0 1
-25.405203 0.963323 21.403587 33.233505 -0.037900 0.871033 0.087565 -0.017280 332413.000000 0 0 1
-26.410643 0.692023 22.346187 34.602790 -0.026196 0.868737 0.089032 -0.012478 -837498.000000 0 0 1
-27.606053 1.355123 22.057787 35.362077 -0.049049 0.897240 0.076323 -0.010706 -477180.000000 0 0 1
-28.521613 1.355023 23.266187 36.832512 -0.047473 0.887084 0.062007 -0.006502 -326213.000000 0 0 1
-28.069993 2.260023 24.286387 37.186837 -0.080341 0.859137 0.058847 -0.005097 60577.100000 0 0 1
-28.828273 2.065223 25.460287 38.517018 -0.071517 0.848627 0.053312 -0.003639 -114896.000000 0 0 1
-28.484673 3.021923 26.663287 39.133611 -0.105694 0.821205 0.063080 -0.003938 18902.900000 0 0 1
-27.301053 2.644723 27.332287 38.722035 -0.096571 0.787162 0.056318 -0.005777 68511.100000 0 0 1
-27.010883 3.485523 28.434387 39.373228 -0.128332 0.763854 0.048500 -0.004865 145127.000000 0 0 1
-25.717243 2.960623 29.118787 38.962105 -0.114618 0.726714 0.054999 -0.003516 38134.800000 0 0 1
-25.936853 1.977123 30.080587 39.767714 -0.076081 0.712993 0.051951 -0.003489 106975.000000 0 0 1
-24.777623 1.656623 30.822587 39.581648 -0.066760 0.678191 0.039836 -0.006754 133674.000000 0 0 1
-25.013023 0.457723 31.843087 40.494975 -0.018297 0.665923 0.043279 -0.018170 54990.900000 0 0 1
-25.043523 -0.822377 31.263187 40.065462 0.032826 0.675647 0.048020 -0.023027 -49871.000000 0 0 1
-25.599813 -1.796177 32.113087 41.107506 0.070049 0.674214 0.051142 -0.022140 -665586.000000 0 0 1
-26.231703 -3.002677 31.372587 41.004360 0.113971 0.699594 0.033942 -0.015765 -684905.000000 0 0 1
-27.533463 -2.828077 30.940087 41.513595 0.102355 0.729811 0.037523 -0.011424 -664017.000000 0 0 1
-27.638173 -1.941077 29.840287 40.719518 0.070117 0.748332 0.037688 -0.016892 -1382310.000000 0 0 1
-29.035683 -1.686577 29.308887 41.290753 0.058021 0.781558 0.041799 -0.010896 -58965.700000 0 0 1
-29.905493 -0.957977 30.185987 42.502354 0.032023 0.780987 0.053703 -0.012795 -280475.000000 0 0 1
-31.139323 -0.654777 29.581687 42.955353 0.021024 0.811155 0.038619 -0.011179 77060.600000 0 0 1
-32.164943 -0.286477 30.693387 44.460653 0.008906 0.808824 0.038229 -0.008729 -128428.000000 0 0 1
-32.575903 -1.425377 31.396387 45.265376 0.043728 0.804312 0.036384 -0.006154 113481.000000 0 0 1
-33.260203 -1.131777 32.619287 46.599785 0.034015 0.795416 0.058691 -0.005011 36199.600000 0 0 1
-33.380773 -2.411977 33.418887 47.296043 0.072131 0.786129 0.058192 -0.001705 41636.400000 0 0 1
-34.328738 -3.366177 32.937387 47.693447 0.097745 0.808470 0.065985 -0.007026 341394.000000 0 0 1
-34.226504 -4.596077 33.624787 48.199625 0.133486 0.798733 0.043181 0.001061 127658.000000 0 0 1
-35.530922 -5.278977 33.158187 48.885370 0.147495 0.825371 0.038717 0.003115 -31767.700000 0 0 1
35.642283 -4.926777 33.897887 49.433918 -0.137358 0.815202 0.055513 -0.006105 -39619.600000 0 0 1
34.445593 -5.416077 33.291687 48.209638 -0.155959 0.808532 0.050781 -0.009085 1114520.000000 0 0 1
33.127283 -4.908677 34.026287 47.742017 -0.147106 0.777440 0.074668 -0.013921 479430.000000 0 0 1
32.769893 -5.430977 -33.174849 46.946054 -0.164238 2.355561 0.077030 -0.012847 198953.000000 0 0 1
32.182013 -6.713477 -33.183549 46.710819 -0.205660 2.360868 0.069824 -0.011248 -998052.000000 0 0 1
30.743563 -6.820277 -33.647149 46.084851 -0.218309 2.389284 0.051557 -0.007813 -1091010.000000 0 0 1
29.756353 -6.729877 -32.654249 44.688161 -0.222424 2.390163 0.052591 -0.006830 -125018.000000 0 0 1
28.496143 -7.070077 -33.197149 44.317794 -0.243196 2.417454 0.036709 -0.002815 -315597.000000 0 0 1
27.333693 -6.871877 -32.224149 42.810621 -0.246302 2.422971 0.041736 -0.015806 -654285.000000 0 0 1
26.113733 -7.313577 -32.740049 42.512660 -0.273070 2.449833 0.033922 -0.015032 -122384.000000 0 0 1
25.060233 -7.115277 -31.776049 41.089655 -0.276646 2.454880 0.041616 -0.019050 365139.000000 0 0 1
23.719233 -7.614077 -32.389349 40.861303 -0.310618 2.485965 0.055360 -0.022082 -180537.000000 0 0 1
23.561033 -9.031277 -32.495649 41.141870 -0.366040 2.481351 0.051206 -0.025279 191890.000000 0 0 1
23.381933 -9.772877 -31.327449 40.294329 -0.395899 2.461422 0.056021 -0.021942 -515524.000000 0 0 1
23.130533 -11.285477 -31.545949 40.712780 -0.453924 2.457261 0.058092 -0.019195 558848.000000 0 0 1
21.793833 -11.548677 -31.986449 40.391534 -0.487285 2.484726 0.069012 -0.028136 541625.000000 0 0 1
21.515433 -12.907077 -32.034049 40.690131 -0.540345 2.477162 0.062900 -0.016242 917212.000000 0 0 1
20.150533 -13.283177 -32.780149 40.706571 -0.582814 2.506942 0.072912 -0.015298 2582340.000000 0 0 1
18.918733 -12.753077 -32.204549 39.467612 -0.593130 2.525209 0.074580 -0.011942 1040110.000000 0 0 1
18.661433 -11.378077 -32.437949 39.114323 -0.547529 2.548670 0.081174 -0.022157 -1305280.000000 0 0 1
17.358933 -10.908377 -31.834849 37.865325 -0.561042 2.569443 0.075877 -0.021542 -1394840.000000 0 0 1
16.284033 -11.330777 -32.587449 38.150990 -0.607916 2.594750 0.065922 -0.009991 -714217.000000 0 0 1
15.086733 -11.067477 -31.848449 36.938087 -0.632916 2.610416 0.066923 -0.017664 463625.000000 0 0 1
13.824133 -11.601577 -32.565449 37.231864 -0.698206 2.635543 0.050317 -0.008850 -784453.000000 0 0 1
13.882433 -13.050777 -32.751749 37.890920 -0.754530 2.614691 0.058797 -0.011006 -508095.000000 0 0 1
12.808933 -13.510477 -33.489949 38.316817 -0.812047 2.634227 0.037249 -0.018582 -684016.000000 0 0 1
11.496233 -13.680577 -32.706149 37.269475 -0.871942 2.641543 0.019042 -0.017934 -451443.000000 0 0 1
10.808333 -12.408377 -32.683349 36.592201 -0.854207 2.675160 0.059561 -0.025625 -437122.000000 0 0 1
9.752733 -12.465177 -31.766749 35.491165 -0.906881 2.679364 0.050871 -0.028232 -769786.000000 0 0 1
8.547433 -11.619877 -32.086449 35.179829 -0.936583 2.719100 0.041662 -0.023203 -629350.000000 0 0 1
8.893833 -10.219377 -32.055249 34.800502 -0.854640 2.741730 0.045063 -0.016722 962734.000000 0 0 1
7.740933 -9.412577 -32.353549 34.572688 -0.882543 2.781353 0.035493 -0.011854 601306.000000 0 0 1
8.110933 -7.932577 -32.621549 34.538073 -0.774282 2.806895 0.047897 -0.010260 -216753.000000 0 0 1
8.566433 -7.299877 -31.458749 33.411448 -0.705740 2.798016 0.038132 -0.009319 183037.000000 0 0 1
8.670933 -5.901977 -31.777249 33.463592 -0.597629 2.822775 0.036828 0.001153 24666.300000 0 0 1
9.084033 -4.949977 -30.582049 32.284418 -0.498927 2.815401 0.033813 0.004774 168068.000000 0 0 1
7.949333 -4.524477 -29.847549 31.217607 -0.517438 2.844230 0.040402 0.003657 142515.000000 0 0 1
8.250933 -3.506377 -28.948149 30.304586 -0.401843 2.841266 0.044645 0.003661 -811626.000000 0 0 1
7.026233 -2.930977 -28.295249 29.301531 -0.395201 2.878759 0.035821 0.006126 -1212160.000000 0 0 1
6.329333 -2.034577 -29.201249 29.948504 -0.311020 2.917736 0.031225 0.012223 1563600.000000 0 0 1
4.995833 -1.633377 -28.793149 29.268955 -0.315993 2.961035 0.037095 0.003477 1545400.000000 0 0 1
3.894233 -2.718877 -28.612549 29.004057 -0.609504 2.977100 0.023952 0.004037 -586214.000000 0 0 1
4.077933 -3.574477 -27.513449 28.042758 -0.719702 2.946992 0.022182 -0.003314 -344310.000000 0 0 1
3.213233 -4.687277 -27.513449 28.094222 -0.969853 2.937907 0.051838 -0.007205 -24712.400000 0 0 1
3.465433 -5.657177 -26.400449 27.221253 -1.021183 2.895398 0.039930 -0.015292 -28375.300000 0 0 1
2.981633 -5.134177 -25.192949 25.883095 -1.044657 2.910148 0.048813 -0.021788 94389.400000 0 0 1
3.284033 -6.012977 -24.156749 25.109546 -1.070908 2.865230 0.045414 -0.031264 -280270.000000 0 0 1
3.219433 -5.329877 -22.793749 23.628951 -1.027415 2.874921 0.047636 -0.037996 396445.000000 0 1 0
4.295633 -4.431277 -22.541249 23.370849 -0.800940 2.874350 0.034784 -0.028082 115045.000000 0 1 0
4.016533 -3.733677 -21.365549 22.058095 -0.748918 2.890347 0.036730 -0.032177 129277.000000 0 1 0
4.997033 -2.583377 -20.970849 21.712224 -0.477141 2.879518 0.049141 -0.038164 -194957.000000 0 1 0
6.265133 -3.067877 -20.597949 21.747167 -0.455353 2.815045 0.039971 -0.039738 -219915.000000 0 1 0
7.118533 -1.909677 -20.492249 21.777343 -0.262097 2.796338 0.058570 -0.022490 474594.000000 0 1 0
8.588233 -2.245277 -20.133549 22.003609 -0.255713 2.726332 0.056434 -0.026715 -580443.000000 0 1 0
9.310533 -2.919477 -21.161549 23.302801 -0.303857 2.709549 0.060709 -0.036744 975489.000000 0 1 0
10.592333 -3.444877 -20.798449 23.593223 -0.314434 2.649918 0.055952 -0.037049 1406230.000000 0 1 0
11.711233 -2.615477 -20.068449 23.382394 -0.219725 2.602689 0.047243 -0.036554 -459518.000000 0 1 0
11.374933 -2.181277 -18.778449 22.063028 -0.189462 2.588926 0.051470 -0.033261 -685300.000000 0 1 0
12.410433 -1.579877 -18.094349 21.998189 -0.126621 2.536656 0.046348 -0.032976 -760765.000000 0 1 0
12.535433 -0.081177 -18.308749 22.189050 -0.006476 2.541220 0.041953 -0.026104 -314394.000000 0 1 0
12.924933 0.247223 -19.615549 23.492228 0.019125 2.558893 0.031744 -0.026762 115486.000000 0 1 0
12.903933 1.637023 -19.773749 23.668386 0.126188 2.559747 0.054332 -0.031248 28345.900000 0 1 0
13.455933 2.240923 -21.099549 25.125183 0.165023 2.567669 0.053348 -0.029932 59617.700000 0 0 1
14.858733 2.319223 -21.281449 26.058795 0.154836 2.526414 0.046604 -0.019388 263266.000000 0 0 1
15.140433 3.268023 -22.323349 27.170657 0.212586 2.535004 0.053125 -0.022269 -90849.500000 0 0 1
16.624033 3.253123 -22.740949 28.356517 0.193246 2.501375 0.032904 -0.010251 45934.600000 0 0 1
16.876333 2.168323 -23.610649 29.102835 0.127783 2.517140 0.022533 -0.013023 333151.000000 0 0 1
17.922233 1.296023 -23.145549 29.301921 0.072188 2.481440 0.014693 -0.012603 53971.100000 0 0 1
9.229977 26.979223 3.013987 28.673246 1.241164 1.465487 -0.018559 0.004828 63830.500000 0 0 1
9.263277 27.481423 4.342087 29.323892 1.245683 1.422176 -0.017567 0.007952 -281311.000000 0 0 1
10.556077 27.828923 4.735287 30.138060 1.208243 1.413023 -0.008253 0.002688 -970405.000000 0 0 1
10.630177 28.389123 6.149087 30.931444 1.212512 1.370666 -0.013806 0.003456 -186719.000000 0 0 1
10.404077 27.390323 7.139987 30.157155 1.207785 1.331767 -0.012797 0.004021 105166.000000 0 0 1
10.278377 28.194423 8.294787 31.134772 1.221215 1.301124 0.005468 -0.001555 -359182.000000 0 0 1
10.118377 27.380023 9.648087 30.743012 1.216809 1.251572 0.013412 -0.014100 1176490.000000 0 0 1
11.316677 26.745223 10.229987 30.790043 1.170512 1.232108 0.017787 -0.010201 1029560.000000 0 0 1
11.740777 25.676123 9.463587 29.776981 1.141918 1.247372 0.023573 -0.010651 -1220540.000000 0 0 1
12.954977 24.956623 9.985387 29.839109 1.091986 1.229572 0.024800 -0.011836 -534477.000000 0 0 1
14.043577 25.882523 9.983987 31.093521 1.073661 1.243910 0.032080 -0.015114 392608.000000 0 0 1
15.216277 25.256523 10.542287 31.314004 1.028563 1.227425 0.040484 -0.010315 256189.000000 0 0 1
16.260877 26.346423 10.826987 32.798990 1.017829 1.234386 0.043050 -0.010924 -1037870.000000 0 0 1
16.857577 26.836823 9.650387 33.128884 1.009934 1.275213 0.055049 -0.024515 874103.000000 0 0 1
18.280877 26.726023 9.520787 33.750795 0.970882 1.284824 0.072319 -0.029109 1035560.000000 0 0 1
19.259077 27.286123 10.564087 35.029195 0.956175 1.264447 0.061214 -0.028401 -822344.000000 0 0 1
19.398477 28.733023 10.715187 36.286399 0.976959 1.271032 0.058043 -0.034045 1146090.000000 0 0 1
18.190577 29.392723 11.221787 36.342231 1.016610 1.256885 0.049927 -0.019461 1207320.000000 0 0 1
18.362977 30.926523 11.492587 37.758817 1.034977 1.261521 0.031155 -0.004041 -353619.000000 0 0 1
18.677277 31.809123 10.380887 38.320018 1.039866 1.296469 0.055124 -0.025069 97924.100000 0 0 1
17.706377 31.874423 9.354687 37.643124 1.063737 1.319655 0.062522 -0.028304 958660.000000 0 0 1
16.347877 32.616123 9.661187 37.741265 1.106173 1.311930 0.046892 -0.022831 668962.000000 0 0 1
16.495177 33.980223 9.984387 39.069610 1.118869 1.312376 0.046822 -0.023918 -500324.000000 0 0 1
15.235077 -34.048082 10.039787 38.628704 -1.150059 1.307873 0.051660 -0.014614 -121245.000000 0 0 1
15.168277 -32.530082 10.271187 37.333365 -1.134483 1.292081 0.048811 -0.010176 237595.000000 0 0 1
15.864177 -31.883182 9.194687 36.779773 -1.109093 1.318123 0.052393 -0.018449 184100.000000 0 0 1
16.026977 -30.436982 9.490687 35.683988 -1.086125 1.301592 0.041078 -0.011777 183457.000000 0 0 1
16.803177 -29.825182 8.303987 35.225622 -1.057732 1.332819 0.029345 -0.010722 207160.000000 0 0 1
16.038577 -29.895082 7.135387 34.667934 -1.078380 1.363494 0.034254 -0.014313 238334.000000 0 0 1
16.825877 -29.334182 6.088587 34.360956 -1.050020 1.392661 0.033347 -0.013852 93279.200000 0 0 1
16.281677 -29.575082 4.665387 34.081437 -1.067554 1.433476 0.040916 -0.012078 -423091.000000 0 0 1
16.293277 -30.931582 4.293287 35.223088 -1.085977 1.448604 0.045340 -0.017725 -86432.500000 0 0 1
16.068877 -31.046582 2.899287 35.078554 -1.093189 1.488051 0.045928 -0.007167 -163564.000000 0 0 1
16.320677 -32.468882 2.355887 36.416247 -1.105026 1.506058 0.028346 -0.006607 -342986.000000 0 0 1
17.671177 -32.831982 2.257787 37.353810 -1.077034 1.510316 0.050491 -0.000168 -399647.000000 0 0 1
17.831077 -34.209682 1.957887 38.627490 -1.090310 1.520088 0.061857 0.001506 -893457.000000 0 0 1
19.285577 34.000223 1.935987 39.136897 1.054829 1.521309 0.080642 -0.008165 -744061.000000 0 0 1
19.777577 33.947423 3.263787 39.423754 1.043273 1.487914 0.081514 -0.037456 482632.000000 0 0 1
21.099577 33.398223 3.299687 39.642419 1.007352 1.487464 0.076170 -0.022316 314069.000000 0 0 1
21.551577 33.068823 4.788787 39.761162 0.993214 1.450064 0.082141 -0.023155 74910.100000 0 0 1
20.910377 32.055223 5.592587 38.678912 0.992789 1.425698 0.078319 -0.032314 55302.900000 0 0 1
21.633277 30.866423 5.502487 38.092153 0.959488 1.425837 0.064484 -0.037423 69851.300000 0 0 1
20.935377 29.728023 6.301387 36.901935 0.957237 1.399195 0.069442 -0.043534 -114347.000000 0 0 1
19.749477 29.297323 5.696187 35.788567 0.977662 1.410954 0.076536 -0.042475 -441413.000000 0 0 1
18.864477 28.804923 6.710587 35.080252 0.990981 1.378318 0.078080 -0.048818 -631335.000000 0 0 1
17.393077 29.054323 6.437987 34.469124 1.031378 1.382917 0.070998 -0.045466 -1165730.000000 0 0 1
17.024277 30.422523 6.484887 35.459973 1.060617 1.386882 0.068429 -0.044548 25916.800000 0 0 1
17.421577 31.125723 5.280387 36.058348 1.060524 1.423828 0.079235 -0.046294 -484304.000000 0 0 1
17.477177 32.658523 5.471087 37.442805 1.079426 1.424153 0.084700 -0.040606 -115551.000000 0 0 1
16.167377 33.146023 5.562287 37.295870 1.116987 1.421098 0.063726 -0.033746 -395359.000000 0 0 1
16.173177 -34.047782 5.790087 38.135918 -1.127336 1.418379 0.059523 -0.029069 -217589.000000 0 0 1
14.753577 -33.451382 5.875787 37.029554 -1.155414 1.411444 0.045109 -0.026450 387076.000000 0 0 1
13.974077 -33.678182 4.685787 36.762092 -1.177486 1.442986 0.033433 -0.016236 -483111.000000 0 0 1
12.871477 -32.832082 4.666087 35.572362 -1.197171 1.439246 0.017463 -0.011288 -389202.000000 0 0 1
11.991477 -32.924482 3.369387 35.201844 -1.221517 1.474933 0.021336 -0.005791 248639.000000 0 0 1
10.950477 -31.965282 3.434787 33.963068 -1.240752 1.469490 0.018154 -0.012267 99912.900000 0 0 1
10.592177 -31.511982 2.107187 33.311251 -1.246529 1.507497 0.018844 -0.003046 -673765.000000 0 0 1
9.668577 -30.293382 2.125287 31.869848 -1.261851 1.504060 0.025761 -0.005445 -225129.000000 0 0 1
9.170677 -29.815982 0.886487 31.207050 -1.272404 1.542386 0.035363 0.000469 -160770.000000 0 0 1
8.154377 -30.610582 0.321187 31.679722 -1.310452 1.560658 0.028671 -0.003393 -878360.000000 0 0 1
8.433477 -31.278582 -1.063513 32.413027 -1.307434 1.603613 0.042174 -0.006581 401052.000000 0 0 1
9.651777 -32.038482 -1.001213 33.475716 -1.278188 1.600709 0.032321 -0.011558 316967.000000 0 0 1
9.793777 -32.942282 -2.154713 34.434791 -1.281817 1.633411 0.036310 -0.001972 -481676.000000 0 0 1
10.976277 -33.894782 -2.181713 35.694464 -1.257620 1.631956 0.020830 0.001984 -631407.000000 0 0 1
10.888677 33.950223 -1.045913 35.668962 1.260436 1.600123 0.009190 0.001840 265805.000000 0 0 1
11.945377 33.005223 -0.884913 35.111534 1.223539 1.596002 0.031930 -0.002453 -172162.000000 0 0 1
12.026377 32.160723 0.281987 34.336939 1.212950 1.562584 0.010854 -0.004708 -416512.000000 0 0 1
12.385577 32.792023 1.530687 35.086497 1.209660 1.527156 0.024482 -0.008039 1218920.000000 0 0 1
13.772777 33.152023 1.744087 35.941450 1.177048 1.522251 0.032947 -0.010631 1080420.000000 0 0 1
14.804477 32.015523 1.988787 35.328763 1.137666 1.514473 0.043237 -0.018561 -306859.000000 0 0 1
15.099477 31.301523 0.812487 34.762619 1.121337 1.547422 0.051121 -0.013975 6066.910000 0 0 1
16.141777 30.386423 1.075587 34.424534 1.082488 1.539546 0.065023 -0.014203 247409.000000 0 0 1
16.983377 29.987823 -0.219213 34.463788 1.055493 1.577157 0.054912 -0.009033 690856.000000 0 0 1
17.925577 30.985623 -0.699113 35.803965 1.046326 1.590324 0.037182 -0.000362 378234.000000 0 0 1
17.491077 32.216723 -1.190913 36.677967 1.073406 1.603271 0.055784 -0.006565 -836474.000000 0 0 1
18.613577 32.821323 -2.000913 37.785025 1.054905 1.623776 0.046581 -0.003218 -226374.000000 0 0 1
19.719077 33.260023 -1.246413 38.686234 1.035631 1.603020 0.049489 0.004289 149174.000000 0 0 1
20.644877 33.953623 -2.083513 39.791965 1.024492 1.623180 0.048850 0.007101 -338013.000000 0 0 1
21.783077 -33.969482 -1.279413 40.374064 -1.000594 1.602491 0.054714 0.008963 877249.000000 0 0 1
22.885077 33.897023 -0.669113 40.904555 0.976954 1.587155 0.061664 0.006601 1618040.000000 0 0 1
23.625177 33.051523 -1.523913 40.655559 0.950207 1.608289 0.065409 0.005985 -809908.000000 0 0 1
24.440477 33.639723 -2.641413 41.664672 0.942482 1.634236 0.054451 0.005840 -1071110.000000 0 0 1
23.639977 34.176723 -3.683113 41.718847 0.965664 1.659196 0.043054 -0.004980 187484.000000 0 0 1
24.506477 -33.833682 -4.602413 42.029367 -0.943933 1.680521 0.037935 -0.003017 9776.720000 0 0 1
23.785777 -33.209982 -5.832513 41.263595 -0.949265 1.712619 0.036099 -0.009153 -129473.000000 0 0 1
22.931677 -32.108982 -5.653313 39.859861 -0.950615 1.713106 0.046653 -0.006222 414014.000000 0 0 1
22.367877 -31.711082 -6.918513 39.418022 -0.956479 1.747227 0.046396 -0.008292 -38900.300000 0 0 1
21.437277 -30.494482 -6.869413 37.903286 -0.958067 1.753039 0.055238 -0.009475 651368.000000 0 0 1
20.164677 -30.692282 -6.244513 37.250830 -0.989519 1.739226 0.067171 -0.006714 257232.000000 0 0 1
19.488977 -29.500082 -6.067813 35.873297 -0.986977 1.740759 0.076374 -0.016045 47163.000000 0 0 1
18.313077 -29.486782 -5.061813 35.077928 -1.015035 1.715604 0.056281 -0.005390 -174072.000000 0 0 1
17.128377 -30.003782 -5.582113 34.996689 -1.052068 1.730985 0.057401 -0.016019 -601435.000000 0 0 1
16.197777 -30.104382 -4.504713 34.480926 -1.077171 1.701814 0.035850 -0.004353 928371.000000 0 0 1
14.798377 -30.697382 -4.884313 34.426411 -1.121593 1.713154 0.028689 -0.002896 539670.000000 0 0 1
14.869077 -32.076782 -5.035613 35.712278 -1.136734 1.712273 0.021642 0.019894 -250151.000000 0 0 1
13.593777 -32.643982 -5.249513 35.748814 -1.176211 1.718174 0.029828 0.017279 -95499.700000 0 0 1
13.611477 -34.170982 -5.423713 37.179900 -1.191727 1.717196 0.026654 0.009025 -42197.600000 0 0 1
13.779277 33.769123 -4.180313 36.710995 1.183375 1.684915 0.031355 -0.003974 220680.000000 0 0 1
14.423477 32.501823 -4.296413 35.817096 1.153132 1.691040 0.033058 -0.007672 914410.000000 0 0 1
13.382677 31.351923 -4.679513 34.408385 1.167357 1.707218 0.023245 -0.007218 911087.000000 0 0 1
12.418077 30.996523 -3.717713 33.597834 1.189749 1.681677 0.017361 -0.007274 -45864.800000 0 0 1
12.948677 30.066823 -2.784713 32.854782 1.164139 1.655656 0.031984 -0.012847 216780.000000 0 0 1
11.880277 29.032723 -2.302713 31.453815 1.182382 1.644071 0.023084 -0.009532 377315.000000 0 0 1
10.855577 29.597223 -1.515313 31.561612 1.219254 1.618826 0.007744 -0.012778 -296848.000000 0 0 1
10.107777 28.642023 -0.807813 30.383963 1.231540 1.597386 -0.005377 -0.002214 352282.000000 0 0 1
8.908677 29.407223 -0.135013 30.727309 1.276643 1.575190 -0.015804 0.005941 -103689.000000 0 0 1
7.970577 28.626723 0.516787 29.720135 1.299243 1.553407 -0.010922 0.002499 -888381.000000 0 0 1
6.803677 29.397223 0.567487 30.179609 1.343361 1.551992 0.001375 0.006618 -356427.000000 0 0 1
5.682977 28.691023 1.371387 29.280569 1.375252 1.523943 -0.000499 0.006503 -78095.600000 0 0 1
5.337277 27.466723 0.781687 27.991399 1.378870 1.542867 0.008213 -0.003726 939442.000000 0 0 1
4.195777 26.894623 1.480387 27.260169 1.416036 1.516464 0.004077 -0.010875 1175250.000000 0 0 1
3.449077 25.725823 0.787387 25.967943 1.437520 1.540470 0.013194 -0.014721 876321.000000 0 0 1
2.097477 25.465323 1.192387 25.579364 1.488616 1.524164 0.025856 -0.016684 624505.000000 0 0 1
1.526577 24.595823 0.305687 24.645048 1.508809 1.558392 0.026332 -0.018469 -374230.000000 0 1 0
0.149277 24.023623 0.658787 24.033118 1.564583 1.543381 0.034763 -0.014853 131879.000000 0 1 0
-0.910823 24.961223 0.607187 24.985214 -1.534323 1.546492 0.042772 -0.020583 670350.000000 0 1 0
-2.184223 24.282823 0.532287 24.386670 -1.481088 1.548968 0.046602 -0.014246 1312130.000000 0 1 0
-3.342323 25.073823 1.255287 25.326734 -1.438278 1.521212 0.067380 -0.026414 -207836.000000 0 0 1
-4.452323 24.280223 1.607987 24.737381 -1.389439 1.505748 0.054635 -0.023819 146911.000000 0 1 0
-5.470123 25.154923 2.097687 25.828138 -1.356673 1.489490 0.054288 -0.023907 517237.000000 0 0 1
-6.625323 25.514523 1.106887 26.383915 -1.316739 1.528831 0.063746 -0.028084 -134905.000000 0 0 1
-6.317723 26.468723 0.212887 27.213090 -1.336494 1.562973 0.065228 -0.029748 89528.200000 0 0 1
-7.378823 26.561323 -0.719113 27.576585 -1.299826 1.596876 0.066543 -0.023006 145194.000000 0 0 1
-7.200123 27.727323 -1.693613 28.696943 -1.316732 1.629848 0.063092 -0.021870 -19085.800000 0 0 1
-7.279823 29.035723 -1.132213 29.955816 -1.325141 1.608601 0.070334 -0.029800 101438.000000 0 0 1
-7.185623 29.960423 -2.237013 30.891169 -1.335405 1.643276 0.060912 -0.023348 -326761.000000 0 0 1
-7.540623 31.427623 -1.812513 32.370383 -1.335312 1.626819 0.052837 -0.027380 -778698.000000 0 0 1
-7.547823 32.415223 -2.837613 33.403119 -1.342025 1.655849 0.041700 -0.017292 498656.000000 0 0 1
-6.296823 32.613823 -3.486913 33.398653 -1.380071 1.675390 0.028197 -0.016313 326147.000000 0 0 1
-5.060723 33.093523 -2.692113 33.586302 -1.419050 1.651037 0.035056 -0.022306 -624128.000000 0 0 1
-5.051123 -34.144682 -2.425013 34.601356 1.423929 1.640938 0.029024 -0.017304 284403.000000 0 0 1
-4.039523 -33.813582 -1.484213 34.086346 1.451895 1.614353 0.044050 -0.021022 112535.000000 0 0 1
-3.951923 -32.281682 -1.327313 32.549754 1.448982 1.611586 0.049198 -0.017579 25998.800000 0 0 1
-5.027823 -31.651882 -0.658613 32.055490 1.413265 1.591344 0.040808 -0.019689 -49536.000000 0 0 1
-5.429323 -30.495982 -1.369413 31.005770 1.394608 1.614977 0.049890 -0.014234 -501624.000000 0 0 1
-6.875323 -30.122882 -1.076313 30.916283 1.346398 1.605617 0.061380 -0.020648 -521263.000000 0 0 1
-6.950723 -29.474082 0.180387 30.283108 1.339203 1.564840 0.045688 -0.016821 382335.000000 0 0 1
-8.246723 -28.914282 0.389287 30.069847 1.292960 1.557850 0.015275 -0.006342 415049.000000 0 0 1
-8.343523 -28.041282 1.669287 29.303829 1.281594 1.513801 0.025389 -0.008895 221564.000000 0 0 1
-7.424423 -26.954582 1.656787 28.007437 1.302019 1.511607 0.031372 -0.004890 -41388.300000 0 0 1
-7.169823 -26.340682 2.887487 27.451329 1.305039 1.465416 0.039993 0.001341 -89511.800000 0 0 1
-8.242823 -25.354782 3.403187 26.877329 1.256475 1.443836 0.024565 0.001383 -329786.000000 0 0 1
-8.163423 -24.060082 2.789287 25.559913 1.243691 1.461451 0.022090 -0.003546 -551310.000000 0 0 1
-9.079223 -23.222982 3.422487 25.168485 1.198109 1.434391 0.019904 -0.004809 -487474.000000 0 0 1
-8.425623 -21.851582 3.671787 23.705797 1.202779 1.415280 0.005129 0.011965 297818.000000 0 1 0
-7.607823 -21.865182 4.834387 23.650295 1.235956 1.364934 0.008784 0.010640 -105621.000000 0 1 0
-7.022223 -20.577782 5.123987 22.338576 1.241935 1.339357 0.006443 0.007069 308340.000000 0 1 0
-7.940223 -19.534982 5.845887 21.882346 1.184732 1.300361 0.006543 0.002905 374737.000000 0 1 0
-8.385023 -19.841982 7.206287 22.714388 1.170969 1.247961 0.016995 0.000833 182780.000000 0 1 0
-9.143023 -18.790182 7.725987 22.279064 1.117938 1.216658 0.014104 -0.008076 -304642.000000 0 1 0
-27.598723 28.684423 -6.121413 40.273531 -0.804686 1.723384 0.048916 -0.018227 -141414.000000 0 0 1
-26.740033 29.454523 -5.301613 40.133594 -0.833666 1.703283 0.046749 -0.020307 46128.100000 0 0 1
-26.070983 28.635523 -4.319513 38.965979 -0.832242 1.681878 0.033813 -0.014413 -37080.700000 0 0 1
-24.998523 29.401823 -3.579713 38.758324 -0.866165 1.663288 0.035438 -0.006921 -1021520.000000 0 0 1
-25.550003 30.326223 -2.741213 39.749172 -0.870669 1.639814 0.031024 -0.005218 -245433.000000 0 0 1
-24.764123 31.448423 -2.457613 40.103678 -0.903754 1.632116 0.027292 0.007173 -239989.000000 0 0 1
-23.586323 31.303723 -1.476613 39.222673 -0.925080 1.608452 0.018661 0.021884 170286.000000 0 0 1
-22.485123 30.595023 -2.001313 38.021592 -0.937012 1.623457 0.042503 0.006156 915550.000000 0 0 1
-21.258423 30.682423 -1.246713 37.348172 -0.964883 1.604183 0.045533 0.010371 933518.000000 0 0 1
-20.107823 29.853223 -1.852713 36.041254 -0.978039 1.622224 0.045137 0.003418 94593.800000 0 0 1
-18.867623 30.142223 -1.225713 35.581501 -1.011512 1.605251 0.061562 0.004767 410378.000000 0 0 1
-17.839223 29.268023 -1.738213 34.320204 -1.023412 1.621465 0.063177 0.002422 528611.000000 0 0 1
-16.452423 29.811823 -1.320613 34.075960 -1.066514 1.609561 0.058789 -0.003027 -62999.300000 0 0 1
-16.064923 29.485223 -0.002813 33.577673 -1.071918 1.570880 0.052731 0.006344 -243429.000000 0 0 1
-14.940923 30.171923 0.485087 33.672116 -1.111002 1.556390 0.045297 0.002945 -341769.000000 0 0 1
-14.356323 29.427123 1.678887 32.785336 -1.116908 1.519565 0.066273 -0.009348 -437318.000000 0 0 1
-15.089323 29.449223 2.917987 33.218354 -1.097290 1.482840 0.043036 -0.002168 -310725.000000 0 0 1
-14.559223 28.732023 4.008487 32.458714 -1.101784 1.446985 0.053581 -0.019220 1067090.000000 0 0 1
-13.157223 29.226023 4.579987 32.376677 -1.147786 1.428861 0.068658 -0.015108 1192740.000000 0 0 1
-13.185923 30.394823 5.423287 33.572695 -1.161478 1.408547 0.059811 -0.021732 -364086.000000 0 0 1
-13.142323 31.639523 4.732787 34.585826 -1.177105 1.433524 0.069912 -0.027382 -84480.900000 0 0 1
-13.028623 32.892623 5.668687 35.830206 -1.193660 1.411919 0.062844 -0.018464 -226051.000000 0 0 1
-14.123823 33.211123 6.477587 36.666336 -1.168694 1.393201 0.058527 -0.013882 -192703.000000 0 0 1
-13.776823 -34.312782 7.286487 37.686347 1.188991 1.376225 0.066755 -0.015208 -104771.000000 0 0 1
-15.015723 -33.920382 8.065787 37.962102 1.154050 1.356695 0.050482 -0.006750 -98892.300000 0 0 1
-15.311723 33.894623 9.260287 38.328152 -1.146492 1.326776 0.043145 -0.007977 193096.000000 0 0 1
-16.513623 34.282723 9.911687 39.322339 -1.121904 1.315985 0.048036 -0.004926 -295140.000000 0 0 1
-16.818523 33.526223 11.300787 39.173692 -1.105827 1.278158 0.052901 -0.004346 578042.000000 0 0 1
-15.930023 33.845923 12.376387 39.401613 -1.130893 1.251279 0.052089 -0.009961 1097570.000000 0 0 1
-14.555423 33.442923 12.245887 38.474033 -1.160291 1.246872 0.058246 -0.008379 327023.000000 0 0 1
-13.765023 33.508823 13.529987 38.670113 -1.181025 1.213351 0.053726 -0.007052 -507136.000000 0 0 1
-14.148923 32.560223 14.468687 38.336706 -1.160868 1.183798 0.050398 -0.003974 3827.870000 0 0 1
-13.482623 31.301423 14.434387 37.012319 -1.164078 1.170177 0.041317 -0.009066 -188958.000000 0 0 1
-14.130523 30.148023 13.601587 35.966347 -1.132497 1.182972 0.052990 -0.019568 -20718.100000 0 0 1
-13.989823 30.271423 12.171587 35.499602 -1.137888 1.220831 0.049183 -0.013969 674131.000000 0 0 1
-15.108423 29.590023 11.588987 35.187193 -1.098711 1.235179 0.030066 -0.003649 495085.000000 0 0 1
-15.003323 29.412723 10.044187 34.512225 -1.099104 1.275490 0.031861 -0.004575 -282693.000000 0 0 1
-14.318323 28.267523 9.699487 33.138305 -1.101939 1.273750 0.019407 0.000040 -187979.000000 0 0 1
-14.041723 28.083623 8.314087 32.480516 -1.107151 1.311944 0.025614 0.001377 -482179.000000 0 0 1
-13.119423 26.920923 7.937187 30.981515 -1.117335 1.311717 0.028041 0.001015 327810.000000 0 0 1
-11.721823 27.119823 8.136487 30.644549 -1.162823 1.302062 0.030100 -0.002282 874697.000000 0 0 1
-10.944223 25.924023 7.817187 29.205126 -1.171329 1.299828 0.048686 -0.003101 373610.000000 0 0 1
-9.998123 25.990123 6.602587 28.618929 -1.203558 1.337992 0.062653 -0.014593 -496331.000000 0 0 1
-10.597523 26.356323 5.380587 28.912177 -1.188492 1.383604 0.069466 -0.017525 -237272.000000 0 0 1
-9.738423 26.055123 4.352887 28.154111 -1.213111 1.415564 0.086650 -0.011082 -555602.000000 0 0 1
-10.240723 26.568123 3.007387 28.631834 -1.202894 1.465566 0.087220 -0.021479 -65067.700000 0 0 1
-10.047323 27.963623 2.860287 29.851200 -1.225861 1.474831 0.093514 -0.022343 218873.000000 0 0 1
-10.495323 28.441523 1.588387 30.357783 -1.217284 1.518450 0.088468 -0.021776 -80330.600000 0 0 1
-10.064623 29.923523 1.324387 31.598542 -1.246338 1.528871 0.100656 -0.029430 375033.000000 0 0 1
-10.687623 30.939923 2.123887 32.802668 -1.238197 1.506004 0.087429 -0.036949 78075.000000 0 0 1
-10.178423 32.168923 1.693687 33.783257 -1.264357 1.520641 0.088112 -0.031143 -96121.200000 0 0 1
-10.691523 33.382923 2.475987 35.140557 -1.260849 1.500278 0.066526 -0.026697 383689.000000 0 0 1
-12.032423 33.767523 2.170987 35.912922 -1.228492 1.510308 0.074196 -0.021004 174470.000000 0 0 1
-12.200123 -33.944782 1.087787 36.087041 1.225762 1.540648 0.067106 -0.023917 714314.000000 0 0 1
-13.685523 -33.778182 0.589187 36.450052 1.185851 1.554631 0.072574 -0.022850 1292160.000000 0 0 1
-14.370723 33.738923 -0.047113 36.671990 -1.168131 1.572081 0.061338 -0.022973 204816.000000 0 0 1
-14.382723 33.625623 -1.451413 36.601255 -1.166615 1.610461 0.072442 -0.019723 565710.000000 0 0 1
-13.054723 33.151623 -2.150113 35.694242 -1.195656 1.631070 0.062158 -0.017817 419808.000000 0 0 1
-12.870923 31.759423 -2.191413 34.338374 -1.185761 1.634658 0.060590 -0.016276 -683078.000000 0 0 1
-11.544723 31.495923 -2.491313 33.637486 -1.219457 1.644928 0.054086 -0.015911 -760037.000000 0 0 1
-11.169923 29.991623 -2.465813 32.098985 -1.214277 1.647691 0.053782 -0.022308 -56887.200000 0 0 1
-11.374623 29.266523 -3.671213 31.613118 -1.200107 1.687188 0.049179 -0.020786 296887.000000 0 0 1
-10.416023 29.581123 -4.704713 31.712311 -1.232237 1.719702 0.040558 -0.017934 295442.000000 0 0 1
-10.681623 28.930223 -6.086513 31.434066 -1.217102 1.765655 0.049722 -0.019656 -133326.000000 0 0 1
-10.638723 27.508823 -6.115213 30.121647 -1.201774 1.775235 0.050164 -0.015921 129220.000000 0 0 1
-10.454823 27.126623 -7.435313 30.007347 -1.202932 1.821188 0.042805 -0.016405 83519.900000 0 0 1
-11.030823 25.673223 -7.660913 28.973833 -1.164983 1.838386 0.061224 -0.020417 -85081.600000 0 0 1
-10.439523 24.602223 -7.004513 27.628178 -1.169491 1.827122 0.031564 -0.014916 -361314.000000 0 0 1
-11.075323 23.367223 -7.162513 26.832657 -1.128190 1.841005 0.054294 -0.021950 -705850.000000 0 0 1
-10.546823 22.297223 -6.182313 25.428775 -1.128972 1.816380 0.042459 -0.015236 611703.000000 0 0 1
-9.129423 22.082523 -6.323613 24.717853 -1.178772 1.829504 0.047637 -0.021922 937226.000000 0 1 0
-8.577823 21.044723 -5.531813 23.389322 -1.183756 1.809569 0.049249 -0.021464 -159935.000000 0 1 0
-8.544323 21.128123 -3.989313 23.136933 -1.186498 1.744084 0.038876 -0.018970 368364.000000 0 1 0
-9.782823 20.947623 -3.274413 23.350125 -1.133884 1.711491 0.047366 -0.019876 663401.000000 0 1 0
-10.158423 19.544723 -3.178713 22.255201 -1.091472 1.714117 0.042220 -0.026856 443045.000000 0 1 0
-11.552323 19.274523 -2.528713 22.613222 -1.030850 1.682855 0.050432 -0.032076 369643.000000 0 1 0
-11.466923 19.307423 -1.129013 22.484252 -1.034865 1.621031 0.052230 -0.033461 297221.000000 0 1 0
-10.973523 18.104023 -0.558113 21.177473 -1.025876 1.597153 0.043835 -0.032514 -144812.000000 0 1 0
-10.695723 18.257823 0.943687 21.181056 -1.040872 1.526228 0.041441 -0.025976 919587.000000 0 1 0
-11.938123 18.436423 1.667587 22.027286 -0.996160 1.495018 0.059968 -0.025234 1245390.000000 0 1 0
-11.665423 18.862923 3.048087 22.387112 -1.016934 1.434218 0.050431 -0.006485 -43551.200000 0 1 0
-12.910523 18.804523 3.935787 23.146968 -0.969144 1.399931 0.058511 -0.017685 254399.000000 0 1 0
-13.434723 17.448823 4.174587 22.413844 -0.914649 1.383452 0.032973 -0.017357 162323.000000 0 1 0
-14.704323 17.402023 4.771787 23.276973 -0.869225 1.364332 0.049171 -0.027693 -218325.000000 0 1 0
-15.132723 15.976623 5.192087 22.609944 -0.812518 1.339091 0.037736 -0.022745 -514419.000000 0 1 0
-14.412923 15.420423 6.282787 22.022607 -0.819156 1.281489 0.032630 -0.019306 159969.000000 0 1 0
-14.879523 15.806223 7.601387 23.000391 -0.815589 1.233974 0.030344 -0.023534 -116442.000000 0 1 0
-13.684723 15.829923 8.609687 22.627082 -0.857953 1.180455 0.015860 -0.008349 1141290.000000 0 1 0
-12.640923 16.795223 8.430587 22.648339 -0.925601 1.189376 0.015025 -0.023161 800816.000000 0 1 0
-11.740523 16.489523 7.327487 21.527571 -0.952063 1.223479 0.013108 -0.014043 -277837.000000 0 1 0
-10.553923 17.479523 7.271387 21.674688 -1.027596 1.228683 0.021754 -0.016568 -52757.000000 0 1 0
-9.602623 17.249823 8.286087 21.410885 -1.062839 1.173417 0.013539 -0.014410 -539829.000000 0 1 0
-8.914323 18.419323 8.508887 22.161628 -1.120058 1.176729 0.013921 -0.015459 -675960.000000 0 1 0
-7.776423 18.309223 9.540187 22.061631 -1.169157 1.123606 0.022990 -0.015441 -570122.000000 0 1 0
-6.692023 17.676623 8.895687 20.889697 -1.208890 1.130905 0.013632 -0.009607 -698121.000000 0 1 0
-5.442423 17.714123 9.525187 20.836010 -1.272714 1.096008 0.017974 -0.016044 -2759.390000 0 1 0
-4.610723 18.921923 9.024887 21.465007 -1.331783 1.136859 0.016955 -0.015646 -1594420.000000 0 1 0
-5.082523 20.231723 9.219387 22.806836 -1.324674 1.154651 0.026811 -0.018854 -645355.000000 0 1 0
-4.470623 21.125623 8.398687 23.169298 -1.362252 1.199856 0.029487 -0.024230 -65091.600000 0 1 0
-3.003123 21.573523 8.623487 23.426484 -1.432481 1.193823 0.034540 -0.022728 -376125.000000 0 1 0
-2.027323 20.651923 8.271287 22.338893 -1.472944 1.191503 0.022423 -0.011621 -412238.000000 0 1 0
-0.795923 21.360723 8.256487 22.914702 -1.533552 1.202192 0.020071 -0.010854 692301.000000 0 1 0
0.528877 20.566423 8.033787 22.086177 1.545086 1.198509 0.019601 -0.003670 715487.000000 0 1 0
0.891777 19.916323 9.239787 21.973367 1.526050 1.136801 0.021809 -0.012273 -436757.000000 0 1 0
2.284177 19.719923 9.290487 21.918165 1.455479 1.133081 0.019450 -0.008159 -125632.000000 0 1 0
2.829077 18.960323 10.485287 21.850372 1.422679 1.070292 0.012818 -0.031888 563056.000000 0 1 0
4.250877 18.879923 10.638187 22.083760 1.349336 1.068180 0.032731 -0.008295 655129.000000 0 1 0
4.668977 18.251923 11.859887 22.261827 1.320359 1.008955 0.027935 -0.016313 532930.000000 0 1 0
6.213277 18.220123 12.001187 22.684933 1.242151 1.013330 0.036221 -0.017868 633389.000000 0 1 0
6.996377 17.350423 11.165287 21.786466 1.187500 1.032717 0.030075 -0.017128 68162.400000 0 1 0
7.813877 16.540223 11.953587 21.852320 1.129458 0.992000 0.032491 -0.015562 232479.000000 0 1 0
9.143177 16.001423 11.323987 21.630439 1.051673 1.019818 0.036619 -0.017761 439362.000000 0 1 0
10.053377 16.977523 10.938387 22.560031 1.036163 1.064597 0.043470 -0.019350 -517302.000000 0 1 0
11.088077 16.436523 10.155587 22.276460 0.977322 1.097426 0.043118 -0.021271 177323.000000 0 1 0
12.114077 17.521123 9.679187 23.397164 0.965867 1.144292 0.047481 -0.009200 113013.000000 0 1 0
13.035077 17.029723 8.751087 23.162604 0.917492 1.183365 0.045328 -0.007733 -917148.000000 0 1 0
13.772977 18.064823 8.234787 24.162873 0.919394 1.223025 0.045331 -0.004506 -391892.000000 0 1 0
14.887277 17.558823 7.299487 24.150068 0.867551 1.263739 0.043083 -0.016211 210173.000000 0 1 0
15.925877 16.816023 7.959387 24.490080 0.812578 1.239780 0.058224 -0.015986 323169.000000 0 1 0
16.967377 16.621423 7.005987 24.763833 0.775099 1.283967 0.077788 -0.011400 -497258.000000 0 1 0
18.301977 16.528623 7.715287 25.839570 0.734528 1.267588 0.051321 -0.008918 -911131.000000 0 0 1
18.465077 15.303823 8.429587 25.420936 0.692056 1.232797 0.052020 -0.008026 739697.000000 0 0 1
19.509577 15.439023 9.427687 26.605795 0.669448 1.208581 0.046156 -0.009159 419457.000000 0 0 1
19.690377 14.203623 10.269687 26.361341 0.624911 1.170628 0.032431 -0.011555 233098.000000 0 0 1
20.483177 13.143523 9.655487 26.182841 0.570500 1.193109 0.039916 -0.023627 607648.000000 0 0 1
20.598077 12.097623 10.557287 26.116844 0.531042 1.154656 0.044396 -0.024172 -478219.000000 0 0 1
21.398777 10.869123 10.113787 26.044849 0.469973 1.171986 0.038712 -0.017564 -1053520.000000 0 0 1
22.761877 10.998523 10.435587 27.349077 0.450117 1.179302 0.033038 -0.024494 363285.000000 0 0 1
23.621677 10.220323 9.623787 27.478280 0.408347 1.212977 0.048585 -0.022878 -274401.000000 0 0 1
23.689977 8.742423 10.022087 27.167760 0.353531 1.192975 0.053501 -0.026278 -144443.000000 0 0 1
22.464577 8.024523 9.776487 25.780417 0.343082 1.181842 0.054620 -0.023450 1043020.000000 0 0 1
22.529077 6.642923 10.012887 25.533226 0.286735 1.167827 0.060722 -0.034610 -646971.000000 0 0 1
23.617177 5.774323 9.322187 26.038760 0.239792 1.204658 0.076761 -0.032592 31355.100000 0 0 1
23.451977 5.627523 7.907387 25.380918 0.235507 1.253974 0.061263 -0.015882 944880.000000 0 0 1
24.532077 4.864023 7.348687 26.066928 0.195733 1.285006 0.073249 -0.015471 536822.000000 0 0 1
24.150977 4.691723 5.845287 25.287335 0.191876 1.337532 0.062613 -0.013934 311904.000000 0 0 1
23.084977 3.764423 5.637587 24.059705 0.161645 1.334281 0.056227 -0.013388 727908.000000 0 1 0
22.832777 3.549523 4.303187 23.504302 0.154223 1.386677 0.056807 -0.012791 -304486.000000 0 1 0
21.859177 2.387323 4.154187 22.378119 0.108783 1.384077 0.037847 -0.008959 -870921.000000 0 1 0
22.465777 1.182323 4.505987 22.943691 0.052579 1.373118 0.057519 -0.016773 321336.000000 0 1 0
21.791477 0.096323 3.947787 22.146394 0.004420 1.391580 0.048876 -0.018007 -529761.000000 0 1 0
22.421477 -1.257677 4.262487 22.857672 -0.056034 1.383219 0.066708 -0.019695 -654401.000000 0 1 0
22.175377 -1.653977 5.673387 22.949298 -0.074448 1.320992 0.055108 -0.021739 702105.000000 0 1 0
22.443577 -3.047177 5.825687 23.386707 -0.134945 1.319043 0.057617 -0.020629 -437624.000000 0 1 0
22.025677 -3.613777 7.220987 23.459166 -0.162622 1.257905 0.065301 -0.021390 -102150.000000 0 1 0
22.339677 -4.989977 7.428987 24.065554 -0.219761 1.256973 0.068716 -0.016298 669836.000000 0 1 0
22.166077 -5.215877 8.813887 24.417718 -0.231105 1.201496 0.086294 -0.018176 -105144.000000 0 1 0
21.917977 -6.656877 9.352487 24.742286 -0.294864 1.183166 0.070925 -0.015530 -11114.700000 0 1 0
20.618377 -7.140477 9.115587 23.647364 -0.333389 1.175068 0.058242 -0.003692 322724.000000 0 1 0
20.418577 -8.268277 9.987787 24.187571 -0.384757 1.145127 0.063216 -0.000549 -353939.000000 0 1 0
-25.872763 -33.002982 5.135487 42.248905 0.905917 1.448942 0.037936 -0.003870 -58130.000000 0 0 1
-26.523253 -34.168982 5.577887 43.613245 0.910713 1.442551 0.033632 -0.000810 115166.000000 0 0 1
-26.929563 -34.067182 6.936187 43.975959 0.901885 1.412408 0.013010 0.015267 -172493.000000 0 0 1
-27.666843 33.378323 7.610387 44.016868 -0.878688 1.397026 0.011376 0.013082 1280320.000000 0 0 1
-29.071943 33.312123 7.253287 44.804973 -0.853263 1.408195 0.028631 -0.000970 851383.000000 0 0 1
-29.629903 32.095223 7.635687 44.343412 -0.825317 1.397739 0.033163 -0.002594 -796224.000000 0 0 1
-31.140923 32.076223 7.624887 45.351737 -0.800192 1.401866 0.057755 -0.011359 -778695.000000 0 0 1
-31.734343 32.263323 6.351887 45.698326 -0.793664 1.431349 0.045037 -0.009586 -51274.700000 0 0 1
-33.110393 32.565823 6.453987 46.888004 -0.777107 1.432711 0.049257 -0.007705 26228.500000 0 0 1
-33.762373 32.605923 5.055487 47.208071 -0.767975 1.463501 0.053775 0.000413 -323868.000000 0 0 1
-33.774523 31.370123 4.380087 46.303220 -0.748506 1.476059 0.047210 -0.004030 -467104.000000 0 0 1
-34.616799 31.347623 3.320387 46.819026 -0.735879 1.499817 0.051492 0.003196 -582867.000000 0 0 1
-34.546669 30.036223 2.518687 45.847473 -0.715672 1.515832 0.050254 -0.006846 -5087.920000 0 0 1
-34.746339 28.861123 3.290687 45.289084 -0.693137 1.498073 0.062581 -0.018096 321430.000000 0 0 1
-34.168340 27.735823 2.637187 44.087482 -0.681859 1.510943 0.050583 -0.015915 -301545.000000 0 0 1
-34.428994 26.450823 3.409887 43.550304 -0.655093 1.492418 0.073843 -0.021965 -438758.000000 0 0 1
-35.741113 26.008123 3.187387 44.317142 -0.629063 1.498812 0.072574 -0.019764 -531179.000000 0 0 1
-36.025123 25.077423 4.186187 44.093206 -0.608110 1.475714 0.081198 -0.023547 1022890.000000 0 0 1
34.728633 24.765923 4.269387 42.867896 0.619482 1.471037 0.079126 -0.024022 1012310.000000 0 0 1
34.188563 24.051923 3.148987 41.919792 0.613076 1.495606 0.067060 -0.015488 99367.800000 0 0 1
34.548883 22.669823 3.206787 41.446709 0.580698 1.493348 0.056505 -0.013985 -897309.000000 0 0 1
33.825453 21.694823 2.238687 40.247215 0.570289 1.515144 0.052170 -0.011672 1116180.000000 0 0 1
32.390053 21.554523 2.437987 38.982775 0.587172 1.508215 0.057423 -0.019151 1812650.000000 0 0 1
31.973243 20.738923 3.581887 38.278207 0.575414 1.477084 0.045696 -0.003135 -125947.000000 0 0 1
32.490623 19.246523 3.509487 37.926056 0.534792 1.478129 0.048022 -0.016694 -212585.000000 0 0 1
32.074703 18.580023 2.311887 37.139583 0.525040 1.508507 0.038957 -0.014897 185117.000000 0 0 1
32.421673 17.210823 2.166987 36.770547 0.488017 1.511829 0.032024 -0.013724 -145480.000000 0 0 1
31.603433 16.187423 3.030887 35.637002 0.473364 1.485645 0.052097 -0.020530 495646.000000 0 0 1
30.265573 15.922723 2.595187 34.296837 0.484309 1.495056 0.046966 -0.003154 528041.000000 0 0 1
29.715753 15.007023 3.493087 33.472950 0.467655 1.466250 0.057732 -0.010961 266972.000000 0 0 1
28.179993 15.122523 3.756787 32.201182 0.492529 1.453864 0.052885 -0.013123 320985.000000 0 0 1
27.447053 14.728523 2.625787 31.259636 0.492509 1.486698 0.045226 -0.015173 -557223.000000 0 0 1
26.124633 15.184623 2.717087 30.338948 0.526509 1.481118 0.033987 -0.005806 -511359.000000 0 0 1
25.240933 14.649823 1.581287 29.227085 0.525883 1.516666 0.049641 -0.015757 -505598.000000 0 0 1
25.565633 15.032823 0.271887 29.659084 0.531556 1.561629 0.052450 -0.012567 508203.000000 0 0 1
26.799433 14.538523 -0.237013 30.489907 0.497062 1.578570 0.052345 -0.012413 -453653.000000 0 0 1
27.303833 15.218023 -1.521013 31.295383 0.508475 1.619417 0.059534 -0.011561 -86164.500000 0 0 1
27.614293 16.593023 -1.478913 32.250035 0.541070 1.616670 0.036436 -0.009895 100452.000000 0 0 1
28.744723 16.837923 -0.679013 33.320201 0.529894 1.591176 0.042332 -0.014811 -923743.000000 0 0 1
29.176093 18.300723 -0.734713 34.448522 0.560216 1.592126 0.045422 -0.005362 -298400.000000 0 0 1
29.812113 18.608323 -1.954813 35.197344 0.558014 1.626364 0.038610 0.003951 237037.000000 0 0 1
30.361773 19.922123 -1.702013 36.354162 0.580692 1.617631 0.029155 0.016270 175513.000000 0 0 1
30.517793 20.816223 -2.934113 37.057521 0.598612 1.650057 0.037167 0.008321 -212245.000000 0 0 1
31.334273 21.910323 -2.686113 38.329024 0.610219 1.640934 0.008465 0.015912 -76557.900000 0 0 1
31.231913 22.862123 -3.701113 38.881966 0.631889 1.666129 0.021261 0.013543 67049.700000 0 0 1
32.319803 23.982423 -3.547313 40.401853 0.638384 1.658710 0.001045 0.014874 -81027.600000 0 0 1
32.238933 24.755623 -2.357713 40.715457 0.654846 1.628736 0.021687 0.011196 79070.700000 0 0 1
32.728483 24.131623 -1.207513 40.681039 0.635342 1.600483 0.024429 0.018418 -678826.000000 0 0 1
32.558433 24.966223 0.100787 41.028941 0.654175 1.568340 0.029881 -0.003697 -130523.000000 0 0 1
33.239343 26.198523 0.061487 42.322811 0.667491 1.569344 0.040250 -0.004380 195130.000000 0 0 1
34.579933 26.065223 0.526487 43.306406 0.645908 1.558639 0.056794 -0.013223 594510.000000 0 0 1
35.567113 27.261323 0.300087 44.813941 0.653962 1.564100 0.047922 -0.005415 -19794.400000 0 0 1
36.097553 27.457023 -1.013113 45.364610 0.650272 1.593131 0.024562 -0.005110 -347164.000000 0 0 1
35.176343 27.644223 -2.035213 44.785268 0.666069 1.616256 0.019092 -0.008575 -688043.000000 0 0 1
35.703413 27.173823 -3.381713 44.995403 0.650567 1.646024 0.018729 0.000269 728624.000000 0 0 1
-35.507085 27.979223 -3.902613 45.374226 -0.667375 1.656912 0.020891 0.001971 912330.000000 0 0 1
-35.211649 27.638323 -5.270913 45.072382 -0.665478 1.688008 0.020844 -0.000022 -46464.800000 0 0 1
35.953613 27.813223 -6.320713 45.893235 0.658426 1.708962 0.018015 -0.001434 548922.000000 0 0 1
34.832443 26.968823 -6.194613 44.485837 0.658838 1.710499 0.012365 0.007483 311698.000000 0 0 1
33.756873 27.217423 -7.103213 43.940530 0.678557 1.733164 0.007052 0.002861 834077.000000 0 0 1
32.525583 26.295823 -6.880113 42.387732 0.679882 1.733831 0.004523 0.008238 -7503.720000 0 0 1
32.681163 24.859623 -7.185213 41.685568 0.650296 1.744028 0.006220 0.007885 -271484.000000 0 0 1
33.867963 24.200723 -6.808213 42.178972 0.620432 1.732918 0.001969 0.013019 -279008.000000 0 0 1
33.944483 22.776523 -7.292013 41.523143 0.590992 1.747325 -0.000666 0.018984 -248331.000000 0 0 1
32.955103 21.924223 -6.771213 40.156689 0.587039 1.740226 0.005490 0.023588 -70306.700000 0 0 1
33.125303 20.514923 -6.997713 39.586813 0.554499 1.748499 0.017529 0.013996 -445851.000000 0 0 1
32.049373 19.595823 -6.394113 38.105685 0.548779 1.739393 0.031387 0.015146 -631175.000000 0 0 1
30.816323 19.700123 -7.040913 37.246678 0.568799 1.760975 0.022670 0.005897 -503428.000000 0 0 1
29.884733 19.039823 -6.200413 35.973007 0.567259 1.744024 0.065471 -0.003018 133015.000000 0 0 1
28.486303 18.782123 -6.811213 34.794112 0.582912 1.767826 0.045726 -0.005534 176880.000000 0 0 1
28.539423 17.768323 -7.763613 34.503415 0.556863 1.797750 0.038495 -0.004527 -98351.200000 0 0 1
27.427063 17.733423 -8.628013 33.781070 0.573958 1.829068 0.050233 -0.013229 -191825.000000 0 0 1
27.520483 16.541023 -9.619513 33.518912 0.541187 1.861877 0.054196 -0.013403 65593.900000 0 0 1
26.600933 16.559923 -10.709513 33.113960 0.556822 1.900131 0.058706 -0.015595 428885.000000 0 0 1
26.886533 15.494723 -11.602113 33.129762 0.522811 1.928583 0.068061 -0.024166 21671.100000 0 0 1
26.038333 15.624623 -12.918813 33.000293 0.540465 1.973031 0.065394 -0.019194 -56325.700000 0 0 1
24.655933 15.549223 -12.646213 31.774519 0.562651 1.980130 0.047457 -0.017675 219416.000000 0 0 1
23.797133 15.516823 -13.781113 31.575218 0.577812 2.022449 0.047624 -0.015748 61006.400000 0 0 1
23.642733 14.105623 -14.477813 31.105538 0.537927 2.054930 0.058486 -0.023646 365827.000000 0 0 1
24.800833 13.532723 -15.153013 32.059783 0.499502 2.063090 0.064595 -0.028964 1060270.000000 0 0 1
25.199433 14.117623 -16.388413 33.209920 0.510668 2.086882 0.072376 -0.031293 -1000050.000000 0 0 1
26.625533 13.805523 -16.800213 34.376716 0.478343 2.081406 0.089239 -0.033654 -593257.000000 0 0 1
26.761333 12.406023 -17.114113 34.102364 0.434090 2.096527 0.092345 -0.036805 1272280.000000 0 0 1
28.137303 11.994523 -17.378213 35.179236 0.402959 2.087470 0.080448 -0.027207 1521650.000000 0 0 1
28.254783 10.628823 -18.048813 35.171925 0.359803 2.109658 0.061865 -0.017152 8929.660000 0 0 1
27.636353 10.538323 -19.349713 35.344528 0.364301 2.150122 0.055819 -0.019203 106751.000000 0 0 1
27.730283 9.301923 -20.098713 35.488768 0.323648 2.172855 0.036702 0.000466 -432850.000000 0 0 1
29.156453 8.908123 -20.500013 36.738317 0.296521 2.162771 0.044533 -0.007113 -547917.000000 0 0 1
29.668083 9.686023 -21.619913 37.966233 0.315570 2.176634 0.047116 -0.015720 274033.000000 0 0 1
30.116543 8.821323 -22.636613 38.694162 0.284936 2.195693 0.037378 -0.009990 -255524.000000 0 0 1
31.599303 8.407923 -22.539413 39.714409 0.260054 2.174308 0.031968 -0.006902 -78283.300000 0 0 1
32.539333 9.476123 -22.576213 40.722113 0.283383 2.158434 0.032575 -0.009597 624936.000000 0 0 1
33.879993 8.997123 -22.540913 41.676071 0.259568 2.142255 0.023510 -0.008843 247124.000000 0 0 1
34.990763 10.016223 -22.381213 42.727004 0.278798 2.122124 0.039544 -0.016220 -318821.000000 0 0 1
34.941903 10.564423 -21.056513 42.141670 0.293605 2.094003 0.036435 -0.019740 170396.000000 0 0 1
35.784993 11.695123 -20.948713 43.083526 0.315874 2.078572 0.020649 -0.010013 -126468.000000 0 0 1
35.787173 12.354323 -19.634013 42.647925 0.332407 2.049213 0.016880 -0.007498 -16970.700000 0 0 1
-35.925420 11.607423 -18.590613 42.083001 -0.312510 2.028357 0.017557 -0.010892 345108.000000 0 0 1
36.085903 12.312823 -17.384613 41.904925 0.328822 1.998584 0.026307 -0.014242 -34561.800000 0 0 1
-35.750057 11.501123 -16.184513 40.893531 -0.311253 1.977705 0.019092 -0.016114 63258.500000 0 0 1
35.638073 10.456023 -15.812913 40.366432 0.285386 1.973312 0.017397 -0.014998 357807.000000 0 0 1
-36.024553 9.527723 -15.004413 40.170615 -0.258558 1.953594 0.014127 -0.016353 -95732.200000 0 0 1
35.483143 8.228223 -14.674713 39.269636 0.227864 1.953782 0.042638 -0.012943 -113064.000000 0 0 1
34.339183 8.480123 -13.896513 38.002698 0.242108 1.945151 0.055127 -0.015154 145157.000000 0 0 1
34.454273 8.172823 -12.508513 37.554691 0.232903 1.910359 0.050478 -0.014548 60168.700000 0 0 1
33.339703 8.822823 -11.610213 36.389216 0.258704 1.895530 0.056051 -0.015981 310456.000000 0 0 1
33.441343 10.260623 -11.711613 36.888557 0.297706 1.893874 0.059965 -0.016808 326191.000000 0 0 1
32.468963 10.865123 -10.876813 35.924776 0.322918 1.878390 0.048840 -0.013025 -342369.000000 0 0 1
32.669363 10.684223 -9.315813 35.612136 0.316077 1.835467 0.052327 -0.006585 717472.000000 0 0 1
33.834693 11.383023 -8.785413 36.763340 0.324535 1.812103 0.046932 0.004201 979307.000000 0 0 1
33.660503 12.797823 -8.653513 37.036428 0.363324 1.806625 0.047467 -0.001194 -429318.000000 0 0 1
33.230523 13.353423 -7.244413 36.538515 0.382093 1.770387 0.037619 -0.001796 -81448.900000 0 0 1
34.165963 12.988723 -6.245613 37.081365 0.363292 1.740033 0.059084 0.003519 548103.000000 0 0 1
33.716823 13.225323 -4.939413 36.553127 0.373805 1.706341 0.048068 0.007176 102632.000000 0 0 1
34.994703 12.993923 -4.100613 37.553779 0.355533 1.680208 0.068525 0.003180 1062860.000000 0 0 1
35.979073 14.058423 -4.317213 38.868641 0.372497 1.682098 0.071528 0.010027 782567.000000 0 0 1
-35.113811 13.689023 -3.669713 37.866025 -0.371723 1.667862 0.058914 -0.001341 204483.000000 0 0 1
-34.152253 14.877723 -3.501213 37.416327 -0.410839 1.664508 0.067761 -0.004940 109582.000000 0 0 1
-34.537958 15.753823 -2.441813 38.039663 -0.427941 1.635032 0.062658 -0.003413 325746.000000 0 0 1
-33.684083 16.888023 -2.470713 37.761451 -0.464739 1.636273 0.075745 -0.002070 210948.000000 0 0 1
-33.861373 17.851123 -1.287713 38.300305 -0.485156 1.604424 0.066720 0.005388 -38450.500000 0 0 1
-35.085900 18.549523 -1.329713 39.709864 -0.486334 1.604288 0.040609 0.014276 200668.000000 0 0 1
-35.203357 19.402523 -0.180813 40.196604 -0.503730 1.575295 0.021286 0.018755 -358733.000000 0 0 1
35.978303 20.443223 -0.330713 41.382037 0.516716 1.578788 0.009582 0.008195 -264962.000000 0 0 1
36.143113 21.502523 -1.200213 42.072837 0.536681 1.599327 0.021938 0.013403 99602.000000 0 0 1
35.663603 21.211823 -2.522613 41.571596 0.536569 1.631515 0.002869 0.020465 18586.000000 0 0 1
35.776883 22.476323 -3.418513 42.389346 0.560923 1.651530 0.038383 -0.014080 -688198.000000 0 0 1
-35.198219 22.805723 -3.638613 42.098161 -0.574913 1.657336 0.047403 0.002912 -611354.000000 0 0 1
-35.068056 23.811823 -4.633613 42.640847 -0.596504 1.679677 0.058118 -0.009843 440503.000000 0 0 1
-33.576903 24.165723 -4.933813 41.662130 -0.623834 1.689499 0.057065 -0.018903 860813.000000 0 0 1
-32.979213 23.270123 -5.892613 40.790318 -0.614474 1.715765 0.038979 -0.004340 -30650.200000 0 0 1
-31.646993 23.573823 -6.227213 39.950413 -0.640229 1.727308 0.056751 0.001430 -48817.200000 0 0 1
-30.935203 22.710923 -7.312013 39.067101 -0.633276 1.759072 0.058924 -0.014784 -463030.000000 0 0 1
-31.504933 22.777623 -8.551113 39.805809 -0.625987 1.787305 0.066816 -0.023561 -337325.000000 0 0 1
-30.665103 22.322823 -9.611713 39.128532 -0.629243 1.818981 0.043096 -0.024877 526548.000000 0 0 1
-31.488133 22.218823 -10.951513 40.063877 -0.614491 1.847672 0.034476 -0.006362 271651.000000 0 0 1
-31.874403 23.467723 -11.520113 41.224078 -0.634647 1.854019 0.037287 -0.008316 -2680.340000 0 0 1
-32.407113 23.292323 -12.806513 41.913722 -0.623193 1.881307 0.021563 -0.006482 -414700.000000 0 0 1
-32.835703 24.687823 -13.451713 43.227544 -0.644690 1.887235 0.039606 -0.012718 16036.500000 0 0 1
-31.824303 25.625023 -13.720313 43.100755 -0.677905 1.894765 0.035151 -0.011370 -443398.000000 0 0 1
-30.895123 25.257423 -14.719413 42.533600 -0.685334 1.924171 0.032389 -0.010806 413805.000000 0 0 1
-29.481313 25.909823 -14.495813 41.840116 -0.721010 1.924588 0.012719 -0.006454 203809.000000 0 0 1
-28.706713 25.273923 -13.492213 40.557199 -0.721891 1.909931 0.024309 -0.015306 -84053.400000 0 0 1
-29.072433 25.199223 -12.089413 40.328168 -0.714152 1.875254 0.039277 -0.012126 -901455.000000 0 0 1
-29.319113 26.504923 -11.332613 41.116292 -0.735029 1.850035 0.055447 -0.006870 -253976.000000 0 0 1
-28.214703 27.351723 -11.074213 40.826761 -0.769869 1.845487 0.045586 -0.006749 -381037.000000 0 0 1
-28.479913 28.448323 -10.247913 41.538323 -0.784843 1.820080 0.032635 -0.009261 -74941.900000 0 0 1
-27.221143 29.222723 -9.823613 41.127382 -0.820845 1.811986 0.036048 -0.016790 -113507.000000 0 0 1
-27.467993 30.585623 -9.599813 42.215251 -0.839049 1.800205 0.018882 -0.019535 323868.000000 0 0 1
-26.316163 31.314023 -9.148913 41.914330 -0.871905 1.790844 0.041121 -0.017242 227838.000000 0 0 1
34.222493 -25.116667 33.834463 54.284407 -0.633132 0.897864 0.002074 -0.000791 -221662.000000 0 0 1
33.903143 -23.803477 34.156586 53.690791 -0.612136 0.881270 -0.000047 -0.008425 243139.000000 0 0 1
33.112603 -23.710477 -33.139173 52.505580 -0.621421 2.253838 -0.003285 -0.004370 230968.000000 0 0 1
32.713573 -22.268377 -32.834423 51.421375 -0.597660 2.263391 -0.009572 -0.003698 53411.100000 0 0 1
31.878513 -21.697977 -33.816803 51.289550 -0.597618 2.290725 -0.009150 -0.010197 63031.700000 0 0 1
31.419783 -20.410177 -33.432033 50.214330 -0.576091 2.299344 -0.007055 -0.004898 168048.000000 0 0 1
31.210173 -19.523277 33.765841 49.953631 -0.558989 0.828552 -0.013572 -0.000766 36894.700000 0 0 1
32.428733 -19.142377 33.175367 50.186236 -0.533250 0.848586 0.003491 -0.010963 117696.000000 0 0 1
32.101523 -18.778777 31.819383 48.945106 -0.529303 0.863076 0.003117 -0.002312 -609623.000000 0 0 1
33.296653 -18.680177 30.896293 49.114123 -0.511267 0.890438 -0.000875 0.004523 -882809.000000 0 0 1
34.201323 -17.683277 31.254673 49.591162 -0.477182 0.888925 -0.002847 -0.010455 195867.000000 0 0 1
35.348513 -17.775777 30.405403 49.899741 -0.465943 0.915581 0.006583 -0.001006 -42925.600000 0 0 1
-35.885079 -16.721077 30.665343 50.076907 0.436048 0.911748 0.011536 -0.010546 -644402.000000 0 0 1
-35.039613 -16.590377 29.546253 48.744191 0.442203 0.919586 0.028931 -0.005653 712381.000000 0 0 1
-33.937663 -15.666977 29.681143 47.730382 0.432491 0.899693 0.031588 -0.017984 1499820.000000 0 0 1
-32.620733 -16.233377 30.318113 47.400662 0.461758 0.876801 0.055356 -0.025574 700948.000000 0 0 1
-31.629773 -15.274477 30.699173 46.649667 0.449886 0.852532 0.051880 -0.029676 1046840.000000 0 0 1
-30.438873 -15.835977 31.271203 46.424038 0.479720 0.831728 0.052862 -0.034914 458154.000000 0 0 1
-29.477343 -14.784477 31.804773 45.815261 0.464890 0.803494 0.053231 -0.038101 -450701.000000 0 0 1
-29.924223 -14.142077 32.947842 46.701368 0.441485 0.787667 0.055743 -0.036566 129773.000000 0 0 1
-29.004483 -13.164777 33.363916 46.127240 0.426082 0.762224 0.053539 -0.033207 -133656.000000 0 0 1
-29.367553 -12.605477 -33.741463 46.474052 0.405449 2.383324 0.046844 -0.014605 -161731.000000 0 0 1
-29.182503 -13.516377 -32.688713 45.856983 0.433750 2.364336 0.057757 -0.018365 266769.000000 0 0 1
-29.540673 -12.898477 -31.433313 45.023052 0.411684 2.343621 0.064560 -0.009245 -211746.000000 0 0 1
-29.668173 -13.798777 -30.178413 44.512283 0.435343 2.315807 0.065641 -0.012097 -378946.000000 0 0 1
-30.777373 -14.642577 -30.118203 45.483600 0.444066 2.294517 0.071915 -0.010760 -370421.000000 0 0 1
-30.955843 -15.273977 -28.902403 45.021189 0.458363 2.267866 0.069733 -0.008869 54184.300000 0 0 1
-32.238673 -16.102077 -28.906843 46.197559 0.463219 2.246853 0.065074 -0.013617 -184627.000000 0 0 1
-31.975303 -17.366677 -29.486963 46.834842 0.497552 2.251828 0.064537 -0.010159 240304.000000 0 0 1
-33.149803 -18.091177 -29.813573 48.114959 0.499567 2.239070 0.051536 -0.017149 128012.000000 0 0 1
-32.860543 -19.572577 -30.229273 48.751513 0.537197 2.239626 0.049662 -0.009014 350244.000000 0 0 1
-34.041781 -20.320477 -30.462863 49.997507 0.538157 2.225958 0.036525 -0.009572 278415.000000 0 0 1
-33.660953 -21.493177 -31.208343 50.685078 0.568262 2.234109 0.028545 -0.005546 725647.000000 0 0 1
-34.842258 -22.505777 -31.474753 52.068734 0.573511 2.219915 0.021159 -0.004990 671667.000000 0 0 1
-35.414125 -23.123277 -30.325123 52.042860 0.578439 2.192837 0.019149 0.004133 -111755.000000 0 0 1
35.933583 -24.128377 -30.585323 52.998707 -0.591322 2.185964 0.026901 -0.004741 130868.000000 0 0 1
-35.881284 -25.561007 -31.075893 53.912362 0.618985 2.185131 0.021063 -0.001828 198661.000000 0 0 1
-35.457733 -25.631497 -32.442193 54.467608 0.625914 2.208838 0.016541 -0.003742 -315612.000000 0 0 1
-34.816891 -26.839887 -32.712663 54.797023 0.656735 2.210526 0.008701 -0.003178 -142240.000000 0 0 1
-35.306642 -27.464887 -34.019293 56.197787 0.661117 2.221001 0.011120 -0.010124 311893.000000 0 0 1
35.661933 -27.945477 -33.946683 56.613606 -0.664674 2.213823 0.007682 -0.002321 26114.500000 0 0 1
35.437733 -29.343017 34.219729 57.339650 -0.691592 0.931302 0.016451 0.000808 546094.000000 0 0 1
-35.955047 -30.426627 -33.531873 57.818090 0.702308 2.189469 0.020581 -0.006545 626572.000000 0 0 1
35.902693 -30.588627 -32.173543 57.094696 -0.705646 2.169427 0.024628 -0.007733 -348302.000000 0 0 1
-35.542771 -31.392587 -31.439933 56.896858 0.723475 2.156250 0.017712 -0.010535 -620369.000000 0 0 1
-36.068413 -31.877457 -30.082463 56.763168 0.723795 2.129355 0.014203 0.002257 -311828.000000 0 0 1
35.340233 -32.944737 -30.109133 56.928443 -0.750332 2.128094 0.028411 0.006529 -163089.000000 0 0 1
34.964413 -33.382707 -28.833493 56.287526 -0.762260 2.108603 0.031539 0.004148 -319316.000000 0 0 1
34.018883 34.037489 -28.830383 56.098360 0.785672 2.110551 0.045224 -0.003201 158377.000000 0 0 1
32.758613 -34.165121 -29.335323 55.686115 -0.806412 2.125625 0.048803 0.004003 384833.000000 0 0 1
31.700403 33.547914 -28.983243 54.501435 0.813706 2.131508 0.057045 -0.001028 2051970.000000 0 0 1
30.306263 34.015419 -29.623233 54.342012 0.843000 2.147335 0.038992 0.015667 1296970.000000 0 0 1
30.112253 33.619271 -30.968813 54.736373 0.840371 2.172177 0.039235 0.027651 -461058.000000 0 0 1
28.816873 33.908068 -31.406083 54.465689 0.866388 2.185384 0.030087 0.020819 -364891.000000 0 0 1
28.552863 33.685433 -32.936883 55.089134 0.867678 2.211654 0.029219 0.009071 54713.800000 0 0 1
28.617253 32.315248 -33.217273 54.466592 0.846014 2.226687 0.027179 0.016601 67954.700000 0 0 1
28.146573 31.930448 33.993306 54.473186 0.848299 0.896897 0.027949 0.010795 -42043.000000 0 0 1
27.958973 30.368478 33.909281 53.420857 0.826685 0.883102 0.027523 0.000782 -611119.000000 0 0 1
29.127283 29.618618 33.848536 53.585302 0.793762 0.887083 0.032874 0.007608 -814453.000000 0 0 1
28.933013 28.280668 34.199917 52.976879 0.773997 0.869036 0.025157 0.002093 485158.000000 0 0 1
30.250483 27.504628 -33.981933 53.163597 0.737891 2.264248 0.038137 -0.005071 270646.000000 0 0 1
30.871773 27.795888 -32.781593 52.917961 0.733017 2.238876 0.040104 -0.004736 -841542.000000 0 0 1
32.012133 26.990828 -32.690613 53.122101 0.700500 2.233672 0.044348 -0.011282 -205392.000000 0 0 1
32.692663 27.105188 -31.312193 52.763196 0.692229 2.206132 0.045740 -0.008069 183834.000000 0 0 1
33.557603 28.240968 -31.058463 53.742842 0.699578 2.186960 0.030099 -0.004800 481258.000000 0 0 1
32.924043 29.520288 -31.037883 54.025829 0.730943 2.182790 0.045421 -0.004550 303531.000000 0 0 1
32.017493 29.829928 -29.797073 52.941572 0.750043 2.168601 0.052147 0.004289 511603.000000 0 0 1
32.735743 30.137678 -28.615893 52.903477 0.744100 2.142312 0.037037 -0.000527 -560586.000000 0 0 1
31.825423 30.390878 -27.624253 51.957313 0.762345 2.131370 0.046289 -0.001570 -628586.000000 0 0 1
32.358363 30.649278 -26.213233 51.706629 0.758280 2.102452 0.058454 -0.013448 -197320.000000 0 0 1
32.955403 31.912158 -26.031133 52.745277 0.769317 2.086935 0.056971 -0.006168 190594.000000 0 0 1
33.379643 32.092738 -24.673413 52.468292 0.765745 2.060375 0.047524 -0.025887 161126.000000 0 0 1
33.822443 33.534415 -24.384113 53.507939 0.781122 2.043966 0.053558 -0.022047 358518.000000 0 0 1
32.688323 -34.226837 -24.388513 53.242862 -0.808386 2.046610 0.065213 -0.018226 522356.000000 0 0 1
32.986673 -32.826667 -24.250413 52.476597 -0.782967 2.051179 0.048541 -0.017125 -472144.000000 0 0 1
33.362033 -31.987707 -25.548563 52.810678 -0.764371 2.075761 0.039179 -0.011533 -196695.000000 0 0 1
34.617933 -32.142147 -26.116133 53.977507 -0.748330 2.075826 0.047429 -0.012634 -183536.000000 0 0 1
35.716633 -31.484487 -25.492003 54.007342 -0.722504 2.062366 0.044680 -0.014955 1074880.000000 0 0 1
-35.124200 -31.773557 -26.058013 54.058195 0.735354 2.073774 0.012016 -0.013199 1141960.000000 0 0 1
-34.656395 -33.057897 -25.728943 54.367902 0.761796 2.063759 0.013521 -0.012800 -314471.000000 0 0 1
-34.426982 -33.290087 -24.328213 53.715072 0.768611 2.040825 0.017823 -0.013427 -885581.000000 0 0 1
-33.243523 -32.686347 -23.561613 52.236756 0.776947 2.038743 0.001743 -0.010193 -248935.000000 0 0 1
-33.335233 -31.266277 -23.492613 51.387943 0.753383 2.045598 -0.027566 -0.005841 -267553.000000 0 0 1
-33.030273 -30.828017 -22.223413 50.351223 0.750925 2.027919 -0.018615 -0.005983 -283851.000000 0 0 1
-32.803283 -29.304287 -22.221113 49.280569 0.729120 2.038581 -0.018239 0.004786 1103020.000000 0 0 1
-33.995933 -28.518477 -22.513313 49.758178 0.698002 2.040312 -0.031319 0.008000 531823.000000 0 0 1
-34.171954 -28.422477 -23.905513 50.468140 0.693802 2.064256 -0.020428 0.005863 44355.100000 0 0 1
-35.470550 -27.618457 -24.217213 51.062829 0.661574 2.064923 -0.014420 0.011504 129517.000000 0 0 1
-35.515681 -26.279517 -23.658813 50.117024 0.637032 2.062435 -0.024537 0.014147 99404.800000 0 0 1
35.930943 -25.374157 -24.358113 50.281191 -0.614870 2.076517 -0.000967 0.014044 266665.000000 0 0 1
-35.705873 -24.839077 -25.669703 50.505671 0.607806 2.103952 0.008413 0.009810 560112.000000 0 0 1
-34.639966 -23.886077 -25.557723 49.230774 0.603680 2.116642 0.000488 0.006683 306595.000000 0 0 1
-34.399654 -23.221777 -26.744033 49.374390 0.593790 2.143205 0.025755 -0.000720 -554469.000000 0 0 1
-33.338853 -22.147177 -26.791803 48.164066 0.586366 2.160676 0.020040 -0.005007 -679020.000000 0 0 1
-33.522073 -20.975977 -26.020053 47.336710 0.559129 2.152778 0.022500 0.000748 -147276.000000 0 0 1
-34.585051 -20.151477 -26.473163 47.989959 0.527575 2.155125 0.027929 0.002178 601219.000000 0 0 1
-35.741606 -19.996477 -25.412523 48.198733 0.510087 2.126151 0.020416 0.002738 209329.000000 0 0 1
-35.405167 -19.301477 -24.214813 47.036476 0.499120 2.111581 0.023102 -0.006907 20376.800000 0 0 1
-34.587143 -20.120577 -23.345713 46.326347 0.526882 2.098951 0.004754 0.006278 -3825.400000 0 0 1
-35.201877 -21.347277 -22.672513 46.999162 0.545130 2.074192 0.011746 0.007350 105597.000000 0 0 1
36.111663 -21.120877 -21.680413 47.118828 -0.529225 2.048929 0.006957 0.003143 40769.100000 0 0 1
35.563263 -22.326077 -21.221513 47.048401 -0.560599 2.038746 0.000087 0.013387 142958.000000 0 0 1
34.528743 -22.072977 -20.079513 45.635920 -0.568791 2.026388 0.009938 0.004012 255123.000000 0 0 1
33.336203 -21.434277 -20.474113 44.608519 -0.571419 2.047635 0.050009 0.003308 -47740.100000 0 0 1
32.311333 -21.606177 -19.474513 43.475347 -0.589400 2.035261 0.057523 -0.005869 886596.000000 0 0 1
30.965583 -21.080977 -20.066613 42.496398 -0.597715 2.062576 0.052268 -0.009261 -115478.000000 0 0 1
30.579443 -21.669377 -21.268913 43.093281 -0.616492 2.086969 0.049413 -0.009207 1302050.000000 0 0 1
29.251733 -21.272877 -21.739113 42.199386 -0.628771 2.111982 0.079173 -0.013810 1416030.000000 0 0 1
29.081813 -19.905877 -22.521513 41.823610 -0.600233 2.139438 0.069320 -0.025495 -234643.000000 0 0 1
29.470733 -18.811277 -21.722713 41.161444 -0.568109 2.126739 0.073934 -0.021435 -24311.800000 0 0 1
29.530473 -17.610177 -22.446613 41.061145 -0.537723 2.149170 0.060701 -0.029522 115115.000000 0 0 1
30.384743 -16.568777 -21.677813 40.837294 -0.499227 2.130380 0.060975 -0.037041 -692266.000000 0 0 1
29.853373 -16.284177 -20.408813 39.660029 -0.499360 2.111330 0.060239 -0.034966 678862.000000 0 0 1
30.857693 -15.902277 -19.450013 39.791741 -0.475846 2.081505 0.044781 -0.030071 -302777.000000 0 0 1
31.962793 -16.839077 -19.106413 40.868443 -0.484883 2.057268 0.052201 -0.030429 -1443650.000000 0 0 1
32.940633 -16.905377 -20.085913 42.122689 -0.474158 2.067856 0.042015 -0.028431 -681835.000000 0 0 1
33.907543 -17.884077 -19.788413 43.140966 -0.485355 2.047319 0.041033 -0.020034 269936.000000 0 0 1
35.076233 -18.031477 -20.813013 44.594369 -0.474836 2.056373 0.021040 -0.019623 260892.000000 0 0 1
35.789323 -16.802377 -20.880413 44.712271 -0.438935 2.056686 0.025355 -0.018999 -99519.400000 0 0 1
-35.426132 -17.025677 -21.748213 44.920700 0.448005 2.076184 0.016944 -0.002863 -13449.700000 0 0 1
-34.424577 -15.855077 -21.807213 43.726302 0.431613 2.092919 0.013926 -0.007583 -275544.000000 0 0 1
-33.535853 -15.714677 -20.732813 42.443540 0.438208 2.081143 0.021038 -0.008294 -169290.000000 0 0 1
-32.653063 -14.617777 -20.880013 41.423144 0.420914 2.099097 0.028426 -0.010983 -310527.000000 0 0 1
-31.461043 -14.637177 -19.909513 40.005411 0.435461 2.091707 0.030516 -0.018944 -32880.600000 0 0 1
-30.447383 -15.626077 -20.140413 39.709617 0.474164 2.102720 0.023264 -0.015823 680737.000000 0 0 1
-30.913683 -16.956277 -19.772313 40.424194 0.501694 2.081878 0.014724 -0.015802 -922879.000000 0 0 1
-29.856473 -18.030877 -19.778413 40.096223 0.543296 2.086646 0.006432 -0.023011 -568865.000000 0 0 1
-30.340673 -19.309377 -19.455713 40.889280 0.566769 2.066686 0.013647 -0.017348 -187874.000000 0 0 1
-29.266913 -20.186677 -19.423213 40.513150 0.603810 2.070801 0.015329 -0.022961 -419157.000000 0 0 1
-29.771703 -21.615877 -19.219713 41.509009 0.627999 2.052201 0.014196 -0.004893 -175159.000000 0 0 1
-30.642703 -22.036277 -20.240713 42.828253 0.623454 2.063037 0.009843 0.001194 212223.000000 0 0 1
-31.145403 -23.328177 -19.900813 43.706777 0.642866 2.043534 0.003721 0.016779 -299829.000000 0 0 1
-31.970473 -24.018477 -20.974813 45.154636 0.644314 2.053878 -0.013400 0.020764 -156405.000000 0 0 1
-31.244843 -24.460377 -22.135213 45.436966 0.664203 2.079635 -0.010147 0.008247 6779.590000 0 0 1
-31.974353 -25.398817 -22.892613 46.813790 0.671286 2.081756 -0.010081 0.005015 -192802.000000 0 0 1
-31.637093 -25.498637 -24.380713 47.386763 0.678372 2.111226 -0.008777 0.005613 -56024.600000 0 0 1
-30.391473 -26.076017 -24.688513 47.043841 0.709123 2.123274 -0.003089 -0.001074 -290346.000000 0 0 1
-30.221113 -26.294057 -26.065923 47.792525 0.716023 2.147660 -0.000515 0.003777 857066.000000 0 0 1
-28.689233 -26.330477 -26.432333 47.064151 0.742553 2.167143 0.012847 0.003034 1149510.000000 0 0 1
-28.065783 -25.049557 -26.501793 46.016448 0.728673 2.184525 0.020085 -0.008823 130324.000000 0 0 1
-26.650073 -25.121117 -26.653193 45.295581 0.755874 2.199910 0.019127 -0.008070 738373.000000 0 0 1
-25.958653 -23.747177 -26.818943 44.238397 0.740936 2.222116 0.023714 0.000281 -95839.700000 0 0 1
-26.065993 -23.344577 -28.173523 44.923854 0.730376 2.248672 0.022129 -0.004864 157923.000000 0 0 1
-25.280003 -22.221677 -28.558513 44.141479 0.721103 2.274409 0.028586 -0.016870 150781.000000 0 0 1
-25.225363 -22.030277 -30.082383 45.017794 0.717888 2.302628 0.019060 -0.013877 -121806.000000 0 0 1
-24.484123 -23.045077 -30.703393 45.532913 0.755130 2.310829 0.030481 -0.021765 71951.800000 0 0 1
-24.235923 -22.751277 -32.064093 46.185567 0.753812 2.338167 0.040068 -0.019816 -161451.000000 0 0 1
-23.940123 -24.013077 -32.861563 47.219061 0.786920 2.340522 0.037614 -0.019034 -381564.000000 0 0 1
-25.057903 -24.776277 -33.189423 48.407646 0.779747 2.326256 0.012979 -0.017104 -704073.000000 0 0 1
-24.712523 -26.022317 -33.686203 49.220220 0.811209 2.324574 0.052925 -0.020910 63774.900000 0 0 1
-19.584023 -14.332577 -12.032413 27.087556 0.631784 2.031082 0.001332 0.023253 42302.800000 0 0 1
-19.911723 -13.956277 -10.749713 26.585912 0.611335 1.987052 -0.000167 0.018833 -42620.700000 0 0 1
-19.399523 -14.846177 -9.778113 26.312772 0.653212 1.951540 0.003156 0.002064 -147832.000000 0 0 1
-19.579523 -14.272977 -8.345813 25.626709 0.629909 1.902515 0.029924 -0.011514 42224.200000 0 0 1
-20.945723 -14.309677 -7.981913 26.593253 0.599347 1.875644 0.032652 -0.015976 299673.000000 0 0 1
-21.084023 -13.899377 -6.639913 26.111629 0.582842 1.827909 0.047722 -0.027083 59833.700000 0 0 1
-22.349323 -14.548177 -6.028913 27.340254 0.577039 1.793138 0.041643 -0.029614 -272871.000000 0 0 1
-22.253223 -15.927977 -5.635713 27.940430 0.621225 1.773894 0.030891 -0.021886 385554.000000 0 0 1
-21.607623 -16.121777 -4.383513 27.313298 0.641010 1.731983 0.049434 -0.022770 -46118.800000 0 0 1
-21.386423 -17.596277 -3.935513 27.973136 0.688476 1.711954 0.028876 -0.016765 -283684.000000 0 0 1
-22.628723 -18.160077 -3.646713 29.242880 0.676278 1.695826 0.018840 -0.008977 -26404.800000 0 0 1
-22.469123 -19.131877 -2.601913 29.625330 0.705349 1.658737 0.023000 -0.001638 -28713.300000 0 0 1
-23.650223 -20.104177 -2.486913 31.139938 0.704531 1.650744 -0.005811 -0.006903 -188504.000000 0 0 1
-23.625023 -21.119677 -3.484513 31.879842 0.729465 1.680317 -0.011941 -0.017419 -515113.000000 0 0 1
-24.777623 -21.892477 -3.471113 33.245448 0.723657 1.675396 0.004959 -0.013929 -558318.000000 0 0 1
-24.537523 -23.137677 -4.385713 34.009949 0.756044 1.700110 0.003842 -0.008014 -1083900.000000 0 0 1
-23.457923 -23.933177 -3.935413 33.742534 0.795426 1.687693 0.007501 -0.011346 -347747.000000 0 0 1
-23.027823 -24.833377 -4.959513 34.228264 0.823105 1.716203 0.006584 -0.016865 -862234.000000 0 0 1
-21.570223 -24.652677 -5.312913 33.185178 0.851986 1.731587 0.013748 -0.011299 -1292440.000000 0 0 1
-21.312023 -23.449077 -6.004313 32.250788 0.833105 1.758065 0.000720 -0.003442 21087.700000 0 0 1
-21.297223 -22.240077 -5.169113 31.223588 0.807051 1.737114 0.000152 0.003432 -1482600.000000 0 0 1
-21.512823 -21.000077 -6.067313 30.669481 0.773338 1.769939 0.003614 0.005808 -96265.100000 0 0 1
-20.411423 -20.547577 -6.820513 29.754807 0.788722 1.802077 0.000025 0.009013 3993.580000 0 0 1
-20.800323 -19.388677 -7.549813 29.420638 0.750287 1.830316 -0.006534 0.005283 -185901.000000 0 0 1
-19.644323 -18.894877 -8.399713 28.521413 0.765954 1.869734 0.001578 0.004089 -286980.000000 0 0 1
-19.468723 -19.697677 -9.569713 29.302032 0.791244 1.903488 -0.014082 0.004605 136547.000000 0 0 1
-18.176723 -19.757777 -10.158013 28.704499 0.827053 1.932515 0.050751 0.005620 205674.000000 0 0 1
-17.657023 -18.565177 -10.994913 27.880538 0.810465 1.976165 0.039544 0.007903 -170697.000000 0 0 1
-17.233123 -17.431877 -10.200313 26.549901 0.791132 1.965131 0.035571 0.005877 -179816.000000 0 0 1
-15.995323 -17.473677 -9.555613 25.543874 0.829540 1.954208 0.078338 -0.004342 -849774.000000 0 0 1
-15.648923 -16.270077 -8.597113 24.156046 0.804856 1.934672 0.067136 -0.003586 -59483.400000 0 1 0
-16.291223 -16.411977 -7.365513 24.269481 0.789091 1.879148 0.045498 -0.007023 211520.000000 0 1 0
-16.269523 -15.215877 -6.636113 23.243457 0.751946 1.860329 0.044891 -0.011120 -47744.400000 0 1 0
-16.818323 -15.405177 -5.198613 23.392329 0.741572 1.794903 0.036241 -0.014151 -79987.800000 0 1 0
-17.619223 -14.353677 -4.729013 23.212683 0.683616 1.775958 0.058652 -0.008955 261936.000000 0 1 0
-18.127523 -14.568077 -3.470313 23.513380 0.676959 1.718926 0.061869 -0.010421 -52169.800000 0 1 0
-18.838223 -13.300077 -2.905013 23.242414 0.614752 1.696112 0.060062 -0.008911 576302.000000 0 1 0
-20.069723 -12.844477 -3.495813 24.083087 0.569308 1.716467 0.079380 -0.025595 695489.000000 0 1 0
-20.722123 -12.082577 -2.527913 24.120228 0.527883 1.675794 0.077183 -0.012543 -223607.000000 0 1 0
-22.231423 -12.112777 -2.911413 25.483953 0.498880 1.685291 0.061681 -0.006923 213223.000000 0 0 1
-22.755223 -11.121577 -3.813013 25.613058 0.454606 1.720222 0.074795 -0.033278 -40962.800000 0 0 1
-24.102623 -11.395477 -4.084913 26.971834 0.441644 1.722832 0.070214 -0.019450 -479442.000000 0 0 1
-24.547723 -10.769977 -5.403513 27.345586 0.413448 1.769706 0.076758 -0.029312 -16606.900000 0 0 1
-23.946023 -11.318977 -6.602013 27.296847 0.441560 1.815079 0.072909 -0.039047 218782.000000 0 0 1
-24.729823 -11.094677 -7.741213 28.188338 0.421719 1.848996 0.081528 -0.038364 -550703.000000 0 0 1
-24.043723 -11.505777 -9.065213 28.154247 0.446329 1.898621 0.081709 -0.037552 18310.200000 0 0 1
-22.856023 -10.725277 -9.172613 26.861984 0.438750 1.919279 0.074603 -0.028122 413115.000000 0 0 1
-22.095523 -11.112877 -10.331013 26.803694 0.466002 1.966473 0.049279 -0.016501 188017.000000 0 0 1
-20.631923 -10.628677 -10.211413 25.355827 0.475699 1.985288 0.048620 -0.015184 -171216.000000 0 0 1
-20.505223 -9.267477 -10.546713 24.851227 0.424480 2.009089 0.051884 -0.026030 756379.000000 0 1 0
-19.176223 -8.837777 -10.248613 23.470575 0.431858 2.022677 0.043070 -0.012781 224097.000000 0 1 0
-18.901023 -7.363777 -10.822013 22.991082 0.371506 2.060886 -0.002088 -0.015500 -119346.000000 0 1 0
-18.809023 -7.402877 -12.263913 23.642874 0.374961 2.116144 0.035641 -0.013856 366061.000000 0 1 0
-18.571123 -6.185277 -12.943413 23.466491 0.321504 2.155042 0.038750 -0.024163 -429332.000000 0 1 0
-18.055623 -6.341577 -14.372413 23.932977 0.337765 2.214957 0.050566 -0.015211 -184348.000000 0 1 0
-18.889023 -7.041077 -15.291113 25.301978 0.356806 2.219739 0.055118 -0.024340 351583.000000 0 0 1
-18.514323 -6.702377 -16.613013 25.762263 0.347334 2.271634 0.066058 -0.032754 -108690.000000 0 0 1
-19.264723 -7.585377 -17.666413 27.217084 0.375102 2.277188 0.052839 -0.028299 -67380.200000 0 0 1
-20.629623 -7.230077 -17.750013 28.158805 0.337094 2.252805 0.051842 -0.037092 -55104.800000 0 0 1
-21.169323 -8.006177 -18.768313 29.402188 0.361571 2.263124 0.045086 -0.038047 306859.000000 0 0 1
-22.599423 -7.562677 -19.231413 30.623116 0.322926 2.249781 0.053104 -0.031815 -114018.000000 0 0 1
-22.622423 -6.415077 -20.096413 30.932072 0.276318 2.277980 0.052208 -0.028954 748296.000000 0 0 1
-23.823823 -6.267377 -20.882013 32.294164 0.257243 2.273940 0.039043 -0.022033 889044.000000 0 0 1
-25.049923 -5.787477 -20.063913 32.612178 0.227054 2.233471 0.051240 -0.021299 -686645.000000 0 0 1
-24.951523 -4.522177 -19.510013 31.994831 0.179292 2.226587 0.056018 -0.026599 493944.000000 0 0 1
-26.130253 -4.281877 -18.734713 32.436308 0.162423 2.186563 0.074463 -0.019745 182680.000000 0 0 1
-26.221623 -2.829377 -18.143713 32.012079 0.107487 2.173385 0.071182 -0.017921 -67987.600000 0 0 1
-26.462833 -1.838077 -19.103613 32.689572 0.069347 2.194930 0.080151 -0.016904 1290290.000000 0 0 1
-27.849433 -1.692777 -19.511013 34.046087 0.060708 2.181051 0.094100 -0.015469 1119050.000000 0 0 1
-28.013783 -0.509877 -20.507113 34.721372 0.018199 2.202622 0.095516 -0.007811 -275674.000000 0 0 1
-27.448263 -0.644177 -21.782413 35.047049 0.023464 2.241477 0.081325 -0.010395 152049.000000 0 0 1
-28.215813 -1.384877 -22.706313 36.243988 0.049042 2.247832 0.073149 -0.006573 -528647.000000 0 0 1
-27.406433 -1.470977 -23.968213 36.438326 0.053621 2.288657 0.063121 -0.005677 -667762.000000 0 0 1
-27.318903 -0.358477 -24.897013 36.963661 0.013121 2.309803 0.071663 0.005203 294038.000000 0 0 1
-26.663363 0.812323 -24.422313 36.166893 -0.030456 2.312123 0.063387 -0.002423 162357.000000 0 0 1
-25.184833 0.769423 -23.932113 34.750739 -0.030542 2.330462 0.059718 -0.009294 55757.200000 0 0 1
-24.294423 0.616623 -25.010613 34.873055 -0.025376 2.370558 0.044539 -0.000481 -538442.000000 0 0 1
-22.944823 0.525523 -24.631713 33.666933 -0.022900 2.391505 0.031310 0.000789 4087.830000 0 0 1
-22.145823 0.022223 -25.883063 34.064218 -0.001003 2.433850 0.033288 0.002887 -121649.000000 0 0 1
-22.129323 0.944323 -26.956503 34.889135 -0.042647 2.453775 0.016940 0.006723 347093.000000 0 0 1
-21.381023 0.503923 -28.109573 35.320676 -0.023564 2.491188 0.006026 0.007180 192749.000000 0 0 1
-21.441023 1.404923 -29.322463 36.352416 -0.065431 2.509202 0.013260 0.011159 109104.000000 0 0 1
-20.574223 2.564923 -29.157793 35.777848 -0.124027 2.523470 0.018947 0.010811 738276.000000 0 0 1
-20.496623 3.341323 -30.381843 36.801255 -0.161597 2.542000 0.006704 0.006324 -334789.000000 0 0 1
-19.817723 2.688023 -31.597973 37.395180 -0.134815 2.577314 0.002771 0.010155 866755.000000 0 0 1
-18.389523 2.523023 -31.385003 36.463113 -0.136348 2.607504 -0.009190 0.011684 1260160.000000 0 0 1
-17.826123 2.042223 -32.600993 37.212445 -0.114066 2.638463 -0.008662 0.012276 -482441.000000 0 0 1
-16.332023 1.744023 -32.640623 36.540209 -0.106382 2.675385 0.000126 0.001768 -712819.000000 0 0 1
-15.611523 2.925523 -32.786013 36.430770 -0.185247 2.690460 0.006675 0.006618 -1234820.000000 0 0 1
-14.273823 2.664823 -33.008783 36.061379 -0.184568 2.727173 0.020047 -0.001251 -1246920.000000 0 0 1
-13.532923 3.894423 -33.435503 36.280014 -0.280203 2.742968 0.025933 0.001146 -795473.000000 0 0 1
-13.400123 4.776623 -32.320353 35.312670 -0.342419 2.726955 0.030442 -0.010687 213542.000000 0 0 1
-13.041123 6.021923 -32.843723 35.847519 -0.432594 2.729304 0.032217 -0.008814 -234079.000000 0 0 1
-12.635523 7.053523 -31.672943 34.822176 -0.509140 2.713026 0.032495 -0.011734 -347606.000000 0 0 1
-11.375523 6.801123 -31.107313 33.813055 -0.538854 2.738824 0.058875 -0.019400 -51273.800000 0 0 1
-11.327023 5.868223 -30.072443 32.666333 -0.478001 2.740396 0.059120 -0.022467 260240.000000 0 0 1
-9.961223 5.113623 -29.871883 31.901481 -0.474273 2.782964 0.072224 -0.031435 404585.000000 0 0 1
-9.418723 4.321623 -30.902793 32.594039 -0.430175 2.818040 0.069816 -0.027030 511414.000000 0 0 1
-10.259823 3.225123 -31.311563 33.107089 -0.304565 2.810741 0.072750 -0.022180 -51079.300000 0 0 1
-9.670023 2.363623 -32.450553 33.943106 -0.239727 2.843941 0.066901 -0.030373 -249036.000000 0 0 1
-10.422523 1.189823 -32.688703 34.330686 -0.113667 2.831062 0.068196 -0.029899 333317.000000 0 0 1
-10.061123 0.470023 -33.892603 35.357540 -0.046683 2.852728 0.055257 -0.017101 -234623.000000 0 0 1
-10.477123 1.175923 33.249221 34.880705 -0.111769 0.307059 0.051121 -0.012593 -83177.700000 0 0 1
-11.873923 1.167923 33.081091 35.166926 -0.098045 0.346145 0.045155 -0.012557 -354739.000000 0 0 1
-12.155123 1.277123 31.761383 34.031802 -0.104685 0.367342 0.032418 -0.005632 -135484.000000 0 0 1
-13.632523 1.189523 31.331823 34.189820 -0.087036 0.411785 0.027441 -0.004142 -129462.000000 0 0 1
-14.439123 2.290923 31.630183 34.845446 -0.157349 0.432960 0.011015 0.008918 -908468.000000 0 0 1
-15.647123 2.103123 30.988533 34.778510 -0.133609 0.471197 0.002678 0.000338 -613767.000000 0 0 1
-16.478423 3.416623 30.781353 35.081383 -0.204442 0.500324 -0.001039 0.008460 -411959.000000 0 0 1
-17.048123 3.939223 31.925523 36.405975 -0.227080 0.501358 -0.010936 0.012504 -84749.500000 0 0 1
-16.270923 4.883423 32.597059 36.758115 -0.291578 0.480424 -0.006655 0.012385 -404324.000000 0 0 1
-16.952023 5.297923 33.937039 38.303547 -0.302907 0.482145 -0.010517 0.012919 521729.000000 0 0 1
-18.196823 5.969323 33.824566 38.869763 -0.316981 0.515183 -0.015966 0.013387 462406.000000 0 0 1
-19.165723 5.578823 -33.702063 39.169851 -0.283256 2.606867 -0.023652 0.019222 318597.000000 0 0 1
-20.482123 6.387423 -33.642663 39.901696 -0.302296 2.573890 -0.019067 0.014397 -128975.000000 0 0 1
-20.529823 7.723523 -33.246933 39.830704 -0.359831 2.558395 -0.020213 0.008551 -59588.900000 0 0 1
-20.081223 8.583223 34.239230 40.610985 -0.403923 0.567769 -0.016527 0.001964 -392846.000000 0 0 1
-20.086323 10.062323 -33.807223 40.591120 -0.464410 2.555074 0.000003 -0.001618 -588266.000000 0 0 1
-18.947823 10.338023 -33.036123 39.462389 -0.499463 2.562857 -0.005426 0.000667 -39343.700000 0 0 1
-18.591823 11.668723 -32.945013 39.587736 -0.560486 2.553864 0.017470 -0.008711 -119281.000000 0 0 1
-17.931223 12.418823 -34.143405 40.515775 -0.605729 2.573110 0.011551 -0.015050 -429101.000000 0 0 1
-18.760323 12.623923 33.233014 40.196348 -0.592309 0.597460 0.026730 -0.011957 -53032.900000 0 0 1
-18.059723 13.010123 32.094643 39.057432 -0.624283 0.606357 0.034839 -0.008014 193416.000000 0 0 1
-18.837523 12.502923 30.822453 38.225633 -0.585963 0.632877 0.036127 -0.012506 210876.000000 0 0 1
-19.010023 11.090823 30.802713 37.857555 -0.528139 0.620397 0.019945 -0.004365 563330.000000 0 0 1
-17.879523 10.346923 30.304033 36.675204 -0.524612 0.598323 0.005462 -0.010395 549572.000000 0 0 1
-18.007223 8.768123 30.534983 36.517465 -0.453131 0.580525 0.000962 0.007538 -193972.000000 0 0 1
-18.941023 8.129323 29.726783 36.173608 -0.405415 0.606267 0.007715 -0.003157 -196600.000000 0 0 1
-18.994523 6.732623 30.105013 36.227503 -0.340634 0.589895 0.008009 -0.000270 -195597.000000 0 0 1
-19.676023 5.852523 29.053973 35.574306 -0.289111 0.615106 0.018078 -0.000544 169792.000000 0 0 1
-21.059923 6.094323 28.868993 36.250240 -0.281686 0.649509 0.044262 -0.004192 -52265.000000 0 0 1
-21.666423 5.111823 28.085563 35.838017 -0.231696 0.670227 0.045825 -0.009530 -1099150.000000 0 0 1
-23.101823 5.435623 27.808913 36.559211 -0.231087 0.706476 0.056337 -0.008626 -1232620.000000 0 0 1
-23.404023 6.132523 26.618233 35.970634 -0.256267 0.737727 0.055984 -0.014462 434971.000000 0 0 1
-24.789523 6.389823 26.394513 36.769833 -0.252272 0.770115 0.060647 -0.015532 175967.000000 0 0 1
-25.133093 6.991423 25.040993 36.160803 -0.271316 0.805862 0.059383 -0.017516 -201537.000000 0 0 1
-25.268703 6.169423 23.860853 35.297443 -0.239468 0.828484 0.059842 -0.016052 485638.000000 0 0 1
-26.192733 5.086623 23.958603 35.860113 -0.191812 0.839127 0.062514 -0.014015 -197367.000000 0 0 1
-26.565823 4.573223 22.577423 35.162443 -0.170476 0.873576 0.063393 -0.012654 -126499.000000 0 0 1
-27.290583 5.481323 21.765523 35.334952 -0.198213 0.907171 0.055774 -0.006922 -43632.500000 0 0 1
-27.322263 5.011523 20.471723 34.506708 -0.181406 0.935684 0.081070 -0.005731 -204988.000000 0 0 1
-28.219393 5.751523 19.481923 34.770095 -0.201061 0.976040 0.073607 -0.012455 -104856.000000 0 0 1
-29.579283 5.790723 19.856523 36.093600 -0.193325 0.988265 0.081199 -0.008012 -356830.000000 0 0 1
-30.383433 6.142823 18.776523 36.241483 -0.199488 1.026174 0.083504 -0.004975 -104719.000000 0 0 1
-31.880133 6.043123 19.184423 37.694885 -0.187335 1.036844 0.075341 -0.002508 141837.000000 0 0 1
-32.185933 7.161423 19.982423 38.555382 -0.218935 1.025960 0.065767 -0.019146 594896.000000 0 0 1
-33.523293 7.127923 20.493323 39.932377 -0.209506 1.031886 0.059838 -0.012529 548486.000000 0 0 1
-33.895583 8.270823 21.503023 40.984108 -0.239332 1.018472 0.066984 -0.016177 -254787.000000 0 0 1
-33.244883 8.253823 22.744223 41.117485 -0.243353 0.984653 0.067158 -0.011069 88186.600000 0 0 1
-33.620203 9.342123 23.551303 42.098185 -0.271035 0.977089 0.077711 0.003352 -10684.300000 0 0 1
-0.418123 32.266523 11.303387 34.191664 -1.557839 1.233869 0.037200 -0.001935 -242931.000000 0 0 1
-0.660423 32.481823 12.696387 34.881273 -1.550467 1.198250 0.025259 -0.003072 170817.000000 0 0 1
-0.269523 33.785423 13.032487 36.212887 -1.562819 1.202651 0.027316 -0.006183 -288106.000000 0 0 1
-0.234823 34.060423 14.545487 37.036992 -1.563902 1.167200 0.021773 0.001086 347296.000000 0 0 1
-1.501723 34.262923 15.157487 37.496033 -1.526995 1.154646 0.018447 0.012885 98058.900000 0 0 1
-1.316023 -34.215582 16.556787 38.033737 1.532353 1.120404 0.010303 0.000795 441225.000000 0 0 1
-2.556723 -33.934782 17.469787 38.253101 1.495596 1.096526 0.021939 0.008521 -102271.000000 0 0 1
-3.274923 33.559723 17.873887 38.163542 -1.473519 1.083374 0.015060 0.004311 385959.000000 0 0 1
-4.156423 33.917223 18.981287 39.088913 -1.448858 1.063755 0.018900 0.002194 587783.000000 0 0 1
-5.090523 32.743123 19.428987 38.412382 -1.416563 1.040487 0.014382 -0.006805 220797.000000 0 0 1
-6.132923 32.511423 18.522787 37.917002 -1.384348 1.060416 0.014054 -0.010368 174998.000000 0 0 1
-7.210623 31.729023 19.042187 37.700516 -1.347335 1.041309 0.026989 -0.021627 607151.000000 0 0 1
-8.390023 31.660923 18.026587 37.386687 -1.311754 1.067671 0.017966 -0.026653 -330924.000000 0 0 1
-9.027123 32.928923 17.790387 38.500660 -1.303230 1.090457 0.028018 -0.014864 -1393.010000 0 0 1
-9.778723 32.885923 16.613687 38.119837 -1.281770 1.119838 0.029688 -0.009884 21327.100000 0 0 1
-10.888923 33.963223 16.408887 39.259658 -1.260541 1.139600 0.050406 -0.013466 -10217.600000 0 0 1
-11.880323 33.876123 17.390387 39.889339 -1.233499 1.119685 0.050810 -0.008776 -495467.000000 0 0 1
-12.811523 -33.728582 17.151787 39.949170 1.207788 1.127034 0.028031 -0.001727 606898.000000 0 0 1
-14.189423 -33.737482 17.910087 40.747131 1.172673 1.115707 0.047316 -0.000523 857352.000000 0 0 1
-14.069223 -33.616782 19.334887 41.253714 1.174429 1.082998 0.044726 -0.000784 -381484.000000 0 0 1
-15.312623 -33.588982 19.982687 41.976231 1.143061 1.074641 0.035799 -0.007056 -206716.000000 0 0 1
-15.311323 -33.119182 21.444987 42.322622 1.137753 1.039440 0.043552 -0.013558 -23309.200000 0 0 1
-15.199723 -31.697882 21.545887 41.231209 1.123668 1.020943 0.051516 -0.004067 49733.500000 0 0 1
-14.838923 -31.324282 22.828787 41.503708 1.128393 0.988382 0.045414 -0.001610 -159454.000000 0 0 1
-14.818823 -29.792682 23.044687 40.475413 1.109232 0.965081 0.063739 -0.001289 -325691.000000 0 0 1
-14.666823 -29.361382 24.362487 40.874653 1.107527 0.932250 0.071935 -0.008545 -42997.200000 0 0 1
-14.892723 -27.928082 24.492887 40.020901 1.080902 0.912206 0.045310 -0.009617 690702.000000 0 0 1
-16.283223 -27.313582 24.112987 39.907534 1.033206 0.922008 0.068275 -0.001941 623356.000000 0 0 1
-17.382123 -27.575382 24.962987 41.057163 1.008360 0.917250 0.080720 0.001741 753947.000000 0 0 1
-18.486723 -26.695482 24.752887 40.830297 0.965119 0.919474 0.083992 0.001393 10914.800000 0 0 1
-19.544223 -26.528282 25.870287 41.892698 0.935841 0.905189 0.075208 0.003301 104245.000000 0 0 1
-20.319923 -27.652782 26.266187 43.214445 0.937079 0.917496 0.074546 0.003032 596677.000000 0 0 1
-21.158423 -28.238582 25.249587 43.389377 0.927760 0.949696 0.070564 0.002106 -34656.900000 0 0 1
-22.541323 -27.559582 25.092087 43.557487 0.885228 0.956886 0.063022 0.009741 -299066.000000 0 0 1
-22.434423 -26.341782 24.392887 42.334451 0.865335 0.956731 0.070265 0.008351 206261.000000 0 0 1
-23.609323 -25.972582 23.683387 42.342390 0.833026 0.977218 0.055977 0.005655 52737.900000 0 0 1
-23.676723 -24.499582 23.411287 41.338906 0.802477 0.968755 0.056478 0.014044 -119970.000000 0 0 1
-24.286523 -23.832182 24.467687 41.910331 0.775956 0.947382 0.051432 0.012868 216165.000000 0 0 1
-24.863423 -22.578482 24.082387 41.327219 0.737272 0.948719 0.040023 0.012027 428881.000000 0 0 1
-25.494483 -21.709682 25.231487 41.927400 0.705390 0.925056 0.051201 0.008334 8074.390000 0 0 1
-26.662593 -22.236582 25.796687 43.253075 0.695131 0.931772 0.039548 0.012639 -18677.500000 0 0 1
-27.020313 -21.423782 26.935087 43.755853 0.670382 0.907679 0.031161 0.002456 -644288.000000 0 0 1
-28.201733 -21.966782 27.755287 45.257411 0.661752 0.910595 0.023779 -0.002158 147313.000000 0 0 1
-29.542693 -21.789982 27.349287 45.777260 0.635502 0.930488 0.017676 -0.005990 396456.000000 0 0 1
-29.939823 -22.411282 26.140987 45.629045 0.642569 0.960754 0.011194 0.002819 105598.000000 0 0 1
-31.517543 -22.508982 26.047387 46.674149 0.620175 0.978740 0.009097 0.007251 1185410.000000 0 0 1
-32.062183 -23.136582 24.881787 46.716040 0.625086 1.009106 0.004531 0.006025 299601.000000 0 0 1
-31.656503 -24.495982 24.639587 47.003155 0.658563 1.019008 0.007837 0.000740 -559215.000000 0 0 1
-32.122513 -24.996982 23.283087 46.891440 0.661292 1.051198 0.010166 0.001930 1438910.000000 0 0 1
-33.482013 -25.515182 23.137687 48.035636 0.651173 1.068228 0.009527 0.005798 1371830.000000 0 0 1
-33.525943 -26.079282 21.865687 47.772650 0.661109 1.095386 0.018107 0.008252 -673601.000000 0 0 1
-34.770503 -26.865782 21.529187 48.931217 0.657847 1.115210 0.032840 0.003749 -794272.000000 0 0 1
-35.082645 -28.082782 22.268787 50.153100 0.675031 1.110720 0.027906 0.007820 429722.000000 0 0 1
-34.176249 -29.193782 22.150087 50.109074 0.706935 1.112928 0.011399 0.011992 72696.200000 0 0 1
-34.564651 -30.253282 21.059187 50.531827 0.718981 1.140928 0.021666 0.009176 -71444.600000 0 0 1
-34.473066 -29.776982 19.735887 49.644397 0.712437 1.161956 0.015343 0.012584 317720.000000 0 0 1
-34.714754 -30.851882 18.866487 50.128805 0.726551 1.184932 0.027413 0.013578 -364354.000000 0 0 1
-34.924936 -30.365582 17.440287 49.456884 0.715680 1.210410 0.028028 0.015511 -578983.000000 0 0 1
-33.788313 -29.990282 16.716887 48.171791 0.725918 1.216398 0.018781 0.013718 -256971.000000 0 0 1
-34.103361 -29.305382 15.496687 47.560403 0.709875 1.238905 0.040265 0.002776 319035.000000 0 0 1
-34.850359 -30.063582 14.313787 48.200114 0.711791 1.269283 0.051168 -0.009645 477564.000000 0 0 1
-34.034955 -31.126982 13.841687 48.154538 0.740801 1.279240 0.053524 -0.013157 -145297.000000 0 0 1
-34.567328 -31.954182 12.857387 48.798385 0.746136 1.304169 0.071921 -0.018884 -143812.000000 0 0 1
-34.750738 -31.362182 11.457587 48.192080 0.734189 1.330749 0.072900 -0.018111 1573340.000000 0 0 1
-36.016649 -30.617182 11.425387 48.632811 0.704543 1.333648 0.082082 -0.023709 1407290.000000 0 0 1
-36.095643 -29.729982 10.320487 47.888201 0.688993 1.353580 0.068396 -0.016741 157253.000000 0 0 1
34.969863 -28.791882 10.315687 46.457262 -0.688808 1.346883 0.093697 -0.014636 156422.000000 0 0 1
34.886573 -27.902182 9.229987 45.615758 -0.674617 1.367047 0.095618 -0.048903 34725.000000 0 0 1
33.834843 -26.964482 9.271887 44.247574 -0.672875 1.359686 0.083111 -0.044176 -75081.900000 0 0 1
33.998523 -25.882382 8.182487 43.505751 -0.650681 1.381591 0.081999 -0.048457 72776.300000 0 0 1
34.916163 -24.872082 8.510187 43.705631 -0.618958 1.374828 0.086915 -0.050514 -87122.000000 0 0 1
35.059743 -24.075182 7.312387 43.154038 -0.601737 1.400526 0.079509 -0.053352 22513.800000 0 0 1
35.811103 -22.788982 7.636987 43.128835 -0.566731 1.392784 0.080230 -0.051575 -384930.000000 0 0 1
34.989753 -21.922282 8.389887 42.133828 -0.559702 1.370332 0.075250 -0.045788 -158327.000000 0 0 1
35.293623 -20.558982 8.169587 41.653976 -0.527462 1.373387 0.076570 -0.038606 164954.000000 0 0 1
34.459473 -19.469382 8.936387 40.575499 -0.514282 1.348735 0.080104 -0.031245 84179.100000 0 0 1
34.501593 -19.643882 10.345787 41.027763 -0.517587 1.315879 0.074979 -0.047718 -142182.000000 0 0 1
33.683903 -18.702882 10.995687 40.066298 -0.506863 1.292792 0.089142 -0.035214 -60981.300000 0 0 1
34.113663 -18.523482 12.480687 40.775347 -0.497448 1.259719 0.077487 -0.044465 283951.000000 0 0 1
35.304163 -17.799782 12.753887 41.543685 -0.466989 1.258758 0.040453 -0.028382 399558.000000 0 0 1
35.655493 -17.900682 14.154787 42.333280 -0.465283 1.229864 0.041519 -0.019981 1290580.000000 0 0 1
-35.237858 -17.240182 14.526987 41.832570 0.455012 1.216143 0.060283 -0.030421 1101120.000000 0 0 1
-34.095429 -17.959882 14.138187 41.048069 0.484821 1.219165 0.056646 -0.023714 978327.000000 0 0 1
-32.914543 -17.224282 14.632687 39.926915 0.482116 1.195566 0.058592 -0.025887 1814520.000000 0 0 1
-31.660983 -17.568282 13.735587 38.726331 0.506588 1.208221 0.062910 -0.024969 281420.000000 0 0 1
-31.092343 -18.835382 13.699887 38.848325 0.544665 1.210394 0.049833 -0.019812 735741.000000 0 0 1
-29.947093 -18.878282 12.824087 37.652027 0.562464 1.223247 0.030153 -0.009058 559744.000000 0 0 1
-29.388093 -20.269982 12.463187 37.813532 0.603803 1.234921 0.024320 -0.015511 566538.000000 0 0 1
-30.210593 -21.010482 11.517187 38.558603 0.607677 1.267473 0.021799 -0.011274 260618.000000 0 0 1
-29.296613 -21.707282 10.688387 37.996569 0.637683 1.285649 0.019249 -0.005185 63619.700000 0 0 1
-29.921203 -22.720982 9.699687 38.802131 0.649465 1.318139 0.020448 -0.013094 283298.000000 0 0 1
-30.639563 -23.831482 10.262487 40.150231 0.661058 1.312326 0.026089 -0.010056 874265.000000 0 0 1
-31.992413 -23.571182 10.669387 41.145485 0.634983 1.308490 0.043838 -0.023846 568602.000000 0 0 1
-32.732033 -24.948282 10.915287 42.578707 0.651262 1.311546 0.070036 -0.030083 -21739.800000 0 0 1
-32.828653 -25.605882 9.697687 42.748413 0.662417 1.341949 0.069926 -0.024922 -249640.000000 0 0 1
-33.552333 -26.790182 9.800287 44.039965 0.673801 1.346386 0.082663 -0.022879 -85879.000000 0 0 1
-33.632743 -27.417882 8.382487 44.194658 0.683949 1.379968 0.079756 -0.022413 -94005.400000 0 0 1
-32.387853 -27.822482 7.882087 43.418784 0.709719 1.388248 0.062120 -0.021541 -456782.000000 0 0 1
-32.464853 -28.453682 6.631387 43.675554 0.719648 1.418374 0.055696 -0.016648 631888.000000 0 0 1
-31.126663 -28.507182 5.804887 42.605461 0.741500 1.434124 0.052249 -0.009509 540574.000000 0 0 1
-30.655913 -27.333382 5.287587 41.410836 0.728165 1.442761 0.053147 -0.001508 -401991.000000 0 0 1
-29.551333 -27.577582 4.448887 40.664443 0.750863 1.461172 0.052151 -0.003184 -309152.000000 0 0 1
-28.830673 -26.331082 4.010487 39.250702 0.740115 1.468442 0.033876 -0.003125 -200150.000000 0 0 1
-29.158513 -25.998882 2.655087 39.156229 0.728177 1.502937 0.045769 -0.004149 -135485.000000 0 0 1
-28.178323 -25.228582 2.027387 37.876240 0.730223 1.517244 0.041462 -0.008372 -451866.000000 0 0 1
-28.661963 -24.707282 0.639387 37.846621 0.711433 1.553901 0.037451 -0.007301 -143871.000000 0 0 1
-28.534303 -25.612682 -0.475313 38.346341 0.731493 1.583192 0.035807 -0.018541 -56591.200000 0 0 1
-28.515623 -25.015682 -1.763813 37.974151 0.720110 1.617261 0.040419 -0.022439 205293.000000 0 0 1
-29.952023 -24.821182 -2.320413 38.969207 0.691996 1.630376 0.056287 -0.016000 551509.000000 0 0 1
-30.698123 -23.776782 -1.642813 38.863980 0.659020 1.613080 0.053613 -0.009121 -340219.000000 0 0 1
-32.016593 -23.777182 -2.102013 39.935386 0.638782 1.623456 0.064745 -0.014508 -497455.000000 0 0 1
-32.699283 -22.399282 -1.943113 39.683078 0.600593 1.619782 0.068629 -0.017015 -161256.000000 0 0 1
-32.954833 -22.031182 -0.609013 39.645490 0.589289 1.586158 0.074458 -0.019515 69399.100000 0 0 1
-33.496623 -20.739382 -0.555013 39.401190 0.554380 1.584883 0.075479 -0.016221 -467509.000000 0 0 1
-33.836983 -20.281882 0.895687 39.460087 0.539978 1.548096 0.066635 -0.017706 426732.000000 0 0 1
-34.854836 -21.084582 1.540287 40.765079 0.544033 1.533003 0.072658 -0.026398 743398.000000 0 0 1
-35.021611 -20.705282 2.900587 40.787686 0.533934 1.499622 0.075500 -0.029028 -518997.000000 0 0 1
-36.042553 -21.634782 3.680287 42.198033 0.540608 1.483471 0.098029 -0.022782 777964.000000 0 0 1
34.933013 -21.499382 3.229087 41.145666 -0.551699 1.492236 0.074103 -0.027904 -241611.000000 0 0 1
34.278613 -20.350982 3.677187 40.033829 -0.535769 1.478815 0.083222 -0.037144 -1208410.000000 0 0 1
32.978803 -20.058982 2.922387 38.710522 -0.546455 1.495231 0.072719 -0.026613 -119175.000000 0 0 1
31.988323 -21.027082 3.189987 38.413110 -0.581515 1.487656 0.064026 -0.019672 -209670.000000 0 0 1
30.767073 -20.720882 2.550687 37.181632 -0.592702 1.502142 0.065337 -0.028618 24403.000000 0 0 1
29.591173 -21.655382 2.803287 36.775692 -0.631763 1.494496 0.049536 -0.012236 -313279.000000 0 0 1
29.765973 -22.895682 2.056187 37.609218 -0.655670 1.516097 0.024625 -0.015241 -607726.000000 0 0 1
28.671593 -23.690382 2.308687 37.264252 -0.690553 1.508802 0.022053 -0.004463 -779667.000000 0 0 1
28.394633 -24.798982 1.271387 37.720831 -0.717905 1.537085 0.012949 0.006090 -185115.000000 0 0 1
27.970153 -24.262382 0.016187 37.026921 -0.714531 1.570359 0.015106 -0.005752 68985.900000 0 0 1
27.562523 -25.347182 -0.755413 37.453210 -0.743552 1.590967 0.016669 -0.004300 -198521.000000 0 0 1
26.511533 -25.000682 -1.855313 36.487500 -0.756077 1.621666 0.044503 -0.015813 21022.300000 0 0 1
26.988733 -24.152582 -2.886313 36.332764 -0.729998 1.650321 0.027376 -0.031142 290576.000000 0 0 1
27.667093 -24.767782 -4.007213 37.349281 -0.730161 1.678293 0.027405 -0.025862 -444544.000000 0 0 1
26.726433 -25.453182 -5.086613 37.256413 -0.761002 1.707754 0.031173 -0.021601 405874.000000 0 0 1
26.001733 -24.522882 -5.872913 36.220891 -0.756137 1.733657 0.038102 -0.035928 1428310.000000 0 0 1
24.875833 -23.939382 -5.139413 34.904364 -0.766217 1.718576 0.049714 -0.041634 144062.000000 0 0 1
24.086733 -22.735582 -5.748813 33.617350 -0.756549 1.742648 0.051981 -0.046747 444261.000000 0 0 1
23.450633 -23.194882 -6.986413 33.715645 -0.779915 1.779524 0.044925 -0.037958 372360.000000 0 0 1
22.546233 -22.269382 -7.565913 32.580685 -0.779221 1.805157 0.049787 -0.038860 -52567.700000 0 0 1
23.039333 -20.992182 -8.315313 32.258751 -0.738939 1.831509 0.049236 -0.036661 -747140.000000 0 0 1
23.818933 -21.213982 -9.455413 33.268295 -0.727617 1.858986 0.045152 -0.032275 269216.000000 0 0 1
23.287033 -20.407382 -10.570913 32.718364 -0.719589 1.899787 0.043011 -0.036508 112331.000000 0 0 1
24.037733 -20.443382 -11.926013 33.733874 -0.704767 1.932141 0.027025 -0.025122 846554.000000 0 0 1
25.391433 -19.961182 -11.868813 34.409917 -0.666231 1.922954 0.042327 -0.026767 752818.000000 0 0 1
26.022533 -19.731882 -13.076913 35.178474 -0.648767 1.951669 0.042751 -0.025951 482913.000000 0 0 1
27.564833 -19.998782 -13.078113 36.480246 -0.627648 1.937455 0.041233 -0.031633 487438.000000 0 0 1
27.845093 -21.332282 -13.206713 37.481098 -0.653729 1.930884 0.028835 -0.027610 162463.000000 0 0 1
28.580823 -21.820682 -12.093713 37.937626 -0.652068 1.895237 0.043394 -0.032647 -99867.900000 0 0 1
28.852923 -23.290582 -12.289013 39.063566 -0.679126 1.890821 0.032944 -0.011752 -527479.000000 0 0 1
29.762443 -23.581782 -13.311413 40.238007 -0.670049 1.907965 0.030436 -0.027115 72580.700000 0 0 1
29.664213 -24.936982 -13.577813 41.063069 -0.699036 1.907797 0.028530 -0.014998 -112513.000000 0 0 1
-4.720123 -9.060577 -27.749873 29.570747 1.090528 2.788834 0.080465 -0.005873 14002.200000 0 0 1
-4.441923 -7.826377 -27.083413 28.539343 1.054573 2.820798 0.055282 -0.005365 275839.000000 0 0 1
-4.856923 -6.708177 -27.853973 29.059132 0.944124 2.852586 0.043273 -0.001821 -239104.000000 0 0 1
-4.538023 -5.423177 -27.105123 28.012358 0.874026 2.886394 0.047251 -0.011678 -99587.200000 0 0 1
-5.267023 -5.258377 -25.915443 26.962979 0.784577 2.861932 0.042719 -0.007924 16659.900000 0 0 1
-5.074323 -4.005777 -25.228563 26.043721 0.668257 2.890737 0.048412 -0.022008 105275.000000 0 0 1
-5.659223 -3.860777 -23.812613 24.778477 0.598686 2.861465 0.039975 -0.020459 11738.600000 0 1 0
-4.951523 -4.706277 -22.929113 23.925109 0.760010 2.852035 0.043734 -0.029886 392700.000000 0 1 0
-5.494123 -4.686377 -21.607913 22.782656 0.706222 2.819064 0.040863 -0.020192 194238.000000 0 1 0
-4.807723 -5.725877 -20.626913 21.940132 0.872343 2.793853 0.036675 -0.022776 -401251.000000 0 1 0
-5.212923 -7.076777 -20.824413 22.603352 0.935911 2.742201 0.027945 -0.017908 113230.000000 0 1 0
-4.685523 -7.926777 -19.887913 21.916136 1.036946 2.707983 0.039949 -0.028521 -1214900.000000 0 1 0
-5.349323 -9.329877 -19.903513 22.623256 1.050200 2.646198 0.040131 -0.028672 512790.000000 0 1 0
-6.563723 -9.525077 -19.183413 22.401180 0.967424 2.598970 0.044148 -0.019101 439320.000000 0 1 0
-7.674423 -8.820777 -19.730513 22.934603 0.854783 2.606643 0.028742 -0.008474 -1105450.000000 0 1 0
-8.884223 -8.933077 -18.804213 22.634657 0.788140 2.551287 0.026901 -0.002409 -740829.000000 0 1 0
-9.319023 -10.278377 -18.821613 23.382522 0.834312 2.506377 0.041608 -0.001325 -57856.200000 0 1 0
-9.995423 -10.578377 -17.635113 22.864990 0.813725 2.451633 0.027618 0.002222 -77455.300000 0 1 0
-10.585623 -12.047777 -17.650113 23.848078 0.849910 2.404025 0.034845 0.005911 -267314.000000 0 1 0
-11.640223 -12.238877 -18.565713 25.099215 0.810463 2.403410 0.041896 -0.010217 40947.800000 0 0 1
-11.268623 -12.601477 -19.906413 26.115979 0.841178 2.437549 0.043706 -0.008109 -209392.000000 0 0 1
-12.525723 -12.715677 -20.825213 27.427571 0.792924 2.433003 0.051436 -0.027660 1570830.000000 0 0 1
-13.479523 -13.809377 -20.562713 28.199674 0.797485 2.387923 0.059192 -0.020490 657013.000000 0 0 1
-14.370323 -13.618877 -19.493313 27.784335 0.758557 2.348428 0.050184 -0.006289 -667194.000000 0 0 1
-15.696723 -14.345677 -19.747413 29.019750 0.740457 2.319216 0.046237 -0.006695 -174538.000000 0 0 1
-15.581823 -15.756777 -19.767913 29.695785 0.790981 2.299202 0.054341 -0.002861 -241564.000000 0 0 1
-16.436023 -16.246977 -20.773013 31.074510 0.779614 2.302974 0.055573 -0.009019 -6834.000000 0 0 1
-16.039423 -17.612577 -21.286713 31.946676 0.832112 2.300059 0.059932 -0.006536 -31382.500000 0 0 1
-16.220923 -18.641677 -20.347613 32.010246 0.854724 2.259659 0.067803 0.001078 114442.000000 0 0 1
-15.802823 -19.822377 -21.029113 32.937508 0.897752 2.263285 0.067095 0.003222 5104.460000 0 0 1
-16.492523 -21.118877 -20.486413 33.729859 0.907787 2.223539 0.057674 0.001841 -138354.000000 0 0 1
-15.937623 -22.303977 -20.940113 34.495848 0.950362 2.223118 0.060178 0.000490 -270954.000000 0 0 1
-16.516423 -23.422977 -20.320213 35.133163 0.956631 2.187534 0.064243 0.007844 -335446.000000 0 0 1
-15.949123 -24.791977 -20.698413 36.020008 0.999133 2.182956 0.071037 0.000572 -6438.480000 0 0 1
-16.332223 -25.184277 -22.001113 37.216103 0.995470 2.203307 0.061095 -0.002286 467294.000000 0 0 1
-15.687023 -26.448477 -22.293713 37.981762 1.035454 2.198093 0.067079 -0.000395 210923.000000 0 0 1
-16.056623 -26.899577 -23.725813 39.297794 1.032652 2.218986 0.074763 -0.002247 168233.000000 0 0 1
-17.354123 -27.403227 -23.992013 40.345001 1.006260 2.207653 0.084305 -0.004111 48886.300000 0 0 1
-17.386623 -28.811597 -23.807813 41.221533 1.027837 2.186530 0.093229 0.004078 -103670.000000 0 0 1
-18.391123 -29.470167 -24.784613 42.673191 1.012874 2.190508 0.081896 0.002093 -618191.000000 0 0 1
-18.013823 -29.406047 -26.146673 43.276575 1.021172 2.219528 0.075064 0.002150 25724.900000 0 0 1
-18.262423 -28.173827 -26.797373 42.957884 0.995684 2.244399 0.090216 -0.007448 214117.000000 0 0 1
-17.141123 -27.745377 -27.800303 42.854182 1.017391 2.276696 0.089312 -0.012076 123581.000000 0 0 1
-17.005923 -28.396757 -29.032223 44.027800 1.031209 2.290826 0.089184 -0.008590 338490.000000 0 0 1
-15.778923 -28.137607 -29.721743 43.864352 1.059717 2.315268 0.059109 0.000324 347729.000000 0 0 1
-15.815623 -28.424157 -31.248323 45.105702 1.063041 2.336133 0.064921 -0.006889 -496.291000 0 0 1
-15.764223 -29.769747 -31.560733 46.160897 1.083798 2.323633 0.047183 -0.004838 360673.000000 0 0 1
-16.526823 -30.005477 -32.755943 47.396375 1.067344 2.333815 0.047670 -0.006763 291525.000000 0 0 1
-16.495123 -31.466637 -33.249953 48.660022 1.087969 2.323085 0.038961 -0.011371 -94003.800000 0 0 1
-15.223923 -31.864057 -33.739313 48.840835 1.125084 2.333393 0.037773 -0.008284 -122330.000000 0 0 1
-15.262123 -33.014177 33.896001 49.717273 1.137769 0.820610 0.025534 -0.006824 -157198.000000 0 0 1
-13.914423 -33.454657 33.283979 49.200087 1.176643 0.827793 0.025099 -0.012801 -211035.000000 0 0 1
-13.162423 -34.232605 34.177125 50.131792 1.203723 0.820650 0.032138 -0.010649 -363877.000000 0 0 1
-12.187323 33.684088 33.441414 49.004865 -1.223637 0.819742 0.043150 -0.013866 -360276.000000 0 0 1
-11.220123 32.933142 -34.131525 48.738527 -1.242436 2.346612 0.050750 -0.016423 -413207.000000 0 0 1
-10.561223 33.785054 -33.260603 48.571978 -1.267820 2.325084 0.065952 -0.018583 -129614.000000 0 0 1
-9.688923 33.075101 -32.390033 47.296425 -1.285832 2.325167 0.063937 -0.028311 -81212.800000 0 0 1
-8.863723 34.035926 -31.529683 47.234847 -1.316033 2.301655 0.057881 -0.027703 -86517.100000 0 0 1
-9.611623 -33.980617 -30.510103 46.668319 1.295141 2.283345 0.069394 -0.027196 -226561.000000 0 0 1
-8.842823 -32.912617 -30.001403 45.403965 1.308319 2.292635 0.064944 -0.028594 -151254.000000 0 0 1
-9.522823 -31.953347 -29.003313 44.191546 1.281155 2.286713 0.075898 -0.017303 -152198.000000 0 0 1
-9.809823 -32.381927 -27.657763 43.700957 1.276643 2.256073 0.091623 -0.017262 -152417.000000 0 0 1
-10.436423 -33.608317 -27.375093 44.585128 1.269706 2.231910 0.095252 -0.016405 -150555.000000 0 0 1
-10.654223 -33.780337 -25.866033 43.859723 1.265274 2.201539 0.090103 -0.017007 1076000.000000 0 0 1
-9.429323 -33.966807 -25.115103 43.283074 1.300011 2.189835 0.089372 -0.023689 699411.000000 0 0 1
-9.734323 -34.027627 -23.728713 42.610894 1.292167 2.161409 0.078672 -0.025500 762004.000000 0 0 1
-8.426123 -34.078346 -22.863113 41.893378 1.328401 2.148075 0.076972 -0.029623 421255.000000 0 0 1
-7.810923 33.307395 -22.859513 41.145479 -1.340449 2.159854 0.073866 -0.029688 -659350.000000 0 0 1
-7.013323 33.257868 -21.717813 40.335293 -1.362964 2.139372 0.082120 -0.027315 -621973.000000 0 0 1
-6.380023 31.901238 -21.463313 38.975216 -1.373408 2.153989 0.086505 -0.029739 -364921.000000 0 0 1
-5.318223 31.603228 -22.322113 39.055400 -1.404077 2.179190 0.075877 -0.040129 -253322.000000 0 0 1
-4.954223 30.209658 -22.262513 37.852176 -1.408249 2.199558 0.052109 -0.029206 74125.400000 0 0 1
-3.567123 29.984468 -22.906713 37.901322 -1.452387 2.219781 0.058555 -0.037273 133575.000000 0 0 1
-3.561023 30.383998 -24.279713 39.056020 -1.454128 2.241661 0.074914 -0.036486 -347523.000000 0 0 1
-2.529423 31.320248 -24.535413 39.866558 -1.490211 2.233738 0.068187 -0.046512 91608.700000 0 0 1
-2.384223 31.582358 -26.073933 41.024137 -1.495447 2.259550 0.068489 -0.023443 255774.000000 0 0 1
-1.314523 32.488578 -26.332493 41.840601 -1.530357 2.251516 0.072311 -0.035935 265576.000000 0 0 1
-1.754223 33.846188 -26.317773 42.909986 -1.519013 2.231060 0.057190 -0.019535 73338.400000 0 0 1
-0.693323 -33.726577 -26.718903 43.033272 1.550242 2.240673 0.034253 -0.003453 348800.000000 0 0 1
0.432177 -33.447027 -25.903433 42.306953 -1.557876 2.229729 0.039270 -0.010369 441420.000000 0 0 1
1.237677 -32.435197 -26.526163 41.919103 -1.532656 2.255953 0.016127 -0.000082 -25846.700000 0 0 1
2.475477 -31.963247 -25.752363 41.121300 -1.493503 2.247535 0.013151 -0.002845 -108586.000000 0 0 1
2.142777 -31.261847 -24.559313 39.812742 -1.502360 2.235557 0.017526 -0.005490 660653.000000 0 0 1
3.347577 -30.591837 -24.177713 39.136026 -1.461803 2.236721 0.002920 -0.003993 474460.000000 0 0 1
3.248477 -29.830107 -22.830213 37.704198 -1.462325 2.221201 0.022454 -0.009139 -197374.000000 0 0 1
3.277977 -30.623727 -21.668113 37.657203 -1.464162 2.183895 0.032770 -0.003178 439762.000000 0 0 1
3.423377 -29.824007 -20.514213 36.359646 -1.456511 2.170264 0.038129 -0.005933 -669859.000000 0 0 1
3.554677 -30.662377 -19.203713 36.353813 -1.455382 2.127328 0.044433 -0.007057 -473839.000000 0 0 1
2.389777 -31.329647 -18.777913 36.604205 -1.494665 2.109471 0.041062 -0.014078 138991.000000 0 0 1
2.021677 -32.449667 -19.553213 37.939375 -1.508575 2.112248 0.046902 -0.013428 -421038.000000 0 0 1
2.555777 -33.819297 -18.913113 38.832753 -1.495368 2.079494 0.028215 -0.012338 1183980.000000 0 0 1
3.958777 -34.028687 -19.192713 39.268100 -1.454980 2.081465 0.037308 -0.010074 900446.000000 0 0 1
4.357677 33.556913 -18.307313 38.473542 1.441660 2.066717 0.050766 -0.021397 1001310.000000 0 0 1
5.586477 32.682159 -18.798113 38.114319 1.401499 2.086565 0.051086 -0.009527 1711050.000000 0 0 1
6.851377 33.366881 -18.903013 38.956566 1.368277 2.077426 0.084011 -0.009374 -67167.400000 0 0 1
7.794677 32.502788 -19.446513 38.669821 1.335426 2.097731 0.055436 -0.019415 -530635.000000 0 0 1
9.104277 33.247596 -19.717613 39.712401 1.303516 2.090370 0.055223 -0.017040 -116096.000000 0 0 1
9.839177 33.618951 -18.557313 39.641104 1.286080 2.057973 0.051886 -0.014662 784721.000000 0 0 1
11.107177 34.257064 -18.841713 40.643892 1.257261 2.052828 0.046441 -0.009909 905725.000000 0 0 1
11.923177 -34.224035 -17.553113 40.268580 -1.235560 2.021835 0.029414 -0.011786 -408915.000000 0 0 1
12.553677 33.277221 -17.043913 39.439361 1.210059 2.017677 0.026481 -0.014280 -67863.300000 0 0 1
13.304577 33.663200 -15.873513 39.524565 1.194412 1.984072 0.018959 -0.023819 -128736.000000 0 0 1
14.452177 32.678953 -15.632513 39.001985 1.154408 1.983201 0.021258 -0.022516 -285681.000000 0 0 1
14.105877 31.438198 -15.063613 37.606495 1.149036 1.982923 0.029053 -0.013980 -680640.000000 0 0 1
15.262577 30.664328 -15.023813 37.402703 1.108966 1.984144 0.018009 -0.009367 -419149.000000 0 0 1
15.113377 29.391188 -14.226513 35.981242 1.095842 1.977285 0.028920 -0.016798 -316891.000000 0 0 1
15.152577 29.571178 -12.804413 35.609102 1.097270 1.938617 0.027264 -0.017508 205969.000000 0 0 1
13.879177 29.681888 -12.169913 34.953581 1.133405 1.926418 0.031818 -0.016847 647958.000000 0 0 1
13.104777 28.339288 -11.966613 33.437258 1.137658 1.936796 0.034145 -0.013408 -588925.000000 0 0 1
12.548077 27.688218 -13.103313 33.102696 1.145291 1.977777 0.028830 -0.013929 21493.400000 0 0 1
12.245177 26.325138 -12.904813 31.772495 1.135414 1.989048 0.044725 -0.009029 472547.000000 0 0 1
11.277577 26.000348 -11.696613 30.659625 1.161540 1.962214 0.051838 -0.004452 -181193.000000 0 0 1
9.997277 26.595558 -11.736313 30.741020 1.211237 1.962518 0.053592 -0.009698 102573.000000 0 0 1
9.498677 26.601828 -10.396113 30.099191 1.227838 1.923456 0.042640 -0.001396 -875044.000000 0 0 1
8.433777 27.630098 -10.212313 30.640533 1.274540 1.910592 0.045112 -0.002414 -845651.000000 0 0 1
8.850277 28.982818 -10.278013 31.999511 1.274427 1.897785 0.048964 -0.009159 633792.000000 0 0 1
7.754677 29.930068 -10.394513 32.618858 1.317278 1.895118 0.051647 -0.007316 1080510.000000 0 0 1
8.306577 31.299378 -10.931813 34.178280 1.311385 1.896364 0.075853 -0.020138 -150365.000000 0 0 1
9.232177 31.962928 -10.128313 34.777070 1.289609 1.866314 0.053142 -0.015943 -403150.000000 0 0 1
9.640777 33.197773 -10.672413 36.179236 1.288166 1.870238 0.067720 -0.015644 -1726.170000 0 0 1
10.726677 33.258694 -11.764213 36.872741 1.258807 1.895522 0.051094 -0.022156 273744.000000 0 0 1
12.053077 33.127472 -11.247913 37.002995 1.221846 1.879657 0.036207 -0.011080 308204.000000 0 0 1
12.990777 33.667098 -12.140013 38.073792 1.202539 1.895317 0.044206 -0.017351 1330530.000000 0 0 1
14.530377 33.674061 -11.744013 38.509688 1.163433 1.880695 0.037610 -0.014763 1501510.000000 0 0 1
14.827277 34.308604 -10.527813 38.829928 1.162865 1.845359 0.041415 -0.014737 -1418630.000000 0 0 1
16.172177 -34.124100 -10.393313 39.166497 -1.128228 1.839376 0.038073 -0.019022 -1174600.000000 0 0 1
16.602677 -33.308687 -9.151913 38.325905 -1.108390 1.811918 0.041876 -0.016800 -66147.700000 0 0 1
16.631877 -33.895537 -7.875213 38.568715 -1.114632 1.776429 0.042013 -0.018249 103160.000000 0 0 1
17.271277 -33.031787 -6.977413 37.922029 -1.089022 1.755844 0.043675 -0.009524 -906070.000000 0 0 1
17.515977 -33.722637 -5.616513 38.413161 -1.091739 1.717536 0.048173 -0.002816 175659.000000 0 0 1
18.529377 33.910167 -5.493713 39.030989 1.070702 1.712018 0.033171 -0.011928 -99544.800000 0 0 1
19.842277 -34.248096 -5.683213 39.986835 -1.045685 1.713406 0.038957 -0.006522 -1194070.000000 0 0 1
20.573577 33.479880 -6.687113 39.860907 1.019779 1.739355 0.015501 -0.001246 -327045.000000 0 0 1
20.898077 32.162118 -6.215213 38.855634 0.994581 1.731443 0.018616 0.001462 -221411.000000 0 0 1
21.891877 32.128698 -5.209813 39.225625 0.972676 1.704007 0.033226 0.001227 -732232.000000 0 0 1
22.330577 30.687308 -4.904313 38.267713 0.941733 1.699308 0.021545 -0.006753 -296394.000000 0 0 1
22.935077 30.007608 -5.998813 38.242124 0.918200 1.728311 0.019890 -0.007802 92526.500000 0 0 1
23.146177 28.670648 -5.523413 37.259357 0.891612 1.719587 0.015845 -0.001634 -861272.000000 0 0 1
24.084077 27.838348 -6.374113 37.358342 0.857578 1.742256 0.016035 0.004299 376805.000000 0 0 1
25.437477 28.303368 -6.169013 38.551298 0.838676 1.731508 0.040230 -0.005302 466984.000000 0 0 1
26.380677 27.436548 -6.755113 38.656640 0.805015 1.746445 0.031684 -0.002571 -92138.900000 0 0 1
27.157377 26.536818 -5.781113 38.407644 0.773841 1.721890 0.034681 0.001369 -896168.000000 0 0 1
28.170877 27.244438 -5.154513 39.527544 0.768682 1.701572 0.035377 0.000923 -690505.000000 0 0 1
28.878977 26.324998 -4.363113 39.319684 0.739167 1.681990 0.032418 0.005489 618635.000000 0 0 1
30.197877 26.981048 -3.779813 40.671559 0.729198 1.663866 0.033566 0.013149 683184.000000 0 0 1
29.979877 27.793178 -2.676513 40.968494 0.747566 1.636174 0.048367 0.000504 62366.900000 0 0 1
31.244777 28.180258 -2.182513 42.132249 0.733874 1.622621 0.062328 -0.009857 134384.000000 0 0 1
31.282777 29.494558 -1.380013 43.016805 0.755984 1.602883 0.063325 -0.009792 64202.800000 0 0 1
31.151777 30.623788 -2.264513 43.742172 0.776851 1.622589 0.047950 -0.006978 53283.300000 0 0 1
30.621477 31.738298 -1.586813 44.130629 0.803306 1.606761 0.067096 -0.005988 32062.200000 0 0 1
33.272193 23.131923 19.233823 44.856043 0.607519 1.127643 0.044257 0.006009 206413.000000 0 0 1
33.936793 22.586223 20.374523 45.573727 0.587221 1.107312 0.027406 0.007539 314512.000000 0 0 1
34.827743 23.563823 20.913323 46.963736 0.594836 1.109278 0.028271 0.004766 263972.000000 0 0 1
34.780523 23.627323 22.453223 47.666365 0.596716 1.080316 0.034450 0.005859 756356.000000 0 0 1
33.519723 24.156223 22.901023 47.239303 0.624456 1.064676 0.035056 0.008411 753982.000000 0 0 1
33.289393 24.004023 24.293333 47.692167 0.624728 1.036335 0.030943 0.010268 -541414.000000 0 0 1
31.949833 24.540423 24.773913 47.294513 0.654980 1.019465 0.037685 0.001618 -426243.000000 0 0 1
31.707563 25.894723 24.736043 47.830723 0.684825 1.027269 0.017113 0.008111 424265.000000 0 0 1
30.466713 26.211923 25.374873 47.530724 0.710470 1.007634 0.018583 -0.006079 482689.000000 0 0 1
30.236813 27.699723 25.637703 48.361465 0.741635 1.012046 0.017092 0.000012 -133685.000000 0 0 1
29.990803 28.483823 24.467423 48.056542 0.759632 1.036613 0.018045 -0.008720 233142.000000 0 0 1
29.623263 29.807623 24.913833 48.854183 0.788500 1.035654 0.001962 -0.005634 -85231.400000 0 0 1
29.518183 30.896323 23.800703 48.911955 0.808206 1.062599 0.023432 -0.012623 98924.300000 0 0 1
30.766903 31.488523 23.496263 49.901942 0.796989 1.080544 0.014845 -0.021769 -184970.000000 0 0 1
30.736093 32.287923 22.339423 49.862483 0.810016 1.106246 0.022673 -0.021003 776771.000000 0 0 1
32.173503 32.464623 21.723423 50.606256 0.789902 1.127119 0.016143 -0.025396 724347.000000 0 0 1
32.989913 33.223723 22.554423 51.969723 0.788929 1.121878 0.011713 -0.002777 -640614.000000 0 0 1
34.263073 33.480123 22.018623 52.722828 0.773841 1.139961 0.021154 0.009546 -83418.200000 0 0 1
34.977233 -34.103782 22.853323 53.932821 -0.772755 1.133229 0.027216 0.005371 -464999.000000 0 0 1
34.473493 -32.865882 22.476623 52.666750 -0.761529 1.129877 0.017117 0.005582 117201.000000 0 0 1
34.856223 -31.762282 23.302723 52.600530 -0.738989 1.111840 0.021769 0.000712 -522048.000000 0 0 1
34.066213 -30.400982 23.093023 51.166535 -0.728605 1.102540 0.021581 0.003432 150528.000000 0 0 1
32.709953 -30.383182 23.446493 50.426350 -0.748537 1.087201 0.018106 0.001145 -211100.000000 0 0 1
31.793733 -30.786982 22.448323 49.624661 -0.769312 1.101384 0.036067 0.006366 47166.700000 0 0 1
31.105253 -32.157682 22.911023 50.264980 -0.802032 1.097520 0.023059 0.005394 -183461.000000 0 0 1
30.330253 -32.125482 24.071613 50.313153 -0.814134 1.071924 0.018535 0.004721 -65806.100000 0 0 1
29.465793 -33.234182 24.161773 50.562190 -0.845428 1.072577 0.006165 0.006411 -55168.200000 0 0 1
28.683833 -33.358582 25.482573 50.842097 -0.860604 1.045800 -0.006214 0.005394 -192615.000000 0 0 1
28.295483 33.952123 25.642573 51.097187 0.876022 1.045072 -0.006180 -0.000045 136812.000000 0 0 1
27.518503 33.743223 26.838203 51.148433 0.886659 1.018419 -0.007247 0.005099 -258837.000000 0 0 1
27.258633 32.242723 27.079393 50.158945 0.868967 1.000512 -0.000557 0.008096 864520.000000 0 0 1
26.373833 31.682623 26.085783 48.783560 0.876586 1.006614 0.007937 0.008540 -624339.000000 0 0 1
25.035333 32.001723 26.092803 48.287809 0.906934 0.999931 0.017720 0.000206 -1029780.000000 0 0 1
24.248733 31.388023 24.871963 46.816916 0.913020 1.010709 0.049762 -0.002631 129932.000000 0 0 1
24.461733 31.999023 23.605903 46.685678 0.918110 1.040679 0.043204 -0.013499 161956.000000 0 0 1
25.751833 32.041123 23.000323 47.104196 0.893796 1.060672 0.028393 -0.006799 157938.000000 0 0 1
25.933533 32.733123 21.652823 47.040942 0.900785 1.092466 0.031783 -0.007978 1142630.000000 0 0 1
27.324713 32.917623 21.292623 47.786877 0.877973 1.108980 0.051130 -0.011836 1129350.000000 0 0 1
27.395943 33.698423 20.103223 47.856671 0.888194 1.137272 0.049509 -0.020894 -186005.000000 0 0 1
28.740763 -34.308082 19.662723 48.884544 -0.873471 1.156847 0.070530 -0.036001 15913.600000 0 0 1
29.625673 33.335823 19.166623 48.541910 0.844257 1.164895 0.086782 -0.044822 -499369.000000 0 0 1
30.780223 33.962023 18.685823 49.497486 0.834504 1.183690 0.088013 -0.040502 -272313.000000 0 0 1
31.751783 33.053023 17.892523 49.201834 0.805475 1.198607 0.070573 -0.030277 8073.030000 0 0 1
32.460823 32.102723 18.630023 49.308900 0.779852 1.183353 0.049974 -0.034913 512540.000000 0 0 1
33.474733 31.356523 17.922623 49.244387 0.752737 1.198288 0.064651 -0.040398 871528.000000 0 0 1
34.428063 30.550723 18.843023 49.736282 0.725798 1.182234 0.060902 -0.041950 82499.500000 0 0 1
35.296453 31.307723 19.648523 51.108488 0.725583 1.176187 0.060716 -0.035240 321878.000000 0 0 1
-36.039903 30.459023 20.265923 51.354984 -0.701670 1.165137 0.058029 -0.028015 306288.000000 0 0 1
-34.814845 31.124923 20.935123 51.177277 -0.729497 1.149361 0.066387 -0.017400 22848.400000 0 0 1
-33.998843 31.752723 19.954823 50.619677 -0.751251 1.165587 0.065591 -0.017688 108625.000000 0 0 1
-32.777993 32.299923 20.402223 50.338182 -0.778052 1.153486 0.054882 -0.008651 164016.000000 0 0 1
-32.852923 33.657323 21.092623 51.546374 -0.797492 1.149222 0.052146 -0.001867 -275471.000000 0 0 1
-33.474733 33.675423 22.357223 52.482733 -0.788387 1.130738 0.057225 -0.006813 108963.000000 0 0 1
-33.461593 -33.701682 22.894123 52.722125 0.788973 1.121600 0.047947 -0.003127 -32732.200000 0 0 1
-33.438543 -33.786082 24.443833 53.452189 0.790568 1.095836 0.064824 -0.010746 -403435.000000 0 0 1
-34.696191 -33.956682 25.032513 54.621504 0.774627 1.094726 0.062146 -0.011971 -510070.000000 0 0 1
-34.576945 -34.281482 26.377463 55.376491 0.781107 1.074321 0.073638 -0.016647 1051150.000000 0 0 1
-35.978452 34.298323 27.104473 56.616927 -0.761495 1.071584 0.047132 -0.026807 771115.000000 0 0 1
-35.965908 33.693323 28.368953 56.864612 -0.752785 1.048484 0.070206 -0.030016 -516989.000000 0 0 1
35.070453 33.573023 28.954243 56.528159 0.763587 1.033041 0.061783 -0.038392 -395329.000000 0 0 1
35.115363 32.459123 30.024903 56.463955 0.746110 1.010127 0.064930 -0.028070 -70266.000000 0 0 1
35.114313 31.078123 29.684213 55.497903 0.724497 1.006441 0.056578 -0.027845 -187079.000000 0 0 1
36.147923 30.648423 28.835283 55.474965 0.703251 1.024192 0.060438 -0.030031 -438177.000000 0 0 1
36.076763 29.118323 28.499083 54.420651 0.679068 1.019630 0.058389 -0.016942 -499234.000000 0 0 1
35.014963 28.792723 27.635873 53.092467 0.688190 1.023332 0.055407 -0.016497 -165925.000000 0 0 1
34.885243 27.415423 27.256263 52.071964 0.666068 1.019920 0.060697 -0.014350 -83977.000000 0 0 1
34.622443 26.396523 28.394223 51.978090 0.651397 0.992888 0.057497 -0.014989 234275.000000 0 0 1
35.782713 25.926823 29.111903 52.916024 0.627022 0.988249 0.054826 -0.014306 431119.000000 0 0 1
35.645213 24.584023 29.635533 52.471137 0.603771 0.970609 0.044875 -0.009436 -205290.000000 0 0 1
35.945873 23.404423 28.682593 51.600038 0.577149 0.981395 0.042810 -0.008373 -25441.800000 0 0 1
35.023453 23.141523 27.639213 50.260307 0.583891 0.988526 0.036647 -0.001288 -241863.000000 0 0 1
35.500593 22.173923 26.778753 49.689804 0.558317 1.001644 0.030104 0.002407 -347206.000000 0 0 1
35.071803 20.773223 27.074583 48.934560 0.534743 0.984498 0.037161 -0.006573 -1196690.000000 0 0 1
33.688823 20.637823 27.029503 47.869098 0.549634 0.970782 0.027292 -0.008115 -737051.000000 0 0 1
33.293413 19.365923 27.446663 47.294922 0.526836 0.951662 0.033009 -0.008725 -444447.000000 0 0 1
33.259573 19.156023 29.008163 48.110559 0.522552 0.923605 0.029326 -0.015818 -410698.000000 0 0 1
32.214743 19.766923 29.740083 48.093591 0.550359 0.904118 0.027826 -0.014887 161406.000000 0 0 1
32.193893 21.183023 29.622623 48.607273 0.581966 0.915458 0.031671 -0.015030 -1074810.000000 0 0 1
30.940143 21.851023 30.174523 48.427900 0.614899 0.898120 0.027968 -0.020886 -743939.000000 0 0 1
29.737253 21.653223 29.481183 47.141345 0.629371 0.895180 0.035212 -0.030631 -207185.000000 0 0 1
29.434723 22.275923 28.262523 46.490750 0.647833 0.917362 0.046577 -0.025301 -377080.000000 0 0 1
29.262463 23.799323 28.432533 47.234611 0.682802 0.924865 0.044210 -0.015842 -534179.000000 0 0 1
30.504023 24.470423 28.499503 48.389241 0.676083 0.941020 0.028657 -0.010612 -235577.000000 0 0 1
30.574433 25.764723 29.059353 49.427350 0.700234 0.942311 0.015525 -0.005179 -101647.000000 0 0 1
30.691883 25.794823 30.606263 50.439151 0.698920 0.918773 0.019145 -0.014315 791340.000000 0 0 1
32.072653 25.477923 30.885723 51.300171 0.671306 0.924719 0.028828 -0.013581 873241.000000 0 0 1
32.367413 25.456223 32.264463 52.313137 0.666441 0.906181 0.029826 -0.011602 140658.000000 0 0 1
31.945403 24.134823 32.971538 51.866374 0.647013 0.881879 0.036265 -0.017314 -244591.000000 0 0 1
32.346773 24.101823 -34.136818 52.844431 0.640363 2.273112 0.032287 -0.021237 235644.000000 0 0 1
32.233513 22.802223 -33.580633 51.832419 0.615680 2.275580 0.018416 -0.016906 -208979.000000 0 0 1
32.803773 22.662123 -32.120623 51.199548 0.604551 2.248957 0.018787 -0.020788 488428.000000 0 0 1
31.966973 23.393523 -31.197333 50.422394 0.631753 2.237908 -0.002969 -0.017216 661581.000000 0 0 1
32.379893 23.144623 -29.859293 49.756491 0.620579 2.214433 0.025036 -0.026602 503451.000000 0 0 1
33.656523 23.913223 -29.314183 50.635216 0.617743 2.188211 0.022230 -0.006303 821665.000000 0 0 1
34.284103 23.306023 -28.242833 50.162018 0.597034 2.168847 0.015012 -0.010254 -908380.000000 0 0 1
35.386993 24.080123 -27.870393 51.076907 0.597504 2.147967 0.029711 -0.002420 -237419.000000 0 0 1
-36.147253 23.296623 -26.758223 50.649374 -0.572494 2.127397 0.017951 0.003177 -617971.000000 0 0 1
-35.396352 22.248423 -27.279733 49.920716 -0.561149 2.148929 0.016147 0.002238 -248938.000000 0 0 1
-35.411158 21.151223 -26.387833 48.965724 -0.538435 2.139932 0.001592 0.000407 -396394.000000 0 0 1
-34.469746 19.937023 -26.714793 47.951313 -0.524380 2.161714 0.022367 0.007766 -529698.000000 0 0 1
-33.228473 20.228423 -26.169133 46.884369 -0.546841 2.162967 0.023518 0.002157 -804570.000000 0 0 1
-32.339723 19.141323 -26.288783 45.862273 -0.534430 2.181216 0.009531 -0.007624 531095.000000 0 0 1
-30.908273 19.261723 -25.678413 44.561376 -0.557297 2.184927 0.019103 -0.010370 559313.000000 0 0 1
-30.965083 19.462823 -24.260113 43.888392 -0.561142 2.156479 0.030551 -0.011108 674625.000000 0 0 1
-29.676243 19.438323 -23.624013 42.621846 -0.579891 2.158282 0.041093 -0.004047 707733.000000 0 0 1
-29.751763 19.860623 -22.151813 42.075106 -0.588610 2.125254 0.029225 -0.008929 -115662.000000 0 0 1
-30.557543 18.952923 -21.451813 41.870718 -0.555167 2.108697 0.023249 -0.014832 -184821.000000 0 0 1
-31.008323 19.538323 -20.270913 41.882838 -0.562258 2.076006 0.034887 -0.011950 -118082.000000 0 0 1
-32.097683 18.585023 -19.618213 41.958773 -0.524846 2.057324 0.038214 -0.011364 554177.000000 0 0 1
-32.786283 19.010423 -18.467313 42.158963 -0.525455 2.024214 0.037278 -0.013116 -94319.400000 0 0 1
-33.724373 20.002423 -18.745013 43.460393 -0.535341 2.016743 0.023684 -0.013133 -1040620.000000 0 0 1
-34.935720 20.031023 -17.799113 44.029023 -0.520607 1.986964 0.033600 -0.014469 -371055.000000 0 0 1
-34.761978 20.684223 -16.585413 43.718510 -0.536753 1.959910 0.043463 -0.024477 -165585.000000 0 0 1
-35.857531 20.560823 -15.721513 44.223025 -0.520633 1.934251 0.047031 -0.015649 -594146.000000 0 0 1
-35.632477 21.375423 -14.378313 43.969512 -0.540336 1.903930 0.049899 -0.016913 -82198.900000 0 0 1
-35.824406 22.800423 -14.420013 44.846228 -0.566790 1.898155 0.063273 -0.031445 -157887.000000 0 0 1
35.216713 23.293023 -14.735413 44.720400 0.584361 1.906571 0.055784 -0.021951 -644816.000000 0 0 1
35.165183 24.802423 -14.762913 45.493888 0.614282 1.901283 0.053872 -0.032124 -30584.100000 0 0 1
35.688203 25.538823 -13.664713 45.963069 0.621126 1.872657 0.057317 -0.024102 99727.300000 0 0 1
35.576753 26.945423 -13.920713 46.749839 0.648213 1.873152 0.065582 -0.020335 65693.400000 0 0 1
-35.670508 27.655623 -14.814313 47.504552 -0.659502 1.887936 0.058328 -0.009445 17517.400000 0 0 1
-35.672355 27.371523 -16.228313 47.802462 -0.654484 1.917168 0.061844 -0.008715 -429174.000000 0 0 1
-34.624180 28.085323 -16.789213 47.639237 -0.681501 1.930956 0.059771 -0.007678 -999608.000000 0 0 1
-34.417205 27.801723 -18.292613 47.875876 -0.679470 1.962847 0.048785 -0.011400 -144326.000000 0 0 1
-34.043137 26.493923 -18.687213 47.011435 -0.661335 1.979591 0.046303 -0.016956 806724.000000 0 0 1
-32.883813 25.855923 -18.110613 45.583640 -0.666320 1.979375 0.050401 -0.011092 420406.000000 0 0 1
-32.627103 24.458423 -18.735213 44.874832 -0.643268 2.001488 0.040827 -0.006876 -421670.000000 0 0 1
-32.014593 24.561023 -19.991713 45.031618 -0.654407 2.030797 0.030326 -0.011670 198796.000000 0 0 1
-31.715913 23.267723 -20.494613 44.354427 -0.632941 2.051118 0.032758 -0.003656 43253.500000 0 0 1
-31.240843 23.283723 -21.975913 44.733240 -0.640485 2.084339 0.022023 0.006997 1162180.000000 0 0 1
-32.395393 23.684423 -22.767013 46.138382 -0.631298 2.086849 0.026750 0.005191 1437430.000000 0 0 1
-32.238983 23.268123 -24.122913 46.504543 -0.625167 2.116151 0.020589 0.003220 134958.000000 0 0 1
-33.168483 24.082423 -25.071213 48.048695 -0.628005 2.119741 0.006725 0.009900 -115533.000000 0 0 1
-32.723463 25.415323 -25.346653 48.571766 -0.660352 2.119802 0.004843 0.009433 -11384.400000 0 0 1
-33.560903 26.024523 -26.315423 49.961100 -0.659586 2.125532 0.012858 -0.001285 -82263.100000 0 0 1
-33.260143 27.496423 -26.625543 50.707099 -0.690815 2.123611 0.014397 -0.001033 1189130.000000 0 0 1
-32.014953 27.630323 -27.375783 50.376835 -0.712018 2.145302 -0.003676 0.000030 690590.000000 0 0 1
-31.641823 28.992423 -27.499583 50.970507 -0.741731 2.140663 0.005266 -0.004310 872259.000000 0 0 1
-30.186723 29.057323 -28.105313 50.452700 -0.766337 2.161641 0.017711 -0.006300 620533.000000 0 0 1
-29.273593 28.357123 -27.205553 49.002161 -0.769497 2.159389 -0.013133 -0.001353 1711500.000000 0 0 1
-27.910053 28.334223 -27.775213 48.510429 -0.792940 2.180423 0.026528 0.004273 2117020.000000 0 0 1
-27.160073 29.674023 -27.516713 48.737939 -0.829602 2.170727 0.016714 -0.009532 -771310.000000 0 0 1
-26.560603 29.875123 -26.219873 47.806593 -0.844062 2.151314 0.015656 -0.006959 -104098.000000 0 0 1
-27.389243 30.324923 -25.194783 48.005715 -0.836220 2.123310 -0.000392 0.000854 -109942.000000 0 0 1
-26.534383 30.655523 -23.940513 47.084846 -0.857334 2.104186 -0.017878 -0.006189 115950.000000 0 0 1
-25.806383 31.836323 -23.968613 47.476471 -0.889628 2.100007 -0.009250 0.000968 -282670.000000 0 0 1
-25.351533 32.117723 -22.668713 46.777333 -0.902594 2.076712 0.008057 0.015019 -55024.700000 0 0 1
-24.479923 33.403123 -22.634413 47.194829 -0.938353 2.070990 0.005640 0.021765 -241397.000000 0 0 1
-25.181603 -34.042782 -22.928113 48.153115 0.933917 2.067068 -0.011141 0.007423 -178049.000000 0 0 1
-24.293823 -33.009882 -23.232813 47.112692 0.936344 2.086484 0.002056 0.011832 -195897.000000 0 0 1
16.723877 8.796123 -25.613883 31.829716 0.484201 2.505993 0.036248 -0.016591 -16687.600000 0 0 1
15.684477 8.125523 -24.924313 30.549113 0.477992 2.525040 0.041541 -0.020654 257795.000000 0 0 1
15.842177 6.726323 -25.146333 30.472218 0.401518 2.541391 0.040854 -0.022898 531703.000000 0 0 1
14.436177 6.050223 -25.164473 29.635437 0.396864 2.585141 0.066249 -0.024308 643448.000000 0 0 1
13.765477 6.050523 -23.890613 28.228683 0.414124 2.579842 0.080731 -0.038577 780485.000000 0 0 1
12.432577 5.542023 -24.025713 27.613726 0.419328 2.626129 0.078517 -0.040075 427199.000000 0 0 1
11.564377 5.772723 -22.764213 26.177634 0.462993 2.625199 0.078710 -0.044833 -285920.000000 0 0 1
11.985877 5.081423 -21.604613 25.223826 0.400982 2.599278 0.078456 -0.038021 17065.800000 0 0 1
11.243577 5.242523 -20.381313 23.860008 0.436300 2.594814 0.084590 -0.034673 53216.900000 0 1 0
11.191777 6.688623 -19.839813 23.740508 0.538680 2.560193 0.064952 -0.034167 -159700.000000 0 1 0
10.916877 6.781523 -18.467213 22.499005 0.555859 2.533609 0.061247 -0.021466 -195072.000000 0 1 0
11.295277 8.086123 -18.024013 22.755960 0.621308 2.484967 0.062964 -0.019038 -232051.000000 0 1 0
12.783977 8.210623 -17.724813 23.345522 0.570914 2.432938 0.061149 -0.021803 -692857.000000 0 1 0
13.165777 7.722223 -16.453813 22.443225 0.530462 2.393710 0.061422 -0.022818 302747.000000 0 1 0
14.559477 7.856423 -16.239913 23.182677 0.494830 2.346921 0.052393 -0.020934 -99415.500000 0 1 0
14.922477 7.645123 -14.772313 22.346128 0.473457 2.293038 0.042763 -0.021322 -998285.000000 0 1 0
16.314377 7.663123 -14.730113 23.277856 0.439128 2.255954 0.032506 -0.023456 -180785.000000 0 1 0
16.825377 7.702323 -13.386013 22.838661 0.429305 2.197048 0.023996 -0.023901 97738.400000 0 1 0
17.436077 9.126223 -13.055913 23.616977 0.482200 2.156540 0.053892 -0.031169 -450128.000000 0 1 0
16.421677 10.097923 -12.977013 23.238812 0.551314 2.163276 0.054502 -0.028055 245432.000000 0 1 0
16.891677 11.469223 -13.035513 24.223881 0.596483 2.139009 0.078459 -0.030842 24648.700000 0 1 0
15.692577 12.454623 -13.062913 23.916820 0.670865 2.148595 0.076155 -0.022141 -9852.970000 0 1 0
14.955477 12.590323 -11.859513 22.865489 0.699746 2.116084 0.077982 -0.014562 227756.000000 0 1 0
15.672477 13.293623 -10.874413 23.250802 0.703457 2.057484 0.092273 -0.021695 -254541.000000 0 1 0
15.434677 14.837323 -10.988413 24.064925 0.765668 2.044983 0.098151 -0.021609 -142269.000000 0 1 0
14.186577 15.245023 -10.493413 23.319121 0.821346 2.037552 0.105302 -0.023318 131313.000000 0 1 0
14.008977 16.671623 -10.509613 24.179463 0.871967 2.020446 0.087286 -0.019567 219680.000000 0 1 0
12.830077 17.041623 -9.563613 23.377136 0.925463 1.992265 0.069909 -0.020772 186821.000000 0 1 0
13.205577 16.981223 -8.207513 23.024171 0.909828 1.935287 0.088908 -0.019893 695337.000000 0 1 0
12.166077 17.278023 -7.247113 22.339744 0.957300 1.901178 0.078751 -0.012959 350381.000000 0 1 0
12.510877 16.969123 -5.782713 21.861220 0.935490 1.838502 0.073248 -0.012466 133648.000000 0 1 0
13.492077 17.906323 -5.387113 23.058481 0.925071 1.806604 0.087254 -0.010424 158714.000000 0 1 0
13.960077 17.750723 -4.091213 22.950162 0.904372 1.750019 0.083697 -0.008596 -278886.000000 0 1 0
14.891877 18.890223 -3.596913 24.321725 0.903207 1.719230 0.068002 -0.013802 -582993.000000 0 1 0
16.057277 18.934823 -4.349613 25.204817 0.867448 1.744235 0.060797 -0.017680 -574420.000000 0 0 1
16.627677 20.226723 -4.319313 26.537830 0.882745 1.734284 0.035693 -0.016076 490729.000000 0 0 1
18.006277 20.253823 -5.061613 27.569245 0.844075 1.755440 0.032840 -0.016015 389495.000000 0 0 1
19.007377 19.392423 -4.560813 27.534478 0.795425 1.737203 0.035946 -0.025870 245564.000000 0 0 1
19.335477 18.204823 -5.346613 27.089897 0.755289 1.769466 0.052248 -0.025156 3546.640000 0 0 1
20.293577 17.231823 -4.624913 27.021377 0.703987 1.742801 0.066318 -0.025987 762563.000000 0 0 1
21.680477 17.582523 -4.757613 28.316481 0.681403 1.739613 0.056737 -0.027444 628692.000000 0 0 1
22.462177 16.645923 -4.058613 28.250814 0.637758 1.714959 0.059958 -0.027075 -497551.000000 0 0 1
23.965177 16.780123 -4.326713 29.574020 0.610852 1.717624 0.053705 -0.021979 -356911.000000 0 0 1
24.478577 17.881823 -3.617513 30.529440 0.630910 1.689568 0.053535 -0.016797 552910.000000 0 0 1
25.896877 17.985123 -3.790313 31.756564 0.607018 1.690437 0.047157 -0.008582 465819.000000 0 0 1
26.338677 19.354523 -3.272013 32.848585 0.633723 1.670571 0.055435 -0.008687 -280738.000000 0 0 1
26.319777 20.369523 -4.254413 33.552171 0.658638 1.697939 0.061449 -0.018517 262182.000000 0 0 1
26.336877 21.609223 -3.591813 34.256251 0.687112 1.675841 0.064326 -0.003476 -313289.000000 0 0 1
26.383977 22.836123 -4.534913 35.187614 0.713441 1.700034 0.048661 -0.000716 -270249.000000 0 0 1
27.544077 23.204023 -5.234613 36.393736 0.700084 1.715130 0.045841 0.010436 -78526.700000 0 0 1
27.911477 22.275323 -6.247813 36.252941 0.673563 1.744001 0.057748 0.006421 -89192.400000 0 0 1
28.912077 22.938023 -7.241613 37.609866 0.670686 1.764552 0.034961 0.011642 -41539.500000 0 0 1
28.382877 23.972023 -8.079513 38.020049 0.701348 1.784936 0.034592 0.005800 -345460.000000 0 0 1
29.305077 24.860623 -8.611913 39.382777 0.703529 1.791250 0.024240 0.003150 410468.000000 0 0 1
30.372977 24.317723 -9.694713 40.098090 0.675129 1.814991 0.028760 -0.006784 709548.000000 0 0 1
29.791077 24.107023 -10.994713 39.869042 0.680327 1.850188 0.030420 -0.004468 -9242.050000 0 0 1
30.615677 23.407723 -11.920913 40.340418 0.652759 1.870783 0.020557 -0.008384 -214913.000000 0 0 1
30.081677 23.033823 -13.355313 40.172486 0.653480 1.909696 0.035883 -0.004738 -69590.300000 0 0 1
30.046477 24.063223 -14.325813 41.073816 0.675269 1.927068 0.042707 -0.013990 165758.000000 0 0 1
29.695077 23.384323 -15.561913 40.875387 0.667061 1.961367 0.047268 -0.016442 -155260.000000 0 0 1
29.965677 24.276623 -16.747213 42.044802 0.680898 1.980479 0.051179 -0.017686 65484.800000 0 0 1
31.339677 24.563323 -16.927613 43.267497 0.664770 1.972766 0.049781 -0.016679 18686.300000 0 0 1
31.551677 25.107123 -18.218113 44.246758 0.672142 1.995158 0.062455 -0.021477 -63769.100000 0 0 1
32.995977 25.606923 -18.364613 45.625738 0.659973 1.985049 0.053696 -0.025922 -340946.000000 0 0 1
33.942077 24.603923 -18.322313 45.750680 0.627229 1.982839 0.052434 -0.014202 36366.400000 0 0 1
35.293277 24.987823 -18.644313 47.091582 0.616078 1.977862 0.053443 -0.024780 635917.000000 0 0 1
36.084777 23.673823 -18.592313 46.991862 0.580624 1.977571 0.051401 -0.025174 -826616.000000 0 0 1
35.832577 22.758223 -19.696913 46.796139 0.565848 2.005243 0.043208 -0.015224 606391.000000 0 0 1
-35.609779 23.004523 -20.841513 47.240164 -0.573570 2.027712 0.025128 -0.010178 260442.000000 0 0 1
-35.805779 22.059623 -22.001513 47.463116 -0.552167 2.052793 0.018934 -0.010017 -142033.000000 0 0 1
-35.280979 20.798623 -21.710913 46.354007 -0.532673 2.058243 0.009283 -0.011381 183337.000000 0 0 1
-34.942679 20.105023 -22.880513 46.354295 -0.522113 2.087021 0.022521 -0.011769 240258.000000 0 0 1
-34.259179 18.744423 -22.676013 45.158015 -0.500642 2.096877 0.022825 -0.011057 511781.000000 0 0 1
-35.273079 17.804123 -22.290813 45.365816 -0.467441 2.084443 0.024915 -0.012307 738076.000000 0 0 1
-34.928479 16.467923 -22.584513 44.735348 -0.440569 2.100001 0.018882 -0.012229 -333792.000000 0 0 1
-36.045079 15.475323 -22.177113 45.061710 -0.405535 2.085354 0.017664 -0.005165 -253252.000000 0 0 1
35.213777 15.584223 -23.073013 44.891447 0.416650 2.110607 0.050535 -0.003754 -96698.200000 0 0 1
34.006177 14.850623 -22.972313 43.642734 0.411742 2.125124 0.062155 -0.002622 415595.000000 0 0 1
34.114577 13.468523 -23.589313 43.608040 0.376018 2.142350 0.036773 -0.013079 -733759.000000 0 0 1
34.089877 13.528723 -24.996913 44.384589 0.377792 2.169036 0.038208 -0.005601 237485.000000 0 0 1
34.752777 12.425023 -25.584783 44.907881 0.343364 2.176958 0.031366 -0.007530 -83928.300000 0 0 1
34.694477 12.420823 -27.127703 45.759107 0.343789 2.205374 0.037711 -0.011488 479369.000000 0 0 1
33.393177 12.084523 -27.613013 44.984647 0.347224 2.231702 0.036293 -0.010427 589609.000000 0 0 1
32.695477 13.103023 -28.342073 45.210137 0.381161 2.248360 0.045943 -0.011652 213963.000000 0 0 1
33.085477 13.181923 -29.849393 46.469325 0.379144 2.268352 0.042313 -0.020875 297269.000000 0 0 1
34.457477 13.529823 -30.041363 47.674493 0.374157 2.252523 0.033485 -0.013413 256743.000000 0 0 1
34.795977 13.569423 -31.459253 48.832098 0.371831 2.270816 0.037082 -0.016315 -1440750.000000 0 0 1
-36.126079 14.075223 -31.833493 50.165494 -0.371521 2.258248 0.057773 -0.020203 -741922.000000 0 0 1
-35.085779 13.249923 -31.398593 48.912616 -0.361086 2.267812 0.047536 -0.019385 -365381.000000 0 0 1
-34.834079 13.248123 -30.028633 47.860679 -0.363427 2.249029 0.034553 -0.024111 -1172820.000000 0 0 1
-33.739079 12.271323 -29.518823 46.478723 -0.348838 2.258939 0.033585 -0.022310 459684.000000 0 0 1
-34.127779 10.908123 -29.709133 46.543797 -0.309364 2.263091 0.034476 -0.028295 965657.000000 0 0 1
-32.950379 10.096123 -29.550113 45.396788 -0.297321 2.279605 0.031577 -0.031806 730710.000000 0 0 1
-33.209579 8.624123 -30.043713 45.605661 -0.254076 2.289981 0.046325 -0.023592 -485295.000000 0 0 1
-33.418279 8.699523 -31.454073 46.709975 -0.254670 2.309582 0.042061 -0.027104 38568.700000 0 0 1
-33.583679 7.429223 -32.041483 47.007590 -0.217709 2.320776 0.044483 -0.020735 508091.000000 0 0 1
-34.983379 6.726323 -31.771393 47.733653 -0.189954 2.299090 0.048359 -0.001579 628425.000000 0 0 1
-35.182479 6.301523 -30.455083 46.957727 -0.177230 2.276492 0.050402 -0.006823 -123161.000000 0 0 1
36.001877 5.469223 -30.318623 47.384242 0.150762 2.265094 0.053342 0.008662 -282865.000000 0 0 1
35.801077 4.879123 -28.918193 46.279421 0.135450 2.245749 0.055739 0.001331 251453.000000 0 0 1
-35.502379 3.930123 -28.547743 45.725687 -0.110251 2.245065 0.058767 0.004021 734267.000000 0 0 1
-36.112979 2.966623 -27.764893 45.649068 -0.081964 2.224619 0.055796 0.010245 -54241.700000 0 0 1
-35.298179 1.641823 -27.820063 44.973469 -0.046479 2.237741 0.075666 0.016811 -52451.400000 0 0 1
-34.142779 1.687023 -27.027453 43.578190 -0.049371 2.239802 0.065193 0.010107 107839.000000 0 0 1
-33.265879 0.571123 -27.312623 43.045607 -0.017167 2.258163 0.073333 0.019157 299184.000000 0 0 1
-32.145679 0.575023 -26.250983 41.506499 -0.017886 2.255515 0.067520 0.010087 -110339.000000 0 0 1
-32.550679 0.226423 -24.920513 40.995487 -0.006956 2.224190 0.065128 0.008243 1177240.000000 0 0 1
-31.409479 0.416923 -24.036813 39.553730 -0.013273 2.223958 0.088732 0.002454 1069670.000000 0 0 1
-31.808379 0.221923 -22.508513 38.967363 -0.006977 2.186612 0.090707 -0.004067 -98732.700000 0 0 1
-32.124979 -1.135077 -22.088813 39.002799 0.035318 2.172854 0.105283 -0.013802 363974.000000 0 0 1
-32.440279 -1.262177 -20.690213 38.497399 0.038888 2.138200 0.084806 -0.010332 200417.000000 0 0 1
-33.961679 -1.191977 -20.421113 39.646416 0.035083 2.111898 0.075502 -0.007873 198888.000000 0 0 1
-34.760279 -2.319577 -20.777613 40.563119 0.066632 2.108575 0.067692 -0.014469 173594.000000 0 0 1
-36.052279 -2.235277 -20.233113 41.402200 0.061922 2.081391 0.059455 -0.009029 226612.000000 0 0 1
35.448077 -3.570777 -20.031613 40.872755 -0.100394 2.082997 0.058694 -0.017330 157678.000000 0 0 1
35.011977 -4.295177 -21.153513 41.130988 -0.122067 2.110983 0.046662 -0.011619 215016.000000 0 0 1
36.062477 -4.926277 -21.860813 42.457809 -0.135764 2.111668 0.055827 -0.016821 -34342.800000 0 0 1
35.506677 -5.734477 -23.031913 42.709218 -0.160122 2.140369 0.052242 -0.021246 -659031.000000 0 0 1
34.957277 -6.966277 -22.624213 42.218423 -0.196703 2.136352 0.058765 -0.018097 193139.000000 0 0 1
34.348777 -7.684877 -23.686813 42.425946 -0.220106 2.163143 0.061744 -0.015835 416795.000000 0 0 1
32.945577 -7.207977 -24.159213 41.485341 -0.215390 2.192419 0.033173 -0.009197 -533995.000000 0 0 1
33.000577 -6.075677 -25.043013 41.870090 -0.182069 2.211940 0.033775 -0.008884 -750622.000000 0 0 1
31.766777 -5.506477 -25.332073 41.001992 -0.171635 2.236770 0.012292 -0.005566 -842352.000000 0 0 1
31.668977 -4.356777 -26.299073 41.395010 -0.136714 2.259219 0.044123 -0.035370 -262435.000000 0 0 1
31.887277 -4.722977 -27.649993 42.469131 -0.147046 2.279778 0.056245 -0.027633 200417.000000 0 0 1
31.613977 -3.665777 -28.532993 42.743574 -0.115439 2.301695 0.057971 -0.031245 10377.200000 0 0 1
31.194477 -4.158277 -29.925533 43.427229 -0.132520 2.331037 0.068322 -0.027880 105891.000000 0 0 1
30.712977 -3.160277 -30.802693 43.612844 -0.102536 2.355020 0.056717 -0.036161 9947.550000 0 0 1
29.914877 -3.683577 -31.833063 43.838482 -0.122519 2.383494 0.060184 -0.028167 -569803.000000 0 0 1
29.473477 -2.625677 -32.861923 44.220877 -0.088852 2.408534 0.064376 -0.030315 -855779.000000 0 0 1
28.563177 -1.611777 -32.470883 43.275988 -0.056369 2.419344 0.053736 -0.037435 570896.000000 0 0 1
27.219277 -2.014877 -32.210903 42.219557 -0.073889 2.438642 0.062777 -0.045782 327961.000000 0 0 1
26.407177 -2.477377 -33.467893 42.703352 -0.093541 2.471445 0.066610 -0.044593 -1401830.000000 0 0 1
26.862377 -3.645777 -34.042553 43.517518 -0.134896 2.469102 0.068223 -0.036541 -268739.000000 0 0 1
26.127877 -4.040177 33.317484 42.532854 -0.153416 0.670783 0.054177 -0.030298 -817322.000000 0 0 1
26.854477 -5.214277 32.641496 42.588953 -0.191782 0.697530 0.031933 -0.029203 392173.000000 0 0 1
28.130477 -4.937177 32.072193 42.945605 -0.173740 0.727544 0.036165 -0.022663 191438.000000 0 0 1
28.210277 -3.996577 31.003483 42.107105 -0.140734 0.743210 0.054632 -0.028479 -401087.000000 0 0 1
28.801177 -2.587977 31.523433 42.777707 -0.089616 0.742305 0.048036 -0.028366 -629857.000000 0 0 1
30.148877 -2.674577 31.845773 43.934740 -0.088481 0.759990 0.047292 -0.023307 -807538.000000 0 0 1
30.615377 -1.406177 32.234603 44.478627 -0.045898 0.760167 0.044746 -0.021152 233439.000000 0 0 1
32.061877 -1.399177 32.825326 45.906685 -0.043612 0.774108 0.045893 -0.013907 190132.000000 0 0 1
32.991377 -1.520477 31.778753 45.832652 -0.046055 0.804648 0.057123 -0.012567 130214.000000 0 0 1
34.305677 -1.560877 32.344933 47.175317 -0.045468 0.815324 0.060553 -0.014030 681284.000000 0 0 1
35.396177 -2.233777 31.477933 47.420875 -0.063024 0.844909 0.055519 -0.000921 -115900.000000 0 0 1
35.655777 -1.678677 30.226773 46.774033 -0.047045 0.868163 0.037913 0.000723 137116.000000 0 0 1
-35.594179 -2.364777 29.574043 46.337477 0.066340 0.878597 0.038094 0.002879 196161.000000 0 0 1
-35.212979 -2.064177 28.118223 45.109303 0.058553 0.897795 0.041110 0.001885 776267.000000 0 0 1
35.999277 -2.220477 27.170693 45.156672 -0.061603 0.925171 0.048101 -0.014672 608807.000000 0 0 1
-35.973179 -1.625477 25.914053 44.364963 0.045155 0.947012 0.047018 -0.002171 79691.500000 0 0 1
-26.726143 15.205923 11.953887 32.990942 -0.517278 1.200021 0.071941 -0.009849 -79830.300000 0 0 1
-27.806763 14.461523 12.469087 33.731734 -0.479576 1.192159 0.042123 0.002634 -402322.000000 0 0 1
-28.706253 15.365223 13.008087 35.062079 -0.491454 1.190709 0.054789 -0.006996 -949399.000000 0 0 1
-29.849103 14.666623 13.721887 35.977340 -0.456711 1.179482 0.055967 -0.007046 -521773.000000 0 0 1
-30.782433 15.564723 14.288487 37.336037 -0.468147 1.178080 0.045524 -0.015430 -308491.000000 0 0 1
-31.850003 14.786523 14.801487 38.107059 -0.434645 1.171882 0.048901 -0.007428 213515.000000 0 0 1
-32.947173 15.633923 15.530087 39.637348 -0.443052 1.168204 0.046238 -0.010242 -26964.300000 0 0 1
-32.456603 16.174723 16.683087 39.917141 -0.462326 1.139616 0.039547 -0.002286 261641.000000 0 0 1
-33.443003 16.342823 17.720587 41.225496 -0.454548 1.126475 0.038200 -0.000426 443013.000000 0 0 1
-32.776373 16.645623 19.129987 41.440606 -0.469911 1.090971 0.035412 0.003668 490989.000000 0 0 1
-32.203603 15.452823 19.704987 40.793974 -0.447396 1.066677 0.035801 0.002872 194680.000000 0 0 1
-31.110153 15.675423 20.577687 40.459878 -0.466738 1.037244 0.049711 -0.000440 245238.000000 0 0 1
-31.397343 16.279323 22.014887 41.658910 -0.478333 1.014016 0.046924 -0.007231 -168775.000000 0 0 1
-32.040103 17.543523 21.873587 42.576956 -0.500959 1.031255 0.041960 0.001664 193313.000000 0 0 1
-32.201993 18.326223 23.085087 43.654783 -0.517391 1.013598 0.046817 -0.004241 -360400.000000 0 0 1
-32.973733 17.762723 24.355087 44.676075 -0.494121 0.994230 0.023472 -0.002826 921137.000000 0 0 1
-34.369341 17.494623 24.203587 45.531605 -0.470836 1.010334 0.037228 -0.002166 630839.000000 0 0 1
-35.236021 18.628523 24.123687 46.589176 -0.486326 1.026524 0.032993 -0.001592 -1242610.000000 0 0 1
35.695743 18.082623 23.827487 46.571627 0.468895 1.033714 0.012017 -0.008950 -1020040.000000 0 0 1
35.248103 17.269423 24.904387 46.485376 0.455567 1.005405 0.022911 -0.007594 -365970.000000 0 0 1
34.472633 16.207723 24.443787 45.260926 0.439494 1.000283 0.031524 -0.007948 -128289.000000 0 0 1
33.958203 15.367923 25.623187 45.231408 0.424976 0.968555 0.039283 -0.011235 -662905.000000 0 0 1
33.105843 16.116623 26.460387 45.341972 0.453049 0.947674 0.026500 -0.014067 231784.000000 0 0 1
32.603593 15.313423 27.569887 45.360708 0.439103 0.917519 0.021751 -0.011773 -148795.000000 0 0 1
31.530303 14.274323 27.237087 44.042879 0.425112 0.904063 0.020485 -0.005632 -982265.000000 0 0 1
31.976013 13.054723 26.813687 43.724879 0.387612 0.910645 0.019705 -0.003728 -158766.000000 0 0 1
30.972183 12.088123 27.031087 42.849487 0.372107 0.888163 0.017379 0.002063 -362910.000000 0 0 1
31.329843 10.685823 26.674387 42.511984 0.328702 0.892515 0.042473 0.007821 -660684.000000 0 0 1
32.429643 10.128323 27.302887 43.585689 0.302718 0.893846 0.045098 0.007718 -595073.000000 0 0 1
32.896803 8.959723 26.664787 43.283798 0.265909 0.907084 0.037799 0.006754 -66083.000000 0 0 1
33.872603 8.263423 27.631487 44.487487 0.239282 0.900642 0.059968 0.003635 513094.000000 0 0 1
35.142093 8.894523 27.814987 45.691933 0.247896 0.916312 0.083053 -0.004362 488350.000000 0 0 1
36.061903 8.003623 28.420287 46.607205 0.218401 0.915009 0.072038 -0.003777 329537.000000 0 0 1
-34.850730 8.566723 28.783887 46.005155 -0.241033 0.894811 0.066193 -0.005991 787719.000000 0 0 1
-34.003493 8.903123 27.637087 44.713664 -0.256081 0.904485 0.061533 -0.008718 491129.000000 0 0 1
-32.977343 9.763723 28.090487 44.406204 -0.287851 0.885916 0.084246 -0.009512 63582.400000 0 0 1
-32.103983 10.421723 26.990287 43.217515 -0.313892 0.896277 0.078992 -0.011000 -32189.600000 0 0 1
-31.232603 9.460423 26.456787 42.011150 -0.294117 0.889557 0.068023 -0.014975 -107425.000000 0 0 1
-30.400453 10.051423 25.496387 40.930238 -0.319319 0.898323 0.055360 -0.019480 -92559.100000 0 0 1
-29.704653 9.048123 24.546687 39.582506 -0.295674 0.901875 0.064604 -0.025207 85671.100000 0 0 1
-28.642743 9.548623 23.774787 38.429461 -0.321783 0.903760 0.055872 -0.026275 22126.800000 0 0 1
-28.077043 8.564423 22.894087 37.226454 -0.296068 0.908417 0.055208 -0.015985 -29756.600000 0 0 1
-26.934743 9.173623 22.068787 36.009264 -0.328265 0.911116 0.048977 -0.009081 -654129.000000 0 0 1
-25.855623 9.572923 22.925787 35.857298 -0.354596 0.877128 0.050140 -0.020110 2023340.000000 0 0 1
-24.630423 10.067223 22.266387 34.695803 -0.388011 0.874005 0.046489 -0.008289 2194150.000000 0 0 1
-23.979323 9.285123 21.035687 33.222305 -0.369435 0.885142 0.045309 -0.005326 -202818.000000 0 0 1
-24.813123 9.427923 19.846387 33.142961 -0.363110 0.928780 0.045871 -0.009867 683909.000000 0 0 1
-24.499823 8.585423 18.734587 32.014615 -0.337056 0.945684 0.049583 -0.013624 -262050.000000 0 0 1
-24.445623 7.019423 18.967687 31.727495 -0.279621 0.930003 0.050004 -0.004728 -117883.000000 0 0 1
-23.152223 6.597723 19.391787 30.912729 -0.277613 0.892705 0.052492 -0.008848 680907.000000 0 0 1
-22.905723 5.223623 19.742587 30.687589 -0.224214 0.871942 0.062351 -0.013331 -226215.000000 0 0 1
-22.977423 4.207423 18.584787 29.850606 -0.181105 0.898744 0.070648 -0.014258 297321.000000 0 0 1
-24.343023 3.950723 18.224687 30.664804 -0.160891 0.934377 0.080597 -0.014829 916330.000000 0 0 1
-24.509223 3.006223 17.206987 30.096840 -0.122047 0.962195 0.082666 -0.013696 -159309.000000 0 0 1
-24.251223 1.492623 17.477587 29.930182 -0.061471 0.947216 0.082092 -0.013190 27568.800000 0 0 1
-22.950423 1.064123 17.861087 29.101077 -0.046333 0.909982 0.067839 -0.013594 424147.000000 0 0 1
-23.042123 -0.182877 18.499387 29.549961 0.007936 0.894335 0.081425 -0.022577 -641696.000000 0 0 1
-21.685723 -0.866877 18.638187 28.607763 0.039953 0.861226 0.075849 -0.014293 -289927.000000 0 0 1
-20.768523 -0.304077 19.570687 28.538322 0.014640 0.815137 0.068627 -0.016999 -136560.000000 0 0 1
-19.781023 -1.272977 19.817187 28.029096 0.064265 0.785518 0.058698 -0.008443 -133534.000000 0 0 1
-18.731823 -0.723677 20.826687 28.020632 0.038614 0.732862 0.066557 -0.015022 431519.000000 0 0 1
-19.221823 -0.705677 22.167787 29.349399 0.036696 0.714675 0.070037 -0.021792 -850500.000000 0 0 1
-18.175923 -0.623477 23.035087 29.349074 0.034289 0.668317 0.069486 -0.024362 -1255190.000000 0 0 1
-18.563923 -0.960577 24.485287 30.742011 0.051698 0.649351 0.073070 -0.018737 535991.000000 0 0 1
-19.315923 0.154023 25.063187 31.643198 -0.007974 0.656627 0.059652 -0.021697 1147280.000000 0 0 1
-20.737723 0.023823 24.908787 32.411439 -0.001149 0.694274 0.083403 -0.017367 479422.000000 0 0 1
-21.611223 1.108923 25.598087 33.519200 -0.051267 0.701795 0.068800 -0.020633 60882.000000 0 0 1
-21.511523 2.429923 25.023687 33.088292 -0.112482 0.713203 0.065608 -0.017628 -185885.000000 0 0 1
-22.677923 2.757323 24.328687 33.373283 -0.120992 0.753956 0.069561 -0.016506 -704315.000000 0 0 1
-22.479423 3.809123 23.196887 32.525827 -0.167855 0.776767 0.078110 -0.022782 181855.000000 0 0 1
-21.705323 3.402023 22.052587 31.128948 -0.155472 0.783529 0.078396 -0.013185 1436610.000000 0 0 1
-20.283023 3.598523 22.194487 30.281110 -0.175588 0.748151 0.070014 -0.015921 519700.000000 0 0 1
-19.512123 2.960523 21.038887 28.846532 -0.150579 0.753442 0.061128 -0.017293 -398345.000000 0 0 1
-19.327023 3.625223 19.858087 27.946729 -0.185418 0.780489 0.060041 -0.011816 192306.000000 0 0 1
-18.932223 2.754923 18.800287 26.822928 -0.144501 0.794133 0.058153 -0.015545 -61793.400000 0 0 1
-18.606723 3.427223 17.466787 25.749653 -0.182151 0.825308 0.043303 -0.012879 92413.900000 0 0 1
-17.282223 3.932923 17.618487 24.991083 -0.223760 0.788386 0.047076 -0.017784 309626.000000 0 1 0
-16.931723 4.632823 16.406187 24.027261 -0.267081 0.819187 0.044020 -0.016951 546964.000000 0 1 0
-15.417123 5.047723 16.424587 23.085369 -0.316410 0.779206 0.041515 -0.012190 475551.000000 0 1 0
-15.081923 5.920923 17.464987 23.823256 -0.374097 0.747918 0.039164 -0.016525 188212.000000 0 1 0
-15.650023 7.275023 17.409587 24.514137 -0.435140 0.781035 0.038427 -0.019793 -182704.000000 0 1 0
-15.115723 8.220423 16.303987 23.704017 -0.498096 0.812321 0.020842 -0.010389 63528.600000 0 1 0
-15.557523 7.978623 14.951087 23.004998 -0.473872 0.863336 0.032608 -0.012228 -1887650.000000 0 1 0
-16.831823 8.231423 14.654987 23.787292 -0.454841 0.907034 0.028369 -0.009525 -2002080.000000 0 1 0
-17.280523 7.527123 13.346787 23.095688 -0.410801 0.954654 0.023252 -0.005758 -100246.000000 0 1 0
-17.142323 6.102223 13.416087 22.607250 -0.341987 0.935468 0.024626 -0.008613 862132.000000 0 1 0
-17.893123 5.448223 12.342787 22.409627 -0.295568 0.987497 0.030398 -0.010384 578208.000000 0 1 0
-17.574323 3.940023 12.410887 21.872602 -0.220545 0.967431 0.028232 -0.008548 147390.000000 0 1 0
-18.277523 3.258423 13.437087 22.918126 -0.176421 0.944302 0.035101 -0.009514 341836.000000 0 1 0
-17.937323 1.902823 13.431187 22.489221 -0.105687 0.930756 0.038150 -0.012694 142159.000000 0 1 0
-18.761823 1.100923 14.532187 23.757157 -0.058612 0.912592 0.051228 -0.013421 1132600.000000 0 1 0
-20.137423 1.065323 14.119887 24.617513 -0.052853 0.959938 0.065176 -0.008798 612638.000000 0 1 0
-21.026623 0.554523 15.082987 25.882868 -0.026366 0.948700 0.068051 -0.015875 -1207080.000000 0 0 1
-22.347923 0.235523 14.477687 26.628717 -0.010539 0.995972 0.074179 -0.015613 -1331910.000000 0 0 1
-22.302823 -0.830177 13.549587 26.109317 0.037206 1.025167 0.078357 -0.024117 527930.000000 0 0 1
-23.637123 -1.111677 13.149987 27.071601 0.046996 1.063577 0.091893 -0.028678 358245.000000 0 0 1
-23.627823 -2.327577 12.209287 26.697534 0.098193 1.095818 0.089135 -0.033041 -142671.000000 0 0 1
-23.338723 -3.565577 12.867587 26.888364 0.151603 1.071787 0.084976 -0.026906 275286.000000 0 0 1
-23.093823 -4.606877 11.896787 26.383357 0.196901 1.103000 0.092969 -0.030432 -182245.000000 0 0 1
-23.068823 -6.011477 12.531287 26.932167 0.254920 1.086833 0.095400 -0.029534 80901.400000 0 0 1
-24.263823 -6.282477 13.232387 28.342525 0.253360 1.085044 0.079102 -0.023862 192716.000000 0 0 1
-24.314623 -7.628177 13.754787 28.958317 0.304003 1.075849 0.085798 -0.031876 -137081.000000 0 0 1
-25.385443 -7.860577 14.832687 30.433830 0.300285 1.061715 0.086445 -0.020645 209700.000000 0 0 1
-26.703783 -7.455077 14.481787 31.279264 0.272245 1.089438 0.076236 -0.027926 176165.000000 0 0 1
-27.572533 -7.893177 15.478087 32.590152 0.278813 1.075910 0.074883 -0.020028 579341.000000 0 0 1
-29.098223 -7.420377 15.353187 33.726680 0.249690 1.098173 0.074475 -0.033453 1561030.000000 0 0 1
-30.001093 -8.113777 14.507387 34.298152 0.264131 1.134066 0.070137 -0.026840 544392.000000 0 0 1
-30.106193 -9.509677 14.647987 34.804890 0.305953 1.136403 0.066930 -0.029040 -749889.000000 0 0 1
-30.491073 -10.141177 16.051987 35.919567 0.321086 1.107514 0.066930 -0.025907 -962047.000000 0 0 1
-29.431923 -10.086577 16.928987 35.419878 0.330165 1.072475 0.070905 -0.011339 -546977.000000 0 0 1
-29.649713 -10.787777 18.093587 36.371136 0.348952 1.050115 0.078101 0.000277 839896.000000 0 0 1
-28.315793 -10.877277 18.952087 35.767037 0.366761 1.012342 0.081580 0.005184 1297530.000000 0 0 1
-27.481643 -11.966677 18.539387 35.244162 0.410682 1.016874 0.075403 0.004265 836127.000000 0 0 1
-26.238713 -11.986077 19.254987 34.682714 0.428502 0.982223 0.063378 0.001785 397722.000000 0 0 1
-25.168233 -12.952777 18.777187 33.967590 0.475297 0.985079 0.061218 0.002106 -287839.000000 0 0 1
-24.950523 -12.631777 17.422687 32.949058 0.468653 1.013638 0.050863 0.000496 699725.000000 0 0 1
-23.605123 -13.015477 17.115187 31.930144 0.503905 1.005081 0.053010 -0.007793 556503.000000 0 0 1
-23.223923 -12.892377 15.609387 30.809365 0.506776 1.039508 0.057379 -0.014654 -68531.000000 0 0 1
-23.184423 -11.558577 15.179987 30.025825 0.462486 1.040760 0.038638 -0.007835 18737.700000 0 0 1
-22.897523 -11.410277 13.816487 29.075528 0.462302 1.075613 0.032870 -0.017062 -533357.000000 0 0 1
-21.466423 -11.099277 13.383787 27.624754 0.477197 1.065022 0.046074 -0.025385 -713988.000000 0 0 1
-21.246223 -9.724677 13.530687 27.000941 0.429250 1.045905 0.069608 -0.025840 162362.000000 0 0 1
-19.973323 -9.200277 13.179887 25.637632 0.431657 1.030857 0.080778 -0.028927 213655.000000 0 0 1
-19.555723 -9.273177 11.710787 24.608142 0.442789 1.074820 0.092794 -0.026162 -565700.000000 0 1 0
-18.935723 -10.476477 11.298587 24.412625 0.505347 1.089625 0.080087 -0.035436 191590.000000 0 1 0
-18.607023 -10.352977 9.938487 23.498489 0.507745 1.134107 0.089739 -0.034778 -1480250.000000 0 1 0
-18.094123 -11.710177 9.457487 23.536559 0.574391 1.157292 0.076673 -0.025898 1378510.000000 0 1 0
-16.652623 -11.901677 9.546087 22.585118 0.620526 1.134405 0.079759 -0.038135 1776420.000000 0 1 0
-16.084723 -11.719177 10.870587 22.676576 0.629658 1.070854 0.075104 -0.034125 -1349930.000000 0 1 0
-14.641223 -12.209777 11.004287 22.012233 0.695091 1.047294 0.072408 -0.026297 -315616.000000 0 1 0
-14.365623 -13.557877 10.852487 22.538049 0.756479 1.068410 0.059314 -0.028732 -207112.000000 0 1 0
-12.997723 -13.773177 11.078587 21.940290 0.814356 1.041481 0.069182 -0.022631 -293559.000000 0 1 0
-12.543023 -15.239477 10.784687 22.491744 0.882151 1.070717 0.068015 -0.028635 -217927.000000 0 1 0
-12.593123 -15.709977 9.454287 22.243509 0.895080 1.131795 0.045650 -0.029610 1368.100000 0 1 0
-12.713923 -17.129177 9.510487 23.355982 0.932282 1.151413 0.035411 -0.019845 -212091.000000 0 1 0
-13.163823 -17.930377 8.315587 23.747287 0.937508 1.213044 0.019031 -0.012743 -218166.000000 0 1 0
-12.337123 -17.752277 7.160587 22.773273 0.963461 1.250941 0.031795 -0.018160 299931.000000 0 1 0
-12.781923 -18.593877 6.093987 23.371917 0.968559 1.307008 0.025661 -0.004391 -194578.000000 0 1 0
-11.725523 -18.520677 5.003987 22.484289 1.006390 1.346362 0.016713 -0.002091 -281797.000000 0 1 0
-12.122323 -19.176477 3.810987 23.004600 1.007075 1.404367 0.030545 -0.009208 626367.000000 0 1 0
-11.064723 -19.202577 2.828387 22.342042 1.048053 1.443861 0.016873 -0.010352 414960.000000 0 1 0
-11.253123 -20.040577 1.544687 23.035702 1.059154 1.503690 0.023381 -0.009143 -232667.000000 0 1 0
-11.199523 -21.429777 1.765887 24.244237 1.089221 1.497894 0.022123 -0.012484 -282914.000000 0 1 0
-11.519123 -22.276377 0.722387 25.088823 1.093562 1.541999 0.026411 -0.009569 -69948.500000 0 0 1
-10.542123 -22.285577 -0.497813 24.658287 1.128943 1.590986 0.030782 -0.005651 41090.000000 0 1 0
-10.485123 -21.164877 -1.260213 23.653287 1.110834 1.624100 0.032991 -0.018200 -499538.000000 0 1 0
-11.330123 -21.131277 -2.362313 24.093217 1.078627 1.669003 0.042312 -0.017351 -419786.000000 0 1 0
-12.586023 -20.276277 -2.164713 23.962917 1.015276 1.661256 0.052253 -0.016070 -263205.000000 0 1 0
-13.480323 -20.783977 -1.195113 24.801635 0.995411 1.619002 0.056446 -0.006928 -210025.000000 0 1 0
-14.551423 -19.890377 -0.986113 24.664619 0.939188 1.610788 0.071551 -0.001800 176447.000000 0 1 0
26.496077 -20.139577 -3.915013 33.510774 -0.649932 1.687892 0.068677 -0.042189 260136.000000 0 0 1
25.298677 -20.159277 -3.146813 32.501107 -0.672818 1.667770 0.081640 -0.045189 391735.000000 0 0 1
25.315577 -21.297377 -2.380713 33.168125 -0.699407 1.642635 0.060772 -0.041319 -258678.000000 0 0 1
23.937177 -21.587077 -1.734513 32.280007 -0.733821 1.624556 0.054135 -0.035108 128599.000000 0 0 1
22.941177 -21.813477 -2.727913 31.773682 -0.760206 1.656757 0.067147 -0.037229 -543847.000000 0 0 1
21.852477 -22.407377 -2.121313 31.370707 -0.797935 1.638469 0.067452 -0.030224 -1272540.000000 0 0 1
20.813377 -22.973377 -3.024813 31.146785 -0.834688 1.668064 0.071178 -0.034639 -813941.000000 0 0 1
20.157277 -22.035577 -3.845913 30.111020 -0.829886 1.698871 0.071354 -0.041286 -407464.000000 0 0 1
19.222177 -22.781677 -4.602713 30.160933 -0.869938 1.724000 0.076338 -0.036787 115731.000000 0 0 1
18.099277 -21.891177 -5.234213 28.882598 -0.879936 1.753027 0.066277 -0.026904 423307.000000 0 0 1
17.049377 -21.444977 -4.368513 27.742606 -0.899094 1.728920 0.064318 -0.021883 481435.000000 0 0 1
17.430477 -20.667677 -3.206913 27.226066 -0.870165 1.688859 0.054582 -0.027433 -958973.000000 0 0 1
16.279777 -20.210577 -2.312213 26.054652 -0.892706 1.659658 0.055411 -0.009018 -117065.000000 0 0 1
15.676177 -21.255977 -1.532813 26.455786 -0.935347 1.628767 0.055576 -0.014947 270837.000000 0 0 1
14.794177 -20.773377 -0.552213 25.508936 -0.951949 1.592446 0.048893 -0.002746 -374404.000000 0 0 1
14.643477 -21.527077 0.770187 26.046874 -0.973459 1.541223 0.060449 -0.002685 -48486.000000 0 0 1
13.895577 -22.718577 0.633487 26.638733 -1.021862 1.547013 0.050509 0.003245 387895.000000 0 0 1
13.054977 -22.809777 1.833387 26.345392 -1.050962 1.501150 0.046409 0.000575 652529.000000 0 0 1
12.107477 -24.029077 1.852887 26.970738 -1.104059 1.502042 0.037818 0.002278 52526.100000 0 0 1
12.781377 -25.230207 2.094987 28.360464 -1.101890 1.496859 0.031147 -0.002916 -78386.700000 0 0 1
11.942177 -26.321907 1.837487 28.962644 -1.144872 1.507310 0.024389 0.001518 -114141.000000 0 0 1
12.474977 -27.679547 2.310787 30.448680 -1.147366 1.494832 0.019206 0.004098 -104836.000000 0 0 1
12.607177 -27.735187 3.724987 30.692948 -1.144161 1.449133 0.033999 -0.005017 109696.000000 0 0 1
12.503077 -29.044367 4.157687 31.893394 -1.164292 1.440062 0.031952 -0.007474 -223493.000000 0 0 1
12.726077 -29.253127 5.687587 32.404431 -1.160458 1.394364 0.049545 -0.000235 -221794.000000 0 0 1
12.238677 -30.435807 6.216387 33.388127 -1.188469 1.383518 0.025775 -0.015691 -336995.000000 0 0 1
12.458877 -30.511667 7.601887 33.822687 -1.183128 1.344103 0.034095 -0.008745 -77445.300000 0 0 1
11.706277 -31.679847 8.202187 34.755223 -1.216840 1.332550 0.020202 -0.009385 -156541.000000 0 0 1
11.668477 -31.635377 9.598787 35.058339 -1.217435 1.293460 0.014834 -0.002590 -87563.100000 0 0 1
10.804377 -32.666257 10.030187 35.838855 -1.251372 1.287139 0.021974 -0.000615 -26222.300000 0 0 1
10.825177 -32.926317 11.574987 36.541855 -1.253159 1.248485 0.020789 -0.001250 -491400.000000 0 0 1
11.945377 -33.667127 11.948387 37.668706 -1.229844 1.248024 0.024407 -0.006640 -290643.000000 0 0 1
11.888077 -34.057307 13.315287 38.451572 -1.234958 1.217186 0.032326 -0.003493 147068.000000 0 0 1
10.840977 33.508677 13.727587 37.799535 1.257897 1.199130 0.032773 0.001484 288368.000000 0 0 1
11.125377 32.249158 13.178387 36.571192 1.238599 1.202154 0.040325 -0.004083 -111954.000000 0 0 1
9.935977 31.532148 13.330087 35.646756 1.265539 1.187532 0.033070 -0.002755 -122196.000000 0 0 1
9.847577 30.469938 12.165187 34.254688 1.258202 1.207733 0.033561 -0.005311 -148969.000000 0 0 1
9.512977 30.920758 10.859187 34.124946 1.272330 1.246947 0.009640 0.000854 747947.000000 0 0 1
10.550677 31.730298 10.215587 34.964079 1.249786 1.274297 0.017822 -0.007219 802179.000000 0 0 1
10.232377 32.066348 8.763887 34.781575 1.261910 1.316082 0.011876 -0.006550 476120.000000 0 0 1
9.295377 33.145914 8.573787 35.476266 1.297381 1.326703 0.012915 -0.004066 -89978.700000 0 0 1
8.787777 33.168718 7.339487 35.089271 1.311805 1.360074 0.005778 -0.004855 -251624.000000 0 0 1
8.913277 -34.215970 6.441687 35.939873 -1.315960 1.390587 0.007478 0.002764 150155.000000 0 0 1
8.262077 -33.092497 7.025587 34.824333 -1.326132 1.367659 0.013760 0.006246 169632.000000 0 0 1
8.645377 -31.908237 6.302187 33.654059 -1.306204 1.382420 0.027519 -0.007863 -23349.200000 0 0 1
7.936677 -30.661087 6.841187 32.402082 -1.317504 1.358061 0.016211 -0.007226 -223086.000000 0 0 1
8.272777 -30.327817 8.149187 32.474984 -1.304497 1.317148 0.027908 0.000277 -217216.000000 0 0 1
8.089877 -28.984507 8.536987 31.279832 -1.298613 1.294366 0.046416 0.001619 -366633.000000 0 0 1
9.205477 -28.047027 8.065387 30.601095 -1.253659 1.304080 0.048577 -0.011622 -183601.000000 0 0 1
9.691577 -27.165227 9.090787 30.241009 -1.228108 1.265463 0.056565 -0.005103 114144.000000 0 0 1
10.457577 -26.050367 8.659987 29.376486 -1.189052 1.271557 0.043268 -0.014502 44272.200000 0 0 1
9.766977 -25.007877 7.711487 27.933041 -1.198458 1.291093 0.056033 -0.014671 -299544.000000 0 0 1
9.409177 -25.483247 6.450687 27.920241 -1.217094 1.337650 0.055087 -0.012743 -235878.000000 0 0 1
8.681877 -24.509377 5.722087 26.623802 -1.230361 1.354183 0.061618 -0.013967 120310.000000 0 0 1
8.374177 -24.945377 4.293387 26.661430 -1.246917 1.409058 0.054117 -0.008157 759734.000000 0 0 1
7.380077 -25.978867 4.092087 27.315055 -1.294008 1.420420 0.044689 -0.010460 376647.000000 0 0 1
7.888877 -27.293857 4.304387 28.735288 -1.289429 1.420436 0.035384 -0.004212 -39797.400000 0 0 1
6.985577 -28.442187 3.796687 29.532543 -1.329957 1.441880 0.034297 -0.009174 -1199300.000000 0 0 1
5.813177 -28.531197 4.493987 29.462148 -1.369799 1.417664 0.035191 -0.006841 -1271910.000000 0 0 1
4.865977 -29.398227 3.891887 30.051294 -1.406764 1.440923 0.033600 -0.002269 186223.000000 0 0 1
5.012977 -30.952607 4.026087 31.613339 -1.410234 1.443095 0.025732 0.000093 -495529.000000 0 0 1
6.014277 -31.463417 3.191387 32.191662 -1.381923 1.471496 0.026191 -0.006430 -314343.000000 0 0 1
6.101377 -32.883067 3.402187 33.616927 -1.387335 1.469418 0.014790 -0.002175 -264773.000000 0 0 1
7.188577 -33.611057 2.626387 34.471390 -1.360095 1.494532 0.011225 0.000865 -234798.000000 0 0 1
6.884277 -33.819217 1.276987 34.536407 -1.369979 1.533813 0.013106 -0.000410 -49670.100000 0 0 1
7.895377 33.978089 0.739187 34.891172 1.342481 1.549609 0.002827 0.000057 -41283.800000 0 0 1
7.405077 33.320447 -0.604813 34.138734 1.352112 1.588514 0.015055 0.000319 587924.000000 0 0 1
6.349477 32.358798 -0.495713 32.979591 1.377037 1.585828 0.005170 0.003503 319974.000000 0 0 1
5.072977 32.999692 -0.579613 33.392375 1.418262 1.588155 0.011951 -0.001023 413743.000000 0 0 1
3.939477 31.992898 -0.173113 32.234996 1.448277 1.576167 0.018063 -0.000387 191310.000000 0 0 1
3.874177 30.886838 -1.006813 31.145139 1.446017 1.603128 0.026038 -0.000228 525729.000000 0 0 1
2.751377 30.004258 -0.825413 30.141448 1.479353 1.598184 0.031252 -0.013640 474904.000000 0 0 1
2.558377 28.997018 -1.955613 29.175277 1.482795 1.637876 0.036167 -0.008975 -150401.000000 0 0 1
2.175377 29.641718 -3.132913 29.886098 1.497539 1.675818 0.052606 -0.017789 141310.000000 0 0 1
2.034477 28.680748 -4.183513 29.055571 1.499980 1.715282 0.058282 -0.028665 -206345.000000 0 0 1
1.787677 29.253238 -5.586813 29.835553 1.509762 1.759162 0.054597 -0.029557 751814.000000 0 0 1
0.380277 29.432088 -5.801613 30.000852 1.557877 1.765404 0.049999 -0.024108 704385.000000 0 0 1
0.072577 30.488198 -6.672513 31.209901 1.568416 1.786254 0.043811 -0.018533 -402925.000000 0 0 1
-0.027223 30.165728 -8.195213 31.259133 -1.569894 1.836067 0.040366 -0.024291 -731607.000000 0 0 1
-1.204323 29.457528 -8.469713 30.674621 -1.529936 1.850546 0.038828 -0.025352 -139681.000000 0 0 1
-1.387723 29.017328 -9.840213 30.671826 -1.523009 1.897394 0.036086 -0.021417 -62594.300000 0 0 1
-1.630823 30.138018 -10.890513 32.086804 -1.516737 1.917084 0.025756 -0.019320 -236973.000000 0 0 1
-0.416623 30.804228 -11.219713 32.786522 -1.557272 1.920059 0.032115 -0.015148 270628.000000 0 0 1
-0.454923 32.163018 -11.679813 34.221115 -1.556653 1.919100 0.020973 -0.017926 -313867.000000 0 0 1
-0.653123 33.215778 -10.594113 34.870471 -1.551136 1.879489 0.022019 -0.023080 -211913.000000 0 0 1
0.513277 33.489871 -9.864213 34.916151 1.555471 1.857208 0.033354 -0.029422 -274707.000000 0 0 1
0.258177 34.299205 -8.754413 35.399744 1.563269 1.820691 0.028820 -0.021588 -285074.000000 0 0 1
1.414677 -34.106152 -7.746113 35.003331 -1.529341 1.793940 0.037641 -0.024385 146096.000000 0 0 1
2.434677 -33.243967 -8.218513 34.331224 -1.497690 1.812533 0.046914 -0.016549 227619.000000 0 0 1
3.330577 -32.878917 -7.161713 33.814288 -1.469842 1.784208 0.053399 -0.019031 -1314740.000000 0 0 1
4.592477 -32.210347 -7.703813 33.435700 -1.429173 1.803292 0.039827 -0.012263 -685225.000000 0 0 1
5.460177 -32.898027 -8.527613 34.421126 -1.406323 1.821147 0.061747 -0.011177 -169250.000000 0 0 1
6.104577 -33.895987 -7.762513 35.305246 -1.392609 1.792476 0.062640 -0.005382 -1801760.000000 0 0 1
6.427477 33.325637 -8.402913 34.964546 1.380267 1.813499 0.060095 -0.009982 638986.000000 0 0 1
5.244877 32.550458 -8.643613 34.084499 1.411039 1.827190 0.055591 -0.007844 51693.000000 0 0 1
4.536377 32.931287 -9.780013 34.651076 1.433905 1.856927 0.062870 -0.013718 168571.000000 0 0 1
3.495877 31.760718 -10.021413 33.487208 1.461168 1.874714 0.056176 -0.022014 233866.000000 0 0 1
4.112877 30.548698 -10.387913 32.527641 1.436968 1.895847 0.058847 -0.023374 7999.830000 0 0 1
3.214677 29.475538 -10.625413 31.496681 1.462163 1.914897 0.041459 -0.019561 -38382.600000 0 0 1
3.733277 28.453318 -11.628113 30.963554 1.440334 1.955778 0.039850 -0.012821 -280698.000000 0 0 1
3.730877 28.841848 -12.983513 31.848756 1.442154 1.990688 0.037183 -0.008046 292186.000000 0 0 1
4.978277 28.713588 -13.653013 32.181643 1.399126 2.008928 0.049814 -0.017614 194224.000000 0 0 1
4.840277 29.334578 -15.067013 33.331076 1.407267 2.039848 0.050992 -0.012934 765105.000000 0 0 1
3.872377 28.580838 -15.856713 32.913446 1.436128 2.073470 0.031384 -0.007423 735502.000000 0 0 1
3.612877 29.186968 -17.104413 34.021948 1.447639 2.097569 0.059871 -0.008405 -306163.000000 0 0 1
2.694277 28.316128 -17.963813 33.641653 1.475932 2.134092 0.045432 -0.009424 -607771.000000 0 0 1
3.124077 27.077488 -18.378913 32.874529 1.455929 2.164051 0.058698 -0.000023 -139131.000000 0 0 1
2.291877 26.658068 -19.420713 33.061600 1.485034 2.198651 0.038210 -0.008301 -84673.100000 0 0 1
3.117977 25.654278 -20.223313 32.815334 1.449851 2.234802 0.053400 -0.009156 188909.000000 0 0 1
3.220277 24.487978 -19.451213 31.438526 1.440042 2.237891 0.042073 -0.013235 -285743.000000 0 0 1
3.935677 23.573728 -20.187513 31.284915 1.405370 2.272185 0.051333 -0.003338 -390830.000000 0 0 1
4.546877 22.396028 -19.403113 29.978942 1.370497 2.274734 0.058933 -0.005603 -294789.000000 0 0 1
3.670477 21.434628 -18.900313 28.812107 1.401201 2.286283 0.054250 0.000514 178916.000000 0 0 1
4.448677 20.422528 -18.192913 27.710151 1.356315 2.287023 0.046791 0.006770 657630.000000 0 0 1
3.516377 19.264728 -17.849813 26.497367 1.390255 2.309926 0.045414 -0.003846 66672.600000 0 0 1
2.753177 19.466528 -16.682613 25.784400 1.430297 2.274445 0.038850 -0.008767 5773.120000 0 0 1
1.810277 18.412428 -16.421113 24.737574 1.472793 2.296701 0.028848 -0.003888 408913.000000 0 1 0
2.287177 17.214128 -15.536113 23.300820 1.438704 2.300653 0.020340 0.002012 630578.000000 0 1 0
3.265077 16.249828 -16.041313 23.066022 1.372507 2.339845 0.019034 -0.009907 537604.000000 0 1 0
2.781277 15.211528 -16.956013 22.948474 1.389954 2.402193 0.027781 -0.014999 18208.100000 0 1 0
2.718677 15.550328 -18.478113 24.303180 1.397715 2.434597 0.030000 -0.014314 -164176.000000 0 1 0
4.011377 15.465328 -19.069213 24.877749 1.317010 2.444196 0.044450 -0.012978 155508.000000 0 1 0
4.000277 16.255728 -20.225813 26.255179 1.329507 2.450194 0.050517 -0.013716 -297855.000000 0 0 1
4.417877 15.404628 -21.426013 26.756200 1.291503 2.499404 0.049967 -0.017094 65641.200000 0 0 1
3.568077 14.316328 -21.738113 26.272304 1.326541 2.545286 0.048940 -0.015174 104684.000000 0 0 1
2.346577 14.725028 -22.340713 26.859641 1.412765 2.553063 0.063999 -0.026752 183038.000000 0 0 1
1.521777 13.570828 -22.949513 26.705118 1.459127 2.604828 0.072144 -0.018215 221835.000000 0 0 1
0.858077 12.700928 -22.016613 25.431892 1.503339 2.617361 0.057052 -0.006341 -447825.000000 0 0 1
-0.130223 12.036028 -22.695213 25.689601 -1.559977 2.653950 0.041489 0.001989 -713469.000000 0 0 1
-0.799723 10.930328 -21.852813 24.447026 -1.497761 2.676733 0.028788 0.004396 -633739.000000 0 1 0
-1.421323 11.434428 -20.691513 23.683433 -1.447129 2.633492 0.029507 -0.001998 -138315.000000 0 1 0
-1.693823 10.439228 -19.754513 22.407305 -1.409943 2.650060 0.015043 0.000825 532559.000000 0 1 0
-2.894723 9.471928 -19.999413 22.317557 -1.274200 2.681765 0.010771 -0.003654 179635.000000 0 1 0
-2.507223 8.444728 -20.879413 22.661630 -1.282188 2.742349 0.017548 -0.000351 263885.000000 0 1 0
-3.567623 7.481228 -21.011913 22.587545 -1.125818 2.765872 0.018015 0.000592 532546.000000 0 1 0
-3.155323 6.205828 -21.711413 22.800303 -1.100415 2.831294 0.021724 -0.006539 96714.000000 0 1 0
-2.363023 5.260828 -20.989113 21.767018 -1.148630 2.873441 0.022351 -0.007497 344342.000000 0 1 0
-2.016523 4.093728 -21.697013 22.171724 -1.113096 2.934289 0.028482 -0.006855 5477.720000 0 1 0
-1.151823 3.016528 -20.982113 21.229112 -1.206045 2.988900 0.024697 -0.008888 142331.000000 0 1 0
0.151277 3.353528 -20.553013 20.825354 1.525717 2.979692 0.023913 -0.019756 6219.280000 0 1 0
0.755977 2.208428 -19.984513 20.120373 1.240985 3.025317 0.023619 -0.015889 -343161.000000 0 1 0
2.283977 2.198728 -20.040013 20.289235 0.766383 2.984693 0.021110 -0.018900 -321537.000000 0 1 0
2.911077 1.845128 -21.276913 21.554255 0.564924 2.981001 0.033082 -0.016431 727515.000000 0 1 0
4.323177 1.962728 -21.025913 21.555305 0.426176 2.919508 0.052600 -0.021521 755702.000000 0 1 0
5.164877 1.177828 -22.056613 22.683858 0.224212 2.905881 0.053794 -0.019828 -212009.000000 0 1 0
6.565377 1.267228 -21.908913 22.906560 0.190672 2.845374 0.055379 -0.026748 -175242.000000 0 1 0
7.073677 0.637028 -23.029113 24.099435 0.089814 2.842442 0.049462 -0.023493 -603225.000000 0 1 0
8.605977 0.523528 -23.106113 24.662307 0.060758 2.784451 0.049066 -0.030191 -123727.000000 0 1 0
9.110177 1.801528 -23.439713 25.212318 0.195230 2.764375 0.051962 -0.030716 935860.000000 0 0 1
10.553977 1.797228 -23.398313 25.731255 0.168671 2.712478 0.050486 -0.025203 901853.000000 0 0 1
13.948077 -20.800577 22.819623 33.881382 -0.980102 0.831842 0.096267 -0.009047 -917683.000000 0 0 1
12.999977 -21.746277 23.177023 34.337652 -1.031994 0.829867 0.093474 -0.009020 308403.000000 0 0 1
11.624577 -21.364977 23.160423 33.585685 -1.072498 0.809871 0.083195 -0.022551 1006650.000000 0 0 1
10.964077 -21.267077 21.759223 32.341357 -1.094792 0.832811 0.085362 -0.021067 -455346.000000 0 0 1
11.448977 -20.162177 20.974723 31.265500 -1.054356 0.835431 0.082579 -0.019266 -91217.000000 0 0 1
10.681877 -20.039177 19.811023 30.135490 -1.081060 0.853435 0.096969 -0.017057 119317.000000 0 0 1
10.964277 -18.713977 19.024323 28.850532 -1.040819 0.850763 0.090013 -0.019049 128950.000000 0 0 1
10.280077 -17.611177 19.572723 28.265262 -1.042430 0.805895 0.100937 -0.015113 -174547.000000 0 0 1
10.592477 -16.416877 18.799723 27.113539 -0.997790 0.804641 0.093694 -0.018018 -320634.000000 0 0 1
9.781877 -15.183477 19.217423 26.372949 -0.998478 0.754405 0.072293 -0.022224 -12850.800000 0 0 1
8.462477 -15.504377 18.803523 25.798676 -1.071174 0.754147 0.057458 -0.017753 -127866.000000 0 0 1
7.652277 -14.314477 18.887323 24.903666 -1.079867 0.709918 0.038826 -0.019986 215689.000000 0 1 0
6.191577 -14.459477 18.424923 24.225811 -1.166217 0.706638 0.013353 -0.019250 -208808.000000 0 1 0
6.095277 -14.890177 17.055823 23.447193 -1.182257 0.756250 0.020530 -0.016029 355334.000000 0 1 0
4.741377 -14.928577 16.598823 22.822445 -1.263268 0.756413 0.004769 -0.019640 470069.000000 0 1 0
4.004877 -16.286977 16.872023 23.790120 -1.329685 0.782429 -0.000426 -0.013515 482394.000000 0 1 0
2.675377 -16.312477 16.333223 23.238518 -1.408236 0.791398 0.012365 -0.013786 282419.000000 0 1 0
2.111877 -17.563877 16.591323 24.253284 -1.451131 0.817447 0.015077 -0.018097 -612642.000000 0 1 0
0.625477 -17.535377 16.244523 23.911612 -1.535142 0.823910 0.016556 -0.014090 -594107.000000 0 1 0
0.219677 -17.306977 14.906123 22.842334 -1.558104 0.859831 0.019782 -0.016622 -560393.000000 0 1 0
-1.067223 -17.824677 14.800223 23.192772 1.510994 0.878717 0.014585 -0.000904 -951199.000000 0 1 0
-1.613323 -17.861677 13.390623 22.381937 1.480718 0.929446 0.010009 -0.016517 932273.000000 0 1 0
-3.034923 -18.066377 13.258223 22.613828 1.404363 0.944327 0.008311 -0.017134 849136.000000 0 1 0
-3.291423 -19.182777 12.474723 23.117766 1.400869 1.000815 0.020949 -0.021903 288030.000000 0 1 0
-4.799423 -19.528577 12.380223 23.615031 1.329808 1.018960 0.016469 -0.018814 268760.000000 0 1 0
-5.496823 -19.981177 13.511223 24.738950 1.302337 0.993033 0.014163 -0.020904 -54177.200000 0 1 0
-5.563023 -21.388977 13.536023 25.916394 1.316346 1.021255 -0.017216 -0.004471 -185744.000000 0 0 1
-6.304823 -21.875277 14.794223 27.150462 1.290185 0.994529 -0.004563 -0.003681 -897146.000000 0 0 1
-7.670323 -21.694477 14.737923 27.325639 1.230953 1.001138 0.017494 -0.004011 -1156910.000000 0 0 1
-8.336123 -22.460977 15.708923 28.648852 1.215416 0.990435 0.004819 -0.003264 158539.000000 0 0 1
-9.841623 -22.118677 15.789123 28.903111 1.152153 0.992883 0.033484 -0.007104 122835.000000 0 0 1
-10.056123 -20.803577 16.173723 28.204676 1.120529 0.960096 0.020859 -0.009488 163977.000000 0 0 1
-11.425223 -20.424877 15.952723 28.323148 1.060782 0.972495 0.039300 -0.007746 872204.000000 0 0 1
-11.839923 -19.182477 16.833423 28.133882 1.017807 0.929378 0.036662 -0.002765 -62674.700000 0 0 1
-12.108223 -19.478777 18.200923 29.279778 1.014638 0.899986 0.036812 -0.001603 -63983.000000 0 0 1
-12.582023 -18.325377 18.866623 29.156067 0.969127 0.867034 0.031428 -0.008165 2426.760000 0 0 1
-12.965623 -18.573777 20.380923 30.470881 0.961373 0.838115 0.027374 -0.007045 -106399.000000 0 0 1
-14.236823 -19.184377 20.431323 31.435115 0.932367 0.863275 0.031322 -0.003964 -66555.800000 0 0 1
-14.547223 -19.903777 21.602923 32.779084 0.939646 0.851247 0.025194 0.001477 -419045.000000 0 0 1
-15.777723 -20.794877 21.519623 33.829834 0.921731 0.881345 0.040507 -0.002708 -1031330.000000 0 0 1
-15.728323 -21.866577 20.608523 33.915167 0.947244 0.917699 0.034587 -0.008921 692197.000000 0 0 1
-16.966723 -22.122277 19.923423 34.266713 0.916534 0.950321 0.048517 0.001357 693950.000000 0 0 1
-18.092723 -22.789377 20.736023 35.730729 0.899780 0.951648 0.047914 -0.001440 -524886.000000 0 0 1
-18.662823 -21.918877 21.656623 36.024262 0.865461 0.925835 0.054268 -0.000344 -106055.000000 0 0 1
-19.482023 -22.589577 22.627023 37.440892 0.859128 0.921859 0.071695 -0.001007 301050.000000 0 0 1
-20.042923 -21.689277 23.756653 37.901479 0.824828 0.893357 0.062083 0.005945 -126522.000000 0 0 1
-21.090023 -20.867377 23.319723 37.736534 0.780092 0.904649 0.060999 0.014379 -77434.500000 0 0 1
-21.120223 -19.630177 24.024553 37.531145 0.748849 0.876138 0.054912 0.002027 254640.000000 0 0 1
-22.149123 -18.625877 23.432863 37.237159 0.699205 0.890161 0.062186 0.000463 284951.000000 0 0 1
-21.721123 -18.036377 22.257823 35.951756 0.692982 0.903197 0.052740 0.005984 -262711.000000 0 0 1
-22.691023 -17.111577 21.834723 35.839137 0.646128 0.915691 0.053705 0.003497 -289642.000000 0 0 1
-22.433523 -16.495277 20.428123 34.534987 0.634024 0.937854 0.047925 0.009021 -499683.000000 0 0 1
-21.324523 -15.629277 20.408323 33.399240 0.632483 0.913421 0.059119 0.010206 -483686.000000 0 0 1
-21.129523 -15.255477 19.071423 32.294048 0.625338 0.939049 0.048855 0.001829 562828.000000 0 0 1
-19.994823 -14.190177 18.848923 30.926299 0.617201 0.915393 0.030155 -0.008619 498557.000000 0 0 1
-19.718223 -13.983977 17.498123 29.841988 0.616868 0.944239 0.026242 -0.008410 122505.000000 0 0 1
-18.821723 -12.896377 17.273223 28.617094 0.600714 0.922790 0.043445 -0.020884 -181149.000000 0 0 1
-18.486423 -12.865677 15.746523 27.481384 0.608005 0.960648 0.037442 -0.025508 56844.500000 0 0 1
-17.838023 -11.753877 15.172323 26.202063 0.582622 0.953232 0.043697 -0.024203 854336.000000 0 0 1
-16.464423 -11.550877 15.538123 25.415217 0.611776 0.913005 0.040371 -0.036043 453716.000000 0 0 1
-15.904423 -10.270677 14.904923 24.095523 0.573399 0.903867 0.045988 -0.035223 24240.800000 0 1 0
-16.462423 -9.113477 15.521823 24.392495 0.505597 0.881057 0.045353 -0.021909 167522.000000 0 1 0
-16.251023 -7.954077 14.700523 23.312410 0.455173 0.888486 0.042774 -0.014672 -448779.000000 0 1 0
-16.595823 -6.605177 15.438523 23.609272 0.378783 0.858045 0.064587 -0.007131 559377.000000 0 1 0
-15.811823 -6.226077 16.590523 23.749174 0.375116 0.797396 0.049145 -0.005675 410233.000000 0 1 0
-14.431823 -6.013877 16.327723 22.606167 0.394828 0.763720 0.045282 -0.010542 -101404.000000 0 1 0
-13.580023 -6.164477 17.617023 23.081969 0.426123 0.702487 0.036220 -0.009230 -8928.510000 0 1 0
-13.789223 -7.387177 18.307523 24.080666 0.491814 0.707086 0.037587 -0.017183 130830.000000 0 1 0
-13.118023 -8.536177 17.764023 23.675079 0.576882 0.722242 0.030013 -0.015150 -529972.000000 0 1 0
-13.241423 -9.793177 18.728323 24.939761 0.636803 0.721308 0.034003 -0.018399 -200939.000000 0 1 0
-14.518923 -10.336677 18.912923 25.987395 0.618698 0.755727 0.036876 -0.020826 -485442.000000 0 0 1
-15.318723 -9.545077 19.774423 26.773113 0.557231 0.739816 0.033709 -0.014337 -887505.000000 0 0 1
-16.693523 -10.216177 20.081123 28.040961 0.549185 0.772547 0.039205 -0.008638 1093810.000000 0 0 1
-17.701223 -10.274977 19.042923 27.956062 0.525933 0.821432 0.050236 -0.010644 708748.000000 0 0 1
-18.103523 -9.040077 18.512623 27.425859 0.463131 0.829823 0.052786 -0.009315 -955726.000000 0 0 1
-19.237923 -9.171277 17.486223 27.567699 0.444858 0.883692 0.068154 0.000320 405588.000000 0 0 1
-20.536623 -9.278677 18.071323 28.886320 0.424359 0.894894 0.062363 0.003104 -98334.700000 0 0 1
-21.495523 -9.245677 17.050123 28.952491 0.406200 0.941099 0.081607 -0.006239 106096.000000 0 0 1
-22.932523 -9.500277 17.589323 30.422692 0.392748 0.954319 0.077708 0.002076 295880.000000 0 0 1
-23.515623 -8.353577 18.196523 30.884952 0.341331 0.940764 0.081246 0.000259 1016110.000000 0 0 1
-24.888523 -8.524777 18.566023 32.199497 0.329994 0.956243 0.073231 0.006341 686520.000000 0 0 1
-25.595803 -7.328877 19.211823 32.832175 0.278870 0.945728 0.077370 0.001145 -166643.000000 0 0 1
-25.286663 -7.308377 20.569823 33.405768 0.281354 0.907450 0.078997 0.004205 568194.000000 0 0 1
-26.040273 -6.292877 21.254123 34.196986 0.237113 0.900114 0.073160 0.001921 -534440.000000 0 0 1
-26.182413 -6.420977 22.798723 35.306224 0.240494 0.868801 0.063538 0.001685 -301064.000000 0 0 1
-25.040013 -6.063177 23.490443 34.864958 0.237567 0.831518 0.061553 -0.002034 -796980.000000 0 0 1
-23.909423 -6.857677 23.390923 34.144158 0.279321 0.816105 0.063260 0.004947 -729740.000000 0 0 1
-22.906623 -6.668477 24.567553 34.245389 0.283286 0.770737 0.063334 0.001151 264390.000000 0 0 1
-22.376423 -5.366077 24.617883 33.697764 0.235365 0.751670 0.055116 -0.000223 -296450.000000 0 0 1
-21.522423 -5.108977 25.671643 33.887308 0.233066 0.711230 0.062278 -0.012296 -132159.000000 0 0 1
-21.038323 -3.648977 25.778363 33.473125 0.171736 0.691765 0.064572 -0.017682 732796.000000 0 0 1
-20.071923 -3.281777 26.814583 33.655223 0.162067 0.648909 0.051388 -0.017928 728002.000000 0 0 1
-20.511023 -3.377377 28.219503 35.049238 0.163197 0.634887 0.045767 -0.022525 -34873.600000 0 0 1
-21.386223 -2.225277 28.714553 35.872663 0.103679 0.642738 0.056120 -0.023857 1207270.000000 0 0 1
-22.671623 -2.177977 28.039823 36.124476 0.095772 0.682180 0.072673 -0.026458 481186.000000 0 0 1
-23.488223 -1.161277 28.559463 36.995785 0.049401 0.688869 0.056976 -0.018179 -23268.700000 0 0 1
-24.755923 -0.982177 27.697383 37.161343 0.039654 0.729770 0.057473 -0.017555 -670971.000000 0 0 1
-24.624823 -0.356677 26.383563 36.091572 0.014483 0.750985 0.061666 -0.016330 352129.000000 0 0 1
-25.783773 -0.300677 25.547863 36.298577 0.011661 0.790028 0.054724 -0.017226 167932.000000 0 0 1
-26.557413 -1.560277 25.138593 36.601633 0.058684 0.813697 0.048813 -0.013511 120150.000000 0 0 1
-27.391323 -2.122777 26.165753 37.939918 0.077344 0.809773 0.042718 -0.012160 53413.300000 0 0 1
-27.663033 -3.480477 25.972363 38.104078 0.125159 0.820827 0.031663 -0.001828 836524.000000 0 0 1
-26.452013 -4.461977 26.303563 37.569877 0.167109 0.795226 0.036647 -0.010491 1035540.000000 0 0 1
-26.070663 -4.534977 27.688163 38.299868 0.172226 0.762761 0.040795 -0.017168 -224978.000000 0 0 1
-25.125733 -5.542677 27.887163 37.943611 0.217120 0.745184 0.057614 -0.019307 -188609.000000 0 0 1
-25.176063 -6.034077 29.336293 39.126236 0.235238 0.723058 0.048802 -0.018037 261057.000000 0 0 1
-26.391273 -6.688477 29.686563 40.280604 0.248209 0.742184 0.051567 -0.020729 400745.000000 0 0 1
-26.322863 -7.039777 31.077223 41.330925 0.261324 0.719839 0.071113 -0.013310 827333.000000 0 0 1
-27.741503 -7.563277 31.541143 42.680650 0.266165 0.739207 0.025394 -0.024965 776603.000000 0 0 1
-28.048083 -8.885577 31.079633 42.797103 0.306796 0.758005 0.027091 -0.027516 72747.000000 0 0 1
-29.315663 -9.258777 31.588563 44.079138 0.305916 0.771834 0.037056 -0.022194 364520.000000 0 0 1
-30.200963 -9.911977 30.464113 44.027351 0.317124 0.806629 0.025365 -0.027795 13911.300000 0 0 1
-29.738993 -11.236377 30.244083 43.879021 0.361252 0.810328 0.037105 -0.027693 393726.000000 0 0 1
-30.674103 -11.940877 29.438703 44.160190 0.371233 0.841112 0.022019 -0.022071 177355.000000 0 0 1
-30.084173 -13.155177 28.674753 43.593092 0.412225 0.852926 0.027743 -0.023083 146070.000000 0 0 1
-29.220753 -12.842577 27.585863 42.187250 0.414090 0.858080 0.038406 -0.019023 -38752.500000 0 0 1
-28.148043 -13.737377 27.539503 41.706739 0.454034 0.849561 0.045905 -0.014801 -50193.100000 0 0 1
-26.813673 -13.138177 26.993813 40.252338 0.455600 0.835759 0.061836 -0.016300 232545.000000 0 0 1
-25.953933 -12.388277 27.853063 40.035849 0.445338 0.801398 0.058149 -0.018040 159557.000000 0 0 1
-26.440563 -11.197977 28.432723 40.409378 0.400612 0.790321 0.057082 -0.015991 -829864.000000 0 0 1
-26.359253 -9.907677 27.560853 39.402702 0.359534 0.796146 0.068220 -0.010918 -371023.000000 0 0 1
-25.132483 -9.392577 27.128363 38.155082 0.357650 0.779873 0.062588 -0.007762 -421964.000000 0 0 1
-24.455923 -10.125877 26.097763 37.171478 0.392556 0.792467 0.064390 -0.006210 -81930.300000 0 0 1
-25.008223 -10.233877 24.614183 36.551354 0.388430 0.831979 0.063190 0.004851 -322722.000000 0 0 1
-26.310773 -10.746277 24.546543 37.553589 0.387758 0.858412 0.063862 -0.001005 -329143.000000 0 0 1
-26.848473 -10.796977 23.252823 37.122891 0.382354 0.893903 0.064978 0.005399 201979.000000 0 0 1
-28.177463 -11.602377 23.222623 38.312854 0.390604 0.919609 0.074281 -0.007306 -331330.000000 0 0 1
-29.358353 -11.111077 23.717663 39.343316 0.361804 0.923742 0.069240 -0.001428 -752360.000000 0 0 1
-29.486793 -11.078177 25.118653 40.288258 0.359384 0.897619 0.067604 -0.007129 -848414.000000 0 0 1
-30.922893 -10.901877 25.616633 41.608751 0.338945 0.907579 0.034207 -0.005055 -570403.000000 0 0 1
-31.455053 -9.653977 25.294533 41.502205 0.297787 0.915399 0.035021 -0.005724 -88618.200000 0 0 1
-32.779543 -9.340277 25.676113 42.673200 0.277586 0.925179 0.028170 0.001362 182328.000000 0 0 1
-33.360303 -9.394477 27.122533 44.009065 0.274498 0.906768 0.006310 0.001148 -545768.000000 0 0 1
-33.728873 -10.651177 27.548823 44.833270 0.305878 0.909079 0.014545 -0.010896 31113.800000 0 0 1
-34.392760 -10.540777 28.782693 46.069658 0.297393 0.895966 0.007311 -0.011463 -767936.000000 0 0 1
-34.921629 -11.833477 29.416013 47.168349 0.326715 0.897407 0.006298 -0.012636 -260687.000000 0 0 1
-36.034663 -12.437977 28.849693 47.806956 0.332363 0.922960 0.001640 -0.004279 96966.800000 0 0 1
34.996633 -11.960177 29.271243 47.165833 -0.329308 0.901285 -0.001056 -0.001284 286331.000000 0 0 1
33.802243 -12.488777 28.468093 45.923779 -0.353910 0.902183 0.007284 -0.004306 -231061.000000 0 0 1
33.908163 -11.950677 27.161333 45.059075 -0.338849 0.923798 0.006822 0.000606 625887.000000 0 0 1
33.004023 -12.627677 26.217393 44.000857 -0.365426 0.932487 0.010135 0.002928 640223.000000 0 0 1
32.957833 -12.005977 24.813133 42.965728 -0.349342 0.955121 0.010590 0.001847 268851.000000 0 0 1
32.367543 -10.686977 24.823363 42.167152 -0.318906 0.941360 0.026264 -0.009181 214414.000000 0 0 1
32.563883 -10.185077 23.532883 41.448026 -0.303133 0.967004 0.021485 -0.002361 -382637.000000 0 0 1
32.005203 -8.731877 23.396523 40.595270 -0.266345 0.956558 0.040949 0.009125 -477221.000000 0 0 1
30.611713 -8.730677 23.337523 39.470770 -0.277831 0.938175 0.051765 0.001300 -874888.000000 0 0 1
30.127893 -7.446377 23.115123 38.696865 -0.242303 0.930618 0.058789 0.009159 221730.000000 0 0 1
28.582073 -7.360477 23.056623 37.452896 -0.252044 0.907628 0.056519 0.014942 233416.000000 0 0 1
28.076733 -7.775377 21.806223 36.390532 -0.270163 0.928260 0.048140 0.016526 -744349.000000 0 0 1
26.688133 -7.870877 21.870423 35.390995 -0.286790 0.904644 0.050033 0.000659 -768879.000000 0 0 1
14.647777 -17.153277 26.751243 34.991732 -0.864022 0.700528 0.079410 -0.014680 97320.600000 0 0 1
14.108277 -18.481877 26.550903 35.292686 -0.918801 0.719241 0.085636 -0.010246 466261.000000 0 0 1
15.091877 -19.513877 26.511183 36.213243 -0.912492 0.749418 0.061121 -0.005808 -608215.000000 0 0 1
14.428377 -20.911277 26.409723 36.646051 -0.966826 0.766028 0.051518 -0.012154 -157152.000000 0 0 1
13.748077 -21.332477 27.571353 37.473507 -0.998321 0.744014 0.048502 -0.008031 1126570.000000 0 0 1
12.393077 -20.790277 27.537393 36.662406 -1.033250 0.721059 0.057215 -0.006128 -7755.200000 0 0 1
11.596277 -21.383477 28.659243 37.590942 -1.073883 0.703786 0.042020 0.000006 -734740.000000 0 0 1
11.852177 -20.871877 29.945063 38.377287 -1.054349 0.675682 0.042103 -0.011224 644234.000000 0 0 1
10.994577 -19.791677 30.493833 37.979798 -1.063729 0.638659 0.055219 -0.013548 273280.000000 0 0 1
11.087477 -18.408777 29.825733 36.761251 -1.028693 0.624362 0.059756 -0.012428 718393.000000 0 0 1
12.229777 -17.584277 30.116203 36.956189 -0.963100 0.618211 0.047706 -0.002231 349953.000000 0 0 1
11.920277 -16.241377 29.741503 35.922588 -0.937650 0.595384 0.048124 -0.004392 -75835.700000 0 0 1
12.919477 -15.178877 30.201173 36.185937 -0.865636 0.583371 0.048194 -0.001140 -110787.000000 0 0 1
12.554577 -13.932777 29.715143 35.138717 -0.837384 0.563010 0.062662 -0.001751 251389.000000 0 0 1
13.276577 -12.847477 30.340213 35.522580 -0.768974 0.546958 0.059510 0.001437 5524.250000 0 0 1
12.762377 -11.438777 29.917193 34.478433 -0.730761 0.520225 0.052968 -0.001289 35600.400000 0 0 1
13.160277 -11.008877 28.610743 33.361098 -0.696618 0.540196 0.073189 -0.006140 839774.000000 0 0 1
14.563777 -10.945877 28.317143 33.671597 -0.644513 0.571704 0.080395 -0.007667 238224.000000 0 0 1
14.807677 -10.072177 27.062473 32.451402 -0.597313 0.584590 0.075367 -0.011172 11173.800000 0 0 1
14.834477 -8.629477 27.317543 32.261087 -0.526868 0.560923 0.074357 -0.014923 855758.000000 0 0 1
16.028177 -8.254577 28.037623 33.333899 -0.475579 0.571456 0.075410 -0.021871 301279.000000 0 0 1
16.427177 -6.750877 27.916113 33.086793 -0.389917 0.566613 0.064816 -0.024531 -1253380.000000 0 0 1
17.721077 -6.596177 28.322683 34.054669 -0.356333 0.588665 0.069174 -0.032087 -1186560.000000 0 0 1
18.160777 -5.229277 28.069513 33.838687 -0.280359 0.592567 0.070396 -0.030426 889203.000000 0 0 1
19.683377 -5.111777 27.702173 34.365331 -0.254087 0.633251 0.071872 -0.027995 -50678.700000 0 0 1
20.047277 -5.909377 26.563533 33.799931 -0.286654 0.666638 0.070343 -0.024892 -59678.700000 0 0 1
21.311177 -5.728677 25.994583 34.098422 -0.262603 0.703876 0.058800 -0.016670 -536229.000000 0 0 1
22.574577 -5.956277 26.801443 35.544425 -0.257970 0.716625 0.067364 -0.024893 -1063790.000000 0 0 1
22.883477 -4.930877 27.729603 36.289089 -0.212233 0.701104 0.062977 -0.020868 746573.000000 0 0 1
24.077077 -5.274077 28.484813 37.668370 -0.215644 0.713311 0.074633 -0.036539 631775.000000 0 0 1
24.690277 -4.073377 29.188383 38.446897 -0.163506 0.708733 0.074484 -0.028512 -34226.300000 0 0 1
25.575577 -3.390677 28.271913 38.274115 -0.131806 0.739702 0.064102 -0.018711 354646.000000 0 0 1
25.788077 -2.051977 28.692073 38.632507 -0.079403 0.733714 0.054099 -0.021400 -484826.000000 0 0 1
26.853377 -1.329477 27.855853 38.714596 -0.049468 0.767688 0.055484 -0.017595 478312.000000 0 0 1
28.201177 -1.614577 28.244863 39.946033 -0.057190 0.785442 0.064804 -0.012171 389101.000000 0 0 1
29.063677 -1.139977 27.213373 39.831703 -0.039203 0.818648 0.055552 0.000637 -465952.000000 0 0 1
30.540477 -1.189177 27.555963 41.151743 -0.038918 0.837101 0.049571 -0.002633 -600407.000000 0 0 1
31.012777 0.028023 28.111823 41.857708 0.000904 0.834424 0.041339 0.002094 -538842.000000 0 0 1
32.266077 -0.099577 28.703203 43.185455 -0.003086 0.843771 0.045832 -0.002785 -330819.000000 0 0 1
32.620077 0.995123 29.761093 44.167662 0.030497 0.831429 0.044468 -0.009264 -112373.000000 0 0 1
32.740577 2.287323 29.175743 43.913565 0.069749 0.844119 0.032141 0.003984 28133.800000 0 0 1
32.954677 3.302723 30.124933 44.770864 0.099887 0.832716 0.036234 0.006071 -74330.900000 0 0 1
33.288977 4.648223 29.394333 44.651862 0.138735 0.852238 0.028564 0.007191 63666.600000 0 0 1
33.263377 5.816223 30.171963 45.283861 0.173104 0.841580 0.043695 0.010134 2001680.000000 0 0 1
31.904277 6.172823 30.636803 44.660949 0.191118 0.814838 0.027504 0.009128 1790150.000000 0 0 1
31.890977 7.184423 31.757263 45.576026 0.221582 0.799873 0.037370 0.002051 178815.000000 0 0 1
32.452777 6.573923 32.922847 46.693822 0.199864 0.788261 0.039002 0.005466 235942.000000 0 0 1
32.180177 7.401823 34.019393 47.409597 0.226080 0.770499 0.043366 -0.000593 -4492.340000 0 0 1
32.609877 6.784223 -33.133933 46.981776 0.205116 2.353573 0.048409 -0.001271 -282656.000000 0 0 1
31.790477 5.749223 -32.677913 45.951431 0.178914 2.361915 0.044370 -0.000914 -83770.900000 0 0 1
32.042277 4.465823 -33.207703 46.361650 0.138481 2.369246 0.054386 -0.008823 -99620.800000 0 0 1
31.966977 3.401623 -32.111743 45.438119 0.106012 2.355639 0.051268 -0.011867 -135379.000000 0 0 1
32.411077 2.148023 -32.553013 45.986852 0.066178 2.357284 0.050014 -0.017175 201141.000000 0 0 1
32.321177 1.241123 -31.497683 45.147568 0.038381 2.342923 0.042267 -0.015752 -139140.000000 0 0 1
32.978677 -0.118077 -31.869193 45.861231 -0.003580 2.339084 0.050957 -0.025260 -875632.000000 0 0 1
34.278577 -0.051477 -32.376763 47.151652 -0.001502 2.327670 0.065894 -0.013967 -621714.000000 0 0 1
34.897377 -1.286377 -32.211163 47.508322 -0.036845 2.315850 0.074375 -0.005595 18623.000000 0 0 1
35.691477 -1.496677 -30.908333 47.238190 -0.041909 2.284064 0.071549 -0.001045 -654112.000000 0 0 1
34.872277 -1.803077 -29.803853 45.908566 -0.051659 2.277329 0.059380 -0.002895 144435.000000 0 0 1
35.541577 -1.696077 -28.564003 45.628748 -0.047685 2.247221 0.064779 -0.000551 -42488.100000 0 0 1
34.513477 -1.436377 -27.438453 44.114759 -0.041594 2.242064 0.065816 -0.004442 -35603.400000 0 0 1
33.955077 -0.152577 -27.491043 43.688991 -0.004493 2.251377 0.044844 -0.000451 235059.000000 0 0 1
33.297077 0.148523 -26.259113 42.405877 0.004461 2.238562 0.050748 -0.005406 -218908.000000 0 0 1
32.735377 1.546923 -26.314393 42.029099 0.047220 2.247337 0.034512 -0.005450 730305.000000 0 0 1
31.692477 1.657123 -27.340173 41.888473 0.052240 2.281925 0.046428 -0.020496 745661.000000 0 0 1
30.974277 2.810223 -27.132053 41.272890 0.090480 2.288136 0.031604 -0.007383 -237833.000000 0 0 1
30.216877 3.245223 -28.402443 41.596753 0.106988 2.322390 0.049732 -0.010657 444424.000000 0 0 1
29.199777 4.234923 -28.199053 40.813578 0.144028 2.333562 0.038867 -0.008426 866551.000000 0 0 1
28.437877 4.616423 -29.372983 41.143606 0.160930 2.365868 0.030141 -0.013225 538385.000000 0 0 1
27.209677 5.510523 -29.080343 40.204461 0.199818 2.379382 0.027943 -0.011993 284168.000000 0 0 1
26.070677 4.828623 -28.556063 38.967224 0.183138 2.393257 0.040379 -0.012315 797849.000000 0 0 1
25.017877 5.791023 -28.317813 38.227328 0.227469 2.405018 0.040607 -0.014798 -30636.100000 0 0 1
23.711677 5.053023 -28.059063 37.082175 0.209962 2.429005 0.061727 -0.013387 -1051150.000000 0 0 1
22.979377 4.633123 -29.138493 37.397451 0.198954 2.464116 0.069250 -0.014528 318290.000000 0 0 1
21.727177 4.091923 -28.710793 36.237048 0.186152 2.485374 0.060383 -0.008575 83576.200000 0 0 1
20.796777 3.622823 -29.815283 36.531929 0.172470 2.525501 0.058879 -0.003097 -433904.000000 0 0 1
21.013777 2.332823 -30.341493 36.981442 0.110561 2.532997 0.072142 -0.014021 197318.000000 0 0 1
20.239377 2.067223 -31.514363 37.510810 0.101786 2.568339 0.053786 -0.012654 -98604.600000 0 0 1
20.536877 2.857223 -32.818083 38.819500 0.138239 2.578114 0.060500 -0.017932 -626949.000000 0 0 1
21.813177 2.726023 -33.350973 39.944127 0.124327 2.558821 0.072732 -0.022668 -736072.000000 0 0 1
21.961077 3.212423 33.824191 40.455957 0.145248 0.580708 0.072280 -0.033282 657565.000000 0 0 1
23.440677 3.117723 33.293511 40.836790 0.132229 0.617580 0.081599 -0.029600 920000.000000 0 0 1
23.767277 1.781923 32.907878 40.632341 0.074834 0.626825 0.086333 -0.034913 -243713.000000 0 0 1
25.162777 1.630623 32.837896 41.402315 0.064712 0.654846 0.069417 -0.035723 -327023.000000 0 0 1
25.409077 0.144523 32.548965 41.292581 0.005688 0.662833 0.058510 -0.036680 -274588.000000 0 0 1
24.883877 -0.476877 31.369813 40.043725 -0.019162 0.670696 0.060626 -0.037558 596921.000000 0 0 1
23.496577 -0.713177 31.167083 39.038248 -0.030343 0.646208 0.078109 -0.045813 529206.000000 0 0 1
22.771977 -1.783177 32.092803 39.391505 -0.078146 0.618561 0.079184 -0.044406 -171827.000000 0 0 1
23.151277 -3.122277 31.846853 39.496231 -0.134055 0.632882 0.070188 -0.048308 458767.000000 0 0 1
22.343077 -4.002677 32.629626 39.748296 -0.177266 0.607800 0.080907 -0.044006 -40500.100000 0 0 1
22.305577 -5.473077 32.066483 39.443031 -0.240615 0.621541 0.077013 -0.040455 244962.000000 0 0 1
23.486677 -6.210177 32.363713 40.467273 -0.258497 0.643917 0.061003 -0.029958 264541.000000 0 0 1
23.452777 -7.468377 31.761753 40.182314 -0.308290 0.659268 0.081405 -0.041107 -898847.000000 0 0 1
24.823077 -8.125177 31.704923 41.078045 -0.316332 0.689095 0.054128 -0.031299 -779193.000000 0 0 1
25.483077 -7.564077 30.611013 40.541788 -0.288544 0.715068 0.071558 -0.029427 -968159.000000 0 0 1
26.755677 -8.117377 30.472213 41.355941 -0.294563 0.742430 0.051415 -0.017461 -328127.000000 0 0 1
27.192877 -8.114377 29.001183 40.575415 -0.289989 0.774533 0.051320 -0.019215 21296.300000 0 0 1
26.248677 -8.808077 28.210113 39.527026 -0.323756 0.776042 0.049246 -0.014899 -207759.000000 0 0 1
26.560377 -8.660277 26.858053 38.753181 -0.315190 0.805079 0.059411 -0.010229 240485.000000 0 0 1
25.564777 -9.353877 25.890343 37.568108 -0.350759 0.810471 0.036003 -0.013415 1423520.000000 0 0 1
24.355377 -8.612777 25.474413 36.280987 -0.339904 0.792395 0.046474 -0.015779 1184210.000000 0 0 1
23.748777 -9.402677 24.480863 35.379760 -0.376986 0.806616 0.052249 -0.015450 135566.000000 0 0 1
22.326577 -8.977077 24.041563 34.015595 -0.382298 0.785859 0.043110 -0.010699 1312830.000000 0 0 1
21.281477 -9.215377 25.044583 34.132911 -0.408647 0.746990 0.041139 -0.004754 1021830.000000 0 0 1
19.986477 -8.861577 24.603503 32.913814 -0.417334 0.726486 0.052997 -0.000797 412117.000000 0 0 1
18.861977 -8.775377 25.657863 33.031914 -0.435456 0.681292 0.054883 -0.005619 -146004.000000 0 0 1
18.309877 -9.988077 26.053703 33.373773 -0.499383 0.675069 0.069730 -0.007143 330688.000000 0 0 1
19.180277 -10.771277 26.899443 34.748863 -0.511691 0.685488 0.060272 -0.010140 -25472.000000 0 0 1
18.374077 -11.748977 27.712343 35.264984 -0.568910 0.666756 0.062451 -0.008104 -297686.000000 0 0 1
17.917677 -12.834777 26.983673 34.840971 -0.621595 0.684902 0.072600 -0.005862 -57958.100000 0 0 1
17.115577 -13.780677 27.685203 35.345728 -0.677876 0.670890 0.064610 -0.004267 -245294.000000 0 0 1
17.766077 -14.998677 28.356383 36.669855 -0.701135 0.686785 0.070746 -0.001262 -174784.000000 0 0 1
16.840477 -15.771977 29.135063 37.164618 -0.752646 0.669799 0.060010 0.001528 490302.000000 0 0 1
17.429477 -16.857577 29.878923 38.480055 -0.768720 0.681739 0.061132 -0.000242 -127471.000000 0 0 1
17.863677 -18.117177 29.100223 38.654444 -0.792443 0.718445 0.063883 0.001882 238796.000000 0 0 1
19.071777 -17.986977 28.361373 38.621646 -0.756134 0.746104 0.062520 0.000473 379608.000000 0 0 1
19.238677 -19.080777 27.520683 38.621118 -0.781278 0.777626 0.051171 0.001102 69629.400000 0 0 1
20.336277 -18.786977 26.473833 38.306377 -0.745818 0.807776 0.034027 0.001284 -16778.500000 0 0 1
21.663677 -18.657077 26.922763 39.271320 -0.710969 0.815427 0.039136 0.001256 -330013.000000 0 0 1
22.422677 -18.168477 25.853823 38.746486 -0.680973 0.840278 0.031234 0.002794 -872002.000000 0 0 1
23.851577 -17.817677 26.211353 39.666136 -0.641593 0.848913 0.032529 0.005400 -596487.000000 0 0 1
24.630277 -18.989377 26.444553 40.823539 -0.656792 0.866133 0.033338 0.003269 463923.000000 0 0 1
25.978177 -18.645377 26.747513 41.688670 -0.622528 0.874212 0.017664 0.005693 127161.000000 0 0 1
26.801777 -19.867477 27.170103 43.026345 -0.637893 0.887341 0.010705 0.009374 -299190.000000 0 0 1
26.504477 -20.413077 28.432563 43.904347 -0.656288 0.866363 0.015161 0.008345 7665.860000 0 0 1
27.207877 -21.613977 28.613893 45.013192 -0.671318 0.881910 0.017150 0.010195 -172127.000000 0 0 1
26.419777 -22.669377 29.374503 45.549607 -0.709147 0.869916 0.025633 0.004551 -198642.000000 0 0 1
26.475477 -22.529977 30.823583 46.461210 -0.705060 0.845408 0.021140 -0.003277 -71877.200000 0 0 1
25.715477 -23.569377 31.419013 46.946306 -0.741881 0.837592 0.032159 -0.001901 -741528.000000 0 0 1
25.446677 -23.296977 32.887908 47.664421 -0.741325 0.809323 0.028504 -0.004164 -76211.400000 0 0 1
25.195077 -24.568177 33.442946 48.547068 -0.772801 0.810858 0.033739 -0.015677 -66142.300000 0 0 1
24.989477 -24.541277 -33.651333 48.571189 -0.776349 2.336196 0.044304 -0.015006 -263874.000000 0 0 1
24.787977 -25.914527 -32.985383 48.724142 -0.807613 2.314451 0.049011 -0.021201 1205010.000000 0 0 1
23.569577 -26.670907 -33.265543 48.718155 -0.847050 2.322407 0.075728 -0.027006 719065.000000 0 0 1
23.297577 -27.045047 33.826444 49.177637 -0.859700 0.812285 0.061796 -0.023841 -117262.000000 0 0 1
21.913777 -27.690307 33.648368 48.776833 -0.901329 0.809524 0.082844 -0.025549 103651.000000 0 0 1
21.859577 -29.077917 33.962090 49.767358 -0.926171 0.819732 0.079870 -0.031421 -733470.000000 0 0 1
20.528277 -29.460447 33.960559 49.423149 -0.962216 0.813253 0.084365 -0.031744 -973935.000000 0 0 1
20.197877 -30.949507 34.176888 50.337719 -0.992590 0.824462 0.069889 -0.036344 -597472.000000 0 0 1
20.713077 -31.588317 -33.242633 50.318247 -0.990411 2.292478 0.041215 -0.034077 1916470.000000 0 0 1
22.140577 -31.954407 -33.351183 51.220998 -0.964865 2.279860 0.045059 -0.025364 1250760.000000 0 0 1
22.738777 -32.544007 -32.137543 51.078234 -0.960938 2.251298 0.033732 -0.013618 -597197.000000 0 0 1
23.999677 -33.058067 -32.558033 52.238356 -0.942842 2.243700 0.029999 -0.001840 220707.000000 0 0 1
24.598277 -33.869297 -31.564653 52.426442 -0.942656 2.216894 0.025304 0.011014 414414.000000 0 0 1
25.479977 -33.149927 -30.470763 51.736006 -0.915479 2.200575 0.025732 0.002728 -151809.000000 0 0 1
25.803977 -33.836757 -29.342593 51.689062 -0.919279 2.174475 0.037662 0.017859 -435245.000000 0 0 1
26.644677 -33.008097 -28.583143 51.151435 -0.891671 2.163728 0.035704 0.015059 -274974.000000 0 0 1
26.967977 -33.357937 -27.124433 50.751932 -0.890929 2.134655 0.032704 0.006814 694340.000000 0 0 1
28.251177 -33.997177 -27.149223 51.875017 -0.877445 2.121584 0.035770 0.014843 447974.000000 0 0 1
28.983077 -33.782157 -25.941233 51.518933 -0.861710 2.098474 0.039342 0.002886 485589.000000 0 0 1
-26.042393 -30.957282 9.478187 41.549917 0.871412 1.340654 0.035249 0.002266 -263703.000000 0 0 1
-26.225393 -32.236182 10.043287 42.752898 0.887854 1.333665 0.021562 0.003102 -217010.000000 0 0 1
-25.227113 -32.490582 11.005987 42.581415 0.910585 1.309359 0.010293 0.009499 127132.000000 0 0 1
-25.566603 -33.729582 11.824187 43.944821 0.922203 1.298370 -0.004748 0.013124 -12468.500000 0 0 1
-25.530363 33.720523 11.043187 43.712985 -0.922756 1.315399 -0.007346 0.020759 156101.000000 0 0 1
-26.062693 32.577023 11.746587 43.341766 -0.896035 1.296341 -0.018089 0.021883 116666.000000 0 0 1
-26.060223 31.190323 11.064487 42.123561 -0.874767 1.305011 -0.016488 0.014688 372023.000000 0 0 1
-26.830753 31.156023 9.855587 42.281434 -0.859851 1.335537 0.000296 0.006141 123571.000000 0 0 1
-26.727963 29.881223 9.241787 41.142218 -0.841043 1.344233 0.007649 0.000356 -123552.000000 0 0 1
-26.066133 29.929923 7.830487 40.454420 -0.854290 1.376004 0.009597 0.005830 160599.000000 0 0 1
-24.657323 29.869823 7.861087 39.521976 -0.880703 1.370557 0.014329 0.006199 23172.500000 0 0 1
-24.045423 29.680023 6.578487 38.760323 -0.889894 1.400249 0.024104 0.013553 155962.000000 0 0 1
-22.710323 28.926423 6.714087 37.384164 -0.905203 1.390219 0.027564 0.013600 -171506.000000 0 0 1
-22.850423 27.538023 7.152287 36.491640 -0.878160 1.373521 0.042312 0.007206 231433.000000 0 0 1
-23.191723 26.667823 6.079287 35.860654 -0.855003 1.400448 0.024857 0.004349 -340727.000000 0 0 1
-23.335123 25.149423 6.343987 34.889363 -0.822801 1.387948 0.036681 0.003337 375654.000000 0 0 1
-24.554323 24.755023 7.004987 35.563968 -0.789468 1.372531 0.047029 -0.004622 742970.000000 0 0 1
-24.704423 23.363723 7.357387 34.789412 -0.757514 1.357704 0.056301 -0.022599 -31480.200000 0 0 1
-25.154593 22.494023 6.110887 34.293987 -0.729619 1.391648 0.053187 -0.034286 -713557.000000 0 0 1
-26.531083 22.520423 5.869387 35.291890 -0.703815 1.403710 0.054795 -0.037535 -446864.000000 0 0 1
-26.903673 22.133723 4.556687 35.135064 -0.688432 1.440739 0.050864 -0.035255 -124141.000000 0 0 1
-26.598623 23.052123 3.328487 35.354858 -0.714090 1.476512 0.041702 -0.033682 28086.700000 0 0 1
-25.277793 23.560723 3.192587 34.702552 -0.750255 1.478667 0.045781 -0.026170 319663.000000 0 0 1
-25.096163 24.168023 1.955787 34.896072 -0.766560 1.514721 0.027743 -0.010170 136231.000000 0 0 1
-23.655223 24.720523 1.821087 34.263540 -0.807416 1.517622 0.033221 0.004487 94180.300000 0 0 1
-23.371623 25.454523 0.663887 34.563076 -0.828032 1.551587 0.021139 0.002253 -662346.000000 0 0 1
-22.135923 26.096923 0.756387 34.228944 -0.867337 1.548697 0.033701 0.011727 -510331.000000 0 0 1
-21.556923 26.665523 -0.589313 34.294290 -0.890943 1.587981 0.041872 0.011175 110965.000000 0 0 1
-21.323123 25.691823 -1.607013 33.426454 -0.878054 1.618891 0.048668 0.003253 180935.000000 0 0 1
-20.186023 24.869423 -1.418313 32.062055 -0.888974 1.615047 0.052006 0.001447 12032.600000 0 0 1
-19.729423 23.915523 -2.564013 31.109107 -0.881018 1.653310 0.068251 -0.019162 555391.000000 0 0 1
-20.850823 23.064323 -2.863513 31.223701 -0.835760 1.662635 0.052169 -0.024206 655791.000000 0 0 1
-20.570723 22.133423 -3.864613 30.462736 -0.821975 1.698003 0.053155 -0.019340 -606173.000000 0 0 1
-21.812723 21.618423 -4.582113 31.050714 -0.780924 1.718906 0.054353 -0.023713 -525934.000000 0 0 1
-22.323523 22.591823 -5.433013 32.221853 -0.791372 1.740218 0.051108 -0.022055 -84903.900000 0 0 1
-23.576523 22.182423 -5.941913 32.912287 -0.754941 1.752330 0.056765 -0.015795 -139078.000000 0 0 1
-23.746223 22.659223 -7.378313 33.641685 -0.761978 1.791914 0.045242 -0.011117 -220641.000000 0 0 1
-22.841923 22.007323 -8.240213 32.771586 -0.766791 1.824968 0.036235 -0.012140 56785.500000 0 0 1
-22.278023 22.872023 -9.167113 33.218605 -0.798554 1.850388 0.040081 -0.024260 -343507.000000 0 0 1
-21.456723 22.254023 -10.248613 32.567876 -0.803637 1.890921 0.032552 -0.025870 385158.000000 0 0 1
-22.371423 21.705923 -11.214413 33.126888 -0.770301 1.916149 0.009271 -0.011786 1018140.000000 0 0 1
-21.578223 21.181823 -12.246813 32.623209 -0.776128 1.955627 0.008054 -0.004857 -166529.000000 0 0 1
-22.349923 21.166823 -13.535113 33.626667 -0.758218 1.985055 -0.011001 -0.004899 -146870.000000 0 0 1
-23.303723 20.141223 -13.596213 33.668819 -0.712733 1.986487 -0.017972 0.004948 74682.500000 0 0 1
-24.372023 20.350923 -14.499313 34.905381 -0.695728 1.999167 -0.008547 -0.004767 371266.000000 0 0 1
-25.222933 19.056223 -14.676413 34.853021 -0.647019 2.005448 0.022438 -0.008569 -220873.000000 0 0 1
-24.664823 18.107223 -15.510913 34.304715 -0.633268 2.039972 0.015379 -0.007294 -258573.000000 0 0 1
-25.448233 16.943023 -15.738013 34.385515 -0.587391 2.046195 0.038947 -0.017213 -289829.000000 0 0 1
-25.039973 16.020423 -16.958813 34.223611 -0.569167 2.089241 0.045355 -0.016072 220283.000000 0 0 1
-23.946623 15.144923 -16.718513 32.898604 -0.563935 2.103870 0.052284 -0.016046 191438.000000 0 0 1
-23.598523 14.389623 -17.863613 32.909880 -0.547571 2.144568 0.049821 -0.023050 -108729.000000 0 0 1
-22.690023 13.203723 -17.638313 31.627291 -0.527017 2.162400 0.052139 -0.017837 1442090.000000 0 0 1
-21.273823 13.413023 -17.361913 30.560117 -0.562540 2.175020 0.053995 -0.028934 1560540.000000 0 0 1
-20.557723 12.188723 -17.258713 29.479622 -0.535184 2.196226 0.057934 -0.014703 -605183.000000 0 0 1
-19.406023 12.279423 -16.299813 28.161354 -0.564163 2.188054 0.052143 -0.019994 -1172170.000000 0 0 1
-18.390923 13.097523 -16.788613 28.135897 -0.618849 2.210175 0.043847 -0.015338 -174576.000000 0 0 1
-17.315023 13.109323 -15.848213 26.885502 -0.648034 2.201200 0.046879 -0.003729 -302336.000000 0 0 1
-16.503423 14.367423 -15.992513 27.102514 -0.716317 2.201948 0.028734 -0.001656 -690500.000000 0 0 1
-15.883123 14.292823 -17.256813 27.465542 -0.732746 2.250172 0.047557 -0.009858 -232292.000000 0 0 1
-15.128523 15.430723 -17.544013 27.834723 -0.795287 2.252726 0.040649 0.001854 -519747.000000 0 0 1
-14.317023 15.341123 -18.835013 28.197250 -0.819915 2.302279 0.041021 -0.000660 6998.790000 0 0 1
-13.255723 14.437423 -18.671513 27.069887 -0.828043 2.331943 0.035794 0.000757 -786990.000000 0 0 1
-12.287323 14.441023 -19.652213 27.308074 -0.865802 2.374092 0.034175 0.001977 739800.000000 0 0 1
-11.224823 13.256023 -19.513013 26.124251 -0.868180 2.414231 0.023661 -0.006529 866340.000000 0 0 1
-11.798823 12.054423 -19.956513 26.130131 -0.796113 2.439877 0.031181 -0.007291 633832.000000 0 0 1
-10.918523 10.934323 -19.697213 25.035051 -0.786121 2.476380 0.020920 0.000026 262279.000000 0 0 1
-11.220523 9.815323 -20.705913 25.514222 -0.718697 2.517586 0.021253 -0.000285 107522.000000 0 0 1
-10.797623 9.995923 -22.074213 26.528815 -0.746862 2.553652 0.023727 0.003227 -19072.600000 0 0 1
-11.321423 9.002823 -22.943713 27.122673 -0.671809 2.579091 0.016072 0.016407 -28134.200000 0 0 1
-11.121123 9.271723 -24.452813 28.418028 -0.694957 2.606984 0.016321 0.007621 -607679.000000 0 0 1
-9.855323 9.003023 -24.964113 28.308810 -0.740234 2.650567 0.011269 0.010475 -629242.000000 0 0 1
-9.961223 8.501723 -26.308883 29.388137 -0.706512 2.679724 -0.004408 0.001701 -261477.000000 0 0 1
-9.775423 9.601923 -27.400153 30.635342 -0.776445 2.677877 0.023103 -0.005556 -31844.600000 0 0 1
-8.487223 10.159823 -27.582693 30.595096 -0.874857 2.694111 0.004524 -0.011329 273229.000000 0 0 1
-8.145623 11.100623 -26.547313 29.905431 -0.937745 2.663141 -0.005741 -0.003529 -230603.000000 0 0 1
-6.661323 11.521523 -26.631453 29.771681 -1.046588 2.678159 0.003806 -0.010474 -81719.800000 0 0 1
-6.266523 12.169723 -27.826453 31.011013 -1.095278 2.684430 -0.001424 -0.014413 -158846.000000 0 0 1
-4.898323 12.476323 -27.825143 30.885122 -1.196677 2.692690 0.028901 -0.025527 -303094.000000 0 0 1
-4.360323 12.811523 -29.226683 32.207864 -1.242750 2.707946 0.031983 -0.023250 1683480.000000 0 0 1
-2.900023 12.955023 -29.306933 32.173577 -1.350574 2.716258 0.051883 -0.034611 1767300.000000 0 0 1
-2.464923 12.949023 -30.646343 33.360926 -1.382691 2.735395 0.050697 -0.032324 780406.000000 0 0 1
-0.905523 12.779223 -30.654373 33.223773 -1.500056 2.745729 0.077229 -0.042070 606449.000000 0 0 1
-0.462523 11.528023 -30.050253 32.188926 -1.530696 2.775013 0.067230 -0.020803 722843.000000 0 0 1
0.935677 11.274623 -30.256613 32.302558 1.487996 2.783774 0.096048 -0.031093 859366.000000 0 0 1
1.390077 10.694523 -31.584973 33.375375 1.441541 2.812561 0.096473 -0.028389 -405735.000000 0 0 1
1.353677 11.621623 -32.646983 34.680255 1.454840 2.797467 0.100260 -0.041078 42886.000000 0 0 1
1.527977 10.887223 -33.847973 35.588644 1.431361 2.827539 0.103627 -0.034437 98427.000000 0 0 1
1.897377 11.836123 33.461946 35.544277 1.411845 0.343992 0.090617 -0.036869 -50956.900000 0 0 1
3.177977 12.465323 33.591035 35.970008 1.321169 0.365732 0.094661 -0.040863 231731.000000 0 0 1
3.486077 13.302123 32.477048 35.268369 1.314491 0.400529 0.087573 -0.034279 -373125.000000 0 0 1
5.002677 13.472523 32.448219 35.488344 1.215252 0.416935 0.075469 -0.029484 -510642.000000 0 0 1
5.712577 12.281923 32.141613 34.879256 1.135439 0.398843 0.083207 -0.036838 587551.000000 0 0 1
7.081577 12.534123 31.794183 34.901620 1.056522 0.425177 0.074125 -0.026824 1032570.000000 0 0 1
7.923177 11.269823 31.386933 34.277182 0.958031 0.413600 0.052364 -0.025980 327148.000000 0 0 1
7.357377 10.638523 30.215203 32.867426 0.965745 0.404484 0.060930 -0.028907 490924.000000 0 0 1
8.226877 9.630723 29.696923 32.285284 0.863850 0.403153 0.050103 -0.019872 393041.000000 0 0 1
7.453077 8.786623 28.677343 30.905390 0.867331 0.382036 0.045055 -0.014222 121920.000000 0 0 1
6.662477 7.747623 29.199193 30.935532 0.860561 0.336632 0.051577 -0.018101 -150501.000000 0 0 1
6.031877 7.098723 28.105333 29.608870 0.866469 0.320049 0.053093 -0.012032 41087.900000 0 0 1
5.267677 5.777923 28.431063 29.486576 0.831560 0.268373 0.060288 -0.016807 534774.000000 0 0 1
6.119677 4.694423 28.785833 29.801212 0.654358 0.261790 0.044235 -0.021582 44130.900000 0 0 1
5.527477 4.133123 29.918453 30.704227 0.642054 0.226723 0.047081 -0.024656 205936.000000 0 0 1
6.413077 3.063623 30.682843 31.495241 0.445661 0.227622 0.068750 -0.025116 321562.000000 0 0 1
6.340677 1.770123 30.090083 30.801796 0.272238 0.215387 0.052763 -0.013975 -253983.000000 0 0 1
7.046177 1.664723 28.866593 29.760714 0.232005 0.245745 0.033120 -0.009466 -274519.000000 0 0 1
6.987277 0.269723 28.275093 29.126889 0.038583 0.242438 0.018276 -0.009014 25004.900000 0 0 1
7.474077 -0.765477 29.088403 30.043019 -0.102062 0.252763 0.006312 -0.007824 -108712.000000 0 0 1
7.538377 -2.020577 28.417643 29.469854 -0.261883 0.268027 0.018072 -0.004273 -378453.000000 0 0 1
7.966877 -3.131377 29.459593 30.678075 -0.374500 0.282786 0.016348 -0.006733 -291273.000000 0 0 1
9.307177 -3.208977 29.860493 31.441535 -0.332022 0.318472 0.014389 -0.013110 -283240.000000 0 0 1
10.098177 -3.966777 28.932963 30.900240 -0.374302 0.358755 0.031791 -0.008143 82682.000000 0 0 1
11.611777 -3.732477 29.172363 31.619480 -0.311008 0.396010 0.030344 -0.012802 657570.000000 0 0 1
12.549077 -4.747677 28.778103 31.752149 -0.361686 0.436267 0.048786 -0.020333 460779.000000 0 0 1
12.740777 -5.867477 29.671043 32.819590 -0.431574 0.441609 0.060127 -0.023156 -602586.000000 0 0 1
12.160777 -7.207377 29.246453 32.483624 -0.535015 0.450236 0.069274 -0.018219 876909.000000 0 0 1
10.727977 -7.209277 29.398953 32.114819 -0.591691 0.414215 0.052395 -0.013345 769998.000000 0 0 1
10.075477 -8.425577 29.004503 31.839705 -0.696455 0.425206 0.052928 -0.012206 962540.000000 0 0 1
8.541677 -8.165877 28.845593 31.172264 -0.762909 0.388810 0.043306 -0.008117 421041.000000 0 0 1
7.792277 -7.865077 29.965183 31.945128 -0.790048 0.353923 0.050393 -0.016571 -1056540.000000 0 0 1
6.430577 -7.878977 29.717923 31.409960 -0.886274 0.329728 0.035844 -0.006569 -966861.000000 0 0 1
5.632777 -7.224077 30.815583 32.148338 -0.908542 0.288950 0.030824 -0.011779 -435981.000000 0 0 1
5.620977 -7.872077 32.088723 33.514939 -0.950710 0.292779 0.035806 -0.012771 252842.000000 0 0 1
4.881977 -7.200577 33.148200 34.270763 -0.974990 0.256656 0.035402 -0.010072 352559.000000 0 0 1
5.487977 -5.892077 33.751076 34.698265 -0.820893 0.234192 0.030362 -0.008755 -54449.900000 0 0 1
5.554877 -4.837677 32.880782 33.695780 -0.716496 0.220386 0.035782 -0.010504 124310.000000 0 0 1
6.377077 -3.797077 33.446611 34.260191 -0.537049 0.218365 0.034392 -0.008626 336981.000000 0 0 1
6.534877 -2.552877 32.561893 33.309138 -0.372424 0.212217 0.030469 -0.011155 -36977.700000 0 0 1
5.274977 -1.965677 32.340053 32.826336 -0.356702 0.172340 0.032444 -0.015135 35632.500000 0 0 1
5.512277 -0.790377 31.652353 32.138472 -0.142414 0.174150 0.033437 -0.016911 -628367.000000 0 0 1
4.210477 -0.137377 31.274143 31.556600 -0.032616 0.133897 0.042453 -0.022266 -426664.000000 0 0 1
3.391577 0.285923 32.354063 32.532598 0.084105 0.104813 0.043435 -0.022578 -561103.000000 0 0 1
2.134577 0.757423 31.982533 32.062635 0.340976 0.070701 0.048501 -0.024783 -97953.700000 0 0 1
1.179977 0.897523 33.208520 33.241596 0.650268 0.044613 0.049339 -0.025348 5212.970000 0 0 1
1.426377 1.989023 34.007590 34.095556 0.948670 0.071848 0.049634 -0.015261 83702.400000 0 0 1
0.660977 1.988923 -33.284283 33.350205 1.249950 3.078707 0.039776 -0.015122 -240134.000000 0 0 1
1.021077 3.150023 -32.381103 32.549978 1.257334 3.039684 0.042228 -0.008655 319882.000000 0 0 1
2.296377 2.938323 -31.780233 31.998286 0.907422 3.024783 0.031276 0.001486 245438.000000 0 0 1
2.795877 4.066523 -31.060003 31.449600 0.968485 2.984026 0.036953 -0.000498 -211691.000000 0 0 1
3.981377 3.708623 -30.173313 30.659975 0.749944 2.963183 0.046664 -0.000230 -453364.000000 0 0 1
3.576477 3.011023 -29.035673 29.409654 0.699771 2.981947 0.038678 0.000467 -661282.000000 0 0 1
4.602877 2.622023 -28.226863 28.719632 0.517803 2.956081 0.059674 -0.008781 -907039.000000 0 0 1
4.054077 2.013223 -26.882053 27.260473 0.460918 2.974776 0.041970 -0.010604 308239.000000 0 0 1
4.413977 0.650623 -26.663883 27.034592 0.146347 2.975799 0.048320 -0.006267 177996.000000 0 0 1
3.615177 0.197423 -25.621063 25.875613 0.054555 3.001210 0.055690 -0.009664 -279568.000000 0 0 1
3.971277 -1.307177 -25.398153 25.739967 -0.317988 2.978442 0.044068 -0.008902 388617.000000 0 0 1
5.212777 -1.388477 -24.710513 25.292496 -0.260316 2.926656 0.033801 -0.015627 72570.400000 0 0 1
5.711377 -2.696177 -24.809913 25.601191 -0.441056 2.892320 0.027965 -0.016608 -217007.000000 0 0 1
7.090077 -2.955677 -24.168113 25.359474 -0.394969 2.833854 0.036263 -0.026910 -25732.800000 0 0 1
8.122377 -2.546077 -25.018013 26.426435 -0.303763 2.813641 0.025306 -0.010091 -827204.000000 0 0 1
9.353577 -3.164077 -24.784113 26.678700 -0.326191 2.762457 0.018276 -0.011923 -180554.000000 0 0 1
-29.466453 -4.198877 17.610023 34.583455 0.141544 1.036537 0.089812 -0.021899 450769.000000 0 0 1
-30.841323 -3.922777 17.849123 35.849220 0.126513 1.049627 0.079674 -0.013733 293006.000000 0 0 1
-31.394943 -4.915477 18.710323 36.876558 0.155308 1.038658 0.079664 -0.013525 781590.000000 0 0 1
-32.880823 -4.641677 19.133623 38.324786 0.140240 1.048064 0.065159 -0.008560 344798.000000 0 0 1
-33.749593 -4.675977 18.060023 38.562472 0.137673 1.083395 0.055158 -0.011453 -893645.000000 0 0 1
-35.062220 -4.832377 18.491223 39.932900 0.136960 1.089355 0.047717 -0.000339 -517937.000000 0 0 1
-36.152393 -4.643977 17.419623 40.398086 0.127756 1.124975 0.043853 -0.004300 -276724.000000 0 0 1
34.829603 -4.766877 17.875223 39.437900 -0.136018 1.100388 0.038121 -0.000834 -508552.000000 0 0 1
34.022433 -4.559877 16.736123 38.189216 -0.133232 1.117154 0.022654 -0.007112 57002.900000 0 0 1
32.599873 -5.124077 17.007923 37.125158 -0.155905 1.094913 0.013809 0.004093 233052.000000 0 0 1
31.909003 -4.555377 18.111123 36.972269 -0.141803 1.058871 0.025857 0.002529 -1065820.000000 0 0 1
30.659093 -5.075277 18.238923 36.033273 -0.164051 1.040060 0.045478 -0.003183 -1484590.000000 0 0 1
29.906943 -4.630277 19.484623 35.993267 -0.153603 0.998765 0.054785 0.001458 -131185.000000 0 0 1
29.075643 -3.472277 19.371023 35.109632 -0.118859 0.986360 0.056250 0.001730 233494.000000 0 0 1
29.697463 -2.229377 19.066323 35.361478 -0.074929 1.001329 0.054700 -0.005887 -474671.000000 0 0 1
28.826743 -1.006377 19.320023 34.716814 -0.034897 0.980625 0.063996 -0.000094 -80325.600000 0 0 1
29.502793 0.211523 19.074523 35.132563 0.007169 0.996874 0.056442 -0.009319 253991.000000 0 0 1
28.647673 1.298223 19.418823 34.633297 0.045286 0.975568 0.075667 -0.013776 569712.000000 0 0 1
29.149623 2.611423 18.714323 34.738249 0.089348 1.001875 0.055197 -0.015142 58562.900000 0 0 1
28.782673 2.609523 17.348523 33.707909 0.090416 1.030171 0.063228 -0.013170 93249.000000 0 0 1
28.473373 3.914223 16.892123 33.337635 0.136613 1.039446 0.060614 -0.015332 155199.000000 0 0 1
28.221763 3.974623 15.373423 32.382212 0.139915 1.076117 0.059055 -0.012123 44028.700000 0 0 1
27.947813 5.277223 14.926523 32.120561 0.186627 1.087497 0.058169 -0.021468 52633.800000 0 0 1
27.413073 5.277123 13.626423 31.064513 0.190177 1.116701 0.061679 -0.018554 -138751.000000 0 0 1
26.918133 6.617823 13.110223 30.663650 0.241069 1.129016 0.060480 -0.005639 351979.000000 0 0 1
25.793333 7.088523 13.867323 30.130480 0.268199 1.092528 0.044240 -0.010074 655388.000000 0 0 1
25.119733 8.194123 13.285323 29.574388 0.315319 1.104907 0.051579 -0.024819 534694.000000 0 0 1
23.755633 8.616023 13.952623 28.865925 0.347938 1.066308 0.036962 -0.022348 671547.000000 0 0 1
22.641533 7.791723 13.707023 27.590441 0.331440 1.050885 0.043875 -0.016139 492116.000000 0 0 1
22.579933 6.635523 14.462623 27.623378 0.285822 1.019767 0.044712 -0.023565 -722103.000000 0 0 1
21.351733 5.777323 14.127523 26.246159 0.264251 1.002413 0.055323 -0.020194 -388073.000000 0 0 1
21.373433 5.406823 12.775523 25.480804 0.247771 1.045605 0.066483 -0.018944 1236750.000000 0 0 1
20.222033 4.574923 12.540823 24.230823 0.222489 1.026803 0.064991 -0.016837 427271.000000 0 1 0
19.853333 4.536823 11.022223 23.156576 0.224659 1.074711 0.065209 -0.017261 348094.000000 0 1 0
20.886633 3.859423 10.271423 23.593404 0.182719 1.120368 0.077187 -0.024314 1153390.000000 0 1 0
20.386033 3.558623 9.008423 22.570020 0.172820 1.160226 0.076280 -0.020829 -652083.000000 0 1 0
21.328933 2.823523 8.099723 22.989153 0.131615 1.210739 0.074657 -0.015795 -1430100.000000 0 1 0
21.562833 1.423723 8.459123 23.206454 0.065931 1.197683 0.074422 -0.020218 778157.000000 0 1 0
22.314733 0.657823 7.507623 23.553013 0.029471 1.246381 0.066452 -0.017512 689327.000000 0 1 0
23.858233 0.963323 7.459323 25.015690 0.040355 1.268005 0.071573 -0.013123 494960.000000 0 0 1
24.691933 0.635523 8.556123 26.140059 0.025732 1.237332 0.076570 -0.008634 500089.000000 0 0 1
24.548033 1.485723 9.702423 26.437668 0.060449 1.195023 0.083387 -0.016941 -692786.000000 0 0 1
25.352133 0.933623 10.873923 27.601531 0.036810 1.165859 0.076361 -0.016972 274403.000000 0 0 1
26.765633 1.006723 10.755023 28.863179 0.037595 1.188965 0.081703 -0.023623 579280.000000 0 0 1
27.439773 0.400623 11.862623 29.896880 0.014599 1.162785 0.076818 -0.019575 1118090.000000 0 0 1
29.005853 0.529723 11.954023 31.377042 0.018261 1.179940 0.076652 -0.019457 931196.000000 0 0 1
29.411443 1.814923 12.319723 31.939043 0.061630 1.174802 0.070913 -0.012213 -343336.000000 0 0 1
30.790313 1.711023 12.577623 33.304167 0.055513 1.183529 0.056508 -0.011824 -215787.000000 0 0 1
31.390593 3.056523 13.025323 34.122876 0.097065 1.179142 0.051602 -0.011545 -342036.000000 0 0 1
31.476943 4.053623 12.030723 33.940655 0.128076 1.208456 0.054698 -0.007799 51939.700000 0 0 1
32.206783 5.175223 12.442723 34.912478 0.159325 1.206387 0.044128 -0.015193 952248.000000 0 0 1
33.703563 5.137523 11.937923 36.122546 0.151268 1.233980 0.050562 -0.012542 755196.000000 0 0 1
34.537573 4.140723 12.516323 36.968201 0.119321 1.225400 0.050268 -0.012420 -78519.200000 0 0 1
35.821923 4.197223 11.972023 38.002055 0.116637 1.250302 0.057202 -0.008376 -714112.000000 0 0 1
-35.543633 3.170023 12.603023 37.844882 -0.088951 1.231294 0.078175 -0.003178 -911892.000000 0 0 1
-35.641340 1.805023 12.215123 37.719656 -0.050601 1.241011 0.072881 -0.002728 136875.000000 0 0 1
35.473863 1.100523 12.511523 37.631693 0.031014 1.231872 0.060962 -0.000286 -85561.800000 0 0 1
35.137443 0.857923 14.000623 37.833760 0.024411 1.191727 0.050989 -0.000331 -324915.000000 0 0 1
36.095853 0.002923 14.568423 38.924922 0.000081 1.187187 0.049617 -0.002436 106468.000000 0 0 1
35.846333 -0.137977 15.968023 39.242278 -0.003849 1.151729 0.043095 -0.009598 -463968.000000 0 0 1
-35.597359 -1.034077 16.866423 39.404537 0.029041 1.128482 0.042827 -0.008383 -290740.000000 0 0 1
-34.362218 -0.377877 17.099223 38.383437 0.010996 1.109081 0.055958 -0.004394 -466889.000000 0 0 1
-33.473203 -1.046777 17.914023 37.979775 0.031262 1.079610 0.051422 -0.001563 -363080.000000 0 0 1
-33.616403 -0.936377 19.448923 38.848423 0.027848 1.046463 0.052162 -0.003969 -120711.000000 0 0 1
-34.608353 -1.747377 20.064423 40.042134 0.050447 1.045947 0.045764 -0.012862 91768.200000 0 0 1
-34.580785 -1.676277 21.500923 40.754513 0.048436 1.015057 0.046053 -0.012838 251411.000000 0 0 1
-35.090704 -2.961677 22.240623 41.650622 0.084201 1.007495 0.037582 -0.005140 227330.000000 0 0 1
-34.165738 -4.039677 22.112223 40.897030 0.117691 0.999551 0.050791 -0.005621 297575.000000 0 0 1
-34.469499 -5.207077 22.887723 41.702613 0.149930 0.989830 0.049729 -0.005618 -85628.300000 0 0 1
-34.425355 -5.110677 24.408603 42.508870 0.147380 0.959169 0.049003 -0.011757 -756411.000000 0 0 1
-33.176943 -4.733077 24.842623 41.716514 0.141705 0.932895 0.060170 -0.015049 -1373760.000000 0 0 1
-33.153083 -4.683577 26.248323 42.544533 0.140343 0.905921 0.050679 -0.020154 221200.000000 0 0 1
-31.972023 -3.888977 26.877673 41.949299 0.121042 0.875363 0.035930 -0.011753 -68848.200000 0 0 1
-31.939183 -2.466077 26.832113 41.787023 0.077059 0.873541 0.041797 -0.007362 -113100.000000 0 0 1
-31.618533 -1.912577 25.574093 40.711471 0.060416 0.891586 0.053766 -0.009001 -162266.000000 0 0 1
-31.720823 -0.348177 25.540873 40.726749 0.010976 0.892936 0.048288 -0.007002 -194731.000000 0 0 1
-33.037363 0.135823 25.608023 41.800199 -0.004111 0.911413 0.050982 -0.009499 -166912.000000 0 0 1
-33.184943 1.460323 25.145183 41.661172 -0.043977 0.922833 0.048063 0.002584 833096.000000 0 0 1
-34.682280 1.804523 24.790443 42.669461 -0.051983 0.950854 0.037595 -0.005511 928780.000000 0 0 1
-35.071233 1.266223 23.544313 42.260258 -0.036089 0.979875 0.036888 0.004598 -263842.000000 0 0 1
-36.145443 1.940323 22.920523 42.844000 -0.053630 1.006317 0.037396 0.007694 -62032.400000 0 0 1
-35.830147 3.270823 22.164223 42.258141 -0.091035 1.018673 0.036397 0.003757 -423548.000000 0 0 1
-35.131154 3.004123 20.975823 41.026917 -0.085304 1.034135 0.033275 -0.008522 -584593.000000 0 0 1
-35.837951 3.225623 19.795423 41.068506 -0.089764 1.067849 0.033179 0.000200 -579043.000000 0 0 1
-35.272765 2.618023 18.474923 39.904195 -0.074086 1.089440 0.045351 -0.005989 136756.000000 0 0 1
-34.069846 3.317623 18.154123 38.747042 -0.097071 1.083171 0.065098 -0.004453 315124.000000 0 0 1
-33.544473 2.764723 16.978223 37.697950 -0.082234 1.103611 0.078135 -0.004700 -574284.000000 0 0 1
-32.609503 3.640423 16.207523 36.596669 -0.111177 1.112000 0.084873 -0.008513 -32085.700000 0 0 1
-33.295763 4.809423 15.732823 37.138391 -0.143453 1.133351 0.081900 -0.013295 284830.000000 0 0 1
-32.455923 5.404123 14.798223 36.077402 -0.164993 1.148145 0.100071 -0.011891 -133167.000000 0 0 1
-32.966933 6.762423 14.308423 36.568839 -0.202321 1.168781 0.105364 -0.019608 -575029.000000 0 0 1
-32.147233 7.337823 13.404523 35.594515 -0.224412 1.184684 0.122694 -0.017167 -647658.000000 0 0 1
-32.717163 8.503623 12.955523 36.201795 -0.254287 1.204811 0.089899 -0.018711 141566.000000 0 0 1
-31.784203 9.254623 11.922923 35.185789 -0.283337 1.225095 0.099829 -0.015194 365740.000000 0 0 1
-32.271213 10.511423 11.647823 35.883046 -0.314884 1.240202 0.078493 -0.005990 159579.000000 0 0 1
-31.461813 11.188423 10.676523 35.057305 -0.341672 1.261336 0.082676 -0.016357 116318.000000 0 0 1
-31.670643 12.707423 10.584423 35.728675 -0.381572 1.270038 0.065983 -0.010000 188838.000000 0 0 1
-30.800443 13.347923 9.653423 34.928827 -0.408937 1.290777 0.058866 -0.007485 237679.000000 0 0 1
-30.888693 14.767023 9.798923 35.611729 -0.445952 1.292040 0.050024 -0.006698 129764.000000 0 0 1
-30.119553 15.612323 8.752023 35.036124 -0.478216 1.318323 0.053709 -0.012468 470011.000000 0 0 1
-28.713683 15.784923 8.897823 33.953065 -0.502640 1.305638 0.055654 -0.002072 356024.000000 0 0 1
-28.100833 16.640523 7.975223 33.617972 -0.534644 1.331282 0.055858 -0.027501 125679.000000 0 0 1
-26.568883 16.717623 8.214123 32.447747 -0.561627 1.314862 0.069878 -0.017998 115468.000000 0 0 1
-26.154213 17.325823 9.421423 32.756529 -0.585077 1.279056 0.060014 -0.012133 116700.000000 0 0 1
-26.232953 18.683623 9.539023 33.589263 -0.618880 1.282843 0.057212 -0.026946 -396688.000000 0 0 1
-26.355003 19.119523 11.042123 34.381257 -0.627610 1.243835 0.072983 -0.012326 -532039.000000 0 0 1
-25.249953 18.788723 11.806423 33.614995 -0.639720 1.211917 0.068929 -0.005679 -415970.000000 0 0 1
-25.444303 19.245123 13.117123 34.494148 -0.647561 1.180707 0.085807 -0.022534 249.974000 0 0 1
-25.910693 18.291123 14.240823 34.766798 -0.614694 1.148770 0.064345 -0.014368 -110590.000000 0 0 1
-24.853223 17.499623 14.726923 33.775757 -0.613485 1.119624 0.075489 -0.016981 -56329.000000 0 0 1
-25.206393 16.625223 15.762123 34.061779 -0.583069 1.089700 0.074231 -0.014581 -461840.000000 0 0 1
-24.086023 15.674123 16.177323 32.977575 -0.576906 1.058069 0.075210 -0.009357 -339666.000000 0 0 1
-23.010423 16.248023 16.880023 32.839199 -0.614819 1.030931 0.078694 -0.006644 -268129.000000 0 0 1
-21.952723 15.360223 17.125723 31.798568 -0.610522 1.002058 0.069764 -0.021084 -159227.000000 0 0 1
-22.243623 14.171123 18.158023 32.020514 -0.567244 0.967846 0.076752 -0.011096 -483365.000000 0 0 1
-22.310223 14.483323 19.522323 32.994451 -0.575798 0.937649 0.081415 -0.015244 48809.200000 0 0 1
-22.708223 13.322423 20.210823 33.190778 -0.530567 0.916087 0.074687 -0.019265 -495973.000000 0 0 1
-22.407823 13.488923 21.722423 33.998901 -0.541870 0.877709 0.081812 -0.028444 -76126.400000 0 0 1
-21.052623 13.607823 22.091823 33.413088 -0.573820 0.848415 0.085713 -0.028554 -125937.000000 0 0 1
-20.600823 14.960623 22.114823 33.723576 -0.628104 0.855598 0.079572 -0.013061 -134894.000000 0 0 1
-19.112923 15.019823 22.574723 33.174042 -0.666051 0.822360 0.076757 -0.015975 824789.000000 0 0 1
-18.143823 14.639123 21.590223 31.774832 -0.678896 0.823749 0.047052 -0.011805 293001.000000 0 0 1
-17.706723 15.746523 20.767123 31.508006 -0.726870 0.851167 0.042298 -0.012409 -89262.700000 0 0 1
-16.501423 15.383723 19.819723 30.029607 -0.750359 0.849969 0.038532 -0.003745 1600380.000000 0 0 1
-15.223223 14.941623 20.300623 29.446798 -0.776063 0.810136 0.027859 0.004592 1054190.000000 0 0 1
-14.506623 16.012223 20.957923 30.100963 -0.834692 0.800631 0.009930 0.007446 -514759.000000 0 0 1
-13.364323 15.500723 21.855823 29.942521 -0.859277 0.752583 -0.022740 0.005504 183204.000000 0 0 1
-12.294823 14.880223 21.131823 28.620581 -0.880251 0.740185 -0.002636 0.009523 342759.000000 0 0 1
-11.327323 14.489323 22.114523 28.762838 -0.907270 0.693744 -0.008159 0.008703 -174706.000000 0 0 1
-10.322723 13.516723 21.548023 27.451370 -0.918585 0.668177 0.002141 0.006485 -1456330.000000 0 0 1
-9.648323 12.767823 22.579823 27.675908 -0.923673 0.616572 0.009334 0.002289 475784.000000 0 0 1
-8.433923 12.185023 22.116423 26.622209 -0.965355 0.590341 0.022104 0.006939 1118780.000000 0 0 1
-7.243323 13.232923 22.101723 26.759338 -1.069973 0.598921 0.025253 0.008537 -624277.000000 0 0 1
-7.345523 14.190923 21.064323 26.439454 -1.093151 0.648980 0.018650 0.012870 -471259.000000 0 0 1
-6.591423 15.369323 21.253423 27.043871 -1.165653 0.666667 0.018615 0.014232 -213510.000000 0 0 1
-7.231923 16.441823 22.139223 28.509287 -1.156416 0.681606 0.014834 0.008293 680112.000000 0 0 1
-8.284123 17.184723 21.486123 28.733167 -1.121601 0.726082 -0.016821 0.009681 89468.800000 0 0 1
-7.773423 18.180323 20.573723 28.534687 -1.166748 0.765541 0.002648 0.010923 -1502140.000000 0 0 1
-8.796523 18.599423 19.542523 28.376532 -1.129025 0.811121 0.010933 0.019674 1028260.000000 0 0 1
-9.947723 19.386823 19.954023 29.546051 -1.096710 0.829353 -0.008662 0.015090 796193.000000 0 0 1
-10.904523 18.655223 20.709823 29.930298 -1.041830 0.806630 -0.008584 0.015573 -314587.000000 0 0 1
-12.300523 19.349723 20.704123 30.892966 -1.004543 0.836333 -0.021106 0.008164 475032.000000 0 0 1
-12.876023 19.472223 19.402623 30.354921 -0.986553 0.877349 -0.018805 0.013095 480952.000000 0 0 1
-14.198023 20.001823 19.484623 31.325825 -0.953499 0.899504 -0.026107 0.002066 662053.000000 0 0 1
-15.066623 19.946723 18.194723 30.918002 -0.923884 0.941615 0.003766 0.012304 -37392.100000 0 0 1
-15.479623 18.626923 17.833423 30.076768 -0.877416 0.936104 0.021296 0.012941 -273757.000000 0 0 1
-16.370523 18.685223 16.781723 29.979290 -0.851332 0.976679 0.029375 0.003143 -1322660.000000 0 0 1
-17.112623 17.370423 16.553623 29.471951 -0.792874 0.974389 0.036705 -0.003150 197836.000000 0 0 1
-18.049623 16.923923 17.519823 30.317524 -0.753222 0.954670 0.048727 -0.006834 599488.000000 0 0 1
-19.236023 17.741023 17.585923 31.528292 -0.744990 0.979085 0.059646 -0.010139 -95070.500000 0 0 1
34.317673 -9.299677 11.717787 37.436522 -0.264632 1.252442 0.033537 -0.010447 -877449.000000 0 0 1
33.107903 -9.857577 11.364987 36.365753 -0.289383 1.252953 0.041995 -0.010414 -722148.000000 0 0 1
32.800033 -10.992577 12.149187 36.664447 -0.323375 1.233050 0.033785 -0.008878 -1365820.000000 0 0 1
31.362063 -11.377177 11.937187 35.433255 -0.348005 1.227182 0.046906 -0.004781 -1931850.000000 0 0 1
30.559663 -10.360377 12.474687 34.595494 -0.326861 1.201899 0.046803 -0.003245 -1199020.000000 0 0 1
29.241013 -10.745777 12.551487 33.586432 -0.352170 1.187794 0.046725 -0.003406 -931677.000000 0 0 1
28.799383 -11.750577 13.678487 33.979134 -0.387397 1.156490 0.035206 0.004118 -1221880.000000 0 0 1
29.028283 -11.278977 14.975187 34.555937 -0.370598 1.122578 0.049482 0.001544 779681.000000 0 0 1
28.150223 -11.837677 15.997687 34.474507 -0.398068 1.088241 0.055547 -0.003601 1801420.000000 0 0 1
26.597433 -11.515577 15.917787 33.066719 -0.408592 1.068563 0.048426 -0.014502 956769.000000 0 0 1
26.380933 -10.221777 16.327587 32.665401 -0.369657 1.047378 0.029068 -0.000360 -400650.000000 0 0 1
25.310433 -9.610077 15.654387 31.273494 -0.362875 1.046546 0.058492 -0.016766 -145880.000000 0 0 1
25.110733 -8.122377 16.134187 30.932732 -0.312841 1.022083 0.098726 -0.025398 1171160.000000 0 0 1
26.312833 -7.324877 15.940487 31.624644 -0.271503 1.042512 0.073138 -0.018630 871936.000000 0 0 1
26.006233 -5.968877 16.378987 31.308511 -0.225610 1.020256 0.077246 -0.021453 17878.900000 0 0 1
27.106733 -4.946077 16.071287 31.898666 -0.180481 1.042777 0.081830 -0.020227 -148242.000000 0 0 1
27.272933 -4.580977 14.731887 31.334114 -0.166414 1.081330 0.094818 -0.025151 388392.000000 0 0 1
28.384753 -3.705277 14.591787 32.130103 -0.129804 1.099382 0.081836 -0.018307 33099.500000 0 0 1
28.663493 -3.155777 13.210987 31.718842 -0.109656 1.141201 0.082446 -0.025849 -94343.600000 0 0 1
29.280213 -4.062277 12.297287 32.016499 -0.137858 1.176572 0.064102 -0.026643 339144.000000 0 0 1
29.334133 -3.561477 10.991987 31.527754 -0.120819 1.214672 0.071266 -0.028726 5062.010000 0 0 1
30.043403 -4.572677 10.056287 32.010066 -0.151043 1.251224 0.081831 -0.025228 810065.000000 0 0 1
31.468903 -4.700077 10.148887 33.397342 -0.148260 1.262030 0.071441 -0.023159 703775.000000 0 0 1
31.836063 -5.625577 9.126487 33.592779 -0.174899 1.295658 0.078205 -0.019469 831093.000000 0 0 1
33.304863 -6.195977 9.268287 35.121292 -0.183935 1.303740 0.064152 -0.020795 673697.000000 0 0 1
34.283333 -5.295877 8.812087 35.791704 -0.153262 1.322034 0.076691 -0.021825 -568801.000000 0 0 1
35.496943 -6.009377 8.685287 37.034845 -0.167703 1.334075 0.075278 -0.019198 185021.000000 0 0 1
-35.654249 -5.008777 8.363187 36.962903 0.139569 1.342561 0.075391 -0.015561 -68524.000000 0 0 1
-35.681750 -4.482477 7.041387 36.645068 0.124969 1.377443 0.091168 -0.015896 -160773.000000 0 0 1
-34.823619 -3.399177 6.883087 35.659722 0.097303 1.376556 0.085313 -0.016165 -509194.000000 0 0 1
-34.792095 -2.679077 5.467387 35.320811 0.076851 1.415379 0.101872 -0.018475 -236997.000000 0 0 1
-34.065870 -3.311277 4.410987 34.509490 0.096898 1.442626 0.104476 -0.012572 345873.000000 0 0 1
-34.191279 -2.637377 3.170287 34.439077 0.076984 1.478611 0.101238 -0.013675 143248.000000 0 0 1
-33.493413 -3.419977 1.960987 33.724627 0.101756 1.512616 0.115552 -0.016868 316243.000000 0 0 1
-34.162431 -4.599877 1.526487 34.504503 0.133842 1.526542 0.112988 -0.012172 -218155.000000 0 0 1
-35.249256 -4.428377 0.669287 35.532640 0.124976 1.551959 0.104112 -0.026669 -873452.000000 0 0 1
-34.894937 -4.564277 -0.834013 35.202057 0.130062 1.594491 0.126701 -0.028587 -706356.000000 0 0 1
-34.549707 -5.868277 -1.164313 35.063864 0.168245 1.604008 0.111958 -0.030554 -246359.000000 0 0 1
-33.843773 -6.027877 -2.314013 34.454186 0.176261 1.638009 0.102146 -0.026832 -756453.000000 0 0 1
-32.325633 -5.826977 -2.225613 32.921931 0.178344 1.638451 0.099643 -0.030728 -655147.000000 0 0 1
-31.721813 -6.938477 -1.560013 32.509222 0.215338 1.618802 0.085237 -0.026015 -651946.000000 0 0 1
-30.485453 -6.513377 -1.071813 31.191917 0.210490 1.605165 0.094694 -0.029815 -420821.000000 0 0 1
-29.924463 -7.546377 -0.086313 30.861444 0.247030 1.573593 0.079842 -0.021943 -135272.000000 0 0 1
-29.466243 -8.785977 -0.645413 30.754990 0.289778 1.591784 0.096522 -0.013957 343828.000000 0 0 1
-28.861383 -9.567777 0.336687 30.407814 0.320107 1.559724 0.081564 -0.009098 -163609.000000 0 0 1
-28.318233 -10.929177 -0.180113 30.354599 0.368328 1.576730 0.072981 -0.006736 -264258.000000 0 0 1
-27.191813 -10.770477 -1.009813 29.264613 0.377133 1.605309 0.086070 -0.010563 -18501.600000 0 0 1
-26.811163 -11.934477 -1.733613 29.398565 0.418797 1.629800 0.065449 0.004423 20212.300000 0 0 1
-27.840153 -12.767277 -2.619713 30.739883 0.429976 1.656122 0.054955 0.000053 281747.000000 0 0 1
-28.721183 -13.551977 -1.819413 31.809947 0.440872 1.628024 0.061664 -0.001464 413638.000000 0 0 1
-29.020293 -14.727277 -2.517413 32.640580 0.469615 1.647998 0.048071 -0.006076 -237299.000000 0 0 1
-29.663113 -15.831977 -1.715113 33.667394 0.490263 1.621761 0.052072 -0.006880 -560379.000000 0 0 1
-28.781273 -16.464777 -0.860213 33.169120 0.519626 1.596733 0.039579 0.008319 -324099.000000 0 0 1
-29.388323 -17.057277 0.258387 33.980745 0.525891 1.563192 0.023393 0.013885 -71922.000000 0 0 1
-30.003323 -18.440877 -0.007813 35.217402 0.551106 1.571018 0.040607 0.004820 424189.000000 0 0 1
-29.009873 -19.498777 0.037687 34.953919 0.591784 1.569718 0.040482 0.003688 623242.000000 0 0 1
-29.432553 -20.813477 0.023587 36.048253 0.615514 1.570142 0.048801 -0.006733 -594035.000000 0 0 1
-30.275733 -21.287877 1.210187 37.030505 0.612826 1.538110 0.056426 -0.004635 -563324.000000 0 0 1
-29.657793 -21.653577 2.401187 36.799834 0.630652 1.505500 0.060550 -0.007393 -1036770.000000 0 0 1
-30.639483 -21.906577 3.291787 37.808887 0.620708 1.483622 0.061883 -0.007721 -603290.000000 0 0 1
-30.090793 -22.123277 4.746687 37.648722 0.633973 1.444382 0.048734 -0.006200 142109.000000 0 0 1
-29.294773 -21.009377 5.142587 36.414611 0.622158 1.429099 0.043954 -0.005310 53683.100000 0 0 1
-28.749833 -21.178377 6.432087 36.282893 0.634898 1.392578 0.039234 -0.006877 -8873.460000 0 0 1
-28.191183 -19.883077 6.960787 35.192785 0.614270 1.371693 0.040723 -0.004651 -224282.000000 0 0 1
-27.359253 -20.041677 8.067587 34.860917 0.632231 1.337257 0.040844 -0.011946 -413821.000000 0 0 1
-26.791503 -18.799677 8.404187 33.791165 0.611868 1.319449 0.046648 -0.014134 1357.230000 0 0 1
-25.789013 -19.074277 9.538187 33.464582 0.636830 1.281766 0.059881 -0.012832 -129714.000000 0 0 1
-26.456913 -19.514677 10.714287 34.577259 0.635519 1.255745 0.053361 -0.013146 -65041.200000 0 0 1
-25.629733 -19.696377 11.820287 34.417287 0.655235 1.220219 0.053059 0.000572 -422734.000000 0 0 1
-25.203143 -18.416977 12.611887 33.666648 0.631061 1.186819 0.049145 0.002293 -35373.800000 0 0 1
-24.144623 -17.701477 11.915287 32.222340 0.632625 1.192020 0.041246 -0.000307 687258.000000 0 0 1
-23.722623 -16.567377 12.630087 31.571505 0.609637 1.159228 0.039158 0.002362 -163842.000000 0 0 1
-22.832623 -16.841577 13.828287 31.562461 0.635524 1.117285 0.033997 0.005488 -718128.000000 0 0 1
-23.548623 -17.259677 14.985787 32.817799 0.632492 1.096586 0.040938 -0.002911 806432.000000 0 0 1
-22.619923 -17.720677 16.008787 32.893230 0.664543 1.062500 0.050031 0.001562 384459.000000 0 0 1
-23.361723 -18.479377 17.135087 34.363770 0.669236 1.048769 0.045426 0.017036 68900.600000 0 0 1
-24.215423 -17.676477 17.899187 34.917409 0.630557 1.032569 0.042727 0.015054 14862.900000 0 0 1
-24.966323 -18.460477 18.846487 36.322122 0.636692 1.025267 0.042762 0.018180 179713.000000 0 0 1
-26.025373 -17.594977 19.589887 37.022519 0.594484 1.013216 0.056973 0.015268 -334476.000000 0 0 1
-25.521403 -16.738477 20.574587 36.808046 0.580484 0.977653 0.060450 0.007613 -513448.000000 0 0 1
-26.469583 -15.813977 21.056787 37.337769 0.538535 0.971630 0.063359 -0.000242 -651820.000000 0 0 1
-25.894413 -14.915177 22.164887 37.205717 0.522585 0.932611 0.059941 0.001597 243518.000000 0 0 1
-24.864823 -14.024177 21.742787 35.884339 0.513541 0.919883 0.055474 0.006214 655004.000000 0 0 1
-24.009223 -13.554777 22.790787 35.771424 0.513957 0.880037 0.053614 0.001385 695506.000000 0 0 1
-22.719323 -12.813877 22.352487 34.351081 0.513534 0.862281 0.054748 0.006052 124545.000000 0 0 1
-23.094023 -11.719577 21.587387 33.714947 0.469608 0.875919 0.054666 0.011690 -35873.900000 0 0 1
-22.021423 -11.111177 20.935687 32.352810 0.467291 0.867014 0.051751 0.013089 -868122.000000 0 0 1
-21.786323 -9.687977 21.470087 32.085283 0.418422 0.837723 0.057443 0.012556 116891.000000 0 0 1
-21.235123 -9.701477 22.775387 32.615447 0.428544 0.797776 0.053331 0.010009 2107150.000000 0 0 1
-19.822523 -10.096477 22.926587 31.945260 0.471095 0.770326 0.038836 0.003449 1534430.000000 0 0 1
-19.372223 -10.079277 24.407287 32.750428 0.479752 0.729885 0.034742 0.008745 -79541.100000 0 0 1
-19.728023 -11.209577 25.132687 33.860028 0.516713 0.734371 0.039571 0.004407 99908.800000 0 0 1
-18.980723 -11.286177 26.340787 34.372703 0.536449 0.697689 0.039515 0.005870 -399734.000000 0 0 1
-19.415623 -12.456677 27.264087 35.713662 0.570433 0.702224 0.039838 -0.015391 911072.000000 0 0 1
-20.743823 -12.491177 27.824587 36.885544 0.542009 0.716134 0.039385 -0.006753 333696.000000 0 0 1
-21.663723 -13.076877 26.935387 36.957228 0.543084 0.754191 0.038891 -0.005366 -1076920.000000 0 0 1
-22.761923 -13.727877 27.727387 38.410516 0.542701 0.764296 0.034409 -0.011698 -933583.000000 0 0 1
-22.555323 -14.959077 28.479287 39.288502 0.585611 0.759942 0.036360 -0.013863 -525035.000000 0 0 1
-21.662823 -14.921177 29.549587 39.561314 0.603164 0.727361 0.026095 -0.015530 -347804.000000 0 0 1
-22.105923 -15.775277 30.792987 41.057755 0.619810 0.722746 0.021838 -0.014653 -780926.000000 0 0 1
-21.908123 -17.167677 30.603287 41.367332 0.664674 0.738033 0.026985 -0.011288 -3323.480000 0 0 1
-22.313423 -17.999977 31.696487 42.738218 0.678806 0.735280 0.031955 -0.009760 -477444.000000 0 0 1
-23.762823 -18.127977 32.159187 43.903401 0.651688 0.748811 0.027401 -0.015320 -627240.000000 0 0 1
-24.224623 -16.981277 32.840887 44.200905 0.611392 0.733268 0.026886 -0.018525 -1784060.000000 0 0 1
-25.518753 -17.190377 33.181487 45.251817 0.592813 0.747688 0.029872 -0.022728 -1624750.000000 0 0 1
-26.221203 -16.199077 34.131787 45.988482 0.553394 0.734477 0.034956 -0.022665 -77913.400000 0 0 1
-25.838163 -16.240477 -33.000149 44.948566 0.561145 2.395248 0.039282 -0.026669 15121.200000 0 0 1
-26.444243 -15.101577 -32.342749 44.423069 0.518878 2.386287 0.047231 -0.021173 -370954.000000 0 0 1
-25.828043 -14.647677 -31.044249 42.957975 0.515894 2.378447 0.036881 -0.013413 -468402.000000 0 0 1
-26.123973 -15.597377 -30.030649 42.750205 0.538249 2.349656 0.038787 -0.005206 152268.000000 0 0 1
-25.575003 -15.213277 -28.783949 41.400970 0.536624 2.339561 0.040592 -0.001901 -355054.000000 0 0 1
-25.921683 -16.043177 -27.545949 41.086452 0.554208 2.305596 0.038596 0.000585 608985.000000 0 0 1
-27.216763 -15.873877 -26.930849 41.448797 0.528004 2.278036 0.047097 -0.000272 756742.000000 0 0 1
-27.407493 -14.669477 -26.217749 40.666136 0.491437 2.271436 0.042584 0.002468 -369467.000000 0 0 1
-26.489103 -14.382077 -24.986349 39.151429 0.497409 2.262951 0.036790 -0.011845 -1351.730000 0 0 1
-25.179263 -13.960377 -25.350549 38.360628 0.506245 2.292745 0.035282 -0.010621 681130.000000 0 0 1
-24.236923 -14.136677 -24.301649 37.119324 0.528027 2.284569 0.033278 -0.015308 106995.000000 0 0 1
-23.606723 -15.565077 -24.113749 37.162103 0.582920 2.276908 0.030921 -0.012418 -737400.000000 0 0 1
-22.643223 -15.743777 -25.126049 37.308182 0.607563 2.309693 0.018988 -0.004227 -12907.900000 0 0 1
-22.340423 -17.119677 -25.362849 37.887359 0.653858 2.304235 0.024568 -0.002398 -255166.000000 0 0 1
-21.547123 -17.345777 -26.660349 38.417818 0.677792 2.337768 0.021141 -0.005611 -181746.000000 0 0 1
-22.174023 -17.415877 -27.931849 39.688642 0.665786 2.351493 0.027504 -0.005467 252601.000000 0 0 1
-23.008023 -18.555577 -28.193449 40.847878 0.678681 2.332570 0.028134 -0.009543 -15865.200000 0 0 1
-23.805023 -18.500177 -29.487049 42.171338 0.660655 2.345102 0.029576 -0.011995 -414315.000000 0 0 1
-23.134723 -19.047977 -30.588349 42.821583 0.688818 2.366449 0.032459 -0.018427 370488.000000 0 0 1
-23.882823 -18.821777 -31.776049 43.981426 0.667435 2.378190 0.019980 -0.011697 -368810.000000 0 0 1
-23.068523 -19.156777 -33.046949 44.623309 0.693022 2.404723 0.026768 -0.021563 291714.000000 0 0 1
-21.913823 -18.330077 -33.230549 43.823245 0.696582 2.431476 0.024058 -0.015642 1047950.000000 0 0 1
-20.626623 -18.609477 -32.682049 42.893899 0.734033 2.437081 0.043132 -0.023145 451586.000000 0 0 1
-19.958923 -19.794477 -33.382949 43.641737 0.781262 2.441732 0.041098 -0.020201 -1045030.000000 0 0 1
-19.556823 -19.485077 33.788887 43.632860 0.783560 0.685045 0.035405 -0.018142 -8768.610000 0 0 1
-19.252123 -20.642577 32.986387 43.414997 0.820237 0.707802 0.041057 -0.016773 728844.000000 0 0 1
-20.449323 -21.288477 32.129287 43.631011 0.805501 0.743083 0.048218 -0.018933 1256130.000000 0 0 1
-21.327423 -21.932777 33.075787 45.054560 0.799391 0.746416 0.049076 -0.019098 379238.000000 0 0 1
-22.570423 -22.444177 32.623787 45.579344 0.782594 0.773087 0.048529 -0.011003 294050.000000 0 0 1
-22.526823 -23.707677 31.700387 45.545870 0.810933 0.800971 0.055344 -0.002397 -580546.000000 0 0 1
-22.038323 -24.783677 32.413987 46.374399 0.843965 0.796850 0.053674 0.000214 -14788.100000 0 0 1
-22.100623 -25.889257 31.527587 46.396982 0.864181 0.823691 0.058838 0.007672 -89309.900000 0 0 1
-21.443623 -27.079907 32.235887 47.247251 0.901036 0.819919 0.073336 -0.004806 -186750.000000 0 0 1
-22.224223 -27.676547 33.239087 48.628636 0.894230 0.818210 0.056952 -0.014427 -120530.000000 0 0 1
-21.541223 -28.800087 33.766287 49.331850 0.928604 0.816917 0.062107 -0.024472 -405426.000000 0 0 1
-22.448923 -29.707587 -33.840149 50.315510 0.923681 2.308458 0.060720 -0.019617 70623.500000 0 0 1
-23.458523 -30.479467 33.965487 51.312323 0.914837 0.847397 0.051969 -0.018401 868185.000000 0 0 1
-24.577823 -29.770237 33.436687 51.071993 0.880649 0.857014 0.043759 -0.012490 -465081.000000 0 0 1
-25.654133 -29.464767 -33.989549 51.784134 0.854423 2.286793 0.040361 -0.015524 -1608020.000000 0 0 1
-26.657383 -28.690877 33.990387 51.856812 0.822122 0.855997 0.032721 -0.001516 -529217.000000 0 0 1
-27.653873 -28.606777 -33.467549 51.991934 0.802334 2.270128 0.023916 0.007985 -92358.800000 0 0 1
-28.721783 -27.547107 -33.740049 52.174465 0.764525 2.274017 0.012756 0.002225 -137869.000000 0 0 1
-29.892773 -28.102457 34.184487 53.403231 0.754538 0.876142 0.014932 0.000181 89785.900000 0 0 1
-30.890733 -27.180047 33.772287 53.231191 0.721586 0.883505 0.009656 -0.011234 497285.000000 0 0 1
