# x y z rho theta phi s1 s2 stress_xx np intf bulk
-0.702835 -10.697992 -14.410275 17.960986 1.505193 2.501951 -0.001299 0.005099 -1734920.000000 1 0 0
2.133865 -13.468492 -13.077075 18.893479 -1.413668 2.335257 -0.001065 0.013708 29814.100000 1 0 0
2.227765 -11.150392 -14.707375 18.590348 -1.373600 2.483450 0.000710 0.009374 1156070.000000 1 0 0
-5.578135 -6.227592 -16.438275 18.442217 0.840355 2.671088 0.024012 -0.002986 162513.000000 1 0 0
4.546265 -14.160492 -11.583175 18.850941 -1.260139 2.232499 -0.001475 0.009126 1009260.000000 1 0 0
14.096865 -10.566792 -7.923975 19.317559 -0.643235 1.993465 0.047315 -0.023571 -975568.000000 1 0 0
7.107365 10.834608 -10.890175 16.926290 0.990224 2.269712 0.040315 -0.012597 476865.000000 1 0 0
5.735165 -4.275292 -12.591875 14.481904 -0.640584 2.624966 0.005342 -0.003984 1241820.000000 1 0 0
13.664165 0.549008 -10.006075 16.944980 0.040157 2.202479 0.016263 -0.003136 2034140.000000 1 0 0
14.154065 5.034508 -10.480875 18.317548 0.341738 2.179954 0.004907 -0.006204 -536009.000000 1 0 0
4.169065 4.293508 -13.511475 14.777526 0.800102 2.724637 0.014217 -0.000504 2638610.000000 1 0 0
10.412065 -5.039692 -13.765875 17.980793 -0.450785 2.442751 0.026853 -0.008812 274912.000000 1 0 0
2.537065 -7.635692 -12.069875 14.505942 -1.250008 2.553615 -0.000239 0.000698 2817670.000000 1 0 0
-5.632135 -1.912592 -15.200875 16.323159 0.327367 2.768613 0.014408 -0.007413 1048730.000000 1 0 0
10.676465 0.043308 -9.654575 14.394429 0.004056 2.305970 0.012716 -0.002210 1349140.000000 1 0 0
-1.675035 -9.702492 -16.928675 19.583772 1.399842 2.614799 0.011846 -0.002332 1632450.000000 1 0 0
8.642565 1.573408 -17.907575 19.946197 0.180081 2.685531 0.029500 -0.007905 -1283050.000000 1 0 0
16.439765 -5.904892 -8.993675 19.647387 -0.344833 2.046264 0.064952 -0.013332 -619132.000000 1 0 0
10.165865 7.597008 -10.013975 16.165984 0.641774 2.238835 0.017801 -0.004716 -866716.000000 1 0 0
13.777565 -2.281592 -10.763475 17.631771 -0.164113 2.227436 0.030339 -0.001153 -1349530.000000 1 0 0
7.285565 -1.961792 -13.635075 15.583432 -0.263032 2.636175 0.012924 -0.009349 2191760.000000 1 0 0
-2.808835 6.692608 -13.848075 15.634888 -1.173430 2.658831 0.005280 -0.000862 729994.000000 1 0 0
11.257065 1.676408 -13.885875 17.954091 0.147834 2.454999 0.013419 -0.005447 97941.800000 1 0 0
-2.415235 10.726608 -12.889375 16.941944 -1.349327 2.435336 0.008795 0.001631 -1223190.000000 1 0 0
2.915565 -1.006292 -15.178075 15.488289 -0.332343 2.941112 0.009229 -0.005273 -1630650.000000 1 0 0
-9.074035 0.558708 -15.220975 17.729307 -0.061495 2.603174 0.017769 -0.006016 -1332640.000000 1 0 0
2.515765 -1.646392 -17.986275 18.235837 -0.579483 2.975963 0.018611 -0.010860 1019270.000000 1 0 0
1.102665 7.893708 -13.151475 15.378159 1.432005 2.596742 0.012513 -0.003376 999375.000000 1 0 0
9.314065 -9.090592 -9.990475 16.407323 -0.773257 2.225474 0.017817 -0.001026 -605779.000000 1 0 0
4.014465 7.233308 -13.558575 15.883061 1.064125 2.593750 0.021542 -0.004020 996531.000000 1 0 0
-2.648035 9.102908 -15.495975 18.165909 -1.287709 2.592551 0.008473 -0.000072 -518247.000000 1 0 0
5.464765 -7.628792 -15.274775 17.927099 -0.949192 2.590684 0.017026 -0.004104 -1771570.000000 1 0 0
4.209965 7.246908 -16.428175 18.442516 1.044515 2.669849 0.022677 0.003504 323416.000000 1 0 0
-0.277335 5.144008 -13.464575 14.416397 -1.516934 2.776180 0.009647 -0.003577 3016210.000000 1 0 0
8.903665 4.139508 -16.570675 19.261309 0.435193 2.606672 0.031397 -0.003053 -632612.000000 1 0 0
5.411865 0.326208 -14.320975 15.312903 0.060204 2.779684 0.004748 -0.001733 1794280.000000 1 0 0
6.306465 7.951708 -11.600675 15.413527 0.900280 2.422843 0.021137 -0.005240 641740.000000 1 0 0
2.732065 -8.331892 -15.085675 17.448845 -1.253940 2.615082 0.007947 -0.001206 -191568.000000 1 0 0
4.024465 11.626208 -13.729775 18.435611 1.237551 2.410945 0.040237 -0.014564 463525.000000 1 0 0
0.577265 -4.431092 -13.747475 14.455479 -1.441250 2.827321 0.008032 -0.000346 1945150.000000 1 0 0
8.520165 -0.114292 -11.604775 14.397120 -0.013413 2.508241 0.004472 -0.004113 -966205.000000 1 0 0
-0.956335 -5.149392 -16.245675 17.069058 1.387170 2.829723 0.004589 -0.004393 2177330.000000 1 0 0
4.490965 0.931908 -11.680275 12.548547 0.204604 2.767411 0.006823 -0.003047 1333060.000000 1 0 0
-2.950135 -7.310792 -15.567175 17.449582 1.187249 2.672819 0.012389 -0.001095 1608090.000000 1 0 0
11.334765 -3.766192 -11.423775 16.527666 -0.320792 2.333932 0.017756 -0.005283 1041090.000000 1 0 0
6.485965 -7.128192 -12.571275 15.840322 -0.832537 2.487540 0.011206 0.000415 -240774.000000 1 0 0
3.459865 -3.944092 -14.590475 15.505111 -0.850706 2.796401 0.012457 -0.007714 1984920.000000 1 0 0
-0.400035 -1.463292 -18.274275 18.337131 1.303937 3.058770 0.017140 -0.011697 603303.000000 1 0 0
14.926465 2.912408 -8.404875 17.375943 0.192696 2.075682 0.011121 -0.004464 -2291690.000000 1 0 0
7.048465 4.280908 -14.240875 16.456292 0.545809 2.616696 0.017490 -0.000637 3043670.000000 1 0 0
10.133665 -9.725692 -14.120275 19.916385 -0.764858 2.358844 0.046269 -0.006266 -307364.000000 1 0 0
9.092565 -3.180092 -15.572775 18.311173 -0.336449 2.587640 0.033009 -0.020141 9757.210000 1 0 0
-5.192835 -1.921192 -18.120175 18.947222 0.354353 2.845041 0.012293 -0.003183 -971450.000000 1 0 0
5.007165 -9.194892 -11.183075 15.319233 -1.072140 2.389122 -0.006860 0.006427 1617810.000000 1 0 0
-2.515935 3.919808 -17.218275 17.837147 -1.000171 2.877403 0.018940 0.000182 80283.800000 1 0 0
9.722565 9.211108 -14.435575 19.691587 0.758392 2.393641 0.056707 -0.012211 -579197.000000 1 0 0
9.886665 10.045708 -11.681175 18.306071 0.793377 2.262829 0.029321 -0.007426 -33192.700000 1 0 0
11.956665 -6.020592 -9.735475 16.552608 -0.466471 2.199570 0.026747 -0.004234 31822.800000 1 0 0
8.235965 6.905508 -13.645875 17.370293 0.697755 2.474440 0.025124 -0.000778 -131339.000000 1 0 0
4.138365 -4.062492 -17.483775 18.420431 -0.776147 2.821325 0.031705 -0.017558 391031.000000 1 0 0
9.352865 -7.511692 -12.516675 17.336919 -0.676655 2.377437 0.026164 -0.004239 322670.000000 1 0 0
11.911165 -8.755392 -8.916375 17.263675 -0.633869 2.113534 0.034265 -0.008476 2001500.000000 1 0 0
-2.969635 -2.467992 -13.948375 14.472970 0.693405 2.871527 0.011645 -0.006352 -1047400.000000 1 0 0
-0.501835 6.169608 -17.599175 18.656014 -1.489635 2.803386 0.021666 -0.002551 1637930.000000 1 0 0
0.985465 -8.577492 -17.530975 19.541739 -1.456408 2.683967 0.008295 -0.004005 788591.000000 1 0 0
0.096765 8.510208 -15.950475 18.079011 1.559426 2.651448 0.016338 -0.000275 -2503560.000000 1 0 0
1.766765 3.362208 -14.941275 15.416471 1.086975 2.892660 0.015783 -0.000971 1133770.000000 1 0 0
-1.890735 -0.418692 -15.808075 15.926249 0.217927 3.019697 0.017520 -0.011084 1566050.000000 1 0 0
14.014065 -4.323692 -8.616275 17.009660 -0.299260 2.101977 0.035548 -0.003560 1510820.000000 1 0 0
0.581565 0.627108 -14.560375 14.585472 0.823060 3.082921 0.009438 -0.006178 1928060.000000 1 0 0
8.912565 2.753708 -12.531975 15.622648 0.299665 2.501712 0.010423 -0.000904 1486350.000000 1 0 0
5.901665 0.951508 -17.135875 18.148642 0.159851 2.805941 0.020041 -0.000869 -822186.000000 1 0 0
15.380965 1.455708 -12.345375 19.776285 0.094362 2.244969 0.025350 -0.012023 -641453.000000 1 0 0
8.838465 -11.295392 -12.034475 18.722525 -0.906827 2.268919 0.028308 -0.000067 1100120.000000 1 0 0
-4.553035 0.800308 -15.070775 15.763847 -0.173997 2.843962 0.014611 -0.008144 653749.000000 1 0 0
2.274365 5.139808 -17.333775 18.222242 1.154197 2.828036 0.020321 0.003070 581646.000000 1 0 0
5.945165 -11.712792 -12.444075 18.093907 -1.101104 2.329181 0.003278 0.004594 1451170.000000 1 0 0
12.792965 7.152008 -8.735175 17.062077 0.509771 2.108266 0.003487 -0.004974 805332.000000 1 0 0
-5.065335 3.670608 -15.793975 16.987661 -0.627080 2.764481 0.012032 -0.000705 1399280.000000 1 0 0
-0.416235 -4.318292 -19.060775 19.548249 1.474704 2.917801 0.013099 -0.009949 -860277.000000 1 0 0
9.866465 4.475708 -10.216475 14.891456 0.425867 2.326860 0.006090 -0.000800 293629.000000 1 0 0
13.391665 3.469608 -12.862375 18.889562 0.253513 2.319821 0.011785 -0.011248 351635.000000 1 0 0
-6.202335 5.848808 -17.269375 19.258993 -0.756071 2.683034 0.012619 0.007228 233460.000000 1 0 0
-10.273835 3.259708 -15.363475 18.767358 -0.307236 2.529813 0.033260 -0.005515 -1208440.000000 1 0 0
10.920065 13.640808 -8.252575 19.324194 0.895724 2.012034 0.068030 -0.013605 -523984.000000 1 0 0
7.404565 13.387508 -12.323175 19.644684 1.065580 2.248882 0.060117 -0.019375 1318940.000000 1 0 0
5.275465 15.194108 -11.113675 19.550070 1.236614 2.175444 0.036863 -0.018259 532037.000000 1 0 0
14.345365 9.249008 -9.954075 19.758979 0.572667 2.098759 0.059418 -0.007575 -1174530.000000 1 0 0
8.304565 -17.180792 -2.189575 19.207802 -1.120546 1.685039 0.025066 -0.003434 -774395.000000 1 0 0
0.686565 -16.017692 -0.000575 16.032399 -1.527960 1.570832 0.007151 -0.009415 2654180.000000 1 0 0
-8.999835 -11.658592 7.637525 16.590708 0.913395 1.092407 0.030754 -0.011389 -780520.000000 1 0 0
2.083965 -15.948492 -2.577575 16.289297 -1.440864 1.729702 0.008609 -0.006653 2870450.000000 1 0 0
-1.247535 -11.067092 -9.422375 14.588283 1.458545 2.272980 0.002328 0.003372 1373670.000000 1 0 0
-4.783035 -12.638092 -13.077675 18.804902 1.208994 2.339828 0.029056 -0.000562 -244425.000000 1 0 0
-8.126335 -17.854892 -1.638275 19.685487 1.143683 1.654115 0.024735 -0.011032 -1698390.000000 1 0 0
-11.519935 -7.079492 -8.947775 16.213907 0.551044 2.155387 0.022309 -0.006250 2642950.000000 1 0 0
-13.583235 -11.579592 -4.848975 18.496047 0.705939 1.836059 0.011545 -0.003137 -818320.000000 1 0 0
-5.668435 -13.359092 9.785125 17.502719 1.169508 0.977541 0.014307 -0.014246 1815740.000000 1 0 0
0.157965 -14.046592 -3.661675 14.516871 -1.559551 1.825786 0.007947 -0.003057 -490383.000000 1 0 0
-14.686535 -11.546892 1.879125 18.776478 0.666284 1.470550 0.011787 -0.000163 519039.000000 1 0 0
-3.856535 -16.394992 -7.569075 18.465089 1.339770 1.993155 0.009654 -0.008801 16714.300000 1 0 0
0.596765 -15.351892 -9.342075 17.980853 -1.531943 2.117129 0.005464 0.002424 1382150.000000 1 0 0
4.533965 -14.172992 -2.603475 15.106575 -1.261182 1.744002 0.005233 -0.000745 156264.000000 1 0 0
-3.391635 -18.092292 -2.406575 18.564100 1.385484 1.700798 0.008635 -0.012787 819212.000000 1 0 0
-0.913535 -13.551792 0.628925 13.597101 1.503488 1.524525 0.004472 -0.005673 3042670.000000 1 0 0
-8.482435 -11.332092 -10.578875 17.671463 0.928235 2.212601 0.027090 -0.007164 1404890.000000 1 0 0
-3.725335 -14.172992 -0.384575 14.659458 1.313763 1.597033 -0.000749 -0.000314 4078010.000000 1 0 0
-1.447535 -14.926092 -7.292775 16.675375 1.474119 2.023433 0.001907 0.000083 -409020.000000 1 0 0
-14.164035 -7.979092 -1.876575 16.364819 0.513023 1.685720 0.001085 -0.002897 849788.000000 1 0 0
-10.720735 -7.377292 -11.695975 17.497269 0.602717 2.302913 0.021739 -0.005847 480673.000000 1 0 0
-9.444935 -14.707592 6.903625 18.793086 0.999937 1.194639 0.020435 -0.002759 1116090.000000 1 0 0
-2.383635 -14.330192 -12.320775 19.048296 1.405969 2.274201 0.017842 -0.002904 -160140.000000 1 0 0
2.421265 -17.801492 -4.770175 18.587905 -1.435611 1.830328 0.021408 -0.010989 -1533520.000000 1 0 0
-6.542335 -9.712392 -9.226875 14.908652 0.978004 2.238130 0.016275 -0.004341 598267.000000 1 0 0
-10.898035 -15.376592 0.378025 18.850720 0.954227 1.550741 0.015577 -0.001159 240122.000000 1 0 0
-12.563635 -11.037992 4.027325 17.201788 0.720847 1.334480 0.029967 -0.002594 1596100.000000 1 0 0
-16.966335 -9.048492 -1.576975 19.292967 0.489947 1.652626 0.002152 -0.001684 528220.000000 1 0 0
-1.254635 -19.198092 -3.932975 19.636933 1.505537 1.772445 0.019274 -0.009922 -119322.000000 1 0 0
3.341465 -14.354692 -8.888975 17.211520 -1.342091 2.113502 0.003052 0.000908 604575.000000 1 0 0
-4.347835 -8.156092 -13.045475 15.987805 1.081038 2.525191 0.014317 0.004455 669398.000000 1 0 0
5.592465 -16.691492 1.311825 17.652265 -1.247503 1.496413 0.023446 -0.002972 3217570.000000 1 0 0
-2.817035 -13.834992 -3.162275 14.468679 1.369926 1.791135 -0.000373 -0.002458 160112.000000 1 0 0
-0.327435 -13.949892 3.670625 14.428450 1.547328 1.313567 0.000311 -0.001574 -3062860.000000 1 0 0
1.283765 -16.187892 7.026525 17.693726 -1.491658 1.162420 0.023842 -0.012028 2296780.000000 1 0 0
-5.574635 -10.416092 -14.638975 18.811462 1.079391 2.462582 0.026804 -0.003909 693175.000000 1 0 0
-0.215635 -17.291392 -5.863375 18.259734 1.558326 1.897697 0.018553 -0.009732 -25986.100000 1 0 0
-6.523335 -13.331192 -1.302175 14.898665 1.115722 1.658310 0.003655 -0.002951 3793310.000000 1 0 0
-1.682735 -17.830992 -0.000175 17.910217 1.476704 1.570806 0.008058 -0.006698 1181350.000000 1 0 0
-9.416935 -9.774492 -4.910675 14.433782 0.804027 1.917948 0.012659 -0.006312 2436090.000000 1 0 0
-0.775035 -16.626692 4.868025 17.342008 1.524216 1.286266 0.018690 -0.012531 3363010.000000 1 0 0
-6.722835 -9.928492 -6.357475 13.571622 0.975588 2.058319 0.015502 -0.005186 1666300.000000 1 0 0
-6.020235 -14.561392 -8.631275 17.965975 1.178759 2.071934 0.015387 -0.004946 407117.000000 1 0 0
-5.744935 -12.243492 -10.332375 17.019557 1.132072 2.223188 0.022549 -0.002919 241322.000000 1 0 0
-10.507335 -12.215392 -8.690875 18.307135 0.860427 2.065449 0.018795 -0.016711 -394548.000000 1 0 0
4.029165 -17.073892 6.514125 18.713252 -1.339052 1.215250 0.041118 -0.014886 509366.000000 1 0 0
-6.699135 -14.361292 -4.122075 16.374267 1.134329 1.825275 0.012395 -0.007002 -61931.200000 1 0 0
-2.832835 -12.296292 -7.069075 14.463594 1.344366 2.081452 0.006105 0.000289 2771970.000000 1 0 0
-6.946635 -12.698592 4.464125 15.147223 1.070229 1.271638 0.002360 0.000228 2338320.000000 1 0 0
2.588965 -16.440492 2.334325 16.805999 -1.414604 1.431447 0.010361 -0.011601 3562090.000000 1 0 0
-6.077835 -11.905292 7.236825 15.200253 1.098772 1.074583 0.004448 -0.002163 2679070.000000 1 0 0
-11.143135 -12.812392 -1.003875 17.009838 0.854967 1.629848 0.017684 0.003537 1462480.000000 1 0 0
-14.144435 -8.652892 4.660125 17.223656 0.549016 1.296816 0.030720 -0.008696 795271.000000 1 0 0
-7.949635 -15.460892 4.435725 17.941893 1.095872 1.320979 0.014347 0.002766 1539250.000000 1 0 0
-16.480835 -9.141192 1.258725 18.888189 0.506411 1.504106 0.000657 0.000895 -532816.000000 1 0 0
-6.551935 -16.962392 2.388425 18.339988 1.202188 1.440195 0.007616 -0.003956 1408870.000000 1 0 0
-11.640235 -14.989892 -4.621575 19.533327 0.910526 1.809661 0.032779 -0.003159 115636.000000 1 0 0
-10.147935 -10.038292 -12.665975 19.083364 0.779967 2.296575 0.030198 0.000526 135086.000000 1 0 0
-4.332735 -16.027892 -4.538575 17.212337 1.306782 1.837633 0.002493 -0.006066 -74908.900000 1 0 0
-11.788135 -8.292592 0.052525 14.412840 0.613051 1.567152 0.002926 0.000442 1224190.000000 1 0 0
-9.584835 -11.077792 3.503725 15.061959 0.857527 1.336025 0.004649 0.004900 3631350.000000 1 0 0
-14.046435 -12.863892 -0.718275 19.060377 0.741483 1.608489 0.008642 0.004252 -995013.000000 1 0 0
5.650365 -14.979492 -7.192375 17.551127 -1.210092 1.993026 0.004501 -0.008027 -544547.000000 1 0 0
-7.390835 -10.511392 -1.226475 12.908061 0.957975 1.665956 0.004673 -0.001523 6656.590000 1 0 0
-11.612435 -8.266692 -6.068075 15.492203 0.618657 1.973259 0.014504 -0.008554 -259718.000000 1 0 0
-14.533335 -6.625192 -9.249775 18.457229 0.427718 2.095719 0.029786 -0.016448 899819.000000 1 0 0
-3.827035 -16.451992 1.475225 16.955545 1.342243 1.483681 0.003330 -0.006481 -218892.000000 1 0 0
-7.893235 -15.465892 0.211625 17.364957 1.098892 1.558609 0.019435 -0.006019 566051.000000 1 0 0
0.962765 -18.603392 3.553925 18.964269 -1.519090 1.382281 0.020159 -0.015402 1110950.000000 1 0 0
-14.028635 -8.837692 -4.583675 17.202251 0.562169 1.840512 0.010502 -0.008685 -1334870.000000 1 0 0
-3.242035 -14.455092 11.176025 18.557047 1.350164 0.924477 0.000290 -0.012312 1079650.000000 1 0 0
-10.803035 -12.141192 -3.864275 16.704691 0.843654 1.804240 0.012401 -0.008926 2425430.000000 1 0 0
-9.880635 -10.685592 0.543025 14.563780 0.824518 1.533502 0.005622 0.004116 1326820.000000 1 0 0
-0.039135 -13.202092 -11.144275 17.276910 1.567832 2.271870 0.005129 0.003559 690256.000000 1 0 0
-5.886935 -12.729592 -6.377375 15.406798 1.137629 1.997566 0.006675 -0.007618 749788.000000 1 0 0
1.743765 -15.744592 9.905725 18.683048 -1.460493 1.011962 0.026899 -0.016312 474695.000000 1 0 0
-9.009935 -15.795392 -5.338175 18.951766 1.052414 1.856332 0.028925 -0.006467 -390244.000000 1 0 0
-3.326535 -15.512792 5.873125 16.917628 1.359557 1.216255 0.001714 -0.001530 -303011.000000 1 0 0
-17.497635 -5.519792 -6.497975 19.464300 0.305579 1.911171 0.022558 -0.011002 -203960.000000 1 0 0
18.881065 5.547408 -2.965375 19.901302 0.285766 1.720357 0.030933 0.002739 -964646.000000 1 0 0
12.908165 -12.436892 -5.834675 18.850476 -0.766806 1.885489 0.043921 -0.016041 550900.000000 1 0 0
11.059065 -13.444792 -1.705975 17.492161 -0.882454 1.668480 0.032749 -0.006459 2167790.000000 1 0 0
18.751665 -2.873492 4.392625 19.472470 -0.152056 1.343257 0.058100 -0.014946 -1086410.000000 1 0 0
8.776765 -16.914392 4.897225 19.675139 -1.092149 1.319248 0.036376 -0.018238 -997654.000000 1 0 0
18.157965 -1.019292 6.595225 19.345482 -0.056076 1.222903 0.079041 -0.019352 -1521820.000000 1 0 0
18.030465 -4.175492 -5.262875 19.241369 -0.227568 1.847846 0.070042 -0.016134 794466.000000 1 0 0
5.439965 -11.648192 14.755625 19.570439 -1.133877 0.716704 0.000240 0.003515 971058.000000 1 0 0
15.943865 -8.827492 -0.783075 18.241290 -0.505649 1.613738 0.037752 -0.007452 -189502.000000 1 0 0
13.919165 -12.677292 -1.494775 18.886271 -0.738739 1.650025 0.037978 -0.000587 -61019.700000 1 0 0
11.322165 -1.935192 13.844625 17.989165 -0.169285 0.692568 0.031352 -0.006042 -1425180.000000 1 0 0
17.072365 -6.078892 -1.476275 18.182353 -0.342069 1.652079 0.047900 -0.008952 100858.000000 1 0 0
17.869565 3.707908 -0.938175 18.274302 0.204595 1.622157 0.029292 0.000627 1590540.000000 1 0 0
9.694965 -10.996392 9.555025 17.498900 -0.848213 0.993171 0.015250 -0.005962 219611.000000 1 0 0
9.125865 -11.095292 4.201225 14.967873 -0.882486 1.286291 0.011768 -0.005817 -1233550.000000 1 0 0
14.060765 -10.056092 6.784525 18.570404 -0.620847 1.196797 0.026030 -0.008051 175945.000000 1 0 0
16.319265 -0.498292 -4.805875 17.019493 -0.030524 1.857065 0.031728 -0.002234 -511590.000000 1 0 0
15.730365 -0.436992 -1.813675 15.840605 -0.027773 1.685543 0.020993 -0.001222 1595710.000000 1 0 0
12.903265 -5.080592 -0.347975 13.871833 -0.375102 1.595884 0.018580 -0.004999 764532.000000 1 0 0
14.336165 -7.425792 1.059025 16.179912 -0.477925 1.505296 0.031940 -0.003006 2253680.000000 1 0 0
15.544465 2.511508 3.629425 16.158923 0.160185 1.344255 0.030100 -0.008954 919313.000000 1 0 0
16.073665 -6.985892 4.919125 18.203384 -0.409988 1.297163 0.050527 -0.011903 -1096390.000000 1 0 0
13.773165 -11.971192 3.188025 18.524930 -0.715517 1.397842 0.021681 -0.002436 81172.800000 1 0 0
13.970865 -0.966692 9.130125 16.717618 -0.069083 0.993049 0.035233 -0.014737 527105.000000 1 0 0
14.175165 -2.814492 -1.701775 14.551726 -0.196002 1.688011 0.013816 -0.003925 2417900.000000 1 0 0
14.941965 1.811208 9.151725 17.615246 0.120628 1.024490 0.047472 -0.011538 -1109790.000000 1 0 0
14.379665 -10.134092 -3.035075 17.851786 -0.613908 1.741641 0.039108 -0.009940 1300410.000000 1 0 0
7.460065 -12.642492 6.137325 15.910749 -1.037704 1.174792 0.006144 -0.004897 1182.880000 1 0 0
12.498065 -4.658092 6.828725 14.984357 -0.356757 1.097611 0.020776 -0.007738 2963150.000000 1 0 0
15.021565 -8.970992 -5.721275 18.408126 -0.538364 1.886833 0.059330 -0.015622 794181.000000 1 0 0
14.438865 -4.464692 4.550525 15.783586 -0.299888 1.278338 0.028848 -0.010127 1654290.000000 1 0 0
17.128865 -4.078992 0.822525 17.627046 -0.233781 1.524117 0.028668 -0.011711 107671.000000 1 0 0
10.384465 -14.443392 1.047925 17.819844 -0.947447 1.511956 0.036790 -0.006758 1439570.000000 1 0 0
16.388265 -2.532992 8.446725 18.610171 -0.153348 1.099685 0.062641 -0.019004 1340480.000000 1 0 0
16.090365 -2.476692 3.098025 16.572013 -0.152725 1.382747 0.029801 -0.008942 1359200.000000 1 0 0
7.983765 -15.266992 2.597125 17.423163 -1.088963 1.421177 0.021167 -0.009219 4189190.000000 1 0 0
16.686265 -7.022492 7.852725 19.733528 -0.398354 1.161528 0.057405 -0.010375 -489873.000000 1 0 0
10.287565 -8.494892 5.078325 14.275384 -0.690242 1.207091 0.014387 -0.005885 1927690.000000 1 0 0
11.032965 -11.779892 2.134525 16.280306 -0.818128 1.439307 0.021073 -0.004574 2213810.000000 1 0 0
12.220665 -7.237692 12.063825 18.635040 -0.534702 0.866663 0.031665 -0.020489 -567979.000000 1 0 0
15.193965 -9.751792 4.313525 18.562342 -0.570603 1.336272 0.025150 -0.006013 -247247.000000 1 0 0
7.328865 -10.231292 7.782025 14.797010 -0.949202 1.017001 0.002962 -0.002057 1047360.000000 1 0 0
15.271365 -3.325692 -4.420275 16.242341 -0.214425 1.846418 0.041423 -0.003764 2468640.000000 1 0 0
11.726765 -8.891192 9.708825 17.630417 -0.648726 0.987610 0.025294 -0.015269 -2999100.000000 1 0 0
17.012265 -6.540592 2.291025 18.369685 -0.367041 1.445753 0.046434 -0.009023 1271810.000000 1 0 0
17.551665 4.016708 1.991725 18.115239 0.224976 1.460626 0.027928 0.003328 700147.000000 1 0 0
14.735365 -4.949592 8.694725 17.810887 -0.324058 1.060806 0.049597 -0.018046 1666760.000000 1 0 0
12.893665 -12.540392 6.023125 18.968028 -0.771509 1.247661 0.019241 -0.003951 -1638840.000000 1 0 0
18.225765 0.820008 -0.966375 18.269779 0.044961 1.623716 0.031050 -0.005013 712545.000000 1 0 0
11.684065 -2.138192 10.953925 16.157900 -0.180998 0.825853 0.016204 -0.006273 1404470.000000 1 0 0
5.755465 -12.345492 10.599925 17.259634 -1.134553 0.909494 -0.005190 -0.001024 -1065610.000000 1 0 0
10.750665 -4.921292 11.073725 16.199485 -0.429294 0.818133 0.019467 -0.010049 1535500.000000 1 0 0
17.920665 1.327308 5.016325 18.656782 0.073931 1.298572 0.058813 -0.008869 353424.000000 1 0 0
12.301865 -7.698392 7.084425 16.149000 -0.559168 1.116655 0.026173 -0.013529 -907620.000000 1 0 0
10.450465 -7.866192 14.174025 19.287099 -0.645235 0.745282 0.021065 -0.018797 -462290.000000 1 0 0
14.188065 -0.221392 3.702025 14.664761 -0.015603 1.315591 0.015895 -0.006010 1026110.000000 1 0 0
11.668765 -7.604292 2.541725 14.157885 -0.577555 1.390291 0.016865 -0.003638 2994490.000000 1 0 0
9.247465 6.031508 3.436325 11.563003 0.577944 1.269056 0.004778 -0.000993 2800640.000000 1 0 0
-3.855435 14.791308 -9.956775 18.242383 -1.315814 2.148145 0.010603 -0.001235 615152.000000 1 0 0
8.905365 -6.318092 9.216725 14.288871 -0.617054 0.869736 0.010095 -0.006277 411091.000000 1 0 0
5.742565 -10.626992 -8.515875 14.779382 -1.075372 2.184868 -0.002444 0.000260 66183.400000 1 0 0
5.361565 0.961608 0.494525 5.469518 0.177465 1.480258 0.000977 0.001439 2866240.000000 1 0 0
-0.616235 9.899808 11.004925 14.815341 -1.508629 0.733544 -0.002691 0.000667 -215118.000000 1 0 0
-6.328735 -5.116692 1.006725 8.200421 0.679894 1.447721 0.006334 -0.003481 3827520.000000 1 0 0
-1.123235 4.001408 -10.903575 11.668799 -1.297130 2.777427 0.008604 -0.005839 1485400.000000 1 0 0
10.983665 5.766108 1.174725 12.460694 0.483424 1.476382 0.006292 0.000285 1000440.000000 1 0 0
-10.193035 -1.652792 -13.572875 17.054401 0.160750 2.491219 0.015017 -0.008805 1323780.000000 1 0 0
7.561865 10.956508 -6.152475 14.665600 0.966697 2.003710 0.010969 -0.003542 1120000.000000 1 0 0
-12.470335 -2.959692 -9.606875 16.017524 0.233027 2.214013 0.011319 -0.003749 1293140.000000 1 0 0
-3.793835 -8.684292 2.411925 9.778931 1.158922 1.321579 0.003967 -0.000592 -1264210.000000 1 0 0
8.016865 -6.755692 -5.889575 12.024832 -0.700232 2.082639 0.000657 -0.003953 1708220.000000 1 0 0
14.368765 3.129208 -4.219475 15.298932 0.214430 1.850220 0.021971 -0.000715 1399190.000000 1 0 0
-2.432435 -4.931292 9.830525 11.263818 1.112551 0.509984 -0.005881 -0.001590 2337830.000000 1 0 0
3.484765 -1.927292 -4.569575 6.061275 -0.505191 2.424769 -0.001458 -0.001156 -2194040.000000 1 0 0
-4.044835 8.333608 -3.471375 9.892429 -1.118926 1.929341 -0.001904 -0.001084 445136.000000 1 0 0
5.768365 0.200208 11.715125 13.059797 0.034694 0.457777 -0.000791 -0.006225 1982630.000000 1 0 0
7.113965 4.816108 12.385025 15.072898 0.595118 0.606452 -0.001099 0.000599 871269.000000 1 0 0
1.176465 -14.498992 12.453525 19.149285 -1.489833 0.862766 0.014642 -0.001759 458719.000000 1 0 0
2.936565 8.629908 -9.227075 12.970645 1.242809 2.362258 0.014295 -0.004389 -547988.000000 1 0 0
-4.409035 -8.906292 -4.593475 10.948134 1.111119 2.003764 0.008138 -0.003619 1291690.000000 1 0 0
5.703865 -6.652592 -3.973275 9.621745 -0.862028 1.996484 -0.000431 -0.004129 2298660.000000 1 0 0
-3.122335 3.469208 8.641325 9.821247 -0.837974 0.495228 0.000201 -0.000914 1320090.000000 1 0 0
-3.813435 3.164908 -11.186275 12.234855 -0.692730 2.724562 0.004157 -0.005707 -853443.000000 1 0 0
3.034065 -6.040992 8.562925 10.909758 -1.105353 0.668283 -0.008355 -0.000060 -662255.000000 1 0 0
-5.036835 -8.682592 10.543325 14.557432 1.045132 0.760840 0.001878 -0.006241 2588470.000000 1 0 0
-13.241535 -2.608592 6.624625 15.034249 0.194510 1.114490 0.030046 -0.007436 724145.000000 1 0 0
3.955665 -6.011592 -8.286475 10.975071 -0.988813 2.426492 -0.003733 -0.000080 2556410.000000 1 0 0
2.905965 -0.500792 12.416925 12.762267 -0.170656 0.233163 -0.000524 -0.004771 1038600.000000 1 0 0
1.471565 -1.526292 -7.587075 7.877739 -0.803651 2.869100 0.001056 -0.003899 -298160.000000 1 0 0
3.659365 -3.495192 3.435625 6.116440 -0.762455 0.974353 0.000682 -0.001225 2747300.000000 1 0 0
1.630965 0.364008 -11.756575 11.874746 0.219587 3.000397 0.007992 -0.008228 -1636090.000000 1 0 0
3.993765 3.554108 -10.618775 11.888659 0.727215 2.675176 0.010543 -0.000534 1182080.000000 1 0 0
2.866465 3.262308 3.408525 5.520627 0.849896 0.905342 -0.006810 0.003495 105132.000000 1 0 0
-5.247435 0.837408 2.544525 5.891641 -0.158250 1.124212 0.004411 -0.005854 880670.000000 1 0 0
-9.414535 -9.211292 5.750125 14.371684 0.774487 1.159169 0.015561 -0.003142 -561484.000000 1 0 0
-3.030435 3.885808 -0.559375 4.959429 -0.908449 1.683827 0.000433 -0.003389 727954.000000 1 0 0
-15.853235 -6.480292 5.086425 17.865916 0.388042 1.282103 0.050393 -0.014955 969898.000000 1 0 0
0.912065 6.696008 -8.151275 10.588280 1.435419 2.449386 0.009207 -0.001566 712569.000000 1 0 0
-1.813535 6.581708 -9.470275 11.674498 -1.301927 2.516986 0.005524 -0.002301 1513020.000000 1 0 0
2.092665 -0.305092 5.226325 5.637979 -0.144771 0.384501 -0.003784 -0.000575 2829900.000000 1 0 0
-3.382735 -0.506592 -6.366575 7.227226 0.148653 2.648589 0.008801 -0.007248 426622.000000 1 0 0
1.832065 -1.209892 -2.452675 3.291795 -0.583650 2.411462 0.004877 -0.000887 1656790.000000 1 0 0
2.480865 -8.688292 -7.523975 11.758031 -1.292657 2.265166 -0.006709 0.002543 3194220.000000 1 0 0
-2.472235 14.072308 -5.572375 15.336009 -1.396890 1.942660 -0.000246 0.001274 2697660.000000 1 0 0
6.870965 -5.140592 -8.102375 11.801878 -0.642323 2.327506 -0.000915 -0.001358 2922520.000000 1 0 0
-14.237635 -5.013792 -2.179875 15.251236 0.338589 1.714219 0.000770 0.000308 -1945650.000000 1 0 0
-2.801135 6.875508 -6.774375 10.050429 -1.183920 2.310458 0.000200 -0.001568 -2546220.000000 1 0 0
-5.636035 -1.144892 -8.184575 10.003146 0.200411 2.529070 0.015026 -0.009867 -142710.000000 1 0 0
-5.645235 -10.526692 3.491425 12.444676 1.078549 1.286423 0.001204 -0.000318 -3000430.000000 1 0 0
8.109165 -7.574092 6.680825 12.952176 -0.751294 1.028847 0.004700 -0.005064 1765440.000000 1 0 0
8.688265 -5.802892 13.122825 16.774029 -0.588856 0.672399 0.015126 -0.006868 590779.000000 1 0 0
-4.670935 9.477508 -0.723575 10.590767 -1.112890 1.639171 -0.002230 0.002066 310763.000000 1 0 0
2.781665 6.619408 12.136825 14.101658 1.172974 0.534219 0.000278 -0.003869 612848.000000 1 0 0
5.943665 -2.724892 10.971325 12.771929 -0.429861 0.537447 0.001265 -0.005262 -1504600.000000 1 0 0
-9.678135 -6.537192 -1.120875 11.732754 0.594066 1.666476 0.008448 -0.002814 -1095720.000000 1 0 0
0.955265 -13.378392 6.227725 14.787781 -1.499514 1.136095 0.001162 -0.001868 1545120.000000 1 0 0
-0.527635 -3.164692 8.594825 9.174132 1.405590 0.357272 -0.006877 -0.001669 166877.000000 1 0 0
4.209865 0.727508 3.347525 5.427537 0.171120 0.906168 -0.004722 0.002115 278521.000000 1 0 0
-10.270335 5.468508 8.283425 14.282839 -0.489275 0.952121 0.008527 -0.009986 281920.000000 1 0 0
9.417065 7.933308 0.003425 12.313347 0.700088 1.570518 0.002487 0.001090 208106.000000 1 0 0
4.317565 2.871608 8.199325 9.701363 0.586916 0.563908 -0.008131 0.001894 2350750.000000 1 0 0
1.287965 2.674008 -9.804875 10.244254 1.121927 2.847652 0.009379 -0.005497 2259770.000000 1 0 0
-1.384235 -10.225592 3.005525 10.747652 1.436245 1.287372 0.002248 -0.002775 -2603030.000000 1 0 0
-10.018735 9.387508 9.059425 16.449120 -0.752883 0.987529 0.006280 -0.006441 2257370.000000 1 0 0
9.805865 -1.936592 -7.653975 12.589230 -0.194984 2.224308 0.009401 0.001262 1184130.000000 1 0 0
-5.149035 -1.853992 6.610425 8.581816 0.345614 0.691512 0.003112 -0.005270 1499570.000000 1 0 0
3.177565 -7.897292 -4.869375 9.806883 -1.188256 2.090389 -0.006542 -0.001645 1626120.000000 1 0 0
-5.112835 4.899908 -13.083375 14.876991 -0.764136 2.645474 0.003063 -0.005376 2569590.000000 1 0 0
-5.607635 9.636908 5.534925 12.447930 -1.043798 1.110017 -0.000833 0.000081 2136650.000000 1 0 0
-0.464235 -1.822792 -9.382975 9.569655 1.321415 2.943748 0.006508 -0.006194 -1340650.000000 1 0 0
-16.866435 0.066408 6.419325 18.046849 -0.003937 1.207130 0.039289 -0.010031 -1253320.000000 1 0 0
-5.904435 -2.892192 4.023525 7.708170 0.455482 1.021623 0.004599 -0.004530 3259550.000000 1 0 0
1.003565 -5.725392 -5.185475 7.789506 -1.397276 2.299228 0.000697 -0.001495 2968120.000000 1 0 0
-7.064335 1.402408 -8.473375 11.120686 -0.195972 2.437111 0.004226 -0.004877 1254750.000000 1 0 0
8.044865 1.925708 4.724725 9.526345 0.234950 1.051852 -0.003265 0.002171 1838920.000000 1 0 0
0.504265 -8.127792 -0.530975 8.160712 -1.508834 1.635907 -0.000102 -0.002189 1045330.000000 1 0 0
5.444265 5.577808 -3.386075 8.498086 0.797514 1.980624 0.003163 0.001972 -1047910.000000 1 0 0
-0.766935 -0.387292 -1.211775 1.485457 0.467629 2.524837 0.002812 -0.002429 140278.000000 1 0 0
9.036865 6.406308 -6.312775 12.749778 0.616680 2.088779 0.009794 -0.002690 -488903.000000 1 0 0
-14.988735 -7.030792 2.555925 16.751924 0.438600 1.417623 0.008430 -0.008090 1014840.000000 1 0 0
-6.395835 6.772508 8.921525 12.898340 -0.813995 0.806983 0.003632 -0.002806 194374.000000 1 0 0
-9.440635 -3.213592 -9.706975 13.916828 0.328097 2.342698 0.011956 -0.003873 1744570.000000 1 0 0
14.956465 3.426208 -1.253975 15.395039 0.225193 1.652340 0.006834 -0.000869 1263600.000000 1 0 0
12.143165 1.648208 -5.738875 13.531731 0.134907 2.008770 0.012689 0.001431 -1283680.000000 1 0 0
1.655665 -9.380092 12.739325 15.906532 -1.396087 0.642022 -0.010193 0.003582 -795585.000000 1 0 0
-3.624435 6.331808 7.862125 10.725732 -1.050905 0.748052 0.001472 0.001300 1608250.000000 1 0 0
-4.101735 13.092008 -12.333175 18.448092 -1.267182 2.303032 0.006960 -0.001092 284519.000000 1 0 0
-10.298135 7.699008 6.496025 14.405716 -0.641971 1.102985 0.004010 -0.004505 1124820.000000 1 0 0
7.978165 -9.334392 -7.239775 14.254695 -0.863576 2.103526 0.003685 -0.002535 -75904.000000 1 0 0
5.862465 -3.831992 -0.382175 7.014180 -0.578936 1.625309 0.003306 -0.002106 -201434.000000 1 0 0
-1.594435 -4.476792 4.162025 6.317147 1.228648 0.851513 -0.003202 -0.000641 1230750.000000 1 0 0
9.860165 -2.131192 -2.665975 10.434187 -0.212867 1.829165 0.007768 -0.002991 -2107620.000000 1 0 0
13.517065 7.113308 1.382225 15.336908 0.484424 1.480550 0.008360 0.001076 502829.000000 1 0 0
5.405565 -3.755992 -3.274675 7.351946 -0.607253 2.032435 0.001406 -0.003997 -2139820.000000 1 0 0
-12.253235 -5.976892 1.980325 13.776309 0.453824 1.426548 0.004088 -0.001968 162788.000000 1 0 0
3.706365 -5.740292 -0.288475 6.838955 -0.997467 1.612990 0.000855 -0.002338 -202191.000000 1 0 0
-5.213035 3.696208 -8.650175 10.754683 -0.616762 2.505321 0.002664 -0.005765 370137.000000 1 0 0
-1.635335 -9.208992 7.222525 11.817137 1.395048 0.913232 -0.004573 -0.000442 227505.000000 1 0 0
-7.388935 -7.399992 2.554625 10.764866 0.786146 1.331199 0.007485 -0.003026 -2846110.000000 1 0 0
-5.712735 13.121208 -8.519475 16.654816 -1.160165 2.107763 0.007968 -0.005787 1575590.000000 1 0 0
9.214965 -13.928692 -4.236075 17.229869 -0.986322 1.819200 0.021602 -0.004076 3134490.000000 1 0 0
-6.610435 -5.189692 -6.737175 10.771270 0.665574 2.246538 0.011405 -0.002458 1238990.000000 1 0 0
3.445065 0.347108 -6.243575 7.139411 0.100416 2.635247 0.000300 -0.003098 1858620.000000 1 0 0
-3.612235 5.743808 4.987425 8.421044 -1.009403 0.936939 0.000981 0.000062 826899.000000 1 0 0
-2.640335 -10.855592 -2.828675 11.524610 1.332206 1.818777 0.004896 -0.002783 1629410.000000 1 0 0
-12.619535 -0.449292 1.823225 12.758474 0.035588 1.427402 0.006577 -0.002135 2058940.000000 1 0 0
8.389665 -11.999592 -6.153875 15.882281 -0.960633 1.968680 0.011037 -0.009433 -186324.000000 1 0 0
6.078365 3.845508 0.939525 7.253769 0.564085 1.440909 -0.000425 0.002090 55361.400000 1 0 0
3.442265 -4.903692 -10.931775 12.465917 -0.958747 2.640240 0.000079 -0.001781 1867290.000000 1 0 0
-7.679535 4.159308 8.590925 12.250677 -0.496378 0.793631 0.004985 -0.005827 2393200.000000 1 0 0
8.214565 8.754608 4.106525 12.688018 0.817212 1.241208 0.008334 0.001159 1393430.000000 1 0 0
0.214065 10.534508 -6.363275 12.309060 1.550479 2.114090 0.002452 0.000999 1347100.000000 1 0 0
5.393865 8.112408 3.293625 10.283624 0.984024 1.244773 0.003891 0.003208 2941500.000000 1 0 0
8.022165 6.675208 -3.807975 11.109195 0.694007 1.920668 0.003828 0.000628 635745.000000 1 0 0
10.567265 2.590208 -8.177575 13.610621 0.240377 2.215327 0.008645 -0.001682 364476.000000 1 0 0
3.321065 -12.516692 -0.276675 12.952745 -1.311441 1.592158 0.002296 -0.003948 -2162830.000000 1 0 0
0.625665 2.127308 5.252025 5.700936 1.284751 0.399497 -0.001316 0.001640 722348.000000 1 0 0
-4.950335 13.290408 1.480325 14.259457 -1.214242 1.466795 -0.002852 0.001873 837697.000000 1 0 0
8.203865 4.104608 -7.989175 12.164626 0.463908 2.287303 0.002473 0.001515 3300820.000000 1 0 0
-13.923735 -0.601292 -3.572375 14.387279 0.043158 1.821722 0.002255 0.003386 -366934.000000 1 0 0
-8.509535 -0.023392 -0.536875 8.526486 0.002749 1.633804 0.004334 -0.003639 -865801.000000 1 0 0
1.756365 -3.928492 -1.149775 4.454194 -1.150370 1.831886 0.003386 -0.000191 -2096570.000000 1 0 0
8.091465 -5.772792 -0.229975 9.942325 -0.619691 1.593929 0.007331 -0.002745 3059100.000000 1 0 0
-2.260635 -1.133792 7.414025 7.833500 0.464876 0.328736 -0.000844 -0.003255 2718010.000000 1 0 0
-5.991035 8.874008 -11.708675 15.866114 -0.976963 2.400850 -0.002401 0.002209 -2432300.000000 1 0 0
-6.201935 9.259108 -8.775675 14.184764 -0.980614 2.237844 0.000051 0.000282 -563303.000000 1 0 0
-1.531935 13.961208 -8.374175 16.352032 -1.461506 2.108446 0.011702 -0.003294 -473495.000000 1 0 0
-1.540635 7.242208 9.746725 12.240171 -1.361191 0.649659 -0.001271 -0.000290 -244465.000000 1 0 0
10.024665 2.314508 -4.029475 11.049323 0.226905 1.944086 0.005308 -0.000809 -1014470.000000 1 0 0
-2.987635 -7.478192 -6.890875 10.598748 1.190710 2.278590 0.008086 -0.001838 798766.000000 1 0 0
-5.554935 -4.982492 -1.724175 7.658675 0.731127 1.797870 0.006899 -0.001819 -24611.600000 1 0 0
5.692665 7.409008 -8.827975 12.854298 0.915658 2.327835 0.010531 -0.002779 1740680.000000 1 0 0
-9.567235 5.296408 -7.427675 13.219465 -0.505602 2.167446 -0.002611 -0.003736 -403563.000000 1 0 0
-0.465935 6.106008 -5.320575 8.112271 -1.494636 2.286127 0.003438 -0.000516 178600.000000 1 0 0
-8.259835 2.838608 -6.369075 10.809610 -0.331019 2.200871 0.002560 -0.004079 2134220.000000 1 0 0
3.604565 1.356008 -2.057675 4.366426 0.359815 2.061503 -0.002156 0.000689 2386220.000000 1 0 0
-6.787135 12.450708 -3.425975 14.588442 -1.071707 1.807852 0.004340 -0.000013 2566750.000000 1 0 0
-6.528035 3.151708 -2.363475 7.624599 -0.449790 1.885969 0.002823 -0.002930 -1103130.000000 1 0 0
12.176265 4.023208 -0.926175 12.857116 0.319121 1.642895 0.003436 -0.001528 231545.000000 1 0 0
2.217265 12.355208 -5.501175 13.705122 1.393227 1.983836 0.010696 -0.001920 1586130.000000 1 0 0
-9.206935 -1.355392 -4.197175 10.208869 0.146164 1.994490 0.007515 -0.002712 2069100.000000 1 0 0
-1.122235 5.743008 3.460425 6.798242 -1.377819 1.036753 -0.004352 0.002933 893484.000000 1 0 0
11.465765 2.686508 12.148625 16.919521 0.230155 0.769837 0.013536 0.002739 -554889.000000 1 0 0
-7.010935 -2.372292 -5.798175 9.402117 0.326277 2.235325 0.015902 -0.005103 -313596.000000 1 0 0
7.464565 -7.204492 10.784925 14.964593 -0.767671 0.765990 0.001661 -0.003371 -694076.000000 1 0 0
-5.483135 -1.872692 -11.014975 12.445939 0.329115 2.657345 0.013085 -0.006812 -455108.000000 1 0 0
0.864565 -6.193592 4.465825 7.684507 -1.432102 0.950659 -0.004846 0.000851 1579360.000000 1 0 0
-4.704935 -9.274592 7.436225 12.784831 1.101331 0.950048 -0.003757 -0.000576 3405300.000000 1 0 0
-8.746235 9.273508 1.692425 12.859194 -0.814651 1.438801 -0.000518 0.002689 1324210.000000 1 0 0
-8.144735 7.232908 -9.059375 14.167707 -0.726172 2.264564 -0.002572 -0.000302 228379.000000 1 0 0
-1.161435 -10.714592 -0.093275 10.777760 1.462820 1.579451 0.002149 -0.002263 -529558.000000 1 0 0
-3.915435 10.333108 7.824425 13.539771 -1.208592 0.954662 0.003303 0.000409 1885800.000000 1 0 0
-7.540335 12.125708 1.995925 14.417807 -1.014468 1.431916 -0.003781 -0.000734 1626890.000000 1 0 0
-8.105235 -8.282492 -2.880775 11.941246 0.796214 1.814446 0.012360 -0.003662 -478693.000000 1 0 0
5.390065 4.634008 -8.103175 10.779067 0.710117 2.421510 0.007482 0.000646 1608430.000000 1 0 0
-8.920235 -0.156792 -10.180775 13.536740 0.017575 2.422016 0.011058 -0.007409 -2336300.000000 1 0 0
-15.233635 -2.260692 -1.500475 15.473389 0.147326 1.667920 0.000445 0.000719 -395532.000000 1 0 0
-7.129035 -5.785392 8.770125 12.696810 0.681729 0.808292 0.004767 -0.002909 -416542.000000 1 0 0
8.127965 3.446308 -0.970775 8.881625 0.401029 1.680317 0.002095 0.001623 918956.000000 1 0 0
11.902965 7.179908 -5.890075 15.097173 0.542772 1.971585 0.002128 -0.002525 952552.000000 1 0 0
3.828565 13.286108 -9.505275 16.778821 1.290234 2.173054 0.015426 -0.010581 2077490.000000 1 0 0
-9.710235 5.444108 -0.431575 11.140612 -0.510988 1.609545 0.001095 0.000132 -710778.000000 1 0 0
11.304365 -1.327992 -5.209275 12.517539 -0.116940 2.000012 0.017494 -0.001612 -400035.000000 1 0 0
10.606565 1.742408 -1.131075 10.808078 0.162822 1.675639 0.005978 -0.000664 1033000.000000 1 0 0
14.631765 5.017608 4.782325 16.190602 0.330359 1.270947 0.027201 -0.006983 2957050.000000 1 0 0
0.859065 -0.874392 10.262925 10.335869 -0.794239 0.118875 -0.003487 -0.003424 2258620.000000 1 0 0
-7.893435 1.432108 -12.600175 14.937257 -0.179478 2.574637 0.004120 -0.008412 -1186540.000000 1 0 0
3.096865 -11.639192 -7.801675 14.350174 -1.310749 2.145593 -0.007514 0.004113 710712.000000 1 0 0
2.855065 4.988108 -6.811875 8.912590 1.050938 2.440748 0.005886 0.001324 -2607190.000000 1 0 0
6.505565 8.034108 0.535925 10.351642 0.890143 1.519001 0.008128 0.000177 874117.000000 1 0 0
-9.024635 -5.357292 6.739025 12.472332 0.535722 0.999981 0.008397 -0.002610 -1754500.000000 1 0 0
-0.257335 -6.816792 -11.812975 13.641160 1.533064 2.617904 0.004084 0.004547 2247720.000000 1 0 0
6.356665 -13.363892 -4.741575 15.539734 -1.126810 1.880867 0.004503 -0.002124 3722780.000000 1 0 0
-3.197435 -0.334592 10.042525 10.544565 0.104264 0.309819 -0.001148 -0.001338 1043080.000000 1 0 0
8.588665 8.529508 6.988225 13.976873 0.781942 1.047215 -0.000287 0.000078 -199581.000000 1 0 0
-7.974335 5.621908 -2.640375 10.107791 -0.614074 1.835084 0.001387 -0.002887 370107.000000 1 0 0
-5.431835 5.818008 -6.456475 10.248908 -0.819712 2.252307 -0.000241 -0.000800 -1938270.000000 1 0 0
3.410065 -13.746892 2.508725 14.383994 -1.327644 1.395489 0.010664 -0.009286 -1440760.000000 1 0 0
-11.226535 -6.971492 6.506425 14.729913 0.555706 1.113287 0.030280 -0.009256 -993830.000000 1 0 0
-12.960435 -3.756192 -6.754575 15.089934 0.282091 2.034900 0.011861 -0.001563 955991.000000 1 0 0
6.066265 0.329608 -7.293975 9.492644 0.054281 2.447105 0.001795 0.001969 -258832.000000 1 0 0
-1.410235 2.208208 -2.476075 3.604981 -1.002454 2.327940 0.002139 -0.003566 2328880.000000 1 0 0
7.600665 0.921508 -4.977875 9.132279 0.120652 2.147288 0.003464 0.001597 -138560.000000 1 0 0
3.554065 -4.338392 10.882225 12.242379 -0.884450 0.475863 -0.004605 -0.002448 779422.000000 1 0 0
6.028965 -2.550292 2.076825 6.867723 -0.400181 1.263583 0.003777 -0.001839 -2236820.000000 1 0 0
-6.262635 7.704808 1.239725 10.006077 -0.888286 1.446580 -0.002322 0.000878 2593660.000000 1 0 0
6.028465 -3.357192 7.994525 10.560567 -0.508118 0.712061 0.003565 -0.004558 -246696.000000 1 0 0
6.747865 -2.303492 -7.855375 10.608802 -0.328962 2.404548 -0.000403 -0.000017 1318970.000000 1 0 0
12.058265 -8.261292 -5.913775 15.767797 -0.600666 1.955251 0.030443 -0.007337 243887.000000 1 0 0
5.550065 -9.508592 9.944625 14.836176 -1.042456 0.836189 -0.009056 0.004387 1858190.000000 1 0 0
-6.691335 7.443008 -4.465775 10.959720 -0.838529 1.990480 0.003524 -0.001435 520572.000000 1 0 0
-1.193935 -7.524392 9.718525 12.348752 1.413433 0.664858 -0.005290 -0.000902 -1485900.000000 1 0 0
10.061765 -9.275492 0.729425 13.704230 -0.744759 1.517545 0.012962 -0.002880 1048200.000000 1 0 0
11.052965 6.069508 9.707425 15.913550 0.502175 0.914723 0.009421 -0.004761 828526.000000 1 0 0
-15.400635 -4.295292 -4.921575 16.728747 0.271992 1.869413 0.008222 -0.005439 1541290.000000 1 0 0
-4.649635 -4.581292 7.791125 10.164102 0.777995 0.697370 0.001545 -0.003450 -318850.000000 1 0 0
2.877465 10.877908 -11.070775 15.785143 1.312196 2.348074 0.015523 -0.006731 -12763.600000 1 0 0
9.852765 -1.278392 1.505425 10.048760 -0.129029 1.420418 0.005539 -0.003247 49622.000000 1 0 0
-1.667935 -2.618992 0.676025 3.177756 1.003713 1.356421 0.002714 -0.003378 1204010.000000 1 0 0
1.632465 2.973008 0.940825 3.519783 1.068648 1.300210 -0.004667 0.000867 -995636.000000 1 0 0
-8.937835 -2.326192 4.271425 10.175516 0.254615 1.137599 0.006370 -0.004261 4252770.000000 1 0 0
9.926765 4.897208 -2.728275 11.400298 0.458300 1.812458 0.003260 -0.000121 2605200.000000 1 0 0
2.549865 8.488708 2.542425 9.220841 1.278988 1.291451 0.000863 0.002529 993877.000000 1 0 0
-8.044035 -0.085292 2.397325 8.394101 0.010603 1.281168 0.002150 -0.007256 2643360.000000 1 0 0
6.909265 2.163608 13.695825 15.491765 0.303473 0.486293 0.002125 -0.004790 1220590.000000 1 0 0
6.779465 4.340508 3.716325 8.866354 0.569486 1.138288 -0.002700 0.002471 278619.000000 1 0 0
-0.339635 3.379408 7.797125 8.504758 -1.470631 0.410815 -0.003785 0.000680 285890.000000 1 0 0
2.717565 -10.201592 9.195725 14.000679 -1.310456 0.854222 -0.004635 -0.000574 878718.000000 1 0 0
1.439565 -4.520492 6.827425 8.313900 -1.262497 0.607275 -0.008653 -0.000418 163433.000000 1 0 0
-0.205635 10.829008 -2.049575 11.023178 -1.551809 1.757818 0.000676 -0.002592 1753370.000000 1 0 0
8.682865 5.560108 8.020225 13.062579 0.569564 0.909697 -0.004973 0.001121 -36572.100000 1 0 0
2.591065 11.383208 -2.875475 12.023286 1.346988 1.812296 0.007780 -0.005764 1552350.000000 1 0 0
1.508265 2.394708 -6.772775 7.340298 1.008729 2.745781 0.002439 -0.000124 2071490.000000 1 0 0
-13.698435 -2.255992 3.646725 14.353927 0.163225 1.313923 0.010961 -0.002835 -153208.000000 1 0 0
-0.977535 -10.726292 -5.310275 12.008660 1.479913 2.028851 0.000589 -0.000682 1355270.000000 1 0 0
-5.640835 2.839708 0.421125 6.329321 -0.466380 1.504212 0.006355 -0.005138 275818.000000 1 0 0
3.731265 7.249708 -5.086875 9.610250 1.095475 2.128592 0.006382 0.000078 -2284200.000000 1 0 0
2.916065 9.738708 -6.555175 12.096123 1.279862 2.143521 0.009436 -0.001658 525210.000000 1 0 0
-12.215835 1.638608 -2.559275 12.588151 -0.133342 1.775532 0.003944 0.000142 1376550.000000 1 0 0
-2.549435 9.578808 -5.786175 11.477500 -1.310673 2.099173 -0.003073 -0.000999 794914.000000 1 0 0
-1.299835 3.293908 1.750625 3.950201 -1.194938 1.111660 -0.004453 -0.001422 -439003.000000 1 0 0
12.783565 3.722408 9.630725 16.432490 0.283352 0.944586 0.028581 -0.004867 483153.000000 1 0 0
-2.453735 -9.541992 11.599825 15.219276 1.319099 0.704123 -0.009511 -0.003293 51831.000000 1 0 0
-0.437535 -8.986792 -7.505975 11.717232 1.522148 2.266066 0.002881 0.001992 3476850.000000 1 0 0
2.355365 7.679908 -0.488475 8.047816 1.273212 1.631530 -0.000381 0.003107 1299750.000000 1 0 0
-11.883735 -1.356992 -5.534475 13.179339 0.113697 2.004171 0.005117 0.002009 -270316.000000 1 0 0
-6.181935 -7.191092 -10.971875 14.502074 0.860718 2.428852 0.010233 0.000623 -228456.000000 1 0 0
-4.694235 -2.266692 -1.543775 5.436632 0.449848 1.858716 0.005506 -0.003864 -1901350.000000 1 0 0
-10.484935 3.638908 4.597425 12.012986 -0.334054 1.178074 0.008199 -0.006897 2745330.000000 1 0 0
6.737865 9.387708 -3.711175 12.136751 0.948268 1.881554 0.009277 0.000451 77243.500000 1 0 0
1.270365 -2.747792 -11.461075 11.854131 -1.137743 2.883358 0.005005 -0.003806 -1217120.000000 1 0 0
1.171465 8.851308 7.625725 11.741792 1.439212 0.863933 -0.003612 0.003475 1004660.000000 1 0 0
10.315165 0.466408 10.500525 14.726887 0.045185 0.777004 0.004824 -0.003485 49674.500000 1 0 0
-5.304835 -0.820192 -4.031875 6.713419 0.153398 2.215009 0.007727 -0.006029 -16971.200000 1 0 0
11.695665 5.683708 5.318225 14.049080 0.452358 1.182571 0.003293 0.000236 2091950.000000 1 0 0
9.879465 -3.456592 3.588825 11.064878 -0.336565 1.240478 0.014986 -0.006300 -613115.000000 1 0 0
7.268165 -1.718692 -3.533975 8.262512 -0.232203 2.012756 0.003357 0.000463 -2262530.000000 1 0 0
2.327365 9.258508 10.564025 14.238512 1.324523 0.734847 -0.001367 0.002085 2921360.000000 1 0 0
2.482165 -10.868992 6.328625 12.819814 -1.346275 1.054503 -0.007076 -0.000507 2778000.000000 1 0 0
5.891765 -7.597092 -1.185475 9.686798 -0.911156 1.693484 0.001192 -0.005314 391136.000000 1 0 0
-0.296135 -5.652992 -2.340775 6.125621 1.518459 1.962895 0.004033 -0.000743 1974840.000000 1 0 0
7.653565 -5.070892 2.692725 9.567747 -0.585149 1.285504 0.006429 -0.005896 1794570.000000 1 0 0
-2.648735 -12.532092 4.611225 13.613689 1.362506 1.225240 0.000925 0.000762 -1187970.000000 1 0 0
4.868965 -10.343892 -1.117475 11.487022 -1.130855 1.668232 0.001913 -0.006400 1828470.000000 1 0 0
0.996465 0.184308 1.068825 1.472855 0.182895 0.758770 -0.003838 -0.000681 -1851750.000000 1 0 0
-1.602135 8.548808 2.425325 9.029461 -1.385535 1.298856 -0.002165 0.003271 564473.000000 1 0 0
-7.530935 0.631308 -3.119175 8.175743 -0.083633 1.962232 0.005656 -0.002192 -1767040.000000 1 0 0
4.362365 -6.213092 12.882825 14.953258 -0.958646 0.532502 0.001478 -0.005109 287525.000000 1 0 0
-5.171535 13.049608 8.501725 16.410862 -1.193485 1.026221 0.008509 -0.007205 2236950.000000 1 0 0
0.613065 6.115608 8.271225 10.304838 1.470884 0.639064 -0.005585 0.005597 1365300.000000 1 0 0
7.960765 -0.513892 -0.838675 8.021300 -0.064464 1.675544 0.004201 -0.001374 3093320.000000 1 0 0
2.431665 -9.287492 -2.399575 9.895881 -1.314723 1.815720 -0.004703 -0.002308 1819750.000000 1 0 0
-7.300635 12.138308 4.882025 14.982388 -1.029308 1.238885 0.000568 -0.007015 942659.000000 1 0 0
-14.977635 0.266608 0.202125 14.981371 -0.017799 1.557304 0.010637 -0.001972 -91971.800000 1 0 0
6.870465 -0.498692 3.902425 7.917128 -0.072458 1.055366 0.002078 0.001358 1273920.000000 1 0 0
-4.174635 -5.065292 5.047325 8.280112 0.881494 0.915276 0.000466 -0.001026 -137254.000000 1 0 0
2.897065 5.147808 6.908625 9.089666 1.058197 0.707402 -0.006980 0.005086 447177.000000 1 0 0
2.038465 -7.168892 1.763925 7.658967 -1.293760 1.338402 -0.002220 -0.001310 1877250.000000 1 0 0
-2.368035 6.456608 -1.784675 7.104959 -1.219268 1.824703 -0.002667 -0.000515 1432690.000000 1 0 0
2.715265 -3.823992 -6.601175 8.097598 -0.953350 2.523874 -0.002549 -0.002429 -1554960.000000 1 0 0
-5.072335 0.921808 -12.231675 13.273740 -0.179771 2.742707 0.009269 -0.004062 -205205.000000 1 0 0
-7.480335 6.362208 -11.843675 15.385244 -0.704799 2.449336 0.002119 -0.002830 1301290.000000 1 0 0
-1.129835 11.127708 -9.035075 14.378282 -1.469610 2.250270 0.007183 -0.000733 3888.720000 1 0 0
4.621065 5.909108 -0.601375 7.525520 0.907113 1.650793 0.001607 0.002630 -61439.600000 1 0 0
-2.785935 13.357808 3.662225 14.128141 -1.365182 1.308587 -0.001804 0.000023 1059700.000000 1 0 0
1.492165 -7.855092 10.203725 12.963219 -1.383071 0.664656 -0.011618 0.000826 -2385640.000000 1 0 0
12.970365 -0.297292 -1.081075 13.018736 -0.022917 1.653932 0.009714 -0.003474 459143.000000 1 0 0
-0.983735 3.113508 -5.369175 6.284083 -1.264765 2.595208 0.003598 -0.005017 301018.000000 1 0 0
6.589165 1.113308 7.302525 9.898658 0.167380 0.741096 -0.003804 0.001496 1687950.000000 1 0 0
5.465065 -6.097692 6.926725 10.725125 -0.840056 0.868672 -0.002996 -0.000608 511891.000000 1 0 0
12.250465 -4.789492 2.517025 13.392108 -0.372693 1.381723 0.017198 -0.005155 419825.000000 1 0 0
4.391165 -9.089192 13.826225 17.119003 -1.120744 0.630634 -0.005262 -0.000080 1660200.000000 1 0 0
-2.784935 -4.281792 -1.441875 5.307410 0.994131 1.845926 0.004324 -0.004079 2127200.000000 1 0 0
-9.381835 -5.178892 -7.603075 13.139501 0.504387 2.187860 0.013656 -0.002445 1193360.000000 1 0 0
-10.522435 -3.094692 7.860925 13.494180 0.286039 0.948944 0.015648 -0.006662 -33545.400000 1 0 0
12.092665 -0.535492 1.687125 12.221526 -0.044253 1.432309 0.010460 -0.005525 1012530.000000 1 0 0
-7.607535 4.595308 4.474025 9.950294 -0.543390 1.104437 0.005743 -0.006592 2033710.000000 1 0 0
-1.107735 10.725808 7.017725 12.865400 -1.467884 0.993843 -0.001877 0.003984 1029630.000000 1 0 0
7.364765 -9.959592 1.955725 12.540259 -0.934072 1.414201 0.008869 -0.005889 3649820.000000 1 0 0
-4.355635 -1.631192 1.542525 4.900176 0.358334 1.250561 0.000273 -0.003112 1298010.000000 1 0 0
6.697265 -15.004492 -0.922375 16.457184 -1.150981 1.626873 0.023625 -0.005984 -956166.000000 1 0 0
-10.425735 1.633608 2.444125 10.832284 -0.155426 1.343203 0.000676 -0.003895 1359450.000000 1 0 0
-3.129835 8.346008 -11.415175 14.483022 -1.212017 2.478636 0.001484 0.001156 117191.000000 1 0 0
-1.215335 -5.134892 -6.955775 8.730805 1.338391 2.492601 0.000852 -0.001725 -517676.000000 1 0 0
12.857465 -0.388592 6.408025 14.371089 -0.030214 1.108620 0.015500 -0.005605 2027320.000000 1 0 0
6.066465 -13.348192 3.712025 15.124661 -1.144224 1.322834 0.010903 -0.005318 2020560.000000 1 0 0
-5.566935 3.502808 -4.975175 8.246987 -0.561626 2.218394 0.002141 -0.003489 1442310.000000 1 0 0
-4.360835 8.069608 3.389025 9.778596 -1.075352 1.216878 -0.002642 0.001755 -88080.400000 1 0 0
14.040965 6.207408 -4.007975 15.866458 0.416259 1.826170 0.020406 -0.002353 -348417.000000 1 0 0
-6.625535 -8.391692 5.299125 11.933102 0.902469 1.110661 0.008391 -0.000059 1092550.000000 1 0 0
1.563865 11.440408 2.604525 11.836899 1.434942 1.348947 0.000711 -0.000503 3073700.000000 1 0 0
-7.370535 7.206108 6.004225 11.929103 -0.774119 1.043353 0.003678 -0.004592 17733.600000 1 0 0
-17.500335 -4.134992 5.315125 18.751278 0.232025 1.283402 0.055263 -0.015612 283088.000000 1 0 0
7.486965 -13.118992 -8.646875 17.404914 -1.052202 2.090711 0.009380 -0.004676 -1531970.000000 1 0 0
-2.341335 12.792408 -2.830775 13.309427 -1.389775 1.785123 -0.005814 0.000889 1553710.000000 1 0 0
-5.536335 13.969108 -5.721175 16.078521 -1.193460 1.934595 0.007593 0.000181 1774040.000000 1 0 0
-5.633335 2.377008 7.354125 9.563879 -0.399288 0.693602 0.005471 -0.005075 1781330.000000 1 0 0
-7.409835 5.066908 1.535025 9.106894 -0.599776 1.401431 0.004023 -0.001175 2135300.000000 1 0 0
10.747565 -5.814892 -5.063375 13.227278 -0.495940 1.963619 0.014586 -0.002575 2779020.000000 1 0 0
-9.573835 -0.606792 6.800825 11.759155 0.063296 0.954100 0.008484 -0.006670 1121240.000000 1 0 0
-11.306735 -4.596992 -2.494475 12.457808 0.386158 1.772393 0.002893 -0.001281 2029660.000000 1 0 0
6.404465 -4.200392 13.579225 15.590248 -0.580479 0.513547 0.012290 -0.011882 -1208470.000000 1 0 0
0.140265 10.303408 -11.721575 15.606896 1.557184 2.420449 0.006952 0.000615 -697486.000000 1 0 0
-11.895735 -3.226992 1.510925 12.417925 0.264898 1.448821 0.005376 -0.002561 3374090.000000 1 0 0
5.216365 5.966408 5.439725 9.612445 0.852369 0.969267 -0.004119 0.004734 -4686700.000000 1 0 0
-7.130535 -0.092192 8.044525 10.750228 0.012928 0.725283 0.005576 -0.006016 546128.000000 1 0 0
1.802365 2.050808 9.626525 10.006214 0.849786 0.276361 -0.001997 -0.002416 2717630.000000 1 0 0
10.502265 -5.026092 -2.068275 11.825267 -0.446359 1.746604 0.011256 -0.002690 1541030.000000 1 0 0
-9.716635 -2.392792 -1.603375 10.134557 0.241453 1.729673 0.006460 -0.002008 863493.000000 1 0 0
-2.005735 -5.187592 -9.969675 11.416150 1.201859 2.632723 0.010252 -0.002528 -8555.460000 1 0 0
7.686965 -1.547592 6.605125 10.252422 -0.198671 0.870754 0.004756 -0.002593 2534580.000000 1 0 0
1.508265 -11.897692 -2.571375 12.265476 -1.444699 1.782006 -0.000715 0.000170 -3386440.000000 1 0 0
-0.730035 -1.511092 4.801125 5.085976 1.120746 0.336267 -0.000338 -0.002348 1519020.000000 1 0 0
7.615065 1.574408 9.898925 12.587959 0.203877 0.665869 -0.003951 -0.001483 1175970.000000 1 0 0
-3.912435 10.748208 -7.937375 13.922393 -1.221697 2.177443 0.003107 0.001561 2933720.000000 1 0 0
-9.699035 12.648308 6.495525 17.211706 -0.916614 1.183820 0.003239 -0.005482 2086500.000000 1 0 0
-2.499135 -2.409792 -11.156775 11.684451 0.767200 2.839915 0.012543 -0.006057 -1286780.000000 1 0 0
1.205265 -11.876592 11.180925 16.356014 -1.469660 0.818116 -0.003788 0.002518 1010360.000000 1 0 0
1.372165 3.421308 -1.932975 4.162281 1.189373 2.053756 -0.000731 0.001011 2305140.000000 1 0 0
-1.880935 -9.456492 -12.051175 15.433534 1.374455 2.466811 0.000817 0.006625 1438930.000000 1 0 0
1.272265 -2.695192 1.532525 3.351321 -1.129758 1.095851 0.003592 -0.001275 3265580.000000 1 0 0
-1.058135 -2.254192 -6.637675 7.089411 1.131921 2.782682 0.004790 -0.006794 335179.000000 1 0 0
1.813465 5.870208 4.073025 7.371400 1.271170 0.985382 -0.007648 0.006774 -1625040.000000 1 0 0
-10.944435 8.559308 3.690725 14.375808 -0.663712 1.311157 -0.004067 -0.000435 2694070.000000 1 0 0
-16.413035 -1.644692 4.087125 16.994037 0.099873 1.327912 0.031372 -0.007648 -132539.000000 1 0 0
-12.335035 0.227208 6.853225 14.112810 -0.018418 1.063743 0.012262 -0.004580 730507.000000 1 0 0
-5.115235 3.005108 4.639625 7.531429 -0.531164 0.907097 0.002000 -0.003584 1618180.000000 1 0 0
5.122265 -6.074192 4.005225 8.898047 -0.870215 1.103892 0.000965 -0.003021 1868170.000000 1 0 0
9.847165 3.489808 6.301125 12.200394 0.340587 1.028074 -0.005089 0.004343 494196.000000 1 0 0
-12.174935 5.831908 3.264125 13.888654 -0.446715 1.333556 0.003374 -0.000805 1919660.000000 1 0 0
-4.904335 12.194408 -1.253475 13.203306 -1.188413 1.665876 -0.005266 0.004341 1194690.000000 1 0 0
-1.619035 -12.154492 10.278125 15.999775 1.438371 0.873181 -0.000573 -0.003732 727395.000000 1 0 0
5.212565 6.500508 13.839125 16.153911 0.894916 0.541950 -0.000502 -0.006021 802063.000000 1 0 0
12.904565 -3.774892 -6.028775 14.735119 -0.284584 1.992311 0.014768 -0.001480 3358480.000000 1 0 0
3.540565 -2.509792 6.401225 7.733715 -0.616653 0.595793 -0.005305 -0.000049 646896.000000 1 0 0
7.310265 -11.887592 -0.565475 13.966910 -1.019457 1.611294 0.012741 -0.001295 87160.400000 1 0 0
-6.064435 -6.582592 -4.139375 9.861151 0.826346 2.003984 0.011552 -0.002719 -55521.800000 1 0 0
0.361365 -8.959792 5.005825 10.269700 -1.530486 1.061645 -0.005044 -0.002175 1627760.000000 1 0 0
-10.281035 2.444108 -0.397975 10.575052 -0.233397 1.608439 0.001333 -0.000931 -1261690.000000 1 0 0
-1.855435 9.037508 -0.420175 9.235569 -1.368306 1.616307 -0.000216 -0.000002 -2128660.000000 1 0 0
-3.481835 2.359008 -6.599075 7.825336 -0.595478 2.574183 0.007590 -0.008083 335937.000000 1 0 0
-12.739235 2.982208 6.459325 14.591249 -0.229955 1.112206 0.009593 -0.005969 -1215350.000000 1 0 0
11.339765 1.600508 7.935725 13.932970 0.140215 0.964820 0.009445 -0.005909 -1827890.000000 1 0 0
6.017465 2.619508 -3.173075 7.289727 0.410577 2.021146 0.000842 0.001253 1236380.000000 1 0 0
10.593865 -2.378492 6.366625 12.586545 -0.220854 1.040455 0.014470 -0.006387 4325570.000000 1 0 0
-1.064835 10.992308 4.123225 11.788371 -1.474227 1.213470 -0.000084 0.002268 3368370.000000 1 0 0
-1.558635 -12.229592 7.362525 14.359632 1.444032 1.032442 -0.004746 0.002623 76399.200000 1 0 0
8.098565 8.702108 -7.888775 14.266962 0.821306 2.156685 0.012188 -0.002250 2584680.000000 1 0 0
-4.700835 -6.002292 -8.699575 11.567539 0.906400 2.421990 0.012142 -0.001710 1772140.000000 1 0 0
-8.518635 -5.345092 -11.756775 15.471228 0.560365 2.433974 0.013579 -0.001264 2316610.000000 1 0 0
6.020765 -0.703192 -9.983875 11.679976 -0.116268 2.595934 0.003107 0.001326 -149205.000000 1 0 0
-11.254435 -5.463792 -5.341775 13.603304 0.451963 1.974343 0.005973 -0.005020 -1229230.000000 1 0 0
3.904565 8.873408 -2.749275 10.076781 1.156264 1.847132 0.010098 -0.000634 1022290.000000 1 0 0
11.674065 -10.437892 -4.071375 16.180528 -0.729551 1.825152 0.027784 -0.009004 740940.000000 1 0 0
4.014065 -11.360592 3.866625 12.654112 -1.231156 1.260267 0.000942 -0.003432 620018.000000 1 0 0
-0.957835 0.830108 3.158225 3.403074 -0.714082 0.381652 -0.001322 -0.002089 -1039280.000000 1 0 0
-10.526035 -5.084992 4.444525 12.506332 0.450026 1.207474 0.011935 -0.004434 2871730.000000 1 0 0
4.513965 -8.694592 2.845925 10.201524 -1.091931 1.288074 -0.001588 -0.004176 5027260.000000 1 0 0
-3.655335 -5.736092 2.544625 7.262185 1.003435 1.212805 0.000790 -0.001215 2547890.000000 1 0 0
9.954065 5.175908 12.271925 16.627495 0.479503 0.740620 0.008213 0.002341 -319465.000000 1 0 0
1.649165 -12.377092 -5.273775 13.554514 -1.438333 1.970428 -0.002813 0.001016 1509000.000000 1 0 0
9.832765 -10.655992 -1.780575 14.608350 -0.825556 1.692988 0.015303 -0.006050 671521.000000 1 0 0
9.640165 -4.470892 -9.198275 14.054534 -0.434252 2.284278 0.011479 -0.003342 2175030.000000 1 0 0
-7.482935 -3.004592 -13.119175 15.399176 0.381821 2.590475 0.010206 -0.001792 2437950.000000 1 0 0
0.499165 6.236308 -2.491875 6.734252 1.490925 1.949838 -0.001530 -0.000116 1763920.000000 1 0 0
-5.891335 -9.476592 0.956025 11.199446 1.014594 1.485329 0.005228 -0.001679 186778.000000 1 0 0
-9.036635 -4.082792 0.636525 9.936555 0.424353 1.506693 0.005638 -0.004183 3018980.000000 1 0 0
1.898465 3.763108 12.109125 12.821703 1.103560 0.334958 -0.000553 -0.005592 805745.000000 1 0 0
6.552665 4.363508 9.640125 12.446270 0.587481 0.684810 -0.009728 0.003310 1064560.000000 1 0 0
-8.238635 9.825008 -3.515975 13.295411 -0.872995 1.838430 -0.000088 -0.001401 1858020.000000 1 0 0
16.434865 2.130308 -6.064675 17.647189 0.128903 1.921610 0.036254 -0.002085 -1291900.000000 1 0 0
-10.949735 2.649208 -5.110675 12.370691 -0.237381 1.996682 0.002200 0.000389 736931.000000 1 0 0
-13.788235 4.005908 1.544925 14.441243 -0.282747 1.463611 0.006402 0.002654 392891.000000 1 0 0
-17.385835 10.417608 3.722325 20.607026 -0.539832 1.389166 0.054678 -0.012216 -1137510.000000 1 0 0
-14.280135 2.890708 -1.129775 14.613515 -0.199730 1.648184 0.004875 0.001970 907703.000000 1 0 0
-14.433835 5.066708 5.211025 16.160504 -0.337592 1.242475 0.009341 -0.002809 1667240.000000 1 0 0
-17.411835 7.569508 3.143025 19.244429 -0.410086 1.406740 0.036141 -0.002178 -2342800.000000 1 0 0
-14.903135 12.657008 -3.359075 19.839019 -0.704079 1.740933 0.047972 -0.007061 -1746100.000000 1 0 0
-8.586135 12.593408 -9.453275 17.935441 -0.972393 2.125948 0.011598 -0.007807 1401100.000000 1 0 0
-12.537435 8.748608 -9.856675 18.190092 -0.609247 2.143457 0.004122 0.004447 -1521740.000000 1 0 0
-13.871935 -3.580892 -12.164975 18.794679 0.252624 2.274776 0.017905 -0.003509 -1327340.000000 1 0 0
-14.709335 5.727808 -7.563675 17.503756 -0.371335 2.017636 0.016107 0.003192 350530.000000 1 0 0
-10.979335 13.514808 -8.149875 19.225407 -0.888544 2.008556 0.017521 -0.011639 1084760.000000 1 0 0
-10.971635 13.626708 4.004425 17.947127 -0.892919 1.345779 0.006804 -0.003980 -845146.000000 1 0 0
-15.217635 3.173008 3.081525 15.847403 -0.205563 1.375100 0.011227 0.004408 604597.000000 1 0 0
-11.149035 9.443808 -12.456575 19.200332 -0.702780 2.276762 0.017339 -0.004838 560764.000000 1 0 0
-13.167835 11.532508 -8.896975 19.635345 -0.719288 2.041047 0.025288 -0.015656 220726.000000 1 0 0
-8.951335 14.616408 -3.524275 17.498180 -1.021297 1.773592 0.015478 -0.010786 -179010.000000 1 0 0
-16.680235 8.265508 -4.000175 19.040752 -0.460063 1.782458 0.033762 0.000990 -1447420.000000 1 0 0
-16.909635 6.761208 0.364825 18.214905 -0.380371 1.550766 0.033057 0.004860 1212000.000000 1 0 0
-10.399635 2.857508 -12.452575 16.473748 -0.268152 2.427830 0.004534 -0.007122 -670256.000000 1 0 0
-16.926835 0.781008 2.374725 17.110436 -0.046108 1.431559 0.022317 0.000538 -315894.000000 1 0 0
-12.666735 1.203608 -6.886775 14.467982 -0.094737 2.066898 0.006803 -0.004532 924424.000000 1 0 0
-12.303535 8.991008 -5.395275 16.165524 -0.631077 1.911077 0.008964 0.000995 -2217800.000000 1 0 0
-9.677035 14.021108 1.349725 17.089711 -0.966694 1.491735 0.016846 -0.009044 648825.000000 1 0 0
-12.163035 11.178908 2.802025 16.755857 -0.743262 1.402780 0.002778 -0.003034 647308.000000 1 0 0
-12.562735 6.805008 -3.592775 14.732225 -0.496435 1.817153 -0.000882 0.003536 -556624.000000 1 0 0
-15.746035 3.672308 -9.434275 18.719749 -0.229126 2.098990 0.016113 -0.003258 -2276040.000000 1 0 0
-15.137435 5.876908 -4.629875 16.885370 -0.370325 1.848548 0.013527 0.006481 485803.000000 1 0 0
-18.058735 5.119208 7.645225 20.267552 -0.276229 1.184009 0.037836 -0.007287 472262.000000 1 0 0
-15.795435 10.185008 -1.968375 18.897213 -0.572716 1.675148 0.038071 -0.000466 -1619170.000000 1 0 0
-8.801735 9.949908 -8.266675 15.646377 -0.846552 2.127446 -0.002564 -0.002390 -939648.000000 1 0 0
-16.981935 4.241008 -1.197575 17.544413 -0.244731 1.639109 0.016375 0.005735 56561.100000 1 0 0
-10.238635 5.355608 -4.516275 12.406003 -0.481939 1.943398 -0.000551 -0.002199 -147831.000000 1 0 0
-18.289635 2.604208 6.278225 19.511759 -0.141436 1.243202 0.042554 -0.006416 -827675.000000 1 0 0
-10.324735 10.045508 -5.651175 15.474112 -0.771691 1.944646 -0.001093 -0.003716 267793.000000 1 0 0
-15.345835 0.470108 -5.858975 16.432992 -0.030625 1.935355 0.002386 0.002015 -29091.400000 1 0 0
-16.442135 -4.137592 -8.797075 19.101099 0.246527 2.049415 0.031925 -0.020282 -1624230.000000 1 0 0
-9.955835 9.640908 -1.083475 13.901067 -0.769329 1.648817 -0.003503 0.001751 1930140.000000 1 0 0
-17.428235 -3.077292 -3.167275 17.979008 0.174768 1.747886 0.016767 -0.002359 -1049000.000000 1 0 0
-11.947535 4.990008 -11.493175 17.312909 -0.395637 2.296751 0.011067 -0.000664 -1261360.000000 1 0 0
-16.465135 6.957908 6.001225 18.855446 -0.399823 1.246887 0.030975 -0.002714 -442926.000000 1 0 0
-12.075935 5.999808 -8.745175 16.071838 -0.461116 2.146149 0.004526 0.000717 1153140.000000 1 0 0
-14.465535 8.404308 0.004425 16.729737 -0.526323 1.570532 0.025179 -0.000028 1874700.000000 1 0 0
-14.827835 11.876208 4.013025 19.416832 -0.675314 1.362618 0.020121 -0.014288 1033490.000000 1 0 0
-17.359135 4.129808 -3.976075 18.281248 -0.233562 1.790043 0.019697 0.003643 -234616.000000 1 0 0
-13.805135 13.489708 -0.753375 19.316354 -0.773842 1.609808 0.040052 -0.006043 200858.000000 1 0 0
-10.023335 6.829508 -13.020975 17.794808 -0.598107 2.391651 -0.002920 -0.005032 903047.000000 1 0 0
-15.917435 -1.168492 -8.302875 17.990770 0.073278 2.050490 0.014711 -0.009360 -172061.000000 1 0 0
-11.464035 11.984508 -0.024975 16.584726 -0.807591 1.572302 0.018004 -0.005107 996499.000000 1 0 0
-11.905435 7.360108 -0.839775 14.021975 -0.553705 1.630722 -0.000990 0.007238 1419240.000000 1 0 0
-11.476635 0.192208 -11.548975 16.282779 -0.016746 2.359266 0.010036 -0.010816 1113830.000000 1 0 0
-19.152735 -1.297092 -4.705975 19.765017 0.067620 1.811201 0.023811 -0.001198 -273073.000000 1 0 0
-17.960935 1.424708 -5.097075 18.724453 -0.079157 1.846490 0.006612 0.003373 -301279.000000 1 0 0
-13.370835 -0.149192 -9.450375 16.374097 0.011158 2.186036 0.010321 -0.009202 -123342.000000 1 0 0
-6.202435 11.355608 -13.254475 18.522989 -1.070875 2.368234 -0.003885 0.003590 -1770520.000000 1 0 0
16.324965 5.705408 7.016525 18.662471 0.336220 1.185353 0.061921 -0.013983 1111080.000000 1 0 0
14.775465 10.189408 -5.573775 18.793759 0.603723 1.871901 0.046372 -0.012424 394032.000000 1 0 0
2.321865 16.881008 4.385725 17.595286 1.434111 1.318885 0.018073 -0.015682 1387360.000000 1 0 0
-3.969335 18.164108 -5.949175 19.521350 -1.355652 1.880475 0.024921 -0.011438 2042800.000000 1 0 0
5.439165 14.523008 5.623425 16.496218 1.212446 1.222931 0.014387 -0.012195 -593300.000000 1 0 0
9.848165 6.111108 15.094625 19.031020 0.555380 0.654818 0.021431 -0.002211 -1548700.000000 1 0 0
4.568965 12.743208 -1.034575 13.577008 1.226533 1.647071 0.012288 -0.007285 1423240.000000 1 0 0
3.446765 13.751708 12.906425 19.171998 1.325213 0.832280 0.016532 -0.015127 360097.000000 1 0 0
-0.789735 12.450608 9.288225 15.553535 -1.507452 0.930818 0.000402 -0.002230 1268770.000000 1 0 0
-7.859335 13.860708 8.492625 18.055832 -1.054978 1.081105 0.010248 -0.012894 1371520.000000 1 0 0
11.431365 12.793808 -4.151275 17.651933 0.841580 1.808194 0.043086 -0.011713 154613.000000 1 0 0
-5.805335 16.004308 0.720925 17.039939 -1.222821 1.528476 0.003283 -0.004543 213769.000000 1 0 0
3.249965 10.640808 6.758825 13.018095 1.274370 1.024897 0.000871 0.003901 1093560.000000 1 0 0
-1.259735 15.502608 2.618025 15.772503 -1.489715 1.404038 0.001563 -0.004980 -1039330.000000 1 0 0
9.783865 8.836208 9.480425 16.238259 0.734548 0.947355 0.018255 -0.005726 1869370.000000 1 0 0
7.245065 12.266508 6.210625 15.541238 1.037289 1.159692 0.010745 -0.005997 1386400.000000 1 0 0
11.866365 13.943108 -1.524575 18.372404 0.865690 1.653874 0.041048 -0.008881 235620.000000 1 0 0
9.650265 15.909508 -1.281975 18.651636 1.025558 1.639583 0.029756 -0.013891 884762.000000 1 0 0
10.129865 13.763008 3.023325 17.354396 0.936302 1.395692 0.028406 -0.009335 2952860.000000 1 0 0
-6.140435 14.526108 6.325525 16.991911 -1.170861 1.189346 -0.002366 -0.007807 -230869.000000 1 0 0
-0.982735 18.198108 -6.182375 19.244705 -1.516847 1.897846 0.026680 -0.006380 1099480.000000 1 0 0
-3.641235 15.744608 5.569925 17.093137 -1.343523 1.238878 -0.000572 -0.007465 1596030.000000 1 0 0
7.059765 12.312508 10.684225 17.764876 1.050179 0.925514 0.010672 -0.009657 1731090.000000 1 0 0
1.450965 14.638908 6.320525 16.010996 1.472002 1.164988 0.008711 -0.006928 1502470.000000 1 0 0
17.449265 7.692608 -1.527475 19.130767 0.415224 1.650725 0.029153 0.008776 928024.000000 1 0 0
1.960765 16.295108 -3.328375 16.746738 1.451044 1.770876 0.008262 -0.008892 585311.000000 1 0 0
6.736765 11.194708 0.582825 13.078424 1.029068 1.526218 0.016829 -0.004097 2685610.000000 1 0 0
12.776465 9.345108 3.129425 16.135750 0.631511 1.375616 0.027069 0.000756 -2163590.000000 1 0 0
5.993265 14.259708 -3.407975 15.838965 1.172919 1.787656 0.009165 -0.008674 1161770.000000 1 0 0
3.057465 16.459408 1.568725 16.814313 1.387132 1.477363 0.016775 -0.021620 279377.000000 1 0 0
2.850965 18.894108 -2.436975 19.262767 1.421034 1.697648 0.018615 -0.015958 -1046470.000000 1 0 0
3.979365 11.884208 10.765725 16.521822 1.247686 0.861096 0.010766 -0.012396 2476340.000000 1 0 0
8.143465 11.520708 3.393925 14.510737 0.955485 1.334719 0.013410 -0.001583 397004.000000 1 0 0
0.645865 12.593308 0.120225 12.610433 1.519555 1.561262 0.004315 -0.004687 -2139020.000000 1 0 0
11.969065 9.841408 -4.664275 16.182314 0.688154 1.863177 0.027346 -0.003908 377247.000000 1 0 0
-1.407035 16.496608 10.000525 19.342397 -1.485710 1.027423 0.012483 -0.006592 -908361.000000 1 0 0
8.258465 14.848808 -7.977975 18.770654 1.063228 2.009785 0.032660 -0.007172 1796310.000000 1 0 0
14.545365 7.647208 -1.415875 16.494003 0.484034 1.656744 0.018623 0.004963 -1089280.000000 1 0 0
12.443265 8.377508 5.890325 16.115627 0.592551 1.196622 0.022411 -0.007027 -1599310.000000 1 0 0
-3.129035 14.239808 10.326525 17.866173 -1.354495 0.954529 0.011799 -0.013562 3045100.000000 1 0 0
-4.577735 17.071208 -3.189675 17.959839 -1.308805 1.749344 0.016938 -0.008705 -553922.000000 1 0 0
-7.058235 16.418108 -1.855475 17.967074 -1.164778 1.674252 0.009069 -0.005595 366004.000000 1 0 0
8.320165 11.262808 -1.901275 14.131201 0.934548 1.705750 0.015359 -0.004541 1903860.000000 1 0 0
8.626665 12.938908 -4.132175 16.090667 0.982755 1.830512 0.030025 -0.006005 3567700.000000 1 0 0
2.552565 14.755508 -7.286375 16.653284 1.399501 2.023651 0.004052 -0.007364 -932151.000000 1 0 0
11.313665 11.356108 9.759125 18.767012 0.787270 1.023928 0.037227 -0.014598 169656.000000 1 0 0
8.551565 15.765008 1.474525 17.995527 1.073776 1.488766 0.019587 -0.013919 1388800.000000 1 0 0
5.985665 9.949408 7.700225 13.932422 1.029194 0.985215 0.003573 0.003943 2013530.000000 1 0 0
14.506765 11.464808 2.660525 18.680644 0.668803 1.427889 0.041047 0.001816 3087920.000000 1 0 0
12.145465 12.623708 1.175625 17.557119 0.804704 1.503786 0.040710 -0.005179 3393060.000000 1 0 0
5.151865 15.823408 8.220525 18.560684 1.256035 1.111966 0.018886 -0.011087 -1763030.000000 1 0 0
11.587765 15.051608 5.138025 19.678072 0.914700 1.306631 0.046530 -0.010322 -518537.000000 1 0 0
5.897765 16.821608 1.734225 17.909709 1.233581 1.473813 0.009864 -0.024641 -107424.000000 1 0 0
-0.725935 16.188708 -4.161475 16.730784 -1.525984 1.822167 0.005296 -0.004328 608414.000000 1 0 0
16.047665 6.463508 2.493025 17.479121 0.382891 1.427680 0.013344 -0.001660 172412.000000 1 0 0
7.537265 16.667908 -3.064475 18.547791 1.146113 1.736778 0.010898 -0.015324 -997133.000000 1 0 0
14.751265 8.191308 7.393225 18.421649 0.506900 1.157824 0.057972 -0.015213 932674.000000 1 0 0
2.101465 12.961808 8.594225 15.693481 1.410067 0.991267 0.007887 -0.002944 1649780.000000 1 0 0
15.962165 7.478508 -5.903175 18.589413 0.438144 1.893947 0.027911 -0.001170 -2358210.000000 1 0 0
-3.016835 16.830508 0.712125 17.113574 -1.393432 1.529173 -0.001965 -0.006870 -154285.000000 1 0 0
-2.981435 18.553108 4.555125 19.335355 -1.411461 1.332976 -0.001494 -0.007060 -143124.000000 1 0 0
-0.885735 18.929608 0.808125 18.967542 -1.524039 1.528178 0.004330 -0.015410 -100113.000000 1 0 0
6.956965 16.725808 -6.056775 19.100695 1.176623 1.893463 0.013681 -0.015722 1034650.000000 1 0 0
11.026565 10.092408 0.728125 14.965695 0.741194 1.522124 0.017749 0.000669 -1596450.000000 1 0 0
9.147765 8.864908 14.239625 19.105893 0.769696 0.729811 0.025913 -0.010281 1626070.000000 1 0 0
6.463865 12.471608 -8.364675 16.349017 1.092627 2.107879 0.028608 -0.008441 599954.000000 1 0 0
6.303365 9.102608 13.337025 17.333959 0.965136 0.692870 0.011077 -0.015838 955569.000000 1 0 0
16.776765 9.437108 2.944425 19.472763 0.512398 1.419007 0.039058 -0.001331 -454202.000000 1 0 0
2.510465 14.725508 -0.816575 14.960275 1.401936 1.625406 0.009191 -0.011698 -323851.000000 1 0 0
9.052765 12.920808 8.380825 17.864436 0.959645 1.082486 0.023974 -0.013518 1130440.000000 1 0 0
7.150365 9.434408 10.547925 15.855425 0.922257 0.842959 0.002410 -0.007677 358515.000000 1 0 0
4.274565 15.808308 -5.277175 17.205322 1.306712 1.882539 0.013360 -0.010510 2071290.000000 1 0 0
0.267965 16.282008 -8.072175 18.175137 1.554340 2.031002 0.011293 -0.006383 -4599.240000 1 0 0
-2.423235 15.576708 -1.933375 15.882186 -1.416466 1.692831 -0.006611 -0.002370 -149964.000000 1 0 0
13.218565 10.520108 7.556425 18.506829 0.672211 1.150200 0.050019 -0.019488 1820560.000000 1 0 0
-1.072635 15.997008 7.157825 17.558169 -1.503844 1.150902 0.010847 -0.007824 2694610.000000 1 0 0
13.363865 13.326108 6.688625 20.022881 0.783984 1.230200 0.055614 -0.015879 -89266.000000 1 0 0
5.258665 17.368208 4.544725 18.707291 1.276795 1.325402 0.014894 -0.018827 740965.000000 1 0 0
10.806365 9.438808 -1.911675 14.474914 0.717951 1.703251 0.014780 0.001372 1519640.000000 1 0 0
3.145065 12.819208 4.718125 14.017284 1.330208 1.227499 0.008493 0.001120 1092730.000000 1 0 0
-0.274035 17.975508 3.564125 18.327493 -1.555553 1.375080 0.006601 -0.012627 2173880.000000 1 0 0
-7.763935 15.879208 -5.800375 18.603018 -1.116038 1.887881 0.030695 -0.014583 -1605230.000000 1 0 0
-12.289835 -9.117192 8.295625 17.406338 0.638264 1.074029 0.046554 -0.014573 -989103.000000 1 0 0
-13.142435 -11.671392 6.872525 18.872641 0.726184 1.198073 0.048568 -0.009515 -1199600.000000 1 0 0
-6.559535 -12.317492 12.372225 18.649935 1.081458 0.845453 0.024581 -0.011233 -1065540.000000 1 0 0
-1.758935 -10.611992 14.398825 17.973158 1.406540 0.641616 0.003800 -0.006035 602350.000000 1 0 0
-8.896535 2.768708 10.916025 14.351783 -0.301711 0.706553 0.009133 -0.009466 1183030.000000 1 0 0
0.482465 10.091008 15.124025 18.187836 1.523021 0.588911 0.007691 -0.008428 -247492.000000 1 0 0
0.946865 -6.758192 16.635525 17.980835 -1.431596 0.389284 0.011685 -0.013868 1550530.000000 1 0 0
6.074865 2.344208 17.712725 18.871670 0.368281 0.352281 0.013550 -0.013810 1203820.000000 1 0 0
-5.252435 -2.943092 17.666825 18.664581 0.510739 0.328452 0.026578 -0.018492 867942.000000 1 0 0
-4.287735 8.193508 13.026025 15.974842 -1.088676 0.617361 0.001048 0.004145 -715984.000000 1 0 0
-0.006835 -4.670192 18.532625 19.112010 1.569333 0.246859 0.020923 -0.024336 -1011300.000000 1 0 0
-11.730635 2.041908 11.184525 16.336180 -0.172340 0.816676 0.026679 -0.012631 1752520.000000 1 0 0
-3.438135 -6.087292 14.395025 16.002895 1.056657 0.452112 0.005675 -0.012076 295670.000000 1 0 0
-7.459135 -2.244892 14.596925 16.545346 0.292336 0.490202 0.014358 -0.010841 631809.000000 1 0 0
-6.098835 -1.182492 10.550425 12.243592 0.191512 0.532166 0.008094 -0.005692 1479320.000000 1 0 0
-4.042735 2.441308 11.077025 12.041768 -0.543264 0.403013 0.002890 -0.001280 1727180.000000 1 0 0
-6.460835 6.277108 13.561625 16.280730 -0.770976 0.586313 -0.004010 0.002706 1187090.000000 1 0 0
-9.013135 5.383408 12.504225 16.327074 -0.538421 0.698421 0.010476 -0.007009 -24847.500000 1 0 0
-12.414335 -2.286192 15.747425 20.182264 0.182117 0.675714 0.041281 -0.008058 1533740.000000 1 0 0
-3.427435 -7.679392 16.938425 18.911124 1.151010 0.460825 0.016844 -0.011879 922790.000000 1 0 0
-0.592935 -5.380492 14.427125 15.409192 1.461038 0.358946 0.000960 -0.005071 1517660.000000 1 0 0
-14.473935 -2.275692 13.676725 20.043113 0.155950 0.819803 0.053242 -0.010032 -737993.000000 1 0 0
-6.496435 1.383508 12.072925 13.779452 -0.209830 0.502971 0.007350 -0.006409 1299250.000000 1 0 0
2.099765 -2.186892 14.603325 14.914712 -0.805720 0.204699 0.001758 -0.005339 -106137.000000 1 0 0
-12.677735 3.978408 9.188525 16.154928 -0.304078 0.965780 0.015616 -0.013188 -60843.400000 1 0 0
-9.002335 -3.027792 12.532825 15.725179 0.324449 0.648500 0.004413 -0.003604 216018.000000 1 0 0
-7.181535 -7.184292 15.240425 18.315541 0.785590 0.587907 0.016782 -0.014087 -696849.000000 1 0 0
-3.226735 5.988408 19.448725 20.604023 -1.076569 0.336462 0.033215 -0.001622 367823.000000 1 0 0
0.692465 5.384208 16.083725 16.975142 1.442888 0.325512 0.010978 -0.007404 1309340.000000 1 0 0
3.429865 1.573608 16.819625 17.237750 0.430144 0.220704 -0.004889 -0.011564 1208770.000000 1 0 0
-11.784335 11.337708 7.993025 18.201720 -0.766085 1.116160 0.008984 -0.010238 -461937.000000 1 0 0
0.645465 -9.412592 15.467925 18.118229 -1.502329 0.547705 0.002445 0.000312 205651.000000 1 0 0
-2.579235 -3.553992 18.870025 19.374240 0.943011 0.228642 0.025745 -0.028635 1622770.000000 1 0 0
-12.905735 2.298908 13.735125 18.986749 -0.176282 0.762074 0.031865 -0.021832 -73867.100000 1 0 0
-5.403435 -0.599992 15.742825 16.655139 0.110586 0.332518 0.015137 -0.008086 523019.000000 1 0 0
-4.388935 -5.987692 11.690925 13.848933 0.938269 0.565772 0.000658 -0.003999 262147.000000 1 0 0
2.373065 1.790308 14.098625 14.408604 0.646329 0.207803 -0.001837 -0.009941 126567.000000 1 0 0
-0.019035 3.279608 14.284925 14.656578 -1.564992 0.225678 0.006663 -0.009341 1131220.000000 1 0 0
-13.063935 6.884908 12.232425 19.175520 -0.485026 0.879004 0.033046 -0.014634 183293.000000 1 0 0
0.861465 1.601808 18.289025 18.379237 1.077362 0.099120 0.015608 -0.009701 1055590.000000 1 0 0
-2.035835 6.413708 12.482125 14.180400 -1.263436 0.494433 0.001439 -0.000217 1438280.000000 1 0 0
-13.505835 -2.685792 10.915525 17.571845 0.196301 0.900531 0.046638 -0.013980 -227952.000000 1 0 0
-2.573735 3.564008 13.389125 14.092372 -0.945361 0.317248 0.003832 -0.002049 -170528.000000 1 0 0
3.491065 6.047808 16.268525 17.703910 1.047277 0.405456 -0.000267 -0.009731 -598070.000000 1 0 0
-3.866235 12.417408 12.400825 17.969982 -1.268954 0.809189 0.012240 -0.008153 -471771.000000 1 0 0
3.632665 -1.354692 17.085225 17.519600 -0.356945 0.223145 0.016166 -0.015128 -131711.000000 1 0 0
-15.983735 0.409408 9.251525 18.472631 -0.025608 1.046247 0.046628 -0.012746 279945.000000 1 0 0
-4.717135 4.536008 15.133625 16.487976 -0.765826 0.408146 0.006246 -0.002286 1478490.000000 1 0 0
-7.929435 -8.164992 10.517525 15.497140 0.800033 0.824839 0.016180 -0.013848 3673650.000000 1 0 0
-2.664835 -0.434992 14.656725 14.903361 0.161807 0.182180 0.006787 -0.006861 1903940.000000 1 0 0
-1.804735 0.962808 17.174225 17.295609 -0.490079 0.118544 0.012569 -0.012232 2214590.000000 1 0 0
-0.777035 -2.520592 14.417025 14.656322 1.271765 0.180952 0.001010 -0.004719 -276775.000000 1 0 0
5.131865 -8.116592 16.487625 19.080275 -1.006987 0.527399 0.013737 -0.007024 -824722.000000 1 0 0
-4.599935 10.011608 10.662825 15.332565 -1.140103 0.801769 0.004362 -0.003223 -393508.000000 1 0 0
-6.326435 2.065508 15.134125 16.532751 -0.315578 0.414289 0.013366 -0.004380 395524.000000 1 0 0
-4.938935 6.747408 17.240525 19.161323 -0.938931 0.451585 0.015469 0.003813 141958.000000 1 0 0
-4.162935 9.154108 15.702625 18.646720 -1.143990 0.569609 0.014064 0.000485 -1121070.000000 1 0 0
-4.801635 -9.653292 18.531825 21.439923 1.109224 0.526919 0.033467 -0.015206 423506.000000 1 0 0
-6.722135 -4.093992 11.180825 13.673285 0.547034 0.613369 0.010124 -0.001863 -97507.900000 1 0 0
-2.335735 -0.750292 19.499025 19.652750 0.310812 0.125158 0.024904 -0.017271 -154492.000000 1 0 0
-5.778835 -4.509992 15.299025 16.964526 0.662695 0.446823 0.014324 -0.014201 313361.000000 1 0 0
-13.025835 -0.031692 9.774125 16.285174 0.002433 0.927063 0.025824 -0.009398 1179760.000000 1 0 0
-14.579535 8.731408 10.520325 19.986935 -0.539596 1.016482 0.030000 -0.013371 -1484250.000000 1 0 0
-8.464335 10.439908 12.831125 18.581561 -0.889524 0.808575 0.016268 -0.012031 -444141.000000 1 0 0
-10.572535 7.028808 10.767025 16.646665 -0.586721 0.867418 0.023236 -0.010124 -860856.000000 1 0 0
-9.890635 -6.532292 14.665225 18.856413 0.583688 0.679748 0.031746 -0.019165 -1270090.000000 1 0 0
-0.679735 -13.420492 14.474925 19.750825 1.520191 0.748255 0.008060 -0.008455 1985270.000000 1 0 0
3.747965 -5.594892 17.036925 18.319577 -0.980565 0.376425 0.020370 -0.014033 2149370.000000 1 0 0
-7.380635 9.195908 10.387625 15.714365 -0.894472 0.848609 0.007274 -0.003824 1376940.000000 1 0 0
-10.258235 -6.699092 11.739125 16.968096 0.578513 0.806769 0.037320 -0.020009 2845800.000000 1 0 0
-10.890035 -3.884592 10.703125 15.755628 0.342641 0.823960 0.027882 -0.007275 1516810.000000 1 0 0
-9.980335 -10.213692 9.848525 17.347047 0.796953 0.967045 0.040129 -0.019796 1788280.000000 1 0 0
-9.873835 -3.619892 15.206625 18.488853 0.351399 0.605047 0.031173 -0.015733 1297090.000000 1 0 0
5.521365 -3.230792 16.104225 17.328288 -0.529424 0.378120 0.021968 -0.015285 439382.000000 1 0 0
-11.469535 0.416808 15.313225 19.136845 -0.036324 0.643174 0.033258 -0.012929 684923.000000 1 0 0
-3.159535 3.161308 18.734425 19.260198 -0.785679 0.234194 0.024882 -0.010888 -294907.000000 1 0 0
0.462165 7.327308 13.927625 15.744262 1.507805 0.485127 0.004876 -0.005431 457777.000000 1 0 0
-13.074335 -7.469992 12.186325 19.371255 0.519085 0.890410 0.060645 -0.022641 -569781.000000 1 0 0
-1.510135 -1.191392 12.123125 12.274775 0.667955 0.157353 -0.001325 -0.005459 772608.000000 1 0 0
1.951865 -4.781892 13.159125 14.136437 -1.183259 0.374021 -0.001493 -0.004118 -3930.180000 1 0 0
-14.646135 -4.191492 8.722825 17.554645 0.278734 1.050779 0.053065 -0.015840 -516622.000000 1 0 0
8.054265 0.938908 16.026525 17.961132 0.116049 0.468406 0.024705 -0.011835 647715.000000 1 0 0
-1.361635 11.396408 13.369825 17.620568 -1.451881 0.709385 0.007137 -0.003529 1319330.000000 1 0 0
2.864965 -12.309592 -13.848875 18.749011 -1.342125 2.401855 0.001204 0.014035 -1052570.000000 1 0 0
0.796965 -10.762092 -14.043975 17.711324 -1.496878 2.486412 -0.004812 0.010816 -2385550.000000 1 0 0
3.179065 -14.401892 -12.371375 19.250243 -1.353541 2.268762 0.000319 0.010236 -1163400.000000 1 0 0
-5.181135 -10.132492 -16.179875 19.781301 1.098119 2.528614 0.031524 -0.011594 -258546.000000 1 0 0
-0.961935 -12.160892 -15.043475 19.367982 1.491860 2.460236 0.004742 0.001490 -34582.400000 1 0 0
5.717865 -15.020692 -12.262375 20.215860 -1.207068 2.222538 0.001087 0.007839 197156.000000 1 0 0
2.134065 -11.847992 -16.147975 20.141654 -1.392587 2.500964 0.002994 0.006641 -498558.000000 1 0 0
1.253165 -14.389192 -14.066775 20.161682 -1.483925 2.342976 0.007784 0.017207 -240906.000000 1 0 0
-1.034535 -10.830592 -15.964575 19.319410 1.475566 2.543390 0.002365 0.001018 -261922.000000 1 0 0
-5.855835 -5.516592 -15.041375 17.057741 0.755577 2.650444 0.017990 -0.000198 14563.900000 1 0 0
-6.599835 -7.472892 -16.379975 19.175648 0.847358 2.594820 0.026910 -0.006119 663333.000000 1 0 0
4.964765 -12.585092 -11.518075 17.767934 -1.195044 2.276081 -0.003555 0.008836 128726.000000 1 0 0
-1.753635 -15.455992 -13.259375 20.439519 1.457820 2.276688 0.014287 -0.000530 -80612.500000 1 0 0
15.733965 -7.358592 -8.857475 19.497728 -0.437466 2.042363 0.045138 -0.008683 731517.000000 1 0 0
19.321765 -3.435192 -4.629375 20.163389 -0.175950 1.802456 0.074250 -0.024528 899825.000000 1 0 0
14.960865 -11.580492 -8.827675 20.877335 -0.658718 2.007368 0.055368 -0.026813 472708.000000 1 0 0
17.782565 -3.499492 -6.694675 19.320578 -0.194310 1.924639 0.069288 -0.012420 367850.000000 1 0 0
9.477665 -9.193192 -15.501375 20.362552 -0.770163 2.436064 0.055745 -0.015481 422816.000000 1 0 0
1.196165 1.928308 -15.276275 15.443890 1.015571 2.994128 0.011314 -0.004069 138693.000000 1 0 0
4.805865 -4.387692 -13.893675 15.342176 -0.739944 2.703558 0.008853 -0.005142 -816709.000000 1 0 0
13.132665 -5.606492 -8.747375 16.745633 -0.403489 2.120421 0.032520 -0.002822 -1197460.000000 1 0 0
2.983665 0.902208 -12.207275 12.598960 0.293641 2.891588 0.007607 -0.005053 -4157390.000000 1 0 0
0.614565 6.376008 -12.913175 14.414619 1.474706 2.681111 0.013224 -0.004156 764757.000000 1 0 0
3.232365 -1.102992 -16.672775 17.018995 -0.328844 2.939541 0.013818 -0.006558 -581100.000000 1 0 0
13.256965 4.285108 -11.519475 18.077820 0.312634 2.261677 0.003430 -0.006111 215948.000000 1 0 0
-3.819035 9.469208 -16.497175 19.401229 -1.187439 2.587382 0.003955 -0.001442 -272383.000000 1 0 0
-0.273635 -5.145692 -17.695275 18.430295 1.517669 2.858224 0.007208 -0.005759 516054.000000 1 0 0
-0.593435 -8.723492 -17.605475 19.657167 1.502874 2.680633 0.006063 -0.002282 -1176840.000000 1 0 0
5.617765 -10.188692 -12.257575 16.900203 -1.066900 2.382254 0.001931 0.005727 294344.000000 1 0 0
1.622265 -9.813092 -18.317075 20.843314 -1.406962 2.644135 0.012125 -0.002342 -484270.000000 1 0 0
11.184165 8.524408 -14.382175 20.114623 0.651254 2.367436 0.059811 -0.019617 149333.000000 1 0 0
10.977365 -3.791092 -12.971275 17.410597 -0.332531 2.411364 0.018176 -0.010851 173385.000000 1 0 0
5.003165 7.395608 -12.321475 15.216617 0.976014 2.514502 0.018729 -0.004436 -668721.000000 1 0 0
9.707865 -6.017292 -12.747175 17.115517 -0.554878 2.410991 0.022612 -0.005317 -955764.000000 1 0 0
-3.264235 0.385408 -15.939675 16.275042 -0.117526 2.938234 0.020852 -0.008089 -1136900.000000 1 0 0
-0.834235 10.822608 -12.833775 16.808646 -1.493866 2.439546 0.004718 0.001889 -1687220.000000 1 0 0
6.652765 -5.553392 -12.428475 15.151450 -0.695573 2.532702 0.009385 -0.004793 40192.000000 1 0 0
17.956565 -5.913892 -8.443875 20.705347 -0.318156 1.990852 0.070493 -0.018164 652353.000000 1 0 0
13.167965 4.475308 -14.104775 19.808290 0.327616 2.363230 0.013528 -0.011171 382624.000000 1 0 0
14.245465 0.787308 -11.481775 18.313500 0.055211 2.248437 0.018425 -0.004740 -615370.000000 1 0 0
15.144265 6.015408 -11.265775 19.810391 0.378096 2.175697 0.028715 -0.011115 82901.500000 1 0 0
8.338065 1.470508 -11.781275 14.508072 0.174566 2.518452 0.002761 0.001810 610699.000000 1 0 0
10.031465 1.289308 -8.940975 13.499394 0.127826 2.294713 0.005479 -0.001129 36357.000000 1 0 0
-0.178735 -5.679992 -12.962175 14.153170 1.539339 2.728415 0.006839 0.000116 434983.000000 1 0 0
10.554965 -5.735492 -9.053275 15.042106 -0.497756 2.216627 0.016364 -0.003984 -1505470.000000 1 0 0
10.390365 8.565408 -11.267975 17.558279 0.689419 2.267571 0.030507 -0.008645 858024.000000 1 0 0
8.575965 8.121808 -14.596275 18.776639 0.758206 2.461260 0.048202 -0.008600 433595.000000 1 0 0
8.683165 10.587908 -10.771375 17.421931 0.883918 2.237330 0.039681 -0.009129 -825604.000000 1 0 0
7.090965 1.620808 -17.938175 19.356831 0.224713 2.756358 0.029461 0.001742 -2959200.000000 1 0 0
12.201765 2.430608 -12.834775 17.875189 0.196628 2.371752 0.009241 -0.007675 -1318640.000000 1 0 0
2.714065 -0.547692 -19.148675 19.347813 -0.199123 2.997994 0.026193 -0.013315 -733631.000000 1 0 0
10.383465 -2.188892 -15.489275 18.775655 -0.207764 2.540938 0.036973 -0.019543 868668.000000 1 0 0
8.348465 -0.936492 -12.959275 15.443986 -0.111708 2.566450 0.008760 -0.006572 694639.000000 1 0 0
0.581265 4.391508 -14.589775 15.247450 1.439200 2.846814 0.011859 0.000059 307944.000000 1 0 0
3.997665 -7.625892 -15.772475 17.969600 -1.087959 2.641902 0.018530 -0.007614 -1899520.000000 1 0 0
11.595765 -5.888392 -14.477975 19.461415 -0.469872 2.409732 0.042829 -0.012853 -252451.000000 1 0 0
-5.930035 4.308508 -16.953875 18.470582 -0.628328 2.733515 0.018631 -0.001512 93771.100000 1 0 0
11.350965 7.806108 -9.054475 16.485243 0.602426 2.152260 0.018629 -0.008315 -1331130.000000 1 0 0
9.608865 6.143008 -13.338175 17.549181 0.568821 2.434179 0.021636 -0.001189 -717244.000000 1 0 0
12.067665 0.607808 -10.205675 15.816250 0.050324 2.272167 0.013954 -0.001341 -947630.000000 1 0 0
5.440865 -7.265892 -13.747775 16.474147 -0.928049 2.558032 0.013291 -0.000498 -1067230.000000 1 0 0
8.633165 -10.284392 -10.834875 17.253833 -0.872463 2.249737 0.018796 0.000364 289420.000000 1 0 0
10.224365 4.634908 -15.811375 19.391225 0.425611 2.524196 0.041256 -0.004565 -186333.000000 1 0 0
9.933365 -0.374092 -10.996275 14.823284 -0.037642 2.406583 0.006234 -0.000630 -1854650.000000 1 0 0
-1.770535 5.484208 -14.010575 15.149506 -1.258517 2.751360 0.006990 -0.002244 855285.000000 1 0 0
1.436865 -0.619892 -14.962775 15.044383 -0.407295 3.037387 0.007019 -0.005777 -2692420.000000 1 0 0
11.526665 -10.498192 -14.381475 21.210914 -0.738736 2.315865 0.077140 -0.015523 626097.000000 1 0 0
9.398365 -7.801292 -10.932675 16.392462 -0.692809 2.300881 0.019613 -0.000870 -635403.000000 1 0 0
13.924065 -1.014992 -9.761175 17.034974 -0.072766 2.180968 0.014682 -0.001660 639220.000000 1 0 0
3.903265 11.061808 -12.238775 16.952483 1.231576 2.377407 0.033804 -0.015855 -637587.000000 1 0 0
-1.379335 2.835908 -16.875575 17.167701 -1.118102 2.956852 0.015015 -0.005965 4749.270000 1 0 0
5.859165 -0.565792 -17.630675 18.587378 -0.096267 2.819356 0.006412 -0.003720 -406877.000000 1 0 0
6.385565 -6.492492 -15.879575 18.305430 -0.793701 2.620908 0.023340 -0.009897 -265338.000000 1 0 0
-1.510735 -5.106292 -19.938575 20.637425 1.283144 2.880610 0.009124 -0.008753 -286454.000000 1 0 0
-0.012235 -4.288492 -15.239575 15.831486 1.567943 2.867281 0.006726 -0.004501 302739.000000 1 0 0
0.661265 0.678408 -12.972575 13.007121 0.798194 3.068693 0.007849 -0.007424 279097.000000 1 0 0
15.922965 0.464108 -13.471075 20.862073 0.029139 2.272763 0.041529 -0.022256 550949.000000 1 0 0
-0.220935 7.001908 -16.319075 17.759159 -1.539253 2.736105 0.018499 0.003659 -397223.000000 1 0 0
-4.783535 -0.408792 -18.328375 18.946731 0.085251 2.885406 0.018566 -0.010054 -225039.000000 1 0 0
10.407065 -8.475192 -13.171475 18.804883 -0.683441 2.346794 0.027697 -0.011190 17854.300000 1 0 0
4.229765 8.559508 -17.324375 19.781053 1.111832 2.637901 0.042109 -0.009476 -77521.800000 1 0 0
9.200665 0.428308 -16.932675 19.275662 0.046518 2.643402 0.026693 -0.009214 -60969.800000 1 0 0
3.244665 4.802608 -18.528275 19.413651 0.976631 2.838420 0.026226 0.001941 -587951.000000 1 0 0
1.484465 -8.405092 -16.028075 18.158975 -1.395984 2.652273 0.001326 -0.000209 -753952.000000 1 0 0
4.542465 7.776708 -14.937775 17.442715 1.042141 2.599034 0.024910 -0.001458 686592.000000 1 0 0
-5.604635 -0.352592 -15.140675 16.148569 0.062828 2.786419 0.011498 -0.009310 -1017900.000000 1 0 0
2.911865 3.350308 -13.871575 14.564481 0.855299 2.831892 0.011673 -0.001175 -178673.000000 1 0 0
-2.573835 -10.379792 -18.116875 21.037724 1.327733 2.608346 0.020126 -0.009820 537851.000000 1 0 0
6.192065 -9.029092 -15.487575 18.966580 -0.969671 2.526243 0.019217 -0.006323 -68522.100000 1 0 0
-1.861735 5.344808 -17.340875 18.241134 -1.235614 2.826110 0.023421 -0.002012 572889.000000 1 0 0
10.112565 -12.191692 -11.707175 19.696682 -0.878346 2.207282 0.050948 -0.010639 -344000.000000 1 0 0
10.967065 3.753508 -9.261275 14.837000 0.329756 2.244905 0.009325 -0.004325 -672765.000000 1 0 0
4.833565 -0.485192 -11.016575 12.040086 -0.100045 2.726283 0.006309 -0.006657 -133609.000000 1 0 0
6.357565 9.533908 -11.433375 16.187529 0.982676 2.355065 0.034162 -0.012363 169278.000000 1 0 0
10.716665 -9.664192 -9.516175 17.285864 -0.733804 2.153781 0.028544 -0.007067 -825269.000000 1 0 0
3.268665 -2.363092 -14.433175 14.986157 -0.625965 2.869090 0.008735 -0.006326 -130669.000000 1 0 0
9.294765 -4.568592 -14.817675 18.078390 -0.456843 2.531569 0.029952 -0.011308 515693.000000 1 0 0
-4.064035 -6.718192 -16.524375 18.294956 1.026760 2.698011 0.013802 -0.004673 -779296.000000 1 0 0
5.910865 -7.870192 -11.208275 14.916557 -0.926627 2.420975 0.001245 0.000040 780815.000000 1 0 0
5.412765 6.372308 -16.963075 18.911643 0.866639 2.683651 0.028041 0.000910 -1211970.000000 1 0 0
9.147165 1.172108 -19.363475 21.447345 0.127444 2.697121 0.048556 -0.011880 624661.000000 1 0 0
13.118565 5.846408 -9.556675 17.251298 0.419238 2.157920 -0.001021 -0.006599 594845.000000 1 0 0
-1.431435 -0.681592 -17.331375 17.403739 0.444394 3.050369 0.017593 -0.010729 507745.000000 1 0 0
-0.252435 -0.638592 -19.629175 19.641182 1.194349 3.106625 0.026822 -0.014309 -568291.000000 1 0 0
2.798465 6.461508 -16.591675 18.024044 1.162087 2.740231 0.019357 0.005372 211098.000000 1 0 0
7.795065 3.632108 -15.520475 17.743742 0.436038 2.635616 0.025246 -0.002395 226616.000000 1 0 0
3.114065 -9.839092 -14.756075 18.006856 -1.264272 2.531282 0.005028 0.001020 -109780.000000 1 0 0
9.006565 -10.629192 -13.469575 19.378529 -0.867847 2.339324 0.037823 -0.002602 -14928.800000 1 0 0
3.843065 0.188708 -14.697175 15.192488 0.049064 2.885541 0.008099 -0.004331 -875359.000000 1 0 0
-0.992935 -2.841692 -18.778075 19.017813 1.234641 2.982643 0.020970 -0.009391 339745.000000 1 0 0
9.419465 10.118408 -13.206675 19.118702 0.821157 2.333353 0.050308 -0.010233 425695.000000 1 0 0
4.539465 2.072708 -10.582075 11.699708 0.428327 2.700940 0.007208 0.000332 -272050.000000 1 0 0
-0.721535 7.088008 -18.898275 20.196664 -1.469349 2.781070 0.027664 -0.003289 266444.000000 1 0 0
0.980465 -1.796092 -17.576075 17.694792 -1.071115 3.025690 0.018218 -0.011728 -2041770.000000 1 0 0
-4.534835 -2.289492 -14.126275 15.011933 0.467534 2.796379 0.014501 -0.007533 -2741430.000000 1 0 0
10.064865 6.072708 -10.420175 15.708575 0.542884 2.296074 0.008393 0.000308 80178.900000 1 0 0
8.310265 5.213508 -17.507575 20.068790 0.560293 2.630843 0.045035 -0.009399 -208216.000000 1 0 0
11.301265 0.089708 -13.631775 17.707398 0.007938 2.449379 0.010900 -0.002396 225295.000000 1 0 0
6.780265 11.998408 -11.925575 18.225069 1.056436 2.284119 0.053912 -0.017997 -511894.000000 1 0 0
-0.976335 0.551408 -14.947575 14.989572 -0.514115 3.066718 0.012958 -0.007722 7909.560000 1 0 0
-4.165035 -2.774392 -18.962175 19.611446 0.587621 2.883557 0.010429 -0.008266 -353020.000000 1 0 0
5.718165 -12.091692 -13.987775 19.353663 -1.129062 2.378563 0.005273 0.005228 -271297.000000 1 0 0
2.144065 -4.693092 -14.028775 14.947530 -1.142256 2.789157 0.005285 -0.002255 220828.000000 1 0 0
11.862065 1.906108 -15.361375 19.501633 0.159327 2.477858 0.035728 -0.009710 528855.000000 1 0 0
9.795565 2.270308 -13.745775 17.030964 0.227748 2.510028 0.016080 -0.004144 -1161970.000000 1 0 0
-2.308135 -4.242192 -16.399575 17.095898 1.072502 2.855201 0.006573 -0.005417 215244.000000 1 0 0
-2.815235 10.055008 -14.245975 17.662857 -1.297803 2.509089 0.006340 -0.001015 314229.000000 1 0 0
3.563465 5.744908 -13.724875 15.299491 1.015597 2.683914 0.018063 -0.001330 150776.000000 1 0 0
-5.189235 -2.458592 -16.619375 17.583414 0.442458 2.808921 0.019663 -0.007961 541778.000000 1 0 0
-4.293735 6.166808 -13.652375 15.583742 -0.962581 2.638437 0.001382 0.001203 -424045.000000 1 0 0
5.928065 -1.174592 -14.029575 15.275817 -0.195607 2.734857 0.010630 -0.005891 -313547.000000 1 0 0
6.764565 -3.051692 -12.545475 14.576045 -0.423792 2.607422 0.005532 -0.007995 1109050.000000 1 0 0
3.174365 -3.060692 -18.324675 18.847762 -0.767169 2.905446 0.023623 -0.013320 349212.000000 1 0 0
7.472565 -12.128692 -12.113875 18.700009 -1.018618 2.275490 0.013039 0.003719 103170.000000 1 0 0
-6.007835 -5.233692 -17.652175 19.367108 0.716642 2.717594 0.035330 -0.005194 417089.000000 1 0 0
0.476865 8.770108 -12.001075 14.871718 1.516476 2.509805 0.008874 0.000131 -91708.100000 1 0 0
0.554765 8.535608 -14.468575 16.807856 1.505893 2.607679 0.013493 0.000481 478232.000000 1 0 0
7.788365 -2.512792 -14.984975 17.074022 -0.312090 2.641728 0.018268 -0.018795 -590259.000000 1 0 0
14.152065 1.544708 -8.858475 16.767220 0.108720 2.127418 0.004187 -0.001516 492968.000000 1 0 0
2.811265 10.936208 -14.582075 18.442906 1.319184 2.482683 0.026025 -0.001611 589316.000000 1 0 0
6.178065 0.987508 -15.555775 16.766806 0.158500 2.759194 0.014688 -0.001769 432508.000000 1 0 0
16.456765 -5.542992 -10.554075 20.320885 -0.324887 2.116911 0.071223 -0.015398 404517.000000 1 0 0
4.953065 -4.338592 -11.226875 13.015335 -0.719363 2.611160 0.000137 -0.000683 238365.000000 1 0 0
8.846165 -3.504692 -17.126775 19.592445 -0.377211 2.634483 0.028519 -0.018470 213629.000000 1 0 0
13.328065 -9.520392 -8.864775 18.624162 -0.620267 2.066877 0.053092 -0.020663 461301.000000 1 0 0
2.283965 -7.709992 -13.650175 15.842593 -1.282798 2.609234 0.000235 0.001528 224584.000000 1 0 0
-6.706335 -2.190592 -18.577575 19.872088 0.315719 2.778654 0.014603 -0.005740 -440454.000000 1 0 0
-1.536935 -6.558392 -15.658075 17.045526 1.340604 2.735328 0.006689 -0.002615 885955.000000 1 0 0
1.551865 -7.252692 -18.316375 19.761058 -1.360004 2.756843 0.027250 -0.015400 9367.710000 1 0 0
5.388765 11.128408 -14.500975 19.056719 1.119840 2.435553 0.058337 -0.019829 699769.000000 1 0 0
5.584465 -3.497292 -17.108175 18.333220 -0.559500 2.773955 0.032050 -0.020738 -744872.000000 1 0 0
4.011865 13.255408 -13.761575 19.523879 1.276902 2.353020 0.041011 -0.022528 -43288.600000 1 0 0
9.686965 10.130808 -15.713475 21.056682 0.807791 2.413202 0.080361 -0.022437 334907.000000 1 0 0
2.395765 3.914208 -16.298275 16.932055 1.021550 2.867124 0.020910 0.001636 466202.000000 1 0 0
16.627365 1.857408 -11.413975 20.253347 0.111247 2.169485 0.039205 -0.009292 -9648.110000 1 0 0
9.984665 -3.685192 -10.561675 14.994104 -0.353575 2.352358 0.015463 -0.002739 20750.500000 1 0 0
14.716565 -2.094092 -12.025075 19.119753 -0.141346 2.250978 0.041165 -0.008262 -180747.000000 1 0 0
-2.665735 -8.800692 -16.020475 18.471977 1.276681 2.620519 0.012128 0.001920 -93639.900000 1 0 0
13.989965 8.163008 -8.933075 18.497396 0.528192 2.074802 0.031675 -0.006265 147341.000000 1 0 0
-8.349335 -0.030692 -16.480375 18.474715 0.003676 2.672658 0.012687 -0.010628 -812482.000000 1 0 0
-3.511535 3.979908 -16.017375 16.873851 -0.847838 2.821615 0.013759 -0.000893 -1540180.000000 1 0 0
15.054565 3.968908 -9.638075 18.310780 0.257770 2.125111 0.005970 -0.004583 743680.000000 1 0 0
5.465965 1.153908 -12.945775 14.099694 0.208053 2.734207 0.006919 -0.004442 435176.000000 1 0 0
7.867765 -7.773592 -13.037675 17.097117 -0.779377 2.438066 0.022058 -0.002521 -1837080.000000 1 0 0
3.278665 -6.201792 -11.921175 13.832074 -1.084481 2.609703 0.001789 -0.001087 -919919.000000 1 0 0
-3.207035 3.597808 -18.610375 19.224342 -0.842761 2.888182 0.022713 -0.000905 -237998.000000 1 0 0
0.768665 5.234908 -17.800175 18.569904 1.425004 2.852664 0.024015 -0.005527 -1299060.000000 1 0 0
6.381065 7.164308 -10.211375 14.011334 0.843157 2.387355 0.013949 -0.001633 11965.000000 1 0 0
9.812765 3.697208 -11.593175 15.632064 0.360326 2.406290 0.013137 -0.001199 220708.000000 1 0 0
4.541265 1.638808 -17.610075 18.259888 0.346326 2.874011 0.015752 0.002353 -565170.000000 1 0 0
2.713865 8.049908 -13.146275 15.652176 1.245633 2.567897 0.020189 -0.006604 128465.000000 1 0 0
14.311265 -3.539792 -9.975975 17.800632 -0.242476 2.165699 0.037578 -0.002768 73683.900000 1 0 0
-1.230335 9.292708 -16.169975 18.690538 -1.439164 2.616230 0.015880 0.001359 -2724240.000000 1 0 0
-5.252935 2.085308 -15.721875 16.706860 -0.377900 2.796497 0.012933 -0.006156 462536.000000 1 0 0
4.531365 4.204408 -11.969975 13.471845 0.747988 2.664901 0.013094 -0.001455 522170.000000 1 0 0
9.347965 2.989108 -17.570575 20.125713 0.309485 2.632201 0.033578 -0.006236 1004950.000000 1 0 0
-4.311635 14.330308 -13.310975 20.028229 -1.278537 2.297769 0.013445 -0.005182 -215236.000000 1 0 0
15.512365 -4.878092 -8.241675 18.230591 -0.304674 2.039892 0.046798 -0.007941 1430960.000000 1 0 0
1.153565 9.291908 -16.799475 19.232593 1.447281 2.633122 0.017533 0.003581 -1074320.000000 1 0 0
0.505565 -3.137892 -12.791475 13.180432 -1.411053 2.898050 0.006188 -0.002787 -14791.400000 1 0 0
7.604065 3.630308 -12.914375 15.420182 0.445418 2.563485 0.010981 -0.001071 637514.000000 1 0 0
-2.898935 7.602508 -15.091175 17.144839 -1.206503 2.647115 0.005463 0.001810 66735.900000 1 0 0
12.125065 -5.144492 -11.061875 17.200235 -0.401265 2.269367 0.029344 -0.007686 -965354.000000 1 0 0
0.994865 -4.340992 -19.831475 20.325387 -1.345508 2.920688 0.029492 -0.014996 -515566.000000 1 0 0
3.388565 -4.401392 -16.114275 17.044778 -0.914690 2.809641 0.022385 -0.011988 520005.000000 1 0 0
-5.693535 4.245308 -14.410775 16.065784 -0.640703 2.683699 0.006617 -0.001277 519252.000000 1 0 0
12.163265 -7.580292 -9.966275 17.456588 -0.557312 2.178419 0.022548 -0.003268 -339404.000000 1 0 0
-2.097735 -1.878692 -15.140675 15.400325 0.730368 2.957703 0.015657 -0.005223 598905.000000 1 0 0
7.205465 5.861408 -14.248375 17.008557 0.682899 2.563887 0.024016 -0.000112 45495.800000 1 0 0
4.175165 -5.447492 -18.304175 19.548657 -0.916858 2.782851 0.037336 -0.020635 119711.000000 1 0 0
7.670665 7.409808 -12.266275 16.254410 0.768102 2.425906 0.020798 -0.006075 122973.000000 1 0 0
12.256665 -2.478992 -11.160375 16.760824 -0.199564 2.299443 0.018747 -0.002762 -1134010.000000 1 0 0
7.435065 -0.744392 -10.676675 13.031719 -0.099787 2.530957 0.001360 -0.002903 -1902950.000000 1 0 0
5.465565 3.975308 -14.383075 15.891769 0.628838 2.702328 0.010944 -0.000311 300319.000000 1 0 0
14.817065 2.762008 -13.073375 19.952124 0.184292 2.285293 0.019550 -0.017502 428909.000000 1 0 0
-6.488035 6.704508 -15.961375 18.488118 -0.801805 2.612631 0.006571 0.010598 694561.000000 1 0 0
-11.433035 3.910508 -16.205775 20.214685 -0.329562 2.500902 0.064907 -0.021640 -634521.000000 1 0 0
-4.970035 6.442408 -18.115275 19.858727 -0.913704 2.719436 0.015993 0.016125 27812.200000 1 0 0
-9.983535 1.756208 -15.694475 18.683462 -0.174129 2.568116 0.037776 -0.011676 -120955.000000 1 0 0
-7.624235 5.977808 -18.065475 20.499378 -0.664942 2.649338 0.022222 0.002041 1049120.000000 1 0 0
-8.922635 4.051908 -15.669975 18.481869 -0.426271 2.582726 0.021101 0.005356 -622497.000000 1 0 0
9.010565 13.411208 -12.034575 20.146508 0.979201 2.210993 0.083096 -0.023780 480350.000000 1 0 0
14.010865 8.756208 -11.441375 20.096780 0.558569 2.176467 0.040639 -0.009011 210770.000000 1 0 0
8.486065 16.033008 -9.028675 20.262962 1.083994 2.032613 0.048336 -0.015105 -46513.200000 1 0 0
7.134165 13.706008 -13.893375 20.779241 1.090873 2.303145 0.080104 -0.018075 -228351.000000 1 0 0
4.738665 16.053608 -12.387075 20.823374 1.283770 2.207893 0.050955 -0.025819 301414.000000 1 0 0
11.088265 11.063008 -11.464075 19.410430 0.784258 2.202616 0.064083 -0.013831 -276627.000000 1 0 0
15.861965 9.626008 -9.614175 20.897233 0.545449 2.048870 0.067894 -0.005340 -260117.000000 1 0 0
13.393465 10.475408 -9.465475 19.460583 0.663748 2.078752 0.081643 -0.013877 450610.000000 1 0 0
10.747665 12.017808 -8.151375 18.066127 0.841133 2.038902 0.053042 -0.006780 527351.000000 1 0 0
5.488765 16.152308 -9.841075 19.694425 1.243225 2.094035 0.032512 -0.020685 3536.800000 1 0 0
6.728065 14.559108 -11.451375 19.707067 1.137909 2.190851 0.048235 -0.014092 437008.000000 1 0 0
10.958465 14.098608 -9.827775 20.382440 0.910068 2.073925 0.084166 -0.010545 -133800.000000 1 0 0
8.121565 -18.611492 -1.496175 20.361385 -1.159332 1.644344 0.042262 -0.000508 -171907.000000 1 0 0
7.353765 -17.172092 -3.436875 18.993965 -1.166185 1.752744 0.031457 -0.010214 -803339.000000 1 0 0
4.485865 -18.468592 5.883825 19.895509 -1.332519 1.270570 0.039832 0.002291 207330.000000 1 0 0
9.801665 -17.068092 -2.749175 19.873358 -1.049512 1.709576 0.038365 -0.007932 -775908.000000 1 0 0
-9.651535 -12.229592 -10.009375 18.517630 0.902679 2.141866 0.035185 -0.012785 -542748.000000 1 0 0
-5.123035 -7.116092 -12.120775 14.959860 0.946824 2.515323 0.009310 0.001896 -483020.000000 1 0 0
-10.749735 -9.509992 -5.728775 15.453660 0.724282 1.950566 0.012322 -0.007532 -1160150.000000 1 0 0
-4.562335 -11.518892 -14.178875 18.829239 1.193679 2.423443 0.026337 -0.001222 -202768.000000 1 0 0
-2.934035 -15.291492 7.384725 17.232889 1.381227 1.127937 -0.000441 -0.005478 -61073.600000 1 0 0
-4.882635 -12.026992 -11.643275 17.437158 1.185151 2.301948 0.019747 -0.001373 156461.000000 1 0 0
-14.368035 -12.890292 -4.353875 19.787781 0.731239 1.792640 0.018551 -0.006087 1484.190000 1 0 0
-3.218235 -12.302692 -3.236075 13.121945 1.314942 1.819983 0.002650 -0.003723 646576.000000 1 0 0
-2.319835 -17.391292 -1.445675 17.604790 1.438189 1.653007 0.001132 -0.007386 -458378.000000 1 0 0
-5.649135 -12.087792 3.813725 13.877029 1.133615 1.292391 0.001442 -0.000008 -601493.000000 1 0 0
-8.844835 -10.761592 -12.010375 18.392717 0.882850 2.282330 0.025673 -0.001339 1288880.000000 1 0 0
-9.507935 -12.080692 -7.420275 17.070571 0.904011 2.020482 0.014171 -0.008522 -46798.600000 1 0 0
-10.877835 -15.152392 6.306325 19.689896 0.948161 1.244769 0.047783 -0.005779 -169866.000000 1 0 0
-9.376035 -15.564692 0.768125 18.186799 1.028620 1.528548 0.020110 0.000309 -1676660.000000 1 0 0
-14.849335 -7.784492 -8.212075 18.669205 0.482845 2.026253 0.027570 -0.013508 67450.000000 1 0 0
-2.396835 -16.529892 5.060125 17.452421 1.426800 1.276634 0.008046 -0.005547 1225540.000000 1 0 0
4.254765 -15.843392 5.519425 17.308384 -1.308435 1.246241 0.030672 -0.010112 -733389.000000 1 0 0
4.293365 -14.744892 -10.123275 18.393627 -1.287454 2.153602 0.001613 0.002016 203440.000000 1 0 0
-7.577635 -13.981192 -0.218675 15.904153 1.074125 1.584546 0.004154 -0.002237 1465340.000000 1 0 0
2.900965 -14.636592 9.630125 17.759075 -1.375133 0.997666 0.021695 -0.017448 124622.000000 1 0 0
2.476865 -17.121592 10.406325 20.188496 -1.427130 1.029254 0.049733 -0.019240 -196011.000000 1 0 0
-8.312935 -17.241692 -5.504175 19.916746 1.121537 1.850800 0.032641 -0.004661 -184677.000000 1 0 0
-6.367535 -9.156792 -7.715775 13.561914 0.963172 2.176000 0.015293 -0.002820 269202.000000 1 0 0
-6.023135 -13.130292 -4.845175 15.236746 1.140714 1.894408 0.004727 -0.007016 231082.000000 1 0 0
2.247265 -19.394592 -4.921375 20.135052 -1.455440 1.817716 0.018813 -0.014337 -81831.700000 1 0 0
-5.284635 -12.768292 8.359825 16.150644 1.178376 1.026735 0.005665 -0.006117 1266180.000000 1 0 0
2.186765 -17.518292 3.463625 17.990808 -1.446611 1.377065 0.017155 -0.013942 887870.000000 1 0 0
-17.549135 -10.276192 -2.423375 20.480356 0.529739 1.689401 0.016316 -0.010820 440815.000000 1 0 0
-3.496835 -15.397492 2.586325 15.999990 1.347480 1.408439 0.000611 -0.002907 -190378.000000 1 0 0
-10.327035 -10.524592 -14.158975 20.442388 0.794872 2.335923 0.050861 -0.009312 48492.000000 1 0 0
5.993065 -14.515892 -5.730275 16.717177 -1.179251 1.920668 -0.002239 -0.006814 288162.000000 1 0 0
-7.247435 -12.295092 -10.824675 17.912793 1.038165 2.219681 0.026484 -0.009326 -2277550.000000 1 0 0
-7.164235 -14.174292 3.953725 16.366696 1.102807 1.326811 0.004755 0.003166 1098520.000000 1 0 0
3.256365 -14.984792 -3.109675 15.646660 -1.356812 1.770872 0.004854 -0.003839 -546869.000000 1 0 0
-7.459535 -11.354692 7.853525 15.692404 0.989547 1.046659 0.013635 -0.012074 -1471880.000000 1 0 0
-12.663535 -12.302692 -1.141475 17.692493 0.770946 1.635359 0.013363 0.004573 -2118330.000000 1 0 0
-1.830635 -13.703292 4.013025 14.395687 1.437992 1.288288 -0.005634 0.000727 -3452310.000000 1 0 0
-3.111535 -13.999892 5.256125 15.274340 1.352097 1.219501 -0.003427 0.001785 317361.000000 1 0 0
-14.444535 -10.355292 -4.482875 18.329561 0.621979 1.817873 0.008209 -0.007735 168930.000000 1 0 0
-6.174735 -8.654192 -10.351075 14.838030 0.951070 2.342845 0.013149 -0.001731 190884.000000 1 0 0
0.680265 -19.408592 2.157225 19.539954 -1.535761 1.460170 0.022729 -0.018214 -187549.000000 1 0 0
6.445965 -14.202492 -8.288675 17.662485 -1.144736 2.059273 0.004874 -0.003658 -3013590.000000 1 0 0
-3.927535 -16.673392 -5.970175 18.140301 1.339457 1.906158 0.005635 -0.009355 75257.700000 1 0 0
-3.594635 -13.700292 -13.134375 19.316604 1.314204 2.318494 0.032182 -0.004242 -1080530.000000 1 0 0
-8.219135 -14.735892 -4.439475 17.447338 1.062013 1.828075 0.016410 -0.007644 -681486.000000 1 0 0
-4.459035 -14.330992 10.157725 18.122905 1.269145 0.975818 0.010477 -0.007692 -704339.000000 1 0 0
-0.169435 -12.162292 -9.918675 15.694909 1.556866 2.254886 0.005887 0.002979 1027380.000000 1 0 0
2.479865 -17.230692 6.878825 18.718032 -1.427856 1.194480 0.032420 -0.016222 -1132190.000000 1 0 0
-2.790935 -19.108392 -3.455475 19.617856 1.425764 1.747859 0.006581 -0.013878 -105383.000000 1 0 0
0.658265 -15.445392 -3.104575 15.768063 -1.528203 1.768981 0.004508 -0.005534 -79884.000000 1 0 0
5.917965 -18.029692 0.460625 18.981683 -1.253642 1.546527 0.023608 -0.006740 -211754.000000 1 0 0
-6.859235 -16.511292 3.896225 18.298973 1.177062 1.356233 0.012795 -0.005214 672882.000000 1 0 0
-5.250535 -13.536392 -9.570975 17.389812 1.200779 2.153614 0.015835 -0.004368 -131102.000000 1 0 0
5.685065 -15.153392 -2.166475 16.329080 -1.211879 1.703865 0.016571 -0.002819 -972610.000000 1 0 0
-8.767035 -10.249492 -0.453775 13.495143 0.863197 1.604428 0.003481 0.001411 -1245960.000000 1 0 0
-7.190535 -18.391992 -2.857975 19.953375 1.198107 1.714523 0.023773 -0.014965 427045.000000 1 0 0
7.915565 -15.987392 -1.181075 17.878697 -1.111066 1.636905 0.021657 -0.002412 -349327.000000 1 0 0
-8.062135 -10.130692 -9.558575 16.093330 0.898614 2.206752 0.024706 -0.006164 -18788.400000 1 0 0
-9.207435 -15.267892 -6.849875 19.099899 1.028131 1.937601 0.031853 -0.007581 10991.700000 1 0 0
-11.497135 -10.549192 -12.003575 19.686426 0.742427 2.226527 0.043834 0.000504 -671196.000000 1 0 0
6.742065 -16.338892 2.389925 17.836103 -1.179442 1.436398 0.031299 -0.007182 1116160.000000 1 0 0
-2.313235 -11.197092 -6.102275 12.960080 1.367070 2.061052 0.002665 -0.000947 663042.000000 1 0 0
-12.500635 -15.375792 -3.347175 20.096876 0.888174 1.738128 0.028859 -0.004036 -291111.000000 1 0 0
-0.251335 -19.525892 -2.762275 19.721911 1.557925 1.711320 0.033711 -0.019301 -518050.000000 1 0 0
-5.865035 -15.624292 -4.651975 17.325068 1.211693 1.842643 0.005144 -0.007018 -1823580.000000 1 0 0
1.962365 -16.000792 -0.996775 16.151464 -1.448764 1.632550 0.006675 -0.011434 1068280.000000 1 0 0
-13.120435 -11.898992 5.267525 18.479140 0.736617 1.281735 0.037393 -0.005530 398290.000000 1 0 0
2.155765 -15.375192 -8.984375 17.937749 -1.431494 2.095393 0.007609 0.002576 -1481670.000000 1 0 0
-11.614435 -16.753192 -0.066875 20.385509 0.964603 1.574077 0.042009 -0.007182 500041.000000 1 0 0
-7.571135 -16.490992 -1.012475 18.174157 1.140395 1.626535 0.024007 -0.008006 417142.000000 1 0 0
-2.961235 -14.495492 -1.748975 14.897889 1.369282 1.688465 0.001276 -0.004643 282927.000000 1 0 0
-1.767235 -10.532092 -13.222175 16.996293 1.404550 2.462184 0.003035 0.006229 149104.000000 1 0 0
1.396665 -19.673992 4.680625 20.271282 -1.499925 1.337794 0.034561 -0.012513 -52591.900000 1 0 0
-17.487935 -9.474892 2.468825 20.042368 0.496523 1.447302 0.045147 -0.009900 456587.000000 1 0 0
-2.586835 -15.592692 -8.126675 17.772636 1.406393 2.045706 0.003284 -0.002997 -1195120.000000 1 0 0
-10.417435 -12.114692 0.262625 15.979915 0.860582 1.554361 0.010422 0.003979 660796.000000 1 0 0
-6.848135 -11.511592 -6.568975 14.918617 1.034142 2.026752 0.013714 -0.006018 -673060.000000 1 0 0
-2.075435 -13.631492 -6.688775 15.325296 1.419704 2.022449 0.000311 0.000579 363369.000000 1 0 0
-14.112835 -14.460792 -0.982275 20.229964 0.797575 1.619371 0.028613 -0.002622 -183570.000000 1 0 0
-9.565535 -11.305692 -4.470075 15.469314 0.868582 1.863941 0.012082 -0.007144 1392590.000000 1 0 0
9.536165 -15.226692 -5.170575 18.695599 -1.011277 1.851016 0.021897 -0.007444 91623.500000 1 0 0
-5.545235 -10.942092 -9.407875 15.459208 1.101739 2.225042 0.016811 -0.002812 -265329.000000 1 0 0
-10.473935 -16.060192 -4.816075 19.769361 0.992899 1.816886 0.033308 -0.003736 -1469210.000000 1 0 0
2.359965 -17.393192 -3.217975 17.845109 -1.435937 1.752116 0.016049 -0.007600 289325.000000 1 0 0
-0.232735 -14.604592 -8.208275 16.754821 1.554862 2.082777 0.004378 0.001030 -1049900.000000 1 0 0
-0.448635 -18.294692 -7.072375 19.619264 1.546279 1.939580 0.020243 -0.010090 189445.000000 1 0 0
-1.794935 -10.056592 -10.554675 14.688703 1.394173 2.372522 0.002299 0.004318 492524.000000 1 0 0
-5.001735 -17.319992 2.112325 18.151071 1.289661 1.454157 0.009309 -0.005009 -213982.000000 1 0 0
0.244865 -12.838892 -2.601175 13.102031 -1.551726 1.770656 0.001259 -0.001932 -1680330.000000 1 0 0
2.744965 -15.058392 3.089825 15.615282 -1.390488 1.371610 0.013710 -0.007660 -673415.000000 1 0 0
-9.345435 -13.097992 6.940525 17.523282 0.951066 1.163559 0.021527 -0.006788 -120747.000000 1 0 0
-0.756135 -17.806692 -4.495275 18.380901 1.528358 1.817865 0.015439 -0.011577 -748590.000000 1 0 0
-9.556135 -17.494492 -2.179475 20.053106 1.070847 1.679697 0.037314 -0.015696 -1633660.000000 1 0 0
1.338465 -16.165292 1.390025 16.280059 -1.488186 1.485310 0.007881 -0.015058 -311485.000000 1 0 0
-0.384035 -17.948792 4.093225 18.413612 1.549403 1.346630 0.022315 -0.017160 -293040.000000 1 0 0
-17.365935 -9.211992 -0.041675 19.658032 0.487720 1.572916 0.005547 -0.002857 614861.000000 1 0 0
-15.045135 -7.258692 -10.602475 19.785276 0.449518 2.136342 0.053145 -0.019476 615357.000000 1 0 0
2.838365 -12.803992 -8.880475 15.838603 -1.352646 2.166010 -0.004370 0.003356 640540.000000 1 0 0
-11.736035 -14.693792 1.584925 18.872043 0.896844 1.486715 0.028365 0.001304 191502.000000 1 0 0
-2.244435 -15.646692 10.657925 19.064308 1.428324 0.977555 0.011721 -0.005256 459781.000000 1 0 0
-6.891935 -15.764692 1.368425 17.259689 1.158658 1.491429 0.014815 -0.005353 -1916820.000000 1 0 0
-12.565035 -15.052392 -5.963275 20.494273 0.875221 1.866040 0.026314 -0.007063 202035.000000 1 0 0
0.961065 -13.768492 -4.966675 14.668431 -1.501108 1.916221 0.003453 -0.001883 -315615.000000 1 0 0
6.223965 -16.457192 -7.362575 19.073133 -1.209231 1.967108 0.022480 -0.019262 56075.600000 1 0 0
-6.425435 -12.825692 5.960925 15.534388 1.106364 1.176970 0.009390 -0.000910 362065.000000 1 0 0
-2.545535 -13.540492 0.536425 13.788126 1.384971 1.531882 0.002734 -0.003812 1969300.000000 1 0 0
-4.225335 -15.606792 0.155025 16.169398 1.306398 1.561209 -0.001709 -0.003742 -47914.400000 1 0 0
-17.514935 -7.785992 -2.327175 19.308297 0.418299 1.691617 -0.002964 -0.004375 -3055.580000 1 0 0
1.207765 -12.757592 -11.998175 17.554801 -1.476407 2.323302 0.001258 0.010024 -728342.000000 1 0 0
1.358465 -17.069892 -5.733475 18.058221 -1.491381 1.893888 0.022723 -0.010712 -885025.000000 1 0 0
-12.947635 -6.411192 -9.291175 17.177618 0.459771 2.142289 0.025472 -0.004935 113967.000000 1 0 0
-11.312835 -13.583992 -8.588475 19.653675 0.876369 2.023047 0.026795 -0.016862 81925.700000 1 0 0
-4.215835 -9.804392 3.502925 11.232535 1.164703 1.253651 0.004405 -0.000274 -4680450.000000 1 0 0
-6.990835 -14.334492 9.590225 18.609724 1.117043 1.029399 0.020148 -0.012948 248983.000000 1 0 0
-5.212935 -15.816092 -8.121075 18.527690 1.252412 2.024526 0.011973 -0.010760 -1506230.000000 1 0 0
-0.173535 -13.513492 2.112425 13.678703 1.557955 1.415744 -0.000859 -0.005439 1003650.000000 1 0 0
-10.977135 -13.526692 -4.599775 18.017403 0.889072 1.828950 0.022884 -0.005303 -623883.000000 1 0 0
-9.563435 -10.467192 6.746725 15.701582 0.830486 1.126653 0.030329 -0.004806 -863103.000000 1 0 0
-15.440735 -8.194192 -4.891975 18.151928 0.487894 1.843672 0.014858 -0.008677 -702304.000000 1 0 0
-14.504135 -7.302992 5.504525 17.146528 0.466452 1.243981 0.043128 -0.012468 312678.000000 1 0 0
-1.636435 -19.392492 0.193325 19.462375 1.486611 1.560863 0.021875 -0.011506 -521915.000000 1 0 0
-15.205735 -12.187492 -1.625875 19.554866 0.675659 1.654037 0.006178 0.005453 745918.000000 1 0 0
-4.421035 -12.325492 -6.817575 14.762880 1.226401 2.050826 0.003473 -0.002594 -869930.000000 1 0 0
-7.476135 -18.207592 2.145125 19.799256 1.181181 1.462239 0.029382 -0.007322 -500131.000000 1 0 0
-2.436935 -11.809592 -8.576675 14.797448 1.367300 2.189040 0.001627 0.002731 1143280.000000 1 0 0
-1.118835 -20.305592 -5.078375 20.960886 1.515752 1.815510 0.029065 -0.006467 -66997.600000 1 0 0
-5.419335 -9.034392 -13.845075 17.397572 1.030483 2.491132 0.021139 -0.000429 465546.000000 1 0 0
-8.224035 -18.999492 -0.508575 20.709275 1.162291 1.595357 0.031100 -0.010165 97909.200000 1 0 0
-17.051335 -7.337492 5.774025 19.440323 0.406366 1.269234 0.061699 -0.019194 344450.000000 1 0 0
-3.589935 -14.677692 -4.256775 15.698484 1.330921 1.845393 0.000521 -0.003032 -2607800.000000 1 0 0
-2.864035 -14.882892 -10.924975 18.683100 1.380682 2.195370 0.013837 -0.004924 -413341.000000 1 0 0
-0.071335 -16.634892 6.280425 17.781126 1.566508 1.209799 0.027855 -0.014785 -98882.300000 1 0 0
-11.091835 -11.604292 3.733325 16.481083 0.807973 1.342291 0.023797 -0.000400 143882.000000 1 0 0
-0.246935 -14.733692 -0.249875 14.737879 1.554038 1.587752 0.000126 -0.002553 637321.000000 1 0 0
-7.234035 -9.503192 -2.422675 12.186520 0.920152 1.770929 0.008873 -0.001369 -538087.000000 1 0 0
-11.062035 -14.394292 -0.829975 18.172867 0.915559 1.616483 0.018003 -0.002285 -1952.810000 1 0 0
0.394965 -14.665092 -10.723875 18.172022 -1.543870 2.202017 0.003452 0.003320 -338683.000000 1 0 0
-1.387635 -14.071692 -3.848575 14.654336 1.472502 1.836537 -0.000261 -0.002102 -2534510.000000 1 0 0
-11.457435 -8.020192 -7.634075 15.933467 0.610725 2.070450 0.018830 -0.008757 608415.000000 1 0 0
-0.204535 -17.326192 -0.103675 17.327709 1.558992 1.576780 0.007512 -0.011469 -1582110.000000 1 0 0
-12.748935 -9.504992 4.610725 16.557143 0.640648 1.288592 0.029360 -0.005521 491485.000000 1 0 0
4.039565 -16.819892 1.667225 17.378334 -1.335094 1.474712 0.017166 -0.013924 1470150.000000 1 0 0
-3.686435 -17.870492 -8.190475 20.000704 1.367364 1.992712 0.028032 -0.013726 200665.000000 1 0 0
-13.327935 -11.140192 2.609325 17.565486 0.696223 1.421696 0.016359 -0.000176 -291957.000000 1 0 0
-8.436735 -12.029092 4.245125 15.293745 0.959158 1.289530 0.012833 -0.002167 2747840.000000 1 0 0
-8.155535 -9.437192 -5.872875 13.786370 0.858121 2.010854 0.014641 -0.005597 27457.100000 1 0 0
3.842565 -17.492292 -5.373875 18.698238 -1.354559 1.862308 0.003043 -0.000575 -1518330.000000 1 0 0
-2.441835 -13.080292 11.319525 17.469638 1.386240 0.865901 -0.004473 -0.004869 589142.000000 1 0 0
0.004765 -16.812592 -9.555175 19.338165 -1.570513 2.087607 0.011768 -0.001940 -272471.000000 1 0 0
-7.141235 -10.907792 -14.595175 19.570291 0.991130 2.412505 0.033183 0.001864 1035500.000000 1 0 0
-4.481535 -18.870092 -1.574975 19.458804 1.337622 1.651824 0.018961 -0.015100 -1028870.000000 1 0 0
-2.488535 -17.267492 1.283025 17.493005 1.427665 1.497385 0.015696 -0.010908 -287452.000000 1 0 0
4.132565 -14.766192 -7.550075 17.091581 -1.297911 2.028336 0.006647 -0.001304 -1178140.000000 1 0 0
-0.932535 -15.892792 -6.109575 17.052195 1.512187 1.937228 0.004615 -0.003834 -131718.000000 1 0 0
-9.359835 -15.328092 8.362925 19.811497 1.022595 1.135008 0.030007 -0.010651 -387484.000000 1 0 0
-7.171635 -11.963492 -1.793775 14.063254 1.030774 1.698695 0.004261 -0.002034 761820.000000 1 0 0
-7.325835 -15.120292 -9.426275 19.265143 1.119623 2.082074 0.031517 -0.007500 567527.000000 1 0 0
-5.014235 -13.221692 -0.638175 14.154962 1.208311 1.615896 0.002283 -0.000886 2496690.000000 1 0 0
-6.533835 -13.836692 -7.338575 16.970554 1.129626 2.017982 0.016218 -0.004734 507753.000000 1 0 0
5.743665 -15.418492 0.330325 16.456874 -1.214203 1.550723 0.018605 -0.001918 646716.000000 1 0 0
-14.397535 -12.704692 0.855025 19.220543 0.723018 1.526297 0.009798 -0.001637 846288.000000 1 0 0
0.809965 -15.284092 11.085825 18.898546 -1.517852 0.943946 0.023902 -0.011590 -413374.000000 1 0 0
-9.195435 -10.704992 1.995425 14.252529 0.861109 1.430330 0.004121 0.003725 464067.000000 1 0 0
-9.382635 -8.947892 -3.562575 13.445837 0.761686 1.838956 0.011310 -0.004386 -399804.000000 1 0 0
-12.201335 -7.379092 -12.359575 18.870152 0.543925 2.284953 0.032682 -0.005380 361035.000000 1 0 0
-13.214135 -8.396792 -0.636875 15.669240 0.566072 1.611452 0.001358 -0.004156 -378531.000000 1 0 0
-11.177135 -9.704492 0.485125 14.810160 0.714991 1.538034 0.003495 0.003265 1385000.000000 1 0 0
-15.735835 -12.055592 2.971725 20.044574 0.653741 1.421992 0.042323 -0.001791 18020.100000 1 0 0
-10.361835 -12.441992 -2.351475 16.361547 0.876366 1.715015 0.016535 -0.004641 883629.000000 1 0 0
-3.395035 -8.973292 -12.110375 15.450158 1.209093 2.471614 0.007264 0.005922 -1199880.000000 1 0 0
-0.150935 -15.494392 3.958725 15.992825 1.561055 1.320665 0.011842 -0.010074 -851152.000000 1 0 0
-15.687535 -7.716192 1.297825 17.530622 0.457121 1.496697 -0.003711 -0.004428 1002900.000000 1 0 0
-6.069935 -13.529492 -13.241375 19.880273 1.149070 2.299705 0.028464 -0.007723 -1467890.000000 1 0 0
-15.334135 -10.260492 1.090525 18.482495 0.589704 1.511759 0.002028 -0.002435 892639.000000 1 0 0
-9.886235 -8.492892 -12.526375 18.076972 0.709732 2.336364 0.021493 -0.000973 819444.000000 1 0 0
-13.409935 -11.725692 -6.392775 18.925796 0.718492 1.915355 0.025658 -0.006126 -353178.000000 1 0 0
-12.259635 -11.444692 -3.959375 17.232419 0.751032 1.802631 0.011294 -0.003802 -536017.000000 1 0 0
-11.623635 -11.082792 -8.751675 18.290133 0.761584 2.069732 0.024792 -0.021642 190923.000000 1 0 0
-13.148835 -8.568292 -5.862575 16.753425 0.577526 1.928296 0.012819 -0.007421 -1741930.000000 1 0 0
-13.422935 -8.266892 -3.268075 16.099596 0.552013 1.775208 0.008389 -0.005976 226285.000000 1 0 0
-4.243035 -17.035292 -3.272575 17.858170 1.326690 1.755091 0.004231 -0.009217 509518.000000 1 0 0
-15.355335 -8.982392 -1.731075 17.873620 0.529294 1.667799 -0.001121 -0.001916 -892818.000000 1 0 0
-9.348635 -15.547292 3.613225 18.497855 1.029419 1.374200 0.019224 -0.002217 90490.000000 1 0 0
4.849165 -16.854492 7.882925 19.228334 -1.290655 1.148382 0.056217 -0.039337 287441.000000 1 0 0
-8.281935 -15.429892 6.012125 18.515336 1.078186 1.240091 0.015616 0.001425 525957.000000 1 0 0
0.934865 -16.131592 8.586525 18.298378 -1.512909 1.082354 0.020495 -0.010411 228513.000000 1 0 0
-10.909935 -7.841592 -10.197175 16.867116 0.623204 2.220009 0.021862 -0.005682 830694.000000 1 0 0
-4.849935 -16.032792 5.882525 17.753208 1.277047 1.233062 0.008897 -0.003988 -604260.000000 1 0 0
-1.318535 -13.212392 -12.097975 17.962929 1.471330 2.309726 0.002115 0.003149 -1331180.000000 1 0 0
-6.450035 -14.300192 -2.555675 15.894336 1.147073 1.732289 0.009027 -0.004903 534289.000000 1 0 0
-17.714135 -6.900992 -7.324175 20.372967 0.371488 1.938533 0.039342 -0.018411 162386.000000 1 0 0
-17.357535 -3.935792 -10.120675 20.474436 0.222978 2.087835 0.059936 -0.024397 828519.000000 1 0 0
-15.340035 -5.292292 -8.895075 18.505333 0.332212 2.072222 0.021097 -0.022160 -506798.000000 1 0 0
-16.155535 -5.514392 -5.615775 17.970719 0.328931 1.888616 0.012246 -0.006665 96618.800000 1 0 0
-15.157935 -4.501292 -12.348175 20.062453 0.288665 2.233800 0.043771 -0.013244 -507410.000000 1 0 0
-18.741635 -5.256492 -5.521875 20.232911 0.273446 1.847219 0.034714 -0.013104 -222919.000000 1 0 0
-17.456735 -4.392292 -7.606575 19.542001 0.246494 1.970605 0.031689 -0.018698 488787.000000 1 0 0
12.197965 -7.764792 8.689925 16.870008 -0.566872 1.029659 0.030704 -0.015059 210102.000000 1 0 0
15.992765 -3.257892 1.699225 16.409442 -0.200961 1.467059 0.027391 -0.012026 1104920.000000 1 0 0
12.126165 -2.162092 12.497125 17.546985 -0.176446 0.778156 0.026559 -0.008320 191594.000000 1 0 0
9.699965 -9.983392 5.151525 14.842360 -0.799796 1.216338 0.012784 -0.006994 402095.000000 1 0 0
16.955665 -1.873892 7.108125 18.480571 -0.110070 1.175993 0.060516 -0.021010 -65594.800000 1 0 0
5.094965 -12.655692 9.137225 16.419930 -1.188065 0.980663 0.003519 -0.002711 -219751.000000 1 0 0
15.101565 -9.007492 -2.146775 17.714424 -0.537813 1.692283 0.029050 -0.008635 531823.000000 1 0 0
11.186065 -8.517392 6.414025 15.453600 -0.650775 1.142798 0.024060 -0.012106 -2698060.000000 1 0 0
20.011065 -3.118892 3.461325 20.546314 -0.154614 1.401525 0.078870 -0.015395 -134782.000000 1 0 0
13.662265 -8.499692 6.727325 17.440159 -0.556532 1.174789 0.030381 -0.011069 -675578.000000 1 0 0
8.291465 -10.972292 8.804325 16.329597 -0.923674 1.001353 0.005162 -0.002637 -1375750.000000 1 0 0
16.748565 0.163908 -0.770875 16.767097 0.009786 1.616788 0.023591 -0.003005 110925.000000 1 0 0
12.586765 -12.221192 2.237325 17.685865 -0.770663 1.443953 0.016646 -0.001429 -1327520.000000 1 0 0
10.440365 -11.565992 3.576225 15.986331 -0.836504 1.345182 0.015045 -0.005473 -1759920.000000 1 0 0
16.239665 3.125308 2.327525 16.700648 0.190125 1.430974 0.016762 -0.004799 422488.000000 1 0 0
18.305765 -3.090292 0.295225 18.567124 -0.167238 1.554895 0.039969 -0.011581 792087.000000 1 0 0
13.577665 -11.789092 -0.213275 17.982802 -0.715006 1.582657 0.037101 -0.001060 -607880.000000 1 0 0
16.903265 -7.561392 -0.844375 18.536666 -0.420634 1.616364 0.038668 -0.007707 -486910.000000 1 0 0
10.297365 -5.682692 9.724725 15.261029 -0.504269 0.879903 0.016831 -0.011190 431998.000000 1 0 0
11.451065 -13.164092 6.030425 18.460397 -0.854878 1.238020 0.023541 -0.007342 -1598800.000000 1 0 0
13.025165 -1.887792 10.082525 16.579385 -0.143932 0.917086 0.026193 -0.011321 1258150.000000 1 0 0
15.572665 -2.013992 -1.507175 15.774525 -0.128615 1.666487 0.018348 -0.003859 286285.000000 1 0 0
10.438165 -12.318992 9.008225 18.489483 -0.867858 1.061906 0.018153 -0.014118 34233.300000 1 0 0
14.630565 1.251308 3.281925 15.046270 0.085319 1.350906 0.020483 -0.007479 979102.000000 1 0 0
15.011165 -5.845592 5.197525 16.926911 -0.371349 1.258697 0.038278 -0.011981 -855418.000000 1 0 0
14.337765 -3.379092 -3.132475 15.059953 -0.231454 1.780326 0.019153 -0.003187 832240.000000 1 0 0
14.081065 0.541908 9.634925 17.070497 0.038466 0.971066 0.037161 -0.007798 280446.000000 1 0 0
15.557265 -3.362792 4.332425 16.495660 -0.212881 1.305039 0.038178 -0.010479 -1245720.000000 1 0 0
18.391865 4.747608 -4.274775 19.469828 0.252622 1.792159 0.017231 -0.004196 445957.000000 1 0 0
18.418165 -5.710692 -5.398775 20.024674 -0.300658 1.843780 0.093206 -0.013772 719130.000000 1 0 0
17.399865 0.080808 5.791625 18.338614 0.004644 1.249480 0.062661 -0.013140 548147.000000 1 0 0
17.138265 -6.481992 3.865925 18.726498 -0.361588 1.362860 0.058573 -0.016774 -4014.280000 1 0 0
9.619965 -6.527292 14.236625 18.380173 -0.596161 0.684770 0.019840 -0.009983 -559995.000000 1 0 0
8.648765 -12.227992 5.228025 15.863706 -0.955193 1.234960 0.011338 -0.007626 -2214600.000000 1 0 0
16.840965 -10.149092 -0.582975 19.671351 -0.542361 1.600436 0.045498 -0.004596 61489.400000 1 0 0
14.948065 -8.724092 0.421125 17.312764 -0.528293 1.546469 0.038124 -0.009808 -679988.000000 1 0 0
10.174965 -12.928192 1.397925 16.511277 -0.904010 1.486030 0.025068 -0.007172 388979.000000 1 0 0
16.907365 -8.371592 8.745625 20.794916 -0.459756 1.136728 0.056013 -0.008035 204852.000000 1 0 0
19.049665 -0.034992 -2.012375 19.155694 -0.001837 1.676044 0.048973 -0.009234 -705460.000000 1 0 0
13.428465 -1.195092 7.672225 15.511769 -0.088763 1.053414 0.018394 -0.010035 -259197.000000 1 0 0
12.805865 -9.798692 -3.136375 16.426850 -0.653141 1.762906 0.027986 -0.005643 -722631.000000 1 0 0
8.972965 -15.219392 1.302625 17.715553 -1.038078 1.497200 0.031277 -0.004164 987429.000000 1 0 0
11.431265 -8.150192 11.087225 17.889271 -0.619380 0.902347 0.031154 -0.017728 -637906.000000 1 0 0
14.006465 -3.989592 -0.608075 14.576271 -0.277491 1.612525 0.016230 -0.005996 -1157870.000000 1 0 0
7.141865 -13.123692 10.751725 18.407529 -1.072420 0.947033 0.011923 0.000768 -567182.000000 1 0 0
15.482665 -6.623192 1.829925 16.938956 -0.404224 1.462554 0.033485 -0.006432 -1102290.000000 1 0 0
16.071565 -6.111092 -2.745775 17.412063 -0.363359 1.729151 0.052515 -0.007686 341748.000000 1 0 0
11.299765 -8.556592 3.800325 14.674551 -0.648116 1.308837 0.017034 -0.006955 1063290.000000 1 0 0
10.838865 -14.431792 -0.482375 18.055202 -0.926629 1.597516 0.042093 -0.005801 752008.000000 1 0 0
13.431165 -12.772792 4.520925 19.078238 -0.760278 1.331553 0.015082 -0.002485 215795.000000 1 0 0
12.833365 -11.005492 6.438625 18.090661 -0.708872 1.206910 0.014814 -0.006935 -383566.000000 1 0 0
10.934165 -10.438092 1.268425 15.169662 -0.762191 1.487083 0.013574 -0.002712 -184433.000000 1 0 0
13.800765 -7.553392 11.920325 19.738516 -0.500781 0.922396 0.047124 -0.023552 240141.000000 1 0 0
15.444665 -1.807592 -4.950375 16.319047 -0.116507 1.879002 0.034328 -0.001085 -81859.400000 1 0 0
13.044565 -11.400692 -7.049375 18.703747 -0.718252 1.957240 0.049818 -0.017277 38124.300000 1 0 0
17.751865 -5.240592 1.748325 18.591642 -0.287060 1.476619 0.057862 -0.009257 452883.000000 1 0 0
10.514265 -9.691492 9.123325 16.962012 -0.744701 1.002890 0.011586 -0.008369 -1709250.000000 1 0 0
16.381965 1.799408 9.890925 19.220746 0.109402 1.030260 0.077389 -0.012875 508323.000000 1 0 0
18.257765 3.710808 0.607825 18.640964 0.200514 1.538184 0.027835 -0.001622 480573.000000 1 0 0
13.411165 -3.944292 5.664025 15.083036 -0.286040 1.185835 0.026122 -0.013475 -774918.000000 1 0 0
12.172665 -6.214392 6.475925 15.123824 -0.472028 1.128303 0.023747 -0.014295 -13494.400000 1 0 0
16.623565 -10.156792 3.686725 19.826631 -0.548459 1.383760 0.026180 -0.001241 -94610.500000 1 0 0
16.361265 -8.101292 -5.552175 19.082677 -0.459761 1.866020 0.065452 -0.014710 738120.000000 1 0 0
14.032665 -0.396992 5.307525 15.008102 -0.028283 1.209332 0.020226 -0.006909 742976.000000 1 0 0
18.344965 -4.253192 5.175625 19.529836 -0.227820 1.302581 0.072097 -0.013668 10121.100000 1 0 0
13.782265 -13.442992 7.016425 20.491342 -0.772937 1.221316 0.029289 -0.005200 -105032.000000 1 0 0
14.962865 -13.815592 -1.074775 20.393947 -0.745554 1.623521 0.038294 0.005432 116136.000000 1 0 0
17.905565 -6.005192 8.102725 20.550566 -0.323593 1.165510 0.075289 -0.010199 -229546.000000 1 0 0
14.285565 3.260108 9.294425 17.352004 0.224368 1.005531 0.040865 -0.011708 65500.000000 1 0 0
18.693765 3.918608 3.122725 19.353650 0.206629 1.408737 0.048918 0.002049 -15447.000000 1 0 0
14.707365 -10.506892 8.223025 19.857480 -0.620323 1.143840 0.017524 -0.010457 -806165.000000 1 0 0
14.848665 -4.861392 10.265825 18.695004 -0.316397 0.989484 0.051143 -0.022271 412015.000000 1 0 0
17.857965 -7.840092 1.782825 19.584495 -0.413690 1.479638 0.070152 -0.007243 125168.000000 1 0 0
18.583565 -5.824892 -2.021975 19.579751 -0.303744 1.674249 0.061886 -0.014889 456267.000000 1 0 0
14.445465 -12.847492 -5.410575 20.074955 -0.726916 1.843689 0.062228 -0.022163 1353320.000000 1 0 0
15.463965 -1.457992 9.173425 18.039171 -0.094005 1.037322 0.064474 -0.019637 -1265170.000000 1 0 0
12.861665 -9.934992 10.021425 19.093336 -0.657715 1.018240 0.019607 -0.026633 -2448920.000000 1 0 0
16.625365 2.238508 4.748125 17.434402 0.133839 1.294970 0.040460 -0.009726 -653607.000000 1 0 0
15.019065 2.381308 -0.056775 15.206781 0.157243 1.574530 0.007434 -0.001609 -1115220.000000 1 0 0
15.114965 -9.823592 -7.031475 19.349594 -0.576322 1.942702 0.061819 -0.020770 93048.200000 1 0 0
16.130865 0.012208 -3.315275 16.468030 0.000757 1.773497 0.023590 -0.001222 27721.200000 1 0 0
11.878465 2.592308 13.684525 18.305306 0.214867 0.726398 0.028610 0.001928 -454156.000000 1 0 0
17.689365 -2.890992 9.358025 20.219894 -0.161999 1.089631 0.066102 -0.025631 926708.000000 1 0 0
7.895265 -18.137292 4.452125 20.276045 -1.160229 1.349417 0.049807 -0.017203 -886496.000000 1 0 0
6.892565 -11.261992 6.671225 14.793416 -1.021585 1.102957 0.006781 -0.005925 -101539.000000 1 0 0
18.089265 2.234508 -1.563075 18.293653 0.122904 1.656344 0.031207 0.000734 495874.000000 1 0 0
17.602865 -2.207292 3.488825 18.080512 -0.124743 1.376618 0.037572 -0.011296 -1180560.000000 1 0 0
12.623265 -13.419092 -2.038375 18.535745 -0.815948 1.680989 0.037538 -0.003739 -1079860.000000 1 0 0
15.193065 -8.161292 4.323425 17.779987 -0.492941 1.325171 0.030806 -0.004253 -272640.000000 1 0 0
11.852865 -3.010392 14.843825 19.232577 -0.248721 0.689119 0.043860 -0.014396 -129931.000000 1 0 0
12.179365 -13.717292 -6.444275 19.442986 -0.844716 1.908631 0.037618 -0.022274 -338857.000000 1 0 0
10.682565 -11.911192 -1.251075 16.048641 -0.839724 1.648831 0.028400 -0.007130 -644189.000000 1 0 0
13.200865 -7.866692 2.115525 15.512032 -0.537416 1.433990 0.026443 -0.004258 -439.586000 1 0 0
8.720565 -7.736892 9.968725 15.338945 -0.725698 0.863348 0.007060 -0.003972 -1595610.000000 1 0 0
15.636265 -3.834092 7.997625 17.976514 -0.240461 1.109742 0.059082 -0.021309 -664718.000000 1 0 0
10.232665 -17.444592 5.290125 20.904704 -1.040302 1.314955 0.037823 -0.013874 -278506.000000 1 0 0
15.282465 -6.396592 8.294425 18.527483 -0.396401 1.106625 0.053844 -0.011328 -142476.000000 1 0 0
16.645265 -4.887092 -0.471275 17.354268 -0.285577 1.597956 0.033857 -0.008266 -1003260.000000 1 0 0
14.082765 -10.424892 3.404225 17.849129 -0.637238 1.378899 0.028272 -0.005775 -300574.000000 1 0 0
15.035865 -10.036792 -4.506475 18.631231 -0.588595 1.815097 0.054747 -0.016810 830478.000000 1 0 0
13.677365 -6.489192 -0.117675 15.139147 -0.442997 1.578569 0.024562 -0.003741 662100.000000 1 0 0
17.890965 -0.853392 -4.865675 18.560434 -0.047663 1.836049 0.057396 -0.010599 -170420.000000 1 0 0
14.304365 0.259208 -1.655775 14.402210 0.018119 1.686018 0.013927 -0.001007 -2636390.000000 1 0 0
4.768965 -12.694192 11.810325 17.982473 -1.211429 0.854271 -0.005055 0.000792 -419203.000000 1 0 0
11.877265 -7.528792 13.571525 19.543245 -0.564961 0.803161 0.030957 -0.016162 -410794.000000 1 0 0
12.007665 -5.678292 11.735225 17.724067 -0.441724 0.847170 0.029092 -0.012694 702065.000000 1 0 0
13.207165 -4.674892 8.261025 16.264328 -0.340204 1.038025 0.032297 -0.014075 -228766.000000 1 0 0
15.322365 -1.092692 3.038025 15.658814 -0.071193 1.375544 0.023390 -0.005924 -433332.000000 1 0 0
15.250465 -10.332492 5.764225 19.301901 -0.595479 1.267534 0.025840 -0.007272 -81553.500000 1 0 0
13.635265 -8.162292 -5.739575 16.896336 -0.539401 1.917387 0.043035 -0.010252 -833603.000000 1 0 0
9.760265 -2.182392 13.681425 16.947183 -0.219981 0.631237 0.024265 -0.005326 -1209490.000000 1 0 0
9.707365 -9.125492 13.436925 18.922434 -0.754511 0.781148 0.024659 -0.015870 -192736.000000 1 0 0
20.346665 6.066208 -3.269275 21.481942 0.289752 1.723577 0.078114 -0.008984 -242590.000000 1 0 0
11.080465 -3.509692 10.435325 15.620201 -0.306748 0.839190 0.019020 -0.007904 346924.000000 1 0 0
10.188565 -14.028992 -2.941275 17.586090 -0.942669 1.738836 0.026191 -0.004762 947665.000000 1 0 0
15.055865 -12.676392 2.506225 19.840644 -0.699806 1.444140 0.026702 0.002914 259899.000000 1 0 0
11.540465 -0.455892 14.349625 18.420150 -0.039483 0.677698 0.050514 -0.005250 220260.000000 1 0 0
19.068565 -1.806992 5.570025 19.947446 -0.094481 1.287799 0.085527 -0.013551 546747.000000 1 0 0
19.081265 -0.442692 7.763625 20.604964 -0.023196 1.184474 0.103246 -0.021060 21134.500000 1 0 0
19.027265 0.756208 0.399025 19.046467 0.039722 1.549845 0.048939 -0.010500 -132797.000000 1 0 0
18.446565 0.800008 3.574425 18.806709 0.043342 1.379572 0.040819 -0.008216 274058.000000 1 0 0
16.772465 -3.965092 -4.268575 17.755514 -0.232143 1.813583 0.047758 -0.009157 1644070.000000 1 0 0
10.706665 -8.381092 15.649825 20.731436 -0.664160 0.715319 0.035652 -0.017394 300990.000000 1 0 0
16.765365 -7.379492 6.311925 19.374591 -0.414643 1.238956 0.056756 -0.010213 660465.000000 1 0 0
19.077365 2.151808 5.789525 20.052300 0.112319 1.277905 0.082313 -0.011702 637122.000000 1 0 0
15.315665 1.530208 7.593125 17.162945 0.099581 1.112508 0.045948 -0.011710 -184519.000000 1 0 0
8.947765 -15.904992 3.707625 18.621970 -1.058349 1.370357 0.029353 -0.012721 822673.000000 1 0 0
11.619565 -15.073692 1.868525 19.123856 -0.914084 1.472934 0.035701 -0.004902 598141.000000 1 0 0
8.017465 -16.086892 6.052525 18.965782 -1.108442 1.245986 0.023011 -0.014401 -88063.500000 1 0 0
14.552865 -11.665092 -2.580375 18.828664 -0.675695 1.708274 0.039081 -0.006177 554567.000000 1 0 0
13.710765 -4.830692 3.153925 14.875077 -0.338748 1.357147 0.020644 -0.005940 -1177380.000000 1 0 0
-1.127035 10.219908 -5.568975 11.693169 -1.460962 2.067191 -0.002403 0.001695 -1513390.000000 1 0 0
8.251865 -1.768392 -8.003975 11.631169 -0.211109 2.329731 0.000037 0.000787 -1983400.000000 1 0 0
3.016565 -10.149092 7.637325 13.054979 -1.281887 0.945901 -0.006419 -0.000947 609716.000000 1 0 0
-6.148035 1.136108 8.286725 10.380698 -0.182731 0.646359 0.003660 -0.005935 75807.200000 1 0 0
7.158565 -6.307992 -7.094575 11.889862 -0.722320 2.210168 -0.002254 -0.002152 -406357.000000 1 0 0
-11.470735 -4.503092 -4.069375 12.977496 0.374087 1.889748 0.004883 -0.002499 302416.000000 1 0 0
2.137365 -3.229892 2.840525 4.803032 -0.986209 0.937999 0.000077 -0.000928 2536250.000000 1 0 0
-3.549735 -4.239592 8.858425 10.442531 0.873732 0.558025 -0.003006 -0.001873 -1579220.000000 1 0 0
-4.879235 -1.030192 -2.521875 5.588209 0.208082 2.039001 0.004894 -0.002815 -557354.000000 1 0 0
5.010065 -5.308092 -3.431775 8.065586 -0.814274 2.010293 0.002786 -0.004703 -27547.400000 1 0 0
2.631065 14.124008 -8.783075 16.839018 1.386624 2.119511 0.015194 -0.012052 728029.000000 1 0 0
5.407765 -5.421092 13.788325 15.771813 -0.786629 0.506931 0.011721 -0.008893 -768379.000000 1 0 0
-4.701835 -0.866092 9.852225 10.950968 0.182161 0.451790 0.006778 -0.002750 -1725960.000000 1 0 0
-1.003735 11.931208 -2.854175 12.308839 -1.486867 1.804806 -0.004535 -0.002687 -130013.000000 1 0 0
3.025465 9.387908 -10.630175 14.501271 1.259033 2.393593 0.016855 -0.004422 -292137.000000 1 0 0
-10.756135 2.571408 1.143425 11.118183 -0.234660 1.467771 0.000454 -0.001203 188883.000000 1 0 0
5.653965 -9.073592 -0.606075 10.708161 -1.013548 1.627426 0.001560 -0.006234 434117.000000 1 0 0
-6.943935 5.340808 9.407225 12.854507 -0.655634 0.749803 0.005829 -0.005116 454524.000000 1 0 0
-5.240235 -1.842492 4.997825 7.472155 0.338104 0.838122 0.007111 -0.007063 853316.000000 1 0 0
6.638165 -3.823792 -7.272275 10.562793 -0.522609 2.330188 -0.000842 -0.000980 452793.000000 1 0 0
6.168665 4.909408 11.084425 13.602177 0.672213 0.618238 -0.003233 0.000591 590861.000000 1 0 0
3.734865 -9.998892 3.146325 11.127732 -1.213317 1.284140 -0.004701 -0.003262 570119.000000 1 0 0
-6.686635 6.574508 -5.810375 11.031577 -0.776943 2.125515 -0.000438 -0.002591 -451886.000000 1 0 0
-11.078135 8.368208 5.290425 14.857341 -0.646936 1.206725 -0.000032 -0.003496 -26566.200000 1 0 0
-9.107035 -5.423692 5.140225 11.780341 0.537141 1.119270 0.008520 -0.001779 -978351.000000 1 0 0
3.108065 9.743808 -8.104475 13.049306 1.262020 2.240898 0.014743 -0.003892 822437.000000 1 0 0
-8.047035 -8.395492 5.993125 13.082683 0.806587 1.094944 0.008230 -0.003759 -1256800.000000 1 0 0
-7.885535 -5.750592 -7.568975 12.350722 0.630094 2.230442 0.011195 -0.002351 241645.000000 1 0 0
9.292165 -1.541192 6.998825 11.734699 -0.164363 0.931761 0.007310 -0.005688 4011800.000000 1 0 0
-4.071735 -0.443592 -4.956175 6.429577 0.108516 2.450955 0.008418 -0.007578 -959550.000000 1 0 0
9.089965 1.117608 -4.544575 10.223976 0.122336 2.031414 0.003543 0.000324 -3030620.000000 1 0 0
-1.920935 -10.642092 10.593725 15.138399 1.392216 0.795691 -0.008635 -0.000645 198473.000000 1 0 0
-12.934935 0.234408 -2.637875 13.203252 -0.018120 1.771940 0.002979 0.001558 -519978.000000 1 0 0
-9.914235 -5.127292 -6.097275 12.718409 0.477285 2.070773 0.011348 -0.003769 -1320950.000000 1 0 0
-5.401335 8.250408 -0.042675 9.861312 -0.991142 1.575124 -0.001402 0.002748 814974.000000 1 0 0
6.262965 9.623708 0.331125 11.486955 0.993869 1.541966 0.013492 -0.003025 729392.000000 1 0 0
-0.469235 -12.157992 0.016525 12.167055 1.532221 1.569438 0.004138 -0.003821 -1124030.000000 1 0 0
6.104065 4.662708 2.275325 8.011090 0.652319 1.282810 -0.000588 0.001629 569057.000000 1 0 0
3.593065 -7.621792 -8.123775 11.704595 -1.130273 2.337920 -0.004091 0.000460 1241280.000000 1 0 0
-6.443035 -9.768292 4.609225 12.576851 0.987711 1.195568 0.004478 0.000603 -2112780.000000 1 0 0
-0.227235 6.606608 -9.234675 11.356854 -1.536415 2.520317 0.007704 -0.003455 -962390.000000 1 0 0
-17.419135 -2.820092 4.454325 18.199456 0.160504 1.323534 0.052287 -0.012567 445092.000000 1 0 0
-8.427035 0.906408 -9.121475 12.451417 -0.107148 2.392879 0.006259 -0.006475 469003.000000 1 0 0
-9.996135 -5.987792 -11.884075 16.643545 0.539692 2.366041 0.013327 0.002691 151845.000000 1 0 0
2.131765 9.476508 6.464725 11.667961 1.349527 0.983566 -0.001477 0.004829 1148980.000000 1 0 0
-11.293435 1.592408 -1.251475 11.473605 -0.140080 1.680088 0.005202 -0.000661 -1598470.000000 1 0 0
-5.939235 -5.287092 -3.217775 8.577990 0.727373 1.955322 0.013945 -0.002915 372642.000000 1 0 0
-6.920235 -8.325592 1.331725 10.907732 0.877318 1.448401 0.007255 -0.002104 12687.500000 1 0 0
-0.046435 10.941108 -7.892375 13.490722 -1.566552 2.195704 0.009034 0.000758 459330.000000 1 0 0
-2.977135 9.253308 -4.259875 10.612897 -1.259518 1.983827 -0.001819 -0.001362 651094.000000 1 0 0
3.331065 -4.684592 9.351825 10.977160 -0.952680 0.551127 -0.003186 -0.000224 -1073540.000000 1 0 0
-8.969635 1.531208 -0.436975 9.109879 -0.169080 1.618782 0.003862 -0.002405 -1213800.000000 1 0 0
2.403765 3.561108 -10.478275 11.324920 0.977043 2.752465 0.010444 -0.003083 -1238880.000000 1 0 0
-13.723935 0.497708 1.130725 13.779428 -0.036250 1.488645 0.006823 -0.000375 -393383.000000 1 0 0
9.483065 -12.677592 -5.179475 16.657635 -0.928565 1.886975 0.024955 -0.010398 -1064220.000000 1 0 0
-4.783335 9.454208 -8.199975 13.397833 -1.102402 2.229431 -0.000901 -0.001255 -2820010.000000 1 0 0
-2.429235 7.255008 8.382525 11.349143 -1.247694 0.739799 0.002598 0.002001 -530482.000000 1 0 0
-10.809035 -1.292092 -4.399975 11.741572 0.118974 1.954907 0.008438 -0.002780 -1223500.000000 1 0 0
2.764165 -7.121092 9.665825 12.319851 -1.200533 0.668789 -0.010598 0.000310 -1390580.000000 1 0 0
-16.162435 -6.478692 3.493725 17.759613 0.381238 1.372782 0.035701 -0.011380 147052.000000 1 0 0
-10.880235 0.085908 6.217425 12.531690 -0.007896 1.051653 0.007731 -0.006299 -1235130.000000 1 0 0
-8.458735 9.685208 9.345225 15.896122 -0.852892 0.942344 0.005222 -0.006435 -70376.200000 1 0 0
0.205365 -6.058692 -3.831175 7.171319 -1.536913 2.134400 0.001196 -0.001091 538969.000000 1 0 0
4.945065 1.456508 -2.913175 5.921290 0.286438 2.085162 -0.000774 0.001617 184187.000000 1 0 0
0.350165 5.345308 3.864925 6.605497 1.505381 0.945784 -0.005200 0.005331 -2949400.000000 1 0 0
6.049965 -11.387992 -1.413175 12.972490 -1.082456 1.679949 0.002076 -0.003281 -1760350.000000 1 0 0
6.342665 -13.535192 5.297225 15.858481 -1.132578 1.230219 0.013261 -0.006797 1126980.000000 1 0 0
8.132265 -8.331592 -6.030375 13.111620 -0.797504 2.048708 0.001356 -0.004197 674030.000000 1 0 0
-13.212235 -1.334892 -4.707275 14.089127 0.100693 1.911454 0.003111 0.003145 -3774790.000000 1 0 0
-6.767835 -1.593292 -7.171675 9.988748 0.231211 2.371686 0.013721 -0.005019 -214251.000000 1 0 0
-5.745535 12.881808 -4.546575 14.819699 -1.151258 1.882618 0.002080 -0.000508 258426.000000 1 0 0
-4.340635 6.898708 -6.698475 10.550016 -1.009186 2.258708 0.001079 -0.001215 -4158050.000000 1 0 0
-9.387435 -3.687392 -8.209175 13.004281 0.374285 2.253982 0.011795 -0.000186 745148.000000 1 0 0
-2.075635 -6.352992 9.177625 11.353307 1.255012 0.629425 -0.006595 -0.000664 -433881.000000 1 0 0
7.536265 -5.818992 9.953625 13.774274 -0.657516 0.763205 0.005884 -0.004971 515800.000000 1 0 0
9.496465 -4.940792 12.098325 16.154373 -0.479737 0.724366 0.014896 -0.009170 -571162.000000 1 0 0
-6.444735 2.758008 -9.015275 11.420000 -0.404365 2.480674 0.001684 -0.005494 -668855.000000 1 0 0
7.310265 5.567808 8.907725 12.797970 0.650911 0.800948 -0.008911 0.002021 691365.000000 1 0 0
12.513765 3.451108 11.185225 17.135161 0.269096 0.859568 0.024464 -0.001827 -448800.000000 1 0 0
-7.479035 -7.249492 -3.893475 11.119813 0.769815 1.928515 0.013007 -0.004851 -1341060.000000 1 0 0
2.365465 1.434108 -5.838275 6.460460 0.545016 2.699114 0.000078 -0.000024 -187411.000000 1 0 0
12.739565 6.792208 -7.205775 16.135483 0.489821 2.033735 0.000304 -0.003254 632937.000000 1 0 0
0.744165 -7.763192 1.044925 7.868469 -1.475230 1.437604 0.001840 -0.001395 873449.000000 1 0 0
-10.423535 -5.978892 -8.553275 14.749770 0.520778 2.189393 0.015249 -0.004004 548725.000000 1 0 0
-6.587035 0.159808 3.101725 7.282531 -0.024256 1.130825 0.004042 -0.007826 317908.000000 1 0 0
10.751065 -7.887592 1.198725 13.387922 -0.632959 1.481138 0.011898 -0.004479 788405.000000 1 0 0
6.214365 1.118808 10.488525 12.242517 0.178128 0.541902 0.000104 -0.003218 -818864.000000 1 0 0
-12.957935 5.301008 1.974325 14.138837 -0.388321 1.430700 0.005383 0.003471 130667.000000 1 0 0
1.968565 7.426308 3.670125 8.514407 1.311676 1.125141 -0.003637 0.005692 406876.000000 1 0 0
10.018565 -9.333492 -0.900975 13.722153 -0.750012 1.636502 0.012128 -0.004610 643381.000000 1 0 0
6.788365 -11.726892 -8.995675 16.264196 -1.046057 2.156873 -0.001835 -0.002389 -643969.000000 1 0 0
10.192065 3.582908 12.070325 16.199018 0.338045 0.730071 0.004615 0.001669 -2327350.000000 1 0 0
-11.115835 -3.192792 -1.785875 11.702352 0.279700 1.724003 0.002543 0.000339 545290.000000 1 0 0
12.468165 1.089508 6.886525 14.285181 0.087162 1.067775 0.011212 -0.004709 78544.200000 1 0 0
-9.477335 9.036708 3.115325 13.460580 -0.761603 1.337238 0.001055 0.000203 1446300.000000 1 0 0
-6.622535 7.695308 -8.781775 13.423684 -0.860184 2.283921 -0.001276 -0.001536 42013.500000 1 0 0
8.448065 5.596308 12.093325 15.777737 0.585068 0.697453 0.001885 0.001054 -3046410.000000 1 0 0
1.394665 4.917608 -2.559475 5.716544 1.294447 2.035023 -0.002163 0.000094 276291.000000 1 0 0
1.281965 0.496308 9.474825 9.574031 0.369377 0.144083 -0.001864 -0.002695 1013930.000000 1 0 0
2.484665 12.591908 -3.915275 13.418610 1.375977 1.866883 0.009604 -0.006050 418537.000000 1 0 0
1.984065 0.600508 13.102625 13.265592 0.293900 0.156908 0.002157 -0.007848 162949.000000 1 0 0
-12.334235 -1.776992 0.950125 12.497751 0.143085 1.494699 0.000040 -0.002170 -275771.000000 1 0 0
3.307265 8.722308 -1.282375 9.416005 1.208372 1.707412 0.006764 0.001583 -86687.500000 1 0 0
3.680965 -2.877092 -5.860075 7.494507 -0.663429 2.468530 -0.001719 -0.001764 -1711430.000000 1 0 0
-7.641035 -7.235792 9.237225 14.002444 0.758165 0.850395 0.007031 -0.005054 -36862.300000 1 0 0
-7.044235 10.889108 -3.471875 13.425641 -0.996599 1.832369 0.003920 -0.000583 237791.000000 1 0 0
0.416965 0.488608 2.434025 2.517355 0.864347 0.258017 -0.003533 -0.000130 -2320080.000000 1 0 0
-7.176535 4.448008 -1.925575 8.659981 -0.554850 1.795024 0.004752 -0.003456 -1400900.000000 1 0 0
-7.047735 -3.927692 -5.896875 9.993521 0.508429 2.201942 0.009492 -0.002847 -128227.000000 1 0 0
2.867665 -6.043892 13.408025 14.984234 -1.127778 0.462793 -0.002445 -0.004621 -1275870.000000 1 0 0
-5.503635 -0.498292 -11.727975 12.964709 0.090292 2.701255 0.012426 -0.006386 -960610.000000 1 0 0
11.974265 2.443208 -0.817275 12.248275 0.201275 1.637572 0.001800 -0.002538 -2265660.000000 1 0 0
6.064165 -10.770892 10.776425 16.398706 -1.058016 0.853764 -0.004131 0.001790 410231.000000 1 0 0
-8.155435 6.352108 -10.403875 14.666322 -0.661730 2.359403 -0.003482 -0.000517 373250.000000 1 0 0
2.806765 7.815908 11.046325 13.819828 1.226029 0.644650 0.000621 -0.001308 842914.000000 1 0 0
-6.131535 -10.120792 -0.433375 11.841197 1.026097 1.607403 0.007007 -0.000182 -1125840.000000 1 0 0
11.206265 4.348208 6.112625 13.485232 0.370133 1.100351 0.002116 -0.002039 717730.000000 1 0 0
-8.077435 10.705408 1.423425 13.486173 -0.924409 1.465052 -0.004629 0.004415 512538.000000 1 0 0
4.190865 -2.840692 -3.523275 6.168172 -0.595691 2.178766 -0.000499 -0.002524 -4629240.000000 1 0 0
6.389765 6.433008 6.281125 11.030196 0.788770 0.964962 -0.001184 0.004226 -5875060.000000 1 0 0
-0.549135 10.324508 -10.267875 14.571420 -1.517659 2.352738 0.007020 -0.001767 -543899.000000 1 0 0
14.125965 6.552708 -2.448975 15.763196 0.434334 1.726788 0.014031 0.002593 681034.000000 1 0 0
1.372265 9.477308 -6.267275 11.444702 1.427001 2.150306 0.008099 -0.001661 -1337690.000000 1 0 0
0.533865 7.424408 7.338425 10.452719 1.499013 0.792512 -0.007498 0.007282 141056.000000 1 0 0
12.178265 6.445308 1.946725 13.915527 0.486770 1.430440 0.005180 -0.000476 -1435700.000000 1 0 0
-6.827035 6.601108 -3.155475 10.007000 -0.768575 1.891597 0.000051 -0.002638 384793.000000 1 0 0
0.948965 9.713308 11.256125 14.897961 1.473408 0.714306 -0.001234 -0.003878 -181267.000000 1 0 0
-3.552235 13.559708 -10.931475 17.775860 -1.314584 2.233134 0.004241 -0.001603 -197924.000000 1 0 0
-10.073335 -5.600092 -2.320075 11.756523 0.507386 1.769444 0.005562 -0.001947 44707.100000 1 0 0
-4.030535 3.873108 -12.568375 13.755370 -0.765483 2.723110 0.004803 -0.005889 -852284.000000 1 0 0
-3.197635 8.500108 2.365225 9.384615 -1.210985 1.316017 -0.002120 0.003406 -1599070.000000 1 0 0
7.040965 8.924708 7.108825 13.407498 0.902842 1.011945 0.003236 0.002149 -686919.000000 1 0 0
-1.379535 -2.206892 -8.171475 8.575925 1.012123 2.833253 0.006190 -0.006354 -2163180.000000 1 0 0
0.849965 -1.256492 4.771725 5.007053 -0.976045 0.307805 -0.001380 -0.002479 -395483.000000 1 0 0
2.820265 -8.927692 -5.987875 11.113605 -1.264816 2.139794 -0.006176 -0.000173 277077.000000 1 0 0
5.210465 4.013308 8.887025 11.055985 0.656329 0.637107 -0.003471 0.002931 -1024720.000000 1 0 0
6.186565 -7.565492 -2.752875 10.153254 -0.885335 1.845365 0.001452 -0.005503 978059.000000 1 0 0
1.773265 2.335608 -8.329775 8.830894 0.921414 2.803093 0.005080 -0.003920 -17558.800000 1 0 0
-5.421935 10.846608 -0.530475 12.137862 -1.107250 1.614514 -0.006218 0.003438 398263.000000 1 0 0
-5.377235 3.416308 -3.408475 7.225200 -0.565992 2.062069 0.003009 -0.002824 75511.600000 1 0 0
1.947665 13.622608 -6.389675 15.172238 1.428786 2.005501 0.003152 -0.001422 589389.000000 1 0 0
-5.327135 -2.520392 2.521725 6.410135 0.441916 1.166473 -0.001605 -0.004475 553115.000000 1 0 0
10.395765 -3.425092 -1.882975 11.106250 -0.318269 1.741161 0.007069 -0.002870 95975.400000 1 0 0
2.348665 -3.267192 7.046025 8.114015 -0.947522 0.518876 -0.005868 -0.001359 -2565160.000000 1 0 0
-3.001435 9.901708 -11.665975 15.593184 -1.276477 2.416059 0.002921 0.001898 -2349870.000000 1 0 0
0.525565 -2.113292 9.253125 9.505922 -1.327046 0.231138 -0.004617 -0.002092 503504.000000 1 0 0
9.467165 2.696508 5.002625 11.041949 0.277480 1.100606 -0.001254 0.000369 639109.000000 1 0 0
13.492165 2.030308 -4.998075 14.530706 0.149360 1.921934 0.015903 -0.000703 -2204500.000000 1 0 0
-6.605435 3.619308 7.509325 10.635842 -0.501252 0.786906 0.005985 -0.005460 178361.000000 1 0 0
10.629665 0.143708 1.823025 10.785818 0.013519 1.400960 0.002609 -0.001702 2162350.000000 1 0 0
15.402565 6.650908 -4.678675 17.417336 0.407621 1.842758 0.027085 -0.003869 -239348.000000 1 0 0
8.080065 -4.910292 -9.137875 13.149113 -0.546065 2.339136 0.003129 0.000654 817600.000000 1 0 0
4.457565 5.665908 -2.129475 7.517118 0.904197 1.858012 0.002379 0.001102 153889.000000 1 0 0
-1.625535 -10.615992 1.460625 10.838592 1.418855 1.435624 0.002543 -0.002511 -899110.000000 1 0 0
-2.935035 12.220408 -12.969075 18.059615 -1.335086 2.371902 0.007277 0.001560 -309177.000000 1 0 0
8.424865 4.324808 -9.560575 13.456854 0.474261 2.360950 0.006267 -0.002036 -1141540.000000 1 0 0
4.104965 7.647808 -9.018475 12.516892 1.078182 2.375326 0.015432 -0.004311 -1073400.000000 1 0 0
-1.770735 -5.011992 -2.467275 5.860291 1.231185 2.005361 0.006381 -0.002495 307202.000000 1 0 0
-3.166535 -8.973492 7.027525 11.829480 1.231561 0.934689 0.000433 0.002041 -1498250.000000 1 0 0
1.068865 7.315908 -1.414375 7.527645 1.425721 1.759810 -0.001308 0.001043 609014.000000 1 0 0
0.281165 -0.903592 -2.283975 2.472261 -1.269129 2.748792 0.005078 0.000648 -1201220.000000 1 0 0
4.091465 -6.581392 7.490925 10.778162 -1.014594 0.802363 -0.002786 0.000439 -1842320.000000 1 0 0
-13.975535 3.818008 6.026625 15.691175 -0.266685 1.176588 0.005394 -0.001540 -1121440.000000 1 0 0
4.293865 6.592908 12.538225 14.802392 0.993518 0.560404 0.002613 -0.006991 -2402610.000000 1 0 0
8.408965 10.194908 -7.304375 15.099693 0.881103 2.075723 0.023947 -0.008053 74005.100000 1 0 0
12.370865 5.272608 9.319525 16.361304 0.402897 0.964768 0.030929 -0.004584 -132651.000000 1 0 0
7.521365 4.107908 0.333225 8.576531 0.499894 1.531933 0.002397 0.001767 -1215610.000000 1 0 0
-10.827735 -7.594292 -0.983775 13.262010 0.611648 1.645044 0.005648 -0.001527 -1620520.000000 1 0 0
10.510065 6.813808 0.153825 12.526497 0.575188 1.558516 0.003249 0.000083 -1332730.000000 1 0 0
14.541565 3.526708 4.284225 15.564363 0.237932 1.291938 0.024268 -0.006516 285804.000000 1 0 0
2.167465 5.699208 8.231125 10.243550 1.207379 0.637574 -0.007269 0.004518 40379.800000 1 0 0
4.181265 0.244008 11.832825 12.552222 0.058291 0.340201 -0.002381 -0.004891 -1397060.000000 1 0 0
-1.593235 -1.434192 -0.422675 2.184938 0.732912 1.765473 0.006368 -0.005160 -1223110.000000 1 0 0
3.091165 -5.406392 -9.453175 11.320198 -1.051399 2.559059 -0.003530 0.000981 209493.000000 1 0 0
-4.036435 -5.321492 -1.369775 6.818164 0.921867 1.773074 0.004061 -0.004434 -673933.000000 1 0 0
-1.158235 -8.611392 8.552025 12.191584 1.437098 0.793339 -0.007614 0.000761 -695850.000000 1 0 0
3.900265 8.594508 -5.970475 11.167999 1.144779 2.134837 0.011803 -0.000038 561134.000000 1 0 0
-14.353635 -1.810992 -2.705175 14.718169 0.125506 1.755646 0.001169 0.002526 -891208.000000 1 0 0
8.839965 -10.587092 -6.724575 15.344426 -0.875090 2.024438 0.001212 -0.006234 462681.000000 1 0 0
14.753465 6.121908 1.587025 16.051827 0.393325 1.471766 0.005511 0.000954 -82362.800000 1 0 0
-5.826335 0.365108 -8.484275 10.298660 -0.062583 2.538919 0.010039 -0.008698 461514.000000 1 0 0
-8.078735 -4.506292 -13.062975 16.006684 0.508809 2.525418 0.013500 -0.000394 564841.000000 1 0 0
0.845465 -10.551592 12.008925 16.008285 -1.490840 0.722478 -0.004015 0.002367 -635863.000000 1 0 0
0.108865 11.696408 3.235625 12.136189 1.561489 1.300923 0.000572 0.001178 386054.000000 1 0 0
5.115265 -13.164992 -3.742675 14.611316 -1.200199 1.829833 0.002085 -0.002021 585949.000000 1 0 0
-7.523135 1.591308 -6.973775 10.380913 -0.208449 2.307417 0.003548 -0.005196 695837.000000 1 0 0
1.481965 2.748508 4.067125 5.127575 1.076291 0.654772 -0.003212 0.001911 -780369.000000 1 0 0
17.209165 5.573108 1.937525 18.192551 0.313187 1.464093 0.018227 0.001084 -522626.000000 1 0 0
2.481065 -8.169792 -3.507875 9.230729 -1.275960 1.960616 -0.004278 -0.000642 226626.000000 1 0 0
-0.391435 -9.472492 -0.670275 9.504241 1.529497 1.641379 0.003773 -0.001406 -1047210.000000 1 0 0
0.700465 11.804908 -5.586975 13.079021 1.511529 2.012158 0.004123 0.000001 59384.900000 1 0 0
5.990165 -4.952092 7.874125 11.063776 -0.690813 0.778876 0.000103 -0.000805 -1182090.000000 1 0 0
-5.996635 -1.969092 -9.523275 11.424960 0.317273 2.556299 0.013872 -0.006784 -405421.000000 1 0 0
2.139365 -1.212292 11.237025 11.502925 -0.515544 0.215432 -0.003998 -0.004370 234372.000000 1 0 0
18.018465 2.150608 -5.978375 19.105789 0.118794 1.889051 0.038281 -0.004013 -1142200.000000 1 0 0
-8.922735 4.793708 7.800125 12.784240 -0.492999 0.914564 0.007642 -0.008909 -1058400.000000 1 0 0
11.395265 -7.218392 -4.884275 14.346198 -0.564656 1.918200 0.019782 -0.006222 85980.100000 1 0 0
10.825465 0.510408 8.981925 14.075731 0.047114 0.878750 0.003572 -0.004511 -88744.800000 1 0 0
-8.409335 -7.307892 -1.614675 11.257414 0.715434 1.714725 0.011330 -0.003127 -1605220.000000 1 0 0
10.265965 -10.482692 -3.312875 15.041676 -0.795843 1.792863 0.022564 -0.007428 388303.000000 1 0 0
7.620765 -13.965092 -3.886575 16.376975 -1.071260 1.810402 0.016897 -0.005192 792916.000000 1 0 0
1.822265 -1.219892 -11.567275 11.773302 -0.589918 2.954239 0.003959 -0.006377 146222.000000 1 0 0
-11.868135 -2.648492 -6.430575 13.755705 0.219562 2.057239 0.008256 -0.001539 -44854.000000 1 0 0
2.691665 -12.351292 -6.435375 14.184975 -1.356225 2.041682 -0.005061 0.003159 -120328.000000 1 0 0
-5.515935 1.439908 1.117525 5.809280 -0.255347 1.377221 0.004067 -0.005728 90976.600000 1 0 0
0.176065 6.815708 -4.009575 7.909587 1.544970 2.102411 0.002116 -0.001185 1082360.000000 1 0 0
5.541265 -11.826892 3.639625 13.558313 -1.132639 1.299021 0.000472 -0.005428 -1655320.000000 1 0 0
-4.314935 -9.248692 1.045325 10.259126 1.134269 1.468727 0.005548 -0.000644 -601430.000000 1 0 0
7.104265 -6.263392 -4.672475 10.560903 -0.722577 2.029104 0.000776 -0.003024 842752.000000 1 0 0
-7.063135 -5.962692 2.083925 9.475458 0.701117 1.349055 0.005942 -0.002108 -3550.450000 1 0 0
-6.345735 -0.888992 6.888025 9.407632 0.139187 0.749288 0.004574 -0.005820 -1632420.000000 1 0 0
4.120965 -5.039492 3.275325 7.287427 -0.885335 1.104648 -0.000169 -0.000720 -805763.000000 1 0 0
-2.554135 10.506108 -8.789575 13.934078 -1.332313 2.253376 -0.001543 -0.000089 -624452.000000 1 0 0
-2.238035 -4.940392 2.725825 6.070123 1.145444 1.105088 -0.001314 0.000533 1106080.000000 1 0 0
15.066165 4.916608 6.326325 17.064137 0.315438 1.190993 0.044272 -0.012397 972235.000000 1 0 0
6.776565 0.255108 0.030925 6.781436 0.037628 1.566236 0.001777 0.000334 3634970.000000 1 0 0
-9.728735 9.251908 0.421925 13.432204 -0.760282 1.539380 -0.005138 0.001838 -1641260.000000 1 0 0
7.158965 10.467808 -2.637575 12.953092 0.970956 1.775856 0.010379 -0.001943 -155224.000000 1 0 0
1.609965 -4.296592 -5.516075 7.174940 -1.212282 2.447755 0.000670 -0.001847 -544520.000000 1 0 0
0.953165 -8.172392 -7.765375 11.313600 -1.454689 2.327289 -0.004380 0.002714 1861460.000000 1 0 0
-10.419835 0.152408 -10.336475 14.677837 -0.014626 2.352125 0.005762 -0.007967 -4345830.000000 1 0 0
6.065165 -2.551292 0.503425 6.599148 -0.398178 1.494436 0.004831 -0.000419 -254984.000000 1 0 0
-3.326735 5.382008 -1.069275 6.416894 -1.017159 1.738212 0.001988 -0.002887 1273890.000000 1 0 0
-0.336935 4.526308 -5.124975 6.845901 -1.496494 2.416774 0.002991 -0.002696 -1042310.000000 1 0 0
3.961865 -9.628392 9.977725 14.420725 -1.180435 0.806677 -0.008130 0.003071 -2892680.000000 1 0 0
7.354165 -13.520492 -0.619075 15.403594 -1.072627 1.610997 0.018731 -0.002347 837412.000000 1 0 0
13.062965 -0.056392 0.519425 13.073410 -0.004317 1.531054 0.007804 -0.007440 333404.000000 1 0 0
9.327665 2.531808 -0.550275 9.680816 0.265044 1.627669 0.003031 -0.000986 -433696.000000 1 0 0
-0.694435 -5.755692 4.556825 7.373933 1.450725 0.904646 -0.004603 0.002440 513662.000000 1 0 0
11.426465 -3.689392 3.334125 12.461626 -0.312314 1.299945 0.014369 -0.006452 -1035680.000000 1 0 0
1.666865 -8.121392 11.730725 14.364726 -1.368364 0.615241 -0.010772 0.001144 211961.000000 1 0 0
9.423665 -6.002192 -5.931475 12.649671 -0.567130 2.058845 0.005613 -0.004773 -833069.000000 1 0 0
3.163965 6.362108 -0.209675 7.108520 1.109300 1.600297 -0.000885 0.003616 -1355130.000000 1 0 0
6.367365 -1.235092 11.348225 13.070999 -0.191593 0.519236 0.002103 -0.005629 526261.000000 1 0 0
-4.941735 -7.665492 -3.828175 9.891179 0.998175 1.968204 0.009088 -0.003912 -603382.000000 1 0 0
-3.347335 -8.405292 -5.672575 10.678562 1.191807 2.130826 0.009051 0.000990 -558898.000000 1 0 0
9.764665 5.341508 2.064625 11.320030 0.500556 1.387383 0.003003 -0.002430 -401562.000000 1 0 0
8.881165 -1.394792 0.193325 8.992103 -0.155778 1.549295 0.005554 -0.001770 1093140.000000 1 0 0
-3.907735 9.656508 9.262425 13.939550 -1.186267 0.844011 0.002466 -0.000945 -14432.300000 1 0 0
-14.387535 -3.582292 -5.946775 15.974921 0.244024 1.952236 0.007887 -0.000912 1214230.000000 1 0 0
10.576165 6.274508 -5.929075 13.652057 0.535455 2.020056 0.000939 -0.002468 -739481.000000 1 0 0
-1.680435 4.405408 2.774725 5.470885 -1.206385 1.038886 -0.006151 -0.000623 471354.000000 1 0 0
6.849965 -3.711692 2.676025 8.237706 -0.496569 1.239942 0.005727 -0.003706 -2407680.000000 1 0 0
8.348965 -11.128192 -1.569675 14.000205 -0.927133 1.683151 0.015339 -0.005429 -1746120.000000 1 0 0
4.554565 0.405408 1.802825 4.915140 0.088777 1.195240 -0.000852 0.001374 -303971.000000 1 0 0
-10.813035 2.236708 3.857125 11.696239 -0.203976 1.234731 0.004544 -0.006530 333966.000000 1 0 0
-0.815835 -3.074192 4.363125 5.399361 1.311394 0.629908 -0.001838 -0.002191 508846.000000 1 0 0
8.482465 -8.756592 -8.654675 14.951037 -0.801298 2.188136 0.008316 -0.001921 -330356.000000 1 0 0
12.079665 -4.658992 0.909425 12.978890 -0.368109 1.500669 0.013573 -0.004399 -240113.000000 1 0 0
2.904465 4.848408 3.528725 6.662949 1.031072 1.012662 -0.005620 0.003737 -951774.000000 1 0 0
6.010165 7.522708 1.954425 9.825121 0.896704 1.370539 0.003698 0.001776 241320.000000 1 0 0
-1.597535 -1.313292 -10.375875 10.579963 0.688057 2.944857 0.011411 -0.006944 932439.000000 1 0 0
-0.937735 -8.715492 5.900925 10.566933 1.463615 0.978301 -0.008273 0.000273 -526906.000000 1 0 0
-4.102535 -0.240392 2.265925 4.692867 0.058529 1.066896 0.001567 -0.004882 401422.000000 1 0 0
-8.396035 6.189008 -7.910675 13.091065 -0.635216 2.219659 -0.004785 -0.002512 -1430940.000000 1 0 0
6.585965 11.250208 -9.430675 16.089741 1.041175 2.197070 0.031189 -0.008554 24313.400000 1 0 0
-11.067635 -5.752292 3.064825 12.844242 0.479315 1.329857 0.008410 -0.002070 394311.000000 1 0 0
1.500565 -6.218092 2.996225 7.063549 -1.334001 1.132739 -0.002802 -0.000643 477815.000000 1 0 0
10.113665 2.242408 7.227525 12.631379 0.218191 0.961625 -0.000436 -0.000874 -1811480.000000 1 0 0
-4.026635 -2.357592 -10.723075 11.694287 0.529689 2.731164 0.011871 -0.008039 -2620180.000000 1 0 0
-8.419835 11.823508 5.951425 15.687843 -0.951978 1.181686 0.000188 -0.004659 117940.000000 1 0 0
6.856965 6.036908 -2.925675 9.592800 0.721883 1.880721 0.006407 0.001605 -3664960.000000 1 0 0
3.923665 -9.892892 -2.350875 10.899132 -1.193212 1.788199 -0.004555 -0.003814 -513216.000000 1 0 0
8.443465 -12.954492 -7.434775 17.157705 -0.993172 2.018970 0.008645 -0.007238 -97111.700000 1 0 0
-1.267135 9.474108 3.718325 10.256232 -1.437838 1.199801 -0.003443 0.003677 10204.300000 1 0 0
0.651465 -13.218492 4.675825 14.036249 -1.521552 1.231180 0.002592 -0.003228 -1478900.000000 1 0 0
-11.213335 -7.026792 -5.144675 14.197970 0.559782 1.941587 0.008747 -0.007288 256538.000000 1 0 0
3.538665 10.280508 -3.401275 11.392088 1.239288 1.873985 0.009004 -0.002597 -713851.000000 1 0 0
11.615065 -8.140292 -7.433575 16.013498 -0.611289 2.053535 0.033493 -0.007519 220672.000000 1 0 0
11.780665 -4.926792 -5.927275 14.077995 -0.396105 2.005378 0.015664 -0.001754 545163.000000 1 0 0
1.298565 -10.343792 -2.746275 10.780646 -1.445909 1.828376 -0.004432 -0.000034 -1257700.000000 1 0 0
2.420365 -12.060292 -3.886175 12.900045 -1.372739 1.876803 -0.002520 0.001289 -1507550.000000 1 0 0
-7.589535 -5.593892 7.264225 11.902169 0.635164 0.914322 0.007603 -0.001024 -3021560.000000 1 0 0
-7.246335 -0.926092 9.441125 11.937414 0.127112 0.658542 0.008388 -0.006272 557161.000000 1 0 0
16.210465 2.594508 -7.566775 18.076691 0.158705 2.002692 0.030683 -0.005779 -1147610.000000 1 0 0
-2.054835 6.257608 -5.502575 8.582443 -1.253516 2.266783 0.000551 0.000600 -100906.000000 1 0 0
7.700065 1.248108 8.390725 11.456573 0.160693 0.748965 -0.000755 -0.001513 -853213.000000 1 0 0
7.819765 8.238408 -3.790475 11.974464 0.811463 1.892883 0.008121 0.001234 -428904.000000 1 0 0
8.106365 0.522408 3.924625 9.021572 0.064355 1.120728 0.002169 -0.000013 503579.000000 1 0 0
-6.969835 5.772408 5.407425 10.542274 -0.691700 1.032204 0.007803 -0.006973 -95167.800000 1 0 0
-5.981935 -2.086992 -4.646775 7.856945 0.335679 2.203618 0.012101 -0.005396 -1314900.000000 1 0 0
-15.209335 -2.323692 3.257625 15.726904 0.151608 1.362149 0.020090 -0.005362 -2068260.000000 1 0 0
1.076065 1.191108 -10.483875 10.606049 0.836098 2.989662 0.007560 -0.008162 609384.000000 1 0 0
1.485465 -9.237292 9.413025 13.271745 -1.411350 0.782358 -0.009052 0.000329 -1417210.000000 1 0 0
-0.210235 -6.829092 -1.207375 6.938188 1.540021 1.745706 0.002603 -0.001111 637584.000000 1 0 0
-0.349435 -10.305092 -8.405775 13.303160 1.536900 2.254751 0.000654 0.001484 -733582.000000 1 0 0
-4.375735 6.507708 3.819325 8.722647 -0.978840 1.117576 -0.000258 0.001216 -34895.000000 1 0 0
10.749265 -1.121392 -8.600375 13.811976 -0.103947 2.242953 0.017707 -0.001003 -319169.000000 1 0 0
3.047365 -1.001192 6.286425 7.057476 -0.317433 0.471810 -0.004700 -0.000134 467659.000000 1 0 0
2.079465 -12.342992 6.720625 14.207056 -1.403890 1.078049 -0.001486 -0.002183 389965.000000 1 0 0
2.827965 -5.049592 -1.445975 5.965451 -1.060279 1.815626 0.005425 -0.001843 -1208320.000000 1 0 0
-1.115235 9.538208 -1.731075 9.757960 -1.454402 1.749142 -0.000896 -0.001739 -72979.700000 1 0 0
4.517765 -2.606192 2.442525 5.759199 -0.523243 1.132819 0.002508 -0.001391 -2664430.000000 1 0 0
17.773665 6.694808 -2.751075 19.190937 0.360234 1.714645 0.024650 0.003746 808531.000000 1 0 0
-7.110235 3.524708 -5.444075 9.623770 -0.460220 2.172067 0.001494 -0.005013 61466.400000 1 0 0
-13.759935 -6.000792 2.470425 15.213425 0.411240 1.407690 0.001729 -0.004031 31629.000000 1 0 0
6.599865 -6.136192 3.319725 9.603731 -0.749008 1.217843 0.003159 -0.004844 1471880.000000 1 0 0
-4.664535 1.982108 3.500525 6.159571 -0.401813 0.966350 0.003639 -0.005495 358416.000000 1 0 0
6.906365 -12.063192 -5.554675 14.969064 -1.050831 1.950965 0.008349 -0.004336 -274099.000000 1 0 0
3.001365 -12.469792 3.380425 13.263905 -1.334598 1.313094 0.001597 -0.006337 -1152510.000000 1 0 0
3.256065 11.233308 -6.057875 13.171447 1.288670 2.048707 0.011294 -0.002044 -39417.900000 1 0 0
-5.509335 -8.229992 6.469625 11.829691 0.980889 0.992143 0.004368 0.001174 407293.000000 1 0 0
-4.029135 6.532408 6.341025 9.955646 -1.018121 0.880290 0.002848 -0.000144 185494.000000 1 0 0
4.226365 4.313808 -7.089275 9.312836 0.795637 2.436015 0.007606 0.001517 -2443350.000000 1 0 0
-0.337435 -2.633892 1.609725 3.105232 1.443378 1.025828 0.000603 -0.002156 490062.000000 1 0 0
-13.272535 -1.061792 6.643325 14.880233 0.079829 1.107999 0.018485 -0.005312 369249.000000 1 0 0
-0.581035 -9.318492 -5.937675 11.064713 1.508524 2.137236 -0.000149 0.002057 252010.000000 1 0 0
2.046465 -1.684492 -3.974975 4.777652 -0.688682 2.553487 0.002044 -0.001625 -1525330.000000 1 0 0
11.315265 -1.846492 1.110025 11.518547 -0.161760 1.474278 0.009278 -0.005272 920612.000000 1 0 0
0.458865 -4.312992 -1.902875 4.736390 -1.464804 1.984230 0.002585 -0.002254 -2635610.000000 1 0 0
1.127665 -7.413292 -11.272675 13.538896 -1.419840 2.554607 -0.000382 0.002911 163962.000000 1 0 0
-4.495335 4.019308 -10.013875 11.689335 -0.729550 2.599571 0.001250 -0.004202 -196268.000000 1 0 0
-0.970835 5.781808 -2.068875 6.217079 -1.404436 1.910039 0.000290 -0.000834 -1976690.000000 1 0 0
-11.387235 1.725908 -3.918575 12.165652 -0.150420 1.898745 0.003128 -0.000120 -226127.000000 1 0 0
-1.765435 -11.281192 4.134625 12.144018 1.415562 1.223384 0.003714 -0.001839 -552242.000000 1 0 0
-3.538935 -5.444392 -9.676975 11.653725 0.994411 2.550579 0.008346 0.001153 -723518.000000 1 0 0
-12.990835 -3.796592 -8.334975 15.894895 0.284333 2.122784 0.012526 -0.001411 -170569.000000 1 0 0
11.520965 4.440008 0.468625 12.355805 0.367844 1.532860 0.007942 0.000444 21681.700000 1 0 0
-8.852035 -2.292392 -2.958175 9.610639 0.253401 1.883678 0.008846 -0.003852 624759.000000 1 0 0
-2.377335 -6.100092 -6.408975 9.161757 1.199182 2.345544 0.003053 -0.001746 -218739.000000 1 0 0
-0.002635 2.651108 -1.838075 3.225973 -1.569803 2.177027 0.000320 -0.002156 -1248400.000000 1 0 0
8.053665 6.076108 -5.252175 11.373916 0.646345 2.050790 0.007441 0.000680 -1997300.000000 1 0 0
-9.723835 -0.961492 -0.877375 9.810566 0.098560 1.660348 0.005298 -0.002945 -801842.000000 1 0 0
6.143365 0.501308 -8.890675 10.818334 0.081421 2.535387 0.001061 0.000394 380225.000000 1 0 0
-4.129835 2.599008 7.807525 9.206945 -0.561703 0.558589 0.000321 -0.003177 -1247980.000000 1 0 0
-10.249435 -3.315592 1.435025 10.867537 0.312866 1.438363 0.004284 -0.002208 2588890.000000 1 0 0
-1.827535 -8.200892 -7.776375 11.448428 1.351533 2.317540 0.003984 -0.000486 1265970.000000 1 0 0
-9.385735 -9.697192 4.244425 14.147180 0.801718 1.266084 0.007156 -0.001317 77583.900000 1 0 0
-1.139535 -10.710692 7.423125 13.081294 1.464803 0.967377 -0.003519 -0.000716 419667.000000 1 0 0
9.452865 3.772308 -3.761875 10.850745 0.379700 1.924839 0.003881 -0.000024 -753915.000000 1 0 0
12.833565 -0.801592 3.090025 13.224644 -0.062380 1.334960 0.012116 -0.005587 -391738.000000 1 0 0
6.658965 12.086608 -6.852975 15.407504 1.067234 2.031727 0.013283 -0.001834 301062.000000 1 0 0
-11.831835 -0.092492 -6.453575 13.477741 0.007817 2.070120 0.007619 -0.000157 646750.000000 1 0 0
-7.580835 -6.627292 -11.435675 15.236952 0.718386 2.419649 0.016344 -0.001174 -1660710.000000 1 0 0
4.128065 6.085608 6.603225 9.883225 0.974761 0.839111 -0.005495 0.004863 -2560910.000000 1 0 0
-4.214435 -1.287792 -7.504575 8.702787 0.296556 2.610627 0.009999 -0.009458 -1041550.000000 1 0 0
9.662865 9.282008 0.868025 13.426843 0.765297 1.506103 0.013650 -0.001556 -1282300.000000 1 0 0
-8.942735 3.836108 4.969125 10.926135 -0.405223 1.098657 0.008155 -0.009848 145517.000000 1 0 0
-7.111835 7.871008 -12.045575 16.050758 -0.836024 2.419566 0.002286 -0.002543 -2084600.000000 1 0 0
11.184465 -3.706092 7.040925 13.725961 -0.319974 1.032162 0.016135 -0.005447 333069.000000 1 0 0
11.729265 6.991308 6.294325 15.035711 0.537515 1.138866 0.011800 -0.004030 167173.000000 1 0 0
-10.073235 -0.536092 -14.675675 17.808225 0.053169 2.539400 0.018878 -0.009608 -97654.900000 1 0 0
1.749965 -13.053292 12.112625 17.893197 -1.437528 0.827199 0.008420 0.000892 -135609.000000 1 0 0
2.912865 2.915308 13.065125 13.699683 0.785817 0.305553 -0.005356 -0.006303 -87554.500000 1 0 0
-2.577635 -1.465892 10.976825 11.370301 0.517084 0.263845 0.001811 -0.004285 -338526.000000 1 0 0
2.526465 -10.162992 -8.158575 13.275231 -1.327141 2.232639 -0.008858 0.006027 -1434060.000000 1 0 0
13.914165 3.616808 -7.470075 16.201460 0.254309 2.050002 0.014826 -0.004811 -3170370.000000 1 0 0
7.298565 -1.567992 5.012325 8.991722 -0.211619 0.979500 0.001971 -0.001104 688887.000000 1 0 0
-1.291035 8.750208 10.128125 13.446629 -1.424310 0.717869 0.000700 0.000603 -367189.000000 1 0 0
-12.327435 -4.672792 0.954725 13.217871 0.362322 1.498503 0.003149 -0.001491 149514.000000 1 0 0
-4.928235 4.912208 -5.302375 8.748283 -0.783770 2.221950 0.000927 -0.003373 -500254.000000 1 0 0
-11.210635 0.250908 2.183725 11.424095 -0.022378 1.378462 -0.000609 -0.000532 -658089.000000 1 0 0
-1.384735 2.230308 -4.056075 4.831512 -1.015171 2.567166 0.003947 -0.004891 873171.000000 1 0 0
3.105765 -9.818792 13.174925 16.722234 -1.264446 0.663456 -0.008389 0.003780 -1909370.000000 1 0 0
8.932965 4.670908 -1.504675 10.192120 0.481787 1.718969 0.002716 -0.000340 -644783.000000 1 0 0
4.079065 2.271608 3.702425 5.958769 0.508121 0.900344 -0.006794 0.003129 -105823.000000 1 0 0
-5.461535 -3.264092 7.385225 9.748036 0.538691 0.711150 0.004095 -0.004213 166015.000000 1 0 0
1.760365 -5.725392 7.731025 9.779967 -1.272504 0.659178 -0.010123 0.000306 -1686810.000000 1 0 0
-5.891335 -6.322192 -9.684675 12.979632 0.820661 2.413048 0.011396 -0.000307 -539635.000000 1 0 0
-11.653335 -5.693092 5.487725 14.082849 0.454436 1.170518 0.016345 -0.005776 -1185980.000000 1 0 0
10.538165 6.149608 4.385025 12.965302 0.528240 1.225780 0.000782 0.000335 -906244.000000 1 0 0
1.424265 -3.767392 0.383525 4.045845 -1.209354 1.475859 0.006891 -0.001141 -776612.000000 1 0 0
8.688265 4.422708 6.878625 11.931546 0.470857 0.956348 -0.003344 0.003072 -238016.000000 1 0 0
-8.060835 12.100208 3.495925 14.953715 -0.983135 1.334830 -0.003338 -0.002185 -84223.900000 1 0 0
-6.182135 13.318308 -6.999175 16.266056 -1.136210 2.015614 0.009344 -0.002783 307040.000000 1 0 0
4.496165 -6.989092 -0.829375 8.351693 -0.999137 1.670266 0.001274 -0.003349 -1181590.000000 1 0 0
-1.870535 -8.162992 11.045025 13.860949 1.345537 0.648742 -0.007110 -0.001302 -664964.000000 1 0 0
11.572365 8.737308 -5.829275 15.628200 0.646703 1.953034 0.014838 -0.004496 579145.000000 1 0 0
-3.310035 -2.912292 -1.972875 4.830115 0.721563 1.991555 0.006310 -0.004119 -2405080.000000 1 0 0
-2.020835 5.888708 4.769025 7.842465 -1.240218 0.917128 -0.003906 0.001942 347401.000000 1 0 0
0.389565 -11.472092 -5.635475 12.787464 -1.536852 2.027178 -0.002916 0.000754 27463.700000 1 0 0
-8.877635 6.212108 -1.517175 10.940955 -0.610557 1.709914 0.001204 -0.000103 -1289770.000000 1 0 0
2.893465 -0.000792 3.865425 4.828422 -0.000274 0.642573 -0.003664 0.001028 -751221.000000 1 0 0
-10.104035 3.939608 -0.857675 10.878770 -0.371773 1.649718 0.003796 -0.001776 11051.000000 1 0 0
6.405665 5.511008 13.613925 16.023193 0.710463 0.555496 0.005080 -0.003302 -1076170.000000 1 0 0
-8.854035 -1.405692 5.616825 10.579160 0.157449 1.011095 0.006402 -0.007133 -383781.000000 1 0 0
12.879565 -1.813792 -1.520975 13.095282 -0.139907 1.687206 0.010944 -0.004085 -127989.000000 1 0 0
5.298465 -5.503492 5.456125 9.387836 -0.804376 0.950605 -0.002052 -0.003164 340402.000000 1 0 0
-8.924735 -1.292392 3.056525 9.521739 0.143810 1.244006 0.004175 -0.005980 479938.000000 1 0 0
1.955365 5.433908 5.610725 8.051773 1.225378 0.799827 -0.004236 0.005306 -558106.000000 1 0 0
9.316365 3.098808 -7.349475 12.264259 0.321108 2.213372 0.005063 -0.000600 -503825.000000 1 0 0
2.262465 -2.471192 -1.578875 3.703834 -0.829464 2.011174 0.002326 0.000228 -59684.900000 1 0 0
-6.341635 0.374308 -4.107475 7.564905 -0.058956 2.144760 0.002049 -0.000947 -2319890.000000 1 0 0
-4.013535 4.149808 5.005225 7.640789 -0.802090 0.856526 0.001152 -0.002108 842477.000000 1 0 0
-6.397235 1.805108 -12.390775 14.061092 -0.275020 2.649212 0.008028 -0.008271 -3128650.000000 1 0 0
-0.224035 3.007808 6.243525 6.933881 -1.496449 0.450023 -0.002025 0.000570 1416290.000000 1 0 0
-8.660635 9.424708 -2.016475 12.957542 -0.827621 1.727053 -0.003614 0.000776 587455.000000 1 0 0
-1.297035 -3.752392 -6.158475 7.327315 1.237997 2.568968 0.002607 -0.003232 267016.000000 1 0 0
-3.231635 7.001308 -3.046875 8.291274 -1.138358 1.947094 -0.000005 0.000314 1458630.000000 1 0 0
6.942365 -0.412192 -4.385475 8.221845 -0.059304 2.133403 0.002698 0.002033 -339060.000000 1 0 0
-5.017735 -10.730892 6.963025 13.740940 1.133405 1.039402 -0.001289 -0.000394 733637.000000 1 0 0
9.674465 8.353108 -1.506375 12.870076 0.712233 1.688110 0.006213 0.000999 701210.000000 1 0 0
13.775565 4.632408 -4.225875 15.135502 0.324398 1.853760 0.009497 -0.004784 674878.000000 1 0 0
4.762965 1.078108 -6.797375 8.369735 0.222601 2.518602 -0.000661 0.000115 -826747.000000 1 0 0
8.933965 -4.769892 3.541425 10.728900 -0.490403 1.234405 0.008305 -0.005546 -359543.000000 1 0 0
-8.780735 -3.299992 -0.726375 9.408446 0.359491 1.648078 0.006020 -0.002571 309615.000000 1 0 0
-8.541135 -4.238792 -10.532475 14.207440 0.460667 2.405854 0.012501 -0.002063 -132626.000000 1 0 0
10.511165 -1.085492 10.799225 15.109142 -0.102906 0.774533 0.014167 -0.003776 327346.000000 1 0 0
2.196665 -11.559892 9.958925 15.415467 -1.383011 0.868418 -0.003984 -0.000769 278174.000000 1 0 0
-6.299235 -10.536692 2.041125 12.444614 1.031968 1.406035 0.006198 0.001258 -1124170.000000 1 0 0
-3.772635 -1.078292 6.873025 7.914162 0.278397 0.518736 0.003437 -0.000836 -100072.000000 1 0 0
4.614265 -7.611792 4.023925 9.768459 -1.025831 1.146225 -0.004007 -0.001346 359731.000000 1 0 0
11.460765 -9.638492 -5.426775 15.927949 -0.699245 1.918466 0.028366 -0.007456 263237.000000 1 0 0
11.190565 1.197208 11.579525 16.147677 0.106578 0.771161 0.003178 0.001708 -452095.000000 1 0 0
-10.177435 -3.466892 4.366525 11.604571 0.328317 1.185022 0.011191 -0.002993 1705650.000000 1 0 0
2.009265 8.932708 9.022925 12.854711 1.349545 0.792713 -0.003687 0.000958 329017.000000 1 0 0
6.612965 8.825208 4.073125 11.756103 0.927726 1.216992 0.005151 0.002574 51782.600000 1 0 0
-4.249335 3.577408 0.451425 5.573013 -0.699758 1.489705 0.003510 -0.004466 -1162670.000000 1 0 0
4.941165 6.928108 4.183225 9.482256 0.951262 1.113902 -0.000784 0.003644 -1029410.000000 1 0 0
-8.285735 13.210908 1.114925 15.634083 -1.010625 1.499422 -0.001972 -0.000806 768368.000000 1 0 0
8.893265 8.150608 -9.231475 15.190218 0.741852 2.223989 0.012545 -0.004464 -1074550.000000 1 0 0
7.076365 1.967108 6.021025 9.497221 0.271137 0.884111 -0.004772 0.002378 -480956.000000 1 0 0
11.582265 -6.110092 3.018725 13.438556 -0.485435 1.344231 0.016612 -0.004680 -135576.000000 1 0 0
11.445065 4.716008 -2.171875 12.567708 0.390856 1.744482 0.002972 -0.000649 639767.000000 1 0 0
-4.013435 14.327808 -5.942275 16.021997 -1.297681 1.950755 0.004095 -0.001457 -989755.000000 1 0 0
7.265565 -2.973492 7.107625 10.590016 -0.388462 0.835020 0.004447 -0.004021 -799606.000000 1 0 0
-7.843735 -0.459492 0.835125 7.901439 0.058514 1.464906 0.007318 -0.003943 209276.000000 1 0 0
-3.207935 1.122108 10.736125 11.261188 -0.336489 0.306571 0.001639 -0.000279 167999.000000 1 0 0
7.110865 -1.292792 -1.979975 7.493732 -0.179841 1.838189 0.005527 -0.000595 -2248450.000000 1 0 0
-7.860335 5.252508 3.048025 9.932984 -0.589084 1.258905 0.005069 -0.002298 820909.000000 1 0 0
9.427565 -2.158392 2.760425 10.057713 -0.225066 1.292770 0.004068 -0.003287 -1460290.000000 1 0 0
0.256265 3.383408 1.587725 3.746197 1.495199 1.133134 -0.004086 0.001733 -4033700.000000 1 0 0
-7.523435 -3.067992 4.064425 9.084833 0.387205 1.106956 0.004361 -0.003459 1127850.000000 1 0 0
-2.273735 8.353008 -6.806775 11.012484 -1.305030 2.237115 -0.001100 -0.001790 -407514.000000 1 0 0
4.472365 9.794508 7.280125 12.997487 1.142451 0.976268 -0.000375 0.005308 -1793770.000000 1 0 0
-11.737935 -3.110792 6.846525 13.940267 0.259065 1.057406 0.025015 -0.009050 -940392.000000 1 0 0
-4.732635 2.327008 -5.599775 7.692222 -0.456981 2.386166 0.005312 -0.006290 -360597.000000 1 0 0
-2.705535 2.917508 -1.836775 4.382409 -0.823078 2.003277 0.002901 -0.002955 997866.000000 1 0 0
2.494665 5.140708 11.609225 12.939256 1.118997 0.457387 -0.002194 -0.003817 253201.000000 1 0 0
-0.667435 1.651008 4.493425 4.833443 -1.186624 0.377326 -0.000457 -0.001839 -135690.000000 1 0 0
5.083165 1.581008 7.643325 9.314429 0.301544 0.608354 -0.006829 0.002685 255140.000000 1 0 0
3.345465 -8.084592 1.925225 8.958753 -1.178444 1.354208 -0.002205 -0.002742 1639550.000000 1 0 0
5.031765 6.443008 -4.679175 9.419432 0.907770 2.090655 0.007462 0.001367 -2713570.000000 1 0 0
-4.045035 2.872508 -7.930375 9.354381 -0.617494 2.582565 0.007542 -0.008833 183828.000000 1 0 0
-8.772835 -2.066392 -12.919075 15.752304 0.231328 2.532450 0.010794 -0.005374 534384.000000 1 0 0
-7.800335 8.114808 1.246925 11.324759 -0.805155 1.460466 0.000143 0.001487 -1709570.000000 1 0 0
7.387165 0.895308 -6.580175 9.933302 0.120610 2.294862 0.000633 0.001576 405975.000000 1 0 0
8.957165 8.931408 5.519525 13.800943 0.783958 1.159347 0.005953 0.001602 527766.000000 1 0 0
9.372065 -1.088092 -1.475975 9.549767 -0.115582 1.725974 0.005083 -0.002755 271277.000000 1 0 0
5.440265 0.202208 4.180425 6.863915 0.037152 0.915942 -0.004039 0.002313 -1049570.000000 1 0 0
-4.213635 -7.243092 -7.825575 11.465457 1.043908 2.322022 0.010865 -0.001784 -1547300.000000 1 0 0
-2.157335 7.521108 -0.665175 7.852619 -1.291459 1.655605 0.000118 0.000666 -345919.000000 1 0 0
13.204465 -3.438092 -7.573875 15.605831 -0.254718 2.077529 0.021635 -0.002572 857005.000000 1 0 0
-4.768735 -5.070692 1.560325 7.133538 0.816077 1.350283 0.004375 -0.003166 2642950.000000 1 0 0
-8.863735 1.311208 2.557025 9.317909 -0.146864 1.292809 0.003913 -0.005754 -330362.000000 1 0 0
-1.082835 11.209908 10.234825 15.217957 -1.474499 0.833148 -0.000736 -0.003238 581246.000000 1 0 0
-8.536035 0.400708 7.498925 11.369184 -0.046909 0.850532 0.006011 -0.007104 -523852.000000 1 0 0
-6.138535 12.829308 -2.018775 14.364825 -1.124515 1.711799 -0.002983 0.000999 80867.800000 1 0 0
-13.125135 -0.782892 3.319025 13.560900 0.059578 1.323535 0.007884 -0.003847 558182.000000 1 0 0
-6.741835 12.692308 8.781325 16.842170 -1.082521 1.022318 0.008903 -0.008806 1911110.000000 1 0 0
-8.024435 0.948308 -14.086875 16.239793 -0.117632 2.620809 0.007904 -0.006944 -267819.000000 1 0 0
7.355365 2.870508 3.682625 8.712230 0.372082 1.134378 -0.001366 0.001750 -412999.000000 1 0 0
-1.612635 0.730708 -2.010475 2.678905 -0.425441 2.419590 0.001772 -0.003131 797069.000000 1 0 0
-6.244435 9.737408 -10.351375 15.522920 -1.000573 2.300763 -0.000432 0.001181 71253.000000 1 0 0
-10.302935 13.762308 5.496125 18.048795 -0.928170 1.261367 0.000514 -0.001673 938393.000000 1 0 0
-5.670435 8.332008 2.586325 10.405060 -0.973237 1.319599 -0.002186 0.001026 -1784300.000000 1 0 0
-2.373235 -10.840392 -1.200075 11.161833 1.355271 1.678520 0.003919 -0.001659 804028.000000 1 0 0
-2.167335 -12.460992 8.808325 15.412990 1.398589 0.962479 -0.004137 0.000154 317851.000000 1 0 0
-14.746735 -6.489792 -1.705475 16.201612 0.414577 1.676257 0.006316 -0.004263 677968.000000 1 0 0
-2.651735 -9.329092 3.251425 10.229145 1.293857 1.247326 0.001187 -0.000956 -1914120.000000 1 0 0
4.709865 -2.614092 7.492625 9.227987 -0.506693 0.623318 -0.002727 -0.000331 -1351520.000000 1 0 0
-14.946435 -1.250392 -0.281875 15.001295 0.083464 1.589587 0.002023 -0.001325 -164938.000000 1 0 0
5.498165 8.750908 -2.948575 10.747200 1.009830 1.848718 0.008937 0.000574 -1347270.000000 1 0 0
-5.571235 -5.696592 8.516925 11.663097 0.796523 0.752115 0.002923 -0.000706 -2030130.000000 1 0 0
3.480865 3.612608 7.070125 8.669143 0.803968 0.617116 -0.007269 0.002748 29005.900000 1 0 0
3.370065 2.239608 9.350325 10.188315 0.586542 0.408419 -0.000474 -0.003121 -78067.300000 1 0 0
9.947565 -3.150692 5.133125 11.628839 -0.306734 1.113623 0.015913 -0.005971 -76940.200000 1 0 0
6.628965 10.026508 -5.147075 13.075413 0.986627 1.975390 0.010095 -0.000839 745535.000000 1 0 0
-4.514935 12.113708 -8.480875 15.461300 -1.214032 2.151393 0.002499 -0.001393 -1246580.000000 1 0 0
-3.337935 -7.198292 1.984525 8.178970 1.136598 1.325713 0.002073 0.000344 1043980.000000 1 0 0
-7.504335 -4.044192 1.196625 8.608277 0.494292 1.431336 0.004883 -0.004746 2537750.000000 1 0 0
-2.032235 -3.968392 -10.986275 11.856489 1.097511 2.756076 0.010361 -0.002836 -689360.000000 1 0 0
-5.303535 8.200908 -4.364875 10.697406 -0.996744 1.991093 0.003062 -0.002306 -2326000.000000 1 0 0
-10.992535 -3.342292 -10.156075 15.334686 0.295169 2.294673 0.014700 -0.001620 1119410.000000 1 0 0
4.678465 -11.453092 -7.669975 14.556437 -1.182993 2.125761 -0.002270 -0.000934 -1377600.000000 1 0 0
-9.308635 -3.860692 7.220225 12.397067 0.393151 0.949101 0.009040 -0.005227 -632559.000000 1 0 0
-5.653435 -9.725792 -5.203375 12.394654 1.044253 2.004030 0.012298 -0.004779 156304.000000 1 0 0
4.624465 4.518408 -9.504375 11.494992 0.773799 2.544240 0.010290 0.001053 521613.000000 1 0 0
-3.460335 -7.320792 -14.052875 16.218853 1.129249 2.618850 0.010765 0.004034 -178144.000000 1 0 0
0.622265 -0.860892 -8.790475 8.854422 -0.944922 3.021336 0.004176 -0.007999 -538487.000000 1 0 0
-7.693335 2.205508 -2.976575 8.538832 -0.279190 1.926866 0.005200 -0.003092 447676.000000 1 0 0
-2.347935 7.539408 -12.581575 14.854343 -1.268894 2.581106 0.003182 -0.001568 425223.000000 1 0 0
-10.072435 8.801008 7.610325 15.389241 -0.718134 1.053511 0.007948 -0.006697 -544717.000000 1 0 0
-10.715735 -2.915492 -14.394375 18.180349 0.265646 2.484472 0.019387 -0.000530 -213862.000000 1 0 0
-3.073135 4.837008 7.979025 9.823729 -1.004798 0.622849 0.000775 -0.001303 -977697.000000 1 0 0
8.697065 -2.364992 -3.698475 9.742220 -0.265510 1.960197 0.003707 0.000695 -4294880.000000 1 0 0
1.943565 -8.436492 -1.120475 8.729679 -1.344371 1.699504 -0.001404 -0.001638 -971286.000000 1 0 0
-13.640435 -2.897492 5.118625 14.854536 0.209308 1.219001 0.029606 -0.009899 64488.100000 1 0 0
7.065665 2.719808 -1.956675 7.819818 0.367451 1.823704 0.001882 0.000021 556132.000000 1 0 0
-11.164035 4.315808 8.859025 14.891078 -0.368885 0.933628 0.011637 -0.010872 -2377650.000000 1 0 0
-1.790635 -2.516192 7.947825 8.526753 0.952298 0.370616 -0.004242 -0.002727 -1745190.000000 1 0 0
3.170265 11.914208 -9.879275 15.798703 1.310731 2.246340 0.013080 -0.009526 638993.000000 1 0 0
3.618565 -5.030992 -7.102475 9.426030 -0.947264 2.424160 -0.004098 -0.002650 -373289.000000 1 0 0
8.332865 -13.791592 -9.823875 18.872021 -1.027295 2.118294 0.010044 -0.001593 335450.000000 1 0 0
-6.365735 -5.647592 -0.500375 8.524567 0.725690 1.629528 0.007586 -0.003746 -474070.000000 1 0 0
-1.090235 -4.061892 9.821425 10.684005 1.308571 0.404589 -0.008749 -0.001490 595432.000000 1 0 0
2.844065 3.326308 1.839125 4.747148 0.863394 1.172968 -0.005065 0.003147 -1096460.000000 1 0 0
-9.179035 13.256408 7.892325 17.952043 -0.965174 1.115605 0.003390 -0.017061 -895875.000000 1 0 0
4.037065 -11.129392 0.034225 11.839021 -1.222818 1.567905 0.000743 -0.005518 -327198.000000 1 0 0
-12.529335 -1.442692 -9.067675 15.533458 0.114640 2.194137 0.009059 -0.003557 -173011.000000 1 0 0
-4.211935 0.984908 -13.526575 14.201361 -0.229710 2.832087 0.011614 -0.007544 -129583.000000 1 0 0
4.006465 -3.001692 4.949825 7.040077 -0.642997 0.791059 -0.001040 0.000414 -63671.500000 1 0 0
1.704565 -1.242192 1.108325 2.382639 -0.629758 1.086973 0.001665 -0.000612 133236.000000 1 0 0
8.193365 -9.007592 7.297825 14.195992 -0.832699 1.030866 0.009391 -0.003728 -1159900.000000 1 0 0
-0.051235 2.298108 -6.353775 6.756802 -1.548506 2.794461 0.002207 -0.004433 -180613.000000 1 0 0
-3.671935 -9.677592 -3.328275 10.872732 1.208151 1.881903 0.008339 -0.001720 1309710.000000 1 0 0
-9.431735 2.331508 -5.378675 11.105120 -0.242340 2.076407 0.003494 -0.002260 -1269600.000000 1 0 0
8.943265 -7.630792 5.253325 12.876661 -0.706375 1.150564 0.009226 -0.005829 1709980.000000 1 0 0
-5.490235 -4.267992 4.656325 8.368978 0.660795 0.980774 0.003280 -0.002636 -550748.000000 1 0 0
-0.071135 -12.424592 10.421725 16.216902 1.565071 0.872850 0.002048 -0.001665 -2503600.000000 1 0 0
-14.224335 -8.236592 3.155825 16.737155 0.524872 1.381109 0.016650 -0.007639 -1283250.000000 1 0 0
10.875065 -1.382992 -3.659175 11.557217 -0.126492 1.892954 0.011428 -0.000842 -462341.000000 1 0 0
-13.641335 2.986708 2.787025 14.239872 -0.215544 1.373805 0.006877 -0.000945 -660061.000000 1 0 0
-6.236235 6.122608 1.218425 8.823917 -0.776204 1.432272 0.003246 -0.000928 906017.000000 1 0 0
7.189765 -7.063392 -0.427075 10.087944 -0.776532 1.613144 0.005765 -0.004866 -78788.800000 1 0 0
-6.787835 7.740908 10.070225 14.401590 -0.850903 0.796457 0.002361 -0.002694 360056.000000 1 0 0
-12.716735 -5.171592 -2.005375 13.873796 0.386248 1.715848 0.003462 -0.003179 -3325660.000000 1 0 0
-9.496735 -5.577592 0.201625 11.015360 0.531041 1.552491 0.008485 -0.003058 -990810.000000 1 0 0
-1.802535 1.815808 2.183025 3.363315 -0.789067 0.864436 -0.001295 -0.000755 88329.900000 1 0 0
-7.008435 7.355808 7.579125 12.675536 -0.809577 0.929876 0.003500 -0.005501 104716.000000 1 0 0
5.627265 7.115908 -0.434375 9.082453 0.901690 1.618640 0.006048 0.001551 -1473560.000000 1 0 0
0.002665 -4.032592 7.356725 8.389470 -1.570135 0.501422 -0.008609 0.000046 -278775.000000 1 0 0
6.459165 0.782608 13.050125 14.582149 0.120575 0.462503 0.002710 -0.005973 427717.000000 1 0 0
5.692565 6.161608 -7.886975 11.514125 0.824945 2.325376 0.004191 0.000885 -342638.000000 1 0 0
9.818665 5.282308 9.068125 14.371495 0.493573 0.887981 -0.005357 -0.001496 -2241090.000000 1 0 0
-1.252135 -4.908192 -8.579975 9.963641 1.321013 2.608281 0.007499 -0.002246 562948.000000 1 0 0
9.974965 -3.488092 -7.998175 13.252831 -0.336394 2.218688 0.010060 -0.004374 351759.000000 1 0 0
8.376165 -5.520092 1.342725 10.120992 -0.582693 1.437737 0.010066 -0.005726 1337390.000000 1 0 0
15.814565 3.101808 -4.952075 16.859559 0.193678 1.868918 0.030866 -0.000800 120680.000000 1 0 0
-6.856235 3.592508 1.142925 7.824343 -0.482645 1.424199 0.006085 -0.004940 679150.000000 1 0 0
-1.761435 3.935808 0.386225 4.329250 -1.149989 1.481465 0.000291 -0.001403 -805660.000000 1 0 0
-2.550835 10.081608 6.986925 12.528476 -1.322979 0.979204 0.000284 0.004070 -618636.000000 1 0 0
5.505165 -5.745092 -8.661175 11.761329 -0.806721 2.398547 -0.002933 -0.001234 -415959.000000 1 0 0
-1.271435 -0.867192 6.172625 6.361593 0.598582 0.244347 0.000786 -0.004143 523109.000000 1 0 0
-5.641635 5.016208 -7.842975 10.885892 -0.726783 2.375278 -0.002012 -0.004143 -259482.000000 1 0 0
6.722865 -1.207092 2.525325 7.282256 -0.177657 1.216663 0.001141 0.000931 -1575620.000000 1 0 0
8.891465 7.578708 3.285525 12.136295 0.705861 1.296657 0.004261 0.000605 376007.000000 1 0 0
-5.363835 -4.907892 -7.700975 10.590710 0.741039 2.384949 0.012807 -0.005904 1094470.000000 1 0 0
-2.384335 7.927208 -10.089575 13.050870 -1.278625 2.454504 0.000348 -0.000394 263336.000000 1 0 0
-2.963135 -2.402892 1.591325 4.133566 0.681370 1.175614 -0.000307 -0.000144 -459912.000000 1 0 0
5.892365 -2.110092 -9.232075 11.153639 -0.343878 2.545826 0.000183 0.001617 1465660.000000 1 0 0
1.233765 -7.654392 5.076125 9.267089 -1.410987 0.991114 -0.007931 0.000295 259007.000000 1 0 0
1.630565 11.882208 1.079025 12.042006 1.434421 1.481071 0.005071 -0.004637 -538220.000000 1 0 0
-1.122135 7.030708 2.537625 7.558412 -1.412526 1.228411 -0.002612 0.003237 443630.000000 1 0 0
8.689865 7.922608 -6.639275 13.504127 0.739245 2.084777 0.013290 -0.002817 195310.000000 1 0 0
3.783665 -11.107492 5.429325 12.929427 -1.242483 1.137439 0.003706 -0.002214 513076.000000 1 0 0
7.890665 -6.936892 12.320125 16.191620 -0.721162 0.706105 0.009328 -0.006502 -181405.000000 1 0 0
-8.779735 0.142008 -3.911575 9.612717 -0.016173 1.989872 0.006284 -0.003230 -1437210.000000 1 0 0
-3.155935 -5.084692 11.230825 12.725779 1.015314 0.489590 -0.000871 -0.005407 163449.000000 1 0 0
-8.219735 0.210008 -11.582275 14.204127 -0.025544 2.524244 0.009073 -0.007054 -1569910.000000 1 0 0
1.572865 -5.042492 5.337125 7.509030 -1.268438 0.780217 -0.005335 0.000855 -371779.000000 1 0 0
6.644065 3.695008 -7.805275 10.895825 0.507542 2.369360 0.004066 0.001779 650417.000000 1 0 0
16.348065 4.213608 -1.206475 16.925405 0.252253 1.642139 0.018661 0.004118 320051.000000 1 0 0
7.945665 7.442208 0.261625 10.889835 0.752692 1.546769 0.005177 0.000041 -2382650.000000 1 0 0
5.502265 -10.268692 13.962725 18.184572 -1.078898 0.695344 -0.001645 0.002839 476886.000000 1 0 0
-5.044735 -9.172292 9.028925 13.823957 1.067955 0.859078 -0.005153 -0.002243 361544.000000 1 0 0
-12.658435 -3.216992 2.928125 13.385026 0.248870 1.350252 0.007380 -0.003396 -297256.000000 1 0 0
-2.156435 -1.382792 -5.870475 6.405060 0.570192 2.730130 0.006046 -0.007271 -275838.000000 1 0 0
-2.621735 13.065008 -4.362475 14.021381 -1.372758 1.887178 -0.001373 0.003895 298285.000000 1 0 0
4.001265 -0.473192 -4.963475 6.392974 -0.117714 2.459722 -0.000566 -0.000192 -441772.000000 1 0 0
-8.821935 3.866108 -7.438075 12.169564 -0.413030 2.228376 0.002189 -0.005457 513666.000000 1 0 0
-4.694435 8.044608 -11.422175 14.738369 -1.042560 2.457505 -0.000628 0.000795 -2400920.000000 1 0 0
-10.058235 -6.394492 7.431125 14.045613 0.566290 1.013291 0.012262 -0.004559 -1019970.000000 1 0 0
8.002165 5.274608 4.051425 10.405296 0.582779 1.170858 -0.001057 0.001822 -1998700.000000 1 0 0
-6.605935 -7.453192 3.996225 10.731181 0.845589 1.189209 0.008292 -0.000559 -437748.000000 1 0 0
-4.156935 11.878208 8.148825 14.992508 -1.234154 0.996164 0.002886 -0.004093 -24391.500000 1 0 0
-7.277435 10.078508 -7.887375 14.722366 -0.945408 2.136181 -0.001828 -0.002836 -1758860.000000 1 0 0
13.108065 5.523408 4.607825 14.951972 0.398796 1.257522 0.010767 -0.005078 74193.600000 1 0 0
5.423865 3.989608 -3.717775 7.691368 0.634199 2.075296 0.003308 0.001636 465588.000000 1 0 0
-2.853935 -4.206792 5.094025 7.196606 0.974707 0.784365 -0.001855 -0.000733 -1711700.000000 1 0 0
12.393065 -2.476792 -5.324375 13.713917 -0.197254 1.969524 0.015780 -0.000592 -1485090.000000 1 0 0
-5.220935 9.842008 7.059825 13.189557 -1.083067 1.005982 0.001310 0.001695 -283350.000000 1 0 0
1.873465 3.708508 -0.423375 4.176380 1.103013 1.672344 -0.006161 -0.000252 688872.000000 1 0 0
-0.134035 9.726508 7.746725 12.435219 -1.557017 0.898267 -0.002574 0.002725 -1274620.000000 1 0 0
-5.507735 2.050308 5.855825 8.296360 -0.356366 0.787201 0.003741 -0.005662 716040.000000 1 0 0
8.824365 0.929108 10.728125 13.922117 0.104902 0.691043 0.004543 -0.001201 -1768280.000000 1 0 0
0.356765 -2.920092 -10.151075 10.568753 -1.449223 2.859518 0.004435 -0.001774 -3051690.000000 1 0 0
1.203865 10.562608 -2.696475 10.967632 1.457312 1.819201 0.006220 -0.001808 -1042020.000000 1 0 0
2.205465 -4.180492 11.704725 12.623042 -1.085344 0.383794 -0.003626 -0.002551 -519451.000000 1 0 0
6.480465 -3.014692 9.468625 11.863375 -0.435419 0.646596 0.003919 -0.004201 423387.000000 1 0 0
-10.589835 -8.139992 5.641125 14.499185 0.655338 1.171180 0.018281 -0.004946 -1252940.000000 1 0 0
-2.863035 0.901408 -6.859275 7.487266 -0.305019 2.729103 0.007622 -0.008041 785433.000000 1 0 0
11.186065 2.604608 -5.036675 12.541138 0.228768 1.984073 0.005905 -0.001623 -3131600.000000 1 0 0
-2.092435 -4.022992 -0.014475 4.534639 1.091183 1.573988 -0.000384 -0.002666 1070010.000000 1 0 0
-1.233535 -6.386892 -10.582175 12.421611 1.380010 2.590430 0.006799 0.002949 941649.000000 1 0 0
0.313865 6.797508 -6.659875 9.521479 1.524655 2.345435 0.006935 -0.000151 -1707930.000000 1 0 0
2.038665 3.781408 -6.222875 7.561704 1.076338 2.537374 0.001169 0.000703 -1701910.000000 1 0 0
1.706465 -14.795592 6.415825 16.216793 -1.455968 1.164044 0.014521 -0.007146 -256284.000000 1 0 0
-1.811135 5.372708 -10.492975 11.926807 -1.245661 2.646197 0.003578 -0.002171 -216637.000000 1 0 0
13.724265 4.340908 -0.822575 14.417891 0.306338 1.627880 0.004526 -0.000177 -1132490.000000 1 0 0
-2.338535 3.331008 -6.156775 7.380395 -0.958696 2.557489 0.005781 -0.006058 -1398770.000000 1 0 0
5.841765 7.921008 14.219925 17.293781 0.935342 0.605432 0.009671 -0.006945 314654.000000 1 0 0
16.002565 0.589308 -5.952875 17.084089 0.036809 1.926709 0.032517 -0.003326 136797.000000 1 0 0
6.130165 -8.097092 10.553825 14.646674 -0.922778 0.766185 -0.007068 0.004781 1013370.000000 1 0 0
0.062065 -5.945892 -6.433475 8.760541 -1.560358 2.395534 0.000087 -0.001067 -1216030.000000 1 0 0
8.611965 5.568408 -7.578175 12.751543 0.573974 2.207185 0.007324 -0.000971 -245086.000000 1 0 0
-16.038735 -0.831292 5.381025 16.937753 0.051784 1.247500 0.029094 -0.012665 -544103.000000 1 0 0
-0.409835 4.052108 -12.339175 12.993952 -1.469998 2.822783 0.008813 -0.005419 849090.000000 1 0 0
-11.361135 3.529808 5.927325 13.291656 -0.301236 1.108568 0.011084 -0.008156 -967442.000000 1 0 0
5.064565 -9.843192 -9.724975 14.734768 -1.095597 2.291618 -0.011522 0.004596 -11212.700000 1 0 0
1.401165 11.260908 -11.578275 16.211964 1.447005 2.366250 0.006398 -0.003402 -900879.000000 1 0 0
5.954665 2.283908 1.144725 6.479558 0.366245 1.393197 0.000349 0.002456 -251775.000000 1 0 0
5.681765 4.523508 4.871825 8.745243 0.672386 0.979927 -0.006073 0.002983 -15192.200000 1 0 0
0.413665 -1.669792 -6.415775 6.642401 -1.327951 2.879624 0.003150 -0.004467 -1331730.000000 1 0 0
12.699165 6.829608 -4.558275 15.122507 0.493428 1.876981 0.006221 -0.004652 -425526.000000 1 0 0
7.403765 3.281608 12.670925 15.037854 0.417214 0.568700 -0.001883 -0.001560 -855514.000000 1 0 0
-2.297235 -0.201592 8.694325 8.994955 0.087530 0.259268 -0.005995 -0.002581 1120740.000000 1 0 0
2.249465 -15.335792 13.340825 20.450531 -1.425154 0.860120 0.017970 -0.002529 625480.000000 1 0 0
18.966165 4.595408 -1.661175 19.585523 0.237714 1.655715 0.031882 0.001424 689241.000000 1 0 0
-0.273535 -13.206792 7.236525 15.061921 1.550088 1.069627 -0.004217 -0.001127 -586677.000000 1 0 0
4.340665 1.500408 -0.629675 4.635633 0.332806 1.707051 -0.001324 0.001449 516151.000000 1 0 0
2.751365 -0.568892 -7.360975 7.878934 -0.203894 2.776975 -0.000305 -0.002238 742904.000000 1 0 0
7.167065 -11.251092 0.944325 13.373318 -1.003607 1.500125 0.007367 -0.003256 352841.000000 1 0 0
-11.874035 -7.369892 1.339125 14.039276 0.555482 1.475267 0.004335 0.000586 295462.000000 1 0 0
0.241065 -6.958892 10.030925 12.210805 -1.536169 0.606796 -0.013442 -0.001135 -3495820.000000 1 0 0
-4.544635 -7.147992 10.604025 13.571766 1.004474 0.674003 0.000829 -0.002398 -1238540.000000 1 0 0
11.800965 0.689808 -1.708675 11.943960 0.058387 1.714346 0.003830 -0.003025 2637880.000000 1 0 0
6.437965 -9.577992 -7.489575 13.757872 -0.978999 2.146452 -0.005131 -0.001689 -840218.000000 1 0 0
-10.945035 4.897008 3.687125 12.544695 -0.420705 1.272472 0.003246 -0.004244 204579.000000 1 0 0
5.981665 -9.046592 2.146525 11.055710 -0.986583 1.375400 0.001535 -0.005723 4233280.000000 1 0 0
11.588765 -1.215292 5.873025 13.048710 -0.104486 1.103936 0.017106 -0.006977 -541641.000000 1 0 0
-6.532935 3.499008 4.131325 8.484700 -0.491717 1.062242 0.004721 -0.005378 -1508580.000000 1 0 0
9.448565 6.339808 -3.158775 11.808743 0.590984 1.841588 0.005314 0.000151 179894.000000 1 0 0
-2.352535 6.641908 10.967325 13.035781 -1.230389 0.571067 -0.002017 -0.001315 -203390.000000 1 0 0
1.881965 9.894908 2.896425 10.480472 1.382846 1.290788 -0.000939 0.001989 243508.000000 1 0 0
2.822565 6.102608 -5.656475 8.786604 1.137581 2.270200 0.004235 0.000947 -2034160.000000 1 0 0
12.050865 0.041008 -5.563975 13.273389 0.003403 2.003341 0.013151 -0.000406 494984.000000 1 0 0
-2.630635 -12.492592 6.227425 14.204433 1.363253 1.116963 -0.002244 0.002297 -20394.500000 1 0 0
10.701465 1.807408 -2.708675 11.185929 0.167315 1.815378 0.002173 -0.000606 367765.000000 1 0 0
-8.824235 5.364608 0.865825 10.363194 -0.546238 1.487151 0.002922 -0.001481 -361614.000000 1 0 0
1.222765 -10.208492 5.493425 11.657023 -1.451585 1.080084 -0.007562 -0.002170 940294.000000 1 0 0
9.453565 -5.859092 -1.126675 11.178920 -0.554834 1.671753 0.010337 -0.003345 1620450.000000 1 0 0
-7.776835 8.603708 -4.472775 12.430151 -0.835834 1.938885 -0.001146 -0.003262 -680897.000000 1 0 0
-7.404935 -0.041392 -1.671775 7.591416 0.005590 1.792835 0.004775 -0.003129 -1564190.000000 1 0 0
4.094965 8.864008 2.779425 10.152073 1.138027 1.293476 0.004975 0.001771 -519266.000000 1 0 0
-1.320435 -10.551492 -3.711775 11.262983 1.446302 1.906629 0.004301 -0.000344 -681876.000000 1 0 0
3.212565 7.806908 -3.692475 9.214269 1.180413 1.983115 0.007201 -0.000237 -687488.000000 1 0 0
-4.273235 1.664408 -11.123775 12.032005 -0.371419 2.750559 0.007272 -0.006703 -594096.000000 1 0 0
1.340565 2.806508 10.970125 11.402511 1.125177 0.276269 -0.001418 -0.004116 471177.000000 1 0 0
2.028265 5.561408 -8.050475 9.992660 1.221083 2.507549 0.007242 0.000549 55867.200000 1 0 0
15.606965 5.989308 3.941725 17.175168 0.366427 1.339231 0.025720 -0.003164 227894.000000 1 0 0
-4.387935 9.121208 4.624325 11.128108 -1.122408 1.142245 -0.000739 0.003214 305509.000000 1 0 0
-1.012835 -8.116792 -12.364575 14.825345 1.446655 2.557143 0.001521 0.004344 155898.000000 1 0 0
14.365865 -4.159292 -5.391075 15.897845 -0.281820 1.916764 0.029583 -0.003853 1528820.000000 1 0 0
-6.103435 -6.265092 -5.693575 10.436478 0.798467 2.147836 0.011685 -0.001082 497236.000000 1 0 0
-8.848035 2.668808 -12.300875 15.385765 -0.292949 2.497254 0.008680 -0.006867 -1495540.000000 1 0 0
10.446865 5.534608 13.741925 18.127587 0.487192 0.710452 0.015517 -0.001986 662442.000000 1 0 0
-0.435935 10.967908 5.569025 12.308497 -1.531071 1.101281 0.000672 0.004979 886679.000000 1 0 0
0.233765 11.300608 -0.663575 11.322488 1.550113 1.629437 0.002318 -0.001710 -376842.000000 1 0 0
-1.434435 -0.629292 3.686425 4.005414 0.413420 0.401795 -0.000427 -0.002277 97427.400000 1 0 0
-4.811135 6.724508 8.894325 12.143931 -0.949768 0.748943 0.002653 -0.002204 -1140130.000000 1 0 0
3.454065 -8.874492 -11.514575 14.942309 -1.199624 2.450582 -0.005107 0.004214 1292260.000000 1 0 0
6.616665 -3.594992 12.089625 14.243008 -0.497703 0.557064 0.007780 -0.005637 -570098.000000 1 0 0
-2.383135 -1.828692 -12.613675 12.966427 0.654511 2.907801 0.010756 -0.008151 1130950.000000 1 0 0
-16.096135 -4.958392 5.454525 17.703758 0.298824 1.257601 0.043706 -0.014087 1376720.000000 1 0 0
-8.937135 7.171108 5.836525 12.859323 -0.676199 1.099687 0.001861 -0.003117 -2670920.000000 1 0 0
-13.001035 1.471708 6.098125 14.435372 -0.112719 1.134657 0.011805 -0.005801 386175.000000 1 0 0
-3.623635 3.645308 10.136725 11.365395 -0.788380 0.469281 0.004033 -0.002452 490247.000000 1 0 0
2.031965 -12.206292 -1.077975 12.421130 -1.405840 1.657691 0.000998 -0.001392 -3747980.000000 1 0 0
10.238565 -5.248892 -3.646075 12.069505 -0.473723 1.877680 0.015731 -0.002204 713828.000000 1 0 0
3.070065 -13.436692 0.983925 13.818035 -1.346169 1.499530 0.004641 -0.002759 287918.000000 1 0 0
10.053265 -1.694692 -6.124575 11.893298 -0.167001 2.111757 0.010244 0.000802 -161005.000000 1 0 0
11.977865 -5.380292 -1.638775 13.232626 -0.422177 1.694959 0.016718 -0.002688 -1225020.000000 1 0 0
1.494365 0.985308 5.919625 6.184329 0.582919 0.293636 -0.002854 -0.001692 166145.000000 1 0 0
-10.935435 11.693108 6.735225 17.368816 -0.818869 1.172578 0.002883 -0.005348 -1007550.000000 1 0 0
4.906765 -14.124192 2.891325 15.229212 -1.236438 1.379783 0.011739 -0.008571 -2337570.000000 1 0 0
5.390065 -3.366992 -1.799275 6.605061 -0.558359 1.846692 0.001672 -0.002997 -1426460.000000 1 0 0
2.086565 -2.984292 -7.813975 8.620786 -0.960619 2.705504 -0.002201 -0.002460 -203217.000000 1 0 0
-2.784135 14.851508 -8.788275 17.480059 -1.385482 2.097585 0.010446 -0.004474 -1970530.000000 1 0 0
-2.496535 6.130508 -8.128275 10.482589 -1.184072 2.458156 0.004168 -0.003330 -437302.000000 1 0 0
2.582265 -3.608392 -11.290975 12.131558 -0.949659 2.767148 0.002618 -0.001931 -1201200.000000 1 0 0
14.668965 2.738108 -2.705675 15.165634 0.184536 1.750165 0.017663 0.002261 539865.000000 1 0 0
-3.645035 13.040308 2.342825 13.741352 -1.298232 1.399465 -0.005895 0.002167 -575754.000000 1 0 0
7.764265 -4.831392 14.019525 16.738377 -0.556627 0.577980 0.014849 -0.010703 -1635430.000000 1 0 0
-11.590935 7.304808 2.976625 14.020353 -0.562342 1.356861 -0.004560 0.000826 961886.000000 1 0 0
-2.422235 11.915708 4.150925 12.848405 -1.370248 1.241825 -0.003495 0.001291 1187700.000000 1 0 0
1.898365 1.414208 0.704125 2.469731 0.640268 1.281683 -0.006293 0.000668 -1788390.000000 1 0 0
-6.822735 8.589408 5.360825 12.209262 -0.899529 1.116223 -0.000828 -0.002157 -162970.000000 1 0 0
-1.133335 9.170308 1.000325 9.294065 -1.447832 1.462957 -0.001291 0.002271 71649.300000 1 0 0
4.989365 13.027108 -8.433775 16.301162 1.205032 2.114574 0.018699 -0.015239 -1922670.000000 1 0 0
8.901065 6.955408 7.248525 13.421915 0.663304 1.000298 -0.006355 0.001205 -1482450.000000 1 0 0
7.388665 -13.762992 2.896425 15.887152 -1.078105 1.387459 0.017516 -0.007830 253739.000000 1 0 0
4.196465 -13.437292 -1.261175 14.133708 -1.268094 1.660147 -0.001281 0.002551 -2859240.000000 1 0 0
12.084065 -11.873092 -4.617075 17.558825 -0.776592 1.836874 0.027670 -0.010203 -1407370.000000 1 0 0
2.866965 -0.036692 -2.015775 3.504880 -0.012797 2.183564 0.001337 -0.000308 1052000.000000 1 0 0
-13.621335 -3.311492 -10.639675 17.598563 0.238484 2.220030 0.015212 -0.008378 121889.000000 1 0 0
-6.763535 13.691408 5.058025 16.086755 -1.111961 1.250949 0.002769 -0.006165 879127.000000 1 0 0
7.248465 -4.524592 -0.701375 8.573454 -0.558034 1.652696 0.002884 -0.001695 -1480970.000000 1 0 0
11.771965 2.053308 -7.257575 13.980974 0.172686 2.116598 0.016137 -0.001027 -1237720.000000 1 0 0
-7.385935 -4.600292 9.832725 13.130012 0.557048 0.724435 0.011363 -0.004852 607947.000000 1 0 0
1.024065 2.866208 8.464325 8.994924 1.227643 0.345190 -0.002696 -0.000864 -570563.000000 1 0 0
1.543265 7.993708 -8.847875 12.023557 1.380083 2.397759 0.011019 -0.003445 -821524.000000 1 0 0
-8.483735 -1.848092 -5.534075 10.296367 0.214489 2.138240 0.016064 -0.002354 -486288.000000 1 0 0
6.719065 -0.461592 7.115725 9.797574 -0.068591 0.757910 0.001326 -0.000364 -631337.000000 1 0 0
-10.935335 6.396108 7.163825 14.553767 -0.529245 1.056145 0.007713 -0.006648 169748.000000 1 0 0
-6.094535 11.103208 5.128825 13.664898 -1.068799 1.186045 -0.003857 0.000273 360060.000000 1 0 0
6.039565 -1.220492 -6.895175 9.247128 -0.199397 2.412315 0.001515 0.000553 -805861.000000 1 0 0
4.478965 -5.538892 11.429625 13.467620 -0.890810 0.557322 -0.001078 -0.002459 -1170940.000000 1 0 0
-8.968135 -7.388092 2.657225 11.919404 0.689095 1.345974 0.010717 -0.001450 -2283310.000000 1 0 0
-1.192535 12.677708 -9.259675 15.744459 -1.477007 2.199532 0.012076 -0.004380 534154.000000 1 0 0
-4.609335 9.188308 -2.251675 10.523356 -1.105828 1.786433 -0.002738 -0.001212 467487.000000 1 0 0
-3.194935 9.754908 -0.186075 10.266473 -1.254286 1.588922 -0.001718 0.000034 -3444440.000000 1 0 0
-3.455335 10.738708 -6.424175 12.981880 -1.259494 2.088467 0.002286 -0.000465 386341.000000 1 0 0
4.855065 -4.873392 0.306725 6.885905 -0.787282 1.526238 0.001094 -0.002260 -1336800.000000 1 0 0
-2.297435 2.939008 -10.839175 11.463144 -0.907311 2.810130 0.008495 -0.005366 -2019210.000000 1 0 0
-3.612735 12.032608 -2.198975 12.754254 -1.279114 1.744073 -0.006026 0.003218 323930.000000 1 0 0
-0.157535 0.374108 -0.006775 0.405980 -1.172239 1.587484 -0.004509 -0.000672 -1606590.000000 1 0 0
-4.854935 -1.646092 -0.033375 5.126512 0.326892 1.577307 0.001758 -0.002933 383695.000000 1 0 0
2.568765 2.484808 -2.539575 4.384321 0.768786 2.188593 -0.006497 0.001684 1662810.000000 1 0 0
6.006765 -9.601992 8.429125 14.118415 -1.011784 0.931002 -0.003921 0.000040 -245987.000000 1 0 0
-4.127135 -5.444092 6.554925 9.467757 0.922135 0.806067 0.002346 -0.002321 327394.000000 1 0 0
-6.256635 5.319208 -11.999575 14.540607 -0.704593 2.541434 -0.000344 -0.002169 781664.000000 1 0 0
-12.994035 3.040208 7.993125 15.555637 -0.229835 1.031140 0.012966 -0.008710 562422.000000 1 0 0
4.718465 -7.476792 -4.870875 10.094144 -1.007836 2.074354 -0.003915 -0.002105 -904175.000000 1 0 0
-5.960935 2.490308 -1.055975 6.545950 -0.395732 1.732822 0.005414 -0.004398 -535624.000000 1 0 0
-6.932235 -2.671992 -14.608675 16.389289 0.367896 2.671122 0.014125 -0.003389 402775.000000 1 0 0
2.755965 -6.072992 0.918625 6.732046 -1.144781 1.433914 -0.000609 -0.001573 -428346.000000 1 0 0
4.816865 -7.776592 12.948625 15.853847 -1.016230 0.615041 -0.002988 -0.002475 89830.700000 1 0 0
-10.011535 -1.589492 8.000325 12.913656 0.157452 0.902660 0.013875 -0.004255 -448329.000000 1 0 0
-4.420635 13.105308 -0.010675 13.830807 -1.245465 1.571568 -0.007866 0.002886 847003.000000 1 0 0
6.847565 2.171108 -4.442375 8.446156 0.307036 2.124645 0.002032 0.003159 -1534410.000000 1 0 0
5.005565 4.471808 -0.047075 6.712300 0.729138 1.577810 -0.003119 0.001142 -888005.000000 1 0 0
-5.942435 12.125208 1.920625 13.638988 -1.115109 1.429508 -0.004874 0.000787 -790496.000000 1 0 0
6.545465 -7.232292 6.638325 11.799005 -0.835207 0.973248 0.000330 -0.002167 -535407.000000 1 0 0
-0.278235 4.958908 7.663525 9.132240 -1.514747 0.575036 -0.004712 0.002269 -1322580.000000 1 0 0
-5.785035 -3.418492 -1.767475 6.948142 0.533716 1.828004 0.006169 -0.002917 -694829.000000 1 0 0
2.402965 -6.587192 -5.242575 8.754994 -1.221004 2.212810 -0.002235 -0.001077 1055280.000000 1 0 0
-14.559735 -4.986892 -3.759875 15.842715 0.329989 1.810408 0.004860 -0.005415 12055.400000 1 0 0
-12.431535 -5.170092 -6.324175 14.875083 0.394125 2.009926 0.013710 -0.009362 -1775020.000000 1 0 0
-14.738535 -3.790192 -1.206275 15.265813 0.251708 1.649897 -0.001665 -0.000069 533768.000000 1 0 0
11.801265 2.910008 8.728325 14.964013 0.241761 0.948026 0.013064 -0.003221 -1363850.000000 1 0 0
8.870265 -6.574792 7.633325 13.423008 -0.637856 0.965903 0.009374 -0.007862 85087.800000 1 0 0
-8.804835 -1.726392 -9.753175 13.252545 0.193617 2.397861 0.007760 -0.005217 -154623.000000 1 0 0
-8.857035 5.055008 -3.818775 10.889592 -0.518622 1.929095 0.002257 -0.003963 -1560320.000000 1 0 0
-4.021035 -6.258692 4.016325 8.454041 0.999731 1.075744 0.003106 0.000019 -1571460.000000 1 0 0
-0.113535 -9.338492 3.501425 9.973981 1.558639 1.212098 -0.002762 -0.002847 883877.000000 1 0 0
7.924465 -10.460492 3.340625 13.541744 -0.922473 1.321532 0.008770 -0.005519 -77384.500000 1 0 0
-0.132135 6.492408 9.651725 11.632911 -1.550447 0.592242 -0.003837 0.000599 -13019.700000 1 0 0
-0.104535 3.523308 -9.752275 10.369739 -1.541136 2.794763 0.008070 -0.004735 838617.000000 1 0 0
4.404865 -2.953292 10.963125 12.178460 -0.590625 0.450554 0.001615 -0.004032 -2842870.000000 1 0 0
8.592465 -9.124292 1.362125 12.607083 -0.815407 1.462541 0.007790 -0.003137 -69773.500000 1 0 0
-0.245435 -0.576992 11.351925 11.369229 1.168613 0.055179 0.000533 -0.003801 -2091230.000000 1 0 0
10.895965 5.985408 11.297425 16.798184 0.502324 0.833163 0.017116 -0.002778 6836.290000 1 0 0
-6.315235 -2.886092 -11.983775 13.850002 0.428664 2.616454 0.011016 -0.005022 1008010.000000 1 0 0
-1.681835 2.832608 8.460425 9.079154 -1.034992 0.371313 -0.001284 -0.001344 -837304.000000 1 0 0
-1.624635 13.584808 -6.852875 15.301907 -1.451770 2.035149 0.006691 0.000647 750178.000000 1 0 0
7.565665 3.149708 9.788125 12.765867 0.394492 0.697046 -0.004053 0.000939 -13007.400000 1 0 0
6.507165 8.561108 -8.119575 13.474541 0.920872 2.217534 0.015883 -0.004962 285050.000000 1 0 0
6.638965 -3.094092 -3.994575 8.343015 -0.436121 2.070075 0.002267 -0.000497 -1892120.000000 1 0 0
2.029565 8.160508 1.031825 8.472172 1.327036 1.448703 -0.000017 0.002870 781473.000000 1 0 0
-17.744735 6.086208 6.419825 19.827549 -0.330413 1.241071 0.041258 -0.005083 437655.000000 1 0 0
-14.566735 2.987608 -10.231975 18.050176 -0.202293 2.173489 0.020629 -0.006183 -1192280.000000 1 0 0
-18.392235 0.060508 -4.331375 18.895469 -0.003290 1.802081 0.022774 0.000560 643827.000000 1 0 0
-12.932735 7.968708 0.192225 15.191869 -0.552221 1.558143 -0.000498 0.007088 -553589.000000 1 0 0
-12.623035 -4.299892 -12.848575 18.517990 0.328311 2.337608 0.023501 -0.000311 -562545.000000 1 0 0
-17.390435 -0.579892 -8.581875 19.401342 0.033333 2.028996 0.030002 -0.012317 27263.400000 1 0 0
-16.743735 -2.213092 -1.988275 17.005989 0.131413 1.687980 0.015366 -0.001030 -333797.000000 1 0 0
-15.388835 4.082908 1.777225 16.020140 -0.259341 1.459631 0.013162 0.003419 -242314.000000 1 0 0
-13.257135 5.895608 4.459225 15.178752 -0.418448 1.272617 0.003096 -0.000839 707931.000000 1 0 0
-10.097235 14.284708 2.844325 17.722788 -0.955484 1.409610 0.017091 -0.008645 -320688.000000 1 0 0
-11.810835 2.424708 -6.451175 13.674527 -0.202482 2.062089 0.003381 -0.001334 -92249.900000 1 0 0
-15.871335 10.703108 4.086925 19.574441 -0.593315 1.360460 0.026687 -0.007880 -896015.000000 1 0 0
-12.895335 1.038008 -8.446475 15.450244 -0.080322 2.149201 0.008566 -0.008328 631151.000000 1 0 0
-12.397135 14.362008 3.953225 19.379995 -0.858695 1.365370 0.030354 -0.016944 -44199.500000 1 0 0
-10.520035 11.152008 -1.005675 15.363912 -0.814551 1.636300 0.004249 -0.000503 87140.300000 1 0 0
-17.216735 5.553008 8.950925 20.183432 -0.312001 1.111320 0.039680 -0.011814 418544.000000 1 0 0
-11.734435 12.230208 -8.768175 19.082868 -0.806083 2.048205 0.010685 -0.017746 -1100040.000000 1 0 0
-17.170535 -0.619892 3.129825 17.464459 0.036086 1.390612 0.024506 -0.002619 713318.000000 1 0 0
-13.172435 14.965308 -0.751475 19.950895 -0.849030 1.608471 0.048126 -0.012688 -174876.000000 1 0 0
-16.444635 4.715808 -10.462575 20.053187 -0.279274 2.119687 0.040837 -0.000451 917263.000000 1 0 0
-11.938535 7.550108 -9.022975 16.761468 -0.563914 2.139234 -0.000354 0.001047 -156723.000000 1 0 0
-14.876435 13.446908 -1.975175 20.150160 -0.734969 1.668977 0.060791 -0.016468 1039210.000000 1 0 0
-11.840235 10.543108 -5.359775 16.735455 -0.727512 1.896805 0.014924 -0.003184 1129640.000000 1 0 0
-17.708535 2.857808 -0.757175 17.953623 -0.160001 1.612983 0.027514 0.002581 327210.000000 1 0 0
-9.399935 15.428008 0.664225 18.078258 -1.023583 1.534046 0.021203 -0.014272 169798.000000 1 0 0
-8.222535 13.217108 -3.520375 15.959169 -1.014276 1.793212 0.006041 -0.003317 859599.000000 1 0 0
-17.974435 11.666508 2.889625 21.622619 -0.575715 1.436756 0.105849 -0.002315 -700921.000000 1 0 0
-8.038935 15.670608 -7.385875 19.098261 -1.096807 1.967880 0.040579 -0.019991 -228502.000000 1 0 0
-6.355635 15.326808 -5.407975 17.451399 -1.177704 1.885871 0.010477 -0.004380 -1793990.000000 1 0 0
-17.359635 5.294208 -0.046275 18.149041 -0.296012 1.573346 0.035618 0.006251 873899.000000 1 0 0
-5.489135 12.342908 -12.214875 18.212115 -1.152342 2.305949 -0.004900 -0.000359 -863800.000000 1 0 0
-11.044935 3.737008 -11.270575 16.216709 -0.326255 2.339213 0.001933 -0.006142 55280.700000 1 0 0
-11.797135 11.083008 1.269325 16.236276 -0.754197 1.492538 0.007197 -0.003454 -64177.500000 1 0 0
-12.976835 0.213008 -10.949375 16.980354 -0.016413 2.271592 0.013910 -0.010230 887615.000000 1 0 0
-14.088835 -2.131892 -12.829175 19.173626 0.150179 2.303801 0.032533 -0.012190 -41651.200000 1 0 0
-18.835035 -2.448592 -3.574475 19.326950 0.129277 1.756815 0.022342 0.001008 665494.000000 1 0 0
-18.444235 4.814208 -4.964175 19.697955 -0.255318 1.825558 0.045945 0.002769 788396.000000 1 0 0
-8.283735 15.597708 -2.448675 17.829884 -1.082590 1.708567 0.019415 -0.007583 64722.400000 1 0 0
-16.159235 9.128208 -5.241575 19.285206 -0.514204 1.846052 0.033526 -0.000592 247112.000000 1 0 0
-18.300635 1.560008 2.226025 18.501406 -0.085038 1.450188 0.048914 -0.001877 -562271.000000 1 0 0
-15.749635 -2.742092 -8.499275 18.105461 0.172377 2.059443 0.013391 -0.011796 -453479.000000 1 0 0
-9.677135 10.446908 -7.045975 15.888064 -0.823631 2.030269 0.003510 -0.006429 94365.600000 1 0 0
-13.900635 11.984308 -7.505175 19.828740 -0.711501 1.958971 0.028862 -0.016938 82787.600000 1 0 0
-11.022935 6.516808 -3.788575 13.353920 -0.533927 1.858452 -0.000819 -0.000389 -1307060.000000 1 0 0
-13.074735 4.742608 -12.562275 18.741712 -0.347971 2.305388 0.036562 -0.008193 -908477.000000 1 0 0
-17.470735 9.099608 2.797525 19.896120 -0.480187 1.429722 0.039381 -0.006814 662128.000000 1 0 0
-13.353535 8.618908 -6.509575 17.174895 -0.573163 1.959530 0.002672 -0.001921 -803314.000000 1 0 0
-15.790835 7.011208 -3.698375 17.668771 -0.417857 1.781673 0.013398 0.007296 -1173160.000000 1 0 0
-14.925335 -0.451092 -9.302075 17.592546 0.030214 2.127925 0.018656 -0.012891 -903669.000000 1 0 0
-9.941135 5.833308 -5.987375 12.988545 -0.530646 2.049888 -0.002947 -0.001456 285355.000000 1 0 0
-12.762235 12.296408 -0.895775 17.744822 -0.766811 1.621299 0.025899 -0.005637 -1242790.000000 1 0 0
-10.712935 3.421808 -13.861375 17.849746 -0.309167 2.459982 0.017438 -0.007168 8293.400000 1 0 0
-11.008235 6.197708 -11.913575 17.364506 -0.512774 2.326894 0.000295 -0.001278 -124792.000000 1 0 0
-5.852735 11.709908 -14.756175 19.726154 -1.107300 2.415917 0.005922 -0.002755 -252412.000000 1 0 0
-15.680335 13.165108 3.613925 20.790705 -0.698421 1.396085 0.046690 -0.021698 130971.000000 1 0 0
-15.148335 11.106708 -3.035075 19.027419 -0.632660 1.730991 0.044742 -0.001509 397868.000000 1 0 0
-18.133235 7.711608 -4.397175 20.189558 -0.402103 1.790350 0.038521 -0.001234 -20009.000000 1 0 0
-3.902535 16.219608 -10.668475 19.802066 -1.334678 2.139756 0.018666 -0.005382 -139789.000000 1 0 0
-15.848535 4.465608 -4.381375 17.038608 -0.274647 1.830862 0.012631 0.006048 134783.000000 1 0 0
-18.776135 -1.871792 -6.159775 19.849173 0.099362 1.886335 0.032670 -0.006779 566307.000000 1 0 0
-10.833035 8.527708 -5.775475 14.947660 -0.666884 1.967500 -0.000958 0.000148 -356679.000000 1 0 0
-11.306335 13.672608 -6.584575 18.924324 -0.879847 1.926172 0.022674 -0.006764 6935.640000 1 0 0
-9.454935 10.416008 -4.375675 14.732126 -0.833726 1.872362 -0.005133 -0.000623 -708668.000000 1 0 0
-10.970335 6.268808 -0.105875 12.635561 -0.519149 1.579176 -0.000296 0.004421 -1894910.000000 1 0 0
-14.614235 9.394608 -1.268675 17.419646 -0.571325 1.643691 0.030876 -0.001015 261637.000000 1 0 0
-18.851635 3.238308 4.863325 19.736329 -0.170118 1.321817 0.054143 -0.007728 782802.000000 1 0 0
-14.604035 13.355408 0.673125 19.801461 -0.740769 1.536796 0.028901 -0.006136 584138.000000 1 0 0
-16.795335 2.511808 -9.137775 19.284485 -0.148454 2.064443 0.018394 -0.006182 -7999.940000 1 0 0
-9.184135 8.441508 -8.842475 15.290414 -0.743290 2.187442 -0.002843 0.001865 -1162440.000000 1 0 0
-17.683035 4.772808 -2.496975 18.485245 -0.263627 1.706290 0.025969 0.009516 951790.000000 1 0 0
-13.594735 5.880908 -4.339875 15.434909 -0.408279 1.855812 0.003381 0.005570 -1934240.000000 1 0 0
-12.027035 9.715208 3.359625 15.821565 -0.679467 1.356823 -0.002193 0.005855 1142300.000000 1 0 0
-17.671335 2.565908 -4.011475 18.301691 -0.144194 1.791776 0.023993 0.005055 1127400.000000 1 0 0
-11.171735 1.485208 -12.425375 16.775084 -0.132168 2.404914 0.008538 -0.008660 -162870.000000 1 0 0
-11.162435 12.119708 3.630425 16.872085 -0.826491 1.353927 0.005042 -0.004352 3721.800000 1 0 0
-16.117435 13.203708 -4.198175 21.254041 -0.686350 1.769627 0.051244 -0.009570 -268262.000000 1 0 0
-11.206335 4.113708 -4.585375 12.787892 -0.351816 1.937534 -0.003508 -0.000299 -116070.000000 1 0 0
-11.417135 14.820008 -8.936775 20.732813 -0.914375 2.016447 0.039270 -0.016880 250406.000000 1 0 0
-15.462135 7.174408 -0.204575 17.046747 -0.434434 1.582797 0.025450 0.006871 375889.000000 1 0 0
-12.814835 8.334508 -4.019375 15.806308 -0.576642 1.827909 0.003691 0.001150 926250.000000 1 0 0
-19.198535 1.920808 -6.028475 20.214246 -0.099718 1.873633 0.042975 -0.003166 729446.000000 1 0 0
-12.938735 9.947608 -8.843175 18.562529 -0.655440 2.067351 0.018494 -0.007599 775919.000000 1 0 0
-16.640735 11.018908 -0.923975 19.979592 -0.584879 1.617059 0.050505 -0.005737 252188.000000 1 0 0
-10.641635 6.533008 -14.470475 19.113326 -0.550585 2.429641 0.020696 -0.011689 -160958.000000 1 0 0
-13.533235 12.854408 -4.163575 19.123797 -0.759679 1.790271 0.033520 -0.010208 -368919.000000 1 0 0
-18.102635 7.789308 -0.089175 19.707528 -0.406339 1.575321 0.063343 -0.001882 1321880.000000 1 0 0
-12.704335 6.636408 -2.013475 14.473980 -0.481386 1.710359 -0.002217 0.006754 409661.000000 1 0 0
-13.802135 8.297908 -10.693575 19.331496 -0.541305 2.156959 0.017144 0.001989 -1244960.000000 1 0 0
-14.977935 1.454008 -0.873675 15.073685 -0.096773 1.628789 0.007950 0.001720 -270061.000000 1 0 0
-13.333535 2.800408 -2.421475 13.837954 -0.207018 1.746690 0.002299 0.003901 504979.000000 1 0 0
-11.407335 9.213108 -10.906075 18.274329 -0.679387 2.210300 0.006533 -0.001127 254553.000000 1 0 0
-15.235435 4.301008 -8.043875 17.757282 -0.275143 2.040913 0.009688 -0.002515 840808.000000 1 0 0
-18.184435 10.183508 5.070425 21.449632 -0.510498 1.332150 0.087533 -0.030447 -47142.100000 1 0 0
-15.396135 6.125508 -6.169275 17.681141 -0.378660 1.927213 0.016407 0.005577 997633.000000 1 0 0
-7.757835 11.427808 -13.004575 18.970971 -0.974402 2.326085 0.005165 0.003788 -1944810.000000 1 0 0
-16.824935 9.207208 -2.704175 19.369142 -0.500719 1.710866 0.042074 -0.001164 990057.000000 1 0 0
-20.759035 -1.061892 -4.661575 21.302474 0.051109 1.791409 0.059147 -0.006396 1112020.000000 1 0 0
-15.486935 4.330208 4.215725 16.624325 -0.272641 1.314409 0.018685 0.000699 594042.000000 1 0 0
-6.980035 12.618008 -9.369675 17.196680 -1.065515 2.147011 0.004743 -0.004596 556704.000000 1 0 0
-17.227235 1.474508 5.764525 18.225848 -0.085384 1.248988 0.031905 -0.009593 632733.000000 1 0 0
-10.477835 14.395708 -3.197675 18.089957 -0.941626 1.748495 0.035623 -0.016169 -961499.000000 1 0 0
-9.979835 8.440308 -12.937275 18.390459 -0.702014 2.351075 -0.003760 -0.002301 233333.000000 1 0 0
-13.697235 11.628108 2.918525 18.202882 -0.703877 1.409768 0.022290 -0.009829 153606.000000 1 0 0
-16.648835 6.819508 1.940725 18.095740 -0.388762 1.463342 0.023639 0.003156 1069180.000000 1 0 0
-9.396435 13.358808 -8.345275 18.341056 -0.957800 2.043174 0.024565 -0.009151 -441682.000000 1 0 0
-5.809035 9.840308 -12.975375 17.289792 -1.037517 2.419561 0.002148 0.002417 91757.800000 1 0 0
-15.951035 1.771308 3.167825 16.358733 -0.110594 1.375918 0.014277 0.001317 -577269.000000 1 0 0
-18.704535 -5.002092 4.654925 19.913535 0.261312 1.334857 0.067444 -0.013754 768621.000000 1 0 0
-5.198435 14.541708 -9.136375 17.943198 -1.227469 2.105032 0.005423 -0.002084 -408288.000000 1 0 0
-15.409735 -0.795392 -6.812675 16.867279 0.051570 1.986571 0.006445 -0.002534 590955.000000 1 0 0
-9.076935 11.079108 -9.382275 17.122046 -0.884407 2.150725 0.002687 -0.003699 462787.000000 1 0 0
-16.689735 1.339408 -6.026875 17.795069 -0.080082 1.916312 -0.000364 0.000714 -558262.000000 1 0 0
-11.146535 8.631508 -1.455475 14.172741 -0.658914 1.673673 -0.002155 0.001920 -558542.000000 1 0 0
-10.684735 10.928008 -12.776475 19.920422 -0.796654 2.267086 0.021758 -0.003359 -414800.000000 1 0 0
-14.058535 12.016608 -10.154075 21.098495 -0.707248 2.072899 0.042978 -0.001083 437001.000000 1 0 0
-13.102735 5.744808 -7.533875 16.169222 -0.413202 2.055492 0.006370 0.004332 174913.000000 1 0 0
-8.927735 15.209508 -4.995975 18.330121 -1.040003 1.846844 0.027114 -0.017893 -187232.000000 1 0 0
-8.616535 6.091508 -12.894475 16.661891 -0.615379 2.455757 0.004141 -0.003706 -1140430.000000 1 0 0
-16.524435 7.331608 4.448325 18.617116 -0.417588 1.329525 0.037168 0.001038 190110.000000 1 0 0
-12.644235 5.268208 -10.074075 17.003460 -0.394776 2.204920 0.008870 -0.004091 441736.000000 1 0 0
-12.418335 9.143108 -13.409675 20.436018 -0.634649 2.286540 0.042904 -0.010711 -369920.000000 1 0 0
-10.761035 5.142908 -8.449775 14.616705 -0.445828 2.187183 -0.001183 -0.000230 -1611870.000000 1 0 0
-17.579935 -4.596092 -2.574675 18.352305 0.255716 1.711552 0.002681 -0.005753 -278070.000000 1 0 0
-9.003535 13.209708 -10.875275 19.334726 -0.972537 2.168171 0.025396 -0.005569 454450.000000 1 0 0
-15.133135 6.128208 6.197325 17.463492 -0.384769 1.208018 0.019108 -0.007748 -595718.000000 1 0 0
-16.454435 -3.200892 -4.388875 17.327907 0.192131 1.826869 0.009715 -0.002311 -953538.000000 1 0 0
-11.238335 -1.157092 -12.450275 16.812149 0.102598 2.404688 0.012081 -0.007058 154748.000000 1 0 0
-15.313735 6.861508 -8.553775 18.835016 -0.421241 2.042205 0.017776 0.006310 410160.000000 1 0 0
-14.875535 9.213308 1.320825 17.547397 -0.554533 1.495453 0.028251 -0.005975 -235386.000000 1 0 0
-19.633335 5.119208 8.078625 21.838917 -0.255062 1.191875 0.065931 -0.022747 791079.000000 1 0 0
-16.353635 0.414108 0.945025 16.386150 -0.025317 1.513092 0.019287 0.002170 -633649.000000 1 0 0
-17.611135 3.670208 7.223225 19.385497 -0.205462 1.188977 0.031288 -0.004182 597564.000000 1 0 0
-15.412035 3.991608 -1.381175 15.980344 -0.253425 1.657334 0.010438 0.003778 -748522.000000 1 0 0
-10.813135 13.383208 0.461825 17.211840 -0.891219 1.543961 0.018423 -0.010732 -1328230.000000 1 0 0
-13.423135 3.397408 0.105225 13.846805 -0.247895 1.563197 0.005788 0.001548 -515377.000000 1 0 0
-15.145335 0.141008 -4.259475 15.733536 -0.009310 1.844943 0.004820 0.004156 -428095.000000 1 0 0
-18.851535 6.949308 3.361125 20.370822 -0.353177 1.405041 0.048937 0.001578 -375038.000000 1 0 0
-14.116135 1.351308 -6.234075 15.490480 -0.095437 1.984983 0.005902 0.000440 -1377200.000000 1 0 0
-14.038635 12.070808 5.402525 19.286652 -0.710172 1.286880 0.017954 -0.014490 287926.000000 1 0 0
17.682765 5.387408 6.217825 19.502967 0.295736 1.246318 0.060762 -0.013614 -50002.400000 1 0 0
18.566665 7.500108 -0.377875 20.027868 0.383912 1.589665 0.040782 0.003995 497620.000000 1 0 0
16.586865 5.245108 8.541725 19.380308 0.306271 1.114371 0.075427 -0.010977 372122.000000 1 0 0
11.738465 12.140508 11.094725 20.205852 0.802233 0.989528 0.053271 -0.018919 661129.000000 1 0 0
-2.349835 15.992208 -0.418175 16.169333 -1.424904 1.596661 -0.005329 -0.007534 -69355.300000 1 0 0
15.193265 12.674208 3.416425 20.078417 0.695249 1.399810 0.057745 -0.006014 506534.000000 1 0 0
13.645465 11.761108 6.652825 19.203710 0.711366 1.217029 0.056475 -0.008826 876534.000000 1 0 0
-0.676235 15.927608 8.699125 18.160969 -1.528365 1.071280 0.008540 -0.005334 377772.000000 1 0 0
0.710565 12.964308 9.395825 16.026844 1.516042 0.944367 0.002520 -0.004332 -572391.000000 1 0 0
0.724865 15.543108 -3.952175 16.054075 1.524194 1.819532 0.007085 -0.004690 -1036650.000000 1 0 0
5.360665 10.378108 13.649725 17.965435 1.094008 0.707826 0.015086 -0.014250 248794.000000 1 0 0
-1.355735 16.420808 -2.731175 16.701505 -1.488421 1.735063 0.000535 -0.002896 -1165110.000000 1 0 0
8.758765 10.037608 3.381425 13.744220 0.853330 1.322219 0.009325 -0.000153 745780.000000 1 0 0
12.738965 13.420708 -4.809575 19.118804 0.811453 1.825091 0.062047 -0.024736 280768.000000 1 0 0
2.416065 11.615008 7.747925 14.169550 1.365709 0.992258 0.007419 0.001279 722409.000000 1 0 0
-0.348535 14.958808 -8.642775 17.279612 -1.547501 2.094594 0.013365 -0.005034 -1746490.000000 1 0 0
2.292365 15.884908 0.250725 16.051421 1.427475 1.555176 0.013032 -0.014982 -54243.100000 1 0 0
1.827365 13.490708 5.299825 14.609128 1.436162 1.199552 0.009096 -0.000177 -67225.300000 1 0 0
17.531265 9.278208 -2.008275 19.936489 0.486763 1.671701 0.023322 0.006001 120690.000000 1 0 0
-7.333935 14.818008 7.306925 18.076259 -1.111210 1.154662 0.007958 -0.014767 -1586600.000000 1 0 0
8.587465 15.870908 -0.118775 18.045620 1.074826 1.577378 0.018196 -0.018981 -401138.000000 1 0 0
15.753665 10.470408 2.229725 19.046761 0.586593 1.453461 0.039944 0.000205 1441260.000000 1 0 0
14.043565 7.391308 8.628525 18.063904 0.484476 1.072799 0.055153 -0.015950 -966464.000000 1 0 0
4.154365 18.207808 -1.895275 18.771657 1.346472 1.671933 0.021686 -0.026513 -1478560.000000 1 0 0
-0.606635 17.667608 -4.740475 18.302581 -1.536474 1.832789 0.015571 -0.000625 201530.000000 1 0 0
1.268565 13.711508 -0.822975 13.794637 1.478541 1.630491 0.003690 -0.008609 -340934.000000 1 0 0
10.312365 14.716608 4.279225 18.472553 0.959581 1.337020 0.031399 -0.016715 -346256.000000 1 0 0
-1.689335 15.320108 -5.090875 16.231961 -1.460971 1.889813 0.004492 -0.003828 -343886.000000 1 0 0
15.074865 8.733208 -6.191175 18.489217 0.525077 1.912246 0.036223 -0.010493 -117235.000000 1 0 0
-2.350835 18.271908 0.832525 18.441316 -1.442841 1.525636 0.001747 -0.013749 -31572.400000 1 0 0
-3.877535 19.185808 3.380725 19.863530 -1.371378 1.399766 0.014669 -0.016389 310746.000000 1 0 0
1.729465 17.796608 -2.756175 18.091623 1.473921 1.723737 0.007392 -0.007462 -561105.000000 1 0 0
2.806965 12.328808 3.206425 13.044529 1.346937 1.322445 0.007777 0.000955 1733200.000000 1 0 0
-2.651835 16.109308 2.040125 16.453089 -1.407644 1.446480 -0.002141 -0.007715 170941.000000 1 0 0
11.735965 12.744908 -2.552475 17.512301 0.826588 1.717071 0.026112 -0.004849 232843.000000 1 0 0
7.330365 11.660508 4.771525 14.576322 1.009577 1.237301 0.005503 -0.000870 -260289.000000 1 0 0
7.041165 15.786108 2.018125 17.402645 1.151244 1.454568 0.012244 -0.019421 -991388.000000 1 0 0
5.509765 12.164208 10.336425 16.886893 1.145493 0.912086 0.009801 -0.005511 -624886.000000 1 0 0
-1.468535 14.082008 3.209025 14.517486 -1.466887 1.347910 -0.001718 -0.002243 -1078690.000000 1 0 0
4.597265 16.008908 1.341625 16.709876 1.291152 1.490420 0.011713 -0.023718 -884118.000000 1 0 0
7.175665 13.100408 12.046425 19.189248 1.069687 0.892112 0.016708 -0.014279 192782.000000 1 0 0
0.755265 17.180608 -9.277975 19.540331 1.526864 2.065546 0.014539 -0.008913 142223.000000 1 0 0
9.801765 9.750708 15.452225 20.734565 0.782787 0.729902 0.036637 -0.016238 -162846.000000 1 0 0
13.537965 7.507008 -0.184975 15.481146 0.506303 1.582745 0.006843 0.004343 26908.400000 1 0 0
12.446265 13.529408 -0.106475 18.383845 0.827072 1.576588 0.043753 -0.009504 746964.000000 1 0 0
9.427765 12.423808 3.495225 15.982815 0.921657 1.350328 0.018199 -0.003011 -534675.000000 1 0 0
-0.762735 12.976108 0.741925 13.019662 -1.512084 1.513780 0.001178 -0.005208 -1048380.000000 1 0 0
15.992965 7.330808 -0.948275 17.618596 0.429798 1.624645 0.021768 0.006065 -1990220.000000 1 0 0
-4.279835 18.418308 -2.367475 19.056652 -1.342480 1.695352 0.019369 -0.005633 98170.700000 1 0 0
11.622165 9.145108 -3.266875 15.145303 0.666682 1.788207 0.022004 0.001252 642926.000000 1 0 0
14.621765 9.722908 7.781625 19.206370 0.586821 1.153644 0.051867 -0.016785 645482.000000 1 0 0
4.378365 13.807508 4.677325 15.221522 1.263726 1.258459 0.012820 -0.002677 -655277.000000 1 0 0
2.020665 15.990408 5.707325 17.098240 1.445095 1.230469 0.011400 -0.006968 197982.000000 1 0 0
6.096765 18.422208 5.418525 20.147177 1.251195 1.298497 0.025151 -0.023965 -482724.000000 1 0 0
10.691265 17.142808 -1.065775 20.231532 1.013162 1.623500 0.049897 -0.021669 -244256.000000 1 0 0
10.063965 13.647408 -4.393075 17.516685 0.935391 1.824296 0.041961 -0.010325 1543530.000000 1 0 0
16.540865 7.985308 2.360625 18.518583 0.449763 1.442975 0.016205 0.003194 -46680.900000 1 0 0
3.849065 14.002608 -0.447575 14.528891 1.302540 1.601607 0.010068 -0.010495 -1314210.000000 1 0 0
5.487865 13.154808 -2.306875 14.439090 1.175572 1.731250 0.013393 -0.007128 356317.000000 1 0 0
-6.136135 16.850508 -3.075775 18.194839 -1.221571 1.740659 0.019461 -0.007791 -1927970.000000 1 0 0
18.281365 9.911608 2.617525 20.959479 0.496812 1.445584 0.058641 -0.008373 108114.000000 1 0 0
7.829565 12.928308 9.413725 17.806220 1.026259 1.013756 0.023324 -0.010512 273079.000000 1 0 0
-2.639235 15.768008 6.841325 17.389634 -1.404955 1.166454 0.004528 -0.009934 660025.000000 1 0 0
11.189465 16.037808 6.321825 20.551908 0.961620 1.258124 0.042563 -0.014164 -130321.000000 1 0 0
13.593365 11.926908 1.419325 18.139603 0.720191 1.492472 0.044494 -0.002434 1207280.000000 1 0 0
17.450165 7.943108 -5.657875 19.990317 0.427160 1.857749 0.035561 0.010556 -1335440.000000 1 0 0
9.498465 9.347108 8.026525 15.556812 0.777367 1.028681 0.016067 -0.004077 -178031.000000 1 0 0
-2.028035 14.053008 -1.926075 14.328633 -1.427473 1.705626 -0.006142 -0.000754 589300.000000 1 0 0
10.923565 11.649908 0.760925 15.988235 0.817564 1.523186 0.024740 0.003117 628432.000000 1 0 0
11.744265 9.734208 -0.634275 15.267118 0.692085 1.612353 0.017543 0.004264 -1688670.000000 1 0 0
-0.419835 16.123708 11.239425 19.658965 -1.544764 0.962195 0.012917 -0.006823 104437.000000 1 0 0
2.261365 20.032908 -1.444575 20.211828 1.458390 1.642329 0.034626 -0.020745 -542153.000000 1 0 0
9.254865 14.381308 1.832725 17.199809 0.998980 1.464039 0.022112 -0.011885 79468.700000 1 0 0
8.534965 11.735308 -5.149075 15.397275 0.941989 1.911780 0.020740 -0.005312 -1123450.000000 1 0 0
10.537265 10.067408 10.211925 17.795227 0.762599 0.959588 0.018826 -0.011250 287716.000000 1 0 0
-5.209235 15.742708 5.879125 17.593553 -1.251239 1.230079 -0.004888 -0.011281 232984.000000 1 0 0
14.613065 9.161208 -1.903875 17.352065 0.559978 1.680738 0.033912 0.005339 -962124.000000 1 0 0
12.112165 9.641108 6.796925 16.907209 0.672288 1.157082 0.027734 -0.011272 -1060320.000000 1 0 0
3.173765 12.840308 9.755925 16.435461 1.328481 0.935284 0.007952 -0.007661 -557849.000000 1 0 0
8.467865 12.635508 -2.605375 15.432070 0.980376 1.740437 0.019816 -0.006116 -752645.000000 1 0 0
9.403865 16.998508 2.013925 19.530434 1.065487 1.467495 0.022988 -0.017043 -104071.000000 1 0 0
9.697265 14.335708 -7.492575 18.859697 0.976057 1.979347 0.052846 -0.016669 -341572.000000 1 0 0
6.274665 11.428808 7.197425 14.892683 1.068704 1.066392 0.005302 -0.001748 -1016580.000000 1 0 0
5.414765 16.884408 -5.598475 18.594242 1.260462 1.876628 0.019670 -0.010044 -447773.000000 1 0 0
-4.022535 17.223408 -4.683975 18.296617 -1.341359 1.829681 0.015138 -0.004725 62882.000000 1 0 0
-0.172735 18.559708 -0.529675 18.568068 -1.561490 1.599326 0.004116 -0.011177 -931374.000000 1 0 0
6.449065 15.583508 -2.642975 17.071072 1.178417 1.726243 0.012669 -0.010538 7110.540000 1 0 0
-1.019135 20.523708 0.831425 20.565809 -1.521181 1.530358 0.010666 -0.015665 -77850.700000 1 0 0
-1.442835 18.849808 4.278925 19.383143 -1.494402 1.348208 0.005892 -0.007795 -308377.000000 1 0 0
7.248265 13.793008 -4.304375 16.165150 1.086955 1.840323 0.015484 -0.005350 1435540.000000 1 0 0
-1.039235 12.139908 7.755225 14.443023 -1.485400 1.003975 0.000811 0.005248 390733.000000 1 0 0
7.671565 10.887108 10.984325 17.263761 0.956959 0.881149 0.009842 -0.009980 41276.600000 1 0 0
1.490165 15.933508 -7.151575 17.528328 1.477544 1.991060 0.006107 -0.009572 -933811.000000 1 0 0
8.982465 7.392708 14.882925 18.890164 0.688618 0.663460 0.019902 -0.003371 -396137.000000 1 0 0
11.367065 11.305108 -4.781575 16.729588 0.782665 1.860654 0.039459 -0.007486 -602499.000000 1 0 0
-3.371235 17.015108 4.591725 17.943330 -1.375198 1.312016 -0.004160 -0.005251 -426981.000000 1 0 0
3.954665 15.216508 -6.741675 17.106481 1.316528 1.975885 0.020537 -0.014126 -1075220.000000 1 0 0
-4.531635 14.094808 9.506425 17.594643 -1.259723 1.000000 0.012793 -0.011393 668056.000000 1 0 0
6.201865 17.858708 0.596925 18.914357 1.236552 1.539232 0.013596 -0.022365 -351307.000000 1 0 0
9.859265 10.706308 -2.084875 14.702954 0.826562 1.713076 0.023006 0.000387 1311030.000000 1 0 0
7.370665 18.045808 -2.275275 19.625361 1.183034 1.686993 0.019077 -0.013579 -191738.000000 1 0 0
3.549665 10.325508 10.593125 15.212842 1.239677 0.800528 0.003785 -0.003073 990417.000000 1 0 0
-0.048035 18.469508 2.059725 18.584066 -1.568196 1.459735 0.007683 -0.016069 -114545.000000 1 0 0
-0.918735 17.088608 -7.336075 18.619414 -1.517085 1.975777 0.022371 -0.006801 551460.000000 1 0 0
10.217365 8.842608 13.028325 18.770283 0.713395 0.803637 0.033907 -0.010444 76004.600000 1 0 0
3.593065 11.513808 5.466025 13.242180 1.268307 1.145299 0.003976 0.000829 461597.000000 1 0 0
13.007765 13.749908 8.193225 20.625006 0.813127 1.162281 0.053914 -0.022125 -14387.800000 1 0 0
-0.652935 17.536908 6.836325 18.833609 -1.533581 1.199326 0.008704 -0.007169 -279909.000000 1 0 0
12.173165 13.620908 5.700925 19.136762 0.841466 1.268300 0.043096 -0.012669 -524038.000000 1 0 0
4.767765 14.567708 -4.384275 15.942759 1.254501 1.849387 0.010102 -0.007778 -296165.000000 1 0 0
3.695965 17.603608 4.798125 18.616369 1.363847 1.310117 0.016230 -0.014390 -539448.000000 1 0 0
7.228865 11.660308 2.057425 13.872717 1.015833 1.421940 0.016062 -0.002608 728417.000000 1 0 0
6.374365 8.791608 11.771725 16.015568 0.943455 0.745104 0.004276 -0.008285 260471.000000 1 0 0
-5.466135 14.770308 1.724525 15.843441 -1.216350 1.461732 -0.000728 -0.000969 -132695.000000 1 0 0
6.786865 13.754408 5.919425 16.440343 1.112417 1.202470 0.010744 -0.006724 -651236.000000 1 0 0
5.816265 15.920508 4.968425 17.662864 1.220529 1.285656 0.012309 -0.017128 762811.000000 1 0 0
1.141165 17.963608 4.298125 18.505874 1.507355 1.336398 0.017610 -0.014552 -248185.000000 1 0 0
7.303265 17.964908 -7.041475 20.631480 1.184674 1.919093 0.020864 -0.015844 330990.000000 1 0 0
-2.473735 18.735508 -6.128875 19.867102 -1.439521 1.884405 0.026141 -0.007006 -1009680.000000 1 0 0
13.544065 10.069508 -4.555875 17.481210 0.639304 1.834456 0.024617 -0.003241 -1037440.000000 1 0 0
-1.600635 18.106208 10.001525 20.746742 -1.482623 1.067773 0.019599 -0.007435 -424571.000000 1 0 0
3.435065 11.760308 -1.543375 12.348544 1.286612 1.696108 0.011339 -0.006443 94358.400000 1 0 0
4.314865 13.958208 -10.892375 18.223432 1.270987 2.211441 0.029784 -0.020106 -392934.000000 1 0 0
11.613365 13.416608 2.466125 17.915284 0.857317 1.432703 0.040638 -0.007765 763674.000000 1 0 0
15.944965 6.441508 -7.129675 18.616316 0.383936 1.963816 0.019782 -0.004003 252180.000000 1 0 0
2.418265 16.048708 2.982725 16.501688 1.421239 1.389045 0.014713 -0.015589 -327018.000000 1 0 0
13.451665 10.713108 3.565025 17.562101 0.672551 1.366380 0.032584 0.003003 -444968.000000 1 0 0
-5.052635 19.386908 -5.829775 20.865464 -1.315847 1.853964 0.023903 -0.015425 822445.000000 1 0 0
5.445165 12.082808 0.145225 13.253874 1.147399 1.559839 0.014407 -0.004691 1157760.000000 1 0 0
4.657665 15.224708 9.648825 18.616805 1.273910 1.025951 0.014696 -0.010374 -135479.000000 1 0 0
7.780665 9.552608 13.739525 18.454421 0.887272 0.730994 0.018739 -0.022020 -817718.000000 1 0 0
-5.077335 13.570008 7.014425 16.097410 -1.212764 1.119926 -0.002795 -0.006195 -889098.000000 1 0 0
-4.571635 16.963808 0.577425 17.578511 -1.307557 1.537942 0.007151 -0.006567 -2738780.000000 1 0 0
-0.690035 16.452508 3.728125 16.883723 -1.528880 1.348150 0.008386 -0.011091 -1938640.000000 1 0 0
7.688265 16.875708 -4.628175 19.113319 1.143310 1.815371 0.010851 -0.014179 387475.000000 1 0 0
3.063865 16.484808 -4.494475 17.359046 1.387033 1.832693 0.010342 -0.008266 54738.200000 1 0 0
9.343265 14.470308 8.148825 19.054915 0.997460 1.128905 0.023169 -0.013330 -39950.700000 1 0 0
12.650565 10.859908 9.026325 18.959139 0.709381 1.074589 0.045537 -0.024048 249049.000000 1 0 0
3.673765 12.326508 12.252025 17.763769 1.281141 0.809694 0.016792 -0.008834 484617.000000 1 0 0
-3.425235 19.251508 5.919225 20.430126 -1.394719 1.276851 0.014789 -0.013525 176289.000000 1 0 0
-2.781435 15.789108 10.260725 19.034569 -1.396424 1.001479 0.015989 -0.013818 -1220390.000000 1 0 0
2.070565 14.302408 7.716025 16.382404 1.427025 1.080378 0.010413 -0.004567 -612560.000000 1 0 0
4.485665 17.256508 7.963725 19.527652 1.316484 1.150733 0.025823 -0.012688 -72378.200000 1 0 0
-1.958635 13.504508 9.504525 16.629612 -1.426765 0.962412 0.006604 -0.005851 -247177.000000 1 0 0
5.637565 17.682308 3.025025 18.804174 1.262159 1.409224 0.002632 -0.025829 36696.400000 1 0 0
7.335265 15.360508 -6.776075 18.321204 1.125277 1.949643 0.021701 -0.010811 214045.000000 1 0 0
10.899765 7.667308 9.430425 16.325606 0.613030 0.954954 0.014318 -0.005556 600902.000000 1 0 0
8.965665 16.131308 -2.667275 18.647161 1.063517 1.714328 0.029967 -0.024019 -1174710.000000 1 0 0
14.485265 11.221208 -6.785675 19.539289 0.659100 1.925469 0.067009 -0.015159 413879.000000 1 0 0
11.050765 6.522308 16.069325 20.564123 0.533192 0.673850 0.046286 -0.018138 -477092.000000 1 0 0
8.386965 8.504808 10.188425 15.699585 0.792374 0.864578 0.001718 -0.006180 -765702.000000 1 0 0
16.537565 9.393508 4.521625 19.549275 0.516566 1.337389 0.053700 -0.008420 214557.000000 1 0 0
-3.553235 14.353108 4.691625 15.512851 -1.328117 1.263550 -0.001698 -0.002538 -1135870.000000 1 0 0
4.775065 14.697808 12.858825 20.104134 1.256670 0.876804 0.017576 -0.004853 16250.500000 1 0 0
16.081865 10.679008 -4.800375 19.892491 0.586182 1.814518 0.054968 -0.009871 31266.000000 1 0 0
14.693865 14.101208 6.147125 21.273009 0.764819 1.277652 0.061858 -0.011207 262037.000000 1 0 0
6.159665 9.683008 9.287325 14.763351 1.004232 0.890428 0.000605 -0.001207 399377.000000 1 0 0
10.397865 12.151308 8.738825 18.224625 0.863003 1.070704 0.034068 -0.015112 -259539.000000 1 0 0
7.982265 11.505608 -0.375475 14.008446 0.964263 1.597603 0.015127 -0.004156 60761.100000 1 0 0
7.451365 13.653608 -8.722075 17.833072 1.071227 2.081849 0.030240 -0.009296 -173739.000000 1 0 0
2.658365 15.419808 -2.220175 15.804005 1.400075 1.711744 0.010137 -0.011380 341912.000000 1 0 0
12.215365 14.137808 -7.495875 20.131590 0.858218 1.952330 0.064109 -0.016390 -656816.000000 1 0 0
-8.175335 14.689908 9.870425 19.494994 -1.062956 1.039901 0.025198 -0.020049 300366.000000 1 0 0
11.635065 9.602208 2.115925 15.233328 0.689968 1.431445 0.024941 0.002547 -2477960.000000 1 0 0
12.046365 8.726108 4.386925 15.508224 0.626900 1.284004 0.020753 0.000843 464917.000000 1 0 0
13.978665 8.063408 5.976625 17.208768 0.523214 1.216105 0.029147 -0.008013 -2823960.000000 1 0 0
16.102165 7.344408 7.103925 19.070549 0.427926 1.189087 0.071214 -0.017026 417260.000000 1 0 0
13.696265 8.375608 2.334625 16.223100 0.548851 1.426387 0.019754 0.002093 -3188710.000000 1 0 0
-4.378335 17.202308 -7.159775 19.140313 -1.321568 1.954188 0.024679 -0.017557 77097.200000 1 0 0
3.242565 19.672308 -3.796675 20.296026 1.407436 1.758970 0.029026 -0.011695 573828.000000 1 0 0
-0.148335 14.968708 6.363125 16.265718 -1.560887 1.168863 0.008421 -0.004631 1022450.000000 1 0 0
6.721765 16.038808 8.215425 19.233271 1.173939 1.129462 0.028314 -0.013752 -1746830.000000 1 0 0
12.909165 15.033708 -2.039675 19.920321 0.861284 1.673368 0.062783 -0.019495 37888.500000 1 0 0
12.731965 15.734808 4.255825 20.683307 0.890495 1.363555 0.056463 -0.014469 -172747.000000 1 0 0
2.977865 18.053308 1.451225 18.354718 1.407320 1.491648 0.018771 -0.024286 -1003260.000000 1 0 0
10.398965 14.516008 -1.234375 17.899069 0.949162 1.639814 0.033180 -0.006693 -583863.000000 1 0 0
-6.289535 15.602008 -0.681775 16.835846 -1.187600 1.611303 0.003778 -0.002536 -97479.700000 1 0 0
-3.878135 15.805908 -2.548275 16.473019 -1.330190 1.726114 0.002790 -0.002823 -1100950.000000 1 0 0
-6.928835 16.848808 1.548525 18.283572 -1.180642 1.486000 0.012424 -0.011388 186143.000000 1 0 0
0.073865 19.363808 -6.486275 20.421417 1.566982 1.894016 0.033184 -0.011525 205467.000000 1 0 0
4.819365 14.757408 7.057525 17.053329 1.255143 1.144117 0.019342 -0.011761 -615926.000000 1 0 0
8.659265 12.321308 6.971425 16.595128 0.958202 1.137253 0.022228 -0.007498 -93172.000000 1 0 0
-7.826035 17.478608 -5.522075 19.930928 -1.149816 1.851530 0.044773 -0.018503 226607.000000 1 0 0
-7.643135 17.808608 -1.292975 19.422560 -1.165389 1.637416 0.035874 -0.010020 315788.000000 1 0 0
-13.610135 -9.172492 9.238925 18.834227 0.593025 1.058088 0.069836 -0.022171 465540.000000 1 0 0
-12.495435 -12.969892 7.578325 19.539319 0.804028 1.172498 0.053431 -0.013884 90580.100000 1 0 0
-3.878035 -14.956992 12.568925 19.918048 1.317104 0.887914 0.008634 -0.013285 480639.000000 1 0 0
-2.101435 -13.992992 15.038425 20.648828 1.421733 0.754967 0.021719 -0.008578 538759.000000 1 0 0
-7.149335 -13.768392 12.722925 20.063759 1.091862 0.883920 0.029047 -0.015035 -346185.000000 1 0 0
-9.741735 -11.561792 9.019525 17.604779 0.870626 1.032896 0.040295 -0.016203 403256.000000 1 0 0
-10.533635 -10.558392 11.280125 18.699688 0.786572 0.923257 0.066786 -0.028294 127184.000000 1 0 0
-5.929335 -12.254092 10.892925 17.434896 1.120139 0.895950 0.019200 -0.010007 584580.000000 1 0 0
-12.252735 -10.419492 7.359125 17.687624 0.704715 1.141687 0.032592 -0.010037 -626484.000000 1 0 0
-7.725235 -11.285892 12.501925 18.529672 0.970546 0.830241 0.029761 -0.018007 -1270590.000000 1 0 0
-14.643435 -11.501292 7.390225 20.033106 0.665789 1.192970 0.063117 -0.007783 -557639.000000 1 0 0
-10.962935 -9.156292 9.136725 16.955924 0.695842 1.001723 0.043841 -0.017305 -836504.000000 1 0 0
-5.407235 -11.965492 13.457325 18.801882 1.146361 0.773108 0.019485 -0.013725 -189041.000000 1 0 0
3.968365 -12.347492 14.765425 19.652640 -1.259833 0.720736 -0.003191 -0.000851 250370.000000 1 0 0
6.546565 -12.653092 14.151125 20.080154 -1.093335 0.788751 0.011768 0.001161 -65095.300000 1 0 0
6.621565 -8.181592 15.994025 19.146603 -0.890395 0.582036 0.012367 -0.011189 -1907740.000000 1 0 0
0.611865 -1.722092 14.443525 14.558688 -1.229405 0.125863 -0.001632 -0.006373 -2536920.000000 1 0 0
-0.168535 -6.360292 15.566525 16.816612 1.544305 0.388011 0.007483 -0.010055 -314598.000000 1 0 0
-1.541535 -4.588792 18.241925 18.873293 1.246706 0.259388 0.021689 -0.031553 -2831070.000000 1 0 0
-5.341435 12.671908 12.920825 18.869444 -1.171879 0.816538 0.017256 -0.010000 -637913.000000 1 0 0
-4.113935 8.855108 11.608025 15.168509 -1.135881 0.699334 0.002281 0.005757 -75292.600000 1 0 0
-0.695535 -3.940992 15.107025 15.628097 1.396108 0.258955 -0.000343 -0.007080 -146150.000000 1 0 0
-4.478635 9.282708 14.159625 17.513476 -1.121270 0.629199 0.005783 0.000187 516220.000000 1 0 0
-13.551235 -2.664592 16.836725 21.776394 0.194154 0.686981 0.048599 -0.004641 53609.800000 1 0 0
-0.194935 0.896908 17.341525 17.365798 -1.356784 0.052878 0.010981 -0.011401 -77989.800000 1 0 0
-3.299835 -7.314092 15.418425 17.381389 1.146977 0.479848 0.006351 -0.011726 286562.000000 1 0 0
-7.443635 5.509508 12.568025 15.611459 -0.637176 0.635034 0.001698 -0.000007 -1465670.000000 1 0 0
-9.902835 10.158708 13.501225 19.584396 -0.798152 0.810154 0.026564 -0.007004 -47585.900000 1 0 0
-5.650635 2.263508 11.068025 12.631482 -0.381003 0.502823 0.009590 -0.004368 -563622.000000 1 0 0
-7.215635 -7.356792 16.818425 19.724279 0.795084 0.549710 0.015220 -0.018890 38636.500000 1 0 0
-4.710735 2.886108 18.447425 19.256899 -0.549681 0.290975 0.017369 -0.009763 -853270.000000 1 0 0
0.968465 -8.353492 16.675325 18.675793 -1.455376 0.467085 0.014831 -0.003207 469342.000000 1 0 0
-15.314335 -3.614992 13.959125 21.034595 0.231809 0.845139 0.078366 -0.017627 568736.000000 1 0 0
-14.333135 2.571108 13.048625 19.552902 -0.177494 0.840152 0.036390 -0.019171 -445297.000000 1 0 0
-5.559535 0.976508 16.031525 16.996229 -0.173872 0.338541 0.017319 -0.007876 736492.000000 1 0 0
4.531565 5.783908 15.100625 16.793379 0.906211 0.452856 -0.002076 -0.007721 -445067.000000 1 0 0
-0.977235 -11.921292 13.929325 18.360237 1.489005 0.709530 0.002031 -0.005706 -12217.200000 1 0 0
-6.043535 -4.068692 16.827125 18.336595 0.592533 0.408595 0.019634 -0.018284 238256.000000 1 0 0
-12.972635 -1.607292 9.884325 16.388182 0.123270 0.923368 0.030025 -0.008579 -702138.000000 1 0 0
-14.646135 10.339808 10.651125 20.853474 -0.614725 1.034727 0.023705 0.005240 444524.000000 1 0 0
-3.713035 -3.332292 17.766225 18.453443 0.731409 0.273767 0.020202 -0.020456 -1255660.000000 1 0 0
-8.088435 9.258808 11.846525 17.073033 -0.852763 0.803942 0.007019 -0.004815 319432.000000 1 0 0
-4.316535 10.571908 16.475725 20.046128 -1.183153 0.606074 0.014032 0.002514 306373.000000 1 0 0
-12.558935 12.628508 8.533725 19.749191 -0.788160 1.123971 0.017056 -0.013875 71511.600000 1 0 0
-12.722835 3.118708 10.495325 16.785372 -0.240387 0.895324 0.025161 -0.014402 658157.000000 1 0 0
-10.072035 -3.410492 13.645525 17.299644 0.326492 0.661983 0.020974 -0.008675 -1337750.000000 1 0 0
-4.110935 -6.454592 17.740325 19.320473 1.003685 0.407249 0.021744 -0.016443 -299590.000000 1 0 0
0.640665 -3.412092 17.761825 18.097935 -1.385194 0.193026 0.018808 -0.024272 -868101.000000 1 0 0
-5.983835 1.753108 13.607225 14.967840 -0.284999 0.429684 0.007422 -0.003008 -405553.000000 1 0 0
-10.701135 8.517408 10.242125 17.086886 -0.672257 0.928027 0.019013 -0.013149 337019.000000 1 0 0
4.579465 2.552908 17.208125 17.989120 0.508559 0.295745 0.004134 -0.012302 -1924630.000000 1 0 0
0.477965 -5.328992 13.251725 14.291075 -1.481344 0.383735 -0.004462 -0.002677 -1539160.000000 1 0 0
-4.159835 5.702308 20.767525 21.934235 -0.940545 0.327627 0.055516 -0.003232 463911.000000 1 0 0
-10.873135 10.718508 9.171825 17.811060 -0.778237 1.029846 0.014781 -0.010287 373421.000000 1 0 0
0.685065 4.125208 13.068025 13.720785 1.406230 0.309699 0.006292 -0.005694 -1926140.000000 1 0 0
-3.124635 7.200108 13.338925 15.476816 -1.161352 0.531861 0.002928 0.006078 -1199480.000000 1 0 0
0.535765 8.880508 14.093325 16.666502 1.510539 0.563093 0.003906 -0.004851 214200.000000 1 0 0
-4.119535 -6.708392 13.083625 15.269392 1.020083 0.541662 0.004293 -0.007468 -74714.100000 1 0 0
-5.112735 8.078408 16.393225 18.977317 -1.006544 0.527968 0.012578 0.001230 -104294.000000 1 0 0
1.512465 -10.701592 15.728425 19.083893 -1.430395 0.602056 0.006098 -0.000640 -686231.000000 1 0 0
-15.247335 -0.966092 14.268825 20.904878 0.063277 0.819537 0.052497 -0.010947 648342.000000 1 0 0
-13.478035 -5.336092 8.627725 16.869171 0.376976 1.033926 0.055829 -0.014260 536663.000000 1 0 0
-14.310935 -2.046792 12.122925 18.866837 0.142060 0.872972 0.051171 -0.011497 626496.000000 1 0 0
9.327965 1.054108 17.017325 19.434800 0.112528 0.504097 0.039313 -0.009211 -333748.000000 1 0 0
4.901265 -6.656092 17.084225 18.978849 -0.936084 0.450632 0.020661 -0.005723 -613036.000000 1 0 0
-5.951035 -2.707692 11.104725 12.886479 0.427000 0.532118 0.010449 -0.005038 354631.000000 1 0 0
0.537465 -6.117092 18.056425 19.072026 -1.483158 0.327812 0.023274 -0.017988 -342523.000000 1 0 0
-8.538635 11.907508 12.118725 19.014745 -0.948699 0.879764 0.015765 -0.011830 252745.000000 1 0 0
-6.744135 -5.727692 14.851525 17.287499 0.704079 0.537306 0.017870 -0.015065 -700802.000000 1 0 0
-4.355435 -8.968392 17.170925 19.855542 1.118700 0.526059 0.020544 -0.011475 89479.000000 1 0 0
2.405065 -6.165692 16.314325 17.605604 -1.198878 0.385381 0.009264 -0.010987 277272.000000 1 0 0
2.259865 5.194208 15.858325 16.839634 1.160424 0.343071 0.005003 -0.012587 -2600400.000000 1 0 0
0.963665 -8.838592 14.027625 16.607939 -1.462196 0.564916 -0.006418 -0.000744 -903415.000000 1 0 0
-9.833635 -2.806192 11.231025 15.189174 0.277978 0.738603 0.006541 -0.006014 -388690.000000 1 0 0
-1.309235 10.155808 12.385625 16.070415 -1.442589 0.690842 0.001675 -0.001789 -736468.000000 1 0 0
-12.365435 -3.688492 11.427825 17.236709 0.289888 0.845986 0.036215 -0.006124 1020160.000000 1 0 0
-1.856235 6.607608 19.952925 21.100363 -1.296931 0.331301 0.040341 -0.003845 -603224.000000 1 0 0
0.388565 -13.534392 15.697525 20.730245 -1.542095 0.711737 0.018058 -0.006134 -181682.000000 1 0 0
4.113765 -8.549492 15.313725 18.014635 -1.122325 0.554676 0.002391 -0.005235 -76339.500000 1 0 0
4.320565 -4.297792 16.296225 17.398427 -0.782756 0.357858 0.020351 -0.010183 -195804.000000 1 0 0
8.087665 1.941008 14.762025 16.943885 0.235541 0.513093 0.006412 -0.003636 318824.000000 1 0 0
-6.213935 -0.156392 11.785225 13.324000 0.025163 0.485351 0.013635 -0.006263 143278.000000 1 0 0
-3.839035 -10.866592 19.030325 22.248018 1.231195 0.544528 0.041496 -0.004080 152401.000000 1 0 0
3.196065 -1.539192 13.611025 14.065701 -0.448811 0.254954 0.001139 -0.007396 741098.000000 1 0 0
-2.657135 8.694708 15.931425 18.343081 -1.274207 0.518578 0.016145 0.000789 -1827350.000000 1 0 0
-3.283435 3.886108 14.767725 15.619491 -0.869261 0.331769 0.007848 -0.004980 237345.000000 1 0 0
-4.925835 -8.642492 19.754025 22.117369 1.052761 0.466506 0.056833 -0.028643 34924.100000 1 0 0
-5.862635 -2.913292 19.180225 20.266692 0.461185 0.328921 0.034696 -0.021706 -779911.000000 1 0 0
-6.526835 -8.611292 11.227425 15.582330 0.922234 0.766240 0.012799 -0.011973 1390170.000000 1 0 0
-11.700635 2.398908 12.698825 17.433295 -0.202221 0.754778 0.036610 -0.021714 -172428.000000 1 0 0
-11.565035 -7.662692 11.724525 18.164013 0.585164 0.869143 0.056042 -0.017275 -176686.000000 1 0 0
-11.070235 -7.332592 15.298225 20.257164 0.585022 0.714836 0.050467 -0.035345 -1408660.000000 1 0 0
0.363265 5.649208 17.624525 18.511332 1.506581 0.310785 0.015531 -0.002620 -294898.000000 1 0 0
-2.166435 -0.146592 13.142825 13.320990 0.067562 0.163736 0.003863 -0.003042 149791.000000 1 0 0
-6.319735 -10.226092 18.470425 22.037890 1.017246 0.576966 0.047543 -0.015399 -2295.410000 1 0 0
0.327265 2.796508 19.255125 19.459892 1.454300 0.145197 0.019163 -0.010472 -449395.000000 1 0 0
-0.794035 10.950308 14.795425 18.424016 -1.498410 0.638399 0.013732 -0.004146 -334396.000000 1 0 0
-13.003535 -2.404992 14.231425 19.427027 0.182883 0.748724 0.046086 -0.011132 -943578.000000 1 0 0
-13.711235 8.295008 11.799425 19.900542 -0.544072 0.936116 0.029225 -0.012307 784023.000000 1 0 0
-18.193035 -0.691092 6.826025 19.443733 0.037968 1.212087 0.071521 -0.018225 -960289.000000 1 0 0
-1.959335 -7.935992 17.630625 19.433422 1.328745 0.434140 0.023620 -0.017309 -291024.000000 1 0 0
5.607665 2.775708 14.466025 15.761230 0.459627 0.408234 -0.001696 -0.005194 -1396060.000000 1 0 0
-14.006835 -6.920292 11.005825 19.110470 0.458889 0.957085 0.066790 -0.024879 563957.000000 1 0 0
3.145165 7.616708 16.368625 18.325889 1.179194 0.466391 0.008705 -0.015985 -565836.000000 1 0 0
0.909265 2.039608 14.643725 14.813017 1.151437 0.151330 0.006917 -0.011106 -1519480.000000 1 0 0
-14.517335 0.524708 9.839025 17.545220 -0.036128 0.975468 0.032947 -0.009185 -1682950.000000 1 0 0
-9.594835 -5.175992 15.479025 18.932828 0.494712 0.613608 0.030008 -0.014598 -435320.000000 1 0 0
-2.583035 -0.075592 18.078725 18.262478 0.029256 0.141976 0.018839 -0.015892 59887.200000 1 0 0
6.855565 3.733608 17.457525 19.123384 0.498695 0.420490 0.021814 -0.016240 -540246.000000 1 0 0
-4.221535 -0.770692 14.728125 15.340567 0.180573 0.283519 0.014238 -0.004391 -1369810.000000 1 0 0
4.994165 -9.083992 17.754225 20.559015 -1.068125 0.528482 0.022141 -0.003753 -358877.000000 1 0 0
1.912365 6.945008 13.449425 15.257042 1.302097 0.491719 0.004279 -0.003687 -1672130.000000 1 0 0
-3.735035 -0.893292 20.265425 20.626098 0.234756 0.187283 0.033704 -0.020009 -1100810.000000 1 0 0
-10.884835 1.520708 16.306925 19.664892 -0.138810 0.593049 0.036435 -0.012725 -375820.000000 1 0 0
-3.965535 7.078308 18.517725 20.217173 -1.060127 0.412951 0.023889 0.006488 552472.000000 1 0 0
-12.770735 0.905808 14.471725 19.322085 -0.070810 0.724285 0.046160 -0.019002 590471.000000 1 0 0
-16.080335 -4.851292 8.550725 18.847469 0.293007 1.099906 0.071782 -0.019286 -1037730.000000 1 0 0
-2.244535 0.748808 15.639325 15.817305 -0.322003 0.150156 0.010132 -0.009144 266738.000000 1 0 0
-13.629635 -8.912092 12.602625 20.591709 0.579095 0.912179 0.083613 -0.036536 704779.000000 1 0 0
5.913265 -3.066692 14.568925 16.019516 -0.478426 0.428840 0.010661 -0.013271 588426.000000 1 0 0
-15.917835 0.319408 7.660525 17.668139 -0.020063 1.122336 0.040402 -0.011673 262470.000000 1 0 0
-14.259135 5.862708 12.214125 19.669243 -0.390085 0.900809 0.047700 -0.025565 -524382.000000 1 0 0
0.327865 9.434508 16.601625 19.097942 1.536059 0.517035 0.009386 -0.010587 -286926.000000 1 0 0
-10.442735 -5.460092 10.760825 15.958028 0.481768 0.830752 0.030101 -0.015416 278439.000000 1 0 0
-3.161935 -10.993392 15.116425 18.956762 1.290734 0.647795 0.010391 -0.008454 -228754.000000 1 0 0
-3.621435 2.759708 12.555425 13.355504 -0.651168 0.347891 0.007282 -0.001484 -1883900.000000 1 0 0
-12.312435 -7.789492 7.361325 16.323644 0.564083 1.102955 0.049148 -0.015373 -3604.350000 1 0 0
-8.138035 -1.846692 13.192025 15.609850 0.223142 0.564027 0.010330 -0.007257 -312629.000000 1 0 0
-9.849635 6.291008 9.561625 15.100224 -0.568394 0.885102 0.008476 -0.008182 -369169.000000 1 0 0
-18.038535 -3.681692 6.752425 19.609662 0.201336 1.219259 0.074171 -0.019447 543898.000000 1 0 0
-1.359135 0.101408 20.487425 20.532709 -0.074474 0.066426 0.023873 -0.019538 -438865.000000 1 0 0
-2.767935 2.714108 20.209025 20.577477 -0.775580 0.189522 0.034463 -0.009078 -606329.000000 1 0 0
-3.908135 11.334908 11.192725 16.402157 -1.238773 0.819764 0.008449 -0.008319 -293063.000000 1 0 0
-4.280935 -4.850292 14.934325 16.275313 0.847670 0.408781 0.009357 -0.014261 -907736.000000 1 0 0
-0.185735 -14.312292 13.263425 19.513960 1.557820 0.823458 0.013789 -0.013289 -371097.000000 1 0 0
-12.282035 0.411808 8.441825 14.909137 -0.033517 0.968886 0.016476 -0.005591 -380560.000000 1 0 0
-7.920935 2.109308 15.304025 17.360979 -0.260256 0.491727 0.016352 -0.008101 -180644.000000 1 0 0
3.365565 -2.106692 18.457325 18.879567 -0.559286 0.211891 0.021742 -0.016381 -263769.000000 1 0 0
-2.178635 4.842508 12.549025 13.626238 -1.148027 0.400296 0.000162 0.000257 -440903.000000 1 0 0
-10.170335 -6.136592 13.164425 17.731203 0.542902 0.734085 0.021983 -0.020579 117431.000000 1 0 0
2.254565 -3.720092 14.359225 15.003650 -1.025939 0.294150 0.001385 -0.004491 -631582.000000 1 0 0
6.761165 1.192408 16.912125 18.252539 0.174566 0.385627 0.012879 -0.014423 -1430660.000000 1 0 0
-2.003235 -5.778292 13.866225 15.154993 1.237080 0.415385 -0.003025 -0.004944 -3327880.000000 1 0 0
-12.678535 3.451608 14.786625 19.781383 -0.265799 0.726503 0.018300 -0.011041 -153987.000000 1 0 0
-13.223235 -6.508392 13.455325 19.956424 0.457383 0.830868 0.056267 -0.027567 -209023.000000 1 0 0
-9.555435 6.813508 11.990725 16.778192 -0.619431 0.774656 0.015663 -0.006179 -143108.000000 1 0 0
-1.053735 -2.558992 12.836925 13.131849 1.180179 0.212336 -0.004720 -0.002303 585171.000000 1 0 0
0.110865 6.656708 15.310725 16.695579 1.554143 0.410171 0.009732 -0.005726 468575.000000 1 0 0
-16.692835 -0.948692 9.847425 19.404188 0.056771 1.038527 0.068489 -0.013503 434547.000000 1 0 0
-1.342735 2.625208 13.727225 14.040348 -1.098009 0.211589 0.003965 -0.004130 -2215390.000000 1 0 0
-11.292435 -3.385292 15.913525 19.804534 0.291259 0.637595 0.035137 -0.014937 -386325.000000 1 0 0
-5.197535 -1.399392 17.138625 17.963996 0.263005 0.304309 0.027181 -0.009290 140916.000000 1 0 0
-12.005335 6.512508 11.095625 17.596981 -0.497042 0.888546 0.034040 -0.012715 -2362260.000000 1 0 0
-2.765035 4.700108 18.586625 19.370056 -1.039030 0.285381 0.026624 -0.005614 461079.000000 1 0 0
5.018265 -1.774892 16.468725 17.307575 -0.339955 0.312614 0.016774 -0.013665 -1047560.000000 1 0 0
-7.973235 -4.166092 12.129525 15.101463 0.481493 0.638145 0.012750 -0.007064 -1821970.000000 1 0 0
-11.793535 -0.903792 16.117925 19.992294 0.076485 0.633084 0.045771 -0.012314 -98999.600000 1 0 0
2.078965 2.200108 17.421325 17.682340 0.813701 0.172034 0.005889 -0.012269 -353565.000000 1 0 0
-8.850435 -7.481792 11.617325 16.409438 0.701793 0.784182 0.024462 -0.018280 414004.000000 1 0 0
-7.270835 6.782608 14.880425 17.896812 -0.750671 0.589072 0.001837 0.001539 -300091.000000 1 0 0
-5.724135 3.475708 15.691425 17.060689 -0.545699 0.403375 0.007135 -0.002518 30856.200000 1 0 0
-9.287535 4.164408 11.586625 15.422402 -0.421512 0.720789 0.004867 -0.008977 -45342.300000 1 0 0
-10.357535 0.056008 14.176725 17.557369 -0.005407 0.630977 0.020127 -0.007558 2444.680000 1 0 0
7.992665 -0.580792 15.572325 17.513347 -0.072538 0.475270 0.017444 -0.015781 -1333.950000 1 0 0
-8.623035 -7.522592 14.685625 18.617564 0.717346 0.661934 0.025012 -0.013467 -1504590.000000 1 0 0
-0.167935 4.130608 15.621325 16.159082 -1.530163 0.258709 0.009518 -0.010950 -32045.400000 1 0 0
-8.189135 2.967308 9.501525 12.889757 -0.347632 0.741972 0.003607 -0.006201 -287527.000000 1 0 0
-2.035835 -9.679292 13.125825 16.435346 1.363489 0.645774 -0.005145 -0.000738 336596.000000 1 0 0
-6.161135 10.203108 10.366525 15.796450 -1.027552 0.854949 0.011814 -0.005915 -1099370.000000 1 0 0
-8.608235 -2.756792 15.598625 18.028275 0.309930 0.525185 0.025177 -0.015454 -465315.000000 1 0 0
4.056365 5.530408 17.668825 18.953282 0.937961 0.370268 0.000568 -0.013714 -207636.000000 1 0 0
-6.853835 -0.983592 15.262825 16.759962 0.142537 0.425889 0.015926 -0.007260 -954995.000000 1 0 0
-0.903535 -9.848692 15.472625 18.363421 1.479311 0.568743 0.002134 -0.003456 -689561.000000 1 0 0
-4.308335 5.666508 16.220925 17.714104 -0.920726 0.413533 0.009269 0.001492 302607.000000 1 0 0
3.666265 0.152708 17.482725 17.863664 0.041628 0.206887 0.004238 -0.012909 -751322.000000 1 0 0
1.444665 0.457508 19.302825 19.362217 0.306696 0.078345 0.012500 -0.010022 -256090.000000 1 0 0
-6.396135 6.271708 17.724425 19.859510 -0.775576 0.467959 0.012940 -0.001273 -524317.000000 1 0 0
-12.331235 0.619508 11.005725 16.539925 -0.050197 0.842762 0.026748 -0.010221 -580034.000000 1 0 0
-5.385635 5.165108 13.855125 15.736833 -0.764500 0.494035 -0.000229 -0.000039 -1000600.000000 1 0 0
-8.538435 -9.514592 10.077225 16.278292 0.839417 0.903252 0.029356 -0.012627 68291.800000 1 0 0
6.790065 -3.605692 17.007525 18.664456 -0.488158 0.424547 0.024426 -0.016200 -415373.000000 1 0 0
-16.844235 1.634608 9.655525 19.484079 -0.096740 1.052317 0.054574 -0.017249 -417059.000000 1 0 0
-4.042835 -9.524492 11.473725 15.450140 1.169377 0.733809 -0.002061 -0.005083 -619973.000000 1 0 0
-11.084835 -3.788892 9.141925 14.859477 0.329359 0.908125 0.027219 -0.009403 -447796.000000 1 0 0
3.407165 -5.232892 18.546025 19.569031 -0.993644 0.324773 0.012275 -0.015234 -650242.000000 1 0 0
2.413765 -1.688092 16.092925 16.360262 -0.610297 0.181026 0.009396 -0.010742 95416.500000 1 0 0
-3.185935 -4.238092 20.166025 20.851383 0.926184 0.257101 0.032436 -0.029810 -1208740.000000 1 0 0
-6.293235 -3.342792 14.416125 16.081161 0.488273 0.459080 0.013360 -0.008593 161305.000000 1 0 0
-9.727035 4.950008 13.907825 17.678953 -0.470736 0.665370 0.030437 -0.007789 600242.000000 1 0 0
-5.777535 -5.187992 11.822025 14.144096 0.731687 0.581158 0.004261 -0.002731 -140838.000000 1 0 0
6.140765 1.978708 19.287625 20.338062 0.311720 0.322799 0.032829 -0.020040 -131931.000000 1 0 0
-2.859535 11.955708 13.532325 18.282224 -1.336029 0.737443 0.013993 -0.008538 -399690.000000 1 0 0
3.394865 1.415008 15.233925 15.671625 0.394912 0.236898 0.000647 -0.011236 -1061760.000000 1 0 0
-5.690035 7.475208 12.946125 15.995543 -0.920174 0.627738 -0.008562 0.003575 -899597.000000 1 0 0
-1.867835 -1.697792 15.186625 15.394963 0.737745 0.164703 0.004905 -0.006885 -647563.000000 1 0 0
-7.445635 10.602608 14.098625 19.147428 -0.958565 0.743182 0.023847 -0.009305 364286.000000 1 0 0
-10.262835 2.078708 10.534725 14.853526 -0.199844 0.782376 0.011397 -0.009526 -1403750.000000 1 0 0
-13.727335 5.202708 9.095225 17.269366 -0.362276 1.016120 0.021036 -0.014613 238527.000000 1 0 0
0.237965 -4.611492 20.119325 20.642426 -1.519239 0.225605 0.030733 -0.026768 -652044.000000 1 0 0
-14.357935 -3.052492 7.679625 16.566371 0.209481 1.088779 0.037387 -0.011259 553505.000000 1 0 0
-2.274635 2.409408 17.623925 17.932706 -0.814163 0.185841 0.013359 -0.009854 -200794.000000 1 0 0
-6.182735 -8.310592 14.629225 17.925021 0.931173 0.616107 0.008012 -0.009937 -124828.000000 1 0 0
-8.033135 1.742908 11.817825 14.395485 -0.213653 0.607742 0.006426 -0.008375 96533.600000 1 0 0
-14.539435 -3.643992 10.205725 18.133689 0.245570 0.973021 0.044522 -0.012074 338975.000000 1 0 0
-0.522335 6.854908 12.775925 14.508166 -1.494745 0.493664 0.003534 -0.003759 -729538.000000 1 0 0
-1.813635 -2.198792 19.289825 19.499265 0.881096 0.146698 0.024433 -0.023469 -400916.000000 1 0 0
-12.863335 10.261708 7.471325 18.071766 -0.673367 1.144584 0.010862 -0.013232 10700.000000 1 0 0
-19.520735 1.919208 6.999725 20.826392 -0.098001 1.228025 0.063611 -0.012402 -348046.000000 1 0 0
-16.398835 8.386108 6.776425 19.625711 -0.472714 1.218256 0.038161 -0.005975 356723.000000 1 0 0
-12.424135 6.984608 13.687925 19.761153 -0.512147 0.805614 0.037682 -0.009283 111064.000000 1 0 0
-16.049235 8.148708 10.537425 20.857054 -0.469814 1.041158 0.033019 -0.011802 -792565.000000 1 0 0
1.903965 10.846108 15.006425 18.613327 1.397023 0.633063 0.018199 -0.017354 214734.000000 1 0 0
2.199165 14.480708 12.197325 19.060482 1.420079 0.876393 0.010100 -0.018424 -114799.000000 1 0 0
-3.303435 13.754408 11.823025 18.435844 -1.335088 0.874597 0.005164 -0.008646 126764.000000 1 0 0
9.003765 4.926908 15.806025 18.846025 0.500695 0.575918 0.022961 0.000957 -490249.000000 1 0 0
-0.397735 12.609108 12.907725 18.048745 -1.539263 0.773945 0.006605 -0.009028 234763.000000 1 0 0
3.122565 13.611708 14.491225 20.125224 1.345295 0.766918 0.008786 -0.012178 -157241.000000 1 0 0
-2.842035 -4.051092 -13.778175 14.639898 0.959032 2.796780 0.008392 -0.003734 -232542.000000 1 0 0
5.922165 -11.494692 16.271125 20.783395 -1.095056 0.671498 0.006430 -0.002357 -23258.600000 1 0 0
7.944365 -13.565392 7.313825 17.338536 -1.041006 1.135339 0.002873 -0.003253 -371955.000000 1 0 0
-0.141735 15.523508 1.543625 15.600711 -1.561666 1.471688 0.000997 -0.006625 -2951620.000000 1 0 0
-13.796335 8.272908 9.184925 18.524112 -0.540159 1.051999 0.017298 -0.004328 578608.000000 1 0 0
-15.340535 -9.693692 5.010125 18.825542 0.563546 1.301416 0.043353 -0.013350 -425665.000000 1 0 0
9.458065 -11.046192 11.151425 18.325601 -0.862697 0.916607 0.013319 -0.004389 92616.400000 1 0 0
-4.675735 -10.822592 -16.593175 20.354961 1.162982 2.523855 0.032300 -0.018313 -113457.000000 1 0 0
-1.687535 -12.640692 -14.661575 19.431846 1.438081 2.425708 0.012803 -0.001872 -61110.000000 1 0 0
5.640465 -15.966092 -12.210875 20.876695 -1.231204 2.195559 0.017166 0.005349 232961.000000 1 0 0
2.889465 -11.803592 -16.722475 20.671598 -1.330722 2.513175 0.008915 0.005391 171796.000000 1 0 0
0.760165 -13.929492 -14.736175 20.291955 -1.516278 2.383586 0.021697 0.011893 213485.000000 1 0 0
-6.661435 -5.730892 -14.585675 17.028204 0.710449 2.599362 0.024636 0.000574 -118164.000000 1 0 0
-6.298735 -8.088392 -17.037975 19.884384 0.909155 2.599929 0.026613 -0.012179 146626.000000 1 0 0
-2.277035 -16.247392 -13.305675 21.123532 1.431556 2.252218 0.016480 -0.005465 317630.000000 1 0 0
16.217165 -8.011992 -9.349375 20.361711 -0.458871 2.047851 0.063043 -0.016364 99263.700000 1 0 0
19.131365 -2.710692 -4.045175 19.741338 -0.140751 1.777167 0.067563 -0.023927 37279.200000 1 0 0
15.455365 -12.135292 -8.235875 21.306414 -0.665641 1.967678 0.044927 -0.012411 -70056.700000 1 0 0
18.515965 -3.717892 -7.257575 20.232056 -0.198159 1.937689 0.169290 -0.011841 -180283.000000 1 0 0
9.221465 -9.899692 -16.082375 21.016234 -0.820853 2.442204 0.068807 0.000992 149909.000000 1 0 0
-4.411635 10.160208 -16.225375 19.645741 -1.161153 2.542589 -0.000288 0.010062 393399.000000 1 0 0
2.479765 -9.557892 -18.636775 21.091038 -1.316946 2.654366 0.024381 0.001676 113286.000000 1 0 0
11.316265 7.835108 -15.022475 20.374531 0.605591 2.399885 0.064319 -0.036047 425123.000000 1 0 0
18.253465 -6.778392 -8.702775 21.327773 -0.355565 1.991112 0.053796 -0.013455 -40833.700000 1 0 0
12.487865 5.096508 -13.872075 19.348272 0.387484 2.370238 0.021790 -0.007903 104286.000000 1 0 0
15.883165 6.309408 -10.746075 20.188157 0.378124 2.132107 0.020179 -0.019161 276732.000000 1 0 0
3.575565 -0.160092 -19.248875 19.578802 -0.044744 2.957752 0.030071 -0.005319 40135.100000 1 0 0
10.148265 -1.351492 -15.107375 18.249564 -0.132396 2.546009 0.022062 -0.006337 107748.000000 1 0 0
12.441265 -5.957292 -14.050475 19.689851 -0.446571 2.365405 0.042385 -0.008707 115650.000000 1 0 0
10.306165 6.634608 -12.920275 17.809227 0.571970 2.382531 0.031512 -0.001751 483865.000000 1 0 0
10.848765 5.195308 -16.256875 20.223079 0.446613 2.504582 0.053388 -0.018145 567367.000000 1 0 0
11.969265 -10.347192 -15.208375 21.945896 -0.712841 2.336430 0.086913 -0.014663 339990.000000 1 0 0
-0.878735 2.465708 -17.593175 17.786840 -1.228447 2.993891 0.026237 -0.004301 427258.000000 1 0 0
6.607365 -1.138092 -17.507675 18.747565 -0.170572 2.775865 0.024110 0.009347 5873.820000 1 0 0
7.242265 -6.621792 -15.489875 18.336705 -0.740674 2.576888 0.024388 -0.010297 202824.000000 1 0 0
-2.068835 -4.487192 -20.394275 20.984313 1.138789 2.903892 0.018466 -0.018879 326118.000000 1 0 0
16.271365 -0.336492 -13.096775 20.890095 -0.020677 2.248412 0.040020 -0.018106 -1631.050000 1 0 0
-3.845135 -0.273592 -18.389275 18.788968 0.071033 2.934959 0.016204 -0.017542 135378.000000 1 0 0
3.501165 9.150008 -17.172675 19.770725 1.205344 2.623148 0.041513 -0.026074 -190186.000000 1 0 0
10.131165 0.242508 -16.979675 19.773939 0.023932 2.603503 0.046566 -0.023581 -41609.400000 1 0 0
4.131465 4.483808 -18.407675 19.391133 0.826273 2.821744 0.031606 0.002658 491362.000000 1 0 0
-2.220435 -11.188692 -18.467975 21.706756 1.374888 2.588290 0.019063 -0.005499 152859.000000 1 0 0
6.532165 -9.003792 -16.374275 19.795311 -0.943167 2.544866 0.042290 -0.010218 279550.000000 1 0 0
10.362365 -12.360492 -10.806275 19.414838 -0.873107 2.161082 0.031913 -0.003476 303544.000000 1 0 0
6.220265 6.829808 -17.165775 19.493635 0.832072 2.647889 0.049252 -0.005737 545008.000000 1 0 0
8.498565 1.401008 -20.018775 21.793113 0.163383 2.735275 0.052545 -0.016074 136898.000000 1 0 0
-0.855035 -0.958892 -20.290075 20.330708 0.842591 3.078358 0.029012 -0.015309 210021.000000 1 0 0
-1.192635 6.681608 -19.616175 20.757181 -1.394161 2.808485 0.026077 -0.009116 -15159.600000 1 0 0
8.925065 5.435708 -18.196875 20.984041 0.547039 2.620301 0.062947 -0.014742 232275.000000 1 0 0
12.110765 -0.102892 -13.173475 17.894738 -0.008496 2.398182 0.005406 -0.004249 79014.900000 1 0 0
-3.960535 -2.469492 -19.838375 20.380023 0.557538 2.910526 -0.003433 -0.011895 438853.000000 1 0 0
6.018665 -11.387092 -14.549775 19.431576 -1.084569 2.417000 0.015839 0.000518 151256.000000 1 0 0
11.280665 2.469308 -15.858675 19.617555 0.215498 2.512212 0.032231 -0.006142 -261807.000000 1 0 0
-2.734835 -4.271492 -17.247875 17.978157 1.001304 2.855591 0.002459 0.000112 145491.000000 1 0 0
-6.600835 -4.531292 -17.412475 19.165017 0.601589 2.710609 0.026423 -0.013716 -11778.700000 1 0 0
3.096165 10.067608 -14.840875 18.198751 1.272439 2.524369 0.020929 -0.024257 336085.000000 1 0 0
16.913865 -6.171292 -11.100675 21.151564 -0.349856 2.123295 0.072127 -0.020272 -15210.600000 1 0 0
9.604965 -3.219092 -17.621875 20.326052 -0.323383 2.619866 0.029414 -0.021073 12792.900000 1 0 0
-7.325535 -1.475992 -18.486375 19.939610 0.198824 2.757445 0.023226 -0.009507 693880.000000 1 0 0
1.595665 -7.454792 -19.243575 20.698677 -1.359933 2.764396 0.032115 -0.019523 250573.000000 1 0 0
5.972065 10.551108 -14.022375 18.536948 1.055742 2.428673 0.058544 -0.016711 483387.000000 1 0 0
6.134665 -4.000492 -16.519575 18.070263 -0.577859 2.724290 0.037682 -0.047807 391355.000000 1 0 0
4.557165 13.590208 -14.463775 20.363258 1.247252 2.360703 0.051452 -0.023199 147437.000000 1 0 0
10.078565 10.951208 -15.437575 21.443534 0.826870 2.374480 0.109596 -0.025216 -16827.800000 1 0 0
17.297765 1.184508 -11.399475 20.750031 0.068371 2.152408 0.060962 -0.003609 -55446.600000 1 0 0
14.946365 -2.891492 -12.487475 19.689885 -0.191097 2.257780 0.042667 -0.008567 116597.000000 1 0 0
-8.846235 -0.107892 -17.286375 19.418709 0.012196 2.668562 0.036069 -0.014396 298960.000000 1 0 0
-3.457435 4.318108 -19.176975 19.958864 -0.895639 2.860760 0.034109 -0.004628 74879.300000 1 0 0
3.910565 1.665308 -16.900075 17.426368 0.402589 2.895202 0.013284 -0.001657 426526.000000 1 0 0
-5.001935 14.320208 -13.963575 20.617205 -1.234752 2.314853 0.007900 -0.004860 372267.000000 1 0 0
0.923465 9.597808 -17.668875 20.128583 1.474875 2.642047 0.020829 0.000997 243212.000000 1 0 0
1.650765 -5.010992 -19.678775 20.373739 -1.252564 2.879652 0.030072 -0.008161 668878.000000 1 0 0
3.680765 -6.114892 -17.843075 19.217576 -1.028955 2.761087 0.033088 -0.027529 41044.400000 1 0 0
-6.582835 7.627308 -16.165875 19.048492 -0.858768 2.584261 0.004243 0.009376 114521.000000 1 0 0
-11.965235 3.259408 -16.647875 20.759150 -0.265954 2.501355 0.076257 -0.027753 308577.000000 1 0 0
-4.230535 6.709808 -17.582375 19.288827 -1.008252 2.717789 0.010667 0.017982 413668.000000 1 0 0
-8.379435 5.791708 -17.519975 20.265940 -0.604783 2.614958 0.030018 -0.009450 324406.000000 1 0 0
-8.955135 4.998108 -15.592575 18.662902 -0.509062 2.559811 0.014976 0.002644 450555.000000 1 0 0
9.331565 14.160908 -11.547275 20.517041 0.988144 2.168582 0.083500 -0.038546 354813.000000 1 0 0
14.027265 9.461508 -12.077575 20.788269 0.593412 2.190729 0.058642 -0.013985 183739.000000 1 0 0
8.371765 15.890508 -9.960875 20.538104 1.085907 2.077154 0.046445 -0.011634 12939.600000 1 0 0
7.819465 13.461008 -14.503975 21.276937 1.044541 2.320847 0.094475 -0.032383 272976.000000 1 0 0
3.965965 15.683908 -12.797875 20.627638 1.323120 2.240079 0.049068 -0.027061 232486.000000 1 0 0
11.185665 11.293908 -10.547775 19.076871 0.790213 2.156648 0.075601 -0.039400 256686.000000 1 0 0
16.085865 9.959808 -8.753375 20.846448 0.554393 2.004129 0.074815 -0.046842 365080.000000 1 0 0
13.838165 11.241408 -9.121975 20.026845 0.682225 2.043716 0.108172 -0.019693 50424.600000 1 0 0
10.632065 11.608208 -7.301975 17.352526 0.829261 2.005125 0.044358 -0.015133 9703.070000 1 0 0
5.719065 17.061608 -9.991675 20.582511 1.247366 2.077668 0.050666 -0.014564 -115087.000000 1 0 0
11.789165 13.840608 -10.209875 20.851580 0.865269 2.082479 0.108781 -0.033874 -47432.300000 1 0 0
7.820465 -19.331892 -2.037375 20.953105 -1.186385 1.668185 0.028367 -0.008872 -22980.900000 1 0 0
7.851865 -17.002792 -4.227975 19.199544 -1.138174 1.792828 0.037951 -0.007396 279905.000000 1 0 0
3.778765 -18.932492 5.450925 20.060680 -1.373794 1.295615 0.047931 -0.016616 124769.000000 1 0 0
10.355465 -17.796792 -2.494475 20.740874 -1.043812 1.691357 0.038489 -0.014699 632022.000000 1 0 0
-3.528535 -14.756992 7.898025 17.105501 1.336094 1.090858 0.016950 -0.029314 -15108.000000 1 0 0
-14.836935 -13.313392 -5.063575 20.567470 0.731329 1.819547 0.000228 0.009202 1694.210000 1 0 0
-9.036335 -12.868892 -7.177675 17.285333 0.958606 1.999010 0.016472 -0.006304 74413.500000 1 0 0
-11.674335 -15.161892 6.824025 20.316013 0.914631 1.228242 0.057059 -0.008715 395278.000000 1 0 0
-14.920235 -7.360592 -7.364875 18.194315 0.458297 1.987545 0.052198 -0.030422 -57097.700000 1 0 0
4.185665 -14.979792 5.909025 16.638225 -1.298325 1.207724 0.024184 -0.022032 33545.700000 1 0 0
2.615165 -14.010892 8.974925 16.843202 -1.386267 1.008830 0.012008 -0.010098 425871.000000 1 0 0
3.366665 -17.271292 10.108925 20.293406 -1.378282 1.049346 0.048163 -0.019371 398976.000000 1 0 0
-7.397635 -17.300092 -5.256675 19.535885 1.166720 1.843232 -0.009100 -0.012252 -164722.000000 1 0 0
2.569165 -19.952692 -4.223275 20.555938 -1.442738 1.777723 0.036287 -0.007438 -8689.530000 1 0 0
-18.068435 -10.789692 -1.815875 21.123048 0.538326 1.656869 0.007675 -0.008203 -330527.000000 1 0 0
-4.207835 -14.820492 2.839425 15.665733 1.294156 1.388538 -0.001176 0.001044 63297.900000 1 0 0
-11.047535 -10.034792 -14.537675 20.834804 0.737398 2.343061 0.052061 -0.006850 269194.000000 1 0 0
0.275665 -20.226592 2.421025 20.372834 -1.557168 1.451679 0.023720 -0.016226 290610.000000 1 0 0
5.480965 -18.806492 0.789425 19.604803 -1.287211 1.530518 0.019961 0.006038 123748.000000 1 0 0
-7.723135 -18.982792 -3.377375 20.770167 1.184399 1.734129 0.034634 -0.019106 5087.680000 1 0 0
-9.935735 -15.678192 -7.301275 19.945755 1.005944 1.945564 0.045480 -0.010814 151714.000000 1 0 0
-11.909635 -11.358492 -12.281675 20.535196 0.761716 2.211899 0.046612 0.002512 415570.000000 1 0 0
-13.269235 -14.863792 -3.124475 20.168471 0.842017 1.726342 0.025100 -0.016667 143084.000000 1 0 0
-0.049235 -20.437192 -2.585975 20.600206 1.568387 1.696660 0.047326 -0.015805 309628.000000 1 0 0
-11.907835 -16.746792 -0.970375 20.571660 0.952692 1.617984 0.035839 -0.003709 153089.000000 1 0 0
0.799165 -19.864392 5.394225 20.599281 -1.530587 1.305842 0.044591 -0.024034 36164.200000 1 0 0
-18.380335 -9.259592 2.224425 20.700841 0.466665 1.463133 0.075077 -0.003939 -45198.500000 1 0 0
-14.368635 -15.026392 -0.263175 20.792291 0.807771 1.583454 0.029121 -0.008922 7328.770000 1 0 0
10.452065 -15.465792 -5.090275 19.348056 -0.976485 1.837020 0.031438 -0.009211 -23685.200000 1 0 0
0.012465 -19.125392 -7.075975 20.392405 -1.570145 1.925157 0.029496 -0.007112 30486.900000 1 0 0
-9.741435 -18.028192 -2.943275 20.702032 1.075396 1.713453 0.023362 0.027411 331184.000000 1 0 0
-14.700135 -6.940792 -11.428675 19.871667 0.441127 2.183552 0.047276 -0.015215 -33333.600000 1 0 0
-12.446335 -15.264292 1.854025 19.782499 0.886742 1.476938 0.046809 -0.004347 258578.000000 1 0 0
-2.637635 -16.223592 10.013625 19.246681 1.409626 1.023620 0.017139 -0.020952 305790.000000 1 0 0
-12.596135 -14.210292 -6.402075 20.039500 0.845541 1.895969 0.028223 -0.013722 221491.000000 1 0 0
5.651065 -17.212892 -7.305575 19.534319 -1.253579 1.954100 0.021105 -0.012889 -12899.100000 1 0 0
-17.364935 -8.003692 -3.239675 19.393182 0.431890 1.738635 -0.016774 -0.004828 -146965.000000 1 0 0
-12.258135 -13.489992 -8.576575 20.144463 0.833204 2.010591 0.057827 -0.038319 244744.000000 1 0 0
-7.718335 -14.098692 10.153825 19.011732 1.069913 1.007375 0.035004 -0.007772 503129.000000 1 0 0
-15.682835 -8.523192 -5.749675 18.752463 0.497818 1.882425 0.022906 -0.001484 38679.800000 1 0 0
-0.762135 -19.761892 0.235125 19.777980 1.532250 1.558908 0.021490 -0.008351 91948.900000 1 0 0
-14.896135 -11.487392 -2.188475 18.937909 0.656910 1.686616 0.002031 0.004735 -108288.000000 1 0 0
-7.161935 -18.964692 1.665025 20.340235 1.209708 1.488846 0.030923 -0.014655 107657.000000 1 0 0
-1.951535 -20.680492 -5.340175 21.447813 1.476709 1.822428 0.028954 -0.007365 166580.000000 1 0 0
-8.642935 -19.816792 -0.751475 21.632620 1.159526 1.605541 0.025908 -0.003424 196867.000000 1 0 0
-17.837835 -7.518392 5.272825 20.062832 0.398890 1.304857 0.073650 -0.018377 149144.000000 1 0 0
-2.912535 -15.831592 -10.913975 19.448316 1.388861 2.166605 0.018633 0.000123 150083.000000 1 0 0
-3.202735 -18.483692 -7.649675 20.258872 1.399226 1.957995 0.018770 -0.002664 172616.000000 1 0 0
4.163965 -18.175892 -5.949975 19.573039 -1.345590 1.879673 0.009166 0.031609 460126.000000 1 0 0
0.555365 -17.584492 -9.496375 19.992596 -1.539224 2.065754 0.015419 0.003578 -11685.300000 1 0 0
-7.737335 -10.730992 -15.313475 20.236675 0.946097 2.429076 0.034968 0.006491 574554.000000 1 0 0
-4.964535 -19.443992 -2.157975 20.183465 1.320812 1.677919 0.021074 -0.015893 229255.000000 1 0 0
-9.925735 -16.090992 8.378125 20.679294 1.018079 1.153658 0.035668 -0.016298 284072.000000 1 0 0
-7.151235 -15.491792 -10.283075 19.921782 1.138326 2.113172 0.027123 -0.004346 326380.000000 1 0 0
-12.537435 -8.209592 -12.675575 19.627910 0.579747 2.272858 0.037102 -0.003685 192587.000000 1 0 0
-15.420835 -12.735892 3.555325 20.313676 0.690329 1.394869 0.045590 -0.006937 18966.300000 1 0 0
-5.994935 -14.418192 -12.914375 20.263380 1.176753 2.261819 0.007483 -0.002753 301448.000000 1 0 0
-13.905835 -11.118092 -6.928775 19.104767 0.674453 1.941930 0.023007 -0.025177 278061.000000 1 0 0
-11.423835 -10.343092 -9.313275 18.006127 0.735788 2.114405 0.014940 -0.004716 175406.000000 1 0 0
-9.765535 -14.720792 3.399825 17.989613 0.985070 1.380665 0.013767 -0.001469 554947.000000 1 0 0
5.387765 -17.581792 8.171625 20.122696 -1.273442 1.152625 0.071966 -0.041690 293024.000000 1 0 0
-4.942135 -16.922792 5.563325 18.486648 1.286658 1.265121 0.009257 0.015052 515810.000000 1 0 0
-18.522335 -7.321992 -7.055675 21.129860 0.376453 1.911255 0.042718 -0.017609 65531.800000 1 0 0
-17.106535 -4.533592 -10.814975 20.740074 0.259065 2.119349 0.065985 -0.008997 -161974.000000 1 0 0
-15.740535 -4.200892 -13.035775 20.864883 0.260805 2.245635 0.055159 -0.015700 155691.000000 1 0 0
-19.459535 -4.849292 -5.992275 20.930754 0.244224 1.861149 0.050762 -0.013115 100585.000000 1 0 0
5.477965 -13.452592 8.789725 16.977621 -1.184094 1.026608 0.023456 -0.005700 417849.000000 1 0 0
20.381565 -2.362492 3.021825 20.739359 -0.115398 1.424571 0.092062 -0.013046 68629.600000 1 0 0
18.022365 -2.223492 0.561525 18.167688 -0.122754 1.539883 0.034766 -0.022103 245070.000000 1 0 0
14.360665 -11.538592 0.262925 18.423814 -0.676863 1.556525 0.036466 0.004558 107652.000000 1 0 0
11.516865 -13.956692 5.510725 18.915484 -0.880886 1.275175 0.036993 0.006082 509627.000000 1 0 0
10.315365 -12.415792 8.071225 18.047253 -0.877539 1.107133 0.026155 -0.031031 34949.100000 1 0 0
17.521165 5.068108 -4.478775 18.781277 0.281571 1.811587 0.003669 0.000187 -86966.000000 1 0 0
18.726365 -6.017192 -4.554075 20.189674 -0.310902 1.798319 0.062649 -0.022900 -30396.200000 1 0 0
17.728965 -9.914992 -0.339775 20.315972 -0.509920 1.587522 0.064447 -0.005162 385744.000000 1 0 0
17.568665 -9.021392 8.538225 21.516152 -0.474384 1.162737 0.081446 -0.010276 -57911.700000 1 0 0
19.773465 0.466408 -2.369175 19.920353 0.023583 1.690011 0.059998 -0.009721 -59853.800000 1 0 0
7.632565 -13.034492 11.560325 19.020914 -1.041057 0.917548 0.016469 -0.004976 487677.000000 1 0 0
16.528765 -6.525292 -3.468175 18.105462 -0.376002 1.763542 0.064577 -0.008610 266082.000000 1 0 0
14.317365 -6.927892 11.425925 19.584035 -0.450669 0.947850 0.054192 -0.047027 419213.000000 1 0 0
17.119365 2.081508 9.362625 19.623050 0.120994 1.073417 0.123752 -0.029016 395555.000000 1 0 0
16.727965 -9.870492 2.786925 19.621885 -0.533078 1.428283 0.025932 -0.007579 416072.000000 1 0 0
16.242165 -7.221292 -5.889775 18.725502 -0.418356 1.890760 0.061088 -0.011703 350777.000000 1 0 0
19.021365 -4.803492 5.552625 20.389152 -0.247360 1.294980 0.181579 -0.023307 -192602.000000 1 0 0
13.543965 -13.304092 7.925525 20.573085 -0.776464 1.175331 0.028164 -0.010438 248632.000000 1 0 0
15.259465 -14.332192 -1.814775 21.013244 -0.754073 1.657267 0.046879 -0.000555 147428.000000 1 0 0
18.721165 -6.406092 7.826125 21.278353 -0.329695 1.194157 0.096063 -0.018236 242271.000000 1 0 0
19.422765 3.473408 2.707025 19.915732 0.176961 1.434450 0.056547 0.003617 120572.000000 1 0 0
15.635665 -10.326392 8.313425 20.499303 -0.583678 1.153219 0.043033 -0.025327 134485.000000 1 0 0
14.182065 -4.379992 10.741425 18.321941 -0.299547 0.944362 0.047060 -0.017617 -175389.000000 1 0 0
18.681765 -7.530892 1.424825 20.192890 -0.383188 1.500177 0.074251 -0.013317 179457.000000 1 0 0
18.820765 -4.905892 -1.980975 19.550275 -0.254990 1.672298 0.049761 -0.016080 359559.000000 1 0 0
14.767065 -13.640992 -5.822275 20.929447 -0.745780 1.852701 0.074847 -0.026359 530685.000000 1 0 0
13.756765 -9.661492 10.184325 19.654859 -0.612274 1.026100 0.033891 -0.020566 457838.000000 1 0 0
14.167865 2.101208 0.258525 14.325164 0.147235 1.552748 -0.000061 -0.006934 -417438.000000 1 0 0
12.810665 2.735708 13.798425 19.026134 0.210389 0.759420 0.022204 -0.004962 115708.000000 1 0 0
17.954865 -3.795592 9.241125 20.547071 -0.208329 1.104307 0.065948 -0.016265 60787.800000 1 0 0
7.063165 -18.076892 4.906425 20.018375 -1.198308 1.323178 0.037146 -0.030684 356691.000000 1 0 0
12.761065 -2.854992 15.075125 19.956332 -0.220102 0.714523 0.039898 -0.001854 224621.000000 1 0 0
11.451565 -13.347292 -6.929875 18.902691 -0.861694 1.946157 0.031380 -0.027286 71391.200000 1 0 0
10.680765 -17.896492 4.584825 21.339723 -1.032727 1.354259 0.030233 -0.010285 557500.000000 1 0 0
18.366765 -0.235992 -4.322575 18.870040 -0.012848 1.801919 0.069521 -0.024437 178200.000000 1 0 0
4.537965 -13.612392 11.887325 18.633273 -1.249013 0.878947 0.010471 -0.004018 364820.000000 1 0 0
9.403965 -2.639692 14.434025 17.428242 -0.273658 0.594913 0.031705 -0.008830 483124.000000 1 0 0
8.848365 -9.258692 13.820125 18.841784 -0.808055 0.747364 0.015695 -0.015718 373094.000000 1 0 0
21.036065 5.419808 -3.366075 21.982284 0.252160 1.724528 0.089712 -0.008455 528431.000000 1 0 0
14.830665 -13.535792 2.169925 20.195912 -0.739782 1.463145 0.028998 0.007786 336974.000000 1 0 0
10.705265 -0.007192 14.409825 17.951207 -0.000672 0.638951 0.024639 -0.022178 45890.700000 1 0 0
19.952265 -0.344792 7.397125 21.282134 -0.017279 1.215813 0.156837 -0.026558 74833.700000 1 0 0
19.903265 1.114608 0.317325 19.936976 0.055943 1.554879 0.062830 -0.012585 129580.000000 1 0 0
17.883765 0.186108 3.117425 18.154395 0.010406 1.398224 0.038679 -0.003662 -60735.300000 1 0 0
10.058065 -8.225992 16.326425 20.865852 -0.685531 0.672210 0.024604 -0.008046 33038.200000 1 0 0
19.155165 3.081408 5.609725 20.196150 0.159499 1.289333 0.072190 -0.000199 228561.000000 1 0 0
15.266065 2.235508 6.958625 16.925505 0.145403 1.147100 0.046101 -0.013535 30072.400000 1 0 0
11.537165 -16.019592 1.899125 19.832806 -0.946648 1.474893 0.021100 0.000897 259854.000000 1 0 0
7.919965 -16.632892 6.823825 19.645446 -1.126400 1.216054 0.006284 0.000292 475143.000000 1 0 0
6.126665 6.731508 7.143825 11.570803 0.832403 0.905362 -0.000797 0.003689 -1272470.000000 1 0 0
18.474965 2.593308 -6.684175 19.817361 0.139458 1.914832 0.043635 -0.004923 236458.000000 1 0 0
14.152265 4.497708 -7.206175 16.505906 0.307714 2.022592 0.017347 -0.006567 308564.000000 1 0 0
-10.628535 -3.754292 -13.956975 17.940390 0.339547 2.462215 0.017231 -0.001127 -290040.000000 1 0 0
7.718065 -14.157692 -10.448775 19.214205 -1.071684 2.145760 0.003356 0.000763 135487.000000 1 0 0
1.761265 -15.965192 13.858525 21.214338 -1.460922 0.858911 0.017518 -0.009521 441874.000000 1 0 0
-9.443135 -7.814292 1.953525 12.411777 0.691292 1.412746 0.009566 0.003234 252172.000000 1 0 0
-13.717435 2.911308 -9.813275 17.115609 -0.209131 2.181388 0.013272 -0.005969 421807.000000 1 0 0
-12.839235 -5.206792 -13.030775 19.019929 0.385271 2.325553 0.027076 -0.005910 144836.000000 1 0 0
-18.012035 -1.218092 -8.911675 20.132935 0.067524 2.029339 0.061536 -0.022251 472936.000000 1 0 0
-12.275335 15.275808 4.182525 20.038155 -0.893876 1.360522 0.033298 -0.018230 500350.000000 1 0 0
-17.660535 6.236208 9.439625 20.973586 -0.339448 1.103950 0.052659 -0.017389 248825.000000 1 0 0
-12.949235 15.307308 0.106225 20.050128 -0.868658 1.565498 0.052770 -0.032276 138120.000000 1 0 0
-16.028035 5.569608 -10.469575 19.938165 -0.334438 2.123632 0.038509 -0.007319 -107733.000000 1 0 0
-17.756035 2.718508 0.181325 17.963851 -0.151924 1.560702 0.028686 0.002690 -56519.600000 1 0 0
-9.709835 15.471908 -0.232675 18.267867 -1.010345 1.583533 0.021012 -0.016965 -44222.500000 1 0 0
-18.429935 12.264408 3.470525 22.408096 -0.587168 1.415292 0.134751 -0.022492 73678.900000 1 0 0
-8.720635 16.166108 -7.824375 19.965304 -1.076097 1.973491 0.057327 -0.030049 104514.000000 1 0 0
-14.919235 -2.105492 -13.289875 20.090730 0.140200 2.293604 0.041102 -0.011659 156804.000000 1 0 0
-18.830535 5.528508 -4.471075 20.128188 -0.285568 1.794795 0.047886 0.004078 -210756.000000 1 0 0
-16.730235 9.190408 -5.998275 20.008589 -0.502328 1.875264 0.040184 0.003517 -193025.000000 1 0 0
-18.964335 1.341308 2.869625 19.227060 -0.070610 1.420987 0.051803 -0.015325 410238.000000 1 0 0
-13.785335 11.564608 -6.660675 19.186980 -0.698018 1.925322 0.027381 -0.015096 -55634.000000 1 0 0
-13.914235 4.465108 -12.214775 19.045835 -0.310521 2.267034 0.081727 -0.031283 85949.900000 1 0 0
-14.063035 9.250608 -6.504175 18.045692 -0.581836 1.939523 0.012311 -0.004930 74932.100000 1 0 0
-6.613135 11.473208 -15.274275 20.215626 -1.047912 2.427317 0.014728 -0.020886 48983.100000 1 0 0
-15.062235 13.880908 3.523825 20.783837 -0.744605 1.400427 0.055024 -0.025802 134358.000000 1 0 0
-18.754635 8.354308 -4.718375 21.066415 -0.419066 1.796689 0.068348 -0.006674 196124.000000 1 0 0
-4.749135 16.322108 -11.087075 20.295042 -1.287651 2.148730 0.019639 -0.004348 119573.000000 1 0 0
-19.350135 -1.638592 -6.879975 20.602105 0.084480 1.911282 0.042102 -0.012081 -272852.000000 1 0 0
-11.974935 13.060608 -6.300075 18.806102 -0.828736 1.912403 0.051618 -0.032440 38222.700000 1 0 0
-19.587435 2.781208 4.473325 20.283327 -0.141047 1.348426 0.072613 -0.010481 115029.000000 1 0 0
-15.514735 13.084908 0.664825 20.306743 -0.700642 1.538051 0.052140 -0.000357 62245.100000 1 0 0
-17.229535 2.685708 -8.310875 19.316846 -0.154634 2.015555 0.003465 -0.011622 114387.000000 1 0 0
-16.302835 14.098008 -3.936675 21.909670 -0.713000 1.751455 0.034792 0.036500 63247.700000 1 0 0
-10.794335 15.523208 -8.794875 20.852757 -0.963186 2.006183 0.040931 -0.017149 129451.000000 1 0 0
-19.069435 2.093008 -6.953775 20.405367 -0.109320 1.918545 0.041371 -0.008577 15254.300000 1 0 0
-17.035435 10.424408 -0.296875 19.974044 -0.549142 1.585660 0.048023 -0.007020 -8840.890000 1 0 0
-11.582835 6.408808 -14.437175 19.587417 -0.505375 2.399512 0.031989 -0.020311 330699.000000 1 0 0
-12.741135 12.642008 -3.684075 18.322917 -0.781493 1.773240 0.035033 -0.004650 437896.000000 1 0 0
-18.972135 7.467308 0.117625 20.389125 -0.374971 1.565027 0.066187 -0.004470 188754.000000 1 0 0
-14.504435 8.906308 -10.495575 19.996451 -0.550679 2.123361 0.025148 0.006758 301161.000000 1 0 0
-18.622835 10.974008 5.362525 22.270956 -0.532498 1.327621 0.097506 -0.038611 143322.000000 1 0 0
-8.176035 12.106608 -13.521175 19.905770 -0.976816 2.317549 0.004696 0.002153 418021.000000 1 0 0
-21.216935 -1.730192 -5.157775 21.903299 0.081368 1.808508 0.061766 -0.014733 265079.000000 1 0 0
-10.999835 14.003008 -3.887375 18.226143 -0.904939 1.785733 0.030046 0.009828 445705.000000 1 0 0
-18.585135 -5.130792 3.721225 19.636185 0.269360 1.380135 0.047536 -0.013666 -121636.000000 1 0 0
-11.377035 11.547508 -12.577675 20.517791 -0.792834 2.230665 0.040772 -0.008647 214091.000000 1 0 0
-14.917535 12.327908 -9.894075 21.734831 -0.690635 2.043413 0.046622 0.027550 82980.100000 1 0 0
-12.235635 9.549008 -14.248975 21.069589 -0.662691 2.313499 0.047191 -0.012423 413686.000000 1 0 0
-17.774735 -5.321292 -3.156575 18.820768 0.290882 1.739310 -0.030922 -0.004457 -323363.000000 1 0 0
-9.238235 12.481308 -11.438175 19.286261 -0.933619 2.205667 0.018026 -0.007953 -131688.000000 1 0 0
-15.209135 7.730608 -8.184675 18.922711 -0.470255 2.018095 0.003914 0.007324 -47236.400000 1 0 0
-14.411635 8.960208 2.110225 17.100690 -0.556248 1.447081 0.021572 -0.000232 -2843.200000 1 0 0
-19.994835 5.996408 8.028025 22.365141 -0.291363 1.203651 0.075338 -0.020078 314980.000000 1 0 0
-18.722635 6.073408 3.705725 20.028873 -0.313679 1.384705 0.037788 0.000800 271756.000000 1 0 0
-14.366135 12.789008 5.931125 20.127663 -0.727385 1.271681 0.030756 -0.020775 154383.000000 1 0 0
18.106365 6.104308 5.760525 19.957122 0.325169 1.277985 0.060100 -0.011333 288296.000000 1 0 0
18.436965 8.076608 0.365925 20.131746 0.412885 1.552619 0.048457 0.009602 130935.000000 1 0 0
15.826565 5.133808 9.100325 18.964495 0.313670 1.070300 0.040969 0.002097 -153680.000000 1 0 0
11.702765 13.076608 10.937025 20.677788 0.840784 1.013461 0.050880 -0.024034 83971.600000 1 0 0
15.624765 12.581508 4.257625 20.507438 0.677921 1.361661 0.061844 -0.004585 298391.000000 1 0 0
5.215865 10.567508 14.569325 18.738803 1.112301 0.680124 0.017151 -0.008774 312120.000000 1 0 0
12.743165 14.352208 -4.996175 19.832698 0.844713 1.825456 0.052249 0.017608 212192.000000 1 0 0
17.810465 9.396008 -2.908575 20.345944 0.485448 1.714244 0.031172 0.000733 -111970.000000 1 0 0
14.111265 7.800408 9.483125 18.705717 0.504974 1.039137 0.051839 -0.013542 163460.000000 1 0 0
4.797965 18.822308 -1.562775 19.486971 1.321203 1.651078 0.021400 -0.025806 477114.000000 1 0 0
-4.653535 18.721808 3.089025 19.537235 -1.327171 1.412020 0.013774 -0.033126 213131.000000 1 0 0
6.544865 12.803408 12.691725 19.179218 1.098244 0.847654 0.018328 -0.011727 -166421.000000 1 0 0
0.275365 17.023608 -10.082675 19.787354 1.554622 2.105460 0.017119 -0.000580 50279.300000 1 0 0
10.645465 9.456708 15.775025 21.251040 0.726331 0.734273 0.050125 -0.017088 118254.000000 1 0 0
-1.383935 12.263008 0.832125 12.368875 -1.458417 1.503470 -0.003690 0.001131 526069.000000 1 0 0
-4.906835 19.117808 -2.509175 19.896321 -1.319556 1.697246 0.027644 -0.001753 76854.100000 1 0 0
6.167165 18.268808 6.353425 20.301461 1.245230 1.252495 0.029481 -0.024167 133355.000000 1 0 0
11.328265 17.468208 -1.690975 20.888449 0.995471 1.651838 0.054166 -0.015795 574457.000000 1 0 0
18.644865 10.477908 3.288225 21.638623 0.511989 1.418244 0.065607 -0.010741 383470.000000 1 0 0
11.753465 16.779108 6.508525 21.495193 0.959747 1.263178 0.056588 -0.002534 -102361.000000 1 0 0
18.064065 7.243508 -5.848075 20.321881 0.381359 1.862696 0.035738 0.004522 419221.000000 1 0 0
0.049065 15.308608 11.104425 18.912011 1.567591 0.943247 0.005505 -0.006370 182632.000000 1 0 0
1.372565 20.219908 -1.722975 20.339549 1.503018 1.655609 0.032207 -0.014012 251599.000000 1 0 0
13.908865 9.705708 -1.571975 17.033156 0.609253 1.663217 0.019242 -0.003142 -588943.000000 1 0 0
10.015365 17.431108 1.429625 20.154278 1.049286 1.499803 0.041442 -0.023717 211583.000000 1 0 0
0.412465 17.824508 -0.390175 17.833549 1.547660 1.592677 0.001214 -0.003451 60133.300000 1 0 0
-0.151935 20.863008 1.019525 20.888457 -1.563514 1.521969 0.022253 -0.013790 308596.000000 1 0 0
6.218665 17.421408 -0.246175 18.499672 1.227939 1.584104 0.016982 -0.029550 -74556.500000 1 0 0
7.292965 18.804308 -2.841975 20.368264 1.200821 1.710783 0.010858 -0.019388 36163.400000 1 0 0
10.305565 9.688008 12.604125 18.945347 0.754520 0.842916 0.035687 -0.016529 208561.000000 1 0 0
12.922365 14.685508 8.334325 21.262941 0.849175 1.168030 0.059953 -0.021736 184826.000000 1 0 0
0.273165 17.725008 6.739525 18.965014 1.555386 1.207490 0.010124 -0.012297 163339.000000 1 0 0
7.173365 17.823508 -7.971875 20.801091 1.188165 1.964101 0.024111 -0.022554 -23836.400000 1 0 0
-1.319535 18.566608 9.219525 20.771610 -1.499845 1.110903 0.040380 -0.019116 185267.000000 1 0 0
16.272165 6.817808 -7.938275 19.346371 0.396766 1.993605 0.051140 -0.002984 -265026.000000 1 0 0
-5.105135 19.938708 -6.601275 21.614609 -1.320140 1.881163 0.016337 -0.011973 329286.000000 1 0 0
3.775765 15.504408 9.864625 18.760435 1.331918 1.017117 0.014937 -0.008890 242337.000000 1 0 0
8.861765 14.952408 7.486925 18.925101 1.035788 1.164066 0.025901 -0.008564 -60521.600000 1 0 0
-2.701635 19.798808 6.201025 20.922341 -1.435180 1.269893 0.018424 -0.011439 94751.700000 1 0 0
5.025965 17.991008 8.230525 20.412698 1.298381 1.155779 0.027822 -0.013255 -93277.500000 1 0 0
14.636665 12.147708 -6.640375 20.146795 0.692739 1.906676 0.042433 -0.013430 90567.300000 1 0 0
11.723665 7.007608 15.606425 20.739128 0.538750 0.718929 0.054035 -0.016869 295780.000000 1 0 0
17.196465 8.914608 5.010525 20.007349 0.478257 1.317668 0.065184 -0.014563 139569.000000 1 0 0
5.029765 15.044508 12.011825 19.897731 1.248153 0.922690 0.008447 -0.020884 429002.000000 1 0 0
15.857965 10.739808 -3.879075 19.541386 0.595294 1.770629 0.051527 -0.012343 205937.000000 1 0 0
15.517465 13.872308 6.561625 21.824014 0.729479 1.265411 0.076123 -0.004584 443326.000000 1 0 0
12.730665 14.721708 -8.039875 21.057970 0.857799 1.962536 0.098365 -0.024644 132632.000000 1 0 0
-8.800935 15.384508 9.700825 20.205087 -1.051171 1.070007 0.039780 -0.021224 149266.000000 1 0 0
-3.894435 17.365308 -7.960975 19.496094 -1.350181 1.991428 0.010681 0.024612 170260.000000 1 0 0
2.495565 19.615508 -4.380775 20.253079 1.444252 1.788821 0.027819 -0.021149 222132.000000 1 0 0
7.058865 16.095008 9.101825 19.791920 1.157484 1.092941 0.029014 -0.024078 482862.000000 1 0 0
13.611265 15.202608 -1.422375 20.455048 0.840570 1.640389 0.081142 -0.026336 254126.000000 1 0 0
12.990865 16.636508 4.405625 21.562596 0.907833 1.365029 0.068896 -0.025015 370036.000000 1 0 0
2.977365 18.311808 0.537025 18.560049 1.409614 1.541858 0.025214 -0.026364 62563.700000 1 0 0
-6.850335 17.768908 1.771525 19.125885 -1.202832 1.478039 -0.009257 0.011652 62669.900000 1 0 0
0.230465 20.002908 -5.800975 20.828364 1.559275 1.853042 0.036698 -0.000224 220416.000000 1 0 0
-7.522835 18.043108 -6.223375 20.515292 -1.175775 1.879006 0.052416 -0.023821 133948.000000 1 0 0
-7.001035 18.507608 -1.254375 19.827241 -1.209154 1.634104 0.034578 -0.011034 41859.000000 1 0 0
-14.389235 -8.964692 8.736525 19.072038 0.557170 1.094962 0.075489 -0.023799 310944.000000 1 0 0
-13.157035 -13.520192 7.980925 20.484099 0.799010 1.170582 0.063785 -0.011533 130878.000000 1 0 0
-3.878035 -15.893692 12.727625 20.727784 1.331474 0.909631 0.029728 -0.008739 -1321.140000 1 0 0
-2.257435 -14.846192 14.651025 20.979942 1.419897 0.797728 0.027519 -0.028333 437766.000000 1 0 0
-6.624635 -14.302692 13.307425 20.628629 1.137041 0.869649 -0.002374 -0.006867 77204.900000 1 0 0
-9.984135 -11.158892 11.770025 19.045664 0.840903 0.904613 0.059677 -0.020281 -365093.000000 1 0 0
-7.490135 -10.499792 12.980825 18.298895 0.951160 0.782182 0.024245 -0.015860 380119.000000 1 0 0
-15.216435 -12.012692 6.831025 20.554988 0.668278 1.232024 0.071445 -0.016281 192472.000000 1 0 0
-4.529235 -11.982592 13.094925 18.318666 1.209412 0.774400 0.013096 -0.027784 329133.000000 1 0 0
3.532965 -12.127192 13.950325 18.819198 -1.287316 0.735819 -0.001352 -0.000981 457190.000000 1 0 0
6.664965 -13.458892 14.640225 20.973787 -1.110989 0.798161 0.017595 0.001408 287868.000000 1 0 0
7.172065 -8.707992 16.561825 20.039005 -0.881819 0.597971 0.023855 -0.012677 445229.000000 1 0 0
-5.383935 13.182008 13.721125 19.774260 -1.183043 0.803922 0.016380 -0.006407 483191.000000 1 0 0
-13.313435 -2.207192 17.634625 22.205838 0.164292 0.653199 0.048316 -0.007984 388747.000000 1 0 0
-10.387935 9.442008 13.109425 19.207231 -0.737732 0.819584 0.030396 -0.005926 470643.000000 1 0 0
-7.284135 -8.274692 17.053725 20.306617 0.848978 0.573861 0.017295 -0.016813 87200.100000 1 0 0
-4.948835 1.991908 18.232525 18.996938 -0.382660 0.284645 0.022917 -0.009801 513303.000000 1 0 0
-15.022435 -4.260092 13.325725 20.527954 0.276327 0.864330 0.055495 -0.024874 143831.000000 1 0 0
-14.570135 3.486408 12.956225 19.806757 -0.234868 0.857762 0.037645 -0.002161 331497.000000 1 0 0
-13.839335 10.819108 10.799325 20.620517 -0.663523 1.019587 -0.032340 0.038920 -47520.200000 1 0 0
-4.037735 11.272508 15.897925 19.902683 -1.226841 0.645527 0.000429 0.003693 209584.000000 1 0 0
-13.508835 12.629008 8.521025 20.361442 -0.751750 1.139016 0.028445 -0.026484 161391.000000 1 0 0
-3.867035 -6.398292 18.656725 20.098893 1.027158 0.381126 0.031706 -0.019443 224908.000000 1 0 0
0.070665 -2.655692 17.687925 17.886319 -1.544194 0.149080 0.004405 -0.027886 -167459.000000 1 0 0
-4.695535 6.425608 21.071425 22.524241 -0.939727 0.361125 0.048147 -0.000914 365410.000000 1 0 0
1.847165 -10.848792 16.605225 19.920889 -1.402149 0.585278 0.009796 0.002232 343945.000000 1 0 0
-15.036935 -0.254192 13.675925 20.327443 0.016903 0.832835 0.034018 -0.013108 14454.400000 1 0 0
-13.854935 -6.193792 8.470025 17.379977 0.420395 1.061751 0.054522 -0.010433 133179.000000 1 0 0
9.769965 0.214408 16.973025 19.585244 0.021942 0.522402 0.030798 0.015913 485844.000000 1 0 0
-7.859435 12.256908 11.553725 18.587390 -1.000615 0.900026 0.023778 -0.017031 18636.400000 1 0 0
-2.068435 7.532208 20.003825 21.474767 -1.302791 0.372271 0.052948 -0.007132 596712.000000 1 0 0
1.159365 -14.039192 15.465925 20.919796 -1.488403 0.738772 0.011377 0.000582 552816.000000 1 0 0
-3.716935 -11.606392 18.447025 22.109199 1.260868 0.583826 0.031981 0.001189 344553.000000 1 0 0
-2.211535 8.950408 16.730525 19.102648 -1.328561 0.503659 0.019637 -0.000603 621051.000000 1 0 0
-5.758735 -8.730492 20.202425 22.749121 0.987694 0.477704 0.110619 -0.046348 177232.000000 1 0 0
-6.796135 -2.759092 19.095125 20.455411 0.385651 0.366744 0.037177 -0.024869 223336.000000 1 0 0
-10.801635 -8.049292 15.860925 20.809502 0.640417 0.704097 0.057701 -0.027683 210862.000000 1 0 0
-0.560935 5.690108 17.840425 18.734267 -1.472533 0.310148 0.027299 -0.013902 -101871.000000 1 0 0
-6.471435 -10.982492 19.024725 22.900541 1.038319 0.590335 0.061960 -0.014993 463982.000000 1 0 0
0.577265 3.675008 18.994125 19.354992 1.414991 0.193406 0.019708 -0.003743 35170.500000 1 0 0
-18.175335 -1.145692 7.660025 19.756806 0.062952 1.172644 0.046238 -0.014147 23674.400000 1 0 0
-1.594035 -8.812792 17.614025 19.760064 1.391854 0.470382 0.023091 -0.011701 390701.000000 1 0 0
5.685065 3.486008 15.092125 16.499832 0.550059 0.416072 -0.002098 -0.007408 363694.000000 1 0 0
-14.696435 -7.471292 10.654525 19.629679 0.470325 0.997057 0.118690 -0.002124 113451.000000 1 0 0
3.879765 8.202808 16.508025 18.837557 1.128997 0.502594 0.013868 -0.022597 198169.000000 1 0 0
6.270965 4.465908 17.613725 19.222712 0.618838 0.412060 0.023178 -0.030083 316783.000000 1 0 0
5.821965 -9.335292 18.146725 21.221371 -1.013168 0.545023 0.034216 0.002670 343554.000000 1 0 0
-4.480635 -0.581092 19.766225 20.276031 0.128970 0.224719 0.031587 -0.020665 616596.000000 1 0 0
-11.523035 1.941308 16.871225 20.522847 -0.166905 0.605759 0.058108 -0.016703 218988.000000 1 0 0
-16.739035 -4.189092 8.724025 19.335263 0.245222 1.102689 0.072017 -0.027330 292317.000000 1 0 0
-13.021235 -9.569392 12.285825 20.299441 0.633771 0.920742 0.082887 -0.042273 89666.500000 1 0 0
-15.126735 6.125108 12.498325 20.555855 -0.384740 0.917235 0.059144 -0.034516 436586.000000 1 0 0
1.153465 9.098308 16.930225 19.254668 1.444691 0.496450 0.014721 -0.020911 309940.000000 1 0 0
-3.844535 -10.332692 15.109525 18.704083 1.214593 0.630353 0.016470 -0.010881 716853.000000 1 0 0
-18.471535 -4.407692 7.185825 20.304222 0.234240 1.209050 0.116865 -0.010688 -119296.000000 1 0 0
-0.719835 -0.342392 21.032225 21.047325 0.443981 0.037882 0.027052 -0.020590 556004.000000 1 0 0
-1.822435 2.697608 20.299325 20.558720 -0.976652 0.159021 0.027454 -0.011939 -91665.500000 1 0 0
-8.241435 2.548708 16.082925 18.250415 -0.299926 0.492325 0.018134 0.002644 564609.000000 1 0 0
2.478465 -2.005892 18.782025 19.050745 -0.680403 0.168159 0.007989 -0.016766 84124.100000 1 0 0
-11.771435 3.709208 14.901825 19.349142 -0.305254 0.691713 -0.005622 -0.002253 113068.000000 1 0 0
-12.780735 -5.676692 13.333025 19.322049 0.417987 0.809249 0.017659 -0.019455 -315014.000000 1 0 0
-17.512935 -0.835592 10.313225 20.341183 0.047677 1.039082 0.077634 -0.016917 122384.000000 1 0 0
-7.674135 7.637608 14.786025 18.326264 -0.783013 0.632044 0.012062 -0.001750 133804.000000 1 0 0
-9.713635 0.735608 14.015625 17.068496 -0.075585 0.607391 0.022694 -0.009085 268536.000000 1 0 0
7.872865 -0.787692 14.652925 16.652648 -0.099720 0.495112 0.022127 -0.017468 69548.700000 1 0 0
3.980965 6.166208 18.370625 19.782570 0.997513 0.380102 0.006255 -0.009597 -181439.000000 1 0 0
2.101765 0.694008 19.946825 20.069253 0.318930 0.110512 0.019982 -0.014065 272434.000000 1 0 0
-6.960835 6.990908 17.981925 20.510379 -0.787554 0.501790 0.004296 0.012575 592212.000000 1 0 0
7.556365 -3.064992 16.855925 18.724718 -0.385339 0.450576 0.019623 -0.005766 488025.000000 1 0 0
-16.583035 2.476008 9.299925 19.173322 -0.148215 1.064382 0.048464 -0.017136 169926.000000 1 0 0
4.034765 -5.596992 19.159125 20.363638 -0.946193 0.345666 0.037267 -0.020422 -17889.700000 1 0 0
-3.866135 -3.644292 20.461225 21.139764 0.755869 0.254051 0.033309 -0.032197 257294.000000 1 0 0
-10.035535 5.672808 14.441625 18.478454 -0.514493 0.673668 0.034718 -0.004035 78419.900000 1 0 0
6.788565 2.531208 19.709125 20.998601 0.356896 0.352269 0.048501 -0.023047 -30222.100000 1 0 0
-7.184035 11.462808 14.405425 19.761645 -1.010957 0.753997 0.016818 -0.011653 261061.000000 1 0 0
-14.497235 4.868008 8.650625 17.569879 -0.323959 1.056002 0.025199 -0.024350 74538.100000 1 0 0
0.427465 -5.454892 20.513425 21.230619 -1.492592 0.260665 0.029045 -0.019533 54588.500000 1 0 0
-5.996135 -8.181292 13.706725 17.051730 0.938324 0.637087 0.004263 -0.008251 253230.000000 1 0 0
-12.914435 10.234008 6.523025 17.721947 -0.670119 1.193857 -0.002371 -0.015131 26410.200000 1 0 0
-19.651835 2.020908 7.935125 21.289549 -0.102475 1.188854 0.051839 -0.015952 -1292.590000 1 0 0
-16.023835 9.120208 6.304225 19.485501 -0.517438 1.241334 0.033201 -0.013597 41373.800000 1 0 0
-12.909735 6.515608 14.356325 20.376910 -0.467405 0.789023 0.040515 -0.019685 92094.900000 1 0 0
-16.754435 8.739808 10.773425 21.752288 -0.480811 1.052642 0.048201 -0.021745 456065.000000 1 0 0
2.447765 10.816508 14.228125 18.039622 1.348246 0.662080 0.015136 -0.055087 560264.000000 1 0 0
1.578865 14.868308 12.803525 19.684757 1.465003 0.862648 0.013239 -0.025874 458102.000000 1 0 0
8.099365 5.211208 15.866525 18.560793 0.571728 0.545552 0.009189 -0.024248 172980.000000 1 0 0
-0.596235 13.417008 13.366525 18.948235 -1.526387 0.787776 0.005728 0.002531 234556.000000 1 0 0
3.849365 13.194608 14.938825 20.299847 1.286937 0.743789 0.026374 0.000032 206816.000000 1 0 0
-3.651235 -4.451892 -13.483275 14.661158 0.883887 2.738009 0.008461 -0.004919 113221.000000 1 0 0
5.359365 -11.846992 16.950725 21.363546 -1.145963 0.654354 -0.031170 0.016614 305363.000000 1 0 0
8.697165 -14.124692 7.162525 18.067910 -1.018882 1.163180 0.005148 0.002874 253292.000000 1 0 0
-0.438635 15.209608 0.697525 15.231911 -1.541965 1.524987 -0.000703 -0.005523 -372170.000000 1 0 0
-14.338235 8.283708 8.404725 18.569981 -0.523888 1.101120 0.021653 -0.003364 41687.800000 1 0 0
-16.214335 -9.470592 4.711325 19.359580 0.528637 1.324969 0.058293 -0.011369 282139.000000 1 0 0
8.879065 -10.357592 11.456725 17.814996 -0.862107 0.872264 -0.002409 -0.001682 124378.000000 1 0 0
-26.149545 5.969508 31.248563 41.181384 -0.224437 0.709323 0.098060 -0.025019 -279544.000000 0 0 1
-25.074335 5.083608 31.025503 40.213768 -0.200030 0.689578 0.098457 -0.025576 -276743.000000 0 0 1
-23.958035 5.658908 31.665833 40.109047 -0.231950 0.660813 0.090565 -0.026473 -166834.000000 0 0 1
-22.680535 4.803008 31.475033 39.091600 -0.208685 0.634849 0.093174 -0.025065 -251471.000000 0 0 1
-22.521235 3.534708 32.032821 39.316686 -0.155680 0.618518 0.064106 -0.021781 127541.000000 0 0 1
-21.289935 2.898808 31.726713 38.317733 -0.135326 0.595282 0.066195 -0.017269 338767.000000 0 0 1
-21.116735 1.553308 32.552550 38.832946 -0.073426 0.576691 0.053904 -0.015734 -180253.000000 0 0 1
-21.490435 0.354508 31.953354 38.509496 -0.016495 0.592132 0.068941 -0.015460 75735.100000 0 0 1
-21.680335 -0.656092 32.875956 39.386493 0.030253 0.583206 0.056458 -0.011920 -176952.000000 0 0 1
-22.460535 -1.853992 32.312724 39.395749 0.082358 0.609021 0.061159 -0.023555 -139684.000000 0 0 1
-21.660535 -2.757592 31.518163 38.342896 0.126628 0.605868 0.088046 -0.033928 408811.000000 0 0 1
-21.897735 -4.136692 31.736913 38.779564 0.186709 0.612188 0.084880 -0.036914 36497.600000 0 0 1
-23.286535 -4.841792 31.497613 39.469041 0.205002 0.646772 0.058857 -0.024723 1083080.000000 0 0 1
-24.380835 -4.415392 32.324101 40.727979 0.179159 0.653997 0.049786 -0.023275 608830.000000 0 0 1
-24.305535 -4.832892 33.642186 41.784118 0.196279 0.634880 0.043768 -0.024622 -1088970.000000 0 0 1
-25.487445 -4.401292 -33.433855 42.270602 0.170998 2.483153 0.051674 -0.019209 -366510.000000 0 0 1
-25.525425 -4.915692 -32.128025 41.327004 0.190251 2.461334 0.050631 -0.024032 338941.000000 0 0 1
-26.782205 -4.603692 -31.543805 41.635226 0.170230 2.430460 0.060541 -0.023703 25060.000000 0 0 1
-26.950925 -5.102492 -30.110895 40.731483 0.187111 2.402758 0.060288 -0.018979 -416781.000000 0 0 1
-27.194005 -6.504092 -30.082845 41.070605 0.234764 2.392734 0.059704 -0.028372 463563.000000 0 0 1
-27.161485 -6.862192 -28.700535 40.106815 0.247466 2.368283 0.054257 -0.019652 -140185.000000 0 0 1
-27.287595 -8.381092 -28.464495 40.312318 0.297994 2.354771 0.051556 -0.014044 300733.000000 0 0 1
-28.605515 -8.801292 -28.126495 41.071132 0.298486 2.325158 0.055800 -0.016917 209116.000000 0 0 1
-28.630435 -10.191992 -28.185915 41.449056 0.341996 2.318577 0.053078 -0.004708 820752.000000 0 0 1
-30.039655 -10.730192 -27.754325 42.282625 0.343075 2.286833 0.080997 -0.005116 865345.000000 0 0 1
-30.256965 -10.548092 -26.359385 41.491726 0.335442 2.259184 0.087624 -0.006975 585775.000000 0 0 1
-31.611935 -10.883992 -26.028125 42.370260 0.331588 2.232297 0.092915 -0.011896 543701.000000 0 0 1
-31.703215 -11.603492 -24.654275 41.803924 0.350860 2.201558 0.102620 -0.003126 121747.000000 0 0 1
-31.033355 -10.982692 -23.563175 40.483476 0.340145 2.192037 0.098671 -0.000005 393843.000000 0 0 1
-31.168385 -11.808392 -22.428275 40.173795 0.362149 2.163109 0.111592 -0.005539 -9549.140000 0 0 1
-30.567595 -11.020892 -21.208575 38.802597 0.346035 2.149066 0.125130 -0.012787 38367.900000 0 0 1
-30.344315 -11.657392 -19.973675 38.152587 0.366786 2.121774 0.127363 -0.013802 659062.000000 0 0 1
-29.423855 -12.774792 -19.871275 37.733620 0.409607 2.125416 0.118188 -0.013317 77035.800000 0 0 1
-29.064285 -12.981992 -18.405775 36.770060 0.420077 2.095047 0.123484 -0.022798 -39730.500000 0 0 1
-28.418605 -11.895692 -17.784475 35.572631 0.396427 2.094335 0.126274 -0.021110 136800.000000 0 0 1
-28.166605 -12.180492 -16.453375 34.820045 0.408159 2.062951 0.128501 -0.030875 -80290.800000 0 0 1
-27.789885 -10.804292 -15.826075 33.756111 0.370801 2.058769 0.131411 -0.026632 -17000.700000 0 0 1
-26.506835 -10.266792 -16.081675 32.659448 0.369533 2.085647 0.117134 -0.023677 277102.000000 0 0 1
-26.321145 -8.987392 -15.520875 31.850799 0.329039 2.079791 0.121861 -0.031136 224982.000000 0 0 1
-24.830835 -8.553992 -15.658075 30.576403 0.331758 2.108420 0.116983 -0.025331 234136.000000 0 0 1
-23.933835 -9.139192 -14.745975 29.560058 0.364765 2.093065 0.088082 -0.023349 -486093.000000 0 0 1
-22.699135 -8.520992 -14.972975 28.496456 0.359111 2.124020 0.127485 -0.053690 -666195.000000 0 0 1
-21.612435 -8.955192 -13.993975 27.260303 0.392819 2.109876 0.102341 -0.026896 -443050.000000 0 0 1
-20.940235 -10.153192 -14.299075 27.313811 0.451467 2.121763 0.086026 -0.015873 -266752.000000 0 0 1
-19.784735 -10.199492 -13.522575 26.044680 0.475989 2.116719 0.102233 -0.012411 -151421.000000 0 0 1
-18.723035 -11.249992 -13.979675 25.933485 0.541054 2.140116 0.097837 -0.007802 456388.000000 0 0 1
-18.021635 -10.902592 -15.196875 25.972886 0.544068 2.195806 0.115318 -0.027224 679880.000000 0 0 1
-18.700935 -11.332792 -16.384075 27.323891 0.544821 2.213828 0.100951 -0.027832 -43887.600000 0 0 1
-18.008635 -10.856392 -17.725675 27.502213 0.542508 2.271189 0.108131 -0.027631 -60967.100000 0 0 1
-18.650135 -11.048392 -18.993075 28.820676 0.534815 2.290296 0.078070 -0.017639 169755.000000 0 0 1
-18.161435 -10.141292 -20.015375 28.866914 0.509267 2.336948 0.078601 -0.016695 -178374.000000 0 0 1
-18.788935 -10.375392 -21.419475 30.322709 0.504536 2.355173 0.090738 -0.010679 -507166.000000 0 0 1
-20.070735 -9.807892 -21.355575 30.904525 0.454540 2.333692 0.085920 -0.019723 -502907.000000 0 0 1
-20.870735 -10.501892 -22.295975 32.295321 0.466194 2.332808 0.093948 -0.009772 -469968.000000 0 0 1
-21.997735 -9.659192 -22.850975 33.156709 0.413752 2.331155 0.085286 -0.007713 -647800.000000 0 0 1
-21.566135 -8.577692 -23.573275 33.081328 0.378556 2.363973 0.082679 -0.029650 -303991.000000 0 0 1
-22.506735 -8.128292 -24.503675 34.249851 0.346573 2.368048 0.090191 -0.021504 -373504.000000 0 0 1
-21.903835 -7.482792 -25.771845 34.640412 0.329190 2.409806 0.086100 -0.029868 381082.000000 0 0 1
-20.992735 -8.379792 -26.447895 34.790903 0.379796 2.434411 0.092825 -0.035446 719122.000000 0 0 1
-20.090535 -7.667792 -27.275075 34.732612 0.364598 2.473956 0.085637 -0.053948 209047.000000 0 0 1
-18.984135 -8.551692 -27.915385 34.825242 0.423241 2.500738 0.094078 -0.056972 -91801.700000 0 0 1
-19.484535 -9.443692 -28.885975 36.100276 0.451314 2.498357 0.097806 -0.050527 266649.000000 0 0 1
-18.396935 -10.157692 -29.408115 36.145029 0.504485 2.521138 0.085546 -0.045665 -79558.400000 0 0 1
-18.847935 -11.357492 -30.277815 37.429712 0.542318 2.513117 0.079552 -0.031678 179722.000000 0 0 1
-19.561635 -10.923392 -31.471915 38.632363 0.509276 2.522924 0.089963 -0.029673 641001.000000 0 0 1
-20.161835 -12.029892 -32.100615 39.770181 0.537965 2.510110 0.073862 -0.025888 -87526.100000 0 0 1
-20.671235 -11.600292 -33.531145 41.063419 0.511386 2.526240 0.087688 -0.028304 -205912.000000 0 0 1
-19.672535 -11.459292 33.428084 40.444539 0.527454 0.597905 0.082262 -0.029941 7637.350000 0 0 1
-20.228535 -11.298892 32.116862 39.602416 0.509393 0.624967 0.082087 -0.029250 -111755.000000 0 0 1
-19.735135 -12.365192 31.153093 38.895870 0.559718 0.641940 0.096960 -0.024936 -401999.000000 0 0 1
-18.368935 -12.157792 30.836443 37.896119 0.584672 0.620290 0.100238 -0.027602 380304.000000 0 0 1
-17.690435 -13.049892 29.996883 37.189570 0.635570 0.632429 0.085796 -0.021169 11581.000000 0 0 1
-17.684135 -14.539392 30.386853 38.045806 0.688115 0.645679 0.081901 -0.013284 -636908.000000 0 0 1
-18.892435 -15.244092 30.095393 38.665735 0.678927 0.678766 0.076970 -0.014341 483240.000000 0 0 1
-18.859735 -16.524892 30.816643 39.729423 0.719509 0.683031 0.086783 -0.019090 133487.000000 0 0 1
-19.149535 -16.431692 32.284795 40.975763 0.709162 0.663405 0.065143 -0.025213 252140.000000 0 0 1
-17.991035 -15.962892 32.993348 40.829551 0.725737 0.629919 0.076308 -0.019941 567333.000000 0 0 1
-18.311135 -15.535892 -33.636195 41.328624 0.703587 2.521581 0.069427 -0.014518 -249753.000000 0 0 1
-17.106535 -15.191492 -32.761675 39.959258 0.726175 2.531992 0.053387 -0.013630 -303007.000000 0 0 1
-16.519035 -13.955292 -33.169515 39.596027 0.701468 2.563851 0.057606 -0.015128 -253325.000000 0 0 1
-15.322935 -13.579192 -32.528475 38.435510 0.725139 2.579822 0.056587 -0.007633 -516338.000000 0 0 1
-15.528735 -13.113592 -31.063835 37.122361 0.701276 2.562201 0.074094 -0.010452 -476240.000000 0 0 1
-15.749835 -14.259092 -30.241665 36.958589 0.735762 2.529171 0.053769 -0.011862 13139.100000 0 0 1
-16.222635 -13.996092 -28.919835 35.991961 0.711850 2.503961 0.041253 -0.010647 -177687.000000 0 0 1
-16.459535 -15.287892 -28.052505 35.938544 0.748510 2.466372 0.034184 -0.006127 540362.000000 0 0 1
-15.308935 -15.948892 -27.516455 35.297109 0.805869 2.464770 0.060772 -0.019272 470084.000000 0 0 1
-14.470035 -16.580892 -28.475125 35.988062 0.853274 2.483627 0.059574 -0.020406 245391.000000 0 0 1
-13.143435 -17.186392 -27.918065 35.320536 0.917917 2.482291 0.074230 -0.024301 -454692.000000 0 0 1
-12.152135 -16.255892 -27.759945 34.388122 0.928863 2.510281 0.064893 -0.028344 -891129.000000 0 0 1
-11.194935 -16.717692 -26.829325 33.535361 0.980734 2.498143 0.084706 -0.034997 -709890.000000 0 0 1
-9.780635 -16.223892 -26.944065 32.937184 1.028281 2.528798 0.078793 -0.038251 -652263.000000 0 0 1
-9.707935 -14.790392 -26.781755 32.097696 0.989958 2.557808 0.081495 -0.031016 -136945.000000 0 0 1
-8.379335 -14.323992 -26.927325 31.630220 1.041490 2.589286 0.095126 -0.038993 5540.210000 0 0 1
-8.110735 -12.820792 -27.172095 31.120402 1.006734 2.632379 0.088473 -0.041638 -192043.000000 0 0 1
-8.355835 -12.434992 -28.501215 32.198885 0.979137 2.657637 0.093238 -0.034607 167759.000000 0 0 1
-8.099835 -11.066792 -28.750655 31.854063 0.938977 2.696508 0.075382 -0.036480 571905.000000 0 0 1
-7.032935 -10.891792 -29.916835 32.605372 0.997443 2.732653 0.062907 -0.021730 736792.000000 0 0 1
-5.665835 -10.930292 -29.510155 31.975337 1.092568 2.746351 0.063864 -0.023774 508339.000000 0 0 1
-4.702735 -10.574992 -30.456715 32.581553 1.152356 2.778447 0.069608 -0.022552 -50537.100000 0 0 1
-4.705535 -9.123792 -30.958525 32.616190 1.094634 2.821406 0.058954 -0.020348 -998870.000000 0 0 1
-3.514535 -8.801092 -31.630485 33.019672 1.190868 2.850492 0.069889 -0.027997 9479.710000 0 0 1
-3.633935 -7.435492 -32.086235 33.136362 1.116207 2.889165 0.069788 -0.027234 -5179.180000 0 0 1
-2.310835 -6.801092 -32.549085 33.332232 1.243260 2.924393 0.075380 -0.033173 -54260.900000 0 0 1
-1.810235 -7.272292 -33.779705 34.601035 1.326832 2.923273 0.085437 -0.036082 19136.900000 0 0 1
-0.539735 -6.749792 33.824283 34.495407 1.491003 0.197580 0.096979 -0.030223 -106593.000000 0 0 1
0.112565 -7.310492 32.561538 33.372289 -1.555400 0.220876 0.081280 -0.026814 -123233.000000 0 0 1
-0.451135 -7.106092 31.248773 32.049740 1.507396 0.224037 0.065248 -0.019139 375869.000000 0 0 1
0.368465 -7.795792 30.306713 31.295478 -1.523567 0.252041 0.058635 -0.022355 231199.000000 0 0 1
0.103265 -7.336792 28.849613 29.768092 -1.556722 0.249056 0.057976 -0.014912 85558.400000 0 0 1
0.864065 -6.190592 28.502303 29.179638 -1.432115 0.215884 0.058461 -0.014707 139481.000000 0 0 1
0.714365 -5.767092 27.140863 27.756010 -1.447555 0.210927 0.056787 -0.015448 -410209.000000 0 0 1
-0.391335 -4.738692 26.871843 27.289270 1.488400 0.175132 0.052617 -0.013462 157470.000000 0 0 1
-1.681635 -5.314392 26.948763 27.519202 1.264335 0.203965 0.038110 -0.007946 -337324.000000 0 0 1
-2.691735 -4.365492 26.688403 27.176714 1.018265 0.189853 0.039411 -0.015824 -606797.000000 0 0 1
-4.084735 -4.848592 27.024193 27.757898 0.870697 0.230433 0.041298 -0.007883 -724159.000000 0 0 1
-4.554735 -5.933892 26.239303 27.284752 0.916139 0.277717 0.047315 -0.006207 127255.000000 0 0 1
-5.865435 -6.269892 26.704933 28.051173 0.818715 0.311066 0.041255 -0.009615 740555.000000 0 0 1
-6.078235 -7.775092 26.619093 28.389665 0.907278 0.355038 0.055656 -0.012999 -34633.100000 0 0 1
-5.372335 -8.424492 27.644743 29.394997 1.003113 0.346823 0.055763 -0.013534 -155040.000000 0 0 1
-5.589035 -9.847892 27.629983 29.860245 1.054589 0.388944 0.048960 -0.017553 132447.000000 0 0 1
-5.010735 -10.602892 28.902323 31.190912 1.129323 0.385458 0.047658 -0.016729 100946.000000 0 0 1
-5.149635 -12.020892 28.817853 31.646314 1.166057 0.426008 0.062949 -0.022511 -48686.100000 0 0 1
-4.661935 -12.670292 29.939553 32.842758 1.218228 0.423630 0.067738 -0.018015 -620952.000000 0 0 1
-4.960235 -14.126592 29.976613 33.507638 1.233117 0.463216 0.077450 -0.025883 68355.800000 0 0 1
-6.323735 -14.472792 29.803633 33.729925 1.158856 0.487309 0.090719 -0.025765 3979.720000 0 0 1
-6.651035 -15.841892 29.926533 34.507958 1.173306 0.521173 0.088817 -0.025479 131689.000000 0 0 1
-6.898835 -16.381592 31.373623 36.059044 1.172205 0.515467 0.095710 -0.027912 350777.000000 0 0 1
-8.189135 -16.232192 31.965704 36.774341 1.103556 0.517135 0.110387 -0.026799 129355.000000 0 0 1
-8.191535 -16.773992 33.247777 38.129814 1.116514 0.511599 0.109606 -0.019324 -205715.000000 0 0 1
-9.590335 -17.114892 33.849708 39.124120 1.060041 0.525272 0.104316 -0.019755 531685.000000 0 0 1
-10.216535 -18.285592 33.295962 39.336516 1.061283 0.561535 0.083461 -0.020497 360308.000000 0 0 1
-10.640435 -18.145692 31.929648 38.235943 1.040445 0.582538 0.077161 -0.026546 -1085970.000000 0 0 1
-11.360335 -19.377492 31.433653 38.634426 1.040538 0.620449 0.061300 -0.026944 -631902.000000 0 0 1
-12.554435 -19.700792 32.081729 39.685921 1.003433 0.629383 0.059665 -0.027623 -223187.000000 0 0 1
-12.874835 -21.100792 32.125203 40.534349 1.022941 0.655829 0.048653 -0.025046 -296693.000000 0 0 1
-12.092735 -21.990792 33.180195 41.602337 1.068030 0.647563 0.047401 -0.018729 -530248.000000 0 0 1
-10.699735 -21.929292 32.942308 40.994802 1.116860 0.637523 0.048340 -0.025859 -34979.300000 0 0 1
-9.957535 -22.689492 33.892448 41.984087 1.157244 0.631287 0.043909 -0.027784 -186692.000000 0 0 1
-10.235535 -24.206092 -33.734465 42.763479 1.170749 2.479751 0.047437 -0.018338 -504193.000000 0 0 1
-10.024235 -25.087212 33.114828 42.736931 1.190656 0.684314 0.049264 -0.019576 -74199.600000 0 0 1
-10.133935 -26.415702 33.539351 43.879083 1.204479 0.700750 0.063451 -0.014139 -634033.000000 0 0 1
-9.527635 -27.377212 32.435236 43.500943 1.235892 0.729329 0.052550 -0.008079 731102.000000 0 0 1
-8.125935 -27.224302 32.192291 42.936430 1.280734 0.723087 0.069079 -0.021563 568216.000000 0 0 1
-7.372635 -27.885322 33.206924 43.984619 1.312320 0.715193 0.059216 -0.017405 -1115360.000000 0 0 1
-5.909835 -27.545602 33.437204 43.723368 1.359453 0.700152 0.073760 -0.034173 -369765.000000 0 0 1
-5.673435 -26.307982 -33.887235 43.274039 1.358395 2.470407 0.074669 -0.023928 21618.400000 0 0 1
-5.578935 -25.247602 33.085260 41.990479 1.353322 0.663368 0.073800 -0.025308 -64492.600000 0 0 1
-4.995635 -23.975692 33.770254 41.715946 1.365373 0.627448 0.094440 -0.032805 631907.000000 0 0 1
-3.623835 -24.023092 -33.765745 41.597676 1.421077 2.517891 0.091482 -0.036689 617019.000000 0 0 1
-3.152235 -22.745792 -33.323795 40.469531 1.433088 2.538225 0.089438 -0.035580 115524.000000 0 0 1
34.424452 -15.997492 2.216825 38.024689 -0.435022 1.512464 0.146923 -0.050576 -9977.590000 0 0 1
35.312432 -16.404792 3.263725 39.073481 -0.434897 1.487171 0.154863 -0.049768 432932.000000 0 0 1
34.716142 -16.558392 4.554025 38.731512 -0.445051 1.452944 0.124926 -0.060877 -391295.000000 0 0 1
35.706972 -16.350192 5.686425 39.681886 -0.429403 1.427001 0.102420 -0.041396 -147321.000000 0 0 1
36.641912 -17.402092 5.801225 40.977027 -0.443386 1.428746 0.121401 -0.040557 273268.000000 0 0 1
-36.574025 -17.170092 6.842925 40.979226 0.438920 1.403025 0.106832 -0.029590 -445545.000000 0 0 1
-35.324386 -17.987092 6.643125 40.193019 0.470979 1.404754 0.106331 -0.033375 -836306.000000 0 0 1
-35.490377 -19.336192 6.673225 40.963241 0.498865 1.407159 0.106327 -0.035553 -5518.570000 0 0 1
-34.242994 -19.962092 6.944325 40.240420 0.527791 1.397357 0.082661 -0.030311 286582.000000 0 0 1
-34.251759 -21.495592 7.155925 41.066418 0.560450 1.395650 0.099715 -0.028081 -215385.000000 0 0 1
-34.244555 -22.333592 5.995025 41.320929 0.577906 1.425198 0.120438 -0.028159 236856.000000 0 0 1
-34.372632 -23.721792 6.270525 42.231750 0.604075 1.421766 0.134061 -0.029979 -124773.000000 0 0 1
-33.898905 -24.578892 5.084625 42.179510 0.627350 1.449955 0.121179 -0.018546 -11068.500000 0 0 1
-34.620563 -24.424692 3.891825 42.547564 0.614405 1.479198 0.123744 -0.018036 111742.000000 0 0 1
-34.085195 -25.360722 2.977325 42.589097 0.639675 1.500831 0.106219 -0.011531 45789.900000 0 0 1
-34.476999 -25.106162 1.540025 42.677330 0.629403 1.534703 0.096895 -0.017684 301881.000000 0 0 1
-35.755443 -25.720692 1.283625 44.064196 0.623595 1.541661 0.086452 -0.017370 864057.000000 0 0 1
-36.271725 -25.155072 0.055025 44.140896 0.606362 1.569550 0.083335 -0.013746 -161709.000000 0 0 1
36.988242 -23.946592 0.153425 44.063509 -0.574553 1.567314 0.096321 -0.018761 -2069470.000000 0 0 1
35.658362 -24.204992 0.232425 43.098195 -0.596357 1.565403 0.059719 -0.014418 -1757980.000000 0 0 1
34.957682 -23.008892 0.479925 41.853064 -0.582113 1.559329 0.077213 -0.024381 1266340.000000 0 0 1
33.392082 -23.257592 0.387825 40.695173 -0.608373 1.561266 0.033651 -0.012746 1335270.000000 0 0 1
32.884842 -23.468992 -0.915975 40.410957 -0.619843 1.593465 0.032937 -0.016877 -140737.000000 0 0 1
31.492802 -23.270092 -1.022775 39.170650 -0.636360 1.596910 0.021025 -0.010417 103188.000000 0 0 1
31.137622 -22.990892 -2.480875 38.785143 -0.636012 1.634805 0.011633 -0.002902 -107994.000000 0 0 1
31.715062 -21.807392 -3.039475 38.608884 -0.602358 1.649603 0.043136 -0.013457 224758.000000 0 0 1
31.382852 -21.585692 -4.394975 38.342422 -0.602503 1.685673 0.039620 -0.034053 -68648.000000 0 0 1
31.665442 -20.139892 -4.745975 37.826442 -0.566485 1.696595 0.068718 -0.034722 265749.000000 0 0 1
30.767262 -19.397392 -3.927575 36.582907 -0.562513 1.678365 0.069317 -0.037769 162702.000000 0 0 1
30.575482 -18.089592 -4.387675 35.795881 -0.534248 1.693680 0.071701 -0.034359 -131410.000000 0 0 1
29.569162 -17.391092 -3.454475 34.477802 -0.531660 1.671159 0.087774 -0.030717 -258203.000000 0 0 1
29.938192 -17.116292 -2.096475 34.549356 -0.519366 1.631514 0.089069 -0.028013 92070.800000 0 0 1
30.478422 -18.144192 -1.249375 35.492349 -0.536966 1.606005 0.071615 -0.019768 292851.000000 0 0 1
29.528132 -19.379492 -0.930575 35.331873 -0.580796 1.597137 0.056829 -0.023013 450948.000000 0 0 1
28.488092 -19.038592 -0.029275 34.264270 -0.589133 1.571651 0.060115 -0.003573 231953.000000 0 0 1
27.700592 -20.211992 0.228125 34.291390 -0.630355 1.564144 0.049860 0.002410 -140354.000000 0 0 1
26.528892 -19.898292 1.184625 33.183241 -0.643540 1.535089 0.055953 0.007918 -504072.000000 0 0 1
25.849392 -21.074292 1.673925 33.393396 -0.683984 1.520648 0.058981 0.009325 435246.000000 0 0 1
24.904692 -20.955592 2.718125 32.661426 -0.699499 1.487479 0.062609 0.005962 -88907.100000 0 0 1
23.540492 -20.368792 2.336525 31.217011 -0.713290 1.495878 0.058609 0.000321 -843086.000000 0 0 1
23.511392 -19.031892 2.013025 30.315849 -0.680492 1.504346 0.100861 -0.014352 190537.000000 0 0 1
23.338192 -18.194092 3.128325 29.757060 -0.662168 1.465473 0.130215 -0.019751 -239759.000000 0 0 1
23.326592 -16.697392 2.712325 28.814744 -0.621258 1.476527 0.119838 -0.007139 617541.000000 0 0 1
22.120092 -16.505192 1.961925 27.668917 -0.641041 1.499830 0.106072 -0.011580 311114.000000 0 0 1
21.880492 -15.158192 1.556525 26.663636 -0.605858 1.512387 0.122908 -0.023703 -99700.100000 0 0 1
20.638992 -14.840792 0.710425 25.430725 -0.623407 1.542857 0.098415 -0.009545 -67872.900000 0 0 1
19.449392 -14.878792 1.476225 24.532357 -0.653032 1.510585 0.073429 -0.007103 705462.000000 0 1 0
18.458692 -13.877292 1.114725 23.120232 -0.644654 1.522563 0.071491 -0.005009 516940.000000 0 1 0
18.528192 -12.454392 1.745425 22.393130 -0.591814 1.492773 0.079417 -0.011498 723246.000000 0 1 0
19.781192 -11.844392 1.324625 23.094151 -0.539515 1.513407 0.100716 -0.014180 1381160.000000 0 1 0
20.039692 -10.654792 1.983825 22.782656 -0.488673 1.483610 0.098221 -0.010915 -230547.000000 0 1 0
20.996492 -9.802492 1.145325 23.200286 -0.436789 1.521409 0.104832 -0.017421 -232389.000000 0 1 0
20.425692 -9.223892 -0.016175 22.411812 -0.424169 1.571518 0.112259 -0.016821 466351.000000 0 1 0
21.412892 -8.756292 -0.882475 23.150882 -0.388178 1.608924 0.122359 -0.016550 -527274.000000 0 1 0
20.727492 -8.202592 -2.164375 22.396338 -0.376824 1.667587 0.130315 -0.017718 84931.400000 0 1 0
21.544492 -7.596492 -3.211875 23.069199 -0.338985 1.710478 0.133588 -0.029516 1482250.000000 0 1 0
22.613792 -8.468792 -3.701675 24.429622 -0.358329 1.722906 0.124167 -0.028470 140951.000000 0 1 0
22.143692 -9.629492 -4.610775 24.583113 -0.410196 1.759472 0.107467 -0.031991 -217067.000000 0 1 0
21.598592 -9.120392 -5.808875 24.154166 -0.399554 1.813669 0.111891 -0.039398 675897.000000 0 1 0
20.204392 -8.836592 -5.749075 22.789354 -0.412293 1.825822 0.100174 -0.031745 -153018.000000 0 1 0
19.449992 -8.762992 -7.079575 22.476935 -0.423303 1.891222 0.103734 -0.034555 -305616.000000 0 1 0
19.543792 -9.951792 -7.927675 23.320506 -0.470984 1.917654 0.102332 -0.030281 755373.000000 0 1 0
20.822592 -10.220392 -8.498075 24.703320 -0.456286 1.921976 0.102700 -0.024002 138144.000000 0 1 0
20.823892 -11.563292 -9.255375 25.553985 -0.506895 1.941412 0.088018 -0.019417 -257734.000000 0 0 1
19.813392 -11.730192 -10.214575 25.189391 -0.534541 1.988334 0.111955 -0.034924 31522.900000 0 0 1
19.645492 -13.082792 -10.472875 25.822198 -0.587502 1.988406 0.103311 -0.029194 -790428.000000 0 0 1
18.597192 -13.345092 -11.498075 25.615479 -0.622432 2.036299 0.113916 -0.027341 -559137.000000 0 0 1
18.318792 -14.729292 -11.618675 26.220675 -0.677208 2.029863 0.107969 -0.031669 -418831.000000 0 0 1
17.311192 -14.917292 -12.541975 26.067299 -0.711255 2.072749 0.114295 -0.032415 -558300.000000 0 0 1
17.140592 -16.372392 -12.993175 27.031051 -0.762480 2.072222 0.102681 -0.024458 129894.000000 0 0 1
16.455292 -17.223292 -12.044975 26.692692 -0.808198 2.038958 0.093526 -0.023749 486903.000000 0 0 1
16.258192 -18.493692 -12.614475 27.667136 -0.849637 2.044221 0.091821 -0.025842 -309323.000000 0 0 1
15.417192 -19.406792 -11.655575 27.389155 -0.899466 2.010371 0.073881 -0.020904 -393061.000000 0 0 1
14.071292 -19.134692 -11.882375 26.558022 -0.936717 2.034666 0.052845 -0.011477 -774209.000000 0 0 1
13.222792 -20.144392 -11.377075 26.647262 -0.989935 2.011915 0.040111 -0.009291 1005600.000000 0 0 1
11.694292 -20.002792 -11.668775 25.942792 -1.041753 2.037325 0.035840 -0.021585 922196.000000 0 0 1
10.794892 -20.857692 -11.006475 25.936759 -1.093208 2.009049 0.039005 -0.024763 722629.000000 0 0 1
9.434592 -20.712792 -11.481775 25.492399 -1.143381 2.038010 0.033199 -0.018099 990640.000000 0 0 1
8.486792 -21.555392 -10.631975 25.489202 -1.195715 2.001067 0.026505 -0.010769 -641140.000000 0 0 1
8.597492 -22.930192 -10.794075 26.762336 -1.212077 1.985950 0.057613 -0.025461 -292598.000000 0 0 1
7.730792 -23.600592 -9.894875 26.733156 -1.254244 1.949951 0.065960 -0.028540 149275.000000 0 0 1
7.985592 -25.124442 -9.961175 28.182126 -1.263053 1.932061 0.076849 -0.025922 -134340.000000 0 0 1
9.214292 -25.496882 -9.426375 28.702799 -1.224012 1.905419 0.074891 -0.020552 -816831.000000 0 0 1
9.638492 -26.814812 -9.828475 30.141891 -1.225731 1.902943 0.074286 -0.018452 -752643.000000 0 0 1
11.061392 -27.114932 -9.459375 30.774237 -1.183460 1.883234 0.049996 -0.007037 -841983.000000 0 0 1
11.216892 -27.274772 -8.039575 30.567411 -1.180625 1.836938 0.059002 -0.011074 -712466.000000 0 0 1
12.563392 -27.459962 -7.736275 31.172717 -1.141709 1.821592 0.057679 -0.001529 -626903.000000 0 0 1
12.688092 -27.641152 -6.181975 31.036072 -1.140459 1.771324 0.066698 -0.012066 18214.300000 0 0 1
12.244392 -28.870532 -5.660175 31.866445 -1.169677 1.749366 0.075859 -0.011360 -1036460.000000 0 0 1
10.880892 -28.927352 -5.423475 31.378330 -1.211022 1.744510 0.087464 -0.015945 -888117.000000 0 0 1
10.430792 -30.134102 -4.614875 32.220530 -1.237559 1.714518 0.094879 -0.022582 18096.700000 0 0 1
10.635592 -31.466172 -5.047975 33.596396 -1.244851 1.721621 0.104831 -0.024445 -208799.000000 0 0 1
9.823392 -31.937872 -6.110375 33.968564 -1.272402 1.751664 0.109764 -0.022966 169083.000000 0 0 1
9.900892 -33.451982 -6.280575 35.447262 -1.283038 1.748918 0.102103 -0.021774 -284133.000000 0 0 1
9.408192 33.861389 -5.249375 35.533979 1.299788 1.719067 0.101402 -0.025216 -186822.000000 0 0 1
9.845492 32.535808 -5.373675 34.414952 1.276952 1.727581 0.098385 -0.018632 54411.800000 0 0 1
9.359992 31.577601 -4.286675 33.213400 1.282634 1.700222 0.093322 -0.018003 -427434.000000 0 0 1
8.019492 31.231111 -4.358375 32.537517 1.319448 1.705149 0.089205 -0.024001 -1168770.000000 0 0 1
7.648892 30.306221 -3.362075 31.436860 1.323572 1.677948 0.067852 -0.020058 108219.000000 0 0 1
6.193492 29.800151 -3.497175 30.637209 1.365879 1.685194 0.064145 -0.019865 219548.000000 0 0 1
5.867992 29.151131 -4.694075 30.104088 1.372155 1.727363 0.079449 -0.026964 -198195.000000 0 0 1
5.414392 29.985291 -5.692575 30.997399 1.392153 1.755491 0.074441 -0.031945 -501788.000000 0 0 1
5.460492 29.334991 -7.131975 30.679370 1.386760 1.805411 0.069188 -0.035779 438177.000000 0 0 1
4.536792 28.257951 -7.285575 29.532590 1.411606 1.820066 0.072566 -0.032053 39681.200000 0 0 1
5.198892 27.069111 -7.075475 28.457470 1.381047 1.822065 0.078394 -0.029064 -25846.300000 0 0 1
4.373992 25.824351 -7.670275 27.292161 1.403014 1.855677 0.071927 -0.031381 -3336.610000 0 0 1
3.064892 25.639981 -7.170475 26.799588 1.451825 1.841655 0.075362 -0.028802 -538522.000000 0 0 1
2.168492 26.380401 -7.949675 27.637389 1.488780 1.862560 0.078849 -0.028867 -626006.000000 0 0 1
1.553692 25.635641 -9.136875 27.259540 1.510264 1.912593 0.074615 -0.025404 -247623.000000 0 0 1
2.563192 25.476801 -10.145075 27.541966 1.470525 1.948030 0.060607 -0.025745 346947.000000 0 0 1
2.138392 24.761951 -11.281575 27.294704 1.484652 1.996899 0.071521 -0.023973 -371392.000000 0 0 1
1.989292 23.214801 -11.177375 25.842174 1.485314 2.018087 0.074373 -0.019818 462237.000000 0 0 1
0.817592 22.736811 -10.514475 25.063623 1.534853 2.003703 0.076866 -0.020854 114427.000000 0 0 1
0.894892 21.363811 -10.393575 23.774769 1.528933 2.023244 0.046195 -0.019528 -6608.660000 0 1 0
-0.217408 20.697311 -9.558875 22.799080 -1.560293 2.003433 0.055777 -0.011578 252477.000000 0 1 0
-1.485408 20.516011 -10.133175 22.930207 -1.498520 2.028527 0.067532 -0.021758 -370719.000000 0 1 0
-2.479108 20.055211 -9.264975 22.230547 -1.447806 2.000683 0.062129 -0.017371 -1202790.000000 0 1 0
-3.862208 20.265411 -9.791075 22.835689 -1.382473 2.013918 0.063861 -0.021653 -1296630.000000 0 1 0
-4.750708 19.403811 -9.131475 21.964994 -1.330686 1.999540 0.049524 -0.032313 -443005.000000 0 1 0
-5.790508 19.051411 -10.022975 22.292292 -1.275728 2.037132 0.046431 -0.028310 -913511.000000 0 1 0
-6.719208 18.040011 -9.356975 21.404269 -1.214253 2.023229 0.050238 -0.030531 -492002.000000 0 1 0
-7.691008 18.572111 -8.474775 21.815057 -1.178181 1.969781 0.065162 -0.027683 131079.000000 0 1 0
-8.914908 18.817511 -9.143775 22.741656 -1.128364 1.984575 0.072347 -0.030973 -568714.000000 0 1 0
-10.087708 19.163211 -8.237475 23.169948 -1.086245 1.934271 0.077097 -0.030546 -227019.000000 0 1 0
-10.589608 18.014611 -7.563675 22.223303 -1.039370 1.918084 0.075466 -0.026551 -223788.000000 0 1 0
-11.583908 18.355511 -6.616475 22.691176 -1.007832 1.866683 0.092191 -0.026439 -228764.000000 0 1 0
-12.040308 17.122611 -5.820575 21.726296 -0.957938 1.842014 0.076704 -0.030925 26419.400000 0 1 0
-12.940808 17.523811 -4.801375 22.306987 -0.934715 1.787735 0.094231 -0.025544 -136304.000000 0 1 0
-13.265408 16.450611 -3.934575 21.495919 -0.892179 1.754872 0.080695 -0.021751 -654397.000000 0 1 0
-14.536308 16.735211 -3.163575 22.391511 -0.855599 1.712555 0.070222 -0.021499 -85569.200000 0 1 0
-15.758108 16.675611 -3.909375 23.273959 -0.813679 1.739568 0.106687 -0.042200 503243.000000 0 1 0
-16.840608 17.079111 -3.117375 24.187190 -0.792429 1.700041 0.111705 -0.032725 376796.000000 0 1 0
-18.228308 17.126211 -3.846275 25.305575 -0.754236 1.723381 0.120409 -0.044357 529884.000000 0 0 1
-18.359208 18.078411 -4.886175 26.225258 -0.777692 1.758207 0.121328 -0.045531 883012.000000 0 0 1
-19.724508 18.236111 -5.314875 27.383569 -0.746209 1.766126 0.100742 -0.042990 757270.000000 0 0 1
-19.767908 19.234311 -6.516875 28.340758 -0.771718 1.802820 0.098906 -0.034149 -36619.400000 0 0 1
-19.516308 20.608611 -6.166475 29.045250 -0.812614 1.784730 0.098440 -0.047057 151236.000000 0 0 1
-19.566308 21.466811 -7.251975 29.937527 -0.831681 1.815467 0.093144 -0.031669 -191597.000000 0 0 1
-19.503108 22.983111 -6.946675 30.933007 -0.867125 1.797300 0.102867 -0.035870 681204.000000 0 0 1
-18.221808 23.529031 -6.588075 30.480360 -0.911837 1.788657 0.100249 -0.037244 597396.000000 0 0 1
-17.922908 23.299441 -5.224175 29.856098 -0.915094 1.746680 0.100796 -0.040038 184551.000000 0 0 1
-16.475008 23.846231 -5.009875 29.413729 -0.966214 1.741955 0.083677 -0.031689 -6478.340000 0 0 1
-16.208008 24.506551 -3.832975 29.630428 -0.986466 1.700519 0.072860 -0.041544 491368.000000 0 0 1
-14.902808 25.089801 -3.761375 29.423456 -1.034816 1.698983 0.081163 -0.037445 476220.000000 0 0 1
-14.611908 26.327661 -4.634675 30.465289 -1.064121 1.723519 0.080584 -0.032013 -778031.000000 0 0 1
-15.296108 27.439071 -4.241675 31.699611 -1.062246 1.705007 0.104027 -0.038822 -223504.000000 0 0 1
-14.766108 28.587201 -4.875675 32.542867 -1.094013 1.721186 0.083309 -0.033846 -283479.000000 0 0 1
-15.298508 30.017921 -4.402975 33.978024 -1.099462 1.700745 0.083864 -0.022739 897286.000000 0 0 1
-16.632008 30.164501 -4.946575 34.799273 -1.066897 1.713425 0.113231 -0.033308 860999.000000 0 0 1
-17.274708 31.370751 -4.702275 36.119952 -1.067444 1.701352 0.110624 -0.025438 -19490.900000 0 0 1
12.596065 -8.522292 18.600113 24.026121 -0.594837 0.685406 0.058560 -0.015422 -382900.000000 0 1 0
12.988565 -9.788192 19.044413 25.043985 -0.645802 0.706808 0.054441 -0.013096 -130273.000000 0 0 1
13.495365 -10.568792 17.959113 24.826477 -0.664377 0.762103 0.071945 -0.016797 29238.400000 0 1 0
13.966365 -11.955592 18.507713 26.086988 -0.707983 0.782063 0.118801 -0.029522 -823952.000000 0 0 1
15.182165 -11.741192 19.186713 27.138233 -0.658281 0.785550 0.111462 -0.022278 -145841.000000 0 0 1
15.622065 -12.913392 19.740513 28.292975 -0.690759 0.798590 0.115020 -0.023365 -221875.000000 0 0 1
16.344165 -13.949692 18.848213 28.582875 -0.706521 0.850745 0.124404 -0.031189 -1103950.000000 0 0 1
15.551765 -14.433692 17.822313 27.709632 -0.748128 0.872151 0.128537 -0.034170 -272295.000000 0 0 1
16.000265 -15.644992 17.186813 28.216321 -0.774172 0.915860 0.135779 -0.032168 -268198.000000 0 0 1
15.215565 -16.029092 15.899113 27.225484 -0.811430 0.947175 0.126932 -0.036395 416176.000000 0 0 1
13.843765 -16.277092 16.224613 26.829678 -0.866009 0.921374 0.139948 -0.042995 596345.000000 0 0 1
13.026765 -16.135292 15.053113 25.624997 -0.891592 0.942906 0.140371 -0.042970 225829.000000 0 0 1
12.548865 -17.454492 14.388613 25.868233 -0.947467 0.980957 0.104893 -0.024708 514559.000000 0 0 1
13.677565 -18.172692 13.847513 26.628483 -0.925605 1.023915 0.099107 -0.026428 780069.000000 0 0 1
13.268665 -19.367692 13.224513 26.945365 -0.970145 1.057800 0.087313 -0.029763 -435404.000000 0 0 1
14.433965 -20.184192 12.672113 27.862580 -0.950000 1.098640 0.083480 -0.027685 -406607.000000 0 0 1
15.168965 -20.770892 13.733413 29.157059 -0.940023 1.080355 0.078354 -0.022343 126636.000000 0 0 1
15.769365 -22.031792 13.268513 30.168297 -0.949575 1.115402 0.054172 -0.022173 103177.000000 0 0 1
16.547265 -22.761292 14.365513 31.595195 -0.942184 1.098790 0.058526 -0.023270 -761964.000000 0 0 1
17.874765 -22.381592 14.482613 32.096557 -0.896887 1.102664 0.045147 -0.020535 -954479.000000 0 0 1
18.436665 -23.084392 15.584713 33.401842 -0.896871 1.085373 0.051691 -0.030721 -64078.100000 0 0 1
19.908465 -22.748992 15.907813 34.160242 -0.851889 1.086391 0.027966 -0.012990 -165390.000000 0 0 1
20.776165 -23.104692 14.882713 34.452445 -0.838413 1.124111 0.027157 -0.017645 -1349530.000000 0 0 1
22.014965 -22.541092 15.140213 34.956910 -0.797206 1.122855 0.023030 -0.009251 -556768.000000 0 0 1
23.197965 -23.361892 14.588313 36.010310 -0.788919 1.153692 0.016945 -0.019702 -20103.400000 0 0 1
23.591765 -24.485992 15.404313 37.328649 -0.803996 1.145416 0.021222 -0.018444 -91955.100000 0 0 1
24.653265 -25.195102 14.831713 38.243383 -0.796267 1.172526 0.027770 -0.018504 -427421.000000 0 0 1
25.203865 -26.249952 15.752413 39.653919 -0.805726 1.162281 0.034400 -0.017170 -516412.000000 0 0 1
25.859565 -25.908362 16.973113 40.349063 -0.786341 1.136627 0.038208 -0.009842 201398.000000 0 0 1
26.041865 -27.034512 17.822213 41.553277 -0.804098 1.127521 0.066822 -0.011830 177952.000000 0 0 1
26.426265 -26.658792 19.283213 42.200485 -0.789778 1.096241 0.072911 -0.011917 820537.000000 0 0 1
25.304865 -25.966462 19.867113 41.343627 -0.798301 1.069530 0.077343 -0.012918 885834.000000 0 0 1
25.642965 -25.537642 21.150413 41.917452 -0.783340 1.041909 0.086632 -0.009481 -109867.000000 0 0 1
24.416265 -25.651322 22.048613 41.716731 -0.810061 1.013926 0.082808 -0.012686 -25359.200000 0 0 1
23.799865 -26.920332 22.151913 42.211907 -0.846844 1.018341 0.087050 -0.015503 -1035670.000000 0 0 1
22.739565 -26.973972 22.989683 42.109482 -0.870369 0.993273 0.087179 -0.011009 -1080580.000000 0 0 1
22.210165 -28.411562 23.037833 42.793107 -0.907295 1.002314 0.096908 -0.011867 204472.000000 0 0 1
23.147365 -29.368672 23.597773 44.217353 -0.903313 1.007854 0.102351 -0.021156 626115.000000 0 0 1
22.863065 -30.707382 23.280003 44.806490 -0.930795 1.024451 0.107899 -0.022251 -732333.000000 0 0 1
23.947365 -31.595522 23.827653 46.254841 -0.922236 1.029627 0.100201 -0.014879 -491466.000000 0 0 1
23.981465 -31.568222 25.239823 46.996936 -0.921134 1.003857 0.097563 -0.015108 417882.000000 0 0 1
25.140565 -32.288172 25.636783 48.288908 -0.909222 1.011129 0.103843 -0.019750 -362523.000000 0 0 1
25.071365 -32.681302 27.166633 49.342343 -0.916411 0.987744 0.102640 -0.020888 845621.000000 0 0 1
24.179865 -33.765292 27.587533 49.858126 -0.949336 0.984451 0.092503 -0.015592 1024100.000000 0 0 1
22.811765 -33.690222 27.212603 48.948273 -0.975603 0.981296 0.095647 -0.014532 -6111.310000 0 0 1
22.045465 33.097116 27.577493 48.393592 0.983197 0.964463 0.118742 -0.033440 -38415.100000 0 0 1
21.773965 33.005106 28.949293 49.005144 0.987622 0.938821 0.109892 -0.024759 113485.000000 0 0 1
21.448265 31.670381 29.367133 48.223123 0.975513 0.916017 0.109493 -0.024836 -123244.000000 0 0 1
21.230765 31.544021 30.907223 49.000276 0.978386 0.888269 0.099472 -0.018310 193647.000000 0 0 1
22.402465 31.744221 31.690243 50.138184 0.956243 0.886590 0.093490 -0.026562 6432.340000 0 0 1
22.189565 32.193123 33.028939 51.182856 0.967312 0.869364 0.080789 -0.025880 -388239.000000 0 0 1
23.514165 32.550240 33.703351 52.424707 0.945197 0.872530 0.052464 -0.015855 -382037.000000 0 0 1
24.080965 31.381051 -33.749945 51.997327 0.916269 2.277159 0.043535 -0.009837 -1345280.000000 0 0 1
25.306765 31.603381 -33.174105 52.342404 0.895591 2.257240 0.037971 -0.008298 -953961.000000 0 0 1
25.865165 30.223151 -32.735635 51.517642 0.862941 2.259356 0.030867 0.003580 -491301.000000 0 0 1
26.050865 29.251551 -33.765945 51.714987 0.843210 2.282235 0.036738 0.006943 416019.000000 0 0 1
24.942165 28.352541 33.952523 50.781414 0.849302 0.838470 0.048083 -0.004760 452227.000000 0 0 1
25.112365 27.631411 32.668851 49.612293 0.833122 0.851995 0.066506 -0.007966 -489267.000000 0 0 1
26.222165 26.805201 32.595441 49.684842 0.796393 0.855231 0.064746 -0.011001 -297077.000000 0 0 1
26.454665 26.237541 31.301053 48.662242 0.781278 0.872086 0.080535 -0.024384 -632975.000000 0 0 1
27.572165 25.222701 31.316433 48.755799 0.740926 0.873285 0.064814 -0.016815 -749083.000000 0 0 1
27.393065 24.180601 32.199649 48.702144 0.723190 0.848440 0.072488 -0.019071 -130296.000000 0 0 1
28.131765 24.301461 33.395379 49.972078 0.712477 0.838901 0.068225 -0.027392 -824358.000000 0 0 1
27.914865 23.306661 -33.399765 49.375950 0.695674 2.313712 0.054072 -0.032198 -590697.000000 0 0 1
26.849165 23.590981 -32.523265 48.323647 0.720893 2.309094 0.058241 -0.027869 -89404.500000 0 0 1
25.589365 23.148791 -32.970535 47.725657 0.735365 2.333439 0.043057 -0.020996 -412251.000000 0 0 1
25.257565 21.629411 -32.778935 46.692982 0.708171 2.349012 0.036066 -0.013516 -646494.000000 0 0 1
25.000665 21.260011 -31.463835 45.464208 0.704713 2.335131 0.017594 -0.023111 183643.000000 0 0 1
25.142765 19.855711 -31.304065 44.792325 0.668440 2.344614 0.028049 -0.021053 -288902.000000 0 0 1
25.164965 19.422911 -29.857225 43.611682 0.657322 2.324872 0.031934 -0.015040 -401014.000000 0 0 1
23.956965 19.592011 -29.163405 42.523961 0.685501 2.326514 0.028673 -0.016895 -183232.000000 0 0 1
23.854165 18.943411 -27.941545 41.335263 0.671154 2.313081 0.035809 -0.011949 551383.000000 0 0 1
22.352665 18.844511 -27.461005 40.110647 0.700448 2.324894 0.046862 -0.015047 948895.000000 0 0 1
22.076665 18.096511 -26.260785 38.787777 0.686646 2.314526 0.053292 -0.013685 57911.200000 0 0 1
22.602565 18.763811 -25.120145 38.652015 0.692864 2.278256 0.057443 -0.004542 -189220.000000 0 0 1
22.753265 17.806111 -23.951275 37.529085 0.664025 2.262962 0.076462 -0.012522 384482.000000 0 0 1
23.817765 16.882611 -24.224975 37.936235 0.616624 2.263436 0.088901 -0.015487 612327.000000 0 0 1
23.949165 15.878011 -23.185475 36.922080 0.585452 2.249721 0.102121 -0.016937 -971610.000000 0 0 1
25.032765 14.874911 -23.409175 37.361635 0.536157 2.247923 0.129323 -0.016996 -576974.000000 0 0 1
26.354765 15.270611 -23.079775 38.215720 0.525153 2.219224 0.147215 -0.028046 575354.000000 0 0 1
27.338965 14.230511 -23.083275 38.506675 0.479929 2.213625 0.139149 -0.034267 421613.000000 0 0 1
27.318065 13.271511 -21.856675 37.418230 0.452235 2.194590 0.131996 -0.023368 -438534.000000 0 0 1
26.166765 12.459611 -21.924875 36.340634 0.444396 2.218449 0.125821 -0.014457 -109257.000000 0 0 1
25.803265 12.024911 -20.628475 35.155952 0.436098 2.197861 0.102601 -0.015161 -45181.600000 0 0 1
24.298265 11.731211 -20.504475 33.888944 0.449793 2.220624 0.113334 -0.012935 134570.000000 0 0 1
23.412965 12.827511 -20.500975 33.660094 0.501215 2.225670 0.127467 -0.013002 444342.000000 0 0 1
22.048865 12.428611 -20.671675 32.679366 0.513289 2.255651 0.097341 -0.011423 594073.000000 0 0 1
21.113465 13.647711 -20.681675 32.554110 0.573839 2.259195 0.085744 -0.017398 -586880.000000 0 0 1
21.386365 14.540511 -21.743075 33.787045 0.597106 2.269901 0.081451 -0.009314 80858.100000 0 0 1
20.598965 15.709811 -21.665975 33.771734 0.651548 2.267303 0.057681 -0.010754 107336.000000 0 0 1
19.233265 15.599011 -22.414975 33.401777 0.681438 2.306449 0.048109 0.001653 -81949.500000 0 0 1
18.267565 14.848511 -21.737175 32.041957 0.682518 2.316375 0.029364 -0.007615 -148048.000000 0 0 1
17.195565 14.562711 -22.628675 31.934573 0.702684 2.358301 0.030309 -0.018698 -98187.300000 0 0 1
15.924765 14.064511 -21.942375 30.543026 0.723447 2.372308 0.018568 -0.020293 -588198.000000 0 0 1
14.805665 14.018111 -22.769475 30.564099 0.758082 2.411293 0.032551 -0.023287 -568619.000000 0 0 1
13.753865 13.269411 -22.182475 29.279827 0.767473 2.430429 0.054951 -0.029996 289531.000000 0 0 1
12.478065 13.407411 -23.088275 29.470820 0.821285 2.470959 0.063540 -0.033183 -103710.000000 0 0 1
11.947165 14.698311 -22.938075 29.747779 0.888284 2.451340 0.071447 -0.027212 -102030.000000 0 0 1
11.314465 15.157111 -24.101275 30.637013 0.929552 2.476196 0.068243 -0.030892 -742239.000000 0 0 1
11.314665 16.710211 -24.187175 31.500353 0.975598 2.446256 0.064361 -0.035782 564650.000000 0 0 1
12.550265 17.467911 -24.159975 32.347202 0.947778 2.414177 0.052923 -0.026633 388244.000000 0 0 1
13.629565 17.155211 -24.969375 33.219512 0.899427 2.421353 0.055508 -0.027405 -830205.000000 0 0 1
13.363165 17.142711 -26.477125 34.256165 0.908666 2.454220 0.080664 -0.027775 98618.100000 0 0 1
14.523165 17.045011 -27.357115 35.353450 0.865115 2.455642 0.072552 -0.032267 591826.000000 0 0 1
14.189065 17.028011 -28.711685 36.271801 0.876091 2.484171 0.091317 -0.038907 -706023.000000 0 0 1
15.305765 17.437211 -29.648465 37.647765 0.850403 2.477575 0.074536 -0.033053 -183099.000000 0 0 1
16.433265 16.570311 -29.576375 37.674784 0.789551 2.473564 0.055676 -0.030439 -415982.000000 0 0 1
17.349465 16.984511 -30.534235 39.010474 0.774769 2.469819 0.047034 -0.023466 -1056820.000000 0 0 1
18.507765 16.008311 -30.663615 39.230864 0.713110 2.468055 0.044567 -0.018188 -241127.000000 0 0 1
19.744565 16.708411 -30.567725 40.042536 0.702300 2.439328 0.043199 -0.021276 290984.000000 0 0 1
20.846565 15.807011 -30.514775 40.194432 0.648763 2.432847 0.057834 -0.015389 776620.000000 0 0 1
22.115965 16.499711 -31.124025 41.594006 0.640971 2.416264 0.059108 -0.015995 301849.000000 0 0 1
21.900765 16.847811 -32.468265 42.634264 0.655726 2.436503 0.047878 -0.020928 495897.000000 0 0 1
23.130765 17.231611 -33.079695 43.888802 0.640271 2.424495 0.042366 -0.023859 340392.000000 0 0 1
23.040365 17.588611 33.352360 44.188206 0.652011 0.715478 0.016467 -0.011838 -231432.000000 0 0 1
23.992265 18.586111 33.070639 44.885849 0.659104 0.742513 0.017758 -0.011617 36970.900000 0 0 1
23.802665 19.138211 31.785003 44.080885 0.677197 0.765464 0.046472 -0.010980 -243484.000000 0 0 1
24.726865 20.318811 31.476253 44.889046 0.687851 0.793715 0.063557 -0.015605 249486.000000 0 0 1
26.120065 20.070811 31.548623 45.611521 0.655177 0.806982 0.045530 -0.016846 -15988.200000 0 0 1
26.867265 21.257411 31.462713 46.514834 0.669353 0.827930 0.054102 -0.023101 181079.000000 0 0 1
28.359765 20.990611 31.122863 47.048003 0.637170 0.847962 0.060386 -0.019888 192554.000000 0 0 1
29.018465 20.465611 32.266571 47.979622 0.614249 0.833207 0.048110 -0.025319 -803300.000000 0 0 1
30.381765 20.372211 31.962707 48.576674 0.590680 0.852657 0.041820 -0.019308 -591975.000000 0 0 1
31.082365 19.645311 33.132866 49.495843 0.563646 0.837386 0.040440 -0.020129 -325360.000000 0 0 1
31.091165 20.342611 -33.545775 50.057980 0.579385 2.305192 0.034039 -0.022316 -526054.000000 0 0 1
29.947565 20.270011 -32.752865 48.790165 0.595020 2.306758 0.031164 -0.027283 -698689.000000 0 0 1
30.175865 20.659011 -31.325655 48.152614 0.600329 2.279104 0.046137 -0.032575 -244709.000000 0 0 1
31.127965 19.815811 -30.738175 48.025535 0.566892 2.265344 0.052779 -0.044365 -216842.000000 0 0 1
31.450965 20.142811 -29.401115 47.532322 0.569633 2.237692 0.046425 -0.040554 58982.100000 0 0 1
32.764065 19.462511 -28.928705 47.844992 0.536011 2.220102 0.077434 -0.027806 633816.000000 0 0 1
33.884365 20.011411 -29.617205 49.252265 0.533464 2.215970 0.041670 -0.026829 925582.000000 0 0 1
35.133165 19.929511 -28.889205 49.659952 0.515995 2.191663 0.070665 -0.025308 1955700.000000 0 0 1
36.285365 20.850111 -29.493575 51.197908 0.521545 2.184709 0.068641 -0.028962 1078280.000000 0 0 1
36.954965 20.358311 -30.669865 52.161009 0.503530 2.199361 0.051483 -0.031694 -250399.000000 0 0 1
-36.133161 21.111811 -31.039285 52.103273 -0.528779 2.208966 0.054653 -0.042963 -744125.000000 0 0 1
-35.199761 20.616711 -32.123575 51.922982 -0.529843 2.237854 0.059747 -0.047524 -360339.000000 0 0 1
-34.418861 19.477011 -31.831415 50.766632 -0.514955 2.248511 0.093229 -0.042919 81436.300000 0 0 1
-33.613761 19.165911 -32.949805 50.822305 -0.518205 2.276190 0.103057 -0.030611 -241120.000000 0 0 1
-32.580661 18.048011 -32.650275 49.530502 -0.505870 2.290544 0.083547 -0.018004 -332694.000000 0 0 1
-33.220561 16.857711 -32.352335 49.340264 -0.469588 2.285904 0.086048 -0.018246 -351217.000000 0 0 1
-32.523661 15.725611 -32.697175 48.725646 -0.450371 2.306416 0.073437 -0.009733 -68182.100000 0 0 1
-33.503161 14.517011 -32.517855 48.893929 -0.408882 2.298383 0.075779 -0.008417 216367.000000 0 0 1
-33.031561 13.237311 -32.866795 48.441063 -0.381150 2.316502 0.078632 -0.011735 -142842.000000 0 0 1
-34.049961 12.256911 -32.831035 48.862138 -0.345528 2.307583 0.081667 -0.010154 -12593.300000 0 0 1
-33.564061 10.753711 -33.077225 48.335197 -0.310060 2.324481 0.080511 -0.005139 155888.000000 0 0 1
-33.015761 10.453511 33.578640 48.237345 -0.306636 0.800827 0.067379 -0.009854 371491.000000 0 0 1
-33.529761 9.185411 33.179220 48.057021 -0.267388 0.808736 0.084467 -0.022982 271644.000000 0 0 1
-32.595461 8.388811 32.157655 46.550521 -0.251895 0.808185 0.094336 -0.019489 357450.000000 0 0 1
-31.427561 8.053411 32.873155 46.186506 -0.250855 0.778813 0.076224 -0.010756 -679296.000000 0 0 1
-30.517061 7.412711 32.060608 44.878969 -0.238289 0.775060 0.080844 -0.010633 -593046.000000 0 0 1
21.079565 -4.550692 -31.726945 38.362167 -0.212619 2.544613 0.083694 -0.046798 -1148660.000000 0 0 1
22.325865 -4.650792 -32.350075 39.580317 -0.205377 2.527553 0.085786 -0.044386 -597699.000000 0 0 1
23.262465 -3.774192 -31.798765 39.579644 -0.160842 2.503800 0.081605 -0.037674 -220990.000000 0 0 1
22.961865 -2.220992 -32.027535 39.470787 -0.096425 2.517380 0.089464 -0.032350 -593927.000000 0 0 1
23.816365 -1.289292 -31.366755 39.405010 -0.054082 2.491470 0.080584 -0.023919 268484.000000 0 0 1
23.522165 0.051108 -31.725385 39.494239 0.002173 2.503598 0.085509 -0.022490 350544.000000 0 0 1
24.597765 1.083008 -31.184755 39.733008 0.044000 2.473263 0.074349 -0.011822 1446520.000000 0 0 1
25.911265 0.934208 -31.772915 41.009566 0.036039 2.457145 0.070140 -0.018963 834934.000000 0 0 1
26.877365 1.729908 -31.125625 41.160538 0.064274 2.428283 0.075766 -0.015935 712884.000000 0 0 1
28.346865 1.362508 -31.499235 42.398148 0.048029 2.408247 0.063539 -0.023420 667875.000000 0 0 1
29.000365 2.020708 -32.554435 43.645110 0.069566 2.412666 0.080285 -0.022904 120035.000000 0 0 1
29.599465 1.203108 -33.559635 44.764103 0.040624 2.418405 0.064166 -0.017353 -324616.000000 0 0 1
30.264265 1.952208 33.256929 45.008446 0.064416 0.739354 0.064514 -0.027111 -66205.900000 0 0 1
29.400865 2.711208 32.395604 43.831914 0.091955 0.739082 0.070299 -0.024025 342322.000000 0 0 1
29.645665 4.088608 32.676954 44.309880 0.137051 0.741488 0.084072 -0.018121 -25742.700000 0 0 1
28.754265 5.078708 31.900653 43.246418 0.174821 0.741215 0.092327 -0.013406 -288558.000000 0 0 1
29.056265 6.415108 32.092490 43.764690 0.217296 0.747639 0.102394 -0.012707 -187365.000000 0 0 1
28.250265 7.284708 31.348053 42.823415 0.252366 0.749498 0.087504 -0.012072 -182781.000000 0 0 1
28.557265 8.762708 31.572893 43.464353 0.297726 0.757714 0.077274 -0.009657 -1161320.000000 0 0 1
29.796465 9.118608 31.151193 44.061039 0.296980 0.785548 0.083190 -0.011862 -1468680.000000 0 0 1
30.098465 10.486208 31.380723 44.728379 0.335246 0.793178 0.079694 -0.010000 -134028.000000 0 0 1
31.409165 10.926808 30.715253 45.269830 0.334790 0.825087 0.077851 -0.003979 -322855.000000 0 0 1
32.532265 10.349108 31.363433 46.358572 0.307995 0.827742 0.073280 -0.004440 892925.000000 0 0 1
33.840565 10.727408 30.913893 47.073665 0.306978 0.854344 0.075669 -0.006826 1021890.000000 0 0 1
34.272565 12.272308 30.926393 47.766725 0.343855 0.866567 0.082221 -0.004794 -697317.000000 0 0 1
34.486365 12.704708 32.236497 48.886713 0.352970 0.850760 0.078685 -0.005108 172967.000000 0 0 1
34.896665 14.047408 32.509418 49.718901 0.382697 0.858116 0.087150 -0.000154 -625265.000000 0 0 1
33.866365 15.105208 32.280337 49.164196 0.419542 0.854518 0.074647 -0.007785 -1163940.000000 0 0 1
33.425665 15.348308 30.951763 48.071377 0.430460 0.871250 0.074680 -0.018962 -76258.700000 0 0 1
32.491365 16.386508 30.889803 47.732446 0.467109 0.866963 0.067369 -0.022607 -263035.000000 0 0 1
31.027465 15.974908 31.113813 46.754365 0.475468 0.842668 0.066292 -0.009453 -728653.000000 0 0 1
30.536165 15.125808 30.095493 45.464119 0.459913 0.847364 0.066661 -0.009228 91543.400000 0 0 1
29.176265 14.851908 30.407453 44.681616 0.470854 0.822302 0.045573 -0.013232 346779.000000 0 0 1
28.455965 14.239808 29.154793 43.156877 0.463980 0.829081 0.049691 -0.003611 24025.100000 0 0 1
28.807765 12.904308 28.880863 42.784492 0.421144 0.829789 0.062753 -0.004323 231286.000000 0 0 1
28.049865 12.435608 27.763793 41.379554 0.417301 0.835301 0.052997 -0.007477 313988.000000 0 0 1
27.856765 10.951108 27.834333 40.873906 0.374563 0.821696 0.056945 -0.000562 89764.700000 0 0 1
28.779065 10.167808 27.106233 40.821156 0.339617 0.844608 0.073576 -0.004053 180619.000000 0 0 1
28.297365 8.814208 26.931743 40.046846 0.301960 0.833207 0.078353 -0.005277 353451.000000 0 0 1
29.417565 7.921208 26.351953 40.281064 0.263029 0.857669 0.091539 -0.008674 140021.000000 0 0 1
29.836265 8.245408 25.061733 39.828130 0.269626 0.890212 0.090445 -0.009920 265803.000000 0 0 1
30.837965 7.347008 24.583193 40.115982 0.233885 0.911194 0.094828 -0.002761 246341.000000 0 0 1
31.362665 7.617308 23.171243 39.730928 0.238265 0.948129 0.107527 -0.007395 -365505.000000 0 0 1
32.146965 8.766808 23.126963 40.560334 0.266236 0.964063 0.107450 -0.018024 -293890.000000 0 0 1
31.502165 9.974808 22.854213 40.177086 0.306651 0.965705 0.117473 -0.029634 -481513.000000 0 0 1
31.037765 10.219508 21.381813 39.050776 0.318080 0.991376 0.115585 -0.008929 -218958.000000 0 0 1
32.023765 10.628308 20.474913 39.467766 0.320449 1.025378 0.130119 -0.021804 13066.000000 0 0 1
31.618965 10.440508 19.113813 38.394023 0.318926 1.049698 0.135382 -0.028920 -239199.000000 0 0 1
32.745565 11.052708 18.219113 39.068792 0.325525 1.085654 0.141379 -0.059119 1372460.000000 0 0 1
33.972365 10.334008 17.987613 39.805371 0.295295 1.101914 0.152078 -0.044954 490440.000000 0 0 1
34.766965 9.959508 19.046513 40.874238 0.278993 1.086056 0.122391 -0.032902 -1085410.000000 0 0 1
36.144165 9.488108 18.540913 41.715589 0.256715 1.110225 0.119453 -0.028333 -349869.000000 0 0 1
36.231465 8.204308 18.016313 41.287011 0.222686 1.119239 0.106301 -0.019122 -317189.000000 0 0 1
-36.689861 7.862008 17.527413 41.414578 -0.211091 1.133802 0.104998 -0.012424 -553682.000000 0 0 1
-36.615261 6.318408 17.285513 40.980344 -0.170879 1.135367 0.115189 -0.014351 -56549.400000 0 0 1
36.683365 5.871108 16.275513 40.558988 0.158702 1.157882 0.111805 -0.010436 95586.800000 0 0 1
36.900365 4.500608 15.934713 40.445117 0.121367 1.165835 0.137118 -0.020854 -15950.300000 0 0 1
35.578065 3.682308 15.816913 39.109243 0.103132 1.154442 0.134695 -0.016523 280978.000000 0 0 1
35.269165 3.062008 17.047013 39.292373 0.086601 1.122034 0.138100 -0.006247 1830570.000000 0 0 1
33.944365 2.402108 17.044513 38.059236 0.070648 1.106446 0.115619 -0.012619 1912550.000000 0 0 1
33.634465 1.614608 18.363313 38.354862 0.047968 1.071539 0.126478 -0.027016 270888.000000 0 0 1
34.299165 0.346208 18.446713 38.946551 0.010093 1.077375 0.146002 -0.024631 223291.000000 0 0 1
33.941765 -0.375092 19.632513 39.212494 -0.011051 1.046424 0.158031 -0.032341 -87756.800000 0 0 1
34.688465 -1.690092 19.750913 39.953030 -0.048684 1.053706 0.152819 -0.033514 -189431.000000 0 0 1
34.354065 -2.553192 20.838313 40.261096 -0.074184 1.026777 0.151731 -0.030215 196133.000000 0 0 1
35.044765 -3.825192 20.776013 40.919560 -0.108721 1.038251 0.124621 -0.028895 291721.000000 0 0 1
34.627265 -4.749292 21.928413 41.260860 -0.136304 1.010476 0.122880 -0.024554 154288.000000 0 0 1
35.066365 -4.255592 23.231223 42.278242 -0.120768 0.989050 0.125739 -0.027380 389181.000000 0 0 1
34.597165 -5.036492 24.320943 42.589181 -0.144560 0.963001 0.116517 -0.028727 82488.800000 0 0 1
35.047965 -4.454292 25.700713 43.688983 -0.126414 0.941884 0.103755 -0.019833 338177.000000 0 0 1
34.298265 -4.924392 26.837913 43.828007 -0.142601 0.911772 0.097374 -0.026483 376698.000000 0 0 1
34.600065 -4.083692 27.974173 44.681041 -0.117482 0.894273 0.091996 -0.020591 289083.000000 0 0 1
33.599465 -4.347592 29.150073 44.693986 -0.128680 0.860294 0.072574 -0.023886 319830.000000 0 0 1
33.792065 -5.621892 29.731873 45.359603 -0.164857 0.855991 0.069303 -0.029281 449088.000000 0 0 1
32.614765 -6.078192 30.414173 45.007657 -0.184250 0.828807 0.067179 -0.040882 427162.000000 0 0 1
32.719065 -7.533192 30.917083 45.641562 -0.226295 0.826589 0.062246 -0.038821 -272589.000000 0 0 1
33.758065 -7.765092 31.811733 47.030734 -0.226089 0.827928 0.055729 -0.039999 -309497.000000 0 0 1
34.669865 -8.759792 31.376503 47.573295 -0.247483 0.850589 0.052518 -0.027075 291513.000000 0 0 1
35.949865 -8.898692 32.241779 49.103073 -0.242653 0.854475 0.055948 -0.017660 145093.000000 0 0 1
35.779165 -9.603192 33.471404 49.926995 -0.262222 0.836039 0.039343 -0.027646 -634368.000000 0 0 1
36.952365 -9.761992 -33.742775 50.983808 -0.258277 2.294058 0.020284 -0.032928 -790445.000000 0 0 1
36.650365 -9.865992 -32.198715 49.772927 -0.262959 2.274325 0.033848 -0.030688 -566805.000000 0 0 1
36.183365 -8.694892 -31.596225 48.817604 -0.235829 2.274742 0.028351 -0.035903 282365.000000 0 0 1
37.035865 -7.547692 -31.576285 49.251241 -0.201041 2.266762 0.025092 -0.028707 101127.000000 0 0 1
36.466465 -6.335292 -30.762885 48.127893 -0.172012 2.264241 0.029047 -0.026719 -162600.000000 0 0 1
36.519465 -6.622992 -29.390465 47.342737 -0.179405 2.240562 0.023164 -0.020804 146344.000000 0 0 1
35.789365 -5.724792 -28.598155 46.168240 -0.158614 2.238817 0.035451 -0.023147 -445294.000000 0 0 1
36.334365 -5.739492 -27.140345 45.713523 -0.156669 2.206452 0.041741 -0.025403 226295.000000 0 0 1
-36.591461 -5.081292 -27.124135 45.830920 0.137983 2.204124 0.041476 -0.022646 -140569.000000 0 0 1
-36.152161 -4.940192 -25.764895 44.667819 0.135809 2.185616 0.042310 -0.018187 -11133.300000 0 0 1
-34.834661 -4.151292 -25.758555 43.522293 0.118612 2.204145 0.072005 -0.015768 -1064090.000000 0 0 1
-34.406761 -3.741592 -24.481675 42.393126 0.108320 2.186449 0.088409 -0.022644 859405.000000 0 0 1
-33.028061 -4.000192 -24.160375 41.116640 0.120528 2.198893 0.108287 -0.020534 874421.000000 0 0 1
-32.025961 -3.071292 -24.876075 40.668343 0.095608 2.228981 0.112839 -0.022264 -836624.000000 0 0 1
-31.953561 -3.225392 -26.243545 41.474774 0.100599 2.255908 0.103789 -0.011426 -389560.000000 0 0 1
-30.845161 -2.581992 -26.808375 40.948499 0.083513 2.284562 0.114748 -0.011524 -54909.300000 0 0 1
-30.335261 -3.292292 -28.096685 41.478801 0.108107 2.314984 0.099790 -0.014106 -110559.000000 0 0 1
-31.333761 -3.418992 -29.087305 42.890155 0.108685 2.316081 0.101970 -0.017099 -130963.000000 0 0 1
-30.969761 -4.264792 -30.160005 43.438928 0.136848 2.338255 0.074975 -0.016074 -671570.000000 0 0 1
-32.182461 -4.655592 -31.006495 44.930925 0.143666 2.332413 0.061599 -0.018849 -536441.000000 0 0 1
-33.216761 -5.399492 -30.416215 45.361370 0.161144 2.305721 0.060399 -0.019719 595679.000000 0 0 1
-34.177161 -4.716792 -29.604805 45.461752 0.137144 2.279964 0.059925 -0.020490 72528.600000 0 0 1
-35.215661 -3.740592 -30.248195 46.573470 0.105823 2.277687 0.077555 -0.024365 -673886.000000 0 0 1
-34.697561 -2.567792 -30.862615 46.508228 0.073870 2.296410 0.096965 -0.016152 -50521.800000 0 0 1
-34.218061 -1.614692 -29.911115 45.477002 0.047153 2.288584 0.111677 -0.015012 4913.050000 0 0 1
-33.776761 -0.213792 -30.462985 45.485258 0.006329 2.304646 0.105866 -0.012081 632078.000000 0 0 1
-34.905561 0.468808 -31.031475 46.707284 -0.013430 2.297463 0.124062 -0.009519 642996.000000 0 0 1
-34.595561 1.801408 -31.331855 46.709560 -0.052024 2.306057 0.127062 -0.000220 334526.000000 0 0 1
-35.903061 2.565408 -31.675165 47.947129 -0.071333 2.292450 0.103088 0.002077 284357.000000 0 0 1
-36.522861 2.155908 -32.861905 49.177964 -0.058961 2.302616 0.096290 -0.002112 -348720.000000 0 0 1
36.418765 2.780508 -33.041445 49.252358 0.076200 2.306164 0.076767 -0.006037 -217364.000000 0 0 1
35.595265 2.226608 33.698392 49.066917 0.062472 0.813741 0.061329 -0.009457 84528.600000 0 0 1
36.088165 2.633008 32.400618 48.570448 0.072831 0.840507 0.067329 -0.003873 393689.000000 0 0 1
36.916965 1.673608 31.768343 48.732852 0.045303 0.860725 0.062611 -0.013265 -50021.200000 0 0 1
37.006265 1.717708 30.210993 47.802911 0.046383 0.886677 0.076615 -0.016355 -560759.000000 0 0 1
-36.361461 2.753008 29.756833 47.065954 -0.075568 0.886359 0.087345 -0.013586 -84242.900000 0 0 1
-36.043961 2.722008 28.371663 45.951362 -0.075376 0.905327 0.097648 -0.021279 279889.000000 0 0 1
-35.470761 4.112808 27.975213 45.361907 -0.115434 0.906238 0.086559 -0.022370 225438.000000 0 0 1
-34.863361 4.224208 26.672343 44.098886 -0.120577 0.921244 0.099991 -0.019279 567115.000000 0 0 1
-34.367261 5.585608 26.469503 43.737195 -0.161118 0.920786 0.089182 -0.015751 328981.000000 0 0 1
-33.475461 5.726408 25.171853 42.273164 -0.169423 0.932962 0.098678 -0.015115 -357527.000000 0 0 1
-32.300361 4.985208 25.182103 41.258986 -0.153131 0.914304 0.092856 -0.017647 69220.300000 0 0 1
-31.266961 5.386108 24.280693 39.952285 -0.170588 0.917582 0.092478 -0.021206 593045.000000 0 0 1
-31.589961 4.956608 22.833013 39.291730 -0.155636 0.950698 0.110270 -0.026063 -268484.000000 0 0 1
-31.490061 3.557108 22.685913 38.973422 -0.112483 0.949504 0.110313 -0.025271 203406.000000 0 0 1
-32.280661 3.131608 21.573113 38.951858 -0.096709 0.983827 0.133471 -0.028057 67276.900000 0 0 1
-32.057461 1.659808 21.340813 38.546933 -0.051730 0.984077 0.127918 -0.027262 446713.000000 0 0 1
-30.778861 1.373108 20.788013 37.166721 -0.044582 0.977234 0.103992 -0.018439 182547.000000 0 0 1
-30.828561 1.376508 19.362513 36.430782 -0.044621 1.010440 0.113205 -0.029197 -965247.000000 0 0 1
-29.472261 1.343008 18.698013 34.928978 -0.045537 1.005915 0.105663 -0.027464 -1066010.000000 0 0 1
-28.820761 0.121708 18.975113 34.506608 -0.004223 0.988554 0.110682 -0.029860 160312.000000 0 0 1
-27.626861 -0.262592 18.320713 33.150579 0.009505 0.985254 0.100753 -0.028320 -193548.000000 0 0 1
-27.759561 -0.324692 16.761113 32.428900 0.011696 1.027621 0.126670 -0.016733 -786806.000000 0 0 1
-27.986261 0.860408 16.071513 32.284124 -0.030734 1.049719 0.122444 -0.025689 219161.000000 0 0 1
-27.919761 0.683408 14.684913 31.553554 -0.024473 1.086714 0.145751 -0.018955 -241085.000000 0 0 1
-27.464161 1.944208 13.941713 30.861488 -0.070673 1.102069 0.138481 -0.024868 204237.000000 0 0 1
-26.054361 2.108808 13.988713 29.647275 -0.080763 1.079422 0.119136 -0.038241 187208.000000 0 0 1
-25.728161 3.389608 13.607213 29.301603 -0.130993 1.087857 0.120063 -0.041817 89452.900000 0 0 1
-24.245761 3.560608 13.180613 27.825589 -0.145813 1.077324 0.099763 -0.042107 37733.300000 0 0 1
-23.383161 3.561408 14.277813 27.628098 -0.151145 1.027704 0.071176 -0.031873 -123944.000000 0 0 1
-22.053761 3.889008 13.941713 26.379236 -0.174548 1.013951 0.067048 -0.031342 110685.000000 0 0 1
-21.295661 4.516508 15.144213 26.518884 -0.208989 0.962984 0.068638 -0.032031 -217402.000000 0 0 1
-21.672161 5.836808 15.431113 27.237293 -0.263081 0.968491 0.055489 -0.022826 186074.000000 0 0 1
-20.936261 6.379608 16.472513 27.392884 -0.295778 0.925616 0.050178 -0.015371 -432744.000000 0 0 1
-21.074961 7.898108 16.571013 27.948749 -0.358563 0.936132 0.056093 -0.021011 -245067.000000 0 0 1
-20.283961 8.666208 15.645513 27.043008 -0.403770 0.953856 0.051206 -0.023187 619950.000000 0 0 1
-20.414361 10.075008 15.712613 27.661130 -0.458455 0.966675 0.057020 -0.016721 -211316.000000 0 0 1
-19.943161 10.767608 17.023613 28.345625 -0.495067 0.926579 0.065786 -0.009410 134769.000000 0 0 1
-20.815461 10.485908 18.127113 29.526766 -0.466648 0.909778 0.085049 -0.021581 756398.000000 0 0 1
-20.206661 10.868908 19.347813 30.013000 -0.493496 0.870234 0.075734 -0.009365 16428.800000 0 0 1
-12.720935 -33.899295 -19.858875 41.295996 1.211801 2.072467 0.166087 -0.041683 -166494.000000 0 0 1
-13.739935 -33.922695 -18.897975 41.190636 1.185956 2.047433 0.188693 -0.038029 311166.000000 0 0 1
-14.877235 -33.156595 -19.361975 41.177396 1.149027 2.060324 0.173289 -0.058308 1076590.000000 0 0 1
-16.193435 -33.656095 -18.679275 41.759733 1.122347 2.034544 0.157322 -0.045614 -688985.000000 0 0 1
-16.505435 33.113908 -18.992275 41.589263 -1.108394 2.045037 0.154340 -0.054367 787261.000000 0 0 1
-17.553735 32.442208 -18.253575 41.156087 -1.074830 2.030319 0.143529 -0.046660 1719820.000000 0 0 1
-18.916735 33.135708 -17.845675 42.122276 -1.052059 2.008282 0.135288 -0.045999 99420.300000 0 0 1
-18.822435 -33.893795 -16.899075 42.292459 1.063866 1.981851 0.146507 -0.042980 -22028.600000 0 0 1
-20.092835 -33.461395 -16.466075 42.361758 1.030025 1.970018 0.103532 -0.040368 122800.000000 0 0 1
-20.533235 33.966208 -15.124775 42.474414 -1.027060 1.934878 0.107418 -0.032380 -184602.000000 0 0 1
-20.677435 32.542608 -15.150775 41.426122 -1.004756 1.945213 0.116814 -0.037939 234882.000000 0 0 1
-21.166535 32.058608 -13.905475 40.855095 -0.987253 1.918097 0.108684 -0.028123 -304231.000000 0 0 1
-21.192635 30.492408 -13.822475 39.622917 -0.963425 1.927141 0.118954 -0.032040 -192586.000000 0 0 1
-19.925635 29.959608 -13.557675 38.450222 -0.983891 1.931148 0.132372 -0.041384 -280549.000000 0 0 1
-19.968135 28.537408 -13.509175 37.357835 -0.960260 1.940796 0.126409 -0.046523 -181859.000000 0 0 1
-18.837935 27.704908 -12.889775 35.896741 -0.973654 1.938077 0.112590 -0.045898 1314530.000000 0 0 1
-17.515135 27.827208 -13.509875 35.547857 -1.009021 1.960644 0.126680 -0.048780 1490340.000000 0 0 1
-16.564735 26.898208 -12.994575 34.157913 -1.018818 1.961054 0.131849 -0.056734 491455.000000 0 0 1
-15.152235 27.228708 -13.542675 33.976415 -1.062992 1.980776 0.103846 -0.058983 32839.300000 0 0 1
-15.112935 27.304208 -14.997275 34.624252 -1.065268 2.018774 0.080886 -0.052216 -352025.000000 0 0 1
-13.810235 27.647108 -15.394975 34.526662 -1.107534 2.032961 0.116391 -0.054363 -324524.000000 0 0 1
-13.702335 27.935908 -16.938075 35.426929 -1.114784 2.069301 0.131497 -0.062229 -143314.000000 0 0 1
-13.519935 26.796108 -17.756775 34.872956 -1.103517 2.105034 0.105341 -0.061574 46335.900000 0 0 1
-13.942935 26.975108 -19.082375 35.863615 -1.093735 2.131854 0.084335 -0.053655 -379996.000000 0 0 1
-13.498635 25.905408 -20.049375 35.429941 -1.090432 2.172306 0.065789 -0.028664 -446177.000000 0 0 1
-12.232635 26.182408 -20.602375 35.491037 -1.133725 2.190133 0.055660 -0.025719 -233748.000000 0 0 1
-11.786835 25.114008 -21.363775 35.015050 -1.131982 2.227022 0.054462 -0.021148 -669970.000000 0 0 1
-10.551035 25.326508 -22.188775 35.285947 -1.176062 2.250841 0.079294 -0.029810 -828738.000000 0 0 1
-10.804435 26.104908 -23.375775 36.669182 -1.178378 2.262016 0.068248 -0.019610 -82711.800000 0 0 1
-9.646335 26.523008 -24.061575 37.087479 -1.221972 2.276775 0.073973 -0.025710 -88925.200000 0 0 1
-9.946835 27.291408 -25.308115 38.526110 -1.221291 2.287507 0.078618 -0.023691 354510.000000 0 0 1
-10.606935 26.461808 -26.308065 38.792378 -1.189567 2.316074 0.067313 -0.015318 126675.000000 0 0 1
-10.739135 27.234708 -27.503815 40.168622 -1.195198 2.325001 0.087092 -0.008676 -15374.200000 0 0 1
-11.892435 26.576908 -28.274395 40.585754 -1.150046 2.341525 0.051843 -0.000598 -154441.000000 0 0 1
-12.370335 27.308308 -29.351905 41.955967 -1.145460 2.345618 0.062315 0.000232 -275952.000000 0 0 1
-13.624435 26.773308 -29.701635 42.244791 -1.100069 2.350521 0.045487 0.008302 -239162.000000 0 0 1
-14.153235 27.023008 -31.117615 43.575945 -1.088332 2.366135 0.055465 -0.002310 51275.000000 0 0 1
-13.382435 26.347108 -32.122745 43.647799 -1.100826 2.397870 0.055551 -0.004286 240949.000000 0 0 1
-13.282635 24.900308 -32.094885 42.737985 -1.080762 2.420324 0.037665 -0.007582 255639.000000 0 0 1
-12.373835 24.254608 -33.181735 42.923482 -1.099050 2.454422 0.040494 -0.007129 437489.000000 0 0 1
-12.972335 24.455108 33.473416 43.437349 -1.083083 0.690993 0.042409 -0.000490 154921.000000 0 0 1
-12.323235 23.598908 32.562196 42.060280 -1.089551 0.685379 0.039635 -0.004467 -601250.000000 0 0 1
-12.804735 23.626508 31.115183 41.113595 -1.074143 0.712377 0.046148 0.005834 -1041990.000000 0 0 1
-14.014235 22.959108 31.001503 41.044032 -1.022765 0.714649 0.040254 -0.010251 -635614.000000 0 0 1
-14.525335 22.763808 29.702803 40.142655 -1.002840 0.737828 0.054215 0.000903 97180.800000 0 0 1
-15.802735 21.930008 29.749993 40.195942 -0.946379 0.737541 0.050240 -0.001609 99287.300000 0 0 1
-15.335535 20.572108 29.841623 39.356228 -0.930212 0.710181 0.024720 -0.009164 610607.000000 0 0 1
-16.424835 19.667708 30.019643 39.468632 -0.875006 0.706567 0.028645 -0.008421 316638.000000 0 0 1
-15.998235 18.167308 29.953913 38.512744 -0.848800 0.679692 0.015650 -0.011945 -12178.800000 0 0 1
-15.663835 17.767208 28.631443 37.158968 -0.848232 0.691152 0.034312 -0.013477 -108504.000000 0 0 1
-15.070435 16.525808 28.688453 36.376471 -0.831427 0.662179 0.014318 -0.019845 -231997.000000 0 0 1
-14.666835 15.999808 27.299063 34.876191 -0.828837 0.671737 0.030533 -0.017755 715116.000000 0 0 1
-13.586135 16.792808 26.758983 34.389309 -0.890565 0.679130 0.009338 -0.018824 371572.000000 0 0 1
-12.834235 16.062108 25.818913 33.004926 -0.896642 0.672488 -0.006518 -0.013894 491539.000000 0 0 1
-11.804135 16.975108 25.031773 32.466622 -0.963178 0.690386 0.015732 -0.009273 409345.000000 0 0 1
-12.299835 17.884508 24.079843 32.418828 -0.968348 0.733593 0.014674 -0.010009 -149310.000000 0 0 1
-12.906535 19.137108 24.530913 33.683426 -0.977442 0.754990 0.016027 -0.009178 467145.000000 0 0 1
-12.030935 20.137908 25.368213 34.551772 -1.032271 0.746296 0.009116 -0.013120 56034.300000 0 0 1
-11.689535 19.835208 26.725673 35.275236 -1.038257 0.711118 0.013768 -0.013821 -388732.000000 0 0 1
-12.682535 19.997008 27.696643 36.439416 -1.005593 0.707370 0.021545 -0.010781 -549805.000000 0 0 1
-12.282035 19.507108 29.087463 37.114096 -1.008883 0.670146 0.031943 -0.012350 -144667.000000 0 0 1
-11.203535 20.215208 29.664263 37.605083 -1.064724 0.661883 0.033049 -0.020291 -48338.300000 0 0 1
-11.133935 19.839408 31.007813 38.458433 -1.059393 0.632980 0.036223 -0.024284 291962.000000 0 0 1
-10.088735 20.645208 31.857963 39.280236 -1.116252 0.624863 0.027178 -0.019165 1311560.000000 0 0 1
-8.730235 20.208408 31.632163 38.538169 -1.163003 0.607985 0.032172 -0.023721 757683.000000 0 0 1
-7.849035 21.154208 32.210532 39.327169 -1.215503 0.611060 0.048876 -0.026625 584348.000000 0 0 1
-6.502135 20.591108 32.757166 39.233957 -1.264932 0.582811 0.049415 -0.024518 -174236.000000 0 0 1
-6.728335 19.807408 33.924323 39.855534 -1.243338 0.552563 0.042338 -0.024108 540640.000000 0 0 1
-5.552635 19.243508 -33.398705 38.943778 -1.289881 2.601407 0.032709 -0.020335 768106.000000 0 0 1
-4.773035 18.247808 33.635042 38.562681 -1.314961 0.511079 0.018862 -0.025287 -191535.000000 0 0 1
-5.471435 17.011208 33.608645 38.063878 -1.259609 0.488679 0.015901 -0.020961 61820.100000 0 0 1
-4.997935 16.109008 32.636991 36.737619 -1.269956 0.476990 0.030362 -0.017934 -278102.000000 0 0 1
-5.695635 14.730908 32.475479 36.112278 -1.201855 0.452649 0.035411 -0.020800 -327704.000000 0 0 1
-5.223935 13.784808 33.419775 36.526590 -1.208556 0.415428 0.047686 -0.022103 -332875.000000 0 0 1
-5.750235 12.526408 33.277414 36.018917 -1.140443 0.392679 0.055595 -0.026842 227909.000000 0 0 1
-4.821535 11.296708 33.769137 35.933514 -1.167395 0.348848 0.069242 -0.032185 639088.000000 0 0 1
-4.553835 11.227408 -32.767475 34.935648 -1.185472 2.787433 0.081317 -0.036096 -251576.000000 0 0 1
-3.922635 9.970708 -32.534265 34.253182 -1.195979 2.823448 0.104112 -0.035880 124772.000000 0 0 1
-4.101135 9.502908 -31.092865 32.770273 -1.163377 2.820253 0.100046 -0.032717 186959.000000 0 0 1
-5.335035 8.933408 -30.722845 32.437040 -1.032438 2.815038 0.105217 -0.031708 -225711.000000 0 0 1
-5.310735 8.898708 -29.335415 31.112015 -1.032734 2.802019 0.128350 -0.032120 70427.800000 0 0 1
-6.439035 8.144608 -28.595545 30.422048 -0.901820 2.793313 0.111713 -0.029359 -13854.700000 0 0 1
-6.181935 6.751008 -28.646725 30.073697 -0.829372 2.832306 0.117249 -0.017581 -25865.600000 0 0 1
-7.239435 6.001908 -28.083665 29.616288 -0.692210 2.818477 0.123208 -0.037251 -320964.000000 0 0 1
-7.108935 5.459508 -26.636705 28.104398 -0.654908 2.816989 0.116612 -0.039341 -246886.000000 0 0 1
-7.156335 6.442108 -25.583525 27.335519 -0.732924 2.781624 0.083951 -0.022973 -222865.000000 0 0 1
-5.928535 7.031808 -25.230835 26.854960 -0.870320 2.792029 0.095693 -0.034675 -339170.000000 0 0 1
-6.034635 8.153308 -24.151575 26.195263 -0.933632 2.743966 0.061689 -0.017757 77691.700000 0 0 1
-6.311035 7.608308 -22.824775 24.873396 -0.878329 2.732892 0.056346 -0.016057 -665915.000000 0 1 0
-7.597035 7.919208 -22.398275 24.942163 -0.806159 2.686018 0.055115 -0.013147 -463138.000000 0 1 0
-7.583835 8.082608 -20.872175 23.632409 -0.817224 2.653441 0.046184 -0.010679 55143.400000 0 1 0
-6.982435 9.273408 -20.346875 23.425324 -0.925408 2.623135 0.031845 -0.006459 14236.800000 0 1 0
-6.954935 9.439608 -18.953075 22.286686 -0.935808 2.587582 0.027751 -0.004208 -210299.000000 0 1 0
-8.290335 9.595108 -18.193475 22.176525 -0.858221 2.532895 0.030916 0.000759 -710019.000000 0 1 0
-8.213435 9.506508 -16.806175 20.982891 -0.858242 2.499671 0.031926 0.002095 181469.000000 0 1 0
-9.405935 9.853808 -16.106975 21.095113 -0.808648 2.439575 0.036506 -0.000336 290995.000000 0 1 0
-9.742635 11.370108 -16.296975 22.131192 -0.862331 2.398501 0.050853 -0.009993 -212628.000000 0 1 0
-8.703435 12.220008 -15.785175 21.777284 -0.951911 2.381607 0.026509 -0.011995 539487.000000 0 1 0
-8.895535 13.499908 -16.363975 23.003429 -0.988167 2.362244 0.043823 -0.013099 43635.800000 0 1 0
-7.757635 14.432708 -15.917475 22.844036 -1.077598 2.341707 0.043200 -0.016717 -520163.000000 0 1 0
-7.641535 14.625708 -14.486175 21.957997 -1.089333 2.291245 0.040388 -0.011453 342173.000000 0 1 0
-8.533535 15.498408 -13.809775 22.443969 -1.067487 2.233563 0.045098 -0.011182 -863016.000000 0 1 0
-7.761035 16.226508 -12.663975 21.997943 -1.124664 2.184243 0.036405 -0.012103 344774.000000 0 1 0
-7.221035 17.502008 -12.939275 22.932258 -1.179490 2.170308 0.037982 -0.012997 -416421.000000 0 1 0
-6.246935 17.437408 -13.922975 23.171893 -1.226792 2.215368 0.046639 -0.011051 -1263750.000000 0 1 0
-5.897735 18.814108 -14.497275 24.472942 -1.267024 2.204806 0.064184 -0.007898 118327.000000 0 1 0
-5.319335 19.672708 -13.552375 24.474019 -1.306720 2.157652 0.063331 -0.015974 -389379.000000 0 1 0
-5.272835 21.046708 -13.938575 25.788575 -1.325319 2.141821 0.070928 -0.011655 -1761.410000 0 0 1
-4.631135 21.918908 -12.850775 25.826892 -1.362574 2.091595 0.068751 -0.013643 -331496.000000 0 0 1
-4.743935 23.370508 -12.961975 27.142188 -1.370529 2.068670 0.070163 -0.014930 778784.000000 0 0 1
-6.046535 23.983208 -12.855775 27.875182 -1.323828 2.050133 0.078834 -0.014033 1174560.000000 0 0 1
-6.847635 23.834708 -11.527275 27.347056 -1.291034 2.005915 0.067282 -0.021523 136038.000000 0 0 1
-7.397135 22.534008 -11.196675 26.227174 -1.253614 2.011871 0.062882 -0.022864 833761.000000 0 0 1
-8.427135 22.477008 -10.192275 26.079014 -1.212094 1.972322 0.065887 -0.026292 686827.000000 0 0 1
-7.931335 22.825408 -8.787075 25.712215 -1.236370 1.919572 0.066720 -0.025283 -53687.200000 0 0 1
-7.608935 24.223608 -8.588375 26.803717 -1.266443 1.896966 0.054612 -0.023826 32632.400000 0 0 1
-6.899235 24.530708 -7.395275 26.533850 -1.296630 1.853248 0.059726 -0.024994 237949.000000 0 0 1
-6.916135 26.060308 -7.142875 27.892530 -1.311387 1.829767 0.069445 -0.025038 22424.300000 0 0 1
-6.091535 26.978408 -7.853275 28.750917 -1.348727 1.847461 0.069200 -0.026943 -61435.400000 0 0 1
-6.188335 26.989808 -9.256975 29.196521 -1.345408 1.893422 0.065438 -0.025736 -50627.400000 0 0 1
-5.582435 28.260808 -9.927275 30.469454 -1.375774 1.902665 0.058320 -0.027217 276250.000000 0 0 1
-6.416935 29.399108 -9.823975 31.654306 -1.355897 1.886360 0.052439 -0.024219 233093.000000 0 0 1
-7.415135 29.455408 -10.841975 32.251414 -1.324180 1.913644 0.069192 -0.025663 67504.300000 0 0 1
-8.469435 30.560708 -10.629775 33.446679 -1.300447 1.894218 0.060453 -0.025424 -73672.300000 0 0 1
-9.571035 30.077608 -9.898475 33.079405 -1.262717 1.874686 0.059741 -0.020264 -549498.000000 0 0 1
-10.635235 30.990708 -9.857075 34.215408 -1.240215 1.863027 0.050356 -0.028146 -202662.000000 0 0 1
-11.796435 30.409608 -9.057575 33.851733 -1.200749 1.841662 0.068790 -0.039228 -401710.000000 0 0 1
-12.601735 29.420508 -9.604875 33.415919 -1.166107 1.862343 0.081934 -0.042439 -579724.000000 0 0 1
-13.753635 29.221808 -8.839775 33.484596 -1.130892 1.837958 0.099560 -0.038696 -267935.000000 0 0 1
-14.595335 28.033208 -9.352175 32.959790 -1.090770 1.858494 0.114686 -0.039193 -404437.000000 0 0 1
-14.188535 26.696408 -9.085975 31.568460 -1.082285 1.862744 0.094862 -0.048139 -361483.000000 0 0 1
-15.257535 25.804608 -9.198675 31.357388 -1.036819 1.868525 0.121092 -0.047867 -396577.000000 0 0 1
-15.062635 24.481708 -8.433175 29.955891 -1.019231 1.856174 0.106581 -0.045917 128113.000000 0 0 1
-13.981335 23.654808 -8.849075 28.867521 -1.036979 1.882353 0.110449 -0.040618 132500.000000 0 0 1
-14.200835 22.265408 -8.608175 27.776119 -1.003047 1.885898 0.101636 -0.038569 -442955.000000 0 0 1
-13.266635 21.276708 -9.308275 26.745951 -1.013256 1.926261 0.107312 -0.038445 -446668.000000 0 0 1
-13.326635 21.240008 -10.704375 27.263910 -1.010451 1.974276 0.104414 -0.030790 212637.000000 0 0 1
-12.568435 20.192208 -11.299475 26.331900 -1.014040 2.014312 0.097322 -0.021561 82561.300000 0 0 1
-12.738635 20.107308 -12.890075 27.068998 -1.006085 2.067117 0.104556 -0.004842 586709.000000 0 0 1
-14.045035 19.617608 -13.208775 27.506095 -0.949452 2.071693 0.114583 -0.006937 428150.000000 0 0 1
-14.312135 19.541708 -14.566875 28.264985 -0.938662 2.112234 0.116630 0.002450 -331362.000000 0 0 1
-15.680735 18.928008 -14.872275 28.728722 -0.878952 2.114933 0.105642 -0.009746 30274.600000 0 0 1
-16.713435 19.888108 -14.774075 29.885599 -0.871918 2.087888 0.099832 -0.012651 -314336.000000 0 0 1
-18.019035 19.393308 -14.914575 30.384709 -0.822115 2.083870 0.088938 -0.007438 -528529.000000 0 0 1
-18.878135 20.343908 -15.707775 31.890324 -0.822752 2.085821 0.071853 -0.014277 -559348.000000 0 0 1
-19.004935 21.589608 -15.088375 32.480113 -0.848983 2.053914 0.081178 -0.020523 424703.000000 0 0 1
-19.960235 22.386808 -15.770075 33.886213 -0.842638 2.054864 0.070264 -0.025792 -79987.800000 0 0 1
-20.392635 23.615608 -14.993775 34.617478 -0.858503 2.018756 0.073423 -0.017561 -758759.000000 0 0 1
-21.348835 23.325408 -14.051675 34.601979 -0.829613 1.988973 0.071801 -0.021845 -280608.000000 0 0 1
-21.731735 24.488308 -13.327675 35.349292 -0.844968 1.957382 0.080605 -0.033330 35827.400000 0 0 1
-26.525475 -0.917392 3.899225 26.826225 0.034572 1.424928 0.209235 -0.047129 -194747.000000 0 0 1
-26.950955 -0.471892 5.119325 27.436912 0.017507 1.383111 0.197021 -0.040410 117619.000000 0 0 1
-28.339845 -0.209492 5.022425 28.782207 0.007392 1.395401 0.174761 -0.038388 14118.500000 0 0 1
-29.002745 0.392408 6.258125 29.672838 -0.013529 1.358296 0.184562 -0.036110 -335268.000000 0 0 1
-28.892325 1.789708 6.206925 29.605665 -0.061865 1.359576 0.199840 -0.042860 25112.100000 0 0 1
-29.235685 2.353808 7.438325 30.258790 -0.080338 1.322427 0.208561 -0.034906 -94382.500000 0 0 1
-28.065395 2.998808 8.249525 29.406018 -0.106447 1.286441 0.211727 -0.030636 245196.000000 0 0 1
-27.262555 2.004408 8.863625 28.737230 -0.073390 1.257247 0.180201 -0.039515 614422.000000 0 0 1
-26.267655 2.565708 9.754525 28.137578 -0.097367 1.216775 0.168623 -0.042231 507950.000000 0 0 1
-25.361325 1.400208 10.275325 27.399629 -0.055154 1.186381 0.148181 -0.040401 -651567.000000 0 0 1
-24.535535 0.839208 9.299825 26.252304 -0.034190 1.208687 0.145508 -0.040966 -149304.000000 0 0 1
-25.042835 -0.265692 8.596825 26.478662 0.010609 1.240134 0.132967 -0.032901 -216537.000000 0 0 1
-23.907835 -1.091092 7.947725 25.217878 0.045606 1.250169 0.127129 -0.043937 -74245.700000 0 0 1
-22.928035 -1.492392 8.852725 24.623013 0.064999 1.203032 0.124808 -0.059375 311459.000000 0 1 0
-21.774435 -1.999492 8.169225 23.342241 0.091571 1.213251 0.145339 -0.049952 1049780.000000 0 1 0
-20.505635 -2.212792 9.067425 22.529885 0.107495 1.156591 0.119567 -0.042529 728992.000000 0 1 0
-19.827035 -1.006592 9.526225 22.019843 0.050725 1.123400 0.100612 -0.041268 921377.000000 0 1 0
-20.462935 -0.448892 10.687225 23.090041 0.021933 1.089589 0.107397 -0.039135 -394225.000000 0 1 0
-19.946735 0.946408 11.135925 22.864312 -0.047411 1.062094 0.064048 -0.023538 -415881.000000 0 1 0
-20.450335 2.029508 10.321025 22.996927 -0.098917 1.105374 0.083166 -0.012270 1047080.000000 0 1 0
-21.841135 2.292408 10.143525 24.190523 -0.104575 1.138102 0.100913 -0.026724 -172288.000000 0 1 0
-22.112935 3.702608 9.548625 24.369395 -0.165902 1.168178 0.086617 -0.028655 -506363.000000 0 1 0
-22.180735 4.662808 10.595025 25.019619 -0.207202 1.133525 0.069721 -0.030748 689380.000000 0 0 1
-22.616435 5.946508 10.140925 25.489261 -0.257109 1.161623 0.061647 -0.024317 -208008.000000 0 0 1
-22.634635 6.995108 11.295925 26.246069 -0.299734 1.125877 0.052650 -0.029321 532871.000000 0 0 1
-23.673135 6.713908 12.269625 27.496137 -0.276352 1.108247 0.064923 -0.027782 958336.000000 0 0 1
-23.703535 7.681108 13.260525 28.225848 -0.313372 1.081731 0.079886 -0.025442 -8223.370000 0 0 1
-24.554335 7.237908 14.499525 29.420042 -0.286653 1.055440 0.104246 -0.032568 -996153.000000 0 0 1
-25.901835 7.362208 14.250725 30.466216 -0.276931 1.084047 0.123769 -0.042410 -801226.000000 0 0 1
-26.621875 6.895608 15.420225 31.528669 -0.253450 1.059755 0.117875 -0.040826 311180.000000 0 0 1
-28.143585 6.677308 15.254625 32.700939 -0.232951 1.085479 0.119982 -0.040501 96134.000000 0 0 1
-28.492745 5.536708 14.507825 32.449478 -0.191928 1.107287 0.142806 -0.036595 -8125.060000 0 0 1
-29.476865 5.774408 13.540425 32.948027 -0.193447 1.147286 0.174914 -0.019519 -444088.000000 0 0 1
-29.734045 4.586408 12.596325 32.616192 -0.153042 1.174290 0.185080 -0.019184 -102989.000000 0 0 1
-30.695815 3.659708 13.048225 33.554175 -0.118665 1.171391 0.177573 -0.025184 266570.000000 0 0 1
-31.298435 2.859308 12.079725 33.670275 -0.091103 1.203852 0.176651 -0.013561 -542334.000000 0 0 1
-32.469125 2.024408 12.582925 34.880830 -0.062268 1.201735 0.157756 -0.004582 -291500.000000 0 0 1
-32.190665 0.723308 13.156725 34.783063 -0.022466 1.182890 0.140148 -0.008962 13439.300000 0 0 1
-33.423115 0.099708 13.466225 36.034064 -0.002983 1.187793 0.128500 -0.013288 194034.000000 0 0 1
-33.394595 -1.169692 14.379125 36.377553 0.035012 1.164429 0.104622 -0.021397 -128607.000000 0 0 1
-32.874715 -2.364492 13.819525 35.739571 0.071801 1.173775 0.102446 -0.015756 81771.500000 0 0 1
-32.800085 -3.401592 14.796425 36.143472 0.103337 1.149022 0.098282 -0.013554 -187081.000000 0 0 1
-32.939905 -4.872592 14.288725 36.234612 0.146859 1.165448 0.090253 -0.013337 1211620.000000 0 0 1
-34.126498 -5.173692 13.468225 37.051019 0.150458 1.198769 0.069637 -0.018712 1009510.000000 0 0 1
-34.068425 -6.471392 12.901825 36.999913 0.187716 1.214614 0.068215 -0.017911 -808917.000000 0 0 1
-35.334981 -6.915192 12.092625 37.981737 0.193261 1.246776 0.068879 -0.003060 462487.000000 0 0 1
-36.519685 -7.028892 12.848925 39.347015 0.190143 1.238141 0.054842 -0.010716 -21971.700000 0 0 1
-37.041015 -5.756292 13.295625 39.773676 0.154170 1.229953 0.070567 -0.019671 -1733890.000000 0 0 1
35.669722 -5.634092 12.904825 38.348489 -0.156657 1.227583 0.093854 -0.018002 -526864.000000 0 0 1
34.776262 -6.411992 13.667725 37.911855 -0.182331 1.201978 0.091049 -0.018253 800670.000000 0 0 1
33.467342 -6.274692 13.052625 36.466502 -0.185335 1.204741 0.115920 -0.021376 1204610.000000 0 0 1
32.414292 -7.380492 13.305525 35.807750 -0.223876 1.190084 0.118279 -0.023187 163830.000000 0 0 1
31.996142 -7.313092 14.667425 35.949517 -0.224702 1.150533 0.127789 -0.027140 184422.000000 0 0 1
30.996642 -8.250392 15.033225 35.423984 -0.260139 1.132519 0.121077 -0.022231 426149.000000 0 0 1
30.487982 -8.142192 16.540125 35.628473 -0.260972 1.088021 0.117801 -0.027246 558333.000000 0 0 1
31.474212 -8.598492 17.479625 37.014827 -0.266684 1.078974 0.090977 -0.026261 162920.000000 0 0 1
30.920912 -8.845992 18.725725 37.215684 -0.278642 1.043536 0.089860 -0.032233 -20229.000000 0 0 1
31.945652 -9.294292 19.849225 38.741454 -0.283125 1.032876 0.092273 -0.027419 1274370.000000 0 0 1
32.992662 -8.320992 20.130125 39.534499 -0.247055 1.036566 0.093920 -0.027467 305360.000000 0 0 1
34.203352 -8.753992 19.569425 40.366621 -0.250561 1.064671 0.053061 -0.014896 -27331.100000 0 0 1
35.474692 -7.941192 19.951425 41.467767 -0.220224 1.068852 0.045197 -0.016652 423726.000000 0 0 1
35.669412 -7.992392 21.363825 42.339087 -0.220428 1.041891 0.035933 -0.011068 556062.000000 0 0 1
37.026402 -8.000692 21.820825 43.716289 -0.212809 1.048183 0.022919 -0.008344 499254.000000 0 0 1
-37.052535 -8.685592 23.192925 44.567271 0.230256 1.023474 0.020485 -0.008008 -147620.000000 0 0 1
36.457672 -8.138292 24.309125 44.568231 -0.219625 0.993887 0.040315 -0.015052 130620.000000 0 0 1
36.358302 -9.103392 25.301725 45.221402 -0.245336 0.977005 0.042003 -0.023919 -117253.000000 0 0 1
35.788802 -8.579492 26.668125 45.449257 -0.235286 0.943736 0.057737 -0.022296 596320.000000 0 0 1
36.847312 -8.048492 27.470525 46.659751 -0.215051 0.941295 0.051376 -0.033612 631341.000000 0 0 1
36.331822 -7.141792 28.466225 46.704737 -0.194097 0.915375 0.054049 -0.032494 354206.000000 0 0 1
-36.621535 -6.523892 29.184925 47.280628 0.176294 0.905528 0.055411 -0.032015 382968.000000 0 0 1
-36.034841 -7.318792 30.119525 47.531676 0.200378 0.884505 0.048931 -0.032984 -852066.000000 0 0 1
-34.704203 -6.969392 30.353125 46.629029 0.198186 0.861962 0.036788 -0.032911 -221013.000000 0 0 1
-34.097197 -7.494292 31.665725 47.132806 0.216352 0.834106 0.027933 -0.028765 -107314.000000 0 0 1
-34.063605 -8.875292 31.573425 47.286162 0.254884 0.839669 0.026715 -0.029535 145211.000000 0 0 1
-33.512485 -9.505592 32.721025 47.792347 0.276384 0.816673 0.026779 -0.026377 -301825.000000 0 0 1
-33.604925 -11.017892 32.746425 48.197648 0.316821 0.823825 0.032917 -0.026219 -502557.000000 0 0 1
-34.944826 -11.415992 32.834225 49.290486 0.315756 0.841779 0.027237 -0.026566 -351813.000000 0 0 1
-35.053535 -12.836692 32.903825 49.761358 0.351036 0.848336 0.028743 -0.017264 354572.000000 0 0 1
-36.560295 -13.190392 32.998625 50.985791 0.346250 0.866875 0.025782 -0.017603 260882.000000 0 0 1
-36.857355 -14.534092 33.153925 51.661273 0.375612 0.874011 0.028286 -0.020119 -61330.300000 0 0 1
35.937742 -14.790592 33.170925 51.093964 -0.390433 0.864246 0.024017 -0.012337 -297844.000000 0 0 1
35.460582 -16.219592 33.401925 51.344100 -0.428989 0.862487 0.026202 -0.013774 -252465.000000 0 0 1
35.662012 -16.571292 -33.176662 51.449759 -0.434991 2.271605 0.044002 -0.018225 155782.000000 0 0 1
35.572992 -18.017792 -33.050162 51.791812 -0.468836 2.262870 0.041131 -0.026710 -453790.000000 0 0 1
36.019932 -18.689292 -31.725462 51.509514 -0.478621 2.234343 0.048200 -0.013535 34136.700000 0 0 1
35.201282 -18.359492 -30.621862 50.138803 -0.480744 2.227793 0.057535 -0.006789 21624.500000 0 0 1
35.431872 -19.335992 -29.591762 50.049680 -0.499554 2.203401 0.049808 -0.005558 -1045420.000000 0 0 1
34.468232 -19.265792 -28.368462 48.620977 -0.509684 2.193781 0.044787 -0.001926 1411410.000000 0 0 1
33.131712 -19.803892 -28.529162 47.998099 -0.538750 2.207292 0.053720 0.002288 1371150.000000 0 0 1
32.355772 -19.281392 -29.580862 47.892540 -0.537413 2.236548 0.038426 0.008852 -696586.000000 0 0 1
30.857162 -19.711492 -29.567562 47.063235 -0.568460 2.250100 0.024171 0.006864 635084.000000 0 0 1
29.959602 -19.104392 -30.485662 46.818064 -0.567660 2.279897 0.014810 0.014404 778165.000000 0 0 1
28.731092 -19.837392 -30.522962 46.375090 -0.604288 2.289189 0.015910 0.004889 355465.000000 0 0 1
27.770792 -19.425792 -31.621262 46.351726 -0.610393 2.321567 0.017983 0.012122 -59086.900000 0 0 1
28.180192 -19.943092 -32.868362 47.667382 -0.615874 2.331644 0.012197 0.008621 -295210.000000 0 0 1
27.316092 -19.446592 -33.851962 47.647604 -0.618674 2.360955 0.031600 0.001850 -315485.000000 0 0 1
27.665992 -19.608392 32.603825 47.041530 -0.616577 0.805035 0.035490 -0.003443 -444021.000000 0 0 1
28.729892 -18.781492 32.181225 47.050849 -0.578990 0.817610 0.040759 -0.002305 51991.900000 0 0 1
28.888392 -18.865692 30.785925 46.240964 -0.578519 0.842269 0.048945 -0.014241 -248091.000000 0 0 1
27.883592 -18.096492 29.916225 44.720893 -0.575673 0.837996 0.052860 -0.008883 -211796.000000 0 0 1
27.908792 -16.711792 30.124225 44.335692 -0.539537 0.823773 0.063802 -0.012982 317468.000000 0 0 1
26.914592 -16.046992 29.357625 42.939159 -0.537635 0.817972 0.070186 -0.011304 207360.000000 0 0 1
26.682392 -14.578892 29.814025 42.583685 -0.500064 0.795220 0.084116 -0.016267 -187460.000000 0 0 1
27.735492 -13.717692 29.482725 42.739486 -0.459310 0.809550 0.079714 -0.019101 -47405.800000 0 0 1
27.579092 -12.523692 30.193625 42.768028 -0.426259 0.786982 0.102322 -0.017440 -173939.000000 0 0 1
28.881392 -11.748192 30.444425 43.577722 -0.386332 0.797324 0.098629 -0.020493 -186160.000000 0 0 1
29.336082 -11.058192 29.288625 42.903530 -0.360478 0.819396 0.082457 -0.025833 -221057.000000 0 0 1
30.666072 -10.636592 29.482325 43.849203 -0.333868 0.833408 0.073642 -0.026435 -107809.000000 0 0 1
31.295632 -9.905692 28.310325 43.347593 -0.306543 0.859125 0.076791 -0.031938 -270581.000000 0 0 1
30.847662 -8.606292 28.140125 42.632302 -0.272075 0.849890 0.071011 -0.031369 -357273.000000 0 0 1
31.381722 -8.161492 26.953125 42.165073 -0.254435 0.877301 0.075012 -0.029108 31634.500000 0 0 1
31.244462 -6.631592 26.724825 41.646257 -0.209145 0.874070 0.082105 -0.030898 107123.000000 0 0 1
29.926582 -6.246092 26.397725 40.391260 -0.205760 0.858530 0.094042 -0.029357 -231664.000000 0 0 1
29.629722 -4.876192 26.303025 39.919254 -0.163109 0.851433 0.103442 -0.027168 -1146170.000000 0 0 1
28.164192 -4.600792 26.200125 38.740619 -0.161926 0.828074 0.094373 -0.020111 -1367830.000000 0 0 1
27.630292 -4.948992 24.908225 37.527926 -0.177235 0.845008 0.118987 -0.031816 210984.000000 0 0 1
26.258692 -4.583792 24.915525 36.487168 -0.172821 0.819130 0.123232 -0.029679 -125875.000000 0 0 1
25.540692 -4.858992 23.587625 35.104313 -0.187999 0.833985 0.117575 -0.026475 -144898.000000 0 0 1
26.019092 -4.030192 22.484925 34.623799 -0.153672 0.863992 0.124962 -0.021696 262664.000000 0 0 1
25.585792 -4.468292 21.221825 33.540487 -0.172896 0.885732 0.119728 -0.024398 -71745.200000 0 0 1
25.963292 -3.473492 20.122925 33.031649 -0.132995 0.915743 0.126838 -0.028802 267117.000000 0 0 1
25.144792 -2.290792 20.201725 32.336017 -0.090853 0.895993 0.113891 -0.021363 291216.000000 0 0 1
25.587292 -1.215392 19.394525 32.129960 -0.047464 0.922753 0.125155 -0.031202 233845.000000 0 0 1
24.419992 -0.331092 18.837325 30.842997 -0.013557 0.913790 0.086286 -0.032129 1427290.000000 0 0 1
23.372792 -1.041992 18.087025 29.572177 -0.044552 0.912686 0.097901 -0.031137 1025090.000000 0 0 1
22.359392 -0.176192 17.594625 28.452492 -0.007880 0.904109 0.098385 -0.036817 -344023.000000 0 0 1
21.241392 -0.952592 16.953325 27.194106 -0.044816 0.897688 0.080780 -0.030522 -779319.000000 0 0 1
21.629992 -1.809292 15.916925 26.916140 -0.083453 0.938061 0.106560 -0.031759 -256433.000000 0 0 1
20.549692 -2.582392 15.496025 25.866685 -0.125010 0.928454 0.096118 -0.032135 -433097.000000 0 0 1
20.929192 -3.259592 14.178025 25.488672 -0.154503 0.980932 0.108666 -0.034387 -72920.400000 0 0 1
19.895592 -4.127592 13.729525 24.522876 -0.204561 0.976572 0.103466 -0.031274 488202.000000 0 1 0
20.091292 -4.475092 12.382025 24.020845 -0.219160 1.029240 0.110520 -0.031726 -524750.000000 0 1 0
18.928392 -5.284792 11.810125 22.927977 -0.272266 1.029676 0.088606 -0.030410 -430469.000000 0 1 0
18.884292 -6.582092 12.398325 23.529957 -0.335381 1.015828 0.098944 -0.035376 81946.900000 0 1 0
17.642992 -7.186292 12.240625 22.644003 -0.386798 0.999684 0.081639 -0.023797 -662236.000000 0 1 0
17.723792 -8.689392 12.566925 23.400127 -0.455831 1.003866 0.102369 -0.034491 -219696.000000 0 1 0
18.415992 -9.356692 11.514525 23.649117 -0.470086 1.062270 0.079956 -0.042569 501474.000000 0 1 0
18.163392 -10.764292 11.535325 24.059146 -0.534988 1.070761 0.089970 -0.045570 -123980.000000 0 1 0
18.920592 -11.507992 10.435325 24.480986 -0.546446 1.130439 0.097667 -0.043779 152908.000000 0 1 0
18.404992 -11.078192 9.141725 23.346118 -0.541824 1.168455 0.092154 -0.037589 585423.000000 0 1 0
18.998092 -11.826892 8.103225 23.800528 -0.556822 1.223386 0.105585 -0.040720 -27474.100000 0 1 0
18.795492 -11.149792 6.763525 22.876487 -0.535417 1.270656 0.106252 -0.025459 114325.000000 0 1 0
19.414892 -9.851592 6.637425 22.760653 -0.469570 1.274878 0.120041 -0.018491 671466.000000 0 1 0
19.521792 -9.360392 5.315825 22.292943 -0.447101 1.330023 0.082719 -0.023061 -409597.000000 0 1 0
20.275792 -8.037592 5.259625 22.436004 -0.377410 1.334166 0.123586 -0.012879 -156017.000000 0 1 0
20.796992 -7.718692 3.983225 22.537949 -0.355386 1.393129 0.114867 -0.018238 560492.000000 0 1 0
21.339592 -6.430292 3.827025 22.613557 -0.292678 1.400742 0.134714 -0.017935 -290654.000000 0 1 0
21.731892 -6.157492 2.356625 22.709987 -0.276102 1.466839 0.125008 -0.022673 -432471.000000 0 1 0
20.712192 -6.068492 1.415425 21.629261 -0.285014 1.505309 0.079720 -0.033909 107297.000000 0 1 0
21.115292 -5.240892 0.323625 21.758383 -0.243287 1.555922 0.077768 -0.032446 18309.500000 0 1 0
-26.154345 -14.914592 -0.158375 30.108468 0.518259 1.576056 0.134738 -0.024358 -740154.000000 0 0 1
-25.140555 -14.356692 -0.924075 28.965773 0.518866 1.602704 0.146925 -0.014922 -357715.000000 0 0 1
-23.825735 -14.728992 -0.603175 28.017363 0.553692 1.592327 0.145336 -0.011851 409933.000000 0 0 1
-23.146735 -14.147592 0.720825 27.137525 0.548624 1.544231 0.160383 -0.037014 -268480.000000 0 0 1
-23.556335 -14.861692 1.840725 27.913421 0.562831 1.504804 0.134220 -0.011519 -206817.000000 0 0 1
-22.802535 -14.534392 2.970325 27.203437 0.567468 1.461389 0.131517 -0.004248 -158394.000000 0 0 1
-23.251235 -15.149692 4.253025 28.075279 0.577475 1.418724 0.125383 -0.003723 -159668.000000 0 0 1
-23.138435 -16.538492 4.198225 28.749504 0.620565 1.424245 0.155832 -0.020521 201727.000000 0 0 1
-23.465235 -17.167492 5.445125 29.580220 0.631630 1.385661 0.144383 -0.027943 27619.100000 0 0 1
-23.635135 -18.695992 5.299125 30.598046 0.669245 1.396734 0.113395 -0.020695 51031.800000 0 0 1
-24.018535 -19.415992 6.451725 31.551474 0.679827 1.364861 0.100370 -0.020414 74516.400000 0 0 1
-24.373635 -20.747892 6.185825 32.600821 0.705215 1.379894 0.095556 -0.022316 -66694.400000 0 0 1
-24.990135 -21.563992 7.306325 33.806729 0.711936 1.352957 0.083441 -0.013614 3010.090000 0 0 1
-24.039435 -21.971592 8.265625 33.600087 0.740486 1.322245 0.085543 -0.010625 -20052.900000 0 0 1
-24.642935 -22.846092 9.218625 34.845390 0.747579 1.303051 0.070698 -0.003228 607815.000000 0 0 1
-23.616535 -23.458192 10.260825 34.832628 0.782035 1.271785 0.082461 -0.010990 504980.000000 0 0 1
-23.396835 -22.395892 11.184925 34.265002 0.763544 1.238278 0.069497 -0.014138 132128.000000 0 0 1
-22.644435 -22.825492 12.311425 34.428835 0.789380 1.205110 0.081243 -0.018822 -132923.000000 0 0 1
-22.850435 -21.841492 13.486825 34.366955 0.762826 1.167518 0.061326 -0.012211 198073.000000 0 0 1
-24.083335 -22.103792 14.153825 35.621839 0.742565 1.162185 0.054381 -0.015510 382068.000000 0 0 1
-24.476635 -21.006892 14.992225 35.569115 0.709260 1.135702 0.046623 0.001624 -99025.100000 0 0 1
-25.901745 -21.224092 15.512725 36.905380 0.686463 1.136979 0.050360 -0.007072 198515.000000 0 0 1
-27.035285 -21.052492 14.650525 37.265962 0.661620 1.166759 0.049200 -0.004548 653577.000000 0 0 1
-27.471275 -22.272492 14.014425 38.041279 0.681265 1.193508 0.041517 -0.001799 292525.000000 0 0 1
-28.701365 -22.951192 14.682625 39.574045 0.674531 1.190693 0.036563 -0.007800 -34146.300000 0 0 1
-28.378625 -23.430292 15.917125 40.095882 0.690176 1.162576 0.039100 -0.008086 -205132.000000 0 0 1
-29.147205 -24.512192 16.423725 41.474641 0.699234 1.163646 0.033567 -0.009167 -121827.000000 0 0 1
-28.858795 -25.950122 15.867925 41.928867 0.732379 1.182677 0.046536 -0.013387 -393142.000000 0 0 1
-29.356755 -26.256632 14.573725 41.995514 0.729712 1.216393 0.053759 -0.023283 701522.000000 0 0 1
-30.536565 -27.088932 14.789825 43.416943 0.725641 1.223192 0.090995 -0.030784 836506.000000 0 0 1
-31.314465 -27.462682 13.507125 43.786265 0.719960 1.257203 0.133287 -0.044718 -29701.700000 0 0 1
-30.776265 -28.468892 12.660025 43.794206 0.746472 1.277531 0.107630 -0.043688 158144.000000 0 0 1
-31.681225 -28.658252 11.573925 44.260040 0.735341 1.306222 0.117644 -0.026653 361782.000000 0 0 1
-31.338345 -29.887302 10.661825 44.598399 0.761703 1.329396 0.105086 -0.026037 114525.000000 0 0 1
-31.499055 -31.152232 11.277925 45.714807 0.779862 1.321521 0.104794 -0.025456 -121586.000000 0 0 1
-31.102515 -32.167352 10.416825 45.941432 0.802227 1.342066 0.098099 -0.032404 -309541.000000 0 0 1
-31.110585 -33.598122 11.022625 47.097776 0.823821 1.334568 0.103751 -0.035765 -318973.000000 0 0 1
-32.347075 -34.027612 11.516525 48.340893 0.810712 1.330248 0.099951 -0.032199 -591463.000000 0 0 1
-32.276125 32.819743 12.093625 47.593482 -0.793749 1.313877 0.114977 -0.033991 -1009150.000000 0 0 1
-33.599845 32.335140 12.719325 48.335205 -0.766219 1.304512 0.120690 -0.030198 165824.000000 0 0 1
-34.591214 31.989171 11.762825 48.561540 -0.746337 1.326138 0.081867 -0.029922 -6486.720000 0 0 1
-35.267410 33.111678 11.270725 49.670944 -0.753882 1.341895 0.100801 -0.027877 -1431440.000000 0 0 1
-36.688155 32.846104 10.754925 50.403925 -0.730200 1.355768 0.094807 -0.009554 -268184.000000 0 0 1
-36.790635 32.142211 9.560325 49.780241 -0.718066 1.377545 0.075349 -0.007562 -860286.000000 0 0 1
36.095902 32.261913 9.097725 49.259657 0.729370 1.385041 0.067086 -0.008375 -824178.000000 0 0 1
35.955442 31.647031 7.715525 48.516572 0.721753 1.411090 0.058588 -0.009803 -72835.200000 0 0 1
35.991292 30.249471 7.857825 47.667064 0.698933 1.405192 0.086853 -0.020557 102743.000000 0 0 1
35.672722 29.695581 6.580425 46.879341 0.694214 1.429962 0.114846 -0.014604 20208.700000 0 0 1
35.731152 28.161051 6.406225 45.943441 0.667466 1.430903 0.122317 -0.011626 -413966.000000 0 0 1
34.720932 27.388191 6.964825 44.767901 0.667880 1.414585 0.116307 -0.018369 -383295.000000 0 0 1
34.922002 26.986111 8.296925 44.906964 0.657905 1.384971 0.098868 -0.010762 4973.590000 0 0 1
33.970012 25.813611 8.593725 43.521907 0.649803 1.372033 0.086428 -0.012838 127664.000000 0 0 1
34.229422 24.691251 7.740725 42.909557 0.624909 1.389407 0.094568 -0.018473 488948.000000 0 0 1
33.167922 23.723821 7.775425 41.513708 0.620897 1.382386 0.084376 -0.017571 -460106.000000 0 0 1
33.283432 22.561911 6.669725 40.759194 0.595720 1.406420 0.081414 -0.016560 240216.000000 0 0 1
34.288112 21.577711 6.863125 41.089837 0.561690 1.402982 0.101697 -0.015432 1792960.000000 0 0 1
35.661352 22.036111 7.132625 42.522895 0.553497 1.402264 0.104981 -0.021791 1248280.000000 0 0 1
36.625502 20.821711 7.220825 42.744723 0.516938 1.401053 0.092034 -0.017826 -46629.500000 0 0 1
36.564992 20.016711 6.015525 42.117145 0.500867 1.427478 0.107427 -0.026097 91089.200000 0 0 1
-37.063595 18.744211 6.326225 42.012815 -0.468222 1.419643 0.120719 -0.031609 -94692.800000 0 0 1
36.705562 17.634411 5.353125 41.072213 0.447868 1.440090 0.117854 -0.033198 -110567.000000 0 0 1
-36.845655 17.615911 4.080225 41.043524 -0.445975 1.471220 0.127663 -0.032201 -170258.000000 0 0 1
36.756852 16.627211 3.274325 40.475320 0.424812 1.489811 0.122412 -0.027922 -1466160.000000 0 0 1
-36.614975 16.069711 2.066825 40.039527 -0.413571 1.519154 0.152088 -0.020190 270649.000000 0 0 1
-35.432684 15.304411 2.348025 38.667988 -0.407725 1.510036 0.160343 -0.033845 458674.000000 0 0 1
-34.439794 16.257411 2.693825 38.179307 -0.441041 1.500180 0.161937 -0.037438 -871272.000000 0 0 1
-32.990485 15.662711 2.830925 36.629315 -0.443256 1.493433 0.143993 -0.037990 652176.000000 0 0 1
-32.766315 14.836211 3.959525 36.185942 -0.425170 1.461155 0.151123 -0.040636 906275.000000 0 0 1
-31.400025 14.392311 4.020825 34.774519 -0.429779 1.454912 0.129604 -0.038785 715761.000000 0 0 1
-31.236875 13.414011 5.214125 34.392806 -0.405616 1.418604 0.143096 -0.021277 253587.000000 0 0 1
-31.795255 12.067711 5.003125 34.374396 -0.362749 1.424729 0.168475 -0.029508 654329.000000 0 0 1
-31.458105 11.240211 6.112425 33.960513 -0.343170 1.389824 0.168199 -0.011392 82411.100000 0 0 1
-32.049335 9.781011 5.883725 34.021262 -0.296208 1.396980 0.185283 -0.036814 -107790.000000 0 0 1
-33.399765 9.576911 6.201325 35.294730 -0.279244 1.394178 0.181211 -0.012188 -370053.000000 0 0 1
-33.664455 8.238111 5.823825 35.143690 -0.239996 1.404314 0.214863 -0.024995 -243352.000000 0 0 1
-35.134839 7.818211 5.970625 36.486020 -0.218953 1.406416 0.196285 -0.016283 -189201.000000 0 0 1
-35.455046 7.358611 7.294325 36.938010 -0.204642 1.372015 0.189654 -0.021782 -668107.000000 0 0 1
-36.753295 6.850911 7.284825 38.089478 -0.184288 1.378355 0.140515 -0.014968 -366229.000000 0 0 1
-37.030055 5.955911 8.496125 38.456234 -0.159474 1.348029 0.125248 -0.018176 100535.000000 0 0 1
36.587342 6.615111 9.640625 38.410089 0.178871 1.317091 0.120288 -0.022596 196896.000000 0 0 1
-36.702885 7.488911 10.321225 38.855028 -0.201279 1.301935 0.143536 -0.027376 36598.300000 0 0 1
36.742502 8.416311 11.314425 39.355584 0.225177 1.279189 0.104925 -0.023457 -316692.000000 0 0 1
36.185642 7.747111 12.422825 39.035177 0.210910 1.246917 0.091008 -0.029909 470898.000000 0 0 1
35.668502 8.756711 13.304125 39.063049 0.240741 1.223262 0.110350 -0.029922 -304456.000000 0 0 1
35.013122 8.295511 14.610825 38.835685 0.232636 1.185081 0.131162 -0.037502 667067.000000 0 0 1
33.648742 7.843811 14.568125 37.496580 0.229019 1.171773 0.122462 -0.042336 825391.000000 0 0 1
33.311982 7.252711 15.804925 37.577728 0.214375 1.136698 0.120731 -0.028987 513333.000000 0 0 1
31.813782 6.986711 16.146125 36.354205 0.216181 1.110589 0.117592 -0.014126 195054.000000 0 0 1
31.062772 8.164811 16.234125 35.987592 0.257035 1.102795 0.093765 -0.028438 868401.000000 0 0 1
29.631172 8.014411 16.217525 34.716643 0.264152 1.084743 0.086428 -0.023354 1318650.000000 0 0 1
28.857692 7.457711 17.429925 34.528049 0.252897 1.041640 0.084732 -0.022764 -450862.000000 0 0 1
29.038192 8.255411 18.599725 35.458683 0.276987 1.018614 0.102914 -0.030383 183476.000000 0 0 1
28.334692 7.880111 19.794225 35.450843 0.271254 0.978392 0.097454 -0.021351 -20435.100000 0 0 1
28.388592 6.414511 20.346225 35.510942 0.222222 0.960688 0.096063 -0.020835 -94731.800000 0 0 1
27.711392 6.393511 21.578825 35.699355 0.226750 0.921709 0.080361 -0.014333 -8196.220000 0 0 1
28.169892 5.381811 22.440825 36.415620 0.188774 0.906835 0.084781 -0.008202 -758226.000000 0 0 1
27.251492 5.186311 23.658325 36.458991 0.188064 0.864655 0.084255 0.000106 600532.000000 0 0 1
25.917492 4.788411 23.308925 35.184532 0.182696 0.846676 0.058240 -0.000850 323457.000000 0 0 1
25.072092 5.920511 23.373025 34.784487 0.231892 0.833974 0.063884 0.005514 -1648310.000000 0 0 1
23.642492 5.534711 23.145025 33.545382 0.229959 0.809360 0.050577 0.000830 -1288060.000000 0 0 1
23.376992 5.295311 21.778725 32.385752 0.222759 0.833244 0.069899 0.000547 1128930.000000 0 0 1
22.001892 5.026011 21.434825 31.125484 0.224582 0.811159 0.076046 -0.006481 92822.400000 0 0 1
21.374692 3.575611 21.567525 30.574836 0.165748 0.787807 0.078553 -0.014073 1452180.000000 0 0 1
19.992492 3.427111 21.159625 29.311680 0.169770 0.764276 0.069508 -0.025077 1797510.000000 0 0 1
19.009992 4.184111 21.888425 29.291462 0.216646 0.726863 0.084703 -0.019021 -382712.000000 0 0 1
17.614892 4.082211 21.246425 27.899094 0.227728 0.705102 0.116201 -0.026114 -102817.000000 0 0 1
17.005692 2.799111 21.350925 27.438852 0.163136 0.679117 0.106102 -0.031321 -263808.000000 0 0 1
15.806392 2.762211 20.632325 26.137419 0.173006 0.661000 0.114724 -0.035553 -439613.000000 0 0 1
14.877892 1.552611 20.961625 25.751738 0.103981 0.619810 0.119282 -0.034001 -493960.000000 0 0 1
15.405192 0.286211 20.824025 25.904476 0.018577 0.637010 0.085428 -0.035640 -201573.000000 0 0 1
14.638092 -0.556589 21.637725 26.129958 -0.038005 0.595120 0.093759 -0.035497 -457051.000000 0 0 1
14.876992 -2.078789 21.505725 26.232470 -0.138833 0.609712 0.065727 -0.020522 -455429.000000 0 0 1
14.509592 -2.586689 20.218425 25.020071 -0.176421 0.629897 0.081733 -0.015565 228151.000000 0 0 1
14.334392 -3.980089 20.298825 25.166609 -0.270838 0.632457 0.054720 -0.009829 -158212.000000 0 0 1
13.975692 -4.623689 18.928525 23.978898 -0.319503 0.660994 0.057487 -0.016378 643784.000000 0 1 0
12.611492 -4.451089 18.522925 22.846459 -0.339291 0.625352 0.064403 -0.022839 264649.000000 0 1 0
12.315092 -5.198989 17.376525 21.923380 -0.399466 0.655731 0.070926 -0.022105 1628920.000000 0 1 0
10.743292 -5.324089 17.135925 20.914210 -0.460100 0.610531 0.058988 -0.022175 1710650.000000 0 1 0
10.111392 -6.270689 17.996925 21.574316 -0.555112 0.584147 0.053584 -0.014480 -1263920.000000 0 1 0
8.742592 -6.146389 17.912225 20.858064 -0.612763 0.537937 0.055648 -0.022210 -753637.000000 0 1 0
7.886092 -6.878489 18.986725 21.679479 -0.717259 0.503721 0.052053 -0.023675 -243259.000000 0 1 0
7.933792 -8.313689 18.764525 22.003861 -0.808776 0.549505 0.047046 -0.025223 479388.000000 0 1 0
9.122192 -8.933889 19.280125 23.124705 -0.774970 0.584939 0.056819 -0.027689 417397.000000 0 1 0
9.240192 -10.364089 18.815025 23.383769 -0.842665 0.635763 0.068347 -0.032202 231496.000000 0 1 0
9.098392 -10.578689 17.400425 22.303905 -0.860486 0.675888 0.050483 -0.021390 8672.350000 0 1 0
9.584892 -11.857089 17.106825 22.915152 -0.890974 0.727966 0.052086 -0.023699 225841.000000 0 1 0
9.635592 -11.982089 15.576925 21.887341 -0.893520 0.778900 0.047582 -0.016278 254849.000000 0 1 0
10.248692 -13.155189 15.045025 22.459908 -0.908954 0.836774 0.040913 -0.012268 11008.800000 0 1 0
9.830892 -13.330989 13.697025 21.493492 -0.935378 0.879854 0.027602 -0.006305 -465148.000000 0 1 0
10.510392 -14.484889 12.893525 22.057274 -0.943088 0.946474 0.045809 -0.012838 311637.000000 0 1 0
11.871892 -14.273689 12.564125 22.417343 -0.877004 0.975850 0.028155 -0.017245 -15522.000000 0 1 0
12.066492 -13.429289 11.463825 21.386101 -0.838799 1.005056 0.002363 -0.019185 -917152.000000 0 1 0
13.503192 -13.053889 11.087325 21.809837 -0.768481 1.037513 0.036796 -0.027820 11901.800000 0 1 0
14.273892 -14.041689 10.418425 22.571145 -0.777198 1.091019 0.041777 -0.023156 -304974.000000 0 1 0
15.567592 -13.571889 10.138525 23.007298 -0.717017 1.114456 0.050514 -0.034818 -85775.900000 0 1 0
16.508392 -14.658389 9.548225 24.053357 -0.726110 1.162594 0.053818 -0.039291 82495.400000 0 1 0
17.031092 -15.501889 10.519725 25.318595 -0.738428 1.142310 0.055926 -0.029136 444024.000000 0 0 1
16.049392 -16.478489 10.938625 25.471103 -0.798589 1.126910 0.072355 -0.024107 585618.000000 0 0 1
16.437092 -17.115689 12.261525 26.710856 -0.805620 1.093875 0.065253 -0.018256 771689.000000 0 0 1
17.543492 -18.046689 12.110525 27.930663 -0.799536 1.122321 0.083269 -0.030678 566876.000000 0 0 1
17.875092 -18.570289 13.393925 29.047750 -0.804471 1.091562 0.073534 -0.030639 -269971.000000 0 0 1
19.144492 -19.421389 13.316325 30.348417 -0.792578 1.116554 0.046644 -0.026403 433900.000000 0 0 1
20.290192 -18.707189 12.835925 30.437013 -0.744828 1.135454 0.051904 -0.027038 808383.000000 0 0 1
21.425592 -19.598489 12.652925 31.674174 -0.740890 1.159856 0.043528 -0.029889 1431710.000000 0 0 1
22.521292 -19.053989 11.688825 31.731557 -0.702193 1.193546 0.078447 -0.028711 -54185.600000 0 0 1
22.272192 -19.254389 10.308925 31.193845 -0.712854 1.233985 0.080814 -0.030612 982959.000000 0 0 1
21.046192 -18.701489 9.738425 29.791355 -0.726477 1.237788 0.077777 -0.032631 1220390.000000 0 0 1
20.620192 -17.190189 9.864925 28.600903 -0.694930 1.218646 0.122001 -0.039681 15926.600000 0 0 1
21.493192 -16.335989 9.161225 28.508769 -0.649905 1.243644 0.128482 -0.034715 -29744.100000 0 0 1
21.021492 -15.005789 9.222425 27.424988 -0.619948 1.227834 0.131161 -0.048439 150352.000000 0 0 1
-35.623508 25.021308 8.437025 44.342796 -0.612323 1.379361 0.113471 -0.015454 632589.000000 0 0 1
-34.780141 24.321208 9.394725 43.467692 -0.610246 1.352946 0.114791 -0.021660 1280250.000000 0 0 1
-33.635025 25.081508 9.851725 43.098184 -0.640741 1.340169 0.119830 -0.014386 762670.000000 0 0 1
-32.545715 24.045608 10.298725 41.754982 -0.636311 1.321578 0.138353 -0.030305 -264273.000000 0 0 1
-31.738585 23.561108 9.298725 40.607017 -0.638586 1.339753 0.138249 -0.027742 -173441.000000 0 0 1
-30.762595 22.638208 9.722825 39.412676 -0.634416 1.321530 0.138691 -0.028351 6220.730000 0 0 1
-30.094405 21.816408 8.623525 38.157490 -0.627264 1.342829 0.121839 -0.032002 -225743.000000 0 0 1
-30.962875 20.978308 7.892425 38.224068 -0.595486 1.362822 0.130134 -0.037936 87945.800000 0 0 1
-30.282165 20.245008 6.908025 37.075473 -0.589302 1.383378 0.114510 -0.035119 -15378.200000 0 0 1
-31.250365 19.366308 6.061825 37.261037 -0.554790 1.407385 0.120751 -0.026600 98824.700000 0 0 1
-31.925655 18.332708 6.758125 37.430040 -0.521256 1.389247 0.114252 -0.025428 -129324.000000 0 0 1
-32.939235 17.757208 6.024625 37.902608 -0.494428 1.411169 0.102637 -0.033193 -432703.000000 0 0 1
-33.732335 16.606908 6.706225 38.192058 -0.457480 1.394289 0.120324 -0.026033 -551717.000000 0 0 1
-34.627044 16.948708 7.703525 39.314567 -0.455184 1.373574 0.104428 -0.029089 -188549.000000 0 0 1
-35.369539 15.810008 8.063825 39.572540 -0.420352 1.365586 0.112940 -0.035990 581618.000000 0 0 1
-36.448165 16.143508 9.195425 40.910114 -0.416948 1.344088 0.110889 -0.034195 1596860.000000 0 0 1
36.588902 16.951708 8.809125 41.276008 0.433861 1.355722 0.132717 -0.031684 1030930.000000 0 0 1
35.895562 17.426908 9.955825 41.125503 0.451972 1.326283 0.137320 -0.023782 467250.000000 0 0 1
34.897742 18.607108 9.671425 40.713798 0.489845 1.330957 0.104927 -0.014119 95829.700000 0 0 1
33.802492 18.220208 8.880325 39.413762 0.494374 1.343535 0.089019 -0.021757 -519503.000000 0 0 1
32.964822 19.321308 8.754025 39.199814 0.530150 1.345579 0.083337 -0.015153 -398457.000000 0 0 1
31.530082 18.979608 8.296325 37.725331 0.541854 1.349070 0.065942 -0.021025 -84514.500000 0 0 1
30.725452 20.141808 8.405725 37.688222 0.580261 1.345871 0.055323 -0.020859 437326.000000 0 0 1
29.404392 20.225708 7.888225 36.550262 0.602523 1.353266 0.040405 -0.026114 497981.000000 0 0 1
29.179032 20.032308 6.384525 35.964864 0.601629 1.392329 0.027978 -0.007506 -713984.000000 0 0 1
29.505832 18.735008 5.902625 35.446236 0.565729 1.403494 0.033505 -0.017164 114191.000000 0 0 1
29.217242 18.448208 4.532825 34.850109 0.563199 1.440360 0.038974 -0.020526 -76941.800000 0 0 1
27.751992 18.569808 4.064425 33.638228 0.589709 1.449673 0.065094 -0.011072 -568407.000000 0 0 1
26.821192 17.744208 4.762125 32.510169 0.584469 1.423786 0.064974 -0.019441 1490320.000000 0 0 1
25.411192 18.016508 4.610225 31.489322 0.616740 1.423862 0.089787 -0.021073 1274240.000000 0 0 1
24.919592 19.391708 5.262725 32.011259 0.661288 1.405644 0.096159 -0.016371 -568621.000000 0 0 1
25.484592 20.479308 4.594025 33.014717 0.676930 1.431192 0.079676 -0.025589 -174807.000000 0 0 1
24.942592 21.669708 5.022725 33.420606 0.715298 1.419936 0.082877 -0.017661 -350524.000000 0 0 1
25.758892 22.929708 4.697425 34.804566 0.727356 1.435417 0.050857 -0.015388 100722.000000 0 0 1
27.053192 22.949408 5.305025 35.870515 0.703510 1.422358 0.040808 -0.020094 660848.000000 0 0 1
27.717492 24.188608 5.115725 37.141874 0.717517 1.432622 0.039572 -0.012451 -780923.000000 0 0 1
29.094692 24.315808 5.840325 38.364945 0.696161 1.417971 0.031241 -0.012746 684335.000000 0 0 1
30.094082 23.317708 5.505425 38.466596 0.659202 1.427181 0.031129 -0.018904 735249.000000 0 0 1
30.480522 23.275108 4.146825 38.574461 0.652152 1.463086 0.036987 -0.022484 -1523930.000000 0 0 1
31.440092 24.322208 3.639625 39.916113 0.658438 1.479488 0.070984 -0.031920 -1151810.000000 0 0 1
30.906062 25.618008 3.546525 40.299440 0.692116 1.482678 0.058629 -0.030194 -148432.000000 0 0 1
31.562282 26.429508 2.566425 41.246613 0.697120 1.508535 0.108212 -0.026061 -1145760.000000 0 0 1
31.004182 27.865208 2.558425 41.764515 0.732128 1.509500 0.091194 -0.019205 1228830.000000 0 0 1
29.727452 28.067008 1.879625 40.926903 0.756676 1.524854 0.107753 -0.018876 1757660.000000 0 0 1
28.626092 27.376308 2.558225 39.692064 0.763085 1.506300 0.075059 -0.018775 -501806.000000 0 0 1
27.308792 28.066508 2.175625 39.220305 0.799081 1.515296 0.039812 -0.013467 -485596.000000 0 0 1
27.172992 29.359008 2.805325 40.102278 0.824048 1.500785 0.036052 -0.023282 160905.000000 0 0 1
25.988892 29.962208 2.327525 39.731270 0.856293 1.512181 0.029600 -0.011550 137492.000000 0 0 1
25.659892 31.392808 2.883525 40.647917 0.885547 1.499798 0.043821 -0.025025 -173440.000000 0 0 1
25.450792 31.508608 4.261225 40.727058 0.891353 1.465976 0.035693 -0.035683 453112.000000 0 0 1
26.622592 31.518208 5.083225 41.569208 0.869403 1.448206 0.040765 -0.037245 -40250.300000 0 0 1
26.303492 31.254108 6.586425 41.377216 0.871199 1.410936 0.033959 -0.041037 -71204.000000 0 0 1
25.884292 29.949908 6.939525 40.188936 0.858086 1.397254 0.046981 -0.044347 558829.000000 0 0 1
26.747592 28.817108 6.606325 39.868571 0.822626 1.404326 0.049987 -0.043304 -119116.000000 0 0 1
26.155892 27.464508 7.082725 38.582313 0.809799 1.386175 0.061045 -0.037696 39046.700000 0 0 1
25.012792 27.106108 6.329825 37.422554 0.825541 1.400835 0.047910 -0.041901 139955.000000 0 0 1
24.731092 25.698808 6.492325 36.251979 0.804585 1.390736 0.072770 -0.041346 -511114.000000 0 0 1
23.406592 25.233508 5.836125 34.909295 0.822940 1.402828 0.094530 -0.025752 -288893.000000 0 0 1
23.337592 25.220508 4.354725 34.636410 0.824155 1.444736 0.070510 -0.030432 214030.000000 0 0 1
23.487392 26.520108 3.818725 35.630835 0.845969 1.463415 0.066412 -0.030596 -450870.000000 0 0 1
23.633292 26.510108 2.266625 35.587300 0.842707 1.507061 0.059833 -0.015601 391967.000000 0 0 1
24.749692 25.694908 1.876825 35.725314 0.804134 1.518237 0.030245 0.003667 602781.000000 0 0 1
24.822092 25.761508 0.430825 35.776769 0.803968 1.558754 0.038181 -0.002537 -46793.000000 0 0 1
26.033592 25.040108 -0.229775 36.122122 0.765949 1.577157 0.063351 -0.008711 -769859.000000 0 0 1
27.207992 25.814708 -0.139375 37.505912 0.759127 1.574512 0.065862 -0.002706 40207.900000 0 0 1
28.281592 25.217208 -0.855775 37.901034 0.728181 1.593377 0.068715 0.005943 496314.000000 0 0 1
29.074192 24.057008 -0.146675 37.736849 0.691247 1.574683 0.062547 -0.003971 -372808.000000 0 0 1
28.262892 22.913008 0.012625 36.384024 0.681237 1.570449 0.058375 -0.003111 440622.000000 0 0 1
28.875592 22.014108 0.944125 36.322337 0.651376 1.544800 0.058339 -0.007019 -121608.000000 0 0 1
27.852292 21.075508 1.559625 34.962260 0.647768 1.526173 0.068582 -0.013321 -327598.000000 0 0 1
27.236992 20.263008 0.596425 33.952893 0.639619 1.553229 0.094437 -0.019597 445528.000000 0 0 1
26.054392 19.668008 1.098325 32.662949 0.646619 1.537164 0.094814 -0.021593 13306.900000 0 0 1
25.489392 18.526908 0.176125 31.511688 0.628518 1.565207 0.101056 -0.025025 116212.000000 0 0 1
24.141192 18.196508 0.464825 30.234519 0.645899 1.555422 0.106681 -0.023981 289435.000000 0 0 1
23.685492 17.151408 -0.373275 29.245729 0.626739 1.583560 0.120989 -0.046705 929378.000000 0 0 1
22.188892 16.739708 -0.105775 27.795250 0.646323 1.574602 0.111456 -0.027842 146452.000000 0 0 1
21.643492 15.587108 -0.751175 26.682634 0.624138 1.598952 0.110904 -0.034628 -139422.000000 0 0 1
20.272892 15.427008 -0.594175 25.482068 0.650483 1.594116 0.120020 -0.029118 -25542.200000 0 0 1
19.254792 16.500208 -1.174275 25.384696 0.708510 1.617072 0.125780 -0.030462 -241994.000000 0 0 1
18.984692 17.595808 -0.271275 25.886378 0.747449 1.581276 0.096869 -0.029744 849275.000000 0 0 1
17.951692 18.441808 -0.837275 25.750040 0.798864 1.603318 0.075836 -0.030960 747956.000000 0 0 1
18.003492 19.893108 -0.362375 26.832682 0.835219 1.584302 0.077173 -0.025009 -139898.000000 0 0 1
17.578692 20.062908 0.959825 26.691796 0.851299 1.534829 0.086191 -0.022489 -8919.580000 0 0 1
17.753992 21.431508 1.445525 27.867603 0.878973 1.518902 0.097184 -0.027450 140310.000000 0 0 1
16.670792 22.419408 0.907025 27.952958 0.931412 1.538342 0.081967 -0.031139 284391.000000 0 0 1
15.426592 22.305308 1.568125 27.165521 0.965723 1.513039 0.072634 -0.025997 -313967.000000 0 0 1
14.529292 23.249808 1.075925 27.437411 1.012254 1.531572 0.058429 -0.027643 499969.000000 0 0 1
13.063692 23.172308 1.631125 26.651013 1.057448 1.509555 0.052535 -0.027519 785731.000000 0 0 1
12.958292 23.330608 3.016525 26.857663 1.063801 1.458244 0.047296 -0.015681 -394528.000000 0 0 1
11.606892 23.333608 3.405525 26.282595 1.109205 1.440858 0.037965 -0.014369 109483.000000 0 0 1
11.288692 23.627908 4.867025 26.634574 1.125091 1.387030 0.052059 -0.010277 -121607.000000 0 0 1
11.663992 22.561508 5.653225 26.019787 1.093652 1.351783 0.062029 -0.031908 -287688.000000 0 0 1
11.025892 22.509208 6.904625 25.998242 1.115310 1.301990 0.047866 -0.020869 -1363990.000000 0 0 1
11.558392 21.374808 7.829825 25.530081 1.075084 1.259083 0.059259 -0.019860 -286287.000000 0 0 1
12.766192 21.678308 8.464225 26.543696 1.038584 1.246250 0.067368 -0.015915 645736.000000 0 0 1
13.907392 21.747108 7.556625 26.897116 1.001834 1.286017 0.079629 -0.017852 396833.000000 0 0 1
15.305892 21.874508 8.261125 27.946568 0.960263 1.270708 0.082607 -0.018700 544075.000000 0 0 1
15.881892 20.650408 8.728825 27.474829 0.915193 1.247491 0.097393 -0.022165 2517410.000000 0 0 1
17.184192 20.746708 9.476825 28.557531 0.879045 1.232532 0.092147 -0.030354 2367660.000000 0 0 1
17.276692 21.669608 10.732725 29.719479 0.897718 1.201312 0.069317 -0.011973 -804668.000000 0 0 1
16.609992 21.227608 11.838325 29.438905 0.906835 1.156952 0.082060 -0.022376 -336125.000000 0 0 1
17.006292 21.867108 13.010125 30.604702 0.909795 1.131722 0.078628 -0.024711 -198500.000000 0 0 1
17.892692 21.100008 13.987925 31.000336 0.867468 1.102666 0.077348 -0.014811 163708.000000 0 0 1
19.269692 21.066108 13.671925 31.654755 0.829905 1.124190 0.078400 -0.014058 -286627.000000 0 0 1
20.052192 20.419408 14.643825 32.147850 0.794471 1.097846 0.061271 -0.015376 507306.000000 0 0 1
21.537892 20.877808 14.513325 33.322669 0.769837 1.120159 0.063073 -0.016738 260730.000000 0 0 1
22.126992 20.580908 13.287125 33.010987 0.749213 1.156543 0.064199 -0.015967 -1131370.000000 0 0 1
23.412992 21.068308 13.211425 34.155286 0.732735 1.173632 0.090633 -0.014259 -666405.000000 0 0 1
24.245092 20.416608 12.067125 33.915747 0.699885 1.207029 0.089764 -0.012937 85319.800000 0 0 1
23.981392 20.903808 10.797425 33.595547 0.716940 1.243595 0.106642 -0.014516 -56955.500000 0 0 1
25.030992 20.631808 9.907725 33.917327 0.689354 1.274360 0.113947 -0.028592 -301854.000000 0 0 1
25.004292 21.575108 8.671325 34.145158 0.711911 1.314029 0.092347 -0.027484 -46810.300000 0 0 1
25.280892 22.935608 8.767825 35.242593 0.736796 1.319371 0.082062 -0.018935 13779.000000 0 0 1
26.644392 23.303608 8.768925 36.467463 0.718612 1.327958 0.054887 -0.016484 -258218.000000 0 0 1
26.953592 24.621508 9.506625 37.723875 0.740212 1.316044 0.069103 -0.019980 -653738.000000 0 0 1
28.225592 25.068708 9.171325 38.848905 0.726232 1.332470 0.046196 -0.015419 -511622.000000 0 0 1
28.797692 26.056008 9.966125 40.094218 0.735458 1.319595 0.060584 -0.024311 661610.000000 0 0 1
30.016602 26.689308 9.206425 41.207692 0.726789 1.345479 0.061616 -0.026425 456983.000000 0 0 1
29.577252 27.361308 8.018025 41.082159 0.746500 1.374365 0.055446 -0.031537 -159146.000000 0 0 1
30.567032 27.534108 7.044325 41.738389 0.733245 1.401211 0.086099 -0.023971 -339797.000000 0 0 1
30.201612 28.562708 5.940325 41.991108 0.757516 1.428854 0.145341 -0.016824 -414441.000000 0 0 1
30.498812 29.922508 6.219725 43.176603 0.775860 1.426240 0.122837 -0.027104 113982.000000 0 0 1
30.262962 30.709208 5.062625 43.411203 0.792717 1.453910 0.159029 -0.035769 -186540.000000 0 0 1
30.517512 32.217808 5.300625 44.692307 0.812494 1.451914 0.107719 -0.024089 -729710.000000 0 0 1
29.476152 32.835208 5.942125 44.523065 0.839254 1.436935 0.093888 -0.027247 -878170.000000 0 0 1
29.600062 -33.866495 6.084125 45.388542 -0.852520 1.436346 0.079323 -0.026410 -784847.000000 0 0 1
28.355892 -33.158795 6.580025 44.123225 -0.863317 1.421110 0.071919 -0.032603 839873.000000 0 0 1
27.255792 -33.329495 5.613225 43.419370 -0.885315 1.441154 0.057096 -0.031892 740803.000000 0 0 1
26.011292 -32.883395 6.107925 42.369939 -0.901557 1.426135 0.049770 -0.034598 549217.000000 0 0 1
24.846992 -33.119695 5.090925 41.715761 -0.927156 1.448453 0.058788 -0.031264 266407.000000 0 0 1
25.110492 -32.440195 3.907025 41.208833 -0.912077 1.475843 0.045670 -0.010692 -152512.000000 0 0 1
24.052092 -32.562495 3.001225 40.593430 -0.934603 1.496795 0.049708 -0.014885 -85757.600000 0 0 1
24.397092 -31.932095 1.630925 40.218611 -0.918376 1.530234 0.047909 -0.006032 123683.000000 0 0 1
24.599492 -30.547995 1.768225 39.261197 -0.892848 1.525744 0.054326 -0.004087 -54837.800000 0 0 1
25.220192 -30.021895 0.631225 39.214419 -0.872101 1.554699 0.050910 -0.007707 -132741.000000 0 0 1
25.611392 -28.567495 0.963825 38.379345 -0.839906 1.545681 0.052102 -0.008496 -18067.800000 0 0 1
24.546892 -27.644295 0.923825 36.981217 -0.844676 1.545813 0.060339 -0.003112 -139795.000000 0 0 1
24.232392 -27.209595 -0.344675 36.437476 -0.843209 1.580256 0.081356 -0.010500 -135369.000000 0 0 1
23.322792 -25.939995 -0.383775 34.885287 -0.838476 1.581798 0.076385 -0.006743 -82567.100000 0 0 1
23.930392 -24.709595 -0.099075 34.398220 -0.801417 1.573677 0.066125 -0.016292 -381877.000000 0 0 1
23.942792 -24.270595 1.251925 34.115779 -0.792197 1.534092 0.056756 -0.002505 196169.000000 0 0 1
22.611092 -24.133295 2.048425 33.134173 -0.817951 1.508935 0.053621 -0.007617 246487.000000 0 0 1
22.684692 -23.562695 3.329025 32.876713 -0.804381 1.469365 0.040990 -0.003270 171704.000000 0 0 1
21.389892 -23.434195 3.921825 31.969824 -0.830974 1.447814 0.063876 -0.008167 381587.000000 0 0 1
21.249792 -22.658995 5.277025 31.509216 -0.817481 1.402528 0.057107 -0.011162 -208992.000000 0 0 1
21.295992 -21.258395 5.287925 30.551608 -0.784515 1.396839 0.091454 -0.005818 266059.000000 0 0 1
20.192392 -20.529395 4.739425 29.183058 -0.793674 1.407671 0.063090 -0.003382 -307687.000000 0 0 1
20.040692 -19.047595 5.120525 28.118677 -0.759997 1.387670 0.064584 -0.005471 21900.300000 0 0 1
19.476192 -18.819595 6.390225 27.826861 -0.768254 1.339086 0.072012 -0.010009 444039.000000 0 0 1
18.065492 -18.993295 6.522525 27.012045 -0.810429 1.326919 0.048396 -0.005206 412807.000000 0 0 1
19.076565 -25.874432 -12.874275 34.628724 -0.935489 1.951722 0.112938 -0.034489 122075.000000 0 0 1
19.020865 -24.483692 -13.045575 33.636758 -0.910313 1.969080 0.142576 -0.030689 -565210.000000 0 0 1
17.709865 -24.011492 -13.177975 32.616715 -0.935306 1.986709 0.086914 -0.028817 -586544.000000 0 0 1
17.708965 -22.414392 -13.367275 31.538809 -0.902139 2.008472 0.087201 -0.032929 13351.900000 0 0 1
17.968265 -21.582792 -12.255175 30.640900 -0.876534 1.982271 0.113794 -0.032520 512150.000000 0 0 1
19.253965 -21.603392 -11.607375 31.179366 -0.842838 1.952258 0.105463 -0.034745 205116.000000 0 0 1
19.205265 -22.458492 -10.333375 31.305027 -0.863323 1.907192 0.118071 -0.032004 192919.000000 0 0 1
18.476365 -21.911092 -9.235475 30.112556 -0.870238 1.882519 0.110822 -0.030687 200877.000000 0 0 1
17.072765 -22.062692 -9.337175 29.418098 -0.912218 1.893778 0.099584 -0.009874 -216868.000000 0 0 1
16.273065 -21.431892 -8.195475 28.130134 -0.921375 1.866425 0.089404 -0.023538 -678763.000000 0 0 1
16.182765 -20.005592 -8.334975 27.047688 -0.890645 1.884053 0.072291 -0.031094 81249.800000 0 0 1
15.258365 -19.333592 -7.514975 25.750346 -0.902666 1.866946 0.068733 -0.043881 799578.000000 0 0 1
13.753965 -19.375692 -7.978375 25.064785 -0.953486 1.894743 0.047562 -0.021318 666846.000000 0 0 1
13.286865 -20.684792 -7.962375 25.841842 -0.999818 1.884012 0.039979 -0.023855 -1352840.000000 0 0 1
11.910265 -20.822592 -8.064775 25.307614 -1.051229 1.895122 0.041201 -0.027039 -625022.000000 0 0 1
11.393365 -22.278092 -7.822375 26.216630 -1.098058 1.873785 0.048918 -0.024368 87928.200000 0 0 1
11.651265 -22.685892 -6.479975 26.313338 -1.096335 1.819618 0.055204 -0.022258 474715.000000 0 0 1
10.945665 -23.895192 -6.159675 26.994988 -1.141252 1.801003 0.042606 -0.017918 288547.000000 0 0 1
11.406665 -24.402392 -4.778875 27.357383 -1.133534 1.746380 0.060805 -0.018834 -117884.000000 0 0 1
10.505465 -25.253912 -4.157475 27.666034 -1.176579 1.721641 0.075694 -0.020973 -146705.000000 0 0 1
11.185365 -25.836262 -3.068175 28.320285 -1.162226 1.679348 0.076565 -0.021907 471014.000000 0 0 1
10.199065 -26.605782 -2.161575 28.575531 -1.204734 1.646513 0.091159 -0.018965 63863.900000 0 0 1
9.231265 -25.885912 -1.481975 27.522590 -1.228242 1.624668 0.072159 -0.014895 -500979.000000 0 0 1
8.497465 -26.706792 -0.616775 28.032839 -1.262749 1.592800 0.074813 -0.023451 -32046.500000 0 0 1
7.629865 -26.037432 0.469725 27.136384 -1.285742 1.553486 0.068483 -0.020572 736017.000000 0 0 1
6.358065 -25.582422 -0.003775 26.360677 -1.327199 1.570940 0.066661 -0.025896 259084.000000 0 0 1
5.663365 -24.886992 0.994125 25.542599 -1.347043 1.531866 0.059308 -0.023633 594473.000000 0 0 1
4.133665 -24.629992 0.816925 24.987818 -1.404515 1.538098 0.055310 -0.023604 1029720.000000 0 1 0
3.331165 -25.824802 0.647225 26.046803 -1.442514 1.545945 0.054785 -0.024209 1439.710000 0 0 1
1.994065 -25.406142 0.533425 25.489858 -1.492469 1.549868 0.049808 -0.019292 -290519.000000 0 0 1
0.926565 -26.441312 0.158725 26.458017 -1.535768 1.564797 0.061184 -0.022020 51951.600000 0 0 1
0.520165 -27.398102 1.138425 27.426676 -1.551813 1.529276 0.061262 -0.019631 -330495.000000 0 0 1
1.332965 -28.555992 1.134925 28.609605 -1.524151 1.531117 0.047980 -0.023755 -332161.000000 0 0 1
0.846565 -29.789042 1.994525 29.867739 -1.542385 1.503968 0.078652 -0.022467 -132048.000000 0 0 1
0.913665 -29.622382 3.405425 29.831480 -1.539962 1.456391 0.054640 -0.016493 -121150.000000 0 0 1
0.131565 -30.546402 4.090925 30.819404 -1.566489 1.437665 0.075683 -0.024209 -274187.000000 0 0 1
0.397365 -30.274152 5.572125 30.785236 -1.557672 1.388793 0.082042 -0.024316 372671.000000 0 0 1
1.731365 -30.649042 5.903325 31.260368 -1.514366 1.380812 0.049733 -0.005845 338236.000000 0 0 1
1.988365 -30.398002 7.295225 31.324310 -1.505478 1.335744 0.062070 -0.005006 -147756.000000 0 0 1
3.437465 -30.754602 7.637925 31.874749 -1.459488 1.328819 0.074476 -0.009493 -249346.000000 0 0 1
3.692565 -32.110512 7.414225 33.161585 -1.456304 1.345312 0.082224 -0.012904 2106920.000000 0 0 1
5.111165 -32.501322 7.622525 33.772220 -1.414814 1.343131 0.080543 -0.013488 2417620.000000 0 0 1
5.221965 -34.008582 7.425925 35.199388 -1.418438 1.358232 0.063947 -0.006445 24037.700000 0 0 1
4.903865 33.705225 6.094225 34.601007 1.426317 1.393744 0.053643 -0.002783 -17432.000000 0 0 1
4.811165 32.357386 6.015225 33.261550 1.423189 1.388950 0.045531 -0.009385 -301789.000000 0 0 1
5.078865 31.729141 4.634825 32.465595 1.412073 1.427546 0.042773 -0.010055 -256744.000000 0 0 1
6.343065 31.664571 4.058325 32.547651 1.373093 1.445782 0.044488 -0.004281 -753179.000000 0 0 1
7.201565 30.617531 4.438425 31.764688 1.339785 1.430609 0.037748 -0.008460 -571518.000000 0 0 1
8.476265 30.646921 3.614825 32.002310 1.300964 1.457600 0.035735 -0.009751 -339140.000000 0 0 1
9.468865 31.553581 4.122425 33.200637 1.279258 1.446308 0.041538 -0.016299 -618408.000000 0 0 1
10.592365 31.571201 3.304625 33.464302 1.247091 1.471884 0.036113 -0.024201 -680826.000000 0 0 1
11.743865 32.070111 4.191125 34.408951 1.219769 1.448690 0.052421 -0.040231 -560355.000000 0 0 1
12.226065 31.182401 5.174925 33.890982 1.197134 1.417503 0.051922 -0.031590 143776.000000 0 0 1
13.411665 31.717721 5.758025 34.914774 1.170753 1.405123 0.082229 -0.035248 460445.000000 0 0 1
14.227765 30.656671 6.556325 34.427405 1.136279 1.379187 0.059109 -0.038202 -283199.000000 0 0 1
13.746165 30.362391 7.857025 34.242732 1.145669 1.339283 0.055926 -0.030086 -114243.000000 0 0 1
14.513965 29.403751 8.541525 33.885003 1.112274 1.315974 0.045240 -0.025421 20920.300000 0 0 1
14.294665 29.510351 10.090125 34.307564 1.119711 1.272274 0.029641 0.001729 -98994.500000 0 0 1
15.065765 30.574741 10.546225 35.679335 1.112964 1.270730 0.044275 -0.013086 -267453.000000 0 0 1
14.673565 30.865091 11.873725 36.179452 1.127014 1.236410 0.037724 -0.001138 -264296.000000 0 0 1
15.580065 31.721301 12.761825 37.574507 1.114250 1.224262 0.045411 0.003998 43221.200000 0 0 1
16.604265 30.979721 13.407825 37.619337 1.078787 1.206376 0.053381 -0.002211 -47200.300000 0 0 1
17.326365 31.715961 14.370025 38.892194 1.070800 1.192343 0.051513 0.001755 105146.000000 0 0 1
18.267165 30.672021 15.075925 38.752364 1.033645 1.171215 0.047951 -0.006265 576588.000000 0 0 1
19.324965 30.245401 14.204725 38.600684 1.002236 1.193948 0.056211 -0.013968 177735.000000 0 0 1
19.847565 29.008231 14.607125 38.062730 0.970750 1.176927 0.050705 -0.002873 644937.000000 0 0 1
21.243165 28.628691 13.972525 38.289757 0.932420 1.197254 0.067483 -0.001864 770466.000000 0 0 1
22.280265 29.048951 14.826825 39.497931 0.916510 1.185987 0.070493 -0.010464 -184034.000000 0 0 1
23.570965 28.783311 14.300925 39.857068 0.884630 1.203809 0.068538 -0.011790 476237.000000 0 0 1
24.702265 28.999511 15.349825 41.070558 0.865249 1.187755 0.078312 -0.023169 39342.400000 0 0 1
24.850965 27.991141 16.311125 40.830470 0.844754 1.159842 0.078412 -0.018610 -268192.000000 0 0 1
25.887865 28.248981 17.227025 42.011390 0.828984 1.148281 0.073244 -0.023132 586996.000000 0 0 1
26.936765 27.053361 17.439425 41.971505 0.787558 1.142297 0.051404 -0.016578 442184.000000 0 0 1
26.491565 25.860321 18.003525 41.166566 0.773341 1.118165 0.066062 -0.015409 -206767.000000 0 0 1
26.059465 25.996861 19.383525 41.601125 0.784196 1.086102 0.077296 -0.013668 109803.000000 0 0 1
25.421365 24.678311 19.834825 40.604004 0.770568 1.060433 0.081164 -0.016852 47043.400000 0 0 1
26.373465 23.640631 19.999025 40.674318 0.730811 1.056770 0.055204 -0.014868 -66653.400000 0 0 1
25.759765 22.365111 20.098425 39.594323 0.714976 1.038389 0.054833 -0.015613 -48847.200000 0 0 1
26.730265 21.219411 20.307925 39.713755 0.670970 1.034033 0.032810 -0.017184 -230546.000000 0 0 1
25.987265 19.990611 20.211725 38.515923 0.655705 1.018360 0.022487 0.003454 121042.000000 0 0 1
26.722465 18.796511 20.290825 38.459285 0.613002 1.015032 0.025734 -0.005082 -23696.000000 0 0 1
27.422665 18.503111 21.676525 39.550467 0.593570 0.990738 0.065200 0.008048 84921.100000 0 0 1
26.555165 17.872011 22.617925 39.193828 0.592384 0.955649 0.030818 0.011253 74382.000000 0 0 1
27.085565 17.641211 23.906825 40.204185 0.577298 0.933984 0.068451 0.010061 -260170.000000 0 0 1
26.092065 16.861411 24.782325 39.739989 0.573719 0.897442 0.053887 0.010344 53622.500000 0 0 1
26.019465 15.555311 24.316525 38.862240 0.538825 0.894754 0.040817 -0.001956 810008.000000 0 0 1
24.911165 14.934511 24.997725 38.320909 0.540060 0.860147 0.041414 -0.001518 632008.000000 0 0 1
24.623065 13.505211 24.494325 37.264703 0.501674 0.853557 0.048661 -0.000822 -44914.900000 0 0 1
23.333665 13.101911 24.903825 36.555718 0.511631 0.821318 0.032257 -0.004737 266500.000000 0 0 1
22.869365 12.018911 24.088525 35.323068 0.483875 0.820372 0.047112 -0.002030 -8736.390000 0 0 1
21.436165 11.516911 24.353225 34.427141 0.493014 0.785005 0.037862 -0.007816 35046.400000 0 0 1
20.456065 12.535811 24.282525 34.135586 0.549790 0.779372 0.040606 -0.011445 -339966.000000 0 0 1
19.187465 11.947711 24.224825 33.132292 0.556932 0.750784 0.045263 -0.009864 -502335.000000 0 0 1
18.022065 12.803811 24.724125 33.166471 0.617706 0.729579 0.032828 -0.017683 -298165.000000 0 0 1
17.938265 13.079511 26.081425 34.250485 0.630017 0.705186 0.047316 -0.013626 443379.000000 0 0 1
16.765965 13.876911 26.228725 34.082434 0.691395 0.692633 0.067441 -0.013502 300070.000000 0 0 1
16.441765 14.140311 27.728325 35.201422 0.710285 0.663722 0.057573 -0.004728 -123395.000000 0 0 1
16.163565 12.969611 28.458625 35.204616 0.676201 0.629405 0.074713 -0.000098 76758.100000 0 0 1
16.172565 13.051311 29.890825 36.405357 0.678997 0.607538 0.059672 -0.002827 686774.000000 0 0 1
17.622565 12.954611 30.505425 37.536086 0.633906 0.622032 0.053740 -0.000151 1091840.000000 0 0 1
18.445765 14.113811 30.237625 38.128204 0.653128 0.654994 0.068208 -0.012648 -1201020.000000 0 0 1
19.689565 13.781711 29.843025 38.317368 0.610692 0.677985 0.043199 -0.004050 -2055230.000000 0 0 1
20.461965 15.035711 29.420625 38.863065 0.633710 0.712036 0.052497 -0.006528 -548412.000000 0 0 1
20.142865 15.562211 28.111725 37.923430 0.657804 0.735827 0.065683 -0.015922 270219.000000 0 0 1
20.683565 14.859011 27.035825 37.142105 0.622967 0.755539 0.059837 -0.015099 -467941.000000 0 0 1
20.420465 15.550711 25.701225 36.323175 0.650837 0.784741 0.054886 -0.018600 173095.000000 0 0 1
21.456265 16.482811 25.336725 37.067561 0.655051 0.818211 0.057120 -0.014595 792385.000000 0 0 1
21.205765 17.111211 24.093825 36.372936 0.678942 0.846764 0.044288 -0.017025 -401153.000000 0 0 1
22.472265 17.886011 23.725125 37.253103 0.672245 0.880374 0.048691 -0.013464 -537248.000000 0 0 1
22.405865 18.685511 22.535525 36.864903 0.695106 0.913094 0.045589 -0.021605 -441476.000000 0 0 1
23.611265 19.268511 22.145325 37.672043 0.684465 0.942404 0.044702 -0.010163 -888161.000000 0 0 1
23.874165 20.562011 22.915625 38.960210 0.710998 0.941989 0.062153 -0.028750 123908.000000 0 0 1
22.963565 21.605811 22.494525 38.731642 0.754944 0.951111 0.067188 -0.022285 778114.000000 0 0 1
22.602065 22.743611 23.295925 39.633639 0.788520 0.942482 0.086005 -0.023086 111302.000000 0 0 1
21.666265 23.788351 22.627525 39.335958 0.832050 0.957902 0.094859 -0.031681 359702.000000 0 0 1
22.287965 24.452831 21.519925 39.468995 0.831681 0.994125 0.097202 -0.025378 483346.000000 0 0 1
21.342565 25.427291 21.115925 39.343799 0.872514 1.004272 0.092695 -0.033262 -116580.000000 0 0 1
21.804465 26.342741 20.055125 39.643193 0.879379 1.040382 0.091789 -0.029503 -307173.000000 0 0 1
21.966765 25.671011 18.799525 38.664735 0.863001 1.063039 0.090288 -0.029224 290847.000000 0 0 1
22.357865 26.566931 17.688225 38.968568 0.871218 1.099648 0.088965 -0.028534 -56830.000000 0 0 1
22.313165 25.789371 16.338125 37.814063 0.857539 1.124015 0.077697 -0.015798 -560295.000000 0 0 1
20.991365 25.580861 15.931025 36.726223 0.883627 1.122115 0.066959 -0.015752 -556683.000000 0 0 1
21.023065 24.963681 14.649025 35.773574 0.870880 1.148898 0.074243 -0.012289 -115408.000000 0 0 1
19.684965 24.382991 14.104925 34.365347 0.891606 1.147859 0.065735 -0.005914 592324.000000 0 0 1
18.615665 25.290541 13.940925 34.358461 0.936269 1.152998 0.058401 -0.001759 51730.700000 0 0 1
17.863965 25.636841 15.115825 34.711051 0.962216 1.120229 0.052757 -0.005984 -875576.000000 0 0 1
16.395565 26.000471 14.823525 34.125884 1.008189 1.121449 0.054085 -0.001159 -307476.000000 0 0 1
15.518965 24.897161 14.563225 32.753541 1.013404 1.110035 0.069902 0.002696 159108.000000 0 0 1
15.277165 23.972711 15.594225 32.423179 1.003420 1.069048 0.087139 0.003598 -135968.000000 0 0 1
14.172965 24.572731 16.540625 32.837240 1.047628 1.042902 0.106094 -0.010214 27363.700000 0 0 1
14.678965 25.662141 17.274525 34.240718 1.051213 1.041991 0.090416 -0.011216 -352105.000000 0 0 1
13.636565 26.351321 17.867225 34.635037 1.093254 1.028772 0.091775 -0.021010 -358187.000000 0 0 1
14.159765 27.641941 18.536825 36.168906 1.097392 1.032694 0.089086 -0.023409 -165175.000000 0 0 1
14.272165 28.727011 17.757525 36.664228 1.109696 1.065201 0.078086 -0.012573 83672.300000 0 0 1
14.839165 29.777891 18.539625 38.087286 1.108487 1.062412 0.069857 -0.003062 -122847.000000 0 0 1
14.852365 31.185951 17.851025 38.882071 1.126327 1.093807 0.051386 -0.004951 819529.000000 0 0 1
13.507265 31.704831 17.744825 38.762371 1.168052 1.095294 0.058859 -0.001414 893379.000000 0 0 1
13.412565 32.877955 16.970125 39.355330 1.183455 1.124971 0.051749 0.001104 -218851.000000 0 0 1
12.015665 33.521162 16.847025 39.393741 1.226613 1.128897 0.064629 -0.005243 -268015.000000 0 0 1
11.960065 -33.328132 16.123125 38.907104 -1.226252 1.143512 0.068963 -0.009764 -452128.000000 0 0 1
12.703465 -32.212792 16.588725 38.395674 -1.195161 1.124035 0.058374 -0.009604 -827.744000 0 0 1
12.404065 -31.714262 18.036425 38.535281 -1.197969 1.083714 0.057124 -0.007700 379542.000000 0 0 1
13.331465 -32.367472 18.941125 39.801350 -1.180092 1.074819 0.061334 -0.006909 633845.000000 0 0 1
13.045865 -32.149722 20.300825 40.198541 -1.185313 1.041398 0.061179 -0.015107 -519076.000000 0 0 1
14.036665 -32.802992 21.258925 41.533193 -1.166465 1.033455 0.066722 -0.005134 -195445.000000 0 0 1
15.336265 -32.310502 20.975425 41.462489 -1.127631 1.040384 0.069490 -0.007260 -198924.000000 0 0 1
16.232065 -32.778652 21.975225 42.671190 -1.110994 1.029801 0.077948 -0.003679 342762.000000 0 0 1
17.646965 -32.166052 21.842125 42.698346 -1.069013 1.033814 0.097835 -0.014914 281234.000000 0 0 1
17.544365 -30.820302 22.153025 41.814499 -1.053296 1.012440 0.088231 -0.012693 94480.100000 0 0 1
18.568765 -30.143932 21.464625 41.402727 -1.018693 1.025776 0.084107 -0.009738 -179459.000000 0 0 1
-5.146435 13.525308 19.118413 23.977770 -1.207209 0.647923 0.036805 0.019964 -218091.000000 0 1 0
-4.720135 14.005108 17.895013 23.208925 -1.245723 0.690323 0.042754 -0.010444 841084.000000 0 1 0
-5.846535 14.704408 17.298013 23.444036 -1.192357 0.740928 0.037917 -0.008068 738804.000000 0 1 0
-5.683635 16.212108 17.038513 24.196013 -1.233605 0.789519 0.047694 -0.023000 -212676.000000 0 1 0
-5.512535 16.923708 18.269013 25.506014 -1.255906 0.772364 0.059404 -0.011764 247371.000000 0 0 1
-5.038835 18.288508 18.193213 26.284071 -1.301948 0.806296 0.055551 -0.003451 35572.700000 0 0 1
-4.450235 18.830308 19.537713 27.497405 -1.338721 0.780546 0.058791 -0.006280 136411.000000 0 0 1
-5.395535 18.968008 20.582713 28.505178 -1.293662 0.764008 0.055516 -0.004400 -76411.800000 0 0 1
-4.859235 19.794408 21.575313 29.680379 -1.330071 0.756968 0.061766 -0.006174 -319212.000000 0 0 1
-5.833335 20.170708 22.689613 30.914459 -1.289279 0.746679 0.040538 0.001136 -100463.000000 0 0 1
-6.297135 19.050708 23.462523 30.871886 -1.251557 0.707489 0.036510 -0.008867 -38792.000000 0 0 1
-6.878935 19.460108 24.723213 32.206409 -1.231017 0.695632 0.024117 -0.014050 1122210.000000 0 0 1
-5.769635 19.992808 25.751433 33.107965 -1.289844 0.679636 0.017200 -0.007740 863301.000000 0 0 1
-5.293035 21.268908 25.382723 33.536030 -1.326888 0.712272 0.030616 -0.016980 -487321.000000 0 0 1
-4.422635 21.954208 26.222263 34.484112 -1.372009 0.706843 0.039438 -0.007793 364104.000000 0 0 1
-2.901735 21.653708 26.108413 34.043389 -1.437584 0.696775 0.051333 -0.003160 195952.000000 0 0 1
-2.412135 20.447808 26.640773 33.669898 -1.453374 0.657972 0.065382 -0.002265 465972.000000 0 0 1
-1.108135 20.178308 26.111493 33.018209 -1.515934 0.658647 0.061370 0.003448 532490.000000 0 0 1
-0.428535 18.921908 26.652663 32.689244 -1.548153 0.617490 0.075823 0.005879 -419265.000000 0 0 1
-0.894435 17.755608 26.042573 31.532162 -1.520464 0.598991 0.088504 -0.003397 -417021.000000 0 0 1
-0.228635 16.613708 26.486133 31.266320 -1.557035 0.560266 0.091310 -0.004630 540181.000000 0 0 1
1.252465 16.400808 26.013453 30.777506 1.494578 0.563839 0.108665 0.000410 10550.500000 0 0 1
1.423765 16.113108 24.629643 29.466568 1.482665 0.581116 0.080122 -0.004066 -422211.000000 0 0 1
0.949165 14.844208 24.288043 28.480879 1.506941 0.549503 0.096619 -0.005844 -47316.600000 0 0 1
1.089365 14.455908 22.795813 27.014979 1.495581 0.566432 0.104062 -0.018988 180804.000000 0 0 1
2.461365 14.315708 22.502013 26.783174 1.400527 0.573228 0.079913 -0.015842 -277417.000000 0 0 1
2.643565 13.556208 21.322213 25.404645 1.378206 0.574795 0.070875 -0.021239 641540.000000 0 0 1
4.102865 13.629608 20.771713 25.180623 1.278399 0.600756 0.056067 -0.023247 559022.000000 0 0 1
4.494365 14.810508 20.157713 25.414245 1.276170 0.654806 0.049610 -0.023615 874838.000000 0 0 1
5.932965 14.967908 20.118913 25.768372 1.193415 0.674915 0.057681 -0.025963 1184060.000000 0 0 1
6.467165 16.041808 19.122513 25.784381 1.187582 0.735297 0.063391 -0.027941 -10873.500000 0 0 1
6.509565 15.501908 17.826313 24.504306 1.173236 0.756159 0.064009 -0.041267 103666.000000 0 1 0
6.766365 16.474008 16.813813 24.492467 1.181075 0.814147 0.063274 -0.030658 -96233.700000 0 1 0
6.577965 15.815808 15.432813 23.056043 1.176649 0.837448 0.053913 -0.029814 379728.000000 0 1 0
7.645265 15.025208 14.892213 22.494109 1.100110 0.847246 0.048223 -0.031705 342157.000000 0 1 0
7.888665 13.766208 15.458713 22.152005 1.050432 0.798409 0.051037 -0.034475 -542644.000000 0 1 0
9.045765 13.009108 14.820513 21.695860 0.963204 0.818793 0.056583 -0.036485 691244.000000 0 1 0
10.328965 13.655308 15.055313 22.799505 0.923208 0.849531 0.069528 -0.038996 765853.000000 0 1 0
11.299765 12.967208 14.298613 22.367018 0.854003 0.877245 0.074732 -0.032094 78118.300000 0 1 0
12.669365 13.691908 14.239613 23.468015 0.824168 0.918810 0.074949 -0.023119 -432982.000000 0 1 0
13.401965 13.599808 15.486213 24.584350 0.792725 0.889344 0.075151 -0.027948 1178240.000000 0 1 0
14.751765 14.091608 15.439313 25.584378 0.762515 0.922955 0.065459 -0.023998 1398470.000000 0 0 1
15.741465 13.301108 14.500813 25.198944 0.701568 0.957638 0.067393 -0.031001 -835034.000000 0 0 1
17.115165 13.433008 14.730113 26.274528 0.665441 0.975658 0.061436 -0.036474 -58554.500000 0 0 1
17.924865 12.751208 13.815513 25.976191 0.618316 1.010009 0.063895 -0.037238 859261.000000 0 0 1
19.398165 13.313108 13.813113 27.282407 0.601477 1.039906 0.050594 -0.035658 1169630.000000 0 0 1
20.237965 12.985208 14.911813 28.294046 0.570466 1.015694 0.034590 -0.027858 593055.000000 0 0 1
21.615465 13.190008 14.634413 29.246721 0.547894 1.046761 0.030632 -0.028395 263112.000000 0 0 1
22.608965 13.055408 15.794913 30.513739 0.523669 1.026714 0.047475 -0.019624 -214862.000000 0 0 1
22.648965 11.694908 16.195713 30.200126 0.476646 1.004773 0.059782 -0.023453 400698.000000 0 0 1
23.504965 11.622608 17.328413 31.429959 0.459218 0.986834 0.052859 -0.023207 12971.900000 0 0 1
23.908465 10.158408 17.666113 31.414957 0.401775 0.973575 0.074949 -0.023486 -252836.000000 0 0 1
22.804465 9.371908 18.046613 30.554157 0.389926 0.938940 0.051403 -0.020389 202689.000000 0 0 1
22.700865 8.069408 17.408613 29.723802 0.341537 0.945079 0.051947 -0.008528 -392186.000000 0 0 1
21.585465 7.205208 17.990713 29.008845 0.322170 0.901824 0.085719 -0.010444 -247356.000000 0 0 1
21.340765 5.937708 17.358513 28.142541 0.271370 0.906117 0.104493 -0.032242 687138.000000 0 0 1
20.187165 5.452708 18.056913 27.627989 0.263812 0.858500 0.102002 -0.025493 85199.600000 0 0 1
19.769065 4.077908 17.561813 26.755608 0.203424 0.854788 0.100553 -0.018376 -892150.000000 0 0 1
19.075965 4.171708 16.353113 25.469980 0.215300 0.873621 0.107384 -0.031587 247423.000000 0 0 1
18.822965 2.993808 15.591613 24.624486 0.157730 0.885148 0.094281 -0.035773 31293.400000 0 1 0
17.867965 1.990308 16.317513 24.279348 0.110932 0.833791 0.095947 -0.028711 -418454.000000 0 1 0
18.535065 1.233108 17.294013 25.380151 0.066431 0.821124 0.106600 -0.039638 127053.000000 0 0 1
17.636165 0.585008 18.173213 25.330658 0.033159 0.770677 0.096764 -0.031322 -132503.000000 0 0 1
18.329365 0.029008 19.424013 26.706904 0.001583 0.756412 0.095696 -0.028456 132038.000000 0 0 1
19.016065 -1.197492 19.304313 27.123813 -0.062890 0.778866 0.096296 -0.026934 416979.000000 0 0 1
18.040965 -2.167092 19.667813 26.776773 -0.119548 0.745852 0.069125 -0.019762 339631.000000 0 0 1
18.063865 -3.495692 18.811413 26.313349 -0.191156 0.774315 0.060524 -0.013506 -39822.200000 0 0 1
17.668265 -3.294792 17.470213 25.064548 -0.184363 0.799579 0.067725 -0.026256 246679.000000 0 0 1
17.630965 -4.529192 16.815513 24.781565 -0.251451 0.825011 0.077083 -0.020329 -348976.000000 0 1 0
17.298665 -4.482292 15.332213 23.545945 -0.253536 0.861682 0.062300 -0.031725 -73019.700000 0 1 0
15.882165 -4.350492 15.184313 22.399404 -0.267365 0.825909 0.058862 -0.030703 635317.000000 0 1 0
15.479365 -4.277792 13.809513 21.180484 -0.269625 0.860587 0.054063 -0.030558 166642.000000 0 1 0
15.887565 -3.052892 12.972313 20.736822 -0.189842 0.894936 0.050797 -0.028608 56018.500000 0 1 0
14.988865 -1.941292 13.211613 20.074397 -0.128799 0.852461 0.046478 -0.025628 387430.000000 0 1 0
15.487765 -0.700792 12.866513 20.147187 -0.045217 0.878085 0.049924 -0.024831 -538224.000000 0 1 0
14.430965 0.376808 13.050613 19.460556 0.026105 0.835754 0.048775 -0.015396 -965104.000000 0 1 0
14.762865 1.646808 12.560313 19.452908 0.111091 0.868886 0.055643 -0.014763 86003.700000 0 1 0
15.780965 2.290108 13.330013 20.783953 0.144112 0.874526 0.075455 -0.022727 144234.000000 0 1 0
16.073165 3.684108 12.695313 20.810821 0.225317 0.914693 0.082185 -0.025617 361759.000000 0 1 0
14.987965 4.556308 12.998913 20.356099 0.295120 0.878150 0.063324 -0.019098 609155.000000 0 1 0
15.170965 5.785308 12.310013 20.375583 0.364318 0.922091 0.083330 -0.023040 1254030.000000 0 1 0
13.976665 6.843908 12.533513 19.981872 0.455347 0.892787 0.064149 -0.021945 1088620.000000 0 1 0
14.298465 8.087408 11.874913 20.269826 0.514752 0.944878 0.067689 -0.031126 -25674.200000 0 1 0
13.360165 9.079108 12.154413 20.215192 0.596880 0.925730 0.052916 -0.018324 -686018.000000 0 1 0
13.663365 10.012608 13.412013 21.606063 0.632406 0.901094 0.065706 -0.025602 10194.800000 0 1 0
13.393865 9.311608 14.648313 21.924296 0.607507 0.839102 0.077209 -0.028659 443455.000000 0 1 0
13.898765 9.981808 15.761413 23.264443 0.622823 0.826452 0.094869 -0.036744 -253167.000000 0 1 0
13.505165 9.271508 17.072713 23.660682 0.601619 0.764737 0.085431 -0.037708 -167968.000000 0 1 0
12.143865 9.416808 17.403213 23.216838 0.659583 0.723347 0.070060 -0.047453 -405055.000000 0 1 0
11.723365 8.589008 18.460213 23.494421 0.632298 0.666925 0.085456 -0.036819 -160922.000000 0 1 0
12.300565 8.820208 19.900613 25.002687 0.622082 0.650239 0.099322 -0.038267 548851.000000 0 0 1
13.670165 8.388808 19.935813 25.586757 0.550402 0.677494 0.106912 -0.038818 380892.000000 0 0 1
14.207865 8.505208 21.214013 26.911639 0.539409 0.662781 0.096080 -0.028369 923345.000000 0 0 1
15.784565 8.422708 21.127513 27.685128 0.490168 0.702645 0.084759 -0.025691 1054730.000000 0 0 1
16.386565 9.471408 20.412513 27.836986 0.524085 0.747652 0.090546 -0.024267 -421346.000000 0 0 1
17.391665 9.044108 19.561613 27.693368 0.479539 0.786447 0.075592 -0.027802 -501196.000000 0 0 1
18.146465 10.162608 18.817413 28.047599 0.510513 0.835361 0.085165 -0.030999 98734.200000 0 0 1
18.980465 10.853108 19.750513 29.464059 0.519429 0.836149 0.064907 -0.024589 -189450.000000 0 0 1
19.761465 11.820908 19.158313 29.954805 0.539080 0.876852 0.065218 -0.024728 -271811.000000 0 0 1
20.796365 12.432908 20.096813 31.479325 0.538830 0.878362 0.045202 -0.018161 -448691.000000 0 0 1
20.225465 13.586508 20.714913 31.980780 0.591515 0.866195 0.038797 -0.016416 412525.000000 0 0 1
20.981565 14.282708 21.722213 33.407729 0.597673 0.862929 0.029559 -0.005865 78464.700000 0 0 1
22.277365 15.003408 21.277313 34.265249 0.592706 0.900831 0.011910 -0.002571 505935.000000 0 0 1
23.420565 14.173108 21.041913 34.527699 0.544202 0.915466 -0.002939 0.007019 448666.000000 0 0 1
24.611465 14.946308 21.088313 35.690801 0.545763 0.938670 0.002421 0.007534 545979.000000 0 0 1
25.858565 14.004308 21.168813 36.234027 0.496351 0.946872 0.010782 -0.005003 203282.000000 0 0 1
26.008565 13.145908 20.008213 35.349525 0.467994 0.969138 0.024947 -0.021324 66595.600000 0 0 1
27.330865 12.685508 19.873013 36.094805 0.434555 0.987740 0.069532 -0.036332 75632.200000 0 0 1
27.499065 11.608408 18.747813 35.248180 0.399444 1.009977 0.102383 -0.038605 -147105.000000 0 0 1
27.022965 12.087008 17.533313 34.405719 0.420595 1.036071 0.097161 -0.049441 103493.000000 0 0 1
27.673665 11.500008 16.415213 34.169301 0.393846 1.069676 0.136180 -0.058432 -256818.000000 0 0 1
26.872365 11.383608 15.123113 32.869729 0.400699 1.092697 0.111751 -0.058886 -237374.000000 0 0 1
26.321465 12.584408 14.605513 32.626797 0.445978 1.106656 0.133938 -0.053696 96071.700000 0 0 1
25.575965 12.300408 13.463613 31.411764 0.448281 1.127835 0.114260 -0.044176 -247750.000000 0 0 1
25.161265 13.562808 12.644213 31.255642 0.494386 1.154319 0.093213 -0.042098 62669.600000 0 0 1
24.237565 14.398608 13.335713 31.186868 0.536042 1.128953 0.066487 -0.036879 293267.000000 0 0 1
24.125865 15.629608 12.617613 31.393410 0.574853 1.157185 0.045283 -0.027851 -565423.000000 0 0 1
23.106165 16.630108 13.124113 31.348010 0.623843 1.138829 0.046225 -0.023457 -381041.000000 0 0 1
21.784365 16.111808 12.973613 30.041031 0.636815 1.124239 0.069505 -0.029944 141533.000000 0 0 1
20.861065 17.148508 13.143813 30.033568 0.688033 1.117827 0.056227 -0.022882 -1224870.000000 0 0 1
20.403065 17.975108 11.881213 29.674110 0.722218 1.158854 0.083228 -0.018565 161724.000000 0 0 1
19.246565 17.442008 11.227013 28.296638 0.736252 1.162810 0.074118 -0.026054 1065740.000000 0 0 1
18.032065 17.645808 11.959513 27.920599 0.774572 1.128141 0.065248 -0.023317 -168373.000000 0 0 1
16.769665 16.959108 11.391913 26.431207 0.791015 1.125193 0.073826 -0.016429 -300084.000000 0 0 1
16.832965 15.563408 11.398213 25.602493 0.746230 1.109399 0.078470 -0.016467 72574.000000 0 0 1
15.661865 14.918708 10.992613 24.263129 0.761101 1.100603 0.085893 -0.025555 -44811.500000 0 1 0
16.086565 13.644108 10.113713 23.392872 0.703429 1.123708 0.099446 -0.030177 -22170.700000 0 1 0
16.294965 12.425908 10.845013 23.184982 0.651492 1.084041 0.110106 -0.029970 162436.000000 0 1 0
16.766965 11.417508 10.103413 22.662073 0.597828 1.108696 0.105882 -0.026113 -384158.000000 0 1 0
17.273165 10.200408 10.901413 22.830930 0.533431 1.073007 0.118129 -0.033573 -485452.000000 0 1 0
17.908665 9.157508 10.164813 22.536718 0.472682 1.102873 0.131829 -0.028470 551502.000000 0 1 0
18.459265 8.094308 10.945713 22.936236 0.413246 1.073304 0.145930 -0.025220 746095.000000 0 1 0
19.666565 8.332408 11.900913 24.450655 0.400755 1.062452 0.118564 -0.032171 -184268.000000 0 1 0
19.201665 9.082708 12.960713 24.883320 0.441829 1.022939 0.099765 -0.034428 -335985.000000 0 1 0
20.129265 9.271908 13.984013 26.205118 0.431649 1.007901 0.087187 -0.028454 -1373940.000000 0 0 1
19.522465 9.668708 15.334913 26.641511 0.459849 0.957456 0.061534 -0.023377 298801.000000 0 0 1
18.654765 8.679008 15.903213 26.004569 0.435458 0.912772 0.072868 -0.023946 741882.000000 0 0 1
17.379465 8.514408 15.299913 24.670393 0.455545 0.901833 0.082209 -0.033883 -588973.000000 0 1 0
16.833065 7.119108 15.694013 24.090160 0.400111 0.861276 0.083463 -0.028349 -169081.000000 0 1 0
16.367065 7.032208 17.026613 24.642206 0.405808 0.807989 0.123866 -0.030466 -14464.300000 0 1 0
15.880065 5.738508 17.214713 24.113342 0.346764 0.775733 0.125069 -0.017360 -1001880.000000 0 1 0
14.592565 5.676708 18.041213 23.888351 0.371000 0.714791 0.107521 -0.013079 -130245.000000 0 1 0
13.988065 4.386708 18.084213 23.279775 0.303890 0.681195 0.098811 -0.008506 409834.000000 0 1 0
13.333065 3.997608 16.874013 21.874273 0.291298 0.689744 0.077349 -0.011425 -446926.000000 0 1 0
13.016265 2.474008 16.850713 21.435727 0.187830 0.666316 0.057969 -0.013552 -496635.000000 0 1 0
14.208065 1.782808 16.708713 22.005195 0.124826 0.708548 0.072827 -0.017934 -448503.000000 0 1 0
14.090565 0.409608 16.662313 21.825317 0.029061 0.702174 0.067847 -0.020165 -189720.000000 0 1 0
13.482565 -0.431092 17.809813 22.341773 -0.031963 0.648231 0.070879 -0.022983 -190764.000000 0 1 0
12.094865 -0.391592 17.980113 21.673107 -0.032365 0.592397 0.066838 0.000918 -326306.000000 0 1 0
11.664265 -1.308892 18.968513 22.306339 -0.111746 0.554119 0.060713 -0.011385 -136496.000000 0 1 0
-26.575675 14.196508 28.410143 41.411877 -0.490625 0.814766 0.083866 -0.014681 4656.550000 0 0 1
-25.758435 13.973308 29.565993 41.628094 -0.497048 0.780955 0.076403 -0.012475 517827.000000 0 0 1
-25.151525 12.702208 29.598073 40.865526 -0.467661 0.760807 0.078820 -0.004416 557877.000000 0 0 1
-23.850035 12.641108 30.494463 40.725103 -0.487378 0.724565 0.064660 -0.008883 433990.000000 0 0 1
-24.121735 12.980908 31.864713 42.020495 -0.493693 0.710074 0.072652 -0.019230 -524331.000000 0 0 1
-23.020935 13.167508 32.675738 42.083851 -0.519562 0.681794 0.059944 -0.011935 -651235.000000 0 0 1
-23.449435 13.289408 -33.743395 43.186815 -0.515594 2.467599 0.054947 -0.009991 36211.300000 0 0 1
-23.914835 12.112408 -33.120575 42.609884 -0.468819 2.461156 0.064453 -0.020378 -112097.000000 0 0 1
-24.704135 12.514308 -32.052455 42.358730 -0.468888 2.429033 0.050414 -0.012955 -502662.000000 0 0 1
-25.538655 11.387808 -31.413295 42.055917 -0.419443 2.414246 0.049111 -0.024157 -58765.000000 0 0 1
-24.848135 10.392208 -30.631225 40.788475 -0.396122 2.420337 0.039747 -0.016661 253694.000000 0 0 1
-24.333535 9.327208 -31.357155 40.772403 -0.366033 2.448194 0.040746 -0.024055 -22041.200000 0 0 1
-23.472635 8.288408 -30.605895 39.451021 -0.339442 2.458770 0.044642 -0.013291 397709.000000 0 0 1
-24.235335 7.474008 -29.690285 39.047730 -0.299139 2.434662 0.040859 -0.012782 861329.000000 0 0 1
-23.338335 6.612708 -28.981435 37.793244 -0.276104 2.444702 0.045267 -0.008536 205797.000000 0 0 1
-23.970935 5.773708 -27.840375 37.189083 -0.236361 2.416770 0.037418 -0.005093 -35380.600000 0 0 1
-24.898535 4.808508 -28.290735 37.992426 -0.190776 2.410794 0.049920 -0.014585 231486.000000 0 0 1
-25.239665 3.839208 -27.285685 37.366948 -0.150953 2.389424 0.063101 -0.005797 -244361.000000 0 0 1
-25.960875 2.584608 -27.833635 38.149160 -0.099231 2.388533 0.073322 -0.003829 890760.000000 0 0 1
-27.262915 2.631408 -28.438205 39.483190 -0.096222 2.374975 0.095020 -0.013576 883780.000000 0 0 1
-27.481615 3.550508 -29.470595 40.451962 -0.128484 2.386974 0.084081 -0.010196 -365054.000000 0 0 1
-28.866945 3.382808 -30.173995 41.895272 -0.116654 2.374922 0.099563 -0.015405 314698.000000 0 0 1
-29.937885 3.934508 -29.439755 42.171749 -0.130673 2.343525 0.089105 -0.008462 76206.000000 0 0 1
-31.121205 4.048308 -30.212265 43.562588 -0.129356 2.337183 0.095137 -0.016666 222446.000000 0 0 1
-31.518885 5.475908 -30.600665 44.269926 -0.172017 2.333985 0.096245 -0.034657 -545698.000000 0 0 1
-30.696825 6.005708 -31.607175 44.467708 -0.193205 2.361416 0.100153 -0.029656 53508.700000 0 0 1
-30.942455 7.350208 -32.011245 45.124061 -0.233222 2.359450 0.097191 -0.029409 -709335.000000 0 0 1
-30.539275 8.530408 -31.070595 44.393660 -0.272383 2.346037 0.076092 -0.033891 658329.000000 0 0 1
-29.115245 8.729408 -31.031675 43.438058 -0.291294 2.366547 0.054332 -0.039796 907644.000000 0 0 1
-28.348385 7.984808 -30.128215 42.131905 -0.274554 2.367553 0.043508 -0.036351 -591803.000000 0 0 1
-28.256855 8.539308 -28.693485 41.166560 -0.293477 2.342015 0.039119 -0.016497 281964.000000 0 0 1
-29.524245 8.665008 -28.039115 41.628780 -0.285472 2.309799 0.041382 -0.018612 673503.000000 0 0 1
-30.128895 7.486608 -27.518415 41.485693 -0.243553 2.296047 0.031114 -0.002893 -422189.000000 0 0 1
-31.545005 7.736508 -26.996925 42.234758 -0.240506 2.264268 0.051612 -0.003501 -319970.000000 0 0 1
-31.550905 8.604808 -25.876855 41.702685 -0.266253 2.240187 0.027456 -0.001622 -191288.000000 0 0 1
-32.039295 8.025508 -24.715975 41.252934 -0.245439 2.213214 0.021032 -0.003095 -238022.000000 0 0 1
-31.606325 8.596108 -23.398975 40.253756 -0.265551 2.191105 0.026070 0.002515 -338068.000000 0 0 1
-32.208885 9.851208 -23.169875 40.881556 -0.296819 2.173360 0.028580 -0.003963 373657.000000 0 0 1
-31.397625 10.690208 -22.336275 39.987505 -0.328167 2.163471 0.028958 -0.009576 -144253.000000 0 0 1
-32.181995 11.746008 -21.556475 40.476303 -0.349963 2.132431 0.016320 0.000257 -258046.000000 0 0 1
-32.932735 11.049008 -20.573075 40.371983 -0.323701 2.105502 0.013419 -0.006833 326536.000000 0 0 1
-33.668625 11.889008 -19.658675 40.760131 -0.339450 2.074076 0.020778 -0.000283 258453.000000 0 0 1
-32.829045 12.697608 -18.606475 39.814273 -0.369058 2.057067 0.025264 -0.000689 -61927.000000 0 0 1
-32.069695 11.910708 -17.706975 38.520997 -0.355611 2.048421 0.044266 -0.000515 -57683.700000 0 0 1
-32.704815 11.386108 -16.580775 38.394927 -0.335024 2.017337 0.047172 0.006081 -365449.000000 0 0 1
-33.048055 12.313208 -15.368675 38.470575 -0.356652 1.981759 0.047309 0.013517 -226445.000000 0 0 1
-34.046255 13.206608 -15.779375 39.781285 -0.370034 1.978664 0.020891 0.013163 -55069.900000 0 0 1
-34.505786 13.995608 -14.713675 40.037714 -0.385326 1.947111 0.009669 0.007162 141968.000000 0 0 1
-35.148513 15.325808 -15.258375 41.268830 -0.411176 1.949516 0.004135 0.006999 1078100.000000 0 0 1
-36.278135 15.018208 -16.125675 42.446284 -0.392495 1.960493 0.009054 0.002201 1272460.000000 0 0 1
-37.062645 16.189508 -16.376275 43.633957 -0.411835 1.955528 0.003994 -0.002417 -349071.000000 0 0 1
36.689822 16.491808 -17.843275 44.005741 0.422432 1.988296 0.005937 -0.005203 115769.000000 0 0 1
35.657702 15.669808 -18.352975 43.056315 0.414047 2.011145 0.045541 -0.009140 -384310.000000 0 0 1
34.389012 16.178208 -18.063475 42.078827 0.439727 2.014488 0.093822 -0.016246 -1241240.000000 0 0 1
33.355202 15.146908 -18.537075 41.056321 0.426266 2.039246 0.119123 -0.025617 -571654.000000 0 0 1
33.288752 14.825608 -19.915375 41.527844 0.418992 2.070957 0.112896 -0.022793 644641.000000 0 0 1
32.269632 13.863908 -20.271475 40.552063 0.405783 2.094265 0.058383 -0.015408 326589.000000 0 0 1
32.528042 12.340408 -19.971675 40.115171 0.362603 2.091924 0.065436 0.009383 -89105.800000 0 0 1
32.442482 12.015108 -18.581975 39.270437 0.354689 2.063693 0.085941 0.006489 224944.000000 0 0 1
33.027412 10.747108 -18.327175 39.270798 0.314593 2.056338 0.075723 0.003081 -89606.800000 0 0 1
32.933422 10.381308 -16.853775 38.424362 0.305362 2.024861 0.054850 0.004420 -283511.000000 0 0 1
31.657152 9.996608 -16.398575 37.027297 0.305868 2.029602 0.067750 -0.000653 -38176.500000 0 0 1
31.755752 9.667008 -15.020975 36.434990 0.295505 1.995738 0.051016 0.005314 -79123.700000 0 0 1
31.257412 10.742608 -14.048675 35.913712 0.331035 1.972708 0.069790 -0.007532 -510428.000000 0 0 1
29.856982 10.828608 -14.069975 34.737045 0.347928 1.987821 0.063084 -0.002053 -203601.000000 0 0 1
29.442502 11.960908 -13.339575 34.465468 0.385880 1.968217 0.084512 -0.003570 -372721.000000 0 0 1
27.940392 11.994208 -13.064675 33.093991 0.405489 1.976619 0.091529 0.001488 -996991.000000 0 0 1
27.461592 10.938408 -12.263475 32.002822 0.379054 1.964054 0.075899 -0.007531 -134362.000000 0 0 1
26.056992 10.820308 -12.306575 30.781450 0.393588 1.982100 0.080217 0.003686 3690.430000 0 0 1
25.442992 10.188308 -13.618675 30.604179 0.380883 2.031964 0.074476 -0.009394 -1050070.000000 0 0 1
25.830392 8.810108 -13.870575 30.614049 0.328702 2.041012 0.078559 -0.009301 1214450.000000 0 0 1
27.129192 8.696608 -14.505475 31.969248 0.310213 2.041745 0.088698 -0.012599 746292.000000 0 0 1
28.085292 7.827008 -13.652775 32.193849 0.271791 2.008742 0.093143 -0.012805 -503851.000000 0 0 1
27.867892 6.422008 -13.486175 31.618642 0.226491 2.011445 0.088242 -0.024021 -71987.400000 0 0 1
26.802392 5.976708 -12.705975 30.257744 0.219402 2.004159 0.106786 -0.026389 -509071.000000 0 0 1
26.536592 4.469208 -12.639775 29.730934 0.166851 2.009912 0.113777 -0.028927 25919.700000 0 0 1
25.444492 4.155108 -11.794075 28.351143 0.161872 1.999838 0.127376 -0.028759 544593.000000 0 0 1
25.072692 2.798108 -11.774975 27.840965 0.111140 2.007480 0.115255 -0.033728 -163519.000000 0 0 1
24.211192 2.464908 -10.536275 26.519251 0.101459 1.979376 0.106911 -0.028215 -262855.000000 0 0 1
24.926192 2.271408 -9.317975 26.707658 0.090874 1.927180 0.111940 -0.026177 406548.000000 0 0 1
24.524692 1.109908 -8.563975 26.000655 0.045226 1.906438 0.133879 -0.020762 -146400.000000 0 0 1
25.500992 0.836208 -7.374875 26.559153 0.032779 1.852172 0.161986 -0.019646 114516.000000 0 0 1
25.498792 -0.511492 -6.840975 26.405472 -0.020057 1.832860 0.126380 -0.029790 97843.500000 0 0 1
26.037992 -1.539192 -7.651775 27.182638 -0.059045 1.856148 0.103856 -0.029068 -469097.000000 0 0 1
26.253692 -2.801992 -6.899075 27.289279 -0.106325 1.826383 0.104696 -0.032780 -219699.000000 0 0 1
27.406092 -2.700892 -6.076575 28.201302 -0.098234 1.787971 0.108502 -0.041357 372791.000000 0 0 1
27.533992 -3.796192 -5.189375 28.274748 -0.137009 1.755377 0.119500 -0.056873 -1240160.000000 0 0 1
28.896492 -4.006092 -4.596175 29.532708 -0.137758 1.727061 0.129879 -0.052601 -1079310.000000 0 0 1
29.853652 -4.414692 -5.552275 30.684814 -0.146814 1.752744 0.110385 -0.032636 24283.100000 0 0 1
31.093952 -4.712592 -4.946875 31.835734 -0.150415 1.726816 0.122155 -0.042965 -632684.000000 0 0 1
32.110842 -4.998292 -6.042775 33.054564 -0.154418 1.754642 0.135881 -0.044045 -672889.000000 0 0 1
31.877572 -6.205792 -6.794375 33.179135 -0.192271 1.777034 0.115779 -0.042954 147439.000000 0 0 1
32.641082 -6.208392 -7.967575 34.168211 -0.187957 1.806150 0.127283 -0.048372 -757402.000000 0 0 1
32.008512 -6.975292 -9.116475 34.004553 -0.214565 1.842212 0.096621 -0.042564 801208.000000 0 0 1
30.754022 -6.421292 -9.556875 32.838647 -0.205838 1.866095 0.098593 -0.038646 2125140.000000 0 0 1
29.556952 -6.979492 -8.905275 31.648549 -0.231889 1.856028 0.095727 -0.033150 1564510.000000 0 0 1
28.375192 -5.924592 -8.955275 30.338907 -0.205838 1.870435 0.093629 -0.032743 -503380.000000 0 0 1
27.762892 -5.715692 -10.216175 30.130010 -0.203038 1.916724 0.070967 -0.021774 844460.000000 0 0 1
26.538592 -4.994692 -10.053475 28.815207 -0.186029 1.927188 0.090117 -0.025626 963818.000000 0 0 1
25.285492 -5.808292 -9.587575 27.658885 -0.225791 1.924779 0.132340 -0.027763 -918389.000000 0 0 1
25.295592 -6.280292 -8.248575 27.337667 -0.243356 1.877302 0.120879 -0.038150 548380.000000 0 0 1
24.134492 -7.017792 -7.872975 26.338315 -0.282975 1.874354 0.123798 -0.039583 420907.000000 0 0 1
22.980992 -6.115692 -7.314275 24.880239 -0.260092 1.869184 0.139621 -0.035217 -189187.000000 0 1 0
22.407592 -5.276592 -8.245775 24.452718 -0.231269 1.914751 0.136873 -0.036602 316005.000000 0 1 0
21.937092 -4.038792 -7.708575 23.600211 -0.182069 1.903534 0.125018 -0.034458 55510.400000 0 1 0
21.684992 -2.968492 -8.796975 23.588929 -0.136046 1.952959 0.112533 -0.032054 113280.000000 0 1 0
22.933492 -2.586392 -9.343175 24.898381 -0.112303 1.955465 0.099165 -0.026146 585742.000000 0 1 0
22.843192 -2.067292 -10.658575 25.292100 -0.090253 2.005806 0.109052 -0.025388 -431121.000000 0 0 1
24.168692 -2.013092 -11.432075 26.811761 -0.083102 2.011286 0.092835 -0.020501 -173364.000000 0 0 1
25.131492 -1.117592 -10.893375 27.413619 -0.044440 1.979446 0.079218 -0.026425 925913.000000 0 0 1
26.313092 -1.120192 -11.709375 28.822614 -0.042546 1.989150 0.087003 -0.017592 50836.500000 0 0 1
27.485492 -0.370592 -11.060375 29.629740 -0.013482 1.953345 0.090493 -0.011683 -945299.000000 0 0 1
28.685692 -0.876792 -11.594575 30.952736 -0.030556 1.954750 0.082864 -0.014747 276255.000000 0 0 1
29.838612 -0.089692 -11.316175 31.912484 -0.003006 1.933283 0.106446 -0.019148 203054.000000 0 0 1
29.935342 1.255108 -12.131475 32.324490 0.041903 1.955520 0.104052 -0.021430 -708179.000000 0 0 1
30.192522 1.020408 -13.542275 33.106235 0.033784 1.992215 0.088411 -0.017345 494952.000000 0 0 1
30.278112 2.220408 -14.343575 33.577260 0.073203 2.012169 0.088151 -0.020985 -144192.000000 0 0 1
30.527222 1.876008 -15.832875 34.439957 0.061376 2.048481 0.075243 -0.015702 -268754.000000 0 0 1
29.395562 1.459108 -16.531875 33.756939 0.049596 2.082579 0.088338 -0.012953 -284249.000000 0 0 1
29.773302 1.380208 -17.885575 34.759866 0.046324 2.111275 0.064073 -0.007725 223224.000000 0 0 1
28.786092 0.694408 -18.896475 34.441226 0.024118 2.151555 0.061598 -0.001859 162559.000000 0 0 1
28.749592 -0.700992 -18.763875 34.338221 -0.024378 2.148907 0.073542 -0.005175 108919.000000 0 0 1
28.437692 -1.274992 -19.985675 34.781534 -0.044805 2.182919 0.064918 -0.006011 -124979.000000 0 0 1
28.263692 -2.799992 -20.003075 34.739016 -0.098745 2.184391 0.069564 -0.009331 136814.000000 0 0 1
27.148192 -3.192792 -19.213375 33.412154 -0.117068 2.183451 0.061212 -0.007727 438737.000000 0 0 1
26.883092 -4.582692 -19.079275 33.282434 -0.168844 2.181267 0.063620 -0.008667 -370227.000000 0 0 1
27.721892 -5.198192 -17.970475 33.443422 -0.185360 2.138076 0.064263 -0.009149 -1187420.000000 0 0 1
29.042992 -5.267092 -18.348575 34.754968 -0.179405 2.126971 0.052283 -0.014292 -811589.000000 0 0 1
29.898732 -5.585592 -17.241975 34.963105 -0.184688 2.086501 0.054477 -0.010458 100867.000000 0 0 1
31.378662 -5.271292 -17.496775 36.311762 -0.166436 2.073560 0.070564 -0.021652 -239826.000000 0 0 1
32.029782 -6.075092 -18.461275 37.465082 -0.187444 2.086054 0.066721 -0.027759 -94973.900000 0 0 1
33.375352 -5.655692 -18.571675 38.610984 -0.167862 2.072585 0.054449 -0.019578 71198.900000 0 0 1
34.215532 -6.747992 -19.276775 39.847611 -0.194721 2.075745 0.050592 -0.015535 -220266.000000 0 0 1
34.261192 -7.911192 -18.428675 39.699273 -0.226931 2.053535 0.055120 -0.016159 -179480.000000 0 0 1
34.827152 -9.015992 -19.035575 40.701004 -0.253317 2.057475 0.039757 -0.008884 -192340.000000 0 0 1
35.565472 -9.843792 -17.929975 41.027881 -0.270020 2.023078 0.050841 -0.017297 -99031.100000 0 0 1
34.679782 -10.383492 -16.970975 39.981473 -0.290916 2.009174 0.048153 -0.019897 140347.000000 0 0 1
35.380382 -11.108092 -16.020975 40.395950 -0.304216 1.978605 0.063446 -0.024546 404693.000000 0 0 1
36.522812 -10.440792 -15.100775 40.877369 -0.278444 1.949177 0.075953 -0.030101 451152.000000 0 0 1
36.964582 -11.182092 -13.974175 41.069418 -0.293756 1.917987 0.072972 -0.027869 556222.000000 0 0 1
-36.518475 -12.409592 -14.319375 41.141724 0.327574 1.926287 0.068035 -0.023371 -164298.000000 0 0 1
-35.055773 -12.345392 -14.813775 40.009547 0.338602 1.950081 0.072995 -0.026484 -238251.000000 0 0 1
-34.958428 -11.877392 -16.115975 40.285093 0.327521 1.982366 0.081267 -0.031486 511181.000000 0 0 1
-33.595535 -12.067392 -16.514575 39.332087 0.344844 2.004104 0.092457 -0.021256 606606.000000 0 0 1
-33.219485 -11.206992 -17.774775 39.307422 0.325372 2.040026 0.106019 -0.022725 246128.000000 0 0 1
-33.250785 -9.762292 -17.730675 38.926775 0.285571 2.043717 0.116196 -0.027978 -257340.000000 0 0 1
-34.556208 -9.352092 -18.032675 40.084541 0.264303 2.037412 0.100390 -0.030513 -357478.000000 0 0 1
-34.868481 -7.913892 -17.558975 39.834134 0.223183 2.027289 0.108849 -0.033977 -463447.000000 0 0 1
-36.137675 -7.505492 -17.965975 41.049241 0.204780 2.023801 0.097357 -0.025915 -472302.000000 0 0 1
-36.355905 -6.127692 -17.600575 40.854383 0.166978 2.016189 0.095403 -0.028517 -4117.090000 0 0 1
24.467265 27.517508 -26.887275 45.593704 0.844007 2.201502 0.043424 0.020624 -59582.300000 0 0 1
25.213565 26.632108 -26.090115 45.007634 0.812752 2.189135 0.043760 0.010026 291923.000000 0 0 1
26.551265 26.457408 -26.568005 45.943694 0.783628 2.187407 0.055781 0.003051 813344.000000 0 0 1
27.354765 25.423508 -25.710025 45.339203 0.748823 2.173728 0.063336 -0.000798 -283928.000000 0 0 1
27.707065 25.921908 -24.424475 45.124071 0.752123 2.142748 0.065777 -0.000913 199056.000000 0 0 1
27.890665 24.923508 -23.430775 44.136965 0.729276 2.130417 0.070310 -0.003685 -74287.300000 0 0 1
28.605965 25.441508 -22.137475 44.222612 0.726915 2.095079 0.076737 -0.002653 201989.000000 0 0 1
27.822365 26.399108 -21.419875 43.929580 0.759155 2.080130 0.067610 -0.002603 665967.000000 0 0 1
28.577465 26.856508 -20.298275 44.158391 0.754363 2.048420 0.056575 -0.001404 1976.870000 0 0 1
27.792165 27.910308 -19.557675 43.976044 0.787519 2.031674 0.063102 -0.000809 -615003.000000 0 0 1
26.656965 27.397408 -18.936475 42.659136 0.799095 2.030745 0.073433 -0.001728 -368876.000000 0 0 1
25.835865 28.449108 -18.450575 42.629419 0.833500 2.018407 0.067955 -0.009355 -48998.700000 0 0 1
24.828565 27.941308 -17.424475 41.240595 0.844317 2.007007 0.083431 -0.015539 -327074.000000 0 0 1
23.793765 27.084408 -17.861075 40.233399 0.849985 2.030783 0.101260 -0.017968 90466.700000 0 0 1
22.711965 27.246508 -16.953675 39.314535 0.875916 2.016654 0.075714 -0.012833 218700.000000 0 0 1
21.484465 26.391808 -17.360275 38.203258 0.887542 2.042516 0.073137 -0.017005 24915.000000 0 0 1
20.879765 26.724508 -18.615775 38.687349 0.907564 2.072802 0.072953 -0.014016 -266525.000000 0 0 1
20.053565 25.691008 -19.042275 37.746279 0.908017 2.099577 0.065410 -0.015251 -313523.000000 0 0 1
19.414265 26.034708 -20.392675 38.348154 0.930048 2.131494 0.051400 -0.002283 -168943.000000 0 0 1
18.427465 27.006208 -20.209475 38.436046 0.972020 2.124446 0.042526 0.001166 -236784.000000 0 0 1
17.361965 26.837808 -21.143775 38.324470 0.996588 2.155203 0.025938 0.001625 322584.000000 0 0 1
16.235865 27.889608 -21.080975 38.546609 1.043607 2.149448 0.027803 0.004817 51652.700000 0 0 1
15.499565 27.751508 -19.886275 37.494622 1.061441 2.129841 0.041593 0.006800 -280151.000000 0 0 1
14.373965 28.597108 -19.804075 37.637838 1.105041 2.124892 0.036815 -0.002302 129403.000000 0 0 1
13.887965 28.577808 -18.351775 36.692701 1.118435 2.094566 0.042531 -0.002163 -674163.000000 0 0 1
13.312165 27.414108 -17.920375 35.353740 1.118739 2.102367 0.045520 0.002136 -578214.000000 0 0 1
12.989565 27.443008 -16.564475 34.586548 1.128712 2.070230 0.063201 0.003756 177773.000000 0 0 1
11.907765 26.374108 -16.283275 33.204420 1.146700 2.083339 0.068878 -0.003585 340405.000000 0 0 1
12.526065 25.109708 -16.507775 32.556204 1.108066 2.102560 0.058913 -0.006788 114446.000000 0 0 1
11.567965 24.079108 -16.408175 31.350430 1.122939 2.121609 0.077040 -0.011841 190045.000000 0 0 1
12.329065 22.769808 -16.584375 30.749171 1.074529 2.140454 0.068217 -0.007643 275550.000000 0 0 1
12.810465 22.446508 -17.875875 31.424523 1.052191 2.175905 0.066780 -0.006380 278557.000000 0 0 1
13.955765 21.586008 -17.802875 31.267579 0.996872 2.176538 0.063978 -0.002753 459034.000000 0 0 1
13.601565 20.095208 -17.964675 30.191878 0.975773 2.208083 0.082903 -0.006014 201411.000000 0 0 1
13.027365 19.557308 -16.742275 28.853151 0.983178 2.189842 0.090627 -0.012807 -75915.800000 0 0 1
12.803365 18.120608 -16.849275 27.860019 0.955679 2.220290 0.069142 -0.017526 266611.000000 0 0 1
14.004465 17.116808 -16.870375 27.815818 0.885074 2.222451 0.087365 -0.015894 258750.000000 0 0 1
14.527465 16.852708 -15.591075 27.168781 0.859362 2.182008 0.076728 -0.012973 -774293.000000 0 0 1
15.569165 15.968608 -15.769575 27.314371 0.798063 2.186259 0.088126 -0.016935 -1626160.000000 0 0 1
16.029465 15.166708 -14.449575 26.377320 0.757749 2.150532 0.134881 -0.010908 -1100810.000000 0 0 1
16.895265 15.889808 -13.632875 26.903369 0.754740 2.102189 0.099252 -0.006646 271981.000000 0 0 1
18.200865 16.159308 -14.111375 28.134065 0.726052 2.096216 0.069371 0.000015 -371974.000000 0 0 1
19.107965 14.921208 -14.518375 28.258450 0.662979 2.110371 0.063194 -0.007179 -797908.000000 0 0 1
19.607365 14.097908 -13.466475 27.650420 0.623371 2.079478 0.098039 -0.020941 592709.000000 0 0 1
20.603465 14.749208 -12.680375 28.334323 0.621292 2.034794 0.092714 -0.009570 -283429.000000 0 0 1
21.599865 13.766308 -12.019675 28.293780 0.567419 2.009556 0.113161 -0.024455 -534716.000000 0 0 1
20.965165 13.019008 -11.032075 27.032192 0.555705 1.991178 0.187907 -0.028056 -12275.400000 0 0 1
21.651165 11.945608 -10.509075 26.868405 0.504171 1.972657 0.200195 -0.013622 -728913.000000 0 0 1
21.468765 10.637208 -11.346275 26.510301 0.460020 2.013069 0.154238 -0.022582 -303523.000000 0 0 1
22.208465 10.539708 -12.558675 27.604740 0.443106 2.043108 0.122019 -0.007881 397000.000000 0 0 1
22.014865 9.338608 -13.289075 27.358059 0.401189 2.078013 0.108495 -0.013161 -504176.000000 0 0 1
22.514665 8.075408 -12.618675 27.043545 0.344381 2.056246 0.106159 0.002884 -59208.500000 0 0 1
21.574865 7.630608 -11.619075 25.665227 0.339950 2.040606 0.113327 -0.013325 901698.000000 0 0 1
21.987565 6.492308 -10.895375 25.383307 0.287113 2.014441 0.115645 -0.006062 -1342110.000000 0 0 1
21.887865 5.131908 -11.637375 25.314889 0.230304 2.048459 0.109236 -0.011100 -1177700.000000 0 0 1
20.666965 4.507208 -11.730175 24.187505 0.214725 2.077123 0.073886 -0.028428 -831024.000000 0 1 0
19.727065 5.205808 -12.502175 23.928266 0.258010 2.120560 0.027424 -0.034435 -1091710.000000 0 1 0
18.759765 4.203208 -13.098575 23.263027 0.220414 2.168885 0.024359 -0.039194 -476815.000000 0 1 0
19.522165 3.394208 -13.956975 24.237012 0.172144 2.184444 0.042925 -0.034690 233020.000000 0 1 0
19.093065 2.073308 -13.993375 23.762540 0.108166 2.200473 0.059025 -0.028778 -408714.000000 0 1 0
20.059365 0.988808 -14.590775 24.824314 0.049254 2.199085 0.075348 -0.027114 -643906.000000 0 1 0
21.139565 0.783508 -13.744475 25.227083 0.037047 2.146983 0.093645 -0.019694 -142205.000000 0 0 1
22.266865 0.175008 -14.369175 26.501266 0.007859 2.143858 0.082818 -0.028292 219194.000000 0 0 1
22.225365 -1.311692 -14.808875 26.739300 -0.058949 2.157747 0.083484 -0.022726 -932206.000000 0 0 1
21.311765 -1.608192 -15.827975 26.595158 -0.075318 2.208242 0.072755 -0.019480 -55086.900000 0 0 1
21.828565 -2.506092 -16.812975 27.666638 -0.114307 2.223956 0.070555 -0.014867 -427101.000000 0 0 1
20.804065 -3.217392 -17.703475 27.505886 -0.153437 2.270022 0.067498 -0.021471 -368317.000000 0 0 1
19.959565 -4.123692 -17.001275 26.541146 -0.203736 2.266027 0.081387 -0.019077 504595.000000 0 0 1
19.192965 -4.947292 -17.845675 26.670465 -0.252274 2.303817 0.061599 -0.016388 -241019.000000 0 0 1
18.630365 -6.174392 -17.109475 26.037430 -0.320024 2.287776 0.064356 -0.017902 -158089.000000 0 0 1
19.625065 -7.111492 -16.744175 26.759744 -0.347650 2.246854 0.068015 -0.010339 705260.000000 0 0 1
19.148965 -8.086092 -15.769875 26.091315 -0.399559 2.219823 0.074836 -0.012781 1043330.000000 0 0 1
20.419865 -8.887792 -15.264175 26.999237 -0.410522 2.171661 0.116665 -0.007758 1043250.000000 0 0 1
21.062465 -9.739692 -16.205775 28.303996 -0.433134 2.180423 0.097545 -0.005894 598260.000000 0 0 1
21.884665 -10.734492 -15.616075 28.948742 -0.456021 2.140567 0.085469 -0.009947 -520572.000000 0 0 1
22.413865 -11.743992 -16.565875 30.244519 -0.482632 2.150447 0.074899 -0.003996 -650454.000000 0 0 1
23.414565 -11.281392 -17.425275 31.291402 -0.448991 2.161410 0.064298 0.008628 -56434.600000 0 0 1
23.867365 -12.319092 -18.303975 32.503025 -0.476482 2.168985 0.061705 0.013283 -107641.000000 0 0 1
23.083565 -12.403692 -19.654475 32.756693 -0.493070 2.214315 0.082734 0.006828 960670.000000 0 0 1
21.737865 -12.892392 -19.573575 31.966754 -0.535319 2.229776 0.105890 0.000433 632578.000000 0 0 1
21.555065 -14.293092 -19.895875 32.630647 -0.585527 2.226516 0.085449 0.011135 371889.000000 0 0 1
20.051565 -14.677292 -19.762775 31.749889 -0.631866 2.242668 0.093340 -0.001234 591587.000000 0 0 1
19.202765 -14.117592 -20.730075 31.587792 -0.633952 2.286659 0.098880 0.004264 -71654.900000 0 0 1
17.877565 -14.595792 -20.647875 30.967389 -0.684680 2.300652 0.097810 -0.009602 343595.000000 0 0 1
16.827365 -13.894492 -21.540475 30.662830 -0.690221 2.349693 0.083608 -0.004035 19151.600000 0 0 1
17.021965 -14.181192 -22.911875 31.871735 -0.694607 2.372983 0.076841 0.002570 208838.000000 0 0 1
16.183265 -13.387392 -23.726775 31.687224 -0.691129 2.417017 0.075406 -0.006561 -104871.000000 0 0 1
16.064165 -13.912292 -25.181215 32.950005 -0.713736 2.440635 0.073884 -0.016014 -245164.000000 0 0 1
15.325865 -15.140892 -25.273965 33.209969 -0.779327 2.435704 0.071980 -0.017930 287907.000000 0 0 1
15.417665 -15.704192 -26.567255 34.498479 -0.794604 2.449793 0.078700 -0.024366 -206255.000000 0 0 1
16.263265 -16.992292 -26.691325 35.576096 -0.807317 2.419252 0.093693 -0.022046 67578.800000 0 0 1
17.658265 -16.794192 -26.618465 36.088805 -0.760323 2.400279 0.104880 -0.014465 58010.100000 0 0 1
18.427665 -18.002592 -26.678175 37.086347 -0.773731 2.373667 0.098717 -0.016331 413389.000000 0 0 1
19.898965 -17.564992 -26.903355 37.792701 -0.723179 2.362948 0.077302 -0.003047 -12712.300000 0 0 1
20.494565 -17.051192 -25.767775 37.077602 -0.693943 2.339173 0.079722 -0.001371 330905.000000 0 0 1
21.907965 -16.879492 -25.919905 37.904058 -0.656475 2.323794 0.073057 0.002448 878183.000000 0 0 1
22.727565 -16.215792 -24.766775 37.321405 -0.619720 2.296428 0.084855 0.005274 249870.000000 0 0 1
22.537365 -14.857992 -24.416575 36.398652 -0.582858 2.306097 0.098778 0.004717 -3818.540000 0 0 1
21.226065 -14.555192 -23.963075 35.165728 -0.601079 2.320515 0.114029 0.001817 417934.000000 0 0 1
21.161665 -13.180392 -23.292975 34.118931 -0.557047 2.322247 0.116906 0.010557 138796.000000 0 0 1
21.446965 -12.135092 -24.243475 34.568466 -0.514907 2.348041 0.136393 -0.003126 235645.000000 0 0 1
21.156865 -10.859892 -23.690075 33.567392 -0.474234 2.354273 0.148020 -0.002493 47545.400000 0 0 1
21.390165 -9.646992 -24.526375 33.943286 -0.423686 2.378308 0.153464 -0.009991 -108810.000000 0 0 1
20.886065 -8.543992 -23.830775 32.819710 -0.388306 2.383446 0.143953 -0.015442 99988.900000 0 0 1
20.683165 -7.390192 -24.632775 33.002755 -0.343167 2.413410 0.115114 -0.018419 23008.600000 0 0 1
20.058465 -6.180392 -23.855975 31.774940 -0.298889 2.420038 0.102601 -0.026558 -485294.000000 0 0 1
18.694465 -6.309492 -23.603675 30.764040 -0.325501 2.445337 0.086610 -0.016690 -528377.000000 0 0 1
18.138365 -5.570892 -22.503575 29.435455 -0.297988 2.441071 0.067610 -0.020799 86098.000000 0 0 1
18.608765 -5.951492 -21.088075 28.747405 -0.309541 2.394348 0.084770 -0.016490 -374526.000000 0 0 1
18.060165 -7.151092 -20.472875 28.221380 -0.377018 2.382468 0.089934 -0.011032 451058.000000 0 0 1
18.558665 -8.362992 -21.018175 29.259654 -0.423373 2.372199 0.099061 -0.012520 -124519.000000 0 0 1
18.293665 -9.482992 -19.955075 28.684322 -0.478240 2.340161 0.089593 -0.006846 -1106580.000000 0 0 1
16.961365 -9.695592 -19.722775 27.761128 -0.519296 2.360928 0.083526 -0.007101 -1531380.000000 0 0 1
16.689565 -10.858592 -18.985375 27.511726 -0.576812 2.332400 0.100447 -0.004781 690745.000000 0 0 1
15.186365 -10.919592 -18.499375 26.307604 -0.623390 2.350678 0.107618 -0.016891 992273.000000 0 0 1
14.764065 -9.913492 -17.527575 24.969398 -0.591314 2.348945 0.111997 -0.015875 185428.000000 0 1 0
14.714865 -8.610792 -18.013675 24.802530 -0.529448 2.383696 0.106506 -0.026001 -1155620.000000 0 1 0
13.694765 -7.851492 -17.211575 23.354460 -0.520571 2.399375 0.117045 -0.019458 17635.500000 0 1 0
12.366765 -7.951792 -17.740275 23.040947 -0.571436 2.449552 0.092933 -0.028453 690789.000000 0 1 0
11.673065 -6.720192 -17.424475 22.023482 -0.522361 2.483528 0.082845 -0.024874 302401.000000 0 1 0
10.152765 -6.761992 -17.709275 21.503990 -0.587558 2.538410 0.085647 -0.021264 72952.500000 0 1 0
9.827465 -6.614592 -19.022775 22.409771 -0.592424 2.584623 0.080173 -0.027489 633123.000000 0 1 0
8.398465 -6.536592 -19.121575 21.883690 -0.661373 2.633722 0.079151 -0.036079 794507.000000 0 1 0
7.848765 -6.098392 -20.498175 22.780884 -0.660551 2.690101 0.087300 -0.044496 -12163.100000 0 1 0
7.949465 -7.088992 -21.506275 23.999326 -0.728242 2.681745 0.091787 -0.035469 110711.000000 0 1 0
7.269865 -6.737992 -22.699975 24.769746 -0.747447 2.729887 0.106354 -0.034848 66626.900000 0 1 0
7.311265 -7.807692 -23.802875 26.095814 -0.818221 2.719256 0.094798 -0.023498 77198.600000 0 0 1
6.457765 -8.934592 -23.565375 26.016467 -0.944943 2.704029 0.100334 -0.028328 241051.000000 0 0 1
6.390665 -9.784692 -24.681275 27.308352 -0.992225 2.699362 0.090473 -0.018803 -93944.100000 0 0 1
5.377865 -10.912092 -24.402475 27.266755 -1.112897 2.679123 0.074269 -0.022769 6378.290000 0 0 1
5.809565 -11.940292 -23.524275 27.013203 -1.117965 2.627712 0.071783 -0.027267 260209.000000 0 0 1
4.872165 -13.052792 -23.454275 27.280329 -1.213547 2.605577 0.060773 -0.032970 -437023.000000 0 0 1
5.411865 -14.213992 -22.580575 27.225139 -1.207001 2.548832 0.074677 -0.032629 34019.800000 0 0 1
6.519065 -14.918992 -23.116275 28.274311 -1.158836 2.527977 0.082836 -0.029504 350884.000000 0 0 1
7.729365 -14.201692 -23.351575 28.402943 -1.072373 2.535980 0.073110 -0.027034 74339.700000 0 0 1
8.591765 -13.797692 -22.093475 27.428386 -1.013856 2.507310 0.082016 -0.020007 -145284.000000 0 0 1
9.226065 -14.755192 -21.264775 27.477747 -1.011999 2.455758 0.073697 -0.013964 83517.200000 0 0 1
8.373165 -15.707992 -20.660475 27.270976 -1.081059 2.430424 0.071227 -0.011679 -203910.000000 0 0 1
8.720065 -15.971092 -19.172375 26.432844 -1.071037 2.382301 0.079378 -0.010033 169118.000000 0 0 1
9.904065 -16.739092 -19.065175 27.235429 -1.036522 2.346213 0.093007 -0.015683 -324321.000000 0 0 1
10.162965 -17.021592 -17.666075 26.553920 -1.032539 2.298679 0.096118 -0.010886 -115152.000000 0 0 1
9.211965 -17.925592 -16.798275 26.236791 -1.096090 2.265628 0.061923 -0.011584 -58528.400000 0 0 1
9.022165 -19.324192 -17.154175 27.369501 -1.133990 2.248188 0.073455 -0.012915 183465.000000 0 0 1
8.352665 -19.664492 -18.391575 28.190588 -1.169130 2.281545 0.084179 -0.012234 489150.000000 0 0 1
6.807665 -19.507692 -18.428075 27.685525 -1.235036 2.299122 0.084345 -0.015454 185858.000000 0 0 1
6.372665 -18.149792 -18.431475 26.641041 -1.233128 2.334838 0.085549 -0.011900 425733.000000 0 0 1
4.969165 -18.036292 -18.160275 26.072898 -1.301957 2.341331 0.076814 -0.007642 860738.000000 0 0 1
4.718265 -16.518192 -17.785875 24.727515 -1.292565 2.373554 0.044248 0.007188 55459.600000 0 1 0
4.940165 -16.289192 -16.392575 23.631748 -1.276334 2.337365 0.020582 0.017435 181468.000000 0 1 0
4.540365 -14.968992 -15.996975 22.373843 -1.276298 2.367400 0.007527 0.021427 196583.000000 0 1 0
10.505165 29.480108 -18.257475 36.232177 1.228478 2.098907 0.045682 -0.010830 46674.400000 0 0 1
9.378265 29.283408 -19.133275 36.215357 1.260859 2.127416 0.076503 -0.021847 772539.000000 0 0 1
8.436065 28.352708 -18.559075 34.921090 1.281598 2.131117 0.068743 -0.023795 -21747.700000 0 0 1
7.339365 27.942308 -19.512175 34.862069 1.313937 2.164816 0.085672 -0.021526 -529683.000000 0 0 1
6.461565 28.993108 -19.834675 35.717873 1.351514 2.159538 0.096694 -0.029101 -539772.000000 0 0 1
5.955865 28.800308 -21.089175 36.189548 1.366872 2.192895 0.093043 -0.022463 263888.000000 0 0 1
4.779865 29.760608 -21.448575 36.994355 1.411546 2.189255 0.082230 -0.027083 571661.000000 0 0 1
3.571265 29.645208 -20.724275 36.346772 1.450907 2.177524 0.087788 -0.024419 -262164.000000 0 0 1
2.589165 30.561208 -21.101375 37.228473 1.486278 2.173422 0.091893 -0.037131 -891523.000000 0 0 1
1.294965 30.178008 -20.359875 36.426825 1.527912 2.163886 0.098509 -0.040546 -151670.000000 0 0 1
0.660265 28.915608 -20.654275 35.540785 1.547966 2.190929 0.102595 -0.054919 4017.850000 0 0 1
-0.020935 28.956808 -21.881675 36.294695 -1.570073 2.217914 0.128611 -0.060947 -716869.000000 0 0 1
-0.756035 27.624508 -22.161475 35.423382 -1.543435 2.246719 0.122357 -0.060079 7564.670000 0 0 1
-1.872035 27.495908 -21.318075 34.842356 -1.502817 2.229186 0.139113 -0.067907 -293913.000000 0 0 1
-2.562335 26.284708 -21.559275 34.091843 -1.473620 2.255428 0.148293 -0.065853 -590517.000000 0 0 1
-3.747435 25.999708 -20.652575 33.414921 -1.427648 2.237075 0.133637 -0.072271 -1443150.000000 0 0 1
-4.913735 26.582208 -21.117075 34.302907 -1.388009 2.233951 0.125739 -0.070348 -1943720.000000 0 0 1
-5.871735 25.890308 -20.427175 33.497086 -1.347776 2.226629 0.103153 -0.068969 -1211190.000000 0 0 1
-7.239735 26.621008 -20.580975 34.419012 -1.305263 2.211742 0.089584 -0.072676 -464345.000000 0 0 1
-8.095435 26.015508 -19.679975 33.610179 -1.269117 2.196338 0.084182 -0.062887 -464756.000000 0 0 1
-9.069835 26.926708 -19.149375 34.263801 -1.245898 2.163832 0.089797 -0.068084 883291.000000 0 0 1
-10.238935 26.330208 -18.285875 33.652472 -1.199925 2.145247 0.109177 -0.061786 64527.500000 0 0 1
-9.856935 25.775108 -17.036775 32.430958 -1.205536 2.123893 0.116757 -0.068574 -779855.000000 0 0 1
-10.923635 25.095308 -16.481775 31.949166 -1.160246 2.112825 0.084181 -0.055843 -791479.000000 0 0 1
-10.593535 24.428008 -15.156675 30.637809 -1.161611 2.088292 0.071184 -0.038946 238283.000000 0 0 1
-9.735435 23.288708 -15.243775 29.487545 -1.174842 2.114088 0.077623 -0.039013 94563.100000 0 0 1
-9.866835 22.581208 -14.032675 28.358091 -1.158849 2.088445 0.087302 -0.035090 -53263.300000 0 0 1
-9.076435 21.261508 -14.029075 27.041604 -1.167322 2.116238 0.084217 -0.017830 -264717.000000 0 0 1
-9.605135 20.068708 -14.598375 26.610603 -1.124405 2.151476 0.089025 -0.007830 -307756.000000 0 0 1
-10.004335 19.977408 -15.996675 27.478667 -1.106523 2.192165 0.087448 -0.006299 -8388.160000 0 0 1
-8.898935 20.111008 -17.066975 27.837480 -1.154205 2.230767 0.099413 -0.022247 -207271.000000 0 0 1
-8.176835 18.897208 -17.146075 26.794645 -1.162421 2.265173 0.099076 -0.015608 -97226.400000 0 0 1
-7.388935 18.901408 -18.337375 27.351762 -1.198142 2.305581 0.094499 -0.026287 124241.000000 0 0 1
-6.744235 17.505308 -18.610475 26.424804 -1.203054 2.352205 0.065388 -0.022431 -42881.000000 0 0 1
-7.726835 16.532708 -18.813175 26.210112 -1.133595 2.371409 0.076023 -0.030840 -448962.000000 0 0 1
-7.490635 15.640908 -19.938375 26.425109 -1.124160 2.425725 0.073451 -0.037591 149382.000000 0 0 1
-6.235935 14.744708 -19.919275 25.555250 -1.170683 2.464598 0.055056 -0.023547 -18794.900000 0 0 1
-6.528235 13.556108 -19.205075 24.397148 -1.122000 2.477028 0.044188 -0.016354 1265520.000000 0 1 0
-5.306335 12.921108 -18.715675 23.353559 -1.181124 2.500438 0.038462 -0.005359 1235220.000000 0 1 0
-4.648935 13.480108 -17.440575 22.527751 -1.238696 2.456218 0.029055 0.008857 -460734.000000 0 1 0
-4.017335 14.682508 -17.706375 23.350176 -1.303719 2.431494 0.033821 -0.006309 -632660.000000 0 1 0
-3.607935 15.226808 -16.436475 22.694285 -1.338141 2.380751 0.037489 0.006960 172142.000000 0 1 0
-2.767335 16.496808 -16.452475 23.462454 -1.404594 2.347912 0.054624 -0.000701 10915.500000 0 1 0
-3.474235 17.587008 -16.921475 24.651764 -1.375762 2.327352 0.047411 -0.009771 -119482.000000 0 1 0
-2.542035 18.589708 -17.334975 25.544873 -1.434895 2.316663 0.061006 -0.012484 303786.000000 0 0 1
-3.182835 19.927508 -17.673475 26.825132 -1.412413 2.290072 0.070273 -0.015482 108435.000000 0 0 1
-3.572635 19.896908 -19.017975 27.754892 -1.393132 2.325691 0.076810 -0.022448 -74475.900000 0 0 1
-4.232235 21.107508 -19.492975 29.041604 -1.372912 2.306634 0.116688 -0.034669 229236.000000 0 0 1
-3.301935 22.309208 -19.751975 29.979060 -1.423855 2.290097 0.107016 -0.042520 278766.000000 0 0 1
-2.429935 22.182208 -20.914575 30.583891 -1.461687 2.323813 0.119776 -0.039995 908125.000000 0 0 1
-1.193335 22.883508 -20.880775 31.001383 -1.518695 2.309789 0.119704 -0.048305 391121.000000 0 0 1
-0.081935 22.299608 -20.010875 29.961882 -1.567122 2.302150 0.129955 -0.048557 -665207.000000 0 0 1
-0.207035 22.494108 -18.597975 29.187539 -1.561593 2.261642 0.113811 -0.036024 -576829.000000 0 0 1
0.871665 21.864708 -17.973775 28.317518 1.530951 2.258446 0.111600 -0.029917 -423680.000000 0 0 1
0.867265 21.913708 -16.426275 27.400461 1.531241 2.213659 0.114357 -0.020168 -53356.400000 0 0 1
-0.222635 21.258308 -15.788875 26.481197 -1.560324 2.209593 0.087805 -0.004618 -82544.900000 0 0 1
-0.040035 21.239808 -14.386375 25.653437 -1.568911 2.166145 0.087184 -0.009048 181021.000000 0 0 1
-0.959835 20.337408 -13.510575 24.434956 -1.523636 2.156661 0.069620 -0.004387 155815.000000 0 1 0
-0.853035 18.924908 -13.714975 23.387611 -1.525752 2.197429 0.055190 -0.001722 -239688.000000 0 1 0
-1.606535 18.285308 -12.725575 22.335481 -1.483162 2.176994 0.034252 0.002607 -10536.300000 0 1 0
-1.512835 16.743008 -12.732575 21.088752 -1.480685 2.219008 0.027006 0.003096 -158641.000000 0 1 0
-0.257835 16.322008 -12.229775 20.397103 -1.555001 2.213777 0.026491 0.002467 231218.000000 0 1 0
-0.299135 14.856908 -12.101975 19.164420 -1.550665 2.254259 0.015339 -0.002272 -103834.000000 0 1 0
0.349465 14.079208 -13.243175 19.332043 1.545980 2.325451 0.022344 -0.004410 -70345.700000 0 1 0
-0.411335 13.911108 -14.417575 20.038827 -1.541236 2.373852 0.025743 -0.008243 185544.000000 0 1 0
0.288665 12.954908 -15.216875 19.986652 1.548518 2.436192 0.023850 -0.011940 -36012.000000 0 1 0
-0.287135 12.678608 -16.604775 20.893733 -1.548153 2.489351 0.025778 -0.007577 -50797.400000 0 1 0
-0.170035 13.851908 -17.381975 22.226950 -1.558522 2.468701 0.029376 -0.011396 43310.400000 0 1 0
-0.439035 13.507008 -18.755875 23.117415 -1.538304 2.517222 0.039605 -0.014483 185456.000000 0 1 0
-1.092135 14.703508 -19.493475 24.441388 -1.496655 2.494036 0.048345 -0.010605 1077770.000000 0 1 0
-0.096035 15.746508 -19.599475 25.141622 -1.564698 2.464764 0.045862 -0.021049 708664.000000 0 0 1
-0.809335 16.896208 -19.965775 26.168092 -1.522933 2.438710 0.085142 -0.031926 263213.000000 0 0 1
0.082065 18.137008 -20.237575 27.175673 1.566272 2.410873 0.106537 -0.039214 100106.000000 0 0 1
0.854765 17.981708 -21.402275 27.966584 1.523297 2.442273 0.114125 -0.048070 -204772.000000 0 0 1
1.595765 19.161808 -21.617675 28.931734 1.487710 2.414629 0.116319 -0.047849 954.977000 0 0 1
2.279465 19.183408 -22.998275 30.035308 1.452526 2.442938 0.127126 -0.052595 -352949.000000 0 0 1
3.278565 18.226508 -23.132975 29.632568 1.392821 2.466518 0.116447 -0.047384 -616379.000000 0 0 1
3.738965 18.157208 -24.449475 30.682909 1.367713 2.492849 0.118953 -0.059559 -461956.000000 0 0 1
4.845465 17.187308 -24.721775 30.496692 1.296007 2.516037 0.090729 -0.043649 -707782.000000 0 0 1
6.156365 17.524608 -24.297675 30.584142 1.232965 2.488903 0.083589 -0.033585 145615.000000 0 0 1
7.138965 16.572608 -24.566375 30.481518 1.164049 2.508063 0.081798 -0.029630 -109474.000000 0 0 1
7.617065 16.341408 -26.020635 31.656512 1.134618 2.535654 0.080063 -0.042330 -6519.780000 0 0 1
8.763765 17.186408 -26.357265 32.663154 1.099241 2.509752 0.064524 -0.034454 1194170.000000 0 0 1
9.185765 17.131208 -27.757205 33.886856 1.078609 2.530661 0.086545 -0.039295 289583.000000 0 0 1
9.703165 15.806308 -28.333075 33.863755 1.020234 2.561987 0.084913 -0.042293 -878483.000000 0 0 1
10.892565 15.381208 -27.758955 33.552781 0.954606 2.545120 0.084236 -0.038918 -603715.000000 0 0 1
11.108665 13.926508 -27.900805 33.102945 0.897482 2.573353 0.078016 -0.030446 -178508.000000 0 0 1
10.345865 13.012008 -26.931985 31.649346 0.899050 2.588586 0.074526 -0.028975 56522.800000 0 0 1
8.959965 12.994608 -27.223345 31.468259 0.967143 2.616156 0.094918 -0.032021 -444911.000000 0 0 1
8.286765 12.196908 -26.315555 30.165269 0.974020 2.630845 0.103136 -0.030260 -24535.000000 0 0 1
6.751865 12.335608 -26.359045 29.875645 1.069992 2.651506 0.085013 -0.029401 -277044.000000 0 0 1
6.257065 13.468508 -25.651175 29.640080 1.135892 2.616788 0.104533 -0.025320 334127.000000 0 0 1
4.848165 13.334708 -25.491095 29.173876 1.222080 2.633686 0.108498 -0.036980 58887.200000 0 0 1
3.945265 13.984908 -26.508945 30.230232 1.295833 2.640175 0.131913 -0.027172 -877425.000000 0 0 1
3.968565 13.379608 -27.756635 31.067575 1.282450 2.675715 0.136217 -0.036582 110290.000000 0 0 1
3.691465 14.283108 -28.771635 32.333281 1.317881 2.667803 0.132265 -0.053464 -204049.000000 0 0 1
3.722765 13.597908 -30.159205 33.291736 1.303569 2.704312 0.172623 -0.053137 842809.000000 0 0 1
5.030365 13.201008 -30.630015 33.730831 1.206724 2.709453 0.152645 -0.046463 711680.000000 0 0 1
5.054665 12.944208 -32.007225 34.893618 1.198510 2.731993 0.148955 -0.049319 -510466.000000 0 0 1
6.270665 12.110308 -32.493605 35.239398 1.093014 2.744222 0.151776 -0.036951 1471050.000000 0 0 1
7.574865 12.714308 -32.240745 35.475313 1.033489 2.711248 0.165313 -0.033104 1289680.000000 0 0 1
8.029765 12.729108 -30.871075 34.344295 1.008023 2.687982 0.140601 -0.032519 -729733.000000 0 0 1
8.104665 11.474508 -29.968755 33.097979 0.955842 2.703249 0.127480 -0.025795 -638171.000000 0 0 1
9.110165 10.607108 -30.338195 33.405268 0.861173 2.709726 0.093116 -0.022062 -586858.000000 0 0 1
8.936565 9.355408 -29.615765 32.318406 0.808292 2.729724 0.085838 -0.023905 103696.000000 0 0 1
9.987065 8.271208 -29.912945 32.602739 0.691696 2.732540 0.075316 -0.021943 949765.000000 0 0 1
11.260565 8.423808 -29.256255 32.460581 0.642271 2.693524 0.074026 -0.019829 885740.000000 0 0 1
12.073565 7.262008 -29.389645 32.592314 0.541507 2.694564 0.049586 -0.016273 423231.000000 0 0 1
13.402965 7.304808 -28.555455 32.379217 0.499007 2.650688 0.034932 -0.007940 680568.000000 0 0 1
14.045365 6.075908 -28.269105 32.145470 0.408283 2.645422 0.038969 -0.019071 681013.000000 0 0 1
14.928865 5.685608 -29.380785 33.442902 0.363887 2.643584 0.036158 -0.012530 65813.800000 0 0 1
15.722365 4.406208 -29.075105 33.346201 0.273241 2.629899 0.051086 -0.027644 -308893.000000 0 0 1
16.711265 4.629008 -28.114465 33.032064 0.270224 2.588924 0.026936 -0.015156 210301.000000 0 0 1
17.414665 3.416808 -27.769785 32.956124 0.193742 2.572943 0.040299 -0.024564 272048.000000 0 0 1
18.210365 3.462708 -26.442245 32.292415 0.187907 2.530179 0.032766 -0.015018 122243.000000 0 0 1
19.290665 4.380208 -26.466025 33.041889 0.223278 2.499733 0.064059 -0.015567 163213.000000 0 0 1
19.678265 4.594308 -25.104145 32.226695 0.229363 2.463843 0.070072 -0.010698 350169.000000 0 0 1
20.655665 5.829608 -24.935375 32.900057 0.275074 2.430904 0.071314 -0.004049 331344.000000 0 0 1
20.053065 7.136508 -25.081025 32.895486 0.341905 2.437881 0.073865 0.000363 230245.000000 0 0 1
20.924365 8.156008 -25.566525 34.029351 0.371670 2.420838 0.074219 -0.014332 -464653.000000 0 0 1
21.300665 7.998908 -27.053145 35.349307 0.359230 2.442318 0.122815 -0.014312 506950.000000 0 0 1
20.273265 8.235608 -28.023665 35.554976 0.385865 2.478640 0.094043 -0.005661 889321.000000 0 0 1
19.139865 7.356008 -28.117455 34.799951 0.366924 2.511502 0.084929 -0.006222 682182.000000 0 0 1
17.875165 8.143808 -28.562755 34.665171 0.427496 2.539163 0.065382 0.000118 2886.250000 0 0 1
17.826365 8.405608 -29.968415 35.868362 0.440611 2.559859 0.050125 0.001935 -343041.000000 0 0 1
16.630965 9.056908 -30.226575 35.668788 0.498673 2.581910 0.027936 0.005849 -778974.000000 0 0 1
16.116665 8.983108 -31.613385 36.603951 0.508492 2.613283 0.014641 0.003104 -339439.000000 0 0 1
15.603765 7.733008 -31.992395 36.425132 0.460110 2.643103 0.030115 0.000260 -2109.680000 0 0 1
14.554765 7.977008 -32.894735 36.844775 0.501359 2.674303 0.021125 0.000031 70864.200000 0 0 1
13.785065 6.692408 -33.338465 36.691546 0.451966 2.710750 0.028549 -0.005881 62886.800000 0 0 1
13.245765 5.982608 -32.276755 35.398175 0.424235 2.718491 0.034546 -0.010512 160124.000000 0 0 1
12.450965 4.871108 -32.690165 35.318566 0.372917 2.753362 0.031859 -0.013078 170085.000000 0 0 1
12.184965 3.777908 -31.687125 34.158745 0.300648 2.758848 0.038974 -0.015719 -133030.000000 0 0 1
13.243665 2.902408 -31.367055 34.171783 0.215744 2.733609 0.059923 -0.027808 -57761.300000 0 0 1
12.821765 1.969808 -30.391405 33.044141 0.152438 2.738167 0.066328 -0.029384 395847.000000 0 0 1
12.068365 0.642808 -30.877155 33.158066 0.053214 2.768518 0.063996 -0.027778 920402.000000 0 0 1
12.900865 -0.374492 -31.525195 34.064798 -0.029020 2.753012 0.072440 -0.032088 413189.000000 0 0 1
13.728265 -1.096892 -30.654625 33.606167 -0.079731 2.719351 0.079196 -0.036157 251644.000000 0 0 1
14.409065 -2.398292 -31.193675 34.444423 -0.164931 2.703644 0.086197 -0.037705 674006.000000 0 0 1
13.483165 -3.476792 -31.469105 34.412038 -0.252364 2.725016 0.093867 -0.038027 586021.000000 0 0 1
14.140865 -4.573392 -32.114645 35.386867 -0.312799 2.708161 0.108468 -0.043805 272326.000000 0 0 1
13.281565 -5.873592 -32.213985 35.336099 -0.416379 2.718066 0.106120 -0.039741 190971.000000 0 0 1
13.220465 -6.442092 -30.978435 34.292050 -0.453421 2.698362 0.101423 -0.036829 -69761.900000 0 0 1
12.778065 -7.783592 -31.040195 34.458046 -0.547111 2.692431 0.105867 -0.039380 -84131.200000 0 0 1
12.934565 -8.680892 -29.767295 33.596915 -0.591092 2.659470 0.074427 -0.028540 -28767.600000 0 0 1
14.251565 -8.716892 -29.245425 33.680650 -0.548938 2.622592 0.062875 -0.023588 212557.000000 0 0 1
14.356465 -9.387692 -27.974715 32.814959 -0.579112 2.591544 0.062675 -0.018763 -119386.000000 0 0 1
14.289865 -10.956892 -28.000505 33.290869 -0.654141 2.570085 0.057752 -0.016368 181742.000000 0 0 1
13.022365 -11.512892 -28.313915 33.223583 -0.723953 2.591017 0.052141 -0.020724 280410.000000 0 0 1
13.212265 -12.907392 -28.690765 34.122202 -0.773727 2.569600 0.051093 -0.024854 197103.000000 0 0 1
-9.715135 -3.457192 -17.751975 20.529701 0.341882 2.615344 0.013801 0.002501 -1985.320000 0 1 0
-10.544535 -2.838492 -18.690975 21.647096 0.262957 2.612847 0.024782 -0.009096 237460.000000 0 1 0
-11.548335 -3.654992 -19.278875 22.768355 0.306520 2.580623 0.028224 -0.006602 92767.600000 0 1 0
-12.341635 -2.900692 -20.395775 24.014945 0.230843 2.585445 0.049665 -0.023874 -27695.600000 0 1 0
-13.348735 -2.095692 -19.802875 23.973621 0.155724 2.542819 0.058102 -0.023172 -277626.000000 0 1 0
-14.348535 -1.817392 -20.743375 25.287763 0.125990 2.532719 0.058477 -0.017935 598496.000000 0 0 1
-15.342635 -0.670792 -20.295475 25.450986 0.043693 2.493827 0.073830 -0.014543 540868.000000 0 0 1
-14.764535 0.600608 -20.494875 25.266422 -0.040657 2.516913 0.077458 -0.021521 -147276.000000 0 0 1
-15.671235 1.646008 -20.252275 25.660311 -0.104650 2.480375 0.090113 -0.016471 -95839.300000 0 0 1
-15.279635 2.979908 -20.979575 26.124503 -0.192607 2.503211 0.103351 -0.024697 -37202.800000 0 0 1
-14.098235 3.595908 -20.536975 25.168594 -0.249736 2.525212 0.101940 -0.024091 -3791.450000 0 0 1
-13.731135 4.724808 -21.322775 25.797841 -0.331404 2.543717 0.107367 -0.030527 917803.000000 0 0 1
-12.335935 5.354608 -20.920175 24.869677 -0.409524 2.570280 0.085379 -0.026073 690930.000000 0 1 0
-12.427935 6.048508 -19.675075 24.044679 -0.452940 2.529194 0.092753 -0.029391 608351.000000 0 1 0
-11.140835 6.439908 -19.216975 23.127532 -0.524120 2.551544 0.074051 -0.018206 101783.000000 0 1 0
-11.188235 7.124908 -17.900175 22.279075 -0.567055 2.503868 0.071105 -0.015873 -539475.000000 0 1 0
-11.795735 8.347008 -17.962275 23.053312 -0.615828 2.464125 0.073708 -0.022302 945975.000000 0 1 0
-13.050135 8.251708 -17.211275 23.121952 -0.563837 2.410386 0.108282 -0.019809 975309.000000 0 1 0
-13.793535 9.594508 -17.113175 23.982847 -0.607753 2.365361 0.116999 -0.027470 289249.000000 0 1 0
-13.022535 10.502308 -16.287875 23.349084 -0.678675 2.342812 0.085918 -0.018882 1475920.000000 0 1 0
-13.737935 11.801908 -16.326175 24.383598 -0.709739 2.304407 0.100639 -0.023423 767720.000000 0 1 0
-12.972735 12.951808 -15.573675 24.053701 -0.784591 2.275036 0.101234 -0.015674 -31241.900000 0 1 0
-13.127235 12.883208 -14.184175 23.226970 -0.776017 2.227711 0.102558 -0.014837 -51217.600000 0 1 0
-12.487335 13.945208 -13.548375 23.107592 -0.840497 2.197301 0.094329 -0.018862 -1337090.000000 0 1 0
-12.963235 14.246508 -12.096575 22.745012 -0.832526 2.131561 0.069542 -0.018303 1316710.000000 0 1 0
-14.273035 14.852608 -11.934375 23.806486 -0.805295 2.095906 0.068849 -0.016217 1444250.000000 0 1 0
-15.365335 14.143908 -12.492175 24.335120 -0.744030 2.109868 0.073887 -0.004285 -900152.000000 0 1 0
-16.759635 14.559608 -11.961375 25.217891 -0.715268 2.064989 0.058606 -0.000254 -238874.000000 0 0 1
-17.793335 13.823108 -12.509575 25.771506 -0.660477 2.077621 0.056039 0.003419 -55235.300000 0 0 1
-19.009335 13.963108 -11.793175 26.370479 -0.633533 2.034441 0.114861 -0.012191 -237974.000000 0 0 1
-20.271635 13.490008 -12.491475 27.367068 -0.587168 2.044788 0.100422 -0.018749 -629746.000000 0 0 1
-20.635035 12.155408 -12.141275 26.850869 -0.532341 2.039998 0.111173 -0.020058 136104.000000 0 0 1
-21.821235 11.831508 -12.810075 27.932935 -0.496836 2.047217 0.139537 -0.022126 -382129.000000 0 0 1
-22.469835 10.485608 -12.289575 27.674448 -0.436616 2.030940 0.132876 -0.019453 -160581.000000 0 0 1
-21.792635 9.289208 -12.542375 26.805214 -0.402933 2.057719 0.127578 -0.016810 -118299.000000 0 0 1
-22.246935 8.333408 -11.669875 26.468052 -0.358408 2.027402 0.124618 -0.014913 -657947.000000 0 0 1
-21.285535 7.210008 -11.378575 25.189882 -0.326598 2.039480 0.130097 -0.020421 -685810.000000 0 0 1
-21.160335 6.333708 -12.495275 25.377303 -0.290833 2.085618 0.134788 -0.018917 23778.700000 0 0 1
-20.226535 5.326308 -12.329675 24.279686 -0.257487 2.103447 0.146094 -0.026351 -510015.000000 0 1 0
-20.103135 4.283608 -13.433875 24.555128 -0.209942 2.149681 0.143697 -0.041764 101553.000000 0 1 0
-20.948135 3.156908 -13.192675 24.956704 -0.149576 2.127773 0.141254 -0.043627 609429.000000 0 1 0
-20.778235 2.221008 -14.213875 25.272557 -0.106487 2.168110 0.132837 -0.048555 101983.000000 0 0 1
-21.598335 0.893208 -14.009675 25.759597 -0.041332 2.145829 0.139160 -0.039402 -244221.000000 0 0 1
-22.960235 1.020308 -14.273375 27.054438 -0.044409 2.126545 0.123237 -0.037780 -435991.000000 0 0 1
-23.530435 -0.235892 -14.357775 27.565970 0.010025 2.118644 0.125184 -0.041956 -199946.000000 0 0 1
-24.948735 -0.432792 -14.948375 29.087464 0.017346 2.110534 0.132577 -0.037988 -55851.400000 0 0 1
-25.948025 0.101008 -14.134675 29.548252 -0.003893 2.069582 0.160517 -0.046146 -84465.500000 0 0 1
-27.214965 -0.057492 -14.743775 30.952165 0.002113 2.067284 0.131975 -0.033483 456582.000000 0 0 1
-28.474035 0.463808 -14.009975 31.737441 -0.016287 2.027992 0.138031 -0.030264 295747.000000 0 0 1
-28.981845 -0.404092 -13.035175 31.780912 0.013942 1.993423 0.148509 -0.028594 -3850.770000 0 0 1
-30.232425 -0.042992 -12.488575 32.710332 0.001422 1.962532 0.175361 -0.033050 199914.000000 0 0 1
-30.418745 -0.753192 -11.144675 32.404800 0.024756 1.921885 0.167405 -0.040152 -178980.000000 0 0 1
-30.655335 -2.207292 -11.204375 32.713295 0.071879 1.920375 0.175313 -0.028966 197074.000000 0 0 1
-29.607415 -3.033892 -11.652375 31.962186 0.102114 1.943965 0.178561 -0.031386 -275404.000000 0 0 1
-29.809835 -4.494992 -11.192475 32.157467 0.149661 1.926289 0.181473 -0.033911 87704.100000 0 0 1
-30.855975 -5.138592 -11.907475 33.470647 0.165020 1.934522 0.185932 -0.032305 291433.000000 0 0 1
-31.253395 -6.329492 -11.235175 33.809263 0.199819 1.909549 0.181091 -0.031432 465762.000000 0 0 1
-30.395345 -7.605092 -11.651875 33.428739 0.245172 1.926829 0.175035 -0.035875 1279520.000000 0 0 1
-29.026455 -7.580892 -11.214575 32.027670 0.255465 1.928530 0.149776 -0.026145 854638.000000 0 0 1
-28.264965 -8.581192 -11.926375 31.855666 0.294755 1.954533 0.151752 -0.024753 -194666.000000 0 0 1
-26.778625 -8.506392 -11.594275 30.395405 0.307575 1.962159 0.159148 -0.034382 -1020290.000000 0 0 1
-26.132755 -7.332592 -12.004675 29.678274 0.273556 1.987221 0.132097 -0.025317 524706.000000 0 0 1
-24.766035 -7.283792 -11.602575 28.302470 0.286039 1.993195 0.127884 -0.036780 260814.000000 0 0 1
-24.454635 -6.981792 -10.084275 27.358128 0.278101 1.948302 0.121577 -0.032586 -562723.000000 0 0 1
-24.762035 -5.671292 -9.601175 27.157033 0.225149 1.932152 0.114518 -0.020773 1394670.000000 0 0 1
-26.154075 -5.526792 -9.244875 28.285133 0.208253 1.903760 0.128968 -0.021452 622063.000000 0 0 1
-26.512645 -4.257092 -8.441375 28.147823 0.159209 1.875378 0.142905 -0.032613 -302988.000000 0 0 1
-26.215905 -4.360492 -7.073275 27.501250 0.164821 1.830918 0.140539 -0.024876 414862.000000 0 0 1
-26.155245 -3.070592 -6.514375 27.128627 0.116864 1.813295 0.166065 -0.030962 -147143.000000 0 0 1
-25.857635 -3.029692 -5.029375 26.515861 0.116636 1.761627 0.162857 -0.022538 -198949.000000 0 0 1
-24.506335 -3.256092 -4.711375 25.166637 0.132094 1.759115 0.117070 -0.017600 -109812.000000 0 0 1
-24.279235 -2.962792 -3.351475 24.687887 0.121429 1.706971 0.092510 -0.009615 389512.000000 0 1 0
-22.823635 -3.247692 -2.877975 23.232489 0.141346 1.694993 0.070022 -0.007831 318313.000000 0 1 0
-22.565035 -4.643492 -2.928075 23.223187 0.202950 1.697217 0.080029 -0.007758 1221200.000000 0 1 0
-21.136635 -4.819592 -2.832075 21.863358 0.224188 1.700697 0.054053 -0.007912 593637.000000 0 1 0
-20.830135 -6.309992 -2.655875 21.926335 0.294139 1.692222 0.059702 -0.012968 -336295.000000 0 1 0
-21.370235 -6.960792 -1.492875 22.524836 0.314886 1.637122 0.067473 -0.014537 390901.000000 0 1 0
-21.897035 -8.167792 -1.948375 23.451847 0.357024 1.653972 0.081893 -0.022870 -200911.000000 0 1 0
-22.572935 -8.912292 -0.774475 24.280983 0.376035 1.602698 0.121109 -0.028024 -262050.000000 0 1 0
-21.631535 -9.562492 0.053525 23.650949 0.416234 1.568533 0.094254 -0.020880 58953.200000 0 1 0
-22.139235 -10.322992 1.094325 24.452145 0.436306 1.526028 0.085449 -0.015200 -335889.000000 0 1 0
-21.105135 -11.113092 1.937925 23.930797 0.484668 1.489727 0.096330 -0.014750 228931.000000 0 1 0
-20.322535 -11.997492 1.130325 23.626740 0.533297 1.522937 0.091904 -0.012422 655417.000000 0 1 0
-19.208635 -12.543892 1.822325 23.013946 0.578505 1.491530 0.062992 -0.011746 136745.000000 0 1 0
-18.598235 -13.670892 0.965825 23.102390 0.633873 1.528978 0.061958 -0.009859 36631.100000 0 1 0
-19.403935 -14.872392 0.979225 24.467521 0.653954 1.530764 0.082769 -0.008649 755189.000000 0 1 0
-18.848035 -15.997092 0.265825 24.722986 0.703762 1.560044 0.075221 -0.019748 508403.000000 0 1 0
-17.693535 -16.790092 0.989325 24.412028 0.759205 1.530259 0.073703 -0.010909 432780.000000 0 1 0
-16.546235 -15.993792 1.231325 23.045507 0.768422 1.517341 0.071876 -0.010310 435638.000000 0 1 0
-15.550135 -16.736092 1.943225 22.927703 0.822114 1.485940 0.076594 -0.005716 325593.000000 0 1 0
-15.409835 -16.505492 3.466925 22.845433 0.819715 1.418452 0.087548 -0.019054 -190061.000000 0 1 0
-14.963335 -15.208392 3.815825 21.673880 0.793520 1.393817 0.060894 -0.009938 291685.000000 0 1 0
-14.062235 -15.190892 4.928325 21.279051 0.823961 1.337070 0.038761 -0.003753 235468.000000 0 1 0
-14.734235 -15.444092 6.299425 22.255345 0.808916 1.283821 0.091404 -0.006761 -929311.000000 0 1 0
-15.632835 -14.481692 6.800325 22.368490 0.747191 1.261893 0.081011 -0.005393 342439.000000 0 1 0
-16.059035 -14.692292 8.173625 23.250036 0.740982 1.211567 0.093923 -0.007328 -65074.300000 0 1 0
-16.904535 -15.941792 8.504325 24.743233 0.756096 1.219939 0.066957 -0.000327 -823759.000000 0 1 0
-16.170535 -17.106492 8.347625 24.976010 0.813517 1.230013 0.066315 -0.001702 -714306.000000 0 1 0
-16.813435 -18.337392 8.706025 26.358042 0.828726 1.234176 0.057561 -0.007893 -411792.000000 0 0 1
-16.615435 -18.861292 10.146225 27.106584 0.848619 1.187145 0.076817 -0.011985 119657.000000 0 0 1
-15.314735 -19.351992 10.418725 26.787880 0.901335 1.171322 0.068107 -0.014245 59710.400000 0 0 1
-15.233835 -19.787792 11.747325 27.597574 0.914705 1.131099 0.073783 -0.021823 749460.000000 0 0 1
-13.855335 -20.471292 12.051325 27.500519 0.975799 1.117177 0.065168 -0.021542 1578200.000000 0 0 1
-12.671035 -19.651292 11.949025 26.258477 0.998090 1.098363 0.068698 -0.027414 579267.000000 0 0 1
-11.513635 -20.345992 12.359525 26.443922 1.055834 1.084464 0.067442 -0.030319 561095.000000 0 0 1
-10.257335 -19.468592 12.617925 25.366336 1.085888 1.050165 0.075257 -0.029324 476111.000000 0 0 1
-9.661535 -18.787792 11.501825 24.054487 1.095817 1.072241 0.060956 -0.028679 134860.000000 0 1 0
-8.648835 -17.907192 11.972725 23.212411 1.120856 1.028867 0.056518 -0.027051 268776.000000 0 1 0
-7.745235 -17.301492 10.883625 21.858261 1.149888 1.049600 0.035156 -0.024783 428511.000000 0 1 0
-6.770935 -18.173692 10.308425 21.963430 1.214160 1.082248 0.036938 -0.022198 221163.000000 0 1 0
-6.001235 -17.446492 9.344825 20.681408 1.239495 1.101962 0.034665 -0.013700 -111756.000000 0 1 0
-4.968735 -18.298692 8.616225 20.827141 1.305654 1.144280 0.028513 -0.010857 910718.000000 0 1 0
-3.695035 -18.379492 9.301025 20.927687 1.372400 1.110251 0.028562 -0.012083 408286.000000 0 1 0
-2.744835 -19.086292 8.571825 21.102058 1.427964 1.152496 0.041238 -0.009263 360340.000000 0 1 0
-1.315535 -19.081892 9.176525 21.214567 1.501964 1.123469 0.038199 -0.019412 960837.000000 0 1 0
-0.290735 -19.667092 8.363025 21.373330 1.556015 1.168771 0.045960 -0.011970 -831917.000000 0 1 0
0.930965 -19.684292 8.972225 21.652687 -1.523537 1.143546 0.062488 -0.027034 -906423.000000 0 1 0
2.076265 -20.223092 8.091925 21.880667 -1.468487 1.191980 0.063053 -0.037710 950.680000 0 1 0
1.913965 -21.552792 7.673825 22.958086 -1.482225 1.229983 0.065577 -0.028833 -148862.000000 0 1 0
2.286165 -22.530492 8.622325 24.232088 -1.469673 1.207002 0.079155 -0.032566 126529.000000 0 1 0
1.583065 -23.901692 8.331225 25.361512 -1.504661 1.236083 0.067733 -0.027004 97862.400000 0 0 1
1.956465 -24.861592 9.253225 26.599787 -1.492264 1.215500 0.087471 -0.031219 -187172.000000 0 0 1
1.503165 -26.144492 8.928425 27.667865 -1.513365 1.242215 0.091455 -0.023844 -1186020.000000 0 0 1
1.548165 -27.117242 10.111125 28.982348 -1.513767 1.214429 0.112464 -0.029443 392304.000000 0 0 1
0.587765 -26.847422 11.114525 29.063073 -1.548907 1.178374 0.104048 -0.035197 557757.000000 0 0 1
-0.791135 -27.024752 10.749625 29.094975 1.541530 1.192361 0.081033 -0.020368 133991.000000 0 0 1
-1.629835 -27.167832 12.000625 29.744957 1.510877 1.155511 0.076321 -0.025218 -237539.000000 0 0 1
-1.200535 -28.268792 12.762725 31.039540 1.528353 1.147052 0.089021 -0.024685 -88513.900000 0 0 1
-1.536735 -28.041032 14.092625 31.420743 1.516048 1.105695 0.073539 -0.026795 -56782.700000 0 0 1
-1.019435 -29.184332 15.021825 32.839301 1.535880 1.095688 0.076085 -0.017979 282160.000000 0 0 1
-1.225035 -28.817962 16.385925 33.173396 1.528312 1.054172 0.081951 -0.012615 -19787.600000 0 0 1
-0.854235 -29.921552 17.221125 34.533985 1.542255 1.048731 0.075774 -0.012722 60477.900000 0 0 1
-1.144635 -29.726902 18.671325 35.122888 1.532310 1.010308 0.074890 -0.011437 469726.000000 0 0 1
-2.516935 -29.966702 18.969325 35.555217 1.487002 1.008043 0.068318 -0.004098 275532.000000 0 0 1
-2.721235 -29.609722 20.320625 36.014838 1.479150 0.971297 0.080987 -0.011153 -1359740.000000 0 0 1
-4.165135 -29.775462 20.666625 36.483364 1.431813 0.968584 0.083982 -0.019018 -1866480.000000 0 0 1
-5.008535 -28.836882 20.063325 35.485042 1.398827 0.969875 0.070053 -0.022829 -480560.000000 0 0 1
-6.295735 -28.950932 20.621025 36.097360 1.356668 0.962755 0.071097 -0.030277 -32811.700000 0 0 1
-6.572835 -28.007752 21.857325 36.130029 1.340288 0.921077 0.108006 -0.038582 -742652.000000 0 0 1
-5.742135 -28.317032 22.933125 36.888408 1.370729 0.899899 0.097326 -0.032113 -191773.000000 0 0 1
-5.642235 -27.225722 23.825325 36.615855 1.366450 0.862312 0.125797 -0.031737 -312752.000000 0 0 1
-4.516235 -27.387932 24.868225 37.268268 1.407368 0.840251 0.133043 -0.028954 -153617.000000 0 0 1
-4.616235 -28.501572 25.759125 38.693433 1.410226 0.842333 0.126984 -0.030328 91574.400000 0 0 1
-4.153835 -29.747152 25.249325 39.238703 1.432055 0.871760 0.123057 -0.033434 -108050.000000 0 0 1
-4.349335 -30.944272 26.217325 40.789862 1.431157 0.872725 0.111005 -0.019033 169358.000000 0 0 1
-3.627435 -30.830822 27.442425 41.434099 1.453679 0.846892 0.114696 -0.022633 192801.000000 0 0 1
-3.963835 -31.838422 28.361725 42.822711 1.446935 0.846904 0.103051 -0.029564 -246855.000000 0 0 1
-3.188835 -31.646832 29.683525 43.506348 1.470372 0.819919 0.125414 -0.024883 783381.000000 0 0 1
-1.785835 -31.895192 29.457525 43.453864 1.514864 0.825889 0.126506 -0.025589 843425.000000 0 0 1
-1.101735 -31.779182 30.694825 44.196182 1.536142 0.803053 0.128124 -0.029119 -171335.000000 0 0 1
-29.054015 3.341908 -10.194175 30.971363 -0.114521 1.906198 0.172435 -0.037361 729417.000000 0 0 1
-29.989695 2.883208 -11.225675 32.151368 -0.095845 1.927461 0.153941 -0.053048 752866.000000 0 0 1
-30.499025 4.032108 -11.861875 32.971995 -0.131442 1.938803 0.140159 -0.045322 177937.000000 0 0 1
-31.527115 3.678808 -12.986675 34.294989 -0.116162 1.959161 0.141295 -0.037642 144743.000000 0 0 1
-32.718605 3.048608 -12.628875 35.203545 -0.092908 1.937713 0.143462 -0.039070 -369935.000000 0 0 1
-33.607585 2.870708 -13.672775 36.395817 -0.085212 1.955915 0.140491 -0.034016 -442972.000000 0 0 1
-34.743326 1.918308 -13.317075 37.257523 -0.055158 1.936314 0.130679 -0.037689 -270599.000000 0 0 1
-34.225540 0.591708 -13.208975 36.690798 -0.017287 1.939073 0.152807 -0.030866 336994.000000 0 0 1
-34.899722 -0.145792 -12.201475 36.971446 0.004177 1.907126 0.153963 -0.031069 209498.000000 0 0 1
-34.328775 -1.583092 -12.113575 36.437750 0.046083 1.909692 0.141543 -0.028375 -12458.900000 0 0 1
-34.927728 -2.508892 -12.947675 37.334742 0.071708 1.924953 0.146271 -0.028905 12775.200000 0 0 1
-34.260692 -3.734992 -12.811675 36.767977 0.108588 1.926710 0.153715 -0.031391 -20599.800000 0 0 1
-35.103315 -4.826492 -13.458075 37.903265 0.136637 1.933779 0.139335 -0.035196 -9182.710000 0 0 1
-34.825918 -6.105192 -12.921075 37.644018 0.173543 1.921165 0.145669 -0.040368 185593.000000 0 0 1
-35.390401 -7.119792 -13.734475 38.623926 0.198529 1.934347 0.143294 -0.037803 -259311.000000 0 0 1
-34.991026 -8.479792 -13.044175 38.293984 0.237758 1.918386 0.155268 -0.042231 856510.000000 0 0 1
-33.621415 -8.892492 -13.110775 37.166764 0.258568 1.931310 0.150116 -0.041681 847302.000000 0 0 1
-33.002765 -9.126592 -14.365775 37.132905 0.269798 1.968036 0.132329 -0.039858 -20643.400000 0 0 1
-31.680565 -9.932492 -14.318175 36.156918 0.303814 1.977954 0.124038 -0.039946 125926.000000 0 0 1
-31.967935 -11.149992 -13.702275 36.524286 0.335594 1.955360 0.117315 -0.032649 -1163020.000000 0 0 1
-30.846185 -11.882392 -13.578875 35.736035 0.367695 1.960568 0.144918 -0.029744 -1416260.000000 0 0 1
-31.033965 -13.419792 -13.855175 36.539891 0.408141 1.959706 0.147572 -0.022799 -154590.000000 0 0 1
-30.816795 -13.742692 -15.268475 37.035965 0.419479 1.995730 0.128609 -0.022171 6038.230000 0 0 1
-31.020675 -15.117592 -15.639675 37.886980 0.453468 1.996320 0.122902 -0.015549 -556973.000000 0 0 1
-30.081195 -16.170192 -15.040975 37.317346 0.493236 1.985650 0.122294 -0.004957 -803702.000000 0 0 1
-28.827895 -15.926992 -15.586875 36.437168 0.504749 2.012825 0.128654 -0.010889 -1023410.000000 0 0 1
-27.975675 -17.039292 -15.663175 36.308551 0.547066 2.016830 0.125805 -0.009213 -325809.000000 0 0 1
-26.560905 -16.675592 -16.098775 35.252341 0.560628 2.045048 0.135774 -0.025695 -424342.000000 0 0 1
-26.422635 -16.334392 -17.474475 35.641622 0.553692 2.083211 0.136085 -0.023379 -505040.000000 0 0 1
-25.089245 -16.096792 -17.811775 34.725152 0.570434 2.109398 0.100016 -0.015545 -678680.000000 0 0 1
-24.947235 -15.797092 -19.290375 35.270826 0.564489 2.149479 0.115123 -0.010909 -103849.000000 0 0 1
-25.314605 -16.738692 -20.264075 36.491721 0.584227 2.159527 0.119646 -0.032373 712370.000000 0 0 1
-26.661375 -16.497792 -20.694075 37.566617 0.554121 2.154195 0.123759 -0.030234 692693.000000 0 0 1
-27.328785 -17.671892 -21.504275 39.007590 0.574010 2.154699 0.130544 -0.026932 130016.000000 0 0 1
-26.756995 -17.676392 -22.800775 39.348023 0.583810 2.188868 0.125561 -0.024568 271228.000000 0 0 1
-27.356395 -18.583392 -23.708375 40.691545 0.596703 2.192765 0.115287 -0.030102 -232503.000000 0 0 1
-26.539245 -18.651492 -25.031895 40.973228 0.612595 2.228035 0.116909 -0.037850 579419.000000 0 0 1
-25.200625 -19.111692 -25.052855 40.348157 0.648844 2.240708 0.118149 -0.044077 131080.000000 0 0 1
-24.957835 -20.496992 -24.680075 40.646356 0.687573 2.223316 0.107319 -0.040708 -749474.000000 0 0 1
-23.486335 -20.874592 -24.547575 39.874051 0.726591 2.233979 0.100520 -0.029388 -373591.000000 0 0 1
-22.788935 -20.930992 -25.769545 40.267995 0.742927 2.265231 0.100151 -0.036670 -226346.000000 0 0 1
-21.424635 -21.223792 -25.591805 39.552557 0.780689 2.274483 0.075312 -0.024166 -55054.200000 0 0 1
-20.646735 -21.213892 -26.919495 40.012199 0.798946 2.308759 0.068318 -0.023580 -245032.000000 0 0 1
-21.056235 -22.238192 -27.859975 41.401454 0.812692 2.308949 0.089000 -0.020037 -190496.000000 0 0 1
-21.343935 -21.767992 -29.141735 42.174041 0.795234 2.333651 0.112635 -0.028058 -209541.000000 0 0 1
-20.270735 -21.907792 -30.227025 42.479725 0.824191 2.362517 0.097508 -0.027342 -126510.000000 0 0 1
-20.179735 -23.245192 -30.606115 43.408466 0.855873 2.353322 0.100061 -0.035649 166864.000000 0 0 1
-19.523035 -23.361792 -31.877485 44.080565 0.874673 2.379169 0.094504 -0.030674 183348.000000 0 0 1
-19.222035 -24.860692 -32.271505 45.044318 0.912618 2.369481 0.105370 -0.028331 487284.000000 0 0 1
-18.445335 -25.040622 -33.497505 45.709364 0.935916 2.393278 0.106829 -0.035023 352300.000000 0 0 1
-19.205535 -24.832192 33.252955 45.730179 0.912479 0.756627 0.140252 -0.032699 -122446.000000 0 0 1
-18.454535 -24.852892 31.886063 44.440489 0.932080 0.770589 0.147524 -0.035499 156934.000000 0 0 1
-17.778735 -23.588992 31.704823 43.332663 0.924939 0.750041 0.091745 -0.023564 386130.000000 0 0 1
-16.929935 -23.548792 30.558353 42.130526 0.947478 0.759289 0.103213 -0.023746 377483.000000 0 0 1
-16.145935 -22.235092 30.290953 40.897828 0.942737 0.736760 0.064497 -0.019087 21390.700000 0 0 1
-17.010235 -21.217592 29.890313 40.409962 0.895017 0.738206 0.076987 -0.019220 -40555.300000 0 0 1
-16.355935 -19.993992 29.613273 39.296593 0.885150 0.717299 0.069599 -0.018569 165389.000000 0 0 1
-15.677035 -19.220792 30.794033 39.540874 0.886598 0.678062 0.065654 -0.025242 142296.000000 0 0 1
-15.214635 -17.917092 30.475973 38.487559 0.866785 0.656981 0.062261 -0.023684 43675.100000 0 0 1
-14.845535 -17.177792 31.692093 38.985320 0.858100 0.621641 0.053946 -0.027591 87735.000000 0 0 1
-14.216435 -15.785092 31.495623 37.990135 0.837637 0.593394 0.059807 -0.030175 -186597.000000 0 0 1
-12.981535 -15.837592 30.823823 37.006183 0.884178 0.586402 0.062592 -0.029423 -234451.000000 0 0 1
-12.542435 -14.502192 30.676563 36.175651 0.857736 0.558616 0.074937 -0.034180 -542566.000000 0 0 1
-11.177435 -14.525292 29.981713 35.140037 0.914922 0.548694 0.097857 -0.029032 -330524.000000 0 0 1
-10.750835 -13.232192 29.709893 34.254183 0.888494 0.520971 0.099362 -0.027171 259054.000000 0 0 1
-9.523435 -12.930792 30.381963 34.365169 0.935996 0.486249 0.082976 -0.023412 386759.000000 0 0 1
-9.093935 -11.448392 30.211133 33.563043 0.899515 0.450726 0.076281 -0.019521 91101.300000 0 0 1
-9.872835 -10.537692 30.994053 34.192793 0.817961 0.435996 0.073187 -0.020322 252518.000000 0 0 1
-9.557435 -9.164992 30.902583 33.620102 0.764440 0.404829 0.063582 -0.015032 -315757.000000 0 0 1
-10.290535 -8.290692 31.919259 34.546631 0.678184 0.392523 0.053717 -0.014995 529567.000000 0 0 1
-11.647135 -7.984892 31.571313 34.585575 0.600974 0.420595 0.072044 -0.020784 750052.000000 0 0 1
-12.501535 -7.509892 32.602313 35.715510 0.540947 0.420626 0.055026 -0.020859 133177.000000 0 0 1
-12.279135 -6.159092 33.254132 35.979839 0.464919 0.391747 0.040258 -0.028754 -440042.000000 0 0 1
-12.300035 -5.103692 32.283842 34.922556 0.393313 0.391229 0.045925 -0.030672 292786.000000 0 0 1
-12.203835 -3.911392 32.977554 35.380102 0.310161 0.370647 0.047914 -0.036446 -561713.000000 0 0 1
-11.874135 -2.780392 32.007332 34.251933 0.230011 0.364035 0.045961 -0.028429 -1341000.000000 0 0 1
-10.508735 -2.721292 31.887653 33.684734 0.253389 0.328120 0.053490 -0.031547 -1166980.000000 0 0 1
-10.091835 -1.737992 30.950463 32.600565 0.170545 0.319527 0.049004 -0.025569 -1181060.000000 0 0 1
-8.622635 -1.429792 31.025393 32.233044 0.164323 0.274600 0.049554 -0.027119 -1013940.000000 0 0 1
-8.242635 -1.008892 32.329462 33.378930 0.121793 0.251425 0.056970 -0.040791 -90020.200000 0 0 1
-6.908235 -0.552592 32.349463 33.083482 0.079820 0.211042 0.061065 -0.039011 -149795.000000 0 0 1
-6.545935 0.279008 33.592649 34.225621 -0.042597 0.192621 0.094525 -0.049372 -575449.000000 0 0 1
-7.074735 1.575708 33.746738 34.516330 -0.219146 0.211565 0.105834 -0.037486 -120449.000000 0 0 1
-6.585835 2.539108 32.882698 33.631713 -0.367980 0.211444 0.112159 -0.036326 96268.800000 0 0 1
-7.449335 3.865008 32.992316 34.042970 -0.478605 0.249089 0.110303 -0.028637 1792390.000000 0 0 1
-8.736435 3.723608 32.328278 33.694333 -0.402900 0.285726 0.080163 -0.023944 1246860.000000 0 0 1
-9.676735 4.698208 32.718282 34.441230 -0.451993 0.317643 0.058079 -0.006480 175438.000000 0 0 1
-11.097835 4.620608 32.148451 34.322512 -0.394523 0.357833 0.039934 -0.002110 -33281.700000 0 0 1
-11.966135 5.695408 32.321601 34.932963 -0.444232 0.389112 0.042159 -0.000910 763339.000000 0 0 1
-13.195135 5.604208 31.560953 34.664282 -0.401632 0.426366 0.008441 0.005681 786589.000000 0 0 1
-13.898335 6.997108 31.659393 35.276626 -0.466403 0.456817 0.025155 -0.003630 -110109.000000 0 0 1
-14.638435 7.171208 32.863747 36.684273 -0.455526 0.460447 0.026563 -0.006666 254078.000000 0 0 1
-15.082835 8.518308 32.924920 37.203546 -0.514111 0.484315 0.015267 0.008037 -47640.600000 0 0 1
-15.958835 9.034408 -33.843675 38.492847 -0.515125 2.645018 0.009646 0.007670 -128376.000000 0 0 1
-15.296535 9.298208 -32.614315 37.203954 -0.546182 2.639621 0.012866 -0.000694 -60511.200000 0 0 1
-16.115735 9.804508 -31.579935 36.785018 -0.546559 2.603134 0.031107 -0.006363 -616094.000000 0 0 1
-15.428235 9.693608 -30.137915 35.217756 -0.560971 2.597813 0.046904 -0.014613 933000.000000 0 0 1
-14.484535 10.730608 -29.774705 34.806332 -0.637608 2.597195 0.055660 -0.015938 1490170.000000 0 0 1
-13.169235 10.589008 -30.365775 34.751059 -0.677219 2.633777 0.062172 -0.024996 833478.000000 0 0 1
-12.417635 11.902608 -30.682055 35.174681 -0.764224 2.630635 0.066373 -0.023147 -60641.000000 0 0 1
-12.977035 12.767208 -31.683895 36.541404 -0.777248 2.620084 0.069124 -0.023326 96007.700000 0 0 1
-12.200035 13.912408 -31.978485 36.946169 -0.850881 2.617029 0.071947 -0.025632 60932.300000 0 0 1
-12.305535 15.066608 -30.924395 36.534190 -0.885930 2.580080 0.071744 -0.030979 533782.000000 0 0 1
-13.554435 15.712908 -31.179295 37.453526 -0.859015 2.554364 0.064626 -0.027091 560254.000000 0 0 1
-13.788235 16.785108 -30.272015 37.259229 -0.883108 2.519173 0.048033 -0.021905 878840.000000 0 0 1
-15.249135 17.381208 -30.331285 38.139603 -0.850646 2.490249 0.039100 -0.031295 494497.000000 0 0 1
-15.381135 18.150608 -31.538415 39.505639 -0.867804 2.495308 0.037408 -0.033175 255173.000000 0 0 1
-16.709035 18.630508 -31.682845 40.374377 -0.839716 2.473051 0.025515 -0.030701 376088.000000 0 0 1
-17.191535 19.802508 -30.787645 40.442147 -0.855860 2.436075 0.000560 -0.025835 -428353.000000 0 0 1
-16.564835 21.033108 -31.162425 41.083842 -0.903687 2.431817 0.001567 -0.024902 273601.000000 0 0 1
-17.143135 22.260308 -30.665895 41.590930 -0.914542 2.399893 -0.012002 -0.006057 603067.000000 0 0 1
-18.580835 22.684008 -31.115595 42.755022 -0.884507 2.385853 0.005431 -0.007638 1088840.000000 0 0 1
-19.661535 22.052208 -30.396785 42.389154 -0.842647 2.370413 0.006123 -0.014294 137202.000000 0 0 1
-20.771035 21.913808 -31.217165 43.429969 -0.812164 2.372861 0.037594 -0.025706 -739945.000000 0 0 1
-21.970335 21.191308 -30.520095 43.165302 -0.767351 2.356116 0.068032 -0.032141 47966.400000 0 0 1
-22.919435 21.956908 -29.818785 43.549583 -0.763953 2.325000 0.107222 -0.032732 562889.000000 0 0 1
-23.721535 22.939908 -30.513105 44.944412 -0.768649 2.317070 0.117433 -0.031864 60353.100000 0 0 1
-24.960735 22.370708 -31.259815 45.832989 -0.730732 2.321341 0.134284 -0.045119 -268130.000000 0 0 1
-24.634335 21.398508 -32.246295 45.875594 -0.715220 2.350273 0.134908 -0.039997 -406383.000000 0 0 1
-25.731955 21.110608 -33.048225 46.903906 -0.687059 2.352648 0.165277 -0.045686 -445833.000000 0 0 1
-25.418045 20.341308 33.579670 46.770076 -0.674906 0.769910 0.152029 -0.036238 -159579.000000 0 0 1
-24.971835 19.031008 33.793279 46.127622 -0.651200 0.748657 0.150196 -0.039078 253129.000000 0 0 1
-25.029635 18.333908 32.545163 44.964457 -0.632199 0.761506 0.126991 -0.033254 -437424.000000 0 0 1
-24.653535 16.864908 32.780086 44.348122 -0.599959 0.738983 0.089912 -0.014240 -144139.000000 0 0 1
-25.590285 16.007708 33.415062 45.029720 -0.558986 0.734648 0.098237 -0.019712 436090.000000 0 0 1
-26.316375 15.315508 32.416108 44.473817 -0.527061 0.754111 0.094529 -0.016202 40030.800000 0 0 1
-27.222515 14.054208 32.747119 44.843727 -0.476580 0.752109 0.079849 -0.015179 386988.000000 0 0 1
-28.316545 14.418308 33.567760 46.222384 -0.470967 0.757985 0.088907 -0.021497 316455.000000 0 0 1
-29.411735 13.481808 33.515991 46.584664 -0.429802 0.767766 0.073813 -0.010393 574150.000000 0 0 1
-29.429805 12.046008 -33.807525 46.413020 -0.388509 2.386789 0.063638 -0.007731 -98757.900000 0 0 1
-28.401655 11.267608 33.509133 45.348373 -0.377679 0.739320 0.059756 -0.014936 84137.900000 0 0 1
-28.627015 9.873908 33.636711 45.259566 -0.332138 0.732962 0.068772 -0.010348 -663786.000000 0 0 1
-27.412915 8.954208 33.935403 44.533777 -0.315716 0.704377 0.066490 -0.017921 537575.000000 0 0 1
-26.480465 8.687208 32.865696 43.091026 -0.316998 0.703313 0.066205 -0.019319 812162.000000 0 0 1
-25.573005 9.742308 32.615234 42.575164 -0.363986 0.698104 0.058852 -0.019446 -949764.000000 0 0 1
-24.216635 9.388408 32.026836 41.234764 -0.369844 0.681395 0.069773 -0.014457 -527765.000000 0 0 1
-24.267635 9.345808 30.568403 40.133396 -0.367608 0.704910 0.075897 -0.011153 465293.000000 0 0 1
-22.997535 9.036708 30.015363 38.877637 -0.374408 0.688741 0.076826 -0.014497 322343.000000 0 0 1
-23.041435 9.082008 28.462933 37.729685 -0.375462 0.716071 0.087369 -0.012953 60304.500000 0 0 1
-23.267935 10.374508 27.861433 37.752968 -0.419415 0.740705 0.086968 -0.010884 152389.000000 0 0 1
-23.087535 10.411408 26.446883 36.617882 -0.423647 0.763761 0.074928 -0.019614 -860218.000000 0 0 1
-23.408135 11.776308 25.739403 36.730628 -0.466113 0.794332 0.073723 -0.015477 898425.000000 0 0 1
-24.787435 12.161008 25.673963 37.702246 -0.456109 0.821715 0.093684 -0.016165 369806.000000 0 0 1
-25.565645 11.449408 24.758343 37.385380 -0.421059 0.846983 0.101761 -0.013190 -710749.000000 0 0 1
-27.063705 11.642308 25.037783 38.663652 -0.406251 0.866393 0.097786 -0.018530 -378452.000000 0 0 1
-27.429195 12.972708 24.743143 39.151947 -0.441776 0.886694 0.099957 -0.021305 393471.000000 0 0 1
-28.617215 13.368208 25.447073 40.561157 -0.437015 0.892618 0.077879 -0.018631 605261.000000 0 0 1
-28.971195 14.803108 25.053133 41.062411 -0.472377 0.914580 0.083543 -0.016701 195876.000000 0 0 1
-28.038095 15.750008 25.545273 41.070165 -0.511809 0.899513 0.092497 -0.020760 221476.000000 0 0 1
-28.188515 16.925308 24.707993 41.128376 -0.540738 0.926354 0.086605 -0.015321 -248744.000000 0 0 1
-23.310835 -8.965292 31.571363 40.255713 0.367158 0.669277 0.074917 -0.023986 650424.000000 0 0 1
-22.123335 -8.872792 30.753793 38.909692 0.381420 0.659353 0.075039 -0.026575 892676.000000 0 0 1
-22.472535 -9.042492 29.362763 38.065119 0.382556 0.689786 0.070824 -0.027628 381771.000000 0 0 1
-21.255035 -8.744292 28.447133 36.571553 0.390294 0.679561 0.091110 -0.029351 -1211340.000000 0 0 1
-21.064435 -7.350892 28.330173 36.060292 0.335758 0.667077 0.085582 -0.027209 584754.000000 0 0 1
-19.777235 -6.912792 28.779183 35.597290 0.336259 0.629256 0.083066 -0.026967 672267.000000 0 0 1
-18.515435 -7.373292 27.974933 34.347978 0.378974 0.619005 0.089090 -0.024443 -709996.000000 0 0 1
-18.265135 -8.803992 28.024363 34.590321 0.449153 0.626338 0.089538 -0.019669 -81214.700000 0 0 1
-17.827135 -9.354192 29.275083 35.529398 0.483225 0.602418 0.090092 -0.024842 1052220.000000 0 0 1
-16.358735 -8.934892 29.826213 35.171628 0.499909 0.558560 0.079066 -0.023903 1291600.000000 0 0 1
-15.354335 -9.603292 29.143073 34.311769 0.558919 0.556023 0.066702 -0.019785 -1418710.000000 0 0 1
-14.108235 -9.282492 29.652263 34.124238 0.581943 0.517719 0.079009 -0.024673 -202303.000000 0 0 1
-12.901335 -10.025792 29.022223 33.305410 0.660629 0.512754 0.089577 -0.017006 266800.000000 0 0 1
-12.475135 -9.556692 27.699013 31.846423 0.653700 0.516064 0.104411 -0.018219 -18497.200000 0 0 1
-11.464235 -10.447392 27.291833 31.391413 0.739025 0.516801 0.094013 -0.015657 -171050.000000 0 0 1
-11.088835 -10.285292 25.790423 29.898083 0.747822 0.530387 0.086772 -0.015208 -331123.000000 0 0 1
-12.180035 -10.583892 24.990633 29.747331 0.715396 0.573335 0.077259 -0.011310 -501964.000000 0 0 1
-11.879335 -10.356992 23.607263 28.384656 0.717043 0.588650 0.069932 -0.015706 -422905.000000 0 0 1
-12.916735 -10.939892 22.690013 28.308301 0.702724 0.640943 0.076658 -0.018299 -1228070.000000 0 0 1
-12.955435 -12.337592 22.664113 28.874235 0.760976 0.668221 0.063605 -0.017640 313613.000000 0 0 1
-14.029535 -12.954192 21.947413 29.091714 0.745568 0.716024 0.060053 -0.013826 130514.000000 0 0 1
-15.357435 -12.836592 22.710713 30.272188 0.696225 0.722406 0.070366 -0.011238 -1078910.000000 0 0 1
-16.460235 -13.531392 22.198913 30.770596 0.688051 0.764927 0.060176 -0.009249 -197655.000000 0 0 1
-17.598035 -13.273792 22.979323 31.842325 0.646233 0.764599 0.064538 -0.001721 -501243.000000 0 0 1
-18.821635 -14.079292 22.572513 32.588322 0.642244 0.805631 0.093814 -0.014827 -571228.000000 0 0 1
-18.597035 -15.511092 22.772713 33.242143 0.695169 0.816116 0.083993 -0.009093 348019.000000 0 0 1
-19.836535 -16.186092 22.700013 34.216491 0.684405 0.845412 0.090615 -0.013318 179544.000000 0 0 1
-20.630335 -16.212092 24.038063 35.584703 0.666045 0.829131 0.086386 -0.012930 -470990.000000 0 0 1
-20.089735 -16.951092 25.068463 36.323061 0.700865 0.809096 0.088072 -0.011548 219476.000000 0 0 1
-20.944335 -16.849292 26.227203 37.555691 0.677466 0.797700 0.087171 -0.018511 313640.000000 0 0 1
-20.559835 -17.679692 27.466413 38.596400 0.710222 0.778979 0.090721 -0.016981 -169028.000000 0 0 1
-20.441135 -19.067792 27.183263 38.991671 0.750652 0.799374 0.100712 -0.017070 256887.000000 0 0 1
-20.190035 -19.750892 28.418323 40.066648 0.774404 0.782325 0.096358 -0.022156 -102739.000000 0 0 1
-20.190635 -21.267892 28.200093 40.684520 0.811376 0.804959 0.107018 -0.017597 278106.000000 0 0 1
-21.497535 -21.815392 28.106463 41.569563 0.792737 0.828298 0.108186 -0.015598 86615.800000 0 0 1
-21.499435 -23.169792 27.735073 42.051150 0.822775 0.850569 0.113449 -0.009188 -192278.000000 0 0 1
-22.847335 -23.772292 27.331193 42.826588 0.805236 0.878661 0.109938 -0.002058 -34175.700000 0 0 1
-23.812935 -23.889592 28.359943 44.068751 0.787005 0.871684 0.103746 -0.002117 -63954.700000 0 0 1
-25.037235 -24.366592 27.855913 44.682723 0.771824 0.897693 0.078032 -0.000474 225831.000000 0 0 1
-25.843365 -25.179572 28.910993 46.235655 0.772389 0.895285 0.051354 -0.007666 -97291.800000 0 0 1
-26.505435 -24.593792 29.992303 46.977983 0.748005 0.878335 0.044497 0.002630 -426063.000000 0 0 1
-27.235945 -25.562522 30.624963 48.302459 0.753714 0.884049 0.040164 0.015966 87332.100000 0 0 1
-28.492095 -24.866392 31.308553 49.095441 0.717553 0.879277 0.037781 0.000935 -28264.000000 0 0 1
-29.490425 -24.775392 30.344163 49.033390 0.698728 0.903522 0.047646 -0.003629 -608663.000000 0 0 1
-30.345625 -23.708292 30.733143 49.269322 0.663219 0.897229 0.057331 -0.019331 -22293.700000 0 0 1
-31.550945 -23.581192 29.755373 49.365139 0.641835 0.923840 0.049942 -0.027179 239346.000000 0 0 1
-32.472535 -24.681392 29.879833 50.561260 0.649915 0.938544 0.042542 -0.020629 1071560.000000 0 0 1
-33.651665 -24.476692 29.046363 50.746765 0.628850 0.961393 0.039195 -0.025084 132933.000000 0 0 1
-34.849266 -25.081502 29.735673 52.227993 0.623835 0.965089 0.036855 -0.026901 -996288.000000 0 0 1
-34.885533 -26.495002 29.848933 53.008907 0.649543 0.972673 0.042103 -0.024965 12039.700000 0 0 1
-35.857066 -26.927572 30.791053 54.395884 0.644121 0.969084 0.043923 -0.026391 238178.000000 0 0 1
-35.677486 -28.418172 31.238853 55.284187 0.672621 0.970291 0.046021 -0.029529 -373274.000000 0 0 1
-34.645638 -28.559582 32.174476 55.237368 0.689404 0.949024 0.042666 -0.009884 -322922.000000 0 0 1
-34.196264 -29.918912 32.168727 55.671830 0.718783 0.954732 0.038596 -0.011383 -145.935000 0 0 1
-33.230795 -30.164782 33.346084 55.912083 0.737073 0.931785 0.037235 -0.009278 -147479.000000 0 0 1
-33.828785 -30.066932 -33.323765 56.203917 0.726591 2.205462 0.045629 -0.002853 374980.000000 0 0 1
-32.864745 -30.270302 -32.286325 55.125215 0.744328 2.196528 0.037730 -0.003361 384447.000000 0 0 1
-33.472715 -29.829252 -30.908695 54.456903 0.727905 2.174361 0.052329 -0.015766 118277.000000 0 0 1
-33.448025 -28.433352 -30.659405 53.546474 0.704538 2.180440 0.050963 -0.022398 328055.000000 0 0 1
-32.157375 -27.830692 -30.579575 52.380860 0.713397 2.194189 0.061466 -0.020781 250823.000000 0 0 1
-32.236065 -26.288232 -30.527635 51.596235 0.684116 2.203918 0.062467 -0.014722 -79975.200000 0 0 1
-32.742895 -25.834042 -29.312485 50.977609 0.667996 2.183409 0.054759 -0.030408 -152544.000000 0 0 1
-32.886295 -24.450892 -29.374885 50.420614 0.639327 2.192716 0.070063 -0.028500 531023.000000 0 0 1
-31.700745 -23.739892 -28.625885 48.866767 0.642781 2.196656 0.078611 -0.033999 345498.000000 0 0 1
-31.609165 -22.329092 -28.647595 48.149894 0.615016 2.208021 0.083543 -0.029608 8340.780000 0 0 1
-30.494165 -21.868492 -27.918105 46.771204 0.622135 2.210438 0.102088 -0.034509 -163240.000000 0 0 1
-30.161705 -20.392192 -28.120945 46.003885 0.594502 2.228465 0.114490 -0.042474 -9039.900000 0 0 1
-29.502835 -20.230992 -29.377965 46.290119 0.601085 2.258350 0.125458 -0.036124 386497.000000 0 0 1
-29.278295 -18.854492 -29.570365 45.684974 0.572128 2.274790 0.112558 -0.043053 -155408.000000 0 0 1
-28.759345 -18.536992 -31.000135 46.170643 0.572538 2.306927 0.114385 -0.032295 386126.000000 0 0 1
-29.734435 -18.442792 -32.038545 47.441980 0.555177 2.312196 0.108332 -0.037876 562595.000000 0 0 1
-30.532095 -17.270792 -31.984045 47.470708 0.514787 2.310087 0.099251 -0.028095 -68559.800000 0 0 1
-31.342905 -16.696892 -33.167605 48.592735 0.489477 2.322060 0.083629 -0.031475 189087.000000 0 0 1
-32.408255 -17.493192 -33.630935 49.873304 0.494960 2.310850 0.086779 -0.030000 140903.000000 0 0 1
-33.666905 -16.918792 -33.379145 50.337593 0.465673 2.295757 0.076906 -0.025128 93434.600000 0 0 1
-34.807435 -17.366592 33.605012 51.404794 0.462794 0.858289 0.086143 -0.027977 100063.000000 0 0 1
-35.037790 -18.821092 33.598027 52.064456 0.492936 0.869359 0.070715 -0.028733 648516.000000 0 0 1
-36.078267 -19.229292 32.692892 52.347227 0.489689 0.896255 0.075731 -0.031582 425200.000000 0 0 1
-36.558425 -20.686492 32.996660 53.415624 0.514929 0.904938 0.051758 -0.032457 545681.000000 0 0 1
-35.499649 -21.605392 32.701611 52.881125 0.546725 0.904093 0.067542 -0.033806 501906.000000 0 0 1
-35.789475 -22.844792 33.307639 53.964523 0.568114 0.905600 0.052269 -0.025651 174661.000000 0 0 1
-34.600263 -23.884492 33.268338 53.613705 0.604185 0.901392 0.065917 -0.025619 1626070.000000 0 0 1
-33.503215 -23.762492 -33.727065 53.147307 0.616914 2.258282 0.062809 -0.032696 1004200.000000 0 0 1
-32.760705 -22.555792 -33.638435 52.091955 0.602967 2.272803 0.086887 -0.034461 -670547.000000 0 0 1
-31.572995 -22.530592 -32.670485 50.713333 0.619797 2.270798 0.086889 -0.030525 -302005.000000 0 0 1
-30.499025 -23.361892 -33.150455 50.743681 0.653655 2.282721 0.083883 -0.026658 1005640.000000 0 0 1
-29.210375 -23.082292 -32.614755 49.495054 0.668742 2.290218 0.086177 -0.025665 532374.000000 0 0 1
-29.063275 -23.491792 -31.136375 48.641670 0.679780 2.265447 0.097042 -0.017497 -923574.000000 0 0 1
-28.928355 -24.911092 -31.108135 49.245591 0.710921 2.254533 0.074648 -0.021842 653144.000000 0 0 1
-27.935725 -25.316382 -30.130805 48.261675 0.736250 2.245059 0.070548 -0.024288 727306.000000 0 0 1
-27.724295 -26.819662 -29.961895 48.843074 0.768814 2.231195 0.058199 -0.018794 8942.450000 0 0 1
-28.673835 -27.341762 -29.042735 49.124751 0.761622 2.203347 0.043408 -0.017112 225884.000000 0 0 1
-28.458245 -28.690212 -28.621565 49.519631 0.789457 2.187053 0.037963 -0.011628 -272142.000000 0 0 1
-29.215015 -29.892242 -29.257165 51.020044 0.796855 2.181501 0.031735 -0.005501 -264076.000000 0 0 1
-28.883285 -30.140452 -30.608245 51.764424 0.806694 2.203465 0.038350 -0.009235 348351.000000 0 0 1
-29.387615 -31.414812 -30.998125 53.022693 0.818727 2.195208 0.038659 -0.003756 -216060.000000 0 0 1
-29.050645 -31.867392 -32.459045 53.972773 0.831604 2.216044 0.029550 -0.005288 -363350.000000 0 0 1
-27.743855 -32.330232 -32.646205 53.672526 0.861596 2.224648 0.026760 0.005752 -617423.000000 0 0 1
-27.501815 -32.799582 -33.954725 54.635938 0.873028 2.241417 0.023402 0.006534 -1259260.000000 0 0 1
-26.095615 -33.219962 33.690863 54.033519 0.904935 0.897562 0.034471 0.002590 -1117200.000000 0 0 1
-25.980195 -33.778542 32.395652 53.529792 0.915162 0.920793 0.029994 0.012655 -94183.300000 0 0 1
-24.826235 33.523943 32.460441 52.857137 -0.933369 0.909530 0.031723 0.015174 -228880.000000 0 0 1
-24.676335 32.638195 31.193713 51.451151 -0.923430 0.919424 0.056313 0.004476 -129020.000000 0 0 1
-25.664055 31.610231 31.172993 51.279683 -0.888847 0.917381 0.043522 -0.015282 260689.000000 0 0 1
-25.490945 30.793511 30.047393 50.008743 -0.879331 0.926241 0.058556 -0.011686 497032.000000 0 0 1
-26.832205 30.154311 29.517133 50.005108 -0.843629 0.939388 0.054428 -0.013350 590055.000000 0 0 1
-27.465975 29.253481 30.401593 50.342852 -0.816903 0.922423 0.066936 -0.018452 832260.000000 0 0 1
-28.650045 28.639401 29.841793 50.314739 -0.785212 0.935890 0.074221 -0.026061 639940.000000 0 0 1
-29.319935 27.694931 30.830043 50.765730 -0.756904 0.918138 0.093572 -0.044255 -411461.000000 0 0 1
-28.597505 26.513561 31.135793 49.902142 -0.747603 0.897026 0.102817 -0.040473 56803.400000 0 0 1
-29.419795 25.437551 31.544523 50.076444 -0.712933 0.889337 0.120767 -0.033389 465049.000000 0 0 1
-30.245365 24.776561 30.369763 49.507399 -0.686330 0.910389 0.111909 -0.038594 50020.700000 0 0 1
-29.456175 24.116141 29.458243 48.135668 -0.686047 0.912230 0.101530 -0.030907 -403847.000000 0 0 1
-30.194485 23.284371 28.582293 47.653083 -0.656898 0.927546 0.096878 -0.019699 89107.300000 0 0 1
-29.334395 23.045011 27.349723 46.255665 -0.665897 0.938160 0.106093 -0.028429 148980.000000 0 0 1
-28.159115 22.270011 27.552213 45.254984 -0.669145 0.916222 0.109185 -0.030339 36031.800000 0 0 1
-27.569555 22.188911 26.233363 44.052440 -0.677681 0.932905 0.103771 -0.027804 -261662.000000 0 0 1
-26.206555 21.486011 26.264053 42.874615 -0.686741 0.911478 0.088086 -0.023478 -181300.000000 0 0 1
-26.328845 20.201411 26.921973 42.732864 -0.654464 0.889235 0.103496 -0.031833 1178130.000000 0 0 1
-24.977335 19.782911 27.187373 41.885368 -0.669865 0.864409 0.094445 -0.029785 939428.000000 0 0 1
-25.041535 18.574111 28.163003 42.014649 -0.638189 0.836165 0.107289 -0.029120 -97337.700000 0 0 1
-23.751635 18.064511 28.416863 41.206611 -0.650224 0.809834 0.085658 -0.020801 2290.060000 0 0 1
-23.750535 16.682111 28.720193 40.831730 -0.612327 0.790656 0.082025 -0.014343 -26731.000000 0 0 1
-22.473535 15.785111 28.869213 39.845463 -0.612326 0.760445 0.079772 -0.020829 485534.000000 0 0 1
-21.586635 16.311911 29.876213 40.306939 -0.647106 0.735914 0.096441 -0.012944 726279.000000 0 0 1
-20.404035 15.506111 29.896363 39.377108 -0.649841 0.708664 0.076427 -0.019593 661048.000000 0 0 1
-19.215835 16.004311 30.760323 39.643205 -0.694465 0.682609 0.059703 -0.026685 45232.300000 0 0 1
-19.355735 15.707111 32.122745 40.659913 -0.681712 0.659931 0.050710 -0.015032 -173154.000000 0 0 1
-18.314335 16.168911 32.928249 41.001440 -0.723262 0.638317 0.039756 -0.015564 -1163110.000000 0 0 1
-18.496335 15.847311 -33.509395 41.426214 -0.708418 2.513064 0.030794 -0.025683 89625.800000 0 0 1
-19.510535 16.540411 -32.840765 41.626458 -0.703197 2.479878 0.048120 -0.027772 132489.000000 0 0 1
-20.875035 16.302011 -33.113915 42.403467 -0.663006 2.466941 0.062957 -0.021809 95493.700000 0 0 1
-21.810235 17.103111 -32.121085 42.426016 -0.665019 2.429671 0.068609 -0.030428 329271.000000 0 0 1
-21.971435 16.588711 -30.793735 41.305973 -0.646701 2.412086 0.071508 -0.038215 186918.000000 0 0 1
-22.943935 17.357811 -30.120095 41.652585 -0.647668 2.379115 0.077308 -0.043353 -683977.000000 0 0 1
-23.106535 17.153611 -28.578595 40.557298 -0.638600 2.352722 0.072269 -0.033895 371587.000000 0 0 1
-23.962735 16.037011 -28.232605 40.354409 -0.589788 2.345657 0.070834 -0.036439 532654.000000 0 0 1
-25.336965 16.215711 -28.538225 41.464941 -0.569315 2.329870 0.103721 -0.037365 -251006.000000 0 0 1
-26.298635 15.242111 -27.855735 41.229626 -0.525268 2.312607 0.098149 -0.030148 -114111.000000 0 0 1
-25.999345 13.960911 -28.265465 40.863302 -0.492786 2.334647 0.063006 -0.016216 -5681.490000 0 0 1
-26.701855 13.046711 -27.446875 40.454130 -0.454492 2.316473 0.038619 -0.016071 -8646.150000 0 0 1
-26.233405 11.609911 -27.557365 39.779265 -0.416651 2.336101 0.052173 -0.010834 8143.710000 0 0 1
-25.127215 11.241711 -26.758285 38.389566 -0.420683 2.342029 0.052815 -0.017778 -286.912000 0 0 1
-24.616435 10.017211 -27.305945 38.104173 -0.386468 2.369730 0.046268 -0.004886 324898.000000 0 0 1
-23.501035 9.366411 -26.416295 36.576617 -0.379258 2.377800 0.074821 -0.013136 327560.000000 0 0 1
-23.990235 8.473211 -25.404845 35.954593 -0.339518 2.355452 0.059876 -0.010280 -121864.000000 0 0 1
-23.001235 7.837111 -24.621775 34.593480 -0.328389 2.362777 0.100038 -0.012651 -112062.000000 0 0 1
-23.528035 6.821911 -23.601375 34.016640 -0.282210 2.337574 0.099382 -0.010688 -91019.000000 0 0 1
-23.859435 5.544811 -24.211875 34.441725 -0.228342 2.350376 0.093059 -0.019617 385488.000000 0 0 1
-24.220135 4.544911 -23.216475 33.856695 -0.185493 2.326399 0.097622 -0.018873 -322064.000000 0 0 1
35.543672 24.618708 -10.309575 44.449080 0.605764 1.804869 0.065770 -0.016381 147742.000000 0 0 1
36.639262 24.273008 -9.492775 44.963621 0.585103 1.783518 0.067347 -0.016438 6391.200000 0 0 1
-36.754835 23.218108 -10.011375 44.611949 -0.563404 1.797134 0.074383 -0.015709 727456.000000 0 0 1
-35.646221 22.753908 -9.001475 43.236789 -0.568125 1.780521 0.065283 -0.018343 1063730.000000 0 0 1
-36.277985 21.915108 -8.014875 43.134700 -0.543420 1.757693 0.070379 -0.020553 742170.000000 0 0 1
-35.215422 21.397308 -7.238675 41.837413 -0.545998 1.744691 0.075788 -0.016287 34884.700000 0 0 1
-35.661221 20.465608 -6.024875 41.555540 -0.520999 1.716293 0.078024 0.000964 -12759.900000 0 0 1
-36.382015 19.313908 -6.350275 41.677380 -0.488033 1.723760 0.063690 -0.003837 243206.000000 0 0 1
-36.656365 18.469008 -5.283575 41.384894 -0.466716 1.698815 0.077405 -0.009431 -139003.000000 0 0 1
36.935202 17.094608 -5.776175 41.107165 0.433470 1.711778 0.074356 0.000318 479420.000000 0 0 1
35.692172 17.366808 -6.429375 40.210372 0.452848 1.731379 0.064053 -0.009031 346663.000000 0 0 1
35.306432 16.286408 -7.222475 39.546876 0.432201 1.754458 0.061128 -0.007097 -109404.000000 0 0 1
34.089962 16.586208 -8.113375 38.769249 0.452824 1.781628 0.053890 -0.019163 -115707.000000 0 0 1
33.736922 15.460808 -8.965475 38.178479 0.429715 1.807841 0.074975 -0.028107 187695.000000 0 0 1
33.020002 15.953008 -10.091875 38.035049 0.450062 1.839343 0.083037 -0.012568 -319336.000000 0 0 1
32.311002 14.796408 -10.919075 37.177422 0.429435 1.868893 0.076390 -0.012508 801438.000000 0 0 1
31.054862 14.267608 -10.470375 35.743501 0.430670 1.868087 0.069587 -0.005412 841341.000000 0 0 1
31.005942 13.722508 -9.172575 35.125657 0.416664 1.834995 0.068330 -0.013164 -546899.000000 0 0 1
29.792382 12.753108 -9.076675 33.654328 0.404465 1.843881 0.083333 -0.001194 26116.000000 0 0 1
29.960252 11.544508 -9.823975 33.576820 0.367794 1.867722 0.078472 -0.003330 -311302.000000 0 0 1
29.004492 10.557808 -9.654575 32.340975 0.349097 1.873943 0.100771 -0.004508 -862257.000000 0 0 1
29.488362 9.172308 -10.189175 32.519441 0.301562 1.889489 0.108161 -0.004804 -904851.000000 0 0 1
30.552582 8.668708 -9.485575 33.144877 0.276465 1.861040 0.108177 -0.012422 -417894.000000 0 0 1
30.534482 7.276908 -9.404975 32.768301 0.233954 1.861905 0.118855 -0.014833 -231543.000000 0 0 1
31.593472 6.740808 -8.406275 33.380405 0.210209 1.825370 0.136537 -0.021619 864950.000000 0 0 1
32.931382 6.959108 -8.896575 34.814568 0.208258 1.829204 0.118096 -0.014506 379622.000000 0 0 1
33.857382 6.728208 -7.882175 35.407906 0.196166 1.795288 0.119440 -0.008992 -190477.000000 0 0 1
35.305192 7.033408 -8.351575 36.955030 0.196643 1.798759 0.117421 -0.005382 102279.000000 0 0 1
35.743452 6.014308 -9.232975 37.403397 0.166702 1.820223 0.128057 -0.013052 1024660.000000 0 0 1
-37.016095 6.185508 -9.420175 38.693558 -0.165573 1.816724 0.119171 -0.012036 434183.000000 0 0 1
-36.428375 5.228008 -10.524875 38.277037 -0.142541 1.849350 0.128472 -0.026841 -180188.000000 0 0 1
-35.047194 5.341208 -10.756675 37.047812 -0.151237 1.865384 0.128674 -0.033136 59767.200000 0 0 1
-34.578915 6.368408 -11.601975 37.025178 -0.182129 1.889519 0.111170 -0.035145 -214166.000000 0 0 1
-33.952645 7.594408 -10.948275 36.473577 -0.220054 1.875667 0.121266 -0.024961 -296840.000000 0 0 1
-34.934965 8.239008 -10.141275 37.298505 -0.231606 1.846158 0.113797 -0.009737 365350.000000 0 0 1
-35.136710 9.636308 -10.461675 37.906378 -0.267671 1.850413 0.108905 -0.014092 895.914000 0 0 1
-35.956209 10.341308 -9.378375 38.571304 -0.280050 1.816402 0.088896 -0.006764 -236974.000000 0 0 1
-35.154706 11.151808 -8.575875 37.865047 -0.307180 1.799264 0.092807 -0.011332 -318102.000000 0 0 1
-35.894267 12.018908 -7.773075 38.642893 -0.323108 1.773330 0.086004 -0.010979 -131132.000000 0 0 1
-35.047654 12.934608 -6.824275 37.976478 -0.353551 1.751475 0.094707 -0.011286 245868.000000 0 0 1
-34.221044 13.817708 -7.562175 37.672210 -0.383759 1.772906 0.073687 -0.012493 -199196.000000 0 0 1
-33.534065 14.672508 -6.703175 37.212209 -0.412444 1.751919 0.092091 -0.013318 -204473.000000 0 0 1
-32.710895 15.716008 -7.479575 37.053199 -0.447887 1.774053 0.061591 -0.010080 185707.000000 0 0 1
-33.538175 16.666608 -8.155375 38.328777 -0.461200 1.785210 0.044610 -0.010891 94707.000000 0 0 1
-32.720505 17.556508 -8.808575 38.163509 -0.492466 1.803708 0.042058 -0.008874 -66443.000000 0 0 1
-33.558395 18.358108 -9.802075 39.487551 -0.500575 1.821651 0.021886 -0.015773 -19074.500000 0 0 1
-33.131335 18.185508 -11.141975 39.402305 -0.501992 1.857482 0.009494 -0.011778 -107512.000000 0 0 1
-34.106144 18.413608 -12.141275 40.616506 -0.495049 1.874362 0.003660 -0.012102 -157772.000000 0 0 1
-33.476575 18.361908 -13.572175 40.522150 -0.501691 1.912330 0.000854 -0.000872 8808.280000 0 0 1
-32.701605 19.514108 -13.825375 40.513409 -0.538013 1.919047 -0.002232 -0.001965 93906.000000 0 0 1
-32.565165 19.830308 -15.223775 41.054773 -0.546969 1.950684 -0.008103 -0.002389 -907720.000000 0 0 1
-31.830695 21.116908 -15.373675 41.176046 -0.585747 1.953429 0.020862 -0.013771 89002.900000 0 0 1
-30.445835 20.933208 -14.998275 39.876011 -0.602325 1.956405 0.025436 -0.013071 873077.000000 0 0 1
-29.926025 22.187508 -14.750675 40.067878 -0.637982 1.947806 0.024522 -0.016433 -285335.000000 0 0 1
-29.060565 22.803208 -15.887075 40.210718 -0.665329 1.976968 0.032707 -0.012248 -570346.000000 0 0 1
-29.815565 23.443508 -16.916175 41.529784 -0.666322 1.990321 0.042661 -0.005392 614064.000000 0 0 1
-29.076395 24.310808 -17.824875 41.882911 -0.696370 2.010408 0.040105 -0.001696 4461.170000 0 0 1
-28.428715 25.561708 -17.305575 41.965172 -0.732346 1.995861 0.054249 -0.003111 55431.700000 0 0 1
-29.361625 26.528908 -16.902975 43.030205 -0.734758 1.974489 0.060000 -0.008141 433013.000000 0 0 1
-28.667155 27.759608 -17.021775 43.383665 -0.769316 1.973986 0.061191 -0.009297 420449.000000 0 0 1
-29.582745 28.935508 -16.629675 44.597629 -0.774338 1.952910 0.061023 -0.016388 -185657.000000 0 0 1
-29.808805 29.120708 -15.253575 44.376255 -0.773722 1.921685 0.054954 -0.019856 286267.000000 0 0 1
-28.742635 29.807008 -14.635675 43.918103 -0.803575 1.910544 0.045001 -0.015781 -179634.000000 0 0 1
-29.049645 30.217108 -13.193075 43.943290 -0.805094 1.875730 0.050484 -0.019277 -301259.000000 0 0 1
-29.986605 31.272308 -13.187875 45.288782 -0.806383 1.866272 0.043130 -0.022490 -87465.300000 0 0 1
-30.055325 32.139908 -12.058475 45.625684 -0.818902 1.838265 0.035386 -0.024200 -41562.900000 0 0 1
-29.041835 33.313308 -12.023075 45.801299 -0.853794 1.836414 0.033485 -0.028095 87223.400000 0 0 1
-29.311025 -33.779295 -12.954575 46.561765 0.856103 1.852740 0.022488 -0.037381 63733.700000 0 0 1
-28.345235 -32.728195 -12.964675 45.195905 0.857041 1.861739 0.063872 -0.029389 182009.000000 0 0 1
-28.135575 -31.977695 -14.313575 44.933973 0.849226 1.894992 0.049328 -0.026705 -166434.000000 0 0 1
-27.643315 -32.737595 -15.351775 45.514612 0.869568 1.914837 0.038002 -0.022876 -434886.000000 0 0 1
-27.821165 -32.112295 -16.643175 45.631260 0.856874 1.944141 0.033074 -0.008680 -435006.000000 0 0 1
-26.939945 -32.528495 -17.806775 45.836064 0.879098 1.969787 0.040406 -0.012155 -734582.000000 0 0 1
-27.162995 -33.839395 -18.334575 47.107213 0.894409 1.970570 0.040781 -0.003897 -158456.000000 0 0 1
-26.837635 33.153108 -17.529575 46.115867 -0.890286 1.960723 0.023638 -0.016883 -619251.000000 0 0 1
-27.131125 31.803808 -18.214275 45.599780 -0.864518 1.981700 0.034109 -0.026385 18462.300000 0 0 1
-28.478525 31.534408 -18.526275 46.353728 -0.836275 1.981955 0.042963 -0.015792 -89514.200000 0 0 1
-28.994965 32.157908 -19.686775 47.564778 -0.837074 1.997524 0.046141 -0.010758 -891940.000000 0 0 1
-30.460515 31.853308 -19.943875 48.375969 -0.807746 1.995739 0.047770 -0.020164 -652957.000000 0 0 1
-30.728715 30.491508 -20.159875 47.753602 -0.781524 2.006628 0.052581 -0.017734 290523.000000 0 0 1
-32.068885 30.271108 -20.558475 48.655978 -0.756568 2.007028 0.055740 -0.020865 -55960.200000 0 0 1
-32.454625 28.838108 -20.948375 48.205534 -0.726462 2.020350 0.067396 -0.020537 -565124.000000 0 0 1
-33.807535 28.602808 -21.240575 49.114479 -0.702195 2.018028 0.061891 -0.021477 89550.100000 0 0 1
-33.986095 27.256508 -21.630975 48.640219 -0.675953 2.031651 0.071476 -0.015155 96293.700000 0 0 1
-35.467367 26.825108 -21.787375 49.519796 -0.647541 2.026365 0.092146 -0.020336 -77863.600000 0 0 1
-36.198725 27.381708 -22.805575 50.795668 -0.647602 2.036405 0.069692 -0.020402 -421515.000000 0 0 1
36.843472 26.594608 -23.084475 50.966730 0.625225 2.040848 0.091706 -0.019082 -99357.700000 0 0 1
35.870202 27.207808 -24.049175 51.042130 0.648924 2.061405 0.102382 -0.028601 -192826.000000 0 0 1
36.456952 27.169608 -25.364615 52.064005 0.640455 2.079656 0.103566 -0.025792 -371463.000000 0 0 1
35.637622 27.586108 -26.396445 52.228400 0.658730 2.100646 0.110836 -0.031881 -611000.000000 0 0 1
36.442812 27.948708 -27.637125 53.600555 0.654242 2.112519 0.104040 -0.024542 -247117.000000 0 0 1
37.019182 26.838208 -28.277305 53.761652 0.627296 2.124658 0.093716 -0.012584 -340055.000000 0 0 1
-36.424985 27.313108 -29.364455 54.176162 -0.643402 2.143633 0.056469 -0.005593 -540542.000000 0 0 1
-36.028892 26.291408 -30.505885 54.036360 -0.630402 2.170677 0.047886 -0.007530 1004430.000000 0 0 1
-35.021559 25.325808 -30.174395 52.710532 -0.626094 2.180293 0.063247 -0.016825 1364020.000000 0 0 1
-33.647085 25.777008 -30.016285 51.938019 -0.653725 2.186980 0.045452 -0.002342 1239180.000000 0 0 1
-32.946525 24.790508 -29.046655 50.435612 -0.645065 2.184520 0.018804 -0.001831 -226449.000000 0 0 1
-32.897505 23.570708 -29.724755 50.213396 -0.621707 2.204296 0.045809 -0.013373 -90477.300000 0 0 1
-33.088985 22.517008 -28.788815 49.302053 -0.597518 2.194354 0.050306 -0.006749 -70530.800000 0 0 1
-32.732365 21.192308 -29.386065 48.826862 -0.574575 2.216602 0.051853 -0.020622 446473.000000 0 0 1
-31.338085 20.868608 -29.329935 47.726506 -0.587484 2.232601 0.091718 -0.018864 531836.000000 0 0 1
-31.042135 19.647208 -29.949865 47.398537 -0.564275 2.254764 0.084470 -0.035282 -963581.000000 0 0 1
-29.676635 19.132308 -29.573895 46.058258 -0.572635 2.268028 0.114833 -0.035171 -904097.000000 0 0 1
-28.629315 19.697108 -30.361535 46.145818 -0.602630 2.288887 0.138181 -0.041337 491789.000000 0 0 1
-27.391095 19.020908 -30.376645 45.108841 -0.606971 2.309605 0.134050 -0.046626 225264.000000 0 0 1
-27.466775 17.715708 -31.278275 45.239369 -0.572843 2.334214 0.109997 -0.033846 -261995.000000 0 0 1
-28.036665 16.507008 -30.668675 44.711335 -0.532118 2.326672 0.083821 -0.031049 408940.000000 0 0 1
-27.825805 15.374608 -31.457805 44.724126 -0.504784 2.350930 0.056836 -0.019584 -143571.000000 0 0 1
-28.541435 14.190608 -30.823515 44.340454 -0.461400 2.339433 0.063716 -0.018868 792501.000000 0 0 1
-29.973905 14.304808 -30.735495 45.251885 -0.445276 2.317481 0.062953 -0.017957 899234.000000 0 0 1
-30.705445 13.139108 -30.385565 45.152442 -0.404331 2.308993 0.054601 -0.014700 87352.800000 0 0 1
-30.379595 12.232708 -29.070275 43.790864 -0.382799 2.296743 0.039050 -0.019084 -358948.000000 0 0 1
-30.910485 12.846408 -27.921555 43.590153 -0.393882 2.266007 0.033169 -0.019286 232207.000000 0 0 1
-31.141365 11.927908 -26.859895 42.819546 -0.365787 2.248854 0.032480 -0.005810 44844.100000 0 0 1
-30.876185 12.628108 -25.510795 41.995339 -0.388234 2.223665 0.020857 -0.017398 30311.500000 0 0 1
-29.512895 12.907708 -25.300145 40.959946 -0.412291 2.236586 0.019447 -0.018317 -213648.000000 0 0 1
-29.195655 13.571708 -24.099075 40.216202 -0.435137 2.213345 0.017758 -0.012879 -325376.000000 0 0 1
-27.713795 13.722408 -23.750475 38.992870 -0.459758 2.225719 0.039098 -0.010222 -590635.000000 0 0 1
-26.997175 14.725908 -24.476975 39.304225 -0.499352 2.243058 0.057787 -0.020324 1507000.000000 0 0 1
-25.602875 14.841808 -24.070575 38.146809 -0.525354 2.253636 0.068650 -0.020587 1483620.000000 0 0 1
-25.239405 15.338208 -22.676275 37.235757 -0.546068 2.225585 0.067438 -0.024188 -919112.000000 0 0 1
-25.697745 16.650908 -22.458875 37.974042 -0.574934 2.203624 0.080068 -0.024549 220085.000000 0 0 1
-25.834265 16.779408 -21.020175 37.293505 -0.576025 2.169584 0.069189 -0.010307 73453.200000 0 0 1
-27.300895 16.895908 -20.541375 38.115071 -0.554184 2.139963 0.069880 -0.013134 -362817.000000 0 0 1
-28.104185 15.789908 -20.811675 38.370460 -0.511884 2.144073 0.064740 -0.017551 -479875.000000 0 0 1
-29.319705 16.031308 -20.151075 39.021965 -0.500365 2.113442 0.048364 -0.010776 -1302960.000000 0 0 1
-30.387105 14.921508 -20.393175 39.520996 -0.456460 2.112981 0.011224 -0.008862 -7073.440000 0 0 1
-30.887305 14.859408 -21.701675 40.568341 -0.448401 2.135234 0.010662 -0.007830 157718.000000 0 0 1
-31.550775 16.053108 -22.112575 41.738706 -0.470665 2.129144 0.003799 -0.003707 -824905.000000 0 0 1
-32.204645 16.078008 -23.544875 43.011657 -0.463043 2.150059 0.010421 -0.008779 165321.000000 0 0 1
-33.484885 15.477008 -23.605175 43.794743 -0.432960 2.140041 0.023040 -0.006313 176884.000000 0 0 1
-33.969745 15.538008 -24.957675 44.925035 -0.428997 2.159809 0.044603 -0.020969 349372.000000 0 0 1
-35.256799 14.733408 -25.299165 45.827534 -0.395832 2.155619 0.049021 -0.016127 258131.000000 0 0 1
-35.103321 13.288308 -25.419615 45.331878 -0.361878 2.166081 0.048922 -0.015087 42099.700000 0 0 1
-34.941838 12.549708 -24.281275 44.362230 -0.344812 2.149980 0.034197 -0.006052 -216367.000000 0 0 1
-34.993354 11.013408 -24.566575 44.151405 -0.304914 2.160863 0.041241 -0.011483 133099.000000 0 0 1
-36.274265 10.590208 -25.001375 45.310523 -0.284054 2.155292 0.040996 -0.014329 645.068000 0 0 1
-36.200355 9.359808 -25.728735 45.387658 -0.253015 2.173493 0.049253 -0.008236 -565188.000000 0 0 1
36.713422 8.726408 -26.291965 45.992314 0.233360 2.179324 0.062103 0.001944 -564339.000000 0 0 1
36.052432 7.944308 -25.336615 44.775372 0.216888 2.172273 0.040432 0.001092 -327042.000000 0 0 1
34.934862 7.326108 -25.924565 44.115751 0.206712 2.198946 0.058349 0.002093 31239.700000 0 0 1
34.051752 6.475208 -24.971275 42.720191 0.187914 2.195098 0.071618 -0.002451 285076.000000 0 0 1
34.747862 5.325708 -24.530175 42.866147 0.152084 2.180044 0.064775 -0.008094 187304.000000 0 0 1
33.921442 4.567008 -23.691575 41.627065 0.133830 2.176254 0.066537 -0.006893 92143.200000 0 0 1
34.744332 3.564808 -22.852575 41.738671 0.102243 2.150189 0.056222 -0.011746 147677.000000 0 0 1
35.338022 2.579008 -23.664675 42.608026 0.072852 2.159645 0.059859 -0.014146 339355.000000 0 0 1
36.464142 1.958108 -23.069975 43.193652 0.053648 2.134246 0.077178 -0.012439 438021.000000 0 0 1
37.043602 0.642108 -23.679775 43.970132 0.017332 2.139502 0.095198 -0.014661 233197.000000 0 0 1
36.266722 -0.519192 -23.386275 43.156257 -0.014315 2.143490 0.055178 -0.014727 -2141.730000 0 0 1
36.867182 -1.678292 -23.854775 43.943783 -0.045491 2.144620 0.070651 -0.019619 93150.200000 0 0 1
-23.796135 29.004908 27.518503 46.527505 -0.883729 0.937945 0.078351 -0.016350 -311349.000000 0 0 1
-24.992435 29.601308 26.999513 47.221107 -0.869620 0.962137 0.064722 -0.019637 903498.000000 0 0 1
-25.246585 29.247708 25.647823 46.374878 -0.858689 0.984771 0.065345 -0.020420 -30393.400000 0 0 1
-25.714085 27.762308 25.343203 45.543801 -0.823681 0.980680 0.074813 -0.018039 -222063.000000 0 0 1
-26.934735 27.296608 25.887903 46.268437 -0.792071 0.976995 0.082260 -0.014961 231265.000000 0 0 1
-26.966235 26.777408 27.242523 46.758555 -0.781885 0.948846 0.092113 -0.020863 -877438.000000 0 0 1
-26.238405 25.406708 27.435983 45.680278 -0.769295 0.926534 0.088589 -0.018472 466231.000000 0 0 1
-24.866735 25.552408 27.787453 45.204232 -0.798997 0.908779 0.093036 -0.013978 178926.000000 0 0 1
-24.653535 25.941008 29.154013 46.159388 -0.810840 0.887188 0.092738 -0.014871 -62717.200000 0 0 1
-23.219635 25.699708 29.700533 45.626177 -0.836052 0.861956 0.082853 -0.005807 -249865.000000 0 0 1
-22.152635 26.458308 29.229703 45.223410 -0.873742 0.868018 0.093601 -0.013310 125870.000000 0 0 1
-20.928435 26.386908 29.943673 45.065417 -0.900254 0.844040 0.113097 -0.014799 659937.000000 0 0 1
-20.076335 25.122108 29.688673 43.767531 -0.896574 0.825314 0.092343 -0.001227 -522149.000000 0 0 1
-19.443935 25.076208 28.415893 42.595138 -0.911240 0.840466 0.091943 -0.003083 80971.200000 0 0 1
-20.126335 24.232808 27.512203 41.823673 -0.877708 0.852883 0.093341 -0.007596 -5612.320000 0 0 1
-19.885635 22.689508 27.576023 40.874066 -0.851160 0.830295 0.075146 0.005240 24882.400000 0 0 1
-20.386935 22.059008 28.741053 41.572528 -0.824771 0.807444 0.060044 -0.001084 94731.300000 0 0 1
-20.147635 20.642508 28.730253 40.712010 -0.797530 0.787393 0.069761 -0.011398 227155.000000 0 0 1
-20.717235 19.973108 30.012603 41.579865 -0.767113 0.764388 0.080084 -0.015772 426081.000000 0 0 1
-19.838235 20.181408 31.104843 42.051825 -0.793973 0.738203 0.063564 -0.018516 58502.500000 0 0 1
-20.427835 19.666308 32.238045 42.934271 -0.766407 0.721418 0.061950 -0.016434 -45930.200000 0 0 1
-19.642435 20.108708 33.504715 43.735012 -0.797127 0.698069 0.053893 -0.011549 -141345.000000 0 0 1
-19.664935 21.499908 33.886611 44.690693 -0.829945 0.710175 0.027279 -0.001458 139909.000000 0 0 1
-18.934735 22.341508 32.973738 44.101412 -0.867747 0.726235 0.047451 0.000094 544931.000000 0 0 1
-17.400135 22.527008 33.276212 43.789691 -0.913105 0.707622 0.034269 0.006742 922586.000000 0 0 1
-16.764835 21.247908 33.302807 42.913986 -0.902792 0.682440 0.045118 -0.013550 -57851.700000 0 0 1
-15.355235 21.391308 33.440720 42.563517 -0.948207 0.667024 0.027968 -0.018804 -550813.000000 0 0 1
-14.727435 19.997208 33.545508 41.738313 -0.936008 0.637292 0.031161 -0.013939 236882.000000 0 0 1
-13.341735 20.047008 33.903261 41.585039 -0.983586 0.617592 0.027270 -0.023878 675045.000000 0 0 1
-13.116135 20.335208 -32.651785 40.641023 -0.997947 2.503812 0.041402 -0.026313 -1364760.000000 0 0 1
-11.636435 20.277908 -32.375955 39.934980 -1.049828 2.516172 0.043734 -0.025265 -635124.000000 0 0 1
-10.851235 21.436608 -32.708275 40.584587 -1.102200 2.508038 0.045408 -0.024617 229866.000000 0 0 1
-9.519335 21.130408 -32.292525 39.748195 -1.147523 2.519100 0.046943 -0.020189 11777.100000 0 0 1
-8.619335 22.356108 -32.326445 40.237887 -1.202811 2.503752 0.052761 -0.027337 -337959.000000 0 0 1
-8.815335 23.343308 -31.341025 40.060953 -1.209714 2.469200 0.062113 -0.024590 -63299.900000 0 0 1
-8.305535 23.044408 -30.062445 38.778567 -1.224874 2.457881 0.065948 -0.025085 -114420.000000 0 0 1
-7.982635 24.226408 -29.142795 38.729108 -1.252499 2.422613 0.075133 -0.027865 970857.000000 0 0 1
-6.751635 24.867008 -29.558275 39.212807 -1.305678 2.424609 0.072981 -0.027000 688641.000000 0 0 1
-6.293935 25.763908 -28.614205 39.014937 -1.331196 2.394131 0.095336 -0.021968 -972168.000000 0 0 1
-5.002135 26.401808 -29.019335 39.549951 -1.383554 2.394605 0.090267 -0.030942 -1268340.000000 0 0 1
-3.866035 25.555808 -28.972505 38.825914 -1.420657 2.413155 0.091681 -0.021053 473419.000000 0 0 1
-2.697435 26.018208 -29.631615 39.525383 -1.467491 2.418383 0.101202 -0.024983 515555.000000 0 0 1
-1.999035 27.340208 -29.189765 40.044044 -1.497809 2.387571 0.104485 -0.033915 -822451.000000 0 0 1
-1.445435 27.292208 -27.904075 39.058818 -1.517884 2.366579 0.116499 -0.044992 220626.000000 0 0 1
-0.671035 28.468008 -27.803215 39.798197 -1.547229 2.344242 0.106063 -0.032282 -1340100.000000 0 0 1
-0.119335 28.842308 -26.389275 39.093309 -1.566659 2.311806 0.119288 -0.045626 761305.000000 0 0 1
0.984465 28.067708 -25.886295 38.195100 1.535736 2.315479 0.152438 -0.053811 1029690.000000 0 0 1
2.117765 27.993008 -26.745515 38.773909 1.495287 2.331983 0.145571 -0.045418 -1093580.000000 0 0 1
3.491665 28.246608 -26.134015 38.639996 1.447807 2.313587 0.127265 -0.054213 -346891.000000 0 0 1
3.748165 27.405108 -25.046725 37.315240 1.434871 2.306649 0.155030 -0.054779 -277785.000000 0 0 1
5.098565 27.379108 -24.670475 37.205420 1.386684 2.295733 0.117666 -0.044706 -265351.000000 0 0 1
5.530465 26.163508 -23.889075 35.858097 1.362482 2.299913 0.123571 -0.047178 -504942.000000 0 0 1
6.806965 26.181808 -23.331675 35.723786 1.316439 2.282485 0.103357 -0.043522 -874747.000000 0 0 1
7.239765 25.018508 -22.711175 34.556293 1.289114 2.287924 0.096821 -0.029257 1797920.000000 0 0 1
8.805465 25.083708 -22.385475 34.753965 1.233192 2.270659 0.087703 -0.007659 860659.000000 0 0 1
9.040265 25.970708 -21.346375 34.811949 1.235820 2.230890 0.079573 -0.011470 -55513.200000 0 0 1
10.384965 26.385108 -21.196475 35.402147 1.195826 2.212716 0.073492 -0.010648 516810.000000 0 0 1
11.401365 25.390808 -20.542075 34.592790 1.148745 2.206601 0.055014 0.003359 -34317.800000 0 0 1
11.570465 24.374508 -21.480975 34.488036 1.127597 2.243180 0.049353 -0.002061 -230441.000000 0 0 1
12.276365 23.302108 -20.812075 33.568435 1.085912 2.239526 0.051330 0.000755 296171.000000 0 0 1
12.474765 22.122708 -21.818875 33.482791 1.057352 2.280547 0.054885 -0.006793 515988.000000 0 0 1
11.224265 21.565708 -22.238875 32.948922 1.090909 2.311693 0.058446 -0.021450 562955.000000 0 0 1
11.410465 20.507208 -23.170175 32.978801 1.063043 2.349810 0.066701 -0.022971 276232.000000 0 0 1
10.671265 20.917408 -24.505575 33.940198 1.099052 2.377517 0.072382 -0.024830 1614680.000000 0 0 1
9.221365 20.924208 -24.468175 33.489515 1.155700 2.390029 0.069843 -0.028709 1018950.000000 0 0 1
8.656965 21.080008 -25.759875 34.393036 1.181124 2.417325 0.070564 -0.032706 -309230.000000 0 0 1
7.243265 20.439308 -25.836655 33.730742 1.230226 2.443341 0.085488 -0.040231 1088840.000000 0 0 1
6.131265 21.149308 -25.227355 33.485894 1.288628 2.423972 0.102275 -0.042997 643082.000000 0 0 1
6.278565 21.433608 -23.851475 32.675875 1.285838 2.389033 0.097779 -0.040731 -2022720.000000 0 0 1
4.975265 21.745508 -23.172575 32.165022 1.345873 2.375215 0.117017 -0.048904 -823571.000000 0 0 1
4.413765 22.891908 -23.774875 33.298130 1.380325 2.365992 0.119705 -0.045259 -768180.000000 0 0 1
3.060065 23.036908 -23.487575 33.041327 1.438736 2.361509 0.148238 -0.047048 -577751.000000 0 0 1
2.283665 23.958108 -24.425675 34.290227 1.475764 2.363597 0.127210 -0.046761 -1191020.000000 0 0 1
0.913965 23.938708 -24.282975 34.110994 1.532635 2.362969 0.154746 -0.063377 -1246700.000000 0 0 1
0.354965 24.910708 -25.145365 35.397157 1.556548 2.360832 0.144289 -0.050843 -854550.000000 0 0 1
-1.145135 24.723608 -25.179685 35.307006 -1.524512 2.364798 0.156068 -0.047709 -947257.000000 0 0 1
-1.568635 23.520508 -25.794935 34.943577 -1.504203 2.401177 0.164239 -0.051079 161973.000000 0 0 1
-2.763635 23.801408 -26.527085 35.746761 -1.455202 2.406970 0.153691 -0.037880 612199.000000 0 0 1
-3.415135 22.503908 -27.152905 35.431190 -1.420188 2.443946 0.147419 -0.039081 -100853.000000 0 0 1
-2.676535 22.053408 -28.244935 35.934565 -1.450021 2.475125 0.171739 -0.057517 315825.000000 0 0 1
-3.270135 20.794308 -28.706675 35.597334 -1.414813 2.508882 0.133797 -0.051560 1653820.000000 0 0 1
-4.660035 20.869008 -29.502955 36.437011 -1.351101 2.514433 0.088588 -0.036261 1102100.000000 0 0 1
-4.517235 21.203208 -30.894455 37.741870 -1.360890 2.529718 0.095726 -0.041044 -71679.000000 0 0 1
-4.203635 22.522808 -31.201945 38.710577 -1.386280 2.508213 0.135163 -0.047452 -251189.000000 0 0 1
-3.789835 22.621408 -32.614955 39.872625 -1.404805 2.528685 0.119223 -0.044736 308010.000000 0 0 1
-2.514335 22.071808 -32.963335 39.750070 -1.457369 2.548587 0.101663 -0.043738 686269.000000 0 0 1
-2.168135 22.298108 33.614778 40.396283 -1.473867 0.587867 0.103424 -0.029977 -980174.000000 0 0 1
-0.961635 21.591208 33.102760 39.533501 -1.526287 0.578407 0.118095 -0.025870 -1060910.000000 0 0 1
-1.201335 20.246508 32.917344 38.664142 -1.511530 0.552212 0.099903 -0.022392 403568.000000 0 0 1
-0.108735 19.483108 32.398373 37.805527 -1.565215 0.541426 0.107583 -0.017102 296662.000000 0 0 1
-0.601535 18.068408 32.059327 36.805294 -1.537517 0.513456 0.097385 -0.011081 110897.000000 0 0 1
-1.506035 18.034308 30.987553 35.884994 -1.487480 0.528580 0.080762 -0.009957 -163216.000000 0 0 1
-1.768335 16.691908 30.692573 34.982579 -1.465250 0.500449 0.063337 -0.008225 -60872.300000 0 0 1
-2.680435 16.435008 29.417103 33.803256 -1.409127 0.515098 0.061808 -0.003379 1730680.000000 0 0 1
-4.042735 16.862708 29.706403 34.397165 -1.335493 0.528371 0.037121 -0.010219 993959.000000 0 0 1
-4.302135 18.133508 29.202253 34.642518 -1.337855 0.568035 0.041453 -0.012552 481539.000000 0 0 1
-5.777835 18.585608 29.488823 35.332688 -1.269391 0.583382 0.025439 -0.018321 1418200.000000 0 0 1
-6.762135 17.918408 28.680913 34.487542 -1.209937 0.588758 0.018444 -0.011276 3444.110000 0 0 1
-8.072935 18.152108 29.133673 35.262476 -1.152327 0.598477 0.025113 -0.023112 583895.000000 0 0 1
-9.209935 17.634608 28.113543 34.440871 -1.089496 0.615847 0.022928 -0.021528 957143.000000 0 0 1
-9.614635 16.254008 28.162093 33.907778 -1.036633 0.590703 0.035552 -0.028796 154003.000000 0 0 1
-10.318035 15.976908 29.359883 34.981797 -0.997373 0.574820 0.037055 -0.023660 -867449.000000 0 0 1
-10.667835 14.484008 29.513733 34.563703 -0.935975 0.547375 0.030708 -0.019653 556942.000000 0 0 1
-9.628235 13.510308 29.822823 34.126706 -0.951625 0.507659 0.038642 -0.014525 1110780.000000 0 0 1
-9.035635 13.621508 31.161873 35.188783 -0.985103 0.483092 0.042029 -0.011901 735062.000000 0 0 1
-10.017135 13.051008 32.290226 36.239902 -0.916166 0.471225 0.076280 -0.021895 617271.000000 0 0 1
-10.365535 11.673508 32.332600 35.904207 -0.844677 0.449823 0.069831 -0.017292 432262.000000 0 0 1
-10.890435 11.398208 33.653359 37.162740 -0.808176 0.438081 0.079207 -0.009642 -64138.300000 0 0 1
-11.013835 9.868908 33.861814 36.950268 -0.730627 0.411765 0.062809 -0.012460 -514736.000000 0 0 1
-9.764235 9.236908 33.896918 36.464528 -0.757653 0.377508 0.083259 -0.021672 -285525.000000 0 0 1
-9.692635 8.322508 -32.982925 35.370675 -0.709490 2.772052 0.109892 -0.022635 16093.800000 0 0 1
-8.908635 8.860108 -31.758185 34.153295 -0.782667 2.764860 0.096636 -0.027566 104999.000000 0 0 1
-9.613335 9.887708 -31.041025 33.966575 -0.799467 2.723512 0.083054 -0.022549 461051.000000 0 0 1
-8.737035 10.599308 -30.181325 33.160119 -0.881412 2.714489 0.079676 -0.033937 -38136.700000 0 0 1
-7.833435 11.638308 -30.902375 33.937732 -0.978371 2.715435 0.059507 -0.022748 -136756.000000 0 0 1
-8.401435 12.877208 -31.280425 34.855008 -0.992717 2.684737 0.058288 -0.022052 59284.800000 0 0 1
-7.387835 13.670408 -31.862885 35.450015 -1.075334 2.687847 0.036781 -0.016945 40194.600000 0 0 1
-7.822435 15.113108 -32.314995 36.521985 -1.093174 2.656881 0.040870 -0.015114 46308.300000 0 0 1
-8.624535 15.230808 -33.470635 37.770935 -1.055558 2.659762 0.047557 -0.026271 36741.300000 0 0 1
-8.816335 16.628508 -33.676145 38.578722 -1.083286 2.631953 0.057177 -0.027775 -618494.000000 0 0 1
-9.415635 16.992808 32.842268 38.157886 -1.064814 0.534165 0.068921 -0.034999 283034.000000 0 0 1
-10.700035 16.616808 32.449081 37.994103 -0.998701 0.547064 0.040403 -0.030751 144325.000000 0 0 1
-11.802635 16.951708 33.280092 39.169211 -0.962591 0.555476 0.042504 -0.032766 64843.900000 0 0 1
-13.227035 16.537408 32.850518 39.084484 -0.896162 0.572590 0.050537 -0.036638 96885.900000 0 0 1
-13.473535 15.156508 32.924475 38.668811 -0.844114 0.552056 0.045793 -0.034940 102588.000000 0 0 1
-14.842335 14.845208 32.820103 38.959393 -0.785495 0.569041 0.047559 -0.018481 -344246.000000 0 0 1
-15.045235 13.327808 32.820954 38.486421 -0.724942 0.549486 0.041443 -0.009006 -54307.100000 0 0 1
-15.052135 12.747608 31.546763 37.205732 -0.702690 0.558784 0.015912 -0.012949 71459.500000 0 0 1
-13.887135 11.964908 31.433153 36.387561 -0.711180 0.527947 0.027113 -0.006453 -138455.000000 0 0 1
-13.669635 11.332708 30.000143 34.861121 -0.692201 0.534425 0.013357 -0.001218 -332097.000000 0 0 1
-14.639635 10.384708 29.693853 34.697060 -0.616977 0.543695 0.007776 0.002472 -23143.900000 0 0 1
-14.377435 9.907708 28.412313 33.348655 -0.603383 0.551045 -0.006161 0.003250 -79448.100000 0 0 1
-15.135735 8.587008 28.135403 33.082141 -0.516054 0.553916 0.004581 0.003523 -60335.100000 0 0 1
-14.523135 7.334208 28.394503 32.725522 -0.467641 0.520328 -0.004073 -0.000540 153733.000000 0 0 1
-15.326735 6.310208 27.824653 32.387325 -0.390562 0.537245 0.011983 0.006349 450949.000000 0 0 1
-14.488535 4.988408 27.817463 31.758669 -0.331588 0.503495 0.018300 0.007144 913854.000000 0 0 1
-13.475935 4.830008 26.824353 30.405192 -0.344154 0.490220 0.015262 -0.004932 309333.000000 0 0 1
-14.054035 4.697108 25.518903 29.509204 -0.322546 0.526089 0.015422 -0.004771 272785.000000 0 0 1
-12.982235 4.349008 24.443123 28.016397 -0.323247 0.510587 0.021177 0.008198 319010.000000 0 0 1
-12.272835 3.136408 24.616033 27.684085 -0.250202 0.475255 0.024281 0.003153 185777.000000 0 0 1
-11.640035 2.655708 23.421683 26.289131 -0.224313 0.471415 0.031930 -0.002493 308652.000000 0 0 1
-10.600035 1.534808 23.783343 26.083783 -0.143793 0.423136 0.033220 -0.005665 -4118.350000 0 0 1
-9.283435 2.033608 23.914623 25.733769 -0.215651 0.378259 0.036427 -0.015422 -327476.000000 0 0 1
-8.556135 0.912008 24.372063 25.846405 -0.106190 0.339391 0.041721 -0.010284 15483.000000 0 0 1
-7.025535 1.173808 24.333453 25.354543 -0.165548 0.284766 0.055384 -0.015815 -673044.000000 0 0 1
-6.492235 1.192308 23.064073 23.990043 -0.181628 0.278744 0.052405 -0.013885 450222.000000 0 1 0
-5.079535 1.412208 22.980053 23.577082 -0.271171 0.225522 0.054977 -0.015124 716546.000000 0 1 0
-4.500835 2.784508 23.407483 23.998359 -0.554031 0.222366 0.068046 -0.016073 -722907.000000 0 1 0
-4.501135 3.008208 24.795083 25.379237 -0.589148 0.214969 0.067658 -0.011728 -2971.760000 0 0 1
-4.148835 4.351108 25.108013 25.817770 -0.809191 0.235023 0.069869 -0.019090 115680.000000 0 0 1
3.893565 -23.099692 12.647425 26.621664 -1.403811 1.075741 0.115719 -0.029849 209575.000000 0 0 1
3.848665 -24.384592 13.230325 28.008250 -1.414256 1.078816 0.117869 -0.027867 -1083670.000000 0 0 1
2.570465 -24.905292 13.226025 28.316225 -1.467951 1.084807 0.117421 -0.030852 -746601.000000 0 0 1
2.480865 -26.306152 13.986625 29.896388 -1.476767 1.083955 0.115958 -0.025334 -43096.300000 0 0 1
2.402265 -26.079502 15.396125 30.380125 -1.478942 1.039348 0.120646 -0.025337 -21085.500000 0 0 1
2.386265 -27.253342 16.146025 31.766854 -1.483460 1.037626 0.104108 -0.024212 -277756.000000 0 0 1
2.135465 -27.113062 17.600125 32.395104 -1.492197 0.996438 0.101010 -0.022429 142942.000000 0 0 1
3.109465 -26.360162 18.314825 32.248407 -1.453378 0.966808 0.120929 -0.032232 224333.000000 0 0 1
3.426865 -26.929922 19.530825 33.442746 -1.444225 0.947139 0.101953 -0.032502 -104812.000000 0 0 1
4.093465 -25.946372 20.502225 33.321343 -1.414320 0.908045 0.098869 -0.029595 -144878.000000 0 0 1
3.228465 -24.926192 20.963725 32.729433 -1.441992 0.875626 0.106953 -0.028789 245118.000000 0 0 1
3.938965 -23.894692 21.660425 32.490703 -1.407419 0.841070 0.112841 -0.034299 70516.500000 0 0 1
3.031465 -22.783392 22.196225 31.952232 -1.438517 0.802837 0.113486 -0.038012 403858.000000 0 0 1
2.178365 -22.034092 21.309825 30.730362 -1.472253 0.804536 0.110336 -0.034803 796853.000000 0 0 1
2.922665 -21.212492 20.395725 29.571902 -1.433878 0.809722 0.092106 -0.021296 660002.000000 0 0 1
1.996765 -20.047392 19.842525 28.277390 -1.471521 0.793002 0.061789 -0.030255 602251.000000 0 0 1
1.699165 -19.014592 20.797825 28.231036 -1.481672 0.742618 0.055678 -0.034768 -5094.050000 0 0 1
0.866565 -18.101592 20.121925 27.079705 -1.522961 0.733161 0.060143 -0.039287 -690539.000000 0 0 1
0.847565 -16.750192 20.831225 26.743733 -1.520239 0.677855 0.056604 -0.039228 845326.000000 0 0 1
2.048265 -15.993392 20.590025 26.152115 -1.443420 0.664350 0.035293 -0.026036 522413.000000 0 0 1
1.883765 -14.664892 21.135825 25.794006 -1.443042 0.610418 0.054306 -0.022326 178229.000000 0 0 1
2.932165 -13.619592 20.722625 24.970344 -1.358743 0.591887 0.014357 -0.020574 -1082210.000000 0 1 0
2.868465 -13.217092 19.340225 23.600083 -1.357084 0.610261 0.003878 -0.018171 -804673.000000 0 1 0
1.691365 -12.718592 18.793125 22.755326 -1.438588 0.599039 0.020121 -0.004506 -406169.000000 0 1 0
1.145465 -11.491392 19.558925 22.713779 -1.471444 0.533359 0.020688 -0.003907 -647283.000000 0 1 0
1.872465 -10.269392 19.357125 21.992381 -1.390443 0.494567 0.019478 0.004698 -214996.000000 0 1 0
1.497065 -9.138592 20.152125 22.177990 -1.408421 0.430747 0.030800 -0.016417 751678.000000 0 1 0
-0.017535 -8.736692 20.105125 21.921363 1.568789 0.409933 0.041922 -0.024433 572242.000000 0 1 0
-0.293335 -7.702292 20.963125 22.335263 1.532731 0.352344 0.044685 -0.038819 517328.000000 0 1 0
-1.692435 -7.359492 21.016025 22.331587 1.344760 0.344958 0.042584 -0.035359 850960.000000 0 1 0
-2.047335 -6.892492 22.421425 23.546090 1.282059 0.310321 0.039424 -0.025615 -429095.000000 0 1 0
-2.325935 -7.868392 23.373825 24.772107 1.283377 0.337594 0.049057 -0.022861 34923.800000 0 1 0
-2.177135 -7.369092 24.672425 25.841285 1.283527 0.301919 0.047156 -0.014723 -32379.900000 0 0 1
-2.453935 -8.291592 25.896025 27.301583 1.283055 0.322275 0.054967 -0.015396 18184.100000 0 0 1
-1.404435 -9.253792 25.962225 27.597867 1.420177 0.346011 0.052410 -0.014118 320788.000000 0 0 1
-1.616535 -10.153392 26.974125 28.867074 1.412910 0.364154 0.060840 -0.018520 -405859.000000 0 0 1
-0.456635 -11.157692 27.116925 29.326272 1.529894 0.390646 0.059711 -0.020933 403966.000000 0 0 1
0.630065 -10.515792 27.826225 29.753616 -1.510952 0.361912 0.056291 -0.019381 484952.000000 0 0 1
1.695565 -11.474392 27.921325 30.234699 -1.424088 0.393726 0.072885 -0.029828 -417188.000000 0 0 1
2.727665 -11.024392 28.902025 31.053252 -1.328246 0.374407 0.086090 -0.033707 -768131.000000 0 0 1
2.264965 -10.859992 30.217925 32.189944 -1.365183 0.351846 0.088820 -0.037238 -329753.000000 0 0 1
3.276565 -10.396092 31.070325 32.926885 -1.265478 0.337409 0.113755 -0.033208 -400010.000000 0 0 1
2.734865 -9.862392 32.403325 33.981197 -1.300291 0.305933 0.113332 -0.038790 -211730.000000 0 0 1
2.149065 -10.900092 33.189325 34.999454 -1.376133 0.323020 0.107525 -0.041381 107444.000000 0 0 1
2.035865 -10.608592 -33.340962 35.047207 -1.381194 2.828274 0.095895 -0.041394 320121.000000 0 0 1
3.371265 -10.692392 -32.532162 34.409798 -1.265366 2.809718 0.082694 -0.025773 860734.000000 0 0 1
4.294165 -9.578992 -32.646762 34.292973 -1.149365 2.830487 0.072347 -0.036299 618038.000000 0 0 1
4.430265 -8.827392 -31.481362 32.994336 -1.105648 2.837585 0.094280 -0.034868 -222046.000000 0 0 1
3.427465 -7.679892 -31.245662 32.357683 -1.151031 2.878666 0.082658 -0.030536 -113993.000000 0 0 1
3.567365 -6.562492 -32.085062 32.943035 -1.072881 2.912866 0.101606 -0.036981 -354060.000000 0 0 1
2.882465 -5.450092 -31.631562 32.226818 -1.084310 2.949093 0.084387 -0.019750 -164160.000000 0 0 1
3.017665 -4.186992 -32.523362 32.930324 -0.946297 2.984215 0.082772 -0.020716 232426.000000 0 0 1
2.124665 -4.228492 -33.635762 33.967025 -1.105179 3.001819 0.086007 -0.028711 89743.100000 0 0 1
2.399565 -3.165392 33.359225 33.594874 -0.922155 0.118513 0.097073 -0.021105 105486.000000 0 0 1
1.694965 -3.361192 32.024925 32.245408 -1.103734 0.117008 0.109817 -0.023421 281314.000000 0 0 1
0.286565 -3.247192 31.998725 32.164341 -1.482774 0.101523 0.099202 -0.025545 -195037.000000 0 0 1
-0.136835 -3.561892 30.716625 30.922757 1.532399 0.115529 0.090028 -0.012043 241616.000000 0 0 1
-1.656635 -3.793392 30.534725 30.814018 1.159044 0.134741 0.062396 -0.017054 355468.000000 0 0 1
-2.412635 -2.691192 30.065325 30.281795 0.839922 0.119641 0.057827 -0.018518 -70819.600000 0 0 1
-3.797535 -2.956992 30.104625 30.486940 0.661593 0.158534 0.045948 -0.015213 -16830.800000 0 0 1
-4.624835 -1.832692 29.497725 29.914272 0.377288 0.167075 0.042526 -0.020920 -388072.000000 0 0 1
-4.477835 -1.855092 28.072925 28.488270 0.392759 0.170968 0.048547 -0.016513 -315040.000000 0 0 1
-5.359935 -1.098392 27.301325 27.844169 0.202128 0.197785 0.043065 -0.016647 -209405.000000 0 0 1
-5.412735 0.457208 27.507925 28.039128 -0.084269 0.194962 0.057586 -0.021854 -119817.000000 0 0 1
-6.328835 0.783708 28.539825 29.243631 -0.123204 0.219837 0.058865 -0.019278 -140473.000000 0 0 1
-6.697135 2.150808 28.553625 29.407263 -0.310749 0.241535 0.059653 -0.014383 309254.000000 0 0 1
-8.021735 2.437408 29.303925 30.479653 -0.294986 0.278657 0.038666 -0.017464 -28103.100000 0 0 1
-9.195435 2.012208 28.697225 30.201585 -0.215431 0.316953 0.023182 -0.009356 -359350.000000 0 0 1
-10.367035 2.434008 29.369925 31.240876 -0.230607 0.347837 0.023385 -0.004028 638388.000000 0 0 1
-11.666935 2.126108 28.547425 30.912670 -0.180256 0.393726 0.026059 -0.005800 352621.000000 0 0 1
-11.900235 0.743408 28.774125 31.146726 -0.062389 0.392841 0.031623 -0.010927 -93681.000000 0 0 1
-12.091835 -0.042692 27.570825 30.105891 0.003531 0.413313 0.026883 -0.007033 -706974.000000 0 0 1
-12.176435 -1.594692 27.796525 30.388409 0.130224 0.416011 0.039513 -0.007700 39131.900000 0 0 1
-10.961135 -2.249092 28.116225 30.260982 0.202379 0.378758 0.050485 -0.014983 801264.000000 0 0 1
-9.854735 -2.161092 27.196925 29.007910 0.215878 0.355222 0.057069 -0.009716 42844.200000 0 0 1
-9.951835 -2.744392 25.766025 27.757139 0.269080 0.381072 0.056938 -0.008490 -526265.000000 0 0 1
-10.765835 -1.988492 24.866525 27.169862 0.182645 0.414731 0.037158 -0.009654 463304.000000 0 0 1
-10.837935 -2.546692 23.534225 26.034712 0.230792 0.441865 0.045776 -0.009521 -632437.000000 0 0 1
-9.680835 -2.141492 22.635925 24.712136 0.217704 0.412842 0.050511 -0.016525 151452.000000 0 1 0
-8.414735 -2.663192 23.074925 24.705314 0.306517 0.365328 0.055956 -0.017259 770873.000000 0 1 0
-7.400935 -2.088992 22.198425 23.492718 0.275104 0.333487 0.045679 -0.020199 -149653.000000 0 1 0
-6.014735 -2.237392 22.791925 23.678151 0.356125 0.274459 0.046314 -0.019027 -495880.000000 0 1 0
-5.348635 -3.492792 22.632425 23.516678 0.578499 0.275097 0.042944 -0.022485 112385.000000 0 1 0
-5.809635 -4.528592 23.493625 24.621341 0.662113 0.303830 0.052934 -0.021428 -79947.900000 0 1 0
-5.422835 -5.922992 22.915625 24.281986 0.829453 0.337065 0.057440 -0.023606 -484941.000000 0 1 0
-6.127935 -6.433792 21.813225 23.553387 0.809742 0.386807 0.042812 -0.030040 -381204.000000 0 1 0
-5.950735 -5.841692 20.558525 22.185346 0.776152 0.385338 0.040507 -0.034476 -597030.000000 0 1 0
-7.200735 -5.907592 19.647525 21.743401 0.687066 0.442676 0.037468 -0.031035 125579.000000 0 1 0
-8.198135 -4.986692 20.051025 22.228813 0.546479 0.446350 0.049160 -0.027222 15404.400000 0 1 0
-9.242535 -4.905992 19.072125 21.754061 0.487988 0.501805 0.041229 -0.021025 660089.000000 0 1 0
-9.946535 -3.510892 19.177025 21.886485 0.339324 0.502868 0.038483 -0.020834 296523.000000 0 1 0
-9.113435 -2.515992 18.627125 20.889105 0.269365 0.469676 0.034930 -0.025107 181177.000000 0 1 0
-9.706735 -1.255092 18.626225 21.041203 0.128588 0.483816 0.033307 -0.016246 -693291.000000 0 1 0
-8.723335 -0.249492 17.947125 19.956406 0.028593 0.452592 0.033799 -0.021461 363118.000000 0 1 0
-7.461935 -0.142892 18.630025 20.069348 0.019147 0.381029 0.032356 -0.019110 596349.000000 0 1 0
-7.499435 0.440608 19.885325 21.257042 -0.058685 0.361210 0.037669 -0.020210 -821555.000000 0 1 0
-7.489635 1.996008 19.801825 21.264782 -0.260449 0.373097 0.036420 -0.020665 -1134140.000000 0 1 0
-8.542435 2.534508 19.112125 21.087206 -0.288423 0.436262 0.027830 -0.019314 -635447.000000 0 1 0
-8.409035 3.962608 19.042525 21.190373 -0.440370 0.454136 0.024050 -0.011866 263329.000000 0 1 0
-9.231235 4.555308 17.818225 20.578039 -0.458407 0.523879 0.030484 -0.004208 -150099.000000 0 1 0
-10.619235 4.566108 18.060225 21.442696 -0.406085 0.569343 0.027350 -0.000250 101056.000000 0 1 0
-11.345035 5.296008 17.045925 21.149967 -0.436747 0.633509 0.033440 0.010472 160071.000000 0 1 0
-11.232735 6.832808 17.026025 21.511558 -0.546496 0.657565 0.031308 0.014638 -1207520.000000 0 1 0
-9.963235 7.351608 16.841825 20.903571 -0.635695 0.633955 0.020428 0.009195 -747863.000000 0 1 0
-10.008435 8.732308 16.600325 21.260122 -0.717409 0.674819 0.006263 0.008562 173784.000000 0 1 0
-8.733435 9.517008 16.987925 21.340945 -0.828306 0.650097 0.008809 0.013217 210748.000000 0 1 0
-8.865135 9.927508 18.363125 22.679295 -0.841869 0.627178 0.031483 0.032053 -202213.000000 0 1 0
-8.357635 11.215408 18.691025 23.345018 -0.930379 0.642429 0.046955 0.026361 67180.000000 0 1 0
-8.970535 12.490108 18.020425 23.689851 -0.947952 0.706434 0.049469 0.016412 329702.000000 0 1 0
-8.552635 12.631508 16.673925 22.599167 -0.975614 0.740974 0.034254 -0.001335 -51521.700000 0 1 0
-9.417635 13.616408 16.135625 23.118322 -0.965704 0.798254 0.050486 -0.015519 -95524.700000 0 1 0
-9.155935 14.151408 14.738425 22.390058 -0.996534 0.852295 0.053217 -0.016029 834156.000000 0 1 0
-8.068235 15.132008 14.696825 22.584746 -1.080951 0.862236 0.046352 -0.004823 821249.000000 0 1 0
-7.806835 15.513008 13.369525 21.916758 -1.104557 0.914718 0.033313 -0.016135 86417.200000 0 1 0
-6.693435 16.586008 13.213225 22.237065 -1.187226 0.934528 0.011566 -0.011145 2429150.000000 0 1 0
-5.314935 16.120008 13.497425 21.686025 -1.252310 0.898988 0.010457 -0.018380 1909690.000000 0 1 0
-4.395835 17.210608 13.439425 22.274347 -1.320728 0.923090 0.010443 -0.020549 267579.000000 0 1 0
-2.917635 16.793708 13.494025 21.740054 -1.398780 0.901163 0.020410 -0.027382 -315976.000000 0 1 0
-2.347335 16.406708 14.704125 22.156294 -1.428689 0.845103 0.026770 -0.022534 -501873.000000 0 1 0
-2.661835 15.133208 15.230325 21.634744 -1.396684 0.789817 0.027004 -0.013088 -313183.000000 0 1 0
-1.620135 14.534208 16.244325 21.857405 -1.459784 0.732963 0.027187 -0.005576 999208.000000 0 1 0
-0.308435 14.454108 15.647225 21.303803 -1.549461 0.745896 0.017864 -0.019130 -147279.000000 0 1 0
0.585965 13.776208 16.433225 21.451764 1.528287 0.698116 0.024154 -0.011128 -651438.000000 0 1 0
1.534665 14.651108 17.287025 22.712363 1.466430 0.705745 0.025128 -0.015204 -217875.000000 0 1 0
0.889065 15.496808 18.232925 23.945377 1.513488 0.705267 0.022347 -0.016109 -463673.000000 0 1 0
1.750965 16.519908 18.578025 24.922204 1.465199 0.729601 0.047956 -0.020989 -340090.000000 0 1 0
0.953665 17.768508 19.086325 26.094390 1.517176 0.750374 0.043964 -0.017601 386462.000000 0 0 1
0.414565 18.639908 18.081325 25.972146 1.548559 0.800732 0.028471 -0.014346 462123.000000 0 0 1
-0.809035 18.172808 17.499025 25.241264 -1.526307 0.804779 0.041857 -0.011358 196053.000000 0 0 1
-1.564135 19.180708 16.591025 25.408822 -1.489429 0.859306 0.036911 -0.009020 -39770.000000 0 0 1
-2.025635 20.284308 17.347925 26.767646 -1.471264 0.865719 0.038524 -0.007383 515157.000000 0 0 1
-2.901735 21.103208 16.507025 26.948977 -1.434151 0.911540 0.038997 -0.012184 651882.000000 0 0 1
-3.554135 22.286108 17.310225 28.441983 -1.412650 0.916482 0.036852 -0.003999 -95080.600000 0 0 1
-4.489835 21.936308 18.295125 28.914907 -1.368909 0.885732 0.046371 -0.006673 -138372.000000 0 0 1
-4.971935 23.086908 18.960525 30.285756 -1.358679 0.894314 0.049101 0.007196 -467471.000000 0 0 1
-6.200435 22.914708 19.849925 30.944285 -1.306537 0.874379 0.037289 0.003681 -568460.000000 0 0 1
-7.406835 22.922908 19.129125 30.761085 -1.258266 0.899679 0.030373 -0.005377 -1082350.000000 0 0 1
-8.362335 22.271208 19.898225 31.014105 -1.211607 0.874232 0.014597 -0.011147 -1157560.000000 0 0 1
-9.727835 22.575808 19.318825 31.265235 -1.163942 0.904726 0.017193 -0.018945 -756253.000000 0 0 1
-10.338035 23.768808 19.781925 32.606070 -1.160536 0.918900 0.028321 -0.012210 40571.400000 0 0 1
-11.350535 24.235808 18.919025 32.774053 -1.132798 0.955432 0.030459 -0.018652 89733.400000 0 0 1
-11.833835 25.691608 19.338325 34.264693 -1.139154 0.971114 0.042671 -0.016539 297040.000000 0 0 1
-12.745835 25.630208 20.440925 35.173787 -1.109313 0.950666 0.044562 -0.014607 573311.000000 0 0 1
-13.312735 26.914208 20.738825 36.492498 -1.111449 0.966353 0.052937 -0.022034 -16499.900000 0 0 1
-14.212635 27.015708 22.015225 37.636653 -1.086497 0.945989 0.081722 -0.032010 267959.000000 0 0 1
-15.512335 26.474208 21.862125 37.675838 -1.040778 0.951737 0.074322 -0.033657 -35927.200000 0 0 1
-16.376735 26.933208 22.857925 38.936871 -1.024479 0.943385 0.068822 -0.022934 -418904.000000 0 0 1
-17.802135 26.414108 22.686425 39.106202 -0.977759 0.951916 0.087236 -0.021144 -406277.000000 0 0 1
-18.021835 25.023908 22.839325 38.374696 -0.946652 0.933324 0.090407 -0.025982 21647.000000 0 0 1
-19.410235 24.752508 22.909825 38.914059 -0.905781 0.941311 0.097656 -0.023890 311439.000000 0 0 1
27.880765 24.271208 23.134063 43.607493 0.716296 1.011598 0.058004 -0.018009 -155018.000000 0 0 1
27.950565 23.439708 24.280413 43.820001 0.697846 0.983522 0.062740 -0.027141 340950.000000 0 0 1
27.320565 22.162108 24.015913 42.595028 0.681526 0.971793 0.062932 -0.019362 118086.000000 0 0 1
27.160865 21.282508 25.248963 42.757080 0.664644 0.939092 0.083249 -0.027598 -58597.900000 0 0 1
26.224465 21.885108 26.114723 42.996038 0.695444 0.918044 0.084747 -0.027202 -55985.200000 0 0 1
25.960165 21.168808 27.295553 43.209904 0.684081 0.887056 0.092576 -0.035497 564836.000000 0 0 1
24.571265 21.394008 27.988753 42.951379 0.716385 0.861054 0.096699 -0.030125 602303.000000 0 0 1
24.332665 22.705808 28.437103 43.775577 0.750826 0.863723 0.102344 -0.036894 147896.000000 0 0 1
23.061965 22.785808 29.078593 43.550107 0.779375 0.839676 0.104587 -0.026997 360164.000000 0 0 1
22.645565 24.179608 29.636123 44.449689 0.818148 0.840978 0.107335 -0.019840 68039.500000 0 0 1
22.003765 25.034008 28.663953 43.960089 0.849731 0.860518 0.108562 -0.030526 274451.000000 0 0 1
21.490765 26.298608 29.085953 44.715349 0.885666 0.862594 0.094357 -0.023806 566372.000000 0 0 1
20.202665 26.311008 29.963453 44.701514 0.915975 0.836183 0.095376 -0.026168 997928.000000 0 0 1
18.977065 25.942908 29.275293 43.476502 0.939245 0.832054 0.097497 -0.023104 1084740.000000 0 0 1
17.791865 26.035108 30.039523 43.551696 0.971312 0.809661 0.087571 -0.019735 196419.000000 0 0 1
17.401465 24.881708 30.981343 43.379188 0.960495 0.775318 0.055483 -0.021252 -874518.000000 0 0 1
18.192265 24.577608 32.073254 44.313778 0.933599 0.761537 0.042931 -0.017282 -437892.000000 0 0 1
17.560465 23.649308 32.911839 44.168415 0.932089 0.730045 0.044102 -0.029161 31432.200000 0 0 1
18.161165 23.600008 -33.577165 44.879999 0.914906 2.416072 0.058360 -0.027367 -151624.000000 0 0 1
18.058765 24.878508 -32.943505 45.059224 0.942913 2.390752 0.061178 -0.016723 7673.610000 0 0 1
18.333165 24.776908 -31.575425 44.124909 0.933772 2.368267 0.033211 -0.007141 -146237.000000 0 0 1
18.512565 26.110408 -30.965585 44.534660 0.954048 2.339653 0.040146 0.001796 8631.360000 0 0 1
17.295365 26.857608 -31.002845 44.515583 0.998675 2.341234 0.055832 -0.007813 579690.000000 0 0 1
17.531765 28.155008 -30.494415 45.055262 1.013862 2.314234 0.066025 -0.007330 209428.000000 0 0 1
16.830165 28.492808 -29.139965 44.093448 1.037257 2.292772 0.067447 -0.006979 108358.000000 0 0 1
17.351265 27.671608 -28.062685 43.061567 1.010730 2.280603 0.035778 -0.000445 347296.000000 0 0 1
16.821565 28.048208 -26.811345 42.290841 1.030570 2.257479 0.045195 -0.003371 -198039.000000 0 0 1
17.460665 27.293308 -25.574815 41.277968 1.001666 2.238998 0.039400 -0.000170 487172.000000 0 0 1
18.879765 27.363908 -25.569675 41.940878 0.966846 2.226428 0.044053 0.007198 84.410500 0 0 1
19.429665 26.859708 -24.377875 41.148956 0.944554 2.204868 0.040496 0.010581 -165275.000000 0 0 1
20.957665 26.736108 -24.476875 41.870761 0.905968 2.195161 0.036040 0.012644 -211195.000000 0 0 1
21.561365 26.254208 -23.330075 41.212478 0.883230 2.172554 0.054572 0.009348 49442.600000 0 0 1
22.983965 26.304008 -23.421975 42.056538 0.852657 2.161465 0.059142 0.010737 791830.000000 0 0 1
23.634765 26.182908 -21.999975 41.570972 0.836503 2.128471 0.069815 -0.000440 281632.000000 0 0 1
23.417465 24.906908 -21.436675 40.351738 0.816210 2.130866 0.069919 0.002735 582388.000000 0 0 1
24.243065 24.896508 -20.233775 40.211540 0.798695 2.098075 0.090972 -0.005762 466219.000000 0 0 1
23.971165 23.810308 -19.166475 38.844579 0.782032 2.086807 0.090058 -0.016043 -832268.000000 0 0 1
24.272965 22.501208 -19.613475 38.472972 0.747537 2.105747 0.083845 -0.009629 181100.000000 0 0 1
24.297265 21.642408 -18.477575 37.418868 0.727672 2.087255 0.096548 -0.009224 -1401060.000000 0 0 1
24.183165 20.108908 -18.746975 36.614789 0.693670 2.108314 0.102979 -0.014649 717488.000000 0 0 1
23.074165 19.730208 -19.584075 36.128025 0.707435 2.143700 0.085556 -0.015945 1151760.000000 0 0 1
21.764465 20.135308 -19.177775 35.311608 0.746535 2.144922 0.079612 -0.031090 202907.000000 0 0 1
20.670765 20.009108 -20.314475 35.218217 0.769135 2.185623 0.056800 -0.013692 312328.000000 0 0 1
20.920965 20.651708 -21.586275 36.471182 0.778921 2.204176 0.057558 -0.005214 -42877.900000 0 0 1
21.112965 22.069808 -21.570775 37.391604 0.807553 2.185710 0.056103 -0.000212 55483.300000 0 0 1
20.670065 22.689008 -22.940475 38.318508 0.831928 2.212647 0.052716 0.000092 359435.000000 0 0 1
19.259265 22.673708 -23.035275 37.624995 0.866645 2.229678 0.060970 0.006790 -382693.000000 0 0 1
18.783565 22.959708 -24.315175 38.356202 0.885110 2.257421 0.052821 0.005731 -1067110.000000 0 0 1
17.285465 22.862008 -24.363675 37.617115 0.923417 2.275326 0.048104 0.002259 -829665.000000 0 0 1
16.582265 24.005208 -23.844675 37.680102 0.966287 2.255985 0.049868 -0.009793 -395735.000000 0 0 1
15.221765 23.982708 -24.111675 37.259164 1.005254 2.274616 0.052471 -0.007716 -536881.000000 0 0 1
14.326765 25.095208 -23.560275 37.284209 1.052051 2.254812 0.053741 -0.009258 -100540.000000 0 0 1
14.560365 26.414808 -24.044975 38.573399 1.067017 2.243824 0.052798 -0.007719 -421249.000000 0 0 1
13.526865 27.317608 -23.775875 38.659023 1.111020 2.233201 0.066475 -0.015118 -133297.000000 0 0 1
13.852665 28.725308 -24.342075 40.119525 1.121453 2.222748 0.062103 -0.018572 30749.900000 0 0 1
13.758765 28.719108 -25.763305 40.961429 1.124024 2.251017 0.060490 -0.029955 -123073.000000 0 0 1
13.154465 29.912808 -26.256595 41.919265 1.156490 2.247673 0.071911 -0.035598 26919.600000 0 0 1
14.043765 31.189508 -26.264965 43.126107 1.147716 2.225630 0.071559 -0.029730 -843624.000000 0 0 1
15.095565 31.163608 -27.132915 43.991381 1.119709 2.235439 0.061907 -0.010339 -976870.000000 0 0 1
15.763365 32.407008 -27.161845 45.127194 1.118073 2.216669 0.071518 -0.021611 634584.000000 0 0 1
17.245665 32.280608 -27.655985 45.872695 1.080132 2.217909 0.069003 -0.003675 1207060.000000 0 0 1
18.128065 31.560108 -26.739455 45.162657 1.049415 2.204421 0.036410 -0.002473 1212840.000000 0 0 1
19.394965 31.227808 -27.328315 45.805867 1.015021 2.210069 0.063210 -0.001006 194878.000000 0 0 1
20.277465 30.536108 -26.279255 45.102425 0.984608 2.192791 0.038109 0.009899 -640455.000000 0 0 1
20.694465 31.216608 -25.116525 45.095203 0.985384 2.161525 0.045855 -0.003916 206372.000000 0 0 1
21.510265 32.365508 -25.264015 46.351786 0.984223 2.147244 0.063267 -0.015136 -351427.000000 0 0 1
23.002565 32.012908 -25.449885 46.921647 0.947735 2.144077 0.049423 -0.004361 -445614.000000 0 0 1
23.359465 31.640708 -26.807445 47.596619 0.934843 2.169076 0.058466 0.002228 122175.000000 0 0 1
24.521465 32.252108 -27.310655 48.860747 0.920732 2.163914 0.055530 0.010380 -492491.000000 0 0 1
24.839365 31.813808 -28.763425 49.562557 0.907890 2.189950 0.046461 0.007744 571076.000000 0 0 1
23.886965 32.427608 -29.656795 50.016621 0.935911 2.205500 0.065113 -0.015757 1471900.000000 0 0 1
22.699765 31.620608 -29.829645 49.040289 0.948172 2.224673 0.057868 -0.007959 885850.000000 0 0 1
21.555265 32.118208 -30.755845 49.417919 0.979715 2.242553 0.068290 -0.004167 272372.000000 0 0 1
20.909265 33.346408 -30.387005 49.724746 1.010737 2.228251 0.087604 -0.009005 790088.000000 0 0 1
20.013565 33.797808 -31.429125 50.305313 1.036165 2.245630 0.100994 -0.025973 1168510.000000 0 0 1
18.491065 33.411608 -31.275485 49.360014 1.065322 2.257020 0.107947 -0.025044 659390.000000 0 0 1
18.084265 32.034808 -31.445665 48.395242 1.056874 2.278075 0.097769 -0.018018 209786.000000 0 0 1
18.214365 31.488408 -32.775595 48.964503 1.046376 2.304163 0.108705 -0.024077 190791.000000 0 0 1
17.494765 32.213008 33.901872 49.930768 1.073269 0.824427 0.124703 -0.033624 223557.000000 0 0 1
18.324265 33.291208 33.422949 50.608070 1.067628 0.849409 0.128220 -0.027019 500980.000000 0 0 1
17.858765 33.885408 32.210911 50.046969 1.085756 0.871586 0.115307 -0.036477 937765.000000 0 0 1
16.366165 -33.699995 32.087770 49.327132 -1.118700 0.862541 0.121688 -0.037136 327125.000000 0 0 1
15.514765 33.239708 31.998245 48.677241 1.134097 0.853492 0.128423 -0.038092 -607030.000000 0 0 1
14.154565 33.521508 32.167680 48.567508 1.171255 0.846873 0.113542 -0.037390 128033.000000 0 0 1
13.395265 -33.925195 30.982803 47.856933 -1.194740 0.866622 0.102989 -0.039578 -501631.000000 0 0 1
14.006465 -32.657595 30.673883 46.942376 -1.165637 0.858680 0.114570 -0.033010 395152.000000 0 0 1
13.283165 -32.052595 29.603703 45.609106 -1.177923 0.864429 0.104833 -0.036513 25226.400000 0 0 1
13.852465 -30.721895 29.213943 44.600225 -1.147195 0.856590 0.087969 -0.030983 -196676.000000 0 0 1
13.359365 -29.770495 30.101043 44.394006 -1.148986 0.825700 0.083603 -0.035431 189540.000000 0 0 1
13.933365 -28.500695 29.970033 43.642080 -1.116086 0.813825 0.084951 -0.040862 -382285.000000 0 0 1
13.555665 -27.551995 31.118823 43.717841 -1.113567 0.778724 0.096953 -0.040498 493456.000000 0 0 1
12.218765 -27.065895 30.960543 42.900071 -1.146741 0.764556 0.087466 -0.038240 559152.000000 0 0 1
11.978265 -25.945695 30.073533 41.485844 -1.138283 0.759892 0.080182 -0.033223 -462130.000000 0 0 1
12.280465 -24.539295 30.664813 41.149940 -1.106796 0.729966 0.093343 -0.027660 264489.000000 0 0 1
11.265065 -24.148895 31.578053 41.318812 -1.134319 0.700913 0.096162 -0.033767 202606.000000 0 0 1
11.699865 -22.986595 32.254770 41.299401 -1.099985 0.674533 0.105260 -0.031207 259643.000000 0 0 1
10.814165 -22.425795 33.408496 41.665213 -1.121474 0.640442 0.100618 -0.029466 -131010.000000 0 0 1
10.614665 -23.230295 -33.373515 42.025102 -1.142193 2.488376 0.098699 -0.022611 843882.000000 0 0 1
11.759665 -23.274695 -32.491625 41.661815 -1.102953 2.465286 0.123229 -0.025685 1077990.000000 0 0 1
12.380065 -21.968095 -31.816885 40.597751 -1.057611 2.471414 0.127952 -0.034023 240449.000000 0 0 1
13.043465 -21.087095 -32.720465 41.053944 -1.016847 2.493127 0.117384 -0.027374 -203712.000000 0 0 1
13.916065 -20.200695 -32.143755 40.434464 -0.967565 2.489737 0.111269 -0.030236 -560070.000000 0 0 1
14.393965 -19.117995 -33.103585 40.847659 -0.925441 2.515658 0.093961 -0.023783 -371117.000000 0 0 1
15.239765 -19.544795 33.783598 41.899653 -0.908535 0.632930 0.097005 -0.009255 232653.000000 0 0 1
15.086565 -18.642995 32.669488 40.527289 -0.890450 0.633246 0.079106 -0.003113 354052.000000 0 0 1
16.004965 -17.336295 32.732003 40.349598 -0.825307 0.624578 0.077074 -0.009560 -350926.000000 0 0 1
15.997665 -16.488195 33.887366 40.940682 -0.800497 0.595766 0.066733 -0.011077 -103623.000000 0 0 1
16.623865 -15.268595 33.671530 40.537079 -0.742929 0.590549 0.071701 -0.011115 -1007510.000000 0 0 1
18.117965 -15.279595 33.907323 41.369472 -0.700615 0.610046 0.077482 -0.003612 -891704.000000 0 0 1
18.821265 -16.003995 32.891678 41.136727 -0.704677 0.644218 0.078429 0.000029 -568768.000000 0 0 1
20.189765 -15.758295 32.893628 41.688622 -0.662743 0.661566 0.085299 -0.006328 -525375.000000 0 0 1
20.996165 -16.400195 31.736933 41.437160 -0.663112 0.698348 0.088548 -0.009839 -312742.000000 0 0 1
20.985765 -15.513695 30.637193 40.245679 -0.636585 0.705551 0.082641 -0.005561 636029.000000 0 0 1
21.687265 -16.104495 29.530203 40.021558 -0.638734 0.740906 0.075447 -0.005687 -281134.000000 0 0 1
22.027665 -15.117395 28.372863 38.971438 -0.601466 0.755334 0.078107 -0.006032 -282725.000000 0 0 1
23.095565 -14.256595 28.650233 39.465066 -0.553034 0.758361 0.066902 -0.012520 91228.000000 0 0 1
23.382665 -13.451595 27.561663 38.566043 -0.522045 0.774656 0.074678 -0.015032 5330.100000 0 0 1
24.013465 -12.141595 28.012053 38.842502 -0.468130 0.765306 0.067394 -0.009012 847846.000000 0 0 1
22.998565 -11.199395 28.405293 38.225922 -0.453162 0.733121 0.070142 -0.017509 1197240.000000 0 0 1
23.697065 -9.949895 28.443523 38.335170 -0.397525 0.734793 0.067423 -0.023413 511142.000000 0 0 1
22.758165 -8.757895 28.638013 37.613436 -0.367356 0.705362 0.076538 -0.028211 22000.700000 0 0 1
21.891265 -8.888695 29.737493 37.980980 -0.385701 0.671390 0.087819 -0.034890 -232515.000000 0 0 1
20.846865 -7.950195 29.610163 37.075047 -0.364336 0.645740 0.081819 -0.037823 666657.000000 0 0 1
19.737165 -7.945595 30.748163 37.391679 -0.382720 0.605309 0.058631 -0.027919 564813.000000 0 0 1
20.173765 -7.550595 32.058482 38.623031 -0.358137 0.591625 0.072787 -0.032556 162970.000000 0 0 1
20.671965 -8.658595 32.754296 39.688100 -0.396656 0.600076 0.081293 -0.033582 -359952.000000 0 0 1
20.710065 -8.298895 -33.659985 40.382831 -0.381125 2.556249 0.092487 -0.043881 -267765.000000 0 0 1
19.379665 -8.205295 -33.234265 39.337192 -0.400512 2.577092 0.073907 -0.053350 -244473.000000 0 0 1
19.323265 -7.390595 -32.098425 38.187934 -0.365305 2.569073 0.084541 -0.052371 -858472.000000 0 0 1
17.988465 -7.215095 -31.390495 36.891810 -0.381451 2.588454 0.078118 -0.049875 -495903.000000 0 0 1
18.039065 -6.123595 -30.448835 35.917097 -0.327257 2.582531 0.074749 -0.048152 -6145.810000 0 0 1
16.864465 -6.129395 -29.690755 34.691794 -0.348607 2.597976 0.073284 -0.033835 -239462.000000 0 0 1
16.797165 -4.897195 -28.772405 33.674598 -0.283686 2.595239 0.062550 -0.027524 406474.000000 0 0 1
17.678765 -4.885395 -27.610275 33.147143 -0.269614 2.555234 0.062212 -0.021187 576607.000000 0 0 1
17.367265 -5.790495 -26.580435 32.274932 -0.321823 2.538460 0.068861 -0.027499 151843.000000 0 0 1
16.001865 -5.684095 -25.834105 30.915523 -0.341313 2.560085 0.069553 -0.022688 451023.000000 0 0 1
15.854865 -4.467495 -25.123205 30.041815 -0.274653 2.561249 0.057858 -0.010087 -99091.100000 0 0 1
14.614665 -4.497895 -24.429475 28.820457 -0.298566 2.582324 0.062098 -0.017810 233480.000000 0 0 1
14.615165 -3.298095 -23.462875 27.838588 -0.221945 2.573295 0.067249 -0.017001 57829.700000 0 0 1
14.344865 -2.084795 -24.161175 28.175945 -0.144323 2.601208 0.062806 -0.026286 111888.000000 0 0 1
13.718865 -1.143795 -23.327875 27.086994 -0.083181 2.608463 0.059403 -0.029907 26345.700000 0 0 1
14.166165 0.264205 -23.755075 27.659603 0.018648 2.603790 0.054924 -0.033111 -287504.000000 0 0 1
13.536065 0.755205 -24.936075 28.383150 0.055734 2.643619 0.068467 -0.033441 -360269.000000 0 0 1
14.025465 1.976205 -25.391975 29.075272 0.139980 2.632770 0.053309 -0.015888 -391340.000000 0 0 1
13.244865 2.632205 -26.567515 29.802480 0.196178 2.671338 0.051387 -0.016634 -267276.000000 0 0 1
12.006865 3.077205 -26.096505 28.890510 0.250887 2.698173 0.063746 -0.029458 -703633.000000 0 0 1
11.131965 3.376205 -27.132165 29.520735 0.294472 2.736557 0.056433 -0.032734 -622264.000000 0 0 1
9.896165 4.185205 -26.809555 28.882560 0.400101 2.760413 0.053630 -0.030170 -444074.000000 0 0 1
10.271965 5.499205 -26.446055 28.898933 0.491534 2.726607 0.055606 -0.030962 399033.000000 0 0 1
9.149265 6.351205 -26.242305 28.507989 0.606807 2.740217 0.066364 -0.031206 154769.000000 0 0 1
8.308265 5.337308 -31.585425 33.093099 0.571021 2.838579 0.051529 -0.033106 -52708.000000 0 0 1
8.195165 4.378908 -30.583775 31.964087 0.490732 2.846643 0.041910 -0.016216 309402.000000 0 0 1
8.349465 3.045708 -31.092095 32.337413 0.349780 2.863169 0.031561 -0.014374 -279145.000000 0 0 1
7.983865 1.984308 -30.073445 31.178384 0.243604 2.874570 0.035561 -0.014771 -104570.000000 0 0 1
8.890565 1.763608 -29.002195 30.385519 0.195826 2.838688 0.053996 -0.022145 349034.000000 0 0 1
8.431365 0.635208 -28.239375 29.478020 0.075197 2.850674 0.057227 -0.027617 -119715.000000 0 0 1
9.376265 0.255708 -27.079055 28.657546 0.027265 2.808143 0.063518 -0.034261 -446225.000000 0 0 1
10.552965 -0.215092 -27.663355 29.608656 -0.020379 2.777085 0.069116 -0.021255 -557793.000000 0 0 1
11.437265 -0.720092 -26.670215 29.028088 -0.062877 2.735757 0.072111 -0.027061 55963.700000 0 0 1
12.425665 -1.779092 -27.165965 29.925774 -0.142212 2.708753 0.066947 -0.023547 248626.000000 0 0 1
11.776465 -3.006592 -27.500205 30.066360 -0.249965 2.725438 0.078050 -0.026238 -125908.000000 0 0 1
12.721165 -3.891792 -27.994645 30.994745 -0.296889 2.697978 0.081090 -0.025491 -79093.300000 0 0 1
12.277965 -5.359492 -27.701435 30.770799 -0.411582 2.691141 0.071484 -0.010432 110816.000000 0 0 1
12.140465 -5.498192 -26.323855 29.505361 -0.425248 2.672927 0.068409 -0.010071 90040.600000 0 0 1
11.720765 -6.798692 -25.926815 29.254030 -0.525625 2.660014 0.070874 -0.014447 -6995.510000 0 0 1
11.402365 -6.941992 -24.383875 27.798894 -0.546880 2.640697 0.087811 -0.017060 532391.000000 0 0 1
12.525165 -6.926792 -23.485475 27.503231 -0.505166 2.594262 0.050371 -0.011834 443311.000000 0 0 1
12.089265 -6.708492 -22.142275 26.104301 -0.506607 2.583418 0.076388 -0.018628 -259933.000000 0 0 1
13.231565 -6.614892 -21.147775 25.808128 -0.463594 2.531200 0.069732 -0.019441 -108739.000000 0 0 1
13.965665 -5.378892 -21.173775 25.928768 -0.367640 2.526315 0.056624 -0.018266 320120.000000 0 0 1
14.919365 -5.507392 -20.117875 25.644643 -0.353627 2.472664 0.058345 -0.021213 -2880.360000 0 0 1
15.490765 -4.215692 -19.542875 25.291497 -0.265707 2.453888 0.068282 -0.030634 -379636.000000 0 0 1
16.131365 -3.424592 -20.494875 26.305677 -0.209188 2.464033 0.052450 -0.022721 29664.500000 0 0 1
16.766765 -2.361892 -19.843875 26.086056 -0.139947 2.435200 0.057767 -0.024329 54024.900000 0 0 1
17.990465 -1.716792 -20.526975 27.348874 -0.095140 2.419706 0.026935 -0.023675 347067.000000 0 0 1
19.135965 -2.544492 -20.731775 28.327832 -0.132194 2.391832 0.060289 -0.030097 92891.300000 0 0 1
20.076065 -1.722892 -21.365875 29.368646 -0.085608 2.385477 0.068552 -0.030249 398061.000000 0 0 1
21.502065 -2.344692 -21.588175 30.559543 -0.108616 2.355238 0.050661 -0.020883 -425135.000000 0 0 1
22.300565 -2.351492 -20.395075 30.311777 -0.105057 2.308842 0.048580 -0.015754 1105760.000000 0 0 1
23.621565 -2.898592 -20.550075 31.443374 -0.122099 2.283072 0.057524 -0.017781 693537.000000 0 0 1
24.606365 -2.160192 -21.448775 32.713752 -0.087565 2.285840 0.060464 -0.018670 -1687250.000000 0 0 1
24.235665 -2.105292 -22.832775 33.363683 -0.086650 2.324522 0.064676 -0.026254 434723.000000 0 0 1
25.123465 -1.499892 -23.823075 34.655116 -0.059630 2.328745 0.063260 -0.023953 448524.000000 0 0 1
26.344365 -2.311392 -24.298475 35.913563 -0.087514 2.313907 0.073349 -0.028130 -635206.000000 0 0 1
27.326765 -2.509592 -23.324475 36.015015 -0.091580 2.275269 0.066233 -0.015934 339388.000000 0 0 1
28.558165 -3.094892 -23.743475 37.267945 -0.107950 2.261529 0.059857 -0.015375 780246.000000 0 0 1
29.540665 -2.223692 -24.541675 38.469332 -0.075134 2.262635 0.062739 -0.016589 -795007.000000 0 0 1
29.114065 -2.103292 -25.934755 39.046948 -0.072118 2.297212 0.075474 -0.017331 156705.000000 0 0 1
29.744165 -1.077492 -26.606765 39.922378 -0.036209 2.300250 0.075050 -0.022130 -570281.000000 0 0 1
29.058465 -0.652992 -27.977805 40.343257 -0.022468 2.337124 0.080615 -0.023957 1086070.000000 0 0 1
27.687865 -0.212892 -27.938055 39.334439 -0.007689 2.360677 0.062778 -0.008417 807663.000000 0 0 1
27.397865 1.005108 -27.334045 38.714381 0.036669 2.354692 0.058872 -0.003104 170460.000000 0 0 1
25.873065 1.281408 -27.574905 37.834282 0.049486 2.387414 0.049406 -0.010565 232924.000000 0 0 1
25.016465 0.827608 -26.606535 36.529661 0.033070 2.386713 0.049934 -0.010604 1019150.000000 0 0 1
23.632365 1.150808 -26.944265 35.858143 0.048658 2.420997 0.048207 -0.011911 1377270.000000 0 0 1
22.567265 0.799408 -25.907445 34.367371 0.035409 2.424681 0.051254 -0.014231 -50918.200000 0 0 1
22.707065 1.597208 -24.745675 33.623062 0.070224 2.397899 0.055532 -0.016984 651262.000000 0 0 1
21.639365 1.243708 -23.862775 32.237260 0.057411 2.404199 0.055173 -0.012935 404532.000000 0 0 1
21.766565 1.985808 -22.470975 31.347592 0.090980 2.370045 0.057944 -0.012993 -205719.000000 0 0 1
21.425765 3.362208 -22.543075 31.281913 0.155654 2.375525 0.053447 -0.016202 345291.000000 0 0 1
21.616265 3.855108 -21.232475 30.544112 0.176487 2.339413 0.048274 -0.014203 -186481.000000 0 0 1
21.177965 5.288308 -20.879175 30.206164 0.244704 2.333975 0.062387 -0.007078 135948.000000 0 0 1
22.072665 6.315208 -21.353875 31.353985 0.278665 2.320003 0.073296 -0.003948 591289.000000 0 0 1
21.868765 7.606408 -20.777775 31.109746 0.334732 2.302162 0.071616 -0.003236 -249456.000000 0 0 1
22.333365 7.825708 -19.301375 30.537911 0.337035 2.254987 0.077693 -0.011961 -192795.000000 0 0 1
23.737265 7.932708 -19.159075 31.519133 0.322520 2.224153 0.081626 -0.005617 207832.000000 0 0 1
24.230065 8.212208 -17.900875 31.224634 0.326776 2.181316 0.089025 -0.022784 -146973.000000 0 0 1
24.032765 9.669308 -17.253075 31.124555 0.382521 2.158346 0.081656 -0.030241 -541067.000000 0 0 1
22.712365 9.960008 -16.905075 30.013911 0.413273 2.169100 0.070198 -0.034183 -520683.000000 0 0 1
22.673065 11.285408 -16.533875 30.245617 0.461842 2.149159 0.057585 -0.027182 199132.000000 0 0 1
21.248165 11.910508 -16.234675 29.273015 0.510902 2.158673 0.040228 -0.027942 817763.000000 0 0 1
20.348765 11.764708 -17.298975 29.184502 0.524201 2.205260 0.042695 -0.037478 168222.000000 0 0 1
19.698365 10.470708 -17.328675 28.247908 0.488570 2.231218 0.043468 -0.040479 -855852.000000 0 0 1
18.799565 10.305408 -18.562175 28.358058 0.501439 2.284403 0.054871 -0.011455 -815738.000000 0 0 1
19.401365 10.400308 -19.797475 29.606070 0.492078 2.303251 0.066464 -0.008025 -655805.000000 0 0 1
18.664465 10.008708 -20.925975 29.773023 0.492221 2.350193 0.049163 -0.012389 -426980.000000 0 0 1
19.383665 10.188508 -22.296275 31.251497 0.483936 2.365201 0.075089 -0.007824 -332432.000000 0 0 1
19.495065 11.502108 -22.838975 32.155479 0.533035 2.360674 0.074347 -0.014517 629707.000000 0 0 1
20.262265 11.614908 -24.077575 33.543928 0.520502 2.371423 0.094827 -0.014267 458291.000000 0 0 1
20.349165 13.026108 -24.679075 34.537295 0.569405 2.366796 0.121245 -0.009847 -245857.000000 0 0 1
21.304265 13.126708 -25.692215 35.864636 0.552213 2.369377 0.120646 -0.015635 -111774.000000 0 0 1
21.595165 14.464708 -26.111695 36.842904 0.590177 2.358494 0.109868 -0.015569 673681.000000 0 0 1
20.438865 15.211208 -26.912675 37.059683 0.639798 2.383572 0.088109 -0.015995 1283680.000000 0 0 1
19.215965 15.274708 -26.182275 35.889853 0.671621 2.388413 0.076836 -0.017562 -85031.800000 0 0 1
18.100865 15.687308 -26.934595 36.044491 0.714087 2.414725 0.070695 -0.023434 -263961.000000 0 0 1
16.786765 15.293908 -26.280655 34.732865 0.738897 2.428972 0.058080 -0.030273 -805689.000000 0 0 1
16.521865 13.903108 -26.298975 34.027996 0.699537 2.454137 0.061544 -0.024496 -457128.000000 0 0 1
15.225965 13.609608 -25.883855 32.970068 0.729402 2.473608 0.035297 -0.027107 -566526.000000 0 0 1
14.926165 12.089208 -25.905195 32.249317 0.680769 2.503576 0.031353 -0.026890 -450155.000000 0 0 1
13.594765 11.726008 -25.695755 31.346271 0.711728 2.531751 0.030181 -0.028912 -472438.000000 0 0 1
13.482265 10.290508 -25.656005 30.755432 0.651935 2.557466 0.038294 -0.029329 202495.000000 0 0 1
12.078765 9.633308 -25.526415 29.837812 0.673240 2.597323 0.077266 -0.040856 275068.000000 0 0 1
11.467065 10.032108 -24.301675 28.682890 0.718752 2.581589 0.094705 -0.045429 -136994.000000 0 0 1
10.229965 9.371908 -24.113275 27.819685 0.741652 2.619485 0.090092 -0.041151 109582.000000 0 0 1
9.531965 10.048208 -22.871275 26.737989 0.811758 2.597090 0.095668 -0.039296 -101817.000000 0 0 1
8.890065 11.242408 -23.250675 27.313346 0.901714 2.589172 0.094118 -0.045628 -75034.700000 0 0 1
8.345665 12.059008 -22.192775 26.600546 0.965413 2.557654 0.091477 -0.038698 333995.000000 0 0 1
9.357365 12.828008 -21.286275 26.556046 0.940579 2.500697 0.088226 -0.043976 -76034.300000 0 0 1
10.015365 11.983908 -20.347675 25.650526 0.874643 2.486950 0.110756 -0.046147 207112.000000 0 0 1
10.970665 12.783508 -19.616075 25.856604 0.861567 2.432033 0.130906 -0.042708 -166269.000000 0 0 1
11.925265 11.874708 -18.841275 25.262903 0.783274 2.412543 0.123501 -0.041535 47289.600000 0 0 1
13.003965 11.292408 -19.575175 26.073148 0.715069 2.420037 0.097650 -0.044982 255952.000000 0 0 1
12.593265 10.302608 -20.503375 26.174844 0.685683 2.470791 0.100418 -0.050949 -626748.000000 0 0 1
13.687265 9.642608 -21.401375 27.172412 0.613736 2.477724 0.092536 -0.038273 231586.000000 0 0 1
14.382465 8.688408 -20.579175 26.567766 0.543427 2.456866 0.096778 -0.041806 201598.000000 0 0 1
15.346465 8.014408 -21.369175 27.502479 0.481274 2.460668 0.063803 -0.031806 -252551.000000 0 0 1
15.871965 6.788008 -20.655675 26.919384 0.404132 2.445442 0.100545 -0.033340 82843.800000 0 0 1
16.714865 7.037708 -19.533275 26.654547 0.398516 2.393270 0.069905 -0.021771 336039.000000 0 0 1
17.057665 5.832308 -18.851975 26.084032 0.329456 2.378555 0.061096 -0.032619 144839.000000 0 0 1
17.886565 6.080408 -17.519275 25.764813 0.327687 2.318517 0.079040 -0.027206 439171.000000 0 0 1
19.219965 6.470508 -17.858575 27.022273 0.324738 2.292792 0.073787 -0.037712 712481.000000 0 0 1
20.040965 6.830708 -16.747475 26.995866 0.328489 2.240013 0.077566 -0.046794 294731.000000 0 0 1
20.770365 5.655008 -16.030975 26.839883 0.265820 2.210904 0.077939 -0.047520 -208908.000000 0 0 1
21.896465 5.066208 -16.686775 27.992322 0.227370 2.209456 0.072049 -0.039062 512029.000000 0 0 1
22.364565 4.078608 -15.824775 27.698959 0.180387 2.178901 0.100086 -0.048474 283725.000000 0 0 1
23.810765 3.602908 -16.178175 29.011495 0.150175 2.162345 0.064682 -0.004177 381916.000000 0 0 1
24.340265 2.533608 -15.456075 28.944048 0.103718 2.134119 0.063170 -0.009360 465781.000000 0 0 1
25.665965 2.220308 -15.883775 30.264928 0.086293 2.123305 0.067859 -0.009764 874481.000000 0 0 1
26.347765 1.087708 -14.985775 30.330864 0.041259 2.087569 0.095421 -0.025344 164435.000000 0 0 1
25.638165 -0.110392 -15.086275 29.747662 -0.004306 2.102661 0.092573 -0.027990 87014.300000 0 0 1
26.485565 -1.167392 -15.474275 30.696924 -0.044048 2.099134 0.081966 -0.017373 -400954.000000 0 0 1
25.795765 -2.511792 -15.580675 30.240503 -0.097066 2.112067 0.058711 -0.014049 -428628.000000 0 0 1
25.374465 -3.127392 -14.405775 29.345705 -0.122631 2.083918 0.070816 -0.015839 387505.000000 0 0 1
25.337965 -4.508792 -14.607975 29.592814 -0.176103 2.087058 0.059779 -0.013583 -1417110.000000 0 0 1
24.749265 -5.278992 -13.378975 28.625004 -0.210150 2.057130 0.062712 -0.011344 502576.000000 0 0 1
23.418965 -5.068292 -12.904475 27.215088 -0.213131 2.064813 0.082042 -0.011022 867533.000000 0 0 1
22.482065 -5.320092 -13.945675 26.985709 -0.232363 2.113882 0.094594 -0.017944 -651800.000000 0 0 1
20.962965 -5.396292 -13.596175 25.562117 -0.251950 2.131624 0.097159 -0.020908 318854.000000 0 0 1
20.647065 -6.534292 -12.779875 25.146043 -0.306503 2.103920 0.104593 -0.019528 403040.000000 0 0 1
20.907465 -6.348292 -11.361675 24.627435 -0.294791 2.050304 0.127825 -0.020386 -717639.000000 0 1 0
20.478665 -7.477892 -10.481675 24.190083 -0.350112 2.018953 0.123811 -0.022793 -25999.200000 0 1 0
19.122665 -7.879492 -10.619275 23.249338 -0.390851 2.045141 0.117847 -0.027020 855321.000000 0 1 0
19.028265 -8.967692 -11.571375 24.008146 -0.440411 2.073706 0.107877 -0.024079 770466.000000 0 1 0
17.542065 -9.496292 -11.766075 23.159105 -0.496173 2.103720 0.119478 -0.028428 1445950.000000 0 1 0
16.617365 -8.473992 -12.123375 22.246833 -0.471574 2.147124 0.098405 -0.023396 -174187.000000 0 1 0
15.334265 -8.995792 -12.329975 21.635439 -0.530543 2.177177 0.098391 -0.019796 213906.000000 0 1 0
14.201865 -7.937792 -12.562775 20.555409 -0.509670 2.228330 0.066715 -0.014256 183760.000000 0 1 0
14.340565 -7.127092 -13.739775 21.100442 -0.461235 2.279909 0.060170 -0.017991 631735.000000 0 1 0
15.416465 -6.172392 -13.673875 21.511408 -0.380831 2.259655 0.057279 -0.016786 316310.000000 0 1 0
15.219565 -5.102892 -14.764975 21.810070 -0.323506 2.314448 0.038186 -0.015837 488772.000000 0 1 0
14.175165 -4.213492 -14.299275 20.570807 -0.288927 2.339390 0.047721 -0.021803 615904.000000 0 1 0
13.818565 -3.104292 -15.116175 20.714442 -0.220978 2.388739 0.035432 -0.034321 -299656.000000 0 1 0
14.869565 -2.036792 -15.532075 21.598561 -0.136130 2.373339 0.044413 -0.029141 -861902.000000 0 1 0
15.851765 -2.580692 -16.381975 22.941393 -0.161386 2.366104 0.041852 -0.025306 -144867.000000 0 1 0
17.065465 -1.889692 -16.272075 23.655474 -0.110283 2.329357 0.059753 -0.024124 -137810.000000 0 1 0
18.060265 -2.294592 -15.155075 23.687858 -0.126375 2.265011 0.071807 -0.024979 -895157.000000 0 1 0
17.652665 -2.040992 -13.832175 22.519132 -0.115108 2.232220 0.064067 -0.017534 338017.000000 0 1 0
18.569565 -2.675992 -12.940775 22.791519 -0.143121 2.174614 0.067790 -0.011887 156162.000000 0 1 0
18.066365 -2.717992 -11.474875 21.574378 -0.149325 2.131610 0.071126 -0.010956 -197905.000000 0 1 0
17.821065 -1.412192 -10.935675 20.956470 -0.079078 2.119789 0.062322 -0.010165 586889.000000 0 1 0
17.523065 -1.539092 -9.535975 20.009034 -0.087608 2.067561 0.067078 -0.015543 -859002.000000 0 1 0
17.926865 -0.400292 -8.641075 19.904796 -0.022325 2.019858 0.082020 -0.011223 1134160.000000 0 1 0
19.343865 -0.119092 -8.440875 21.105631 -0.006156 1.982242 0.105030 -0.007767 1824690.000000 0 1 0
19.992865 0.609608 -9.494175 22.141040 0.030482 2.013965 0.090542 -0.000490 -374222.000000 0 1 0
19.536965 1.992308 -9.937275 22.009356 0.101625 2.039245 0.078393 -0.007732 -858532.000000 0 1 0
19.662865 2.977108 -8.935175 21.802037 0.150266 1.993066 0.085804 -0.003068 546953.000000 0 1 0
18.753265 3.978608 -9.328375 21.319776 0.209056 2.023664 0.060845 -0.019998 -307486.000000 0 1 0
19.053065 5.425108 -8.827875 21.688303 0.277396 1.990001 0.095957 -0.009828 377123.000000 0 1 0
18.043765 6.268308 -9.413575 21.295177 0.334352 2.028681 0.056213 -0.022090 1097060.000000 0 1 0
18.498965 7.605008 -9.334875 22.072330 0.390042 2.007464 0.083583 -0.005845 -186864.000000 0 1 0
-27.503795 -29.527222 5.979425 40.793003 0.820863 1.423687 0.087927 -0.013890 -164388.000000 0 0 1
-27.339585 -28.350492 6.806025 39.969054 0.803549 1.399680 0.054302 -0.006772 -20395.200000 0 0 1
-26.081755 -27.736492 6.568225 38.635637 0.816135 1.399962 0.074122 -0.014288 -230109.000000 0 0 1
-25.930415 -26.434592 7.464625 37.774259 0.795026 1.371876 0.051223 0.000007 -553253.000000 0 0 1
-26.793985 -25.354522 7.157625 37.576602 0.757802 1.379144 0.058173 -0.009257 708750.000000 0 0 1
-28.167315 -25.439732 7.555225 38.699599 0.734561 1.374307 0.040155 -0.000782 707638.000000 0 0 1
-28.381125 -25.382242 9.067425 39.140320 0.729677 1.337008 0.054338 0.001296 -666071.000000 0 0 1
-27.904645 -26.555622 9.723725 39.729348 0.760632 1.323535 0.052869 -0.002865 -236861.000000 0 0 1
-28.263495 -26.687112 11.064225 40.415890 0.756719 1.293497 0.047288 -0.005438 -167070.000000 0 0 1
-27.278665 -27.594652 11.859825 40.573955 0.791157 1.274164 0.033346 -0.014154 1028130.000000 0 0 1
-26.082035 -27.005362 12.411625 39.542516 0.802789 1.251519 0.022187 -0.013063 519524.000000 0 0 1
-26.277885 -26.072492 13.443425 39.383089 0.781475 1.222443 0.035567 -0.010888 -85118.700000 0 0 1
-24.880835 -25.537842 13.898225 38.267453 0.798428 1.199111 0.048906 -0.010190 692774.000000 0 0 1
-24.138335 -26.517772 14.608225 38.720171 0.832336 1.183942 0.044725 -0.017349 -218499.000000 0 0 1
-22.921235 -26.007882 15.104125 37.814382 0.848399 1.159903 0.045710 -0.017543 443798.000000 0 0 1
-22.058135 -27.170502 15.777025 38.388957 0.888877 1.147269 0.047031 -0.021617 335835.000000 0 0 1
-22.782435 -27.800892 16.839825 39.692677 0.884286 1.132657 0.044400 -0.016222 596433.000000 0 0 1
-22.026035 -28.894452 17.367425 40.269877 0.919474 1.124890 0.054353 -0.012203 491620.000000 0 0 1
-22.918935 -29.921052 18.159625 41.836813 0.917146 1.121803 0.077476 -0.019631 49061.300000 0 0 1
-23.791635 -30.676962 17.385625 42.536782 0.911140 1.149745 0.071346 -0.018122 38688.300000 0 0 1
-24.399735 -31.702182 18.196525 43.948708 0.914834 1.143908 0.075508 -0.013730 -703045.000000 0 0 1
-25.379315 -32.498752 17.424325 44.764781 0.907791 1.170988 0.065525 -0.020702 -765971.000000 0 0 1
-24.738535 -33.324282 16.499625 44.662518 0.932204 1.192402 0.066098 -0.020250 61258.000000 0 0 1
-25.684985 33.888339 15.975225 45.424066 -0.922239 1.211420 0.072664 -0.025919 -699438.000000 0 0 1
-25.109095 32.986991 14.857925 44.038235 -0.920177 1.226657 0.083672 -0.033307 -114275.000000 0 0 1
-23.976035 32.204575 15.127725 42.904929 -0.930830 1.210462 0.069224 -0.030722 223279.000000 0 0 1
-22.801735 33.015256 15.007625 42.838710 -0.966378 1.212874 0.053800 -0.024572 56892.600000 0 0 1
-21.492835 32.141814 14.891125 41.434090 -0.981396 1.203179 0.046523 -0.027131 532506.000000 0 0 1
-21.433235 31.507021 13.648425 40.476604 -0.973436 1.226863 0.016342 -0.014510 239960.000000 0 0 1
-20.502235 30.423531 13.576425 39.118438 -0.977807 1.216362 0.026818 -0.017899 233367.000000 0 0 1
-20.528335 29.694001 12.196825 38.103921 -0.965913 1.244968 0.024575 -0.016251 52374.400000 0 0 1
-19.932635 30.505891 11.207525 38.125162 -0.992033 1.272422 0.005455 -0.006125 273849.000000 0 0 1
-20.533235 30.201131 9.942925 37.849489 -0.973700 1.304981 0.030310 -0.015864 39374.000000 0 0 1
-19.790835 30.923781 8.852525 37.766713 -1.001492 1.334195 0.009184 -0.008415 -318417.000000 0 0 1
-18.566935 30.439351 8.393625 36.629743 -1.023082 1.339594 0.020126 -0.017760 -509616.000000 0 0 1
-18.097535 31.085701 7.242525 36.691903 -1.043581 1.372104 0.029458 -0.021423 -2514.470000 0 0 1
-17.268135 30.126151 6.387825 35.306908 -1.050320 1.388872 0.040578 -0.019967 -406915.000000 0 0 1
-18.037735 28.952151 6.034025 34.640964 -1.013623 1.395716 0.043309 -0.011640 440503.000000 0 0 1
-17.973835 27.860701 6.924525 33.870732 -0.997851 1.364905 0.029831 -0.009713 275175.000000 0 0 1
-19.113135 26.790871 6.644025 33.573885 -0.951121 1.371589 0.033817 -0.002851 665775.000000 0 0 1
-18.934235 26.070851 5.429525 32.675285 -0.942662 1.403856 0.045138 -0.010911 32047.100000 0 0 1
-20.174135 25.729081 4.873925 33.056565 -0.905827 1.422815 0.039618 -0.008119 -774436.000000 0 0 1
-20.124135 24.921581 3.563425 32.229862 -0.891500 1.460007 0.054785 -0.016329 -880710.000000 0 0 1
-19.749035 25.575401 2.342425 32.397723 -0.913245 1.498431 0.063769 -0.021291 738523.000000 0 0 1
-18.485935 26.225091 2.162725 32.158398 -0.956793 1.503493 0.059427 -0.019213 1228960.000000 0 0 1
-17.122535 25.428361 2.314525 30.743126 -0.978172 1.495439 0.066672 -0.018745 600001.000000 0 0 1
-16.998935 24.283911 1.416125 29.676212 -0.960065 1.523059 0.104958 -0.028293 160318.000000 0 0 1
-16.830935 24.499571 0.029825 29.723900 -0.968856 1.569793 0.090735 -0.029677 -401499.000000 0 0 1
-16.387035 23.220371 -0.745075 28.430190 -0.956243 1.597006 0.100599 -0.037065 -128173.000000 0 0 1
-17.315635 22.152711 -0.817875 28.129037 -0.907346 1.599876 0.099478 -0.042913 182669.000000 0 0 1
-16.962335 21.119011 -1.800175 27.147266 -0.894120 1.637156 0.102624 -0.048985 707594.000000 0 0 1
-15.803835 20.110811 -1.376975 25.614488 -0.904751 1.624580 0.112871 -0.049180 630095.000000 0 0 1
-16.272235 19.136711 -0.493275 25.124543 -0.866119 1.590431 0.126675 -0.057260 -160842.000000 0 0 1
-15.276135 18.326611 0.039025 23.858468 -0.875931 1.569161 0.149654 -0.060481 -360724.000000 0 1 0
-15.869635 17.354611 1.097225 23.542127 -0.830064 1.524173 0.130112 -0.054067 813747.000000 0 1 0
-16.738635 16.333211 0.542525 23.393375 -0.773140 1.547603 0.118889 -0.051932 981655.000000 0 1 0
-17.515335 15.616011 1.486725 23.512914 -0.728134 1.507524 0.147297 -0.060527 367339.000000 0 1 0
-18.362135 14.407011 0.972625 23.359708 -0.665283 1.529147 0.174970 -0.055591 -3952.010000 0 1 0
-19.438935 14.777611 0.154325 24.418718 -0.650002 1.564476 0.185013 -0.048545 -61802.500000 0 1 0
-20.033135 13.618211 -0.384675 24.226641 -0.597029 1.586675 0.166408 -0.035012 -170217.000000 0 1 0
-21.164335 14.011811 -1.379775 25.419750 -0.584798 1.625103 0.159472 -0.019837 -163583.000000 0 0 1
-21.947235 12.974811 -1.970175 25.571633 -0.533910 1.647918 0.130731 -0.020645 1603320.000000 0 0 1
-23.004335 12.390811 -1.144075 26.154168 -0.494072 1.614554 0.139279 -0.024955 569373.000000 0 0 1
-24.305035 13.175611 -0.881975 27.660609 -0.496753 1.602687 0.119307 -0.022382 -616387.000000 0 0 1
-24.090535 14.409711 -0.203275 28.071960 -0.539057 1.578038 0.112267 -0.031382 620349.000000 0 0 1
-25.233705 15.282911 -0.141375 29.501309 -0.544567 1.575588 0.090336 -0.020995 325968.000000 0 0 1
-24.974035 16.598211 0.691525 29.994687 -0.586583 1.547739 0.077014 -0.024579 51931.500000 0 0 1
-24.825735 16.306211 2.074625 29.774380 -0.581160 1.501062 0.087036 -0.024304 134660.000000 0 0 1
-24.473335 17.371611 2.929125 30.154548 -0.617285 1.473506 0.073889 -0.026905 551249.000000 0 0 1
-25.706105 18.258211 3.355225 31.708416 -0.617584 1.464783 0.081506 -0.026476 169710.000000 0 0 1
-26.606085 17.541711 4.220725 32.146693 -0.582894 1.439120 0.096824 -0.025931 611574.000000 0 0 1
-27.893145 18.125011 4.323225 33.544505 -0.576236 1.441557 0.092764 -0.029020 362150.000000 0 0 1
-28.823465 17.997611 3.089225 34.121100 -0.558174 1.480135 0.077679 -0.035245 -750129.000000 0 0 1
-30.020865 18.748711 3.186525 35.537592 -0.558256 1.481009 0.083765 -0.035195 63539.500000 0 0 1
-30.650295 18.778411 1.963925 35.998976 -0.549681 1.516214 0.094667 -0.033935 10613.700000 0 0 1
-31.912185 19.692811 1.861825 37.545449 -0.552894 1.521187 0.104642 -0.041444 -245014.000000 0 0 1
-33.088685 19.153011 2.349625 38.304303 -0.524714 1.509417 0.134870 -0.029262 -560348.000000 0 0 1
-34.167001 20.042711 2.435225 39.686579 -0.530516 1.509396 0.133941 -0.026022 -41124.400000 0 0 1
-34.505041 20.594511 3.859425 40.368637 -0.538104 1.475046 0.124976 -0.038050 -593472.000000 0 0 1
-33.611205 21.533111 4.350525 40.153643 -0.569776 1.462236 0.117612 -0.038212 15712.400000 0 0 1
-34.026565 21.968311 5.649725 40.894171 -0.573292 1.432198 0.102578 -0.034558 73988.600000 0 0 1
-32.991865 22.876211 6.379325 40.650707 -0.606276 1.413215 0.106820 -0.030244 -213745.000000 0 0 1
-32.937425 24.098731 5.656225 41.202132 -0.631655 1.433082 0.091966 -0.022802 647140.000000 0 0 1
-31.987735 25.003991 6.227925 41.075562 -0.663466 1.418588 0.091947 -0.024774 58414.000000 0 0 1
-32.356815 26.479541 6.012725 42.240767 -0.685837 1.427967 0.091453 -0.019246 192026.000000 0 0 1
-33.324505 26.941361 6.963925 43.414926 -0.679875 1.409696 0.103268 -0.012109 606125.000000 0 0 1
-33.813315 28.281461 6.670825 44.583418 -0.696545 1.420607 0.099303 -0.008254 -295463.000000 0 0 1
-34.828370 28.705341 7.729225 45.790314 -0.689320 1.401188 0.109490 -0.005946 -1186870.000000 0 0 1
-34.344478 28.939021 9.030225 45.809989 -0.700188 1.372373 0.109162 -0.025830 -106764.000000 0 0 1
-35.280834 29.356711 9.994925 46.972888 -0.694002 1.356376 0.123019 -0.021069 -478665.000000 0 0 1
-36.532985 28.554851 10.322325 47.503567 -0.663432 1.351753 0.111745 -0.012905 -275741.000000 0 0 1
-36.101465 27.295111 10.836125 46.537732 -0.647372 1.335793 0.104418 -0.021486 472439.000000 0 0 1
37.015012 26.683121 11.540125 47.066703 0.624598 1.323084 0.110056 -0.015249 393923.000000 0 0 1
-36.594065 25.490981 12.362125 46.278913 -0.608432 1.300391 0.122510 -0.018360 -168101.000000 0 0 1
-35.638407 25.816931 13.304525 45.974127 -0.626923 1.277205 0.134858 -0.031818 -589364.000000 0 0 1
-35.254987 24.691561 14.011325 45.264826 -0.610975 1.256086 0.143827 -0.024639 -352499.000000 0 0 1
-33.952955 24.856541 14.799625 44.605826 -0.631938 1.232599 0.134689 -0.028866 -376412.000000 0 0 1
-34.055975 25.840801 15.808325 45.579157 -0.649093 1.216605 0.131149 -0.032937 -1044620.000000 0 0 1
-32.875575 26.107991 16.452725 45.090163 -0.671161 1.197287 0.148224 -0.027222 -1213250.000000 0 0 1
-32.968525 27.344481 17.329025 46.205404 -0.692419 1.186353 0.140598 -0.036132 -342894.000000 0 0 1
-32.931095 28.582241 16.596525 46.656684 -0.714818 1.207116 0.157107 -0.038438 23407.400000 0 0 1
-33.174875 29.742031 17.377025 47.823862 -0.730891 1.198930 0.133770 -0.039901 -35080.600000 0 0 1
-32.889105 31.070511 16.582125 48.187517 -0.756972 1.219499 0.106896 -0.035308 -359595.000000 0 0 1
-31.557405 31.170881 16.183425 47.216489 -0.779236 1.220954 0.112856 -0.035540 -744403.000000 0 0 1
-31.226765 32.552423 15.929225 47.838387 -0.806180 1.231334 0.110037 -0.030527 302118.000000 0 0 1
-29.751245 32.732454 15.429725 46.846841 -0.833074 1.235165 0.120686 -0.033001 658648.000000 0 0 1
-29.403745 32.146584 14.154825 45.807665 -0.829931 1.256649 0.122349 -0.034938 258153.000000 0 0 1
-28.979055 30.744761 14.292625 44.601626 -0.814954 1.244591 0.133972 -0.037649 132220.000000 0 0 1
-30.041325 29.662941 13.903625 44.448645 -0.779061 1.252655 0.155774 -0.035950 233310.000000 0 0 1
-30.336585 29.731831 12.559825 44.294914 -0.775331 1.283302 0.162024 -0.037598 -1374680.000000 0 0 1
-31.437275 28.965151 12.408125 44.511165 -0.744493 1.288289 0.156079 -0.038857 -1019160.000000 0 0 1
-31.671835 28.772231 10.861625 44.146589 -0.737463 1.322209 0.144472 -0.033724 152721.000000 0 0 1
-30.716075 27.809481 10.426325 42.726488 -0.735775 1.324282 0.134193 -0.021454 109401.000000 0 0 1
-30.536565 27.825261 9.023625 42.286555 -0.738975 1.355750 0.122967 -0.022463 301120.000000 0 0 1
-29.339315 27.013971 8.449225 40.766891 -0.744158 1.362026 0.126466 -0.030338 197298.000000 0 0 1
-28.924145 27.227521 7.117925 40.356027 -0.755192 1.393491 0.113353 -0.031335 -623213.000000 0 0 1
-27.825975 26.434721 6.820725 38.982068 -0.759764 1.394920 0.099608 -0.026393 -443642.000000 0 0 1
-27.360265 26.648241 5.360025 38.567379 -0.772215 1.431367 0.093531 -0.030330 -167837.000000 0 0 1
-26.560635 27.758061 5.014425 38.744312 -0.807439 1.441009 0.071195 -0.021215 184380.000000 0 0 1
-26.397735 27.923171 3.620825 38.596039 -0.813473 1.476845 0.058285 -0.020873 -482820.000000 0 0 1
-25.476315 29.093721 3.289925 38.811220 -0.851591 1.485927 0.050159 -0.016658 -403532.000000 0 0 1
-24.166435 28.784801 3.679025 37.763959 -0.872397 1.473220 0.040852 -0.019585 -262336.000000 0 0 1
-23.250735 29.853841 3.471225 37.998657 -0.909105 1.479318 0.030323 -0.009797 934518.000000 0 0 1
-21.755035 29.410531 3.364725 36.736661 -0.933918 1.479077 0.017332 -0.009366 382612.000000 0 0 1
-20.871135 30.442241 3.128125 37.042131 -0.969802 1.486248 0.019126 -0.006459 -54560.400000 0 0 1
-19.516935 30.014081 3.340425 35.957117 -0.994239 1.477762 0.013828 -0.015672 945717.000000 0 0 1
-18.459735 30.920541 2.646625 36.108812 -1.032582 1.497435 0.015767 -0.013054 20638.100000 0 0 1
-18.285435 32.162676 3.366225 37.150052 -1.053838 1.480060 0.016641 -0.009241 55704.300000 0 0 1
-17.498235 33.065006 2.607225 37.500406 -1.084057 1.501215 0.026847 -0.011288 -41761.300000 0 0 1
-17.047435 -33.785652 3.445825 37.999461 1.103494 1.479991 0.037466 -0.022433 637143.000000 0 0 1
-18.118735 -32.871052 3.736825 37.719470 1.067027 1.471565 0.038311 -0.020561 680117.000000 0 0 1
-17.606035 -31.877932 4.601025 36.706190 1.066193 1.445118 0.048305 -0.021691 515526.000000 0 0 1
-18.675735 -30.774982 4.914025 36.332220 1.025357 1.435128 0.054413 -0.018159 310634.000000 0 0 1
-19.083035 -29.989992 3.798025 35.748941 1.004103 1.464354 0.070628 -0.016913 -41124.800000 0 0 1
-19.865135 -28.921502 4.221725 35.339776 0.968941 1.451049 0.084381 -0.021490 -509245.000000 0 0 1
-20.414635 -28.153422 3.041425 34.908777 0.943409 1.483561 0.083304 -0.033010 -375943.000000 0 0 1
-19.512935 -27.190522 2.575025 33.566499 0.948331 1.494007 0.102169 -0.044631 -70597.300000 0 0 1
-20.078035 -26.379332 1.579725 33.188735 0.920212 1.523180 0.102482 -0.044520 43145.000000 0 0 1
-19.168535 -25.163872 1.323925 31.660795 0.919819 1.528968 0.091358 -0.040431 585305.000000 0 0 1
-17.857535 -25.500982 0.904225 31.144971 0.959890 1.541759 0.111108 -0.044639 113850.000000 0 0 1
-16.947535 -24.404992 0.924325 29.726704 0.963819 1.539697 0.103133 -0.032095 513182.000000 0 0 1
-15.496235 -24.759292 0.513425 29.213343 1.011568 1.553220 0.103511 -0.030311 162249.000000 0 0 1
-15.308435 -24.824692 -0.884375 29.178684 1.018216 1.601110 0.101084 -0.029721 71599.900000 0 0 1
-14.992835 -23.611192 -1.486975 28.008651 1.005047 1.623911 0.103867 -0.032947 -434348.000000 0 0 1
-15.068935 -23.484192 -3.018075 28.065795 1.000304 1.678540 0.096323 -0.019890 -404380.000000 0 0 1
-14.084735 -24.179292 -3.693975 28.225225 1.043335 1.702048 0.103309 -0.015265 -401846.000000 0 0 1
-14.273435 -23.976592 -5.057575 28.358190 1.033835 1.750102 0.097256 -0.003311 550336.000000 0 0 1
-13.276835 -24.766392 -5.985275 28.731029 1.078701 1.780654 0.112981 -0.008826 338733.000000 0 0 1
-13.541035 -26.164002 -6.053175 30.075830 1.093212 1.773444 0.086356 -0.010428 190859.000000 0 0 1
-12.578035 -26.839542 -6.851875 30.422297 1.132551 1.797971 0.093242 -0.002533 169265.000000 0 0 1
23.477465 12.375908 27.866163 38.482171 0.485123 0.761022 0.022973 0.002138 -262273.000000 0 0 1
24.373865 11.350408 28.211583 38.971919 0.435816 0.761365 0.036542 -0.000078 149272.000000 0 0 1
23.965865 10.563708 29.336173 39.326399 0.415161 0.728812 0.049862 0.002094 -86207.400000 0 0 1
24.110865 11.270308 30.720973 40.646425 0.437259 0.713906 0.060797 -0.012848 193849.000000 0 0 1
23.177165 12.314608 30.891233 40.535155 0.488392 0.704269 0.039048 -0.006918 282434.000000 0 0 1
23.540265 13.013808 32.088787 41.871154 0.505015 0.697625 0.050305 -0.010810 -10166.000000 0 0 1
22.391065 14.014008 32.408880 41.810139 0.559228 0.683853 0.034079 -0.011776 691044.000000 0 0 1
21.239765 13.296208 32.887161 41.345884 0.559322 0.651103 0.033233 -0.003054 409068.000000 0 0 1
20.503665 14.061008 33.819870 41.974943 0.601119 0.633914 0.028149 -0.000378 -132816.000000 0 0 1
19.410765 13.228808 -33.413875 40.844415 0.598215 2.528856 0.032801 0.002337 -365883.000000 0 0 1
18.216365 13.026708 33.834247 40.574467 0.620795 0.584695 0.035735 0.009192 -669190.000000 0 0 1
17.274765 12.326708 -33.364895 39.542148 0.619774 2.575085 0.032859 0.001772 192049.000000 0 0 1
15.929265 12.098208 33.817551 39.290391 0.649551 0.534138 0.034755 0.006811 646103.000000 0 0 1
16.097765 11.054508 32.871322 38.234330 0.601751 0.536049 0.022488 0.010910 1333110.000000 0 0 1
14.788565 10.748308 32.306276 37.120388 0.628486 0.514963 0.032507 0.015517 1495920.000000 0 0 1
14.841265 9.637608 31.322283 35.975437 0.575939 0.514259 0.032792 0.017274 65239.900000 0 0 1
15.417965 8.488508 31.872493 36.409123 0.503273 0.504537 0.030010 0.008746 -84436.600000 0 0 1
15.804665 7.643408 30.825023 35.473809 0.450456 0.517716 0.029065 -0.001505 12059.400000 0 0 1
16.011365 6.183108 31.305043 35.701545 0.368527 0.501518 0.045414 -0.009298 -226136.000000 0 0 1
14.845965 5.460108 31.635333 35.369616 0.352429 0.463661 0.047117 -0.004123 -399636.000000 0 0 1
15.102065 4.121008 31.995652 35.619893 0.266392 0.455020 0.070333 -0.015268 88504.800000 0 0 1
13.880165 3.206308 32.263025 35.268146 0.227017 0.415803 0.056890 -0.016216 43761.400000 0 0 1
14.305465 1.898608 32.628336 35.677154 0.131948 0.416417 0.072468 -0.024860 -651191.000000 0 0 1
13.263665 0.998108 32.778458 35.374402 0.075110 0.385488 0.071390 -0.028581 -818552.000000 0 0 1
13.665165 -0.395592 33.407133 36.096118 -0.028941 0.388430 0.045436 -0.027891 73557.100000 0 0 1
14.563365 -1.047492 32.509688 35.638022 -0.071803 0.422128 0.059786 -0.028544 227239.000000 0 0 1
14.773465 -2.386792 32.943305 36.183054 -0.160175 0.426396 0.083878 -0.044059 51965.100000 0 0 1
15.291365 -3.427092 31.859403 35.504821 -0.220476 0.457123 0.089537 -0.048231 -427704.000000 0 0 1
15.564765 -4.783392 32.298574 36.170991 -0.298160 0.466959 0.093388 -0.054586 -246163.000000 0 0 1
16.777065 -4.965592 32.959711 37.315808 -0.287760 0.488018 0.081527 -0.049754 510348.000000 0 0 1
18.158365 -4.786192 32.212118 37.286115 -0.257719 0.527800 0.088240 -0.051779 337488.000000 0 0 1
18.407965 -3.430892 32.018321 37.091738 -0.184267 0.529183 0.091664 -0.053221 -263793.000000 0 0 1
19.544965 -3.201592 31.235293 36.985124 -0.162364 0.565097 0.107756 -0.052324 -389890.000000 0 0 1
19.677565 -1.649192 31.014383 36.767082 -0.083615 0.566962 0.108915 -0.046778 -182394.000000 0 0 1
20.079665 -1.113892 32.248204 38.005004 -0.055417 0.557604 0.102318 -0.051490 49616.500000 0 0 1
19.982665 0.284908 32.475400 38.131872 0.014257 0.551651 0.081146 -0.039706 414426.000000 0 0 1
21.007065 1.231408 31.706473 38.054087 0.058552 0.585936 0.094318 -0.031343 38669.900000 0 0 1
20.830365 1.307508 30.324553 36.812935 0.062687 0.602807 0.111130 -0.033323 107693.000000 0 0 1
21.620565 2.332908 29.723683 36.829182 0.107486 0.631626 0.099116 -0.023029 105814.000000 0 0 1
21.032765 3.752708 29.826893 36.689284 0.176564 0.621580 0.087375 -0.008146 -141407.000000 0 0 1
20.786165 4.199508 31.150053 37.683237 0.199350 0.597706 0.083045 -0.017141 393987.000000 0 0 1
20.032965 5.394808 31.165523 37.439464 0.263056 0.587328 0.075385 -0.013543 -150277.000000 0 0 1
19.738065 5.951708 32.557398 38.535674 0.292864 0.564486 0.072682 -0.010414 -81542.700000 0 0 1
18.641465 5.269308 33.133742 38.381176 0.275479 0.529062 0.065572 -0.012256 167452.000000 0 0 1
18.474365 5.631308 -33.455925 38.630463 0.295871 2.618044 0.058333 -0.012186 444669.000000 0 0 1
17.218965 4.993208 -32.762215 37.346855 0.282242 2.640882 0.071598 -0.015106 509624.000000 0 0 1
17.454665 3.594108 -32.707905 37.247684 0.203073 2.642713 0.077184 -0.018222 602526.000000 0 0 1
16.270965 2.922308 -32.317115 36.299864 0.177708 2.668760 0.086613 -0.015512 44723.800000 0 0 1
16.392265 1.457308 -32.764265 36.665067 0.088669 2.676121 0.080316 -0.036497 -198034.000000 0 0 1
17.465465 0.744908 -32.192185 36.632419 0.042625 2.644116 0.081139 -0.029719 105609.000000 0 0 1
17.454765 -0.625792 -32.599295 36.983435 -0.035837 2.649734 0.085582 -0.035646 132788.000000 0 0 1
18.705265 -1.422992 -32.070885 37.154455 -0.075928 2.612326 0.080421 -0.037355 423154.000000 0 0 1
18.675765 -1.561392 -30.668525 35.941349 -0.083411 2.593066 0.080453 -0.037439 493336.000000 0 0 1
19.112265 -0.418792 -29.915395 35.501900 -0.021909 2.572967 0.081704 -0.033170 -338891.000000 0 0 1
18.788165 -0.603492 -28.368155 34.031038 -0.032110 2.556383 0.059603 -0.022953 -312493.000000 0 0 1
17.416465 -0.696992 -28.069465 33.041094 -0.039998 2.585894 0.059947 -0.029830 34256.000000 0 0 1
17.032965 -0.799192 -26.682775 31.665929 -0.046886 2.572952 0.061791 -0.028331 31936.200000 0 0 1
17.612265 -2.057492 -25.952215 31.431554 -0.116294 2.542192 0.067234 -0.020437 -412679.000000 0 0 1
18.865465 -1.647492 -25.421325 31.699586 -0.087107 2.501340 0.063438 -0.022664 -244954.000000 0 0 1
19.688865 -2.645992 -24.903875 31.856799 -0.133590 2.468255 0.062875 -0.021805 258180.000000 0 0 1
20.518465 -3.382792 -25.992015 33.287168 -0.163396 2.466809 0.073904 -0.031539 -25908.300000 0 0 1
21.634865 -2.646592 -26.489375 34.303918 -0.121725 2.453088 0.070110 -0.017832 73633.200000 0 0 1
21.849565 -2.814492 -27.884375 35.536787 -0.128107 2.472947 0.091731 -0.024801 1290180.000000 0 0 1
23.295965 -2.364592 -28.393655 36.803436 -0.101156 2.451983 0.077968 -0.024934 1844670.000000 0 0 1
24.341465 -3.212192 -27.869575 37.142136 -0.131206 2.419387 0.075984 -0.030344 554207.000000 0 0 1
25.598465 -2.664392 -28.264475 38.226443 -0.103711 2.402969 0.061394 -0.024446 -156627.000000 0 0 1
26.780465 -3.549992 -27.944735 38.867775 -0.131791 2.373114 0.082459 -0.025204 -798841.000000 0 0 1
26.938465 -4.693492 -28.831995 39.736554 -0.172499 2.382671 0.113572 -0.040212 1195330.000000 0 0 1
28.199765 -5.406992 -28.720475 40.611919 -0.189440 2.356317 0.098201 -0.039290 1014880.000000 0 0 1
28.201265 -6.444492 -27.592285 39.977206 -0.224660 2.332562 0.087466 -0.033558 -146303.000000 0 0 1
28.277765 -6.003492 -26.234405 39.037391 -0.209198 2.307747 0.073691 -0.016130 304982.000000 0 0 1
28.313465 -7.159392 -25.440555 38.731525 -0.247670 2.287421 0.056875 -0.013991 -207142.000000 0 0 1
28.419865 -6.920592 -23.981075 37.824268 -0.238863 2.257528 0.051537 -0.018282 -135469.000000 0 0 1
29.683465 -6.520392 -23.498175 38.415984 -0.216230 2.228975 0.031180 -0.011923 24866.100000 0 0 1
29.679465 -6.229692 -22.119375 37.535936 -0.206896 2.200970 0.041849 -0.009394 -416334.000000 0 0 1
30.981565 -5.660892 -21.556075 38.165003 -0.180724 2.171002 0.035198 -0.011224 -393758.000000 0 0 1
31.354065 -4.392692 -22.114975 38.619234 -0.139194 2.180521 0.041633 -0.019773 176921.000000 0 0 1
32.576265 -3.878092 -21.616775 39.287881 -0.118489 2.153418 0.040031 -0.015077 217077.000000 0 0 1
32.974365 -2.472992 -22.169175 39.810762 -0.074857 2.161402 0.053467 -0.022857 -341476.000000 0 0 1
32.217965 -1.394792 -21.773775 38.910667 -0.043265 2.164680 0.046953 -0.020276 -388888.000000 0 0 1
32.448565 -0.247592 -22.602075 39.545221 -0.007630 2.179190 0.054970 -0.018583 -48993.000000 0 0 1
31.403265 0.860508 -22.384475 38.574218 0.027395 2.189889 0.051949 -0.009409 707798.000000 0 0 1
30.165965 0.607908 -23.065275 37.978440 0.020149 2.223486 0.041131 -0.009450 576201.000000 0 0 1
29.123165 1.482008 -22.740475 36.979512 0.050844 2.233116 0.039972 -0.003510 -759457.000000 0 0 1
27.770265 1.229708 -23.374275 36.318818 0.044253 2.269970 0.049773 -0.005097 -1221090.000000 0 0 1
26.980665 2.307608 -23.052875 35.562851 0.085321 2.276053 0.053836 -0.003874 -488343.000000 0 0 1
26.030265 2.542708 -24.093975 35.560648 0.097374 2.315217 0.059703 -0.013550 -256624.000000 0 0 1
25.056665 3.626608 -23.648975 34.644809 0.143738 2.322128 0.072292 -0.008694 -491533.000000 0 0 1
25.729865 4.866908 -23.408075 35.123364 0.186945 2.300237 0.069266 -0.002483 -50291.100000 0 0 1
24.880165 5.927208 -23.108675 34.469773 0.233871 2.305549 0.085095 -0.011678 -296860.000000 0 0 1
25.605265 7.240708 -22.657775 34.948995 0.275587 2.276159 0.101613 -0.001836 36277.000000 0 0 1
26.366965 7.870908 -23.665075 36.293303 0.290093 2.281082 0.102537 -0.003334 36227.900000 0 0 1
26.785265 9.127808 -23.167375 36.571773 0.328435 2.256835 0.118150 -0.005629 -217862.000000 0 0 1
27.768165 9.891208 -24.101275 38.075956 0.342193 2.256191 0.155373 -0.006863 -506266.000000 0 0 1
27.401165 10.319608 -25.372395 38.743730 0.360183 2.284817 0.147476 -0.015878 -279525.000000 0 0 1
26.203865 11.059408 -25.433915 38.155433 0.399371 2.300417 0.149341 -0.019258 -36777.800000 0 0 1
25.811165 11.422308 -26.866415 38.967802 0.416628 2.331528 0.137866 -0.019050 -270023.000000 0 0 1
25.314365 10.394308 -27.728605 38.958109 0.389619 2.362789 0.116014 -0.013546 516144.000000 0 0 1
26.291165 9.460208 -28.213005 39.707613 0.345400 2.361031 0.116243 -0.023833 574690.000000 0 0 1
27.282465 10.001508 -29.303815 41.268349 0.351378 2.360408 0.102227 -0.016981 -424392.000000 0 0 1
28.316465 10.870408 -28.804165 41.829032 0.366542 2.330376 0.088252 -0.016834 898955.000000 0 0 1
29.239965 11.269908 -29.802845 43.245762 0.367882 2.331113 0.088795 -0.014259 318662.000000 0 0 1
30.082065 10.247908 -30.600125 44.117093 0.328335 2.337287 0.063533 -0.010539 -1304090.000000 0 0 1
29.333765 9.456408 -31.447475 44.032228 0.311854 2.366266 0.065157 -0.008630 -296034.000000 0 0 1
29.929465 8.191608 -31.696585 44.357061 0.267155 2.366817 0.060948 -0.003550 24032.000000 0 0 1
28.957065 7.263908 -32.505975 44.135183 0.245779 2.398692 0.069897 -0.019693 -93067.200000 0 0 1
27.813765 7.076408 -31.729135 42.783397 0.249135 2.406282 0.080272 -0.025016 -800605.000000 0 0 1
26.828865 6.410108 -32.487975 42.618611 0.234529 2.437649 0.071103 -0.024011 463957.000000 0 0 1
25.454765 6.318708 -31.722685 41.160659 0.243315 2.450742 0.094125 -0.018076 140708.000000 0 0 1
24.926565 7.645808 -31.616165 40.980165 0.297623 2.451991 0.113143 -0.019080 -200967.000000 0 0 1
23.862965 7.727808 -30.712165 39.653464 0.313183 2.456743 0.108736 -0.017452 677569.000000 0 0 1
22.413965 7.419008 -31.234725 39.153998 0.319649 2.494335 0.111193 -0.020328 452315.000000 0 0 1
21.910665 8.455608 -32.040705 39.726330 0.368304 2.509065 0.100552 -0.019357 155121.000000 0 0 1
20.530965 8.314308 -32.344795 39.202474 0.384779 2.541123 0.072927 -0.013975 255121.000000 0 0 1
20.028365 9.328808 -33.377915 40.028081 0.435899 2.556865 0.067601 -0.007908 -25547.000000 0 0 1
20.700165 9.116708 33.318725 40.270940 0.414856 0.596398 0.053078 -0.010153 45501.100000 0 0 1
20.457165 10.135008 32.368580 39.609834 0.459982 0.614286 0.030925 -0.004450 511769.000000 0 0 1
19.184065 9.900108 31.478013 38.169435 0.476412 0.601140 0.031774 0.000138 367749.000000 0 0 1
19.221665 8.863208 30.503063 37.127695 0.432050 0.606634 0.021694 -0.000060 921399.000000 0 0 1
20.272865 8.960808 29.463513 36.869821 0.416190 0.644962 0.040131 -0.001230 502120.000000 0 0 1
19.994365 9.778508 28.142473 35.880254 0.454860 0.669158 0.029556 0.001277 -268422.000000 0 0 1
18.952865 9.365008 27.287633 34.518537 0.458933 0.659137 0.022619 0.013842 462179.000000 0 0 1
17.721265 9.987308 27.666043 34.339474 0.513208 0.634003 0.024413 -0.000979 -429275.000000 0 0 1
16.491565 9.410308 26.991963 33.001389 0.518531 0.613038 0.042781 -0.003357 -819520.000000 0 0 1
16.450165 9.559808 25.577743 31.878187 0.526435 0.639559 0.046538 -0.003436 608404.000000 0 0 1
15.225565 9.111108 24.962293 30.625907 0.539248 0.617944 0.063713 -0.006795 699882.000000 0 0 1
15.096765 7.583608 24.684163 29.912060 0.465513 0.600197 0.060510 -0.009112 -280477.000000 0 0 1
14.931365 6.803308 25.840313 30.609679 0.427533 0.565748 0.051724 -0.007442 792.473000 0 0 1
14.611865 5.451608 25.564723 29.946313 0.357099 0.547775 0.057492 -0.010876 -243520.000000 0 0 1
14.705265 4.625708 26.913663 31.015919 0.304762 0.520165 0.054355 -0.010283 -482221.000000 0 0 1
15.875065 3.912808 27.184893 31.722959 0.241658 0.541480 0.042057 -0.002950 -228490.000000 0 0 1
16.076165 3.727808 28.567653 32.991672 0.227857 0.523840 0.041550 -0.006590 74066.100000 0 0 1
17.187165 2.686008 28.866853 33.703241 0.155026 0.542345 0.064200 -0.012900 99017.400000 0 0 1
16.877965 1.260608 28.750503 33.362348 0.074551 0.532058 0.055600 -0.019641 843257.000000 0 0 1
15.838865 0.774308 29.652483 33.626462 0.048848 0.491089 0.049361 -0.020289 822109.000000 0 0 1
15.779365 -0.769392 29.501453 33.465147 -0.048721 0.491645 0.057578 -0.027164 156971.000000 0 0 1
14.983465 -1.342792 28.434653 32.168879 -0.089379 0.486621 0.047834 -0.024766 530217.000000 0 0 1
15.536765 -1.179292 27.152393 31.305498 -0.075758 0.520971 0.054560 -0.022278 -184764.000000 0 0 1
16.736365 -2.144592 26.785693 31.657203 -0.127445 0.562139 0.060283 -0.028883 -214834.000000 0 0 1
17.974365 -2.033492 27.380513 32.816236 -0.112654 0.583828 0.079198 -0.036066 -652558.000000 0 0 1
18.682965 -0.892792 26.976833 32.826815 -0.047750 0.606246 0.080223 -0.032823 -892816.000000 0 0 1
20.135365 -0.765792 27.472623 34.069992 -0.038014 0.632828 0.104948 -0.025146 21859.300000 0 0 1
21.135465 -1.526392 26.878063 34.226715 -0.072094 0.667624 0.076940 -0.027432 -1007060.000000 0 0 1
22.405565 -1.174292 27.317643 35.350275 -0.052363 0.687602 0.080202 -0.026319 279038.000000 0 0 1
23.559465 -1.760992 26.393353 35.422571 -0.074608 0.730112 0.078861 -0.027154 410025.000000 0 0 1
23.580765 -1.327692 25.047503 34.426627 -0.056245 0.756035 0.081581 -0.010607 24083.900000 0 0 1
22.644565 -2.087592 24.322703 33.297571 -0.091930 0.751794 0.102902 -0.005690 -184575.000000 0 0 1
22.629665 -1.740592 22.774613 32.152984 -0.076765 0.783680 0.088672 -0.029051 -353963.000000 0 0 1
21.874265 -0.601692 22.648213 31.492651 -0.027500 0.768206 0.068623 -0.019094 -374154.000000 0 0 1
21.623665 -0.194492 21.347713 30.386602 -0.008994 0.791840 0.055292 -0.009150 -14614.500000 0 0 1
-31.509095 -27.663295 -9.837375 43.068026 0.720496 1.801245 0.014308 0.000986 -71568.500000 0 0 1
-31.467445 -26.443395 -9.070775 42.091949 0.698860 1.787999 0.021051 0.006229 -251053.000000 0 0 1
-32.056275 -26.621695 -7.812575 42.395232 0.693045 1.756135 0.038866 -0.004163 -489207.000000 0 0 1
-32.142775 -25.261695 -6.962775 41.470368 0.666097 1.739493 0.070939 -0.013806 44528.600000 0 0 1
-30.890965 -24.670795 -6.695375 40.096482 0.673912 1.738564 0.062339 -0.011628 -158612.000000 0 0 1
-30.150925 -25.272795 -5.614875 39.740649 0.697609 1.712559 0.072880 -0.013393 215073.000000 0 0 1
-28.979755 -24.478795 -5.055375 38.270019 0.701401 1.703281 0.074623 -0.015729 -79730.600000 0 0 1
-29.454015 -23.373395 -4.277475 37.843775 0.670799 1.684068 0.093468 -0.027261 265780.000000 0 0 1
-29.972395 -22.258195 -4.992675 37.665614 0.638763 1.703740 0.085799 -0.027917 -19245.600000 0 0 1
-30.069955 -20.990795 -4.121775 36.902638 0.609426 1.682723 0.096524 -0.030454 196477.000000 0 0 1
-28.832835 -20.318895 -3.916075 35.489794 0.613883 1.681365 0.106682 -0.032282 427608.000000 0 0 1
-29.046365 -19.133595 -3.187675 34.927740 0.582485 1.662188 0.106674 -0.024376 -90536.100000 0 0 1
-27.918265 -18.073495 -3.253775 33.416579 0.574525 1.668321 0.115331 -0.029184 91515.100000 0 0 1
-27.956065 -17.292895 -4.438975 33.170623 0.553965 1.705021 0.144412 -0.047691 759869.000000 0 0 1
-27.011775 -16.192795 -4.364275 31.794488 0.540031 1.708496 0.157333 -0.048418 422933.000000 0 0 1
-27.328205 -15.156995 -5.431675 31.718580 0.506390 1.742890 0.165557 -0.059852 -135399.000000 0 0 1
-28.562105 -14.558395 -5.111475 32.463331 0.471386 1.728908 0.143331 -0.046533 -51737.800000 0 0 1
-28.832975 -13.386395 -5.890775 32.330129 0.434660 1.754027 0.187487 -0.058034 -221776.000000 0 0 1
-30.221735 -12.774795 -5.706675 33.303375 0.399923 1.743000 0.146316 -0.046835 -449160.000000 0 0 1
-31.306015 -13.446095 -6.288275 34.646882 0.405680 1.753304 0.130838 -0.040472 1119310.000000 0 0 1
-32.518635 -12.645995 -6.130075 35.425423 0.370888 1.744713 0.110251 -0.039369 507138.000000 0 0 1
-33.765075 -13.239295 -6.746575 36.890045 0.373678 1.754715 0.066663 -0.025974 -704240.000000 0 0 1
-34.199451 -14.504695 -6.222875 37.665804 0.401126 1.736770 0.047768 -0.025171 247404.000000 0 0 1
-34.244207 -15.436695 -7.312975 38.267961 0.423505 1.763078 0.050784 -0.022787 -824464.000000 0 0 1
-34.807189 -16.830595 -7.000875 39.291494 0.450391 1.749931 0.031907 -0.019641 8117.740000 0 0 1
-36.187545 -16.818495 -6.736475 40.469498 0.435060 1.738033 0.058711 -0.014915 54985.800000 0 0 1
-36.720855 -16.202395 -5.559575 40.519719 0.415538 1.708437 0.057515 -0.011460 -646084.000000 0 0 1
35.928512 -16.247595 -5.363975 39.794655 -0.424699 1.705999 0.082058 -0.022606 -479814.000000 0 0 1
35.341372 -15.466895 -6.417975 39.107900 -0.412530 1.735651 0.071862 -0.022813 535885.000000 0 0 1
33.917122 -15.483895 -6.359675 37.822845 -0.428264 1.739743 0.083890 -0.033716 590454.000000 0 0 1
33.212552 -14.624895 -5.267475 36.670253 -0.414794 1.714939 0.104212 -0.034599 -679965.000000 0 0 1
33.230962 -15.208595 -3.961675 36.759938 -0.429208 1.678778 0.100290 -0.033884 366340.000000 0 0 1
32.693682 -14.330995 -2.995675 35.822176 -0.413116 1.654520 0.131387 -0.037136 -792933.000000 0 0 1
32.660072 -14.935995 -1.575475 35.947828 -0.428922 1.614637 0.130048 -0.033618 -73604.100000 0 0 1
33.836622 -15.254695 -0.854975 37.126186 -0.423547 1.593827 0.148806 -0.032661 163453.000000 0 0 1
34.769182 -16.165395 -1.443575 38.370560 -0.435204 1.608427 0.124704 -0.032018 -432478.000000 0 0 1
34.404352 -17.625895 -1.836275 38.700175 -0.473452 1.618263 0.109286 -0.034611 -731986.000000 0 0 1
34.225022 -18.638395 -0.820875 38.979683 -0.498675 1.591857 0.116769 -0.034325 249798.000000 0 0 1
33.852792 -19.917795 -1.345975 39.300658 -0.531820 1.605051 0.093896 -0.032466 -108853.000000 0 0 1
34.815262 -20.613895 -2.355375 40.528791 -0.534586 1.628945 0.088346 -0.031882 66816.400000 0 0 1
34.979782 -19.880895 -3.538275 40.390030 -0.516825 1.658511 0.080546 -0.033302 148325.000000 0 0 1
35.827752 -20.507195 -4.507575 41.526992 -0.519865 1.679556 0.082529 -0.027635 245115.000000 0 0 1
35.848672 -19.752395 -5.882175 41.350748 -0.503606 1.713531 0.086292 -0.026845 489423.000000 0 0 1
34.763712 -20.108795 -6.751375 40.724199 -0.524417 1.737348 0.090710 -0.026064 686908.000000 0 0 1
34.746872 -19.244195 -7.838675 40.486158 -0.505786 1.765641 0.089938 -0.030580 54399.000000 0 0 1
33.725642 -19.609995 -8.917875 40.018737 -0.526673 1.795526 0.082801 -0.038227 -4418.750000 0 0 1
34.288272 -20.573595 -9.759575 41.160754 -0.540433 1.810185 0.078512 -0.039425 -114719.000000 0 0 1
33.361702 -20.855295 -10.725575 40.779706 -0.558691 1.836940 0.081769 -0.042507 -526523.000000 0 0 1
33.273412 -22.329395 -11.096675 41.579538 -0.591057 1.840949 0.075500 -0.039395 -21292.600000 0 0 1
32.720242 -23.194095 -10.076475 41.353544 -0.616648 1.816941 0.066218 -0.036812 227199.000000 0 0 1
32.597752 -24.508295 -10.500275 42.113249 -0.644678 1.822789 0.047939 -0.026533 -652855.000000 0 0 1
31.735592 -25.353995 -9.548675 41.727090 -0.674078 1.801678 0.034065 -0.029577 -315778.000000 0 0 1
30.416152 -24.887495 -9.603475 40.456846 -0.685760 1.810460 0.036815 -0.034263 -1048580.000000 0 0 1
29.508832 -25.578595 -8.826975 40.036872 -0.714173 1.793094 0.023136 -0.025221 -674982.000000 0 0 1
28.244592 -24.773895 -8.573575 38.535815 -0.720029 1.795157 0.033181 -0.033869 -616233.000000 0 0 1
27.546392 -24.704895 -9.768375 38.269527 -0.731070 1.828905 0.052187 -0.027529 209574.000000 0 0 1
26.376492 -23.893495 -9.882175 36.936104 -0.736045 1.841644 0.075819 -0.038527 211107.000000 0 0 1
25.790092 -23.943395 -11.300175 36.960911 -0.748283 1.881505 0.140950 -0.057768 -383663.000000 0 0 1
25.198092 -25.174495 -11.663275 37.479741 -0.784930 1.887240 0.122596 -0.051215 -360393.000000 0 0 1
24.065392 -24.931695 -12.415675 36.808715 -0.803077 1.914846 0.122529 -0.042323 -620588.000000 0 0 1
23.372792 -26.168295 -12.941075 37.397038 -0.841766 1.924149 0.120745 -0.045451 -209177.000000 0 0 1
24.182892 -26.777195 -13.909675 38.669232 -0.836263 1.938752 0.117343 -0.040367 94641.600000 0 0 1
24.034792 -28.140795 -13.866275 39.520237 -0.863932 1.929291 0.118937 -0.032832 -217639.000000 0 0 1
24.935292 -29.009995 -14.783175 41.010862 -0.860789 1.939568 0.111743 -0.034799 -258540.000000 0 0 1
24.553492 -29.029095 -16.167575 41.315285 -0.868732 1.972864 0.095837 -0.030476 192541.000000 0 0 1
24.935992 -30.254295 -16.729375 42.626260 -0.881465 1.974108 0.095974 -0.034191 -188519.000000 0 0 1
24.608992 -30.299095 -18.233275 43.082362 -0.888659 2.007792 0.085777 -0.029082 -934939.000000 0 0 1
23.258592 -30.434195 -18.498175 42.536864 -0.918253 2.020695 0.091692 -0.027348 -958112.000000 0 0 1
23.073292 -30.372995 -19.897375 43.020938 -0.921138 2.051614 0.082300 -0.025271 -667356.000000 0 0 1
21.636792 -30.242695 -20.382975 42.405625 -0.949784 2.072211 0.071501 -0.019653 -597921.000000 0 0 1
21.581592 -30.244195 -21.721675 43.038443 -0.951016 2.099835 0.057415 -0.020071 -454080.000000 0 0 1
20.267892 -30.194495 -22.189375 42.601212 -0.979631 2.118657 0.068858 -0.024054 -1076570.000000 0 0 1
20.035392 -30.272395 -23.704475 43.355933 -0.986145 2.149264 0.059711 -0.017563 -486716.000000 0 0 1
20.478792 -29.145795 -24.454675 43.207515 -0.958306 2.172420 0.064778 -0.023441 518814.000000 0 0 1
20.520392 -29.475695 -25.809985 44.227349 -0.962639 2.193921 0.064645 -0.025065 -550474.000000 0 0 1
21.072592 -28.267895 -26.627745 44.183309 -0.930207 2.217633 0.063741 -0.032681 78571.300000 0 0 1
20.203892 -27.152295 -26.752065 43.140669 -0.931085 2.239682 0.084265 -0.042526 -90309.000000 0 0 1
19.108892 -27.362795 -27.590105 43.302265 -0.961177 2.261593 0.103541 -0.047202 -711789.000000 0 0 1
18.290292 -26.117295 -27.923525 42.383618 -0.959860 2.290056 0.103487 -0.048933 -616119.000000 0 0 1
17.457092 -25.660295 -26.905825 41.074617 -0.973404 2.285042 0.082961 -0.029112 -304931.000000 0 0 1
16.849392 -24.464395 -27.322375 40.359891 -0.967673 2.314432 0.079758 -0.015615 -475840.000000 0 0 1
15.744092 -23.967395 -26.394155 38.973887 -0.989588 2.314783 0.078874 -0.020040 -379175.000000 0 0 1
14.612792 -24.842495 -26.490915 39.146542 -1.039085 2.314083 0.104979 -0.029179 434787.000000 0 0 1
13.444392 -24.216495 -25.925205 37.938193 -1.063989 2.323143 0.086592 -0.022341 658203.000000 0 0 1
13.257492 -24.400695 -24.445675 36.996567 -1.073093 2.292621 0.066267 -0.016879 -646466.000000 0 0 1
14.109792 -23.615795 -23.644075 36.274430 -1.032237 2.280766 0.054151 -0.022655 -283731.000000 0 0 1
14.196092 -24.109695 -22.311175 35.785401 -1.038643 2.243971 0.054271 -0.029344 1252810.000000 0 0 1
15.557592 -23.735795 -21.562375 35.642147 -0.990600 2.220523 0.028314 -0.029003 1284580.000000 0 0 1
15.492092 -22.408595 -21.067675 34.438306 -0.965902 2.229069 0.028713 -0.030101 106508.000000 0 0 1
16.743092 -21.974295 -20.571875 34.444198 -0.919697 2.210867 0.035999 -0.027774 -297855.000000 0 0 1
16.713592 -20.599195 -19.853475 33.133539 -0.889160 2.213292 0.054621 -0.010698 325855.000000 0 0 1
15.968792 -20.579195 -18.620575 32.019234 -0.910882 2.191421 0.058309 -0.017032 -432595.000000 0 0 1
14.618292 -20.322095 -18.826275 31.322685 -0.947215 2.215602 0.050238 -0.019384 -1003240.000000 0 0 1
13.925192 -20.138195 -17.459175 30.071259 -0.965810 2.190254 0.060227 -0.017537 -272199.000000 0 0 1
14.076992 -18.885995 -16.926875 29.006234 -0.930267 2.193902 0.088588 -0.017235 -57792.500000 0 0 1
13.423092 -18.825795 -15.703175 27.949591 -0.951388 2.167404 0.075950 -0.017092 -187407.000000 0 0 1
13.493192 -17.446595 -15.002375 26.674354 -0.912487 2.168114 0.085147 -0.016778 -477330.000000 0 0 1
12.251592 -16.792795 -15.041375 25.658184 -0.940496 2.197183 0.086217 -0.024976 132345.000000 0 0 1
12.365792 -15.593095 -14.343875 24.531697 -0.900320 2.195316 0.075149 -0.022660 177913.000000 0 1 0
10.958492 -14.985095 -14.120675 23.324559 -0.939376 2.221064 0.075972 -0.017598 50370.100000 0 1 0
10.353192 -14.650395 -15.341375 23.604670 -0.955599 2.278288 0.101170 -0.009496 1005550.000000 0 1 0
9.051492 -14.041695 -15.081475 22.506656 -0.998216 2.305126 0.089293 -0.007469 1524900.000000 0 1 0
8.265692 -13.520995 -16.338375 22.761403 -1.022093 2.371449 0.071146 0.000572 220115.000000 0 1 0
8.738292 -12.338695 -16.950475 22.713866 -0.954587 2.413224 0.066983 -0.002892 -30336.200000 0 1 0
9.838492 -12.555695 -17.815375 23.912946 -0.906143 2.411346 0.083415 -0.004857 101855.000000 0 1 0
10.171092 -11.354595 -18.686975 24.115990 -0.840324 2.457320 0.078329 -0.007170 -20977.600000 0 1 0
9.189092 -11.157695 -19.689475 24.425580 -0.881850 2.508329 0.079680 -0.006377 223670.000000 0 1 0
9.332192 -9.885695 -20.348275 24.471801 -0.814192 2.552597 0.066606 -0.013559 -91069.900000 0 1 0
9.318892 -9.965195 -21.886275 25.790616 -0.818900 2.584156 0.080804 -0.008902 6289.880000 0 0 1
10.471592 -10.636995 -22.345675 26.872459 -0.793234 2.552681 0.051688 -0.011244 -568898.000000 0 0 1
10.647292 -10.523395 -23.783975 28.103098 -0.779546 2.579819 0.042200 -0.006920 83993.600000 0 0 1
11.621492 -11.460495 -24.529475 29.463488 -0.778423 2.554470 0.088522 -0.005883 -223864.000000 0 0 1
11.335292 -12.817895 -24.424475 29.821841 -0.846705 2.530485 0.072616 -0.014271 113402.000000 0 0 1
12.371292 -13.721895 -24.837275 30.955282 -0.837113 2.502035 0.052861 -0.020103 17446.700000 0 0 1
11.934492 -15.139195 -24.563575 31.224934 -0.903220 2.476185 0.050704 -0.021644 420594.000000 0 0 1
11.009592 -15.731095 -25.493655 31.915590 -0.960163 2.496067 0.061965 -0.024788 117727.000000 0 0 1
10.716792 -17.049595 -25.022175 32.119270 -1.009637 2.463928 0.064420 -0.029334 681124.000000 0 0 1
9.439392 -17.678295 -25.686745 32.579642 -1.080356 2.479048 0.073290 -0.031283 715223.000000 0 0 1
9.689492 -18.153295 -27.011995 33.956976 -1.080507 2.490591 0.071846 -0.043283 71837.800000 0 0 1
8.563692 -18.901995 -27.447355 34.409003 -1.145403 2.494234 0.080323 -0.038140 57718.700000 0 0 1
8.936292 -19.964595 -28.487505 35.916295 -1.149934 2.486783 0.085791 -0.044280 -74956.000000 0 0 1
9.722092 -21.038895 -28.001355 36.348728 -1.137925 2.450191 0.074309 -0.038537 -82954.900000 0 0 1
9.860392 -21.986195 -29.061875 37.751989 -1.149206 2.449340 0.082000 -0.036406 102279.000000 0 0 1
10.692992 -23.292995 -28.789745 38.545468 -1.140430 2.414189 0.072399 -0.031034 274437.000000 0 0 1
10.339492 -24.295695 -29.748215 39.776150 -1.168444 2.415675 0.087281 -0.026766 172715.000000 0 0 1
10.995392 -25.538895 -29.525505 40.557234 -1.164247 2.386191 0.104156 -0.023858 337468.000000 0 0 1
10.375792 -26.403195 -28.368735 40.119457 -1.196361 2.356194 0.090961 -0.022941 236030.000000 0 0 1
10.787992 -25.812395 -27.190765 39.012795 -1.174922 2.341960 0.089616 -0.024743 -471614.000000 0 0 1
10.211992 -26.379295 -26.056435 38.458936 -1.201441 2.315173 0.072745 -0.014758 209575.000000 0 0 1
9.241992 -25.410995 -25.313025 37.038929 -1.221969 2.323229 0.062548 -0.011426 343865.000000 0 0 1
9.906292 -24.221095 -24.897175 36.120152 -1.182560 2.331302 0.060924 -0.011101 225672.000000 0 0 1
9.016292 -23.111195 -24.776375 35.061226 -1.198830 2.355563 0.062891 -0.005088 498480.000000 0 0 1
9.890492 -21.814995 -24.636975 34.361262 -1.145135 2.370283 0.075663 -0.016050 395878.000000 0 0 1
10.533392 -21.731695 -23.379975 33.613124 -1.119462 2.339997 0.062502 -0.019498 263143.000000 0 0 1
11.705492 -20.909995 -23.520875 33.577939 -1.060457 2.346875 0.067605 -0.021625 59804.000000 0 0 1
12.383392 -20.739995 -22.170975 32.787923 -1.032528 2.313380 0.060956 -0.018537 -323776.000000 0 0 1
11.661992 -20.066295 -21.133275 31.389067 -1.044335 2.309417 0.054140 -0.018268 -196359.000000 0 0 1
11.446992 -18.660195 -21.191875 30.468542 -1.020550 2.339958 0.059988 -0.026395 916854.000000 0 0 1
12.719792 -17.721695 -20.900875 30.210894 -0.948255 2.334820 0.071300 -0.027812 1443190.000000 0 0 1
13.692592 -17.964295 -21.906975 31.466148 -0.919526 2.340897 0.072898 -0.023104 -261565.000000 0 0 1
14.637392 -16.935295 -22.086275 31.446160 -0.858051 2.349493 0.083274 -0.019705 61947.800000 0 0 1
15.865292 -17.321795 -22.923075 32.821021 -0.829258 2.343993 0.060458 -0.009732 -197218.000000 0 0 1
16.968492 -17.941295 -22.324075 33.289399 -0.813257 2.305822 0.068540 -0.004304 730031.000000 0 0 1
18.189892 -17.479295 -22.940875 34.098118 -0.765479 2.308770 0.070744 -0.002685 1315640.000000 0 0 1
19.491992 -17.891995 -22.170175 34.519239 -0.742625 2.268234 0.061135 0.003278 543112.000000 0 0 1
19.670392 -19.304095 -22.074575 35.310894 -0.776000 2.246119 0.057176 -0.006613 -1392430.000000 0 0 1
20.960692 -19.638695 -21.816275 36.069083 -0.752848 2.220370 0.054113 -0.006730 -1369210.000000 0 0 1
21.091492 -21.175395 -21.481375 36.806220 -0.787383 2.193994 0.063829 -0.015830 -471089.000000 0 0 1
20.567192 -21.504195 -20.200575 35.965303 -0.807666 2.167197 0.064205 -0.011153 331597.000000 0 0 1
20.466992 -22.913895 -20.047875 36.685987 -0.841744 2.148942 0.076109 -0.015309 -131466.000000 0 0 1
-16.739835 12.795208 28.514633 35.454530 -0.652626 0.636368 0.037857 -0.024728 -367108.000000 0 0 1
-17.962035 13.466308 28.331453 36.147577 -0.643315 0.670080 0.045044 -0.026170 -4495.660000 0 0 1
-18.181835 13.590608 26.922033 35.214764 -0.641888 0.700516 0.047106 -0.021042 -173538.000000 0 0 1
-19.410635 14.359408 26.440713 35.806098 -0.636922 0.740040 0.060459 -0.018773 -305460.000000 0 0 1
-19.192135 15.764708 26.551713 36.357358 -0.687663 0.752038 0.066049 -0.016456 -87674.000000 0 0 1
-20.190735 16.467008 25.865283 36.712954 -0.684165 0.789039 0.077750 -0.018643 -699250.000000 0 0 1
-20.120035 18.005108 25.965863 37.459655 -0.729982 0.804920 0.087453 -0.008169 -141996.000000 0 0 1
-18.960335 18.620108 25.492313 36.824730 -0.776345 0.806179 0.038573 -0.008827 130307.000000 0 0 1
-17.847835 18.591508 26.405383 36.897610 -0.805804 0.773257 0.043851 0.006401 543788.000000 0 0 1
-16.640035 19.466008 25.948933 36.457692 -0.863508 0.778803 0.054964 0.005874 225893.000000 0 0 1
-16.835335 20.858508 26.234433 37.506683 -0.891729 0.796154 0.069665 -0.001752 185905.000000 0 0 1
-16.004735 21.676008 25.457053 37.068347 -0.934785 0.813774 0.086018 -0.014248 -79195.300000 0 0 1
-16.488335 23.104008 25.618043 38.235383 -0.950963 0.836576 0.092767 -0.016713 156712.000000 0 0 1
-15.932735 23.770308 26.754203 39.174825 -0.980297 0.819011 0.086091 -0.012544 173880.000000 0 0 1
-16.195635 25.174008 26.631863 40.066013 -0.999112 0.843705 0.084006 -0.010335 -176283.000000 0 0 1
-15.583835 26.048608 27.699063 41.092870 -1.031657 0.831105 0.063688 -0.001712 74021.300000 0 0 1
-14.169935 26.049408 27.652203 40.546307 -1.072599 0.820315 0.065518 -0.007261 -112091.000000 0 0 1
-13.585935 26.883108 28.650953 41.571098 -1.102861 0.810407 0.088651 -0.001175 1656830.000000 0 0 1
-12.004935 26.827808 28.494723 40.936524 -1.150039 0.800886 0.103258 -0.010733 1209330.000000 0 0 1
-11.346935 27.469308 27.449573 40.457321 -1.179068 0.825102 0.097884 -0.012057 -165226.000000 0 0 1
-9.950235 27.309108 27.646073 40.113587 -1.221390 0.810419 0.076669 -0.004581 218774.000000 0 0 1
-9.229935 28.071708 26.471293 39.672936 -1.253133 0.840302 0.076975 -0.015852 774522.000000 0 0 1
-7.801535 27.897808 26.488843 39.253158 -1.298115 0.830075 0.059423 -0.011971 754073.000000 0 0 1
-7.276635 28.580608 25.317773 38.868885 -1.321493 0.861416 0.069300 -0.021263 -367984.000000 0 0 1
-5.791635 28.231908 25.211093 38.290767 -1.368459 0.852090 0.058454 -0.022139 -396071.000000 0 0 1
-5.033235 28.882308 26.251573 39.353097 -1.398262 0.840517 0.065170 -0.023685 591999.000000 0 0 1
-3.625535 28.694808 26.263883 39.068249 -1.445114 0.833544 0.045916 -0.022362 1425570.000000 0 0 1
-2.706335 29.417808 25.144263 38.793886 -1.479058 0.865644 0.043045 -0.011538 305636.000000 0 0 1
-2.995635 28.986108 23.850683 37.656651 -1.467815 0.884893 0.037706 -0.004966 8737.800000 0 0 1
-2.415035 29.896808 22.911183 37.743527 -1.490192 0.918487 0.035890 -0.013879 -386991.000000 0 0 1
-2.846335 29.703808 21.430913 36.738289 -1.475264 0.947962 0.036664 0.000433 966202.000000 0 0 1
-4.232235 29.762408 21.062913 36.706390 -1.429543 0.959632 0.039106 0.005035 437913.000000 0 0 1
-4.955735 28.603808 21.408913 36.070468 -1.399245 0.935358 0.045838 0.003795 -227886.000000 0 0 1
-6.438735 28.659408 20.966213 36.088794 -1.349802 0.950886 0.054168 -0.003488 -473860.000000 0 0 1
-6.721235 28.819008 19.550813 35.467513 -1.341670 0.986957 0.045769 -0.002746 394476.000000 0 0 1
-7.674735 27.915508 18.952413 34.603050 -1.302498 0.991172 0.034987 -0.007150 -749730.000000 0 0 1
-7.231435 26.445908 18.693713 33.183348 -1.303879 0.972366 0.025299 -0.006389 -300784.000000 0 0 1
-6.372935 26.318108 17.607213 32.299707 -1.333219 0.994264 0.028931 -0.007630 -440615.000000 0 0 1
-5.048735 26.682008 17.902813 32.525836 -1.383789 0.987931 0.033203 0.000563 -988456.000000 0 0 1
-4.120935 26.810208 16.681213 31.843873 -1.418282 1.019439 0.022439 -0.006908 30020.300000 0 0 1
-3.741135 25.544808 16.132213 30.443088 -1.425376 1.012297 0.031788 -0.012487 52919.200000 0 0 1
-3.089635 25.744808 14.867713 29.889628 -1.451358 1.050174 0.042550 -0.029772 49117.100000 0 0 1
-2.277635 24.520308 14.367713 28.510775 -1.478174 1.042642 0.034014 -0.025367 131601.000000 0 0 1
-1.101135 24.162808 15.057013 28.491533 -1.525256 1.013995 0.043333 -0.020907 -284490.000000 0 0 1
-0.373735 23.188508 14.419413 27.308717 -1.554680 1.014535 0.043513 -0.032009 135022.000000 0 0 1
0.952465 22.822208 15.158213 27.414080 1.529086 0.984913 0.035824 -0.024460 728064.000000 0 0 1
1.970965 23.806408 15.210913 28.319633 1.488193 1.003783 0.040575 -0.029083 -396935.000000 0 0 1
3.146865 23.273208 15.738213 28.270768 1.436397 0.980394 0.038168 -0.024153 -674900.000000 0 0 1
4.299765 24.283608 15.614313 29.188840 1.395548 1.006358 0.065589 -0.023702 -1429960.000000 0 0 1
5.464065 23.640708 15.879913 28.998461 1.343655 0.991288 0.068174 -0.017897 -1282450.000000 0 0 1
6.592665 24.507208 15.799513 29.894667 1.308008 1.013957 0.083249 -0.018576 422867.000000 0 0 1
7.935965 23.723908 15.777013 29.575623 1.247984 1.008126 0.094564 -0.017102 320033.000000 0 0 1
8.425965 23.012308 14.613813 28.532906 1.219807 1.033082 0.080833 -0.015841 102127.000000 0 0 1
9.075365 23.851408 13.687113 28.958401 1.207216 1.078504 0.085190 -0.012631 -156688.000000 0 0 1
9.819865 23.168408 12.515413 28.104100 1.169902 1.109261 0.072070 -0.007437 -534209.000000 0 0 1
10.826965 22.311708 12.893113 27.951169 1.119011 1.091367 0.075552 -0.006220 -705685.000000 0 0 1
11.187465 21.473508 11.775113 26.924417 1.090499 1.118158 0.069664 -0.012234 379423.000000 0 0 1
12.572065 20.785508 11.954213 27.073924 1.026820 1.113482 0.092848 -0.017340 343398.000000 0 0 1
12.680465 19.712208 12.886213 26.747333 0.999160 1.068116 0.093597 -0.022213 -1061530.000000 0 0 1
13.925365 19.135908 12.823813 26.917447 0.941715 1.074226 0.083183 -0.022251 -1055380.000000 0 0 1
14.358065 18.504708 14.164813 27.371887 0.910915 1.026876 0.098495 -0.024676 -34936.300000 0 0 1
15.609765 17.840608 14.189613 27.627833 0.851991 1.031423 0.080934 -0.021858 182468.000000 0 0 1
15.960365 17.524808 15.543113 28.345026 0.832085 0.990402 0.074164 -0.021853 -481469.000000 0 0 1
17.362165 16.940808 15.643413 28.864375 0.773115 0.998026 0.056901 -0.020226 -697506.000000 0 0 1
17.768165 16.666308 16.958313 29.682619 0.753410 0.962681 0.051046 -0.025792 1355650.000000 0 0 1
19.006865 15.872408 16.933213 29.998799 0.695773 0.971014 0.045902 -0.026749 1289150.000000 0 0 1
19.479365 15.533508 18.412513 30.979932 0.673174 0.934356 0.049470 -0.028459 -522508.000000 0 0 1
19.914265 16.660908 19.053613 32.205651 0.696682 0.937726 0.054491 -0.022833 125222.000000 0 0 1
18.949065 17.557808 19.609713 32.432769 0.747307 0.921499 0.050030 -0.018904 58315.000000 0 0 1
19.593165 18.702708 20.470213 33.951628 0.762150 0.923637 0.040900 -0.013861 55522.700000 0 0 1
18.602065 19.554808 21.006913 34.201137 0.810362 0.909403 0.073573 -0.025052 153789.000000 0 0 1
19.163865 20.540408 21.832913 35.578620 0.820054 0.910118 0.069177 -0.014103 122615.000000 0 0 1
18.090965 21.571708 22.236113 35.875707 0.872933 0.902296 0.085905 -0.022754 -63884.400000 0 0 1
17.220865 21.109408 23.228753 35.801400 0.886501 0.864760 0.091154 -0.025796 100091.000000 0 0 1
16.260765 22.131508 23.560003 36.184111 0.937137 0.861744 0.091283 -0.037197 355152.000000 0 0 1
15.616865 21.808908 24.886333 36.590224 0.949361 0.822848 0.101014 -0.034810 -49818.800000 0 0 1
14.705865 20.732208 24.907323 35.587381 0.953840 0.795550 0.107194 -0.035708 -396829.000000 0 0 1
13.987065 20.641308 26.093753 36.091350 0.975246 0.762673 0.094291 -0.029656 451029.000000 0 0 1
12.926965 19.450308 25.978533 34.932865 0.984215 0.732253 0.091450 -0.021735 758098.000000 0 0 1
13.461665 18.076408 25.956463 34.376022 0.930690 0.715028 0.091145 -0.026039 382430.000000 0 0 1
14.155065 17.598808 24.796003 33.539912 0.893427 0.738768 0.100090 -0.028608 95778.300000 0 0 1
13.300165 17.561708 23.480413 32.196860 0.922615 0.753532 0.109078 -0.024081 -345047.000000 0 0 1
13.305065 18.755908 22.715813 32.323629 0.953803 0.791524 0.126786 -0.022700 274769.000000 0 0 1
14.450465 19.120808 21.938413 32.491771 0.923628 0.829562 0.125107 -0.030999 361880.000000 0 0 1
14.906465 18.131608 20.792013 31.357068 0.882709 0.845880 0.119797 -0.028986 -344790.000000 0 0 1
13.998165 17.971808 19.722213 30.131382 0.909057 0.857222 0.128554 -0.031719 -146411.000000 0 0 1
14.303665 16.909108 18.842913 29.078654 0.868679 0.865843 0.085182 -0.028127 -102023.000000 0 0 1
13.104565 16.301908 18.087713 27.652255 0.893702 0.857786 0.087027 -0.017075 -88381.300000 0 0 1
12.555965 17.099808 17.064913 27.226218 0.937435 0.893379 0.110823 -0.023271 -192771.000000 0 0 1
11.460265 16.393208 16.540213 25.954838 0.960684 0.879847 0.098633 -0.028489 -247700.000000 0 0 1
10.777065 17.054808 15.370413 25.362595 1.007245 0.919740 0.094902 -0.022781 -77093.600000 0 0 1
9.873465 18.109908 15.636613 25.883542 1.071648 0.922143 0.099184 -0.025581 -142848.000000 0 0 1
9.427365 18.632808 14.473013 25.407181 1.102396 0.964725 0.074202 -0.012371 -299738.000000 0 0 1
8.395565 19.770008 14.680713 26.016573 1.169212 0.971232 0.080147 -0.009570 -292274.000000 0 0 1
7.158065 19.242608 15.064113 25.464551 1.214667 0.937789 0.040304 -0.011713 -491564.000000 0 0 1
6.255065 20.332508 15.339113 26.226420 1.272346 0.946073 0.053174 -0.013490 -63755.300000 0 0 1
4.993765 19.848908 16.049713 26.009808 1.324323 0.905790 0.038132 -0.024408 -1305980.000000 0 0 1
4.105965 19.391508 15.153213 24.950138 1.362138 0.918089 0.029976 -0.019171 -187665.000000 0 1 0
2.804065 19.173408 15.768813 24.982750 1.425578 0.887712 0.019339 -0.019275 1136420.000000 0 1 0
1.758965 18.633208 14.791213 23.855196 1.476676 0.902001 0.024304 -0.019726 8066.900000 0 1 0
1.024765 19.679608 14.103913 24.233396 1.518771 0.949606 0.024505 -0.024175 -290844.000000 0 1 0
0.125665 19.029508 13.265113 23.197008 1.564193 0.962042 0.023337 -0.027078 -434583.000000 0 1 0
-0.679835 20.024408 12.387213 23.555936 -1.536859 1.017066 0.026557 -0.028739 -340781.000000 0 1 0
-1.784335 20.525708 13.070413 24.399267 -1.484083 1.005473 0.030763 -0.025092 -698842.000000 0 1 0
-2.866335 20.749108 12.198713 24.239430 -1.433523 1.043430 0.034395 -0.033091 -196146.000000 0 1 0
-3.972835 21.614708 12.798913 25.432090 -1.389023 1.043431 0.028598 -0.027392 34196.200000 0 0 1
-4.746335 20.865408 13.763513 25.442626 -1.347128 0.999215 0.038463 -0.024101 -228176.000000 0 0 1
-5.891535 21.602508 14.073713 26.447078 -1.304547 1.009663 0.028120 -0.014382 -327820.000000 0 0 1
-6.700635 21.034708 15.297813 26.858528 -1.262408 0.964814 0.031759 -0.012872 -483747.000000 0 0 1
-7.406235 19.826608 15.037513 25.962925 -1.213297 0.953059 0.035198 -0.016688 -20022.500000 0 0 1
-8.180635 19.351708 16.086713 26.461174 -1.170846 0.917337 0.036286 -0.001539 64140.900000 0 0 1
-9.385035 20.140108 16.670413 27.777788 -1.134727 0.927127 0.032005 -0.000813 -30478.500000 0 0 1
-10.504535 20.142308 15.806213 27.674793 -1.090085 0.962901 0.029003 -0.015997 688764.000000 0 0 1
-11.679435 19.569808 16.421613 28.090140 -1.032727 0.946404 0.022768 -0.008774 955492.000000 0 0 1
-12.969435 19.582408 15.558713 28.173578 -0.985823 0.985742 0.025427 -0.016722 -16919.000000 0 0 1
-13.463435 20.835808 15.144513 29.064605 -0.997120 1.022700 0.019323 -0.014272 85501.300000 0 0 1
-14.477635 20.536308 14.196713 28.859808 -0.956738 1.056503 0.018859 -0.022748 -159921.000000 0 0 1
-15.506135 21.688708 14.075513 30.148969 -0.950113 1.085053 0.019470 -0.027889 199986.000000 0 0 1
-16.602235 21.635508 14.991613 31.120377 -0.916277 1.068169 0.018060 -0.029656 117372.000000 0 0 1
-17.404035 22.782008 14.814913 32.270760 -0.918435 1.093835 0.031648 -0.033595 -119980.000000 0 0 1
-18.737535 22.634508 15.588613 33.262907 -0.879314 1.083036 0.074020 -0.037248 48308.200000 0 0 1
-19.615235 21.591208 15.023713 32.812340 -0.833314 1.095201 0.066686 -0.040105 1094050.000000 0 0 1
-20.639135 21.182808 15.950813 33.602287 -0.798397 1.076180 0.083439 -0.029349 843503.000000 0 0 1
-21.840735 22.182208 16.076613 35.036060 -0.793155 1.094086 0.092807 -0.034572 -125809.000000 0 0 1
-22.791335 21.981608 15.010013 35.041925 -0.767315 1.128137 0.104018 -0.036597 317058.000000 0 0 1
-23.394635 23.203508 14.543413 36.016976 -0.781297 1.155137 0.128708 -0.045774 -155332.000000 0 0 1
-22.599435 24.291208 13.783713 35.927538 -0.821462 1.177047 0.117176 -0.043822 -510954.000000 0 0 1
-21.564735 24.864608 14.561713 35.990693 -0.856352 1.154259 0.087523 -0.047412 80279.300000 0 0 1
-21.079235 26.004808 13.914313 36.251790 -0.889631 1.176862 0.068928 -0.035058 -1183370.000000 0 0 1
-19.629835 26.375508 14.108013 35.777561 -0.930989 1.165462 0.053819 -0.027410 -1301060.000000 0 0 1
-18.768635 25.735808 13.232713 34.492001 -0.940688 1.177055 0.046810 -0.020690 -489587.000000 0 0 1
-17.495735 26.336808 13.388913 34.336441 -0.984429 1.170237 0.009092 -0.015192 -357383.000000 0 0 1
-16.471135 25.802508 12.382213 33.021007 -1.002652 1.186421 0.016787 -0.017793 744053.000000 0 0 1
-15.150335 26.351808 12.637613 32.918987 -1.049018 1.176780 0.008125 -0.011504 771854.000000 0 0 1
-14.234735 25.788008 11.732313 31.706406 -1.066426 1.191755 0.011360 -0.011445 459304.000000 0 0 1
-12.830635 26.460708 11.948113 31.741954 -1.119307 1.184874 0.008996 -0.003886 914554.000000 0 0 1
-11.696035 25.710108 11.481213 30.489755 -1.143859 1.184717 0.002550 -0.003441 1823710.000000 0 0 1
-10.378135 26.054608 11.962113 30.490005 -1.191737 1.167634 0.024374 -0.008117 1286590.000000 0 0 1
-9.771435 27.305408 11.248413 31.106158 -1.227139 1.200798 0.027843 -0.010499 -223667.000000 0 0 1
-8.543435 27.756708 11.807413 31.350281 -1.272202 1.184642 0.038156 -0.019441 300704.000000 0 0 1
-8.183935 28.940408 11.101213 32.058711 -1.295206 1.217196 0.045420 -0.018518 -262381.000000 0 0 1
-6.869635 29.555308 11.598313 32.484288 -1.342418 1.205695 0.034268 -0.019652 -306176.000000 0 0 1
-5.753435 28.810608 11.183913 31.436174 -1.373691 1.207063 0.057710 -0.019772 -23488.600000 0 0 1
-4.573335 29.305108 11.830013 31.932021 -1.415986 1.191276 0.058132 -0.023308 540251.000000 0 0 1
-3.305035 28.951508 11.006613 31.148974 -1.457131 1.209642 0.076500 -0.034008 -132262.000000 0 0 1
-3.190435 29.811908 9.899413 31.574153 -1.464183 1.251889 0.088713 -0.036105 788513.000000 0 0 1
-2.161435 29.425608 8.944813 30.830957 -1.497474 1.276440 0.071205 -0.034546 798674.000000 0 0 1
-2.087735 30.337008 7.716713 31.372605 -1.502087 1.322276 0.072673 -0.037420 -198872.000000 0 0 1
-3.183935 30.254108 6.855713 31.184119 -1.465943 1.349139 0.084930 -0.035597 -228366.000000 0 0 1
-3.100735 31.173608 5.739313 31.848832 -1.471656 1.389602 0.092429 -0.031476 87636.100000 0 0 1
11.267965 33.624208 -26.401775 44.210950 1.247443 2.210774 0.100647 -0.032863 -49144.700000 0 0 1
11.985365 33.997108 -25.227435 43.998589 1.231860 2.181409 0.078800 -0.026144 487872.000000 0 0 1
12.886965 -33.026995 -25.492005 43.665760 -1.198771 2.194196 0.078614 -0.022820 254045.000000 0 0 1
13.735265 -32.751395 -24.224175 42.989790 -1.173696 2.169397 0.064221 -0.015346 -562124.000000 0 0 1
13.210965 -31.683295 -23.449175 41.571920 -1.175747 2.170094 0.061785 -0.007675 517055.000000 0 0 1
13.810165 -31.611495 -22.137375 40.988665 -1.158913 2.141335 0.044456 -0.001539 1503040.000000 0 0 1
15.379465 -31.377595 -22.036375 41.312023 -1.115066 2.133427 0.034969 0.000962 1649520.000000 0 0 1
16.242565 -32.522495 -22.311575 42.653721 -1.107608 2.121264 0.042693 -0.008296 543293.000000 0 0 1
17.532365 -32.341295 -21.776375 42.749897 -1.074035 2.105272 0.036898 -0.010177 -171734.000000 0 0 1
18.475065 -33.564595 -22.069975 44.215312 -1.067621 2.093411 0.032723 -0.011396 690865.000000 0 0 1
19.807065 -33.405695 -21.586775 44.432523 -1.035595 2.078112 0.045913 -0.003904 930700.000000 0 0 1
20.656065 33.579908 -21.830175 45.064840 1.019325 2.076493 0.043247 -0.005967 618853.000000 0 0 1
22.099465 33.686408 -21.247975 45.548182 0.990190 2.056120 0.073173 -0.011877 177841.000000 0 0 1
22.988465 -33.804395 -22.144575 46.492890 -0.973590 2.067239 0.068684 -0.017047 -1465740.000000 0 0 1
24.261865 -33.897495 -21.645275 46.970163 -0.949583 2.049727 0.061291 -0.015891 -1111480.000000 0 0 1
25.251965 -33.304395 -22.677675 47.551250 -0.922057 2.067932 0.075894 -0.015942 -158861.000000 0 0 1
25.262265 -31.930695 -22.878075 46.702865 -0.901469 2.082731 0.076634 -0.023478 98.496000 0 0 1
24.283665 -31.472495 -23.804075 46.334094 -0.913624 2.110345 0.065170 -0.023842 357154.000000 0 0 1
23.942865 -29.954595 -23.636975 45.047143 -0.896479 2.123178 0.063519 -0.027547 -752377.000000 0 0 1
24.886765 -29.242195 -24.322375 45.453657 -0.865689 2.135426 0.061126 -0.025895 -473645.000000 0 0 1
24.668965 -27.883295 -23.998975 44.294320 -0.846486 2.143382 0.065331 -0.020060 169578.000000 0 0 1
25.406665 -26.830795 -24.829775 44.518624 -0.812654 2.162456 0.056083 -0.018929 441128.000000 0 0 1
24.591465 -26.548295 -25.958125 44.535114 -0.823644 2.193051 0.053366 -0.021433 94092.600000 0 0 1
25.391965 -26.110495 -27.024895 45.352561 -0.799349 2.209163 0.040953 -0.018366 -349223.000000 0 0 1
24.554665 -25.734795 -28.270285 45.435892 -0.808861 2.242348 0.036378 -0.018739 457301.000000 0 0 1
23.666765 -24.608895 -28.210435 44.289300 -0.804911 2.261342 0.040633 -0.023001 550726.000000 0 0 1
22.344065 -24.934295 -27.780565 43.505587 -0.840130 2.263411 0.035333 -0.023152 -41875.300000 0 0 1
21.547965 -23.644195 -27.559625 42.224349 -0.831750 2.281933 0.048585 -0.020805 -304178.000000 0 0 1
21.389765 -22.820795 -28.694845 42.446494 -0.817755 2.313150 0.072761 -0.024558 82392.500000 0 0 1
20.927465 -21.563395 -28.223605 41.225122 -0.800363 2.324881 0.069460 -0.007893 -175609.000000 0 0 1
19.859765 -20.992895 -29.193435 41.077592 -0.813128 2.361275 0.089101 -0.016560 -868962.000000 0 0 1
18.677465 -21.688795 -29.158945 40.859461 -0.859860 2.365477 0.098972 -0.024228 -959501.000000 0 0 1
17.862865 -21.323595 -30.246535 41.092950 -0.873484 2.398015 0.080197 -0.034107 -494756.000000 0 0 1
16.554065 -22.104595 -30.235105 40.948892 -0.928001 2.401435 0.096233 -0.040853 -735517.000000 0 0 1
16.701365 -23.518395 -30.518265 41.993035 -0.953297 2.384369 0.092280 -0.028782 768666.000000 0 0 1
15.476265 -24.274195 -30.640105 42.042447 -1.003216 2.387349 0.110926 -0.038535 482382.000000 0 0 1
15.745365 -25.776495 -30.840395 43.167976 -1.022443 2.366602 0.126943 -0.038650 -615534.000000 0 0 1
14.629565 -26.587495 -30.781215 43.225019 -1.067767 2.363304 0.127348 -0.037363 -923425.000000 0 0 1
14.927765 -27.931895 -31.076095 44.370627 -1.079982 2.346720 0.162836 -0.043265 33247.800000 0 0 1
14.016365 -28.975595 -30.399705 44.273984 -1.120249 2.327635 0.149691 -0.042847 -39054.900000 0 0 1
14.261565 -29.216795 -29.023255 43.581678 -1.116691 2.299564 0.157254 -0.050485 -155552.000000 0 0 1
14.063865 -28.164895 -28.100385 42.198166 -1.107677 2.299516 0.138119 -0.041353 101061.000000 0 0 1
15.198865 -27.989795 -27.026105 41.771335 -1.073332 2.274441 0.103547 -0.027926 112262.000000 0 0 1
15.255765 -29.005495 -25.992855 41.829243 -1.086596 2.241330 0.084763 -0.031982 186899.000000 0 0 1
16.157765 -28.677595 -24.934975 41.294440 -1.057702 2.219098 0.086762 -0.035282 -633256.000000 0 0 1
15.696865 -27.545595 -23.973075 39.747449 -1.052841 2.218222 0.070724 -0.033853 102908.000000 0 0 1
14.725165 -27.831395 -23.008075 38.997289 -1.084153 2.201845 0.062358 -0.026965 324540.000000 0 0 1
13.430565 -28.174495 -23.503775 39.071853 -1.125968 2.216240 0.064598 -0.014842 796382.000000 0 0 1
12.244165 -28.149495 -22.428375 38.017701 -1.160512 2.201788 0.044751 -0.003962 942240.000000 0 0 1
12.021465 -26.801295 -22.030275 36.717272 -1.149157 2.214294 0.040236 -0.011638 -468423.000000 0 0 1
10.870765 -26.684395 -21.262675 35.809661 -1.183942 2.206532 0.056053 -0.018234 -661603.000000 0 0 1
10.381765 -25.211795 -21.100575 34.476802 -1.180174 2.229412 0.050944 -0.020588 126557.000000 0 0 1
11.156665 -24.489895 -20.149175 33.618676 -1.143327 2.213479 0.042264 -0.026846 331622.000000 0 0 1
10.660165 -23.174995 -20.119875 32.488904 -1.139669 2.238627 0.047016 -0.024894 -196783.000000 0 0 1
11.129265 -22.429395 -18.860775 31.347522 -1.110200 2.216383 0.040596 -0.017133 -181637.000000 0 0 1
10.538465 -22.910795 -17.684675 30.801160 -1.139676 2.182369 0.052740 -0.024048 71907.800000 0 0 1
10.822065 -22.159095 -16.553875 29.701403 -1.116488 2.161979 0.038112 -0.022575 -280928.000000 0 0 1
9.999865 -22.575895 -15.322575 29.059415 -1.153825 2.126198 0.045872 -0.023935 84130.000000 0 0 1
10.493065 -23.802795 -14.804875 29.930950 -1.155591 2.088210 0.048767 -0.023070 -2791.680000 0 0 1
9.760665 -24.198595 -13.680475 29.461805 -1.187400 2.053692 0.053076 -0.024881 -271510.000000 0 0 1
9.961965 -25.663795 -13.289875 30.569460 -1.200528 2.020550 0.070593 -0.027813 -314856.000000 0 0 1
11.297565 -25.961495 -12.997475 31.153949 -1.160346 2.001160 0.040781 -0.024399 -728567.000000 0 0 1
11.545365 -27.340095 -13.169075 32.468458 -1.171226 1.988427 0.058694 -0.034074 -633326.000000 0 0 1
12.870565 -27.943395 -12.636175 33.258949 -1.139167 1.960520 0.026208 -0.032822 323397.000000 0 0 1
14.080265 -27.597095 -13.291575 33.712304 -1.099016 1.976064 0.030090 -0.029097 247531.000000 0 0 1
14.169765 -27.874595 -14.663675 34.536917 -1.100499 2.009294 0.034922 -0.033781 -516882.000000 0 0 1
15.554265 -27.437695 -15.251075 35.033663 -1.055075 2.021197 0.038859 -0.026726 813003.000000 0 0 1
16.679465 -28.168095 -14.797975 35.925286 -1.036176 1.995345 0.060013 -0.028176 -501829.000000 0 0 1
17.805165 -27.817895 -15.523775 36.494476 -1.001439 2.010171 0.085720 -0.035091 -462034.000000 0 0 1
19.046565 -28.670695 -15.228975 37.639103 -0.984419 1.987343 0.095063 -0.034699 -5521.070000 0 0 1
18.995765 -29.848495 -16.002875 38.831221 -1.004037 1.995569 0.083926 -0.025899 -193249.000000 0 0 1
20.256965 -30.462595 -16.077675 39.960054 -0.983963 1.984872 0.096407 -0.026893 32545.100000 0 0 1
20.409665 -31.578395 -17.188775 41.342514 -0.997014 1.999580 0.087103 -0.025207 -167574.000000 0 0 1
19.965165 -32.781595 -16.701475 41.859050 -1.023759 1.981215 0.073924 -0.012190 -157785.000000 0 0 1
20.173265 -33.819595 -17.648275 43.153067 -1.032957 1.992120 0.069544 -0.010521 134209.000000 0 0 1
19.986865 32.888408 -16.981475 42.065338 1.024721 1.986346 0.053195 -0.009511 -398524.000000 0 0 1
21.042465 32.568008 -16.125875 41.994099 0.997162 1.964924 0.082080 -0.014243 -258580.000000 0 0 1
20.956065 31.311008 -15.543575 40.757068 0.980982 1.962076 0.077599 -0.014975 461054.000000 0 0 1
22.160565 31.094908 -14.535275 40.856556 0.951614 1.934527 0.061128 -0.022047 882428.000000 0 0 1
23.421565 30.910708 -15.194875 41.652441 0.922375 1.944216 0.070580 -0.019594 1248890.000000 0 0 1
24.508465 30.459308 -14.333475 41.639919 0.893239 1.922209 0.079194 -0.024128 999357.000000 0 0 1
24.281965 29.215108 -13.393775 40.280635 0.877351 1.909762 0.068665 -0.014204 -1389220.000000 0 0 1
24.234165 27.972108 -14.124975 39.613742 0.856876 1.935388 0.073027 -0.008779 131611.000000 0 0 1
23.864065 26.832908 -13.334775 38.305545 0.843892 1.926357 0.044364 -0.003266 987605.000000 0 0 1
22.356265 26.863808 -12.868275 37.243245 0.876723 1.923589 0.057972 -0.011594 128343.000000 0 0 1
21.413265 26.579508 -13.878875 36.845914 0.892632 1.956999 0.060813 -0.015816 14973.300000 0 0 1
20.104965 26.721808 -13.373675 36.015550 0.925773 1.951238 0.064390 -0.014683 13787.200000 0 0 1
19.317565 28.052908 -13.398575 36.601309 0.967754 1.945577 0.063681 -0.023296 -232996.000000 0 0 1
19.164565 28.591008 -14.741475 37.443790 0.980282 1.975445 0.067390 -0.020240 543540.000000 0 0 1
18.359165 27.911208 -15.734875 36.928049 0.988978 2.010969 0.054683 -0.014355 -126231.000000 0 0 1
18.388465 28.707108 -17.100375 38.139960 1.001090 2.035724 0.047315 -0.003763 106117.000000 0 0 1
17.647365 29.916008 -17.243475 38.778015 1.037839 2.031604 0.055669 -0.009220 28784.200000 0 0 1
17.835765 30.384808 -18.534575 39.810571 1.039993 2.055074 0.030354 0.001698 -316070.000000 0 0 1
16.904565 31.520508 -18.958975 40.481471 1.078529 2.058204 0.023733 0.005348 -168959.000000 0 0 1
17.055965 32.788108 -18.416175 41.293117 1.091129 2.033073 0.041700 -0.001154 30483.800000 0 0 1
15.885065 33.547608 -18.669675 41.549177 1.128566 2.036822 0.040504 -0.000815 279107.000000 0 0 1
15.895465 -33.162295 -17.930975 40.913610 -1.123826 2.024463 0.042654 0.000835 774343.000000 0 0 1
14.758065 -32.390995 -18.383075 40.061384 -1.143277 2.047522 0.029405 0.000998 677419.000000 0 0 1
14.624465 -31.387295 -17.421775 38.762811 -1.134769 2.036941 0.028261 -0.007833 -855579.000000 0 0 1
13.536665 -30.369295 -17.560475 37.601937 -1.151495 2.056703 0.022553 -0.011283 -1499190.000000 0 0 1
12.294165 -30.935995 -17.335075 37.532480 -1.192528 2.050897 0.034389 -0.005722 -1464360.000000 0 0 1
11.316365 -29.949995 -17.390375 36.434701 -1.209536 2.068379 0.023633 -0.007863 -774297.000000 0 0 1
9.930065 -30.557595 -17.550975 36.611603 -1.256599 2.070748 0.051270 -0.011470 -1594460.000000 0 0 1
9.344365 -31.333695 -16.461275 36.607255 -1.280972 2.037195 0.062383 -0.014560 1103420.000000 0 0 1
8.220065 -32.170895 -16.826275 37.224447 -1.320636 2.039827 0.084113 -0.011302 987988.000000 0 0 1
6.962065 -31.492595 -17.450075 36.670956 -1.353226 2.066733 0.087039 -0.013392 -764481.000000 0 0 1
7.060765 -30.865095 -18.760175 36.802889 -1.345904 2.105687 0.073415 -0.008461 -208572.000000 0 0 1
7.345765 -31.791995 -19.772375 38.152824 -1.343724 2.115590 0.069933 -0.009885 -879610.000000 0 0 1
7.298165 -31.365295 -21.208475 38.559620 -1.342181 2.153182 0.070957 0.001190 1041810.000000 0 0 1
8.576365 -30.976795 -21.784675 38.828957 -1.300698 2.166440 0.064523 0.002773 2261270.000000 0 0 1
9.656965 -31.986595 -21.899875 39.950015 -1.277591 2.150985 0.066276 0.002193 931525.000000 0 0 1
9.632665 -33.129595 -22.905475 41.412789 -1.287841 2.156879 0.075653 -0.009746 -63504.900000 0 0 1
8.517965 -33.914095 -22.492575 41.576886 -1.324723 2.142407 0.085602 -0.016156 195019.000000 0 0 1
8.375365 33.094908 -23.377375 41.375371 1.322929 2.171238 0.095128 -0.029638 555933.000000 0 0 1
7.097165 32.214308 -23.039675 40.236277 1.353949 2.180482 0.097557 -0.036633 1368770.000000 0 0 1
5.851765 32.859308 -23.316375 40.714010 1.394558 2.180576 0.096481 -0.036722 579567.000000 0 0 1
5.310465 33.575408 -22.195975 40.597665 1.413930 2.149251 0.081941 -0.022621 -151638.000000 0 0 1
3.996565 -33.773195 -22.488575 40.771770 -1.453009 2.155044 0.090048 -0.024238 834169.000000 0 0 1
2.797765 33.525708 -22.422575 40.429846 1.487538 2.158684 0.082131 -0.030762 1070050.000000 0 0 1
1.663065 -33.786895 -22.788075 40.787454 -1.521614 2.163618 0.079435 -0.028721 -361517.000000 0 0 1
0.378465 33.648008 -22.354175 40.398525 1.559549 2.157167 0.069908 -0.034031 -632372.000000 0 0 1
-0.062635 33.867908 -21.008275 39.854570 -1.568947 2.126008 0.065355 -0.037185 521521.000000 0 0 1
-1.336135 33.329608 -20.626775 39.218769 -1.530729 2.124618 0.056835 -0.047806 862949.000000 0 0 1
-1.659335 33.487608 -19.133275 38.603827 -1.521286 2.089358 0.059171 -0.044394 118832.000000 0 0 1
-0.794535 32.689108 -18.351775 37.496623 -1.546495 2.082226 0.081204 -0.051397 -129710.000000 0 0 1
-1.142535 32.715408 -16.984075 36.879020 -1.535887 2.049394 0.059537 -0.040113 -80818.300000 0 0 1
-0.384835 31.738708 -16.097475 35.589639 -1.558672 2.040148 0.046761 -0.034747 337854.000000 0 0 1
0.880365 32.149308 -15.609975 35.749467 1.543420 2.022667 0.051199 -0.034059 -157230.000000 0 0 1
1.477665 31.133108 -14.858975 34.528873 1.523369 2.015660 0.058183 -0.020753 387544.000000 0 0 1
2.525065 31.722708 -13.841675 34.702999 1.491366 1.981071 0.066981 -0.025062 449727.000000 0 0 1
3.623365 32.283408 -14.553475 35.597062 1.459028 1.991978 0.063041 -0.023672 -344127.000000 0 0 1
4.535465 32.800908 -13.644275 35.813912 1.433395 1.961649 0.076624 -0.028764 -595234.000000 0 0 1
5.881165 33.255008 -14.232375 36.647567 1.395756 1.969645 0.077026 -0.038252 -342198.000000 0 0 1
6.721865 32.147008 -14.356375 35.842978 1.364668 1.982897 0.067692 -0.021161 -1158360.000000 0 0 1
7.794165 32.433708 -15.188675 36.652289 1.334958 1.998079 0.057869 -0.004879 -378804.000000 0 0 1
8.663965 31.141408 -15.315975 35.769130 1.299445 2.013285 0.035800 -0.006073 266691.000000 0 0 1
9.109865 30.722708 -14.004675 34.971494 1.282536 1.982815 0.026855 -0.010899 -325600.000000 0 0 1
10.073765 29.702908 -14.069575 34.375812 1.243819 1.992469 0.027747 -0.009471 85821.000000 0 0 1
9.559365 28.250408 -13.874975 32.893494 1.244511 2.006243 0.043886 -0.012394 -229475.000000 0 0 1
8.834065 27.728308 -14.960475 32.721791 1.262370 2.045643 0.048592 -0.015621 -10047.000000 0 0 1
8.537465 26.338008 -14.717275 31.355656 1.257333 2.059369 0.050123 -0.012638 -328462.000000 0 0 1
7.775165 25.594308 -15.854575 31.094844 1.275871 2.105839 0.045898 -0.014268 -91676.400000 0 0 1
8.521865 25.076308 -16.909075 31.422289 1.243204 2.139006 0.060550 -0.013266 -587940.000000 0 0 1
7.737665 24.221108 -17.693775 30.977463 1.261584 2.178742 0.050877 -0.012895 -219836.000000 0 0 1
8.601265 23.398808 -18.636575 31.125679 1.218534 2.212739 0.060723 -0.004822 -149750.000000 0 0 1
7.908165 22.418508 -19.342775 30.647537 1.231672 2.253814 0.074965 -0.015121 261950.000000 0 0 1
8.840665 21.348008 -19.567675 30.278519 1.178176 2.273464 0.071212 -0.010887 615019.000000 0 0 1
8.344465 20.408008 -20.694875 30.238961 1.182657 2.324546 0.058870 -0.033493 826064.000000 0 0 1
7.253565 19.623508 -20.139075 29.039260 1.216736 2.337149 0.069082 -0.032487 916433.000000 0 0 1
6.632365 18.776308 -21.132475 29.036520 1.231246 2.385890 0.069963 -0.031608 167368.000000 0 0 1
25.804565 -12.845592 -9.329875 30.297382 -0.461889 1.883827 0.091071 -0.014105 -107126.000000 0 0 1
26.221165 -12.016792 -8.236875 29.996648 -0.429723 1.848963 0.108297 -0.025951 666432.000000 0 0 1
25.366465 -12.201292 -7.099075 29.029742 -0.448333 1.817847 0.107716 -0.016852 -138612.000000 0 0 1
25.839265 -11.519692 -5.763375 28.871914 -0.419373 1.771765 0.101752 -0.021867 -215348.000000 0 0 1
25.874165 -10.083492 -5.580875 28.324820 -0.371607 1.769125 0.119418 -0.035108 31920.600000 0 0 1
26.954265 -9.512292 -6.240375 29.256767 -0.339260 1.785745 0.110085 -0.042246 -1084320.000000 0 0 1
27.105565 -7.999192 -5.819075 28.854122 -0.286967 1.773861 0.144473 -0.045693 -62245.200000 0 0 1
27.635665 -7.770692 -4.500675 29.058041 -0.274106 1.726308 0.137612 -0.052273 623343.000000 0 0 1
29.035765 -7.992892 -4.416075 30.437866 -0.268624 1.716395 0.124395 -0.045597 -102417.000000 0 0 1
29.499865 -7.876792 -2.917675 30.672443 -0.260924 1.666064 0.135595 -0.043583 -204510.000000 0 0 1
29.577965 -6.541292 -2.466075 30.392862 -0.217651 1.652026 0.140953 -0.042505 337315.000000 0 0 1
30.619765 -6.325092 -1.536675 31.303964 -0.203704 1.619905 0.157426 -0.037864 -235061.000000 0 0 1
30.792665 -4.844992 -1.164475 31.193239 -0.156063 1.608136 0.148649 -0.045158 -289440.000000 0 0 1
29.779365 -4.409092 -0.307175 30.105565 -0.146991 1.581000 0.166096 -0.051363 -116138.000000 0 0 1
30.018365 -3.095492 0.240025 30.178501 -0.102757 1.562843 0.149118 -0.042153 -77699.000000 0 0 1
30.686265 -3.186292 1.621725 30.893840 -0.103464 1.518279 0.140620 -0.025561 -159897.000000 0 0 1
29.697365 -3.350792 2.627025 30.001043 -0.112356 1.483120 0.159609 -0.031505 652651.000000 0 0 1
30.216465 -3.276692 3.964325 30.651058 -0.108019 1.441096 0.132121 -0.022319 -18512.200000 0 0 1
29.737765 -4.430092 4.862625 30.456617 -0.147884 1.410453 0.139879 -0.027668 -192336.000000 0 0 1
30.332265 -5.683392 4.590625 31.199697 -0.185223 1.423123 0.137668 -0.033296 99070.800000 0 0 1
30.413165 -6.457192 5.736725 31.615913 -0.209209 1.388335 0.141915 -0.034595 -362143.000000 0 0 1
31.252565 -7.714992 5.478225 32.653559 -0.242021 1.402231 0.109522 -0.031920 15319.100000 0 0 1
32.623565 -7.372892 5.337125 33.869477 -0.222265 1.412558 0.108429 -0.032548 -251318.000000 0 0 1
33.400565 -8.535292 5.391725 34.892975 -0.250189 1.415653 0.109555 -0.029550 -586123.000000 0 0 1
34.891165 -8.228592 5.479825 36.264744 -0.231604 1.419109 0.121712 -0.029979 -381415.000000 0 0 1
35.613965 -8.040492 4.264825 36.758574 -0.222045 1.454512 0.132021 -0.027975 639932.000000 0 0 1
37.002265 -7.985492 4.613425 38.134229 -0.212551 1.449521 0.144130 -0.027568 839720.000000 0 0 1
-36.174761 -7.655892 3.484825 37.139871 0.208559 1.476828 0.137373 -0.019599 50413.200000 0 0 1
-36.018661 -8.755592 2.598825 37.158555 0.238460 1.500800 0.159934 -0.029115 -66573.500000 0 0 1
-34.933161 -8.495792 1.744425 35.993711 0.238570 1.522313 0.165024 -0.039982 -321290.000000 0 0 1
-34.509861 -9.736192 0.933625 35.869146 0.274981 1.544765 0.159722 -0.031515 -270296.000000 0 0 1
-34.061261 -10.740692 1.784225 35.759131 0.305465 1.520880 0.149431 -0.030701 85765.400000 0 0 1
-34.006361 -11.998392 1.144625 36.079138 0.339192 1.539066 0.142025 -0.035766 -756954.000000 0 0 1
-33.497761 -13.081292 2.118425 36.023713 0.372301 1.511956 0.111099 -0.040616 848227.000000 0 0 1
-32.143661 -12.981092 2.572625 34.761215 0.383818 1.496720 0.104468 -0.028224 1221620.000000 0 0 1
-31.137161 -13.401592 1.650325 33.938902 0.406440 1.522151 0.107541 -0.017537 -274874.000000 0 0 1
-29.753461 -13.694792 2.239825 32.830361 0.431366 1.502519 0.108856 -0.014350 -321522.000000 0 0 1
-29.059861 -12.514292 2.575925 31.744581 0.406637 1.489562 0.110838 -0.023273 -50315.600000 0 0 1
-27.816861 -12.878492 3.127525 30.812574 0.433591 1.469120 0.124449 -0.018031 -339215.000000 0 0 1
-27.133261 -11.683292 3.812725 29.786743 0.406595 1.442443 0.140016 -0.018810 -548008.000000 0 0 1
-25.948361 -12.129492 4.405025 28.980101 0.437268 1.418203 0.137206 -0.014059 203648.000000 0 0 1
-25.165861 -11.057992 4.987525 27.936986 0.414008 1.391306 0.126733 -0.008154 753071.000000 0 0 1
-23.749061 -11.521892 5.448125 26.952810 0.451698 1.367258 0.122596 0.005432 330514.000000 0 0 1
-23.762761 -12.530292 6.469225 27.632009 0.485255 1.334482 0.107247 -0.002622 454428.000000 0 0 1
-22.429961 -12.802292 6.904325 26.733341 0.518648 1.309569 0.111245 0.002270 533529.000000 0 0 1
-22.007861 -12.257292 8.263825 26.511846 0.508164 1.253811 0.120159 -0.010879 -689010.000000 0 0 1
-21.763861 -10.879292 8.398925 25.740369 0.463551 1.238416 0.118107 -0.012341 293976.000000 0 0 1
-22.902661 -10.066192 8.674025 26.478271 0.414105 1.237044 0.124112 -0.020453 -421909.000000 0 0 1
-23.339461 -10.123592 10.133125 27.384262 0.409262 1.191750 0.106503 -0.018004 -461052.000000 0 0 1
-24.023861 -11.284192 10.572325 28.570141 0.439121 1.191736 0.086963 -0.022876 1290880.000000 0 0 1
-25.406661 -11.482392 10.206225 29.690247 0.424470 1.219882 0.085118 -0.024627 945262.000000 0 0 1
-26.395861 -10.953392 11.292925 30.728626 0.393341 1.194471 0.082469 -0.029344 -184857.000000 0 0 1
-26.489261 -11.773192 12.470725 31.556426 0.418230 1.164524 0.069375 -0.032060 46955.000000 0 0 1
-27.573661 -11.390292 13.269525 32.651583 0.391736 1.152288 0.055638 -0.029298 -186626.000000 0 0 1
-27.622761 -12.257792 14.585125 33.555868 0.417650 1.121144 0.055918 -0.027207 -34737.100000 0 0 1
-27.730361 -13.624292 14.319325 34.053448 0.456674 1.136805 0.052029 -0.027049 363413.000000 0 0 1
-27.587561 -14.325792 15.516925 34.743011 0.478956 1.107812 0.031718 -0.019747 -418139.000000 0 0 1
-27.333561 -15.866792 15.419525 35.165898 0.525949 1.116890 0.037015 -0.020665 -732571.000000 0 0 1
-28.474161 -16.689592 15.298425 36.378045 0.530159 1.136756 0.054698 -0.025181 77154.300000 0 0 1
-27.997861 -17.998992 15.397125 36.673088 0.571347 1.137518 0.046366 -0.015230 71179.800000 0 0 1
-29.022461 -19.031492 15.955825 38.198027 0.580407 1.139869 0.027930 -0.009754 -26820.600000 0 0 1
-29.349961 -18.850792 17.305025 38.938881 0.570927 1.110275 0.027317 -0.003329 -290595.000000 0 0 1
-29.728461 -19.959892 18.104025 40.123988 0.591277 1.102685 0.038733 -0.006521 -610475.000000 0 0 1
-28.731561 -21.052792 18.439425 40.109040 0.632364 1.093102 0.028045 -0.006352 -870820.000000 0 0 1
-27.713861 -20.630692 19.296325 39.573119 0.639919 1.061444 0.035932 -0.003342 -372407.000000 0 0 1
-26.815561 -21.702692 19.450925 39.603278 0.680405 1.057393 0.042445 0.002336 457596.000000 0 0 1
-25.410161 -21.262892 19.999325 38.700903 0.696773 1.027727 0.047862 0.003569 453931.000000 0 0 1
-24.447161 -20.989592 19.027025 37.419973 0.709448 1.037386 0.054805 -0.005886 -13950.900000 0 0 1
-23.144961 -21.019092 19.577925 36.888841 0.737300 1.011338 0.066999 -0.002836 -284226.000000 0 0 1
-22.007461 -20.936492 18.596125 35.615740 0.760465 1.021447 0.065014 -0.018928 -510398.000000 0 0 1
-21.809561 -22.021292 17.688825 35.685975 0.790229 1.052179 0.056397 -0.013713 614371.000000 0 0 1
-20.511561 -21.891892 17.099625 34.530802 0.817939 1.052732 0.057358 -0.009825 636825.000000 0 0 1
-20.195061 -22.976192 15.992825 34.518348 0.849730 1.089065 0.058820 -0.004005 -860778.000000 0 0 1
-20.262061 -24.347892 16.396025 35.667921 0.876733 1.093155 0.048768 -0.018297 -84246.900000 0 0 1
-19.220461 -24.863492 17.199825 35.825317 0.912712 1.070025 0.052114 -0.020969 1124890.000000 0 0 1
-17.781561 -24.946792 16.505425 34.798785 0.951545 1.076616 0.056873 -0.021913 986364.000000 0 0 1
-17.263261 -23.674792 16.199625 33.480499 0.940752 1.065745 0.057242 -0.027853 -823738.000000 0 0 1
-15.996661 -23.768292 15.614525 32.628795 0.978405 1.071793 0.070092 -0.032021 -521487.000000 0 0 1
-15.177261 -22.476492 15.583925 31.279397 0.976875 1.049255 0.071013 -0.023422 -558163.000000 0 0 1
-15.652261 -21.435692 14.735925 30.358354 0.940091 1.063976 0.068996 -0.019545 594492.000000 0 0 1
-16.895561 -20.814192 15.089825 30.763508 0.888942 1.058121 0.060959 -0.014994 240559.000000 0 0 1
-16.611861 -19.685592 16.085325 30.367979 0.869878 1.012573 0.083517 -0.020007 171362.000000 0 0 1
-16.022161 -18.498292 15.378025 28.902943 0.857005 1.009768 0.079096 -0.022092 489085.000000 0 0 1
-15.763061 -17.408092 16.268225 28.568705 0.834950 0.964969 0.080137 -0.022908 -412516.000000 0 0 1
-15.066261 -16.230992 15.544425 27.056727 0.822596 0.958788 0.094246 -0.025748 -148025.000000 0 0 1
-15.784461 -15.489892 14.591025 26.494980 0.775980 0.987583 0.116304 -0.034007 -178151.000000 0 0 1
-16.128561 -16.105092 13.402625 26.441158 0.784670 1.039229 0.128884 -0.033029 14330.200000 0 0 1
-17.127361 -15.282392 12.553625 26.162789 0.728533 1.070338 0.117328 -0.021780 -459135.000000 0 0 1
-18.462461 -15.296992 12.940025 27.245269 0.691906 1.075894 0.099298 -0.021402 -568306.000000 0 0 1
-19.260561 -14.486292 12.116025 26.974431 0.644858 1.104964 0.125073 -0.018709 -1509110.000000 0 0 1
-20.727861 -14.532692 12.473725 28.221219 0.611476 1.112971 0.080455 -0.017586 -735451.000000 0 0 1
-21.405461 -15.692592 11.980225 29.120045 0.632605 1.146798 0.078861 -0.009741 103159.000000 0 0 1
-21.761961 -15.592692 10.572525 28.783559 0.621722 1.194680 0.103654 -0.003392 -618099.000000 0 0 1
-22.319761 -16.986992 10.102825 29.812694 0.650551 1.225074 0.104689 0.000456 167920.000000 0 0 1
-21.459761 -18.138092 10.081225 29.852015 0.701709 1.226317 0.101962 0.008373 -71784.300000 0 0 1
-22.082961 -19.173092 9.320325 30.694187 0.714983 1.262274 0.106288 -0.004233 180366.000000 0 0 1
-21.324461 -20.501992 9.069125 30.940481 0.765737 1.273313 0.105015 0.000025 19355.400000 0 0 1
-20.099961 -20.462692 8.362325 29.877394 0.794340 1.287119 0.119943 -0.006417 -159388.000000 0 0 1
-19.717561 -21.791392 8.192225 30.508352 0.835318 1.298936 0.106364 -0.010342 738690.000000 0 0 1
-18.399261 -22.069992 7.362425 29.661805 0.875855 1.319962 0.096014 -0.018192 1882260.000000 0 0 1
-17.209061 -21.610892 8.044925 28.773308 0.898307 1.287422 0.070089 -0.019764 165912.000000 0 0 1
-16.004661 -21.921692 7.432625 28.141671 0.940164 1.303511 0.087230 -0.022122 -812840.000000 0 0 1
-14.826261 -21.860492 8.396925 27.716556 0.974837 1.263002 0.052683 -0.012228 651884.000000 0 0 1
-13.561161 -22.096492 7.709025 27.047904 1.020346 1.281776 0.069998 -0.013743 854503.000000 0 0 1
-12.494961 -21.647292 8.519125 26.406529 1.047305 1.242306 0.058899 -0.014391 -32440.900000 0 0 1
-11.132361 -22.060492 7.937625 25.953818 1.103452 1.259979 0.051290 -0.019953 -141652.000000 0 0 1
-11.020661 -23.488592 8.001525 27.151304 1.132097 1.271653 0.055190 -0.014656 -1013390.000000 0 0 1
-9.785761 -23.930992 7.565925 26.938759 1.182628 1.286110 0.085062 -0.022060 -626288.000000 0 0 1
-9.644461 -25.467142 7.603325 28.273689 1.208784 1.298526 0.070542 -0.015581 44143.400000 0 0 1
-10.568761 -26.235222 6.817725 29.094105 1.187839 1.334263 0.085872 -0.021142 25315.100000 0 0 1
-10.423361 -27.610782 6.820225 30.290546 1.209826 1.343689 0.091787 -0.023861 53200.200000 0 0 1
-9.397061 -28.215962 5.829525 30.305587 1.249309 1.377232 0.095608 -0.032856 903474.000000 0 0 1
-8.015261 -27.914482 6.118125 29.679861 1.291182 1.363171 0.097758 -0.030651 731655.000000 0 0 1
-7.029261 -28.769382 5.577525 30.136301 1.331160 1.384646 0.104235 -0.025274 363225.000000 0 0 1
-7.056261 -30.234732 6.053725 31.631905 1.341518 1.378228 0.119049 -0.037297 -790543.000000 0 0 1
-6.783261 -30.419892 7.396025 32.032540 1.351398 1.337803 0.110220 -0.027642 104983.000000 0 0 1
-7.137261 -31.698252 7.891725 33.436492 1.349327 1.332527 0.142215 -0.038250 -82304.900000 0 0 1
-7.524261 -31.771272 9.368025 33.967457 1.338255 1.291381 0.109428 -0.030336 84690.200000 0 0 1
-6.419261 -31.347622 10.137725 33.565664 1.368812 1.263978 0.083945 -0.018528 460060.000000 0 0 1
-6.771261 -31.526972 11.482725 34.229416 1.359234 1.228699 0.052883 -0.017198 -668774.000000 0 0 1
-5.831261 -30.862482 12.449925 33.786048 1.384054 1.193409 0.043073 -0.010047 -445213.000000 0 0 1
-6.082261 -29.467902 12.496225 32.580773 1.367252 1.177163 0.041578 -0.018297 -112494.000000 0 0 1
-5.120261 -28.746582 13.226325 32.054933 1.394528 1.145474 0.039654 -0.020315 -465560.000000 0 0 1
-5.545261 -27.836862 14.372025 31.815026 1.374165 1.102085 0.030403 -0.026179 -413031.000000 0 0 1
-6.176261 -28.447322 15.493525 32.976441 1.357002 1.081691 0.033661 -0.017668 213574.000000 0 0 1
-5.318261 -29.086702 16.402325 33.813553 1.389952 1.064340 0.022756 -0.012599 50804.200000 0 0 1
-6.056261 -30.343922 16.936425 35.274274 1.373798 1.069987 0.022244 -0.014667 -222025.000000 0 0 1
-6.091261 -31.270322 15.904125 35.607270 1.378412 1.107774 0.023478 -0.013744 219190.000000 0 0 1
-6.497261 -32.572862 16.351725 37.021408 1.373912 1.113323 0.030902 -0.018119 -288036.000000 0 0 1
-6.003261 -33.766402 15.525225 37.646270 1.394847 1.145712 0.023953 -0.008839 -189002.000000 0 0 1
-6.674261 -34.042972 14.291925 37.519712 1.377198 1.180008 0.029784 -0.017251 73947.500000 0 0 1
-6.162261 32.999251 13.530725 36.193985 -1.386183 1.187652 0.025462 -0.015019 622466.000000 0 0 1
-4.861261 33.222485 12.667525 35.886370 -1.425503 1.210032 0.063658 -0.023724 867529.000000 0 0 1
-5.191261 33.538084 11.320425 35.775750 -1.417228 1.248835 0.062272 -0.027765 119735.000000 0 0 1
-4.033261 33.899217 10.610825 35.749318 -1.452375 1.269444 0.088483 -0.034656 -560262.000000 0 0 1
-4.354261 -33.840192 9.170025 35.329981 1.442828 1.308236 0.097104 -0.037772 -352025.000000 0 0 1
-4.741261 33.267069 8.206025 34.590697 -1.429229 1.331281 0.100501 -0.053195 926504.000000 0 0 1
-5.698261 32.228458 8.521325 33.819472 -1.395797 1.316086 0.117241 -0.048238 762000.000000 0 0 1
-7.159261 32.508415 8.959725 34.472145 -1.354029 1.307865 0.117550 -0.040288 331396.000000 0 0 1
-7.910261 33.077248 7.898625 34.915110 -1.336060 1.342597 0.138529 -0.040121 -234826.000000 0 0 1
-9.279961 33.191816 8.252125 35.438848 -1.298172 1.335784 0.104800 -0.041360 352282.000000 0 0 1
-10.220561 33.657158 7.102425 35.884657 -1.275979 1.371557 0.122047 -0.043030 73046.100000 0 0 1
-10.280761 -33.090852 6.785825 35.309290 1.269568 1.377411 0.141015 -0.040910 -439139.000000 0 0 1
-11.017961 -32.969592 5.641525 35.216704 1.248279 1.409909 0.139880 -0.035562 -292556.000000 0 0 1
-11.423861 -31.573502 5.197825 33.976580 1.223632 1.417211 0.112953 -0.039366 -21481.300000 0 0 1
-12.331461 -30.952892 6.042925 33.862419 1.191675 1.391380 0.119046 -0.038371 -192037.000000 0 0 1
-13.259661 -30.093252 5.386925 33.323286 1.155771 1.408427 0.114195 -0.035727 305390.000000 0 0 1
-14.362861 -29.543272 6.319625 33.451971 1.118279 1.380738 0.089618 -0.030860 463444.000000 0 0 1
-15.283061 -30.587402 6.777625 34.858246 1.107427 1.375116 0.108766 -0.031521 865001.000000 0 0 1
-16.279161 -29.935622 7.577225 34.907977 1.072721 1.351992 0.105365 -0.034261 -68771.400000 0 0 1
33.911782 -12.453692 -13.065575 38.416307 -0.351948 1.917825 0.066460 -0.029099 348460.000000 0 0 1
32.829002 -12.710692 -12.136075 37.236935 -0.369405 1.902776 0.083594 -0.030615 775666.000000 0 0 1
32.625342 -14.043892 -11.598175 37.365244 -0.406486 1.886410 0.094215 -0.034214 233451.000000 0 0 1
33.634572 -14.476392 -10.464975 38.083672 -0.406437 1.849167 0.069855 -0.018120 -39343.200000 0 0 1
34.929542 -14.618592 -10.939575 39.413835 -0.396366 1.852046 0.078857 -0.026997 -615685.000000 0 0 1
35.821562 -15.189892 -9.995275 40.172411 -0.401060 1.822247 0.061129 -0.023457 1366720.000000 0 0 1
-36.840715 -15.311092 -10.427875 41.236008 0.393884 1.826455 0.034400 -0.018059 1010740.000000 0 0 1
-36.323775 -14.023592 -10.666075 40.371312 0.368442 1.838170 0.035349 -0.011987 109089.000000 0 0 1
-34.908125 -14.044092 -10.784675 39.142341 0.382501 1.849932 0.055277 -0.008706 579689.000000 0 0 1
-34.331302 -12.550192 -10.947575 38.157502 0.350470 1.861791 0.067389 -0.023975 -8585.500000 0 0 1
-34.562852 -11.689892 -9.887475 37.802201 0.326143 1.835433 0.097164 -0.027674 58565.900000 0 0 1
-34.103310 -10.365892 -10.185575 37.070654 0.295082 1.849138 0.107827 -0.026759 -372344.000000 0 0 1
-34.310605 -9.354792 -9.091975 36.706862 0.266180 1.821093 0.119623 -0.038319 -138452.000000 0 0 1
-33.392655 -9.477692 -8.031375 35.628626 0.276553 1.798170 0.131988 -0.031939 441902.000000 0 0 1
-33.821345 -8.556592 -7.011675 35.584578 0.247794 1.769137 0.155703 -0.043097 184886.000000 0 0 1
-32.956685 -8.674592 -5.733475 34.558130 0.257374 1.737475 0.141877 -0.026955 -1251580.000000 0 0 1
-31.761015 -7.992092 -5.822075 33.264578 0.246514 1.746726 0.150287 -0.042064 -613478.000000 0 0 1
-31.005165 -8.019892 -4.641575 32.360209 0.253115 1.714727 0.156852 -0.037055 -116054.000000 0 0 1
-30.256085 -9.338992 -4.219575 31.944518 0.299387 1.703274 0.159884 -0.036760 -689610.000000 0 0 1
-31.040015 -10.471692 -3.929575 32.993642 0.325371 1.690181 0.152247 -0.036637 241730.000000 0 0 1
-31.737655 -10.448792 -2.690175 33.521530 0.318047 1.651135 0.128283 -0.041446 241649.000000 0 0 1
-32.346485 -11.848792 -2.189575 34.517867 0.351129 1.634272 0.114398 -0.035551 41192.700000 0 0 1
-33.461405 -12.283892 -2.943575 35.766244 0.351832 1.653190 0.109148 -0.039937 430061.000000 0 0 1
-34.010965 -13.504292 -2.411075 36.673218 0.377967 1.636589 0.104026 -0.041187 -1156640.000000 0 0 1
-35.514345 -13.517392 -2.434875 38.077778 0.363687 1.634785 0.083584 -0.033896 -872692.000000 0 0 1
-36.096285 -12.699792 -1.379775 38.290080 0.338305 1.606839 0.108285 -0.037486 -20962.300000 0 0 1
36.696732 -12.774192 -1.214975 38.875523 -0.334983 1.602054 0.158883 -0.039913 -256954.000000 0 0 1
36.245082 -11.831892 -0.063075 38.127465 -0.315535 1.572451 0.144056 -0.042664 -109866.000000 0 0 1
36.319072 -12.437792 1.207625 38.408749 -0.329941 1.539350 0.160351 -0.038094 216385.000000 0 0 1
36.524982 -11.436892 2.157025 38.334444 -0.303454 1.514498 0.127979 -0.033291 -459037.000000 0 0 1
36.462042 -11.862092 3.647825 38.516183 -0.314528 1.475945 0.155181 -0.041187 -323790.000000 0 0 1
35.255062 -11.882092 4.353425 37.457387 -0.325076 1.454310 0.143857 -0.048011 -307399.000000 0 0 1
35.490122 -12.454992 5.630425 38.031267 -0.337514 1.422203 0.142066 -0.043740 349064.000000 0 0 1
34.178102 -12.555292 6.447025 36.977590 -0.352046 1.395551 0.134582 -0.041920 59766.200000 0 0 1
33.651442 -11.287592 6.854925 36.149955 -0.323633 1.380016 0.120055 -0.037786 62835.900000 0 0 1
33.722532 -11.099692 8.245125 36.447146 -0.317979 1.342600 0.076474 -0.021091 -376838.000000 0 0 1
32.918392 -9.876592 8.739625 35.461932 -0.291487 1.321780 0.089758 -0.033607 1167380.000000 0 0 1
31.509052 -10.044492 8.414425 34.124987 -0.308597 1.321650 0.119982 -0.033622 1424540.000000 0 0 1
30.658312 -9.166192 9.144025 33.280090 -0.290520 1.292457 0.125816 -0.017081 386805.000000 0 0 1
29.161752 -9.287892 8.759525 31.833976 -0.308338 1.292037 0.139627 -0.020840 181779.000000 0 0 1
28.755592 -8.685192 7.533225 30.968793 -0.293323 1.325079 0.148226 -0.029842 103098.000000 0 0 1
27.881892 -9.449992 6.730525 30.199374 -0.326778 1.346039 0.163039 -0.039699 -75018.400000 0 0 1
27.077192 -8.599192 5.716825 28.979346 -0.307507 1.372221 0.172328 -0.045061 -56428.100000 0 0 1
26.004992 -7.911492 6.326525 27.908354 -0.295333 1.342119 0.179151 -0.036488 300302.000000 0 0 1
25.027792 -7.291892 5.496425 26.641561 -0.283504 1.362994 0.183607 -0.038310 156575.000000 0 0 1
25.375892 -6.044992 4.631925 26.494010 -0.233859 1.395064 0.171132 -0.036152 -535415.000000 0 0 1
26.114392 -6.444992 3.503325 27.125130 -0.241963 1.441280 0.161521 -0.037172 57728.000000 0 0 1
26.595792 -5.261892 2.865725 27.262356 -0.195324 1.465485 0.167873 -0.037388 97753.800000 0 0 1
27.155192 -5.457892 1.400625 27.733640 -0.198346 1.520272 0.164249 -0.048099 -27773.600000 0 0 1
26.203592 -5.807792 0.413225 26.842679 -0.218115 1.555401 0.172931 -0.055867 32951.700000 0 0 1
26.743092 -5.734592 -0.921975 27.366559 -0.211234 1.604493 0.165229 -0.052908 353698.000000 0 0 1
25.667192 -6.081392 -2.035875 26.456244 -0.232643 1.647825 0.156124 -0.048772 936023.000000 0 0 1
24.821192 -4.926192 -2.221375 25.402627 -0.195921 1.658355 0.171108 -0.049554 70592.600000 0 0 1
24.008992 -5.005792 -3.364475 24.754986 -0.205552 1.707129 0.148493 -0.044753 238758.000000 0 1 0
22.792692 -4.017492 -3.229575 23.368295 -0.174470 1.709443 0.124504 -0.041919 221454.000000 0 1 0
23.124992 -2.620492 -3.055375 23.472698 -0.112837 1.701334 0.121842 -0.042477 155079.000000 0 1 0
23.779892 -2.026592 -4.165875 24.226945 -0.085017 1.743607 0.130591 -0.036634 -482635.000000 0 1 0
22.896592 -1.428992 -5.259475 23.536313 -0.062330 1.796161 0.132596 -0.029472 -327080.000000 0 1 0
22.269192 -0.214692 -4.853375 22.792943 -0.009640 1.785372 0.097884 -0.019876 20717.100000 0 1 0
21.624792 0.491208 -5.851075 22.407766 0.022711 1.834977 0.122364 -0.012001 -424193.000000 0 1 0
21.367092 2.000308 -5.571475 22.171946 0.093344 1.824804 0.114063 0.001223 836322.000000 0 1 0
22.557392 2.782908 -5.241275 23.324911 0.122750 1.797439 0.136931 -0.007349 1583520.000000 0 1 0
23.139492 2.594608 -3.937975 23.615159 0.111663 1.738335 0.142335 0.002290 866601.000000 0 1 0
24.468492 3.363108 -3.616175 24.961857 0.136591 1.716176 0.153231 -0.014253 670862.000000 0 1 0
24.072592 4.753208 -3.554875 24.793544 0.194945 1.714671 0.140881 -0.004009 315945.000000 0 1 0
25.052892 5.633108 -3.116575 25.866819 0.221170 1.691575 0.140752 -0.013190 -551937.000000 0 0 1
24.651792 7.103508 -3.387675 25.877539 0.280554 1.702085 0.125038 -0.016462 474728.000000 0 0 1
23.688392 7.547408 -2.395575 24.976831 0.308443 1.666856 0.134800 -0.024299 1096190.000000 0 1 0
23.046792 8.764808 -2.756575 24.810788 0.363413 1.682130 0.136058 -0.016328 -69515.100000 0 1 0
21.888392 9.137908 -1.803275 23.787704 0.395482 1.646676 0.109710 -0.012925 -120851.000000 0 1 0
22.327492 9.622708 -0.540775 24.318837 0.406925 1.593035 0.090268 -0.007736 1152040.000000 0 1 0
21.204492 10.093708 0.228825 23.485438 0.444278 1.561053 0.063705 -0.003362 340684.000000 0 1 0
21.453092 10.120008 1.751825 23.784840 0.440775 1.497077 0.071300 -0.015758 132438.000000 0 1 0
22.508392 10.995508 2.220825 25.148777 0.454411 1.482374 0.096124 -0.026148 959207.000000 0 0 1
22.357692 12.379908 2.016425 25.635805 0.505695 1.492058 0.108934 -0.020796 -315524.000000 0 0 1
21.224692 13.169808 2.715625 25.125804 0.555353 1.462504 0.094544 -0.012362 732848.000000 0 0 1
19.845292 12.845608 2.402625 23.761689 0.574466 1.469510 0.126422 -0.012550 2060220.000000 0 1 0
18.889292 13.608408 3.186025 23.497763 0.624306 1.434789 0.113946 -0.016555 462240.000000 0 1 0
18.870892 13.388808 4.714325 23.613463 0.617070 1.369800 0.104950 -0.017299 -950133.000000 0 1 0
18.450692 12.129208 5.169825 22.677584 0.581549 1.340803 0.092565 -0.010740 424946.000000 0 1 0
18.587592 11.980908 6.599225 23.077923 0.572545 1.280794 0.092802 -0.020076 -164764.000000 0 1 0
18.638592 10.541208 7.175625 22.583263 0.514710 1.247450 0.074186 -0.024749 117086.000000 0 1 0
19.824592 9.800008 6.898125 23.165464 0.459106 1.268434 0.068641 -0.023539 639101.000000 0 1 0
19.760492 8.511408 7.392325 22.750112 0.406713 1.239853 0.071349 -0.020650 353935.000000 0 1 0
20.689392 7.527808 6.578825 22.978246 0.348959 1.280426 0.076473 -0.020646 710379.000000 0 1 0
20.111492 7.357508 5.287225 22.058100 0.350712 1.328744 0.055274 -0.022190 753789.000000 0 1 0
21.096192 6.853908 4.426925 22.619086 0.314131 1.373808 0.064602 -0.015759 -201135.000000 0 1 0
20.590792 6.636608 3.002325 21.841228 0.311797 1.432898 0.060093 -0.006707 165280.000000 0 1 0
21.550092 5.916908 2.226425 22.458255 0.267962 1.471497 0.059114 -0.007486 1046600.000000 0 1 0
20.998692 5.711908 0.913325 21.780843 0.265587 1.528852 0.045175 0.000081 -399025.000000 0 1 0
21.932792 4.780808 0.169425 22.448434 0.214618 1.563249 0.086489 -0.012181 -202872.000000 0 1 0
22.084992 3.459708 0.702225 22.365366 0.155391 1.539393 0.083445 -0.009220 1051030.000000 0 1 0
23.222892 2.843208 0.076525 23.396419 0.121825 1.567526 0.102471 -0.012190 552485.000000 0 1 0
23.149192 1.319608 0.117825 23.187073 0.056943 1.565715 0.131236 -0.015817 430044.000000 0 1 0
22.015492 0.843508 -0.641275 22.040976 0.038296 1.599895 0.076310 -0.020477 1188700.000000 0 1 0
22.116892 -0.496592 -1.114875 22.150541 -0.022449 1.621149 0.099029 -0.031420 -1897910.000000 0 1 0
21.997492 -1.689392 -0.122075 22.062606 -0.076649 1.576329 0.115030 -0.024980 852338.000000 0 1 0
23.111392 -1.942692 0.796525 23.206571 -0.083861 1.536466 0.124863 -0.015260 2196850.000000 0 1 0
24.365992 -2.131392 0.082525 24.459174 -0.087252 1.567422 0.144479 -0.033876 -660071.000000 0 1 0
25.569392 -2.063892 0.977525 25.671171 -0.080543 1.532708 0.159528 -0.025814 -941012.000000 0 0 1
25.721792 -0.738492 1.519325 25.777205 -0.028703 1.511821 0.147086 -0.015121 641798.000000 0 0 1
26.650892 -0.748792 2.598525 26.787741 -0.028089 1.473639 0.148147 -0.013558 -183448.000000 0 0 1
26.441592 0.469408 3.485525 26.674464 0.017751 1.439753 0.132205 -0.007784 -230414.000000 0 0 1
26.721192 1.796708 3.073925 26.957360 0.067138 1.456519 0.150460 -0.008870 -586078.000000 0 0 1
28.048292 2.067708 2.780125 28.261479 0.073586 1.472265 0.137955 -0.011914 -749873.000000 0 0 1
28.177892 3.195508 1.767025 28.413505 0.112922 1.508567 0.159797 -0.023029 216592.000000 0 0 1
27.546992 2.896408 0.492525 27.703222 0.104759 1.553017 0.167546 -0.015041 413640.000000 0 0 1
27.683892 4.062908 -0.335175 27.982449 0.145720 1.582775 0.161019 -0.019074 -104955.000000 0 0 1
28.942692 4.187108 -1.226075 29.269687 0.143672 1.612697 0.166592 -0.026914 52414.900000 0 0 1
30.120272 4.314008 -0.426575 30.430633 0.142259 1.584815 0.158370 -0.026175 1293340.000000 0 0 1
31.279792 3.897808 -1.220075 31.545315 0.123972 1.609483 0.130092 -0.027725 1558920.000000 0 0 1
32.673492 4.149408 -0.554075 32.940578 0.126320 1.587618 0.100109 -0.026658 573177.000000 0 0 1
33.032092 3.344108 0.572525 33.205872 0.100894 1.553554 0.120282 -0.035135 81611.300000 0 0 1
32.430442 3.796908 1.759825 32.699344 0.116548 1.516952 0.107401 -0.012959 -71571.800000 0 0 1
32.616002 2.831808 2.956425 32.871921 0.086605 1.480737 0.126598 -0.007057 -47809.200000 0 0 1
31.858052 1.638008 2.784825 32.021458 0.051371 1.483719 0.131136 -0.014301 230402.000000 0 0 1
31.986982 0.591708 3.740625 32.210393 0.018496 1.454403 0.124135 -0.018475 -662175.000000 0 0 1
33.272642 -0.205092 3.613725 33.468938 -0.006164 1.462613 0.131711 -0.017605 -1077040.000000 0 0 1
34.373832 0.412008 4.170125 34.628312 0.011986 1.450078 0.132891 -0.020223 -416868.000000 0 0 1
35.558082 -0.347092 3.942925 35.777707 -0.009761 1.460366 0.124074 -0.016361 -724141.000000 0 0 1
36.796872 0.357408 4.505125 37.073355 0.009713 1.448976 0.141721 -0.033965 126380.000000 0 0 1
-36.676885 1.231808 3.585825 36.872339 -0.033573 1.473393 0.142509 -0.034770 265172.000000 0 0 1
-35.893585 0.491508 2.666425 35.995844 -0.013693 1.496652 0.164926 -0.035099 -897838.000000 0 0 1
-35.214572 1.405708 1.640325 35.280770 -0.039897 1.524286 0.192804 -0.036836 -75050.900000 0 0 1
-34.352794 2.343308 2.311325 34.510111 -0.068108 1.503771 0.202158 -0.065924 825613.000000 0 0 1
-33.588445 3.175308 1.396925 33.767108 -0.094256 1.529415 0.217462 -0.033520 309559.000000 0 0 1
-32.644275 4.199808 2.041425 32.976575 -0.127951 1.508851 0.234238 -0.039712 261377.000000 0 0 1
-31.739795 3.535608 2.937225 32.070896 -0.110936 1.479082 0.214896 -0.047870 183337.000000 0 0 1
-30.871745 4.397008 3.627925 31.393632 -0.141477 1.454975 0.213846 -0.045220 -657089.000000 0 0 1
-31.045985 4.463408 5.136025 31.782919 -0.142789 1.408488 0.216573 -0.035465 52781.400000 0 0 1
-32.220335 5.101508 5.641625 33.105940 -0.157028 1.399549 0.211826 -0.018612 696039.000000 0 0 1
-33.479115 4.475408 5.464525 34.216099 -0.132890 1.410403 0.204609 -0.015430 -169770.000000 0 0 1
-33.730245 3.378808 6.517125 34.519830 -0.099838 1.380863 0.182853 -0.018477 -836397.000000 0 0 1
-33.933705 4.030808 7.790725 35.049096 -0.118231 1.346644 0.177361 -0.028231 246572.000000 0 0 1
-34.001275 3.160808 8.946525 35.300392 -0.092695 1.314562 0.158966 -0.023715 478273.000000 0 0 1
-35.122291 2.036408 9.025625 36.320576 -0.057916 1.319666 0.139058 -0.019973 299826.000000 0 0 1
-34.896369 0.920708 8.202725 35.859294 -0.026378 1.340005 0.137444 -0.028220 337416.000000 0 0 1
-35.962315 -0.026792 8.230325 36.892100 0.000745 1.345811 0.122019 -0.022446 378556.000000 0 0 1
-36.135115 -0.879492 9.505925 37.374893 0.024334 1.313631 0.126573 -0.013413 52702.900000 0 0 1
-34.954778 -1.640492 9.682225 36.308032 0.046897 1.300861 0.123490 -0.028839 -234582.000000 0 0 1
-34.981702 -2.538292 10.783125 36.693844 0.072434 1.272526 0.110432 -0.021901 -584807.000000 0 0 1
-33.648815 -3.210792 11.077125 35.570418 0.095133 1.254116 0.093586 -0.015528 -525048.000000 0 0 1
-33.255405 -4.030792 9.938825 34.942087 0.120619 1.282377 0.097874 -0.013118 -185576.000000 0 0 1
-32.141375 -4.851392 10.137425 34.049543 0.149808 1.268487 0.087197 -0.010194 -200397.000000 0 0 1
-32.120965 -6.006892 9.123925 33.927645 0.184873 1.298522 0.088791 -0.013242 226243.000000 0 0 1
-33.129415 -6.974092 9.353425 35.123819 0.207481 1.301245 0.085151 -0.015388 66889.300000 0 0 1
-33.251255 -7.870892 8.250325 35.152023 0.232431 1.333882 0.091378 -0.015919 151066.000000 0 0 1
-34.186406 -9.073892 8.512625 36.380086 0.259442 1.334615 0.091646 -0.016889 690996.000000 0 0 1
-35.575913 -8.771292 8.501125 37.614495 0.241730 1.342820 0.097438 -0.023379 85684.500000 0 0 1
-36.386825 -9.876692 8.659725 38.685151 0.265050 1.345032 0.106282 -0.022955 -175461.000000 0 0 1
8.111365 -23.616792 10.647725 27.146292 -1.239962 1.167736 0.115541 -0.032889 218128.000000 0 0 1
7.422065 -24.116992 9.486025 26.957393 -1.272242 1.211207 0.110996 -0.034388 976943.000000 0 0 1
6.095065 -24.653492 9.704125 27.186661 -1.328427 1.205802 0.109509 -0.037589 1481820.000000 0 0 1
5.558865 -25.679722 8.679325 27.670919 -1.357616 1.251749 0.103740 -0.023406 73714.200000 0 0 1
4.999065 -25.170532 7.500825 26.735907 -1.374740 1.286427 0.098079 -0.022348 -304169.000000 0 0 1
4.688665 -26.244142 6.599125 27.464286 -1.394006 1.328142 0.089872 -0.017753 -394457.000000 0 0 1
3.942865 -25.903072 5.258325 26.723871 -1.419740 1.372739 0.073278 -0.011560 438574.000000 0 0 1
2.559165 -25.726412 5.518025 26.435699 -1.471646 1.360516 0.061143 -0.013076 -115421.000000 0 0 1
1.819065 -26.900142 5.258125 27.469520 -1.503276 1.378191 0.049706 -0.012034 -1337410.000000 0 0 1
0.324665 -26.712772 5.257925 27.227254 -1.558643 1.376463 0.067754 -0.021479 -1085600.000000 0 0 1
-0.187835 -26.515412 6.615225 27.328804 1.563712 1.326307 0.064632 -0.019984 678357.000000 0 0 1
-1.627835 -26.433742 6.652425 27.306543 1.509292 1.324700 0.056768 -0.025513 1419790.000000 0 0 1
-2.397635 -27.778362 6.629125 28.658879 1.484697 1.337371 0.066538 -0.025139 -418818.000000 0 0 1
-2.165235 -28.368492 7.863425 29.517673 1.494619 1.301143 0.078246 -0.025658 -60393.900000 0 0 1
-2.724835 -29.651762 8.007925 30.834697 1.479159 1.308080 0.086207 -0.025771 41369.000000 0 0 1
-2.517835 -30.163192 9.450925 31.709267 1.487516 1.268148 0.082509 -0.022461 -612039.000000 0 0 1
-1.198635 -30.454962 9.746525 31.999003 1.531459 1.261290 0.089520 -0.025191 -982732.000000 0 0 1
-0.993735 -30.846322 11.092325 32.795164 1.538592 1.225760 0.090147 -0.022330 1182570.000000 0 0 1
0.539665 -31.002192 11.449725 33.053341 -1.553391 1.217064 0.089351 -0.016123 852484.000000 0 0 1
1.086665 -32.212952 11.009025 34.059562 -1.537075 1.241657 0.094741 -0.019681 -80154.700000 0 0 1
2.490265 -32.274212 11.166325 34.241977 -1.493789 1.238621 0.105863 -0.010718 366358.000000 0 0 1
3.022565 -32.899012 12.486325 35.318397 -1.479179 1.209448 0.108429 -0.008786 -62221.900000 0 0 1
2.638565 -32.195152 13.678425 35.079754 -1.489024 1.170248 0.097283 -0.011494 423327.000000 0 0 1
3.389565 -32.758042 14.747425 36.084138 -1.467690 1.149772 0.093102 -0.009019 51001.600000 0 0 1
3.219865 -31.851202 16.020025 35.798154 -1.470048 1.106817 0.089582 -0.013407 33392.100000 0 0 1
3.607165 -30.483392 15.860725 34.551576 -1.453012 1.093876 0.092120 -0.014259 770910.000000 0 0 1
5.020565 -30.300242 16.030425 34.645133 -1.406594 1.089754 0.088532 -0.004397 724751.000000 0 0 1
5.588865 -29.045302 15.340525 33.319614 -1.380701 1.092345 0.102151 -0.011026 -113202.000000 0 0 1
5.854765 -29.092612 13.975325 32.801952 -1.372203 1.130672 0.104483 -0.008503 -332600.000000 0 0 1
4.720865 -29.054432 13.153325 32.240604 -1.409721 1.150563 0.101379 -0.004185 -631623.000000 0 0 1
5.099465 -29.150382 11.666425 31.809665 -1.397612 1.195275 0.101900 -0.010809 74221.400000 0 0 1
5.505065 -30.332962 11.095225 32.764285 -1.391263 1.225328 0.105898 -0.011945 -105572.000000 0 0 1
6.803365 -30.772222 11.422325 33.521410 -1.353209 1.223085 0.100074 -0.008988 -340053.000000 0 0 1
7.238765 -32.148482 10.864925 34.698288 -1.349323 1.252314 0.102619 -0.008541 -156903.000000 0 0 1
6.746365 -33.257962 11.536025 35.842508 -1.370662 1.243110 0.090598 -0.024126 -115261.000000 0 0 1
6.966765 33.605655 10.926925 36.017684 1.366383 1.262562 0.099596 -0.021076 -56721.000000 0 0 1
6.533865 32.399611 11.757225 35.080743 1.371800 1.229034 0.094147 -0.019456 773621.000000 0 0 1
5.193065 32.427078 12.274925 35.059337 1.411999 1.213099 0.106980 -0.017275 665595.000000 0 0 1
4.957665 31.177881 12.897325 34.102489 1.413104 1.182953 0.111931 -0.017575 720906.000000 0 0 1
3.656465 31.122431 13.769825 34.228403 1.453846 1.156777 0.098656 -0.022380 600306.000000 0 0 1
3.882365 31.865561 14.955825 35.414170 1.449558 1.134802 0.116164 -0.023840 415609.000000 0 0 1
2.964065 31.641381 16.029725 35.593746 1.477392 1.103636 0.099322 -0.018355 27971.900000 0 0 1
3.621365 31.983871 17.349925 36.566408 1.458052 1.076426 0.095135 -0.017262 -117209.000000 0 0 1
4.059365 33.346602 17.443325 37.851604 1.449660 1.091861 0.099175 -0.008326 51099.700000 0 0 1
4.757365 33.580491 18.632125 38.696744 1.430062 1.068441 0.083552 -0.010870 -213021.000000 0 0 1
5.075165 -33.043952 18.952225 38.429766 -1.418399 1.055072 0.073600 -0.012147 309570.000000 0 0 1
3.912265 -32.315242 19.361725 37.874227 -1.450317 1.034203 0.072971 -0.016839 350828.000000 0 0 1
4.037565 -31.898132 20.724725 38.253196 -1.444889 0.998246 0.066675 -0.019883 613834.000000 0 0 1
2.739365 -31.154692 21.152025 37.756153 -1.483094 0.976136 0.074079 -0.021281 180637.000000 0 0 1
1.618865 -31.921152 21.458225 38.497222 -1.520125 0.979549 0.080913 -0.017073 -775456.000000 0 0 1
0.580065 -31.093732 21.895125 38.033579 -1.552143 0.957362 0.090411 -0.019415 827518.000000 0 0 1
-0.651735 -31.922412 22.510525 39.066468 1.550383 0.956711 0.085511 -0.013396 487699.000000 0 0 1
-1.253535 -32.794482 21.533325 39.252178 1.532591 0.990120 0.084962 -0.015105 576388.000000 0 0 1
-2.114735 -33.866122 21.994225 40.436769 1.508433 0.995699 0.077604 -0.012411 393746.000000 0 0 1
-3.324935 -33.492092 22.854325 40.682866 1.471845 0.974275 0.087810 -0.016269 -598447.000000 0 0 1
-4.419035 -32.936152 22.184525 39.955865 1.437423 0.982162 0.074105 -0.021405 -729773.000000 0 0 1
-5.586835 -32.886652 22.945625 40.487607 1.402521 0.968262 0.065182 -0.026659 -66253.000000 0 0 1
-6.815535 -32.322372 22.217725 39.809729 1.362979 0.978705 0.053539 -0.021223 465831.000000 0 0 1
-7.609535 -33.187812 21.349825 40.188940 1.345405 1.010737 0.041301 -0.011406 -320935.000000 0 0 1
-8.740435 -32.452312 20.995325 39.627660 1.307708 1.012414 0.057299 -0.018246 -457082.000000 0 0 1
-9.769235 -33.434222 20.358625 40.345492 1.286518 1.041869 0.069845 -0.028266 40248.800000 0 0 1
-10.370035 33.965700 21.445225 41.486192 -1.274476 1.027542 0.093275 -0.037100 -475471.000000 0 0 1
-11.659635 33.514751 21.107725 41.288276 -1.235997 1.034183 0.093729 -0.037128 187334.000000 0 0 1
-12.406735 32.873643 22.305225 41.618825 -1.209917 1.005175 0.103361 -0.037528 -208607.000000 0 0 1
-12.772035 33.713926 23.423525 42.993200 -1.208667 0.994623 0.110035 -0.033961 573643.000000 0 0 1
-11.692135 34.019709 24.330125 43.428120 -1.239757 0.976122 0.095244 -0.034498 384604.000000 0 0 1
-11.671735 -32.634272 24.842925 42.642655 1.227320 0.948892 0.082744 -0.025286 -388518.000000 0 0 1
-12.554935 -32.433362 25.903625 43.365276 1.201460 0.930622 0.095364 -0.024741 -29511.400000 0 0 1
-12.595535 -31.040342 26.175325 42.512327 1.185318 0.907508 0.103089 -0.017447 199094.000000 0 0 1
-13.550035 -30.763772 27.358925 43.341941 1.155909 0.887653 0.107974 -0.011675 354620.000000 0 0 1
-12.828835 -30.626362 28.609325 43.829745 1.174119 0.859604 0.071732 -0.009494 513152.000000 0 0 1
-13.604535 -29.969012 29.613725 44.274121 1.144660 0.838106 0.094333 -0.016175 216286.000000 0 0 1
-12.958435 -29.674572 31.028425 44.847123 1.159070 0.806719 0.074961 -0.011187 434501.000000 0 0 1
-13.995335 -29.322432 31.959425 45.574985 1.125480 0.793648 0.094526 -0.015988 1053390.000000 0 0 1
-13.451135 -28.671912 33.089925 45.803436 1.132140 0.763481 0.082100 -0.011788 -86845.100000 0 0 1
-12.830335 -29.493682 -33.684062 46.573713 1.160470 2.379282 0.090448 -0.006958 -93961.700000 0 0 1
-11.530135 -29.929492 33.941625 46.698527 1.203076 0.757109 0.069244 -0.002662 -283207.000000 0 0 1
-11.072535 -30.946702 -33.131362 46.668903 1.227195 2.360186 0.085298 -0.003444 639451.000000 0 0 1
-9.531835 -31.207412 -33.319562 46.636376 1.274361 2.366640 0.085306 -0.008657 396337.000000 0 0 1
-8.743535 -30.300762 -32.610862 45.365779 1.289869 2.372933 0.081687 -0.012469 -181520.000000 0 0 1
-7.451235 -30.908782 -32.590062 45.530054 1.334238 2.368554 0.082793 -0.025102 568414.000000 0 0 1
-6.409335 -30.174662 -31.692562 44.226782 1.361499 2.369700 0.080808 -0.020906 72804.700000 0 0 1
-6.763135 -30.249502 -30.363062 43.389951 1.350835 2.345874 0.091452 -0.028849 -253953.000000 0 0 1
-5.977535 -29.503442 -29.479462 42.133391 1.370898 2.345732 0.074527 -0.026551 -209172.000000 0 0 1
-6.488135 -29.663472 -28.026062 41.321636 1.355463 2.316164 0.072295 -0.027964 36927.300000 0 0 1
-6.177935 -30.951942 -27.516162 41.872768 1.373788 2.287811 0.069663 -0.024921 19928.900000 0 0 1
-6.978035 -31.232932 -26.384662 41.476974 1.350987 2.260266 0.085098 -0.030195 -9799.480000 0 0 1
-6.703035 -32.591542 -25.730462 42.061811 1.367957 2.229042 0.086382 -0.032194 -431131.000000 0 0 1
-5.500835 -32.575952 -25.026462 41.446057 1.403513 2.219096 0.053655 -0.030588 -506673.000000 0 0 1
-5.230135 -33.790012 -24.412162 42.012770 1.417232 2.190833 0.073061 -0.035419 30540.800000 0 0 1
-4.308735 -33.574652 -23.164362 41.017193 1.443161 2.170924 0.076105 -0.046183 -68197.200000 0 0 1
-4.822735 -33.010742 -21.971862 39.946596 1.425727 2.153198 0.091092 -0.047476 -95220.200000 0 0 1
-5.103335 -31.630272 -22.163662 38.958260 1.410832 2.175974 0.066288 -0.034758 -144557.000000 0 0 1
-5.547235 -30.955122 -20.843362 37.728465 1.393476 2.156106 0.092853 -0.039527 821882.000000 0 0 1
-6.976635 -30.905002 -20.651762 37.819146 1.348773 2.148458 0.096903 -0.044254 960358.000000 0 0 1
-7.445435 -29.796872 -19.926362 36.610763 1.325937 2.146322 0.100592 -0.043725 -87875.000000 0 0 1
-7.827735 -28.556502 -20.759762 36.162341 1.303254 2.182266 0.118134 -0.050204 -470837.000000 0 0 1
-6.757735 -28.083992 -21.540362 36.032829 1.334660 2.211548 0.113975 -0.034723 -298887.000000 0 0 1
-7.113135 -27.409882 -22.758862 36.329934 1.316887 2.247786 0.131171 -0.046476 -549000.000000 0 0 1
-5.902335 -27.243992 -23.700362 36.589340 1.357446 2.275410 0.115751 -0.042969 507603.000000 0 0 1
-4.808235 -26.413152 -23.328162 35.566513 1.390729 2.286174 0.123862 -0.034770 609046.000000 0 0 1
-3.922235 -27.008282 -22.381562 35.295404 1.426581 2.257668 0.084562 -0.028627 -1248320.000000 0 0 1
-2.451935 -26.994812 -22.834162 35.441935 1.480215 2.270864 0.079050 -0.027716 -263164.000000 0 0 1
-1.835035 -25.716052 -22.951862 34.517686 1.499560 2.298197 0.080953 -0.023898 124316.000000 0 0 1
-1.870735 -24.856092 -21.808462 33.119993 1.495675 2.289578 0.083279 -0.030864 -1147800.000000 0 0 1
-1.447335 -23.430392 -22.193962 32.305572 1.509103 2.328150 0.086672 -0.028557 404574.000000 0 0 1
-2.235835 -22.838192 -23.260262 32.674481 1.473208 2.362966 0.116728 -0.032735 474628.000000 0 0 1
-3.578835 -22.540492 -22.924762 32.348517 1.413337 2.358422 0.111303 -0.032071 -231952.000000 0 0 1
-4.604535 -22.775792 -24.054862 33.445101 1.371317 2.373496 0.098540 -0.030562 -108528.000000 0 0 1
-4.526435 -21.801392 -25.068262 33.529197 1.366083 2.415320 0.099750 -0.036230 -25286.500000 0 0 1
-5.271135 -22.118192 -26.211562 34.699355 1.336844 2.427046 0.135530 -0.041861 -55548.000000 0 0 1
-5.608335 -20.848492 -27.062262 34.619056 1.308013 2.468209 0.132490 -0.037897 139993.000000 0 0 1
-6.079935 -21.277692 -28.373762 35.982998 1.292471 2.479215 0.141731 -0.032439 238203.000000 0 0 1
-5.033335 -21.667692 -29.244462 36.743188 1.342548 2.491314 0.124877 -0.032075 170165.000000 0 0 1
-5.576135 -22.012492 -30.660362 38.153648 1.322698 2.504120 0.127751 -0.038728 -133617.000000 0 0 1
-6.044435 -20.891392 -31.440162 38.229167 1.289160 2.536436 0.128314 -0.042177 501707.000000 0 0 1
-7.110735 -21.220792 -32.348162 39.335583 1.247472 2.536350 0.105305 -0.034710 406003.000000 0 0 1
-7.053935 -20.453092 -33.674062 40.025359 1.238687 2.570514 0.093051 -0.029879 288931.000000 0 0 1
-6.072335 -20.980392 33.359125 39.873316 1.289066 0.579699 0.099535 -0.029412 -132866.000000 0 0 1
-5.907835 -20.203892 32.249025 38.511029 1.286317 0.578293 0.100784 -0.025914 -806935.000000 0 0 1
-4.636935 -20.597792 31.546525 37.959893 1.349370 0.589806 0.087877 -0.027917 -1693270.000000 0 0 1
-4.497335 -22.017792 31.309225 38.539289 1.369309 0.622544 0.092056 -0.026557 -82080.600000 0 0 1
-3.455835 -22.425992 30.460325 37.982882 1.417899 0.640246 0.093816 -0.023181 -123288.000000 0 0 1
-2.001035 -22.179492 30.884525 38.076080 1.480820 0.624720 0.073944 -0.027092 -926235.000000 0 0 1
-1.556535 -20.854392 30.692725 37.139896 1.496296 0.598097 0.078304 -0.024749 -667291.000000 0 0 1
-0.531335 -20.429492 31.525025 37.569584 1.544794 0.575151 0.091116 -0.027340 -475823.000000 0 0 1
-0.899435 -20.145692 33.070625 38.734018 1.526179 0.547579 0.079049 -0.026245 -367607.000000 0 0 1
-1.839335 -19.106092 33.188225 38.339069 1.474823 0.524349 0.072539 -0.022224 -104310.000000 0 0 1
-1.937435 -18.739592 -33.365362 38.316750 1.467775 2.627578 0.075346 -0.025528 121871.000000 0 0 1
-3.014835 -17.650992 -33.040662 37.581007 1.401626 2.644946 0.076402 -0.029328 384538.000000 0 0 1
-2.819235 -16.415692 -33.642962 37.540270 1.400715 2.681887 0.075912 -0.023700 309597.000000 0 0 1
-3.861835 -15.503792 -33.261762 36.900218 1.326675 2.693782 0.087987 -0.029698 535655.000000 0 0 1
-3.588435 -14.007192 -33.664362 36.638334 1.320005 2.735899 0.087656 -0.029322 -855144.000000 0 0 1
-2.560035 -13.493592 -32.906462 35.657622 1.383302 2.746199 0.079267 -0.030263 -699378.000000 0 0 1
-2.402835 -12.086592 -33.020862 35.245377 1.374553 2.784408 0.077001 -0.034082 -53493.300000 0 0 1
-1.744035 -11.484392 33.653225 35.601580 1.420087 0.332365 0.082452 -0.035856 -562801.000000 0 0 1
-2.574635 -11.496692 32.528125 34.595977 1.350486 0.347495 0.077669 -0.029383 -64484.600000 0 0 1
-1.907335 -11.106792 31.323425 33.288973 1.400728 0.345356 0.076441 -0.023791 230583.000000 0 0 1
-0.766635 -12.008092 30.742825 33.013684 1.507040 0.373065 0.070552 -0.024042 88627.400000 0 0 1
-1.226535 -13.296892 30.351525 33.159114 1.478814 0.414470 0.078743 -0.026449 -165563.000000 0 0 1
-0.254035 -14.120592 29.770925 32.950928 1.552808 0.442946 0.082021 -0.028358 -383390.000000 0 0 1
-0.602235 -15.600992 29.949525 33.774661 1.532213 0.480540 0.085875 -0.030361 1085340.000000 0 0 1
-1.790235 -15.988392 29.197425 33.336515 1.459290 0.503624 0.086998 -0.028604 834113.000000 0 0 1
-2.394635 -17.053392 29.801225 34.418970 1.431289 0.523975 0.086111 -0.027406 -461641.000000 0 0 1
-2.640635 -18.313792 28.978925 34.382351 1.427595 0.568252 0.090416 -0.020374 -677289.000000 0 0 1
-3.699735 -18.299092 28.085525 33.724495 1.371304 0.586662 0.090517 -0.022610 -486965.000000 0 0 1
-3.899035 -19.550492 27.567525 34.020474 1.373945 0.626096 0.093940 -0.023250 377393.000000 0 0 1
-4.768735 -19.343092 26.289125 32.985059 1.329082 0.648483 0.074723 -0.029438 -149280.000000 0 0 1
-5.309835 -20.437592 25.575525 33.166203 1.316609 0.690179 0.090843 -0.023804 -398533.000000 0 0 1
-4.442635 -21.322392 24.906225 33.086273 1.365380 0.718542 0.088816 -0.028873 -490145.000000 0 0 1
-30.322285 -33.589895 -0.799675 45.258827 0.836480 1.588466 0.075266 0.000973 -221313.000000 0 0 1
-29.559545 -32.526495 -0.320475 43.952727 0.833150 1.578088 0.090560 -0.006976 -5139.040000 0 0 1
-29.943145 -32.262295 1.018925 44.028238 0.822663 1.547652 0.068184 0.006258 40748.600000 0 0 1
-29.470395 -30.881095 1.583425 42.715962 0.808769 1.533719 0.087881 -0.009048 413752.000000 0 0 1
-28.064775 -30.729395 1.753325 41.653348 0.830688 1.528691 0.087142 -0.008433 171964.000000 0 0 1
-27.728445 -29.342095 2.004525 40.420827 0.813665 1.521185 0.090170 -0.019980 448368.000000 0 0 1
-26.198155 -29.070095 2.069125 39.187944 0.837315 1.517972 0.091750 -0.015247 407500.000000 0 0 1
-25.690165 -29.827595 3.178325 39.493945 0.859785 1.490233 0.068638 -0.003938 197505.000000 0 0 1
-24.317535 -29.515095 3.351225 38.388983 0.881650 1.483389 0.066096 -0.006548 287160.000000 0 0 1
-23.474435 -30.141495 4.481725 38.466149 0.909112 1.454020 0.060281 -0.012723 -19475.600000 0 0 1
-23.984935 -29.915795 5.742625 38.771247 0.894990 1.422134 0.048014 -0.008595 -138499.000000 0 0 1
-23.111735 -30.531895 6.663325 38.868352 0.922849 1.398512 0.032980 -0.007481 81650.000000 0 0 1
-23.576335 -30.444295 8.119125 39.352495 0.911856 1.362986 0.032533 -0.003815 -299721.000000 0 0 1
-23.495935 -29.109595 8.590225 38.382541 0.891708 1.345079 0.050196 -0.013986 -184752.000000 0 0 1
-23.998335 -28.917395 9.857025 38.849668 0.878092 1.314270 0.023176 -0.009868 -481346.000000 0 0 1
-23.404835 -27.732795 10.601325 37.805850 0.869831 1.286570 0.039949 -0.015856 -99998.900000 0 0 1
-22.089635 -27.938395 11.046225 37.289743 0.901780 1.270056 0.042803 -0.024813 -419138.000000 0 0 1
-21.492435 -26.843495 11.718225 36.329255 0.895655 1.242368 0.057815 -0.021723 -597604.000000 0 0 1
-20.094935 -27.018495 12.232925 35.825269 0.931309 1.222326 0.048227 -0.025701 -866053.000000 0 0 1
-20.011335 -28.033995 13.216125 36.892063 0.950853 1.204417 0.044828 -0.019683 627429.000000 0 0 1
-18.720335 -28.003295 13.877725 36.431123 0.981522 1.179994 0.054354 -0.029331 1217670.000000 0 0 1
-18.683535 -29.107595 14.909225 37.664460 1.000152 1.163810 0.081577 -0.035497 157691.000000 0 0 1
-18.609535 -30.433295 14.378025 38.460731 1.021974 1.187654 0.067357 -0.024512 -176234.000000 0 0 1
-18.288735 -31.331995 15.401225 39.412808 1.042442 1.169332 0.074691 -0.019205 143376.000000 0 0 1
-17.984835 -32.750095 14.887325 40.220087 1.068603 1.191630 0.059222 -0.020652 138962.000000 0 0 1
-17.747535 -33.717295 15.945925 41.305006 1.086281 1.174447 0.069281 -0.014655 141436.000000 0 0 1
-17.545635 33.036408 15.458225 40.474811 -1.082579 1.178921 0.050733 -0.014177 -191380.000000 0 0 1
-17.373835 32.000708 16.611725 40.023054 -1.073405 1.142794 0.062079 -0.018921 577546.000000 0 0 1
-18.613235 31.763408 17.301525 40.678119 -1.040737 1.131473 0.059303 -0.025274 842163.000000 0 0 1
-18.552235 30.592508 18.033225 40.065998 -1.025662 1.103932 0.037268 -0.016897 -6262.310000 0 0 1
-19.407035 30.447208 19.322225 40.951360 -1.003330 1.079427 0.049635 -0.023295 292164.000000 0 0 1
-18.841635 31.383208 20.263525 41.839257 -1.030103 1.065212 0.057782 -0.025676 771691.000000 0 0 1
-19.809235 31.851108 21.209225 43.089791 -1.014406 1.056170 0.067243 -0.018211 108453.000000 0 0 1
-19.219835 32.946208 22.084225 44.074570 -1.042694 1.045967 0.053773 -0.011126 -302526.000000 0 0 1
-18.249435 32.449308 22.969725 43.744803 -1.058484 1.017982 0.056117 -0.028918 -269546.000000 0 0 1
-18.234735 33.248508 24.216025 44.993163 -1.069153 1.002478 0.056919 -0.027644 -213801.000000 0 0 1
-19.220335 32.782308 25.288525 45.646583 -1.040510 0.983627 0.066705 -0.025326 113667.000000 0 0 1
-20.577135 32.949908 24.905225 46.145262 -1.012558 1.000699 0.068203 -0.023503 274287.000000 0 0 1
-21.450435 32.112608 25.692425 46.383634 -0.981888 0.983741 0.059987 -0.017948 -195435.000000 0 0 1
-22.909035 32.311808 25.302825 47.001168 -0.954056 1.002325 0.088817 -0.034313 -786476.000000 0 0 1
-23.043535 31.912608 24.004925 46.104832 -0.945403 1.023173 0.093943 -0.021761 -755832.000000 0 0 1
-24.323035 32.075908 23.508025 46.616533 -0.922007 1.042242 0.087108 -0.026807 -840581.000000 0 0 1
-24.456535 31.673308 22.041725 45.685427 -0.913269 1.067327 0.080157 -0.030392 -177194.000000 0 0 1
-23.842035 32.572608 21.183525 45.586831 -0.938937 1.087517 0.091644 -0.028489 18647.100000 0 0 1
-23.677835 32.043608 19.906125 44.538596 -0.934421 1.107453 0.066552 -0.014420 -37147.000000 0 0 1
-23.009935 33.070908 18.960025 44.526673 -0.962911 1.130936 0.060886 -0.005758 324290.000000 0 0 1
-21.712735 33.504508 19.368325 44.374846 -0.995790 1.119124 0.063835 -0.005401 384249.000000 0 0 1
-21.028535 -33.955595 18.296425 43.931092 1.016310 1.141226 0.071736 -0.000932 -317453.000000 0 0 1
-19.805035 -33.180995 18.715925 42.936042 1.032675 1.119756 0.071209 -0.008849 -650408.000000 0 0 1
-20.143935 -32.079895 19.563125 42.633480 1.010093 1.094076 0.086768 -0.013074 378780.000000 0 0 1
-19.065035 -31.551595 20.320925 42.094164 1.027258 1.067005 0.067589 -0.023849 135453.000000 0 0 1
-19.534335 -30.385895 21.266725 41.918569 0.999446 1.038708 0.066361 -0.012315 72660.800000 0 0 1
-19.965335 -29.249295 20.579225 40.959008 0.971849 1.044384 0.075389 -0.015405 317224.000000 0 0 1
-20.644435 -28.377595 21.470025 41.139307 0.941858 1.021736 0.083085 -0.014650 -273805.000000 0 0 1
-21.452335 -27.209895 20.905825 40.467698 0.903167 1.027915 0.070969 -0.023326 -928905.000000 0 0 1
-20.715535 -26.195095 20.331725 39.098535 0.901680 1.023931 0.056867 -0.007280 294185.000000 0 0 1
-21.494035 -25.033595 19.935825 38.550117 0.861326 1.027290 0.046102 0.010426 -358919.000000 0 0 1
-22.651635 -25.121295 18.942825 38.768629 0.837048 1.060298 0.039393 -0.004009 -834941.000000 0 0 1
-23.797035 -25.761295 19.412525 40.084776 0.825013 1.065249 0.051878 -0.003947 -121976.000000 0 0 1
-24.845935 -25.489995 18.486925 40.110182 0.798193 1.091783 0.039944 -0.001135 43943.100000 0 0 1
-26.293515 -25.837195 18.899425 41.425811 0.776645 1.097050 0.047410 -0.001370 141673.000000 0 0 1
-26.668575 -27.203095 19.069225 42.601134 0.795320 1.106692 0.042208 -0.003144 -130552.000000 0 0 1
-26.686195 -27.977695 17.873125 42.595223 0.809020 1.137787 0.047047 -0.006217 -842061.000000 0 0 1
-27.734075 -29.071195 17.860225 43.969318 0.808932 1.152507 0.058897 -0.014005 603002.000000 0 0 1
-28.992145 -28.503995 18.267325 44.572607 0.776908 1.148525 0.043344 -0.019561 854900.000000 0 0 1
-30.171315 -29.241695 17.943325 45.687502 0.769753 1.167187 0.041833 -0.010869 1184200.000000 0 0 1
-31.514305 -28.572295 18.380425 46.339696 0.736474 1.162937 0.045879 -0.017922 716293.000000 0 0 1
-31.798325 -27.301895 17.824925 45.543988 0.709463 1.168668 0.066191 -0.011253 -167868.000000 0 0 1
-33.067205 -26.786295 18.170025 46.271972 0.680843 1.167254 0.072131 0.004472 -7346.490000 0 0 1
-33.281935 -25.574595 17.277125 45.389934 0.655188 1.180310 0.087230 -0.020129 -237546.000000 0 0 1
-33.461625 -25.892995 15.892825 45.196343 0.658567 1.211474 0.109681 -0.033856 147609.000000 0 0 1
-34.138430 -24.844395 15.179425 44.867486 0.629111 1.225669 0.127927 -0.038999 -206589.000000 0 0 1
-33.480205 -23.504695 14.894625 43.534407 0.612099 1.221609 0.108059 -0.037944 -283168.000000 0 0 1
-33.069055 -22.745595 16.006025 43.210153 0.602505 1.191332 0.079552 -0.030662 189200.000000 0 0 1
-32.592425 -21.452695 15.707125 42.061836 0.582126 1.188093 0.076075 -0.034616 -63059.800000 0 0 1
-33.613305 -20.359095 16.071425 42.457481 0.544590 1.182589 0.082961 -0.039097 19183.200000 0 0 1
-33.650525 -20.119195 17.450625 42.914614 0.538864 1.152028 0.077016 -0.027813 -56168.900000 0 0 1
-34.375556 -18.985995 17.784625 43.109624 0.504616 1.145551 0.071532 -0.024926 -339986.000000 0 0 1
-34.836356 -18.968795 19.225525 44.079561 0.498620 1.119475 0.051535 -0.020822 -434533.000000 0 0 1
-35.925899 -19.792395 19.541925 45.434523 0.503551 1.126180 0.063130 -0.020800 19579.400000 0 0 1
-36.430005 -19.410795 20.791225 46.219035 0.489561 1.104209 0.052523 -0.007288 -187277.000000 0 0 1
36.385832 -19.987695 21.258825 46.640909 -0.502326 1.097528 0.062355 -0.006668 -86010.700000 0 0 1
36.152192 -21.325495 21.440025 47.132074 -0.532946 1.098545 0.073379 -0.017196 -75821.200000 0 0 1
36.985592 -22.042895 22.334125 48.503983 -0.537463 1.092283 0.051616 0.000251 -205923.000000 0 0 1
36.329472 -23.360595 22.815025 48.847449 -0.571453 1.084826 0.059628 0.011003 796073.000000 0 0 1
35.198432 -23.147995 23.693825 48.333804 -0.581729 1.058463 0.086533 -0.013572 525866.000000 0 0 1
34.637912 -24.328495 24.015925 48.666470 -0.612312 1.054710 0.079476 -0.022966 -633225.000000 0 0 1
33.762982 -24.322795 25.265225 48.681299 -0.624285 1.025125 0.089625 -0.026492 1115040.000000 0 0 1
32.494222 -23.606095 25.193325 47.411241 -0.628271 1.010569 0.109740 -0.025703 923379.000000 0 0 1
31.769972 -23.699395 26.367225 47.604863 -0.640916 0.983783 0.092983 -0.018826 -203286.000000 0 0 1
30.416282 -24.411995 26.222525 46.996984 -0.676322 0.978869 0.088570 -0.016787 -549349.000000 0 0 1
29.478242 -23.728295 25.458425 45.608444 -0.677748 0.978587 0.096229 -0.016593 -513286.000000 0 0 1
28.276792 -24.446995 25.314325 45.144740 -0.712887 0.975521 0.081739 -0.007724 1143650.000000 0 0 1
26.969392 -23.582995 25.013525 43.694190 -0.718510 0.961284 0.090035 -0.011545 1004600.000000 0 0 1
26.747092 -22.940295 23.743525 42.490223 -0.708933 0.977859 0.085269 -0.017044 -474516.000000 0 0 1
27.739392 -22.032295 23.371825 42.439817 -0.671231 0.987588 0.092756 -0.010217 -255395.000000 0 0 1
27.501792 -21.274695 22.038925 41.166436 -0.658419 1.005861 0.091760 -0.009204 126189.000000 0 0 1
26.657892 -20.143195 22.067825 40.042233 -0.647087 0.987098 0.079605 -0.005595 12260.200000 0 0 1
26.457592 -19.676995 20.746325 38.956364 -0.639469 1.009182 0.053122 -0.002734 -91922.800000 0 0 1
25.541992 -18.415895 20.696925 37.681577 -0.624684 0.989320 0.052366 0.004387 -177620.000000 0 0 1
25.937092 -17.137295 21.189725 37.622122 -0.583878 0.972513 0.061168 -0.005049 -236321.000000 0 0 1
26.359392 -17.205595 22.555325 38.724575 -0.578293 0.949051 0.060148 -0.000176 -83667.800000 0 0 1
26.467992 -15.833095 23.217425 38.604279 -0.539093 0.925518 0.072130 0.004486 -39432.900000 0 0 1
25.298992 -15.046695 23.177825 37.465365 -0.536554 0.903777 0.057659 -0.003482 488.923000 0 0 1
25.583492 -13.789295 23.767025 37.543724 -0.494352 0.885310 0.073970 -0.006453 665030.000000 0 0 1
24.275392 -12.931295 23.610525 36.248723 -0.489457 0.861437 0.082999 -0.011529 318906.000000 0 0 1
23.229992 -13.524395 24.336525 36.260285 -0.527225 0.835021 0.083121 -0.011184 -636292.000000 0 0 1
22.060492 -12.891195 23.865825 34.963207 -0.528838 0.819484 0.078646 -0.007512 -154184.000000 0 0 1
20.722392 -13.474895 24.376925 34.716348 -0.576556 0.792350 0.082384 -0.000135 -117772.000000 0 0 1
20.274192 -14.534495 23.563325 34.315080 -0.621976 0.813890 0.089398 -0.003078 307388.000000 0 0 1
18.963192 -14.906295 23.995425 34.023238 -0.666186 0.787998 0.088270 -0.003390 480788.000000 0 0 1
18.311492 -16.064295 23.244025 33.669824 -0.720120 0.808821 0.100366 -0.007851 -30414.000000 0 0 1
18.755592 -17.312295 23.758725 34.870687 -0.745403 0.821207 0.080991 -0.011129 16020.600000 0 0 1
18.209792 -18.369095 23.016325 34.623278 -0.789753 0.843618 0.091922 -0.015032 -20208.600000 0 0 1
18.571592 -19.838995 23.445125 35.890997 -0.818382 0.858952 0.060681 -0.012587 -48945.000000 0 0 1
17.723892 -20.428995 24.435125 36.449356 -0.856181 0.836068 0.052137 -0.010293 185821.000000 0 0 1
17.936392 -21.835295 24.648625 37.497320 -0.883118 0.853508 0.060296 -0.011786 -514565.000000 0 0 1
17.455892 -22.785795 23.555725 37.131830 -0.917079 0.883589 0.046970 -0.013493 505343.000000 0 0 1
18.352692 -22.940195 22.417925 36.954529 -0.896041 0.918975 0.047939 -0.006488 237096.000000 0 0 1
19.487292 -23.719295 22.712325 38.186506 -0.883035 0.933812 0.058712 -0.011052 -48394.900000 0 0 1
20.458992 -23.907195 21.514225 38.118056 -0.862964 0.971078 0.065507 0.002055 218161.000000 0 0 1
19.838392 -24.679095 20.511225 37.727044 -0.893710 0.995988 0.069260 -0.009832 -29857.600000 0 0 1
20.818192 -25.217595 19.670125 38.160687 -0.880674 1.029258 0.062218 -0.020619 -205172.000000 0 0 1
20.309592 -25.801595 18.385425 37.632774 -0.903943 1.060371 0.059135 -0.027272 -13146.300000 0 0 1
19.550692 -26.978895 18.612425 38.164286 -0.943707 1.061352 0.065562 -0.027879 -87433.700000 0 0 1
18.858492 -27.375895 17.472725 37.555006 -0.967578 1.086872 0.075362 -0.027108 -194773.000000 0 0 1
17.862592 -28.542495 17.732725 38.055167 -1.011604 1.086061 0.085497 -0.023060 -353336.000000 0 0 1
16.845192 -28.088695 18.565325 37.648460 -1.030587 1.055120 0.077629 -0.030655 -819134.000000 0 0 1
16.076992 -29.166895 19.033925 38.359715 -1.067027 1.051585 0.085914 -0.027659 -357834.000000 0 0 1
14.792192 -28.741095 19.768325 37.889922 -1.095481 1.021918 0.069780 -0.013052 -723455.000000 0 0 1
13.787492 -28.445895 18.878625 36.819375 -1.119470 1.032428 0.079055 -0.017383 -1169060.000000 0 0 1
12.646292 -27.968595 19.539225 36.386156 -1.146147 1.003924 0.051705 -0.008577 100652.000000 0 0 1
11.560692 -27.512395 18.515025 35.119619 -1.172999 1.015496 0.056142 -0.014325 118042.000000 0 0 1
11.162292 -28.544195 17.638125 35.362003 -1.198027 1.048597 0.069297 -0.013693 -82832.700000 0 0 1
10.667892 -28.011395 16.429325 34.181353 -1.206915 1.069399 0.073521 -0.011769 7269.520000 0 0 1
10.526592 -29.149695 15.418325 34.615583 -1.224248 1.109158 0.079169 -0.009672 42622.100000 0 0 1
9.418592 -29.995995 15.626925 35.109406 -1.266550 1.109519 0.072818 -0.010877 -257136.000000 0 0 1
9.464092 -31.109495 14.707425 35.688626 -1.275474 1.146034 0.081341 -0.014586 13099.800000 0 0 1
8.280092 -32.096695 14.568825 36.207850 -1.318328 1.156696 0.081898 -0.014568 5756.640000 0 0 1
8.166792 -32.998395 15.649625 37.423272 -1.328181 1.139357 0.084644 -0.013182 51229.500000 0 0 1
7.240592 -34.041795 15.347725 38.037122 -1.361222 1.155465 0.089428 -0.010511 346230.000000 0 0 1
7.385092 32.868808 16.311825 37.429584 1.349783 1.119869 0.085229 -0.013248 -352163.000000 0 0 1
8.583292 32.180808 16.088025 36.987861 1.310143 1.120809 0.087101 -0.014096 -477010.000000 0 0 1
8.874092 31.217708 17.087725 36.678129 1.293837 1.086164 0.087809 -0.016307 979948.000000 0 0 1
10.315992 30.568608 17.017225 36.475272 1.245327 1.085420 0.078938 -0.020023 750139.000000 0 0 1
10.486492 29.684708 15.922525 35.279955 1.231218 1.102553 0.108849 -0.011381 -292299.000000 0 0 1
11.834892 29.277708 15.861025 35.338662 1.186650 1.105342 0.097160 -0.015893 -249158.000000 0 0 1
12.238292 28.680008 14.557725 34.412876 1.167471 1.134008 0.072865 -0.011360 -59525.700000 0 0 1
11.624992 27.426008 14.243925 33.018416 1.169885 1.124760 0.083938 -0.011157 501249.000000 0 0 1
12.381292 26.750608 13.211325 32.302176 1.137315 1.149447 0.081579 -0.000112 532239.000000 0 0 1
-9.364135 -9.138192 18.934213 23.015168 0.773187 0.604680 0.044087 -0.024713 -369653.000000 0 1 0
-9.583935 -9.309192 17.527913 22.039523 0.770857 0.651303 0.046355 -0.032096 113022.000000 0 1 0
-9.325735 -10.652392 17.157313 22.244463 0.851706 0.689904 0.047759 -0.035656 -168009.000000 0 1 0
-9.710535 -10.980792 15.682013 21.466201 0.846712 0.751678 0.058752 -0.032312 390182.000000 0 1 0
-11.121235 -11.070792 15.528413 22.076591 0.783125 0.790643 0.067702 -0.026789 417159.000000 0 1 0
-11.664235 -11.384792 14.264513 21.659736 0.773275 0.851876 0.091031 -0.041801 -34616.600000 0 1 0
-11.626935 -12.813492 13.685713 22.060596 0.833909 0.901583 0.076625 -0.046357 -913758.000000 0 1 0
-10.320435 -13.206992 13.339213 21.421265 0.907477 0.898596 0.073147 -0.042877 -41297.700000 0 1 0
-10.188535 -14.613592 13.328813 22.249057 0.961955 0.928453 0.079908 -0.042837 -252614.000000 0 1 0
-9.797135 -15.140492 14.721813 23.279822 0.996475 0.886168 0.079555 -0.049085 273631.000000 0 1 0
-10.967935 -15.127392 15.540013 24.302789 0.943463 0.877035 0.112041 -0.028509 614322.000000 0 1 0
-10.564835 -15.451992 16.890613 25.212548 0.971080 0.836683 0.087898 -0.031131 46186.600000 0 0 1
-11.637535 -15.070992 17.936913 26.159125 0.913250 0.815252 0.081392 -0.016566 -48950.800000 0 0 1
-11.976235 -13.695492 17.996213 25.590239 0.852269 0.790844 0.078127 -0.021454 -258678.000000 0 0 1
-13.010935 -13.334192 17.142113 25.316736 0.797668 0.826974 0.085565 -0.043727 -800379.000000 0 0 1
-14.398235 -13.236392 17.794813 26.441758 0.743380 0.832564 0.064108 -0.026872 -379654.000000 0 0 1
-14.971235 -14.463792 18.178413 27.636820 0.768160 0.852954 0.076093 -0.020779 3566.530000 0 0 1
-16.052935 -14.269792 19.077813 28.727802 0.726660 0.844522 0.080431 -0.009607 18402.000000 0 0 1
-16.591635 -15.650792 19.557313 30.045267 0.756226 0.861990 0.082583 0.001940 -419723.000000 0 0 1
-17.648235 -16.243192 18.870413 30.518747 0.743965 0.904190 0.083942 -0.011294 -66233.800000 0 0 1
-18.055635 -17.444692 19.481513 31.778177 0.768190 0.910885 0.065433 -0.014908 7330.990000 0 0 1
-19.335335 -18.119192 18.917313 32.558025 0.752940 0.950798 0.070297 -0.015139 82419.600000 0 0 1
-19.285535 -18.671092 17.612813 32.105337 0.769212 0.990114 0.077007 -0.014754 -445266.000000 0 0 1
-20.082835 -17.894392 16.789213 31.708156 0.727837 1.012795 0.066649 -0.032870 -631740.000000 0 0 1
-19.703035 -17.705992 15.307013 30.594384 0.732065 1.046827 0.074174 -0.033975 -243530.000000 0 0 1
-19.905135 -18.900392 14.602613 31.091405 0.759512 1.081883 0.078776 -0.026540 38956.500000 0 0 1
-19.632735 -18.717192 13.219013 30.174821 0.761529 1.117334 0.081813 -0.024993 125117.000000 0 0 1
-19.861835 -20.054892 12.458613 30.853009 0.790235 1.155124 0.092241 -0.023156 -370684.000000 0 0 1
-18.942335 -20.993492 12.925113 31.090147 0.836714 1.142051 0.094025 -0.019933 -298292.000000 0 0 1
-18.971935 -22.107292 12.032713 31.519087 0.861575 1.179097 0.074960 -0.015840 67893.600000 0 0 1
-18.066535 -23.318892 12.562413 32.062199 0.911636 1.168194 0.066999 -0.018232 489215.000000 0 0 1
-18.038635 -24.541192 11.797013 32.662393 0.936942 1.201263 0.075124 -0.039984 -101.388000 0 0 1
-17.350035 -24.316592 10.582013 31.690682 0.951063 1.230342 0.074163 -0.032336 -405081.000000 0 0 1
-17.606735 -25.365612 9.488013 32.302225 0.964029 1.272674 0.085798 -0.034099 -350881.000000 0 0 1
-18.938835 -25.383862 9.072513 32.944353 0.929798 1.291802 0.065284 -0.026796 -755602.000000 0 0 1
-19.207335 -26.304392 8.062213 33.553569 0.940091 1.328143 0.081929 -0.032796 1110570.000000 0 0 1
-20.561935 -26.098332 7.265113 34.010262 0.903499 1.355522 0.069837 -0.034634 1033990.000000 0 0 1
-20.536035 -24.825792 6.609413 32.889709 0.879685 1.368462 0.091900 -0.032734 382659.000000 0 0 1
-21.646035 -24.640492 5.723113 33.293523 0.850002 1.398040 0.095755 -0.036042 389379.000000 0 0 1
-21.418535 -23.466092 4.738913 32.122708 0.830985 1.422731 0.099114 -0.031027 515852.000000 0 0 1
-22.487335 -23.334392 3.795113 32.627855 0.803882 1.454217 0.094112 -0.035608 526051.000000 0 0 1
-22.207235 -22.205192 3.077013 31.554711 0.785352 1.473128 0.085304 -0.027308 187320.000000 0 0 1
-22.813235 -22.191192 1.675513 31.870049 0.771577 1.518199 0.080754 -0.027084 140.235000 0 0 1
-22.120935 -23.100392 0.839013 31.994809 0.807054 1.544570 0.072593 -0.035470 393737.000000 0 0 1
-22.547835 -22.997892 -0.530587 32.211634 0.795279 1.587269 0.081842 -0.034513 -198426.000000 0 0 1
-21.707235 -23.870092 -1.487187 32.298561 0.832817 1.616858 0.076084 -0.030761 -231427.000000 0 0 1
-20.374735 -23.437492 -1.718487 31.103039 0.855191 1.626076 0.080201 -0.029602 363602.000000 0 0 1
-19.748835 -24.077392 -2.840887 31.269920 0.883845 1.661772 0.082978 -0.025326 210170.000000 0 0 1
-19.458735 -25.620912 -2.753287 32.290154 0.921252 1.656167 0.078177 -0.019449 -745480.000000 0 0 1
-20.574835 -26.492202 -2.908587 33.669281 0.910464 1.657291 0.103246 -0.018892 -55670.300000 0 0 1
-20.245535 -27.686522 -3.616787 34.489220 0.939409 1.675857 0.108985 -0.007255 -119103.000000 0 0 1
-21.505235 -28.428462 -4.170487 35.889351 0.923168 1.687263 0.113525 -0.005275 610143.000000 0 0 1
-22.111035 -27.811932 -5.323287 35.926853 0.899100 1.719514 0.104709 -0.003826 412531.000000 0 0 1
-22.960435 -28.822972 -5.902587 37.320045 0.898131 1.729625 0.107537 -0.007492 287274.000000 0 0 1
-23.699935 -28.448822 -7.210187 37.722794 0.876212 1.763116 0.106792 0.011167 143783.000000 0 0 1
-22.825035 -28.378322 -8.371387 37.368322 0.893431 1.796737 0.138676 0.007098 494613.000000 0 0 1
-23.394235 -28.142962 -9.628387 37.842071 0.877280 1.828061 0.140192 0.004122 -385794.000000 0 0 1
-24.057335 -26.768912 -9.957487 37.342758 0.838698 1.840713 0.101782 0.012233 -287953.000000 0 0 1
-23.289835 -25.617212 -10.271887 36.113288 0.832950 1.859213 0.095623 0.012809 156453.000000 0 0 1
-22.686035 -25.004092 -9.128087 34.974030 0.833967 1.834850 0.081411 0.009735 34048.400000 0 0 1
-22.246635 -23.577492 -9.366187 33.742204 0.814433 1.852071 0.068676 0.004286 336282.000000 0 0 1
-23.350135 -22.725092 -9.672887 33.988576 0.771833 1.859377 0.073830 0.010551 564593.000000 0 0 1
-22.924835 -21.377992 -9.772987 32.834096 0.750497 1.873024 0.091339 0.015745 835856.000000 0 0 1
-24.134935 -20.468592 -10.201187 33.249399 0.703384 1.882634 0.105757 0.021806 418214.000000 0 0 1
-24.707935 -20.688992 -11.496887 34.215418 0.697099 1.913479 0.082246 0.027995 -173474.000000 0 0 1
-25.914095 -20.028092 -11.697087 34.777674 0.657975 1.913823 0.072554 0.023486 -596923.000000 0 0 1
-25.883105 -18.480792 -11.730487 33.898069 0.620067 1.924156 0.086921 0.008479 -1326700.000000 0 0 1
-25.245345 -17.962992 -12.888287 33.557480 0.618427 1.964992 0.111839 0.017294 722599.000000 0 0 1
-24.776035 -16.570492 -12.772287 32.427834 0.589486 1.975632 0.124872 -0.005638 618821.000000 0 0 1
-23.694535 -16.265792 -11.675687 31.021422 0.601593 1.956677 0.094002 -0.008032 -38864.300000 0 0 1
-24.338735 -16.247392 -10.390687 31.053472 0.588616 1.911984 0.143866 -0.018951 476447.000000 0 0 1
-23.465235 -16.497992 -9.311187 30.157904 0.612792 1.884673 0.142496 -0.022074 -480488.000000 0 0 1
-24.256935 -16.784192 -8.096087 30.588472 0.605292 1.838666 0.148769 -0.030348 -269621.000000 0 0 1
-24.741435 -18.101392 -7.942687 31.668364 0.631635 1.824311 0.127818 -0.019790 34337.400000 0 0 1
-25.407865 -18.344692 -6.720587 32.050797 0.625345 1.782050 0.141445 -0.013624 22817.700000 0 0 1
-25.977605 -19.795492 -6.670487 33.334559 0.651151 1.772264 0.126274 -0.013054 361316.000000 0 0 1
-26.920765 -20.033092 -7.719487 34.433164 0.639747 1.796906 0.098395 -0.016063 314621.000000 0 0 1
-27.561745 -21.304492 -7.640987 35.663929 0.658043 1.786720 0.074271 -0.003060 227940.000000 0 0 1
-26.753975 -22.548392 -8.165787 35.928891 0.700302 1.800076 0.059372 0.005342 384079.000000 0 0 1
-27.506675 -23.757592 -8.003587 37.216901 0.712396 1.787542 0.054371 0.003928 21822.800000 0 0 1
-26.978425 -24.874292 -8.735787 37.721079 0.744841 1.804507 0.046234 0.019021 26821.100000 0 0 1
-27.409145 -26.268382 -8.272187 38.855092 0.764149 1.785337 0.056060 0.005106 -95180.700000 0 0 1
-26.942005 -26.591902 -6.997287 38.496271 0.778858 1.753578 0.087768 -0.010422 -47476.800000 0 0 1
-27.503245 -27.789972 -6.642987 39.659050 0.790584 1.739092 0.091552 -0.012800 -131260.000000 0 0 1
-27.034545 -28.188502 -5.204087 39.402294 0.806291 1.703259 0.117717 -0.020439 194349.000000 0 0 1
-27.672945 -27.399312 -4.198787 39.168150 0.780430 1.678202 0.096025 -0.021428 219580.000000 0 0 1
-27.103105 -27.615642 -2.897687 38.802043 0.794765 1.645545 0.099784 -0.026429 114078.000000 0 0 1
-27.181975 -28.982682 -2.062487 39.788308 0.817448 1.622656 0.105718 -0.013494 123812.000000 0 0 1
-26.442605 -30.059022 -2.651987 40.122178 0.849317 1.636942 0.127600 -0.015246 -19840.000000 0 0 1
-26.503355 -31.247332 -1.843587 41.014904 0.867360 1.615761 0.111233 -0.008865 -126218.000000 0 0 1
-25.494905 -31.422352 -0.669487 40.469773 0.889166 1.587340 0.130111 -0.015796 -652019.000000 0 0 1
-24.226235 -31.397172 -1.262387 39.677279 0.913610 1.602618 0.126815 -0.019745 -833163.000000 0 0 1
-23.243435 -31.586142 -0.257387 39.217443 0.936397 1.577359 0.077072 -0.011209 -100380.000000 0 0 1
-22.266635 -30.426492 -0.106587 37.703923 0.939034 1.573623 0.088742 -0.009320 -576036.000000 0 0 1
-22.806935 -29.202032 0.339013 37.054417 0.907745 1.561647 0.098983 -0.024236 -229299.000000 0 0 1
-22.988735 -28.286672 -0.739887 36.457717 0.888356 1.591092 0.092901 -0.031654 18170.400000 0 0 1
-23.701335 -26.972032 -0.370687 35.907954 0.849853 1.581120 0.092922 -0.018293 813146.000000 0 0 1
-25.121075 -27.058012 -0.145887 36.921886 0.822502 1.574748 0.092495 -0.023537 962758.000000 0 0 1
-25.844655 -25.875772 0.154713 36.572198 0.786000 1.566566 0.102255 -0.053197 128279.000000 0 0 1
-25.402495 -24.967692 1.316413 35.642745 0.776766 1.533854 0.091258 -0.034805 -684418.000000 0 0 1
-25.698775 -25.662562 2.525613 36.405670 0.784693 1.501366 0.081325 -0.037326 239984.000000 0 0 1
-25.373745 -24.919692 3.719013 35.758202 0.776370 1.466603 0.083293 -0.033954 135121.000000 0 0 1
-26.346175 -23.730792 3.999313 35.682852 0.733218 1.458481 0.102906 -0.029224 252294.000000 0 0 1
-26.031235 -22.606892 3.218013 34.627335 0.715110 1.477729 0.096987 -0.032437 409984.000000 0 0 1
-27.139205 -21.710292 3.306813 34.911434 0.674717 1.475934 0.094132 -0.027537 485069.000000 0 0 1
-27.073725 -20.528392 2.318313 34.055484 0.648754 1.502669 0.096363 -0.015812 -4256.170000 0 0 1
-26.061825 -19.579992 2.603813 32.701294 0.644326 1.491088 0.094543 -0.017688 50014.200000 0 0 1
-25.933475 -18.729192 1.453013 32.022476 0.625471 1.525406 0.087031 -0.023936 -218091.000000 0 0 1
-24.564735 -18.074092 1.561813 30.537489 0.634334 1.519630 0.111602 -0.025961 -877412.000000 0 0 1
-23.436235 -18.833392 1.271113 30.092681 0.676933 1.528544 0.111055 -0.030347 -544029.000000 0 0 1
-22.299335 -18.015792 1.413313 28.702378 0.679544 1.521536 0.121539 -0.027852 137195.000000 0 0 1
-20.955635 -18.794192 1.529013 28.190391 0.731076 1.516531 0.100972 -0.029092 127624.000000 0 0 1
-20.527935 -19.307192 0.300013 28.182508 0.754763 1.560151 0.071204 -0.022053 453828.000000 0 0 1
-19.369035 -20.142392 0.380013 27.946732 0.804969 1.557198 0.088944 -0.019243 357755.000000 0 0 1
-18.835435 -20.763492 -0.926987 28.049162 0.834049 1.603851 0.091134 -0.021542 -396785.000000 0 0 1
-18.095235 -19.885992 -1.690687 26.939722 0.832512 1.633596 0.086419 -0.027697 -291801.000000 0 0 1
-18.013335 -20.404092 -3.011287 27.383846 0.847549 1.680985 0.090396 -0.023425 23172.400000 0 0 1
-17.313735 -19.469992 -4.026987 26.364040 0.843951 1.724142 0.087483 -0.004129 -347896.000000 0 0 1
-15.923335 -19.547592 -4.051287 25.535737 0.887220 1.730121 0.098760 -0.009004 -428646.000000 0 0 1
-15.369235 -18.780792 -5.128387 24.803868 0.884967 1.779056 0.101604 -0.002883 -281226.000000 0 1 0
-13.870435 -18.495192 -5.010087 23.655064 0.927328 1.784210 0.120615 -0.015817 -362980.000000 0 1 0
-13.066735 -19.629092 -5.226287 24.152741 0.983476 1.788906 0.098953 -0.017701 531495.000000 0 1 0
-11.800635 -19.309892 -5.803487 23.362520 1.022241 1.821835 0.089866 -0.022533 711903.000000 0 1 0
-10.676135 -20.344992 -5.956687 23.735641 1.087541 1.824468 0.088719 -0.027908 231895.000000 0 1 0
-11.055535 -21.433492 -6.780187 25.051754 1.094584 1.844862 0.096975 -0.024835 625363.000000 0 0 1
-9.980535 -22.386892 -6.836287 25.446391 1.151424 1.842792 0.086763 -0.020120 804588.000000 0 0 1
-10.373935 -23.407292 -7.889187 26.791027 1.153618 1.869699 0.096204 -0.007909 -52711.600000 0 0 1
-10.561135 -22.967492 -9.242687 26.915990 1.139798 1.921321 0.082860 -0.000196 126363.000000 0 0 1
-10.570835 -24.037192 -10.148087 28.151604 1.156482 1.939579 0.108439 0.002593 -85385.500000 0 0 1
-11.211635 -23.691892 -11.522287 28.631619 1.128796 1.984969 0.131778 -0.008864 288418.000000 0 0 1
-10.436735 -22.718092 -12.242387 27.837262 1.140151 2.026155 0.113207 -0.008050 389456.000000 0 0 1
-11.209835 -22.284692 -13.369887 28.302328 1.104729 2.062803 0.114035 -0.013505 -191180.000000 0 0 1
-10.704335 -20.987892 -14.111087 27.462650 1.099161 2.110438 0.095105 -0.010420 -182130.000000 0 0 1
-10.836835 -19.867692 -13.277187 26.238252 1.071453 2.101365 0.099781 -0.008008 -7573.270000 0 0 1
-10.353835 -18.716492 -13.915287 25.517527 1.065505 2.147570 0.088262 -0.003000 -47230.600000 0 0 1
-10.208735 -17.510592 -12.936987 24.045888 1.042968 2.138874 0.090539 -0.011432 762514.000000 0 1 0
-11.446035 -16.969392 -12.412087 23.938084 0.977383 2.115901 0.103405 -0.015816 791559.000000 0 1 0
-11.250235 -15.876092 -11.543887 22.624752 0.954304 2.106252 0.099919 -0.018781 133816.000000 0 1 0
-10.887235 -14.499292 -12.149787 21.826101 0.926732 2.161160 0.101809 -0.009580 -359532.000000 0 1 0
-11.973035 -13.939192 -12.809087 22.399271 0.861131 2.179559 0.098225 -0.000756 -446718.000000 0 1 0
-11.838435 -13.887692 -14.208087 23.127608 0.864887 2.232339 0.112898 -0.011842 -443371.000000 0 1 0
-13.066035 -13.264992 -14.867787 23.827135 0.792954 2.244629 0.113087 -0.008156 -269304.000000 0 1 0
-13.208335 -11.942892 -14.461487 22.939647 0.735127 2.252883 0.089637 0.001096 -717876.000000 0 1 0
-14.338735 -11.328392 -14.977087 23.627207 0.668648 2.257371 0.088424 -0.007859 -547936.000000 0 1 0
-14.507335 -9.920492 -14.410387 22.727476 0.599788 2.257577 0.076542 -0.014765 367258.000000 0 1 0
-13.447535 -8.975692 -14.610987 21.791746 0.588552 2.305655 0.065775 -0.008006 448781.000000 0 1 0
-13.233335 -8.345192 -15.856387 22.275287 0.562630 2.362908 0.065585 -0.012755 -263781.000000 0 1 0
-12.227835 -7.182592 -15.699387 21.156094 0.531101 2.406955 0.050570 -0.006455 569585.000000 0 1 0
-10.889635 -7.675792 -15.594687 20.510880 0.613988 2.434591 0.039854 -0.015472 380156.000000 0 1 0
-9.967635 -6.605992 -15.540287 19.608503 0.585282 2.485740 0.026433 -0.001142 150281.000000 0 1 0
11.455465 21.796208 16.083613 29.410627 1.086901 0.992182 0.122703 -0.016948 -159004.000000 0 0 1
12.568365 21.873908 16.937413 30.385977 1.049276 0.979535 0.144251 -0.028791 -315130.000000 0 0 1
12.986365 20.537308 17.144913 29.738439 1.006943 0.956329 0.124176 -0.028934 391533.000000 0 0 1
14.221665 20.550708 18.122813 30.871082 0.965441 0.943389 0.132041 -0.036272 32411.600000 0 0 1
15.359865 21.090208 17.533813 31.434964 0.941333 0.979087 0.107858 -0.032746 221317.000000 0 0 1
16.491965 20.836008 18.421413 32.333769 0.901252 0.964623 0.106752 -0.031527 1278030.000000 0 0 1
17.873065 21.344208 17.940513 33.119234 0.873679 0.998344 0.072417 -0.023434 -475367.000000 0 0 1
18.100965 22.732508 18.131613 34.251529 0.898341 1.012943 0.076812 -0.023736 1154020.000000 0 0 1
19.419765 23.203308 17.747913 35.078615 0.873934 1.040317 0.062326 -0.018733 1290330.000000 0 0 1
20.709865 22.713608 18.413213 35.830893 0.831510 1.031081 0.060186 -0.025346 -427656.000000 0 0 1
20.992865 21.336308 18.114713 34.986873 0.793512 1.026569 0.061654 -0.015030 310554.000000 0 0 1
22.285165 20.924008 18.549713 35.756602 0.753907 1.025376 0.075059 -0.021582 316466.000000 0 0 1
22.559865 19.427308 18.337413 34.966105 0.710929 1.018746 0.064349 -0.017903 -150576.000000 0 0 1
22.646565 19.004308 16.987613 34.097062 0.698173 1.049259 0.039909 -0.008466 62212.700000 0 0 1
22.304465 17.648508 16.806813 33.036767 0.669386 1.037087 0.031535 -0.002207 63068.300000 0 0 1
23.328665 16.540908 17.228413 33.386322 0.616766 1.028584 0.023981 -0.005364 -566986.000000 0 0 1
24.565165 16.467508 16.642613 33.935273 0.590555 1.058222 0.052875 -0.019814 -442096.000000 0 0 1
25.394265 15.461908 17.234113 34.365011 0.546919 1.045463 0.037694 -0.011273 -17222.300000 0 0 1
26.711965 15.237808 16.463413 34.882142 0.518407 1.079269 0.141243 -0.037850 -613740.000000 0 0 1
27.687765 16.277508 16.502613 36.109637 0.531471 1.096161 0.124918 -0.031476 561447.000000 0 0 1
28.702165 16.197708 17.495413 37.313128 0.513784 1.082773 0.135189 -0.042120 147679.000000 0 0 1
29.726765 15.047308 17.304113 37.543766 0.468585 1.091782 0.129293 -0.053684 -942685.000000 0 0 1
30.491365 15.230308 16.146413 37.714616 0.463244 1.128384 0.169023 -0.035427 -193329.000000 0 0 1
30.703565 14.076808 15.350613 37.101304 0.429879 1.144229 0.177121 -0.056940 83525.500000 0 0 1
29.873265 14.211808 14.045213 35.939609 0.444049 1.169295 0.145482 -0.034203 -169167.000000 0 0 1
30.369965 15.082308 13.072713 36.341528 0.460939 1.202830 0.148618 -0.014640 -85151.600000 0 0 1
29.678365 14.940508 11.837613 35.272556 0.466375 1.228550 0.126597 -0.023360 -244190.000000 0 0 1
28.319265 15.618908 11.718713 34.398536 0.504017 1.223162 0.103979 -0.026300 -697460.000000 0 0 1
28.410865 17.052408 11.571013 35.097724 0.540572 1.234832 0.094082 -0.013893 -86949.300000 0 0 1
29.014665 17.801208 12.604213 36.298760 0.550305 1.216175 0.118068 -0.024166 -674785.000000 0 0 1
28.309965 18.072108 13.956913 36.371014 0.568153 1.176956 0.110670 -0.023087 943965.000000 0 0 1
27.236065 19.084208 13.925413 36.054506 0.611193 1.174253 0.106763 -0.010092 1517780.000000 0 0 1
26.402165 19.054108 15.086413 35.885000 0.625133 1.136899 0.081472 -0.014276 281809.000000 0 0 1
27.021365 19.929408 16.191813 37.276136 0.635481 1.121452 0.084461 -0.020295 -97431.600000 0 0 1
26.848965 21.325008 16.113213 37.884806 0.671230 1.131480 0.065783 -0.007985 670837.000000 0 0 1
25.585465 21.893508 16.520413 37.508209 0.707794 1.114699 0.069953 -0.012879 611459.000000 0 0 1
25.519665 23.394208 16.260413 38.248442 0.741972 1.131695 0.071154 -0.007959 -57277.000000 0 0 1
25.258665 23.724008 14.905913 37.722871 0.754078 1.164573 0.096120 -0.020641 -17591.300000 0 0 1
25.478665 25.133508 14.663413 38.676495 0.778579 1.181941 0.097689 -0.021459 -402840.000000 0 0 1
25.111265 25.548208 13.262013 38.199052 0.794023 1.216232 0.088886 -0.022658 -302497.000000 0 0 1
23.732965 25.692408 13.029813 37.324650 0.825022 1.214192 0.094271 -0.023585 -332132.000000 0 0 1
23.358065 25.792308 11.673113 36.702915 0.834884 1.247132 0.078272 -0.034070 -12845.200000 0 0 1
23.023065 24.469008 10.898013 35.320824 0.815835 1.257135 0.100109 -0.035726 1372300.000000 0 0 1
21.642565 24.093308 11.252713 34.285736 0.838932 1.236395 0.100734 -0.034450 1636020.000000 0 0 1
21.170265 22.902408 10.723613 32.980241 0.824680 1.239623 0.099011 -0.025482 -9564.150000 0 0 1
21.091965 22.691208 9.156713 32.304912 0.821908 1.283410 0.111932 -0.020688 -36594.000000 0 0 1
19.870865 23.253508 8.712113 31.803739 0.863677 1.293316 0.119054 -0.020391 197664.000000 0 0 1
20.049465 23.447808 7.325413 31.708712 0.863368 1.337668 0.117390 -0.031345 274938.000000 0 0 1
18.834365 23.895208 6.438613 31.099357 0.903288 1.362254 0.100439 -0.026038 -150671.000000 0 0 1
17.973465 22.801308 6.160913 29.679993 0.903252 1.361698 0.105051 -0.019151 56106.800000 0 0 1
17.186665 22.945008 5.036413 29.107049 0.927912 1.396890 0.127934 -0.030739 -727076.000000 0 0 1
15.854665 23.684508 5.127013 28.958809 0.980896 1.392813 0.088925 -0.026942 -833781.000000 0 0 1
15.938165 25.079108 5.236313 30.172931 1.004671 1.396370 0.107137 -0.039905 489205.000000 0 0 1
14.666265 25.620308 5.565413 30.041194 1.050883 1.384461 0.090283 -0.038797 259131.000000 0 0 1
14.606865 27.110108 5.128913 31.218972 1.076594 1.405760 0.088744 -0.043176 -439468.000000 0 0 1
14.564765 27.249208 3.722713 31.120899 1.079929 1.450888 0.070301 -0.027623 336132.000000 0 0 1
14.273065 28.569808 3.330413 32.109905 1.107480 1.466890 0.065308 -0.031950 -298200.000000 0 0 1
13.558765 28.678108 1.974313 31.783202 1.129151 1.508638 0.076231 -0.033935 -412401.000000 0 0 1
14.330065 28.332708 0.847213 31.761784 1.102537 1.544119 0.098676 -0.038330 -47426.700000 0 0 1
14.590465 26.962008 0.638813 30.663327 1.074774 1.549962 0.073153 -0.032387 36662.600000 0 0 1
15.757365 26.804208 -0.372287 31.094995 1.039344 1.582769 0.075508 -0.030071 -95540.800000 0 0 1
15.457265 26.989808 -1.760987 31.152494 1.050687 1.627354 0.061855 -0.021097 -623880.000000 0 0 1
16.571165 26.938608 -2.608587 31.734790 1.019315 1.653089 0.052210 -0.018244 -289513.000000 0 0 1
16.280865 27.297508 -4.113687 32.049071 1.033011 1.699507 0.057986 -0.023289 -161077.000000 0 0 1
15.582965 26.364608 -4.979587 31.027692 1.036979 1.731982 0.082182 -0.030428 14223.600000 0 0 1
15.603265 26.919808 -6.289787 31.744281 1.045497 1.770255 0.087943 -0.028509 -134395.000000 0 0 1
14.394965 26.718208 -7.205487 31.192896 1.076616 1.803899 0.114027 -0.043834 -233126.000000 0 0 1
14.190365 25.397908 -7.639087 30.079493 1.061282 1.827572 0.084795 -0.039965 531503.000000 0 0 1
12.788365 25.096008 -7.777187 29.220482 1.099516 1.840199 0.078636 -0.039537 943675.000000 0 0 1
12.519465 23.649808 -8.215987 27.992015 1.083931 1.868695 0.080132 -0.030768 -118534.000000 0 0 1
12.978965 23.234208 -9.503287 28.259413 1.061363 1.913768 0.073323 -0.031928 42663.400000 0 0 1
12.522465 21.954508 -9.792387 27.105413 1.052439 1.940426 0.075922 -0.026009 -72420.500000 0 0 1
12.859765 21.574408 -11.250687 27.521022 1.033275 1.991939 0.080246 -0.023417 -228726.000000 0 0 1
12.281365 20.383408 -11.717087 26.525561 1.028528 2.028320 0.081010 -0.021122 -264677.000000 0 0 1
12.711165 20.041808 -13.002287 27.061177 1.005585 2.071995 0.092256 -0.020605 1222880.000000 0 0 1
14.187265 19.489908 -13.240987 27.503796 0.941571 2.073075 0.070128 -0.012760 947927.000000 0 0 1
15.106265 20.485508 -12.935887 28.551576 0.935400 2.041003 0.065413 -0.009337 -883748.000000 0 0 1
16.419065 20.073608 -13.248587 29.121479 0.885210 2.043104 0.067815 0.000558 475328.000000 0 0 1
17.519165 21.180108 -13.319087 30.543677 0.879717 2.022020 0.063765 -0.001088 158505.000000 0 0 1
17.386565 22.215508 -14.284887 31.620871 0.906736 2.039528 0.063255 -0.006631 336405.000000 0 0 1
16.191665 23.013508 -14.216087 31.526001 0.957677 2.038606 0.056905 -0.007512 668226.000000 0 0 1
16.440465 24.494908 -14.624887 32.926840 0.979676 2.031036 0.080514 -0.007576 115462.000000 0 0 1
16.775865 24.768108 -15.965787 33.908630 0.975456 2.061047 0.077566 -0.011027 605527.000000 0 0 1
15.669265 24.680508 -16.896287 33.765928 1.005121 2.094851 0.055687 -0.007907 561338.000000 0 0 1
16.204465 24.568608 -18.347787 34.682020 0.987730 2.128252 0.054496 -0.001053 218513.000000 0 0 1
16.655365 23.309908 -18.805087 34.269291 0.950393 2.151658 0.044650 0.006822 -111045.000000 0 0 1
16.698665 23.282008 -20.243987 35.081567 0.948597 2.185914 0.039302 0.007614 -138909.000000 0 0 1
16.971765 21.917608 -20.880087 34.704473 0.911896 2.216367 0.054947 0.010351 404643.000000 0 0 1
15.844965 21.027808 -20.861087 33.591913 0.925043 2.240834 0.068877 0.007994 339862.000000 0 0 1
16.098265 19.808108 -21.576487 33.422449 0.888353 2.272564 0.052053 0.006766 -603469.000000 0 0 1
14.954565 18.801608 -21.675387 32.356791 0.898874 2.304853 0.055820 -0.000576 -655050.000000 0 0 1
14.642865 18.128308 -20.447387 31.002334 0.891357 2.291008 0.059044 -0.002835 15017.600000 0 0 1
13.998665 16.920508 -20.664287 30.154254 0.879618 2.325793 0.050942 -0.013584 98201.300000 0 0 1
12.450565 16.930708 -20.777587 29.552895 0.936716 2.350494 0.067365 -0.022640 -452634.000000 0 0 1
11.693965 16.615408 -19.624287 28.247713 0.957523 2.338829 0.071466 -0.020952 -404937.000000 0 0 1
10.408565 16.890308 -20.130287 28.263921 1.018518 2.363460 0.079071 -0.024837 -129830.000000 0 0 1
9.186965 16.755108 -19.174087 27.069902 1.069253 2.357908 0.086615 -0.033589 -1323.360000 0 0 1
9.065265 15.357308 -18.876487 25.968206 1.037547 2.384604 0.099946 -0.046017 1786760.000000 0 0 1
7.642165 14.978708 -18.775587 25.204902 1.099021 2.411208 0.109137 -0.039880 1971300.000000 0 0 1
7.100165 15.201008 -17.382987 24.158875 1.133826 2.373919 0.113972 -0.039170 -385939.000000 0 1 0
7.017765 16.522408 -17.031287 24.744772 1.169144 2.329909 0.119288 -0.038171 -493499.000000 0 1 0
6.713965 16.729108 -15.678987 23.890815 1.189140 2.286670 0.105537 -0.043894 121013.000000 0 1 0
6.440965 18.207608 -15.327787 24.656523 1.230783 2.241647 0.080549 -0.034734 -136915.000000 0 1 0
7.657965 18.879908 -15.164787 25.398152 1.185459 2.210655 0.079034 -0.030914 -276023.000000 0 0 1
8.178765 19.517208 -16.348587 26.741166 1.173973 2.228579 0.091721 -0.020960 235014.000000 0 0 1
9.371765 20.427308 -15.981287 27.577282 1.140660 2.188923 0.079921 -0.009232 61095.800000 0 0 1
8.985465 21.524608 -15.225687 27.854424 1.175337 2.149115 0.073676 -0.017198 -79970.500000 0 0 1
8.836565 21.278008 -13.814687 26.864179 1.177178 2.110920 0.079419 -0.033524 -172388.000000 0 0 1
8.377365 22.506008 -13.034387 27.323907 1.214458 2.068071 0.076113 -0.028564 568731.000000 0 0 1
7.060165 22.960708 -13.411087 27.511767 1.272483 2.079983 0.051963 -0.021270 687987.000000 0 0 1
6.596965 24.096808 -12.662887 28.009371 1.303575 2.039909 0.044893 -0.020016 -256295.000000 0 0 1
6.074465 23.952508 -11.239187 27.146659 1.322428 1.997659 0.043532 -0.015709 -194761.000000 0 0 1
7.058365 23.672608 -10.254987 26.746545 1.281023 1.964286 0.051909 -0.021405 -271417.000000 0 0 1
6.474265 23.111908 -9.111387 25.672822 1.297670 1.933608 0.063465 -0.025236 -143127.000000 0 0 1
7.431765 22.858608 -7.946687 25.315943 1.256457 1.890095 0.045685 -0.029707 -147374.000000 0 0 1
7.698065 23.956808 -7.120787 26.151376 1.259886 1.846570 0.059640 -0.027286 296801.000000 0 0 1
8.749865 23.707308 -6.195287 26.018805 1.217227 1.811214 0.063728 -0.027242 179014.000000 0 0 1
9.037865 24.979908 -5.414387 27.110781 1.223643 1.771862 0.062998 -0.030189 -52663.900000 0 0 1
9.734865 25.935708 -6.179287 28.383308 1.211722 1.790262 0.068211 -0.032417 -64887.900000 0 0 1
10.052465 27.027008 -5.382587 29.333999 1.214710 1.755335 0.076347 -0.028905 67242.000000 0 0 1
10.232665 28.363508 -6.129887 30.769653 1.224560 1.771357 0.074782 -0.031089 259877.000000 0 0 1
11.433665 28.418908 -6.869987 31.393626 1.188286 1.791415 0.075432 -0.035165 -161609.000000 0 0 1
11.509265 29.708408 -7.485887 32.727530 1.201192 1.801573 0.080481 -0.024854 -904172.000000 0 0 1
12.702965 29.894008 -8.357987 33.539127 1.168982 1.822652 0.087207 -0.023091 -1199670.000000 0 0 1
13.853765 30.247808 -7.671387 34.142450 1.141302 1.797419 0.080942 -0.025510 -557327.000000 0 0 1
14.869965 30.748708 -8.528587 35.204201 1.120357 1.815491 0.073356 -0.023736 -500942.000000 0 0 1
16.144365 31.229708 -7.908687 36.034463 1.093677 1.792073 0.057674 -0.028689 -526370.000000 0 0 1
16.916965 30.178508 -7.344587 35.367627 1.059879 1.779983 0.057220 -0.023768 312021.000000 0 0 1
18.152765 30.612008 -6.767087 36.227219 1.035544 1.758696 0.044405 -0.012705 914402.000000 0 0 1
19.119065 29.406308 -6.476187 35.668062 0.994302 1.753377 0.040123 -0.014722 3354.030000 0 0 1
18.836865 28.588408 -5.283287 34.641560 0.988191 1.723907 0.045500 -0.015565 360040.000000 0 0 1
19.882265 27.647608 -4.977887 34.416189 0.947346 1.715943 0.038432 -0.012419 160774.000000 0 0 1
20.155565 26.495008 -5.982487 33.823401 0.920463 1.748606 0.034106 -0.003484 -372571.000000 0 0 1
20.539465 26.907608 -7.241887 34.616961 0.918817 1.781554 0.031892 -0.004182 71619.900000 0 0 1
20.286365 25.932908 -8.223887 33.936480 0.906964 1.815565 0.037426 -0.004000 -726349.000000 0 0 1
20.967065 26.291908 -9.561087 34.961360 0.897599 1.847801 0.037608 -0.008301 1359760.000000 0 0 1
22.407065 26.228508 -9.678287 35.828487 0.863810 1.844323 0.029056 -0.001694 1591700.000000 0 0 1
23.125865 25.021808 -9.321287 35.323971 0.824755 1.837839 0.046952 -0.002891 -935658.000000 0 0 1
24.630465 25.160708 -9.251687 36.404873 0.796047 1.827748 0.022639 0.000277 -661293.000000 0 0 1
25.200265 25.390708 -10.518187 37.287715 0.789163 1.856760 0.035316 -0.001592 121589.000000 0 0 1
26.615365 25.431808 -10.407687 38.255385 0.762662 1.846327 0.038851 0.004898 775567.000000 0 0 1
27.527965 25.519308 -11.686787 39.314183 0.747551 1.872625 0.052698 0.000058 327956.000000 0 0 1
27.484965 26.854908 -12.241887 40.329558 0.773804 1.879209 0.049943 -0.001193 43215.200000 0 0 1
28.344265 26.927008 -13.365887 41.317165 0.759762 1.900217 0.055277 -0.001281 119000.000000 0 0 1
28.094565 28.104608 -14.378387 42.260048 0.785577 1.917964 0.062589 -0.011461 12650.900000 0 0 1
28.590665 29.349508 -13.943187 43.280853 0.798494 1.898802 0.064526 -0.021962 15017.200000 0 0 1
28.634965 30.231408 -15.062787 44.280773 0.812511 1.917889 0.074726 -0.018360 -93782.000000 0 0 1
29.152665 31.636708 -14.753987 45.480098 0.826239 1.901179 0.072234 -0.023575 -362861.000000 0 0 1
30.463165 31.691208 -14.275487 46.218250 0.805154 1.884802 0.065030 -0.022820 -500168.000000 0 0 1
30.887765 33.011408 -14.351187 47.431674 0.818620 1.878179 0.074496 -0.028456 -183464.000000 0 0 1
15.790465 -31.718595 -28.123375 45.236404 -1.108886 2.241705 0.094381 -0.045712 -472222.000000 0 0 1
16.964465 -32.412195 -27.820915 45.960274 -1.088606 2.220971 0.074574 -0.031003 -3485.720000 0 0 1
17.377065 -32.057195 -26.468455 45.057799 -1.074066 2.198680 0.074717 -0.038399 -275974.000000 0 0 1
18.501165 -32.873195 -25.779275 45.689288 -1.058176 2.170297 0.038939 -0.028915 205820.000000 0 0 1
19.816665 -32.675395 -26.249075 46.361574 -1.025633 2.172662 0.073320 -0.035817 457481.000000 0 0 1
20.202265 -33.000495 -27.622265 47.541074 -1.021469 2.190776 0.081602 -0.030981 -422093.000000 0 0 1
21.709165 -32.723895 -27.830715 48.132004 -0.985056 2.187337 0.094650 -0.029115 204298.000000 0 0 1
22.155665 -31.358095 -27.936535 47.483193 -0.955696 2.199808 0.088386 -0.043232 444988.000000 0 0 1
23.543365 -31.178795 -27.726895 47.908120 -0.924034 2.187993 0.063118 -0.031498 -42269.200000 0 0 1
24.120065 -29.913295 -28.357725 47.757128 -0.892206 2.206558 0.037792 -0.026336 -224087.000000 0 0 1
24.312965 -29.967995 -29.738595 48.719452 -0.889204 2.227368 0.039694 -0.033772 230315.000000 0 0 1
25.098865 -28.846395 -30.154325 48.696518 -0.854756 2.238557 0.026916 -0.038345 192452.000000 0 0 1
25.606865 -28.910395 -31.642405 49.927590 -0.845920 2.257208 0.029032 -0.033754 405120.000000 0 0 1
26.620765 -29.877295 -31.902455 51.176992 -0.842974 2.243848 0.037849 -0.035337 22741.000000 0 0 1
26.662765 -29.991395 -33.344375 52.175034 -0.844084 2.264107 0.031361 -0.029441 86605.500000 0 0 1
27.843065 -30.939495 -33.762335 53.594625 -0.838026 2.252295 0.024393 -0.027831 201576.000000 0 0 1
28.956065 -30.135695 33.923523 53.827681 -0.805358 0.888954 0.029670 -0.031114 -1145210.000000 0 0 1
30.083765 -30.782995 33.443359 54.507650 -0.796886 0.910244 0.022408 -0.010631 -111851.000000 0 0 1
31.362765 -29.915495 33.482840 54.769156 -0.761785 0.913037 0.021228 -0.021579 25192.400000 0 0 1
31.422565 -29.111195 32.337843 53.670992 -0.747234 0.924142 0.026678 -0.013328 904943.000000 0 0 1
32.662765 -28.369795 32.316104 54.000297 -0.715175 0.929240 0.024825 -0.021996 783636.000000 0 0 1
32.803465 -27.593495 31.023733 52.914462 -0.699349 0.944313 0.037562 -0.029437 585186.000000 0 0 1
34.120965 -27.010195 30.898783 53.371581 -0.669599 0.953372 0.022522 -0.034249 1144270.000000 0 0 1
34.252565 -26.155295 29.806983 52.400323 -0.652149 0.965711 0.043762 -0.026481 -218705.000000 0 0 1
34.742065 -26.756795 28.389653 52.238966 -0.656276 0.996246 0.033663 -0.018646 31.178100 0 0 1
33.958265 -27.765695 27.759803 51.910541 -0.685406 1.006570 0.022696 -0.029616 807446.000000 0 0 1
32.670565 -27.315895 27.314033 50.592295 -0.696369 1.000496 0.046203 -0.029403 377337.000000 0 0 1
32.057965 -28.295495 26.271663 50.185141 -0.723138 1.019849 0.049842 -0.025728 -137583.000000 0 0 1
30.898065 -27.754195 25.682223 48.831981 -0.731848 1.016988 0.071768 -0.023083 -128362.000000 0 0 1
30.398065 -28.647595 24.682243 48.517421 -0.755761 1.037088 0.065459 -0.016920 941283.000000 0 0 1
28.969765 -28.217495 24.164863 47.110666 -0.772244 1.032192 0.081301 -0.015060 1051490.000000 0 0 1
27.934465 -28.437095 25.101453 47.107172 -0.794314 1.008821 0.074128 -0.015220 903650.000000 0 0 1
26.613365 -28.117595 24.610343 45.875258 -0.812875 1.004557 0.078104 -0.005399 1665860.000000 0 0 1
25.507065 -28.034395 25.713363 45.800815 -0.832566 0.974699 0.085594 -0.001892 450941.000000 0 0 1
25.549865 -26.850295 26.483483 45.553362 -0.810210 0.950381 0.068258 -0.002954 898624.000000 0 0 1
24.300065 -26.811895 27.196763 45.266265 -0.834502 0.926273 0.063178 -0.004207 687811.000000 0 0 1
24.304165 -25.694495 28.245633 45.262736 -0.813198 0.896898 0.059017 0.002382 -31543.700000 0 0 1
23.078765 -25.423395 28.914753 44.889212 -0.833701 0.870903 0.054581 -0.000237 235800.000000 0 0 1
23.178965 -24.474395 29.928883 45.077693 -0.812576 0.844721 0.042964 0.000113 -405817.000000 0 0 1
22.705565 -23.063695 29.536093 43.816178 -0.793223 0.831063 0.049304 -0.012660 -347447.000000 0 0 1
23.427265 -22.513695 28.423943 43.169708 -0.765515 0.852074 0.067386 -0.014687 289387.000000 0 0 1
23.218365 -21.088795 28.188873 42.171582 -0.737371 0.838697 0.071544 -0.014875 -205397.000000 0 0 1
23.988265 -20.122695 29.075133 42.728481 -0.697989 0.822403 0.060723 -0.013283 -640685.000000 0 0 1
23.580965 -20.127895 30.407043 43.425595 -0.706560 0.795105 0.051645 -0.008081 141603.000000 0 0 1
24.315265 -19.238195 31.241183 44.015358 -0.669351 0.781612 0.049176 -0.013112 -324818.000000 0 0 1
23.630665 -18.982995 32.593890 44.509820 -0.676762 0.749125 0.055674 -0.012829 -254380.000000 0 0 1
23.855565 -20.023595 33.470714 45.720029 -0.698289 0.749426 0.029789 -0.011098 61094.300000 0 0 1
23.277265 -19.697495 -33.241935 45.109296 -0.702291 2.399299 0.045103 -0.013618 -368959.000000 0 0 1
23.238765 -20.849995 -32.191905 44.845080 -0.731270 2.371501 0.014551 -0.003711 -528971.000000 0 0 1
24.469365 -21.104495 -31.603355 45.198690 -0.711699 2.345088 0.013519 -0.006024 -643350.000000 0 0 1
24.274065 -22.067695 -30.565805 44.838397 -0.737823 2.320864 0.023290 -0.011817 523227.000000 0 0 1
25.546065 -22.521395 -29.755995 45.224262 -0.722555 2.288910 0.013602 -0.008518 592765.000000 0 0 1
26.404265 -23.386895 -30.488325 46.622634 -0.724872 2.283575 0.006678 -0.003080 -827602.000000 0 0 1
27.300765 -23.941295 -29.595425 46.844493 -0.719931 2.254644 0.011854 -0.013325 -350885.000000 0 0 1
28.619065 -24.498895 -30.204085 48.285955 -0.707987 2.246601 0.015165 -0.005528 88118.900000 0 0 1
29.391065 -23.701495 -31.055995 48.888346 -0.678642 2.259120 0.023711 -0.002529 114810.000000 0 0 1
28.834265 -23.615995 -32.359035 49.358253 -0.686235 2.285767 0.025443 -0.004258 -270326.000000 0 0 1
29.309365 -24.747995 -33.271865 50.779121 -0.701217 2.285280 0.024521 -0.009454 -167475.000000 0 0 1
28.762965 -25.960795 -32.841895 50.792333 -0.734237 2.273904 0.028892 -0.013646 61060.800000 0 0 1
29.110365 -27.086095 -33.662345 52.098209 -0.749392 2.273302 0.033690 -0.020222 67218.900000 0 0 1
28.538865 -26.997395 32.802187 51.179191 -0.757649 0.875089 0.031164 -0.021926 238378.000000 0 0 1
29.433465 -26.353295 31.910593 50.784948 -0.730241 0.891369 0.024425 -0.019917 326363.000000 0 0 1
28.844165 -26.308995 30.644423 49.630935 -0.739464 0.905305 0.031486 -0.020624 291613.000000 0 0 1
29.791865 -25.585395 29.600283 49.176665 -0.709584 0.924897 0.045622 -0.029253 389541.000000 0 0 1
30.017565 -24.155995 29.589843 48.581119 -0.677618 0.915895 0.037165 -0.031119 213750.000000 0 0 1
30.503165 -23.538695 30.798833 49.326274 -0.657233 0.896446 0.032577 -0.015592 -742336.000000 0 0 1
31.206165 -22.124095 30.562473 48.962895 -0.616718 0.896694 0.031465 -0.016480 151638.000000 0 0 1
32.495565 -22.059395 30.032533 49.442205 -0.596385 0.917979 0.047976 -0.025097 -463711.000000 0 0 1
33.451965 -22.544595 30.924763 50.829457 -0.593021 0.916750 0.041249 -0.025786 -668873.000000 0 0 1
34.956565 -22.222395 30.691583 51.553560 -0.566267 0.933115 0.039474 -0.035763 385538.000000 0 0 1
35.446265 -22.742195 29.472713 51.403170 -0.570445 0.960191 0.057171 -0.047871 503615.000000 0 0 1
36.776265 -22.231895 29.297473 52.010506 -0.543735 0.972423 0.037877 -0.043274 431793.000000 0 0 1
-36.966361 -22.446795 27.877853 51.454301 0.545713 0.998221 0.049335 -0.035536 -399605.000000 0 0 1
-36.635361 -23.790695 27.562143 51.650930 0.575947 1.007917 0.042069 -0.033637 112164.000000 0 0 1
-36.252961 -23.883895 26.216463 50.715092 0.582545 1.027528 0.023373 -0.012168 -63820.000000 0 0 1
-35.987461 -25.315295 25.802403 51.007112 0.613036 1.040419 0.026298 -0.020735 -431887.000000 0 0 1
36.984565 -26.013695 25.761923 52.040821 -0.612982 1.052924 0.037957 -0.015181 -167756.000000 0 0 1
-37.040661 -27.380495 25.378733 52.590704 0.636554 1.067209 0.026548 -0.006140 180313.000000 0 0 1
-36.355861 -28.343695 26.390803 53.118623 0.662189 1.050857 0.022905 -0.013043 -913818.000000 0 0 1
-36.181861 -29.657295 25.799263 53.425501 0.686622 1.066831 0.026456 -0.010201 631561.000000 0 0 1
-35.148861 -30.333295 26.550483 53.483449 0.711990 1.051322 0.032016 -0.017674 391553.000000 0 0 1
-33.718961 -29.855095 26.314783 52.160932 0.724695 1.042003 0.030591 -0.014445 -1567030.000000 0 0 1
-33.249761 -29.913395 24.992453 51.234563 0.732626 1.061223 0.028854 -0.017467 1243510.000000 0 0 1
-31.947861 -29.262895 24.849743 49.944895 0.741562 1.050032 0.010325 -0.005089 1424740.000000 0 0 1
-31.388461 -29.160995 23.399513 48.817377 0.748627 1.070908 0.016261 -0.000294 -60047.100000 0 0 1
-31.203861 -30.497295 22.924983 49.288140 0.773947 1.087024 0.030961 -0.008967 283286.000000 0 0 1
-30.824261 -30.564595 21.566013 48.470841 0.781168 1.109703 0.035050 -0.006207 -463718.000000 0 0 1
-31.163661 -31.982395 20.941913 49.321507 0.798363 1.132276 0.056183 -0.012599 622369.000000 0 0 1
-30.234761 -33.096595 21.184213 49.581208 0.830556 1.129333 0.086133 -0.028927 1098120.000000 0 0 1
-28.988961 -32.945495 20.499613 48.435520 0.849194 1.133783 0.092358 -0.026461 355161.000000 0 0 1
-28.103861 33.905808 20.523313 48.586389 -0.878692 1.134695 0.095296 -0.025200 175976.000000 0 0 1
-28.633761 32.860608 19.674813 47.820603 -0.854026 1.146774 0.097132 -0.018603 752767.000000 0 0 1
-29.649961 31.966508 20.171913 48.040440 -0.822977 1.137467 0.113191 -0.023099 544981.000000 0 0 1
-29.154361 31.019408 21.292213 47.597676 -0.816383 1.107010 0.111891 -0.023607 750120.000000 0 0 1
-28.081061 30.126208 20.881713 46.175538 -0.820519 1.101538 0.101632 -0.024558 706594.000000 0 0 1
-27.762961 29.192908 21.894813 45.851834 -0.810499 1.072975 0.101073 -0.026839 -76392.500000 0 0 1
-26.826161 28.066408 21.423813 44.343499 -0.807988 1.066567 0.095294 -0.024823 2032490.000000 0 0 1
-25.416661 28.489508 21.403513 43.769500 -0.842340 1.059847 0.096045 -0.023741 1352340.000000 0 0 1
-24.533561 27.600208 20.816013 42.390724 -0.844153 1.057500 0.088176 -0.023378 196965.000000 0 0 1
-23.052961 28.073808 20.932113 41.925303 -0.883288 1.048038 0.071993 -0.021130 46806.400000 0 0 1
-22.608261 27.956808 22.221013 42.266890 -0.890782 1.017222 0.076146 -0.026708 -21579.500000 0 0 1
-21.423261 28.691408 22.431913 42.253328 -0.929424 1.011145 0.069136 -0.022247 -85593.200000 0 0 1
-21.178561 28.913708 23.931133 43.095627 -0.938606 0.982069 0.063557 -0.008642 -177065.000000 0 0 1
-20.782961 27.678408 24.580133 42.452428 -0.926737 0.953290 0.074042 -0.022901 319966.000000 0 0 1
-20.714061 27.754708 25.986233 43.297580 -0.929651 0.927073 0.081521 -0.022017 731443.000000 0 0 1
-19.259461 28.016008 26.546523 43.133994 -0.968546 0.907848 0.098198 -0.016867 580582.000000 0 0 1
-18.698761 29.233508 26.063243 43.399704 -1.001742 0.926620 0.073416 -0.017263 916126.000000 0 0 1
-17.406961 29.683208 26.513773 43.440480 -1.040419 0.914298 0.095741 -0.017884 739330.000000 0 0 1
-17.209961 29.908708 28.030223 44.456799 -1.048649 0.888593 0.088151 -0.006433 -516870.000000 0 0 1
-17.275361 28.736108 28.854593 44.235614 -1.029515 0.860190 0.083610 -0.002760 234337.000000 0 0 1
-17.270861 29.052808 30.216813 45.336564 -1.034457 0.841292 0.081243 -0.000321 -185640.000000 0 0 1
-17.106661 27.832308 31.154523 45.142879 -1.019687 0.809126 0.055661 0.006039 -350607.000000 0 0 1
-15.849961 27.197908 31.081033 44.237745 -1.043147 0.791765 0.059614 0.008219 58044.200000 0 0 1
-15.779761 25.976308 31.809773 43.995808 -1.024904 0.762635 0.055242 0.000186 -23171.900000 0 0 1
-15.772061 26.121508 33.332308 45.189975 -1.027590 0.741281 0.062781 0.001450 -73354.400000 0 0 1
-17.089561 25.928308 33.812163 45.908524 -0.988045 0.742898 0.066708 0.001180 -190634.000000 0 0 1
-17.462061 26.656908 -33.009845 45.882068 -0.990867 2.373806 0.076578 0.002415 116329.000000 0 0 1
-18.843161 26.193108 -32.476065 45.780328 -0.947173 2.359427 0.046360 0.001057 234751.000000 0 0 1
-19.860861 26.348708 -33.441165 46.978929 -0.924887 2.362901 0.029022 0.003726 529268.000000 0 0 1
-21.129661 25.933908 -32.889015 46.911805 -0.887126 2.347710 0.044593 -0.005854 738302.000000 0 0 1
-22.350861 25.929808 -33.816385 48.119267 -0.859391 2.350069 0.089272 -0.023838 -279269.000000 0 0 1
-22.513961 25.008008 32.951108 47.096225 -0.837832 0.795882 0.094566 -0.022941 -75248.800000 0 0 1
-22.305561 23.635608 33.223220 46.475395 -0.814341 0.774378 0.083059 -0.024475 -318291.000000 0 0 1
-22.683461 22.773308 32.000371 45.356220 -0.787375 0.787619 0.092132 -0.021051 457085.000000 0 0 1
-24.084561 22.685208 31.735013 45.845346 -0.755487 0.806237 0.110151 -0.029161 290704.000000 0 0 1
-24.363561 22.141508 30.445113 44.841213 -0.737654 0.824460 0.110398 -0.024162 -344980.000000 0 0 1
-25.823261 21.903808 30.089353 45.298861 -0.703460 0.844319 0.113581 -0.026963 -180642.000000 0 0 1
-26.450361 20.744408 30.693373 45.519613 -0.665080 0.830795 0.114257 -0.032950 -685082.000000 0 0 1
-27.667061 20.514908 30.072863 45.724225 -0.638034 0.853034 0.121112 -0.036691 -1069510.000000 0 0 1
-28.196461 19.226708 30.673393 45.886422 -0.598464 0.838656 0.142017 -0.040834 -601804.000000 0 0 1
-28.704961 19.343108 32.001267 47.140340 -0.592966 0.824600 0.148416 -0.039821 251157.000000 0 0 1
-28.975961 18.126208 32.710559 47.309052 -0.559002 0.807340 0.121486 -0.029815 441345.000000 0 0 1
-30.047261 17.112008 32.171844 47.230141 -0.517693 0.821434 0.091325 -0.027307 398812.000000 0 0 1
-31.418561 17.458908 32.199296 48.256959 -0.507199 0.840290 0.090920 -0.032333 106629.000000 0 0 1
-32.200761 16.447908 31.639103 48.046389 -0.472244 0.851957 0.095057 -0.018721 879193.000000 0 0 1
-33.742061 16.722708 31.470093 49.076903 -0.460125 0.874683 0.078093 -0.013936 1102310.000000 0 0 1
-34.441361 16.757408 32.734790 50.384368 -0.452829 0.863605 0.087867 -0.017466 155802.000000 0 0 1
-35.843261 16.851608 32.609106 51.303702 -0.439481 0.881999 0.087565 -0.019109 -176488.000000 0 0 1
-36.378961 17.300308 -33.958805 52.687094 -0.443904 2.271214 0.088583 -0.014833 -1783860.000000 0 0 1
36.444765 17.479108 33.909903 52.760038 0.447199 0.872754 0.059075 -0.015292 -1476530.000000 0 0 1
35.962265 17.889608 -32.758105 51.830648 0.461610 2.254956 0.053866 -0.023415 -65036.000000 0 0 1
34.458865 18.228308 -32.765305 50.923961 0.486568 2.269749 0.040448 -0.018994 -351709.000000 0 0 1
33.729065 17.068508 -32.818125 50.060095 0.468474 2.285740 0.036894 -0.001566 -1089640.000000 0 0 1
32.468665 17.260108 -32.254825 48.913181 0.488601 2.290857 0.024920 -0.002729 -723443.000000 0 0 1
31.689465 15.947708 -32.222265 47.925212 0.466244 2.308168 0.018765 0.008000 -375278.000000 0 0 1
31.095565 15.567508 -33.435835 48.241440 0.464155 2.336568 0.033592 -0.003735 -21421.200000 0 0 1
30.321265 14.383408 -33.393905 47.343579 0.442932 2.353716 0.030062 -0.007719 98938.500000 0 0 1
31.110865 13.038508 -33.547665 47.574515 0.396861 2.353446 0.032525 -0.005001 -122640.000000 0 0 1
32.133665 12.868108 -32.618075 47.561533 0.380899 2.326510 0.036149 -0.000329 -536702.000000 0 0 1
32.760565 11.679508 -32.937335 47.901290 0.342464 2.328987 0.059730 -0.003657 -382150.000000 0 0 1
17.626165 -20.693692 9.941825 28.943920 -0.865278 1.220170 0.023208 -0.014960 33179.200000 0 0 1
17.573965 -21.928492 10.687525 30.065366 -0.895189 1.207373 0.030631 -0.018682 -797712.000000 0 0 1
18.822865 -22.522492 10.744525 31.257123 -0.874642 1.219893 0.024846 -0.019508 -1172180.000000 0 0 1
18.815365 -23.905592 11.501925 32.523677 -0.903990 1.209328 0.036414 -0.015195 235405.000000 0 0 1
18.087465 -24.973992 10.843125 32.686848 -0.943979 1.232662 0.036426 -0.014835 179523.000000 0 0 1
16.692565 -24.773492 10.971625 31.823642 -0.977866 1.218810 0.043787 -0.017890 -660752.000000 0 0 1
15.888665 -25.918942 10.370225 32.121376 -1.020863 1.242062 0.074673 -0.015628 -228073.000000 0 0 1
15.866665 -25.718452 8.994425 31.529185 -1.018016 1.281505 0.081680 -0.026441 167365.000000 0 0 1
14.963965 -26.637452 8.368625 31.678194 -1.058966 1.303447 0.094699 -0.016496 82476.700000 0 0 1
14.598865 -26.242362 6.922925 30.817452 -1.063122 1.344220 0.095465 -0.024792 -120633.000000 0 0 1
13.744565 -25.117902 7.051525 29.488067 -1.070104 1.329325 0.091573 -0.035357 197051.000000 0 0 1
13.307965 -24.604292 5.747825 28.557146 -1.074982 1.368137 0.096571 -0.021170 -1416.890000 0 0 1
12.325865 -23.440692 5.858625 27.124094 -1.086697 1.353087 0.087910 -0.016304 -552785.000000 0 0 1
11.834065 -22.809592 4.686325 26.120571 -1.092207 1.390408 0.092936 -0.018270 -110297.000000 0 0 1
11.152565 -21.647192 5.034625 24.866204 -1.095065 1.366918 0.092443 -0.018856 -341397.000000 0 1 0
10.449365 -20.888092 3.898725 23.679140 -1.106945 1.405395 0.076836 -0.016170 -364868.000000 0 1 0
11.259365 -20.241092 2.938225 23.347554 -1.063158 1.444615 0.064154 -0.014750 -705284.000000 0 1 0
10.555465 -19.477692 2.002225 22.244263 -1.074173 1.480663 0.052179 -0.007196 -555128.000000 0 1 0
11.195865 -19.062392 0.674525 22.117350 -1.039747 1.540294 0.039555 -0.000736 -251647.000000 0 1 0
12.119165 -18.032292 0.851125 21.743094 -0.979055 1.531642 0.040626 0.000833 -408866.000000 0 1 0
12.848365 -17.731492 -0.307575 21.899336 -0.943746 1.584842 0.056038 -0.006889 -225738.000000 0 1 0
14.098665 -16.888592 -0.012075 21.999933 -0.875191 1.571345 0.057859 0.005338 -476820.000000 0 1 0
15.096565 -17.580892 0.665125 23.182675 -0.861278 1.542102 0.065141 -0.003120 -1159320.000000 0 1 0
16.232465 -16.780092 0.767425 23.359224 -0.801985 1.537937 0.057842 -0.011560 -1146920.000000 0 1 0
17.319965 -17.553892 1.438025 24.701988 -0.792106 1.512548 0.049341 -0.005237 -976330.000000 0 1 0
17.807865 -18.654692 0.739425 25.800472 -0.808619 1.542133 0.075221 -0.017953 214445.000000 0 0 1
19.032465 -19.142492 1.275425 27.023997 -0.788280 1.523583 0.072200 -0.009731 460971.000000 0 0 1
19.383465 -20.522792 0.731925 28.238970 -0.813940 1.544874 0.058621 -0.015491 30009.000000 0 0 1
18.510065 -21.558692 1.143925 28.437797 -0.861337 1.530560 0.064213 -0.007523 154844.000000 0 0 1
18.512565 -22.556592 0.161025 29.181173 -0.883550 1.565278 0.066841 -0.018404 -435710.000000 0 0 1
17.474165 -23.625292 0.460925 29.389000 -0.933960 1.555112 0.072333 -0.012242 -403841.000000 0 0 1
17.732065 -24.340492 1.619425 30.158054 -0.941197 1.517073 0.072099 -0.011444 -1023620.000000 0 0 1
16.679065 -25.159382 1.896925 30.245397 -0.985381 1.508037 0.075960 -0.014368 -1052070.000000 0 0 1
16.774765 -25.983482 3.180325 31.090972 -0.997525 1.468326 0.080745 -0.019937 82219.300000 0 0 1
17.880765 -26.858772 3.182025 32.422842 -0.983441 1.472497 0.074367 -0.020085 420632.000000 0 0 1
18.992465 -26.252522 3.878825 32.633632 -0.944503 1.451655 0.059405 -0.006847 16516.100000 0 0 1
20.231165 -27.156202 3.980325 34.096955 -0.930508 1.453794 0.061176 -0.007885 -327075.000000 0 0 1
20.882165 -27.342962 2.743325 34.514174 -0.918577 1.491228 0.071479 -0.005951 -628705.000000 0 0 1
21.763265 -28.422242 2.756525 35.903509 -0.917315 1.493945 0.083711 -0.005261 -359011.000000 0 0 1
21.212165 -29.884052 2.947425 36.765471 -0.953513 1.490542 0.086593 -0.005399 -112460.000000 0 0 1
21.002265 -30.276962 4.294925 37.097654 -0.964330 1.454763 0.086243 -0.014107 17467.400000 0 0 1
20.191565 -31.442212 4.322325 37.616413 -0.999938 1.455637 0.076768 -0.027782 -201023.000000 0 0 1
19.839665 -32.104982 5.655325 38.161825 -1.017274 1.422055 0.072504 -0.037328 442211.000000 0 0 1
20.930765 -32.809432 6.276125 39.420115 -1.002939 1.410905 0.064177 -0.033988 462999.000000 0 0 1
20.512865 -33.590222 7.352925 40.039308 -1.022561 1.386105 0.061688 -0.030902 -134511.000000 0 0 1
21.656565 33.649791 7.923925 40.793429 0.998943 1.375308 0.071413 -0.042162 -46655.700000 0 0 1
22.557365 -33.691692 8.719125 41.472738 -0.980819 1.358978 0.056465 -0.027955 266893.000000 0 0 1
23.670265 33.577846 9.048025 42.066851 0.956765 1.354016 0.069263 -0.036289 588278.000000 0 0 1
24.756365 -33.765692 9.871725 43.016863 -0.938147 1.339248 0.057614 -0.030223 -203740.000000 0 0 1
25.484665 -32.785342 9.199725 42.532126 -0.910039 1.352773 0.052997 -0.027385 -163795.000000 0 0 1
26.313165 -32.025182 10.035525 42.646298 -0.882999 1.333249 0.047950 -0.020271 93073.300000 0 0 1
26.985165 -30.823242 9.343325 42.018676 -0.851694 1.346561 0.046403 -0.021169 -199945.000000 0 0 1
26.177665 -29.698272 9.310825 40.668772 -0.848323 1.339805 0.048724 -0.018613 -362569.000000 0 0 1
26.593765 -28.747512 8.339725 40.039965 -0.824296 1.360975 0.053820 -0.016439 -124532.000000 0 0 1
26.140065 -27.270772 8.518125 38.724107 -0.806565 1.349013 0.043543 -0.002147 -167675.000000 0 0 1
26.946465 -26.624922 9.474225 39.048168 -0.779396 1.325721 0.050803 -0.018837 -46039.400000 0 0 1
26.606265 -25.273652 9.690725 37.954723 -0.759717 1.312614 0.049028 -0.017728 -81211.000000 0 0 1
27.560165 -24.598592 10.702125 38.460225 -0.728679 1.288809 0.042662 -0.021440 530548.000000 0 0 1
28.847765 -24.454292 10.114525 39.147281 -0.703158 1.309461 0.047563 -0.016331 88819.300000 0 0 1
29.704065 -23.526792 10.786325 39.397795 -0.669868 1.293475 0.050131 -0.023252 1000960.000000 0 0 1
31.108265 -23.377292 10.119825 40.207373 -0.644449 1.316369 0.061650 -0.028283 740212.000000 0 0 1
30.948165 -22.683892 8.906125 39.391204 -0.632509 1.342730 0.066189 -0.029799 -565145.000000 0 0 1
32.187465 -22.588892 8.275225 40.184205 -0.611927 1.363380 0.056859 -0.036658 -458706.000000 0 0 1
32.183265 -21.724092 7.034725 39.461197 -0.593758 1.391569 0.060453 -0.019382 -617886.000000 0 0 1
31.920365 -20.331492 7.324025 38.547641 -0.567142 1.379635 0.065039 -0.012373 -127554.000000 0 0 1
31.907665 -19.609392 6.128625 37.949801 -0.551062 1.408593 0.050693 -0.015105 -357998.000000 0 0 1
31.452765 -18.169192 6.383925 36.880218 -0.523836 1.396821 0.065903 -0.020237 -15140.500000 0 0 1
32.247165 -17.458792 7.335725 37.396550 -0.496221 1.373356 0.072510 -0.021769 57267.500000 0 0 1
31.884765 -16.101892 7.453425 36.489214 -0.467642 1.365085 0.074331 -0.023486 237115.000000 0 0 1
32.563265 -15.491292 8.760625 37.109230 -0.444043 1.332470 0.074485 -0.039651 2726860.000000 0 0 1
34.032265 -15.299192 8.643625 38.301079 -0.422479 1.343160 0.076310 -0.032654 2318360.000000 0 0 1
34.621065 -14.596592 9.757525 38.818655 -0.398996 1.316709 0.074689 -0.040693 651154.000000 0 0 1
36.154365 -14.865792 9.778025 40.295653 -0.390103 1.325692 0.071173 -0.050891 266502.000000 0 0 1
36.872665 -13.948192 8.994125 40.435625 -0.361643 1.346489 0.086173 -0.036277 589724.000000 0 0 1
-35.910061 -14.288092 9.005825 39.683585 0.378682 1.341861 0.096011 -0.039478 1278520.000000 0 0 1
-35.010161 -13.251292 8.241225 38.330483 0.361834 1.354100 0.105555 -0.037952 -127018.000000 0 0 1
-35.398961 -13.028092 6.905225 38.347096 0.352651 1.389737 0.116039 -0.041196 249799.000000 0 0 1
-34.375561 -12.522392 6.045525 37.081503 0.349341 1.407032 0.099060 -0.025152 33328.300000 0 0 1
-33.351861 -13.518192 5.528925 36.409575 0.385085 1.418353 0.075221 -0.023005 18076.400000 0 0 1
-32.501961 -13.994492 6.612925 35.999362 0.406582 1.386052 0.096487 -0.021140 556963.000000 0 0 1
-31.525161 -14.918392 6.131225 35.411666 0.441996 1.396778 0.104045 -0.009831 448228.000000 0 0 1
-30.977261 -15.834692 7.316025 35.550702 0.472545 1.363524 0.093046 -0.026783 450828.000000 0 0 1
-31.961061 -16.737192 7.813125 36.914603 0.482407 1.357529 0.096290 -0.034101 130105.000000 0 0 1
-31.907861 -16.728492 9.206325 37.184815 0.482878 1.320612 0.067810 -0.036769 368790.000000 0 0 1
-32.981161 -17.655392 9.852925 38.685268 0.491501 1.313265 0.035916 -0.038891 2057590.000000 0 0 1
-34.393861 -17.210492 9.724425 39.669928 0.463963 1.323139 0.071617 -0.035202 2419310.000000 0 0 1
-35.341461 -17.863892 10.563725 40.984507 0.468010 1.310104 0.100439 -0.042968 254549.000000 0 0 1
-35.639261 -19.369492 10.219225 41.830213 0.497829 1.323996 0.097081 -0.034689 -700249.000000 0 0 1
-34.640261 -20.307992 10.579225 41.524478 0.530251 1.313186 0.095098 -0.026713 -276578.000000 0 0 1
-34.309661 -20.489992 11.967725 41.715933 0.538364 1.279822 0.102050 -0.047700 -798011.000000 0 0 1
-35.422261 -21.104792 12.791625 43.171455 0.537330 1.269982 0.125402 -0.058707 -521040.000000 0 0 1
-35.748261 -22.459992 12.558825 44.046720 0.560956 1.281659 0.137302 -0.061430 466824.000000 0 0 1
-36.631361 -22.722992 11.449325 44.601323 0.555223 1.311186 0.119690 -0.045796 127793.000000 0 0 1
36.949565 -24.166192 11.411525 45.601514 -0.579204 1.317864 0.127824 -0.036916 -127510.000000 0 0 1
36.240665 -24.326492 12.614825 45.434545 -0.591168 1.289451 0.195031 -0.035956 -227984.000000 0 0 1
35.509465 -25.529702 12.527725 45.493205 -0.623334 1.291816 0.138689 -0.029741 -123929.000000 0 0 1
34.387265 -25.657072 13.596625 45.007084 -0.641014 1.263902 0.146049 -0.031446 650725.000000 0 0 1
33.360765 -24.681692 13.336025 43.588716 -0.636968 1.259859 0.130260 -0.031010 154774.000000 0 0 1
32.396665 -24.526092 14.346225 43.091615 -0.648002 1.231394 0.096503 -0.010121 -495840.000000 0 0 1
32.260165 -23.027592 14.770125 42.298284 -0.619934 1.214090 0.126939 -0.018522 505605.000000 0 0 1
33.395265 -22.406792 15.393025 43.061042 -0.590967 1.205239 0.137927 -0.023368 634936.000000 0 0 1
34.445365 -22.034992 14.473725 43.376408 -0.569106 1.230594 0.126437 -0.035741 562259.000000 0 0 1
35.798765 -21.821092 15.197425 44.594544 -0.547411 1.223038 0.120185 -0.037519 -112800.000000 0 0 1
35.991365 -20.634292 15.929325 44.439800 -0.520565 1.204192 0.122827 -0.026589 214600.000000 0 0 1
35.123365 -20.417192 17.059025 44.062715 -0.526556 1.173254 0.116429 -0.025919 250227.000000 0 0 1
35.386365 -19.037792 17.708125 43.911389 -0.493582 1.155709 0.095679 -0.022161 -133223.000000 0 0 1
35.050465 -17.945092 16.929825 42.862343 -0.473185 1.164749 0.094647 -0.032130 -151062.000000 0 0 1
35.035165 -16.685392 17.558025 42.592832 -0.444465 1.145896 0.087732 -0.030033 165321.000000 0 0 1
36.340065 -15.933692 17.999225 43.571263 -0.413217 1.144942 0.076652 -0.027839 190715.000000 0 0 1
36.839265 -16.489292 19.202325 44.696281 -0.420857 1.126727 0.067491 -0.010004 166149.000000 0 0 1
-36.449461 -15.553592 19.783025 44.292725 0.403324 1.107787 0.038036 -0.006797 -139226.000000 0 0 1
-36.193361 -15.643792 21.340325 44.834106 0.407977 1.074714 0.025687 0.000685 -102937.000000 0 0 1
-35.282861 -16.647492 21.780125 44.681015 0.440858 1.061620 0.017510 -0.000776 275958.000000 0 0 1
-34.950261 -16.450492 23.112625 45.014807 0.439920 1.031602 0.015929 0.001065 -341160.000000 0 0 1
-33.955561 -17.506992 23.522125 44.863853 0.476038 1.018903 0.014443 0.001435 -1027080.000000 0 0 1
-34.559661 -18.767392 23.540725 45.833949 0.497486 1.031411 0.023841 -0.002818 537992.000000 0 0 1
-33.687361 -19.838292 23.902625 45.822829 0.532213 1.022034 0.014988 -0.006123 46349.100000 0 0 1
-32.646961 -20.371392 22.877225 44.768126 0.557873 1.034430 0.006204 -0.001812 206711.000000 0 0 1
-31.590661 -19.450192 22.663425 43.473103 0.551880 1.022399 0.011315 0.002470 202622.000000 0 0 1
-30.522061 -20.138492 21.998425 42.674182 0.583234 1.029208 0.016925 -0.006645 139290.000000 0 0 1
-29.214561 -19.327492 22.058225 41.395747 0.584466 1.008817 0.033684 -0.006986 -224590.000000 0 0 1
-28.686661 -19.133392 23.363425 41.651661 0.588219 0.975295 0.024527 -0.000867 409363.000000 0 0 1
-27.548561 -18.285292 23.374025 40.492224 0.585979 0.955443 0.051832 -0.007810 -21324.000000 0 0 1
-27.215261 -17.836692 24.788925 40.906098 0.580157 0.919779 0.051372 -0.013619 -1077550.000000 0 0 1
-26.227861 -16.838592 24.816025 39.840607 0.570739 0.898374 0.059983 -0.020795 -7913.940000 0 0 1
-26.061561 -16.503192 26.145525 40.436973 0.564502 0.867711 0.045399 -0.024539 -264520.000000 0 0 1
-24.851061 -17.118992 26.833925 40.381861 0.603213 0.843966 0.055816 -0.016092 -755870.000000 0 0 1
-25.048561 -18.482792 27.166025 41.316304 0.635698 0.853283 0.057184 -0.012497 -98887.700000 0 0 1
-24.041261 -18.956692 28.033625 41.511716 0.667693 0.829400 0.075737 -0.018014 -184352.000000 0 0 1
-24.463861 -20.273892 28.757125 42.854212 0.692014 0.835178 0.072637 -0.016273 -60489.300000 0 0 1
-25.436661 -20.125492 29.772525 44.027973 0.669352 0.828179 0.069898 -0.020595 250859.000000 0 0 1
-25.891361 -21.322692 30.423725 45.283803 0.688933 0.834099 0.077654 -0.020131 -190348.000000 0 0 1
-27.127861 -21.110492 31.314025 46.498838 0.661297 0.831948 0.085201 -0.027728 -774440.000000 0 0 1
-26.864961 -20.289792 32.378925 46.709706 0.646853 0.804884 0.099095 -0.036204 1093850.000000 0 0 1
-27.952361 -20.332192 33.363125 48.039886 0.628871 0.803088 0.114277 -0.035335 761409.000000 0 0 1
-29.250961 -19.608692 33.019625 48.274374 0.590556 0.817566 0.088816 -0.036317 -952261.000000 0 0 1
-30.070061 -20.231292 32.067125 48.392296 0.592240 0.846446 0.076866 -0.037277 -50543.400000 0 0 1
-31.355461 -19.650692 32.203125 49.054622 0.559826 0.854660 0.073509 -0.034815 495086.000000 0 0 1
-32.493761 -20.341192 31.364925 49.531476 0.559320 0.885074 0.059835 -0.014331 355099.000000 0 0 1
-32.699561 -19.686992 30.161825 48.647453 0.541930 0.902043 0.054722 -0.026094 499122.000000 0 0 1
-33.710061 -20.337992 29.384325 49.126782 0.542858 0.929628 0.046773 -0.026377 191066.000000 0 0 1
-34.076261 -19.483192 28.183825 48.323021 0.519390 0.948087 0.041983 -0.017973 -207411.000000 0 0 1
-35.100361 -19.964692 27.345625 48.768919 0.517154 0.975543 0.025590 -0.023812 -35207.700000 0 0 1
-35.668961 -18.890892 26.691725 48.389966 0.487060 0.986520 0.045668 -0.012427 104145.000000 0 0 1
-36.993061 -19.152692 25.898525 49.051461 0.477737 1.014568 0.033025 -0.006252 1769060.000000 0 0 1
35.963665 -19.333092 26.687725 48.778975 -0.493252 0.991882 0.044741 -0.011389 1350920.000000 0 0 1
34.992665 -19.983692 25.912525 47.909222 -0.518885 0.999329 0.092114 -0.013546 155715.000000 0 0 1
33.617365 -20.343492 26.537625 47.415509 -0.544196 0.976794 0.087669 -0.025070 232115.000000 0 0 1
32.962365 -19.178392 26.994225 46.722762 -0.526950 0.954823 0.081861 -0.024358 238245.000000 0 0 1
31.637765 -19.568392 27.346625 46.170424 -0.553921 0.936889 0.079121 -0.024306 277776.000000 0 0 1
-30.114735 -5.825192 -33.940515 45.747007 0.191074 2.406722 0.038245 -0.023087 -303727.000000 0 0 1
-31.171685 -5.685792 33.106631 45.826315 0.180419 0.763476 0.044449 -0.014483 191991.000000 0 0 1
-30.757905 -4.648992 32.204957 44.775228 0.150012 0.768062 0.050926 -0.010179 337648.000000 0 0 1
-31.655455 -4.688292 30.948233 44.517873 0.147035 0.802117 0.052742 -0.016515 86881.000000 0 0 1
-31.417165 -5.780892 29.978013 43.807969 0.181969 0.817146 0.053749 -0.018368 -108046.000000 0 0 1
-30.194015 -5.772892 29.277163 42.451820 0.188913 0.809782 0.057739 -0.022346 -55080.200000 0 0 1
-30.005485 -6.813892 28.140993 41.697406 0.223301 0.829986 0.062967 -0.023835 -64615.400000 0 0 1
-30.724765 -6.387392 27.019013 41.410590 0.204971 0.859962 0.052271 -0.026963 -71931.000000 0 0 1
-30.480705 -7.319192 25.941703 40.689260 0.235664 0.879474 0.056932 -0.031189 -238924.000000 0 0 1
-31.034355 -6.714192 24.656993 40.201727 0.213063 0.910524 0.057656 -0.022032 -236681.000000 0 0 1
-30.275695 -5.686692 24.100423 39.112485 0.185667 0.906910 0.082466 -0.022448 -346641.000000 0 0 1
-30.833535 -5.275992 22.882113 38.757374 0.169471 0.939250 0.082624 -0.025275 27219.100000 0 0 1
-30.238915 -3.958692 22.398213 37.838382 0.130174 0.937327 0.094999 -0.027528 1192640.000000 0 0 1
-28.903635 -4.081292 21.850413 36.462550 0.140276 0.928225 0.090619 -0.021406 784622.000000 0 0 1
-28.405515 -2.826892 21.444313 35.703265 0.099193 0.926512 0.102374 -0.023399 -255306.000000 0 0 1
-27.007055 -2.839592 20.842613 34.232423 0.104758 0.916179 0.100655 -0.021387 -437885.000000 0 0 1
-26.964765 -3.532692 19.601413 33.523034 0.130269 0.946268 0.105444 -0.021971 1297370.000000 0 0 1
-25.584145 -3.620292 19.137913 32.154543 0.140572 0.933300 0.090850 -0.019917 1222130.000000 0 0 1
-25.467515 -4.114492 17.679913 31.274633 0.160174 0.969985 0.103910 -0.024099 207224.000000 0 0 1
-26.077965 -3.225492 16.681913 31.124753 0.123061 1.005141 0.120641 -0.023223 538358.000000 0 0 1
-25.893275 -3.664992 15.359713 30.328445 0.140608 1.039739 0.130775 -0.035286 483392.000000 0 0 1
-27.234025 -3.859392 14.563013 31.123437 0.140775 1.083870 0.135463 -0.033221 450999.000000 0 0 1
-27.806755 -2.705892 14.122613 31.304722 0.097005 1.102761 0.136085 -0.032056 -651115.000000 0 0 1
-29.055155 -2.914892 13.532513 32.184274 0.099988 1.136833 0.124157 -0.029530 -122710.000000 0 0 1
-29.629915 -1.710792 12.715513 32.288433 0.057675 1.166023 0.119200 -0.014681 -115817.000000 0 0 1
-28.982825 -1.562792 11.462413 31.206303 0.053869 1.194680 0.143066 -0.020063 84675.800000 0 0 1
-29.417315 -0.445292 10.693913 31.303937 0.015136 1.222161 0.148899 -0.018794 483348.000000 0 0 1
-30.785955 -0.657692 9.975513 32.368479 0.021360 1.257511 0.145005 -0.020046 593376.000000 0 0 1
-30.633275 -1.391192 8.726413 31.882334 0.045383 1.293551 0.148184 -0.028570 -698853.000000 0 0 1
-31.927475 -1.685992 8.332913 33.040031 0.052758 1.315836 0.150409 -0.026370 -671134.000000 0 0 1
-31.977635 -2.426192 6.994513 32.823448 0.075726 1.356055 0.142390 -0.029531 -189032.000000 0 0 1
-31.680045 -1.677792 5.797813 32.249881 0.052911 1.390036 0.156578 -0.040216 134244.000000 0 0 1
-32.580425 -0.677092 5.392513 33.030618 0.020779 1.406804 0.165115 -0.036794 -413912.000000 0 0 1
-32.223705 -0.141892 4.005413 32.471997 0.004403 1.447132 0.195268 -0.033923 -145087.000000 0 0 1
-32.647775 -0.996192 2.953213 32.796205 0.030504 1.480627 0.173510 -0.044564 369332.000000 0 0 1
-32.131055 -0.562392 1.734413 32.182746 0.017501 1.516878 0.174187 -0.042431 -564301.000000 0 0 1
-32.758505 -1.365392 0.601613 32.792466 0.041656 1.552449 0.164853 -0.043279 221413.000000 0 0 1
-34.120034 -1.002592 0.409813 34.137221 0.029376 1.558791 0.170083 -0.042480 245031.000000 0 0 1
-34.704061 -1.588492 -0.767887 34.748882 0.045741 1.592896 0.169795 -0.047019 518740.000000 0 0 1
-36.231475 -1.254092 -0.787187 36.261718 0.034600 1.592507 0.147381 -0.042340 342614.000000 0 0 1
-36.934415 -2.094592 0.113513 36.993934 0.056650 1.567728 0.148551 -0.040230 70215.200000 0 0 1
35.851652 -1.892992 0.029213 35.901605 -0.052752 1.569983 0.141490 -0.037458 -169113.000000 0 0 1
34.993662 -2.977792 0.663213 35.126393 -0.084891 1.551914 0.142394 -0.042644 -361634.000000 0 0 1
35.095852 -2.961392 2.053213 35.280368 -0.084181 1.512566 0.132112 -0.037227 -367.453000 0 0 1
34.475942 -4.075392 2.587113 34.812247 -0.117664 1.496412 0.129129 -0.026941 -115427.000000 0 0 1
34.664322 -4.143492 4.093313 35.150234 -0.118967 1.454080 0.114858 -0.015824 1686.940000 0 0 1
33.958362 -3.172692 4.791413 34.441167 -0.093158 1.431225 0.118956 -0.018914 -47023.400000 0 0 1
34.126712 -3.304692 6.193713 34.841291 -0.096535 1.392077 0.112433 -0.019892 7120.470000 0 0 1
33.453092 -2.179792 7.045113 34.256306 -0.065068 1.363659 0.116659 -0.013503 922763.000000 0 0 1
32.051302 -2.442592 7.225313 32.946280 -0.076062 1.349693 0.122280 -0.011274 823761.000000 0 0 1
31.377192 -1.390292 7.903013 32.387014 -0.044280 1.324289 0.128666 -0.010581 688054.000000 0 0 1
29.869232 -1.651992 8.220213 31.023733 -0.055251 1.302628 0.121336 -0.014252 -70371.200000 0 0 1
29.107232 -1.925092 7.117513 30.026587 -0.066042 1.331478 0.134215 -0.007379 -1110510.000000 0 0 1
27.740692 -1.792392 7.355113 28.755110 -0.064523 1.312137 0.134710 -0.008577 -557806.000000 0 0 1
27.196592 -3.266492 7.371313 28.366544 -0.119534 1.307920 0.165944 -0.017629 -756163.000000 0 0 1
27.512992 -3.964792 8.513613 29.071737 -0.143121 1.273592 0.148842 -0.016926 410631.000000 0 0 1
27.094592 -5.320792 8.314313 28.836705 -0.193911 1.278320 0.169521 -0.016577 15427.300000 0 0 1
27.141292 -6.254092 9.556513 29.446398 -0.226474 1.240272 0.160714 -0.032812 115925.000000 0 0 1
26.134192 -5.821992 10.466813 28.747969 -0.219194 1.198142 0.169433 -0.016906 596174.000000 0 0 1
26.222592 -6.639892 11.614713 29.438309 -0.248000 1.165225 0.157279 -0.012297 101988.000000 0 0 1
24.924892 -6.632492 12.473213 28.649978 -0.260072 1.120352 0.128067 -0.014155 265936.000000 0 0 1
23.899892 -7.301392 11.761613 27.619752 -0.296494 1.130906 0.144024 -0.021473 1539970.000000 0 0 1
22.611292 -7.162792 12.470013 26.796965 -0.306779 1.086764 0.131939 -0.023880 1800600.000000 0 0 1
21.721992 -8.394692 12.689513 26.520549 -0.368780 1.071875 0.120127 -0.017406 124878.000000 0 0 1
22.406492 -9.331892 13.535013 27.790856 -0.394633 1.062109 0.117479 -0.026275 525662.000000 0 0 1
21.717092 -10.568592 13.675013 27.754877 -0.452910 1.055599 0.134016 -0.037740 -220820.000000 0 0 1
22.305792 -11.497692 14.738813 29.102884 -0.475937 1.039747 0.112726 -0.034067 -433006.000000 0 0 1
22.067692 -10.955592 16.044613 29.401320 -0.460807 0.993559 0.111893 -0.027906 162455.000000 0 0 1
22.492392 -11.848692 16.999613 30.582446 -0.484847 0.981397 0.100712 -0.031057 -243887.000000 0 0 1
22.075692 -11.418492 18.440413 30.947810 -0.477346 0.932466 0.103219 -0.026246 -209801.000000 0 0 1
20.678792 -11.519892 18.579213 30.091651 -0.508268 0.905337 0.114777 -0.027158 -212556.000000 0 0 1
20.256692 -11.608892 19.949013 30.709331 -0.520397 0.863728 0.111086 -0.025169 175272.000000 0 0 1
20.597692 -10.439492 20.928913 31.165161 -0.469095 0.834500 0.113888 -0.023878 -1061680.000000 0 0 1
19.848492 -9.297392 20.825013 30.233843 -0.438064 0.810967 0.099931 -0.019517 -421388.000000 0 0 1
20.406792 -8.168592 20.149613 29.818953 -0.380755 0.828839 0.114319 -0.021029 -401359.000000 0 0 1
21.544592 -7.367292 20.868813 30.886142 -0.329490 0.828924 0.115011 -0.009794 909588.000000 0 0 1
22.803992 -8.010392 21.003713 32.020999 -0.337807 0.855375 0.132137 -0.024495 261809.000000 0 0 1
23.593292 -8.119592 19.853913 31.886502 -0.331452 0.898680 0.137957 -0.029662 -965425.000000 0 0 1
24.990192 -8.678692 20.136213 33.245999 -0.334253 0.920185 0.142413 -0.038718 -419261.000000 0 0 1
25.017492 -10.069692 20.370913 33.797155 -0.382665 0.923865 0.107876 -0.036646 -522762.000000 0 0 1
26.281092 -10.610692 20.166413 34.784577 -0.383725 0.952373 0.108636 -0.037687 -409176.000000 0 0 1
26.238692 -12.156392 20.221713 35.286888 -0.433859 0.960554 0.081920 -0.030753 88525.600000 0 0 1
25.261792 -12.699492 19.337613 34.254613 -0.465818 0.970938 0.102250 -0.034868 355689.000000 0 0 1
25.188892 -14.115092 19.437613 34.807138 -0.510770 0.978295 0.078888 -0.020259 112940.000000 0 0 1
24.162292 -14.814792 18.483213 33.836719 -0.550023 0.992919 0.081227 -0.014746 -90984.500000 0 0 1
24.522692 -14.897892 17.119913 33.412588 -0.545927 1.032843 0.077797 -0.018200 -177436.000000 0 0 1
23.625392 -15.532092 16.262013 32.616837 -0.581582 1.048840 0.064689 -0.021201 -496880.000000 0 0 1
23.320092 -17.046592 16.401313 33.217707 -0.631219 1.054397 0.043963 -0.018141 359087.000000 0 0 1
24.437892 -17.838792 15.970313 34.212336 -0.630555 1.085128 0.063169 -0.016971 373033.000000 0 0 1
24.326792 -19.239792 16.358213 35.064990 -0.669161 1.085454 0.049387 -0.005342 32697.800000 0 0 1
25.599692 -20.097992 16.134213 36.326111 -0.665581 1.110572 0.059209 0.000503 155580.000000 0 0 1
25.927992 -20.248192 14.748213 36.052182 -0.663010 1.149351 0.062568 -0.015383 -1511.900000 0 0 1
26.749692 -21.395592 14.585113 37.229597 -0.674646 1.168251 0.059488 -0.023133 19971.600000 0 0 1
27.105392 -21.522392 13.105113 37.008912 -0.671088 1.208837 0.052011 -0.037582 -43331.500000 0 0 1
25.922992 -21.645492 12.342113 35.956315 -0.695716 1.220418 0.069934 -0.028823 101061.000000 0 0 1
26.141292 -21.279192 11.027213 35.465061 -0.683224 1.254623 0.088850 -0.025559 79360.300000 0 0 1
24.884192 -21.308692 10.129113 34.291140 -0.708148 1.270937 0.058064 -0.022190 146600.000000 0 0 1
24.316592 -22.602192 9.940013 34.654864 -0.748875 1.279881 0.048432 -0.018966 60934.100000 0 0 1
22.987892 -22.574292 9.478613 33.584013 -0.776321 1.284672 0.044992 -0.015377 83410.500000 0 0 1
22.669092 -23.694892 8.461413 33.866372 -0.807519 1.318274 0.036870 -0.015921 -402885.000000 0 0 1
22.888892 -25.006792 8.953613 35.062918 -0.829588 1.312578 0.027787 -0.009587 120791.000000 0 0 1
22.606992 -26.079442 8.028913 35.435530 -0.856600 1.342233 0.030260 -0.002904 984206.000000 0 0 1
21.062892 -26.356232 7.838613 34.637266 -0.896567 1.342513 0.036407 0.004053 1259650.000000 0 0 1
20.259192 -25.256932 7.400313 33.213131 -0.894762 1.346097 0.045448 -0.002046 329139.000000 0 0 1
18.863592 -25.523922 7.602613 32.635953 -0.934337 1.335684 0.061138 -0.019219 621934.000000 0 0 1
18.031992 -24.256592 7.381413 31.113023 -0.931542 1.331267 0.068439 -0.023307 -365243.000000 0 0 1
17.952192 -23.703392 6.107113 30.355046 -0.922596 1.368224 0.080997 -0.025617 -160803.000000 0 0 1
16.956092 -22.727392 6.191113 29.023667 -0.929819 1.355832 0.071853 -0.020027 -132367.000000 0 0 1
16.549292 -22.076892 4.838413 28.012113 -0.927538 1.397200 0.080544 -0.016446 -327811.000000 0 0 1
15.745292 -20.958392 4.924813 26.672499 -0.926487 1.385091 0.099967 -0.012030 -439500.000000 0 0 1
15.538292 -20.426792 3.631413 25.920638 -0.920494 1.430237 0.101539 -0.007945 389051.000000 0 0 1
14.494192 -19.276492 3.608313 24.386157 -0.926074 1.422285 0.081080 -0.000456 347694.000000 0 1 0
15.043492 -18.211192 4.362313 24.020490 -0.880367 1.388175 0.049959 0.000940 411244.000000 0 1 0
14.362292 -16.986992 4.041613 22.609024 -0.868928 1.391069 0.023744 0.005850 259530.000000 0 1 0
15.179592 -15.701092 4.352013 22.268460 -0.802284 1.374096 0.011149 0.001738 -521869.000000 0 1 0
15.583392 -15.558992 5.689013 22.743992 -0.784615 1.317979 0.023710 -0.012909 -298100.000000 0 1 0
16.645992 -14.671192 5.803713 22.935039 -0.722424 1.314965 0.038957 -0.014847 -685343.000000 0 1 0
18.031892 -15.315892 5.683013 24.331508 -0.704133 1.335053 0.045048 -0.028211 -1276150.000000 0 1 0
19.032392 -14.366992 5.631313 24.502124 -0.646611 1.338894 0.095678 -0.025145 -712067.000000 0 1 0
20.274892 -14.978292 5.356313 25.770343 -0.636269 1.361422 0.127585 -0.030043 -84450.900000 0 0 1
21.375792 -13.947792 5.071013 26.022693 -0.578134 1.374673 0.137805 -0.034566 -185380.000000 0 0 1
21.694592 -13.098392 6.116913 26.069902 -0.543182 1.333953 0.151628 -0.036088 -382127.000000 0 0 1
22.653192 -12.159092 5.781213 26.352097 -0.492613 1.349614 0.163199 -0.039876 -596541.000000 0 0 1
23.084792 -11.446692 7.063613 26.717578 -0.460325 1.303235 0.176703 -0.040375 -20681.700000 0 0 1
23.681092 -12.332192 8.011513 27.875821 -0.480118 1.279285 0.178043 -0.021291 323516.000000 0 0 1
23.990492 -11.644292 9.201713 28.210012 -0.451876 1.238530 0.187226 -0.044690 -25153.000000 0 0 1
24.470992 -12.505092 10.380713 29.376282 -0.472422 1.209625 0.158371 -0.041277 -526012.000000 0 0 1
23.445292 -13.305492 10.866013 29.065238 -0.516189 1.187641 0.161779 -0.041186 -185186.000000 0 0 1
23.877592 -14.185292 11.845013 30.193811 -0.536058 1.167666 0.151174 -0.047464 -662056.000000 0 0 1
22.764192 -15.014392 12.442113 29.974098 -0.583068 1.142749 0.125974 -0.047566 -365467.000000 0 0 1
21.815692 -14.195392 13.122813 29.148615 -0.576865 1.103803 0.104221 -0.040010 604450.000000 0 0 1
20.605192 -14.955592 13.276313 28.714180 -0.627843 1.090140 0.081824 -0.034921 -18902.300000 0 0 1
19.408792 -14.197592 13.795113 27.723238 -0.631558 1.049965 0.082181 -0.035896 -825254.000000 0 0 1
19.442092 -13.895992 15.135113 28.287191 -0.620549 1.006227 0.082546 -0.037133 292022.000000 0 0 1
18.841292 -12.605792 15.425913 27.420048 -0.589652 0.973296 0.107190 -0.051292 442094.000000 0 0 1
17.308092 -12.369292 15.556213 26.354604 -0.620493 0.939409 0.116381 -0.053978 601364.000000 0 0 1
16.606192 -12.642392 14.280413 25.288849 -0.650698 0.970736 0.120845 -0.066308 1294870.000000 0 0 1
15.198692 -12.353092 14.269013 24.232289 -0.682481 0.941170 0.134488 -0.059833 1000560.000000 0 1 0
14.782392 -10.844092 14.077813 23.114892 -0.632910 0.915951 0.107382 -0.062151 -544142.000000 0 1 0
15.188192 -9.989192 15.064413 23.609355 -0.581765 0.878808 0.091557 -0.052300 -56914.000000 0 1 0
14.825292 -8.665592 14.899813 22.735131 -0.528955 0.856130 0.083851 -0.046615 -824206.000000 0 1 0
15.473492 -7.817892 16.000313 23.591490 -0.467834 0.825453 0.090505 -0.032710 441871.000000 0 1 0
16.888592 -7.762192 15.919713 24.472707 -0.430818 0.862542 0.094097 -0.043221 398147.000000 0 1 0
17.648892 -8.753092 16.593313 25.757291 -0.460408 0.870796 0.105318 -0.037632 971416.000000 0 0 1
19.188692 -8.625392 16.224213 26.567430 -0.422441 0.913877 0.097041 -0.030393 1260410.000000 0 0 1
19.716592 -7.415792 16.907613 27.011207 -0.359752 0.894450 0.088563 -0.032900 -67341.400000 0 0 1
20.973292 -7.157592 16.343613 27.535863 -0.328878 0.935347 0.090067 -0.019402 -378913.000000 0 0 1
21.516192 -5.785092 16.817013 27.914615 -0.262660 0.924236 0.074063 -0.019909 -199459.000000 0 0 1
22.127292 -5.767492 18.076513 29.148607 -0.254977 0.901862 0.111566 -0.021314 209869.000000 0 0 1
22.452092 -4.437492 18.449213 29.396619 -0.195128 0.892334 0.118262 -0.026399 -11394.300000 0 0 1
-5.662535 -33.066595 -6.245875 34.124404 1.401195 1.754866 0.042819 -0.009056 -88630.400000 0 0 1
-6.224935 -31.831495 -6.660175 33.111203 1.377675 1.773324 0.034710 -0.013228 210763.000000 0 0 1
-5.894735 -30.780395 -5.744175 31.861829 1.381578 1.752071 0.043629 -0.015853 -1076960.000000 0 0 1
-6.641935 -29.499795 -6.064275 30.840373 1.349337 1.768720 0.049244 -0.015437 911672.000000 0 0 1
-8.030935 -29.396495 -5.719175 31.005786 1.304110 1.756314 0.046207 -0.012678 592622.000000 0 0 1
-8.898435 -30.186895 -6.463975 32.128083 1.284137 1.773373 0.042872 -0.008226 -652812.000000 0 0 1
-10.354335 -30.154695 -5.903075 32.424746 1.240037 1.753872 0.094825 -0.008663 442257.000000 0 0 1
-11.252435 -30.921995 -6.691875 33.579283 1.221795 1.771425 0.081060 -0.013976 -108073.000000 0 0 1
-12.564235 -30.723495 -6.196075 33.766617 1.182602 1.755339 0.085735 -0.011583 594930.000000 0 0 1
-13.685635 -31.235195 -7.168375 34.847088 1.157842 1.777985 0.097744 -0.021337 360587.000000 0 0 1
-13.719835 -30.460095 -8.385275 34.443636 1.147593 1.816717 0.125511 -0.031015 583527.000000 0 0 1
-14.816935 -30.854395 -9.232575 35.451032 1.123097 1.834266 0.120011 -0.029774 644872.000000 0 0 1
-15.053435 -30.001995 -10.510275 35.173732 1.105751 1.874242 0.147257 -0.026645 -181081.000000 0 0 1
-15.606135 -28.693795 -10.286475 34.244662 1.072660 1.875889 0.158957 -0.029786 164010.000000 0 0 1
-14.710535 -27.751895 -9.746575 32.887128 1.083381 1.871680 0.141650 -0.027183 -419000.000000 0 0 1
-15.357935 -26.425595 -9.432675 31.986772 1.044333 1.870140 0.142301 -0.005027 -259856.000000 0 0 1
-15.542435 -25.589195 -10.576375 31.752698 1.024966 1.910371 0.149174 -0.008459 214371.000000 0 0 1
-16.069235 -24.332295 -10.174175 30.883567 0.987139 1.906503 0.126609 0.000585 -175289.000000 0 0 1
-16.566735 -23.543895 -11.434375 30.976065 0.957623 1.948875 0.148677 -0.007206 217483.000000 0 0 1
-17.848035 -24.079995 -11.762075 32.198523 0.932953 1.944750 0.148035 -0.021263 69887.800000 0 0 1
-18.217435 -23.683395 -13.032175 32.597786 0.915116 1.982081 0.157912 -0.021496 -1351410.000000 0 0 1
-19.667735 -23.931395 -13.387275 33.745378 0.882881 1.978731 0.130746 -0.005788 -860314.000000 0 0 1
-20.031935 -25.284795 -13.501275 34.969754 0.900798 1.967179 0.161465 -0.013664 13119.900000 0 0 1
-20.096735 -26.006795 -12.301875 35.093706 0.912894 1.928948 0.178113 -0.014790 -1637490.000000 0 0 1
-20.240735 -27.511995 -12.506575 36.373226 0.936506 1.921800 0.175879 -0.022280 758564.000000 0 0 1
-19.228635 -28.213395 -13.272175 36.631771 0.972565 1.941545 0.181598 -0.037373 1835160.000000 0 0 1
-17.836135 -27.879095 -13.050275 35.576415 1.001648 1.946389 0.185676 -0.045754 747064.000000 0 0 1
-16.820635 -28.967095 -13.502775 36.115803 1.044703 1.953979 0.164557 -0.046424 -41581.900000 0 0 1
-16.746235 -29.183895 -14.901675 36.799402 1.049851 1.987713 0.176434 -0.053186 423993.000000 0 0 1
-15.921435 -30.294295 -15.317775 37.494941 1.086911 1.991638 0.183634 -0.056202 415756.000000 0 0 1
-16.634635 -31.651395 -15.036275 38.789321 1.086912 1.968866 0.181424 -0.054919 -9355.880000 0 0 1
-16.723235 -31.973995 -13.633975 38.573154 1.088898 1.932061 0.172618 -0.046932 -49281.400000 0 0 1
-17.119935 -33.302895 -13.406875 39.773348 1.095958 1.914612 0.160779 -0.040833 -996262.000000 0 0 1
-17.733635 -33.460795 -11.993375 39.723389 1.083451 1.877505 0.173766 -0.043661 -369428.000000 0 0 1
-19.074135 -33.049395 -11.934675 39.981515 1.047355 1.873922 0.195620 -0.037092 -42594.400000 0 0 1
-19.375435 -31.641395 -12.033175 39.004905 1.021349 1.884416 0.196526 -0.037121 -788457.000000 0 0 1
-18.865135 -30.727295 -10.900175 37.667941 1.020180 1.864371 0.203931 -0.032386 -446545.000000 0 0 1
-19.332835 -31.005195 -9.650875 37.791798 1.013251 1.829026 0.194252 -0.031901 241993.000000 0 0 1
-18.762835 -29.955995 -8.837375 36.434939 1.011229 1.815792 0.179884 -0.021696 378026.000000 0 0 1
-19.147235 -30.130595 -7.340675 36.446602 1.004700 1.773593 0.177585 -0.018004 253219.000000 0 0 1
-18.424135 -31.182395 -6.708375 36.834668 1.037132 1.753940 0.176124 -0.024451 233091.000000 0 0 1
-18.726835 -31.303795 -5.340375 36.866536 1.031680 1.716165 0.147610 -0.025331 -3399.910000 0 0 1
-17.912535 -32.518695 -4.715275 37.424033 1.067310 1.697128 0.155501 -0.022350 1457410.000000 0 0 1
-16.516435 -32.284895 -4.444075 36.535693 1.097925 1.692735 0.132711 -0.017871 991468.000000 0 0 1
-16.280335 -31.547395 -3.249375 35.648925 1.094384 1.662072 0.107184 -0.021573 -674856.000000 0 0 1
-14.964435 -30.792695 -3.058875 34.372679 1.118433 1.659906 0.102503 -0.029398 333961.000000 0 0 1
-13.816035 -31.643395 -2.904375 34.650002 1.159128 1.654715 0.077665 -0.018138 368643.000000 0 0 1
-12.728235 -30.900695 -2.395175 33.505190 1.180067 1.642344 0.068390 -0.009088 1320590.000000 0 0 1
-11.326035 -31.634895 -2.255675 33.676901 1.226992 1.637826 0.068975 -0.008637 1030220.000000 0 0 1
-11.337035 -32.518895 -1.143975 34.457445 1.235343 1.604002 0.067366 -0.006436 -318452.000000 0 0 1
-10.173435 -33.265095 -0.923475 34.798249 1.274000 1.597337 0.085664 -0.010815 -207645.000000 0 0 1
-9.073035 -32.693395 -0.011775 33.929016 1.300090 1.571143 0.104969 -0.019388 -313655.000000 0 0 1
-9.500935 -32.319095 1.302425 33.711837 1.284878 1.532153 0.121942 -0.015076 82173.700000 0 0 1
-8.423635 -31.870395 2.119425 33.032887 1.312396 1.506591 0.123330 -0.021013 1065380.000000 0 0 1
-7.407935 -32.958995 2.614025 33.882237 1.349708 1.493569 0.135412 -0.041663 264017.000000 0 0 1
-8.103735 -33.733495 3.598125 34.879302 1.335036 1.467453 0.147668 -0.052121 473965.000000 0 0 1
-7.345435 33.255408 4.074525 34.299845 -1.353407 1.451724 0.141144 -0.048889 327447.000000 0 0 1
-6.254235 33.629408 5.087825 34.582344 -1.386922 1.423138 0.145562 -0.046271 783544.000000 0 0 1
-5.051735 -33.840295 4.625325 34.526500 1.422609 1.436428 0.144858 -0.049383 923584.000000 0 0 1
-4.264935 -33.155895 5.627525 33.899440 1.442866 1.404018 0.116724 -0.047972 539715.000000 0 0 1
-3.073235 -32.386195 5.007725 32.914855 1.476186 1.418061 0.134972 -0.046460 -123080.000000 0 0 1
-3.388035 -31.178195 4.304325 31.655739 1.462554 1.434401 0.124563 -0.038592 86273.700000 0 0 1
-3.775335 -31.380995 2.960525 31.745625 1.451065 1.477403 0.129428 -0.038460 -74303.700000 0 0 1
-3.842735 -30.073895 2.183425 30.396926 1.443709 1.498904 0.098529 -0.027257 -307897.000000 0 0 1
-2.561935 -29.524495 2.104425 29.710064 1.484240 1.499905 0.075069 -0.032573 -675384.000000 0 0 1
-2.448735 -28.195795 1.578025 28.345887 1.484166 1.515097 0.065942 -0.026326 -290670.000000 0 0 1
-3.184535 -27.033595 2.333625 27.320364 1.453538 1.485275 0.085790 -0.022518 109688.000000 0 0 1
-3.427635 -25.933595 1.499025 26.202044 1.439388 1.513555 0.086983 -0.024873 -296192.000000 0 0 1
-3.209535 -24.692395 2.058325 24.985039 1.441540 1.488321 0.072468 -0.019540 20523.500000 0 1 0
-4.230835 -24.203595 3.133725 24.769622 1.397743 1.443942 0.057052 -0.016807 -108755.000000 0 1 0
-4.266735 -24.991295 4.306425 25.716048 1.401698 1.402543 0.069762 -0.019225 302325.000000 0 0 1
-4.963335 -24.272495 5.346125 25.345014 1.369093 1.358266 0.044279 -0.018625 53109.800000 0 0 1
-5.898735 -25.130095 6.201225 26.547541 1.340242 1.335029 0.064094 -0.023542 -639049.000000 0 0 1
-5.276635 -25.676895 7.311125 27.213937 1.368117 1.298801 0.061829 -0.026916 -315402.000000 0 0 1
-6.080935 -26.479695 8.139825 28.362101 1.345065 1.279706 0.072685 -0.027693 -309341.000000 0 0 1
-5.328635 -27.088795 9.363925 29.152706 1.376566 1.243797 0.047645 -0.022535 461679.000000 0 0 1
-4.754835 -26.074995 10.238625 28.413786 1.390426 1.202164 0.040532 -0.035463 499447.000000 0 0 1
-5.769635 -25.409795 11.007425 28.286212 1.347519 1.171094 0.040654 -0.040201 253216.000000 0 0 1
-5.299935 -24.363195 12.081025 27.705699 1.356595 1.119593 0.037895 -0.036266 -283328.000000 0 0 1
-4.538635 -25.053095 13.028525 28.600686 1.391579 1.097827 0.044530 -0.031398 -796698.000000 0 0 1
-3.771835 -24.078895 13.658925 27.938972 1.415414 1.059986 0.039336 -0.032972 -95835.900000 0 0 1
-2.891735 -24.670995 14.817425 28.923627 1.454117 1.032942 0.043835 -0.032877 198012.000000 0 0 1
-3.539335 -25.199095 15.929825 30.021336 1.431254 1.011468 0.052097 -0.030395 -48777.500000 0 0 1
-2.535235 -25.801595 16.740625 30.860950 1.472852 0.997442 0.059469 -0.028185 448524.000000 0 0 1
-3.086735 -26.199195 18.103225 31.994570 1.453519 0.969367 0.093638 -0.026349 -175005.000000 0 0 1
-3.129935 -25.169195 19.043825 31.716749 1.447076 0.926752 0.090494 -0.025744 -147312.000000 0 0 1
-3.652035 -25.525895 20.313425 32.825964 1.428689 0.903554 0.141905 -0.030717 633.715000 0 0 1
-3.528635 -24.445495 21.357225 32.652175 1.427439 0.857827 0.111639 -0.032401 -75814.000000 0 0 1
-2.497135 -24.814795 22.263225 33.431436 1.470503 0.842047 0.088637 -0.039369 223752.000000 0 0 1
-2.105135 -23.850495 23.250225 33.374401 1.482761 0.800081 0.064042 -0.032510 -91616.200000 0 0 1
-1.291035 -22.671995 22.821625 32.194917 1.513914 0.782918 0.068746 -0.044118 -334621.000000 0 0 1
-2.077135 -21.700695 22.126025 31.061160 1.475370 0.777973 0.082993 -0.034282 -70245.700000 0 0 1
-1.337635 -20.537495 21.814725 29.991002 1.505757 0.756306 0.087489 -0.036484 -928358.000000 0 0 1
-2.042135 -19.556795 20.888125 28.687145 1.466753 0.755199 0.072346 -0.022984 -256165.000000 0 0 1
-3.004435 -18.638195 21.477225 28.595107 1.410973 0.721099 0.083233 -0.042026 1256820.000000 0 0 1
-4.196835 -19.258095 22.021325 29.553788 1.356225 0.730071 0.081074 -0.045003 168099.000000 0 0 1
-5.395735 -19.048795 21.051425 28.898669 1.294769 0.754730 0.063262 -0.039560 -286967.000000 0 0 1
-5.345035 -19.902395 19.907525 28.652823 1.308425 0.802677 0.080047 -0.039569 -274117.000000 0 0 1
-5.849235 -21.208695 20.096725 29.797662 1.301692 0.830591 0.071705 -0.027326 -11903.700000 0 0 1
-5.701835 -22.024295 18.830225 29.532319 1.317470 0.879399 0.051025 -0.025438 -91392.300000 0 0 1
-6.229535 -23.309095 18.837925 30.610267 1.309642 0.907888 0.057436 -0.027992 -317603.000000 0 0 1
-6.115335 -23.920895 17.569325 30.303262 1.320509 0.952334 0.053352 -0.029510 -280519.000000 0 0 1
-6.686235 -25.327995 17.459925 31.481138 1.312698 0.982896 0.037367 -0.031484 -734.085000 0 0 1
-8.094835 -25.359195 17.561325 31.890677 1.261813 0.987626 0.062794 -0.028365 -359366.000000 0 0 1
-8.627635 -26.641495 17.311125 32.922339 1.257612 1.017121 0.069749 -0.028966 331011.000000 0 0 1
-10.149235 -26.746195 17.538325 33.555309 1.208117 1.020818 0.063191 -0.026670 73638.600000 0 0 1
-10.997535 -26.039895 16.605925 32.783817 1.171186 1.039643 0.094548 -0.033456 488266.000000 0 0 1
-12.385335 -26.213495 16.860025 33.538102 1.129407 1.044063 0.103118 -0.031185 628307.000000 0 0 1
-12.965735 -25.298295 17.981425 33.636968 1.097188 1.006794 0.088456 -0.023404 -636574.000000 0 0 1
-13.267535 -23.985295 17.566125 32.555961 1.065536 1.000873 0.086248 -0.027030 -263976.000000 0 0 1
-13.342735 -22.980795 18.585625 32.427935 1.044761 0.960468 0.070015 -0.018420 624855.000000 0 0 1
-12.029335 -22.456895 19.302925 31.962790 1.079027 0.922388 0.071320 -0.022521 1030500.000000 0 0 1
-11.261835 -23.392895 20.029225 32.790644 1.122122 0.913699 0.077089 -0.016718 280275.000000 0 0 1
-9.863735 -23.178595 19.967425 32.144029 1.168457 0.900541 0.088418 -0.028491 639057.000000 0 0 1
-8.981335 -23.965195 20.976925 33.091182 1.212231 0.884194 0.089130 -0.031733 250762.000000 0 0 1
-8.952535 -23.441795 22.296225 33.567652 1.205986 0.844350 0.091411 -0.034483 394041.000000 0 0 1
-8.183335 -24.321295 23.141125 34.554363 1.246227 0.836989 0.085157 -0.030617 352579.000000 0 0 1
-7.902835 -23.792195 24.530325 35.075065 1.250101 0.796286 0.087950 -0.026657 332547.000000 0 0 1
-6.750435 -24.324895 25.167725 35.646645 1.300097 0.786915 0.104923 -0.026810 144779.000000 0 0 1
-6.491435 -23.631595 26.390025 36.014225 1.302716 0.748417 0.092797 -0.029131 -105122.000000 0 0 1
-5.258235 -24.194195 27.139325 36.736236 1.356790 0.739565 0.117070 -0.028815 82911.400000 0 0 1
-4.042935 -23.995095 26.470225 35.955288 1.403874 0.743361 0.117438 -0.024848 -406983.000000 0 0 1
-2.929735 -24.271695 27.276725 36.629473 1.450672 0.730762 0.105999 -0.024858 523236.000000 0 0 1
-1.611035 -23.510295 26.936525 35.789744 1.502379 0.718745 0.092438 -0.026581 22483.800000 0 0 1
-1.653835 -22.129595 27.123525 35.044825 1.496201 0.685715 0.086434 -0.029412 -287044.000000 0 0 1
-0.501735 -21.370395 26.865825 34.332464 1.547323 0.672094 0.081736 -0.033037 549285.000000 0 0 1
0.632065 -21.366795 27.969225 35.202514 -1.541223 0.652574 0.073564 -0.029109 362706.000000 0 0 1
1.313665 -22.599295 28.171325 36.139693 -1.512733 0.676910 0.084923 -0.023880 -188098.000000 0 0 1
1.903165 -22.658495 29.435425 37.195076 -1.487000 0.657734 0.086347 -0.029130 -384949.000000 0 0 1
2.606365 -23.989895 29.519325 38.127402 -1.462576 0.685301 0.100437 -0.038224 -861050.000000 0 0 1
3.826965 -24.070595 28.847625 37.765390 -1.413127 0.701517 0.086597 -0.044325 -475193.000000 0 0 1
4.545365 -25.221995 29.200925 38.852328 -1.392496 0.720331 0.070531 -0.037709 -212247.000000 0 0 1
5.608765 -25.057395 30.387025 39.783195 -1.350589 0.701592 0.063976 -0.031220 1243250.000000 0 0 1
6.835665 -24.469795 29.899725 39.236345 -1.298389 0.704336 0.067735 -0.036781 1158170.000000 0 0 1
7.723065 -25.387195 29.234725 39.481952 -1.275481 0.737045 0.063103 -0.034535 103923.000000 0 0 1
8.924565 -24.769995 28.453425 38.765938 -1.224977 0.746633 0.067193 -0.029940 100276.000000 0 0 1
8.561965 -23.959695 27.347225 37.352978 -1.227590 0.749353 0.087679 -0.033678 153628.000000 0 0 1
9.695965 -23.442095 26.660525 36.801184 -1.178610 0.760564 0.064883 -0.025034 137084.000000 0 0 1
9.389265 -22.281295 25.755725 35.326644 -1.171982 0.753829 0.092525 -0.021649 84881.600000 0 0 1
8.731265 -22.631995 24.516425 34.489089 -1.202597 0.780096 0.092821 -0.013587 100685.000000 0 0 1
8.267765 -21.493795 23.886725 33.180036 -1.203585 0.767120 0.088301 -0.015303 -139148.000000 0 0 1
7.459365 -21.882695 22.623125 32.346565 -1.242270 0.796241 0.088926 -0.013376 -195981.000000 0 0 1
8.203165 -22.635095 21.730125 32.432049 -1.223110 0.836560 0.083200 -0.004320 -360602.000000 0 0 1
7.702165 -22.562795 20.409625 31.384007 -1.241834 0.862792 0.091195 -0.000931 -263142.000000 0 0 1
8.473565 -23.407695 19.403725 31.563049 -1.223472 0.908714 0.105624 -0.015992 -113512.000000 0 0 1
9.756165 -22.839495 19.235125 31.413617 -1.167096 0.911807 0.091238 -0.011908 -470477.000000 0 0 1
10.435765 -23.614695 18.250425 31.617037 -1.154683 0.955459 0.097756 -0.013856 -741715.000000 0 0 1
11.723065 -22.985595 17.814525 31.354826 -1.099167 0.966529 0.088984 -0.017847 -905030.000000 0 0 1
11.525265 -21.852995 17.018025 29.999972 -1.085470 0.967612 0.096079 -0.022427 -608936.000000 0 0 1
12.585465 -21.631095 16.155825 29.787731 -1.043850 0.997547 0.090394 -0.027863 -406880.000000 0 0 1
-12.547435 22.530908 11.443825 28.214200 -1.062672 1.153156 0.032945 -0.020413 -144618.000000 0 0 1
-13.465435 21.475908 11.237325 27.727424 -1.010759 1.153513 0.024241 -0.025592 -12874.800000 0 0 1
-12.842435 20.350908 10.707725 26.339001 -1.007858 1.152138 0.046923 -0.029381 -390766.000000 0 0 1
-13.835835 19.524808 9.870325 25.885745 -0.954303 1.179590 0.065839 -0.028119 -101296.000000 0 0 1
-14.006335 20.187708 8.608025 26.034959 -0.964240 1.233822 0.071802 -0.036474 120718.000000 0 0 1
-14.696735 19.396108 7.648025 25.508730 -0.922375 1.266292 0.072651 -0.039490 1922010.000000 0 0 1
-16.301535 19.522808 7.624725 26.552147 -0.875076 1.279535 0.069857 -0.031408 1770130.000000 0 0 1
-16.893135 18.751108 8.637625 26.675656 -0.837477 1.241051 0.067712 -0.031736 549037.000000 0 0 1
-18.298635 18.961408 8.766825 27.771069 -0.803184 1.249621 0.059438 -0.022500 456201.000000 0 0 1
-18.974435 17.940108 9.673025 27.846796 -0.757386 1.216036 0.066740 -0.023950 -338903.000000 0 0 1
-18.830535 16.613908 9.179425 26.737106 -0.722941 1.220345 0.073105 -0.025145 377398.000000 0 0 1
-19.440335 15.612208 9.984725 26.858190 -0.676618 1.189895 0.081319 -0.030213 461088.000000 0 0 1
-18.422635 14.881408 10.968225 26.098884 -0.679466 1.137068 0.078955 -0.024924 730764.000000 0 0 1
-17.408535 14.166808 10.257625 24.677407 -0.683090 1.142118 0.067913 -0.019516 366317.000000 0 1 0
-16.650835 13.245008 11.021025 23.961292 -0.671964 1.092856 0.058016 -0.020453 -85378.500000 0 1 0
-17.426535 12.233608 11.864025 24.374174 -0.612074 1.062436 0.054660 -0.015840 -221548.000000 0 1 0
-18.215335 11.301208 11.103925 24.141518 -0.555301 1.092856 0.041922 -0.018510 613012.000000 0 1 0
-19.125435 10.578908 11.948325 24.908995 -0.505245 1.070507 0.051961 -0.017317 -79115.600000 0 1 0
-20.229235 9.822508 11.257725 25.148359 -0.452029 1.106658 0.054244 -0.022518 -791988.000000 0 0 1
-19.768135 8.719808 10.451025 24.000794 -0.415432 1.120264 0.052358 -0.018323 258814.000000 0 1 0
-19.272735 9.107808 9.150925 23.197627 -0.441468 1.165298 0.067665 -0.016600 -870527.000000 0 1 0
-20.179135 9.518508 8.037125 23.714866 -0.440753 1.225042 0.085949 -0.021498 -511163.000000 0 1 0
-20.859935 8.411208 7.422425 23.684968 -0.383282 1.252045 0.079486 -0.027705 586475.000000 0 1 0
-21.446335 8.741008 6.173725 23.968007 -0.387020 1.310277 0.075671 -0.024763 44708.200000 0 1 0
-21.657635 7.463808 5.324825 23.518404 -0.331880 1.342405 0.084505 -0.022049 506813.000000 0 1 0
-22.613535 6.550208 5.910125 24.273581 -0.281943 1.324844 0.107120 -0.029861 812413.000000 0 1 0
-22.386235 5.248608 5.410725 23.621332 -0.230297 1.339683 0.115977 -0.020371 -362351.000000 0 1 0
-23.286935 4.091808 5.836425 24.353400 -0.173937 1.328785 0.122632 -0.026210 127787.000000 0 1 0
-24.571735 4.096008 5.204425 25.448644 -0.165177 1.364836 0.157778 -0.027710 596872.000000 0 0 1
-25.125695 2.798108 5.258725 25.822164 -0.110907 1.365710 0.161269 -0.032897 -401484.000000 0 0 1
-26.343255 2.711508 4.337125 26.835238 -0.102569 1.408464 0.175074 -0.038861 -598456.000000 0 0 1
-26.033895 2.576708 2.958625 26.327867 -0.098654 1.458182 0.183876 -0.031833 468907.000000 0 0 1
-27.171395 2.710008 2.111725 27.387738 -0.099409 1.493615 0.178893 -0.024995 177622.000000 0 0 1
-26.832675 2.845208 0.584125 26.989421 -0.105640 1.549152 0.199424 -0.026611 -334836.000000 0 0 1
-26.318225 4.044808 0.116125 26.627484 -0.152495 1.566435 0.192877 -0.028121 181158.000000 0 0 1
-26.341705 4.217208 -1.311675 26.709375 -0.158749 1.619925 0.206535 -0.019843 302263.000000 0 0 1
-27.688285 4.791708 -1.870075 28.162009 -0.171362 1.637249 0.211528 -0.026685 399489.000000 0 0 1
-28.774025 3.900508 -1.750175 29.089888 -0.134735 1.630997 0.200603 -0.027663 336399.000000 0 0 1
-30.002225 4.588808 -1.971675 30.415097 -0.151773 1.635667 0.187672 -0.012110 80573.400000 0 0 1
-31.198505 3.633208 -2.106575 31.479907 -0.115932 1.637764 0.174120 -0.013235 -453840.000000 0 0 1
-31.277615 2.986408 -3.369075 31.599976 -0.095192 1.677616 0.159615 -0.015350 111585.000000 0 0 1
-32.180335 1.929808 -3.327875 32.409456 -0.059897 1.673660 0.162628 -0.021199 -415611.000000 0 0 1
-32.314015 1.194508 -4.669975 32.671563 -0.036949 1.714225 0.152854 -0.026001 -151222.000000 0 0 1
-31.111595 0.599808 -5.135975 31.538379 -0.019277 1.734373 0.173398 -0.026124 195869.000000 0 0 1
-31.086445 -0.089392 -6.381075 31.734731 0.002876 1.773252 0.174031 -0.024257 -330962.000000 0 0 1
-31.564925 0.651608 -7.662575 32.488215 -0.020640 1.808897 0.159017 -0.026765 798837.000000 0 0 1
-33.002065 0.736908 -7.728275 33.902884 -0.022325 1.800771 0.168539 -0.022398 1123030.000000 0 0 1
-33.370855 1.695408 -8.786075 34.549724 -0.050761 1.827923 0.175807 -0.028458 447330.000000 0 0 1
-34.904165 1.981608 -8.826775 36.057446 -0.056712 1.818107 0.188899 -0.027586 425874.000000 0 0 1
-35.227969 2.539908 -7.566075 36.120720 -0.071975 1.781825 0.154976 -0.016305 778733.000000 0 0 1
-36.626275 2.868708 -7.581175 37.512500 -0.078164 1.774295 0.160489 -0.015946 714158.000000 0 0 1
-36.979705 3.631908 -6.275575 37.683845 -0.097900 1.738108 0.164939 -0.016357 -396488.000000 0 0 1
35.818682 3.799008 -6.155175 36.541711 0.105667 1.740046 0.176891 -0.033130 -253331.000000 0 0 1
35.413992 4.473708 -4.995175 36.043261 0.125660 1.709832 0.179823 -0.026900 141116.000000 0 0 1
33.911952 4.271408 -4.680875 34.498928 0.125296 1.706898 0.169273 -0.033928 199521.000000 0 0 1
33.695692 2.903308 -4.218775 34.082648 0.085950 1.694895 0.165626 -0.037881 -152014.000000 0 0 1
32.397672 2.429108 -4.488175 32.797156 0.074838 1.708074 0.163065 -0.040782 40882.200000 0 0 1
32.145902 1.050908 -3.744975 32.380368 0.032680 1.686711 0.189719 -0.037128 -453330.000000 0 0 1
32.956522 0.096408 -4.311275 33.237460 0.002925 1.700874 0.150910 -0.040310 -129456.000000 0 0 1
32.852962 -1.124792 -3.534075 33.061639 -0.034224 1.677894 0.153572 -0.037585 -355136.000000 0 0 1
33.909122 -2.148992 -3.897175 34.199922 -0.063290 1.684997 0.137177 -0.039174 -287869.000000 0 0 1
33.712952 -3.349892 -3.160275 34.026052 -0.099040 1.663808 0.117332 -0.036071 649671.000000 0 0 1
34.911282 -4.126292 -3.276375 35.306636 -0.117648 1.663728 0.151618 -0.038943 433308.000000 0 0 1
34.830122 -5.615892 -2.839475 35.394043 -0.159861 1.651107 0.150071 -0.035643 -209775.000000 0 0 1
34.635612 -5.782092 -1.465875 35.145512 -0.165415 1.612517 0.143337 -0.028147 133917.000000 0 0 1
34.566012 -7.148792 -1.176075 35.317100 -0.203940 1.604103 0.152963 -0.033222 -93964.900000 0 0 1
34.110602 -7.471292 0.278825 34.920354 -0.215626 1.562812 0.142681 -0.023382 -310345.000000 0 0 1
32.722652 -7.244792 0.431025 33.517827 -0.217885 1.557936 0.132753 -0.029543 -94209.300000 0 0 1
32.309782 -7.580992 1.761925 33.233986 -0.230466 1.517756 0.137531 -0.029986 -910751.000000 0 0 1
32.149322 -9.058692 2.005625 33.461341 -0.274649 1.510822 0.132951 -0.028164 -248687.000000 0 0 1
31.098922 -9.709992 1.292925 32.605192 -0.302638 1.531132 0.135108 -0.036954 1331310.000000 0 0 1
29.793962 -9.358492 1.807525 31.281443 -0.304348 1.512981 0.136173 -0.046833 -687984.000000 0 0 1
28.688692 -10.410992 1.775125 30.570915 -0.348116 1.512698 0.153056 -0.046653 -1203080.000000 0 0 1
27.485492 -10.094792 2.396325 29.378555 -0.351983 1.489138 0.182185 -0.049949 219141.000000 0 0 1
26.629492 -9.071192 1.888625 28.195448 -0.328316 1.503763 0.180781 -0.049129 -367076.000000 0 0 1
25.868992 -9.526992 0.634025 27.574813 -0.352865 1.547801 0.166198 -0.042787 -958905.000000 0 0 1
26.757492 -9.553992 -0.494575 28.416311 -0.342949 1.588202 0.156573 -0.047185 518868.000000 0 0 1
26.307592 -9.850592 -1.861275 28.152938 -0.358279 1.636958 0.155675 -0.044122 -546990.000000 0 0 1
25.447292 -11.102092 -2.043575 27.838773 -0.411384 1.644270 0.146350 -0.031981 88208.600000 0 0 1
24.059592 -10.971792 -1.788975 26.503672 -0.427854 1.638347 0.128201 -0.028637 140975.000000 0 0 1
23.463292 -12.218892 -1.709775 26.509446 -0.480122 1.635338 0.113601 -0.023139 -595975.000000 0 0 1
21.961792 -12.136392 -1.476475 25.135479 -0.504848 1.629571 0.112398 -0.020278 -665545.000000 0 0 1
21.068792 -11.915692 -2.532675 24.337053 -0.514712 1.675052 0.103035 -0.016755 348973.000000 0 1 0
19.752292 -12.259692 -2.115375 23.343691 -0.555481 1.661539 0.103663 -0.013359 137225.000000 0 1 0
18.691692 -11.810092 -3.134975 22.331271 -0.563500 1.711647 0.089276 -0.012853 -184020.000000 0 1 0
18.729892 -12.611292 -4.274475 22.980963 -0.592598 1.757887 0.092159 -0.017911 328221.000000 0 1 0
18.194292 -11.946792 -5.429475 22.432951 -0.581017 1.815255 0.100358 -0.019642 59338.200000 0 1 0
18.186492 -12.774992 -6.729475 23.221428 -0.612364 1.864810 0.098124 -0.022360 354686.000000 0 1 0
17.171592 -13.793092 -6.730475 23.030680 -0.676720 1.867364 0.085856 -0.030936 780046.000000 0 1 0
17.223592 -14.416592 -8.031975 23.853781 -0.696914 1.914224 0.086311 -0.035327 -587020.000000 0 1 0
16.158292 -15.467292 -8.316275 23.863946 -0.763552 1.926753 0.071915 -0.037582 231755.000000 0 1 0
14.823692 -14.932492 -8.376575 22.647034 -0.789055 1.949671 0.087172 -0.039054 671097.000000 0 1 0
13.918192 -15.771692 -9.041375 22.895606 -0.847746 1.976751 0.076906 -0.041969 -696419.000000 0 1 0
13.912192 -15.654792 -10.619975 23.482024 -0.844267 2.040094 0.093867 -0.045896 -1012590.000000 0 1 0
13.065992 -14.728492 -11.258975 22.680677 -0.845141 2.090258 0.079874 -0.037297 110679.000000 0 1 0
13.385092 -13.363992 -10.963375 21.862126 -0.784609 2.096103 0.078248 -0.030136 -153240.000000 0 1 0
13.540892 -12.432292 -12.164075 22.042739 -0.742742 2.155366 0.089172 -0.026591 -146490.000000 0 1 0
14.702892 -12.718492 -12.910375 23.336941 -0.713157 2.157016 0.108790 -0.024894 -50087.800000 0 1 0
14.716392 -12.227492 -14.213175 23.834808 -0.693286 2.209705 0.127084 -0.020489 -59672.800000 0 1 0
16.062392 -11.823092 -14.847675 24.864420 -0.634528 2.210734 0.133817 -0.035068 445603.000000 0 1 0
17.040992 -12.822192 -15.095975 26.128384 -0.645056 2.186780 0.139865 -0.030139 62700.700000 0 0 1
18.206792 -12.393492 -15.743575 27.072976 -0.597660 2.191397 0.139738 -0.025254 -78157.500000 0 0 1
19.189092 -13.556892 -16.025775 28.440043 -0.615068 2.169405 0.126839 -0.015291 -109454.000000 0 0 1
19.934892 -13.886692 -14.858475 28.478314 -0.608442 2.119694 0.092770 -0.024873 35961.000000 0 0 1
20.911292 -14.877892 -14.917875 29.684622 -0.618387 2.097337 0.061389 -0.014454 141356.000000 0 0 1
21.988192 -14.789192 -13.781975 29.868773 -0.592097 2.050389 0.049608 -0.019080 452192.000000 0 0 1
22.792792 -13.628692 -13.942175 29.993947 -0.538902 2.054242 0.059323 -0.008673 248067.000000 0 0 1
23.686992 -13.392092 -12.856275 30.094942 -0.514573 2.012180 0.046902 -0.007209 499229.000000 0 0 1
24.377392 -11.974392 -12.911975 30.072619 -0.456590 2.014580 0.057484 -0.011900 -499848.000000 0 0 1
23.477992 -10.910892 -12.705675 28.839172 -0.435034 2.027030 0.053006 -0.006479 10794.200000 0 0 1
24.010492 -9.599192 -12.753675 28.832350 -0.380327 2.029001 0.072078 -0.017665 237987.000000 0 0 1
24.992692 -9.213592 -11.568675 29.040647 -0.353193 1.980526 0.085839 -0.022079 631166.000000 0 0 1
26.227592 -9.901492 -11.623375 30.348459 -0.360980 1.963835 0.075906 -0.021154 252258.000000 0 0 1
27.103592 -9.538292 -10.571275 30.615936 -0.338384 1.923341 0.085566 -0.024837 -800031.000000 0 0 1
28.490392 -10.128792 -10.685275 32.069767 -0.341580 1.910480 0.095225 -0.024897 -787873.000000 0 0 1
29.160392 -9.676592 -11.853875 32.931432 -0.320406 1.939017 0.080726 -0.026463 263627.000000 0 0 1
30.283422 -10.506492 -12.134675 34.274223 -0.333945 1.932691 0.073175 -0.025565 179463.000000 0 0 1
31.072152 -9.999192 -13.406075 35.287183 -0.311340 1.960499 0.052779 -0.026878 -429219.000000 0 0 1
30.591462 -10.220992 -14.699275 35.445379 -0.322452 1.998412 0.052798 -0.021592 289564.000000 0 0 1
31.318582 -9.547292 -15.771275 36.341952 -0.295895 2.019690 0.050020 -0.012432 -28354.500000 0 0 1
31.285472 -10.229892 -17.196575 37.136958 -0.316027 2.052239 0.022674 -0.012599 570931.000000 0 0 1
30.051202 -10.201092 -17.931375 36.450943 -0.327252 2.085103 0.030646 -0.002855 576868.000000 0 0 1
29.696612 -8.943992 -18.462075 36.093378 -0.292538 2.107736 0.025386 0.000409 -199468.000000 0 0 1
28.257492 -8.879692 -19.014675 35.197907 -0.304471 2.141497 0.011754 0.000064 -119703.000000 0 0 1
28.050992 -9.604892 -20.195875 35.874579 -0.329896 2.168757 -0.001199 0.012851 1015500.000000 0 0 1
26.692092 -9.358992 -20.616475 35.001393 -0.337234 2.200640 0.041489 0.013048 1008150.000000 0 0 1
26.289692 -9.800992 -22.026075 35.670090 -0.356847 2.236349 0.066725 0.012930 -34288.300000 0 0 1
26.401992 -11.202392 -22.145875 36.235322 -0.401278 2.228332 0.059127 0.009694 324209.000000 0 0 1
25.685992 -11.481492 -23.351475 36.563455 -0.420352 2.263547 0.083060 0.000470 -471984.000000 0 0 1
25.602692 -13.006392 -23.637475 37.194009 -0.470034 2.259476 0.061997 0.009836 162155.000000 0 0 1
26.757992 -13.506192 -24.287575 38.578409 -0.467443 2.251788 0.056364 0.007167 575830.000000 0 0 1
27.883692 -13.622492 -23.379775 38.854683 -0.454443 2.216454 0.031192 0.020128 13324.400000 0 0 1
29.152762 -14.084892 -24.125075 40.376812 -0.450070 2.211174 0.022604 0.023160 -196985.000000 0 0 1
29.652302 -13.107992 -25.028975 40.957637 -0.416228 2.228239 0.040367 -0.000896 283504.000000 0 0 1
31.010552 -13.441592 -25.284865 42.209657 -0.409008 2.213086 0.015291 -0.001029 522235.000000 0 0 1
31.678842 -12.758692 -26.521825 43.240495 -0.382876 2.231099 0.030936 -0.008577 209106.000000 0 0 1
31.223962 -13.331392 -27.713925 43.826059 -0.403530 2.255395 0.038861 -0.008896 20275.300000 0 0 1
31.957802 -12.795092 -28.770145 44.863534 -0.380829 2.266963 0.043980 -0.013131 -158906.000000 0 0 1
32.012012 -13.772092 -30.038565 46.008203 -0.406281 2.282198 0.044848 -0.017069 175458.000000 0 0 1
32.953242 -14.833592 -29.987675 46.959687 -0.422971 2.263452 0.054169 -0.015984 -162132.000000 0 0 1
33.274712 -15.489992 -31.184445 48.162391 -0.435684 2.275076 0.024296 -0.006533 -308828.000000 0 0 1
32.228632 -16.322692 -31.951175 48.228545 -0.468807 2.294941 0.020708 0.003869 -277080.000000 0 0 1
31.222582 -15.514992 -32.528215 47.682799 -0.461177 2.321535 0.027991 -0.002070 267177.000000 0 0 1
30.133762 -16.402992 -32.856595 47.504290 -0.498487 2.334575 0.031098 -0.002329 602679.000000 0 0 1
29.099192 -15.857292 -33.861575 47.379562 -0.498949 2.366973 0.057726 -0.010105 361585.000000 0 0 1
28.345392 -14.679092 -33.534035 46.297607 -0.477837 2.380836 0.070619 -0.017954 881148.000000 0 0 1
29.141982 -13.456392 -33.701725 46.541764 -0.432584 2.380551 0.083964 -0.023111 531741.000000 0 0 1
28.399992 -12.107192 -33.346205 45.443514 -0.402979 2.394687 0.094002 -0.021951 585921.000000 0 0 1
27.453192 -11.721492 33.594790 44.940861 -0.403532 0.726456 0.096645 -0.033269 51781.900000 0 0 1
26.944092 -10.396992 33.822397 44.475117 -0.368269 0.706746 0.091498 -0.032967 267627.000000 0 0 1
21.846865 -29.735995 8.944025 37.967229 -0.937163 1.332989 0.044191 -0.005920 70155.200000 0 0 1
22.253565 -29.272895 7.680725 37.564838 -0.920792 1.364878 0.058634 -0.015372 -430420.000000 0 0 1
23.260765 -30.116395 7.244125 38.736776 -0.913136 1.382680 0.058953 -0.015367 -641997.000000 0 0 1
23.788465 -29.662695 5.888325 38.476472 -0.894858 1.417156 0.056576 -0.013340 -356416.000000 0 0 1
24.284165 -28.350695 5.969125 37.803611 -0.862504 1.412234 0.061294 0.000875 354004.000000 0 0 1
25.069765 -28.078795 4.775025 37.943546 -0.841953 1.444616 0.049616 -0.003906 387158.000000 0 0 1
25.196365 -26.596495 4.471625 36.908343 -0.812425 1.449343 0.044363 -0.006375 333820.000000 0 0 1
26.034665 -25.852695 5.365425 37.080364 -0.781891 1.425589 0.035835 -0.005603 321476.000000 0 0 1
25.835765 -24.441295 5.106825 35.929700 -0.757670 1.428180 0.031991 0.002202 -117050.000000 0 0 1
26.666965 -23.541695 6.017225 36.076938 -0.723233 1.403224 0.036861 0.000685 -844124.000000 0 0 1
27.954665 -23.380495 5.501825 36.856220 -0.696529 1.420958 0.027423 0.001601 -536299.000000 0 0 1
28.813265 -22.568295 6.290825 37.136326 -0.664450 1.400577 0.030644 -0.008844 -420025.000000 0 0 1
28.394665 -21.128595 6.686725 36.019256 -0.639717 1.384070 0.049488 -0.001671 -737021.000000 0 0 1
28.382465 -20.348095 5.491225 35.351985 -0.621995 1.414835 0.035953 0.006250 210678.000000 0 0 1
27.714865 -19.099695 5.610925 34.123227 -0.603407 1.405615 0.064861 -0.005202 41105.800000 0 0 1
27.726665 -18.297495 4.279725 33.494512 -0.583320 1.442672 0.062582 0.001241 68061.900000 0 0 1
28.998665 -17.752595 3.997825 34.235359 -0.549332 1.453755 0.065403 -0.002752 119849.000000 0 0 1
29.031565 -17.162595 2.699125 33.832998 -0.533902 1.490934 0.065339 0.004910 213248.000000 0 0 1
30.257665 -16.214595 2.648225 34.430401 -0.491941 1.493805 0.096264 -0.018012 285510.000000 0 0 1
30.048365 -14.995195 3.303425 33.744225 -0.462876 1.472743 0.111865 -0.027973 -981571.000000 0 0 1
31.248765 -14.413495 3.592625 34.599727 -0.432170 1.466775 0.110726 -0.033091 -993362.000000 0 0 1
31.108265 -13.216695 4.494025 34.096942 -0.401753 1.438610 0.138042 -0.042682 -17033.900000 0 0 1
30.818065 -13.617495 5.808425 34.189576 -0.416070 1.400080 0.119758 -0.042977 -114103.000000 0 0 1
30.423565 -12.527395 6.529125 33.543381 -0.390608 1.374899 0.113818 -0.037903 -416125.000000 0 0 1
30.166965 -12.800195 8.043925 33.743081 -0.401287 1.330091 0.132607 -0.032162 290470.000000 0 0 1
28.781165 -13.143495 8.128625 32.667744 -0.428387 1.319327 0.118330 -0.027748 552839.000000 0 0 1
28.121365 -13.150795 9.377025 32.429665 -0.437430 1.277458 0.141758 -0.019541 63871.300000 0 0 1
28.314565 -14.406395 10.280225 33.390745 -0.470661 1.257836 0.122371 -0.023038 -661086.000000 0 0 1
29.393965 -14.280395 11.133025 34.523603 -0.452245 1.242453 0.117881 -0.019909 -516474.000000 0 0 1
29.943765 -15.532095 11.494425 35.637015 -0.478502 1.242383 0.100306 -0.024617 357976.000000 0 0 1
30.767265 -15.498595 12.830625 36.762155 -0.466632 1.214274 0.097667 -0.021868 688945.000000 0 0 1
32.036765 -14.860895 12.756925 37.549163 -0.434328 1.224157 0.086836 -0.022552 655918.000000 0 0 1
32.712265 -14.926095 14.051325 38.604668 -0.428068 1.198259 0.093254 -0.025836 89056.400000 0 0 1
34.239865 -14.972195 14.061725 39.928275 -0.412221 1.210903 0.085476 -0.027755 -476208.000000 0 0 1
34.823165 -13.719095 13.778425 39.883724 -0.375293 1.218062 0.074198 -0.024206 285999.000000 0 0 1
36.234465 -13.875395 13.650225 41.131396 -0.365708 1.232512 0.060292 -0.024265 182732.000000 0 0 1
36.941165 -12.503195 13.612625 41.307180 -0.326360 1.234973 0.048365 -0.024817 -898114.000000 0 0 1
-35.896861 -12.637395 13.266225 40.302371 0.338498 1.235375 0.069666 -0.029213 -343909.000000 0 0 1
-35.198161 -11.405595 13.383825 39.346219 0.313363 1.223714 0.072469 -0.021697 -44946.600000 0 0 1
-34.073861 -11.102695 12.346025 37.904118 0.314993 1.239026 0.078213 -0.028906 183830.000000 0 0 1
-32.901361 -11.844895 12.537925 37.148360 0.345566 1.226526 0.063069 -0.025992 -17766.400000 0 0 1
-33.060761 -13.202995 12.042025 37.581157 0.379951 1.244616 0.070331 -0.029623 -1002300.000000 0 0 1
-31.862261 -14.100095 12.346625 36.965599 0.416627 1.230249 0.054970 -0.025832 178689.000000 0 0 1
-30.741661 -13.831095 11.513625 35.621798 0.422782 1.241668 0.058232 -0.025476 -30844.800000 0 0 1
-29.695261 -14.739795 11.708325 35.158996 0.460738 1.231301 0.055797 -0.026644 -52407.100000 0 0 1
-28.374261 -14.421895 10.974825 33.668034 0.470245 1.238757 0.067090 -0.026849 -102147.000000 0 0 1
-28.284861 -14.603795 9.599425 33.248356 0.476611 1.277908 0.069877 -0.021308 -21240.400000 0 0 1
-26.990961 -14.470195 9.061625 31.937620 0.492119 1.283116 0.080446 -0.020978 -118595.000000 0 0 1
-27.041861 -14.371495 7.497025 31.527885 0.488493 1.330706 0.113404 -0.015857 34112.400000 0 0 1
-27.432561 -15.558195 6.800225 32.262143 0.515910 1.358423 0.116440 -0.011168 229043.000000 0 0 1
-27.193761 -15.461395 5.408825 31.746035 0.516984 1.399583 0.122845 -0.004817 -38778.300000 0 0 1
-27.709361 -16.703595 4.618125 32.682501 0.542486 1.429019 0.112176 -0.003447 338009.000000 0 0 1
-29.108161 -16.909895 4.688125 33.988352 0.526282 1.432422 0.083998 -0.013578 -29106.300000 0 0 1
-29.533861 -17.967095 3.881625 34.786958 0.546541 1.458981 0.085342 -0.007452 -330530.000000 0 0 1
-31.044261 -18.209495 3.928825 36.204523 0.530483 1.462065 0.103484 -0.015794 -512851.000000 0 0 1
-31.820361 -17.167495 3.382225 36.313878 0.494756 1.477522 0.113254 -0.022645 -33543.600000 0 0 1
-33.174561 -17.535595 3.595725 37.695860 0.486254 1.475263 0.122572 -0.027799 350646.000000 0 0 1
-34.178361 -16.553495 2.910025 38.087358 0.451031 1.494318 0.112671 -0.030041 296610.000000 0 0 1
-34.212361 -16.697195 1.507225 38.099261 0.454038 1.531226 0.106881 -0.018857 -132646.000000 0 0 1
-35.317061 -16.014495 0.967625 38.790400 0.425719 1.545849 0.124000 -0.025766 -118996.000000 0 0 1
-35.844461 -16.623695 -0.310375 39.512896 0.434248 1.578651 0.112774 -0.026696 259717.000000 0 0 1
-34.856061 -16.649695 -1.363875 38.652522 0.445625 1.606089 0.105359 -0.024450 697794.000000 0 0 1
-35.320461 -17.566195 -2.312675 39.515246 0.461515 1.629356 0.090940 -0.021558 76110.400000 0 0 1
-34.296361 -18.043695 -3.397875 38.901939 0.484318 1.658252 0.068415 -0.018430 -204158.000000 0 0 1
-34.606461 -19.218695 -4.153075 39.802178 0.506941 1.675329 0.066871 -0.024906 1080830.000000 0 0 1
-33.488061 -19.615695 -4.980575 39.128402 0.529877 1.698431 0.064920 -0.022420 705229.000000 0 0 1
-34.018161 -20.751495 -5.841575 40.273860 0.547749 1.716356 0.080126 -0.024357 85638.500000 0 0 1
-34.588761 -21.884895 -5.233275 41.264006 0.564129 1.697963 0.095207 -0.028992 58546.800000 0 0 1
-34.950561 -22.815495 -6.192675 42.195234 0.578336 1.718091 0.080705 -0.025432 19783.600000 0 0 1
-35.688161 -24.025395 -5.574475 43.381323 0.592514 1.699652 0.084160 -0.021828 -203950.000000 0 0 1
-34.829361 -24.822195 -4.798275 43.037765 0.619186 1.682518 0.100047 -0.024779 -506323.000000 0 0 1
-35.395461 -25.965695 -4.256275 44.104102 0.632915 1.667452 0.069823 -0.010947 12840.600000 0 0 1
-34.342961 -26.986395 -3.741375 43.837226 0.666017 1.656247 0.079088 -0.013430 392470.000000 0 0 1
-33.339861 -27.415695 -4.687275 43.418167 0.688197 1.678964 0.079266 -0.016174 669110.000000 0 0 1
-32.672261 -28.618795 -4.401975 43.656494 0.719360 1.671800 0.072059 -0.013160 205784.000000 0 0 1
-31.581361 -28.640695 -3.300475 42.761722 0.736607 1.648056 0.095157 -0.019303 -241285.000000 0 0 1
-32.126761 -28.448695 -2.022675 42.959844 0.724754 1.617897 0.089642 -0.022515 -9331.030000 0 0 1
-31.123861 -28.477795 -1.025775 42.198717 0.741031 1.595107 0.104022 -0.024535 -274655.000000 0 0 1
-31.646561 -28.288995 0.367125 42.448873 0.729437 1.562148 0.091585 -0.021685 -582371.000000 0 0 1
-32.196661 -29.460995 0.804025 43.648845 0.741059 1.552375 0.082277 -0.012796 -439823.000000 0 0 1
-33.071761 -29.173995 1.859925 44.139808 0.722861 1.528647 0.078045 -0.011274 -81413.200000 0 0 1
-33.779961 -30.428695 2.501325 45.532932 0.733252 1.515834 0.042201 -0.003237 -347710.000000 0 0 1
-34.884261 -30.048395 3.319325 46.160975 0.711060 1.498827 0.033091 0.000893 341891.000000 0 0 1
-35.412861 -31.076295 4.123725 47.294946 0.720268 1.483494 0.037192 0.016444 269744.000000 0 0 1
-36.208061 -32.117195 3.256925 48.509231 0.725596 1.503605 0.027750 0.015754 -917347.000000 0 0 1
-36.712861 -33.159295 3.976325 49.630476 0.734584 1.490592 0.049073 0.008857 -10168.900000 0 0 1
36.430665 -33.736495 3.176325 49.753729 -0.747021 1.506912 0.056512 0.004553 -369406.000000 0 0 1
35.322365 33.559608 3.841025 48.874025 0.759813 1.492125 0.067481 -0.000512 18989.000000 0 0 1
34.326865 -33.856195 4.599225 48.432721 -0.778495 1.475692 0.061023 -0.000062 1187900.000000 0 0 1
33.544965 -32.730195 4.086125 47.044944 -0.773105 1.483831 0.066826 -0.004681 76568.000000 0 0 1
32.526165 -33.078495 2.987525 46.487241 -0.793817 1.506487 0.064280 -0.004350 -723100.000000 0 0 1
33.103965 -33.446695 1.763125 47.092064 -0.790548 1.533348 0.062828 0.001720 649492.000000 0 0 1
32.164065 -33.249795 0.663125 46.265707 -0.801994 1.556463 0.063196 -0.000756 281532.000000 0 0 1
32.756265 -33.975995 -0.594075 47.198454 -0.803674 1.583383 0.050653 0.002835 396006.000000 0 0 1
33.857765 -33.472295 -1.279475 47.627511 -0.779673 1.597664 0.021546 0.021161 20855.100000 0 0 1
35.087165 -33.336695 -0.567075 48.402128 -0.759821 1.582512 0.029338 0.021481 -601370.000000 0 0 1
36.307165 -33.093995 -1.431075 49.147439 -0.739133 1.599918 0.019454 0.025512 -740422.000000 0 0 1
36.698965 33.827708 -2.062575 49.953800 0.744709 1.612098 0.035489 0.006918 104757.000000 0 0 1
-36.810261 -33.991695 -3.274175 50.211063 0.745610 1.636051 0.029552 0.006223 -186291.000000 0 0 1
-36.251561 32.864708 -4.026175 49.096587 -0.736435 1.652894 0.033657 0.000409 271186.000000 0 0 1
-35.093561 32.263708 -3.463675 47.796464 -0.743410 1.643327 0.040310 0.005125 366122.000000 0 0 1
-34.527061 31.299208 -4.352975 46.804987 -0.736401 1.663933 0.056007 -0.014250 895814.000000 0 0 1
-33.064161 30.792808 -4.086875 45.366710 -0.749844 1.661004 0.072690 -0.019593 665331.000000 0 0 1
-32.040661 31.742408 -4.411575 45.317176 -0.780722 1.668300 0.074421 -0.004055 2388650.000000 0 0 1
-30.655761 31.231108 -4.261875 43.969551 -0.794695 1.667877 0.092347 -0.018984 2449670.000000 0 0 1
-30.105261 31.070208 -2.808875 43.354058 -0.801170 1.635631 0.085626 -0.019752 -628831.000000 0 0 1
-30.898861 30.316108 -1.929375 43.330457 -0.775879 1.615338 0.076414 -0.007283 -400040.000000 0 0 1
-30.548561 30.406108 -0.546175 43.105038 -0.783061 1.583467 0.071572 0.008831 43645.200000 0 0 1
-31.655261 29.809708 0.349725 43.483291 -0.755381 1.562753 0.067475 -0.001871 246383.000000 0 0 1
-31.946761 28.420008 0.005125 42.758537 -0.727042 1.570676 0.062381 -0.012106 1589610.000000 0 0 1
-33.331961 28.226908 -0.440475 43.680339 -0.702658 1.580881 0.075018 -0.012967 1727140.000000 0 0 1
-33.688861 26.796708 -0.932875 43.056628 -0.671940 1.592464 0.086820 -0.013235 -25777.500000 0 0 1
-33.764161 25.783308 0.054225 42.482944 -0.652167 1.569520 0.096336 -0.014602 -258444.000000 0 0 1
-34.200361 24.599708 -0.516675 42.131666 -0.623550 1.583060 0.102544 -0.011917 -106057.000000 0 0 1
-34.322561 23.399808 0.536625 41.543678 -0.598380 1.557879 0.123786 -0.014243 828096.000000 0 0 1
-33.058461 23.048608 1.139125 40.316223 -0.608849 1.542538 0.127518 -0.022814 822524.000000 0 0 1
-32.756961 23.857108 2.233225 40.585310 -0.629472 1.515743 0.109739 -0.023609 -92778.800000 0 0 1
-31.260361 23.830508 2.691425 39.399836 -0.651342 1.502433 0.097263 -0.030327 595492.000000 0 0 1
-30.365261 24.584608 1.901625 39.116087 -0.680585 1.522162 0.087460 -0.030016 -37479.300000 0 0 1
-30.176861 25.908308 2.360225 39.842867 -0.709436 1.511523 0.065533 -0.029221 -328695.000000 0 0 1
-29.377661 26.751908 1.374925 39.756785 -0.738652 1.536206 0.045393 -0.024192 133044.000000 0 0 1
-28.057261 26.324208 1.104425 38.488876 -0.753540 1.542098 0.050467 -0.026692 -136582.000000 0 0 1
-27.544761 27.023208 -0.006375 38.587144 -0.775841 1.570962 0.055813 -0.022180 1657810.000000 0 0 1
-26.310261 26.309408 -0.791875 37.216151 -0.785382 1.592076 0.049230 -0.028033 1177850.000000 0 0 1
-26.714961 25.390308 -1.759475 36.897868 -0.759981 1.618499 0.053092 -0.031935 436994.000000 0 0 1
-25.610061 24.802508 -2.486475 35.738246 -0.769381 1.640427 0.051882 -0.027745 1501090.000000 0 0 1
-24.624261 23.831208 -1.685675 34.309215 -0.769033 1.619948 0.049560 -0.035258 857795.000000 0 0 1
-25.191761 22.562408 -1.342775 33.845090 -0.730394 1.610481 0.046335 -0.032974 -233248.000000 0 0 1
-24.160961 21.845508 -0.730675 32.580856 -0.735112 1.593225 0.045776 -0.036031 -932517.000000 0 0 1
-24.464361 20.361508 -0.378075 31.831414 -0.694124 1.582674 0.049129 -0.034711 -202574.000000 0 0 1
-25.320361 20.164708 0.806625 32.378802 -0.672532 1.545882 0.032069 -0.025068 1558050.000000 0 0 1
-26.690261 20.571808 0.656325 33.704601 -0.656656 1.551322 0.040678 -0.031367 529848.000000 0 0 1
-27.563861 20.027708 -0.509775 34.075437 -0.628352 1.585757 0.054729 -0.032829 -955488.000000 0 0 1
-28.056861 18.741908 -0.206075 33.741503 -0.588923 1.576904 0.075243 -0.035590 87534.600000 0 0 1
-28.810861 18.280808 -1.300375 34.145932 -0.565409 1.608888 0.096585 -0.023632 -210709.000000 0 0 1
-29.123361 16.814108 -1.167975 33.648901 -0.523592 1.605514 0.082770 -0.024782 -286009.000000 0 0 1
-30.012561 16.470808 -0.147975 34.235409 -0.501919 1.575119 0.100876 -0.034061 12152.900000 0 0 1
-30.351161 15.076308 0.067825 33.889418 -0.461028 1.568795 0.113701 -0.032582 -265522.000000 0 0 1
-29.259061 14.078308 0.478025 32.473373 -0.448463 1.556075 0.116501 -0.026288 -574707.000000 0 0 1
-28.912961 14.209108 1.844125 32.268543 -0.456780 1.513616 0.124197 -0.028212 670575.000000 0 0 1
-27.576661 13.923408 2.269825 30.975565 -0.467559 1.497453 0.114845 -0.023872 508209.000000 0 0 1
-27.189861 12.385908 2.279025 29.964867 -0.427447 1.494666 0.134292 -0.024600 -344382.000000 0 0 1
-26.949561 11.824308 1.003425 29.446561 -0.413465 1.536714 0.121475 -0.026733 356527.000000 0 0 1
-26.535361 10.496708 1.154625 28.559402 -0.376685 1.530356 0.142914 -0.028917 -330678.000000 0 0 1
-26.409361 9.718408 -0.181175 28.141333 -0.352612 1.577234 0.138342 -0.025707 841215.000000 0 0 1
-27.690861 9.485008 -0.814375 29.281605 -0.330006 1.598612 0.146572 -0.030729 1228980.000000 0 0 1
-27.486361 8.712908 -1.981375 28.902261 -0.306970 1.639404 0.165783 -0.028928 491821.000000 0 0 1
-28.840261 8.370208 -2.694375 30.150965 -0.282466 1.660278 0.167999 -0.031217 293547.000000 0 0 1
-28.844561 7.530908 -3.818375 30.055004 -0.255385 1.698187 0.183410 -0.025357 -743470.000000 0 0 1
-30.089461 7.407308 -4.391675 31.297455 -0.241377 1.711581 0.192378 -0.021428 -875617.000000 0 0 1
-10.740335 17.659808 -19.733275 28.576664 -1.024384 2.333029 0.118814 -0.029190 -21745.500000 0 0 1
-11.391935 16.723808 -20.552975 28.842446 -0.972813 2.363986 0.133519 -0.038330 -264048.000000 0 0 1
-10.906935 16.767608 -21.855275 29.627132 -0.994086 2.400421 0.117930 -0.040437 279869.000000 0 0 1
-11.393435 15.504108 -22.694375 29.752687 -0.937052 2.438378 0.106618 -0.035726 741934.000000 0 0 1
-10.484935 14.447008 -22.327375 28.586038 -0.942996 2.467156 0.124502 -0.051095 521153.000000 0 0 1
-10.441135 13.460308 -23.303575 28.866136 -0.911050 2.510356 0.106150 -0.047601 -10125.300000 0 0 1
-9.510335 12.271808 -22.942475 27.702001 -0.911502 2.546664 0.086971 -0.037514 -694601.000000 0 0 1
-8.159235 12.545708 -23.032275 27.467318 -0.994168 2.565383 0.077020 -0.037633 -1171740.000000 0 0 1
-7.446135 11.542908 -22.356875 26.239541 -0.997885 2.590647 0.070193 -0.031807 1065020.000000 0 0 1
-5.879235 11.735208 -22.350175 25.919314 -1.106356 2.610587 0.057762 -0.025993 1013480.000000 0 0 1
-5.320335 11.559908 -23.598375 26.810832 -1.139459 2.647039 0.054262 -0.031855 -106219.000000 0 0 1
-3.898035 11.550008 -23.560975 26.527663 -1.245308 2.664135 0.063254 -0.025666 635563.000000 0 0 1
-3.231935 11.172108 -24.898375 27.480729 -1.289198 2.704604 0.083593 -0.038133 -76213.900000 0 0 1
-3.228735 9.775808 -25.204395 27.225956 -1.251798 2.753807 0.086615 -0.036045 -121050.000000 0 0 1
-2.684035 9.560708 -26.494795 28.294617 -1.297105 2.782995 0.088024 -0.036611 -590169.000000 0 0 1
-2.451735 8.014108 -26.753155 28.035125 -1.273911 2.838014 0.093494 -0.024089 129438.000000 0 0 1
-1.321035 7.401508 -26.150025 27.209396 -1.394174 2.861631 0.099822 -0.025202 252332.000000 0 0 1
-1.263835 7.412108 -24.721575 25.839754 -1.401911 2.846332 0.106711 -0.046376 -269664.000000 0 0 1
-0.206535 6.475208 -24.072675 24.929193 -1.538911 2.878699 0.049471 -0.037320 -490938.000000 0 1 0
1.123265 6.802908 -24.409375 25.364520 1.407157 2.866291 0.068783 -0.004254 25705.300000 0 0 1
2.107665 6.138108 -23.632275 24.507204 1.240037 2.873580 0.068754 0.012291 -152206.000000 0 1 0
2.231865 6.467908 -22.136575 23.169873 1.238522 2.841819 0.055502 0.003416 -714447.000000 0 1 0
2.873565 7.694108 -21.881375 23.372018 1.213362 2.782514 0.059989 -0.015343 90504.200000 0 1 0
2.591665 8.259108 -20.647975 22.389025 1.266732 2.744622 0.059357 -0.014131 383540.000000 0 1 0
3.405365 9.609508 -20.496875 22.892379 1.230230 2.680031 0.063398 -0.020898 500122.000000 0 1 0
2.799565 10.380808 -19.414575 22.192892 1.307377 2.635841 0.060558 -0.025034 603608.000000 0 1 0
3.408965 11.676708 -19.361475 22.865547 1.286745 2.580648 0.068439 -0.024560 644374.000000 0 1 0
4.636365 11.828208 -18.384275 22.346900 1.197227 2.536900 0.074347 -0.032745 126875.000000 0 1 0
5.718165 11.149008 -18.927475 22.699055 1.096893 2.556832 0.077078 -0.026928 -642518.000000 0 1 0
6.736565 10.913308 -17.942175 22.054551 1.017768 2.521004 0.079342 -0.024568 679599.000000 0 1 0
7.893165 10.010308 -18.432675 22.411422 0.903105 2.536532 0.101957 -0.033564 44530.000000 0 1 0
7.522265 8.650708 -18.716875 21.948591 0.855059 2.592043 0.093212 -0.020248 -109427.000000 0 1 0
6.864065 8.395808 -19.919475 22.680178 0.885440 2.643043 0.072325 -0.010805 -113906.000000 0 1 0
6.485665 6.895308 -20.148575 22.261496 0.816002 2.702379 0.081773 -0.015012 -141644.000000 0 1 0
7.636765 6.113708 -20.334575 22.565295 0.675084 2.693197 0.074937 -0.008242 -37638.100000 0 1 0
7.367865 4.789608 -20.663175 22.454233 0.576423 2.739477 0.062906 -0.002760 -105793.000000 0 1 0
7.486765 4.423308 -22.207675 23.849489 0.533640 2.768376 0.070721 -0.009367 -563086.000000 0 1 0
6.488765 5.070108 -22.915275 24.349946 0.663276 2.796609 0.074265 -0.012005 -397624.000000 0 1 0
6.488865 4.799608 -24.275675 25.582220 0.636856 2.820616 0.067717 -0.011209 26931.300000 0 0 1
5.398365 5.595108 -25.078585 26.256104 0.803293 2.840971 0.054945 -0.014473 -11122.600000 0 0 1
5.557365 7.018908 -25.255005 26.794862 0.901093 2.800924 0.063836 -0.020613 89103.600000 0 0 1
5.493365 7.815708 -24.095975 25.920616 0.958152 2.764140 0.080368 -0.030303 -1374060.000000 0 0 1
5.460165 9.323708 -24.440575 26.722399 1.041016 2.725339 0.092023 -0.036512 243735.000000 0 0 1
4.406965 9.784708 -25.274255 27.458146 1.147616 2.740064 0.081299 -0.037694 989239.000000 0 0 1
3.106365 9.575208 -24.700875 26.673345 1.257091 2.754607 0.082212 -0.024769 976022.000000 0 0 1
1.803865 9.838708 -25.582665 27.468652 1.389466 2.768873 0.097522 -0.019563 1043480.000000 0 0 1
1.492365 11.172508 -25.695025 28.058624 1.438008 2.728197 0.113144 -0.034391 136776.000000 0 0 1
0.404565 11.248608 -26.618615 28.900614 1.534846 2.741538 0.124643 -0.039499 26145.500000 0 0 1
0.214565 12.765208 -26.891045 29.767849 1.553989 2.698334 0.119325 -0.039143 91535.000000 0 0 1
-0.211835 13.486008 -25.718095 29.040277 -1.555090 2.658582 0.111966 -0.040579 88849.300000 0 0 1
-0.402335 14.823708 -26.051945 29.976791 -1.543662 2.624117 0.101922 -0.041084 -47134.000000 0 0 1
-0.893935 15.657208 -24.824375 29.363189 -1.513764 2.578157 0.103849 -0.039702 215218.000000 0 0 1
-2.209635 15.278308 -24.468175 28.930965 -1.427167 2.578753 0.085060 -0.030995 -385368.000000 0 0 1
-2.484935 15.630908 -23.176375 28.065005 -1.413140 2.542434 0.082877 -0.039654 -687421.000000 0 0 1
-3.766735 15.052308 -22.552675 27.374868 -1.325589 2.538959 0.063180 -0.036061 -414120.000000 0 0 1
-4.974435 15.433508 -23.122775 28.241829 -1.258996 2.530013 0.068318 -0.038057 -789508.000000 0 0 1
-5.278535 15.065808 -24.440275 29.191926 -1.233796 2.562989 0.071180 -0.041908 -491743.000000 0 0 1
-6.813735 15.155308 -24.691875 29.762376 -1.148280 2.549248 0.057856 -0.040952 320484.000000 0 0 1
-7.406435 16.409308 -24.660975 30.533332 -1.146816 2.510993 0.062987 -0.038773 127824.000000 0 0 1
-8.739535 16.205808 -25.141455 31.162484 -1.076218 2.509488 0.073631 -0.034939 273292.000000 0 0 1
-9.554935 17.451408 -25.509925 32.351270 -1.069862 2.479210 0.081061 -0.033428 -58993.500000 0 0 1
-10.057435 18.241808 -24.489875 32.150731 -1.066925 2.436761 0.087901 -0.034949 -142982.000000 0 0 1
-11.134735 19.043208 -24.895175 33.262529 -1.041696 2.416511 0.080093 -0.014165 60781.400000 0 0 1
-11.667635 20.066108 -23.883075 33.304409 -1.044121 2.370450 0.082115 -0.018521 -319231.000000 0 0 1
-10.922335 21.208308 -23.665775 33.602956 -1.095219 2.352200 0.092024 -0.020938 -651241.000000 0 0 1
-11.637135 22.355408 -23.910975 34.740781 -1.090843 2.329895 0.065057 -0.017122 -316294.000000 0 0 1
-11.434035 23.048408 -25.300815 36.084588 -1.110283 2.347810 0.065573 -0.004428 4247.490000 0 0 1
-11.896235 22.243508 -26.384165 36.502304 -1.079684 2.378654 0.059471 -0.009627 137305.000000 0 0 1
-11.583035 22.836108 -27.566365 37.623915 -1.101386 2.393051 0.067338 -0.005627 -233288.000000 0 0 1
-12.263135 22.095308 -28.746035 38.274295 -1.064114 2.420452 0.064220 -0.014071 131673.000000 0 0 1
-11.551635 20.973808 -29.316495 37.852315 -1.067366 2.456715 0.071181 -0.014245 106080.000000 0 0 1
-11.280035 19.882508 -28.515625 36.547150 -1.054742 2.465849 0.066744 -0.013318 -386110.000000 0 0 1
-10.320235 18.941108 -29.229895 36.327119 -1.071909 2.505849 0.059480 -0.019635 -681079.000000 0 0 1
-8.991535 19.384708 -29.061125 36.071645 -1.136487 2.507568 0.052185 -0.018769 -323325.000000 0 0 1
-7.981235 18.655808 -29.713395 35.980899 -1.166544 2.542434 0.046080 -0.014014 156453.000000 0 0 1
-7.574935 17.311408 -29.095465 34.693091 -1.158328 2.565602 0.064971 -0.030937 -894691.000000 0 0 1
-8.570035 16.305608 -29.068995 34.414020 -1.086888 2.576772 0.045826 -0.027363 -333588.000000 0 0 1
-8.246435 15.076908 -28.468585 33.253228 -1.070292 2.598501 0.048804 -0.032624 -774770.000000 0 0 1
-9.406635 14.093508 -28.279345 32.967152 -0.982255 2.601777 0.047674 -0.023830 -425599.000000 0 0 1
-10.289135 14.572808 -27.280735 32.595575 -0.956021 2.562475 0.057028 -0.032133 92477.800000 0 0 1
-11.496635 13.820308 -27.392075 32.764299 -0.876925 2.560811 0.087456 -0.030201 94796.600000 0 0 1
-12.592135 14.091108 -26.365405 32.438492 -0.841516 2.519707 0.079788 -0.027864 -133077.000000 0 0 1
-13.210235 15.315808 -26.726255 33.516816 -0.859077 2.493768 0.073985 -0.025944 -680740.000000 0 0 1
-14.144835 15.715008 -25.766405 33.330848 -0.837935 2.454431 0.059737 -0.023362 -4290.500000 0 0 1
-15.019135 16.892608 -26.291145 34.672163 -0.844039 2.431464 0.042092 -0.011314 203816.000000 0 0 1
-14.445235 18.171108 -26.282625 35.066085 -0.899138 2.418128 0.046905 -0.007273 399139.000000 0 0 1
-15.478035 19.088708 -26.679305 36.273043 -0.889476 2.397220 0.022601 -0.002281 322397.000000 0 0 1
-15.032135 20.525608 -26.769025 36.930290 -0.938681 2.381617 0.024482 -0.002200 308962.000000 0 0 1
-16.132535 21.348308 -27.188065 38.147081 -0.923669 2.364160 -0.001899 0.006310 676978.000000 0 0 1
-15.776935 22.736108 -27.313045 38.882447 -0.964166 2.349633 0.009712 0.006472 -62685.500000 0 0 1
-15.522535 23.442508 -25.960915 38.268386 -0.985925 2.316366 -0.020380 0.010997 24838.500000 0 0 1
-15.075435 24.765008 -26.117005 39.021434 -1.023976 2.304061 0.017721 -0.000301 127896.000000 0 0 1
-14.777635 25.387308 -24.827475 38.461635 -1.043652 2.272491 0.040828 -0.004801 315278.000000 0 0 1
-14.178335 26.807908 -24.924075 39.254281 -1.084308 2.258726 0.068703 -0.002891 821630.000000 0 0 1
-15.225935 27.674808 -25.390015 40.526250 -1.067820 2.247861 0.081778 -0.007455 488295.000000 0 0 1
-15.549635 28.750308 -24.550475 40.879055 -1.075004 2.215002 0.083941 -0.009279 -119283.000000 0 0 1
-16.908335 29.410208 -24.839675 42.045946 -1.049027 2.202815 0.074181 -0.006744 78256.900000 0 0 1
-17.964135 28.475908 -24.848275 41.845241 -1.007999 2.206587 0.045504 0.000054 -627141.000000 0 0 1
-19.185335 29.033408 -25.247625 42.993702 -0.986865 2.198441 0.045760 -0.003816 -256448.000000 0 0 1
-20.312835 27.998008 -25.158095 42.771830 -0.943154 2.199619 0.031358 0.016433 -272897.000000 0 0 1
-20.739735 27.772008 -23.847175 42.072661 -0.929356 2.173424 0.035305 0.016546 180273.000000 0 0 1
-21.873135 26.902308 -23.793175 42.050962 -0.888144 2.172221 0.037537 0.003826 419323.000000 0 0 1
-22.448135 26.651508 -22.359075 41.402293 -0.870799 2.141286 0.048313 0.004283 -572893.000000 0 0 1
-23.398135 27.613408 -22.092375 42.403373 -0.867845 2.118824 0.046087 0.011734 -608680.000000 0 0 1
-23.899835 27.611808 -20.792175 42.022953 -0.857335 2.088380 0.026708 0.012915 -289299.000000 0 0 1
-25.193485 28.421908 -20.630675 43.222000 -0.845540 2.068397 0.012948 0.014492 746638.000000 0 0 1
-26.410925 27.651808 -20.807975 43.533105 -0.808347 2.069150 0.007020 0.014097 458699.000000 0 0 1
-27.520535 28.506508 -20.688275 44.699055 -0.802995 2.051987 0.026180 0.007785 -331512.000000 0 0 1
-28.786675 27.742608 -21.101375 45.206116 -0.766931 2.056444 0.025061 0.003785 -533641.000000 0 0 1
-28.852575 27.437108 -22.506275 45.736182 -0.760257 2.085284 0.020964 0.010817 595775.000000 0 0 1
-30.155445 27.010408 -22.932375 46.527484 -0.730438 2.086191 0.019116 0.003145 584328.000000 0 0 1
-30.278645 26.625408 -24.441875 47.149909 -0.721286 2.115759 0.017541 0.014369 399205.000000 0 0 1
-29.567565 25.418308 -24.805475 46.213016 -0.710081 2.137393 0.034947 0.021012 297890.000000 0 0 1
-29.692745 25.279608 -26.248935 47.007704 -0.705291 2.163248 0.055535 0.013711 178249.000000 0 0 1
-30.025915 23.827708 -26.696195 46.711905 -0.670809 2.179138 0.056963 0.006141 578374.000000 0 0 1
-28.874885 22.973608 -26.536045 45.450053 -0.672068 2.194260 0.071520 -0.001607 740803.000000 0 0 1
-28.979095 21.730408 -27.145895 45.264756 -0.643415 2.213940 0.089061 -0.015081 53392.600000 0 0 1
-27.903875 20.708508 -26.663975 43.799955 -0.638450 2.225302 0.094010 -0.017717 158616.000000 0 0 1
-28.005275 20.321208 -25.254915 42.837573 -0.627715 2.201299 0.090257 -0.016281 66814.200000 0 0 1
-27.314995 19.126108 -24.938075 41.639218 -0.610864 2.212934 0.089621 -0.020191 -61411.000000 0 0 1
-28.190615 17.841408 -24.998275 41.688612 -0.564249 2.213851 0.078920 -0.023346 136971.000000 0 0 1
-28.750845 17.643308 -26.328315 42.791092 -0.550405 2.233532 0.080652 -0.023944 430884.000000 0 0 1
-29.608175 16.506408 -26.268875 42.885420 -0.508579 2.230062 0.060136 -0.025625 -89550.100000 0 0 1
-30.426895 16.244408 -27.539185 44.137098 -0.490385 2.244579 0.054707 -0.023302 -275426.000000 0 0 1
-31.624985 16.968308 -27.653545 45.307634 -0.492456 2.227300 0.054310 -0.032038 -473113.000000 0 0 1
-32.352985 16.363508 -28.685955 46.231634 -0.468261 2.240155 0.063299 -0.030925 -687945.000000 0 0 1
-33.751405 16.882508 -28.919495 47.544858 -0.463809 2.224659 0.073043 -0.036616 14948.900000 0 0 1
-34.784222 16.577408 -27.943085 47.597989 -0.444735 2.198224 0.051308 -0.032266 943319.000000 0 0 1
-36.033053 16.800208 -28.582375 48.965090 -0.436280 2.194111 0.048870 -0.030392 600568.000000 0 0 1
36.829192 16.497008 -27.823165 49.017029 0.421134 2.174411 0.043410 -0.018386 367196.000000 0 0 1
36.547322 17.420208 -26.765405 48.534084 0.444792 2.154929 0.049913 -0.020683 -147435.000000 0 0 1
35.280442 17.095608 -26.250335 47.181029 0.451222 2.160813 0.050810 -0.018083 -239195.000000 0 0 1
34.750132 18.116808 -25.219355 46.602642 0.480577 2.142609 0.055123 -0.014680 -42714.300000 0 0 1
34.262152 19.286908 -25.863025 47.061406 0.512710 2.152633 0.068198 -0.027683 -67793.300000 0 0 1
33.815342 20.170808 -24.891475 46.582447 0.537841 2.134539 0.089041 -0.018929 -149335.000000 0 0 1
32.952992 21.337908 -25.433065 46.776562 0.574634 2.145652 0.097258 -0.026937 146461.000000 0 0 1
31.718292 21.071308 -26.061305 46.143707 0.586381 2.170970 0.076417 -0.025511 7352.790000 0 0 1
30.661512 21.550408 -25.218555 45.172159 0.612635 2.163103 0.084194 -0.013327 690836.000000 0 0 1
29.247022 21.252508 -25.804275 44.417541 0.628392 2.190689 0.056731 -0.016638 550342.000000 0 0 1
28.974792 19.871308 -25.975165 43.693439 0.601141 2.207423 0.055683 -0.023089 -65930.300000 0 0 1
27.664592 19.649008 -26.464575 43.032393 0.617578 2.233172 0.049914 -0.015592 -83480.700000 0 0 1
27.389392 18.114308 -26.586435 42.250982 0.584321 2.251384 0.066656 -0.015503 -51496.500000 0 0 1
28.297192 17.310708 -27.327595 42.978938 0.549012 2.259889 0.057664 -0.021317 -889789.000000 0 0 1
29.391512 16.916108 -26.596625 43.097519 0.522243 2.235882 0.063234 -0.018485 -1185750.000000 0 0 1
30.121062 15.912708 -27.519335 43.792767 0.486024 2.250290 0.027626 -0.005538 -487291.000000 0 0 1
29.401132 14.761708 -27.958125 43.173966 0.465310 2.275186 0.037664 -0.005639 86154.400000 0 0 1
28.874192 13.821208 -27.047275 41.908231 0.446438 2.272334 0.062514 -0.011329 -432348.000000 0 0 1
29.868072 12.971908 -26.244615 41.822864 0.409727 2.249158 0.057778 -0.011834 -325348.000000 0 0 1
30.412892 13.713408 -25.175145 41.794611 0.423609 2.217243 0.055477 -0.013237 -46609.400000 0 0 1
31.320292 12.922808 -24.431475 41.771481 0.391323 2.195533 0.042092 -0.012278 -22945.100000 0 0 1
-15.097435 -31.023595 -23.701875 41.858987 1.117891 2.172723 0.167063 -0.016905 90890.600000 0 0 1
-14.270035 -29.952595 -24.117475 41.017611 1.126190 2.199354 0.147444 -0.029691 193275.000000 0 0 1
-14.442035 -29.604595 -25.480545 41.644478 1.116931 2.229205 0.123002 -0.018861 206065.000000 0 0 1
-13.618035 -28.385995 -26.014295 40.840655 1.123484 2.261358 0.111386 -0.017231 71989.900000 0 0 1
-14.145535 -27.195395 -25.456165 39.845978 1.091163 2.263817 0.108605 -0.020189 162266.000000 0 0 1
-13.589035 -26.076895 -26.082775 39.306201 1.090401 2.296389 0.088807 -0.009245 -244406.000000 0 0 1
-14.068435 -24.739595 -25.461495 38.187120 1.053739 2.300644 0.050628 -0.013880 -113011.000000 0 0 1
-13.506935 -24.552095 -24.203975 37.028030 1.067850 2.283215 0.069534 -0.022154 234310.000000 0 0 1
-14.035435 -23.336395 -23.647875 36.066643 1.029319 2.285868 0.047795 -0.016603 17467.600000 0 0 1
-13.348835 -22.875995 -22.331375 34.643799 1.042575 2.271296 0.059512 -0.018143 -421155.000000 0 0 1
-12.045335 -22.397195 -22.416275 33.900056 1.077364 2.293275 0.074097 -0.027141 -599084.000000 0 0 1
-11.561535 -21.926095 -21.173975 32.599999 1.085551 2.277734 0.064232 -0.026565 -582979.000000 0 0 1
-10.111235 -21.504195 -21.337575 31.936805 1.131273 2.302474 0.064318 -0.030883 -755841.000000 0 0 1
-9.818735 -20.362695 -22.140875 31.642775 1.121496 2.345793 0.073425 -0.036265 69201.600000 0 0 1
-8.430835 -20.365195 -22.419375 31.439601 1.178294 2.364697 0.098698 -0.042698 122390.000000 0 0 1
-7.914535 -19.094295 -23.160675 31.042693 1.177855 2.412968 0.110856 -0.031769 -170281.000000 0 0 1
-7.845135 -17.952995 -22.342275 29.715878 1.158821 2.421680 0.082972 -0.032662 -110904.000000 0 0 1
-7.959135 -16.676195 -23.021275 29.519864 1.125493 2.465234 0.074180 -0.031362 -469804.000000 0 0 1
-6.806135 -16.093095 -23.880975 29.590744 1.170687 2.509922 0.095834 -0.040321 -97991.600000 0 0 1
-6.528135 -16.868195 -25.069005 30.912902 1.201539 2.516581 0.108553 -0.038542 -593818.000000 0 0 1
-5.426335 -16.346695 -25.717585 30.952442 1.250289 2.551473 0.083909 -0.044724 -838286.000000 0 0 1
-5.176735 -17.020195 -27.062695 32.386340 1.275534 2.560058 0.099642 -0.023407 -136201.000000 0 0 1
-6.180135 -16.810295 -28.046505 33.277417 1.218494 2.573277 0.130007 -0.024648 14752.200000 0 0 1
-6.061935 -17.744295 -29.114785 34.630589 1.241600 2.569416 0.114219 -0.031189 -1355640.000000 0 0 1
-7.141635 -17.644295 -30.133455 35.641958 1.186197 2.578202 0.121229 -0.036529 -781382.000000 0 0 1
-7.146335 -16.511395 -31.042975 35.879835 1.162327 2.616331 0.099305 -0.025593 -120603.000000 0 0 1
-7.309135 -15.222695 -30.458975 34.826757 1.123157 2.635376 0.082989 -0.018943 -105494.000000 0 0 1
-7.826435 -14.266995 -31.572815 35.519612 1.069052 2.665700 0.064587 -0.021378 421538.000000 0 0 1
-6.878635 -14.034495 -32.640605 36.189663 1.115081 2.695018 0.091327 -0.026058 167131.000000 0 0 1
-7.378835 -13.315195 -33.706855 36.985046 1.064760 2.717383 0.089650 -0.021120 -178302.000000 0 0 1
-7.796835 -11.806595 -33.426965 36.298048 0.987159 2.741186 0.059112 -0.021030 -659247.000000 0 0 1
-6.725235 -10.960695 -33.401465 35.791388 1.020453 2.774087 0.055291 -0.022702 -931225.000000 0 0 1
-6.640435 -10.249395 33.310662 35.478805 0.995909 0.351408 0.039708 -0.024237 -527670.000000 0 0 1
-5.277935 -9.601595 33.174790 34.937285 1.068188 0.318990 0.056743 -0.025490 -804432.000000 0 0 1
-5.258235 -8.789895 32.055435 33.652075 1.031691 0.309275 0.044460 -0.021690 -127678.000000 0 0 1
-4.156635 -7.910995 31.956518 33.182532 1.087016 0.272681 0.042451 -0.030399 -598172.000000 0 0 1
-4.150635 -6.945695 30.725483 31.773034 1.032155 0.257498 0.040078 -0.022204 682714.000000 0 0 1
-5.221235 -5.975195 30.659383 31.669575 0.852636 0.253255 0.028309 -0.015799 733392.000000 0 0 1
-6.444635 -6.532195 30.192193 31.555845 0.792145 0.295055 0.041970 -0.011844 61952.300000 0 0 1
-7.658635 -5.571795 30.210573 31.660358 0.628957 0.303795 0.040579 -0.009814 914864.000000 0 0 1
-8.831235 -6.223995 29.647853 31.555094 0.613921 0.349458 0.060467 -0.005034 668207.000000 0 0 1
-9.918035 -5.295695 29.778763 31.830590 0.490434 0.361014 0.056567 -0.012918 565653.000000 0 0 1
-11.132235 -5.708695 28.897273 31.489176 0.473841 0.408572 0.060007 -0.009632 199944.000000 0 0 1
-10.744035 -5.619395 27.523823 30.076115 0.481897 0.414944 0.063567 -0.005051 344138.000000 0 0 1
-11.633435 -6.347295 26.707643 29.814814 0.499465 0.460604 0.070776 -0.006600 -105542.000000 0 0 1
-11.284935 -6.283195 25.237373 28.350542 0.508032 0.473034 0.056881 -0.009422 429497.000000 0 0 1
-10.103435 -7.010395 24.855833 27.731524 0.606595 0.459437 0.058601 -0.009061 576215.000000 0 0 1
-9.526735 -6.511595 23.665173 26.328690 0.599571 0.453690 0.055423 -0.010930 -139370.000000 0 0 1
-10.301635 -6.685295 22.325913 25.480644 0.575640 0.502895 0.053000 -0.017492 -450469.000000 0 0 1
-11.426535 -5.877995 22.230213 25.676816 0.475114 0.524110 0.046419 -0.011996 -803430.000000 0 0 1
-12.238035 -6.135295 21.128013 25.175469 0.464711 0.574930 0.042871 -0.010973 -1182670.000000 0 0 1
-13.485335 -5.315895 21.159113 25.648022 0.375495 0.600629 0.043074 -0.006191 -1043550.000000 0 0 1
-13.249835 -3.967595 20.719113 24.911474 0.290947 0.588616 0.036973 -0.006632 551241.000000 0 1 0
-14.407635 -3.142095 20.933213 25.605704 0.214723 0.613702 0.042342 -0.001093 727291.000000 0 0 1
-14.165235 -1.659795 20.461313 24.941413 0.116642 0.608730 0.040419 -0.000354 -66873.000000 0 1 0
-13.205135 -0.930795 21.194613 24.989069 0.070371 0.558303 0.027453 -0.001383 -68120.000000 0 1 0
-13.223935 0.485205 20.894313 24.732169 -0.036675 0.564561 0.032495 -0.004814 -274315.000000 0 1 0
-12.698335 0.939205 19.479113 23.271563 -0.073828 0.578955 0.045799 -0.017540 534920.000000 0 1 0
-13.545335 0.657205 18.327213 22.799007 -0.048481 0.637040 0.059321 -0.020759 1442530.000000 0 1 0
-14.838735 1.316205 18.259913 23.565756 -0.088469 0.684319 0.061022 -0.017893 1260800.000000 0 1 0
-15.851335 0.518205 17.380413 23.528963 -0.032680 0.739684 0.079261 -0.011187 -3978.100000 0 1 0
-16.177335 -0.726795 17.974113 24.193038 0.044897 0.733336 0.058596 -0.006590 404663.000000 0 1 0
-16.920335 -1.574795 17.098013 24.106425 0.092804 0.782331 0.055306 -0.002974 26498.400000 0 1 0
-16.819135 -3.082795 17.525813 24.485527 0.181279 0.773082 0.051056 0.004318 29677.900000 0 1 0
-17.432635 -3.330795 18.802313 25.855713 0.188791 0.756560 0.052782 0.002384 104605.000000 0 0 1
-17.575135 -4.708195 19.011013 26.314845 0.261744 0.763465 0.069068 -0.002729 198516.000000 0 0 1
-18.363735 -5.103195 20.313813 27.855346 0.271056 0.753555 0.063622 0.002352 77911.900000 0 0 1
-17.741035 -4.606495 21.486913 28.242725 0.254042 0.706260 0.060298 0.001916 152313.000000 0 0 1
-18.590835 -4.590395 22.631613 29.645923 0.242075 0.702240 0.060210 -0.009360 -531539.000000 0 0 1
-18.668735 -5.917495 23.433933 30.539934 0.306955 0.696143 0.078522 -0.004137 962355.000000 0 0 1
-17.492435 -6.521395 24.034603 30.433139 0.356851 0.660393 0.047291 -0.008476 1336000.000000 0 0 1
-16.359435 -6.761995 23.203843 29.185167 0.391952 0.651696 0.059846 -0.014537 2856.440000 0 0 1
-15.248635 -7.658895 23.800923 29.285891 0.465460 0.622009 0.065553 -0.005059 -116260.000000 0 0 1
-15.513835 -9.028695 24.062433 30.019944 0.527062 0.640916 0.072093 -0.008632 -74597.700000 0 0 1
-15.355035 -9.242795 25.460863 31.136183 0.541844 0.613347 0.069374 -0.005858 -254224.000000 0 0 1
-16.299635 -10.319695 25.958403 32.342122 0.564420 0.639123 0.063563 -0.005717 -733877.000000 0 0 1
-16.034635 -11.665995 25.713493 32.471351 0.628977 0.656911 0.066835 -0.012218 -236142.000000 0 0 1
-15.066035 -12.176195 26.596633 32.903282 0.679714 0.629490 0.069391 -0.011782 -148215.000000 0 0 1
-15.041635 -13.711695 26.619933 33.509434 0.739178 0.652775 0.066715 -0.019437 42136.800000 0 0 1
-16.242735 -14.313395 27.119123 34.700814 0.722341 0.673710 0.060295 -0.020702 435568.000000 0 0 1
-16.334435 -15.736195 26.970613 35.239970 0.766747 0.699225 0.077148 -0.013446 -190501.000000 0 0 1
-15.367835 -16.628695 27.779703 35.838467 0.824784 0.683865 0.085104 -0.017355 190022.000000 0 0 1
-14.060135 -16.600395 27.217473 34.843239 0.868061 0.674306 0.068281 -0.020130 284314.000000 0 0 1
-13.274035 -17.575695 27.892823 35.540323 0.923944 0.668388 0.072521 -0.016540 296912.000000 0 0 1
-11.853235 -17.802795 27.320053 34.696166 0.983389 0.664203 0.074431 -0.022447 148474.000000 0 0 1
-10.909135 -18.446795 28.112813 35.350017 1.036736 0.651343 0.075531 -0.031495 134634.000000 0 0 1
-9.695735 -18.763395 27.444383 34.630426 1.093849 0.655910 0.076700 -0.032398 679586.000000 0 0 1
-8.629935 -19.411295 28.392113 35.459642 1.152456 0.642353 0.090290 -0.037883 351736.000000 0 0 1
-8.993235 -20.717395 28.830933 36.623918 1.161251 0.664515 0.079272 -0.025370 69781.400000 0 0 1
-8.040335 -21.191495 29.744423 37.395950 1.208162 0.651143 0.092296 -0.027749 -176731.000000 0 0 1
-8.366335 -22.607495 30.192013 38.634855 1.216356 0.673777 0.079302 -0.027847 108350.000000 0 0 1
-8.407435 -23.573695 29.157013 38.425713 1.228214 0.709344 0.083828 -0.031130 72130.200000 0 0 1
-8.468235 -24.889195 29.612143 39.598763 1.242845 0.726047 0.068603 -0.026322 -191565.000000 0 0 1
-8.594035 -25.896995 28.359433 39.354405 1.250377 0.766105 0.069845 -0.018486 115895.000000 0 0 1
-9.851035 -25.741095 27.699023 39.075346 1.205295 0.782913 0.064751 -0.020415 462154.000000 0 0 1
-10.158835 -26.958895 27.054563 39.521302 1.210425 0.816801 0.069536 -0.013032 182668.000000 0 0 1
-11.619035 -27.211495 26.552373 39.755451 1.167241 0.839423 0.066841 -0.015878 471420.000000 0 0 1
-11.981135 -26.683895 25.300153 38.673965 1.148772 0.857684 0.080545 -0.020473 204072.000000 0 0 1
-12.278035 -25.281595 25.364203 37.858314 1.118694 0.836618 0.067756 -0.010967 -569353.000000 0 0 1
-12.602235 -24.627895 24.020103 36.637615 1.097828 0.855802 0.082699 -0.028985 595774.000000 0 0 1
-13.892135 -25.024995 23.537283 37.057326 1.064023 0.882582 0.076621 -0.019004 599281.000000 0 0 1
-13.980435 -24.441095 22.245313 35.884169 1.051216 0.902156 0.076521 -0.026017 177615.000000 0 0 1
-15.356435 -24.553795 21.534013 36.089093 1.011895 0.931426 0.062422 -0.025677 -99607.700000 0 0 1
-15.670735 -25.931695 21.285113 37.028107 1.027215 0.958392 0.076226 -0.019704 -429685.000000 0 0 1
-16.806635 -26.072295 20.507613 37.185880 0.998215 0.986648 0.071220 -0.022099 -547399.000000 0 0 1
-16.869735 -27.509495 19.928813 37.927797 1.020703 1.017563 0.075481 -0.024943 307097.000000 0 0 1
-16.008635 -27.729995 18.803613 37.132261 1.047232 1.039797 0.070488 -0.020723 289700.000000 0 0 1
-16.028535 -29.098695 18.452813 38.002029 1.067313 1.063776 0.084239 -0.013883 120636.000000 0 0 1
-15.088535 -29.559795 17.308913 37.430520 1.098831 1.090065 0.086431 -0.028877 80588.300000 0 0 1
-15.356635 -28.939895 16.033113 36.474709 1.082939 1.115679 0.079551 -0.037344 945284.000000 0 0 1
-14.156735 -28.925995 15.210113 35.615640 1.115655 1.129554 0.095102 -0.032514 869625.000000 0 0 1
-14.335235 -28.399495 13.746313 34.655322 1.103339 1.162923 0.100461 -0.038844 -144638.000000 0 0 1
-14.454135 -26.980295 13.725513 33.544716 1.078975 1.149251 0.094746 -0.037741 -221258.000000 0 0 1
-14.762135 -26.435095 12.454413 32.739078 1.061504 1.180552 0.093473 -0.049088 319901.000000 0 0 1
-13.732635 -26.595795 11.291313 31.990863 1.094158 1.210070 0.095112 -0.040886 276708.000000 0 0 1
-14.267535 -26.051995 10.143713 31.387320 1.069754 1.241710 0.077034 -0.038781 -511639.000000 0 0 1
-13.413635 -26.229395 9.068413 30.824387 1.098073 1.272182 0.077837 -0.032276 -251381.000000 0 0 1
-13.871535 -25.579295 7.698813 30.099693 1.073888 1.312145 0.089208 -0.035210 273107.000000 0 0 1
-14.990335 -26.221895 7.104013 31.028453 1.051466 1.339796 0.086372 -0.036499 94260.200000 0 0 1
-15.476635 -25.472995 6.007413 30.405405 1.024829 1.371911 0.090392 -0.029270 -214164.000000 0 0 1
-16.254535 -26.402795 5.024613 31.409619 1.018958 1.410136 0.087539 -0.034939 -164385.000000 0 0 1
-15.541435 -27.348095 4.311513 31.749703 1.054025 1.434579 0.085898 -0.022151 -350132.000000 0 0 1
-16.318435 -27.769495 3.229413 32.370747 1.039515 1.470867 0.100903 -0.026362 -208149.000000 0 0 1
-15.711135 -29.013595 2.504513 33.089288 1.074495 1.495034 0.092167 -0.030829 -96810.000000 0 0 1
-14.504835 -28.642395 1.888013 32.161181 1.102033 1.512058 0.083344 -0.017257 -347728.000000 0 0 1
-13.810435 -29.662395 1.239113 32.743261 1.135056 1.532944 0.068059 -0.020940 -289165.000000 0 0 1
-12.403635 -29.261995 0.788213 31.792071 1.169873 1.546001 0.076026 -0.017181 -381284.000000 0 0 1
-12.227935 -28.497295 -0.390587 31.012429 1.165466 1.583391 0.083165 -0.010932 -114073.000000 0 0 1
-12.449435 -27.102495 -0.344087 29.827035 1.140197 1.582333 0.082686 -0.016469 -111743.000000 0 0 1
-12.285235 -26.375295 -1.693587 29.145349 1.134893 1.628937 0.090285 -0.020305 293694.000000 0 0 1
-10.956335 -26.599295 -2.126287 28.845881 1.180071 1.644575 0.083922 -0.020023 -105281.000000 0 0 1
-10.433935 -25.712095 -3.136087 27.925147 1.185301 1.683337 0.089966 -0.021894 1141220.000000 0 0 1
-8.992535 -26.172495 -3.570087 27.903596 1.239846 1.699092 0.078231 -0.016473 661116.000000 0 0 1
-8.439135 -25.326795 -4.493787 27.071381 1.249157 1.737566 0.068586 -0.020397 -89957.600000 0 0 1
-7.144335 -25.797395 -4.866787 27.207218 1.300627 1.750643 0.052074 -0.010392 672107.000000 0 0 1
-6.443135 -24.905095 -5.952687 26.404776 1.317639 1.798191 0.051498 -0.010566 -166868.000000 0 0 1
-7.061535 -24.882695 -7.199887 26.848690 1.294274 1.842284 0.058662 -0.012694 -140682.000000 0 0 1
-6.444235 -23.870695 -7.961787 25.975532 1.307118 1.882322 0.056590 -0.007660 -288407.000000 0 0 1
-6.789935 -23.747095 -9.431287 26.438171 1.292300 1.935562 0.059514 -0.010320 -271986.000000 0 0 1
-6.105435 -24.754195 -10.152887 27.443171 1.328980 1.949763 0.039837 -0.012386 195126.000000 0 0 1
-6.337635 -24.744195 -11.568187 28.040395 1.320060 1.996053 0.033470 -0.005028 -776177.000000 0 0 1
-7.488135 -25.570295 -12.049987 29.242338 1.285917 1.995525 0.039688 -0.008687 -696968.000000 0 0 1
-7.633635 -25.521095 -13.481787 29.855607 1.280156 2.039316 0.052511 -0.012339 884752.000000 0 0 1
-8.793635 -26.232195 -13.963387 30.990841 1.247346 2.038194 0.073344 -0.018212 162616.000000 0 0 1
-8.715635 -26.117795 -15.521587 31.607296 1.248711 2.084121 0.084908 -0.029910 748175.000000 0 0 1
-7.656535 -26.882095 -16.157587 32.285247 1.293324 2.094930 0.062471 -0.038492 594741.000000 0 0 1
-6.442535 -26.172895 -16.193787 31.444641 1.329442 2.111796 0.066728 -0.031795 -1254050.000000 0 0 1
-5.296935 -26.911095 -16.807387 32.167574 1.376450 2.120571 0.069628 -0.026555 -1094220.000000 0 0 1
-5.498135 -27.291695 -18.159087 33.238811 1.371999 2.148763 0.111581 -0.032613 268867.000000 0 0 1
-4.368735 -27.827395 -18.836187 33.885863 1.415073 2.160207 0.098417 -0.035737 43640.800000 0 0 1
-26.056245 14.387108 -5.690275 30.303399 -0.504497 1.759694 0.098680 -0.024652 -278100.000000 0 0 1
-25.580925 13.383708 -4.793375 29.265744 -0.482028 1.735326 0.098184 -0.024324 304486.000000 0 0 1
-24.232835 13.058208 -5.053275 27.987187 -0.494254 1.752349 0.122381 -0.028836 -199795.000000 0 0 1
-23.880435 11.649108 -4.528575 26.953383 -0.453848 1.739612 0.122100 -0.024824 -239856.000000 0 0 1
-24.314735 10.577308 -5.380075 27.056071 -0.410324 1.770980 0.118473 -0.017494 -310887.000000 0 0 1
-25.655385 10.231208 -5.221975 28.109525 -0.379466 1.757654 0.139385 -0.023760 -718314.000000 0 0 1
-26.210275 9.608208 -6.530975 28.669667 -0.351370 1.800615 0.158904 -0.022660 -153700.000000 0 0 1
-26.298935 10.531708 -7.611875 29.334135 -0.380904 1.833289 0.189241 -0.020684 184438.000000 0 0 1
-26.653765 9.882508 -8.812975 29.761647 -0.355060 1.871423 0.183914 -0.020520 80401.100000 0 0 1
-27.299515 10.842608 -9.888675 30.993734 -0.378066 1.895527 0.155098 -0.023641 -36507.400000 0 0 1
-26.371875 11.700108 -10.531875 30.713005 -0.417568 1.920812 0.158393 -0.016388 373046.000000 0 0 1
-26.888605 12.401908 -11.642375 31.817437 -0.432156 1.945409 0.137109 -0.019701 -668196.000000 0 0 1
-25.795415 13.245908 -12.240675 31.475254 -0.474388 1.970232 0.122562 -0.016319 -515640.000000 0 0 1
-25.452255 14.308908 -11.373775 31.335680 -0.512151 1.942245 0.119700 -0.021823 214232.000000 0 0 1
-24.495935 15.165408 -11.946575 31.189118 -0.554345 1.963878 0.109208 -0.023585 -152396.000000 0 0 1
-24.534435 16.559608 -11.328675 31.693816 -0.593718 1.936323 0.106891 -0.023879 -251580.000000 0 0 1
-23.848635 16.671808 -10.119275 30.807569 -0.610100 1.905477 0.105970 -0.021571 -76899.300000 0 0 1
-23.734435 18.054808 -9.749375 31.374349 -0.650315 1.886771 0.076470 -0.017407 -450998.000000 0 0 1
-22.657135 18.477108 -8.771975 30.523709 -0.684127 1.862289 0.078182 -0.014941 -662050.000000 0 0 1
-22.781535 17.885508 -7.505275 29.920208 -0.665582 1.824347 0.088492 -0.018274 184879.000000 0 0 1
-23.838735 18.426608 -6.732175 30.873084 -0.658040 1.790622 0.078429 -0.021565 29985.500000 0 0 1
-24.150135 17.830408 -5.388375 30.498968 -0.635981 1.748403 0.067696 -0.016470 -510544.000000 0 0 1
-23.086035 18.013208 -4.517975 29.628580 -0.662591 1.723881 0.075035 -0.030082 -349545.000000 0 0 1
-23.376735 17.639308 -3.211575 29.460671 -0.646417 1.680026 0.054980 -0.020193 -930238.000000 0 0 1
-22.152835 17.247708 -2.425575 28.180045 -0.661542 1.656977 0.063294 -0.036211 -1091580.000000 0 0 1
-21.425135 18.356708 -2.015575 28.285467 -0.708419 1.642115 0.060252 -0.035981 -54029.900000 0 0 1
-20.575235 18.035108 -0.937075 27.376697 -0.719704 1.605032 0.132854 -0.051571 -115769.000000 0 0 1
-20.045535 19.244908 -0.155575 27.788741 -0.765024 1.576395 0.111237 -0.049355 -217899.000000 0 0 1
-21.015835 19.865308 0.638425 28.925825 -0.757262 1.548723 0.091602 -0.035536 37049.100000 0 0 1
-20.584835 21.169308 1.060125 29.546555 -0.799395 1.534909 0.096762 -0.042775 -273129.000000 0 0 1
-21.578935 21.917408 1.933325 30.818192 -0.793180 1.508022 0.068874 -0.033685 -500628.000000 0 0 1
-21.597035 21.400608 3.262225 30.578752 -0.780830 1.463910 0.097399 -0.028509 -539644.000000 0 0 1
-22.818935 21.476108 3.890125 31.576258 -0.755092 1.447285 0.067250 -0.020537 -885068.000000 0 0 1
-22.632735 21.289908 5.407625 31.539551 -0.754835 1.398490 0.089074 -0.023921 -381142.000000 0 0 1
-21.837535 22.349908 5.870025 31.793923 -0.796993 1.385104 0.074496 -0.021121 137438.000000 0 0 1
-20.932035 21.945508 6.894825 31.101351 -0.809030 1.347250 0.080906 -0.017410 -138778.000000 0 0 1
-21.483035 21.838108 8.298025 31.737690 -0.793594 1.306265 0.076979 -0.021246 -389296.000000 0 0 1
-22.343835 20.712608 8.577525 31.651746 -0.747531 1.296368 0.079462 -0.027189 789570.000000 0 0 1
-22.604335 20.405908 9.947725 32.036140 -0.734329 1.255061 0.084730 -0.025224 -120795.000000 0 0 1
-23.226235 21.519408 10.807525 33.456621 -0.747272 1.241866 0.104598 -0.019733 -275175.000000 0 0 1
-24.598335 21.756308 10.531725 34.486697 -0.724164 1.260453 0.122226 -0.020343 768823.000000 0 0 1
-25.264475 22.636508 11.472025 35.809392 -0.730591 1.244683 0.133859 -0.025859 582549.000000 0 0 1
-26.681815 23.062108 10.974425 36.935323 -0.712759 1.269116 0.148226 -0.032904 376702.000000 0 0 1
-27.491665 23.632808 11.963025 38.176108 -0.710061 1.252063 0.147142 -0.031223 78403.000000 0 0 1
-27.862455 24.987608 11.698425 39.211607 -0.731055 1.267842 0.142833 -0.032176 108961.000000 0 0 1
-28.458655 25.650008 12.982325 40.451931 -0.733537 1.244083 0.140076 -0.032966 637655.000000 0 0 1
-27.474805 25.807308 14.032125 40.221668 -0.754113 1.214431 0.125154 -0.031675 661695.000000 0 0 1
-28.035905 26.160008 15.308425 41.288084 -0.750799 1.190957 0.115180 -0.031358 475928.000000 0 0 1
-26.933775 26.217508 16.410325 41.013226 -0.771923 1.159146 0.106092 -0.034244 172946.000000 0 0 1
-26.413385 25.022308 16.908225 40.120704 -0.758360 1.135770 0.106841 -0.034823 -50457.300000 0 0 1
-25.364255 25.349708 17.803925 40.036644 -0.785111 1.109967 0.103694 -0.034101 -83197.300000 0 0 1
-24.768535 24.078208 18.396325 39.136495 -0.771267 1.081443 0.105182 -0.027419 -106449.000000 0 0 1
-23.590735 24.281308 19.166625 38.903267 -0.799823 1.055637 0.098561 -0.040969 517118.000000 0 0 1
-23.171935 22.970408 19.588325 38.056283 -0.781031 1.030115 0.099774 -0.041620 -431743.000000 0 0 1
-21.765635 22.867608 20.209425 37.484547 -0.810083 1.001380 0.095635 -0.044116 -346652.000000 0 0 1
-20.783235 23.113608 19.208025 36.539430 -0.838436 1.017283 0.085899 -0.046327 480856.000000 0 0 1
-19.429535 22.863208 19.558225 35.815601 -0.866409 0.993117 0.070087 -0.041521 561697.000000 0 0 1
-18.947435 21.393408 19.511625 34.603276 -0.845957 0.971736 0.065887 -0.021730 -346103.000000 0 0 1
-19.560335 20.511408 20.488825 34.973083 -0.809128 0.944873 0.081765 -0.016937 -135518.000000 0 0 1
-18.962635 20.577308 21.742725 35.436609 -0.826212 0.910227 0.083097 -0.019721 -432631.000000 0 0 1
-19.882435 20.404408 22.972125 36.597399 -0.798354 0.892203 0.085751 -0.009905 -502588.000000 0 0 1
-20.729335 21.500708 23.188525 37.811288 -0.803662 0.910603 0.078415 -0.017307 -103826.000000 0 0 1
-21.376035 21.271808 24.451025 38.823670 -0.782954 0.889505 0.083307 -0.014768 191515.000000 0 0 1
-22.619235 22.191208 24.586625 40.107127 -0.775847 0.910914 0.083838 -0.018752 -445161.000000 0 0 1
-22.223535 23.523708 24.678425 40.697359 -0.813811 0.919285 0.088717 -0.028539 -9478.670000 0 0 1
-23.233935 24.476408 24.889225 41.933087 -0.811434 0.935338 0.096639 -0.027517 -314926.000000 0 0 1
-24.159035 24.788708 23.712825 41.957563 -0.798262 0.970167 0.097880 -0.038575 889054.000000 0 0 1
-25.195455 23.795708 23.405425 41.819381 -0.756835 0.976798 0.082737 -0.031172 537171.000000 0 0 1
-25.805355 23.907408 22.203125 41.598789 -0.747238 1.007774 0.080252 -0.035401 -764365.000000 0 0 1
-27.016335 22.996308 22.095325 41.796123 -0.705190 1.013792 0.087653 -0.022884 -171365.000000 0 0 1
-28.213585 23.513208 22.671125 43.160830 -0.694778 1.017763 0.081041 -0.029527 -138977.000000 0 0 1
-29.213145 22.577308 22.455325 43.213242 -0.657964 1.024367 0.082035 -0.024990 -218482.000000 0 0 1
-30.668115 22.948908 22.827125 44.589946 -0.642411 1.033361 0.097190 -0.006545 -319696.000000 0 0 1
-31.267545 23.854308 21.931525 45.029759 -0.651712 1.062093 0.093151 -0.015009 438937.000000 0 0 1
-32.683655 23.942008 22.066225 46.134145 -0.632231 1.072072 0.095759 -0.014774 397696.000000 0 0 1
-33.460215 22.952808 21.218425 45.789070 -0.601250 1.088974 0.098574 -0.026842 -995662.000000 0 0 1
-33.325525 21.583608 21.708725 45.251646 -0.574728 1.070446 0.088001 -0.024099 788104.000000 0 0 1
-34.068445 20.577608 20.954025 44.979640 -0.543361 1.086195 0.083753 -0.017234 861770.000000 0 0 1
-35.622170 20.529408 20.926725 46.133756 -0.522818 1.099985 0.105625 -0.023959 213134.000000 0 0 1
-36.181375 19.639008 20.025825 45.780085 -0.497293 1.118052 0.102507 -0.009376 1441350.000000 0 0 1
36.545972 19.585608 20.190725 46.117996 0.491967 1.117640 0.130745 -0.023253 1664110.000000 0 0 1
35.864862 18.801508 19.080625 44.764442 0.482845 1.130458 0.142145 -0.028616 -244492.000000 0 0 1
36.272662 17.424008 19.036325 44.516107 0.447814 1.128929 0.141433 -0.023486 233008.000000 0 0 1
35.674702 16.693208 18.000125 43.305335 0.437663 1.142132 0.160877 -0.045089 -121014.000000 0 0 1
36.145032 15.218808 17.866225 43.096142 0.398519 1.143330 0.167563 -0.060866 -168783.000000 0 0 1
35.261322 14.423108 17.093825 41.756266 0.388271 1.149031 0.193924 -0.060190 129749.000000 0 0 1
35.820042 13.191808 16.577725 41.616345 0.352866 1.161083 0.180594 -0.059659 222197.000000 0 0 1
34.779412 12.336408 15.763525 40.128334 0.340860 1.167092 0.168587 -0.064591 287311.000000 0 0 1
34.442492 12.912708 14.484825 39.532688 0.358689 1.195658 0.161456 -0.057124 -239671.000000 0 0 1
33.624032 12.102808 13.736925 38.285201 0.345507 1.203809 0.157766 -0.049501 -682741.000000 0 0 1
33.671102 12.462508 12.237325 37.931641 0.354490 1.242305 0.167174 -0.048503 -125421.000000 0 0 1
34.919762 12.248608 11.613425 38.785175 0.337356 1.266702 0.153992 -0.037356 142561.000000 0 0 1
34.765812 12.228908 10.204525 38.240557 0.338234 1.300672 0.144585 -0.034038 39657.500000 0 0 1
36.085672 12.340308 9.395925 39.277759 0.329506 1.329237 0.107695 -0.012233 353900.000000 0 0 1
36.949992 11.212908 9.473725 39.759058 0.294630 1.330204 0.127925 -0.020343 -343517.000000 0 0 1
-35.897607 11.361908 9.134725 38.744991 -0.306533 1.332790 0.162151 -0.021657 -467635.000000 0 0 1
-35.452105 11.298608 7.681225 37.993572 -0.308524 1.367221 0.159717 -0.036762 -449867.000000 0 0 1
-35.909157 12.444808 6.954425 38.635538 -0.333610 1.389809 0.137103 -0.036118 79300.200000 0 0 1
-35.524746 12.347608 5.633725 38.029066 -0.334515 1.422106 0.160957 -0.045244 128218.000000 0 0 1
-36.527535 13.123408 4.722625 39.099716 -0.344913 1.449717 0.156356 -0.051027 -20323.400000 0 0 1
36.411232 12.432208 4.564725 38.744991 0.329028 1.452707 0.146783 -0.044305 1131150.000000 0 0 1
35.318672 13.410308 4.433625 38.038165 0.362880 1.453973 0.132098 -0.038148 1089530.000000 0 0 1
34.869212 13.999008 5.819725 38.022406 0.381775 1.417132 0.124256 -0.029497 -1246440.000000 0 0 1
34.030182 15.127008 5.726825 37.678591 0.418285 1.418213 0.103052 -0.023262 -21385.000000 0 0 1
33.780242 15.654308 7.018525 37.886961 0.433955 1.384471 0.089800 -0.024354 650058.000000 0 0 1
32.503862 15.070208 7.743525 36.654801 0.434142 1.357937 0.110853 -0.025485 349028.000000 0 0 1
32.624062 13.736608 8.192025 36.333636 0.398527 1.343374 0.135975 -0.027195 358555.000000 0 0 1
31.316172 13.240608 8.441025 35.032374 0.400009 1.327452 0.144979 -0.033977 185403.000000 0 0 1
31.076192 11.912908 7.664625 34.152505 0.366067 1.344445 0.140873 -0.026611 -201832.000000 0 0 1
30.895132 12.015608 6.263625 33.735990 0.370915 1.384047 0.113879 -0.029934 222634.000000 0 0 1
31.145052 10.821108 5.582125 33.440556 0.334394 1.403084 0.132793 -0.035622 -271613.000000 0 0 1
30.773222 10.819208 4.080725 32.873983 0.338081 1.446343 0.115177 -0.039806 350221.000000 0 0 1
29.375942 10.731308 3.814425 31.506456 0.350248 1.449431 0.095917 -0.030458 500179.000000 0 0 1
29.132592 11.159508 2.508225 31.297504 0.365818 1.490569 0.118556 -0.037517 -84389.800000 0 0 1
27.686492 10.961908 1.992125 29.844159 0.376993 1.503996 0.118497 -0.021785 91443.600000 0 0 1
27.397892 9.641608 1.661825 29.092383 0.338376 1.513643 0.107090 -0.025980 -306169.000000 0 0 1
26.036492 9.324808 1.684025 27.707163 0.343911 1.509979 0.103428 -0.021947 -368879.000000 0 0 1
25.686992 7.792808 1.682625 26.895737 0.294551 1.508194 0.108798 -0.018307 257624.000000 0 0 1
26.172692 7.092408 2.843025 27.265268 0.264630 1.466334 0.118233 -0.011834 504905.000000 0 0 1
27.543492 6.727108 2.837925 28.494767 0.239546 1.471036 0.133583 -0.019642 -2062.530000 0 0 1
28.031792 6.216008 4.214825 29.020422 0.218217 1.425044 0.134582 -0.020751 -399095.000000 0 0 1
29.348742 5.735008 4.145225 30.189764 0.192977 1.433056 0.143896 -0.028222 -53808.900000 0 0 1
29.627962 5.049408 5.335325 30.525045 0.168805 1.395109 0.126531 -0.011391 1113500.000000 0 0 1
31.126592 5.178508 5.843425 32.090922 0.164859 1.387685 0.111454 -0.022603 1184900.000000 0 0 1
31.481632 6.472608 6.297225 32.751227 0.202774 1.377317 0.129507 -0.028698 -242311.000000 0 0 1
32.878322 6.506308 6.489625 34.138414 0.195366 1.379535 0.141411 -0.023216 -63963.900000 0 0 1
33.382562 7.710308 7.255125 35.021153 0.226988 1.362121 0.125752 -0.031140 -481637.000000 0 0 1
32.833152 7.858708 8.481525 34.809646 0.234933 1.324664 0.120406 -0.033679 -512557.000000 0 0 1
33.367232 8.879708 9.230525 35.741069 0.260093 1.309575 0.128770 -0.036673 -409868.000000 0 0 1
33.040232 8.882108 10.703425 35.848460 0.262618 1.267598 0.137657 -0.038934 -6767.940000 0 0 1
31.651002 9.095608 10.916625 34.694218 0.279831 1.250706 0.130723 -0.042177 364195.000000 0 0 1
31.186772 8.854308 12.219725 34.645854 0.276633 1.210337 0.132767 -0.046697 1205050.000000 0 0 1
29.602852 9.001808 12.323325 33.305041 0.295201 1.191772 0.114751 -0.046618 1318860.000000 0 0 1
29.117382 10.338108 12.486625 33.325879 0.341166 1.186742 0.140509 -0.050773 185596.000000 0 0 1
29.239712 11.282008 11.449725 33.366760 0.368245 1.220530 0.148744 -0.054251 -698958.000000 0 0 1
28.048292 11.415908 10.499725 32.051114 0.386534 1.237041 0.114390 -0.050890 -403462.000000 0 0 1
28.215492 12.523708 9.649625 32.343045 0.417736 1.267830 0.095349 -0.025459 49826.400000 0 0 1
27.112392 12.659608 8.793625 31.187743 0.436844 1.284962 0.085316 -0.029466 -315724.000000 0 0 1
27.211892 13.772708 7.786425 31.477023 0.468538 1.320833 0.081539 -0.025738 -169000.000000 0 0 1
26.882792 14.989808 8.372425 31.897905 0.508658 1.305209 0.084132 -0.017238 251118.000000 0 0 1
27.172692 16.136608 7.609825 32.506226 0.535888 1.334500 0.090072 -0.015134 -973208.000000 0 0 1
26.765592 17.440808 8.353225 33.020525 0.577508 1.315047 0.094149 -0.023403 1608140.000000 0 0 1
25.370892 17.861708 8.297225 32.118013 0.613421 1.309497 0.101241 -0.020106 1410460.000000 0 0 1
24.399392 16.961808 8.783725 30.986886 0.607479 1.283390 0.107135 -0.016504 -122213.000000 0 0 1
23.008292 17.667508 8.941525 30.355777 0.654844 1.271804 0.108878 -0.022709 256725.000000 0 0 1
22.445592 18.055608 7.722125 29.823494 0.677428 1.308885 0.117054 -0.028256 -788571.000000 0 0 1
21.272292 18.732108 7.992825 29.449746 0.721986 1.295943 0.154549 -0.037268 -442328.000000 0 0 1
20.498992 19.249808 6.739125 28.916770 0.753982 1.335581 0.140574 -0.037707 284602.000000 0 0 1
21.191592 20.353208 6.176725 30.024800 0.765221 1.363596 0.111129 -0.023714 462433.000000 0 0 1
20.493392 20.809708 5.013725 29.633773 0.793056 1.400789 0.121310 -0.029355 284181.000000 0 0 1
19.267765 17.072008 32.442536 41.415195 0.725049 0.670761 0.043374 -0.021900 -132079.000000 0 0 1
18.414665 17.920708 31.692823 40.800572 0.771805 0.681269 0.060399 -0.027269 355088.000000 0 0 1
17.483965 17.112308 30.981013 39.475857 0.774656 0.668408 0.075661 -0.026657 589108.000000 0 0 1
16.760665 17.753008 29.716563 38.459892 0.814142 0.687770 0.083197 -0.031603 525328.000000 0 0 1
17.711765 17.959608 28.700833 38.209841 0.792346 0.721013 0.080022 -0.026397 -259877.000000 0 0 1
17.066765 18.295408 27.521963 37.194823 0.820129 0.737814 0.091217 -0.029065 15085.600000 0 0 1
17.958465 18.583008 26.255743 36.840178 0.802488 0.777466 0.088659 -0.023833 248711.000000 0 0 1
18.905665 19.609308 26.561093 38.045247 0.803665 0.797993 0.094153 -0.028768 -94856.000000 0 0 1
19.614065 19.920808 25.387873 37.763663 0.793157 0.833508 0.087092 -0.031635 -237781.000000 0 0 1
20.524165 21.136708 25.679873 39.082703 0.800100 0.853878 0.099890 -0.030384 142300.000000 0 0 1
19.755465 22.348208 25.774673 39.421499 0.846900 0.858171 0.093074 -0.032538 386210.000000 0 0 1
20.520465 23.413208 26.261363 40.729927 0.851147 0.870076 0.097432 -0.033520 -42606.000000 0 0 1
19.750465 24.763208 26.180033 41.093691 0.897537 0.880090 0.108777 -0.035183 244360.000000 0 0 1
19.728165 25.254808 24.836803 40.544699 0.907646 0.911478 0.107699 -0.035045 -96839.300000 0 0 1
18.638765 26.124108 24.679983 40.484246 0.951087 0.915216 0.102824 -0.038362 -250333.000000 0 0 1
18.617165 27.063308 23.475563 40.374788 0.968229 0.950297 0.081193 -0.037271 -343186.000000 0 0 1
19.712265 27.943208 23.389263 41.430109 0.956428 0.970911 0.097800 -0.037605 -273348.000000 0 0 1
19.587465 28.833508 22.271713 41.365072 0.974078 1.002237 0.093985 -0.029097 205387.000000 0 0 1
20.796965 29.780408 22.054513 42.494564 0.961183 1.025120 0.102447 -0.021398 46795.800000 0 0 1
21.972665 29.144308 21.586813 42.404943 0.924787 1.036700 0.099528 -0.024856 -79618.800000 0 0 1
23.036765 30.092608 21.634913 43.638596 0.917430 1.052070 0.103008 -0.030423 -90704.900000 0 0 1
23.615865 30.358108 20.260013 43.471737 0.909671 1.085975 0.101270 -0.032392 139176.000000 0 0 1
22.787965 31.135008 19.337813 43.158210 0.938975 1.106193 0.084187 -0.027663 377751.000000 0 0 1
23.099065 30.874508 17.999313 42.553229 0.928474 1.134061 0.077348 -0.010094 -205646.000000 0 0 1
22.599765 31.989108 17.088213 42.732417 0.955733 1.159401 0.070934 -0.019246 -348789.000000 0 0 1
23.194665 33.269908 17.262513 44.078040 0.961975 1.168388 0.079184 -0.020704 69014.100000 0 0 1
23.119265 34.030308 16.102813 44.179892 0.974049 1.197719 0.072678 -0.016986 847599.000000 0 0 1
24.282565 33.670808 15.053113 44.158380 0.945999 1.222934 0.062126 -0.021420 610845.000000 0 0 1
24.025365 32.569508 14.141513 42.871592 0.935237 1.234644 0.077325 -0.027560 -304675.000000 0 0 1
23.003765 32.747408 13.208013 42.142823 0.958421 1.252014 0.047531 -0.024025 -381634.000000 0 0 1
22.703265 31.530208 12.302413 40.754652 0.946742 1.264148 0.055389 -0.033351 -160174.000000 0 0 1
23.757265 31.122708 11.457313 40.795841 0.918811 1.286122 0.070917 -0.048423 -162159.000000 0 0 1
23.311565 30.102708 10.641013 39.532686 0.911861 1.298265 0.072738 -0.046764 326178.000000 0 0 1
24.595965 29.416608 10.053013 39.640401 0.874413 1.314391 0.071921 -0.044824 1143710.000000 0 0 1
25.505265 28.719108 10.903013 39.927202 0.844598 1.294211 0.071656 -0.039621 528799.000000 0 0 1
26.311465 29.609008 11.685513 41.298157 0.844298 1.283923 0.070143 -0.042789 -892220.000000 0 0 1
27.770965 29.185408 11.889213 42.004380 0.810227 1.283827 0.075137 -0.034910 -21101.500000 0 0 1
27.814765 28.132108 12.884213 41.606245 0.791070 1.255950 0.084289 -0.030572 -333526.000000 0 0 1
29.158965 27.978508 13.247213 42.526825 0.764741 1.254023 0.081016 -0.023437 -157030.000000 0 0 1
29.226465 26.960508 14.369313 42.279220 0.745091 1.224021 0.064514 -0.018773 53665.100000 0 0 1
30.409165 27.071708 15.133413 43.435180 0.727401 1.214918 0.051485 -0.030549 -120286.000000 0 0 1
30.603065 26.025108 16.039713 43.256517 0.704731 1.190921 0.051478 -0.026340 309125.000000 0 0 1
31.915765 26.245808 16.856013 44.627163 0.688219 1.183477 0.063681 -0.030609 887147.000000 0 0 1
33.075565 26.136708 16.029513 45.100619 0.668744 1.207437 0.076989 -0.019914 -371736.000000 0 0 1
34.254365 25.908208 16.717213 46.087547 0.647551 1.199603 0.068649 -0.028312 -470603.000000 0 0 1
35.546365 26.328408 16.009113 47.042756 0.637508 1.223550 0.096096 -0.029937 -181400.000000 0 0 1
35.606465 27.715308 15.763613 47.795922 0.661417 1.234693 0.102980 -0.038800 -76566.500000 0 0 1
36.961465 28.063808 15.551013 48.944471 0.649409 1.247464 0.132944 -0.039821 414496.000000 0 0 1
37.077965 29.136008 14.469913 49.326067 0.666025 1.273065 0.112007 -0.044763 -7594.700000 0 0 1
36.583965 30.335508 14.928913 49.814677 0.692295 1.266430 0.116366 -0.044388 -286967.000000 0 0 1
36.704765 31.336508 13.946713 50.236713 0.706664 1.289481 0.101766 -0.024300 125340.000000 0 0 1
35.720865 32.477508 14.282513 50.346389 0.737876 1.283162 0.095546 -0.030935 -876282.000000 0 0 1
35.705465 33.544908 13.392413 50.788757 0.754209 1.303952 0.071222 -0.033130 240051.000000 0 0 1
34.615365 -33.673595 13.524813 50.150325 -0.771608 1.297730 0.071384 -0.027099 837419.000000 0 0 1
33.168965 33.936008 13.161413 49.244855 0.796828 1.300243 0.083269 -0.026117 265361.000000 0 0 1
32.642665 32.858508 13.913913 48.361370 0.788693 1.278964 0.075553 -0.038957 632189.000000 0 0 1
31.435365 32.396008 13.254213 47.046336 0.800447 1.285203 0.077755 -0.031536 870025.000000 0 0 1
30.615465 31.287908 13.965113 45.948496 0.796261 1.261982 0.070412 -0.039249 -104784.000000 0 0 1
30.049565 31.776908 15.167513 46.290406 0.813329 1.236971 0.064855 -0.032907 -42863.400000 0 0 1
29.760165 30.661108 15.978713 45.618968 0.800308 1.212943 0.055332 -0.032677 11555.000000 0 0 1
28.844565 31.079308 17.169913 45.746456 0.822674 1.186046 0.054329 -0.026163 137950.000000 0 0 1
28.609665 30.018008 18.140813 45.262378 0.809415 1.158415 0.041389 -0.019721 230981.000000 0 0 1
29.260165 30.389408 19.388913 46.428476 0.804327 1.139985 0.029779 -0.019337 357204.000000 0 0 1
29.132065 29.293508 20.429213 46.088389 0.788161 1.111562 0.034557 -0.016300 1207400.000000 0 0 1
27.803665 29.185808 21.001713 45.452471 0.809646 1.090481 0.050103 -0.025113 968585.000000 0 0 1
27.860665 28.363208 22.161113 45.517065 0.794336 1.062288 0.039027 -0.019031 299983.000000 0 0 1
26.520265 28.078608 22.885313 44.893989 0.813932 1.035887 0.054570 -0.016138 -238799.000000 0 0 1
25.542565 27.393608 22.170313 43.524191 0.820351 1.036333 0.084848 -0.025504 150012.000000 0 0 1
24.337565 27.036008 22.844713 42.955136 0.837876 1.010040 0.106395 -0.036998 448809.000000 0 0 1
24.549565 25.865508 23.898113 42.928143 0.811494 0.980388 0.084211 -0.033088 -774644.000000 0 0 1
25.387065 26.154608 24.984853 44.190604 0.800289 0.969892 0.066068 -0.028197 -184263.000000 0 0 1
25.292465 25.185108 25.987413 44.151377 0.783271 0.941473 0.084665 -0.027433 -2491.600000 0 0 1
26.465865 25.189708 27.011183 45.437511 0.760698 0.934191 0.071277 -0.022067 255478.000000 0 0 1
26.789765 26.280908 27.869903 46.745151 0.775810 0.932025 0.083908 -0.020917 255975.000000 0 0 1
27.606765 27.236608 27.201033 47.369426 0.778649 0.959131 0.052807 -0.006793 -603302.000000 0 0 1
28.062365 28.462508 28.000723 48.802164 0.792477 0.959707 0.026325 -0.000116 -579130.000000 0 0 1
29.073965 28.265908 28.951043 49.823889 0.771307 0.950757 0.018016 0.010292 -379814.000000 0 0 1
29.352165 29.470508 29.561193 51.028664 0.787410 0.952920 0.019794 0.001384 394717.000000 0 0 1
30.882065 29.629208 29.826643 52.165319 0.764697 0.962133 -0.000986 0.012177 465018.000000 0 0 1
31.442965 29.934008 28.554723 51.962266 0.760818 0.988997 -0.011526 0.005162 -1078170.000000 0 0 1
32.811765 30.149908 28.688153 52.996594 0.743146 0.998789 0.001008 0.000966 -648362.000000 0 0 1
33.362565 30.626308 27.311353 52.886118 0.742663 1.028133 -0.011081 0.007161 -463892.000000 0 0 1
33.051565 31.950508 27.018153 53.321867 0.768461 1.039444 -0.010488 0.003795 141858.000000 0 0 1
33.597565 32.368408 25.775273 53.299859 0.766767 1.066045 0.003138 -0.007282 -75556.100000 0 0 1
33.408365 33.882708 25.523573 53.996385 0.792447 1.078455 -0.001117 -0.011895 -129198.000000 0 0 1
34.185365 -33.347395 26.344043 54.540778 -0.772990 1.066701 0.013276 -0.016504 269753.000000 0 0 1
33.753465 -32.019295 26.208653 53.398737 -0.759038 1.057777 0.016195 -0.016281 82078.400000 0 0 1
34.818565 -31.072995 26.822733 53.826782 -0.728615 1.049141 0.021312 -0.014366 284494.000000 0 0 1
34.681765 -31.139795 28.222403 54.488675 -0.731638 1.026344 0.020547 -0.018131 371973.000000 0 0 1
35.774365 -30.479795 28.818423 55.130070 -0.705655 1.020740 0.026651 -0.024108 -249472.000000 0 0 1
35.488765 -30.029995 30.303493 55.493736 -0.702274 0.993130 0.029279 -0.020964 -538999.000000 0 0 1
35.331965 -30.976295 31.341373 56.481504 -0.719804 0.982558 0.028309 -0.017037 537875.000000 0 0 1
34.168565 -31.796695 31.242643 56.166034 -0.749457 0.980924 0.027092 -0.019261 -121667.000000 0 0 1
34.101965 -32.894595 32.274671 57.329336 -0.767379 0.972822 0.033568 -0.013610 -266902.000000 0 0 1
33.768265 -32.319095 33.532580 57.526112 -0.763474 0.948490 0.032467 -0.016097 144066.000000 0 0 1
34.107065 -32.950895 -33.164195 57.869830 -0.768159 2.181059 0.039610 -0.011876 -206070.000000 0 0 1
33.455765 33.778608 -32.914235 57.824125 0.790200 2.176344 0.037511 -0.009537 -7648.540000 0 0 1
33.911965 32.761708 -33.752965 57.988047 0.768148 2.192065 0.040028 -0.006792 245736.000000 0 0 1
33.139465 31.602108 -33.466405 56.717878 0.761657 2.201918 0.037529 -0.000824 367640.000000 0 0 1
33.469065 30.491808 33.430290 56.280662 0.738884 0.934784 0.027160 0.012479 -161832.000000 0 0 1
34.748565 29.943708 33.430382 56.759835 0.711262 0.941001 0.023697 0.001457 -468923.000000 0 0 1
34.754265 28.945108 32.362585 55.614882 0.694453 0.949727 0.022596 0.008907 394313.000000 0 0 1
36.031365 28.042208 32.374270 55.970689 0.661351 0.954012 0.023046 0.008387 458784.000000 0 0 1
36.098765 27.000908 33.302872 56.046866 0.642203 0.934530 0.031729 0.010143 33174.600000 0 0 1
-36.830961 26.350508 33.239331 56.175814 -0.621016 0.937628 0.020347 -0.001155 203657.000000 0 0 1
-36.818161 24.978408 -33.916325 55.944749 -0.596100 2.222129 0.022225 0.001739 288202.000000 0 0 1
36.655465 23.996408 33.238473 54.993152 0.579635 0.921770 0.015457 0.006977 305689.000000 0 0 1
36.419965 22.851308 -33.942755 54.778707 0.560351 2.239073 0.025873 -0.020803 -212667.000000 0 0 1
36.053365 21.665208 33.048729 53.492475 0.541096 0.904829 0.026271 -0.027573 566607.000000 0 0 1
-36.983061 21.158608 32.340709 53.491634 -0.519664 0.921541 0.039824 -0.028236 749276.000000 0 0 1
36.799765 20.316308 31.269613 52.390493 0.504437 0.931219 0.049247 -0.018808 -162590.000000 0 0 1
-36.141961 19.811008 30.537113 51.295542 -0.501417 0.933136 0.061738 -0.031606 -342791.000000 0 0 1
-35.586161 20.733408 29.636143 50.740024 -0.527546 0.947052 0.049089 -0.029794 -25263.500000 0 0 1
-34.478761 20.204408 28.911413 49.324161 -0.530059 0.944496 0.068060 -0.027524 167754.000000 0 0 1
-34.769961 19.168308 27.799523 48.468420 -0.503833 0.959952 0.084690 -0.025702 -302816.000000 0 0 1
-35.338961 17.968608 28.318423 48.720079 -0.470396 0.950535 0.070515 -0.019315 70487.700000 0 0 1
-35.855461 17.143108 27.306453 48.219733 -0.445989 0.968796 0.088169 -0.023755 -443172.000000 0 0 1
-36.634461 16.031808 27.927133 48.775274 -0.412507 0.961162 0.096712 -0.024365 -528008.000000 0 0 1
-35.765861 15.134808 28.581063 48.219668 -0.400314 0.936357 0.083862 -0.016271 -159896.000000 0 0 1
-36.466961 14.212608 29.361973 48.928140 -0.371630 0.927165 0.074331 -0.019562 -157395.000000 0 0 1
-35.644761 12.949008 29.689713 48.163314 -0.348456 0.906585 0.066793 -0.010985 71539.200000 0 0 1
-34.351661 13.241708 30.172943 47.600272 -0.367923 0.884235 0.070244 -0.006900 67650.000000 0 0 1
-33.729361 12.102408 30.684433 47.177033 -0.344501 0.862672 0.074995 0.000865 978071.000000 0 0 1
-32.154661 12.069908 30.807063 46.137620 -0.359095 0.839653 0.081978 0.001765 752960.000000 0 0 1
-31.449661 12.130708 29.533573 44.815925 -0.368134 0.851312 0.073283 0.002558 1320910.000000 0 0 1
-30.051961 12.439908 29.653653 44.013757 -0.392471 0.831543 0.081325 -0.004685 1091540.000000 0 0 1
-29.099361 11.306508 30.118293 43.378814 -0.370595 0.803337 0.093558 -0.002780 -397265.000000 0 0 1
-29.027961 10.180908 29.252983 42.450093 -0.337323 0.810530 0.088646 -0.006696 107930.000000 0 0 1
-28.055261 9.253308 29.704083 41.893364 -0.318589 0.782660 0.077517 -0.008825 -457795.000000 0 0 1
-27.706161 8.068208 28.733563 40.722782 -0.283370 0.787542 0.083903 -0.013747 263617.000000 0 0 1
-28.632161 6.996808 28.484393 40.989225 -0.239672 0.802482 0.089971 -0.015725 245122.000000 0 0 1
-29.851161 7.418408 27.885363 41.517684 -0.243579 0.834362 0.094656 -0.016195 -582055.000000 0 0 1
-30.814961 6.261708 27.877963 42.023227 -0.200474 0.845451 0.100545 -0.018595 -978033.000000 0 0 1
-31.092461 5.800308 29.171653 43.027550 -0.184430 0.825790 0.094790 -0.018743 -59912.300000 0 0 1
-31.592961 4.480408 29.004133 43.121096 -0.140877 0.833052 0.102188 -0.022264 -191003.000000 0 0 1
-32.214961 4.012108 30.350513 44.441584 -0.123904 0.819029 0.081375 -0.010830 -202988.000000 0 0 1
-33.450061 4.625008 30.593033 45.565677 -0.137395 0.834693 0.078858 -0.011943 -566029.000000 0 0 1
-33.892361 4.526508 31.914626 46.773120 -0.132770 0.819853 0.083504 -0.014028 -683852.000000 0 0 1
-35.346761 4.883908 32.118125 48.008541 -0.137302 0.837922 0.083592 -0.009646 -802358.000000 0 0 1
-35.609161 6.240108 32.135390 48.369769 -0.173477 0.844147 0.081710 -0.001614 -1329410.000000 0 0 1
-36.959861 6.404808 32.319444 49.513628 -0.171587 0.859603 0.064614 0.004206 -1141100.000000 0 0 1
36.805865 7.858508 32.509282 49.732095 0.210354 0.858348 0.061558 -0.005204 -119971.000000 0 0 1
37.054265 8.444208 33.815674 50.870650 0.224061 0.843653 0.071855 -0.006732 197106.000000 0 0 1
36.641765 9.834008 33.876117 50.861753 0.262204 0.841905 0.071012 -0.007411 15873.100000 0 0 1
36.495365 10.266408 -32.580045 49.987700 0.274220 2.280701 0.070965 -0.010598 170601.000000 0 0 1
35.394765 9.617508 -31.953765 48.644927 0.265315 2.287466 0.063522 0.002209 343278.000000 0 0 1
35.436565 9.882808 -30.543775 47.815711 0.271977 2.263709 0.056915 0.009033 -60098.000000 0 0 1
34.252265 9.191808 -29.845635 46.351580 0.262179 2.270377 0.047854 0.013054 -38352.800000 0 0 1
34.390665 7.780508 -29.680195 46.088698 0.222493 2.270485 0.045075 0.005422 276808.000000 0 0 1
33.213265 7.214708 -29.119575 44.756258 0.213901 2.279204 0.051788 0.003417 88609.800000 0 0 1
35.522062 6.067108 -19.982875 41.206091 0.169166 2.077102 0.042269 -0.004831 -809550.000000 0 0 1
35.129172 6.732108 -18.831275 40.422728 0.189343 2.055401 0.030059 -0.008355 590004.000000 0 0 1
35.895272 7.918508 -18.595775 41.194370 0.217123 2.039147 0.028860 -0.003050 850917.000000 0 0 1
-36.763775 7.845108 -18.183375 41.758304 -0.210239 2.021327 0.044601 -0.016861 760994.000000 0 0 1
-35.769223 7.388708 -19.047475 41.192676 -0.203701 2.051496 0.060140 -0.026202 -43947.900000 0 0 1
-35.464246 8.252408 -20.079175 41.581104 -0.228628 2.074750 0.050387 -0.015165 -304997.000000 0 0 1
-34.401874 7.698908 -21.086275 41.077890 -0.220166 2.109850 0.046676 -0.007473 29228.700000 0 0 1
-34.827816 6.576408 -21.808375 41.615275 -0.186629 2.122393 0.044689 -0.009029 -34943.000000 0 0 1
-35.659360 6.963808 -22.861575 42.927103 -0.192860 2.132427 0.034304 -0.003816 -232399.000000 0 0 1
-35.653135 5.813208 -23.917875 43.324406 -0.161627 2.155635 0.060865 -0.004377 -172151.000000 0 0 1
-34.472971 5.636408 -24.656875 42.756476 -0.162068 2.185457 0.070868 -0.005015 -279769.000000 0 0 1
-34.254439 4.284508 -25.113065 42.689455 -0.124433 2.199718 0.081291 -0.002938 72765.200000 0 0 1
-32.951955 4.009908 -25.893375 42.099614 -0.121094 2.233246 0.091924 -0.004072 247673.000000 0 0 1
-31.723435 4.274108 -25.250275 40.770341 -0.133924 2.238685 0.084856 -0.008469 -829195.000000 0 0 1
-30.685405 3.797408 -26.024805 40.414166 -0.123127 2.270450 0.083179 -0.008224 -468243.000000 0 0 1
-29.326455 3.916008 -25.289655 38.922265 -0.132746 2.278049 0.066690 -0.014471 -162257.000000 0 0 1
-28.955785 5.265708 -25.174695 38.728935 -0.179888 2.278411 0.048414 0.002299 887531.000000 0 0 1
-27.723545 5.482908 -24.439675 37.362480 -0.195251 2.283820 0.055046 -0.010339 870346.000000 0 0 1
-27.247435 6.931708 -24.506075 37.296367 -0.249114 2.287713 0.049954 -0.008521 9930.540000 0 0 1
-28.080215 7.855808 -23.802575 37.640068 -0.272789 2.255409 0.053014 -0.007980 -1445.090000 0 0 1
-28.063715 9.182608 -24.339575 38.266268 -0.316226 2.260175 0.033063 -0.011542 741797.000000 0 0 1
-26.759495 10.046108 -24.078075 37.373099 -0.359141 2.270855 0.074688 -0.017403 903908.000000 0 0 1
-26.654175 10.398408 -22.692675 36.517522 -0.371963 2.241349 0.049771 -0.018786 -178155.000000 0 0 1
-25.341455 10.708308 -22.314475 35.423057 -0.399803 2.252275 0.095483 -0.023027 -415465.000000 0 0 1
-25.315125 11.043408 -20.771575 34.558222 -0.411350 2.215623 0.103566 -0.039276 -929626.000000 0 0 1
-25.558145 12.401508 -20.507475 35.036733 -0.451760 2.196063 0.077702 -0.039079 854467.000000 0 0 1
-26.912945 12.783208 -20.280975 36.042127 -0.443435 2.168447 0.076072 -0.026683 480139.000000 0 0 1
-27.874025 12.036008 -19.315275 35.984810 -0.407616 2.137391 0.063717 -0.022286 -514480.000000 0 0 1
-27.411795 12.139208 -17.986475 34.961123 -0.416889 2.111187 0.067950 -0.030426 816256.000000 0 0 1
-28.332135 11.457608 -17.108675 35.024183 -0.384297 2.081145 0.066895 -0.028996 -131962.000000 0 0 1
-27.684505 11.058808 -15.763875 33.722823 -0.380039 2.057205 0.093052 -0.029583 -65536.400000 0 0 1
-26.891565 9.909808 -15.666675 32.661985 -0.353069 2.071064 0.116685 -0.032300 779677.000000 0 0 1
-25.576445 10.116808 -16.197075 31.919423 -0.376666 2.103003 0.104994 -0.025733 -280011.000000 0 0 1
-24.852635 8.745608 -16.282175 30.971734 -0.338365 2.124347 0.104676 -0.024342 382526.000000 0 0 1
-23.442335 8.913508 -16.067475 29.785188 -0.363349 2.140574 0.112491 -0.026886 895491.000000 0 0 1
-22.798335 7.664208 -15.873075 28.817679 -0.324305 2.154131 0.103596 -0.024756 1460510.000000 0 0 1
-21.247735 7.826508 -15.561575 27.475135 -0.352924 2.172912 0.142954 -0.034539 1250730.000000 0 0 1
-20.432335 8.429408 -16.526875 27.598420 -0.391280 2.212841 0.149161 -0.043981 -433076.000000 0 0 1
-19.093435 8.469808 -16.134275 26.393403 -0.417517 2.228498 0.166698 -0.038318 -294543.000000 0 0 1
-18.236435 9.170808 -17.274875 26.741215 -0.465952 2.273131 0.120987 -0.040309 133553.000000 0 0 1
-17.933635 8.345308 -18.390275 27.008547 -0.435540 2.319795 0.152733 -0.050385 280357.000000 0 0 1
-16.848535 7.446108 -18.301275 25.966407 -0.416134 2.352946 0.150477 -0.046729 -747942.000000 0 0 1
-16.457635 6.738008 -19.636675 26.492517 -0.388597 2.405676 0.134109 -0.040426 -502377.000000 0 0 1
-17.348535 5.910008 -20.286875 27.339662 -0.328333 2.406891 0.125895 -0.038663 -500193.000000 0 0 1
-18.428735 6.569008 -20.900175 28.628437 -0.342413 2.389191 0.125846 -0.047006 -330450.000000 0 0 1
-19.469535 5.720508 -21.650675 29.673872 -0.285776 2.388564 0.115872 -0.030721 300161.000000 0 0 1
-20.335235 4.950708 -20.790975 29.500778 -0.238809 2.352881 0.129879 -0.040483 952264.000000 0 0 1
-21.005035 3.849408 -21.468575 30.280837 -0.181250 2.358850 0.099368 -0.017509 316473.000000 0 0 1
-22.114535 3.172108 -20.589975 30.381935 -0.142468 2.315433 0.105289 -0.028716 52893.000000 0 0 1
-22.659435 2.014008 -21.152375 31.063309 -0.088649 2.319847 0.114987 -0.019080 783108.000000 0 0 1
-23.693435 1.496208 -20.291575 31.230842 -0.063065 2.278024 0.115198 -0.026050 -8889.790000 0 0 1
-24.142535 0.094608 -20.630175 31.756496 -0.003919 2.277902 0.116544 -0.016866 -326823.000000 0 0 1
-23.129235 -0.851192 -20.413975 30.861244 0.036785 2.293582 0.118233 -0.028748 6123.800000 0 0 1
-23.474135 -2.190592 -20.811475 31.447594 0.093050 2.293991 0.127566 -0.028495 -446840.000000 0 0 1
-23.692235 -2.442692 -22.294575 32.624175 0.102738 2.323173 0.120181 -0.029624 36791.900000 0 0 1
-22.591635 -2.329692 -23.175175 32.448392 0.102759 2.366300 0.095102 -0.025344 153053.000000 0 0 1
-21.749735 -3.477592 -23.227575 32.010386 0.158549 2.382740 0.085929 -0.030869 684928.000000 0 0 1
-20.832735 -3.488792 -24.501675 32.349754 0.165927 2.430117 0.085071 -0.029945 606031.000000 0 0 1
-21.685535 -3.758692 -25.592555 33.754541 0.171622 2.431338 0.083402 -0.027510 963871.000000 0 0 1
-20.888635 -3.883892 -26.814805 34.211890 0.183834 2.471535 0.075890 -0.027728 235845.000000 0 0 1
-21.683935 -4.152192 -28.096585 35.733063 0.189197 2.475579 0.081917 -0.034270 -577143.000000 0 0 1
-22.617935 -5.177892 -28.042145 36.397025 0.225051 2.450346 0.097779 -0.035771 -197867.000000 0 0 1
-23.210735 -5.374492 -29.296715 37.761367 0.227542 2.458839 0.058973 -0.027964 -376481.000000 0 0 1
-22.736135 -6.627592 -30.088685 38.290805 0.283641 2.474775 0.065916 -0.031043 225389.000000 0 0 1
-21.470735 -6.377092 -30.703375 38.004696 0.288714 2.511349 0.062636 -0.035692 586900.000000 0 0 1
-20.844435 -7.581792 -31.161365 38.249244 0.348856 2.522995 0.075831 -0.037467 6045.020000 0 0 1
-19.417135 -7.477792 -31.743175 37.954863 0.367607 2.561369 0.090763 -0.036674 -249274.000000 0 0 1
-19.291235 -6.930592 -33.060715 38.899816 0.344901 2.586580 0.081188 -0.038557 524158.000000 0 0 1
-19.803335 -7.843392 33.874215 40.014413 0.377109 0.561325 0.086482 -0.037093 -546599.000000 0 0 1
-19.694035 -7.257392 32.444956 38.641944 0.353066 0.574194 0.080986 -0.028323 966578.000000 0 0 1
-18.339835 -7.103792 31.947960 37.516470 0.369547 0.551820 0.085208 -0.027856 1161550.000000 0 0 1
-17.737635 -5.910392 32.347905 37.362325 0.321641 0.524071 0.073084 -0.032880 -1134600.000000 0 0 1
-16.412635 -5.563592 31.728193 36.152542 0.326826 0.499922 0.073333 -0.032168 -779312.000000 0 0 1
-16.544535 -5.361392 30.321953 34.955500 0.313380 0.520754 0.071321 -0.033543 -155245.000000 0 0 1
-15.411535 -4.829692 29.703003 33.809905 0.303688 0.498021 0.060677 -0.024812 -331723.000000 0 0 1
-15.600535 -4.860192 28.145253 32.544637 0.302010 0.526005 0.057840 -0.019089 556617.000000 0 0 1
-16.541335 -3.897992 27.609173 32.420310 0.231429 0.551764 0.057553 -0.023756 428500.000000 0 0 1
-16.770635 -4.028692 26.231463 31.393856 0.235756 0.581644 0.059120 -0.021626 -191914.000000 0 0 1
-15.598635 -3.604892 25.327943 29.963600 0.227116 0.563688 0.056014 -0.015924 -560.883000 0 0 1
-15.410335 -2.245892 25.500983 29.880136 0.144720 0.548241 0.045658 -0.011769 -327623.000000 0 0 1
-14.376035 -1.864192 24.640413 28.588381 0.128954 0.531786 0.044118 -0.007247 -352015.000000 0 0 1
-14.361135 -0.295992 24.443313 28.351461 0.020608 0.531291 0.037949 -0.006475 176167.000000 0 0 1
-15.394635 0.201608 23.588903 28.168630 -0.013095 0.578255 0.033527 -0.009265 333554.000000 0 0 1
-15.682035 1.515608 24.054103 28.754532 -0.096347 0.579872 0.017842 -0.003998 -282793.000000 0 0 1
-16.419235 2.445308 23.067093 28.419387 -0.147843 0.623795 0.022922 -0.007901 -653164.000000 0 0 1
-15.597535 2.909508 22.052613 27.167371 -0.184417 0.623685 0.027274 -0.002775 -180575.000000 0 0 1
-16.160735 3.943508 21.287213 27.016033 -0.239341 0.663328 0.032436 -0.007355 -1224460.000000 0 0 1
-15.217135 4.569708 20.364913 25.829694 -0.291732 0.662543 0.049444 -0.002888 -791535.000000 0 0 1
-14.290335 5.404308 21.031913 25.995414 -0.361555 0.628241 0.038785 -0.003879 358348.000000 0 0 1
-13.348235 5.940908 20.112913 24.859586 -0.418747 0.628244 0.040802 0.006035 795734.000000 0 1 0
-12.290635 7.009908 20.598213 24.989695 -0.518329 0.601888 0.036530 0.007991 616046.000000 0 1 0
-12.681135 8.298508 20.310013 25.341133 -0.579461 0.641057 0.043480 0.003061 82820.900000 0 0 1
-11.667335 9.197708 20.664213 25.450623 -0.667584 0.623340 0.040429 0.006793 -110358.000000 0 0 1
-12.194135 10.654908 20.724313 26.300592 -0.718135 0.663277 0.030174 0.011196 -169523.000000 0 0 1
-12.469635 11.221408 19.466613 25.697486 -0.732759 0.711276 0.031359 0.008538 292840.000000 0 0 1
-12.955335 12.540408 19.542013 26.589336 -0.769125 0.745193 0.010294 0.010975 -466657.000000 0 0 1
-13.456735 13.201208 18.250413 26.238010 -0.775813 0.801581 0.024993 0.009603 -258218.000000 0 0 1
-12.511935 13.755508 17.347013 25.429930 -0.832706 0.820098 0.024010 0.008026 21282.200000 0 0 1
-12.345335 15.162708 17.582613 26.295689 -0.887462 0.838405 0.038897 -0.005596 -378690.000000 0 0 1
-13.488635 16.117608 17.153913 27.128901 -0.873964 0.886263 0.043734 -0.007707 22677.200000 0 0 1
-13.571635 16.478108 15.779513 26.546381 -0.881820 0.934261 0.035736 -0.024981 -115025.000000 0 0 1
-14.027635 15.500908 14.872713 25.656388 -0.835250 0.952450 0.062160 -0.019353 -310187.000000 0 0 1
-14.632635 16.139308 13.597113 25.680201 -0.834322 1.012811 0.052610 -0.030234 -258263.000000 0 0 1
-15.725535 16.976808 13.775113 26.930618 -0.823642 1.033862 0.044043 -0.024886 -172226.000000 0 0 1
-16.280835 17.515408 12.538213 27.001146 -0.821912 1.087886 0.054484 -0.023289 247814.000000 0 0 1
-17.490435 18.476508 12.745013 28.455790 -0.812807 1.106394 0.049160 -0.022178 185810.000000 0 0 1
-18.648035 17.702108 13.036213 28.828053 -0.759381 1.101559 0.057605 -0.021707 -178595.000000 0 0 1
-19.763135 18.540108 13.238613 30.159210 -0.753479 1.116358 0.054737 -0.023670 184805.000000 0 0 1
-21.074535 17.745408 13.470213 30.667281 -0.699849 1.116047 0.075654 -0.014084 392868.000000 0 0 1
-21.539435 17.083508 12.287513 30.112729 -0.670536 1.150479 0.081455 -0.014707 818160.000000 0 0 1
-22.893335 16.607308 12.405313 30.883640 -0.627584 1.157447 0.094869 -0.016266 991898.000000 0 0 1
-23.495035 15.773908 11.254113 30.454686 -0.591253 1.192286 0.108594 -0.014517 262549.000000 0 0 1
-22.735635 14.606008 10.976313 29.167173 -0.571034 1.184971 0.084486 -0.017674 280730.000000 0 0 1
-23.332135 14.022908 9.840613 28.945952 -0.541164 1.223917 0.092359 -0.011777 -24706.200000 0 0 1
-22.617435 12.782008 9.294613 27.591990 -0.514392 1.227217 0.110209 -0.018559 -675263.000000 0 0 1
-22.650535 11.528908 10.063213 27.335521 -0.470814 1.193792 0.105510 -0.023015 530838.000000 0 0 1
-23.912735 10.943508 10.407613 28.282462 -0.429192 1.193952 0.135436 -0.013209 657394.000000 0 0 1
-24.816835 10.386108 9.258413 28.451094 -0.396361 1.239346 0.148375 -0.007228 67886.100000 0 0 1
-25.258445 11.489308 8.426413 28.999960 -0.426896 1.275978 0.152878 -0.016410 348828.000000 0 0 1
-26.487225 11.157708 7.789113 29.778143 -0.398689 1.306146 0.178614 -0.019459 83572.200000 0 0 1
-26.948585 12.277008 6.830513 30.390904 -0.427478 1.344105 0.151679 -0.002707 -520622.000000 0 0 1
-26.313265 12.311308 5.550613 29.576435 -0.437619 1.382007 0.141954 -0.020544 981327.000000 0 0 1
-25.028735 12.931408 5.415113 28.687668 -0.476889 1.380896 0.136999 -0.021528 191545.000000 0 0 1
-24.995035 14.416908 5.914113 29.454638 -0.523179 1.368635 0.132169 -0.018314 -255565.000000 0 0 1
-23.647535 14.850108 6.115113 28.585419 -0.560737 1.355206 0.121634 -0.021552 926399.000000 0 0 1
-23.655635 16.183308 6.586913 29.408773 -0.599989 1.344902 0.107576 -0.017196 -842560.000000 0 0 1
-22.307235 16.863208 6.715713 28.759021 -0.647300 1.335103 0.111367 -0.020159 -802871.000000 0 0 1
-21.777835 17.188208 5.464013 28.276563 -0.668153 1.376338 0.119842 -0.039754 -861881.000000 0 0 1
-20.471335 17.563808 5.648613 27.558478 -0.709103 1.364365 0.147246 -0.039042 -1316840.000000 0 0 1
-19.929435 18.466408 4.511313 27.541651 -0.747313 1.406255 0.130535 -0.026700 -364752.000000 0 0 1
-18.533735 18.622908 4.590513 26.671798 -0.787798 1.397824 0.114614 -0.030639 480446.000000 0 0 1
-17.909435 19.648908 3.744413 26.848614 -0.831679 1.430876 0.106782 -0.034670 393351.000000 0 0 1
-18.165035 21.147508 4.073013 28.174013 -0.861119 1.425722 0.084932 -0.029411 -327542.000000 0 0 1
-17.445235 21.543708 5.216913 28.207867 -0.890132 1.384780 0.094119 -0.026373 187818.000000 0 0 1
-17.416435 22.955108 5.511313 29.336730 -0.921740 1.381809 0.061077 -0.019364 -151348.000000 0 0 1
-16.539835 23.280408 6.766913 29.348503 -0.953084 1.338132 0.041495 -0.000857 -78444.300000 0 0 1
-17.068535 22.933008 7.988713 29.682946 -0.930967 1.298302 0.045515 -0.015880 92919.700000 0 0 1
-16.121035 23.254808 8.971613 29.684402 -0.964625 1.263762 0.040515 -0.018910 -31856.800000 0 0 1
-16.468335 22.544008 10.276513 29.749707 -0.939894 1.218097 0.027386 -0.018139 179845.000000 0 0 1
-17.536635 23.231008 10.918513 31.087412 -0.924179 1.211923 0.034488 -0.021297 215086.000000 0 0 1
-18.537035 22.281908 11.307013 31.111953 -0.876886 1.198849 0.038745 -0.024235 97483.800000 0 0 1
-19.789635 22.955308 11.948613 32.578293 -0.859323 1.195266 0.054452 -0.029410 -394884.000000 0 0 1
-20.628635 23.458408 10.940213 33.098727 -0.849496 1.233928 0.073420 -0.023771 -173474.000000 0 0 1
-20.281635 24.763708 10.502313 33.688047 -0.884573 1.253760 0.036522 -0.024345 -833914.000000 0 0 1
-21.481635 25.539708 9.966213 34.829050 -0.871488 1.280594 0.065926 -0.024153 -161821.000000 0 0 1
-22.426935 25.814208 10.994113 35.919511 -0.855499 1.259727 0.094412 -0.037936 156178.000000 0 0 1
-23.446435 26.633408 10.431713 36.985056 -0.848950 1.284864 0.097632 -0.026825 -305905.000000 0 0 1
-24.326935 27.299608 11.418113 38.307201 -0.842915 1.268129 0.102409 -0.039516 -445764.000000 0 0 1
-23.554935 28.324808 12.063813 38.764227 -0.877081 1.254330 0.102571 -0.033387 499300.000000 0 0 1
-24.279835 29.145808 12.926013 40.075807 -0.876227 1.242386 0.100584 -0.032186 -413664.000000 0 0 1
9.092465 -32.058395 27.433843 43.162823 -1.294432 0.882024 0.049976 -0.037067 -12654.900000 0 0 1
10.502665 -32.224395 27.373543 43.566368 -1.255730 0.891407 0.046212 -0.032087 624696.000000 0 0 1
10.956465 -32.233795 26.025343 42.853006 -1.243142 0.918118 0.047494 -0.027855 -271841.000000 0 0 1
12.483165 -32.450895 25.952783 43.387059 -1.203567 0.929582 0.020478 -0.012088 -58483.400000 0 0 1
12.794665 -33.804395 25.787323 44.400750 -1.208968 0.951103 0.051627 -0.023550 -57837.200000 0 0 1
14.176265 -34.016095 25.975633 45.086524 -1.175933 0.956812 0.055965 -0.013560 17400.600000 0 0 1
14.735465 32.658208 25.520693 43.988615 1.146943 0.951864 0.083472 -0.004551 138325.000000 0 0 1
14.775765 32.323508 24.171783 42.981479 1.142036 0.973539 0.059749 -0.007070 -52457.500000 0 0 1
15.820765 31.420808 23.940733 42.552585 1.104343 0.973251 0.065133 -0.015815 -420773.000000 0 0 1
16.083365 31.028708 22.455013 41.541340 1.092586 0.999710 0.070495 -0.021475 576257.000000 0 0 1
15.098865 30.122108 21.875013 40.172544 1.106145 0.994972 0.063625 -0.019478 533303.000000 0 0 1
15.274965 28.718208 22.140013 39.347684 1.081962 0.973177 0.073956 -0.023369 -9994.740000 0 0 1
14.881665 28.124008 23.556443 39.589516 1.084106 0.933509 0.084035 -0.036119 -120471.000000 0 0 1
15.847265 28.292408 24.578873 40.690505 1.060213 0.922230 0.079599 -0.027795 -83870.600000 0 0 1
15.317565 28.013908 25.837363 41.072815 1.070425 0.890450 0.080631 -0.035343 98401.300000 0 0 1
16.341465 28.275508 26.998593 42.373009 1.046758 0.879982 0.094430 -0.035559 435867.000000 0 0 1
16.524265 29.642108 27.177913 43.478096 1.062244 0.895544 0.104266 -0.037977 -70056.300000 0 0 1
17.271465 29.964508 28.318353 44.700161 1.047912 0.884705 0.103713 -0.033724 -124366.000000 0 0 1
17.177065 31.439708 28.850423 45.998410 1.070760 0.892837 0.109492 -0.037959 -78833.800000 0 0 1
17.650465 32.434008 27.965763 46.320489 1.072420 0.922606 0.110323 -0.029070 -74755.500000 0 0 1
17.115365 33.719808 28.232863 47.191691 1.101106 0.929469 0.105959 -0.016887 -432702.000000 0 0 1
17.755165 -33.257695 27.497443 46.662935 -1.080424 0.940631 0.089493 -0.016328 -712730.000000 0 0 1
17.302265 -33.147895 26.162933 45.636064 -1.089726 0.960274 0.099135 -0.011240 -28777.300000 0 0 1
17.472165 -31.801595 25.609213 44.412270 -1.068405 0.956205 0.074872 -0.010515 198082.000000 0 0 1
18.930665 -31.315995 25.344243 44.512832 -1.027071 0.965058 0.087822 -0.008272 333068.000000 0 0 1
19.653565 -30.922395 26.491333 45.213359 -1.004627 0.944784 0.083505 -0.006022 1105790.000000 0 0 1
20.785165 -30.045895 26.172633 44.942025 -0.965608 0.949162 0.084212 -0.005242 1037860.000000 0 0 1
21.291065 -29.277195 27.411193 45.407456 -0.942032 0.922698 0.091322 -0.006669 94148.200000 0 0 1
20.257165 -28.446695 27.932593 44.719089 -0.951989 0.896147 0.086229 -0.014709 311536.000000 0 0 1
20.642865 -27.713095 29.040843 45.138831 -0.930582 0.871908 0.090617 -0.010628 -436257.000000 0 0 1
19.481165 -27.082695 29.810513 44.739857 -0.947220 0.841550 0.078145 -0.020546 148637.000000 0 0 1
18.679965 -26.165595 29.034363 43.319437 -0.950793 0.836266 0.086597 -0.018472 1038370.000000 0 0 1
17.421165 -25.946895 29.689853 43.107142 -0.979513 0.811039 0.087788 -0.023430 397668.000000 0 0 1
16.385965 -25.153395 28.895453 41.667017 -0.993408 0.804481 0.071337 -0.019104 -680895.000000 0 0 1
15.972065 -25.715295 27.662693 41.007412 -1.014998 0.830404 0.058802 -0.021659 361272.000000 0 0 1
15.326365 -24.846395 26.725543 39.578977 -1.018083 0.829498 0.044058 -0.026993 599126.000000 0 0 1
13.853265 -24.402395 27.082873 38.998357 -1.054465 0.803125 0.052870 -0.029744 1753300.000000 0 0 1
12.837365 -25.459895 27.292383 39.469967 -1.103779 0.807271 0.050802 -0.026361 1240610.000000 0 0 1
12.518665 -26.259995 26.115133 39.093535 -1.125946 0.839256 0.034955 -0.020901 -125238.000000 0 0 1
11.578565 -27.506395 26.373993 39.827784 -1.172369 0.847044 0.032900 -0.023868 -273988.000000 0 0 1
10.246265 -27.143695 26.564063 39.337203 -1.209851 0.829437 0.046509 -0.037372 -510322.000000 0 0 1
9.437265 -28.342095 26.675973 40.049267 -1.249367 0.841857 0.035817 -0.032099 317855.000000 0 0 1
7.994665 -27.955495 27.097933 39.745721 -1.292253 0.820600 0.031212 -0.041915 763530.000000 0 0 1
6.977065 -27.652395 26.106273 38.663573 -1.323642 0.829538 0.047336 -0.038431 845363.000000 0 0 1
7.274565 -26.574595 25.223913 37.354707 -1.303601 0.829487 0.079424 -0.040539 -1118880.000000 0 0 1
6.072265 -26.341895 24.323793 36.365020 -1.344237 0.838097 0.080493 -0.038762 -628584.000000 0 0 1
5.806165 -27.280095 23.275523 36.327195 -1.361090 0.875362 0.075383 -0.035747 -123153.000000 0 0 1
5.108665 -28.434895 23.683733 37.357207 -1.393031 0.884107 0.075597 -0.036615 415702.000000 0 0 1
3.562865 -28.293095 23.912923 37.215871 -1.445529 0.872980 0.101131 -0.034030 -422513.000000 0 0 1
2.779465 -28.332395 22.732713 36.431116 -1.473007 0.896956 0.104697 -0.029569 649990.000000 0 0 1
1.440765 -27.850095 22.882713 36.073842 -1.519110 0.883655 0.111572 -0.026938 661064.000000 0 0 1
1.216565 -26.365295 23.370333 35.253103 -1.524686 0.846071 0.112203 -0.031661 -705894.000000 0 0 1
1.715165 -26.193395 24.687573 36.034871 -1.505409 0.816052 0.104538 -0.027663 -195239.000000 0 0 1
1.611565 -24.845395 25.148133 35.388124 -1.506023 0.780392 0.105891 -0.031736 -577838.000000 0 0 1
2.838365 -24.504495 25.987513 35.831235 -1.455480 0.759362 0.104271 -0.024512 -469230.000000 0 0 1
3.914565 -24.064795 25.165993 35.039483 -1.409541 0.769558 0.097719 -0.029288 -97126.600000 0 0 1
4.859365 -23.236195 25.767383 35.035584 -1.364638 0.744446 0.094899 -0.036440 -18482.700000 0 0 1
4.262765 -21.861995 26.109923 34.319762 -1.378227 0.706276 0.081554 -0.025602 -336287.000000 0 0 1
4.035265 -21.073095 24.938063 32.897806 -1.381598 0.710484 0.083949 -0.032203 41154.400000 0 0 1
3.356165 -19.873795 25.220773 32.284964 -1.403501 0.674223 0.089530 -0.040303 -63497.200000 0 0 1
3.186065 -19.015395 24.015263 30.797225 -1.404786 0.676472 0.105285 -0.041115 64643.600000 0 0 1
4.272965 -18.120895 23.896043 30.292671 -1.339223 0.661879 0.112533 -0.036732 -147458.000000 0 0 1
4.562765 -18.037995 22.518913 29.211119 -1.323040 0.690540 0.118756 -0.040987 -231760.000000 0 0 1
5.672965 -17.058695 22.146313 28.524389 -1.249746 0.681864 0.091473 -0.033116 347082.000000 0 0 1
6.924165 -17.450995 22.717513 29.471455 -1.193071 0.690652 0.077920 -0.041478 207983.000000 0 0 1
7.977765 -16.763595 22.019213 28.801190 -1.126615 0.700493 0.070279 -0.030321 611441.000000 0 0 1
9.365065 -17.250195 22.531413 29.882072 -1.073423 0.716649 0.087483 -0.018701 236269.000000 0 0 1
9.545365 -16.638295 23.759583 30.536284 -1.049941 0.679197 0.078288 -0.021812 -1166850.000000 0 0 1
10.717665 -16.941695 24.390013 31.571539 -1.006736 0.687978 0.080816 -0.013520 -962160.000000 0 0 1
10.956765 -16.103795 25.642353 32.201136 -0.973357 0.649612 0.096341 -0.026828 48577.900000 0 0 1
11.375265 -14.765995 25.434713 31.533409 -0.914386 0.632426 0.099141 -0.023243 -222314.000000 0 0 1
11.261565 -13.942995 26.579993 32.058165 -0.891386 0.593269 0.090907 -0.020784 -40556.700000 0 0 1
11.471465 -12.448795 26.289043 31.267887 -0.826233 0.572096 0.075996 -0.017664 517866.000000 0 0 1
10.263665 -11.748895 25.977363 30.301860 -0.852768 0.540821 0.069015 -0.013069 512080.000000 0 0 1
10.609165 -10.440895 25.564393 29.582171 -0.777404 0.527273 0.059525 -0.010326 453167.000000 0 0 1
9.482365 -9.779195 24.677123 28.187023 -0.800807 0.504372 0.050552 -0.006039 158354.000000 0 0 1
8.354665 -9.481195 25.462563 28.425967 -0.848475 0.460681 0.061319 -0.012945 -606400.000000 0 0 1
7.390965 -8.927095 24.587933 27.182454 -0.879258 0.440469 0.059895 -0.013441 344426.000000 0 0 1
5.929865 -9.224395 25.050363 27.345446 -0.999467 0.412626 0.069663 -0.021424 -1225380.000000 0 0 1
5.475365 -8.279295 26.030263 27.858588 -0.986496 0.364306 0.072105 -0.018034 -182963.000000 0 0 1
4.166465 -8.520295 26.496653 28.142982 -1.115983 0.343739 0.077118 -0.019593 805474.000000 0 0 1
3.053765 -8.495895 25.379423 26.937349 -1.225736 0.341764 0.069363 -0.024615 -1079190.000000 0 0 1
2.939865 -7.235495 24.801023 26.001652 -1.184861 0.305074 0.064981 -0.023017 -50025.200000 0 0 1
1.960365 -7.280495 23.778753 24.945495 -1.307772 0.307053 0.077631 -0.029646 335837.000000 0 1 0
1.913965 -5.918295 23.075783 23.899398 -1.258014 0.263293 0.056611 -0.031974 90742.300000 0 1 0
1.552765 -4.755695 23.847003 24.366108 -1.255202 0.206787 0.052532 -0.023219 94205.000000 0 1 0
2.303365 -3.624295 23.439823 23.829945 -1.004657 0.181196 0.061884 -0.025058 -1096510.000000 0 1 0
1.570765 -2.725795 22.453013 22.672341 -1.048016 0.139208 0.055599 -0.025947 -33660.600000 0 1 0
0.552465 -1.900795 22.951413 23.036614 -1.287940 0.086033 0.058770 -0.027408 348049.000000 0 1 0
-0.605435 -2.576795 23.460283 23.609135 1.340026 0.112352 0.045609 -0.029410 -681564.000000 0 1 0
-1.692735 -1.570795 23.868513 23.979963 0.748051 0.096450 0.048753 -0.035657 -319507.000000 0 1 0
-1.322035 -0.632795 24.881273 24.924404 0.446424 0.058839 0.053927 -0.029625 57274.300000 0 1 0
-2.289635 0.357205 25.196803 25.303140 -0.154762 0.091711 0.054962 -0.028510 -372932.000000 0 0 1
-1.782135 1.212205 26.382753 26.470646 -0.597312 0.081514 0.083154 -0.031969 -216913.000000 0 0 1
-1.847235 0.693205 27.676243 27.746481 -0.359004 0.071169 0.090344 -0.026443 45770.300000 0 0 1
-1.154035 -0.511795 27.938043 27.966551 0.417421 0.045156 0.091983 -0.030873 -393858.000000 0 0 1
0.356565 -0.450795 28.272843 28.278684 -0.901585 0.020326 0.100920 -0.028660 -49681.900000 0 0 1
1.152065 0.038205 27.141813 27.166279 0.033150 0.042444 0.082770 -0.028563 351419.000000 0 0 1
1.669265 -1.058795 26.396903 26.470813 -0.565250 0.074746 0.075203 -0.023958 -249089.000000 0 0 1
2.934265 -1.710795 26.989203 27.202092 -0.527856 0.125191 0.077588 -0.024687 -619111.000000 0 0 1
2.573265 -2.806795 27.889343 28.148094 -0.828777 0.135696 0.084515 -0.026133 731554.000000 0 0 1
3.684465 -3.542995 28.428303 28.884191 -0.765827 0.177905 0.082199 -0.017132 598549.000000 0 0 1
4.457065 -4.576795 27.575653 28.305990 -0.798651 0.227654 0.084049 -0.017722 161333.000000 0 0 1
5.270165 -3.902895 26.630763 27.426351 -0.637435 0.241452 0.072311 -0.014421 -54251.800000 0 0 1
5.821065 -4.822995 25.666243 26.756347 -0.691904 0.286432 0.069944 -0.016982 -74636.900000 0 0 1
6.997665 -4.234495 24.872953 26.183240 -0.544183 0.317698 0.060487 -0.017110 4046.020000 0 0 1
8.313265 -4.084295 25.368783 27.006795 -0.456662 0.350072 0.063067 -0.012941 187826.000000 0 0 1
9.062665 -5.290195 25.325693 27.413660 -0.528374 0.392816 0.064575 -0.015904 176088.000000 0 0 1
9.903865 -5.536895 24.005253 26.551759 -0.509775 0.441544 0.048041 -0.014973 -191929.000000 0 0 1
9.080765 -5.642895 22.885913 25.259999 -0.556015 0.437027 0.050939 -0.017646 97515.600000 0 0 1
9.851165 -5.482195 21.678913 24.435122 -0.507822 0.479549 0.059361 -0.011683 462502.000000 0 1 0
9.878365 -3.995395 21.197113 23.724731 -0.384344 0.465804 0.071439 -0.025449 1545110.000000 0 1 0
8.532565 -3.666595 20.742213 22.726372 -0.405860 0.420969 0.067515 -0.033208 1126620.000000 0 1 0
8.421565 -2.373795 20.168213 21.984414 -0.274743 0.409332 0.057704 -0.027331 -371421.000000 0 1 0
6.959965 -1.953795 19.977213 21.244939 -0.273675 0.347203 0.055072 -0.023927 20025.600000 0 1 0
6.419865 -1.317795 21.143913 22.136312 -0.202456 0.300567 0.054430 -0.019342 -1236070.000000 0 1 0
5.169265 -0.805795 20.957913 21.601035 -0.154637 0.244629 0.029689 -0.017625 -1076530.000000 0 1 0
4.626465 -0.092795 22.251113 22.727182 -0.020055 0.205040 0.030190 -0.018432 650849.000000 0 1 0
3.318165 0.477205 22.197813 22.449517 0.142837 0.149887 0.023762 -0.017731 334952.000000 0 1 0
2.845465 0.945205 23.444683 23.635635 0.320712 0.127200 0.044881 -0.018289 1445410.000000 0 1 0
1.299965 1.322205 23.392953 23.466324 0.793879 0.079099 0.050969 -0.023825 1191310.000000 0 1 0
1.036365 2.613205 22.909883 23.081716 1.193235 0.122097 0.051120 -0.024686 370655.000000 0 1 0
-0.354835 2.889205 22.867913 23.052437 -1.448594 0.126612 0.041557 -0.022112 306458.000000 0 1 0
-0.792935 4.351205 22.537713 22.967591 -1.390541 0.193780 0.051626 -0.010167 42535.000000 0 1 0
-0.530135 5.318205 23.562673 24.161206 -1.471442 0.223049 0.071250 -0.008348 -287160.000000 0 1 0
-1.309935 6.434205 23.335363 24.241577 -1.369952 0.274292 0.060262 -0.004631 -289956.000000 0 1 0
-1.083335 7.688205 24.266193 25.478034 -1.430809 0.309665 0.077402 0.002202 -44920.100000 0 0 1
-0.000435 8.483205 23.853933 25.317481 -1.570745 0.341683 0.073012 0.003928 -170923.000000 0 0 1
0.129065 9.640205 24.662563 26.480034 1.557409 0.372654 0.099645 0.006469 -547554.000000 0 0 1
0.762065 10.803205 23.897223 26.236753 1.500372 0.425506 0.105258 -0.005012 1631150.000000 0 0 1
2.192765 10.963205 23.725053 26.227432 1.373390 0.440381 0.091183 -0.005873 867577.000000 0 0 1
2.944665 11.159205 24.877973 27.424668 1.312800 0.434363 0.134195 -0.014198 -117417.000000 0 0 1
4.366665 11.761205 24.651293 27.660078 1.215294 0.470762 0.118879 -0.026225 717090.000000 0 0 1
5.351365 10.965205 24.000133 26.923581 1.116769 0.470334 0.088473 -0.019919 262272.000000 0 0 1
5.114865 10.719205 22.606413 25.536505 1.125580 0.483746 0.088569 -0.020595 -1962040.000000 0 0 1
6.331365 10.197205 21.954513 25.021387 1.015156 0.500318 0.075485 -0.018052 -1306740.000000 0 0 1
7.275365 11.232205 21.812913 25.590946 0.996023 0.550299 0.061853 -0.026259 -816112.000000 0 0 1
8.458765 10.672205 21.336013 25.311502 0.900585 0.568076 0.064167 -0.028601 -509917.000000 0 0 1
9.414065 11.700205 20.727713 25.596045 0.893253 0.626983 0.057888 -0.033474 -445346.000000 0 0 1
8.961565 12.141205 19.432813 24.603917 0.934947 0.660271 0.062738 -0.040918 -39958.200000 0 1 0
9.571265 13.301205 18.897113 25.012638 0.947051 0.714375 0.086189 -0.042928 -75892.500000 0 0 1
10.980165 13.015205 18.341513 25.027399 0.870005 0.748284 0.085388 -0.045696 613269.000000 0 0 1
12.027465 12.852205 19.354013 26.161363 0.818535 0.738033 0.082676 -0.044859 38541.000000 0 0 1
13.174065 12.449205 18.691213 26.036515 0.757117 0.770038 0.072626 -0.048371 -1049810.000000 0 0 1
14.398265 12.219205 19.548613 27.180274 0.703715 0.768116 0.071625 -0.032421 -475233.000000 0 0 1
15.036665 13.353205 20.063313 28.406793 0.726170 0.786559 0.073922 -0.033468 171700.000000 0 0 1
16.213765 12.945205 20.766413 29.354870 0.673770 0.784946 0.072105 -0.027037 395967.000000 0 0 1
17.017065 14.142205 21.293713 30.708381 0.693395 0.804576 0.072955 -0.024245 -595110.000000 0 0 1
16.365765 14.807205 22.279213 31.360085 0.735443 0.780684 0.081939 -0.022813 -285713.000000 0 0 1
17.116465 15.902205 22.732213 32.597653 0.748640 0.799093 0.081515 -0.020526 -155046.000000 0 0 1
-21.569635 12.474308 -24.626975 35.033489 -0.524331 2.350340 0.075888 -0.015184 63538.900000 0 0 1
-21.524835 12.332008 -26.064065 35.982390 -0.520270 2.380896 0.078070 -0.028923 502370.000000 0 0 1
-22.396435 13.243708 -26.788375 37.344519 -0.534021 2.370760 0.073570 -0.025126 558274.000000 0 0 1
-22.181335 13.117108 -28.348255 38.310490 -0.534041 2.403808 0.068904 -0.023881 -154139.000000 0 0 1
-20.940835 13.701808 -28.652675 38.042527 -0.579399 2.423671 0.073965 -0.019441 -360856.000000 0 0 1
-20.750535 13.693008 -30.060365 39.009085 -0.583294 2.450577 0.061486 -0.031785 640126.000000 0 0 1
-19.360835 14.325208 -30.486685 38.852174 -0.637010 2.472983 0.053868 -0.029646 1410460.000000 0 0 1
-18.333335 13.568908 -29.811475 37.535989 -0.637149 2.488503 0.052877 -0.035321 483788.000000 0 0 1
-17.004535 14.077508 -29.980915 37.231515 -0.691504 2.506904 0.038818 -0.023340 752308.000000 0 0 1
-16.145035 13.640508 -28.800955 35.724230 -0.701510 2.508501 0.058979 -0.018924 -245822.000000 0 0 1
-16.592035 14.174408 -27.564575 35.157008 -0.706979 2.471948 0.059849 -0.024464 30552.900000 0 0 1
-17.351035 13.194808 -26.843825 34.579651 -0.650163 2.459555 0.079557 -0.020537 -95264.700000 0 0 1
-17.893935 13.716108 -25.491395 34.031393 -0.653992 2.417431 0.076874 -0.014277 -171196.000000 0 0 1
-16.963535 14.107508 -24.496875 32.967866 -0.693737 2.408417 0.102059 -0.036020 191031.000000 0 0 1
-17.648935 14.521908 -23.328475 32.658666 -0.688502 2.366437 0.101139 -0.035666 83833.400000 0 0 1
-16.658035 15.229308 -22.399475 31.798717 -0.740623 2.352394 0.100653 -0.028680 51079.100000 0 0 1
-16.312235 16.475208 -22.924375 32.604424 -0.790369 2.350553 0.086654 -0.026638 292668.000000 0 0 1
-15.498135 17.236208 -22.004475 31.960537 -0.838445 2.330200 0.094023 -0.025329 -25494.200000 0 0 1
-15.478135 18.703708 -22.466375 33.077777 -0.879485 2.317466 0.075102 -0.012117 115215.000000 0 0 1
-16.623735 19.484708 -22.174875 33.878127 -0.864466 2.284381 0.029851 -0.009594 859366.000000 0 0 1
-17.667135 19.352108 -23.183175 34.987016 -0.830883 2.295111 0.021119 -0.000949 275043.000000 0 0 1
-18.978335 20.056708 -22.869375 35.853271 -0.813017 2.262513 0.011178 -0.002445 -567911.000000 0 0 1
-18.787535 21.420508 -22.987875 36.609452 -0.850789 2.249676 0.000095 0.004796 276328.000000 0 0 1
-19.995135 22.160208 -22.945775 37.648225 -0.836712 2.226199 0.014909 -0.009114 27966.300000 0 0 1
-19.728635 23.584708 -23.384575 38.630245 -0.874191 2.220994 0.004439 0.000592 60292.000000 0 0 1
-18.996135 24.216008 -22.337975 38.029637 -0.905612 2.198618 0.010075 0.005065 80588.100000 0 0 1
-18.168835 25.299608 -22.715775 38.551046 -0.947995 2.200913 0.008698 0.021606 -325439.000000 0 0 1
-17.003635 25.482208 -21.723975 37.555261 -0.982373 2.187628 0.009121 0.003299 -334466.000000 0 0 1
-15.993735 24.486908 -21.752675 36.449788 -0.992207 2.210284 0.027123 -0.012844 190740.000000 0 0 1
-16.349535 23.167208 -21.287475 35.456782 -0.956243 2.214770 0.031603 0.005239 -681913.000000 0 0 1
-15.147235 22.185308 -21.271975 34.265486 -0.971735 2.240558 0.065636 -0.006425 447404.000000 0 0 1
-14.135535 22.514808 -20.344175 33.475594 -1.010163 2.223997 0.091276 -0.024464 -145556.000000 0 0 1
-13.303335 21.444208 -19.974675 32.184164 -1.015534 2.240351 0.097689 -0.026412 583336.000000 0 0 1
-12.345435 21.831608 -18.751475 31.315279 -1.056143 2.212794 0.084341 -0.031656 697190.000000 0 0 1
-12.997435 22.052908 -17.493875 31.004834 -1.038226 2.170297 0.100869 -0.032777 253442.000000 0 0 1
-13.872635 23.181908 -17.425975 32.148335 -1.031536 2.143670 0.093937 -0.039832 -86234.200000 0 0 1
-14.688835 23.232808 -16.120775 31.865414 -1.007004 2.101224 0.106681 -0.039700 -402812.000000 0 0 1
-13.900635 23.461708 -14.981975 31.114931 -1.035923 2.073167 0.109960 -0.059027 -421247.000000 0 0 1
-14.675535 23.461808 -13.857075 30.949092 -1.011832 2.035030 0.127449 -0.051394 -332214.000000 0 0 1
-13.874635 23.708908 -12.540475 30.197373 -1.041325 1.999051 0.134687 -0.050696 -85314.300000 0 0 1
-13.268935 24.957008 -12.520275 30.913980 -1.082134 1.987779 0.120533 -0.061592 415219.000000 0 0 1
-12.309335 25.081608 -11.458075 30.197587 -1.114559 1.959984 0.094822 -0.052316 432705.000000 0 0 1
-11.623635 26.511308 -11.475875 31.139269 -1.157597 1.948228 0.107392 -0.058495 212721.000000 0 0 1
-10.888835 26.766508 -12.651575 31.544810 -1.184435 1.983477 0.100613 -0.057722 16355.700000 0 0 1
-10.905335 28.145308 -12.874675 32.815270 -1.201142 1.973968 0.081472 -0.033862 -399539.000000 0 0 1
-10.235935 28.588508 -14.198775 33.521372 -1.226974 2.008183 0.107507 -0.052290 1024380.000000 0 0 1
-8.802735 28.495608 -14.272875 33.063617 -1.271180 2.017150 0.084678 -0.051904 841956.000000 0 0 1
-8.218235 27.196408 -14.425675 31.863523 -1.277340 2.040625 0.094817 -0.059520 -682222.000000 0 0 1
-6.839135 27.202308 -15.065875 31.838968 -1.324484 2.063704 0.108018 -0.056027 38148.000000 0 0 1
-5.822635 27.703608 -14.197275 31.669474 -1.363636 2.035654 0.091928 -0.048797 379626.000000 0 0 1
-4.570335 27.712608 -14.910775 31.799494 -1.407349 2.058841 0.096651 -0.047889 709528.000000 0 0 1
-3.574935 28.831808 -14.447775 32.446749 -1.447433 2.032279 0.080897 -0.034141 -206415.000000 0 0 1
-3.896435 30.187608 -14.639175 33.775425 -1.442432 2.019088 0.068487 -0.025667 365121.000000 0 0 1
-4.816035 30.704108 -13.636375 33.939463 -1.415211 1.984262 0.057800 -0.025084 677395.000000 0 0 1
-4.946935 32.210308 -13.695575 35.348902 -1.418405 1.968649 0.049435 -0.031089 556353.000000 0 0 1
-3.776435 32.903308 -13.262675 35.676150 -1.456523 1.951692 0.035060 -0.030837 519178.000000 0 0 1
-3.926635 -33.774795 -13.634075 36.633908 1.455057 1.952143 0.035390 -0.025627 607869.000000 0 0 1
-2.993335 -32.890595 -12.738975 35.398203 1.480038 1.938932 0.044535 -0.028587 26245.200000 0 0 1
-3.492835 -32.705095 -11.460675 34.830593 1.464402 1.906084 0.039075 -0.026536 -675513.000000 0 0 1
-2.615235 -32.022095 -10.685875 33.859148 1.489307 1.891883 0.024645 -0.031427 -879330.000000 0 0 1
-2.989935 -31.991695 -9.196575 33.421329 1.477607 1.849564 0.020123 -0.024163 -165759.000000 0 0 1
-1.947435 -31.362195 -8.461275 32.541864 1.508781 1.833831 0.041171 -0.033130 341009.000000 0 0 1
-2.314035 -31.242795 -7.072875 32.116857 1.496865 1.792840 0.028053 -0.032633 26781.800000 0 0 1
-1.089035 -30.831095 -6.212875 31.469703 1.535488 1.769526 0.049052 -0.032362 -46123.500000 0 0 1
-1.268235 -30.561195 -4.833075 30.966977 1.529322 1.727509 0.056983 -0.031570 -83961.900000 0 0 1
-0.106935 -29.978395 -4.252375 30.278677 1.567229 1.711703 0.062664 -0.035065 -329892.000000 0 0 1
-0.031935 -29.962595 -2.687675 30.082914 1.569731 1.660258 0.067030 -0.035284 -538784.000000 0 0 1
0.112565 -31.190495 -1.985475 31.253828 -1.567187 1.634367 0.069223 -0.030253 -418903.000000 0 0 1
1.222865 -31.976395 -2.300475 32.082353 -1.532572 1.642563 0.061650 -0.034104 61452.800000 0 0 1
2.562265 -31.465795 -1.685875 31.614927 -1.489545 1.624147 0.073071 -0.034649 -1063130.000000 0 0 1
2.675565 -31.916995 -0.334175 32.030686 -1.487163 1.581229 0.050303 -0.027807 -600204.000000 0 0 1
3.930365 -31.793395 0.240725 32.036318 -1.447798 1.563282 0.061252 -0.019429 -201318.000000 0 0 1
4.578965 -30.325995 0.313925 30.671345 -1.420937 1.560561 0.035340 -0.026068 -747683.000000 0 0 1
4.828265 -29.641295 -0.878875 30.044815 -1.409325 1.600053 0.057673 -0.031202 -19468.600000 0 0 1
4.530965 -28.243795 -0.666975 28.612697 -1.411728 1.594109 0.069584 -0.024028 -473150.000000 0 0 1
4.117765 -27.567995 -1.933275 27.940792 -1.422525 1.640043 0.069607 -0.021847 -536674.000000 0 0 1
2.866665 -27.968095 -2.429275 28.219381 -1.468655 1.656988 0.073504 -0.019831 -342188.000000 0 0 1
2.344065 -27.019695 -3.304775 27.321788 -1.484259 1.692051 0.070014 -0.021069 -194525.000000 0 0 1
2.764565 -27.232395 -4.779675 27.786533 -1.469625 1.743670 0.070238 -0.019765 -46752.800000 0 0 1
2.156665 -28.332795 -5.452775 28.933220 -1.494824 1.760391 0.074193 -0.028279 120355.000000 0 0 1
2.778865 -28.538695 -6.751175 29.457725 -1.473730 1.802033 0.086500 -0.042874 151075.000000 0 0 1
1.905565 -29.346895 -7.752175 30.413280 -1.505955 1.828535 0.065549 -0.037162 -540372.000000 0 0 1
0.715565 -28.694595 -8.074475 29.817594 -1.545864 1.845016 0.054041 -0.031048 -706991.000000 0 0 1
0.390465 -28.883595 -9.422575 30.384197 -1.557279 1.886110 0.063757 -0.023186 -56891.300000 0 0 1
-1.016535 -28.307495 -9.705775 29.942439 1.534901 1.900907 0.048032 -0.026455 -709614.000000 0 0 1
-1.076135 -26.926095 -9.555375 28.591569 1.530851 1.911555 0.055718 -0.027658 915686.000000 0 0 1
-2.406235 -26.384195 -9.765275 28.236081 1.479848 1.923934 0.068431 -0.020725 1977810.000000 0 0 1
-3.508735 -26.746495 -8.687775 28.340142 1.440356 1.882367 0.067262 -0.022639 53774.200000 0 0 1
-3.124335 -26.472195 -7.313175 27.640931 1.453317 1.838562 0.076204 -0.022287 26857.500000 0 0 1
-2.158835 -27.321095 -6.694875 28.212127 1.491943 1.810387 0.069477 -0.019966 269984.000000 0 0 1
-1.867635 -26.974195 -5.268175 27.547212 1.501669 1.763223 0.074554 -0.014271 603693.000000 0 0 1
-2.993635 -27.246695 -4.420375 27.764797 1.461364 1.730685 0.074901 -0.018662 491747.000000 0 0 1
-2.652635 -26.980995 -3.076675 27.285096 1.472796 1.683797 0.068557 -0.012568 599006.000000 0 0 1
-3.818335 -27.141595 -2.012175 27.482625 1.431032 1.644078 0.084710 -0.013991 896111.000000 0 0 1
-4.727135 -26.041595 -1.968575 26.540266 1.391229 1.645038 0.080159 -0.013835 163844.000000 0 0 1
-5.583235 -26.107995 -0.849875 26.711836 1.360118 1.602618 0.095530 -0.022542 -298623.000000 0 0 1
-6.407735 -24.822595 -0.678675 25.645289 1.318170 1.597263 0.076507 -0.022815 -152694.000000 0 0 1
-5.672035 -23.685595 -0.304575 24.357178 1.335751 1.583301 0.052921 -0.018979 19824.300000 0 1 0
-6.554635 -22.723095 0.262625 23.651030 1.289963 1.559692 0.075088 -0.029354 -117580.000000 0 1 0
-5.959935 -21.409895 0.695325 22.234835 1.299297 1.539519 0.045338 -0.027873 -483005.000000 0 1 0
-5.030435 -21.625795 1.710225 22.268928 1.342248 1.493922 0.041662 -0.022948 -429685.000000 0 1 0
-4.281835 -20.478995 1.957925 21.013253 1.364681 1.477485 0.023004 -0.015080 -407596.000000 0 1 0
-3.212635 -20.543295 3.047325 21.015094 1.415669 1.425277 0.029382 -0.004314 -844141.000000 0 1 0
-3.715435 -20.533895 4.381525 21.322360 1.391792 1.363832 0.019441 0.010390 279130.000000 0 1 0
-2.707035 -20.566595 5.403525 21.436206 1.439926 1.315973 0.021608 0.011319 831703.000000 0 1 0
-1.801235 -21.866595 5.431125 22.602866 1.488608 1.328137 0.026814 -0.011639 308843.000000 0 1 0
-0.986935 -21.896595 4.272125 22.331277 1.525754 1.378303 0.052444 -0.014659 -883708.000000 0 1 0
-0.370935 -23.137795 4.152325 23.510358 1.554766 1.393248 0.058923 -0.016199 -879940.000000 0 1 0
0.663465 -23.214695 3.019525 23.419645 -1.542225 1.441505 0.058597 -0.027472 288404.000000 0 1 0
1.771065 -22.355095 3.136025 22.643356 -1.491737 1.431853 0.024038 -0.023290 1114310.000000 0 1 0
2.783265 -22.614495 4.147825 23.159585 -1.448338 1.390727 0.051847 -0.027243 671327.000000 0 1 0
3.969565 -21.658195 4.412025 22.456643 -1.389526 1.373041 0.057881 -0.027514 664946.000000 0 1 0
4.823165 -21.339295 3.310925 22.126695 -1.348509 1.420597 0.034204 -0.025396 -1226780.000000 0 1 0
6.079065 -21.051595 3.784225 22.236120 -1.289674 1.399780 0.053271 -0.013846 -816930.000000 0 1 0
6.958965 -20.610395 2.584825 21.906549 -1.245172 1.452528 0.063999 -0.007707 -307263.000000 0 1 0
7.398065 -21.585795 1.678925 22.880050 -1.240614 1.497351 0.061876 -0.010056 -152157.000000 0 1 0
7.195865 -21.174395 0.344025 22.366355 -1.243203 1.555414 0.053124 -0.024395 -89237.700000 0 1 0
7.890065 -22.100495 -0.660475 23.475971 -1.227892 1.598934 0.062827 -0.017028 681602.000000 0 1 0
9.306065 -21.948195 -0.717575 23.850388 -1.169772 1.600887 0.057916 -0.004816 104708.000000 0 1 0
9.929765 -22.717495 -1.706275 24.851482 -1.158724 1.639509 0.063493 -0.010577 133419.000000 0 1 0
11.287665 -22.156795 -2.179575 24.961680 -1.099621 1.658224 0.062955 -0.006682 169272.000000 0 1 0
11.214865 -21.082195 -3.048775 24.073370 -1.081910 1.697782 0.058609 -0.002213 -422109.000000 0 1 0
12.455365 -20.849595 -3.659575 24.560827 -1.032297 1.720354 0.055709 -0.007157 -313938.000000 0 1 0
12.515865 -19.552895 -4.450375 23.638283 -1.001410 1.760196 0.049289 -0.029787 -423357.000000 0 1 0
12.767665 -18.398695 -3.692075 22.697063 -0.964146 1.734190 0.062358 -0.025973 107533.000000 0 1 0
12.957465 -17.296395 -4.560475 22.087533 -0.927844 1.778765 0.078850 -0.033792 -571256.000000 0 1 0
13.450765 -16.001595 -3.855175 21.256446 -0.871791 1.753171 0.083769 -0.027394 877814.000000 0 1 0
14.808065 -15.914995 -3.428075 22.007216 -0.821412 1.727204 0.080035 -0.024809 459917.000000 0 1 0
15.818765 -15.871395 -4.403575 22.836943 -0.787059 1.764839 0.086434 -0.029352 -463816.000000 0 1 0
17.222465 -15.509995 -3.904275 23.503545 -0.733129 1.737684 0.083928 -0.025606 -13607.200000 0 1 0
17.942665 -16.609395 -3.372375 24.681656 -0.746830 1.707860 0.098102 -0.028455 294781.000000 0 1 0
19.340565 -16.420695 -3.432475 25.602316 -0.703930 1.705270 0.082158 -0.012886 869818.000000 0 0 1
20.233465 -17.355595 -2.458375 26.770383 -0.708986 1.662758 0.085439 -0.026329 522208.000000 0 0 1
21.621165 -17.168695 -2.532475 27.724579 -0.671114 1.662268 0.078193 -0.019415 -7402.450000 0 0 1
22.285565 -17.979695 -1.568175 28.677082 -0.678865 1.625508 0.081616 -0.015052 70726.100000 0 0 1
23.817965 -17.836295 -1.526375 29.795280 -0.642770 1.622047 0.087718 -0.021087 -59478.200000 0 0 1
24.243465 -16.608695 -0.948075 29.402265 -0.600642 1.603047 0.096564 -0.025529 -530120.000000 0 0 1
25.567165 -16.682395 -0.544575 30.533241 -0.578126 1.588633 0.116229 -0.025655 -380228.000000 0 0 1
26.317465 -15.395095 -0.096675 30.489790 -0.529299 1.573967 0.108324 -0.025889 313995.000000 0 0 1
25.854665 -14.897395 1.171225 29.862483 -0.522734 1.531566 0.126938 -0.024643 241043.000000 0 0 1
26.661365 -13.832395 1.617425 30.079555 -0.478588 1.516999 0.113601 -0.030817 193555.000000 0 0 1
26.015065 -12.996895 2.757725 29.211435 -0.463320 1.476250 0.153567 -0.033344 282861.000000 0 0 1
25.483465 -13.691495 3.890525 29.189043 -0.493017 1.437111 0.156871 -0.027454 445077.000000 0 0 1
26.529765 -14.130895 4.725625 30.427655 -0.489420 1.414858 0.144827 -0.027657 150280.000000 0 0 1
25.980765 -14.607795 6.036925 30.411056 -0.512203 1.370958 0.144321 -0.021984 265748.000000 0 0 1
25.249565 -15.823895 5.872225 30.371355 -0.559821 1.376223 0.138717 -0.026385 -459292.000000 0 0 1
24.461365 -16.039795 6.965725 30.069166 -0.580385 1.337016 0.115890 -0.023361 -772953.000000 0 0 1
23.574265 -17.257895 6.827925 30.003358 -0.631924 1.341213 0.120435 -0.021261 -507614.000000 0 0 1
24.258865 -18.499195 6.899125 31.277958 -0.651500 1.348393 0.130986 -0.012811 -232333.000000 0 0 1
23.420465 -19.613995 6.920325 31.322801 -0.697176 1.348023 0.091632 0.003423 -395606.000000 0 0 1
1.923465 23.502608 -3.189575 23.795918 1.489138 1.705240 0.053315 -0.017507 593592.000000 0 1 0
3.019965 24.295508 -2.703175 24.631262 1.447129 1.680764 0.059922 -0.023319 228787.000000 0 1 0
3.730265 24.765408 -3.824375 25.335078 1.421296 1.722327 0.078880 -0.023775 -26271.800000 0 0 1
4.827665 25.785908 -3.404575 26.453933 1.385718 1.699853 0.063600 -0.016838 48826.200000 0 0 1
5.893765 25.143108 -2.730075 25.968552 1.340545 1.676121 0.050013 -0.026931 -515500.000000 0 0 1
6.648865 26.113508 -2.060175 27.025304 1.321480 1.647102 0.046567 -0.028498 -686857.000000 0 0 1
7.758465 25.369208 -1.341975 26.562971 1.274007 1.621338 0.034726 -0.041039 -757685.000000 0 0 1
8.792165 24.957708 -2.179875 26.550729 1.232089 1.652991 0.041670 -0.038582 -530864.000000 0 0 1
9.758965 24.168108 -1.493275 26.106795 1.187023 1.628026 0.025033 -0.034659 97413.200000 0 0 1
10.977365 23.988208 -2.412775 26.490719 1.141628 1.662003 0.050473 -0.031668 -698731.000000 0 0 1
11.917865 25.067308 -2.360875 27.856403 1.126993 1.655650 0.055684 -0.029878 323079.000000 0 0 1
12.828265 25.140708 -3.464475 28.436283 1.098975 1.692933 0.055076 -0.027288 678244.000000 0 0 1
14.009265 24.110208 -3.434575 28.095515 1.044426 1.693349 0.066851 -0.025797 -523174.000000 0 0 1
13.726465 22.724308 -3.548275 26.784329 1.027409 1.703663 0.087155 -0.027732 -129504.000000 0 0 1
13.254565 22.412008 -4.878075 26.491078 1.036721 1.755993 0.084556 -0.035186 80909.600000 0 0 1
12.193565 21.243608 -4.983375 24.996159 1.049723 1.771507 0.080111 -0.035830 591195.000000 0 1 0
10.892765 21.646008 -4.551675 24.656029 1.104574 1.756468 0.074696 -0.030853 126623.000000 0 1 0
10.118665 20.452608 -4.656675 23.289079 1.111368 1.772104 0.049500 -0.021515 1578570.000000 0 1 0
8.532065 20.628308 -4.642075 22.800704 1.178613 1.775823 0.035949 -0.022655 1631910.000000 0 1 0
7.944865 20.850908 -3.383775 22.568367 1.206748 1.721298 0.035768 -0.028803 -253524.000000 0 1 0
6.670965 21.416308 -3.513975 22.704803 1.268832 1.726189 0.040452 -0.018824 -11864.300000 0 1 0
5.978165 22.018208 -2.276075 22.928595 1.305678 1.670228 0.042564 -0.024654 107065.000000 0 1 0
5.587965 21.182808 -1.229175 21.941914 1.312875 1.626845 0.031544 -0.028356 -80386.600000 0 1 0
4.897365 21.882008 -0.225775 22.424483 1.350617 1.580865 0.035448 -0.023272 183710.000000 0 1 0
4.374765 20.925208 0.924625 21.397613 1.364698 1.527571 0.016979 -0.025682 -66147.000000 0 1 0
3.684765 21.616508 1.935425 22.013559 1.401958 1.482763 0.023576 -0.022693 -49210.300000 0 1 0
3.258765 20.768408 2.975525 21.232053 1.415156 1.430190 0.026822 -0.024892 269049.000000 0 1 0
2.232165 21.415008 3.957125 21.891642 1.466938 1.389038 0.017361 -0.016744 -535824.000000 0 1 0
0.983465 21.710008 3.448625 22.004197 1.525527 1.413422 0.015002 -0.010382 -1191830.000000 0 1 0
0.058765 21.800808 4.481525 22.256746 1.568101 1.368054 0.019204 -0.028049 255599.000000 0 1 0
-1.351935 22.194808 3.951225 22.584274 -1.509959 1.394937 0.025879 -0.020179 26681.300000 0 1 0
-2.374635 22.309308 4.884225 22.960831 -1.464754 1.356439 0.040286 -0.028491 385821.000000 0 1 0
-3.640535 22.391508 4.165325 23.064758 -1.409621 1.389207 0.056337 -0.031871 1456290.000000 0 1 0
-4.819635 22.658408 5.157125 23.732431 -1.361212 1.351746 0.071576 -0.039573 28378.400000 0 1 0
-5.082135 23.989508 5.534125 25.138638 -1.362035 1.348834 0.088831 -0.027239 891540.000000 0 0 1
-6.307535 24.043208 6.315025 25.646450 -1.314236 1.322004 0.093180 -0.027817 1235070.000000 0 0 1
-6.844535 25.469008 6.611225 27.188717 -1.308259 1.325173 0.101814 -0.030798 -89830.000000 0 0 1
-5.945335 26.174308 7.461925 27.858962 -1.347442 1.299639 0.074846 -0.040332 -53363.400000 0 0 1
-6.318935 27.367508 8.113925 29.236026 -1.343881 1.289572 0.094150 -0.028203 -360643.000000 0 0 1
-6.435335 28.648408 7.226425 30.238486 -1.349833 1.329480 0.118580 -0.035932 186358.000000 0 0 1
-7.624235 28.695208 6.462725 30.386029 -1.311099 1.356472 0.112770 -0.044208 -334624.000000 0 0 1
-7.789935 29.799708 5.547025 31.296568 -1.315108 1.392614 0.132227 -0.043232 -1540510.000000 0 0 1
-9.231035 30.044308 5.260125 31.867560 -1.272704 1.404975 0.122082 -0.041193 -1062150.000000 0 0 1
-9.962635 30.650308 6.317125 32.842070 -1.256527 1.377241 0.095921 -0.031903 -28066.700000 0 0 1
-10.750935 29.652408 6.973325 32.302866 -1.222972 1.353210 0.070844 -0.022337 205325.000000 0 0 1
-11.788635 30.201608 8.015425 33.396947 -1.198653 1.328426 0.049653 -0.022503 -77727.400000 0 0 1
-11.149635 30.791108 9.125425 33.995295 -1.223378 1.299031 0.062181 -0.025090 75282.700000 0 0 1
-12.113835 31.064508 10.130225 34.847814 -1.198977 1.275839 0.058670 -0.016005 -152537.000000 0 0 1
-11.510835 31.482408 11.477325 35.431206 -1.220268 1.240913 0.062070 -0.020833 -379356.000000 0 0 1
-10.997535 32.801908 11.442725 36.439634 -1.247303 1.251373 0.067631 -0.026332 162464.000000 0 0 1
-10.152235 32.985808 12.572025 36.731284 -1.272221 1.221464 0.067478 -0.028226 252695.000000 0 0 1
-9.636535 -33.637895 12.618825 37.196848 1.291790 1.224683 0.067000 -0.032562 424121.000000 0 0 1
-10.639535 -32.726995 13.081925 36.815658 1.256474 1.207523 0.054250 -0.018410 387551.000000 0 0 1
-10.112735 -31.429295 13.084025 35.514218 1.259496 1.193491 0.060719 -0.013815 222689.000000 0 0 1
-11.047335 -30.414995 13.813125 35.184058 1.222393 1.167344 0.069321 -0.018068 -10821.200000 0 0 1
-11.068535 -30.574395 15.268625 35.922653 1.223454 1.131788 0.061111 -0.025480 -514895.000000 0 0 1
-9.889835 -30.273195 15.952525 35.619632 1.255040 1.106428 0.063240 -0.030015 -565702.000000 0 0 1
-9.630335 -30.709495 17.423925 36.597945 1.266914 1.074593 0.053745 -0.036209 -446144.000000 0 0 1
-10.231435 -30.039295 18.492525 36.728939 1.242519 1.043167 0.097237 -0.032880 279645.000000 0 0 1
-11.518335 -30.490095 18.918125 37.685718 1.209597 1.044890 0.076163 -0.029217 444455.000000 0 0 1
-12.109735 -29.771995 20.164525 37.942396 1.184485 1.010484 0.099108 -0.034147 -199965.000000 0 0 1
-11.303335 -29.919995 21.297425 38.425926 1.209586 0.983339 0.091802 -0.030924 -113774.000000 0 0 1
-11.558735 -28.998795 22.359625 38.399053 1.191503 0.949246 0.081878 -0.027316 -146572.000000 0 0 1
-10.264535 -28.676295 23.125125 38.242149 1.227061 0.921404 0.082411 -0.025613 -41333.000000 0 0 1
-9.820235 -29.784195 23.866525 39.409977 1.252308 0.920282 0.085552 -0.021042 -611315.000000 0 0 1
-8.644835 -29.527995 24.559725 39.367699 1.285988 0.897131 0.093643 -0.017552 -502340.000000 0 0 1
-8.401435 -30.566695 25.676725 40.794622 1.302564 0.889997 0.104379 -0.019939 -137608.000000 0 0 1
-8.055735 -31.862295 25.190025 41.408188 1.323156 0.916836 0.111829 -0.019888 243938.000000 0 0 1
-8.165635 -32.857895 26.190725 42.805057 1.327217 0.912386 0.116541 -0.019581 -304985.000000 0 0 1
-7.906135 33.777908 25.720025 43.185342 -1.340873 0.932818 0.104907 -0.023328 629298.000000 0 0 1
-6.523835 33.500408 25.415325 42.553220 -1.378465 0.930716 0.100271 -0.019436 910960.000000 0 0 1
-6.322235 32.221408 24.831525 41.167881 -1.377045 0.923318 0.085989 -0.015476 47589.400000 0 0 1
-7.073635 31.923508 23.502825 40.268219 -1.352739 0.947571 0.088858 -0.013948 -161368.000000 0 0 1
-8.355335 31.357008 23.604525 40.127886 -1.310388 0.941925 0.095131 -0.013936 -42895.300000 0 0 1
-8.840235 31.135108 22.265525 39.284836 -1.294146 0.968214 0.082390 -0.016273 326230.000000 0 0 1
-9.819235 29.904208 22.168025 38.498057 -1.253532 0.957187 0.073415 -0.023058 113259.000000 0 0 1
-9.164035 28.700108 22.251225 37.453875 -1.261726 0.934654 0.070786 -0.018355 -251791.000000 0 0 1
-10.064635 27.629408 22.440325 36.989854 -1.221464 0.918942 0.065117 -0.018639 -169567.000000 0 0 1
-9.305735 26.355208 22.143025 35.658201 -1.231372 0.900804 0.055885 -0.015911 -202851.000000 0 0 1
-8.280335 26.007608 23.024525 35.708380 -1.262562 0.870043 0.037008 -0.011241 -183441.000000 0 0 1
-7.583635 24.828608 22.620525 34.433406 -1.274357 0.854049 0.035668 -0.014727 695619.000000 0 0 1
-6.250435 24.650508 23.421625 34.572938 -1.322468 0.826499 0.026228 -0.014814 338697.000000 0 0 1
-5.143135 25.309008 22.889925 34.510092 -1.370313 0.845600 0.030941 -0.008613 -833114.000000 0 0 1
-3.919735 24.886708 23.430425 34.404904 -1.414577 0.821642 0.042538 -0.007947 -195847.000000 0 0 1
-2.794935 25.523608 22.597825 34.204210 -1.461727 0.849080 0.043145 0.000066 -515231.000000 0 0 1
-2.524235 24.850008 21.385225 32.881948 -1.469565 0.862733 0.038881 0.000866 280004.000000 0 0 1
-1.548235 25.517008 20.578625 32.817595 -1.510196 0.893022 0.040828 0.003269 204037.000000 0 0 1
-1.231335 24.653208 19.361525 31.371413 -1.520892 0.905654 0.030650 -0.007281 155640.000000 0 0 1
-0.204135 23.744708 19.786525 30.908889 -1.562199 0.876094 0.030879 0.002191 53105.600000 0 0 1
-0.080935 22.805608 18.737125 29.515796 -1.567247 0.883025 0.028055 -0.001812 38019.700000 0 0 1
0.982065 21.695008 18.997125 28.853572 1.525560 0.852108 0.029550 -0.001551 333838.000000 0 0 1
2.295165 22.188808 19.025625 29.318687 1.467725 0.864626 0.028715 -0.007749 -515549.000000 0 0 1
3.277765 21.212208 19.288125 28.857119 1.417486 0.838739 0.028767 -0.004884 -228785.000000 0 0 1
4.676465 21.785708 19.065525 29.325427 1.359348 0.863032 0.029275 -0.011180 -628476.000000 0 0 1
5.685465 20.799808 19.184925 28.862050 1.303972 0.843689 0.053122 -0.014183 -1057440.000000 0 0 1
6.873665 21.451808 18.909925 29.411097 1.260709 0.872450 0.097524 -0.021348 -407450.000000 0 0 1
8.085465 20.493208 18.627325 28.850019 1.195003 0.868908 0.100395 -0.012210 -12692.500000 0 0 1
8.701865 20.012408 19.747125 29.430731 1.160635 0.835281 0.103412 -0.021654 -797776.000000 0 0 1
9.710065 19.146308 19.371025 28.915448 1.101444 0.836696 0.108902 -0.025073 -323132.000000 0 0 1
10.297765 18.319908 20.551525 29.394357 1.058705 0.796566 0.109324 -0.023235 93966.400000 0 0 1
9.497365 17.213108 20.931625 28.716267 1.066609 0.754065 0.099060 -0.023274 97336.800000 0 0 1
10.063565 16.512508 22.052225 29.329830 1.023456 0.719902 0.098978 -0.024958 -207861.000000 0 0 1
9.326465 15.251608 22.526625 28.758362 1.021959 0.670828 0.078136 -0.021793 -268437.000000 0 0 1
8.172865 15.577508 23.265225 29.167194 1.087617 0.647407 0.089946 -0.008369 -294125.000000 0 0 1
7.316365 14.474408 23.469225 28.527920 1.102783 0.604695 0.080598 -0.010393 118467.000000 0 0 1
7.723665 13.486408 24.611425 29.107739 1.050692 0.563242 0.097900 -0.015400 -415541.000000 0 0 1
7.737765 14.116908 25.892125 30.488724 1.069397 0.556259 0.108986 -0.023503 200914.000000 0 0 1
8.303265 13.218508 26.833525 31.043699 1.009932 0.526882 0.127529 -0.029074 -998875.000000 0 0 1
9.224265 13.783508 27.871925 32.433261 0.981025 0.536775 0.092567 -0.019388 -732327.000000 0 0 1
10.515965 14.012508 27.370325 32.497240 0.926995 0.569380 0.102152 -0.016769 -277511.000000 0 0 1
10.762065 15.182808 26.638325 32.495232 0.954167 0.609803 0.091014 -0.013757 -496033.000000 0 0 1
12.107465 15.021408 25.892525 32.290189 0.892399 0.640378 0.098203 -0.019402 -1859.480000 0 0 1
11.993065 14.060208 24.866825 30.981964 0.864575 0.639117 0.102209 -0.026168 508298.000000 0 0 1
13.271565 13.787008 24.289525 30.922437 0.804445 0.667295 0.102564 -0.027778 123524.000000 0 0 1
13.279865 12.675908 23.204025 29.588178 0.762134 0.669337 0.078429 -0.025730 -21340.600000 0 0 1
12.914665 11.378908 23.607325 29.215988 0.722266 0.630000 0.074980 -0.024461 -413135.000000 0 0 1
11.545865 11.243208 23.841525 28.777336 0.772118 0.594403 0.094327 -0.025040 -856302.000000 0 0 1
11.098265 9.851208 24.325925 28.495060 0.725941 0.547768 0.074723 -0.023795 -115530.000000 0 0 1
11.162065 8.826808 23.380825 27.370920 0.669098 0.546745 0.076715 -0.020259 154195.000000 0 0 1
10.851465 7.629908 24.026425 27.445198 0.612818 0.504466 0.071147 -0.023621 9789.540000 0 0 1
10.990365 6.385408 23.121225 26.384705 0.526332 0.502644 0.071435 -0.029619 -1082750.000000 0 0 1
12.303865 6.114108 22.827225 26.643004 0.461185 0.541801 0.089847 -0.029627 -959897.000000 0 0 1
12.490165 5.029808 21.947125 25.748389 0.382833 0.550298 0.098283 -0.031682 -14186.200000 0 0 1
12.315765 3.574008 22.606725 25.990684 0.282440 0.515997 0.078367 -0.033192 -52429.200000 0 0 1
13.220765 3.411308 23.683525 27.337429 0.252519 0.522968 0.078175 -0.027083 123974.000000 0 0 1
12.891465 2.160508 24.271025 27.567016 0.166049 0.494013 0.062610 -0.025216 -817641.000000 0 0 1
13.985365 1.474708 25.063925 28.739617 0.105058 0.511311 0.042332 -0.014862 -625361.000000 0 0 1
14.940065 0.885508 24.206325 28.459372 0.059201 0.553752 0.070214 -0.023175 799663.000000 0 0 1
16.274065 1.402608 24.427525 29.385651 0.085974 0.589401 0.070023 -0.020474 863855.000000 0 0 1
17.304165 0.624508 23.536525 29.219722 0.036074 0.634275 0.063439 -0.025322 -478627.000000 0 0 1
17.461065 -0.709692 23.880425 29.591674 -0.040622 0.631745 0.055473 -0.024992 314298.000000 0 0 1
18.368665 -1.385592 23.023725 29.485923 -0.075290 0.674790 0.062050 -0.018776 -88367.500000 0 0 1
18.378865 -2.840192 23.450825 29.929761 -0.153323 0.670472 0.059949 -0.017440 -182447.000000 0 0 1
17.326265 -3.630092 22.951825 28.985571 -0.206526 0.656987 0.050997 -0.007493 61956.900000 0 0 1
17.602565 -5.020892 23.175725 29.532591 -0.277858 0.668502 0.073232 -0.009112 -634094.000000 0 0 1
16.570065 -6.009092 22.703625 28.742492 -0.347897 0.660154 0.057567 -0.004838 -692808.000000 0 0 1
16.603365 -6.184592 21.275025 27.686596 -0.356569 0.694423 0.043663 -0.004532 111256.000000 0 0 1
15.871665 -7.291192 20.781525 27.146695 -0.430630 0.698936 0.054406 -0.008670 -223093.000000 0 0 1
16.367865 -8.734592 21.101825 28.097814 -0.490198 0.721201 0.077287 -0.014561 12402.600000 0 0 1
16.205865 -9.078892 22.461325 29.147341 -0.510658 0.690994 0.058472 -0.002598 373875.000000 0 0 1
16.888765 -10.367192 22.645225 30.091781 -0.550542 0.718888 0.085478 -0.005493 281269.000000 0 0 1
16.311765 -11.248792 23.729225 30.914158 -0.603720 0.695733 0.100581 -0.011573 392376.000000 0 0 1
15.344265 -12.222292 23.277025 30.440940 -0.672626 0.700280 0.095678 -0.012025 458729.000000 0 0 1
15.185165 -13.250992 24.233225 31.518681 -0.717485 0.693751 0.116966 -0.008420 -287224.000000 0 0 1
14.055365 -14.186192 23.825425 31.087815 -0.790031 0.697592 0.108493 -0.018475 -609075.000000 0 0 1
14.388465 -14.870192 22.617325 30.654428 -0.801861 0.740967 0.129237 -0.020089 989974.000000 0 0 1
13.292865 -15.604092 22.011625 30.078225 -0.865210 0.749818 0.125987 -0.009089 685319.000000 0 0 1
13.774965 -16.400892 20.741325 29.815122 -0.872200 0.801452 0.128076 -0.023549 134571.000000 0 0 1
14.598465 -17.541892 20.872125 30.926991 -0.876724 0.829989 0.132982 -0.020662 64863.100000 0 0 1
15.044965 -17.970692 19.606925 30.556968 -0.873784 0.874147 0.116193 -0.018866 47868.700000 0 0 1
-25.112585 -32.477995 26.306253 48.759419 0.912600 1.000940 0.069032 -0.021290 -558320.000000 0 0 1
-25.387155 -33.788595 25.885693 49.560527 0.926430 1.021245 0.060266 -0.014145 -369310.000000 0 0 1
-26.733715 33.962608 25.960893 50.419423 -0.903939 1.029907 0.039843 -0.025754 -851892.000000 0 0 1
-27.206455 33.494308 27.376343 51.103072 -0.888618 1.005450 0.034171 -0.021792 -484599.000000 0 0 1
-27.810395 -33.571795 28.129173 51.881922 0.878985 0.997771 0.036761 -0.015989 185247.000000 0 0 1
-27.630485 -33.753595 29.535113 52.678949 0.884820 0.975611 0.016712 -0.009157 -97355.800000 0 0 1
-28.492545 -32.848695 30.479643 53.102452 0.856294 0.959441 0.006997 -0.008353 -25733.000000 0 0 1
-28.407245 -31.463395 30.267023 52.086557 0.836400 0.950728 0.005853 -0.004555 706428.000000 0 0 1
-29.278365 -30.787395 31.205983 52.715270 0.810516 0.937292 -0.006822 0.009661 442426.000000 0 0 1
-29.643215 -29.295595 30.950423 51.912240 0.779500 0.932029 -0.003257 0.003109 6871.410000 0 0 1
-30.338855 -29.015995 29.742043 51.448646 0.763115 0.954408 -0.023225 0.009441 313083.000000 0 0 1
-30.933925 -27.716295 29.790403 51.113293 0.730592 0.948588 0.005606 0.004667 220866.000000 0 0 1
-31.623725 -27.412995 28.392603 50.573433 0.714195 0.974704 -0.002064 -0.008373 211279.000000 0 0 1
-30.739845 -27.337895 27.268153 49.354338 0.726889 0.985439 0.011594 0.003451 79868.600000 0 0 1
-30.232785 -26.053695 27.101353 48.242093 0.711287 0.974263 0.006556 -0.000455 -447678.000000 0 0 1
-29.056825 -25.906595 26.140573 46.891153 0.728146 0.979457 0.025421 0.019092 -324633.000000 0 0 1
-29.432235 -26.068395 24.788263 46.478765 0.724863 1.008271 0.011033 0.008969 766990.000000 0 0 1
-28.289435 -25.879295 23.940943 45.201756 0.740934 1.012613 0.027201 0.017327 566296.000000 0 0 1
-28.661075 -26.132995 22.477213 44.828737 0.739293 1.045578 0.023277 0.027693 -308863.000000 0 0 1
-29.631745 -25.293495 21.968213 44.725871 0.706577 1.057359 0.013717 0.019198 -96885.800000 0 0 1
-30.061025 -25.545295 20.610513 44.508657 0.704367 1.089343 0.012167 0.017765 -19287.400000 0 0 1
-30.589455 -24.347795 19.807113 43.827520 0.672269 1.101865 0.014658 0.000121 97865.400000 0 0 1
-31.900535 -23.994995 20.226213 44.749341 0.644896 1.101802 0.033224 -0.002585 241014.000000 0 0 1
-32.363585 -22.766295 19.691813 44.198114 0.613040 1.109024 0.052815 -0.009821 -1167140.000000 0 0 1
-33.851005 -22.641795 19.831513 45.297133 0.589524 1.117636 0.069254 -0.008134 -1610620.000000 0 0 1
-34.642960 -23.454795 19.047213 45.968014 0.595152 1.143559 0.062852 -0.015152 -45311.900000 0 0 1
-35.949595 -22.894595 19.054013 46.686092 0.567077 1.150391 0.067603 -0.015145 251261.000000 0 0 1
-37.028035 -23.601895 18.207413 47.535615 0.567471 1.177726 0.099459 -0.014229 107300.000000 0 0 1
36.886252 -24.941795 18.584413 48.250068 -0.594561 1.175406 0.078388 -0.012059 -48536.900000 0 0 1
36.194912 -25.680995 17.592613 47.739765 -0.617086 1.193390 0.097684 -0.006316 129471.000000 0 0 1
35.635262 -27.039895 18.023313 48.227250 -0.649107 1.187784 0.095320 0.001773 789212.000000 0 0 1
34.522982 -27.167795 18.939913 47.839791 -0.666732 1.163745 0.103060 -0.007068 701981.000000 0 0 1
34.755092 -26.703395 20.268413 48.288676 -0.655130 1.137644 0.099486 -0.005401 339215.000000 0 0 1
33.513082 -26.987795 21.208013 47.971320 -0.677959 1.112860 0.093966 -0.015589 806124.000000 0 0 1
32.387962 -26.216995 20.839513 46.589657 -0.680487 1.107053 0.098703 -0.016296 -95086.100000 0 0 1
31.654812 -25.739795 21.961013 46.334115 -0.682702 1.077002 0.108736 -0.014661 570146.000000 0 0 1
30.561782 -24.635795 21.666713 44.837388 -0.678448 1.066457 0.112011 -0.013891 672782.000000 0 0 1
31.075982 -23.413895 21.134813 44.278747 -0.645699 1.073202 0.101465 -0.007275 32449.900000 0 0 1
32.037082 -22.725795 21.909713 44.976348 -0.616980 1.061986 0.120838 -0.015658 212484.000000 0 0 1
32.641042 -21.525595 21.107013 44.433038 -0.583000 1.075799 0.116825 -0.012500 474938.000000 0 0 1
31.700472 -20.456195 20.972713 43.165154 -0.573061 1.063436 0.110565 -0.017176 256906.000000 0 0 1
32.371852 -19.268695 20.655013 42.963344 -0.536905 1.069276 0.102863 -0.016298 -250056.000000 0 0 1
31.472602 -17.975195 20.646313 41.712139 -0.518927 1.052994 0.086773 -0.004524 160116.000000 0 0 1
31.215952 -17.428495 21.903313 41.927833 -0.509209 1.021127 0.100412 -0.007375 397060.000000 0 0 1
30.287572 -18.188395 22.693813 41.990045 -0.540804 0.999816 0.109268 -0.007591 -134429.000000 0 0 1
30.235632 -17.780695 24.137343 42.578843 -0.531602 0.968076 0.092456 -0.009066 31779.300000 0 0 1
29.896222 -16.417695 24.342023 41.902969 -0.502195 0.950945 0.082330 -0.011052 -40297.600000 0 0 1
30.185512 -15.887295 25.597483 42.647419 -0.484483 0.927030 0.079165 -0.009860 -138356.000000 0 0 1
29.941622 -14.380095 25.784273 42.048978 -0.447740 0.910696 0.073232 -0.014858 348355.000000 0 0 1
28.557792 -14.054195 25.831303 40.991756 -0.457333 0.889039 0.076025 -0.017174 272320.000000 0 0 1
28.244892 -12.729595 26.279673 40.625579 -0.423425 0.867317 0.068814 -0.015414 -21974.100000 0 0 1
28.736792 -11.453195 25.537733 40.114270 -0.379260 0.880683 0.077456 -0.028935 -615668.000000 0 0 1
28.164992 -11.341695 24.284843 38.880000 -0.382821 0.896164 0.079839 -0.025887 -63086.700000 0 0 1
28.723592 -10.354595 23.440483 38.493098 -0.345990 0.916057 0.084050 -0.021612 -403035.000000 0 0 1
29.804732 -10.877195 22.495013 38.892943 -0.349929 0.954051 0.091502 -0.034542 -567363.000000 0 0 1
29.342002 -11.851995 21.566213 38.295227 -0.383886 0.972595 0.098920 -0.030884 96635.400000 0 0 1
29.854992 -13.129395 21.854113 39.259442 -0.414316 0.980438 0.094800 -0.027753 13884.200000 0 0 1
29.059692 -14.259895 21.147413 38.665532 -0.456188 0.992101 0.099725 -0.025567 -204095.000000 0 0 1
29.392662 -14.354595 19.796413 38.234551 -0.454303 1.026563 0.089898 -0.027755 -102589.000000 0 0 1
28.808392 -15.441095 19.174613 37.894810 -0.492026 1.040260 0.091655 -0.027803 -487995.000000 0 0 1
29.391442 -15.633595 17.765013 37.734094 -0.488848 1.080605 0.100984 -0.029779 -254986.000000 0 0 1
28.909592 -16.649995 16.917813 37.405871 -0.522535 1.101480 0.100785 -0.032223 1447780.000000 0 0 1
27.507092 -16.505295 16.505613 36.076310 -0.540447 1.095593 0.091680 -0.031119 1342930.000000 0 0 1
27.364592 -15.512295 15.279313 34.970124 -0.515706 1.118619 0.104509 -0.032928 -349177.000000 0 0 1
27.503992 -16.107295 13.986713 34.807221 -0.529790 1.157278 0.105605 -0.032674 525836.000000 0 0 1
26.426992 -17.018695 13.722013 34.297456 -0.572138 1.159183 0.093641 -0.036408 138312.000000 0 0 1
26.450492 -17.687095 12.322913 34.122075 -0.589400 1.201304 0.102300 -0.026512 -82592.000000 0 0 1
26.171992 -16.799595 11.232413 33.066095 -0.570654 1.224203 0.113207 -0.036665 -75827.400000 0 0 1
26.136092 -17.588395 9.994613 33.050555 -0.592343 1.263583 0.114635 -0.043674 -658286.000000 0 0 1
27.419892 -17.828295 9.227213 33.982937 -0.576513 1.295819 0.118313 -0.034333 56975.500000 0 0 1
28.353292 -18.661495 9.953013 35.372631 -0.582102 1.285568 0.097103 -0.021813 -11978.700000 0 0 1
29.686142 -18.389995 9.590413 36.213740 -0.554621 1.302771 0.086702 -0.011556 342761.000000 0 0 1
30.710662 -19.240395 10.431313 37.711402 -0.559681 1.290533 0.086551 -0.022084 345014.000000 0 0 1
30.765452 -18.738195 11.765513 37.895386 -0.547059 1.255105 0.102956 -0.039349 33202.400000 0 0 1
30.589562 -19.792495 12.693913 38.582374 -0.574288 1.235543 0.076403 -0.028981 96691.000000 0 0 1
30.443602 -19.167195 14.065513 38.626842 -0.561898 1.198089 0.086943 -0.025194 279262.000000 0 0 1
30.123112 -20.078295 15.139213 39.239464 -0.587916 1.174704 0.077484 -0.018516 -154659.000000 0 0 1
29.954462 -19.476795 16.417213 39.320989 -0.576525 1.140084 0.103469 -0.023978 -11079.300000 0 0 1
29.822042 -20.529395 17.531113 40.226237 -0.602896 1.119855 0.085490 -0.017225 1105900.000000 0 0 1
28.528492 -21.175595 17.588413 39.643826 -0.638530 1.111117 0.050609 -0.010621 721323.000000 0 0 1
28.433392 -22.164695 18.614913 40.573963 -0.662134 1.094164 0.084402 -0.016487 179328.000000 0 0 1
27.165792 -23.025295 18.421013 40.093368 -0.703090 1.093417 0.056194 -0.000892 -440481.000000 0 0 1
25.991492 -22.346795 18.704413 39.048584 -0.710141 1.071277 0.060050 0.000088 -888778.000000 0 0 1
24.881592 -23.141495 18.348613 38.617276 -0.749179 1.075673 0.068529 -0.004524 -416791.000000 0 0 1
23.584392 -22.603395 18.945713 37.763435 -0.764162 1.045240 0.057139 0.001702 -616727.000000 0 0 1
23.103192 -21.371495 18.376813 36.444554 -0.746481 1.042294 0.052288 0.003315 609338.000000 0 0 1
21.898992 -20.920595 19.030613 35.768720 -0.762553 1.009781 0.047200 0.000034 820505.000000 0 0 1
22.070092 -20.291295 20.445513 36.288353 -0.743432 0.972279 0.042988 0.003720 -202963.000000 0 0 1
22.399292 -21.311195 21.356813 37.576705 -0.760510 0.966294 0.055678 -0.003873 -169801.000000 0 0 1
23.105692 -20.836395 22.489313 38.390071 -0.733801 0.944916 0.049265 -0.002659 236442.000000 0 0 1
23.526992 -21.989595 23.466273 39.846299 -0.751634 0.941075 0.059568 -0.011714 127228.000000 0 0 1
22.397992 -22.536095 24.119913 39.891300 -0.788472 0.921481 0.055367 -0.009399 -32053.500000 0 0 1
22.728292 -23.416695 25.161723 41.207149 -0.800315 0.913959 0.057705 -0.012438 108579.000000 0 0 1
21.524892 -23.862095 26.053603 41.370409 -0.836848 0.889547 0.060134 -0.020015 309537.000000 0 0 1
20.677692 -24.762695 25.364273 41.037840 -0.875055 0.904511 0.072661 -0.023883 881073.000000 0 0 1
19.555392 -25.206395 26.177693 41.267993 -0.910980 0.883650 0.075413 -0.017481 923461.000000 0 0 1
18.738292 -26.347195 25.530123 41.195697 -0.952589 0.902400 0.085367 -0.017609 303639.000000 0 0 1
18.002292 -25.970595 24.331783 39.882201 -0.964662 0.914621 0.077798 -0.026647 473402.000000 0 0 1
17.552292 -27.072095 23.598663 39.973468 -0.995579 0.939294 0.072410 -0.026179 -200623.000000 0 0 1
16.564692 -26.705495 22.469013 38.631969 -1.015604 0.950081 0.060296 -0.025581 316141.000000 0 0 1
15.240892 -26.417895 22.893913 38.135563 -1.047524 0.926883 0.046918 -0.025628 20837.800000 0 0 1
14.649692 -25.458795 22.064713 36.737110 -1.048641 0.926531 0.028416 -0.015909 -51640.800000 0 0 1
13.207392 -25.058295 22.419613 36.124678 -1.085731 0.901266 0.017740 -0.015530 316483.000000 0 0 1
12.210992 -26.052195 22.141813 36.305441 -1.132490 0.914892 0.014413 -0.019095 598905.000000 0 0 1
10.946392 -25.395895 22.327613 35.542893 -1.163829 0.891574 0.036782 -0.007586 1671910.000000 0 0 1
9.670592 -26.351295 22.382613 35.901148 -1.219069 0.897647 0.046870 -0.010627 967659.000000 0 0 1
9.406592 -26.995595 21.137513 35.553348 -1.235504 0.934116 0.040727 -0.009304 95544.800000 0 0 1
8.048592 -27.346095 20.942513 35.371988 -1.284556 0.937178 0.045057 -0.012248 179143.000000 0 0 1
7.750492 -28.225295 19.720513 35.293569 -1.302808 0.977911 0.048083 -0.011900 -42678.700000 0 0 1
8.255692 -29.521195 19.927213 36.561608 -1.298109 0.994370 0.050940 -0.010757 944.741000 0 0 1
8.208192 -30.355895 18.741813 36.607517 -1.306713 1.033324 0.043211 -0.009744 -81560.000000 0 0 1
8.863292 -31.723095 18.949113 37.999757 -1.298348 1.048739 0.049386 -0.011356 -150525.000000 0 0 1
8.137492 -32.623895 19.770813 39.005414 -1.326351 1.039242 0.049682 -0.015271 97555.600000 0 0 1
8.983692 -33.719295 20.074213 40.257565 -1.310419 1.048762 0.060668 -0.015186 138593.000000 0 0 1
8.352392 33.300208 20.963713 40.226155 1.325045 1.022603 0.078311 -0.025803 214811.000000 0 0 1
7.316092 32.469908 20.448713 39.063666 1.349178 1.019876 0.073156 -0.025080 141309.000000 0 0 1
7.242192 31.280908 21.217613 38.485473 1.343284 0.986857 0.076955 -0.032987 -752484.000000 0 0 1
6.231492 30.280608 20.782813 37.251470 1.367838 0.978936 0.068407 -0.028260 -1531640.000000 0 0 1
4.953092 30.531608 21.229413 37.515333 1.409969 0.969289 0.079017 -0.034804 -1309120.000000 0 0 1
4.089192 29.555208 20.716213 36.323454 1.433311 0.963894 0.086392 -0.021525 493260.000000 0 0 1
2.665792 29.556108 21.365813 36.567307 1.480845 0.946795 0.065049 -0.015643 419301.000000 0 0 1
2.673292 29.038008 22.744613 36.982020 1.478993 0.908387 0.044651 -0.023479 477905.000000 0 0 1
1.309992 28.767308 23.081283 36.905551 1.525290 0.895133 0.037885 -0.014575 494217.000000 0 0 1
1.066992 28.153708 24.494783 37.333151 1.532916 0.855139 0.045119 -0.020857 -198815.000000 0 0 1
1.155492 29.088908 25.523113 38.716005 1.531094 0.850990 0.050461 -0.024931 78661.500000 0 0 1
1.057392 28.559008 26.865423 39.223538 1.533788 0.816287 0.054635 -0.027527 134262.000000 0 0 1
2.328192 27.872808 27.456763 39.194231 1.487461 0.794655 0.043310 -0.021964 7197.400000 0 0 1
2.613792 26.605508 26.898933 37.924102 1.472868 0.782315 0.044990 -0.020375 -132725.000000 0 0 1
3.458592 25.935008 27.780203 38.161842 1.438222 0.755458 0.029597 -0.010464 -376861.000000 0 0 1
4.041792 24.660608 27.132273 36.886880 1.408344 0.744313 0.033871 0.005247 251723.000000 0 0 1
3.028492 23.752108 26.688593 35.855479 1.443976 0.731253 0.044481 0.003312 37094.800000 0 0 1
3.533692 22.473008 26.590853 34.994235 1.414832 0.707693 0.041778 0.013731 469773.000000 0 0 1
2.412592 21.380108 26.440893 34.088861 1.458429 0.683058 0.049073 0.012245 408560.000000 0 0 1
2.911292 20.029108 26.601813 33.425996 1.426454 0.650399 0.069592 0.010659 176692.000000 0 0 1
3.678492 19.529908 25.519603 32.344995 1.384626 0.661647 0.071943 0.008853 43231.000000 0 0 1
4.186892 18.073408 25.647673 31.654088 1.343152 0.626221 0.083702 -0.003123 -408595.000000 0 0 1
5.280892 17.959008 26.525733 32.465802 1.284805 0.614545 0.070652 -0.000588 -122083.000000 0 0 1
6.460392 17.555408 25.884173 31.936177 1.218177 0.625796 0.082733 0.001622 -1084730.000000 0 0 1
7.726292 17.391408 26.704503 32.791571 1.152727 0.619152 0.069857 -0.008610 -302635.000000 0 0 1
8.239592 18.559408 27.347713 34.062294 1.152979 0.638697 0.070056 -0.002520 174617.000000 0 0 1
8.743292 19.540808 26.484333 34.054489 1.150075 0.679790 0.061340 -0.013597 -493740.000000 0 0 1
9.198092 20.894508 27.184383 35.498958 1.156109 0.698543 0.046816 -0.009150 1212530.000000 0 0 1
10.445592 20.745008 27.911603 36.311476 1.104334 0.694034 0.067545 -0.026841 831271.000000 0 0 1
10.734492 21.825308 28.736553 37.647880 1.113700 0.702394 0.092815 -0.030414 75231.400000 0 0 1
11.842592 21.595308 29.787513 38.651006 1.069192 0.690891 0.099190 -0.031958 -632871.000000 0 0 1
13.119692 21.582208 29.265433 38.657258 1.024593 0.712012 0.081602 -0.033074 -1952810.000000 0 0 1
14.050992 21.448008 30.284063 39.680875 0.990831 0.702560 0.074910 -0.025093 -242268.000000 0 0 1
15.469592 21.263108 29.695373 39.664130 0.941830 0.724742 0.058547 -0.028634 -99406.700000 0 0 1
15.846992 22.375508 29.033153 39.933876 0.954569 0.756809 0.043813 -0.033500 -91711.100000 0 0 1
17.090592 22.142008 28.366573 39.837411 0.913449 0.778370 0.108114 -0.032096 576066.000000 0 0 1
-8.698635 16.727008 4.402925 19.360909 -1.091249 1.341376 0.024189 -0.019141 -194054.000000 0 1 0
-8.655835 18.077808 4.857825 20.623508 -1.124244 1.333014 0.033633 -0.024096 -334508.000000 0 1 0
-7.329535 18.382108 5.160725 20.451334 -1.191384 1.315697 0.036129 -0.018370 -723838.000000 0 1 0
-7.139935 19.775308 5.721525 21.789386 -1.224309 1.305098 0.042657 -0.020212 -59880.400000 0 1 0
-7.361435 20.944708 4.934825 22.742560 -1.232813 1.352070 0.054635 -0.022665 311287.000000 0 1 0
-8.685935 21.019308 4.400225 23.165033 -1.178932 1.379684 0.059528 -0.032327 402646.000000 0 1 0
-8.684935 22.246508 3.411625 24.124146 -1.198597 1.428901 0.100058 -0.036279 30175.800000 0 1 0
-7.948235 22.198408 2.222125 23.682939 -1.226964 1.476830 0.072129 -0.035806 -238981.000000 0 1 0
-8.345135 21.146908 1.323225 22.772438 -1.194931 1.512657 0.080314 -0.036423 -670032.000000 0 1 0
-7.693435 20.989708 -0.092575 22.355432 -1.219469 1.574937 0.054004 -0.020232 53192.000000 0 1 0
-6.362235 20.565608 -0.279575 21.529060 -1.270772 1.583783 0.042754 -0.013199 -93668.500000 0 1 0
-5.467835 21.623908 0.093525 22.304694 -1.323127 1.566603 0.056585 -0.017289 -439566.000000 0 1 0
-4.037735 21.410908 -0.433875 21.792626 -1.384402 1.590707 0.041481 -0.011640 -259523.000000 0 1 0
-3.993035 21.638508 -1.854375 22.081849 -1.388315 1.654873 0.043799 -0.013149 826545.000000 0 1 0
-2.660935 21.526408 -2.386675 21.821160 -1.447808 1.680390 0.035624 -0.006006 717806.000000 0 1 0
-2.586535 21.829008 -3.894875 22.324108 -1.452856 1.746163 0.049284 -0.006870 782003.000000 0 1 0
-1.270735 21.946008 -4.469475 22.432527 -1.512958 1.771379 0.054959 -0.012158 830156.000000 0 1 0
-1.340835 22.407308 -5.800375 23.184686 -1.511028 1.823664 0.070666 -0.014508 476295.000000 0 1 0
0.051865 22.913708 -6.275175 23.757494 1.568533 1.838103 0.074634 -0.022875 938308.000000 0 1 0
1.109465 21.966708 -6.340575 22.890393 1.520333 1.851464 0.051821 -0.014283 -8505.360000 0 1 0
2.354665 22.545508 -6.656375 23.625235 1.466733 1.856412 0.052417 -0.014771 738891.000000 0 1 0
3.540965 21.517808 -6.749275 22.827773 1.407698 1.870943 0.054271 -0.011676 551969.000000 0 1 0
3.392065 20.767908 -7.926275 22.486395 1.408894 1.931029 0.047093 -0.010762 -69067.900000 0 1 0
3.992465 19.514608 -7.835375 21.404504 1.368993 1.945570 0.028246 -0.016684 131391.000000 0 1 0
3.597165 18.729308 -9.076975 21.121507 1.381046 2.015013 0.026038 -0.015760 -326801.000000 0 1 0
4.228365 19.148108 -10.249375 22.126428 1.353460 2.052420 0.028972 -0.016718 113912.000000 0 1 0
3.349665 18.936408 -11.349275 22.329663 1.395717 2.103959 0.031094 -0.017075 64561.100000 0 1 0
3.900265 19.472908 -12.673175 23.558769 1.373120 2.138786 0.033712 -0.010502 -63887.500000 0 1 0
3.932065 20.870308 -12.851675 24.823304 1.384574 2.114987 0.071567 -0.017605 -79722.600000 0 1 0
3.983565 21.190608 -14.225875 25.831883 1.384978 2.154011 0.084056 -0.023520 -42730.700000 0 0 1
4.116265 22.691208 -14.613075 27.301585 1.391344 2.135596 0.073967 -0.026534 19634.700000 0 0 1
2.910665 23.463008 -14.689375 27.834555 1.447373 2.126733 0.092667 -0.028324 15745.300000 0 0 1
3.129665 24.813108 -15.185175 29.258754 1.445329 2.116472 0.082037 -0.021555 -459940.000000 0 0 1
1.888565 25.582008 -15.657675 30.052764 1.497106 2.118826 0.094999 -0.027603 -357841.000000 0 0 1
0.975265 25.935608 -14.665075 29.810591 1.533211 2.085115 0.095787 -0.031369 -418559.000000 0 0 1
1.293465 27.171408 -14.038475 30.611064 1.523228 2.047224 0.074722 -0.027609 -1076990.000000 0 0 1
0.559765 27.452108 -12.706475 30.255348 1.550409 2.004214 0.083146 -0.031377 1004340.000000 0 0 1
-0.883335 27.608308 -12.811575 30.448898 -1.538812 2.005075 0.077742 -0.031571 1788520.000000 0 0 1
-1.685335 26.440908 -13.136175 29.572302 -1.507143 2.031083 0.083651 -0.028455 -608358.000000 0 0 1
-1.594035 25.221908 -12.221875 28.072403 -1.507680 2.021245 0.092778 -0.028340 -334447.000000 0 0 1
-2.153235 25.392008 -10.887475 27.711507 -1.486199 1.974565 0.086881 -0.027373 263615.000000 0 0 1
-2.036035 24.091808 -10.299475 26.280027 -1.486485 1.973506 0.088145 -0.021813 341032.000000 0 0 1
-3.147035 23.832608 -9.203475 25.741037 -1.439508 1.936430 0.082894 -0.025224 605060.000000 0 0 1
-2.925835 24.373008 -7.899975 25.787858 -1.451324 1.882147 0.096175 -0.027944 -122324.000000 0 0 1
-2.828235 25.807608 -7.829775 27.117097 -1.461643 1.863706 0.101706 -0.033042 -363958.000000 0 0 1
-2.901035 26.311008 -6.353575 27.222290 -1.460981 1.806365 0.098549 -0.033726 787141.000000 0 0 1
-1.760835 25.742208 -5.672775 26.418596 -1.502500 1.787208 0.103797 -0.035209 639336.000000 0 0 1
-1.577135 26.349608 -4.425275 26.765132 -1.511013 1.736896 0.108951 -0.034988 9516.000000 0 0 1
-2.323735 25.620908 -3.257175 25.931446 -1.480347 1.696736 0.104007 -0.035326 563242.000000 0 0 1
-3.736635 25.762008 -3.343375 26.245412 -1.426756 1.698532 0.096728 -0.034289 200741.000000 0 0 1
-4.386035 25.120908 -2.270475 25.601804 -1.397942 1.659597 0.093675 -0.031266 306143.000000 0 0 1
-5.709435 24.443808 -2.747775 25.251686 -1.341336 1.679828 0.077103 -0.030215 563699.000000 0 0 1
-6.776835 25.347208 -2.979675 26.406153 -1.309547 1.683877 0.075388 -0.031753 343327.000000 0 0 1
-7.872135 24.750908 -3.666775 26.230196 -1.262859 1.711048 0.069302 -0.022510 725889.000000 0 0 1
-9.132735 25.587308 -4.001775 27.461453 -1.227966 1.717040 0.039575 -0.022079 40502.100000 0 0 1
-9.846735 25.801408 -2.840475 27.762189 -1.206221 1.673290 0.060458 -0.030108 -1045000.000000 0 0 1
-11.138335 26.289908 -3.027575 28.712157 -1.170050 1.676438 0.054718 -0.024438 -229599.000000 0 0 1
-11.962835 26.344808 -1.705975 28.983938 -1.144549 1.629690 0.078000 -0.023672 193635.000000 0 0 1
-12.457135 25.094408 -1.198875 28.041876 -1.110024 1.613562 0.090926 -0.022518 589439.000000 0 0 1
-11.421835 24.302508 -0.592675 26.859290 -1.131447 1.592864 0.107441 -0.029267 435644.000000 0 0 1
-11.867635 22.819808 -0.359075 25.723789 -1.091231 1.584756 0.105050 -0.027131 275714.000000 0 0 1
-12.828935 22.838008 0.682225 26.203466 -1.058987 1.544758 0.119244 -0.026713 139940.000000 0 0 1
-13.345935 21.610008 1.101825 25.422833 -1.017550 1.527443 0.119223 -0.032620 305219.000000 0 0 1
-14.318935 21.604708 2.344925 26.024872 -0.985497 1.480571 0.128319 -0.029323 363776.000000 0 0 1
-13.724635 21.758208 3.609325 25.977152 -1.008052 1.431403 0.112230 -0.029282 -92596.800000 0 0 1
-13.330935 23.039708 3.922925 26.905972 -1.046256 1.424473 0.100394 -0.022144 -183878.000000 0 0 1
-13.078435 23.164408 5.437325 27.151423 -1.056819 1.369174 0.100270 -0.022996 690378.000000 0 0 1
-11.816635 22.629808 5.898725 26.201833 -1.089569 1.343724 0.090832 -0.021573 1055360.000000 0 0 1
-11.976235 22.311908 7.266325 26.344846 -1.078172 1.291358 0.070218 -0.020775 -536425.000000 0 0 1
-10.763135 21.689708 7.955725 25.486900 -1.110167 1.253341 0.055766 -0.024916 -1046890.000000 0 0 1
-9.714035 22.609508 7.932925 25.855051 -1.164999 1.258943 0.063596 -0.024347 -730499.000000 0 0 1
-8.564835 22.119808 8.559725 25.217280 -1.201371 1.224476 0.058666 -0.028349 -398244.000000 0 0 1
-8.450435 22.205008 10.167025 25.842613 -1.207156 1.166447 0.041859 -0.032997 -671149.000000 0 0 1
-9.360835 21.364508 10.809025 25.708023 -1.157841 1.136851 0.046338 -0.030280 -112639.000000 0 0 1
-8.870735 20.908708 12.052125 25.712210 -1.169552 1.082942 0.040682 -0.025065 -479755.000000 0 0 1
-9.846635 19.955008 12.692125 25.617350 -1.112409 1.052443 0.041410 -0.021367 -545228.000000 0 0 1
-10.022635 18.701008 11.972125 24.362116 -1.078811 1.057072 0.052703 -0.035909 -338963.000000 0 1 0
-10.737335 17.798908 12.708525 24.363869 -1.027985 1.022055 0.055565 -0.034867 -549420.000000 0 1 0
-11.043335 16.568708 11.806125 23.148692 -0.982897 1.035597 0.055463 -0.031363 -254397.000000 0 1 0
-11.398235 15.377708 12.464825 22.842188 -0.932939 0.993580 0.047063 -0.032188 102880.000000 0 1 0
-11.440435 14.226908 11.663325 21.663832 -0.893536 1.002285 0.039143 -0.014210 -86994.200000 0 1 0
-11.846235 12.944608 12.437325 21.507748 -0.829675 0.954187 0.030879 -0.014521 362771.000000 0 1 0
-13.128235 12.837208 13.055325 22.529669 -0.774190 0.952715 0.050949 -0.012264 471126.000000 0 1 0
-13.399835 11.591708 13.664925 22.375287 -0.713174 0.913833 0.042623 0.005361 -74457.700000 0 1 0
-14.351235 11.713108 14.838925 23.734965 -0.684526 0.895418 0.056291 -0.002712 24518.800000 0 1 0
-15.662835 12.178408 14.608125 24.638087 -0.660892 0.936131 0.079475 -0.017499 27758.900000 0 1 0
-16.363335 12.519208 15.777625 25.950390 -0.653081 0.917268 0.073980 -0.009388 8542.800000 0 0 1
-17.377535 13.648008 15.477925 26.978010 -0.665764 0.959751 0.073527 -0.005881 978349.000000 0 0 1
-18.540535 13.194708 14.739425 27.112772 -0.618514 0.996036 0.070231 -0.012190 1106720.000000 0 0 1
-19.604935 14.117808 14.657925 28.258109 -0.624099 1.025448 0.085686 -0.015405 440738.000000 0 0 1
-20.910335 13.676208 13.964325 28.623123 -0.579210 1.061150 0.076972 -0.020112 407693.000000 0 0 1
-21.748835 12.741108 14.654625 29.156572 -0.529935 1.044172 0.073610 -0.010856 403568.000000 0 0 1
-22.943035 12.563108 13.934125 29.637381 -0.500982 1.081331 0.071904 -0.016648 -172195.000000 0 0 1
-24.026735 11.653208 14.519325 30.395593 -0.451584 1.072786 0.087686 -0.022950 -416775.000000 0 0 1
-24.760035 12.194408 15.545925 31.677101 -0.457633 1.057832 0.105432 -0.026870 -454760.000000 0 0 1
-25.670235 11.245408 16.024425 32.283159 -0.412890 1.051383 0.100036 -0.028515 -226688.000000 0 0 1
-26.527365 11.866808 17.192825 33.765596 -0.420641 1.036563 0.104307 -0.031939 132816.000000 0 0 1
-27.607255 12.622008 16.664025 34.628967 -0.428824 1.068755 0.102186 -0.014882 441555.000000 0 0 1
-28.395375 13.075108 17.782225 35.964751 -0.431523 1.053612 0.105413 -0.012575 -328846.000000 0 0 1
-29.393195 14.155408 17.551525 37.045803 -0.448810 1.077219 0.090589 -0.005133 -365458.000000 0 0 1
-28.837295 15.464608 17.486225 37.101371 -0.492242 1.080021 0.093110 -0.003165 101246.000000 0 0 1
-29.869975 16.391108 17.242925 38.186415 -0.501882 1.102299 0.091093 -0.004081 -76610.900000 0 0 1
-29.415175 17.858108 17.161425 38.453596 -0.545628 1.108182 0.105723 -0.004326 -504028.000000 0 0 1
-28.916735 18.370308 18.389325 38.882040 -0.565960 1.078159 0.092378 -0.001192 -286500.000000 0 0 1
-29.734235 18.444808 19.519325 40.066691 -0.555228 1.061949 0.080322 -0.009042 -847383.000000 0 0 1
-28.905015 18.593008 20.846525 40.196734 -0.571612 1.025569 0.064503 -0.011814 515456.000000 0 0 1
-28.296355 17.421108 21.382025 39.514171 -0.551859 0.999024 0.077604 -0.011335 -110840.000000 0 0 1
-27.318065 16.781508 20.637025 38.128500 -0.550868 0.998874 0.085563 -0.000735 -692297.000000 0 0 1
-26.887945 15.403508 21.268425 37.584246 -0.520238 0.969288 0.079264 -0.007994 314095.000000 0 0 1
-28.043215 14.599808 21.422325 38.190212 -0.480006 0.975278 0.066888 -0.007041 343298.000000 0 0 1
-27.704845 13.250108 21.489525 37.482309 -0.446105 0.960239 0.071732 -0.011422 -136146.000000 0 0 1
-28.895255 12.289708 21.782425 38.215792 -0.402141 0.964309 0.080290 -0.011292 -291818.000000 0 0 1
-29.756655 12.270308 20.678725 38.257400 -0.391112 0.999746 0.077472 -0.023404 -100538.000000 0 0 1
-30.881535 11.456608 21.047225 39.088473 -0.355247 1.002199 0.083663 -0.027803 -19174.500000 0 0 1
-31.780455 11.319108 19.787825 39.111092 -0.342157 1.040326 0.091567 -0.029019 -515220.000000 0 0 1
-31.176305 10.900008 18.549025 37.879262 -0.336340 1.059064 0.106305 -0.038878 322268.000000 0 0 1
-30.569605 9.609008 18.658425 37.080596 -0.304553 1.043515 0.120164 -0.041003 -59884.100000 0 0 1
-29.746855 9.263108 17.395125 35.682922 -0.301881 1.061582 0.123040 -0.045635 -76629.400000 0 0 1
-30.525305 8.957508 16.237525 35.716780 -0.285433 1.098852 0.124924 -0.037044 369369.000000 0 0 1
-31.058685 10.064508 15.558025 36.166122 -0.313371 1.126102 0.118802 -0.035516 -470575.000000 0 0 1
-30.050035 10.957908 14.858125 35.268176 -0.349671 1.135929 0.135415 -0.026791 -245965.000000 0 0 1
-29.419055 10.463708 13.682725 34.090863 -0.341724 1.157795 0.149166 -0.031480 368561.000000 0 0 1
-28.225465 11.195008 13.460725 33.214397 -0.377596 1.153525 0.130428 -0.021906 -68172.400000 0 0 1
-27.754035 11.065308 11.969725 32.186982 -0.379378 1.189762 0.155377 -0.016164 401031.000000 0 0 1
-26.926275 9.884608 11.713825 30.982954 -0.351826 1.183082 0.141516 -0.015942 908356.000000 0 0 1
-27.672105 8.687908 11.686825 31.269906 -0.304214 1.187758 0.163097 -0.009679 -273183.000000 0 0 1
-26.887885 7.521408 11.073525 30.035860 -0.272760 1.193211 0.163150 -0.017049 -361964.000000 0 0 1
-26.708055 7.697608 9.686725 29.434775 -0.280608 1.235455 0.159384 -0.015671 222861.000000 0 0 1
-26.264285 6.526808 9.023825 28.527904 -0.243571 1.248953 0.179807 -0.043551 -286738.000000 0 0 1
-25.679175 6.891708 7.649725 27.666477 -0.262199 1.290648 0.166713 -0.022331 -100002.000000 0 0 1
-26.668335 7.277008 6.715825 28.447447 -0.266386 1.332468 0.165346 -0.028251 58269.900000 0 0 1
-26.093475 7.991408 5.601825 27.858795 -0.297191 1.368337 0.171988 -0.027140 399210.000000 0 0 1
-27.010275 8.341608 4.353825 28.602328 -0.299539 1.417983 0.159760 -0.028126 432680.000000 0 0 1
-27.632495 7.221308 3.683825 28.797094 -0.255617 1.442521 0.183160 -0.035431 599798.000000 0 0 1
-26.717605 6.225608 3.252125 27.625440 -0.228930 1.452801 0.178363 -0.035927 76602.700000 0 0 1
-25.856735 6.461308 1.991725 26.726133 -0.244874 1.496204 0.179269 -0.028828 -128968.000000 0 0 1
-24.753235 7.310608 2.217925 25.905343 -0.287176 1.485075 0.158968 -0.019480 694813.000000 0 0 1
-23.893135 7.245708 1.047425 24.989583 -0.294440 1.528870 0.167650 -0.010637 67222.500000 0 1 0
-22.517335 7.910708 1.188825 23.896087 -0.337847 1.521026 0.137315 -0.011776 -284309.000000 0 1 0
-22.693135 9.317208 1.184425 24.559959 -0.389588 1.522552 0.112656 -0.016573 1299220.000000 0 1 0
-21.627435 9.939008 1.924625 23.879573 -0.430772 1.490112 0.137219 -0.021535 835619.000000 0 1 0
-22.172335 11.327408 2.403825 25.014016 -0.472314 1.474549 0.144004 -0.031361 342954.000000 0 0 1
-21.130735 12.049108 3.031725 24.512860 -0.518232 1.446800 0.152564 -0.038946 524575.000000 0 1 0
-21.626235 13.150808 3.701525 25.580052 -0.546351 1.425583 0.146408 -0.047060 -71737.500000 0 0 1
-20.487335 13.961808 4.394425 25.178839 -0.598191 1.395369 0.119292 -0.032973 218907.000000 0 0 1
-19.682435 13.188308 5.281925 24.274028 -0.590345 1.351446 0.104089 -0.042213 20542.400000 0 1 0
-18.911035 14.125308 5.965025 24.346110 -0.641536 1.323267 0.110684 -0.037661 -770133.000000 0 1 0
-18.130535 13.516908 7.107925 23.705394 -0.640636 1.266267 0.072837 -0.035573 480911.000000 0 1 0
-17.121935 12.543008 6.625125 22.234657 -0.632252 1.268237 0.075487 -0.032262 1461710.000000 0 1 0
-16.586735 11.707208 7.641325 21.692587 -0.614620 1.210817 0.061030 -0.027408 -83913.800000 0 1 0
10.418165 -32.816795 -13.871875 37.120198 -1.263395 1.953793 0.048631 -0.004097 308714.000000 0 0 1
11.706065 -32.440595 -13.374075 36.990404 -1.224492 1.940732 0.044061 -0.015360 296790.000000 0 0 1
12.334765 -31.462695 -14.141875 36.633867 -1.197167 1.967123 0.044652 -0.028304 302747.000000 0 0 1
13.712865 -31.164395 -13.467975 36.614867 -1.156275 1.947469 0.050420 -0.029641 -288722.000000 0 0 1
14.775765 -31.987995 -13.779475 37.834230 -1.138077 1.943577 0.054847 -0.018943 -816034.000000 0 0 1
15.930965 -31.441895 -13.194175 37.636082 -1.101819 1.928979 0.057095 -0.018981 -968315.000000 0 0 1
17.225165 -32.023895 -13.675875 38.849269 -1.077302 1.930529 0.085174 -0.017970 -761499.000000 0 0 1
17.324665 -33.334395 -13.296475 39.851250 -1.091495 1.910972 0.087797 -0.027095 -1183890.000000 0 0 1
18.443465 -33.881695 -13.862775 40.991550 -1.072302 1.915785 0.092586 -0.015062 -755416.000000 0 0 1
18.596765 32.798808 -13.346275 39.996557 1.054999 1.911007 0.078857 -0.027146 -410404.000000 0 0 1
19.368565 32.701808 -12.199675 39.917185 1.036074 1.881391 0.064721 -0.028001 -269716.000000 0 0 1
19.055865 31.517608 -11.479075 38.577905 1.026994 1.872928 0.054948 -0.027568 -213275.000000 0 0 1
19.869065 31.294408 -10.209875 38.449464 1.005104 1.839560 0.048788 -0.032629 -599816.000000 0 0 1
21.071165 30.615408 -10.438175 38.603792 0.967997 1.844597 0.048369 -0.032115 -406875.000000 0 0 1
21.695365 30.325208 -9.200375 38.405130 0.949794 1.812710 0.034243 -0.025820 -332707.000000 0 0 1
22.846465 29.311608 -9.205575 38.286734 0.908722 1.813613 0.029809 -0.009910 -225293.000000 0 0 1
23.921365 29.844508 -9.956875 39.522977 0.895121 1.825466 0.036646 -0.019228 673693.000000 0 0 1
25.067965 28.967308 -9.815175 39.545486 0.857436 1.821618 0.032160 -0.006998 1505680.000000 0 0 1
26.389065 29.352808 -10.566175 40.860913 0.838517 1.832357 0.028831 -0.010238 671253.000000 0 0 1
26.956765 30.614108 -10.184675 42.043054 0.848841 1.815474 0.036327 -0.022466 -37350.000000 0 0 1
28.043865 30.990808 -10.984275 43.215077 0.835276 1.827793 0.047854 -0.016392 -53559.100000 0 0 1
28.485865 32.503708 -10.898375 44.572527 0.851181 1.817809 0.050267 -0.022176 -180458.000000 0 0 1
27.719765 33.400708 -11.698075 44.953728 0.878079 1.834051 0.056122 -0.019217 334718.000000 0 0 1
28.362465 -33.444195 -11.501475 45.334617 -0.867433 1.827302 0.048299 -0.020399 533709.000000 0 0 1
27.396665 -32.252095 -11.749875 43.918498 -0.866619 1.841633 0.045450 -0.015904 788995.000000 0 0 1
26.414965 -32.163995 -10.685675 42.970415 -0.883226 1.822109 0.064131 -0.025044 323969.000000 0 0 1
25.295065 -31.318795 -10.864975 41.698380 -0.891400 1.834400 0.072012 -0.018864 292715.000000 0 0 1
25.538265 -29.807195 -10.929075 40.744528 -0.862378 1.842356 0.061924 -0.021369 -304472.000000 0 0 1
26.451765 -29.307995 -11.908875 41.236825 -0.836577 1.863761 0.058105 -0.021653 122388.000000 0 0 1
27.091165 -28.149695 -11.396975 40.696776 -0.804558 1.854638 0.062429 -0.025293 211747.000000 0 0 1
28.002865 -27.437195 -12.450775 41.133708 -0.775195 1.878310 0.060221 -0.029264 -120691.000000 0 0 1
29.171965 -28.084295 -12.868975 42.489313 -0.766404 1.878505 0.041954 -0.023722 -350756.000000 0 0 1
28.977265 -29.053095 -13.902275 43.324790 -0.786705 1.897460 0.042363 -0.022738 139478.000000 0 0 1
30.314665 -29.697195 -14.402975 44.814596 -0.775109 1.897994 0.038844 -0.011055 736051.000000 0 0 1
30.998265 -30.419995 -13.380475 45.445634 -0.775983 1.869653 0.055014 -0.027062 852687.000000 0 0 1
32.078165 -31.256695 -13.854075 46.882033 -0.772429 1.870785 0.050922 -0.023939 731554.000000 0 0 1
32.729865 -32.165795 -12.749075 47.627947 -0.776706 1.841781 0.042426 -0.019958 328057.000000 0 0 1
33.704965 -33.059795 -13.272575 49.042185 -0.775735 1.844850 0.038158 -0.023634 91421.600000 0 0 1
34.402365 -33.846095 -12.349175 49.815489 -0.777248 1.821307 0.037071 -0.019360 -128188.000000 0 0 1
33.619765 33.142608 -11.643775 48.624054 0.778251 1.812611 0.037035 -0.026526 720957.000000 0 0 1
32.528365 33.525408 -10.768575 47.937561 0.800491 1.797367 0.029380 -0.025437 766010.000000 0 0 1
32.176165 32.428208 -9.905475 46.744120 0.789299 1.784324 0.041024 -0.027004 -49647.100000 0 0 1
31.573965 32.872308 -8.547575 46.374184 0.805542 1.756174 0.037526 -0.012939 162725.000000 0 0 1
30.410365 33.672508 -8.669975 46.193036 0.836259 1.759606 0.031812 -0.013467 -105640.000000 0 0 1
29.861765 -33.952595 -7.460575 45.827545 -0.849416 1.734321 0.037979 -0.011021 1604370.000000 0 0 1
28.727865 -32.849495 -7.764675 44.324595 -0.852233 1.746882 0.038623 -0.016429 985711.000000 0 0 1
29.408265 -31.660495 -7.979875 43.942137 -0.822262 1.753409 0.010827 -0.012723 207110.000000 0 0 1
28.601165 -30.587595 -8.449075 42.720188 -0.818946 1.769886 0.017150 -0.013939 33173.900000 0 0 1
27.680265 -29.870995 -7.458175 41.401664 -0.823445 1.751927 0.032652 -0.013146 -222050.000000 0 0 1
27.003665 -28.820695 -8.025375 40.301824 -0.817936 1.771268 0.042675 -0.025208 -633248.000000 0 0 1
25.909165 -28.462495 -7.232375 39.162555 -0.832324 1.756538 0.047771 -0.033675 -585063.000000 0 0 1
24.968765 -27.548395 -8.003775 38.031746 -0.834478 1.782831 0.099016 -0.033138 -693713.000000 0 0 1
23.955665 -28.233695 -8.699375 38.035438 -0.867187 1.801557 0.107552 -0.031870 -258556.000000 0 0 1
23.182965 -27.303595 -9.382475 37.026572 -0.866836 1.826988 0.129927 -0.030400 -182289.000000 0 0 1
21.870265 -27.915295 -9.941875 36.829513 -0.906228 1.844130 0.119580 -0.031570 -27191.000000 0 0 1
22.014165 -28.821295 -11.034975 37.908590 -0.918511 1.866167 0.113058 -0.032849 -519470.000000 0 0 1
20.913165 -29.619295 -11.354575 37.994598 -0.956011 1.874281 0.101366 -0.037821 -225591.000000 0 0 1
20.648365 -30.932695 -10.597975 38.671742 -0.982199 1.848398 0.098308 -0.040202 -175845.000000 0 0 1
21.501665 -31.961395 -10.981675 40.055581 -0.978602 1.848513 0.083504 -0.034393 -465070.000000 0 0 1
21.212865 -33.176295 -10.343675 40.714172 -1.001910 1.827668 0.060779 -0.032596 -7086.330000 0 0 1
22.263765 33.795208 -10.439975 41.794550 0.988270 1.823263 0.062361 -0.025783 129383.000000 0 0 1
23.372865 33.965108 -9.554275 42.322613 0.968072 1.798508 0.057949 -0.022443 135748.000000 0 0 1
24.338465 32.946108 -9.754975 42.106608 0.934543 1.804594 0.050586 -0.019395 64750.400000 0 0 1
25.654965 33.255808 -8.993975 42.953668 0.913712 1.781745 0.037046 -0.018403 -543138.000000 0 0 1
25.747965 33.114808 -7.575075 42.625462 0.909904 1.749458 0.024453 -0.021042 36341.500000 0 0 1
25.977065 31.778208 -7.169475 41.666099 0.885506 1.743727 0.026553 -0.017423 -296915.000000 0 0 1
26.029865 31.702708 -5.620475 41.402963 0.883344 1.706967 0.027117 -0.011852 -490607.000000 0 0 1
27.230965 32.137408 -5.032175 42.422415 0.867855 1.689697 0.029586 -0.013694 417300.000000 0 0 1
28.192565 31.126808 -4.647575 42.252797 0.834823 1.681014 0.050476 -0.009058 233215.000000 0 0 1
27.712665 30.038508 -3.612875 41.028730 0.825650 1.658968 0.050147 -0.004127 -833991.000000 0 0 1
27.429065 30.643608 -2.353375 41.193722 0.840696 1.627957 0.050360 -0.007267 -104970.000000 0 0 1
27.225465 29.541708 -1.486475 40.201345 0.826178 1.607781 0.043158 0.000510 302644.000000 0 0 1
25.842465 28.835508 -1.523275 38.750999 0.840083 1.610116 0.031126 0.006558 -30334.800000 0 0 1
24.737865 29.506408 -0.956875 38.516305 0.873081 1.595642 0.038482 -0.002067 152674.000000 0 0 1
23.521865 28.828708 -1.257775 37.228411 0.886424 1.604588 0.037409 0.004020 717910.000000 0 0 1
22.248965 29.449708 -0.619975 36.914579 0.923791 1.587592 0.053880 -0.001221 321363.000000 0 0 1
22.155465 28.966508 0.683625 36.474520 0.917849 1.552053 0.070532 -0.014661 560444.000000 0 0 1
21.062365 29.645108 1.326925 36.389784 0.953069 1.534324 0.064951 -0.020752 305688.000000 0 0 1
20.212265 28.824308 2.290825 35.279233 0.959250 1.505817 0.081889 -0.039721 -250216.000000 0 0 1
19.443065 27.787808 1.688425 33.956529 0.960273 1.521053 0.090625 -0.036424 220365.000000 0 0 1
18.769065 27.085808 2.675925 33.061751 0.964819 1.489771 0.112169 -0.045905 -490855.000000 0 0 1
18.284365 25.674408 2.213925 31.597385 0.951954 1.500672 0.108055 -0.030703 -217588.000000 0 0 1
19.202765 24.677008 1.811125 31.320618 0.909512 1.512939 0.108823 -0.029546 -205988.000000 0 0 1
20.023065 24.169908 2.844725 31.515077 0.878959 1.480408 0.108403 -0.024788 -389763.000000 0 0 1
21.258265 23.445008 2.298825 31.731165 0.834276 1.498286 0.099820 -0.020438 -250521.000000 0 0 1
20.943065 22.381308 1.449725 30.686099 0.818583 1.523535 0.100159 -0.018120 1122230.000000 0 0 1
22.205865 21.760408 1.112325 31.110337 0.775267 1.535034 0.075669 -0.019889 1112720.000000 0 0 1
22.030465 20.702808 -0.015375 30.231571 0.754340 1.571305 0.104900 -0.023594 -169722.000000 0 0 1
21.895065 21.289208 -1.292175 30.566223 0.771370 1.613084 0.067916 -0.009884 238662.000000 0 0 1
22.122965 20.348408 -2.263475 30.143103 0.743640 1.645958 0.106951 -0.018489 82010.100000 0 0 1
21.843565 20.956608 -3.633675 30.488102 0.764678 1.690264 0.084520 -0.016297 478491.000000 0 0 1
22.889865 21.865808 -3.989575 31.905740 0.762521 1.696167 0.075363 -0.006712 731720.000000 0 0 1
22.514265 22.581208 -5.172775 32.304190 0.786883 1.731616 0.056658 -0.008360 91365.200000 0 0 1
23.517765 23.734608 -5.518375 33.865460 0.789987 1.734476 0.044743 0.001516 132199.000000 0 0 1
23.555965 24.896108 -4.688575 34.593098 0.813050 1.706750 0.015609 0.006418 -65294.700000 0 0 1
23.931765 24.749108 -3.343475 34.589400 0.802186 1.667609 0.041599 0.000120 -189478.000000 0 0 1
22.781465 24.521808 -2.317775 33.551249 0.822173 1.639933 0.038476 -0.004986 -1512880.000000 0 0 1
21.967165 25.590208 -1.922575 33.780341 0.861434 1.627741 0.049003 -0.005149 479597.000000 0 0 1
20.885365 25.266208 -1.069575 32.798228 0.880038 1.603413 0.068334 -0.008934 59982.200000 0 0 1
19.924465 24.154408 -1.508575 31.347975 0.881068 1.618938 0.092479 -0.018939 -1752800.000000 0 0 1
19.328565 24.583908 -2.735875 31.391830 0.904509 1.658059 0.059300 -0.014846 368595.000000 0 0 1
18.487165 23.551608 -3.267575 30.118609 0.905291 1.679501 0.068800 -0.015790 325171.000000 0 0 1
18.187965 23.879208 -4.761075 30.392211 0.919871 1.728099 0.062573 -0.018114 -233974.000000 0 0 1
17.210765 23.054608 -5.317775 29.257548 0.929525 1.753570 0.062594 -0.020519 -49182.900000 0 0 1
16.755465 23.407808 -6.617175 29.537402 0.949540 1.796741 0.068071 -0.026085 16788.000000 0 0 1
15.773365 22.358708 -7.193775 28.292425 0.956410 1.827884 0.081053 -0.037243 -1004580.000000 0 0 1
16.328465 21.125508 -7.440975 27.717756 0.912783 1.842585 0.073281 -0.030784 131666.000000 0 0 1
15.557865 20.368608 -8.375475 26.964346 0.918512 1.886634 0.089323 -0.031463 -129379.000000 0 0 1
16.216665 19.060408 -8.875175 26.552742 0.865836 1.911602 0.081609 -0.026571 368922.000000 0 0 1
17.400665 19.183108 -9.668675 27.645218 0.834082 1.928091 0.094904 -0.023680 562550.000000 0 0 1
17.711565 18.000508 -10.335675 27.286334 0.793489 1.959280 0.090275 -0.022982 -898404.000000 0 0 1
19.188965 17.934708 -10.647775 28.341582 0.751625 1.955942 0.072313 -0.016049 -866675.000000 0 0 1
19.616365 18.692408 -11.770975 29.542575 0.761284 1.980613 0.079016 -0.015150 657890.000000 0 0 1
21.033465 18.660708 -11.922575 30.541390 0.725693 1.971834 0.081770 -0.010925 417543.000000 0 0 1
21.545765 19.186108 -13.259475 31.751227 0.727531 2.001604 0.077909 -0.018204 -196328.000000 0 0 1
21.428665 18.150308 -14.231575 31.482679 0.702756 2.039852 0.073846 -0.012056 282706.000000 0 0 1
21.766465 18.590908 -15.563075 32.582360 0.706874 2.068778 0.074747 -0.015871 110112.000000 0 0 1
21.723165 17.381808 -16.569375 32.381590 0.674833 2.107948 0.068175 -0.013448 -517099.000000 0 0 1
22.610865 16.303108 -16.386175 32.334955 0.624701 2.102223 0.080312 -0.013561 -11026.900000 0 0 1
22.844965 15.648808 -17.601075 32.811210 0.600588 2.137003 0.091013 -0.022809 -556953.000000 0 0 1
23.725665 16.320708 -18.627775 34.296745 0.602554 2.144963 0.104770 -0.023626 -1795660.000000 0 0 1
25.019365 16.502808 -18.173575 35.051250 0.583095 2.115875 0.121678 -0.023682 -678128.000000 0 0 1
25.819465 16.989208 -19.228575 36.400770 0.581979 2.127330 0.143390 -0.028733 302022.000000 0 0 1
27.362365 17.008108 -19.033175 37.419734 0.556142 2.104401 0.130552 -0.026278 453490.000000 0 0 1
27.783665 18.118008 -18.278875 37.872306 0.577857 2.074468 0.123419 -0.027490 -589219.000000 0 0 1
29.149165 18.189208 -18.027075 38.800729 0.557883 2.053987 0.116288 -0.031274 -639122.000000 0 0 1
29.618965 19.374808 -17.198975 39.350617 0.579277 2.023135 0.123827 -0.030703 207718.000000 0 0 1
28.973865 19.379608 -15.917675 38.320053 0.589523 1.999165 0.114476 -0.028058 170914.000000 0 0 1
27.751065 20.089908 -15.892675 37.766429 0.626608 2.005140 0.098530 -0.026792 154579.000000 0 0 1
26.750465 19.494708 -14.854475 36.280662 0.629769 1.992628 0.099579 -0.020371 91339.200000 0 0 1
27.053965 19.835708 -13.508575 36.164264 0.632656 1.953612 0.098160 -0.020265 400208.000000 0 0 1
26.072665 19.240908 -12.652075 34.786081 0.635759 1.943045 0.089093 -0.019927 354645.000000 0 0 1
26.218265 19.645508 -11.184275 34.618368 0.643057 1.899772 0.097017 -0.014804 -172023.000000 0 0 1
25.883065 20.985308 -10.976075 35.082623 0.681276 1.889003 0.092256 -0.007932 100249.000000 0 0 1
26.256565 21.492408 -9.670375 35.282389 0.685952 1.848434 0.079163 -0.005997 43565.100000 0 0 1
25.301965 21.062308 -8.548475 34.013037 0.694209 1.824850 0.090361 -0.007590 -1122660.000000 0 0 1
25.397765 19.688108 -8.147275 33.151865 0.659429 1.819096 0.112378 -0.017430 403537.000000 0 0 1
24.554565 19.379008 -7.024175 32.059502 0.668134 1.791686 0.098285 -0.018812 -750011.000000 0 0 1
23.087665 19.296808 -7.347275 30.974014 0.696196 1.810287 0.077950 -0.024050 -1744960.000000 0 0 1
22.505565 20.541208 -7.554775 31.392934 0.739797 1.813834 0.073655 -0.012165 619187.000000 0 0 1
21.152065 20.364808 -8.044975 30.444325 0.766438 1.838225 0.067263 -0.015172 980006.000000 0 0 1
20.347965 21.685008 -8.095875 30.819190 0.817197 1.836605 0.046683 -0.020885 -504304.000000 0 0 1
20.770665 22.653208 -8.992075 32.022583 0.828724 1.855428 0.064687 -0.015568 150420.000000 0 0 1
20.205665 22.559708 -10.317575 31.994714 0.840388 1.899142 0.066465 -0.001746 57715.700000 0 0 1
18.701865 22.795608 -10.575075 31.324619 0.883730 1.915158 0.063374 -0.021331 -170533.000000 0 0 1
18.311465 24.117908 -10.266475 31.974736 0.921403 1.897667 0.058765 -0.026381 727188.000000 0 0 1
16.937465 24.476908 -10.480875 31.557020 0.965475 1.909352 0.070883 -0.026014 1042750.000000 0 0 1
16.547165 25.898408 -9.975175 32.311613 1.002245 1.884641 0.062895 -0.025897 73579.500000 0 0 1
17.480265 26.806008 -10.535275 33.691449 0.992944 1.888829 0.098786 -0.022887 221960.000000 0 0 1
17.289365 28.103208 -10.094175 34.505142 1.019268 1.867680 0.092675 -0.039374 -92949.300000 0 0 1
20.626765 28.514808 33.649800 48.691547 0.944557 0.807813 0.055706 0.003061 592878.000000 0 0 1
19.296565 28.780008 33.210152 47.995421 0.980155 0.806618 0.079282 -0.015046 -99741.200000 0 0 1
18.429465 27.723108 33.501903 47.229158 0.984109 0.782224 0.075522 -0.014742 -325089.000000 0 0 1
16.990365 28.262608 33.406010 46.940484 1.029524 0.778928 0.096741 -0.028363 -356931.000000 0 0 1
16.549965 28.641708 32.091469 46.088080 1.046840 0.800557 0.109233 -0.028900 -742088.000000 0 0 1
15.193165 28.934108 32.229786 45.899608 1.087275 0.792342 0.138748 -0.040054 -882654.000000 0 0 1
14.504065 29.191808 30.881153 44.901839 1.109669 0.812414 0.138408 -0.040621 15444.400000 0 0 1
14.080665 28.026308 30.175003 43.523211 1.105223 0.804727 0.118216 -0.034922 352235.000000 0 0 1
12.739865 27.730608 30.567913 43.193612 1.140140 0.784566 0.123962 -0.025681 44971.100000 0 0 1
12.319265 26.224308 30.464953 42.042740 1.131628 0.760315 0.105122 -0.030669 53972.100000 0 0 1
12.482065 25.510008 29.229153 40.754212 1.115745 0.771012 0.095756 -0.022194 -490049.000000 0 0 1
13.804265 25.281308 28.860983 40.775711 1.071009 0.784420 0.079823 -0.024513 -657586.000000 0 0 1
13.947865 24.548008 27.532493 39.435844 1.054097 0.797973 0.074836 -0.021866 -420739.000000 0 0 1
13.487265 25.388408 26.477743 39.083864 1.082472 0.826493 0.081705 -0.025675 204400.000000 0 0 1
13.287765 24.751808 25.183253 37.728145 1.078113 0.839960 0.096559 -0.036625 593757.000000 0 0 1
12.001665 23.855808 25.022753 36.596143 1.104678 0.817902 0.105002 -0.030164 472263.000000 0 0 1
12.117465 23.183408 23.758133 35.337689 1.089171 0.833462 0.116929 -0.038875 832839.000000 0 0 1
11.002765 22.283608 23.523223 34.219323 1.112153 0.812859 0.119005 -0.035337 881570.000000 0 0 1
10.672765 22.016108 22.046513 32.934263 1.119406 0.837383 0.125302 -0.037980 166694.000000 0 0 1
10.356265 23.251608 21.379313 33.241007 1.151774 0.872177 0.137623 -0.038918 34656.100000 0 0 1
10.498665 23.124308 19.948313 32.293820 1.144613 0.904965 0.143242 -0.025220 -393772.000000 0 0 1
9.993465 24.334708 19.138013 32.531691 1.181128 0.941856 0.119269 -0.026335 635608.000000 0 0 1
8.579965 24.453608 19.018213 32.144785 1.233349 0.937702 0.114896 -0.030066 273828.000000 0 0 1
7.945465 25.188408 20.043513 33.156127 1.265234 0.921634 0.110052 -0.034387 -100546.000000 0 0 1
6.580765 25.787208 19.673413 33.095766 1.320934 0.934229 0.099827 -0.027757 -227576.000000 0 0 1
6.723165 26.750508 18.640713 33.290641 1.324568 0.976485 0.097091 -0.027203 -1214720.000000 0 0 1
5.587265 27.078608 17.947513 32.963340 1.367317 0.995041 0.081532 -0.029240 -1666090.000000 0 0 1
5.734865 28.148908 16.872713 33.315734 1.369814 1.039735 0.089588 -0.027257 265107.000000 0 0 1
6.417565 27.589408 15.732913 32.401931 1.342251 1.063799 0.087263 -0.020254 522278.000000 0 0 1
7.423765 28.480508 15.202813 33.126683 1.315809 1.094006 0.079961 -0.021155 603624.000000 0 0 1
8.061365 27.942508 13.930813 32.246502 1.289925 1.124076 0.076697 -0.017056 -65122.800000 0 0 1
7.216765 28.090508 12.821013 31.710199 1.319324 1.154563 0.080788 -0.026480 -257314.000000 0 0 1
7.199365 26.960808 12.007713 30.379289 1.309854 1.164446 0.075614 -0.022031 109584.000000 0 0 1
6.410265 27.060208 10.673913 29.787225 1.338195 1.204309 0.064609 -0.024498 145312.000000 0 0 1
6.977365 27.855208 9.588013 30.274184 1.325359 1.248542 0.056719 -0.020429 17852.900000 0 0 1
7.157665 29.235408 9.850213 31.669669 1.330691 1.254520 0.066136 -0.020270 -413823.000000 0 0 1
6.989565 29.976108 8.500113 31.932319 1.341718 1.301356 0.067617 -0.013884 -1291710.000000 0 0 1
5.748165 29.815908 7.957213 31.390238 1.380344 1.314507 0.041509 -0.013186 -1385960.000000 0 0 1
5.577565 28.638208 7.149413 30.039479 1.378445 1.330490 0.025874 -0.010470 -1023600.000000 0 0 1
4.121765 28.269608 6.951813 29.402167 1.426015 1.332097 0.049085 -0.015567 -431118.000000 0 0 1
3.388065 29.292808 6.264213 30.146110 1.455646 1.361476 0.071398 -0.016179 680470.000000 0 0 1
1.991965 28.990208 6.144213 29.701034 1.502192 1.362423 0.036167 -0.007122 851270.000000 0 0 1
1.294665 29.978608 5.151513 30.445545 1.527637 1.400774 0.051952 -0.018502 35308.000000 0 0 1
1.843665 29.866208 3.806513 30.164201 1.509144 1.444266 0.044513 -0.014109 202754.000000 0 0 1
1.191865 30.637608 2.839013 30.791940 1.531914 1.478465 0.042044 -0.023811 -373793.000000 0 0 1
0.036365 29.892608 2.190913 29.972812 1.569580 1.497634 0.079346 -0.031398 -814518.000000 0 0 1
0.507865 28.826008 1.447013 28.866772 1.553180 1.520648 0.092810 -0.029467 -541743.000000 0 0 1
-0.494535 27.942508 1.060513 27.966999 -1.553100 1.532867 0.100327 -0.034292 -299938.000000 0 0 1
-0.806535 28.000008 -0.447787 28.015201 -1.541999 1.586781 0.105602 -0.037965 -441625.000000 0 0 1
-1.548735 29.129608 -0.733887 29.179980 -1.517679 1.595949 0.112912 -0.047201 -462204.000000 0 0 1
-1.330235 29.528908 -2.085387 29.632327 -1.525778 1.641230 0.100360 -0.037893 -519888.000000 0 0 1
-2.402035 30.509508 -2.603887 30.714493 -1.492228 1.655675 0.114699 -0.033886 1553020.000000 0 0 1
-3.785235 30.076008 -2.764187 30.439038 -1.445599 1.661732 0.096406 -0.034643 1567540.000000 0 0 1
-3.969735 29.053308 -3.712387 29.557323 -1.435001 1.696729 0.075813 -0.035031 -1728840.000000 0 0 1
-5.416935 28.860108 -4.075187 29.645509 -1.385259 1.708697 0.078345 -0.025258 -1147270.000000 0 0 1
-5.999635 29.837508 -4.878887 30.823304 -1.372365 1.729751 0.070421 -0.022512 -45551.400000 0 0 1
-7.027435 29.300008 -5.684287 30.662460 -1.335399 1.757258 0.063921 -0.031717 -86121.600000 0 0 1
-7.517135 30.383708 -6.717387 32.012503 -1.328260 1.782204 0.055543 -0.017546 -172389.000000 0 0 1
-8.151335 31.480908 -6.129587 33.091746 -1.317431 1.757102 0.049919 -0.009350 -99371.500000 0 0 1
-8.549835 32.476808 -7.046187 34.314596 -1.313377 1.777608 0.039689 -0.021494 286485.000000 0 0 1
-9.611035 33.398308 -6.331987 35.325813 -1.290597 1.751016 0.049524 -0.017503 371706.000000 0 0 1
-10.926235 32.895508 -6.393587 35.247341 -1.250111 1.753198 0.051058 -0.015450 -542664.000000 0 0 1
-11.801935 33.731008 -5.676987 36.184178 -1.234225 1.728339 0.059765 -0.013905 294820.000000 0 0 1
-13.290035 33.301408 -5.790887 36.320011 -1.191080 1.730920 0.086986 -0.019621 163558.000000 0 0 1
-13.778835 33.496008 -7.049887 36.899048 -1.180537 1.763037 0.090075 -0.021155 356354.000000 0 0 1
-15.169835 33.161108 -7.118387 37.154467 -1.141757 1.763577 0.119253 -0.032121 190787.000000 0 0 1
-15.796335 33.188508 -8.555587 37.738566 -1.126567 1.799491 0.157996 -0.039502 137948.000000 0 0 1
-17.172035 32.984408 -8.747587 38.201705 -1.090796 1.801830 0.199724 -0.036459 -133210.000000 0 0 1
-17.998435 34.039208 -8.305087 39.390174 -1.084409 1.783232 0.202170 -0.028119 -667654.000000 0 0 1
-19.497835 33.781908 -8.627687 39.947714 -1.047334 1.788486 0.197807 -0.029569 290859.000000 0 0 1
-20.105935 32.877808 -7.712787 39.302493 -1.021938 1.768320 0.178541 -0.034142 99137.800000 0 0 1
-20.504635 33.373408 -6.469787 39.699906 -1.019856 1.734494 0.155548 -0.032211 -658425.000000 0 0 1
-21.204835 32.335208 -5.614287 39.073404 -0.990367 1.714981 0.135130 -0.026069 -782655.000000 0 0 1
-21.259835 32.512008 -4.188487 39.071149 -0.991679 1.678204 0.130345 -0.028030 424508.000000 0 0 1
-22.540535 32.239908 -3.636787 39.505868 -0.960641 1.662984 0.130816 -0.024173 60732.600000 0 0 1
-23.534835 33.403308 -3.651087 41.024382 -0.957013 1.659912 0.129775 -0.017222 -562671.000000 0 0 1
-23.946835 33.652908 -4.963887 41.600593 -0.952339 1.690404 0.140982 -0.026734 614900.000000 0 0 1
-24.950335 -33.390395 -5.003987 41.981872 0.929070 1.690274 0.143165 -0.026648 950864.000000 0 0 1
-25.621295 -33.267595 -6.414487 42.477397 0.914519 1.722386 0.174815 -0.005461 282824.000000 0 0 1
-24.655835 -32.828995 -7.383887 41.715403 0.926631 1.748740 0.183685 -0.001433 317055.000000 0 0 1
-25.046135 -32.862095 -8.754787 42.235914 0.919559 1.779593 0.140881 -0.006296 -98661.300000 0 0 1
-26.152955 -31.889495 -9.216287 42.259400 0.883912 1.790652 0.117398 -0.004665 266474.000000 0 0 1
-27.454425 -32.254795 -8.746787 43.250705 0.865621 1.774435 0.127610 -0.007359 1017170.000000 0 0 1
-28.571905 -31.580195 -9.368587 43.605422 0.835368 1.787334 0.057444 -0.008751 737068.000000 0 0 1
-28.734365 -30.054795 -9.317687 42.611896 0.807855 1.791241 0.029438 -0.001378 -1065430.000000 0 0 1
-27.835275 -29.370195 -10.140187 41.716115 0.812223 1.816332 0.045715 0.010441 -364508.000000 0 0 1
-28.177955 -29.228295 -11.483287 42.191898 0.803693 1.846442 0.029683 -0.000609 -578876.000000 0 0 1
-27.051525 -28.554595 -12.245087 41.195777 0.812422 1.872598 0.080450 0.007435 -1168120.000000 0 0 1
-25.866215 -29.268995 -12.268487 40.942043 0.847037 1.875127 0.089540 -0.002797 -638223.000000 0 0 1
-25.014335 -28.563695 -13.174887 40.189293 0.851548 1.904792 0.090628 -0.006286 -395001.000000 0 0 1
-23.628135 -29.162095 -13.417587 39.859104 0.889846 1.914127 0.121581 -0.025405 -539040.000000 0 0 1
-23.548835 -30.422695 -14.118287 40.980654 0.912077 1.922514 0.128981 -0.032426 67944.800000 0 0 1
-24.073435 -31.556695 -13.391187 41.888890 0.919114 1.896192 0.114997 -0.027733 101890.000000 0 0 1
-24.149835 -32.872495 -14.191187 43.188022 0.937191 1.905607 0.126404 -0.030559 122410.000000 0 0 1
-24.908135 -33.911095 -13.589687 44.216028 0.937281 1.883201 0.108970 -0.036559 -22065.200000 0 0 1
-24.629135 32.870608 -14.086987 43.422510 -0.927759 1.901191 0.113657 -0.033806 -527253.000000 0 0 1
-25.079135 31.614308 -13.304587 42.490464 -0.900164 1.889272 0.089677 -0.031088 -151920.000000 0 0 1
-24.447335 31.171708 -12.080987 41.416154 -0.905715 1.866797 0.115910 -0.027727 193492.000000 0 0 1
-24.307335 32.186808 -11.081687 41.828709 -0.923978 1.838928 0.156528 -0.032837 -505226.000000 0 0 1
-23.464935 31.807308 -9.912587 40.750060 -0.935200 1.816515 0.162918 -0.033923 -390412.000000 0 0 1
-24.190635 30.884208 -9.126187 40.277890 -0.906341 1.799362 0.151084 -0.033509 164014.000000 0 0 1
-23.524035 30.458108 -7.948487 39.297010 -0.913150 1.774469 0.151188 -0.033220 -140297.000000 0 0 1
-24.394635 29.421408 -7.215087 38.894408 -0.878535 1.757382 0.130352 -0.037355 -184363.000000 0 0 1
-24.449635 28.288808 -8.126887 38.263398 -0.858066 1.784820 0.122446 -0.021091 84301.800000 0 0 1
-24.837935 27.054308 -7.473287 37.479443 -0.828083 1.771539 0.102934 -0.025580 437824.000000 0 0 1
-23.737235 26.411808 -6.536787 36.107749 -0.838680 1.752836 0.099577 -0.025253 381377.000000 0 0 1
-23.394535 27.190708 -5.395487 36.273270 -0.860303 1.720096 0.103918 -0.027518 91165.900000 0 0 1
-22.522935 26.500808 -4.508887 35.070008 -0.866363 1.699721 0.096053 -0.033332 362965.000000 0 0 1
-21.076235 27.077008 -4.555787 34.613975 -0.909377 1.702796 0.088908 -0.041851 -467823.000000 0 0 1
-20.333735 26.807708 -5.647187 34.117513 -0.921875 1.737083 0.101810 -0.039516 -738430.000000 0 0 1
-19.121635 27.507808 -5.503587 33.950050 -0.963343 1.733623 0.101135 -0.037379 179553.000000 0 0 1
-18.079935 27.411008 -6.661387 33.505544 -0.987711 1.770944 0.117957 -0.038871 118316.000000 0 0 1
-18.491335 27.972408 -7.921987 34.454941 -0.986688 1.802795 0.134570 -0.043970 221331.000000 0 0 1
-18.415135 29.390708 -7.871387 35.565287 -1.011074 1.793966 0.142515 -0.040758 -63055.900000 0 0 1
-18.327235 30.016908 -9.333187 36.386958 -1.022646 1.830194 0.143850 -0.035784 696244.000000 0 0 1
-17.021835 29.823008 -9.906087 35.739128 -1.052153 1.851652 0.132970 -0.035525 535396.000000 0 0 1
-16.945735 30.452608 -11.166487 36.595214 -1.063005 1.880877 0.148513 -0.038298 871449.000000 0 0 1
-15.489335 30.721008 -11.746387 36.354882 -1.103799 1.899803 0.132906 -0.041037 1071790.000000 0 0 1
-15.367735 31.501808 -12.925987 37.357895 -1.116927 1.924105 0.130550 -0.041537 -287859.000000 0 0 1
-15.821635 30.765708 -14.050987 37.340101 -1.095804 1.956593 0.132051 -0.044277 -192149.000000 0 0 1
-15.323235 31.180308 -15.452287 38.023497 -1.114021 1.989294 0.159180 -0.045983 -517430.000000 0 0 1
-13.930235 31.093908 -15.523687 37.441520 -1.149602 1.998312 0.133455 -0.058406 -669243.000000 0 0 1
-13.513435 31.756508 -16.712587 38.345786 -1.168475 2.021767 0.134708 -0.062393 742228.000000 0 0 1
-11.943135 31.801608 -16.789787 37.892977 -1.211542 2.029833 0.138529 -0.057562 455673.000000 0 0 1
-11.483835 30.446008 -16.867887 36.651924 -1.210110 2.049037 0.135464 -0.068141 -829792.000000 0 0 1
-10.209735 30.316608 -17.397787 36.414536 -1.245956 2.068911 0.119527 -0.063480 -567269.000000 0 0 1
-10.117435 30.506308 -18.903387 37.287201 -1.250561 2.102459 0.124523 -0.066571 -795501.000000 0 0 1
-10.941835 29.641708 -19.595987 37.180066 -1.217176 2.125929 0.120136 -0.068952 -278821.000000 0 0 1
-10.690235 29.643008 -21.020387 37.879358 -1.224681 2.159075 0.117721 -0.066584 -513731.000000 0 0 1
-11.896435 29.238208 -21.907987 38.423403 -1.184373 2.177513 0.114827 -0.049455 291699.000000 0 0 1
-12.887535 30.238108 -21.964887 39.533379 -1.167908 2.159885 0.123600 -0.046862 -90020.600000 0 0 1
-13.927935 30.199808 -21.031287 39.348835 -1.138674 2.134692 0.125189 -0.047395 394980.000000 0 0 1
-15.000035 31.382808 -21.128487 40.697600 -1.124928 2.116662 0.158130 -0.048370 949243.000000 0 0 1
-15.652135 31.423908 -22.405187 41.646654 -1.108673 2.138839 0.144979 -0.037583 13219.300000 0 0 1
-16.542535 32.506208 -22.497387 42.853722 -1.100051 2.123489 0.150122 -0.032122 -846.446000 0 0 1
-16.834335 32.888508 -23.985187 44.049268 -1.097705 2.146599 0.139381 -0.023044 9151.620000 0 0 1
-15.747135 33.390108 -24.744587 44.442842 -1.130117 2.161293 0.148406 -0.016634 -89997.000000 0 0 1
-15.942935 33.427008 -26.130487 45.324876 -1.125760 2.185254 0.156949 -0.015354 122397.000000 0 0 1
-16.529435 -33.313395 -26.653887 45.754062 1.110210 2.192655 0.151294 -0.006543 -200770.000000 0 0 1
-17.902435 -33.173495 -26.460587 46.055842 1.075926 2.182829 0.136906 -0.005814 -673279.000000 0 0 1
-18.411035 -31.990695 -27.031487 45.750104 1.048577 2.202909 0.124800 -0.000364 601608.000000 0 0 1
-19.944635 -31.750495 -26.843987 46.113794 1.009922 2.192136 0.093655 -0.005061 665557.000000 0 0 1
-20.712435 -32.695095 -27.554187 47.510077 1.006106 2.189482 0.072462 0.001597 -505958.000000 0 0 1
-22.084835 -32.335495 -27.510387 47.855465 0.971578 2.183234 0.051694 0.005593 401783.000000 0 0 1
-22.993935 -33.557695 -27.698787 49.214456 0.970068 2.168588 0.027760 0.012128 -412194.000000 0 0 1
-23.053335 33.916208 -26.432287 48.789663 -0.973815 2.143326 0.048996 0.003230 311236.000000 0 0 1
-24.178135 33.030908 -26.236387 48.620686 -0.938925 2.140775 0.028376 0.010782 717331.000000 0 0 1
-24.359435 31.703008 -26.985987 48.235944 -0.915646 2.164528 0.042188 0.008021 -76294.700000 0 0 1
-23.429735 30.731108 -26.524987 46.871403 -0.919399 2.172333 0.049425 -0.014346 -211560.000000 0 0 1
-23.986035 29.610608 -25.902887 46.076866 -0.889958 2.167800 0.031422 -0.005364 -108718.000000 0 0 1
31.714412 9.738308 -26.960585 42.749406 0.297924 2.253207 0.019086 -0.000013 14489.600000 0 0 1
31.460272 8.450708 -26.441615 41.956193 0.262421 2.252632 0.013884 0.003109 100293.000000 0 0 1
30.071472 8.237408 -26.302955 40.792079 0.267369 2.271565 0.042845 -0.004799 -46364.200000 0 0 1
29.797502 6.834408 -25.698405 39.937555 0.225462 2.269812 0.039351 -0.006192 -17624.300000 0 0 1
30.185032 6.640508 -24.347775 39.345224 0.216544 2.238041 0.022800 0.007236 364534.000000 0 0 1
29.642522 5.358208 -23.924575 38.467841 0.178830 2.242010 0.042218 0.002274 390669.000000 0 0 1
29.635442 5.161808 -22.377075 37.491828 0.172447 2.210368 0.053796 0.004131 140976.000000 0 0 1
30.934752 4.867008 -21.896775 38.211456 0.156052 2.181009 0.049672 0.001331 338235.000000 0 0 1
30.998262 4.730708 -20.498275 37.462663 0.151444 2.149770 0.042913 -0.000931 -123713.000000 0 0 1
32.438812 4.407208 -20.053675 38.390752 0.135035 2.120409 0.044003 -0.001040 -655802.000000 0 0 1
32.835062 3.080908 -20.195375 38.671520 0.093556 2.120258 0.052684 -0.004907 -67168.700000 0 0 1
33.609482 2.854308 -19.051375 38.738859 0.084722 2.084940 0.064438 -0.011695 -342382.000000 0 0 1
34.093712 1.432208 -18.869275 38.993358 0.041983 2.075913 0.073317 -0.019086 633928.000000 0 0 1
33.021192 0.544808 -18.461275 37.835362 0.016497 2.080521 0.072025 -0.011854 659924.000000 0 0 1
33.415002 -0.802992 -18.462275 38.184588 -0.024026 2.075446 0.080573 -0.012198 405177.000000 0 0 1
32.337902 -1.805592 -17.890875 37.001128 -0.055777 2.075471 0.072510 -0.010037 635362.000000 0 0 1
32.098072 -1.736892 -16.512675 36.138227 -0.054059 2.045338 0.089181 -0.014482 -179200.000000 0 0 1
30.714912 -1.671292 -16.268475 34.797447 -0.054359 2.057279 0.082739 -0.014364 -65080.600000 0 0 1
30.082222 -2.057092 -14.900375 33.633211 -0.068276 2.029767 0.103481 -0.017397 -194387.000000 0 0 1
30.060892 -3.460892 -14.591175 33.593710 -0.114625 2.020104 0.075695 -0.024359 14917.900000 0 0 1
29.250912 -3.730392 -13.526675 32.442297 -0.126846 2.000879 0.076414 -0.022497 -628962.000000 0 0 1
29.107142 -5.195892 -13.051575 32.319756 -0.176649 1.986492 0.077159 -0.022630 -173682.000000 0 0 1
28.665692 -6.029892 -14.114875 32.516322 -0.207330 2.019820 0.063238 -0.014913 720012.000000 0 0 1
28.242092 -7.363192 -13.759375 32.266899 -0.255039 2.011332 0.060977 -0.018676 -204379.000000 0 0 1
27.579092 -8.123092 -14.928575 32.395266 -0.286438 2.049722 0.037464 -0.007004 234056.000000 0 0 1
26.224892 -7.765292 -15.184075 31.282596 -0.287879 2.077599 0.051561 -0.008864 633836.000000 0 0 1
25.621292 -8.508192 -16.233675 31.501938 -0.320618 2.112181 0.043073 -0.001833 763716.000000 0 0 1
24.230692 -8.036592 -16.759975 30.538664 -0.320253 2.151738 0.054718 0.001270 508641.000000 0 0 1
24.453692 -6.922792 -17.612675 30.921100 -0.275879 2.176816 0.050861 0.003142 379427.000000 0 0 1
23.284192 -6.441592 -18.258575 30.282392 -0.269900 2.217982 0.084015 -0.009868 151553.000000 0 0 1
23.041192 -6.905792 -19.708675 31.096919 -0.291195 2.257229 0.062668 -0.000592 -277035.000000 0 0 1
23.960492 -6.374192 -20.603975 32.237544 -0.260007 2.264163 0.068051 -0.000205 68783.000000 0 0 1
23.562792 -6.728092 -21.910975 32.871921 -0.278137 2.300375 0.090408 -0.013803 -155418.000000 0 0 1
24.264492 -5.898092 -22.974175 33.931781 -0.238450 2.314570 0.097072 -0.017505 -57202.000000 0 0 1
23.863792 -6.303292 -24.277975 34.621267 -0.258238 2.347938 0.106787 -0.020702 281473.000000 0 0 1
24.384592 -5.442192 -25.280775 35.543542 -0.219583 2.362088 0.097424 -0.034775 -60572.500000 0 0 1
24.149892 -6.085092 -26.653565 36.478187 -0.246834 2.390101 0.114435 -0.041142 863654.000000 0 0 1
22.771792 -6.383092 -26.951465 35.856378 -0.273293 2.421357 0.123639 -0.034521 798538.000000 0 0 1
22.522192 -6.398192 -28.350735 36.768875 -0.276792 2.451289 0.110701 -0.036584 -304597.000000 0 0 1
21.239592 -7.115592 -28.741735 36.439528 -0.323264 2.479572 0.111010 -0.042280 -352637.000000 0 0 1
21.270392 -8.530792 -28.604655 36.652834 -0.381423 2.466136 0.116428 -0.031768 -101429.000000 0 0 1
19.974092 -8.990092 -28.385025 35.853810 -0.422927 2.484363 0.116919 -0.040112 -418137.000000 0 0 1
20.048092 -10.405592 -27.829615 35.842569 -0.478757 2.459794 0.128925 -0.024916 500579.000000 0 0 1
18.730092 -10.798392 -27.418105 34.916673 -0.522981 2.473886 0.140593 -0.025715 979662.000000 0 0 1
18.687592 -12.099592 -26.865755 34.891188 -0.574592 2.449617 0.138559 -0.027273 -190795.000000 0 0 1
18.904292 -13.307692 -27.859075 36.202140 -0.613373 2.448920 0.118920 -0.015588 352064.000000 0 0 1
17.807392 -13.419192 -28.775385 36.403306 -0.645785 2.482357 0.117258 -0.017439 855323.000000 0 0 1
18.093692 -14.472592 -29.685735 37.657409 -0.674661 2.478855 0.090993 -0.017567 -951480.000000 0 0 1
16.921692 -14.780592 -30.549955 37.922411 -0.717963 2.507469 0.073813 -0.021935 -1266500.000000 0 0 1
15.959792 -15.582492 -29.937095 37.333077 -0.773437 2.501251 0.076281 -0.026632 -606961.000000 0 0 1
14.920392 -15.862992 -30.806925 37.726903 -0.816009 2.526252 0.079928 -0.033870 -1026650.000000 0 0 1
13.683392 -16.302092 -30.026775 36.804899 -0.872509 2.524970 0.095598 -0.041177 -473370.000000 0 0 1
13.655692 -17.671792 -29.658165 37.126498 -0.912900 2.496162 0.089232 -0.039016 -424878.000000 0 0 1
12.677492 -17.866992 -28.678675 36.088981 -0.953691 2.489253 0.091459 -0.041953 -207576.000000 0 0 1
12.749492 -19.177892 -27.896705 36.174123 -0.984086 2.451487 0.089909 -0.042641 347629.000000 0 0 1
13.852892 -19.205592 -26.987985 35.904160 -0.945921 2.421383 0.089623 -0.033477 175337.000000 0 0 1
13.999092 -20.401492 -26.312765 36.118652 -0.969406 2.386939 0.089179 -0.028736 247934.000000 0 0 1
15.012992 -20.417392 -25.115215 35.679599 -0.936767 2.351683 0.072635 -0.017507 -417072.000000 0 0 1
16.328092 -20.732992 -25.449555 36.662561 -0.903698 2.338044 0.080903 -0.015545 -334818.000000 0 0 1
17.049892 -20.964092 -24.248875 36.307022 -0.888004 2.302158 0.080077 0.003133 227665.000000 0 0 1
18.597492 -21.124192 -24.324575 37.199235 -0.848923 2.283524 0.052749 0.005909 555325.000000 0 0 1
19.167592 -22.404392 -24.729875 38.482724 -0.863102 2.268713 0.055118 -0.015226 371552.000000 0 0 1
18.873192 -23.465792 -23.837575 38.406649 -0.893448 2.240384 0.052215 -0.018731 -667791.000000 0 0 1
19.594292 -24.829092 -24.028475 39.721375 -0.902696 2.220469 0.050828 -0.021980 114361.000000 0 0 1
20.973592 -24.732992 -23.696475 40.163856 -0.867464 2.201849 0.068632 -0.020126 333666.000000 0 0 1
21.507492 -25.969692 -23.263375 40.965616 -0.879109 2.174719 0.077430 -0.032995 -240517.000000 0 0 1
21.474792 -26.249512 -21.726075 40.276865 -0.885114 2.140542 0.095649 -0.037289 640229.000000 0 0 1
20.146892 -26.440722 -21.187675 39.419875 -0.919682 2.138251 0.071506 -0.029416 967071.000000 0 0 1
20.152592 -26.548862 -19.811475 38.774522 -0.921512 2.107075 0.070363 -0.033768 -718643.000000 0 0 1
18.841992 -27.018512 -19.229575 38.141804 -0.961835 2.099205 0.057147 -0.028779 -1173990.000000 0 0 1
18.559492 -28.353432 -19.688275 39.191836 -0.991211 2.097118 0.065741 -0.027319 170142.000000 0 0 1
17.392992 -28.942822 -19.170075 38.829047 -1.029684 2.087141 0.058474 -0.018578 407072.000000 0 0 1
15.999992 -28.462782 -19.661875 38.114551 -1.058682 2.112811 0.046177 -0.014693 -51138.200000 0 0 1
15.488392 -27.319322 -18.970075 36.689227 -1.055041 2.114194 0.036569 -0.016242 165571.000000 0 0 1
14.197592 -27.002092 -19.476175 36.194004 -1.086726 2.138984 0.037632 -0.007544 715326.000000 0 0 1
13.310192 -26.072302 -18.518575 34.639049 -1.098775 2.134849 0.029696 -0.021197 -288183.000000 0 0 1
12.765592 -26.871862 -17.469475 34.499853 -1.127304 2.101759 0.025709 -0.024514 -122971.000000 0 0 1
11.850392 -26.050822 -16.778675 33.175307 -1.143879 2.101057 0.032515 -0.028189 338856.000000 0 0 1
10.362692 -25.976172 -17.251275 32.859601 -1.191212 2.123511 0.044471 -0.028560 -64004.500000 0 0 1
9.620592 -26.988482 -16.588575 33.107624 -1.228369 2.095608 0.063366 -0.028395 627804.000000 0 0 1
8.210592 -26.736132 -16.462875 32.453980 -1.272841 2.102808 0.072957 -0.019743 1511960.000000 0 0 1
7.302492 -27.340962 -17.602775 33.327350 -1.309799 2.127250 0.080232 -0.005202 89030.400000 0 0 1
7.554292 -26.850512 -18.879075 33.681401 -1.296540 2.165809 0.079743 -0.004975 -201794.000000 0 0 1
6.999792 -27.703612 -19.840075 34.786718 -1.323309 2.177710 0.083017 0.001538 43855.200000 0 0 1
6.958392 -27.039402 -21.240375 35.081362 -1.318919 2.221141 0.073684 0.003561 -591001.000000 0 0 1
5.713092 -26.431832 -21.336775 34.446177 -1.357927 2.238805 0.083667 -0.004176 -450414.000000 0 0 1
5.610892 -25.706482 -22.501075 34.620856 -1.355899 2.278286 0.069082 -0.004118 324621.000000 0 0 1
4.193692 -25.153872 -22.838275 34.232895 -1.405594 2.301165 0.049308 -0.006865 735032.000000 0 0 1
3.169692 -26.115662 -23.002175 34.945311 -1.450016 2.289266 0.051420 0.000327 785359.000000 0 0 1
1.987792 -25.710002 -23.683275 35.012184 -1.493634 2.313700 0.050857 -0.006166 938102.000000 0 0 1
1.090592 -26.767302 -24.329275 36.188278 -1.530075 2.308104 0.035570 0.000367 85981.000000 0 0 1
1.746192 -27.146142 -25.508405 37.291298 -1.506559 2.324071 0.033247 -0.001150 753523.000000 0 0 1
0.847292 -27.822512 -26.393035 38.358863 -1.540352 2.329603 0.035331 -0.012801 558462.000000 0 0 1
1.635992 -28.560352 -27.529315 39.701805 -1.513577 2.336996 0.041748 -0.014798 -371015.000000 0 0 1
2.017992 -27.742362 -28.566425 39.871688 -1.498184 2.369509 0.043715 -0.019979 478412.000000 0 0 1
2.786792 -28.496422 -29.563085 41.155659 -1.473312 2.372186 0.041802 -0.020426 1233380.000000 0 0 1
4.317592 -28.753302 -29.325925 41.296535 -1.421750 2.360480 0.041518 -0.022118 312211.000000 0 0 1
4.472692 -29.713482 -28.315835 41.287800 -1.421391 2.326521 0.039642 -0.017958 -745954.000000 0 0 1
5.567492 -30.475902 -28.675195 42.214267 -1.390104 2.317574 0.043984 -0.009541 -600297.000000 0 0 1
6.000392 -31.567232 -27.718715 42.436093 -1.382954 2.282582 0.060923 -0.012995 53676.700000 0 0 1
5.067092 -32.632882 -27.722785 43.117667 -1.416751 2.269149 0.060267 -0.018944 47961.600000 0 0 1
5.521192 -33.753552 -26.985325 43.565968 -1.408659 2.238791 0.076349 -0.034776 -231994.000000 0 0 1
4.471392 33.326822 -26.494755 42.809373 1.437425 2.238139 0.101520 -0.039041 -254737.000000 0 0 1
3.962992 32.590173 -27.606745 42.894720 1.449790 2.269980 0.093349 -0.033357 12282.100000 0 0 1
2.784192 31.904461 -27.237615 42.042051 1.483750 2.275576 0.072451 -0.026919 7501.710000 0 0 1
1.646392 32.307050 -28.226175 42.932191 1.519880 2.288238 0.066802 -0.020646 -294451.000000 0 0 1
1.319292 31.218091 -29.106075 42.702147 1.528561 2.320753 0.074662 -0.020051 190293.000000 0 0 1
0.425192 31.743041 -30.068145 43.725219 1.557402 2.329059 0.075747 -0.024755 65856.500000 0 0 1
-0.009408 30.798271 -31.186675 43.830837 -1.570491 2.362460 0.067618 -0.020490 436643.000000 0 0 1
1.085092 30.482121 -32.065465 44.255295 1.535214 2.381187 0.077893 -0.023380 608965.000000 0 0 1
0.730692 29.573121 -33.103445 44.395286 1.546093 2.412309 0.096274 -0.022084 54150.400000 0 0 1
1.971792 29.219911 -33.958995 44.843110 1.503417 2.429941 0.087507 -0.016161 217738.000000 0 0 1
2.412892 30.211931 33.074056 44.860628 1.491100 0.741787 0.075989 -0.014633 -245519.000000 0 0 1
3.493692 29.725451 32.299548 44.034862 1.453801 0.747340 0.061517 -0.019686 -315371.000000 0 0 1
3.203892 28.894761 31.003243 42.501449 1.460366 0.753260 0.063588 -0.016139 -503250.000000 0 0 1
2.856292 27.511371 31.205863 41.699398 1.467345 0.725221 0.085717 -0.025169 66490.700000 0 0 1
3.864292 26.648021 31.719293 41.607251 1.426788 0.703860 0.082455 -0.015313 -292350.000000 0 0 1
3.382092 25.245871 32.010336 40.907874 1.437623 0.672128 0.095679 -0.027998 -258686.000000 0 0 1
2.958292 24.539051 30.869843 39.545717 1.450821 0.675153 0.104265 -0.021089 77598.900000 0 0 1
2.894892 23.149181 31.218233 38.972337 1.446388 0.641773 0.092837 -0.017402 -249886.000000 0 0 1
2.066892 22.311511 30.242363 37.638758 1.478422 0.637662 0.079575 -0.004375 200329.000000 0 0 1
0.681692 22.575411 30.394563 37.867444 1.540609 0.639060 0.083211 -0.013867 -243159.000000 0 0 1
-0.067608 22.063311 29.345063 36.714125 -1.567732 0.644691 0.086646 -0.005944 -675954.000000 0 0 1
-1.463808 21.574911 29.653623 36.700911 -1.503052 0.630080 0.086527 -0.010070 -828134.000000 0 0 1
-2.367208 22.570011 30.037773 37.646738 -1.466296 0.647018 0.093926 -0.015723 111745.000000 0 0 1
-3.653008 22.024511 30.306273 37.641649 -1.406432 0.634908 0.064930 -0.018831 283040.000000 0 0 1
-4.719108 23.092281 30.626153 38.645629 -1.369213 0.655921 0.041055 -0.028938 -132207.000000 0 0 1
-4.683108 23.551141 31.922578 39.945447 -1.374508 0.644909 0.054047 -0.028785 -96461.400000 0 0 1
-5.621808 24.565911 32.200316 40.889473 -1.345824 0.664060 0.039670 -0.032994 70053.000000 0 0 1
-5.453208 25.147551 33.617757 42.335450 -1.357254 0.653303 0.065340 -0.029724 -285461.000000 0 0 1
-6.523908 25.975771 -33.960065 43.250295 -1.324732 2.473813 0.064699 -0.021791 -103593.000000 0 0 1
-6.423408 26.349661 -32.638545 42.436298 -1.331684 2.448257 0.076527 -0.019413 -522496.000000 0 0 1
-7.803208 26.780601 -32.181675 42.588154 -1.287271 2.427440 0.074768 -0.013620 -756765.000000 0 0 1
-8.363808 27.929821 -32.803795 43.887551 -1.279837 2.415013 0.080646 -0.015624 -432188.000000 0 0 1
-9.627708 28.297321 -32.335515 44.034267 -1.242848 2.395470 0.077932 -0.012761 -150498.000000 0 0 1
-9.847408 28.723131 -30.856245 43.290848 -1.240515 2.364230 0.084813 -0.011131 -399113.000000 0 0 1
-9.204108 29.955561 -30.550375 43.765016 -1.272694 2.343473 0.094072 -0.014592 204534.000000 0 0 1
-9.482208 30.242771 -29.198485 43.093955 -1.266968 2.315228 0.112649 -0.018075 -528409.000000 0 0 1
-8.713208 31.424971 -28.658775 43.413986 -1.300321 2.291785 0.106968 -0.026144 246683.000000 0 0 1
-7.295208 31.252851 -28.689405 43.046983 -1.341477 2.300256 0.074291 -0.025846 347039.000000 0 0 1
-6.685908 32.525466 -28.444425 43.722907 -1.368061 2.279119 0.075959 -0.021594 748395.000000 0 0 1
-5.131308 32.497757 -28.647085 43.624420 -1.414192 2.287198 0.068030 -0.025550 390126.000000 0 0 1
-4.335108 33.549068 -28.229965 44.059778 -1.442291 2.266232 0.066163 -0.030733 -143500.000000 0 0 1
-4.210108 -33.433652 -29.062655 44.499123 1.445531 2.282475 0.069690 -0.033482 468636.000000 0 0 1
-3.156508 -33.517492 -30.262085 45.267865 1.476898 2.303002 0.072017 -0.035098 461388.000000 0 0 1
-3.531108 33.678621 -31.302835 46.114918 -1.466331 2.316924 0.068920 -0.023630 819167.000000 0 0 1
-4.402008 -33.974502 -32.379335 47.138792 1.441946 2.328002 0.076469 -0.023384 708907.000000 0 0 1
-3.677108 -32.930752 -33.278365 46.961741 1.459595 2.358347 0.066856 -0.027725 45895.100000 0 0 1
-3.441408 -31.671782 -32.701935 45.654809 1.462562 2.369263 0.069408 -0.031477 339946.000000 0 0 1
-2.686308 -30.783762 -33.526655 45.594877 1.483753 2.396930 0.067343 -0.036705 46984.200000 0 0 1
32.613982 17.676808 12.549513 39.161609 0.496681 1.244587 0.130087 -0.016178 -595782.000000 0 0 1
33.854622 17.834808 13.177013 40.470353 0.484862 1.239154 0.121798 -0.029733 -307238.000000 0 0 1
34.168872 16.631208 13.911813 40.467857 0.452980 1.219863 0.124994 -0.010834 1709800.000000 0 0 1
35.706542 16.458708 14.341613 41.851261 0.431917 1.221028 0.117042 -0.035798 2479720.000000 0 0 1
36.759672 16.116908 13.411013 42.318831 0.413199 1.248333 0.117134 -0.014740 799910.000000 0 0 1
36.582662 14.791008 12.852413 41.499995 0.384223 1.255922 0.139622 -0.033367 -357709.000000 0 0 1
-36.306575 14.162108 12.225213 40.843463 -0.371917 1.266818 0.141373 -0.030014 423872.000000 0 0 1
-35.579209 13.322108 13.082113 40.180845 -0.358275 1.239170 0.120705 -0.021990 -189553.000000 0 0 1
-36.133435 12.047908 13.184813 40.306531 -0.321836 1.237549 0.112814 -0.025110 -267026.000000 0 0 1
-35.390010 11.223208 14.240613 39.764409 -0.307097 1.204538 0.111887 -0.037163 12909.900000 0 0 1
-35.596563 11.759808 15.572313 40.594400 -0.319075 1.177097 0.107546 -0.034796 349911.000000 0 0 1
-34.886320 11.009908 16.580913 40.164661 -0.305701 1.145245 0.088797 -0.034265 45203.600000 0 0 1
-34.816392 11.898208 17.860113 40.899048 -0.329299 1.118883 0.086450 -0.025221 465140.000000 0 0 1
-36.026074 12.277908 18.552513 42.341714 -0.328461 1.117244 0.097383 -0.030182 323010.000000 0 0 1
-35.760462 12.982208 19.706813 42.845149 -0.348238 1.092853 0.102232 -0.035523 211674.000000 0 0 1
-36.976325 13.005408 20.682913 44.318981 -0.338209 1.085260 0.121167 -0.044652 338392.000000 0 0 1
36.998232 11.772208 21.299113 44.284379 0.308054 1.069044 0.106354 -0.030806 -71970.200000 0 0 1
35.933652 11.867908 22.209513 43.878663 0.318994 1.040073 0.128247 -0.043202 19449.900000 0 0 1
35.634482 10.514308 22.954263 43.672247 0.286918 1.017373 0.108251 -0.035127 350327.000000 0 0 1
36.746322 10.138408 23.757283 44.916456 0.269205 1.013467 0.106118 -0.022182 413144.000000 0 0 1
36.416462 10.529708 25.088703 45.458514 0.281470 0.986151 0.109927 -0.022528 770248.000000 0 0 1
-36.501865 10.945408 25.996583 46.130363 -0.291327 0.972124 0.098193 -0.023228 1105120.000000 0 0 1
-35.939890 12.170308 25.639473 45.794919 -0.326510 0.976560 0.103704 -0.025751 96190.600000 0 0 1
-35.026148 12.153308 24.549913 44.466078 -0.333980 0.985910 0.084424 -0.028261 -434520.000000 0 0 1
-34.135571 13.408608 24.411463 44.056185 -0.374288 0.983517 0.081131 -0.029163 574947.000000 0 0 1
-33.162235 13.601408 25.455183 43.962466 -0.389224 0.953269 0.062031 -0.028253 533209.000000 0 0 1
-33.699925 14.307208 26.539663 45.218744 -0.401487 0.943550 0.057699 -0.019506 -517271.000000 0 0 1
-32.590765 14.711108 27.553243 45.141509 -0.424008 0.914263 0.055320 -0.004725 115175.000000 0 0 1
-31.774235 15.707408 26.996453 44.554833 -0.459113 0.919880 0.069930 -0.018022 -64864.300000 0 0 1
-31.028015 16.466108 27.967233 44.900295 -0.487893 0.898385 0.071578 -0.027039 295080.000000 0 0 1
-30.309925 17.732008 27.407923 44.545593 -0.529334 0.908058 0.084341 -0.030884 54568.000000 0 0 1
-31.199445 18.702408 26.863063 45.219570 -0.540013 0.934702 0.088469 -0.041293 305165.000000 0 0 1
-30.564995 19.630008 26.039093 44.694412 -0.570899 0.948869 0.088897 -0.038074 -80765.300000 0 0 1
-31.619485 20.530308 25.358863 45.435199 -0.575878 0.978663 0.083898 -0.020041 214558.000000 0 0 1
-32.241945 21.582408 26.096133 46.758437 -0.589885 0.978696 0.085285 -0.033762 601161.000000 0 0 1
-33.434265 21.994408 25.455473 47.429792 -0.581867 1.004278 0.089393 -0.030766 -218306.000000 0 0 1
-33.781735 23.427908 25.807713 48.539783 -0.606356 1.010211 0.082310 -0.020648 -133926.000000 0 0 1
-34.869297 23.927708 25.047493 49.150584 -0.601412 1.036068 0.081878 -0.021819 125781.000000 0 0 1
-34.954665 25.333108 25.296473 50.035052 -0.627139 1.040748 0.085890 -0.024176 795610.000000 0 0 1
-36.084985 25.962808 24.378703 50.700243 -0.623688 1.069184 0.091963 -0.014532 546398.000000 0 0 1
-35.784492 26.036108 23.001663 49.874695 -0.628998 1.091462 0.110493 -0.027398 -122401.000000 0 0 1
-36.866085 26.441308 22.178913 50.499061 -0.622194 1.116094 0.108465 -0.034570 34446.300000 0 0 1
-36.532095 26.488708 20.685013 49.639856 -0.627361 1.140982 0.143565 -0.039714 29672.200000 0 0 1
-36.487025 25.220008 20.028313 48.667084 -0.604799 1.146656 0.120340 -0.042093 62024.000000 0 0 1
-36.126615 25.414008 18.669413 47.953634 -0.613051 1.170901 0.112961 -0.046593 -102945.000000 0 0 1
-36.065737 24.099408 17.817213 46.893197 -0.589069 1.181051 0.120434 -0.030661 362329.000000 0 0 1
36.842412 23.648608 17.382913 47.103988 0.570650 1.192828 0.112713 -0.033506 20984.000000 0 0 1
-37.085515 22.572308 16.556413 46.464603 -0.546760 1.206467 0.112706 -0.029868 924059.000000 0 0 1
35.863822 22.007508 15.742413 44.926247 0.550389 1.212792 0.103992 -0.020152 834778.000000 0 0 1
34.866972 21.268308 16.440513 44.026550 0.547729 1.188100 0.108701 -0.026307 102911.000000 0 0 1
33.796322 21.102808 15.524013 42.761137 0.558176 1.199268 0.093952 -0.018215 426716.000000 0 0 1
32.565802 20.256308 16.067113 41.581265 0.556448 1.174068 0.106234 -0.017814 1074740.000000 0 0 1
31.706872 20.907308 16.976513 41.601001 0.582950 1.150447 0.098109 -0.023753 -201623.000000 0 0 1
30.791342 21.846008 16.494813 41.199923 0.617064 1.158886 0.087901 -0.012338 -333350.000000 0 0 1
29.944192 22.462108 17.619213 41.371942 0.643586 1.130869 0.072512 -0.012540 172972.000000 0 0 1
30.659482 23.383408 18.405013 42.726246 0.651568 1.125455 0.030407 -0.006100 -61402.500000 0 0 1
29.732472 24.169008 19.175313 42.846861 0.682547 1.106793 0.033719 -0.007607 423526.000000 0 0 1
30.277042 25.042408 20.311713 44.231065 0.691054 1.093681 0.026296 -0.018801 -263076.000000 0 0 1
31.222492 25.990408 19.928013 45.248989 0.694202 1.114743 0.033668 -0.016292 -218858.000000 0 0 1
32.081782 26.318308 21.024813 46.518134 0.687027 1.101824 0.039161 -0.015960 -101105.000000 0 0 1
33.172752 27.245608 20.475113 47.560329 0.687609 1.125741 0.065292 -0.021388 305685.000000 0 0 1
34.197422 27.776008 21.340213 48.952783 0.682151 1.119720 0.063661 -0.019570 695418.000000 0 0 1
33.693212 28.742208 22.246113 49.560434 0.706266 1.105298 0.024632 -0.003562 -226333.000000 0 0 1
34.499452 28.894908 23.616843 50.822074 0.697220 1.087504 0.023347 -0.008879 -36667.000000 0 0 1
35.728952 29.463008 23.253603 51.820429 0.689577 1.105448 0.054797 -0.005353 -682781.000000 0 0 1
36.449412 29.667508 24.458993 52.980780 0.683181 1.090933 0.048349 -0.004618 -49270.700000 0 0 1
-36.519035 30.599108 24.323783 53.493847 -0.697424 1.098758 0.060795 -0.009887 69364.100000 0 0 1
-35.323450 30.011908 23.843873 52.124764 -0.704280 1.095684 0.076270 -0.019116 438159.000000 0 0 1
-34.269648 30.983408 23.834033 51.985012 -0.735079 1.094513 0.069101 -0.017740 156564.000000 0 0 1
-32.843985 30.538308 23.527493 50.644432 -0.749037 1.087656 0.112873 -0.028672 -538854.000000 0 0 1
-32.654615 30.041308 22.183313 49.607493 -0.743740 1.107190 0.111580 -0.023131 75671.500000 0 0 1
-33.004475 28.706408 21.799313 48.872930 -0.715862 1.108460 0.104940 -0.022631 219626.000000 0 0 1
-32.356405 27.545008 22.707813 48.179966 -0.705248 1.080018 0.109339 -0.020985 -541695.000000 0 0 1
-30.963885 27.509308 22.678613 47.221220 -0.726387 1.069842 0.096555 -0.019222 -549124.000000 0 0 1
-30.469805 26.459408 23.498733 46.697963 -0.715069 1.043491 0.100587 -0.022068 30910.500000 0 0 1
-30.338655 26.853308 24.993403 47.604667 -0.724532 1.018058 0.111183 -0.023625 -77711.500000 0 0 1
-31.578855 26.794208 25.673223 48.726461 -0.703614 1.015865 0.097614 -0.018825 345615.000000 0 0 1
-31.317325 27.374208 26.944493 49.559336 -0.718315 0.995979 0.097341 -0.024005 -525632.000000 0 0 1
-32.540085 27.614108 27.802623 50.935075 -0.703691 0.993400 0.083902 -0.022061 -683464.000000 0 0 1
-33.083305 26.442408 28.317363 50.946825 -0.674294 0.981445 0.072937 -0.022132 -110920.000000 0 0 1
-34.193567 26.692908 29.142513 52.258945 -0.662825 0.979237 0.053017 -0.007952 194678.000000 0 0 1
-34.880337 25.400308 29.709353 52.387586 -0.629411 0.967808 0.058588 -0.011406 368503.000000 0 0 1
-34.071375 24.767108 30.684783 52.113569 -0.628564 0.941215 0.067595 -0.022242 346678.000000 0 0 1
-34.740159 23.547408 31.135913 52.257096 -0.595681 0.932508 0.054008 -0.027219 442731.000000 0 0 1
-33.898915 22.610708 32.051986 51.843132 -0.588236 0.904283 0.091813 -0.052878 383960.000000 0 0 1
-32.789225 22.018108 31.325003 50.410179 -0.591344 0.900265 0.098051 -0.050054 625179.000000 0 0 1
-32.031365 21.164708 32.209582 50.113973 -0.583895 0.872744 0.105503 -0.050124 501343.000000 0 0 1
-30.757455 21.851008 32.768205 49.972420 -0.617691 0.855653 0.107061 -0.052476 -299309.000000 0 0 1
-30.987155 22.841108 33.779931 51.215268 -0.635204 0.850553 0.118047 -0.058236 123326.000000 0 0 1
-31.213065 22.355008 -32.816925 50.506953 -0.621520 2.278053 0.106434 -0.055764 -365692.000000 0 0 1
-30.043085 22.775808 -31.935925 49.408781 -0.648668 2.273602 0.119532 -0.047950 -197835.000000 0 0 1
-30.037645 24.159608 -31.581675 49.833211 -0.677364 2.257185 0.088320 -0.042663 262324.000000 0 0 1
-28.963545 24.459908 -30.684365 48.771962 -0.701296 2.251242 0.120816 -0.026641 206486.000000 0 0 1
-29.111495 25.729708 -29.873605 49.009481 -0.723811 2.226286 0.062706 -0.013000 -84276.800000 0 0 1
-28.752205 27.023808 -30.420955 49.823789 -0.754420 2.227578 0.057861 -0.021819 761648.000000 0 0 1
-29.778795 27.572608 -31.285515 51.242646 -0.746949 2.227534 0.043292 -0.020680 527723.000000 0 0 1
-29.535055 29.035608 -31.705515 52.159617 -0.776871 2.224154 0.035092 -0.019198 -216192.000000 0 0 1
-29.897795 30.026608 -30.759395 52.360440 -0.787548 2.198707 0.019334 -0.020238 127377.000000 0 0 1
-29.613985 31.354808 -31.143575 53.198067 -0.813943 2.196203 0.027036 -0.025486 -112686.000000 0 0 1
-29.898535 32.354208 -30.006575 53.302080 -0.824825 2.168751 0.025048 -0.011650 -214577.000000 0 0 1
-28.882645 32.447408 -29.058715 52.263279 -0.843457 2.160370 0.014178 -0.003900 -201075.000000 0 0 1
-29.240985 33.463008 -28.114905 52.585701 -0.852629 2.134889 0.008272 -0.000001 243892.000000 0 0 1
-28.280955 33.586708 -26.870765 51.477348 -0.870949 2.119981 0.023322 0.003449 1263620.000000 0 0 1
-27.033055 -33.784095 -26.997335 51.000070 0.895951 2.128641 0.002232 0.002624 874575.000000 0 0 1
-27.040485 -32.387095 -27.359335 50.285633 0.875125 2.146087 0.017674 0.003374 -513533.000000 0 0 1
-27.479905 -31.420895 -26.245795 49.307804 0.852208 2.132094 0.023895 0.001121 474678.000000 0 0 1
-28.870225 -31.497895 -25.952325 49.991303 0.828898 2.116637 0.026673 -0.007138 -44510.600000 0 0 1
-29.305015 -30.505895 -25.061805 49.167952 0.805473 2.105654 0.026311 -0.007917 272084.000000 0 0 1
-30.848315 -30.342795 -25.036325 49.991212 0.777137 2.095336 0.024642 -0.016672 158003.000000 0 0 1
-31.313725 -29.621595 -26.159195 50.421143 0.757636 2.116259 0.034394 -0.022304 -257653.000000 0 0 1
-32.681865 -29.398395 -25.937765 51.040548 0.732557 2.103866 0.035638 -0.026428 -653613.000000 0 0 1
-33.295765 -28.605095 -27.042975 51.557559 0.709766 2.122948 0.050425 -0.030742 -109411.000000 0 0 1
-34.712308 -28.511395 -27.083515 52.453414 0.687632 2.113362 0.047387 -0.032551 300437.000000 0 0 1
-35.163516 -27.573795 -28.010585 52.738789 0.665007 2.130717 0.052460 -0.030143 1094160.000000 0 0 1
-36.712405 -27.685395 -28.311275 53.998241 0.646130 2.122689 0.049059 -0.033989 1467290.000000 0 0 1
36.575742 -27.323495 -27.260045 53.173944 -0.641603 2.109074 0.040021 -0.021637 612745.000000 0 0 1
35.245932 -27.718595 -27.621045 52.664203 -0.666414 2.122894 0.045842 -0.021137 313323.000000 0 0 1
34.174912 -27.312795 -26.619395 51.210405 -0.674257 2.117418 0.051031 -0.017251 -370922.000000 0 0 1
34.075552 -28.136095 -25.475405 51.007640 -0.690215 2.093752 0.043721 -0.016924 168776.000000 0 0 1
33.043262 -27.620495 -24.664175 49.629330 -0.696245 2.090897 0.048004 -0.010518 48504.600000 0 0 1
32.948692 -28.176195 -23.230275 49.184956 -0.707478 2.062700 0.041688 -0.009916 97390.400000 0 0 1
32.396162 -29.515095 -23.258675 49.614696 -0.738896 2.058712 0.063731 -0.019112 82822.400000 0 0 1
32.035372 -30.027895 -21.992675 49.108220 -0.753064 2.035146 0.072206 -0.024771 168884.000000 0 0 1
33.136622 -30.122095 -20.894875 49.416314 -0.737780 2.007366 0.049350 -0.019920 221239.000000 0 0 1
34.268712 -30.965495 -21.163775 50.804644 -0.734805 2.000467 0.037817 -0.021629 1212630.000000 0 0 1
35.471852 -30.742795 -20.429875 51.193276 -0.714099 1.981302 0.029684 -0.023510 1301840.000000 0 0 1
36.218072 -29.366595 -20.748375 51.035680 -0.681308 1.989467 0.017049 -0.015624 -27271.600000 0 0 1
35.557202 -28.281795 -20.062175 49.665535 -0.671923 1.986622 0.017054 -0.009198 166432.000000 0 0 1
36.034982 -27.093295 -20.603375 49.568797 -0.644691 1.999456 0.016531 -0.009733 -591416.000000 0 0 1
35.149392 -25.927695 -20.324575 48.174822 -0.635545 2.006328 0.020806 -0.003057 162511.000000 0 0 1
33.880272 -26.090495 -20.960475 47.622770 -0.656228 2.026546 0.042729 -0.007131 842798.000000 0 0 1
32.850962 -25.279795 -20.384775 46.192995 -0.655883 2.027839 0.060284 -0.011840 1601950.000000 0 0 1
31.450102 -25.173495 -21.141975 45.495020 -0.675001 2.054103 0.065801 -0.010887 1289370.000000 0 0 1
30.822472 -26.451895 -21.209175 45.820919 -0.709236 2.052028 0.079839 -0.009554 233449.000000 0 0 1
29.625142 -26.278895 -21.964375 45.284248 -0.725613 2.077198 0.075595 -0.017217 399446.000000 0 0 1
28.937392 -27.591395 -22.412375 45.836364 -0.761592 2.081699 0.085050 -0.014842 -41722.800000 0 0 1
28.467692 -28.386695 -21.393975 45.540269 -0.783974 2.059840 0.090808 -0.023075 -175927.000000 0 0 1
27.811592 -29.534095 -21.866175 46.085540 -0.815426 2.065157 0.090045 -0.025839 -318344.000000 0 0 1
27.347392 -30.344695 -20.634675 45.765381 -0.837305 2.038547 0.094900 -0.029652 61011.400000 0 0 1
28.354492 -30.761395 -19.706575 46.244888 -0.826091 2.011013 0.097533 -0.035469 116688.000000 0 0 1
29.055492 -31.931895 -20.067575 47.608561 -0.832527 2.005908 0.101287 -0.029214 258774.000000 0 0 1
30.029752 -32.440795 -18.975875 48.106912 -0.823974 1.976268 0.081998 -0.033832 134337.000000 0 0 1
29.375812 -33.000195 -17.843775 47.648205 -0.843438 1.954643 0.089084 -0.034403 10162.700000 0 0 1
28.672492 -32.093595 -17.031875 46.283856 -0.841638 1.947640 0.074990 -0.033535 127023.000000 0 0 1
27.972292 -32.696995 -15.782075 45.832483 -0.863118 1.922335 0.076252 -0.024475 308467.000000 0 0 1
26.776192 -33.413595 -16.069875 45.734819 -0.895229 1.929831 0.085131 -0.026293 39235.500000 0 0 1
26.233492 -33.803595 -14.823975 45.283875 -0.910827 1.904301 0.083802 -0.020630 506668.000000 0 0 1
24.677492 -33.864595 -14.749175 44.422151 -0.941060 1.909244 0.088006 -0.023723 943291.000000 0 0 1
23.922392 -32.643495 -14.858975 43.112269 -0.938370 1.922670 0.088825 -0.022374 465711.000000 0 0 1
22.655792 -32.723595 -14.235375 42.270137 -0.965231 1.914282 0.089771 -0.022093 126074.000000 0 0 1
-0.323435 -6.962292 -28.942315 29.769711 1.524375 2.905275 0.080177 -0.025510 200266.000000 0 0 1
-0.235935 -8.376492 -28.706665 29.904747 1.542637 2.857573 0.074432 -0.022925 -5736.440000 0 0 1
-0.621235 -9.082792 -29.874535 31.230928 1.502506 2.845792 0.079339 -0.030358 -76698.800000 0 0 1
-0.348135 -10.588692 -29.804725 31.631680 1.537930 2.800061 0.085353 -0.021918 365882.000000 0 0 1
1.036665 -10.892292 -29.869725 31.810645 -1.475908 2.790464 0.066068 -0.025135 157465.000000 0 0 1
1.352265 -12.178292 -29.383615 31.836084 -1.460210 2.746513 0.074976 -0.024648 184576.000000 0 0 1
2.817565 -12.391692 -28.952815 31.618953 -1.347222 2.727991 0.066486 -0.020086 -318202.000000 0 0 1
3.782365 -12.529292 -29.998035 32.728757 -1.277614 2.730201 0.079425 -0.030220 491750.000000 0 0 1
5.128465 -12.615992 -29.555615 32.542261 -1.184695 2.709813 0.081546 -0.029814 498522.000000 0 0 1
5.519965 -13.925192 -28.881055 32.534540 -1.193396 2.663131 0.078484 -0.036716 -1157200.000000 0 0 1
5.080965 -14.176792 -27.553955 31.400924 -1.226658 2.641397 0.072308 -0.029816 -230169.000000 0 0 1
5.594665 -15.256092 -26.829885 31.367042 -1.219307 2.597028 0.074098 -0.030743 -152764.000000 0 0 1
5.166565 -16.672692 -27.338275 32.435371 -1.270298 2.573361 0.043025 -0.032423 -201272.000000 0 0 1
5.666965 -17.029492 -28.611935 33.775152 -1.249550 2.581357 0.062895 -0.043443 14775.700000 0 0 1
5.169465 -18.291492 -28.952755 34.634723 -1.295364 2.560650 0.041854 -0.038701 -527800.000000 0 0 1
5.448265 -18.784092 -30.366115 36.119615 -1.288496 2.569389 0.071293 -0.048841 -286233.000000 0 0 1
6.814065 -19.038392 -30.550925 36.636742 -1.227091 2.556911 0.067319 -0.047817 -478095.000000 0 0 1
7.018665 -19.585392 -31.856335 38.048328 -1.226691 2.563049 0.076319 -0.049637 -22562.900000 0 0 1
8.504065 -19.849192 -32.219635 38.786781 -1.166021 2.551135 0.103943 -0.043355 190101.000000 0 0 1
9.116065 -18.609792 -32.452055 38.504063 -1.115299 2.573301 0.103730 -0.039013 -1292210.000000 0 0 1
10.357965 -18.677692 -33.013415 39.319577 -1.064456 2.567375 0.111408 -0.036042 -1286100.000000 0 0 1
10.727265 -17.271192 -33.564405 39.242038 -1.015001 2.596960 0.100967 -0.026585 -340136.000000 0 0 1
9.937065 -16.826092 33.291672 38.603083 -1.037336 0.530786 0.112831 -0.026503 -10420.600000 0 0 1
10.018165 -15.444092 33.039476 37.821826 -0.995355 0.508336 0.092474 -0.019676 -336043.000000 0 0 1
8.957165 -14.927092 32.058950 36.480476 -1.030332 0.497460 0.115365 -0.029816 -250347.000000 0 0 1
9.005065 -15.389392 30.740413 35.537270 -1.041369 0.525608 0.112748 -0.031111 -86583.900000 0 0 1
7.839365 -15.088292 30.010333 34.492496 -1.091619 0.515485 0.115617 -0.029244 -466486.000000 0 0 1
7.908365 -15.666092 28.582053 33.539565 -1.103310 0.550641 0.098830 -0.020917 -224403.000000 0 0 1
7.659665 -17.059792 28.526963 34.110036 -1.148783 0.580257 0.102633 -0.023826 173396.000000 0 0 1
7.623065 -17.597392 27.209313 33.288527 -1.162007 0.613951 0.096434 -0.025249 -114008.000000 0 0 1
7.137465 -19.053392 27.208923 33.975000 -1.212373 0.642081 0.098640 -0.029937 -428434.000000 0 0 1
7.905065 -19.807292 28.087833 35.266772 -1.191067 0.649413 0.107895 -0.028690 110025.000000 0 0 1
7.290165 -20.993392 28.574273 36.198868 -1.236565 0.661015 0.091338 -0.032624 -149016.000000 0 0 1
7.853065 -21.308292 30.008203 37.632515 -1.217697 0.647820 0.091101 -0.026366 170906.000000 0 0 1
7.380965 -20.568792 31.154703 38.054820 -1.226265 0.611689 0.104626 -0.030268 265578.000000 0 0 1
7.582265 -19.152792 31.039233 37.252572 -1.193844 0.585908 0.095620 -0.028863 -115629.000000 0 0 1
7.001265 -18.480092 32.308278 37.872897 -1.208651 0.548953 0.098068 -0.028846 846262.000000 0 0 1
5.580665 -18.628192 32.460606 37.839718 -1.279723 0.539735 0.101761 -0.036453 539893.000000 0 0 1
5.143665 -17.643992 33.404019 38.126057 -1.287133 0.502987 0.103129 -0.031319 337686.000000 0 0 1
3.646065 -17.829392 33.751395 38.344982 -1.369080 0.494505 0.096077 -0.035025 235032.000000 0 0 1
3.429665 -18.779092 -33.161205 38.263329 -1.390155 2.619260 0.087562 -0.032308 712097.000000 0 0 1
2.017765 -18.890792 -32.924425 38.012513 -1.464388 2.618237 0.084840 -0.046196 505651.000000 0 0 1
1.674465 -19.982292 -31.951215 37.722353 -1.487194 2.581132 0.052635 -0.022812 -69553.700000 0 0 1
0.304665 -20.356892 -31.927965 37.866750 -1.555831 2.573942 0.057831 -0.026566 65403.400000 0 0 1
0.024065 -21.117192 -30.771315 37.320372 -1.569657 2.540146 0.049910 -0.031567 -60089.100000 0 0 1
-0.817935 -20.385492 -29.711685 36.041941 1.530694 2.539874 0.047820 -0.025264 693167.000000 0 0 1
-2.118735 -20.009892 -30.233105 36.317013 1.465305 2.554361 0.071478 -0.033145 620391.000000 0 0 1
-2.721635 -18.926092 -29.554615 35.200561 1.427972 2.567354 0.094387 -0.023773 -585273.000000 0 0 1
-2.016235 -17.541292 -29.500665 34.380973 1.456356 2.602261 0.072484 -0.019721 -813641.000000 0 0 1
-2.716235 -16.438092 -28.997295 33.442965 1.407036 2.620081 0.076919 -0.022682 -463676.000000 0 0 1
-2.026135 -15.235192 -29.201265 32.998942 1.438582 2.657108 0.076452 -0.023047 -109606.000000 0 0 1
-3.014735 -14.107392 -28.936505 32.333086 1.360264 2.679116 0.072024 -0.019597 179990.000000 0 0 1
-3.066835 -13.802692 -27.570905 30.985070 1.352157 2.667731 0.065507 -0.028461 361959.000000 0 0 1
-4.243135 -13.063892 -27.255355 30.520875 1.256747 2.674779 0.060218 -0.028205 181241.000000 0 0 1
-4.185235 -12.481592 -25.836525 28.997109 1.247266 2.670347 0.051023 -0.034984 -332835.000000 0 0 1
-4.305535 -13.542192 -24.869575 28.643050 1.262968 2.622478 0.052883 -0.038928 235950.000000 0 0 1
-4.495035 -13.238792 -23.491075 27.336816 1.243475 2.604735 0.053881 -0.048113 -178415.000000 0 0 1
-5.657235 -12.283392 -23.105775 26.772427 1.139196 2.612061 0.062803 -0.045366 697164.000000 0 0 1
-6.986035 -12.776092 -23.230275 27.416762 1.070409 2.581681 0.078022 -0.044944 357655.000000 0 0 1
-8.029435 -11.895892 -22.876775 27.006127 0.977064 2.581293 0.064698 -0.041614 241578.000000 0 0 1
-9.411135 -12.353892 -23.384275 28.071558 0.919789 2.555347 0.083452 -0.036948 32809.200000 0 0 1
-9.913635 -13.485292 -22.689775 28.195019 0.936871 2.506041 0.067784 -0.038764 320877.000000 0 0 1
-10.926235 -14.207992 -23.412175 29.485243 0.915233 2.488207 0.059936 -0.030903 391292.000000 0 0 1
-11.712835 -15.182892 -22.582475 29.625645 0.913708 2.437595 0.064488 -0.034841 -443085.000000 0 0 1
-10.841635 -16.184292 -22.178775 29.518983 0.980568 2.420886 0.061605 -0.034115 -555698.000000 0 0 1
-11.471135 -17.337792 -21.614575 29.989595 0.986292 2.375660 0.059478 -0.027430 313267.000000 0 0 1
-12.161535 -18.359792 -22.596975 31.553259 0.985753 2.369072 0.051942 -0.016445 974492.000000 0 0 1
-13.278435 -17.827492 -23.345675 32.235955 0.930613 2.380688 0.044919 -0.013822 403208.000000 0 0 1
-13.978335 -18.845092 -24.053875 33.602384 0.932597 2.368620 0.029013 -0.010694 54951.000000 0 0 1
-15.077835 -18.084092 -24.814675 34.207361 0.875805 2.382439 0.038665 -0.016083 100204.000000 0 0 1
-16.016935 -17.289692 -24.073075 33.689591 0.823593 2.366785 0.050083 -0.012512 -205257.000000 0 0 1
-17.120535 -17.120792 -24.899375 34.730578 0.785406 2.370184 0.048083 -0.011952 -329278.000000 0 0 1
-18.006635 -15.892892 -24.603475 34.382464 0.723126 2.368253 0.050548 -0.008546 -96657.800000 0 0 1
-18.850435 -15.968692 -23.480175 34.083084 0.702823 2.330780 0.062471 -0.004711 -201612.000000 0 0 1
-19.599735 -14.768192 -23.468975 33.956470 0.645731 2.333874 0.069951 -0.009500 155373.000000 0 0 1
-20.462635 -14.686292 -22.201375 33.575402 0.622515 2.293266 0.072346 -0.019876 180276.000000 0 0 1
-19.566135 -14.575592 -21.112775 32.265008 0.640255 2.284126 0.080857 -0.009759 549218.000000 0 0 1
-20.238535 -14.679792 -19.849475 31.923286 0.627530 2.241818 0.084369 -0.011288 257975.000000 0 0 1
-20.753735 -13.362392 -19.208975 31.277080 0.572043 2.232111 0.094476 -0.013319 2143.620000 0 0 1
-21.966735 -12.874192 -19.750975 32.223954 0.530119 2.230558 0.096942 -0.015985 65558.100000 0 0 1
-22.363635 -11.677892 -19.136275 31.665475 0.481235 2.219716 0.110947 -0.015238 -643771.000000 0 0 1
-23.857235 -11.401492 -19.144575 32.644699 0.445816 2.197469 0.115295 -0.008115 -487788.000000 0 0 1
-24.339235 -10.527192 -20.185975 33.327071 0.408222 2.221433 0.110072 -0.002667 262576.000000 0 0 1
-25.752355 -10.494692 -20.055275 34.286096 0.386975 2.195601 0.104208 -0.009505 347086.000000 0 0 1
-26.469565 -9.798792 -21.257775 35.334787 0.354548 2.216312 0.123750 -0.009012 70768.200000 0 0 1
-26.381765 -10.397692 -22.529975 36.217527 0.375431 2.242185 0.104710 -0.005761 55860.000000 0 0 1
-27.212205 -9.702592 -23.413075 37.186240 0.342501 2.251856 0.107125 -0.001263 -164401.000000 0 0 1
-27.088435 -10.215492 -24.853875 38.155663 0.360625 2.280199 0.079848 -0.006141 389883.000000 0 0 1
-25.835675 -9.826792 -25.401755 37.540605 0.363459 2.313996 0.072782 -0.006575 431190.000000 0 0 1
-24.998635 -10.921592 -25.721395 37.494040 0.411896 2.326791 0.061423 -0.003084 17119.500000 0 0 1
-24.064135 -10.649892 -26.919095 37.644926 0.416652 2.367533 0.073451 -0.024588 -46823.900000 0 0 1
-24.633635 -10.888592 -28.188265 38.986609 0.416199 2.378966 0.068070 -0.015994 809964.000000 0 0 1
-23.642135 -10.874692 -29.234905 39.139355 0.431115 2.414250 0.079947 -0.017977 812518.000000 0 0 1
-24.401435 -11.134292 -30.543545 40.648623 0.428078 2.420984 0.065872 -0.018357 314198.000000 0 0 1
-25.266465 -10.108092 -30.983735 41.237841 0.380558 2.420890 0.058394 -0.021792 113215.000000 0 0 1
-24.650635 -9.200092 -31.904135 41.354193 0.357209 2.451968 0.058073 -0.027028 -701685.000000 0 0 1
-25.614685 -8.121092 -32.507595 42.175916 0.307023 2.450833 0.062420 -0.029949 -494221.000000 0 0 1
-26.572495 -8.605492 -33.429915 43.562727 0.313191 2.445568 0.056539 -0.020877 1027250.000000 0 0 1
-27.659095 -9.380992 -32.910885 44.001760 0.326990 2.415757 0.047698 -0.022301 -134527.000000 0 0 1
-28.692145 -8.634992 -32.024125 43.855978 0.292331 2.389427 0.041577 -0.017006 -379889.000000 0 0 1
-29.907675 -9.337692 -31.761475 44.614490 0.302627 2.363010 0.037503 -0.020324 724411.000000 0 0 1
-30.721615 -8.576792 -30.827195 44.358707 0.272246 2.339150 0.041559 -0.012717 817984.000000 0 0 1
-32.234225 -8.937192 -30.961365 45.579872 0.270464 2.317574 0.035198 -0.016455 420023.000000 0 0 1
-32.342275 -10.289992 -30.761675 45.805974 0.308032 2.307115 0.027266 -0.013423 821106.000000 0 0 1
-33.733735 -10.605192 -30.923225 46.975321 0.304596 2.289337 0.023807 -0.011923 622464.000000 0 0 1
-33.958155 -12.114092 -31.158525 47.652504 0.342663 2.283484 0.033018 -0.012419 136658.000000 0 0 1
-35.309002 -12.546092 -31.031695 48.652812 0.341409 2.262460 0.024449 -0.012779 372337.000000 0 0 1
-35.393327 -13.918392 -31.272245 49.237816 0.374673 2.258969 0.021114 -0.013510 621807.000000 0 0 1
-36.741465 -14.434992 -30.679785 49.995534 0.374354 2.231472 0.032841 -0.018358 529009.000000 0 0 1
-36.744415 -14.530192 -29.260205 49.167449 0.376569 2.208203 0.045673 -0.017855 -98420.400000 0 0 1
36.965062 -15.808892 -28.839565 49.477847 -0.404131 2.193063 0.052723 -0.019182 -65410.500000 0 0 1
37.088882 -15.890692 -27.311915 48.724121 -0.404788 2.165836 0.070039 -0.016496 -556255.000000 0 0 1
-35.815405 -15.627192 -26.838635 47.405323 0.411425 2.172627 0.074096 -0.027082 -569018.000000 0 0 1
-35.882709 -15.561692 -25.481735 46.680337 0.409201 2.148232 0.089352 -0.032389 323065.000000 0 0 1
-34.520302 -15.104192 -24.914475 45.172103 0.412448 2.155012 0.108046 -0.022480 468375.000000 0 0 1
-33.403955 -15.973592 -24.979575 44.664963 0.446052 2.164296 0.103789 -0.022171 474166.000000 0 0 1
-32.260355 -15.455892 -24.318275 43.254983 0.446787 2.167849 0.096389 -0.009849 1309050.000000 0 0 1
-30.908585 -16.243092 -24.600575 42.712608 0.483855 2.184569 0.094213 -0.015136 854370.000000 0 0 1
-30.820105 -17.544792 -23.989575 42.815864 0.517513 2.165540 0.111980 -0.022937 1363.880000 0 0 1
-31.414345 -18.573392 -24.749375 44.094937 0.533953 2.166722 0.093035 -0.031150 13998.600000 0 0 1
-31.427425 -19.920892 -24.048275 44.304000 0.564952 2.144565 0.089721 -0.039575 568729.000000 0 0 1
-30.199375 -20.617092 -24.263075 43.883522 0.599020 2.156634 0.093007 -0.037693 483821.000000 0 0 1
-30.315865 -21.890492 -23.641175 44.239693 0.625392 2.134580 0.083118 -0.023528 245108.000000 0 0 1
-28.941895 -22.609692 -23.518675 43.611460 0.663178 2.140375 0.090115 -0.033927 309492.000000 0 0 1
-27.901195 -22.015992 -22.796175 42.223763 0.668041 2.141102 0.110481 -0.035646 -210610.000000 0 0 1
-27.967805 -22.010492 -21.387275 41.521986 0.666760 2.111901 0.114847 -0.031993 -445113.000000 0 0 1
-27.672325 -23.267592 -20.552575 41.587819 0.699144 2.087707 0.087432 -0.020415 -265073.000000 0 0 1
-27.797645 -23.019592 -19.154875 40.859759 0.691650 2.058723 0.085997 -0.020296 85526.000000 0 0 1
-27.548215 -24.190492 -18.386075 41.013800 0.720591 2.035648 0.063405 0.006898 -244554.000000 0 0 1
-27.557445 -23.954892 -16.862075 40.219139 0.715576 2.003421 0.059883 0.006183 851017.000000 0 0 1
-28.775235 -23.403892 -16.318275 40.522122 0.682819 1.985261 0.057502 0.006215 567407.000000 0 0 1
-28.546775 -22.087092 -15.881975 39.433426 0.658507 1.985320 0.066799 0.010471 267846.000000 0 0 1
-29.788815 -21.524592 -15.144175 39.749560 0.625716 1.961663 0.054156 0.030470 1027870.000000 0 0 1
-30.845705 -21.049392 -16.013575 40.632117 0.598822 1.975897 0.047533 0.025386 525913.000000 0 0 1
-31.914585 -20.452092 -15.322575 40.885328 0.569908 1.954944 0.054429 0.023885 -15220.000000 0 0 1
-32.837015 -19.697892 -16.337175 41.631475 0.540323 1.974061 0.065704 0.009694 -384788.000000 0 0 1
-33.752055 -20.552192 -16.942575 42.995867 0.546950 1.975832 0.032282 0.005178 -437340.000000 0 0 1
-34.404642 -19.904792 -18.003075 43.634743 0.524498 1.996087 0.042058 0.005980 32478.600000 0 0 1
-35.128610 -20.866792 -18.996875 45.059111 0.536004 2.006004 0.043078 -0.007501 367241.000000 0 0 1
-36.310685 -21.526692 -18.594675 46.126199 0.535144 1.985727 0.046831 -0.007307 -136382.000000 0 0 1
-36.152915 -22.526892 -17.600375 46.089774 0.557232 1.962617 0.047995 0.000656 -519105.000000 0 0 1
37.035722 -23.692092 -17.648575 47.375438 -0.569107 1.952526 0.044503 0.004790 -338141.000000 0 0 1
35.756342 -23.350192 -17.185975 46.033740 -0.578507 1.953397 0.046007 -0.004405 -259481.000000 0 0 1
34.932862 -24.499592 -17.110775 45.970789 -0.611620 1.952185 0.037079 -0.008705 62315.600000 0 0 1
33.516232 -24.290392 -16.535875 44.573491 -0.627135 1.950860 0.036796 -0.018121 -20202.100000 0 0 1
32.581532 -23.917892 -17.516275 44.050444 -0.633243 1.979741 0.043612 -0.026308 -90294.800000 0 0 1
31.282862 -24.083092 -16.980575 42.976187 -0.656084 1.976990 0.049359 -0.027805 305321.000000 0 0 1
30.033402 -23.912892 -17.861275 42.342139 -0.672426 2.006261 0.067472 -0.027488 80928.900000 0 0 1
29.635752 -22.582792 -18.202075 41.467768 -0.651144 2.025221 0.067828 -0.025140 -584413.000000 0 0 1
28.407192 -22.600492 -18.827375 40.892797 -0.672046 2.049251 0.078601 -0.034813 -1020070.000000 0 0 1
35.178172 29.373908 -18.461775 49.408171 0.695723 1.953746 0.065806 -0.026848 292798.000000 0 0 1
34.221092 29.654708 -19.493775 49.300021 0.714031 1.977312 0.066465 -0.038679 411680.000000 0 0 1
34.500802 28.921808 -20.703575 49.552138 0.697659 2.001834 0.080198 -0.036603 251159.000000 0 0 1
33.415632 29.164608 -21.818275 49.428898 0.717573 2.027963 0.077033 -0.035749 -509711.000000 0 0 1
32.208432 28.550208 -21.485375 48.105289 0.725262 2.033794 0.077933 -0.029813 -564208.000000 0 0 1
31.244632 28.626208 -22.492275 47.974881 0.741691 2.058767 0.107496 -0.021296 -82556.800000 0 0 1
30.322152 29.844308 -22.544475 48.149444 0.777456 2.058070 0.100465 -0.021550 -564269.000000 0 0 1
31.038412 31.040208 -22.751175 49.441819 0.785427 2.048972 0.106612 -0.036703 -61139.900000 0 0 1
30.111192 32.111408 -22.760675 49.556783 0.817533 2.047986 0.100154 -0.032721 -503997.000000 0 0 1
30.700072 33.530108 -22.733275 50.828775 0.829431 2.034487 0.089075 -0.030352 127236.000000 0 0 1
31.285782 33.892808 -21.481875 50.882154 0.825375 2.006655 0.083145 -0.030245 315867.000000 0 0 1
32.616342 33.397108 -21.354275 51.334176 0.797225 1.999823 0.070940 -0.030580 -350194.000000 0 0 1
32.960632 33.015108 -19.923975 50.728349 0.786224 1.974425 0.061056 -0.034795 -318698.000000 0 0 1
33.271222 -33.961895 -19.166675 51.261544 -0.795671 1.954006 0.067390 -0.037126 162283.000000 0 0 1
33.361062 34.002208 -17.772475 50.842615 0.794916 1.927896 0.046301 -0.038408 -348196.000000 0 0 1
33.343002 -32.704695 -17.011275 49.706502 -0.775734 1.920090 0.044924 -0.023862 -512600.000000 0 0 1
34.436232 -31.847195 -17.099075 49.924706 -0.746358 1.920370 0.035368 -0.020101 -342100.000000 0 0 1
35.407892 -32.147295 -16.078375 50.454747 -0.737170 1.895122 0.031343 -0.017129 -238703.000000 0 0 1
36.674022 -31.326995 -16.317975 50.917981 -0.706928 1.897028 0.019295 -0.008039 -314935.000000 0 0 1
-36.638665 -31.967695 -17.245475 51.591973 0.717419 1.911623 0.024794 -0.016363 80264.000000 0 0 1
-35.591347 -31.085595 -17.683175 50.455454 0.717925 1.928870 0.014884 -0.003966 842233.000000 0 0 1
-34.640007 -31.760295 -18.737775 50.593978 0.742056 1.950188 0.029396 -0.012435 -692561.000000 0 0 1
-33.962665 -32.837195 -18.180375 50.618870 0.768551 1.938166 0.023083 -0.013714 203460.000000 0 0 1
-33.005685 -33.438095 -19.081575 50.710826 0.791906 1.956576 0.029745 -0.005877 940462.000000 0 0 1
-31.655725 -32.691995 -19.321075 49.438399 0.801501 1.972309 0.031127 -0.012356 -1071080.000000 0 0 1
-31.804445 -31.393795 -19.925875 48.929884 0.778900 1.990219 0.029454 -0.005621 652189.000000 0 0 1
-30.611775 -30.822795 -20.518875 48.043206 0.788833 2.012071 0.043919 -0.006908 1164190.000000 0 0 1
-29.545395 -31.658495 -21.303575 48.260055 0.819910 2.027991 0.040207 -0.006864 -84989.000000 0 0 1
-30.098315 -32.281695 -22.449575 49.517671 0.820385 2.041333 0.033111 -0.000614 -208672.000000 0 0 1
-29.406775 -33.439895 -22.814575 50.034885 0.849484 2.044262 0.024449 0.001975 -191951.000000 0 0 1
-30.101905 33.922808 -24.008675 51.315670 -0.845006 2.057667 0.026932 -0.000848 318523.000000 0 0 1
-31.211985 33.119408 -23.573375 51.252192 -0.815039 2.048734 0.022324 -0.010152 683331.000000 0 0 1
-31.969765 32.384808 -24.546775 51.704795 -0.791847 2.065475 0.015788 -0.008645 490605.000000 0 0 1
-32.810025 33.190208 -25.579165 53.220121 -0.791158 2.072169 0.019351 -0.018343 -266100.000000 0 0 1
-32.151425 33.987508 -26.578985 53.808059 -0.813152 2.087434 0.018397 -0.018756 -514071.000000 0 0 1
-33.087625 -33.330995 -27.223755 54.285163 0.789062 2.096123 0.018966 -0.022822 -171719.000000 0 0 1
-32.463055 -32.601895 -28.412325 54.073965 0.787532 2.124022 0.015862 -0.020793 -132971.000000 0 0 1
-32.335945 -33.388495 -29.615785 55.113515 0.801411 2.138100 0.021499 -0.012881 -729748.000000 0 0 1
-33.456285 -33.589595 -30.399335 56.317878 0.787387 2.140974 0.031512 -0.011551 -914898.000000 0 0 1
-33.267345 33.686708 -31.656715 56.953122 -0.791662 2.160167 0.043055 -0.012444 46678.400000 0 0 1
-32.438535 -33.871095 -32.686045 57.165436 0.806999 2.179470 0.036715 -0.012846 287411.000000 0 0 1
-32.648905 33.395908 -33.875845 57.695845 -0.796708 2.198324 0.032055 -0.021292 260189.000000 0 0 1
-31.574815 33.770808 32.973293 56.786217 -0.818991 0.951261 0.025948 -0.016525 590645.000000 0 0 1
-30.266225 33.291708 33.153941 55.888872 -0.832964 0.935754 0.019237 -0.006170 -159851.000000 0 0 1
-29.982895 31.968208 32.628635 54.640352 -0.817434 0.930850 0.021189 -0.018737 -996633.000000 0 0 1
-28.518225 31.633908 32.740195 53.720700 -0.837149 0.915427 0.026805 -0.014554 -1196390.000000 0 0 1
-28.218175 31.104908 -33.915735 53.982013 -0.834021 2.250135 0.032868 -0.016212 799648.000000 0 0 1
-26.807905 30.851608 -33.771815 53.019062 -0.855414 2.261364 0.046827 -0.012621 816462.000000 0 0 1
-26.356655 29.408908 33.768740 51.960417 -0.840077 0.863352 0.071356 -0.027417 -230556.000000 0 0 1
-26.748525 28.407308 -33.241535 51.258739 -0.815464 2.276415 0.069699 -0.024148 130741.000000 0 0 1
-26.278665 27.090008 -33.604835 50.534361 -0.800600 2.298276 0.071733 -0.021357 -19388.300000 0 0 1
-26.117165 26.077008 -32.484315 49.166527 -0.784629 2.292547 0.091783 -0.030242 -644259.000000 0 0 1
-25.049435 26.221308 -31.608615 48.105464 -0.808251 2.287720 0.088905 -0.021943 -476751.000000 0 0 1
-25.070935 27.368108 -30.753605 48.201134 -0.829177 2.262729 0.065427 -0.014970 321633.000000 0 0 1
-23.779835 27.486208 -29.883735 47.053265 -0.857569 2.258940 0.088270 -0.010335 694079.000000 0 0 1
-22.590735 27.849708 -30.584285 47.131157 -0.889284 2.276959 0.084335 -0.013959 284870.000000 0 0 1
-21.409035 27.865908 -29.808965 46.080690 -0.915693 2.274291 0.063211 -0.007198 304989.000000 0 0 1
-21.237835 29.017908 -28.720175 46.021007 -0.938989 2.244733 0.051752 0.003424 -547535.000000 0 0 1
-20.903935 30.233108 -29.379085 47.054712 -0.965848 2.245108 0.050605 0.011558 159712.000000 0 0 1
-20.607435 31.304208 -28.438545 47.046473 -0.988611 2.219906 0.061399 0.002826 37160.800000 0 0 1
-20.388435 32.635008 -29.175075 48.289927 -1.012383 2.219514 0.076695 0.003235 -52006.700000 0 0 1
-19.216235 32.665808 -29.966715 48.314829 -1.039048 2.239843 0.089767 -0.001437 -70065.500000 0 0 1
-18.975035 33.991508 -30.438785 49.416538 -1.061657 2.234405 0.099084 -0.000472 578573.000000 0 0 1
-17.522235 -33.957695 -30.998045 49.203989 1.094429 2.252337 0.117168 -0.003910 535506.000000 0 0 1
-16.538335 -33.697895 -30.035055 48.074620 1.114550 2.245619 0.142333 -0.013123 797908.000000 0 0 1
-15.198135 -33.443395 -30.505725 47.749798 1.144253 2.263820 0.149209 -0.013321 1004930.000000 0 0 1
-14.212835 33.521608 -30.515855 47.507055 -1.169781 2.268349 0.154028 -0.018217 -365837.000000 0 0 1
-13.822035 33.037908 -29.207455 46.212849 -1.174556 2.254954 0.158600 -0.022382 140462.000000 0 0 1
-13.132835 31.777608 -29.264195 45.151753 -1.178900 2.275922 0.141825 -0.017651 229200.000000 0 0 1
-12.899535 31.058708 -27.931875 43.717628 -1.177147 2.263884 0.123948 -0.021585 83266.200000 0 0 1
-11.861235 31.547508 -27.090875 43.241758 -1.211167 2.247848 0.132730 -0.023920 -3078.630000 0 0 1
-11.925835 31.028108 -25.760565 42.054438 -1.203849 2.230083 0.112533 -0.021126 -131636.000000 0 0 1
-10.669735 31.247808 -24.913475 41.363631 -1.241754 2.217180 0.114236 -0.027832 -110227.000000 0 0 1
-9.536235 30.586708 -25.383625 40.875603 -1.268570 2.240810 0.109834 -0.020904 -339887.000000 0 0 1
-8.315335 31.083908 -24.864675 40.664557 -1.309404 2.228698 0.111282 -0.026719 -115287.000000 0 0 1
-7.049635 30.508008 -25.458215 40.355379 -1.343707 2.253445 0.073258 -0.025034 -611240.000000 0 0 1
-6.808135 29.199208 -25.012475 39.045721 -1.341727 2.266069 0.087217 -0.040960 391714.000000 0 0 1
-5.728035 28.578708 -25.729685 38.878910 -1.372987 2.294001 0.082654 -0.050219 379475.000000 0 0 1
-5.135635 27.408208 -25.035875 37.475054 -1.385568 2.302405 0.107340 -0.036610 245530.000000 0 0 1
-6.091135 26.323608 -25.005175 36.814305 -1.343404 2.317502 0.116229 -0.036313 928550.000000 0 0 1
-5.614935 25.173008 -24.223175 35.383188 -1.351335 2.324845 0.116091 -0.052346 -122734.000000 0 0 1
-6.570835 23.985108 -24.294775 34.766325 -1.303402 2.344518 0.111783 -0.047575 -110184.000000 0 0 1
-6.522835 23.295108 -25.486065 35.138994 -1.297779 2.382256 0.114911 -0.039784 -240085.000000 0 0 1
-7.358435 22.205608 -25.374245 34.512141 -1.250807 2.396797 0.103819 -0.049287 -410306.000000 0 0 1
-7.234335 21.248408 -26.566985 34.779809 -1.242641 2.440073 0.083603 -0.035699 366160.000000 0 0 1
-6.069435 20.438708 -26.743475 34.202226 -1.282133 2.468539 0.100319 -0.045082 61621.600000 0 0 1
-6.135935 19.245808 -26.010415 32.933152 -1.262165 2.481270 0.095287 -0.042040 -545641.000000 0 0 1
-4.854935 18.433908 -26.158505 32.367371 -1.313274 2.511843 0.096470 -0.047677 -222782.000000 0 0 1
-4.689635 17.921108 -27.437975 33.105910 -1.314853 2.547745 0.082787 -0.047460 -426826.000000 0 0 1
-3.597535 17.053608 -27.500275 32.558147 -1.362890 2.576709 0.080053 -0.043434 -336300.000000 0 0 1
-3.162435 16.605308 -28.929005 33.505590 -1.382603 2.612783 0.074020 -0.036619 50984.400000 0 0 1
-2.540435 17.705008 -29.614645 34.596941 -1.428282 2.598260 0.088979 -0.041320 108830.000000 0 0 1
-2.430935 17.512208 -31.001235 35.688421 -1.432864 2.623295 0.092988 -0.045786 209039.000000 0 0 1
-1.599035 18.686908 -31.647215 36.787276 -1.485434 2.606607 0.107759 -0.037628 661881.000000 0 0 1
-0.174835 18.587608 -31.489515 36.566642 -1.561391 2.608332 0.145310 -0.045434 516699.000000 0 0 1
0.470965 19.753408 -31.943655 37.560831 1.546959 2.587639 0.164202 -0.042155 244383.000000 0 0 1
0.339965 20.959808 -30.983855 37.408935 1.554578 2.546769 0.150836 -0.043743 -647917.000000 0 0 1
1.350065 20.907808 -30.043285 36.627286 1.506314 2.532632 0.167853 -0.053121 -713189.000000 0 0 1
1.078865 21.878808 -29.061025 36.392161 1.521525 2.495682 0.161366 -0.062648 -57179.700000 0 0 1
2.148065 22.041408 -28.000565 35.699713 1.473647 2.472421 0.166418 -0.062154 19793.400000 0 0 1
3.256965 22.850508 -28.293445 36.514005 1.429216 2.457299 0.146356 -0.058908 -20151.400000 0 0 1
4.386865 22.649208 -27.454755 35.860769 1.379478 2.442759 0.127167 -0.055937 336416.000000 0 0 1
5.134965 23.941108 -27.149875 36.560364 1.359514 2.407747 0.132054 -0.051802 -334234.000000 0 0 1
5.811065 24.562108 -28.188945 37.837577 1.338481 2.411329 0.119262 -0.055675 -86432.400000 0 0 1
6.125365 25.916008 -27.882235 38.556175 1.338701 2.379161 0.112002 -0.055763 -287121.000000 0 0 1
6.837465 26.633508 -29.007835 39.969353 1.319499 2.382923 0.132629 -0.055885 445160.000000 0 0 1
8.150665 26.100608 -29.253775 40.043207 1.268113 2.389931 0.121322 -0.052024 483828.000000 0 0 1
8.893365 26.933808 -30.088965 41.350547 1.251874 2.385695 0.121879 -0.050116 1681.600000 0 0 1
10.407765 26.940008 -29.772835 41.478998 1.202129 2.371406 0.109459 -0.044531 247459.000000 0 0 1
11.153765 27.846708 -30.566165 42.826815 1.189823 2.365585 0.119172 -0.043177 899299.000000 0 0 1
12.435465 28.164508 -29.967845 42.964544 1.155009 2.342702 0.095011 -0.038307 1194520.000000 0 0 1
13.265965 29.155008 -30.850105 44.471669 1.143780 2.337413 0.107212 -0.032947 37706.300000 0 0 1
12.755565 30.475808 -30.810775 45.175028 1.174404 2.321333 0.118681 -0.028609 395052.000000 0 0 1
13.685865 31.398308 -31.320895 46.412877 1.159747 2.311533 0.147594 -0.034854 113231.000000 0 0 1
12.939765 32.720108 -31.495365 47.222886 1.194203 2.300906 0.148820 -0.039034 269881.000000 0 0 1
12.142165 32.726308 -32.681505 47.817614 1.215518 2.323291 0.126369 -0.038940 469987.000000 0 0 1
11.188365 33.778608 -32.565695 48.235862 1.250943 2.311943 0.105283 -0.024374 286608.000000 0 0 1
10.102165 33.875408 -33.666915 48.816577 1.280978 2.331818 0.077772 -0.021276 204912.000000 0 0 1
10.500265 -33.543995 33.110427 48.288254 -1.267429 0.815255 0.073445 -0.017702 1063260.000000 0 0 1
9.376265 -33.379395 32.185667 47.307668 -1.296953 0.822559 0.070656 -0.025416 959320.000000 0 0 1
9.660765 -32.346295 31.066093 45.877176 -1.280563 0.826903 0.070911 -0.024147 -110783.000000 0 0 1
9.423065 -31.004895 31.496053 45.189589 -1.275745 0.799625 0.050975 -0.028454 -119456.000000 0 0 1
9.746565 -30.010195 30.557223 43.924380 -1.256768 0.801433 0.087929 -0.034792 -994000.000000 0 0 1
9.267465 -28.575195 30.831963 43.046923 -1.257181 0.772396 0.077536 -0.045372 -1001230.000000 0 0 1
7.899965 -28.406695 30.672793 42.546092 -1.299548 0.765652 0.041177 -0.032267 -807364.000000 0 0 1
7.256065 -28.791195 31.905683 43.583896 -1.323914 0.749467 0.037867 -0.018499 -1629990.000000 0 0 1
5.748265 -28.815195 31.747103 43.257791 -1.373894 0.746743 0.047037 -0.017178 -1023450.000000 0 0 1
5.141465 -29.895295 31.108753 43.450176 -1.400480 0.772793 0.063418 -0.020091 -141817.000000 0 0 1
5.294065 -30.041595 29.710023 42.581803 -1.396363 0.798592 0.061582 -0.034230 -631627.000000 0 0 1
4.639165 -29.022295 28.791773 41.143427 -1.412289 0.795692 0.053538 -0.036559 -782807.000000 0 0 1
3.308765 -29.308995 28.503963 41.017569 -1.458380 0.802487 0.084101 -0.038249 -332381.000000 0 0 1
2.727665 -28.426595 27.516183 39.656673 -1.475135 0.803961 0.100003 -0.036184 55435.300000 0 0 1
1.337965 -28.817595 26.970033 39.492108 -1.524401 0.819041 0.104534 -0.028642 -25221.800000 0 0 1
1.265665 -30.047095 26.298963 39.950785 -1.528698 0.852259 0.109134 -0.036400 -32286.100000 0 0 1
1.029165 -31.111095 27.199633 41.337385 -1.537728 0.852648 0.124278 -0.038899 -551608.000000 0 0 1
1.291265 -32.493495 26.582993 42.001786 -1.531078 0.885501 0.117297 -0.042051 650857.000000 0 0 1
2.660165 -32.897595 26.425143 42.280213 -1.490110 0.895665 0.094082 -0.034141 544269.000000 0 0 1
3.314165 -32.437195 25.285093 41.261255 -1.468978 0.911191 0.086546 -0.047349 -68331.200000 0 0 1
4.841365 -32.369795 25.563283 41.529795 -1.422333 0.907724 0.089648 -0.035688 209202.000000 0 0 1
5.561365 -31.815795 24.481763 40.528142 -1.397746 0.922200 0.072208 -0.045542 -434730.000000 0 0 1
6.937465 -31.778895 24.734163 40.863252 -1.355864 0.920665 0.062340 -0.042535 -697294.000000 0 0 1
7.687565 -31.108095 23.571973 39.780021 -1.328526 0.936566 0.054271 -0.025653 -1178070.000000 0 0 1
9.034365 -30.925795 23.810943 40.062271 -1.286575 0.934341 0.038249 -0.007511 -971637.000000 0 0 1
9.688965 -30.420795 22.658113 39.149596 -1.262456 0.953592 0.029101 -0.001117 307011.000000 0 0 1
10.881965 -29.479795 22.942423 38.907971 -1.217179 0.940160 0.020032 0.006355 378869.000000 0 0 1
11.997865 -30.044095 23.626453 40.060026 -1.190857 0.940015 0.031405 0.003449 133365.000000 0 0 1
13.141065 -29.283295 23.300253 39.662334 -1.148977 0.942873 0.037742 -0.001084 13978.800000 0 0 1
14.307965 -29.490195 24.292823 40.798660 -1.119077 0.932993 0.065224 -0.007348 -226509.000000 0 0 1
14.194365 -28.943895 25.610453 41.171888 -1.114850 0.899454 0.058297 -0.010456 -196573.000000 0 0 1
15.429465 -28.822195 26.281443 41.946413 -1.079284 0.893680 0.058286 -0.021708 -103179.000000 0 0 1
-11.516235 -13.905592 26.139753 31.769101 0.879111 0.604469 0.078208 -0.026399 -428886.000000 0 0 1
-10.179335 -13.742992 25.733963 30.898633 0.933279 0.586557 0.074418 -0.025901 -236911.000000 0 0 1
-9.268035 -14.178192 26.749743 31.661748 0.991837 0.564493 0.079448 -0.027630 360374.000000 0 0 1
-7.797935 -13.847492 26.386363 30.802613 1.057929 0.542099 0.097119 -0.025353 -24101.800000 0 0 1
-7.293135 -14.786292 25.475213 30.344863 1.112574 0.574391 0.090933 -0.035770 -195562.000000 0 0 1
-7.571535 -14.542192 24.101803 29.149620 1.090758 0.597347 0.084830 -0.031282 -739737.000000 0 0 1
-6.858235 -15.481592 23.176053 28.702691 1.153785 0.630976 0.084068 -0.041660 -323362.000000 0 0 1
-7.259035 -16.851392 23.094843 29.496351 1.164051 0.671366 0.085351 -0.031996 -314335.000000 0 0 1
-7.197535 -17.694792 24.236153 30.859379 1.184476 0.667496 0.089998 -0.031171 88184.400000 0 0 1
-7.847735 -19.122092 23.921273 31.614373 1.181355 0.712610 0.101104 -0.031562 1764750.000000 0 0 1
-9.288635 -19.139692 23.668163 31.824337 1.118972 0.732189 0.082593 -0.023756 1385060.000000 0 0 1
-9.728835 -20.484392 23.509863 32.664570 1.127398 0.767375 0.078251 -0.021526 -589586.000000 0 0 1
-11.232935 -20.660592 23.588073 33.308198 1.072811 0.783885 0.055255 -0.019795 -724488.000000 0 0 1
-11.658835 -20.782192 24.912743 34.474232 1.059546 0.763170 0.053192 -0.026041 1176160.000000 0 0 1
-13.117635 -20.743992 24.873213 34.943701 1.006923 0.778727 0.078619 -0.024065 1573050.000000 0 0 1
-13.779235 -20.757692 26.257383 36.196674 0.984772 0.759168 0.085071 -0.032267 -399014.000000 0 0 1
-13.450235 -21.896592 27.036693 37.300835 1.019956 0.760012 0.084391 -0.027290 -166090.000000 0 0 1
-12.363435 -21.568892 27.874633 37.350592 1.050311 0.728315 0.078794 -0.028550 78551.800000 0 0 1
-11.819535 -22.856192 28.581703 38.458037 1.093542 0.732968 0.063715 -0.023482 124696.000000 0 0 1
-12.829835 -23.480992 29.346263 39.713534 1.070727 0.739288 0.077034 -0.024517 307454.000000 0 0 1
-12.347435 -24.777692 29.700833 40.602126 1.108487 0.750263 0.058622 -0.024767 874147.000000 0 0 1
-13.412535 -25.480812 30.649483 42.054234 1.086270 0.754216 0.071068 -0.023032 853288.000000 0 0 1
-13.387035 -25.040892 31.964021 42.754620 1.079848 0.726332 0.045645 -0.012168 -51808.600000 0 0 1
-14.606835 -25.272272 32.643304 43.790782 1.046726 0.729605 0.072250 -0.016710 -178409.000000 0 0 1
-14.487335 -24.910592 -33.786805 44.406853 1.044036 2.435413 0.065479 -0.020276 116389.000000 0 0 1
-14.574235 -23.524092 -33.431365 43.398702 1.016129 2.450156 0.050419 -0.023287 -126166.000000 0 0 1
-15.788535 -22.877792 -33.765375 43.735246 0.966729 2.452842 0.061773 -0.026431 -256804.000000 0 0 1
-15.790635 -21.394792 -33.522885 42.788609 0.934981 2.471000 0.033483 -0.017038 -192852.000000 0 0 1
-16.149035 -21.104292 -32.210965 41.757978 0.917637 2.451792 0.034277 -0.011881 160212.000000 0 0 1
-16.366535 -19.727992 -32.018735 41.015320 0.878260 2.466506 0.030915 -0.014078 -409823.000000 0 0 1
-16.421535 -19.301992 -30.548395 39.691789 0.865856 2.449074 0.031574 -0.005921 472028.000000 0 0 1
-17.659535 -19.587592 -29.876275 39.851282 0.837116 2.418396 0.034654 -0.004867 566630.000000 0 0 1
-17.652635 -19.466792 -28.460885 38.737494 0.834233 2.396038 0.023295 0.000087 -197812.000000 0 0 1
-16.833735 -20.479192 -27.611085 38.277198 0.882789 2.376539 0.019298 -0.002458 250635.000000 0 0 1
-15.434135 -20.277292 -27.777215 37.695553 0.920195 2.399244 0.014086 -0.001208 -108849.000000 0 0 1
-14.787635 -21.342792 -27.143865 37.562991 0.964876 2.378385 0.008450 -0.008685 -309807.000000 0 0 1
-13.265535 -21.207292 -27.315515 37.038642 1.011825 2.400138 0.069485 -0.010314 -588577.000000 0 0 1
-12.647235 -20.090192 -26.657615 35.695893 1.008951 2.414030 0.072651 -0.022317 701778.000000 0 0 1
-11.223435 -20.128892 -26.621675 35.211523 1.062153 2.428053 0.057962 -0.037377 609592.000000 0 0 1
-10.646035 -21.041092 -25.488455 34.723579 1.102389 2.395047 0.084377 -0.039251 -500382.000000 0 0 1
-10.871035 -22.395592 -25.863315 35.897813 1.118889 2.375277 0.083678 -0.034905 33816.400000 0 0 1
-10.225335 -23.198992 -24.933775 35.559019 1.155648 2.347867 0.125439 -0.031724 -207395.000000 0 0 1
-10.269435 -24.717692 -25.283175 36.819349 1.177026 2.327711 0.115921 -0.032376 -129012.000000 0 0 1
-9.515835 -25.010792 -26.487985 37.652412 1.207239 2.351088 0.110313 -0.025317 397511.000000 0 0 1
-9.765035 -26.244602 -27.169725 39.017034 1.214590 2.341103 0.098993 -0.025321 -368251.000000 0 0 1
-9.455135 -27.587352 -26.371485 39.318148 1.240609 2.305976 0.119348 -0.022684 -40688.000000 0 0 1
-10.379535 -27.968052 -25.369495 39.160668 1.215431 2.275530 0.107090 -0.026767 59895.300000 0 0 1
-9.903535 -29.106382 -24.644275 39.403067 1.242831 2.246492 0.136372 -0.026483 -9102.080000 0 0 1
-10.728835 -29.418462 -23.326375 39.047068 1.221089 2.211040 0.155958 -0.030932 354305.000000 0 0 1
-10.878935 -28.350122 -22.352575 37.705679 1.204390 2.205349 0.127739 -0.039161 47048.300000 0 0 1
-11.819835 -27.376922 -22.761975 37.514155 1.163227 2.222771 0.116013 -0.036697 -257776.000000 0 0 1
-11.709835 -26.207752 -21.753275 36.016266 1.150600 2.219288 0.127015 -0.040797 69529.400000 0 0 1
-12.365535 -26.467692 -20.527475 35.704655 1.133737 2.183308 0.090106 -0.037992 263250.000000 0 0 1
-12.417035 -25.329122 -19.729275 34.423705 1.114997 2.181117 0.077413 -0.032901 -115218.000000 0 0 1
-12.888835 -25.620152 -18.261875 34.000151 1.104692 2.137805 0.115386 -0.038134 476554.000000 0 0 1
-14.272035 -25.971312 -18.321875 34.840940 1.068313 2.124536 0.145142 -0.043375 426362.000000 0 0 1
-14.694035 -26.265042 -17.023375 34.576905 1.060725 2.085565 0.143223 -0.040284 -86350.500000 0 0 1
-16.220235 -26.430902 -16.833975 35.285568 1.020375 2.068123 0.154273 -0.044710 209908.000000 0 0 1
-17.040335 -25.245292 -16.824075 34.795793 0.977053 2.075455 0.138586 -0.032187 547932.000000 0 0 1
-18.418335 -25.341692 -16.552475 35.431918 0.942309 2.056876 0.148473 -0.026201 495491.000000 0 0 1
-19.370335 -26.096402 -17.537575 36.929643 0.932267 2.065637 0.137184 -0.023042 -578475.000000 0 0 1
-19.155835 -27.522672 -17.586875 37.864781 0.962759 2.053827 0.145219 -0.035350 24654.000000 0 0 1
-19.655235 -28.328772 -16.532375 38.238292 0.964226 2.017895 0.144858 -0.040390 -107822.000000 0 0 1
-21.183135 -28.559442 -16.548075 39.219965 0.932615 2.006369 0.121943 -0.027847 231170.000000 0 0 1
-21.767935 -29.355812 -17.602175 40.564063 0.932744 2.019652 0.100331 -0.026200 116981.000000 0 0 1
-23.037635 -29.824602 -17.216875 41.432599 0.913089 1.999332 0.091030 -0.012804 98246.600000 0 0 1
-23.837135 -30.771732 -18.137475 42.942711 0.911709 2.006849 0.061348 -0.014635 -431592.000000 0 0 1
-23.160435 -31.988742 -18.254175 43.507473 0.944132 2.003761 0.063640 -0.019662 -131429.000000 0 0 1
-23.559635 -32.829242 -19.266375 44.766156 0.948328 2.015708 0.037590 0.002952 -402642.000000 0 0 1
-22.901635 33.897624 -19.127275 45.159566 -0.976626 2.008155 0.030823 -0.001971 -68559.500000 0 0 1
-23.566035 33.012849 -18.299675 44.498138 -0.950839 1.994617 0.033452 -0.004010 -520875.000000 0 0 1
-22.743135 31.902021 -18.085575 43.151792 -0.951461 2.003267 0.037990 -0.010923 21307.300000 0 0 1
-23.473435 30.566211 -17.738575 42.425846 -0.915904 2.002158 0.046458 -0.018710 -146108.000000 0 0 1
-24.018935 30.417851 -16.469175 42.111621 -0.902409 1.972605 0.043108 -0.025745 -184771.000000 0 0 1
-24.741735 29.216411 -16.353875 41.631735 -0.868137 1.974495 0.043076 -0.017340 -153527.000000 0 0 1
-23.945135 27.921801 -16.020175 40.120350 -0.861919 1.981553 0.052001 -0.022254 -16623.200000 0 0 1
-23.104635 27.467691 -17.052775 39.737832 -0.871459 2.014328 0.029921 -0.008527 -75886.200000 0 0 1
-22.548335 26.191801 -16.802775 38.428779 -0.860012 2.023329 0.032864 -0.005620 -392995.000000 0 0 1
-21.762335 25.700431 -18.034975 38.201724 -0.868181 2.062466 0.037927 0.003154 -1340920.000000 0 0 1
-21.383035 24.345201 -17.892475 37.014371 -0.850085 2.075322 0.048766 -0.010555 250893.000000 0 0 1
-20.546435 23.818681 -18.933675 36.714705 -0.859022 2.112618 0.047148 -0.003030 224707.000000 0 0 1
-19.144335 24.462271 -18.950375 36.387154 -0.906751 2.118582 0.035023 -0.004083 -1606110.000000 0 0 1
-18.363435 24.147921 -17.814575 35.180917 -0.920637 2.101767 0.056542 -0.018433 633470.000000 0 0 1
-17.194335 24.969401 -17.717075 35.114255 -0.967751 2.099663 0.072092 -0.028426 -99913.200000 0 0 1
-17.392135 26.322731 -17.008875 35.842354 -0.986917 2.065245 0.086484 -0.047760 -602314.000000 0 0 1
-18.332535 27.157151 -17.623175 37.204421 -0.977010 2.064267 0.062247 -0.034731 -65681.800000 0 0 1
-18.328335 28.432671 -16.960475 37.841807 -0.998211 2.035540 0.087898 -0.044817 -134347.000000 0 0 1
-19.503635 29.342991 -17.372675 39.283746 -0.984172 2.028886 0.085180 -0.032149 -75969.100000 0 0 1
-19.420435 29.750661 -18.740475 40.167904 -0.992474 2.056186 0.081212 -0.028213 109197.000000 0 0 1
-20.071135 28.875691 -19.624775 40.271426 -0.963375 2.079806 0.050226 -0.014389 -355798.000000 0 0 1
-20.131235 29.432771 -21.049075 41.407948 -0.970908 2.104046 0.052051 -0.011844 -68121.800000 0 0 1
-20.937635 30.580391 -21.065675 42.629890 -0.970430 2.087656 0.058523 -0.011620 35495.500000 0 0 1
-21.253935 30.939081 -22.391175 43.707221 -0.968875 2.108656 0.058496 -0.007922 -20621.000000 0 0 1
-21.927535 32.301081 -22.559975 45.090233 -0.974408 2.094776 0.058401 -0.012872 -554623.000000 0 0 1
-21.082435 33.397963 -22.435675 45.423039 -1.007716 2.087397 0.039645 -0.011252 -187873.000000 0 0 1
-21.350135 -33.672762 -23.410575 46.235680 1.005717 2.101721 0.057581 -0.001298 57768.300000 0 0 1
-20.323635 -32.502812 -23.280675 44.849445 1.011990 2.116576 0.068976 0.000558 255307.000000 0 0 1
-20.415735 -31.703782 -22.058275 43.686376 0.998684 2.100090 0.074500 -0.008053 136042.000000 0 0 1
-19.808535 -32.407202 -20.982575 43.392087 1.022154 2.075511 0.095370 -0.024574 -476953.000000 0 0 1
-19.322335 -31.509222 -19.864675 41.961756 1.020707 2.063942 0.118277 -0.034356 -1105850.000000 0 0 1
-18.179535 -30.847252 -20.193775 41.107626 1.038252 2.084311 0.138055 -0.038091 -1159310.000000 0 0 1
-17.745735 -30.064682 -19.153075 39.820051 1.037575 2.072581 0.139596 -0.037551 -275454.000000 0 0 1
-16.488135 -29.203252 -19.353075 38.719891 1.056814 2.094190 0.160731 -0.040751 294206.000000 0 0 1
-15.330635 -29.999192 -19.510775 38.931352 1.098360 2.095733 0.163596 -0.047704 288835.000000 0 0 1
-14.190835 -29.279922 -19.961175 38.172531 1.119495 2.121069 0.145897 -0.049559 976725.000000 0 0 1
-12.859335 -30.090742 -20.305775 38.511553 1.166935 2.126174 0.165987 -0.050873 1312570.000000 0 0 1
-12.043935 -30.432262 -19.188575 37.939166 1.193949 2.101073 0.147333 -0.047704 567960.000000 0 0 1
-11.362135 -29.343382 -18.500275 36.501949 1.201362 2.102300 0.115409 -0.043702 -75763.400000 0 0 1
-10.487335 -29.915012 -17.344575 36.134836 1.233613 2.071446 0.101279 -0.026626 -327296.000000 0 0 1
-11.228435 -30.485022 -16.321675 36.356724 1.217889 2.036365 0.124479 -0.043427 -282622.000000 0 0 1
-11.702835 -31.828492 -16.523775 37.723260 1.218455 2.024198 0.131325 -0.049006 126696.000000 0 0 1
-12.780435 -32.288022 -15.515675 38.034090 1.193894 1.990994 0.139120 -0.056563 -296488.000000 0 0 1
-12.315535 -32.406162 -14.196975 37.461791 1.207617 1.959482 0.119724 -0.043410 668415.000000 0 0 1
-13.391235 -32.795942 -13.300875 37.839295 1.183138 1.929979 0.127648 -0.034856 419626.000000 0 0 1
-12.965335 -33.571292 -12.022675 37.943066 1.202240 1.893214 0.101998 -0.038674 106702.000000 0 0 1
-12.138435 -32.820222 -11.135275 36.721967 1.216552 1.878879 0.086338 -0.026393 346155.000000 0 0 1
-12.040735 -33.354272 -9.856775 36.805472 1.224360 1.841913 0.082840 -0.026336 -842243.000000 0 0 1
-10.769035 -32.897742 -9.143275 35.802695 1.254442 1.829037 0.076551 -0.026691 313581.000000 0 0 1
-9.624935 -33.542942 -9.726475 36.226684 1.291360 1.842621 0.047366 -0.025438 427246.000000 0 0 1
-8.410935 -32.832122 -9.660675 35.242314 1.320010 1.848472 0.037020 -0.028675 981732.000000 0 0 1
-7.121335 -33.548462 -10.192375 35.778446 1.361631 1.859672 0.034960 -0.038127 549625.000000 0 0 1
-6.537335 33.571856 -9.411075 35.473576 -1.378476 1.839309 0.033154 -0.015799 -652764.000000 0 0 1
-5.267435 33.264456 -9.884475 35.099469 -1.413750 1.856271 0.042054 -0.011177 -801443.000000 0 0 1
-4.477235 32.318911 -9.022075 33.851964 -1.433140 1.840572 0.047676 -0.019668 -221563.000000 0 0 1
-3.992735 32.837333 -7.788175 33.983644 -1.449799 1.802026 0.067709 -0.023327 -157244.000000 0 0 1
-3.340735 31.821971 -7.061875 32.766880 -1.466197 1.788019 0.062760 -0.031380 59060.000000 0 0 1
-2.985335 32.417592 -5.679475 33.046466 -1.478965 1.743517 0.072086 -0.027521 -563124.000000 0 0 1
-1.934735 33.330358 -5.787175 33.884323 -1.512814 1.742430 0.055845 -0.025460 -390533.000000 0 0 1
-1.611535 33.973375 -4.556975 34.315496 -1.523397 1.703986 0.062058 -0.024133 263529.000000 0 0 1
-0.573235 33.240134 -3.664075 33.446383 -1.553553 1.680567 0.065564 -0.027202 446128.000000 0 0 1
0.779765 33.306517 -4.118175 33.569204 1.547389 1.693783 0.066230 -0.033860 139779.000000 0 0 1
1.642365 32.479230 -3.431975 32.701318 1.520273 1.675939 0.067901 -0.028569 416218.000000 0 0 1
3.130665 32.435566 -3.909375 32.819967 1.474575 1.690196 0.064917 -0.027216 578845.000000 0 0 1
3.773665 33.635643 -3.617175 34.039404 1.459071 1.677262 0.062461 -0.027260 369218.000000 0 0 1
5.185665 33.620065 -3.890075 34.239343 1.417759 1.684656 0.080050 -0.026609 923407.000000 0 0 1
5.810965 -33.214832 -3.343475 33.884675 -1.397598 1.669629 0.089357 -0.022287 -189085.000000 0 0 1
5.482365 -32.047332 -4.115875 32.772370 -1.401366 1.696719 0.090098 -0.025626 -118445.000000 0 0 1
5.970365 -30.882312 -3.544575 31.653222 -1.379826 1.683013 0.091841 -0.032979 -257447.000000 0 0 1
5.843065 -29.645492 -4.390575 30.533158 -1.376193 1.715093 0.086869 -0.028797 -93437.000000 0 0 1
6.765865 -29.643852 -5.465875 30.893538 -1.346402 1.748659 0.099055 -0.031482 -48234.500000 0 0 1
6.558665 -28.685362 -6.445475 30.123250 -1.346019 1.786434 0.106757 -0.027277 42914.700000 0 0 1
7.115165 -27.259042 -6.159275 28.837781 -1.315473 1.786038 0.099339 -0.021721 369748.000000 0 0 1
6.383665 -26.691022 -5.070475 27.908270 -1.336037 1.753495 0.085217 -0.026091 111857.000000 0 0 1
6.917065 -25.474102 -4.575675 26.790156 -1.305656 1.742435 0.065988 -0.022654 430678.000000 0 0 1
5.945265 -24.900192 -3.495875 25.837702 -1.336421 1.706514 0.058470 -0.022672 788989.000000 0 0 1
4.692465 -24.449692 -4.002275 25.215568 -1.381179 1.730193 0.056761 -0.023954 120229.000000 0 0 1
3.957365 -23.772692 -2.992175 24.284866 -1.405842 1.694322 0.051832 -0.023849 271856.000000 0 1 0
2.694865 -23.083292 -3.569675 23.512619 -1.454577 1.723205 0.066425 -0.024519 355232.000000 0 1 0
1.614665 -23.965292 -3.849175 24.326087 -1.503523 1.729697 0.078579 -0.020946 -733221.000000 0 1 0
0.627965 -23.159892 -4.403575 23.583180 -1.543689 1.758624 0.061343 -0.022603 -486098.000000 0 1 0
-15.495635 23.035308 17.986013 33.079250 -0.978635 0.995927 0.017480 -0.021545 -173751.000000 0 0 1
-15.796635 22.755008 19.279413 33.749368 -0.963970 0.962765 0.033476 -0.011557 217854.000000 0 0 1
-15.384635 23.760908 20.192613 34.770812 -0.996197 0.951166 0.039579 -0.015797 -890213.000000 0 0 1
-15.485735 23.226908 21.692713 35.353515 -0.982760 0.910192 0.058279 -0.019380 -137531.000000 0 0 1
-14.561935 22.167508 21.991213 34.453763 -0.989583 0.878532 0.048952 -0.013918 1677890.000000 0 0 1
-13.151135 22.506508 21.937113 34.069520 -1.041982 0.871221 0.031765 -0.021337 978031.000000 0 0 1
-12.570835 23.602408 22.886913 35.198158 -1.081404 0.862909 0.064394 -0.007409 -718683.000000 0 0 1
-12.126235 23.003508 24.070313 35.434262 -1.085668 0.823995 0.046682 0.001853 3042.680000 0 0 1
-12.099435 24.019408 25.047423 36.751893 -1.104165 0.820949 0.071954 -0.003349 168325.000000 0 0 1
-11.685435 23.558408 26.496253 37.330944 -1.110338 0.781630 0.059641 -0.006615 -205739.000000 0 0 1
-10.330935 23.254608 26.641163 36.840963 -1.152732 0.762459 0.024956 -0.005602 -832386.000000 0 0 1
-10.127035 22.575408 27.789843 37.208618 -1.149118 0.727460 0.015822 -0.003616 323689.000000 0 0 1
-8.619235 22.147408 28.007163 36.731459 -1.199656 0.703652 0.020731 -0.010388 1746600.000000 0 0 1
-7.668435 23.195208 28.247213 37.346052 -1.251504 0.713059 0.028360 -0.012560 189611.000000 0 0 1
-7.366635 24.059308 27.167123 37.029315 -1.273674 0.747096 0.026733 -0.009996 -856229.000000 0 0 1
-6.470035 25.225108 27.595183 37.942872 -1.319717 0.756442 0.033687 -0.017370 -463646.000000 0 0 1
-5.143035 24.848908 27.767993 37.616226 -1.366706 0.740410 0.037484 -0.021585 -877641.000000 0 0 1
-4.274235 25.797508 28.328603 38.552435 -1.406604 0.745414 0.054519 -0.021976 478980.000000 0 0 1
-2.779535 25.382908 28.320103 38.131956 -1.461727 0.733722 0.053309 -0.027693 129122.000000 0 0 1
-2.207735 25.330508 27.016463 37.099838 -1.483859 0.755090 0.050335 -0.025276 153611.000000 0 0 1
-0.861235 24.879208 27.117293 36.811198 -1.536194 0.742680 0.057333 -0.014334 852016.000000 0 0 1
-0.093135 24.781708 25.747733 35.736361 -1.567038 0.766286 0.047006 -0.013508 271611.000000 0 0 1
-0.533735 23.700708 24.932503 34.404042 -1.548280 0.760202 0.047213 -0.004576 -89575.400000 0 0 1
0.154065 23.572108 23.696183 33.424199 1.564260 0.782784 0.043321 0.000180 -174522.000000 0 0 1
-0.279935 22.352508 22.880213 31.987765 -1.558273 0.773771 0.026774 0.001201 280812.000000 0 0 1
0.304265 21.125208 23.330223 31.474852 1.556394 0.735890 0.046028 0.000958 107687.000000 0 0 1
-0.156335 20.093808 22.473013 30.146673 -1.563016 0.729578 0.047918 -0.004748 405343.000000 0 0 1
0.735165 18.820408 22.605813 29.423987 1.531754 0.694649 0.071346 0.001665 1553080.000000 0 0 1
2.017665 18.870008 21.910013 28.986149 1.464277 0.713801 0.068796 -0.004246 559949.000000 0 0 1
2.688965 17.701908 22.138813 28.473059 1.420046 0.680059 0.052918 -0.007948 -281417.000000 0 0 1
4.089465 17.680108 21.433913 28.084205 1.343491 0.702543 0.051478 -0.007618 211994.000000 0 0 1
5.010065 18.221608 22.389613 29.298848 1.302475 0.701026 0.049835 0.001802 -613722.000000 0 0 1
6.172065 18.623608 21.666513 29.229624 1.250777 0.735863 0.081915 -0.014505 238912.000000 0 0 1
7.270265 19.211408 22.600213 30.540212 1.209018 0.737704 0.094900 -0.019410 -288377.000000 0 0 1
6.937265 20.276108 23.486693 31.794197 1.241141 0.739642 0.078087 -0.013714 -16766.500000 0 0 1
6.565365 21.537008 22.847813 32.077551 1.274904 0.778072 0.087107 -0.022248 32491.300000 0 0 1
5.331365 22.315208 23.331283 32.722175 1.336281 0.777013 0.051810 -0.008915 -86378.700000 0 0 1
5.238465 23.560308 22.676713 33.117411 1.352012 0.816554 0.045108 -0.011689 617415.000000 0 0 1
4.004465 24.133808 23.122433 33.661897 1.406367 0.813578 0.026375 -0.005921 313718.000000 0 0 1
3.820365 25.570508 22.486413 34.264921 1.422488 0.854956 0.025912 -0.006200 -61991.600000 0 0 1
3.683765 25.781908 21.101113 33.519157 1.428875 0.889856 0.029167 -0.010637 -825828.000000 0 0 1
2.441065 25.479508 20.595713 32.853425 1.475283 0.893232 0.024884 -0.008652 -1153970.000000 0 0 1
2.439365 25.651208 19.034213 32.034922 1.475984 0.934562 0.037133 -0.018985 -566423.000000 0 0 1
2.596565 26.982508 18.561913 32.853348 1.474860 0.970372 0.056012 -0.016804 -27618.400000 0 0 1
1.833265 27.281308 17.392813 32.405872 1.503699 1.004254 0.058231 -0.015072 283262.000000 0 0 1
0.539165 28.069108 17.731113 33.204787 1.551590 1.007480 0.054185 -0.000438 198178.000000 0 0 1
0.772865 29.471808 17.794713 34.435978 1.544578 1.027749 0.060222 -0.000812 122613.000000 0 0 1
-0.360835 30.095808 18.336113 35.243452 -1.558807 1.023629 0.046926 0.001466 -61278.400000 0 0 1
0.070265 31.514008 18.736513 36.663259 1.568567 1.034398 0.049137 0.005969 -156100.000000 0 0 1
0.788765 31.472908 19.909713 37.250003 1.545740 1.006893 0.056869 -0.003941 -349000.000000 0 0 1
1.205165 32.785908 20.327113 38.594815 1.534054 1.016106 0.055597 -0.008694 -66515.400000 0 0 1
1.586165 32.861708 21.858313 39.499286 1.522566 0.984374 0.056070 -0.018496 -323313.000000 0 0 1
0.552065 32.555608 22.727313 39.707721 1.553840 0.961409 0.060701 -0.013358 -260893.000000 0 0 1
1.083765 32.554208 24.054123 40.491380 1.537518 0.934705 0.072668 -0.027492 -122066.000000 0 0 1
0.033065 32.177208 25.107913 40.813982 1.569769 0.908183 0.079333 -0.025477 36685.100000 0 0 1
-1.013735 33.174108 25.094083 41.608438 -1.540248 0.923414 0.085136 -0.024033 442375.000000 0 0 1
-1.909935 33.002708 26.197343 42.179703 -1.512989 0.900665 0.092443 -0.020876 63719.400000 0 0 1
-1.384335 33.380008 27.587633 43.326883 -1.529348 0.880543 0.109585 -0.028996 -537920.000000 0 0 1
-0.463135 32.412608 28.074033 42.882898 -1.556509 0.857054 0.097909 -0.036102 83813.900000 0 0 1
-0.040835 32.838108 29.351963 44.044077 -1.569553 0.841396 0.088700 -0.032377 -939353.000000 0 0 1
1.123065 32.041108 29.953943 43.876333 1.535760 0.819358 0.072759 -0.024405 -9566.620000 0 0 1
2.461065 32.287908 29.610713 43.878926 1.494721 0.830065 0.058313 -0.024012 -101939.000000 0 0 1
2.734665 31.922508 28.311673 42.756002 1.485339 0.847088 0.059235 -0.027799 -455106.000000 0 0 1
4.243265 31.654608 28.009633 42.480102 1.437542 0.850831 0.042447 -0.020178 530062.000000 0 0 1
4.719065 30.402708 28.457733 41.909865 1.416807 0.824366 0.048614 -0.024111 -881157.000000 0 0 1
6.037065 30.089108 28.195303 41.674641 1.372786 0.827718 0.066941 -0.036042 -774881.000000 0 0 1
6.517165 28.958408 29.159383 41.609283 1.349432 0.794292 0.088735 -0.031380 -18205.500000 0 0 1
6.686365 29.325508 30.532923 42.859681 1.346623 0.777895 0.092974 -0.030803 -42827.600000 0 0 1
7.368565 28.350308 31.274023 42.849740 1.316511 0.752689 0.078917 -0.024566 -103620.000000 0 0 1
7.392265 28.558208 32.774241 44.094985 1.317507 0.732859 0.096224 -0.036733 -378363.000000 0 0 1
6.113065 28.380708 33.344577 44.211932 1.358643 0.716364 0.093196 -0.036178 -263707.000000 0 0 1
5.990765 27.811808 -33.252535 43.762050 1.358634 2.433877 0.109320 -0.039431 -188183.000000 0 0 1
6.241265 26.264108 -32.984135 42.622880 1.337489 2.455709 0.112175 -0.036520 -142169.000000 0 0 1
7.573465 25.906808 -33.265525 42.838245 1.286386 2.459949 0.100865 -0.034113 -211818.000000 0 0 1
7.752165 24.552408 -33.127075 41.956166 1.264963 2.480894 0.114834 -0.041438 670215.000000 0 0 1
9.246765 24.087308 -33.238355 42.077183 1.204259 2.481504 0.103527 -0.038030 453110.000000 0 0 1
9.780665 24.071408 33.363024 42.286942 1.184855 0.661670 0.088037 -0.026637 532534.000000 0 0 1
11.015965 23.419108 33.088820 42.008048 1.131121 0.663765 0.102485 -0.039642 364233.000000 0 0 1
11.078965 21.908908 33.452517 41.494754 1.102613 0.633118 0.104558 -0.040912 -633925.000000 0 0 1
10.400765 21.021408 32.556411 40.124748 1.111341 0.624287 0.094510 -0.035507 79422.400000 0 0 1
10.239565 19.696808 33.018764 39.787582 1.091388 0.591911 0.086899 -0.034029 -207749.000000 0 0 1
9.072365 19.445708 -33.955875 40.167708 1.134266 2.578021 0.132029 -0.042377 -487305.000000 0 0 1
9.166965 20.121808 -32.694515 39.469630 1.143317 2.546945 0.148104 -0.045808 -103172.000000 0 0 1
7.898365 20.215708 -32.078215 38.730749 1.198329 2.546749 0.156579 -0.051698 -1145.720000 0 0 1
7.846965 20.929808 -30.774885 38.035842 1.212097 2.513419 0.156570 -0.057223 -177450.000000 0 0 1
8.133965 22.293508 -30.787825 38.872253 1.220947 2.484916 0.156931 -0.054963 -97435.200000 0 0 1
8.303465 22.954408 -29.553525 38.330969 1.223704 2.451220 0.121779 -0.051424 -710375.000000 0 0 1
9.696465 23.083008 -28.969125 38.289122 1.173109 2.428877 0.114846 -0.045844 -702824.000000 0 0 1
10.355265 21.889408 -28.754315 37.592397 1.128922 2.441678 0.113794 -0.039292 -466902.000000 0 0 1
11.727765 22.064208 -28.463345 37.875213 1.082245 2.421134 0.108119 -0.033015 464283.000000 0 0 1
12.410165 20.652008 -28.308035 37.173411 1.029702 2.436441 0.104470 -0.038308 22862.500000 0 0 1
12.581365 19.954208 -29.558225 37.817322 1.008243 2.468032 0.107603 -0.043544 -473182.000000 0 0 1
11.429265 19.455308 -30.174765 37.678290 1.039647 2.499514 0.127326 -0.039553 -761490.000000 0 0 1
11.596665 18.456808 -31.368245 38.198209 1.009818 2.534301 0.125706 -0.038908 -613141.000000 0 0 1
11.841765 17.117708 -30.916975 37.270668 0.965605 2.549054 0.122540 -0.034087 126949.000000 0 0 1
11.898665 16.213508 -32.017295 37.809565 0.937696 2.580744 0.120746 -0.028780 250716.000000 0 0 1
13.220765 16.101808 -32.849945 38.899559 0.883337 2.576392 0.094014 -0.015631 173892.000000 0 0 1
13.527465 17.312408 -33.453685 40.023253 0.907516 2.560487 0.098382 -0.020770 -273421.000000 0 0 1
14.195465 17.161008 33.241896 40.012936 0.879693 0.590291 0.090606 -0.020714 134540.000000 0 0 1
13.265165 16.970508 31.972431 38.551253 0.907339 0.592855 0.092045 -0.024485 -565317.000000 0 0 1
13.663965 17.507908 30.709523 37.898622 0.908093 0.626120 0.076999 -0.024358 -2089.090000 0 0 1
12.792865 17.374508 29.559993 36.596777 0.936120 0.630520 0.077258 -0.022870 713817.000000 0 0 1
11.323765 17.899708 29.658503 36.445219 1.006734 0.620164 0.074484 -0.016216 337920.000000 0 0 1
10.609065 17.026308 30.494693 36.501695 1.013566 0.581878 0.085415 -0.020412 295745.000000 0 0 1
9.190265 17.220708 30.381003 36.111204 1.080573 0.571080 0.087903 -0.023066 1100570.000000 0 0 1
8.288065 16.309308 31.253453 36.214139 1.100626 0.529583 0.119288 -0.025612 224533.000000 0 0 1
8.481365 16.574208 32.622592 37.561568 1.097816 0.518608 0.140888 -0.027147 29226.000000 0 0 1
7.799365 15.620208 33.438134 37.721741 1.107699 0.481196 0.155888 -0.033622 82264.000000 0 0 1
7.747165 15.787308 -32.962875 37.360524 1.114599 2.651505 0.144007 -0.033358 -509492.000000 0 0 1
6.742365 16.670508 -32.624005 37.251725 1.186461 2.637828 0.148561 -0.039487 -402865.000000 0 0 1
6.668665 16.589208 -31.211625 35.969966 1.188577 2.621380 0.148630 -0.048408 18687.700000 0 0 1
5.675865 17.575308 -30.546595 35.695957 1.258424 2.597783 0.151275 -0.054427 -595979.000000 0 0 1
5.486365 17.432908 -29.147645 34.403367 1.265896 2.581550 0.136455 -0.062728 600419.000000 0 0 1
4.613465 18.434308 -28.575335 34.317015 1.325568 2.554739 0.139267 -0.068762 790302.000000 0 0 1
3.093465 18.246808 -28.816885 34.248042 1.402859 2.570696 0.160119 -0.064462 -1274690.000000 0 0 1
2.483465 17.359108 -27.926425 32.975619 1.428696 2.580889 0.155412 -0.055733 195025.000000 0 0 1
1.078565 17.265708 -28.118025 33.013502 1.508409 2.590042 0.157040 -0.051590 632566.000000 0 0 1
0.202965 18.521708 -27.799305 33.405033 1.559839 2.553840 0.147907 -0.057567 -932188.000000 0 0 1
-0.020935 18.746908 -26.445175 32.415957 -1.569680 2.524920 0.140087 -0.056355 299417.000000 0 0 1
-0.822735 19.925608 -26.199315 32.925839 -1.529529 2.490970 0.146640 -0.056746 260192.000000 0 0 1
-1.240935 20.164408 -24.716075 31.922212 -1.509333 2.456340 0.134780 -0.060972 334770.000000 0 0 1
-2.214035 19.270208 -24.170875 30.991516 -1.456404 2.465333 0.127782 -0.051361 205520.000000 0 0 1
-2.519135 19.772608 -22.855375 30.326065 -1.444074 2.424401 0.122689 -0.056998 479475.000000 0 0 1
-3.706235 19.013808 -22.173475 29.443574 -1.378287 2.423533 0.092110 -0.043454 1019580.000000 0 0 1
-5.040435 19.365508 -22.555575 30.152659 -1.316167 2.415909 0.092591 -0.037060 454944.000000 0 0 1
-5.920635 18.309508 -22.131475 29.327362 -1.258045 2.425895 0.082201 -0.043680 -485377.000000 0 0 1
-7.377435 18.674308 -22.359675 30.051812 -1.194558 2.409889 0.107494 -0.035838 -236691.000000 0 0 1
-7.998835 19.591808 -21.385275 30.085715 -1.183177 2.361448 0.071493 -0.024112 294615.000000 0 0 1
-7.645535 20.893908 -21.632475 31.031815 -1.220008 2.342150 0.079389 -0.036207 -262398.000000 0 0 1
-8.246935 21.992908 -20.726675 31.325628 -1.212042 2.293817 0.087850 -0.040113 325386.000000 0 0 1
-7.506135 22.021408 -19.491775 30.351503 -1.242290 2.268163 0.096006 -0.042724 347361.000000 0 0 1
-7.848435 23.162108 -18.710375 30.792195 -1.244091 2.223874 0.104606 -0.047198 -47305.600000 0 0 1
-6.991035 23.560708 -17.469275 30.152232 -1.282347 2.188751 0.115147 -0.048869 -323837.000000 0 0 1
-5.636135 23.828508 -17.672775 30.197529 -1.338536 2.195971 0.107996 -0.046654 -981678.000000 0 0 1
-5.049935 23.902608 -16.426075 29.438961 -1.362587 2.162735 0.105127 -0.037058 197873.000000 0 0 1
-3.510535 24.087708 -16.377175 29.338599 -1.426076 2.163026 0.117303 -0.039729 331257.000000 0 0 1
-3.088435 25.391208 -16.542675 30.461647 -1.449757 2.144880 0.094792 -0.040599 224351.000000 0 0 1
-1.744735 25.393608 -17.050175 30.636382 -1.502197 2.161004 0.099177 -0.048352 756807.000000 0 0 1
-1.289835 26.859008 -17.221075 31.931730 -1.522811 2.140413 0.091257 -0.060190 -280029.000000 0 0 1
-2.096135 27.463108 -18.168475 32.995599 -1.494619 2.153919 0.101990 -0.066178 -302555.000000 0 0 1
-1.692835 28.816308 -18.234275 34.142848 -1.512118 2.134190 0.105805 -0.063898 -672716.000000 0 0 1
-2.548735 29.802308 -19.070375 35.473269 -1.485483 2.138383 0.129091 -0.062025 537098.000000 0 0 1
-3.727235 30.263408 -18.405875 35.616603 -1.448254 2.113879 0.091138 -0.059001 603909.000000 0 0 1
-4.848035 29.397808 -18.501975 35.072177 -1.407356 2.126498 0.063467 -0.062370 -461436.000000 0 0 1
-6.089435 29.753008 -17.694275 35.148401 -1.368918 2.098344 0.077674 -0.038729 -23660.000000 0 0 1
-6.766935 30.918108 -18.108975 36.464445 -1.355328 2.090497 0.117019 -0.040777 86494.900000 0 0 1
-6.351835 32.026208 -17.312175 36.955855 -1.375005 2.058338 0.117340 -0.066718 -76395.400000 0 0 1
-6.820335 33.406008 -17.813775 38.468285 -1.369399 2.052260 0.107715 -0.039984 -1012430.000000 0 0 1
-8.184235 33.571808 -17.796475 38.868529 -1.331678 2.046387 0.125112 -0.057675 -1093060.000000 0 0 1
-8.496035 -33.272295 -18.268675 38.896949 1.320790 2.059712 0.174053 -0.050752 -50286.900000 0 0 1
30.180065 -20.576492 -26.020835 44.847655 -0.598400 2.189777 0.063245 -0.002715 286435.000000 0 0 1
29.503165 -21.648392 -25.363625 44.524185 -0.633030 2.176888 0.068917 -0.009831 -186964.000000 0 0 1
28.226165 -21.879192 -25.910355 44.122125 -0.659397 2.198443 0.054259 -0.010212 136843.000000 0 0 1
27.444165 -23.118092 -25.460515 43.998479 -0.700047 2.187891 0.049678 -0.005776 -64840.800000 0 0 1
27.864465 -24.340892 -26.122145 45.290991 -0.718006 2.185556 0.045922 0.007401 -12752.600000 0 0 1
29.178365 -24.785092 -25.847405 46.192706 -0.704165 2.164646 0.057703 0.005052 -16811.400000 0 0 1
29.668765 -26.028822 -26.529575 47.555794 -0.720139 2.162604 0.052673 0.006700 -326521.000000 0 0 1
29.028065 -27.084372 -25.912855 47.409575 -0.750773 2.149064 0.070337 -0.013290 -165702.000000 0 0 1
29.141765 -28.360222 -26.569215 48.574354 -0.771807 2.149549 0.058646 -0.009523 216711.000000 0 0 1
28.004365 -28.654242 -27.590285 48.647033 -0.796868 2.173841 0.075436 -0.015628 -307175.000000 0 0 1
28.037165 -28.127402 -28.903725 49.118822 -0.787005 2.199931 0.040301 -0.013462 22853.400000 0 0 1
29.145765 -28.409202 -29.747295 50.412894 -0.772601 2.201946 0.025718 -0.012336 -176070.000000 0 0 1
29.462165 -29.821662 -30.347475 51.752487 -0.791462 2.197399 0.032949 -0.006662 -899340.000000 0 0 1
30.024865 -30.874362 -29.569195 52.240368 -0.799346 2.172469 0.048721 -0.006505 358701.000000 0 0 1
31.300965 -30.710072 -28.963645 52.552371 -0.775870 2.154525 0.041370 -0.002417 1232970.000000 0 0 1
32.542465 -30.288602 -29.855635 53.551567 -0.749542 2.162182 0.028372 -0.007316 63515.500000 0 0 1
32.411265 -29.014102 -30.444905 53.096143 -0.730149 2.181436 0.031338 -0.014198 -208586.000000 0 0 1
33.633765 -28.529582 -30.978695 53.896630 -0.703473 2.183131 0.041159 -0.016269 122114.000000 0 0 1
33.423065 -27.132072 -31.639545 53.425756 -0.681881 2.204602 0.038488 -0.008013 86017.500000 0 0 1
33.464665 -25.934842 -30.849735 52.385169 -0.659305 2.200496 0.035683 0.004025 37337.700000 0 0 1
32.302065 -25.797282 -30.043635 51.103260 -0.673903 2.199257 0.036510 0.001505 121775.000000 0 0 1
32.275265 -24.411192 -29.358335 49.995108 -0.647549 2.198421 0.032487 0.007885 78822.700000 0 0 1
33.273365 -24.329692 -28.355385 50.030776 -0.631364 2.173363 0.044769 0.001171 469478.000000 0 0 1
32.998765 -23.050492 -27.727035 48.877726 -0.609736 2.173988 0.042424 0.006091 367328.000000 0 0 1
34.005065 -22.814292 -26.569175 48.813496 -0.590934 2.146351 0.052915 -0.001045 -205377.000000 0 0 1
33.874465 -23.693092 -25.495115 48.567920 -0.610349 2.123438 0.052290 -0.009995 280555.000000 0 0 1
32.889465 -23.295392 -24.520875 47.176959 -0.616270 2.117371 0.080915 -0.010054 316022.000000 0 0 1
33.135365 -22.050192 -23.656175 46.300950 -0.587165 2.107053 0.081604 -0.017959 -359114.000000 0 0 1
33.112465 -20.799292 -24.309775 46.043578 -0.560855 2.127009 0.071489 -0.015539 -40349.400000 0 0 1
33.424965 -19.631592 -23.549975 45.356687 -0.531054 2.116731 0.058050 -0.022667 -25989.500000 0 0 1
33.615665 -18.406492 -24.471375 45.471530 -0.500966 2.139060 0.050547 -0.028895 369313.000000 0 0 1
32.396465 -18.138992 -25.158795 44.849960 -0.510417 2.166335 0.064543 -0.023056 505211.000000 0 0 1
32.467765 -17.115192 -26.077905 45.023801 -0.485126 2.188547 0.064966 -0.017859 -637967.000000 0 0 1
31.212665 -17.058692 -26.911345 44.603250 -0.500176 2.218491 0.044257 -0.002328 -1759390.000000 0 0 1
30.024465 -16.777592 -26.314355 43.305905 -0.509572 2.223881 0.035235 -0.003506 -598847.000000 0 0 1
28.977865 -16.796992 -27.302395 43.211993 -0.525321 2.254701 0.012815 -0.004162 -531700.000000 0 0 1
27.598965 -16.502792 -26.786095 41.851403 -0.538911 2.265332 0.008192 -0.002717 -665065.000000 0 0 1
26.905165 -17.592892 -26.154365 41.442111 -0.579102 2.253775 0.041370 0.001307 234118.000000 0 0 1
27.087865 -17.578192 -24.759975 40.691542 -0.575624 2.224940 0.041369 0.008748 -236322.000000 0 0 1
26.213865 -18.606592 -24.018675 40.128154 -0.617273 2.212485 0.052621 0.011951 -112466.000000 0 0 1
26.292265 -18.265592 -22.652675 39.218092 -0.607169 2.186591 0.059601 0.014435 -397800.000000 0 0 1
25.259865 -18.862292 -21.949175 38.413710 -0.641405 2.178994 0.074223 -0.004889 -339129.000000 0 0 1
25.075765 -18.362592 -20.466975 37.213920 -0.632066 2.153139 0.070583 -0.009801 -126934.000000 0 0 1
24.562265 -17.000092 -20.317975 36.126557 -0.605419 2.168095 0.069484 -0.013897 629423.000000 0 0 1
25.418965 -15.936492 -20.744575 36.475100 -0.560002 2.175760 0.071115 0.001537 641342.000000 0 0 1
26.788365 -15.556592 -20.129375 36.943413 -0.526124 2.147031 0.049075 0.003097 368431.000000 0 0 1
26.568565 -14.672892 -19.057675 35.838211 -0.504581 2.131485 0.049587 -0.010681 582439.000000 0 0 1
27.720465 -13.893392 -18.751275 36.236181 -0.464604 2.114692 0.039046 -0.008392 97895.200000 0 0 1
27.433865 -12.846092 -17.668975 35.068956 -0.437932 2.098829 0.041779 -0.003779 -260612.000000 0 0 1
27.630965 -13.241892 -16.355075 34.731922 -0.446903 2.061101 0.035961 -0.005052 125006.000000 0 0 1
27.368465 -12.267392 -15.375275 33.703425 -0.421382 2.044509 0.022121 -0.000623 119138.000000 0 0 1
27.908165 -12.708892 -13.975175 33.699957 -0.427321 1.998403 0.044803 -0.013070 133578.000000 0 0 1
27.208365 -13.838692 -13.453575 33.358705 -0.470519 1.985917 0.063077 -0.019734 821020.000000 0 0 1
27.894565 -14.262392 -12.253875 33.640452 -0.472644 1.943635 0.079801 -0.021076 738862.000000 0 0 1
27.150665 -15.528892 -11.655075 33.378824 -0.519541 1.927488 0.075466 -0.030393 -11713.600000 0 0 1
25.837165 -15.375992 -11.181275 32.078048 -0.536817 1.926836 0.058225 -0.023354 109667.000000 0 0 1
25.312265 -16.592592 -10.629675 32.078262 -0.580243 1.908548 0.046794 -0.014121 1373300.000000 0 0 1
23.749165 -16.395792 -10.388775 30.671998 -0.604236 1.916337 0.082238 -0.024117 1079550.000000 0 0 1
23.474165 -15.828992 -9.135975 29.749949 -0.593279 1.882932 0.069473 -0.022785 577699.000000 0 0 1
22.092465 -15.782892 -8.814075 28.545834 -0.620326 1.884695 0.088132 -0.030377 80081.500000 0 0 1
21.809765 -15.395792 -7.348375 27.689256 -0.614683 1.839402 0.091550 -0.024529 -81878.500000 0 0 1
22.376465 -14.110992 -6.991575 27.362537 -0.562629 1.829178 0.101172 -0.016807 584234.000000 0 0 1
22.242765 -13.758492 -5.632875 26.753803 -0.553955 1.782929 0.100512 -0.017646 -219571.000000 0 0 1
23.081865 -14.587892 -4.595375 27.689286 -0.563622 1.737530 0.100629 -0.015975 345009.000000 0 0 1
24.464865 -14.248592 -4.691175 28.697720 -0.527386 1.735002 0.116526 -0.015826 381993.000000 0 0 1
25.237665 -14.900892 -3.738575 29.545783 -0.533348 1.697671 0.112269 -0.029764 -765219.000000 0 0 1
26.735165 -14.794792 -3.999075 30.816352 -0.505437 1.700935 0.122688 -0.028235 -841077.000000 0 0 1
27.249765 -13.552792 -3.722275 30.660776 -0.461529 1.692498 0.129886 -0.026803 -667060.000000 0 0 1
28.619765 -13.547692 -3.972875 31.912610 -0.442116 1.695612 0.137729 -0.039829 -465755.000000 0 0 1
29.393265 -12.289392 -3.442475 32.044404 -0.396014 1.678432 0.148815 -0.043367 -419573.000000 0 0 1
29.713465 -12.417092 -2.052175 32.268957 -0.395837 1.634435 0.153001 -0.041982 702333.000000 0 0 1
30.380465 -11.243292 -1.529975 32.430312 -0.354453 1.617991 0.152793 -0.043152 1908370.000000 0 0 1
31.875765 -10.824392 -1.941675 33.719460 -0.327363 1.628411 0.149690 -0.040223 1213760.000000 0 0 1
31.953565 -10.414092 -3.274175 33.766905 -0.315058 1.667913 0.149631 -0.044100 1461390.000000 0 0 1
33.289465 -10.425492 -3.853475 35.095992 -0.303501 1.680816 0.152070 -0.043004 1220990.000000 0 0 1
33.172565 -10.250392 -5.378675 35.134310 -0.299695 1.724490 0.143817 -0.039391 261410.000000 0 0 1
32.332565 -11.168992 -6.099375 34.746849 -0.332608 1.747248 0.114442 -0.042145 547792.000000 0 0 1
32.572465 -11.157092 -7.491975 35.236003 -0.330006 1.785055 0.097946 -0.034989 -652791.000000 0 0 1
31.341365 -11.653492 -8.204075 34.429521 -0.355984 1.811397 0.128008 -0.035632 -519554.000000 0 0 1
30.965365 -12.972892 -7.898075 34.489554 -0.396734 1.801846 0.104754 -0.034729 -988205.000000 0 0 1
29.644865 -13.251592 -8.133575 33.475032 -0.420366 1.816227 0.099213 -0.035126 -1064200.000000 0 0 1
29.431465 -14.750992 -8.218675 33.931542 -0.464606 1.815443 0.096325 -0.024828 -83325.800000 0 0 1
29.863665 -15.318092 -9.415075 34.858659 -0.473941 1.844286 0.107647 -0.031928 211498.000000 0 0 1
29.824465 -16.739792 -9.295075 35.441752 -0.511460 1.836163 0.097551 -0.030432 -157202.000000 0 0 1
30.024165 -17.504892 -10.601575 36.335453 -0.527846 1.866873 0.093007 -0.034899 -339146.000000 0 0 1
31.335665 -17.382992 -11.108875 37.516655 -0.506471 1.871409 0.101708 -0.026686 253943.000000 0 0 1
31.609265 -17.898492 -12.408075 38.385700 -0.515227 1.899955 0.079404 -0.011695 -274438.000000 0 0 1
31.078965 -17.043292 -13.566175 37.952826 -0.501604 1.936331 0.075042 -0.019589 -193198.000000 0 0 1
31.867865 -15.939792 -14.060775 38.305916 -0.463795 1.946649 0.069832 -0.017671 437360.000000 0 0 1
31.244865 -15.127192 -15.091675 37.852770 -0.450887 1.980889 0.054724 -0.023163 -95754.100000 0 0 1
32.189465 -14.080192 -15.768575 38.510537 -0.412340 1.992660 0.053648 -0.017072 514175.000000 0 0 1
33.227565 -14.493192 -16.648475 39.891044 -0.411302 2.001322 0.028502 -0.016736 1314660.000000 0 0 1
34.463365 -14.813092 -15.964775 40.767944 -0.405947 1.973167 0.049002 -0.019539 84103.000000 0 0 1
35.436265 -15.450092 -16.959775 42.214550 -0.411148 1.984225 0.057454 -0.021073 -1897750.000000 0 0 1
36.679665 -15.603692 -16.424875 43.112058 -0.402213 1.961653 0.060708 -0.014387 -1612720.000000 0 0 1
-36.696861 -16.146192 -17.441275 43.721358 0.414497 1.981134 0.064092 -0.023903 35574.600000 0 0 1
-35.174861 -16.023692 -17.135275 42.280577 0.427455 1.988076 0.058145 -0.003831 73870.900000 0 0 1
-34.538461 -16.666292 -16.060675 41.576626 0.449585 1.967403 0.053442 -0.003530 50630.000000 0 0 1
-35.038261 -16.447292 -14.774575 41.430438 0.438877 1.935435 0.045659 -0.003638 -683285.000000 0 0 1
-34.319261 -17.313692 -13.672475 40.798433 0.467232 1.912532 0.060461 0.001905 -373625.000000 0 0 1
-33.104061 -16.722992 -13.296975 39.399833 0.467771 1.915043 0.073937 0.001653 -303285.000000 0 0 1
-32.694361 -17.305892 -12.139475 38.933045 0.486830 1.887887 0.089754 0.003978 -119627.000000 0 0 1
-31.419461 -16.730092 -11.491475 37.404980 0.489289 1.883064 0.108979 0.004236 53833.200000 0 0 1
-31.726561 -15.430892 -10.990575 36.952400 0.452685 1.872791 0.098011 -0.012451 669479.000000 0 0 1
-30.696661 -14.861092 -10.162275 35.586639 0.450869 1.860392 0.150909 -0.027206 171607.000000 0 0 1
-30.614361 -15.334792 -8.724775 35.334355 0.464369 1.820297 0.150278 -0.020970 -161843.000000 0 0 1
-30.145061 -16.673092 -8.540175 35.491566 0.505217 1.813807 0.113516 -0.014542 50698.500000 0 0 1
-30.215461 -16.903092 -7.154675 35.353613 0.510046 1.774578 0.139521 -0.019577 -90989.800000 0 0 1
-30.158761 -18.400692 -6.865775 35.989932 0.547833 1.762742 0.112543 -0.026695 588916.000000 0 0 1
-31.304361 -19.135592 -7.328575 37.414461 0.548669 1.767946 0.083452 -0.017751 277128.000000 0 0 1
-31.192361 -19.506192 -8.671375 37.797456 0.558852 1.802275 0.084272 -0.011551 -897862.000000 0 0 1
-32.361061 -20.284992 -9.157175 39.275603 0.559917 1.806114 0.066017 -0.006599 438283.000000 0 0 1
-33.638661 -19.579492 -9.303675 40.018426 0.527119 1.805428 0.046329 -0.007243 1608700.000000 0 0 1
-34.534861 -20.453392 -9.993675 41.362681 0.534704 1.814822 0.034294 -0.010694 -952983.000000 0 0 1
-35.902561 -19.905592 -10.284275 42.320123 0.506241 1.816265 0.051799 -0.011249 -810078.000000 0 0 1
-36.069561 -19.172192 -11.465275 42.426863 0.488555 1.844435 0.047018 -0.013754 -818325.000000 0 0 1
36.813365 -18.722392 -11.572075 42.891313 -0.470485 1.843982 0.076275 -0.020812 -1100130.000000 0 0 1
36.317565 -18.478292 -12.965275 42.761094 -0.470661 1.878848 0.067923 -0.013003 -266823.000000 0 0 1
35.612265 -19.642492 -13.407275 42.823077 -0.504044 1.889236 0.055823 -0.008769 265213.000000 0 0 1
35.135165 -19.528592 -14.721575 42.808533 -0.507295 1.921856 0.053366 -0.015395 472857.000000 0 0 1
33.941365 -20.507692 -15.016875 42.403870 -0.543509 1.932790 0.057717 -0.027477 123920.000000 0 0 1
32.691365 -20.213092 -14.468675 41.068686 -0.553767 1.930828 0.067887 -0.022461 -458235.000000 0 0 1
31.644865 -21.050192 -14.823075 40.794995 -0.586987 1.942663 0.074124 -0.023939 -422477.000000 0 0 1
30.759265 -20.542692 -15.929475 40.272606 -0.588824 1.977453 0.079707 -0.028679 -1317540.000000 0 0 1
29.939265 -19.484792 -15.720375 39.027515 -0.576945 1.985373 0.063821 -0.023653 -440821.000000 0 0 1
29.342865 -19.080592 -16.906675 38.870405 -0.576560 2.020779 0.062236 -0.026555 -147065.000000 0 0 1
28.515365 -17.776592 -16.752075 37.546841 -0.557451 2.033272 0.060133 -0.025563 -90534.400000 0 0 1
27.334165 -17.912592 -15.996375 36.385458 -0.580105 2.025990 0.071090 -0.032536 84197.600000 0 0 1
26.822365 -16.622992 -15.749675 35.267767 -0.554811 2.033729 0.044975 -0.020650 -183516.000000 0 0 1
25.426465 -16.679892 -15.064575 33.936195 -0.580585 2.030752 0.046259 -0.023444 1596760.000000 0 0 1
24.285365 -17.243292 -15.790975 33.711496 -0.617425 2.058292 0.063486 -0.020461 1626450.000000 0 0 1
23.770665 -16.543392 -16.907275 33.534822 -0.608008 2.099218 0.057690 -0.007428 160767.000000 0 0 1
22.673365 -17.273692 -17.782475 33.595808 -0.651042 2.128579 0.058660 0.001441 253345.000000 0 0 1
21.398965 -17.313892 -17.207375 32.461983 -0.680265 2.129489 0.060775 0.002527 -446334.000000 0 0 1
20.535465 -18.154892 -17.955775 32.767595 -0.723947 2.150736 0.064452 -0.006253 233571.000000 0 0 1
19.108965 -18.267292 -17.376375 31.635185 -0.762883 2.152291 0.073780 -0.001284 66231.700000 0 0 1
18.369765 -17.080092 -17.472475 30.569023 -0.749034 2.179220 0.083502 -0.004071 391181.000000 0 0 1
17.082065 -17.190692 -16.854775 29.519490 -0.788568 2.178485 0.099194 -0.016849 444680.000000 0 0 1
16.293665 -15.886992 -16.881075 28.334621 -0.772762 2.209027 0.109486 -0.014924 -351333.000000 0 0 1
15.553965 -15.676692 -18.057475 28.526424 -0.789328 2.256230 0.106507 -0.006391 327911.000000 0 0 1
14.348665 -14.967192 -17.808575 27.332149 -0.806494 2.280437 0.101982 -0.010907 651300.000000 0 0 1
13.399765 -14.734992 -19.029575 27.546296 -0.832821 2.333421 0.102446 -0.017542 100286.000000 0 0 1
13.788365 -13.801692 -19.985175 27.928711 -0.785881 2.368248 0.104112 -0.019994 -289420.000000 0 0 1
12.789065 -13.427092 -20.907875 27.946130 -0.809731 2.416065 0.074236 -0.011313 77921.200000 0 0 1
12.914965 -11.921092 -21.248275 27.575314 -0.745402 2.450507 0.076783 -0.009408 -382598.000000 0 0 1
14.098165 -11.605992 -21.954775 28.556426 -0.688744 2.447791 0.071167 -0.000568 -259317.000000 0 0 1
14.161465 -10.202492 -22.112675 28.171055 -0.624313 2.473401 0.040508 -0.001212 -409886.000000 0 0 1
15.449565 -9.678592 -22.734175 29.141155 -0.559651 2.465686 0.056615 0.002387 -662348.000000 0 0 1
15.474365 -9.943992 -24.125675 30.337883 -0.571163 2.490188 0.056990 -0.001333 -311366.000000 0 0 1
16.626565 -9.588792 -24.823775 31.378454 -0.523122 2.483416 0.084559 -0.014602 -471075.000000 0 0 1
22.892165 5.533308 -6.677675 24.479789 0.237163 1.847081 0.194689 0.003269 -138516.000000 0 1 0
22.293065 6.730608 -7.112875 24.349021 0.293213 1.867241 0.142957 0.000776 745443.000000 0 1 0
22.091265 7.744408 -6.068875 24.183282 0.337177 1.824461 0.139898 0.006079 -376813.000000 0 1 0
21.480265 9.060708 -6.529875 24.210277 0.399170 1.843893 0.115051 0.013487 -1341500.000000 0 1 0
20.112765 9.066308 -6.753175 23.072205 0.423497 1.867843 0.050893 -0.006253 -324100.000000 0 1 0
19.530765 10.343708 -6.710275 23.096989 0.487055 1.865573 0.040179 -0.006642 -261986.000000 0 1 0
19.298965 11.065108 -5.423875 22.897710 0.520595 1.809943 0.073700 -0.003875 -37480.100000 0 1 0
20.497165 11.437608 -4.704975 23.939287 0.508972 1.768622 0.097309 -0.001459 1052240.000000 0 1 0
20.250265 12.593208 -3.906875 24.164557 0.556352 1.733187 0.120257 -0.013046 780850.000000 0 1 0
21.406065 12.699408 -2.821375 25.049047 0.535450 1.683670 0.120390 -0.025506 842733.000000 0 0 1
22.707665 13.079408 -3.299175 26.411996 0.522579 1.696035 0.109508 -0.037852 1199580.000000 0 0 1
23.584065 13.388008 -2.216375 27.209543 0.516309 1.652342 0.106919 -0.041840 -98003.200000 0 0 1
24.209265 12.152208 -1.514675 27.130406 0.465219 1.626655 0.106222 -0.042760 -1288930.000000 0 0 1
25.339065 11.762408 -2.247375 28.026294 0.434600 1.651071 0.106978 -0.033684 218467.000000 0 0 1
26.142965 10.825708 -1.513375 28.336212 0.392599 1.624230 0.114861 -0.037775 1116690.000000 0 0 1
27.581765 10.608208 -2.141675 29.628949 0.367169 1.643143 0.124006 -0.032188 685334.000000 0 0 1
28.426465 11.687608 -1.938675 30.796470 0.390083 1.633789 0.109064 -0.039510 -1561690.000000 0 0 1
29.738965 11.338808 -1.982875 31.888970 0.364263 1.633017 0.102883 -0.037768 -1533940.000000 0 0 1
30.692865 12.452908 -1.564275 33.159823 0.385433 1.617988 0.080817 -0.031203 -938219.000000 0 0 1
30.565265 12.710308 -0.174975 33.103142 0.394088 1.576082 0.112701 -0.034921 520865.000000 0 0 1
31.584365 13.547508 0.335225 34.368874 0.405195 1.561042 0.095905 -0.032180 -142484.000000 0 0 1
33.015265 12.980508 0.458525 35.478326 0.374602 1.557872 0.096485 -0.027630 -302210.000000 0 0 1
34.008665 13.985608 0.693525 36.778629 0.390155 1.551938 0.095776 -0.032538 538193.000000 0 0 1
34.904065 14.105508 -0.404075 37.648671 0.384055 1.581529 0.116511 -0.022017 -163804.000000 0 0 1
34.535465 15.239808 -1.381975 37.773800 0.415579 1.607390 0.065786 -0.004608 359515.000000 0 0 1
33.374765 14.967208 -2.181375 36.642198 0.421572 1.630363 0.079864 -0.001515 476562.000000 0 0 1
33.060165 16.006808 -3.067975 36.859258 0.450905 1.654128 0.067645 0.009386 566960.000000 0 0 1
31.714165 15.784708 -3.844675 35.633226 0.461820 1.678903 0.078652 -0.011509 -184334.000000 0 0 1
31.653665 14.667108 -4.782375 35.212920 0.433910 1.707030 0.076813 -0.015365 -306942.000000 0 0 1
30.412065 14.558708 -5.391275 34.145506 0.446475 1.729351 0.079925 -0.022032 -652810.000000 0 0 1
29.219465 14.063708 -4.557275 32.746508 0.448587 1.710418 0.084804 -0.036403 -883227.000000 0 0 1
28.064065 14.026008 -5.364975 31.829289 0.463476 1.740159 0.114523 -0.042881 45409.200000 0 0 1
26.980865 13.433208 -4.661675 30.498351 0.461949 1.724248 0.109340 -0.027430 -328364.000000 0 0 1
25.801065 13.234808 -5.595675 29.532469 0.473959 1.761424 0.096822 -0.024381 -821575.000000 0 0 1
26.156665 12.306208 -6.608175 29.652688 0.439755 1.795536 0.086065 -0.010571 576362.000000 0 0 1
25.257065 12.113408 -7.708975 29.053095 0.447199 1.839354 0.096822 -0.008271 67131.000000 0 0 1
25.118865 13.321508 -8.724275 29.741099 0.487623 1.868516 0.110741 -0.003069 -499520.000000 0 0 1
24.429765 14.377508 -8.194975 29.507351 0.531939 1.852223 0.105903 -0.025068 -356353.000000 0 0 1
24.174165 15.320908 -9.255275 30.079571 0.564882 1.883564 0.104882 -0.026328 -664929.000000 0 0 1
23.074065 16.365108 -8.931575 29.664833 0.616902 1.876624 0.097205 -0.014610 64657.600000 0 0 1
21.751665 15.922508 -8.814975 28.361329 0.631890 1.886841 0.111948 -0.023923 -7681.400000 0 0 1
21.466365 15.040808 -7.728675 27.326968 0.611175 1.857532 0.128458 -0.029455 -2562950.000000 0 0 1
20.081265 14.516308 -7.806375 25.979221 0.625916 1.875998 0.150216 -0.025942 -2297690.000000 0 0 1
19.139965 15.499808 -7.676675 25.797552 0.680696 1.872947 0.162217 -0.037344 -705698.000000 0 0 1
17.831265 15.043408 -7.966075 24.651907 0.700798 1.899844 0.161574 -0.036072 -251798.000000 0 1 0
16.896765 15.387208 -6.816875 23.848200 0.738673 1.860684 0.155146 -0.022491 -673904.000000 0 1 0
17.222665 14.615608 -5.703375 23.297311 0.703696 1.818118 0.154298 -0.025757 556578.000000 0 1 0
16.697465 15.208008 -4.487975 23.026741 0.738749 1.766955 0.140166 -0.011602 -422325.000000 0 1 0
16.324565 14.237008 -3.351275 21.918369 0.717198 1.724296 0.097024 0.001266 -845120.000000 0 1 0
17.320465 13.398708 -2.877175 22.086241 0.658420 1.701438 0.096597 -0.007256 -242180.000000 0 1 0
16.960465 12.605408 -1.785575 21.207121 0.639150 1.655093 0.076911 -0.008099 -269859.000000 0 1 0
17.078165 13.320708 -0.411075 21.662733 0.662417 1.589774 0.091544 -0.014734 -313511.000000 0 1 0
16.049665 14.247808 -0.172575 21.462096 0.725996 1.578837 0.087405 -0.018319 342196.000000 0 1 0
16.169265 14.964708 1.071825 22.057571 0.746728 1.522185 0.090653 -0.015813 -75813.400000 0 1 0
14.803365 15.630508 1.368125 21.571374 0.812570 1.507331 0.086539 -0.015987 24783.700000 0 1 0
14.480765 16.748308 0.548725 22.147223 0.857881 1.546018 0.079667 -0.020081 398322.000000 0 1 0
13.278865 17.305908 1.066125 21.839399 0.916313 1.521960 0.059208 -0.031999 107301.000000 0 1 0
13.151265 18.844108 0.689425 22.989813 0.961482 1.540804 0.044971 -0.030325 -271358.000000 0 1 0
12.951765 19.058608 -0.731675 23.054590 0.973910 1.602538 0.060011 -0.032949 -68551.300000 0 1 0
12.631465 20.411208 -0.968575 24.023103 1.016632 1.611126 0.057240 -0.038102 1302860.000000 0 1 0
11.055965 20.583408 -1.054475 23.388522 1.077888 1.615897 0.048256 -0.033144 1408060.000000 0 1 0
10.472265 20.503908 0.262025 23.024927 1.098590 1.559416 0.028877 -0.035457 -1167240.000000 0 1 0
9.106965 20.311508 0.223425 22.260820 1.149303 1.560759 0.027345 -0.032970 -604723.000000 0 1 0
8.404765 20.336508 1.603725 22.063218 1.178890 1.498044 0.021833 -0.029951 -20949.100000 0 1 0
8.319765 21.609608 2.173625 23.257651 1.203285 1.477201 0.021522 -0.022886 409518.000000 0 1 0
7.328665 21.626308 3.209925 23.058841 1.244065 1.431137 0.010005 -0.021844 372865.000000 0 1 0
6.809265 23.020408 3.553825 24.267982 1.283204 1.423827 0.016069 -0.012232 -252930.000000 0 1 0
7.653565 23.764108 4.361925 25.344354 1.259222 1.397829 0.022802 -0.015092 -133926.000000 0 0 1
6.967865 24.826908 5.010925 26.268534 1.297178 1.378862 0.022622 -0.007862 144370.000000 0 0 1
7.500365 25.179608 6.450125 27.053138 1.281291 1.330053 0.022976 -0.009220 57571.800000 0 0 1
7.235665 24.125908 7.355625 26.239656 1.279420 1.286664 0.023968 -0.018001 181517.000000 0 0 1
7.836165 24.309508 8.622925 26.957606 1.258963 1.245204 0.031182 -0.009107 -172768.000000 0 0 1
7.313465 23.284808 9.650725 26.245106 1.266466 1.194245 0.035343 -0.009087 27454.000000 0 0 1
6.120865 23.779908 10.231025 26.601183 1.318868 1.176013 0.040399 -0.011387 -14265.700000 0 0 1
5.659965 22.883508 11.206225 26.101143 1.328324 1.127036 0.036786 -0.010670 -525744.000000 0 0 1
4.353965 23.245108 11.907125 26.477759 1.385635 1.104364 0.037646 -0.019898 55919.000000 0 0 1
3.254765 23.223408 11.003025 25.903412 1.431553 1.132087 0.033668 -0.018526 -440640.000000 0 0 1
2.029065 23.394308 11.618625 26.199298 1.484280 1.111329 0.036498 -0.024218 -253245.000000 0 0 1
0.828365 23.605408 10.644825 25.907794 1.535719 1.147384 0.056844 -0.020091 105068.000000 0 0 1
0.911065 24.853708 10.016225 26.811595 1.534156 1.187933 0.049319 -0.019063 -110569.000000 0 0 1
0.049565 24.950908 8.920425 26.497628 1.568810 1.227439 0.044188 -0.023091 208189.000000 0 0 1
-1.348335 25.573508 9.209025 27.214490 -1.518121 1.225594 0.051913 -0.029053 493153.000000 0 0 1
-2.308035 24.673508 9.779525 26.641099 -1.477525 1.194924 0.044808 -0.028036 648516.000000 0 0 1
-3.572035 25.355608 9.736925 27.394781 -1.430840 1.207422 0.055233 -0.021282 792434.000000 0 0 1
-4.762535 24.443808 10.235425 26.924811 -1.378371 1.180840 0.053807 -0.025749 587773.000000 0 0 1
-5.120535 24.488108 11.633125 27.590160 -1.364663 1.135543 0.039852 -0.012558 281769.000000 0 0 1
-5.967335 25.578608 12.005825 28.879303 -1.341602 1.142057 0.045287 -0.013836 -20284.200000 0 0 1
-6.403635 25.634108 13.509625 29.675310 -1.325997 1.098146 0.033373 -0.009836 -45462.600000 0 0 1
-7.439635 24.692108 13.767725 29.233519 -1.278151 1.080421 0.033607 -0.020407 132403.000000 0 0 1
-7.799535 24.704208 15.127325 29.999444 -1.264984 1.042279 0.026010 0.001066 957494.000000 0 0 1
-9.092835 23.831508 15.441225 29.816973 -1.206298 1.026441 0.024043 -0.009596 1205040.000000 0 0 1
-10.337035 24.430608 15.083125 30.515727 -1.170521 1.053797 0.025186 -0.008893 65181.700000 0 0 1
-11.372235 23.493408 15.309125 30.259499 -1.119981 1.040339 0.023118 -0.015457 -228004.000000 0 0 1
-12.747535 24.164908 15.210025 31.269591 -1.085374 1.062813 0.018989 -0.015949 -468515.000000 0 0 1
-13.149935 25.065908 16.241225 32.634306 -1.087652 1.049882 0.024039 -0.023944 199423.000000 0 0 1
-14.055335 26.009808 15.707425 33.478139 -1.075364 1.082429 0.008589 -0.013633 -235882.000000 0 0 1
-14.705035 27.009208 16.702025 34.995614 -1.072228 1.073262 0.027470 -0.012686 -421000.000000 0 0 1
-15.868935 26.512808 17.281225 35.403289 -1.031452 1.060856 0.028578 -0.021032 -395135.000000 0 0 1
-16.290135 27.233908 18.454125 36.709794 -1.031734 1.044074 0.053660 -0.025277 -994320.000000 0 0 1
-17.595635 26.725608 18.987225 37.207247 -0.988552 1.035251 0.048356 -0.032900 -1673930.000000 0 0 1
-18.704635 27.085808 18.237825 37.631405 -0.966428 1.064840 0.039496 -0.029324 -1073970.000000 0 0 1
-19.800835 26.501108 18.899325 38.099426 -0.929109 1.051749 0.053893 -0.031297 -704475.000000 0 0 1
-21.012135 26.444808 17.969425 38.258828 -0.899378 1.081867 0.067133 -0.036612 -413474.000000 0 0 1
-21.700235 27.684808 17.855225 39.448167 -0.905992 1.101089 0.054287 -0.035872 504438.000000 0 0 1
-22.690735 27.652708 16.830325 39.532285 -0.883643 1.131021 0.073397 -0.040859 -29181.200000 0 0 1
-23.559035 28.919108 16.693225 40.865716 -0.887184 1.149997 0.078335 -0.032774 461826.000000 0 0 1
-24.761235 28.863308 17.466825 41.848528 -0.861746 1.140234 0.084799 -0.034960 273316.000000 0 0 1
-25.559325 29.990308 17.278725 43.026178 -0.864996 1.157548 0.088453 -0.036341 1079900.000000 0 0 1
-27.040085 29.883708 17.850525 44.077698 -0.835312 1.153841 0.104171 -0.030348 1292360.000000 0 0 1
-27.869305 28.961208 17.061525 43.664005 -0.804609 1.169355 0.125951 -0.029719 331611.000000 0 0 1
-29.191765 29.061808 17.562725 44.779428 -0.783167 1.167769 0.144013 -0.035217 -5904.130000 0 0 1
-29.538535 27.992508 18.602425 44.745455 -0.758532 1.142041 0.131973 -0.031552 -749715.000000 0 0 1
-29.675925 26.682908 18.121825 43.829655 -0.732342 1.144545 0.125538 -0.031310 206983.000000 0 0 1
-30.136235 25.780808 19.198125 44.061443 -0.707664 1.119967 0.114985 -0.022592 78122.200000 0 0 1
-30.125655 24.300108 18.757425 43.010363 -0.678768 1.119520 0.112298 -0.021803 390998.000000 0 0 1
-31.153255 24.003808 17.792625 43.165792 -0.656497 1.145937 0.118105 -0.017397 290053.000000 0 0 1
-30.887035 22.901608 16.975025 42.031465 -0.638015 1.155059 0.117847 -0.010478 -496717.000000 0 0 1
-31.375825 21.498208 17.487325 41.861938 -0.600713 1.139842 0.099803 -0.007584 77103.800000 0 0 1
-32.773115 21.392308 17.322325 42.799192 -0.578299 1.154107 0.094812 -0.005015 -229024.000000 0 0 1
-33.106845 20.032008 17.268525 42.373889 -0.544140 1.151051 0.085157 -0.006040 379370.000000 0 0 1
-34.524387 19.600908 16.791725 43.105579 -0.516362 1.170655 0.098683 -0.020145 373249.000000 0 0 1
-34.647422 19.818008 15.411725 42.786897 -0.519570 1.202317 0.093874 -0.014793 -590378.000000 0 0 1
-35.695556 19.110008 14.864825 43.131521 -0.491535 1.218942 0.104368 -0.019078 -640277.000000 0 0 1
-35.831185 19.422708 13.370625 42.893927 -0.496728 1.253800 0.117186 -0.011532 124301.000000 0 0 1
-36.353255 20.766908 13.236025 43.909179 -0.519014 1.264593 0.112301 -0.025460 -101214.000000 0 0 1
-36.675155 21.154208 11.919525 43.984572 -0.523186 1.296372 0.098885 -0.013077 209277.000000 0 0 1
-35.551887 21.286908 10.823225 42.827693 -0.539504 1.315310 0.109798 -0.018414 208351.000000 0 0 1
-35.286968 19.995108 10.326625 41.852283 -0.515531 1.321482 0.129992 -0.022340 238991.000000 0 0 1
-34.090043 20.027308 9.559525 40.676880 -0.531165 1.333566 0.154915 -0.017857 341914.000000 0 0 1
-33.104795 18.911608 10.026525 39.422171 -0.519023 1.313634 0.129256 -0.017976 46657.700000 0 0 1
-32.605615 19.132708 11.348325 39.471143 -0.530651 1.279171 0.137906 -0.024960 112069.000000 0 0 1
-32.010885 17.994408 11.956725 38.619409 -0.512111 1.256020 0.125801 -0.024180 54785.200000 0 0 1
-31.567345 18.315908 13.411225 38.882267 -0.525746 1.218644 0.103507 -0.011406 873670.000000 0 0 1
-30.423875 19.194408 13.579725 38.450571 -0.562830 1.209835 0.109833 -0.007001 726496.000000 0 0 1
-30.713215 20.535708 13.365725 39.289432 -0.589359 1.223681 0.114457 -0.005273 105422.000000 0 0 1
-29.476405 21.438108 13.619525 38.909413 -0.628812 1.213191 0.124227 -0.013173 378220.000000 0 0 1
-28.988605 21.362208 14.950825 38.989875 -0.635076 1.177263 0.113714 -0.005285 -81838.600000 0 0 1
-27.834885 22.176708 15.091525 38.656711 -0.672740 1.169732 0.134974 -0.019661 -77971.400000 0 0 1
-27.248415 22.004008 16.500325 38.715801 -0.679318 1.130518 0.119839 -0.022222 -264177.000000 0 0 1
-26.525315 20.816808 16.791025 37.667896 -0.665398 1.108768 0.131801 -0.019019 327893.000000 0 0 1
-25.969025 20.736808 18.119325 37.851227 -0.673838 1.071625 0.110922 -0.010292 478678.000000 0 0 1
-24.926035 19.587408 18.303025 36.605662 -0.666035 1.047191 0.109645 -0.009465 349977.000000 0 0 1
-24.194335 19.652108 19.506025 36.770317 -0.682172 1.011626 0.102789 -0.009363 -830011.000000 0 0 1
-23.095435 18.846508 19.414925 35.574279 -0.684438 0.993504 0.098537 -0.005612 -1103030.000000 0 0 1
-22.213535 18.810308 20.674025 35.702719 -0.702630 0.953221 0.101172 -0.013963 -623202.000000 0 0 1
-22.715035 18.205708 21.827825 36.385087 -0.675644 0.927406 0.132844 -0.006691 264460.000000 0 0 1
-23.770835 18.860508 22.533125 37.795676 -0.670722 0.932058 0.108688 -0.018402 458362.000000 0 0 1
-24.575235 17.945308 23.520725 38.460379 -0.630721 0.912769 0.081277 -0.027074 331131.000000 0 0 1
-23.740935 17.312408 24.502325 38.258534 -0.630070 0.875724 0.099593 -0.017012 329780.000000 0 0 1
-24.454835 16.337708 25.191625 38.724380 -0.588978 0.862506 0.099910 -0.006932 -84090.000000 0 0 1
21.547965 24.390808 33.182025 46.478738 0.847203 0.775718 0.027714 -0.002955 320713.000000 0 0 1
22.281665 23.260508 32.638051 45.855929 0.806888 0.778807 0.046501 -0.019017 321739.000000 0 0 1
21.714565 22.009908 32.983480 45.209163 0.792153 0.753096 0.043228 -0.025059 -163004.000000 0 0 1
20.569365 21.477508 32.113068 43.767925 0.806993 0.747027 0.053964 -0.028078 -209629.000000 0 0 1
21.048865 21.008308 30.870803 42.865023 0.784434 0.766726 0.067261 -0.026406 346694.000000 0 0 1
20.074865 20.179208 30.275433 41.554813 0.787990 0.754570 0.072829 -0.036141 -40992.300000 0 0 1
20.703065 19.549908 28.999133 40.641918 0.756758 0.776276 0.089766 -0.033727 193852.000000 0 0 1
21.892165 18.820008 29.247333 41.095816 0.710081 0.778900 0.080485 -0.028998 -156210.000000 0 0 1
22.243165 18.073508 28.111753 40.145744 0.682342 0.795059 0.078210 -0.029108 -27109.000000 0 0 1
23.508365 17.217508 28.336293 40.645188 0.632141 0.799365 0.069070 -0.024779 141768.000000 0 0 1
24.714065 17.952308 28.331573 41.662314 0.628226 0.822994 0.068591 -0.024529 -521441.000000 0 0 1
25.707565 17.238408 28.993833 42.410894 0.590692 0.818056 0.064383 -0.015872 -959848.000000 0 0 1
27.084865 17.861508 29.075493 43.566130 0.583000 0.840101 0.069952 -0.017037 -824370.000000 0 0 1
27.747465 17.724508 27.865063 43.133997 0.568447 0.868449 0.071595 -0.005714 -509661.000000 0 0 1
29.035665 18.284908 27.948423 44.255192 0.562000 0.887273 0.070101 -0.007749 222457.000000 0 0 1
30.048265 17.964808 26.824593 44.104324 0.538848 0.916996 0.073911 -0.004760 185361.000000 0 0 1
29.789965 18.742608 25.671123 43.562988 0.561584 0.940620 0.073403 -0.013975 140755.000000 0 0 1
30.774065 18.569808 24.666823 43.592809 0.542933 0.969337 0.080642 -0.003171 -122041.000000 0 0 1
31.012865 19.836408 23.743883 43.806996 0.569043 0.997968 0.085894 -0.016400 154405.000000 0 0 1
29.889165 20.300208 23.011033 42.836530 0.596618 1.003703 0.070433 -0.014543 392248.000000 0 0 1
30.339665 21.027608 21.836313 42.889161 0.606062 1.036618 0.069181 -0.022677 356528.000000 0 0 1
31.122365 20.265808 20.704913 42.520560 0.577194 1.062215 0.099224 -0.018438 218106.000000 0 0 1
30.367165 19.185908 20.191913 41.206518 0.563473 1.058687 0.103555 -0.028848 319754.000000 0 0 1
30.996365 18.608808 19.031113 40.856403 0.540680 1.086252 0.127073 -0.025549 54401.700000 0 0 1
32.059665 17.569308 19.477213 41.422995 0.501321 1.081276 0.148600 -0.041560 -69117.600000 0 0 1
31.524065 16.382608 20.103513 40.820433 0.479272 1.055852 0.161444 -0.042473 315414.000000 0 0 1
32.544865 15.431408 20.260813 41.325502 0.442761 1.058392 0.146731 -0.045867 -577940.000000 0 0 1
31.906065 14.042208 20.459113 40.419747 0.414600 1.040063 0.154777 -0.043554 44637.500000 0 0 1
31.340265 13.860108 21.722413 40.573120 0.416387 1.005828 0.130246 -0.050155 -186177.000000 0 0 1
30.041165 14.325908 21.973213 39.881391 0.444978 0.987277 0.135178 -0.041799 -716340.000000 0 0 1
29.564365 13.732808 23.290143 40.063356 0.434851 0.950431 0.095524 -0.028128 -66388.500000 0 0 1
29.194165 12.349808 23.087353 39.215340 0.400195 0.941306 0.100536 -0.024279 -19504.800000 0 0 1
28.302965 11.903508 24.087033 39.024819 0.398116 0.905588 0.078669 -0.014858 -66431.400000 0 0 1
27.676165 10.522208 23.874333 38.035125 0.363313 0.892212 0.086044 -0.015394 -395752.000000 0 0 1
26.572765 10.605108 23.023823 36.724332 0.379728 0.893182 0.061385 -0.006762 -309755.000000 0 0 1
26.161265 9.289008 22.585013 35.787991 0.341182 0.887854 0.061161 -0.009633 -579904.000000 0 0 1
25.031965 9.290208 21.601513 34.344324 0.355377 0.890570 0.051168 -0.014833 -1224090.000000 0 0 1
23.770365 9.644108 22.044313 33.822933 0.385428 0.860898 0.048885 -0.009180 119036.000000 0 0 1
22.779765 8.844808 21.385013 32.472559 0.370358 0.851897 0.059718 -0.002959 416033.000000 0 0 1
21.276365 8.917908 21.711913 31.679961 0.396902 0.815710 0.051544 -0.008055 200495.000000 0 0 1
20.849265 8.163808 22.846013 31.988747 0.373212 0.775331 0.054801 -0.003765 421685.000000 0 0 1
19.493165 8.484308 23.110603 31.401703 0.410516 0.743703 0.052728 -0.010329 253362.000000 0 0 1
18.922565 7.804308 24.405013 31.852399 0.391179 0.697904 0.036713 -0.001519 -276728.000000 0 0 1
18.898965 6.360508 24.329803 31.457372 0.324646 0.686575 0.054236 -0.001321 257120.000000 0 0 1
18.503665 5.673408 25.502853 32.015132 0.297510 0.649167 0.036476 -0.003376 -211212.000000 0 0 1
18.743665 4.164808 25.446583 31.877879 0.218646 0.646409 0.046506 -0.012114 724626.000000 0 0 1
20.157565 3.914508 25.485623 32.728700 0.191808 0.678216 0.052278 -0.005548 956854.000000 0 0 1
20.335665 2.470608 25.408373 32.637840 0.120899 0.678533 0.059971 -0.012959 600224.000000 0 0 1
21.867965 2.191008 25.293283 33.507590 0.099859 0.715367 0.065599 -0.015536 708352.000000 0 0 1
22.673465 2.534008 26.422933 34.909577 0.111299 0.712245 0.069299 -0.016766 1100050.000000 0 0 1
24.058365 2.417508 26.019753 35.520090 0.100149 0.748756 0.074712 -0.016547 957830.000000 0 0 1
25.038365 3.028708 27.032573 36.970972 0.120378 0.750741 0.067531 -0.011018 -681027.000000 0 0 1
25.311365 2.080508 28.075773 37.858192 0.082012 0.735339 0.085659 -0.020312 56361.900000 0 0 1
26.046765 2.655208 29.131153 39.167693 0.101589 0.732127 0.083130 -0.011145 842916.000000 0 0 1
27.599765 2.755608 28.924953 40.074846 0.099512 0.764435 0.059114 -0.012970 -157952.000000 0 0 1
27.899765 3.876608 28.066093 39.763432 0.138064 0.787207 0.074859 -0.001358 -561572.000000 0 0 1
29.240365 4.087108 27.755323 40.522356 0.138876 0.816277 0.080156 -0.004377 -305453.000000 0 0 1
29.891465 2.972208 26.849433 40.289276 0.099108 0.841404 0.103938 -0.001930 -488870.000000 0 0 1
29.511865 2.944508 25.506403 39.117731 0.099445 0.860522 0.094715 0.004421 -387574.000000 0 0 1
30.189765 1.988708 24.780473 39.108167 0.065779 0.884548 0.107255 0.011099 -420877.000000 0 0 1
29.836265 1.888508 23.229343 37.859894 0.063211 0.910234 0.106920 -0.009037 267492.000000 0 0 1
30.374165 2.921808 22.418913 37.864687 0.095899 0.937159 0.104473 -0.001641 -345572.000000 0 0 1
31.772165 2.924708 22.230613 38.887331 0.091794 0.962260 0.105438 0.001449 19354.700000 0 0 1
32.299365 4.283308 21.731613 39.164508 0.131843 0.982577 0.122129 -0.006449 -377410.000000 0 0 1
32.119165 4.536108 20.362413 38.299411 0.140300 1.010232 0.112133 -0.009690 -98367.500000 0 0 1
32.781865 5.670108 19.888713 38.760311 0.171270 1.031980 0.124953 -0.007676 -775749.000000 0 0 1
34.283765 5.578408 19.620313 39.893005 0.161299 1.056614 0.105110 -0.009489 -166627.000000 0 0 1
35.156165 5.504408 20.760413 41.197684 0.155309 1.042663 0.100495 -0.008812 466903.000000 0 0 1
35.334965 6.737108 21.408113 41.859953 0.188403 1.033957 0.106787 -0.014023 -249322.000000 0 0 1
36.166665 6.453708 22.709113 43.190066 0.176585 1.017147 0.116802 -0.014841 597524.000000 0 0 1
35.391465 5.555808 23.558033 42.876610 0.155711 0.989105 0.122765 -0.006320 469206.000000 0 0 1
35.948865 5.200708 24.770603 43.965339 0.143673 0.972286 0.130469 -0.010748 -269327.000000 0 0 1
34.937965 4.345508 25.555913 43.504592 0.123742 0.942917 0.137804 -0.008936 151664.000000 0 0 1
34.835865 3.081408 24.930093 42.948133 0.088225 0.951491 0.148571 -0.013697 68809.300000 0 0 1
34.110965 2.219308 25.777073 42.812857 0.064970 0.924684 0.127200 -0.012641 -136479.000000 0 0 1
34.104865 0.775308 25.316323 42.481280 0.022729 0.932360 0.135924 -0.015156 -109300.000000 0 0 1
33.066665 0.310608 24.476283 41.141090 0.009393 0.933611 0.146393 -0.012491 -69573.800000 0 0 1
33.195565 -1.053192 24.185273 41.085060 -0.031716 0.941392 0.134867 -0.020811 -326642.000000 0 0 1
32.110765 -1.443492 23.188853 39.634679 -0.044923 0.945836 0.135954 -0.016695 291080.000000 0 0 1
30.822465 -1.512192 23.810893 38.977810 -0.049022 0.913621 0.116154 -0.009124 -247788.000000 0 0 1
29.943065 -2.052592 22.870813 37.734260 -0.068443 0.919646 0.126478 -0.020690 -384104.000000 0 0 1
28.459365 -1.989292 23.246773 36.800886 -0.069786 0.887064 0.087800 -0.008088 -332879.000000 0 0 1
27.920665 -0.699092 23.137873 36.268629 -0.025033 0.878952 0.090604 -0.007596 176127.000000 0 0 1
26.495665 -0.771892 23.060713 35.134208 -0.029125 0.854812 0.078055 -0.011759 430783.000000 0 0 1
25.909265 0.605808 22.807313 34.522899 0.023378 0.849121 0.069198 -0.004826 -69356.700000 0 0 1
26.161465 1.168508 21.524513 33.898264 0.044636 0.882822 0.064368 -0.006955 371887.000000 0 0 1
25.357465 2.359208 21.464013 33.305716 0.092771 0.870487 0.066998 -0.007055 273759.000000 0 0 1
25.537865 3.231808 20.191913 32.716059 0.125881 0.905634 0.073744 -0.014624 -226242.000000 0 0 1
24.925465 2.623708 19.091713 31.506446 0.104876 0.919822 0.077840 -0.019108 105271.000000 0 0 1
24.768865 3.618908 18.084813 30.881283 0.145081 0.945147 0.079565 -0.017014 359280.000000 0 0 1
24.091765 3.259608 16.696013 29.492288 0.134483 0.969012 0.086167 -0.025631 -59467.600000 0 0 1
24.996565 2.614308 15.867613 29.722786 0.104208 1.007645 0.093068 -0.034606 -126098.000000 0 0 1
24.674765 2.640508 14.488513 28.735576 0.106607 1.042340 0.085916 -0.047310 -141995.000000 0 0 1
23.828565 1.440308 13.899513 27.623748 0.060371 1.043530 0.106143 -0.023960 290339.000000 0 0 1
22.445765 1.619608 14.142313 26.578949 0.072032 1.009733 0.095861 -0.020123 169713.000000 0 0 1
21.734365 0.669908 13.402913 25.543482 0.030813 1.018422 0.106102 -0.029334 438496.000000 0 0 1
20.169565 0.704608 13.627613 24.351995 0.034920 0.976882 0.093319 -0.046014 932573.000000 0 1 0
19.284265 1.219608 12.639113 23.089337 0.063160 0.991542 0.105405 -0.039433 498274.000000 0 1 0
19.301465 0.685208 11.319613 22.386373 0.035485 1.040664 0.114084 -0.037410 -1039320.000000 0 1 0
19.257065 -0.891492 11.126813 22.258376 -0.046261 1.047321 0.115626 -0.023874 624653.000000 0 1 0
20.514665 -1.573892 11.310913 23.479041 -0.076570 1.068151 0.111278 -0.036029 1590510.000000 0 1 0
21.576865 -1.345692 10.346313 23.967023 -0.062287 1.124431 0.117926 -0.030869 703792.000000 0 1 0
22.782365 -2.246292 10.752213 25.292135 -0.098280 1.131701 0.122344 -0.037313 115809.000000 0 0 1
23.259165 -2.049492 12.065313 26.282332 -0.087888 1.093853 0.109293 -0.044655 -295670.000000 0 0 1
24.365865 -2.815992 12.402413 27.485361 -0.115061 1.102645 0.110524 -0.040454 -441619.000000 0 0 1
24.744965 -2.879492 13.873213 28.514397 -0.115846 1.062679 0.145548 -0.044480 -56476.900000 0 0 1
25.628365 -1.830892 14.205613 29.359235 -0.071319 1.065742 0.135047 -0.038833 -21525.800000 0 0 1
25.917165 -1.701592 15.597913 30.296695 -0.065561 1.029977 0.118145 -0.042639 957368.000000 0 0 1
27.107665 -0.707692 15.955613 31.462802 -0.026101 1.038949 0.152735 -0.038492 1935120.000000 0 0 1
28.444065 -1.197392 15.655513 32.489901 -0.042072 1.068023 0.163592 -0.043270 1063890.000000 0 0 1
29.293965 -0.066292 15.693613 33.232970 -0.002263 1.078977 0.139025 -0.040823 276774.000000 0 0 1
30.802365 -0.339892 15.946813 34.687203 -0.011034 1.093103 0.150158 -0.040973 -70447.400000 0 0 1
31.526665 -0.866992 14.918013 34.888815 -0.027493 1.128974 0.161348 -0.039740 -919858.000000 0 0 1
32.798565 -1.226292 15.362913 36.239050 -0.037371 1.133013 0.144834 -0.038040 -493357.000000 0 0 1
33.449265 -2.161292 14.324513 36.451560 -0.064524 1.166933 0.125069 -0.046392 -110872.000000 0 0 1
33.922665 -1.442592 13.187513 36.424426 -0.042500 1.200329 0.124064 -0.046109 478892.000000 0 0 1
34.621165 -2.298492 12.235013 36.791353 -0.066293 1.231789 0.118183 -0.035304 368943.000000 0 0 1
34.278665 -2.008592 10.731813 35.975452 -0.058529 1.267875 0.140164 -0.021017 -111253.000000 0 0 1
34.628965 -0.733992 10.266313 36.126184 -0.021193 1.282646 0.119360 -0.023280 230422.000000 0 0 1
33.571565 0.202408 10.345713 35.130112 0.006029 1.271867 0.110227 -0.023310 -385477.000000 0 0 1
33.931965 1.574908 9.808113 35.356155 0.046380 1.289700 0.118172 -0.031962 -174421.000000 0 0 1
33.911365 1.636308 8.380813 34.969933 0.048215 1.328783 0.123700 -0.025856 255241.000000 0 0 1
34.211965 2.983008 7.911913 35.241386 0.086972 1.344360 0.116060 -0.023107 129869.000000 0 0 1
34.996565 3.079008 6.582413 35.743084 0.087754 1.385580 0.106680 -0.030232 29191.400000 0 0 1
35.348065 4.353408 6.072013 36.129036 0.122541 1.401930 0.087926 -0.015703 -55122.800000 0 0 1
35.814365 4.219108 4.739613 36.372154 0.117264 1.440116 0.145341 -0.016003 -39639.200000 0 0 1
36.308665 5.558408 4.126613 36.962738 0.151908 1.458921 0.169863 -0.034550 -643762.000000 0 0 1
35.312465 6.490408 3.953113 36.120946 0.181771 1.461136 0.154618 -0.040300 -394716.000000 0 0 1
35.857165 7.727108 3.502613 36.847155 0.212251 1.475595 0.159494 -0.046162 -534492.000000 0 0 1
34.868465 8.910708 3.617513 36.170388 0.250197 1.470616 0.164469 -0.036635 333710.000000 0 0 1
33.734065 9.051808 2.794013 35.038963 0.262153 1.490971 0.163299 -0.046711 192506.000000 0 0 1
32.744165 8.061208 2.928413 33.848767 0.241387 1.484173 0.162602 -0.035475 -1128950.000000 0 0 1
31.656765 8.202908 1.873913 32.755916 0.253544 1.513557 0.164824 -0.037838 -308297.000000 0 0 1
32.096065 7.950208 0.549513 33.070609 0.242813 1.554179 0.179628 -0.033661 376013.000000 0 0 1
30.968965 7.731408 -0.294887 31.920815 0.244649 1.580035 0.160886 -0.033089 272.009000 0 0 1
31.254865 7.576008 -1.804087 32.210515 0.237808 1.626835 0.138265 -0.026217 -289375.000000 0 0 1
30.203065 7.102808 -2.637787 31.138930 0.230972 1.655608 0.158283 -0.028063 671212.000000 0 0 1
30.646465 6.909308 -3.963187 31.664669 0.221745 1.696287 0.136938 -0.028359 -620173.000000 0 0 1
29.597665 6.265108 -4.853987 30.640408 0.208597 1.729884 0.158074 -0.022761 -803643.000000 0 0 1
29.412765 4.900708 -4.614787 30.173233 0.165102 1.724342 0.162221 -0.025501 892887.000000 0 0 1
28.222865 4.515808 -5.287387 29.066804 0.158660 1.753719 0.154258 -0.025792 -112953.000000 0 0 1
28.160765 3.002208 -5.253687 28.803527 0.106208 1.754220 0.184202 -0.027004 -267875.000000 0 0 1
27.939365 2.437808 -3.986787 28.327469 0.087033 1.712004 0.176590 -0.029938 352442.000000 0 0 1
27.763265 1.029108 -3.929387 28.058832 0.037050 1.711299 0.167293 -0.036510 -99823.900000 0 0 1
27.639665 0.545208 -2.506887 27.758473 0.019723 1.661230 0.157267 -0.047224 471001.000000 0 0 1
28.890565 0.875208 -1.895187 28.965885 0.030285 1.636271 0.161337 -0.038852 791358.000000 0 0 1
29.016465 0.297108 -0.609487 29.024387 0.010239 1.591797 0.161399 -0.031746 643298.000000 0 0 1
30.443165 0.417508 0.044413 30.446061 0.013713 1.569338 0.181311 -0.031926 694999.000000 0 0 1
31.454465 -0.298892 -0.628187 31.462157 -0.009502 1.590764 0.170454 -0.041691 724605.000000 0 0 1
32.739265 0.103708 -0.124687 32.739667 0.003168 1.574605 0.128959 -0.029265 272301.000000 0 0 1
-3.734535 -21.212692 -8.797275 23.266222 1.396530 1.958554 0.043077 0.002715 -69728.600000 0 1 0
-3.818735 -21.794592 -7.528375 23.372278 1.397342 1.898751 0.041561 -0.003747 621353.000000 0 1 0
-2.834935 -22.845892 -7.243375 24.133754 1.447338 1.875630 0.046745 -0.004551 839519.000000 0 1 0
-3.119235 -23.449392 -5.860175 24.370992 1.438553 1.813633 0.043730 -0.006674 -301087.000000 0 1 0
-3.080535 -22.612792 -4.694075 23.299407 1.435400 1.773652 0.049186 -0.012079 -60881.300000 0 1 0
-3.302935 -23.299692 -3.486375 23.789490 1.429976 1.717877 0.047137 -0.013205 -356473.000000 0 1 0
-2.887435 -22.654192 -2.172775 22.940589 1.444023 1.665652 0.046263 -0.022285 1349650.000000 0 1 0
-1.441535 -22.570292 -2.057275 22.709656 1.507014 1.661511 0.055967 -0.030367 881132.000000 0 1 0
-1.132035 -22.454892 -0.681675 22.493740 1.520425 1.601106 0.047936 -0.028146 -422676.000000 0 1 0
0.338165 -22.402592 -0.319175 22.407417 -1.555703 1.585041 0.050394 -0.025435 -151949.000000 0 1 0
1.132665 -21.316092 -0.814975 21.361715 -1.517710 1.608957 0.035862 -0.022087 -309356.000000 0 1 0
2.386165 -21.142792 -0.242075 21.278393 -1.458412 1.582173 0.026228 -0.020836 -300694.000000 0 1 0
3.207465 -20.017492 -0.878775 20.291872 -1.411914 1.614117 0.026750 -0.021460 324759.000000 0 1 0
3.900865 -20.407792 -2.057775 20.878916 -1.381929 1.669514 0.023341 -0.017064 -244330.000000 0 1 0
4.887765 -19.508792 -2.488775 20.265172 -1.325308 1.693918 0.035315 -0.010329 -485525.000000 0 1 0
5.662165 -20.041992 -3.754875 21.162245 -1.295457 1.749173 0.036558 -0.004556 -913471.000000 0 1 0
6.533165 -21.034792 -3.261475 22.266161 -1.269654 1.717802 0.042017 -0.013555 -61062.300000 0 1 0
7.401565 -21.597192 -4.270675 23.226289 -1.240631 1.755721 0.040153 -0.008028 673700.000000 0 1 0
8.571965 -20.781992 -4.868175 23.001498 -1.179586 1.784055 0.052968 -0.010830 -526297.000000 0 1 0
8.226465 -19.758792 -5.754175 22.162922 -1.176280 1.833436 0.035977 -0.010627 -225870.000000 0 1 0
9.392265 -19.022992 -6.024775 22.054178 -1.112175 1.847494 0.047168 -0.022694 -632611.000000 0 1 0
9.305865 -17.918892 -7.047875 21.385938 -1.091802 1.906630 0.033251 -0.014074 79624.800000 0 1 0
10.541665 -17.327492 -7.462675 21.611575 -1.024239 1.923364 0.051296 -0.028545 554434.000000 0 1 0
10.319165 -16.272192 -8.426675 21.030412 -1.005637 1.983066 0.046390 -0.022384 -211561.000000 0 1 0
10.600965 -16.686292 -9.886275 22.103195 -1.004818 2.034516 0.043823 -0.013776 -1152010.000000 0 1 0
9.624665 -17.494092 -10.452675 22.537432 -1.067825 2.053067 0.038092 -0.016790 -589731.000000 0 1 0
8.942665 -16.726492 -11.386475 22.122355 -1.079822 2.111459 0.022759 -0.013648 -277125.000000 0 1 0
8.440065 -17.356692 -12.701275 23.104368 -1.118192 2.152843 0.029302 -0.015605 -160602.000000 0 1 0
7.359665 -18.229692 -12.482875 23.287518 -1.187088 2.136527 0.023608 -0.009018 -100057.000000 0 1 0
6.925665 -18.775092 -13.735475 24.272045 -1.217406 2.172317 0.032126 -0.004515 110921.000000 0 1 0
5.674565 -19.667992 -13.583675 24.567190 -1.289907 2.156660 0.034376 0.007342 142007.000000 0 1 0
5.947365 -20.686192 -12.649875 24.966157 -1.290843 2.102127 0.043403 -0.008388 206219.000000 0 1 0
4.739165 -21.401992 -12.406475 25.187806 -1.352877 2.085824 0.071689 -0.012440 446124.000000 0 0 1
4.884265 -22.956392 -12.135175 26.421855 -1.361160 2.047987 0.053109 -0.007022 -778080.000000 0 0 1
5.412165 -23.569692 -13.257175 27.578517 -1.345085 2.072257 0.068377 -0.021951 -324462.000000 0 0 1
5.193065 -24.964692 -13.369975 28.791665 -1.365705 2.053719 0.059225 -0.026614 1115390.000000 0 0 1
3.729265 -25.272722 -13.933375 29.099086 -1.424293 2.070112 0.078300 -0.032514 678999.000000 0 0 1
2.842165 -24.788192 -12.977275 28.123691 -1.456637 2.050409 0.082321 -0.029569 -619179.000000 0 0 1
1.455865 -25.018992 -13.221675 28.335176 -1.512671 2.056258 0.078876 -0.037694 663863.000000 0 0 1
0.864565 -26.417292 -12.829775 29.380672 -1.538081 2.022695 0.073681 -0.030195 -517279.000000 0 0 1
1.336565 -27.522442 -13.602675 30.729529 -1.522272 2.029357 0.072383 -0.026908 207694.000000 0 0 1
0.797665 -28.783422 -13.193675 31.673249 -1.543091 2.000450 0.060553 -0.023446 -192013.000000 0 0 1
-0.590935 -29.214212 -13.687175 32.266982 1.550571 2.008858 0.048827 -0.027714 85741.000000 0 0 1
-1.640535 -28.519012 -13.023375 31.394803 1.513335 1.998548 0.037972 -0.028322 869595.000000 0 0 1
-2.942735 -28.925702 -13.501475 32.056914 1.469411 2.005533 0.040656 -0.022650 564230.000000 0 0 1
-4.078635 -27.939992 -13.082775 31.119727 1.425842 2.004684 0.029592 -0.019407 265000.000000 0 0 1
-4.568335 -28.054812 -11.762275 30.761880 1.409377 1.963151 0.035231 -0.023919 329122.000000 0 0 1
-5.211335 -29.335142 -11.516675 31.942798 1.394982 1.939644 0.019959 -0.032392 -816232.000000 0 0 1
-5.681535 -29.591862 -10.088875 31.776462 1.381108 1.893883 0.030167 -0.031005 299699.000000 0 0 1
-7.030035 -29.249732 -9.764475 31.627728 1.334925 1.884655 0.039211 -0.025623 226517.000000 0 0 1
-7.237935 -27.869362 -9.376975 30.282283 1.316701 1.885624 0.042547 -0.016683 -485444.000000 0 0 1
-8.700735 -27.607392 -8.949275 30.297861 1.265490 1.870646 0.046796 -0.010578 833875.000000 0 0 1
-9.753335 -27.876322 -9.893975 31.146550 1.234229 1.894056 0.074150 -0.023847 576546.000000 0 0 1
-9.986135 -29.262272 -10.239375 32.570665 1.241926 1.890594 0.074832 -0.033277 -554309.000000 0 0 1
-11.206435 -29.399592 -11.201875 33.397637 1.206622 1.912836 0.095438 -0.038864 141246.000000 0 0 1
-11.016635 -28.796272 -12.486175 33.264036 1.205404 1.955588 0.106785 -0.038034 101709.000000 0 0 1
-12.019935 -29.187012 -13.393675 34.289226 1.180138 1.972089 0.114218 -0.045098 -162955.000000 0 0 1
-12.106335 -28.250792 -14.658075 34.051868 1.165939 2.015802 0.119063 -0.044611 -293193.000000 0 0 1
-13.031535 -27.185612 -14.724975 33.551502 1.123801 2.025145 0.111119 -0.050354 -103405.000000 0 0 1
-12.755135 -26.153892 -13.831475 32.218461 1.117041 2.014517 0.118460 -0.037232 -493527.000000 0 0 1
-13.706435 -24.974592 -13.898575 31.698059 1.068863 2.024689 0.157261 -0.025727 -510455.000000 0 0 1
-13.491435 -24.111292 -14.995375 31.436197 1.060652 2.068046 0.139357 -0.027827 376699.000000 0 0 1
-14.400635 -23.018092 -14.922175 30.981964 1.011750 2.073322 0.157946 -0.025626 -146078.000000 0 0 1
-14.324335 -22.178592 -16.235075 30.994421 0.997335 2.122110 0.146383 -0.024028 1018880.000000 0 0 1
-13.113035 -21.379492 -16.407175 29.970481 1.020621 2.150104 0.125388 -0.019673 1356590.000000 0 0 1
-13.098335 -20.730592 -17.696675 30.240636 1.007296 2.195917 0.080240 -0.020343 -302944.000000 0 0 1
-13.244735 -19.241592 -17.714575 29.316685 0.967940 2.219619 0.095967 -0.020504 470391.000000 0 0 1
-12.059235 -18.491092 -17.402775 28.110535 0.992901 2.238372 0.084556 -0.014216 831772.000000 0 0 1
-12.329835 -17.098992 -17.692475 27.521337 0.946059 2.269028 0.095812 -0.013523 310739.000000 0 0 1
-11.045335 -16.242292 -17.700475 26.440845 0.973595 2.304247 0.096377 -0.020079 171103.000000 0 0 1
-10.441635 -16.048192 -16.441275 25.236634 0.993970 2.280336 0.100109 -0.014519 998928.000000 0 0 1
-9.098035 -15.533692 -16.634075 24.510452 1.040960 2.316722 0.080665 -0.015438 1142950.000000 0 1 0
-8.352535 -14.994192 -15.341975 23.021008 1.062556 2.300211 0.069536 -0.010502 410524.000000 0 1 0
-7.806635 -15.936892 -14.422875 22.868043 1.115304 2.253251 0.065853 -0.000417 214374.000000 0 1 0
-6.610935 -16.607292 -14.787775 23.198812 1.191951 2.261963 0.044324 0.001196 -477160.000000 0 1 0
-6.143435 -17.479092 -13.667075 23.022801 1.232810 2.206361 0.036986 0.000550 -753942.000000 0 1 0
-5.737535 -16.776892 -12.463975 21.673349 1.241275 2.183502 0.040340 -0.006484 390964.000000 0 1 0
-5.388935 -17.636592 -11.345475 21.652016 1.274252 2.122327 0.032799 -0.006248 328068.000000 0 1 0
-4.220335 -18.662192 -11.456175 22.300954 1.348394 2.110297 0.036054 -0.007263 -555391.000000 0 1 0
-2.958835 -18.168592 -11.689375 21.805823 1.409359 2.136567 0.038186 0.000333 -1283070.000000 0 1 0
-1.959135 -19.155992 -11.635875 22.498529 1.468878 2.114354 0.022822 0.004244 900227.000000 0 1 0
-0.533735 -18.612492 -11.986675 22.144753 1.542128 2.142764 0.027209 0.002770 -167747.000000 0 1 0
-0.530735 -18.292892 -13.360475 22.658637 1.541791 2.201411 0.033993 -0.000323 647418.000000 0 1 0
0.709665 -17.799992 -13.905075 22.598549 -1.530949 2.233573 0.034958 0.003394 1152060.000000 0 1 0
1.969265 -18.717392 -13.862475 23.374922 -1.465972 2.205637 0.051372 -0.006017 -352078.000000 0 1 0
2.048965 -19.758792 -14.806075 24.775552 -1.467467 2.211311 0.073779 -0.000426 -90872.500000 0 1 0
1.240165 -20.889792 -14.520575 25.470934 -1.511499 2.177405 0.069279 -0.011272 -697848.000000 0 0 1
1.271565 -21.812592 -15.767975 26.945038 -1.512567 2.195911 0.083796 -0.016853 795605.000000 0 0 1
2.462465 -22.528892 -16.129175 27.816631 -1.461926 2.189328 0.091691 -0.017350 1200800.000000 0 0 1
3.692465 -21.800192 -16.251675 27.440838 -1.403011 2.204637 0.084826 -0.028439 546015.000000 0 0 1
4.966265 -22.659192 -16.495375 28.464015 -1.355036 2.188932 0.091403 -0.022457 415970.000000 0 0 1
5.128965 -23.014592 -17.872975 29.587513 -1.351522 2.219397 0.083747 -0.020623 65966.000000 0 0 1
6.467065 -23.397592 -18.097375 30.278461 -1.301130 2.211423 0.081126 -0.021081 154011.000000 0 0 1
6.903265 -23.393292 -19.580175 31.277538 -1.283845 2.247227 0.086691 -0.009131 -103482.000000 0 0 1
7.030165 -22.160092 -20.170475 30.778904 -1.263595 2.285422 0.096201 -0.021523 -17947.300000 0 0 1
7.368265 -22.225992 -21.554075 31.825527 -1.250683 2.314825 0.070014 -0.017403 -111580.000000 0 0 1
7.588165 -20.776092 -22.101475 31.268217 -1.220614 2.355810 0.069724 -0.028658 311372.000000 0 0 1
6.382565 -20.045692 -22.324975 30.675257 -1.262545 2.385882 0.099777 -0.029950 260059.000000 0 0 1
6.614565 -18.630392 -22.568475 30.003000 -1.229637 2.422202 0.106554 -0.032735 -596006.000000 0 0 1
5.365265 -17.780192 -22.689475 29.321213 -1.277730 2.455654 0.092022 -0.034991 -1760170.000000 0 0 1
4.688065 -18.093992 -23.872475 30.319392 -1.317276 2.477322 0.081577 -0.032138 -351649.000000 0 0 1
3.615165 -17.251492 -24.178975 29.921668 -1.364229 2.511675 0.076591 -0.032201 255636.000000 0 0 1
2.378365 -17.245692 -23.239775 29.037177 -1.433750 2.498668 0.061025 -0.024520 -657914.000000 0 0 1
2.503365 -16.413792 -22.157675 27.688300 -1.419447 2.498515 0.066963 -0.029856 -216962.000000 0 0 1
1.200665 -15.986592 -21.832875 27.086660 -1.495833 2.508223 0.053344 -0.027420 133134.000000 0 0 1
1.280265 -14.988792 -20.626175 25.529239 -1.485588 2.511450 0.041135 -0.033206 -429539.000000 0 0 1
1.922965 -13.723292 -20.849975 25.034935 -1.431579 2.555007 0.048950 -0.026112 36548.000000 0 0 1
2.138865 -13.105392 -19.583075 23.660576 -1.409018 2.545734 0.050505 -0.023172 500138.000000 0 1 0
3.393965 -12.168492 -19.501775 23.235972 -1.298795 2.566777 0.051602 -0.025390 -150273.000000 0 1 0
4.638965 -12.843992 -19.534475 23.834509 -1.224198 2.531488 0.057292 -0.022107 187191.000000 0 1 0
5.762465 -11.965892 -19.624275 23.696007 -1.121998 2.546627 0.065550 -0.018250 508621.000000 0 1 0
6.031465 -10.810892 -18.557875 22.308040 -1.061903 2.553304 0.069943 -0.013659 -846159.000000 0 1 0
5.037665 -9.806592 -18.393075 21.444172 -1.096247 2.601613 0.038245 -0.005729 152525.000000 0 1 0
5.213265 -8.699192 -19.242475 21.751480 -1.030905 2.656542 0.052957 -0.014122 -343961.000000 0 1 0
4.695765 -8.787492 -20.667975 22.944180 -1.080033 2.692390 0.067373 -0.023032 -78861.500000 0 1 0
3.293065 -8.866592 -20.808675 22.857420 -1.215184 2.714970 0.045687 -0.018701 -181891.000000 0 1 0
2.821265 -8.881292 -22.131075 24.012941 -1.263214 2.743059 0.051177 -0.025227 555658.000000 0 1 0
1.268265 -8.857992 -22.222175 23.956159 -1.428585 2.758782 0.038860 -0.026944 22079.700000 0 1 0
0.750065 -7.674092 -21.665975 22.997146 -1.473366 2.799682 0.033229 -0.025269 -888469.000000 0 1 0
-0.639535 -7.591892 -21.744875 23.040950 1.486756 2.804587 0.033876 -0.024074 -449791.000000 0 1 0
-0.934935 -6.570592 -22.892675 23.835296 1.429454 2.859420 0.039209 -0.016735 -364747.000000 0 1 0
-0.707335 -7.068092 -24.218675 25.238907 1.471054 2.856292 0.039518 -0.019654 -165485.000000 0 0 1
-1.234135 -6.236692 -25.287955 26.074893 1.375437 2.895288 0.060123 -0.022272 17620.400000 0 0 1
-0.620635 -4.832092 -25.476825 25.938444 1.443056 2.952649 0.058724 -0.015827 -546456.000000 0 0 1
-1.153535 -4.325592 -26.662515 27.035737 1.310185 2.975240 0.050611 -0.015793 -224675.000000 0 0 1
-0.821235 -2.989892 -27.034395 27.211622 1.302737 3.027400 0.046535 -0.014954 -539540.000000 0 0 1
-1.329035 -1.807692 -26.126895 26.223057 0.936828 3.055927 0.047723 -0.022484 816134.000000 0 0 1
-2.740135 -1.605792 -26.001245 26.194496 0.530082 3.020047 0.045640 -0.023691 477373.000000 0 0 1
-3.394935 -1.084492 -27.155155 27.388029 0.309199 3.011095 0.064765 -0.012459 819887.000000 0 0 1
-4.956935 -1.131692 -26.914395 27.390447 0.224458 2.954880 0.059809 -0.023042 978462.000000 0 0 1
-5.470935 -0.102892 -26.054415 26.622814 0.018805 2.934583 0.070525 -0.023044 -1044910.000000 0 0 1
-6.829935 -0.118092 -26.317965 27.190020 0.017289 2.887642 0.084800 -0.032472 -1028040.000000 0 0 1
-7.680535 0.862908 -25.429795 26.578369 -0.111881 2.846535 0.089048 -0.028178 -555602.000000 0 0 1
-7.921935 2.138708 -26.020105 27.283273 -0.263687 2.836109 0.107033 -0.034197 49736.000000 0 0 1
-8.879835 2.183108 -27.044065 28.548185 -0.241069 2.815536 0.116620 -0.037033 692129.000000 0 0 1
-10.361135 1.729008 -26.754725 28.742962 -0.165351 2.767466 0.094193 -0.031202 -34698.500000 0 0 1
-11.384535 2.279108 -27.540655 29.887951 -0.197581 2.742627 0.100047 -0.040141 106723.000000 0 0 1
-12.534235 1.443708 -27.435455 30.197608 -0.114676 2.710550 0.070782 -0.027250 98879.000000 0 0 1
-13.721235 2.089308 -28.161205 31.395715 -0.151108 2.683677 0.056596 -0.021460 -416441.000000 0 0 1
-14.988335 1.490408 -27.968315 31.766305 -0.099112 2.647585 0.048830 -0.016677 746496.000000 0 0 1
-16.103035 2.134108 -28.579115 32.872906 -0.131761 2.624747 0.040477 -0.017225 493994.000000 0 0 1
-16.662535 3.443608 -27.954405 32.725330 -0.203799 2.594832 0.036254 -0.003657 -621303.000000 0 0 1
-15.928335 4.655108 -28.104445 32.638040 -0.284335 2.608215 0.047095 -0.006855 -51724.900000 0 0 1
-15.914235 5.293808 -29.432265 33.875440 -0.321132 2.623646 0.033442 -0.012532 -1234670.000000 0 0 1
-17.243735 5.703508 -30.029345 35.094699 -0.319431 2.597633 0.033830 -0.011345 -1011380.000000 0 0 1
-17.844935 6.739308 -29.325585 34.983566 -0.361100 2.564894 0.039742 -0.004376 -288872.000000 0 0 1
-18.680535 7.405408 -30.221655 36.292573 -0.377420 2.554804 0.037721 -0.006140 -416007.000000 0 0 1
-19.445835 8.540708 -29.505055 36.354263 -0.413841 2.517679 0.039330 -0.002388 143753.000000 0 0 1
-18.508835 9.525908 -29.090765 35.771392 -0.475313 2.520496 0.046491 0.000047 767197.000000 0 0 1
-19.217435 10.648408 -28.548615 36.023906 -0.505987 2.485679 0.071632 -0.012295 121994.000000 0 0 1
-9.468135 24.882808 30.844843 40.745601 -1.207205 0.712071 0.047256 -0.011553 -769662.000000 0 0 1
-10.144835 26.123508 30.876593 41.697953 -1.200381 0.737009 0.049858 -0.007183 -80852.900000 0 0 1
-9.665335 27.100308 31.810433 42.892296 -1.228209 0.735292 0.072511 -0.019417 -1162140.000000 0 0 1
-8.273535 27.614608 31.680473 42.833052 -1.279700 0.738281 0.068294 -0.023890 -1306450.000000 0 0 1
-7.933335 28.545408 30.650043 42.628667 -1.299718 0.768433 0.084419 -0.012719 -192733.000000 0 0 1
-6.604435 28.558608 30.202063 42.087733 -1.343533 0.770449 0.077528 -0.010619 -228819.000000 0 0 1
-6.383235 29.569408 29.106433 41.979519 -1.358186 0.804671 0.096835 -0.019202 -305340.000000 0 0 1
-6.304435 30.881508 29.600473 43.238888 -1.369414 0.816769 0.106866 -0.022794 258288.000000 0 0 1
-6.187135 31.887208 28.622393 43.293372 -1.379146 0.848477 0.109250 -0.018942 -21285.300000 0 0 1
-6.566435 33.269208 29.292653 44.810911 -1.375928 0.858340 0.108933 -0.024556 128043.000000 0 0 1
-5.634835 33.664408 30.306033 45.645365 -1.404951 0.844714 0.107578 -0.028789 367890.000000 0 0 1
-6.190835 -33.521395 31.252823 46.246613 1.388171 0.828766 0.098448 -0.024845 175884.000000 0 0 1
-7.314435 -33.901295 32.256267 47.363123 1.358297 0.821612 0.088374 -0.027798 82885.200000 0 0 1
-6.995835 33.247908 33.265312 47.549406 -1.363407 0.795966 0.103352 -0.029766 -57847.700000 0 0 1
-7.061235 31.900608 32.814415 46.306540 -1.352958 0.783235 0.101813 -0.023504 -147233.000000 0 0 1
-6.974735 30.978708 -33.889385 46.441551 -1.349343 2.388710 0.090294 -0.022245 -88878.200000 0 0 1
-5.693335 30.923908 -33.295805 45.796427 -1.388727 2.384796 0.083341 -0.023367 -148478.000000 0 0 1
-5.638235 30.460908 -31.962815 44.511551 -1.387770 2.371835 0.089718 -0.021847 -42564.200000 0 0 1
-4.207835 30.288008 -31.363835 43.803646 -1.432753 2.368866 0.073518 -0.021730 816550.000000 0 0 1
-3.549335 29.036908 -31.684335 43.123507 -1.449164 2.396072 0.084867 -0.015796 414098.000000 0 0 1
-3.210535 28.739308 -33.053945 43.918318 -1.459545 2.422833 0.078456 -0.020194 -648885.000000 0 0 1
-2.500435 27.402708 -33.207195 43.126307 -1.479801 2.449635 0.090367 -0.031925 -475966.000000 0 0 1
-1.356835 27.160208 -32.396875 42.297463 -1.520881 2.443282 0.111199 -0.026490 800857.000000 0 0 1
-0.663835 25.909608 -32.642575 41.680765 -1.545181 2.470523 0.126044 -0.028842 309430.000000 0 0 1
-0.046835 25.595708 33.895817 42.474332 -1.568967 0.646776 0.112421 -0.029232 -694862.000000 0 0 1
-1.002835 25.279908 32.906872 41.508332 -1.531148 0.655444 0.112164 -0.029196 -165468.000000 0 0 1
-0.562435 25.253308 31.579103 40.438665 -1.548528 0.674669 0.113923 -0.024049 -195045.000000 0 0 1
-0.351835 26.678908 30.933203 40.850348 -1.557609 0.711731 0.087790 -0.025266 -244046.000000 0 0 1
-1.553535 27.328908 30.644913 41.090064 -1.514012 0.729063 0.086603 -0.026832 -274292.000000 0 0 1
-1.339035 28.424108 29.790813 41.197275 -1.523722 0.762479 0.069642 -0.025382 161882.000000 0 0 1
-2.418935 29.527408 29.957693 42.132914 -1.489057 0.779837 0.081115 -0.021144 215716.000000 0 0 1
-2.240235 30.276108 31.157823 43.502543 -1.496937 0.772411 0.098010 -0.029359 -407871.000000 0 0 1
-3.160435 31.306608 31.255103 44.350575 -1.470186 0.788756 0.094592 -0.026415 -350650.000000 0 0 1
-2.910235 32.214608 32.478365 45.837699 -1.480702 0.783353 0.091357 -0.011403 1722460.000000 0 0 1
-1.560335 32.796408 32.445261 46.159874 -1.523256 0.791346 0.119375 -0.018723 1454650.000000 0 0 1
-0.979935 32.961508 33.733661 47.173946 -1.541075 0.774042 0.086646 -0.013456 1252740.000000 0 0 1
0.522365 33.480608 33.650609 47.471965 1.555196 0.782927 0.088120 -0.017145 1282320.000000 0 0 1
0.604865 -33.269295 33.235628 47.029977 -1.552617 0.785987 0.105245 -0.021071 947899.000000 0 0 1
1.949665 -32.854395 32.908379 46.542173 -1.511523 0.785456 0.078877 -0.020285 911663.000000 0 0 1
2.199565 -31.369295 32.485936 45.212905 -1.500792 0.769138 0.089218 -0.023621 -141264.000000 0 0 1
1.951165 -30.504095 33.568281 45.399739 -1.506919 0.738627 0.089340 -0.015845 129570.000000 0 0 1
2.123965 -29.129695 33.225384 44.237727 -1.498011 0.721123 0.079210 -0.028617 139377.000000 0 0 1
1.639865 -28.102795 -33.534345 43.783656 -1.512510 2.443252 0.081596 -0.026819 824225.000000 0 0 1
0.234865 -28.175495 -33.282485 43.607768 -1.562461 2.439084 0.068402 -0.028765 551288.000000 0 0 1
-0.145735 -27.253995 -32.265955 42.236161 1.565449 2.440196 0.065932 -0.029242 824463.000000 0 0 1
-1.686335 -27.186595 -31.965395 41.996918 1.508848 2.435860 0.086335 -0.036968 764702.000000 0 0 1
-2.095335 -26.670795 -30.720985 40.736969 1.492394 2.425125 0.090336 -0.035795 -116863.000000 0 0 1
-3.385335 -26.142395 -30.907285 40.621983 1.442017 2.435420 0.094072 -0.036528 -214958.000000 0 0 1
-3.996135 -25.566695 -29.600755 39.317040 1.415748 2.423213 0.090863 -0.034633 -708322.000000 0 0 1
-4.331035 -26.553995 -28.633035 39.290243 1.409117 2.387301 0.091609 -0.032722 178074.000000 0 0 1
-4.735735 -26.014295 -27.362045 38.050653 1.390725 2.373296 0.102762 -0.024543 304716.000000 0 0 1
-3.540235 -25.593795 -26.448135 36.974037 1.433345 2.367873 0.107241 -0.023711 101863.000000 0 0 1
-2.900635 -24.446095 -26.933585 36.488946 1.452694 2.401091 0.104461 -0.023191 -58757.700000 0 0 1
-1.685235 -24.313395 -26.232035 35.806435 1.501594 2.392940 0.083214 -0.018121 -1160900.000000 0 0 1
-0.752035 -23.193695 -26.653825 35.340337 1.538384 2.425237 0.067311 -0.014894 44296.700000 0 0 1
-0.075935 -23.367295 -27.889805 36.385126 1.567547 2.444196 0.038141 -0.024015 713422.000000 0 0 1
0.967665 -24.375495 -27.884745 37.049428 -1.531119 2.422853 0.036467 -0.019625 567172.000000 0 0 1
1.891865 -24.386695 -29.159065 38.059704 -1.493374 2.443610 0.031789 -0.026472 576269.000000 0 0 1
2.863765 -23.357295 -29.323265 37.598115 -1.448798 2.465323 0.044514 -0.023943 424663.000000 0 0 1
3.556565 -23.617695 -30.556875 38.783595 -1.421330 2.478158 0.051013 -0.021436 -56600.100000 0 0 1
4.751865 -22.653295 -30.848245 38.566387 -1.364029 2.497881 0.058095 -0.032012 133088.000000 0 0 1
5.896665 -22.703895 -29.990785 38.074725 -1.316690 2.477834 0.041142 -0.034561 998930.000000 0 0 1
6.772265 -23.818495 -30.180245 39.038845 -1.293779 2.454483 0.056938 -0.018726 -135823.000000 0 0 1
7.475265 -24.044095 -31.560775 40.374256 -1.269371 2.468192 0.072209 -0.018897 -814908.000000 0 0 1
6.603165 -24.605695 -32.508805 41.302111 -1.308614 2.476886 0.032353 -0.022167 -141625.000000 0 0 1
7.007065 -24.428995 -33.817925 42.302799 -1.291462 2.497134 0.052833 -0.026840 -103870.000000 0 0 1
6.439665 -23.118795 33.439809 41.160281 -1.299136 0.622490 0.067084 -0.026109 -625198.000000 0 0 1
5.053165 -23.084595 33.458306 40.962070 -1.355298 0.614933 0.074425 -0.026328 -874219.000000 0 0 1
4.553065 -22.106795 32.596829 39.648380 -1.367679 0.605623 0.099148 -0.034646 437059.000000 0 0 1
3.145665 -21.573595 33.058859 39.600547 -1.426006 0.583012 0.075461 -0.033652 1076320.000000 0 0 1
2.023965 -22.420495 32.837122 39.812707 -1.480767 0.600966 0.078703 -0.027820 138963.000000 0 0 1
1.862865 -23.493695 33.828572 41.228585 -1.491670 0.608489 0.076271 -0.026340 863447.000000 0 0 1
0.497565 -24.272595 33.555448 41.417080 -1.550300 0.626331 0.090914 -0.028332 1292220.000000 0 0 1
0.470865 -25.005195 32.378611 40.912784 -1.551968 0.657691 0.092995 -0.024057 -208111.000000 0 0 1
-0.802735 -25.581795 32.193692 41.127927 1.539427 0.671692 0.094248 -0.022845 16307.300000 0 0 1
-0.908735 -26.758095 31.199833 41.112662 1.536848 0.709195 0.099758 -0.027158 348675.000000 0 0 1
-2.249935 -27.005595 30.790003 41.016931 1.487675 0.721727 0.101469 -0.025564 495414.000000 0 0 1
-2.270335 -27.997695 29.760433 40.923205 1.489883 0.756524 0.112783 -0.026968 -267756.000000 0 0 1
-3.568035 -28.033095 28.953743 40.458676 1.444198 0.773260 0.124405 -0.023899 456856.000000 0 0 1
-4.739135 -28.314895 29.740503 41.336305 1.404961 0.767748 0.113240 -0.020311 345096.000000 0 0 1
-5.879635 -28.548795 28.981413 41.103845 1.367686 0.788263 0.081674 -0.013827 -553396.000000 0 0 1
-7.140535 -28.906295 29.792233 42.120520 1.328621 0.785112 0.061754 -0.005085 105175.000000 0 0 1
-8.112835 -29.515395 28.914543 42.107332 1.302553 0.813875 0.088964 -0.007852 1121190.000000 0 0 1
-9.343935 -29.966595 29.512713 43.084871 1.268539 0.816206 0.079481 -0.009076 689843.000000 0 0 1
-9.279335 -31.160295 30.506633 44.583906 1.281365 0.817219 0.070880 -0.002069 -626577.000000 0 0 1
-9.196535 -32.499895 30.003073 45.177470 1.295035 0.844486 0.094323 -0.012041 429449.000000 0 0 1
-10.435135 -32.991895 29.478463 45.456979 1.264459 0.865195 0.091863 -0.009089 383355.000000 0 0 1
-10.440535 33.617508 29.219723 45.748594 -1.269672 0.877986 0.099360 -0.015114 -209549.000000 0 0 1
-10.385235 32.803608 30.337073 45.872299 -1.264191 0.848196 0.109576 -0.016988 338263.000000 0 0 1
-10.083535 31.432308 29.983803 44.594799 -1.260366 0.833403 0.104100 -0.017533 52653.700000 0 0 1
-10.910435 30.557108 30.957023 44.845420 -1.227854 0.808886 0.100526 -0.013791 -48193.100000 0 0 1
-12.301135 30.685708 30.728963 45.135349 -1.189536 0.821917 0.103016 -0.005051 -106316.000000 0 0 1
-13.083335 29.621008 31.183603 44.955476 -1.154874 0.804245 0.096866 -0.007207 -108533.000000 0 0 1
-13.277535 29.427808 32.663950 45.926272 -1.146953 0.779556 0.102960 -0.022446 -600403.000000 0 0 1
-14.142035 30.360408 33.299000 47.228963 -1.134877 0.788296 0.108575 -0.013659 351562.000000 0 0 1
-14.227235 29.947108 -33.274135 46.972455 -1.127284 2.357990 0.103508 -0.018763 198719.000000 0 0 1
-15.378635 30.595708 -32.455975 47.180399 -1.105039 2.329405 0.105436 -0.013376 204079.000000 0 0 1
-15.545535 30.074208 -31.151135 46.005596 -1.093716 2.314633 0.084556 -0.016295 1217880.000000 0 0 1
-16.883935 30.331908 -30.621555 46.290080 -1.062870 2.293633 0.093919 -0.012130 1453490.000000 0 0 1
-17.053335 29.552408 -29.323515 44.989216 -1.047420 2.280738 0.094002 -0.011104 22072.800000 0 0 1
-17.257635 28.151408 -29.544255 44.307908 -1.020852 2.300695 0.075141 -0.012871 57681.600000 0 0 1
-17.040335 27.520908 -28.318355 43.008169 -1.016395 2.289542 0.061122 0.000515 -218581.000000 0 0 1
-17.626335 26.102708 -28.121825 42.224117 -0.976862 2.299648 0.035757 -0.006667 491594.000000 0 0 1
-19.045635 26.046408 -28.023105 42.736939 -0.939424 2.285921 0.043077 -0.006734 439736.000000 0 0 1
-19.518335 24.798408 -27.540675 41.885740 -0.903983 2.288318 0.016586 -0.005352 1751180.000000 0 0 1
-21.048635 24.453408 -27.841695 42.616595 -0.860086 2.282740 0.029298 -0.003819 1196500.000000 0 0 1
-22.056235 25.140408 -27.186025 43.099856 -0.850653 2.253339 0.032297 -0.001447 1077550.000000 0 0 1
-23.367335 24.625508 -27.573935 43.735224 -0.811608 2.252960 0.054236 -0.009388 1408590.000000 0 0 1
-24.479635 24.738008 -26.527515 43.759920 -0.790648 2.222077 0.080194 -0.010192 -97841.900000 0 0 1
-24.821535 26.038808 -26.077485 44.431558 -0.809327 2.198038 0.058719 0.003551 211743.000000 0 0 1
-25.953345 26.086608 -25.211215 44.605970 -0.787959 2.171470 0.058748 0.008289 367660.000000 0 0 1
-25.716105 25.572908 -23.769875 43.362410 -0.782606 2.150968 0.044626 0.018086 -550502.000000 0 0 1
-25.529925 24.143508 -23.611775 42.334406 -0.757495 2.162462 0.052332 0.015079 276570.000000 0 0 1
-26.688835 23.412608 -23.196075 42.408749 -0.720099 2.149530 0.058683 0.011861 127102.000000 0 0 1
-27.230745 23.700908 -21.818275 42.181555 -0.716203 2.114427 0.026112 0.012004 14913.400000 0 0 1
-26.453585 23.307908 -20.643675 40.855991 -0.722267 2.100502 0.040078 0.004281 626175.000000 0 0 1
-25.512295 24.240508 -20.148375 40.551651 -0.759842 2.090770 0.043552 0.015472 160975.000000 0 0 1
-24.686735 23.792908 -18.930175 39.164893 -0.766963 2.075269 0.047450 0.005247 151358.000000 0 0 1
-25.465415 23.879108 -17.700975 39.141074 -0.753262 2.040066 0.054901 0.004745 641621.000000 0 0 1
-24.667835 23.670408 -16.541875 37.979256 -0.764767 2.021446 0.064351 -0.009122 -710048.000000 0 0 1
-25.388165 23.663608 -15.198475 37.888242 -0.750255 1.983557 0.066641 -0.007421 -547908.000000 0 0 1
-25.914225 24.911308 -14.977675 38.941636 -0.765668 1.965591 0.073553 -0.013452 -417770.000000 0 0 1
-26.504875 24.969708 -13.733075 38.917760 -0.755583 1.931437 0.044735 -0.015642 -33985.400000 0 0 1
-26.489865 26.353708 -13.076375 39.588160 -0.782822 1.907429 0.036447 -0.012987 463942.000000 0 0 1
-25.152665 26.696308 -12.756575 38.834001 -0.815161 1.905501 0.073347 -0.022815 -59164.900000 0 0 1
-25.085005 27.677808 -11.741075 39.155732 -0.834499 1.875338 0.090123 -0.024453 -924467.000000 0 0 1
-23.732535 28.152308 -11.292075 38.513590 -0.870377 1.868366 0.111489 -0.029706 -1171520.000000 0 0 1
-23.017935 27.150508 -10.661575 37.157026 -0.867587 1.861820 0.106290 -0.027482 224518.000000 0 0 1
-21.793735 27.599408 -10.072275 36.580663 -0.902401 1.849744 0.112153 -0.030123 768200.000000 0 0 1
-20.828935 26.503108 -9.533175 35.030568 -0.904709 1.846411 0.136294 -0.033753 361457.000000 0 0 1
-20.143735 25.813908 -10.604575 34.417799 -0.908156 1.884005 0.113360 -0.036424 942091.000000 0 0 1
-19.117935 24.944508 -10.047675 32.995146 -0.916870 1.880231 0.117883 -0.029652 590133.000000 0 0 1
-18.631835 23.960808 -11.163675 32.340272 -0.909866 1.923242 0.116781 -0.039267 -117392.000000 0 0 1
-17.963435 22.787508 -10.699575 30.926306 -0.903229 1.924069 0.088104 -0.031206 319301.000000 0 0 1
-17.605535 22.032908 -11.856475 30.593788 -0.896631 1.968763 0.111774 -0.021772 -127824.000000 0 0 1
-17.100035 20.664308 -11.323675 29.114437 -0.879501 1.970274 0.097076 -0.010021 -121016.000000 0 0 1
-18.054835 19.854908 -10.662775 28.877140 -0.832846 1.948994 0.094204 -0.005978 279110.000000 0 0 1
-17.598735 18.493208 -10.530075 27.615153 -0.810176 1.962015 0.114248 -0.021599 -727434.000000 0 0 1
-18.816835 17.571108 -10.222275 27.700397 -0.751177 1.948761 0.100731 -0.007567 453792.000000 0 0 1
-19.492335 17.172608 -11.414375 28.374945 -0.722214 1.984791 0.092996 -0.004641 299639.000000 0 0 1
-20.310935 18.125908 -12.069775 29.778551 -0.728612 1.988123 0.089953 -0.007197 -813614.000000 0 0 1
-21.132835 17.662408 -13.293975 30.582464 -0.696181 2.020493 0.082574 -0.009434 -256895.000000 0 0 1
-20.408035 17.232408 -14.396875 30.343266 -0.701230 2.065155 0.092343 -0.016934 -64468.000000 0 0 1
-21.291835 16.700808 -15.361675 31.116559 -0.665141 2.087115 0.094535 -0.016592 -2396.700000 0 0 1
-20.558035 16.187608 -16.571975 30.972597 -0.667017 2.135367 0.111957 -0.024661 -264769.000000 0 0 1
-19.917835 17.162308 -17.361875 31.507136 -0.711222 2.154413 0.086742 -0.018933 515916.000000 0 0 1
-19.169335 16.560008 -18.444875 31.335454 -0.712497 2.200155 0.089464 -0.020548 -30621.200000 0 0 1
-18.269235 17.615708 -19.228575 31.840480 -0.767188 2.219186 0.071935 -0.017702 -307158.000000 0 0 1
-17.406635 18.195808 -18.291075 31.123010 -0.807561 2.199013 0.088630 -0.016670 -149314.000000 0 0 1
-16.772635 19.271608 -18.900875 31.779856 -0.854618 2.207743 0.087383 -0.018445 -293285.000000 0 0 1
33.916422 29.916908 2.187025 45.278341 0.722824 1.522476 0.102677 -0.018804 -629319.000000 0 0 1
35.180352 30.030008 1.625425 46.282832 0.706581 1.535670 0.119029 -0.015952 -501446.000000 0 0 1
35.126792 30.986108 0.540825 46.843601 0.722849 1.559251 0.103100 -0.005487 -322736.000000 0 0 1
36.406152 31.263808 -0.238875 47.988443 0.709552 1.575774 0.079263 0.001494 309553.000000 0 0 1
-36.659785 31.728808 0.565525 48.486873 -0.713420 1.559133 0.054664 0.005428 1037960.000000 0 0 1
-35.511061 31.804608 -0.280475 47.672290 -0.730393 1.576680 0.058397 0.006137 -229143.000000 0 0 1
-34.601054 32.931508 0.139825 47.767528 -0.760681 1.567869 0.039502 -0.000796 -667573.000000 0 0 1
-33.779195 32.597508 1.221525 46.958744 -0.767597 1.544781 0.033327 0.010371 -117829.000000 0 0 1
-33.087555 33.773808 1.633325 47.308817 -0.795662 1.536265 0.033491 0.009762 -275311.000000 0 0 1
-32.308205 33.560808 2.931925 46.677019 -0.804412 1.507942 0.056750 0.012216 -270125.000000 0 0 1
-32.100595 -33.273495 3.566925 46.371290 0.803338 1.493799 0.047566 0.009912 -86862.900000 0 0 1
-31.603565 -33.597695 4.845725 46.379645 0.815973 1.466126 0.058635 0.009374 -343290.000000 0 0 1
-31.436165 -32.453695 5.837525 45.558220 0.801323 1.442310 0.065260 0.006075 871348.000000 0 0 1
-32.629115 -31.855095 6.397525 46.047090 0.773395 1.431411 0.062494 0.008150 1022190.000000 0 0 1
-33.191035 -32.608495 7.485425 47.127384 0.776545 1.411287 0.058557 -0.007727 -197900.000000 0 0 1
-34.258936 -31.877995 8.429525 47.549323 0.749414 1.392575 0.084480 -0.003691 801838.000000 0 0 1
-35.491432 -31.488495 7.882925 48.096856 0.725706 1.406157 0.068404 -0.003164 620305.000000 0 0 1
-36.322745 -32.586095 7.361825 49.349689 0.731225 1.421061 0.062468 -0.004700 -134633.000000 0 0 1
36.371672 -32.235095 7.099525 49.116221 -0.725177 1.425743 0.063887 0.001401 242886.000000 0 0 1
35.596012 -32.396395 8.290725 48.839928 -0.738374 1.400217 0.062108 -0.003480 -1338890.000000 0 0 1
34.279872 -32.486795 7.933625 47.889914 -0.758549 1.404365 0.061844 0.003708 -1809610.000000 0 0 1
33.462592 -32.418195 9.215325 47.493227 -0.769547 1.375523 0.084107 -0.015616 -331384.000000 0 0 1
32.062802 -32.577595 8.942925 46.575733 -0.793362 1.377588 0.073598 -0.017779 961720.000000 0 0 1
31.263692 -32.842695 10.093925 46.453723 -0.810024 1.351759 0.066693 -0.021196 288854.000000 0 0 1
31.113792 -31.623195 11.103625 45.731663 -0.793518 1.325546 0.073865 -0.013232 -675934.000000 0 0 1
30.487612 -30.429795 10.650825 44.372367 -0.784449 1.328397 0.043696 -0.004864 157660.000000 0 0 1
31.291442 -29.586095 9.862625 44.178759 -0.757393 1.345656 0.040961 -0.012160 -231437.000000 0 0 1
30.540082 -28.308695 9.367125 42.682805 -0.747499 1.349536 0.031933 -0.017891 254227.000000 0 0 1
31.175252 -27.582695 8.314425 42.447981 -0.724333 1.373648 0.029213 -0.018714 -148484.000000 0 0 1
30.288592 -26.591695 7.889725 41.070242 -0.720495 1.377492 0.038052 -0.023748 -65650.600000 0 0 1
30.441322 -26.152695 6.408425 40.641179 -0.709764 1.412452 0.029158 -0.024173 330829.000000 0 0 1
31.557742 -25.341495 6.077825 40.927037 -0.676580 1.421741 0.038177 -0.023142 -59493.200000 0 0 1
31.361652 -24.876695 4.820825 40.319270 -0.670593 1.450943 0.032025 -0.019057 204778.000000 0 0 1
32.663132 -24.259295 4.239925 40.906852 -0.638820 1.466962 0.044086 -0.026897 423051.000000 0 0 1
33.676492 -25.225195 4.032825 42.269141 -0.642889 1.475243 0.049349 -0.017569 58403.700000 0 0 1
34.907672 -24.584995 3.658525 42.852682 -0.613597 1.485318 0.059703 -0.018091 767055.000000 0 0 1
36.004332 -25.703595 3.508425 44.376748 -0.619996 1.491654 0.063269 -0.013097 106477.000000 0 0 1
36.435702 -26.209395 4.774425 45.136326 -0.623583 1.464820 0.045446 -0.009983 -32546.800000 0 0 1
37.050742 -27.494695 4.659825 46.372726 -0.638414 1.470140 0.047127 -0.009946 -612211.000000 0 0 1
36.642452 -28.595895 5.632625 46.820091 -0.662677 1.450201 0.051240 -0.004077 1175810.000000 0 0 1
35.318522 -29.181495 5.572825 46.152075 -0.690536 1.449752 0.021877 -0.002204 1221120.000000 0 0 1
34.216992 -28.372995 5.949925 44.846750 -0.692299 1.437732 0.029729 -0.014464 -331954.000000 0 0 1
32.956072 -29.206095 6.256125 44.477385 -0.725145 1.429670 0.041159 -0.013871 112097.000000 0 0 1
32.203132 -29.915595 5.281825 44.270557 -0.748590 1.451204 0.021806 -0.011643 109470.000000 0 0 1
31.463812 -29.089595 4.424125 43.078404 -0.746210 1.467916 0.033803 -0.013572 275299.000000 0 0 1
30.011392 -29.637995 4.114625 42.379530 -0.779138 1.473553 0.033737 -0.012921 1015260.000000 0 0 1
29.982122 -30.841795 3.351825 43.143698 -0.799531 1.493028 0.046307 -0.008325 -456797.000000 0 0 1
28.684392 -31.324595 3.114125 42.587819 -0.829367 1.497609 0.063191 -0.012686 -3908.540000 0 0 1
28.642792 -32.798295 2.688225 43.627563 -0.852929 1.509140 0.070061 -0.012820 -98897.400000 0 0 1
28.355692 -32.872095 1.319125 43.432246 -0.859029 1.540420 0.067345 -0.013663 245110.000000 0 0 1
28.254992 33.899908 0.837225 44.138977 0.875970 1.551827 0.066806 -0.012712 -111139.000000 0 0 1
27.933992 33.870208 -0.632475 43.907846 0.881153 1.585201 0.061285 -0.013988 -166902.000000 0 0 1
29.106422 -34.016695 -1.381975 44.790950 -0.863031 1.601655 0.060741 -0.004687 143996.000000 0 0 1
28.763492 -33.908695 -2.727675 44.548606 -0.867312 1.632064 0.056866 -0.003563 -423276.000000 0 0 1
29.736182 -33.280195 -3.712775 44.783887 -0.841579 1.653796 0.050534 0.003374 -388098.000000 0 0 1
29.874592 -31.863495 -3.687075 43.833413 -0.817602 1.655011 0.036744 0.001655 90335.000000 0 0 1
30.873742 -31.455095 -4.595175 44.313954 -0.794725 1.674679 0.022899 0.007924 -182300.000000 0 0 1
31.298762 -29.981395 -4.494675 43.574059 -0.763904 1.674130 0.005158 0.014764 -1015900.000000 0 0 1
30.368382 -29.045695 -4.951675 42.313238 -0.763140 1.688089 0.011196 0.000841 -404932.000000 0 0 1
30.776112 -27.736695 -4.850375 41.713540 -0.733500 1.687338 0.000672 0.001564 220821.000000 0 0 1
31.916232 -27.279395 -5.803375 42.385026 -0.707227 1.708148 0.006561 -0.002122 1261070.000000 0 0 1
33.206082 -27.920195 -5.678675 43.754183 -0.699138 1.700949 0.007379 0.007077 773453.000000 0 0 1
34.219872 -27.401895 -6.511275 44.319975 -0.675204 1.718245 0.021157 -0.002024 191823.000000 0 0 1
34.370692 -28.256895 -7.797375 45.172952 -0.688085 1.744277 0.026801 -0.007125 393892.000000 0 0 1
33.195122 -28.073295 -8.635575 44.323799 -0.701996 1.766880 0.019782 -0.005132 857820.000000 0 0 1
33.095852 -28.941695 -9.747175 45.032927 -0.718536 1.788969 0.019900 -0.001431 154167.000000 0 0 1
32.829632 -30.469295 -9.419975 45.770062 -0.748127 1.778089 0.014875 -0.002276 -201864.000000 0 0 1
33.963142 -31.181995 -8.988275 46.974471 -0.742733 1.763327 0.026242 0.009496 -773998.000000 0 0 1
33.683552 -32.354295 -8.308075 47.438446 -0.765272 1.746838 0.032489 -0.002362 -532953.000000 0 0 1
34.881362 -33.178595 -7.845075 48.775750 -0.760385 1.732338 0.023904 -0.007856 -616632.000000 0 0 1
34.687462 33.728208 -7.117975 48.902736 0.771378 1.716869 0.022094 -0.000194 -275527.000000 0 0 1
34.237982 33.989708 -5.770875 48.588504 0.781759 1.689848 0.023082 0.005827 46967.500000 0 0 1
33.891202 32.672708 -5.038375 47.344531 0.767095 1.677418 0.025750 0.004419 452963.000000 0 0 1
32.655632 32.076108 -5.445675 46.096881 0.776446 1.689208 0.048499 -0.009829 538896.000000 0 0 1
32.578992 30.729908 -4.935675 45.056397 0.756199 1.680561 0.053425 -0.002297 439820.000000 0 0 1
31.377042 29.937408 -5.530375 43.719014 0.761923 1.697634 0.073649 -0.014906 -33645.100000 0 0 1
31.524032 29.567808 -6.925775 43.771980 0.753388 1.729688 0.056118 -0.012767 65999.000000 0 0 1
30.301642 29.077308 -7.452675 42.652336 0.764782 1.746429 0.045276 -0.015506 249427.000000 0 0 1
30.368852 28.727008 -8.953775 42.751354 0.757623 1.781797 0.046330 -0.013914 -162385.000000 0 0 1
31.015912 27.475308 -9.251175 42.455431 0.724940 1.790462 0.057158 -0.012568 47377.800000 0 0 1
31.372062 27.329508 -10.600475 42.935747 0.716641 1.820268 0.048613 -0.011485 -30350.400000 0 0 1
32.555882 28.140108 -11.169275 44.457888 0.712774 1.824750 0.063863 -0.023031 -603859.000000 0 0 1
33.773512 27.765608 -10.553475 44.977271 0.688079 1.807645 0.059757 -0.028710 34998.300000 0 0 1
34.865502 28.461408 -11.134275 46.364071 0.684613 1.813315 0.065737 -0.028670 113892.000000 0 0 1
35.281262 29.841508 -10.554275 47.399112 0.702061 1.795347 0.053196 -0.033365 -598242.000000 0 0 1
35.798312 29.669008 -9.249575 47.405947 0.692046 1.767170 0.058076 -0.019388 111704.000000 0 0 1
35.657952 30.911808 -8.442175 47.940586 0.714223 1.747816 0.044702 -0.012681 -797135.000000 0 0 1
36.718942 31.077608 -7.347475 48.662961 0.702380 1.722363 0.036845 0.001517 -44052.900000 0 0 1
-36.116235 31.328908 -7.645475 48.418345 -0.714536 1.729364 0.043872 -0.012429 -292483.000000 0 0 1
-35.432813 30.205708 -8.153575 47.268909 -0.705931 1.744157 0.051075 -0.023433 -428352.000000 0 0 1
-33.989325 30.573908 -8.612575 46.521119 -0.732547 1.757003 0.079836 -0.035329 438730.000000 0 0 1
-33.166915 31.132108 -7.552475 46.111737 -0.753763 1.735324 0.063855 -0.027868 945470.000000 0 0 1
-31.891715 31.574708 -8.032075 45.591204 -0.780403 1.747897 0.078981 -0.043996 388842.000000 0 0 1
-31.815095 32.915908 -8.806675 46.617752 -0.802402 1.760851 0.051643 -0.036427 -472497.000000 0 0 1
-31.975945 -33.958295 -8.132975 47.347356 0.815455 1.743425 0.040586 -0.022747 -261802.000000 0 0 1
-30.910495 -33.651095 -7.285775 46.270264 0.827822 1.728916 0.083192 -0.015401 -284556.000000 0 0 1
-31.157065 -32.359695 -6.475775 45.385550 0.804330 1.713969 0.057736 -0.024235 -178585.000000 0 0 1
-32.153635 -32.378895 -5.487375 45.960421 0.788889 1.690475 0.054832 -0.017620 48860.300000 0 0 1
-31.776815 -33.032495 -4.239375 46.031337 0.804771 1.663025 0.069178 -0.009295 660236.000000 0 0 1
-32.994685 -33.002095 -3.233975 46.778692 0.785510 1.639985 0.056608 -0.008121 414504.000000 0 0 1
-33.318225 -31.703595 -2.842675 46.079310 0.760571 1.632526 0.052371 -0.011073 -391513.000000 0 0 1
-34.163702 -31.657795 -1.768075 46.610091 0.747345 1.608739 0.060073 -0.007521 -345568.000000 0 0 1
-34.732522 -30.258795 -1.331975 46.083803 0.716671 1.599704 0.070979 -0.002597 -303030.000000 0 0 1
-35.823851 -30.357095 -0.483075 46.958863 0.702982 1.581084 0.043910 0.006734 -775001.000000 0 0 1
-36.373065 -29.104395 -0.286175 46.584842 0.674841 1.576939 0.059984 0.000090 -726856.000000 0 0 1
36.807212 -29.070095 0.819225 46.909619 -0.668486 1.553332 0.048148 0.002425 -703578.000000 0 0 1
35.657662 -29.938995 0.636525 46.564122 -0.698439 1.557126 0.016699 0.008969 841521.000000 0 0 1
34.819172 -29.846795 1.785925 45.895484 -0.708656 1.531874 0.017903 0.003884 187575.000000 0 0 1
34.001842 -28.561995 2.016225 44.451974 -0.698668 1.525423 0.004649 0.010700 -1693860.000000 0 0 1
33.010152 -28.342695 1.075625 43.521666 -0.709469 1.546079 0.002909 0.000291 -553461.000000 0 0 1
32.450622 -27.038095 1.281525 42.258061 -0.694664 1.540466 -0.002412 0.003405 -51405.000000 0 0 1
31.214032 -26.883195 0.354425 41.196451 -0.710991 1.562193 -0.010251 -0.015871 85894.000000 0 0 1
30.078742 -27.677895 0.673325 40.880924 -0.743854 1.554325 -0.009737 0.001489 228508.000000 0 0 1
30.090312 -29.052895 0.343125 41.828403 -0.767859 1.562593 -0.002129 -0.003788 -560965.000000 0 0 1
29.689802 -29.402595 -1.119475 41.800121 -0.780538 1.597581 0.025270 -0.007949 -62283.300000 0 0 1
28.330392 -29.173995 -1.412775 40.690650 -0.800067 1.605523 0.028175 0.001041 68337.000000 0 0 1
27.947492 -29.604195 -2.675575 40.799870 -0.814177 1.636421 0.037112 -0.001777 106396.000000 0 0 1
26.480792 -30.015995 -2.980575 40.138213 -0.847890 1.645123 0.062995 -0.011289 1035610.000000 0 0 1
25.565192 -29.021295 -3.509875 38.834699 -0.848628 1.661300 0.062821 -0.002605 51542.500000 0 0 1
24.274692 -29.545395 -3.598375 38.407542 -0.883019 1.664623 0.057141 -0.008972 -760819.000000 0 0 1
23.157692 -28.527695 -3.572875 36.917117 -0.888925 1.667729 0.069265 -0.009613 -483790.000000 0 0 1
23.130592 -27.590295 -4.657275 36.303428 -0.873099 1.699438 0.076910 -0.017242 -238193.000000 0 0 1
22.337092 -26.483695 -4.395075 34.923466 -0.870130 1.696980 0.089890 -0.021638 -434280.000000 0 0 1
21.923392 -25.728195 -5.674275 34.274955 -0.865075 1.737114 0.100301 -0.041750 -254738.000000 0 0 1
20.571792 -25.950095 -5.958275 33.646799 -0.900495 1.748818 0.098061 -0.034202 -721292.000000 0 0 1
20.106292 -25.474395 -7.205775 33.243510 -0.902630 1.789288 0.116512 -0.035612 428526.000000 0 0 1
18.614092 -25.865795 -7.390275 32.712993 -0.947010 1.798676 0.097481 -0.024934 62646.100000 0 0 1
17.763192 -25.032095 -6.676975 31.412080 -0.953645 1.784991 0.081720 -0.025046 -317520.000000 0 0 1
16.405892 -25.409095 -6.880875 31.018089 -0.997471 1.794492 0.062218 -0.023016 -59806.200000 0 0 1
15.519792 -24.564995 -6.000475 29.669995 -1.007333 1.774441 0.052063 -0.018372 -607786.000000 0 0 1
15.620392 -24.885595 -4.643175 29.746404 -1.010266 1.727529 0.047572 -0.014033 214407.000000 0 0 1
15.058892 -23.885495 -3.794875 28.490141 -1.008279 1.704393 0.056151 -0.017072 -80179.700000 0 0 1
14.977892 -24.394695 -2.297775 28.717906 -1.020160 1.650894 0.060205 -0.018730 80616.500000 0 0 1
14.365892 -25.674095 -2.142775 29.497957 -1.060652 1.643502 0.064782 -0.014190 421603.000000 0 0 1
15.288692 -26.590695 -1.588175 30.713701 -1.048989 1.622528 0.076158 -0.017850 -260681.000000 0 0 1
14.770492 -28.018595 -1.597275 31.713725 -1.085652 1.621183 0.071392 -0.012918 392763.000000 0 0 1
13.603592 -28.040295 -0.755175 31.175088 -1.119104 1.595022 0.091437 -0.020164 369931.000000 0 0 1
12.784392 -29.184695 -0.943675 31.875972 -1.157923 1.600405 0.094987 -0.019903 22297.100000 0 0 1
13.293492 -30.629195 -0.606775 33.395100 -1.161316 1.588967 0.077728 -0.019982 -423579.000000 0 0 1
14.192892 -31.118695 -1.567375 34.238400 -1.142890 1.616591 0.069661 -0.009226 -300586.000000 0 0 1
14.752192 -32.356695 -1.194475 35.581029 -1.143027 1.604373 0.070716 -0.015427 -511539.000000 0 0 1
16.143692 -32.606495 -1.815575 36.429365 -1.111071 1.620655 0.059261 -0.006754 -597046.000000 0 0 1
16.999592 -31.775595 -1.128975 36.054807 -1.079551 1.602114 0.055160 -0.000991 -591621.000000 0 0 1
18.252892 -31.594995 -1.773975 36.531613 -1.046924 1.619375 0.048220 -0.006028 130969.000000 0 0 1
19.077292 -30.551195 -1.004375 36.032310 -1.012602 1.598674 0.050047 -0.004879 -254364.000000 0 0 1
18.658192 -29.236395 -1.233675 34.704709 -1.002773 1.606352 0.059942 -0.003957 -296109.000000 0 0 1
19.472192 -28.359695 -0.563375 34.405754 -0.969110 1.587171 0.060807 -0.004275 -371456.000000 0 0 1
19.229592 -26.859295 -0.882775 33.045094 -0.949454 1.597514 0.067019 -0.006865 -245232.000000 0 0 1
19.784792 -26.469995 -2.088375 33.112836 -0.928934 1.633907 0.071739 -0.015714 -374926.000000 0 0 1
18.836792 -26.390795 -3.095675 32.571183 -0.950893 1.665983 0.078467 -0.012600 -501195.000000 0 0 1
32.808082 -29.172495 13.628625 45.968947 -0.726808 1.269797 0.078760 -0.027203 -201416.000000 0 0 1
33.649892 -29.913095 14.443425 47.283412 -0.726677 1.260370 0.106369 -0.016474 -151898.000000 0 0 1
33.035162 -30.245295 15.726725 47.470303 -0.741339 1.233119 0.091783 -0.015644 41193.900000 0 0 1
34.022152 -30.756095 16.799725 48.843372 -0.735022 1.219675 0.096078 -0.011900 -363335.000000 0 0 1
33.484942 -31.268995 18.001925 49.224594 -0.751190 1.196401 0.090477 -0.016732 -253389.000000 0 0 1
34.436142 -31.673995 18.945225 50.477831 -0.743641 1.186057 0.067202 -0.017619 -527728.000000 0 0 1
35.090322 -33.038595 18.718725 51.703676 -0.755292 1.200342 0.059845 -0.013453 -102374.000000 0 0 1
36.141772 -32.920895 17.764425 52.015265 -0.738795 1.222259 0.069046 -0.007393 113618.000000 0 0 1
36.718362 33.944408 17.390725 52.942405 0.746162 1.236098 0.061469 -0.003800 -577666.000000 0 0 1
-36.243195 -33.917095 16.539225 52.320975 0.752256 1.249169 0.070365 -0.018186 -1055600.000000 0 0 1
-35.167617 -33.309295 17.158825 51.387700 0.758267 1.230349 0.055829 -0.017516 183956.000000 0 0 1
-33.999405 -33.171795 16.336525 50.231559 0.773078 1.239547 0.085246 -0.025624 554598.000000 0 0 1
-32.857335 -32.360895 17.022225 49.158805 0.777786 1.217204 0.080048 -0.023702 -484021.000000 0 0 1
-31.661755 -32.235195 16.364025 48.055757 0.794372 1.223325 0.094080 -0.028617 -930259.000000 0 0 1
-31.710815 -31.229695 15.352225 47.080361 0.777754 1.238637 0.099890 -0.035004 545541.000000 0 0 1
-30.440265 -31.154795 14.409525 45.878812 0.796998 1.251311 0.075533 -0.038001 948052.000000 0 0 1
-29.203875 -30.836695 14.992125 45.039226 0.812587 1.231453 0.071782 -0.038015 -142773.000000 0 0 1
-28.157095 -30.832395 14.023925 44.046896 0.830719 1.246770 0.054174 -0.022113 757982.000000 0 0 1
-26.785415 -30.531695 14.695925 43.192743 0.850666 1.223624 0.056323 -0.028449 526230.000000 0 0 1
-25.755405 -30.248595 13.767125 42.045833 0.865456 1.237213 0.049900 -0.022616 269831.000000 0 0 1
-24.535835 -29.873095 14.440625 41.266701 0.883181 1.213296 0.054811 -0.023529 1319570.000000 0 0 1
-23.310235 -29.910395 13.433325 40.230001 0.908783 1.230344 0.040677 -0.022447 643350.000000 0 0 1
-22.969035 -31.216895 13.134925 40.921844 0.936453 1.244037 0.040064 -0.026974 -872589.000000 0 0 1
-21.743935 -31.285795 12.501125 40.098351 0.963427 1.253750 0.024917 -0.025249 -453636.000000 0 0 1
-21.282135 -32.759795 12.277525 40.949616 0.994673 1.266292 0.014243 -0.017839 140392.000000 0 0 1
-22.132835 -33.205995 11.248425 41.461157 0.982887 1.296053 0.010852 -0.019143 228810.000000 0 0 1
-22.125235 33.453008 11.156425 41.630465 -0.986461 1.299493 0.023490 -0.007872 -119937.000000 0 0 1
-23.108835 32.883308 10.132525 41.448743 -0.958225 1.323834 0.026496 0.001357 -125345.000000 0 0 1
-22.751035 33.311908 8.808725 41.290271 -0.971592 1.355807 0.019020 0.004508 643007.000000 0 0 1
-23.846935 32.898708 7.984425 41.409568 -0.943580 1.376765 0.043288 0.000914 -89706.300000 0 0 1
-23.746235 33.281908 6.505725 41.399197 -0.951075 1.412996 0.048118 0.001935 -367382.000000 0 0 1
-22.877835 32.532308 5.598425 40.163276 -0.957903 1.430949 0.029864 0.006966 712549.000000 0 0 1
-21.483835 32.534408 5.847025 39.423731 -0.987185 1.421935 0.019837 0.002366 -233196.000000 0 0 1
-20.825535 33.886208 5.558025 40.160548 -1.019731 1.431956 0.015648 0.004981 -1144210.000000 0 0 1
-20.965035 -33.097695 6.468325 39.709310 1.006159 1.407175 0.014861 -0.005818 185514.000000 0 0 1
-20.296335 -33.239195 7.735225 39.706662 1.022609 1.374733 0.018816 -0.007502 -287852.000000 0 0 1
-20.331035 -32.046395 8.728725 38.942432 1.005448 1.344731 0.025179 -0.020481 -619200.000000 0 0 1
-19.576235 -30.945095 8.309725 37.548361 1.006742 1.347642 0.050798 -0.032304 -199494.000000 0 0 1
-19.494835 -29.843595 9.255225 36.828629 0.992151 1.316768 0.058034 -0.031865 87103.400000 0 0 1
-18.718935 -30.079595 10.610625 36.983319 1.014131 1.279804 0.037976 -0.021225 -347522.000000 0 0 1
-17.378135 -30.368195 10.346325 36.486618 1.051033 1.283287 0.054251 -0.038106 -612086.000000 0 0 1
-16.639435 -30.484895 11.564625 36.605193 1.071164 1.249361 0.073177 -0.036993 -227574.000000 0 0 1
-15.286935 -31.183895 11.452325 36.568859 1.115004 1.252266 0.073687 -0.036542 -237298.000000 0 0 1
-14.303835 -30.302595 10.932325 35.247165 1.129771 1.255433 0.072995 -0.031445 -48871.900000 0 0 1
-13.220035 -31.068395 10.442225 35.341966 1.168490 1.270857 0.071229 -0.023245 -53690.500000 0 0 1
-12.036935 -30.396695 9.748125 34.115580 1.193747 1.281020 0.088473 -0.026136 -159786.000000 0 0 1
-11.273435 -29.637195 10.635825 33.445096 1.207316 1.247168 0.094109 -0.032746 -1347630.000000 0 0 1
-10.153035 -29.146395 10.021625 32.450415 1.235596 1.256835 0.089130 -0.031578 -560538.000000 0 0 1
-9.178535 -28.476195 11.046625 31.893057 1.258988 1.217103 0.083418 -0.025915 145124.000000 0 0 1
-9.612035 -27.254095 11.638625 31.155007 1.231734 1.187940 0.077317 -0.035529 -600570.000000 0 0 1
-8.974235 -26.987395 12.840025 31.204529 1.249765 1.146720 0.062562 -0.023914 -55784.500000 0 0 1
-9.335335 -25.613095 13.465025 30.405361 1.221285 1.112021 0.060611 -0.032686 498655.000000 0 0 1
-8.774335 -24.494895 12.729125 28.965832 1.226826 1.115807 0.051872 -0.034121 169774.000000 0 0 1
-9.580135 -24.141695 11.619525 28.453713 1.193026 1.150133 0.052631 -0.029537 238939.000000 0 0 1
-9.052535 -22.811795 10.977625 26.885584 1.193021 1.150196 0.056283 -0.033898 168762.000000 0 0 1
-7.885635 -22.964595 10.194525 26.334088 1.240029 1.173287 0.044157 -0.034231 -314451.000000 0 0 1
-7.485135 -21.747295 9.650225 24.941911 1.239310 1.173520 0.049971 -0.029278 -81069.100000 0 1 0
-6.187735 -21.916395 8.837825 24.427926 1.295625 1.200607 0.042797 -0.031488 635162.000000 0 1 0
-5.018135 -22.344495 9.540625 24.808903 1.349881 1.176060 0.027270 -0.032899 -232839.000000 0 1 0
-3.947735 -22.629595 8.699325 24.563416 1.398084 1.208783 0.033355 -0.030783 340190.000000 0 1 0
-2.849335 -23.376195 9.566325 25.418099 1.449504 1.184933 0.046307 -0.027504 310757.000000 0 0 1
-1.940035 -22.595595 10.282125 24.900738 1.485147 1.145134 0.048362 -0.023885 -492775.000000 0 1 0
-0.920435 -23.413895 10.816525 25.808039 1.531505 1.138326 0.062332 -0.031713 188347.000000 0 0 1
-0.068735 -22.672195 11.891525 25.601592 1.567765 1.087745 0.076017 -0.026555 -370004.000000 0 0 1
-0.742035 -22.436295 13.091125 25.986833 1.537735 1.042850 0.069021 -0.027772 20143.400000 0 0 1
0.073565 -21.966495 14.202225 26.157896 -1.567447 0.996860 0.093029 -0.033840 704032.000000 0 0 1
0.897665 -20.645995 14.049025 24.988758 -1.527345 0.973736 0.079346 -0.036379 641772.000000 0 1 0
1.907465 -20.568895 13.025425 24.420884 -1.478325 1.008214 0.084492 -0.043540 119311.000000 0 1 0
2.351565 -19.224795 12.921525 23.282792 -1.449082 0.982455 0.072934 -0.037555 1102660.000000 0 1 0
3.906265 -19.128295 12.678625 23.278705 -1.369352 0.994831 0.086625 -0.034177 975403.000000 0 1 0
4.336165 -19.676895 11.462025 23.181038 -1.353895 1.053586 0.076240 -0.026052 -42099.500000 0 1 0
5.725765 -20.010495 11.392525 23.727493 -1.292105 1.069982 0.100182 -0.023932 541344.000000 0 1 0
6.084465 -20.641795 10.075225 23.761620 -1.284150 1.132925 0.085446 -0.036277 -550649.000000 0 1 0
6.181665 -19.815995 8.925125 22.595232 -1.268410 1.164728 0.080112 -0.036472 -435852.000000 0 1 0
6.303865 -20.594595 7.762425 22.893914 -1.273759 1.224878 0.076807 -0.042162 -15530.900000 0 1 0
7.659565 -21.351395 7.579025 23.916367 -1.226358 1.248340 0.082570 -0.029704 -40539.100000 0 1 0
8.750765 -20.648695 7.005525 23.495146 -1.169949 1.268022 0.088351 -0.030758 154396.000000 0 1 0
9.355665 -19.603495 7.796025 23.078204 -1.125518 1.226208 0.091205 -0.023101 -126651.000000 0 1 0
10.116065 -20.081395 9.045725 24.236797 -1.104151 1.188316 0.068217 -0.016740 -284834.000000 0 1 0
9.280065 -20.278395 10.183425 24.516016 -1.141613 1.142438 0.082944 -0.024382 -316430.000000 0 1 0
9.844865 -19.611195 11.321525 24.692049 -1.105548 1.094480 0.071136 -0.019599 406612.000000 0 1 0
9.074265 -19.854695 12.664225 25.237547 -1.142109 1.045117 0.086078 -0.022732 -73090.000000 0 0 1
9.237565 -21.187095 13.221725 26.627798 -1.159646 1.051190 0.077676 -0.021335 -541996.000000 0 0 1
8.581665 -21.447695 14.427125 27.235832 -1.190186 1.012536 0.095694 -0.015810 42886.400000 0 0 1
8.646965 -22.916495 14.924325 28.682246 -1.209989 1.023555 0.090287 -0.025374 492973.000000 0 0 1
7.974365 -23.771395 13.964525 28.699785 -1.247132 1.062634 0.096106 -0.024683 -28589.600000 0 0 1
8.008765 -25.147495 14.311525 30.022601 -1.262480 1.073909 0.103089 -0.020194 185719.000000 0 0 1
8.120665 -26.200595 13.175225 30.430296 -1.270244 1.123018 0.109019 -0.028552 1283030.000000 0 0 1
9.427565 -26.386495 12.569725 30.710325 -1.227644 1.149110 0.110553 -0.025064 849851.000000 0 0 1
9.388965 -27.567395 11.779725 31.414580 -1.242536 1.186425 0.112005 -0.020357 315071.000000 0 0 1
10.784765 -28.077995 11.334025 32.142574 -1.204071 1.210430 0.108283 -0.022332 18538.900000 0 0 1
11.599265 -28.642195 12.318025 33.266380 -1.186012 1.191481 0.092551 -0.014182 586172.000000 0 0 1
12.901365 -28.874395 11.724025 33.728751 -1.150598 1.215789 0.117247 -0.018808 743012.000000 0 0 1
13.792465 -29.615495 12.725525 35.060642 -1.134949 1.199356 0.096187 -0.019982 -767344.000000 0 0 1
14.328965 -28.774095 13.722625 34.951083 -1.108765 1.167314 0.083476 -0.012163 10614.700000 0 0 1
15.345365 -29.355895 14.476925 36.150106 -1.089126 1.158770 0.074319 -0.008322 370068.000000 0 0 1
16.784165 -29.663495 13.971325 36.835161 -1.055889 1.181764 0.072987 -0.007808 187829.000000 0 0 1
17.624265 -28.492695 14.058425 36.333011 -1.016846 1.173494 0.069576 -0.014225 161394.000000 0 0 1
18.733365 -28.690295 13.210125 36.723009 -0.992349 1.202825 0.042153 -0.003075 -543573.000000 0 0 1
19.701465 -27.518595 13.254725 36.347057 -0.949457 1.197517 0.025834 -0.003687 286202.000000 0 0 1
20.962565 -27.889895 12.652825 37.112927 -0.926260 1.222893 0.018329 -0.003136 572016.000000 0 0 1
21.712365 -26.710495 12.470525 36.611355 -0.888252 1.223221 0.017660 -0.010510 178484.000000 0 0 1
23.027365 -27.002395 11.668725 37.357035 -0.864685 1.253123 0.030272 -0.004413 840370.000000 0 0 1
23.982265 -27.739495 12.439425 38.721673 -0.857914 1.243745 0.031109 -0.011062 -533044.000000 0 0 1
25.071365 -28.164895 11.724425 39.487932 -0.843442 1.269340 0.019683 -0.013546 -848056.000000 0 0 1
26.281265 -28.804995 12.456425 40.934034 -0.831180 1.261588 0.030467 -0.009233 441453.000000 0 0 1
27.138865 -27.941795 13.198925 41.127528 -0.799974 1.244088 0.020259 -0.006461 610948.000000 0 0 1
28.271465 -27.594995 12.374225 41.399045 -0.773290 1.267255 0.015062 -0.006322 -18993.300000 0 0 1
29.363765 -26.970595 13.282925 42.024752 -0.742942 1.249208 0.052264 -0.016438 -286157.000000 0 0 1
29.223365 -25.606995 13.720425 41.206472 -0.719538 1.231347 0.060599 -0.017376 -207668.000000 0 0 1
28.476965 -25.407995 14.889425 40.965824 -0.728506 1.198817 0.063650 -0.017450 -631201.000000 0 0 1
29.307065 -25.300795 16.229425 41.981288 -0.712165 1.173868 0.066682 -0.013643 -8919.270000 0 0 1
29.826665 -26.551995 16.657925 43.268058 -0.727380 1.175595 0.075816 -0.008078 -264944.000000 0 0 1
30.428965 -26.271195 17.872025 43.994396 -0.712200 1.152467 0.096553 0.000233 -186824.000000 0 0 1
30.769465 -27.614795 18.585425 45.329405 -0.731418 1.148333 0.099778 -0.004298 -1839.310000 0 0 1
29.668165 -28.326195 19.123125 45.257787 -0.762263 1.134553 0.072004 -0.006317 -33072.200000 0 0 1
30.029865 -29.365195 20.026825 46.531508 -0.774208 1.125868 0.088660 -0.004652 234225.000000 0 0 1
28.757965 -30.134395 20.453825 46.405402 -0.808766 1.114347 0.079965 -0.015533 -60585.000000 0 0 1
27.740065 -29.374995 21.182825 45.619224 -0.814016 1.087907 0.093994 -0.010796 1164880.000000 0 0 1
26.638165 -30.208495 21.556625 45.681868 -0.848122 1.079368 0.106920 -0.017930 478807.000000 0 0 1
25.666665 -30.578295 20.413525 44.838843 -0.872503 1.098127 0.111925 -0.026293 -1003470.000000 0 0 1
26.221165 -31.532395 19.515725 45.417012 -0.877104 1.126635 0.089798 -0.023712 -469822.000000 0 0 1
25.478665 -31.747495 18.354225 44.653593 -0.894508 1.147206 0.086751 -0.018731 -433324.000000 0 0 1
25.910065 -30.934295 17.138925 43.840676 -0.873555 1.169147 0.076402 -0.009761 873670.000000 0 0 1
27.126465 -31.409995 16.500625 44.662104 -0.858445 1.192374 0.076147 -0.021394 861622.000000 0 0 1
27.849865 -30.382195 15.842425 44.155127 -0.828858 1.203825 0.075084 -0.031406 860824.000000 0 0 1
29.155365 -30.924095 15.133725 45.115015 -0.814829 1.228716 0.077046 -0.027511 503538.000000 0 0 1
28.909865 -31.820395 14.047325 45.228809 -0.833287 1.254989 0.080522 -0.021573 333872.000000 0 0 1
28.464265 -33.179195 14.397525 46.025668 -0.861737 1.252641 0.036707 -0.025501 -289693.000000 0 0 1
27.687865 -33.910695 13.323525 45.761003 -0.886079 1.275363 0.060617 -0.028544 -303726.000000 0 0 1
28.365565 33.929708 12.084425 45.846088 0.874481 1.304058 0.074017 -0.029585 143411.000000 0 0 1
27.690165 32.962308 11.319625 44.512840 0.872104 1.313672 0.075318 -0.030072 -592507.000000 0 0 1
28.434165 32.463808 10.065425 44.313806 0.851472 1.341657 0.069796 -0.028690 239989.000000 0 0 1
29.648265 31.789808 10.419025 44.700868 0.820241 1.335549 0.081842 -0.037949 511352.000000 0 0 1
29.932865 30.850508 9.381825 43.997147 0.800494 1.355909 0.084507 -0.043738 -517348.000000 0 0 1
31.421665 30.505008 9.302425 44.770657 0.770597 1.361492 0.076799 -0.041057 -243711.000000 0 0 1
31.783965 29.701508 10.436825 44.736198 0.751542 1.335329 0.064348 -0.035463 291781.000000 0 0 1
33.182065 29.586108 10.662525 45.717357 0.728171 1.335401 0.082238 -0.029200 409738.000000 0 0 1
33.511065 28.766908 11.931125 45.747987 0.709368 1.306944 0.079948 -0.024623 -40924.600000 0 0 1
33.290265 27.353008 11.771525 44.665396 0.687805 1.304097 0.070368 -0.020905 203765.000000 0 0 1
33.304565 26.664708 13.010825 44.603613 0.675126 1.274794 0.079373 -0.025910 -9616.180000 0 0 1
33.045865 25.137508 12.832425 43.457965 0.650305 1.271044 0.065528 -0.022785 1045710.000000 0 0 1
34.199465 24.568008 12.146025 43.825979 0.622951 1.289978 0.078539 -0.013550 904971.000000 0 0 1
34.168665 23.188608 12.059625 43.019110 0.596254 1.286657 0.073669 -0.018076 -616106.000000 0 0 1
33.091365 22.530208 11.204725 41.571560 0.597757 1.297893 0.073564 -0.012916 -1341120.000000 0 0 1
31.959365 22.394908 11.952025 40.814016 0.611216 1.273599 0.078800 -0.017781 -1005340.000000 0 0 1
30.840165 22.163308 11.094625 39.565373 0.623134 1.286572 0.069803 -0.010026 382137.000000 0 0 1
29.501365 21.870608 11.802325 38.573941 0.637937 1.259843 0.058342 0.000673 227193.000000 0 0 1
28.873365 22.972608 12.440325 38.938075 0.672073 1.245605 0.064092 -0.001718 1431200.000000 0 0 1
27.789665 22.597008 13.388425 38.237942 0.682705 1.213082 0.096308 -0.007095 1227300.000000 0 0 1
24.420865 9.042408 25.782643 36.645443 0.354621 0.790387 0.049535 -0.006342 -98979.800000 0 0 1
24.160165 7.719808 26.335003 36.562842 0.309273 0.766609 0.053386 -0.008565 1341640.000000 0 0 1
22.744665 7.461108 26.517383 35.723375 0.316977 0.734303 0.044007 -0.003645 1089590.000000 0 0 1
22.472865 6.245008 27.444193 36.016850 0.271052 0.704428 0.061614 -0.002189 -106995.000000 0 0 1
22.620465 6.446408 28.851053 37.223982 0.277622 0.683976 0.068729 -0.003852 607914.000000 0 0 1
23.977265 6.350208 29.281233 38.374796 0.258899 0.702804 0.069540 -0.014273 315721.000000 0 0 1
24.050865 6.476808 30.802573 39.613024 0.263056 0.679977 0.074006 -0.018251 -86883.500000 0 0 1
23.850665 7.687008 31.386313 40.162731 0.311786 0.673764 0.084189 -0.019570 92062.700000 0 0 1
23.791765 7.637808 32.818640 41.248605 0.310635 0.650749 0.088134 -0.023283 -23876.100000 0 0 1
24.109265 9.011708 33.477423 42.228017 0.357706 0.655444 0.100602 -0.022802 307188.000000 0 0 1
25.440065 9.485308 33.335329 42.993164 0.356884 0.683506 0.085644 -0.023530 -19486.400000 0 0 1
25.785965 10.249908 -33.487895 43.490409 0.378349 2.449648 0.096232 -0.013326 284976.000000 0 0 1
27.055565 11.131008 -33.635475 44.578561 0.390306 2.425721 0.065916 -0.013236 172470.000000 0 0 1
26.863765 12.363908 33.610457 44.768191 0.431341 0.721575 0.053661 -0.017485 300809.000000 0 0 1
26.409765 13.399308 -33.442165 44.669851 0.469520 2.416822 0.047345 -0.015522 -453465.000000 0 0 1
26.087965 14.716908 33.740904 45.117822 0.513624 0.725994 0.041812 -0.009085 -330947.000000 0 0 1
27.244865 15.305308 33.179699 45.578806 0.511834 0.755450 0.029783 -0.009426 394824.000000 0 0 1
26.942865 16.731408 33.093167 45.836838 0.555715 0.764140 0.039602 -0.019089 -67144.600000 0 0 1
27.522465 17.643808 -33.760555 46.995373 0.570071 2.372268 0.031121 -0.022014 -362870.000000 0 0 1
27.045365 17.516408 -32.449835 45.730385 0.574734 2.359713 0.029560 -0.026465 170016.000000 0 0 1
27.945265 16.800408 -31.602415 45.408195 0.541294 2.340556 0.022013 -0.020007 84246.700000 0 0 1
27.199265 16.233608 -30.365655 43.879415 0.538093 2.335087 0.029158 -0.011673 -18810.600000 0 0 1
26.494865 15.076508 -30.622105 43.208706 0.517340 2.358453 0.041579 -0.001991 -237888.000000 0 0 1
25.666965 14.602208 -29.573635 41.792553 0.517246 2.356934 0.074261 -0.016451 311556.000000 0 0 1
24.770365 13.463408 -30.125415 41.259847 0.497861 2.389321 0.090114 -0.015512 -901212.000000 0 0 1
23.854165 13.773408 -31.129325 41.566367 0.523636 2.417207 0.081302 -0.015795 -244160.000000 0 0 1
23.271565 12.626208 -31.645245 41.260252 0.497113 2.444897 0.079511 -0.017232 -93794.400000 0 0 1
22.257165 11.764408 -30.808015 39.785883 0.486239 2.456476 0.086502 -0.013117 264399.000000 0 0 1
21.014865 12.395408 -30.478545 39.041163 0.532915 2.466545 0.095961 -0.017074 722829.000000 0 0 1
20.264965 11.518908 -29.636535 37.705149 0.516871 2.475121 0.092732 -0.008123 382081.000000 0 0 1
19.022065 12.209408 -28.990115 36.760514 0.570628 2.479359 0.085635 0.002469 395015.000000 0 0 1
17.966965 12.405408 -29.906105 37.028112 0.604292 2.510968 0.053447 0.000138 626696.000000 0 0 1
16.766365 12.832908 -29.244105 36.069547 0.653282 2.516263 0.051575 -0.008921 302926.000000 0 0 1
15.581965 13.285308 -30.121825 36.422814 0.706006 2.544554 0.055448 -0.016202 1193.130000 0 0 1
14.964365 12.154108 -30.673525 36.228714 0.682138 2.580480 0.056146 -0.009273 368378.000000 0 0 1
13.665765 11.899008 -30.113025 35.144470 0.716399 2.599896 0.063774 -0.013680 286670.000000 0 0 1
12.716865 11.157208 -31.043575 35.354002 0.720162 2.642627 0.078681 -0.011843 -120061.000000 0 0 1
12.348265 11.993908 -32.145355 36.464466 0.770842 2.649938 0.084219 -0.013575 359729.000000 0 0 1
11.313365 11.408608 -32.950825 36.659316 0.789590 2.687910 0.097992 -0.009078 667381.000000 0 0 1
10.655765 12.337508 33.930293 37.643382 0.858409 0.447893 0.115344 -0.011973 -137900.000000 0 0 1
11.548865 12.665808 32.890060 37.088476 0.831492 0.480422 0.085307 -0.002997 184772.000000 0 0 1
10.984165 13.236308 31.672483 36.041613 0.878117 0.497506 0.099311 -0.014245 -414549.000000 0 0 1
11.984365 13.293808 30.527853 35.387853 0.837153 0.530281 0.090918 -0.007764 -381895.000000 0 0 1
12.296265 11.995808 30.142653 34.694049 0.773030 0.517996 0.073668 -0.005455 50760.300000 0 0 1
12.430465 11.859808 28.729263 33.474498 0.761909 0.538959 0.072890 -0.004942 -276506.000000 0 0 1
13.010365 10.509808 28.318823 32.888925 0.679481 0.533477 0.063120 -0.004648 80911.900000 0 0 1
12.143965 9.372808 28.476423 32.345511 0.657313 0.494128 0.082679 -0.014687 755276.000000 0 0 1
12.812465 8.218308 27.932803 31.811025 0.570327 0.498950 0.039600 -0.015030 67573.200000 0 0 1
11.981665 6.952708 28.135513 31.360924 0.525793 0.457517 0.051908 -0.014241 423455.000000 0 0 1
10.666265 6.992708 27.578083 30.384500 0.580296 0.433178 0.068302 -0.019844 1275380.000000 0 0 1
9.751465 5.859408 27.818313 30.054654 0.541062 0.388203 0.055406 -0.025295 748106.000000 0 0 1
10.172565 4.472008 27.152543 29.338379 0.414184 0.388454 0.041116 -0.015925 -56391.600000 0 0 1
11.179065 3.775508 27.862703 30.258159 0.325703 0.400586 0.031967 -0.013724 282550.000000 0 0 1
11.305865 2.510308 27.273393 29.630427 0.218491 0.401560 0.022132 -0.011876 -329114.000000 0 0 1
11.859665 1.411508 28.182363 30.608652 0.118460 0.400844 0.013978 -0.012446 -153466.000000 0 0 1
10.856265 1.023508 29.083453 31.060478 0.094000 0.358714 0.020096 -0.011434 -2538.330000 0 0 1
11.271865 0.017608 30.049573 32.094113 0.001562 0.358867 0.024046 -0.016953 -95723.200000 0 0 1
10.115965 -0.290992 30.996053 32.606329 -0.028758 0.315586 0.042648 -0.015876 -151563.000000 0 0 1
10.078465 0.752508 31.980727 33.539657 0.074527 0.306088 0.031003 -0.019300 -9420.570000 0 0 1
8.770365 0.905108 32.491871 33.666900 0.102837 0.264978 0.044009 -0.025305 -102449.000000 0 0 1
8.745465 2.093708 33.449254 34.636965 0.234982 0.262633 0.031286 -0.026615 -318629.000000 0 0 1
8.781465 3.472208 33.018674 34.342440 0.376536 0.278554 0.043698 -0.025884 -125092.000000 0 0 1
9.901265 3.731308 32.198528 33.892520 0.360393 0.317501 0.030549 -0.020535 -243690.000000 0 0 1
9.841065 5.033308 31.370873 33.261275 0.472773 0.338767 0.036078 -0.019932 -49743.000000 0 0 1
10.246065 6.151808 32.151344 34.300663 0.540719 0.355884 0.036535 -0.021628 135542.000000 0 0 1
10.347465 7.341908 31.407413 33.873282 0.617098 0.383921 0.048682 -0.020681 -525344.000000 0 0 1
10.701165 8.438708 32.369905 35.121752 0.667738 0.398489 0.077886 -0.027909 42459.300000 0 0 1
9.665565 9.064108 33.125311 35.677267 0.753297 0.380522 0.107717 -0.037025 321054.000000 0 0 1
8.954865 8.174008 -33.909465 36.011884 0.739843 2.798203 0.089139 -0.035363 397620.000000 0 0 1
7.578465 8.796708 -33.510485 35.465022 0.859657 2.808050 0.096263 -0.032838 458885.000000 0 0 1
6.928365 8.090108 -32.465055 34.167702 0.862599 2.824570 0.085714 -0.023493 -201856.000000 0 0 1
5.559165 8.426308 -32.415765 33.951271 0.987605 2.839693 0.086186 -0.030772 156246.000000 0 0 1
4.880265 7.989308 -31.087265 32.466353 1.022437 2.849081 0.082843 -0.021256 -278539.000000 0 0 1
5.450465 8.554508 -29.944075 31.615420 1.003511 2.814982 0.090058 -0.027556 -51499.300000 0 0 1
5.294565 7.790708 -28.748615 30.252445 0.973893 2.824964 0.077613 -0.024964 408670.000000 0 0 1
3.853165 7.865608 -28.130985 29.462976 1.115281 2.839752 0.083289 -0.020602 538648.000000 0 0 1
2.973665 7.047308 -28.870445 29.866533 1.171505 2.882601 0.080393 -0.017042 326440.000000 0 0 1
1.634365 7.087608 -28.344635 29.263008 1.344163 2.890400 0.108627 -0.015721 1346620.000000 0 0 1
0.587665 6.308108 -29.239625 29.918109 1.477904 2.928218 0.112398 -0.027188 361590.000000 0 0 1
0.378465 7.023708 -30.405035 31.208041 1.516964 2.914252 0.098783 -0.034229 -390523.000000 0 0 1
-0.336635 6.362508 -31.400525 32.040409 -1.517937 2.941403 0.107078 -0.028353 -720122.000000 0 0 1
-0.541835 7.192608 -32.687455 33.473824 -1.495606 2.924408 0.115680 -0.040214 -476378.000000 0 0 1
0.549765 7.882708 -33.236265 34.162679 1.501166 2.908178 0.095182 -0.037958 261632.000000 0 0 1
1.604765 7.074508 -33.817935 34.587232 1.347733 2.930286 0.099906 -0.044749 407931.000000 0 0 1
1.339565 6.614308 32.651759 33.341878 1.370974 0.203814 0.122446 -0.051804 -261431.000000 0 0 1
0.464965 5.496308 32.546495 33.010603 1.486401 0.167884 0.120409 -0.046343 -48283.700000 0 0 1
0.099765 5.103708 31.224333 31.638848 1.551251 0.162051 0.136534 -0.043574 23264.100000 0 0 1
1.167365 4.315308 30.426243 30.752900 1.306602 0.145883 0.138292 -0.038195 34079.500000 0 0 1
0.826965 4.056808 29.077143 29.370424 1.369705 0.141437 0.122995 -0.036673 550387.000000 0 0 1
1.901765 3.419608 28.350603 28.619348 1.063255 0.137150 0.106766 -0.026178 542622.000000 0 0 1
2.013665 3.790708 26.832113 27.173270 1.082493 0.158627 0.115974 -0.020405 15669.100000 0 0 1
2.308265 5.138408 26.692583 27.280493 1.148593 0.207983 0.114455 -0.020730 17482.600000 0 0 1
2.210865 5.597608 25.351723 26.056304 1.194637 0.233081 0.087379 -0.009142 -254527.000000 0 0 1
2.798465 7.014208 25.097973 26.209516 1.191177 0.292278 0.100389 -0.008482 736069.000000 0 0 1
4.216365 7.164408 25.008983 26.354424 1.038864 0.320912 0.086186 -0.006842 702906.000000 0 0 1
4.832465 6.942708 23.724803 25.187699 0.962727 0.342493 0.058117 -0.003715 1391050.000000 0 0 1
6.418765 7.056908 23.616223 25.470109 0.832718 0.383894 0.059827 -0.005625 1605810.000000 0 0 1
7.211065 6.103908 24.302533 26.074322 0.702438 0.370770 0.065559 -0.013344 -169557.000000 0 0 1
7.098965 4.714108 24.143593 25.603343 0.586193 0.339306 0.071752 -0.016202 -941202.000000 0 0 1
7.245965 4.074408 22.724613 24.197372 0.512238 0.350691 0.060029 -0.018948 339966.000000 0 1 0
6.157265 4.379708 21.877813 23.145895 0.618275 0.332548 0.044592 -0.022258 161893.000000 0 1 0
4.936365 3.652008 22.063213 22.901751 0.636952 0.271442 0.032710 -0.016774 151763.000000 0 1 0
3.956965 4.002008 20.953513 21.696159 0.791057 0.262399 0.016242 -0.013757 -425710.000000 0 1 0
3.480665 5.292808 21.164113 22.091820 0.989082 0.290828 0.011464 -0.011081 -320180.000000 0 1 0
2.307065 5.451708 20.400513 21.242048 1.170466 0.282421 0.019591 -0.009779 -292812.000000 0 1 0
1.694965 6.894308 20.430213 21.628638 1.329727 0.334451 0.029976 -0.011448 163687.000000 0 1 0
2.597965 7.807008 19.852813 21.490299 1.249550 0.392898 0.024234 -0.011681 -320178.000000 0 1 0
2.125865 9.118908 19.924313 22.014814 1.341760 0.439320 0.041228 -0.016186 175254.000000 0 1 0
3.060765 10.217608 19.355713 22.100032 1.279745 0.503658 0.051675 -0.023397 -598043.000000 0 1 0
2.977965 10.364208 17.936213 20.928278 1.291002 0.541314 0.019259 -0.023122 -415229.000000 0 1 0
3.746365 11.409508 17.454113 21.186273 1.253533 0.602643 0.025834 -0.026080 -121518.000000 0 1 0
5.286065 11.353608 17.613613 21.612178 1.135058 0.618092 0.034747 -0.024751 -806498.000000 0 1 0
5.924265 10.437608 16.829413 20.670503 1.054550 0.619489 0.031807 -0.025715 647327.000000 0 1 0
7.276265 10.226808 17.328113 21.396148 0.952401 0.626865 0.037381 -0.011628 981509.000000 0 1 0
7.335765 8.783608 17.932013 21.272572 0.874978 0.568027 0.039224 -0.011599 -134613.000000 0 1 0
6.620165 8.552308 19.127113 21.973052 0.912062 0.514619 0.043703 -0.014450 -246280.000000 0 1 0
6.411465 7.176008 19.454413 21.704289 0.841607 0.459353 0.032384 -0.026372 171237.000000 0 1 0
7.681265 6.348408 19.795913 22.162632 0.690680 0.466359 0.062527 -0.028079 399589.000000 0 1 0
8.560365 6.128308 18.712313 21.470600 0.621313 0.512478 0.049841 -0.027170 -159824.000000 0 1 0
9.816165 5.571808 19.030713 22.126233 0.516267 0.535336 0.055002 -0.025148 62224.800000 0 1 0
9.924965 3.998308 19.143913 21.931274 0.382964 0.509672 0.054746 -0.021512 -406228.000000 0 1 0
9.379165 3.324108 20.260313 22.572078 0.340602 0.456541 0.078079 -0.026822 21032.700000 0 1 0
9.645565 1.965808 20.146613 22.422920 0.201051 0.454495 0.074220 -0.033245 -154785.000000 0 1 0
8.789165 0.999808 20.982213 22.770645 0.113268 0.398977 0.068006 -0.029243 -439453.000000 0 1 0
9.271365 1.032708 22.300913 24.173444 0.110930 0.396191 0.075671 -0.021945 198057.000000 0 1 0
8.703965 0.010908 23.140103 24.722934 0.001253 0.359772 0.071231 -0.024199 -606746.000000 0 1 0
9.173165 0.052408 24.570433 26.227006 0.005713 0.357321 0.067235 -0.013487 -408404.000000 0 0 1
10.547865 -0.113092 24.791733 26.942536 -0.010721 0.402280 0.056808 -0.020683 -169046.000000 0 0 1
10.870365 -1.550192 24.772583 27.097025 -0.141652 0.417223 0.047225 -0.021231 -86004.900000 0 0 1
12.348065 -1.959792 24.986943 27.940344 -0.157400 0.463940 0.034519 -0.018477 170195.000000 0 0 1
12.422465 -3.386692 24.973643 28.097511 -0.266158 0.476032 0.038251 -0.015347 304397.000000 0 0 1
13.696065 -3.945892 25.291023 29.030813 -0.280508 0.513199 0.041765 -0.012089 255176.000000 0 0 1
13.590165 -5.464292 25.401033 29.321725 -0.382296 0.523075 0.041753 -0.009041 -55750.600000 0 0 1
13.273065 -6.177292 24.186583 28.272318 -0.435587 0.544307 0.038444 -0.006903 267257.000000 0 0 1
13.210465 -7.628092 24.361763 28.743689 -0.523657 0.559441 0.044523 -0.010326 -47616.500000 0 0 1
12.861065 -8.268792 23.012273 27.628692 -0.571391 0.586447 0.053097 -0.012035 9219.160000 0 0 1
12.511765 -9.659392 23.202873 28.075281 -0.657449 0.598020 0.057176 -0.006412 -232684.000000 0 0 1
12.635665 -10.379792 21.994213 27.407034 -0.687695 0.639319 0.063366 -0.011806 33404.300000 0 0 1
11.966665 -11.759492 22.111613 27.756263 -0.776667 0.649089 0.077128 -0.015837 171998.000000 0 0 1
10.559465 -11.788392 22.189013 27.254738 -0.840334 0.619560 0.059801 -0.016431 -311726.000000 0 0 1
10.034865 -13.142392 22.264313 27.733024 -0.918680 0.638805 0.065222 -0.017512 12547.900000 0 0 1
8.563265 -13.020892 22.689013 27.525705 -0.989058 0.601859 0.043369 -0.016899 -75323.000000 0 0 1
7.718165 -12.387492 21.750813 26.193852 -1.013592 0.591010 0.039401 -0.025849 142638.000000 0 0 1
6.350365 -12.395992 22.160913 26.174296 -1.097364 0.561106 0.036628 -0.026499 867929.000000 0 0 1
5.572765 -11.358792 21.295613 24.770567 -1.114687 0.536086 0.041688 -0.018624 106977.000000 0 1 0
5.981665 -10.042392 21.678513 24.629004 -1.033588 0.494508 0.049641 -0.013907 -208658.000000 0 1 0
5.171265 -9.071692 21.068513 23.514247 -1.052694 0.460142 0.037888 -0.013215 61879.500000 0 1 0
5.513665 -7.620192 21.569913 23.531446 -0.944433 0.411200 0.051114 -0.025285 -139236.000000 0 1 0
4.892365 -6.591492 20.908513 22.462166 -0.932290 0.374112 0.038838 -0.025581 -500662.000000 0 1 0
5.343365 -5.390092 21.490713 22.791564 -0.789751 0.339492 0.052345 -0.031068 138009.000000 0 1 0
-8.156735 -15.116392 -19.983375 26.350956 1.075976 2.431582 0.047512 -0.021692 -441472.000000 0 0 1
-7.283335 -14.749692 -18.993875 25.127030 1.112124 2.427845 0.024187 -0.027763 -571540.000000 0 0 1
-6.602535 -13.567092 -19.409275 24.584129 1.117879 2.480797 0.037592 -0.034796 -147636.000000 0 1 0
-5.743535 -13.008392 -18.286575 23.164742 1.155012 2.480650 0.026065 -0.034004 -63245.500000 0 1 0
-4.807135 -13.964792 -17.850875 23.168463 1.239269 2.450393 0.023400 -0.024025 -388272.000000 0 1 0
-3.963735 -13.618792 -16.822675 22.004206 1.287572 2.441094 0.017841 -0.022917 199228.000000 0 1 0
-2.987335 -14.765292 -16.389075 22.260723 1.371170 2.398283 0.025553 -0.002735 -286039.000000 0 1 0
-2.004435 -15.140692 -17.263875 23.049939 1.439174 2.417313 0.022857 -0.001750 -767252.000000 0 1 0
-1.157935 -16.096992 -16.629675 23.173261 1.498985 2.371180 0.028554 0.009206 302064.000000 0 1 0
0.022565 -16.587592 -17.584775 24.173808 -1.569436 2.385367 0.028602 0.018112 578407.000000 0 1 0
-0.311135 -17.026692 -18.901875 25.441814 1.552525 2.408256 0.045201 -0.010418 -433452.000000 0 0 1
-0.712735 -18.365592 -18.821275 26.306716 1.532008 2.368072 0.042522 0.005652 -350396.000000 0 0 1
-1.431835 -18.784092 -20.153275 27.587075 1.494718 2.389899 0.049500 -0.016051 -493129.000000 0 0 1
-2.800835 -18.497592 -20.057575 27.428304 1.420522 2.390983 0.062222 -0.023244 -828093.000000 0 0 1
-3.356135 -18.516992 -21.315375 28.433920 1.391497 2.418323 0.032338 -0.029392 92545.900000 0 0 1
-4.120035 -17.201292 -21.743775 28.029464 1.335706 2.458694 0.041157 -0.034278 -109012.000000 0 0 1
-3.314935 -16.051292 -21.793675 27.268975 1.367138 2.496778 0.038661 -0.029896 -238815.000000 0 0 1
-3.155135 -15.504692 -20.479475 25.879707 1.370042 2.483783 0.038688 -0.028173 -188147.000000 0 0 1
-2.085035 -14.408092 -20.502875 25.145742 1.427081 2.524150 0.042650 -0.027852 -842406.000000 0 0 1
-2.405235 -13.252492 -21.299575 25.200904 1.391258 2.577719 0.034122 -0.045986 253677.000000 0 0 1
-1.354935 -12.274792 -21.234075 24.564045 1.460858 2.614826 0.017467 -0.029260 465868.000000 0 1 0
-1.253335 -11.314392 -22.423275 25.147357 1.460473 2.671829 0.019525 -0.026440 5560.650000 0 0 1
-2.400735 -10.483292 -22.409575 24.856628 1.345672 2.694143 0.021875 -0.030697 302458.000000 0 1 0
-2.613935 -9.998192 -23.735375 25.887536 1.315079 2.730951 0.029780 -0.028346 -811649.000000 0 0 1
-3.635035 -8.912292 -23.794475 25.667478 1.183526 2.757205 0.031277 -0.021355 -636117.000000 0 0 1
-5.001035 -9.279392 -23.753775 25.987675 1.076484 2.723931 0.056988 -0.030571 331950.000000 0 0 1
-5.799335 -8.122592 -23.766475 25.777007 0.950752 2.744018 0.057999 -0.027484 -999215.000000 0 0 1
-7.296135 -8.298692 -23.554475 26.017593 0.849598 2.702949 0.053992 -0.035275 -326126.000000 0 0 1
-8.138735 -8.616292 -24.634475 27.337462 0.813893 2.693154 0.063009 -0.031161 73014.700000 0 0 1
-8.385935 -7.537192 -25.535145 27.913738 0.732146 2.725778 0.054186 -0.031790 -479503.000000 0 0 1
-9.469235 -7.961192 -26.528845 29.271600 0.699095 2.705241 0.052952 -0.031687 48653.300000 0 0 1
-10.285535 -6.975292 -27.134415 29.844989 0.595921 2.712103 0.056008 -0.037915 340620.000000 0 0 1
-11.035735 -7.547892 -28.219735 31.226776 0.599873 2.699137 0.059667 -0.033835 239006.000000 0 0 1
-11.881835 -6.486492 -28.972025 31.978599 0.499703 2.704489 0.054726 -0.046267 262133.000000 0 0 1
-11.068735 -5.536092 -29.613255 32.095327 0.463772 2.745733 0.041468 -0.037634 183618.000000 0 0 1
-11.868735 -4.981292 -30.603545 33.200257 0.397372 2.743460 0.065877 -0.042866 486999.000000 0 0 1
-11.060035 -3.912692 -31.451555 33.568345 0.340028 2.784568 0.060481 -0.039432 41913.500000 0 0 1
-10.026335 -4.381592 -32.255675 34.061037 0.411998 2.814549 0.047416 -0.032310 -118643.000000 0 0 1
-9.355935 -3.244492 -32.835335 34.296056 0.333807 2.848685 0.035964 -0.028879 -175281.000000 0 0 1
-8.361835 -3.738592 -33.913355 35.128521 0.420441 2.877800 0.034881 -0.027145 -34468.100000 0 0 1
-7.176535 -4.290792 -33.358125 34.390086 0.538868 2.895996 0.030485 -0.027640 367291.000000 0 0 1
-6.303735 -4.694792 33.494849 34.404695 0.640141 0.230490 0.028482 -0.023496 360074.000000 0 0 1
-4.801435 -4.428492 33.697540 34.324765 0.745014 0.191464 0.047364 -0.028778 -29465.400000 0 0 1
-4.546435 -3.030192 33.755868 34.195186 0.587886 0.160468 0.066002 -0.033576 -51167.000000 0 0 1
-3.182635 -2.649992 33.754705 34.007818 0.694329 0.122082 0.065988 -0.036694 203894.000000 0 0 1
-2.966235 -1.092092 -33.901455 34.048492 0.352773 3.048624 0.073707 -0.037195 -117287.000000 0 0 1
-3.022435 -0.812392 -32.497875 32.648230 0.262581 3.045584 0.081167 -0.039549 -52134.300000 0 0 1
-3.559335 0.461708 -32.266685 32.465689 -0.128997 3.030814 0.101313 -0.040159 -670121.000000 0 0 1
-3.876335 0.586108 -30.753195 31.002072 -0.150065 3.014797 0.131441 -0.043276 1068750.000000 0 0 1
-5.053135 -0.051192 -30.189515 30.609534 0.010130 2.975741 0.098827 -0.041160 773008.000000 0 0 1
-6.274935 0.604508 -30.437005 31.082977 -0.096041 2.937364 0.100820 -0.045515 279557.000000 0 0 1
-7.507035 -0.357992 -30.390505 31.306014 0.047651 2.899157 0.079412 -0.046613 531193.000000 0 0 1
-8.025735 -0.725392 -29.081915 30.177746 0.090138 2.871280 0.073169 -0.034797 -302792.000000 0 0 1
-9.066235 -1.621292 -29.205335 30.623141 0.176957 2.836109 0.050319 -0.032439 -581922.000000 0 0 1
-9.540035 -2.376592 -27.952005 29.630643 0.244148 2.803376 0.043934 -0.032433 -234064.000000 0 0 1
-10.300235 -1.629892 -27.060885 29.000739 0.156937 2.773764 0.053830 -0.029573 29351.300000 0 0 1
-10.718735 -2.362092 -25.911215 28.140039 0.216904 2.740911 0.055416 -0.028437 311111.000000 0 0 1
-11.626835 -1.548092 -24.968675 27.586493 0.132370 2.702423 0.076036 -0.028037 280459.000000 0 0 1
-10.828235 -0.496592 -24.457775 26.752196 0.045829 2.724410 0.065885 -0.023903 375082.000000 0 0 1
-11.479935 0.116208 -23.373375 26.040681 -0.010122 2.685026 0.067197 -0.026488 -5526.900000 0 0 1
-10.713735 1.346608 -22.863475 25.285093 -0.125034 2.700363 0.071337 -0.025172 53929.000000 0 0 1
-10.825135 2.480208 -23.732275 26.202210 -0.225228 2.703908 0.063161 -0.021593 621504.000000 0 0 1
-10.058835 3.593908 -23.130975 25.478193 -0.343153 2.708980 0.077257 -0.025055 -82549.800000 0 0 1
-10.112835 4.881908 -23.979475 26.478626 -0.449748 2.703627 0.099244 -0.032426 269252.000000 0 0 1
-11.368235 5.510308 -24.230675 27.326285 -0.451342 2.660991 0.089073 -0.028557 91720.200000 0 0 1
-12.138535 4.818708 -25.159415 28.347136 -0.377897 2.662790 0.078134 -0.027054 -653230.000000 0 0 1
-13.544935 5.350408 -25.471955 29.341312 -0.376199 2.622210 0.063211 -0.013829 83428.500000 0 0 1
-13.438535 6.603708 -26.114835 30.102953 -0.456745 2.620986 0.062008 -0.021830 798862.000000 0 0 1
-14.750535 7.046508 -26.500335 31.136783 -0.445659 2.588862 0.064906 -0.020007 635942.000000 0 0 1
-14.972935 8.623808 -26.565165 31.690169 -0.522555 2.564913 0.071841 -0.019386 -174192.000000 0 0 1
-14.871735 9.239008 -25.309585 30.775036 -0.555895 2.536424 0.099229 -0.029682 97216.800000 0 0 1
-15.068335 10.652108 -25.479435 31.459875 -0.615355 2.514782 0.086625 -0.029960 -244787.000000 0 0 1
-14.745935 11.424308 -24.171075 30.531922 -0.659149 2.484327 0.090340 -0.035584 -489336.000000 0 0 1
-15.554535 11.037208 -23.107775 29.962189 -0.617128 2.451569 0.114427 -0.033078 -271227.000000 0 0 1
-15.220335 11.680108 -21.905175 29.119069 -0.654545 2.422285 0.114209 -0.037379 -638251.000000 0 0 1
-16.198935 11.468308 -20.789675 28.742619 -0.616053 2.379373 0.126312 -0.040282 -342534.000000 0 0 1
-17.405735 12.196408 -20.910875 29.815711 -0.611204 2.348068 0.109773 -0.033275 168998.000000 0 0 1
-18.052235 12.451008 -19.664075 29.454823 -0.603794 2.301778 0.112987 -0.029783 771686.000000 0 0 1
-19.565035 12.831908 -19.860475 30.690176 -0.580483 2.274608 0.100925 -0.030046 482255.000000 0 0 1
-19.816535 13.977508 -20.667775 31.862559 -0.614305 2.276611 0.088413 -0.026883 364552.000000 0 0 1
-21.206835 14.244908 -20.785475 32.934529 -0.591488 2.253786 0.060451 -0.028380 324509.000000 0 0 1
-21.452735 15.595908 -21.541275 34.168387 -0.628611 2.252922 0.060639 -0.028684 -120628.000000 0 0 1
-21.296735 15.531608 -22.958775 34.955502 -0.630118 2.287364 0.072825 -0.032839 277032.000000 0 0 1
-21.492035 16.850508 -23.497575 36.027534 -0.664930 2.281295 0.064773 -0.019837 -45653.300000 0 0 1
-21.350335 16.907608 -25.042575 36.997764 -0.669790 2.314295 0.060667 -0.016417 1002560.000000 0 0 1
-19.990735 16.823708 -25.526745 36.527816 -0.699583 2.344557 0.052416 -0.024334 998913.000000 0 0 1
-19.946235 16.418108 -26.926125 37.315181 -0.688679 2.376887 0.038123 -0.024564 -303510.000000 0 0 1
-19.083535 17.241108 -27.901805 37.946644 -0.734720 2.396891 0.019020 -0.000581 -96769.100000 0 0 1
-19.601935 18.538108 -28.164035 39.001412 -0.757513 2.377671 0.008298 -0.015968 335260.000000 0 0 1
-19.002835 19.486208 -27.309855 38.557077 -0.797956 2.357879 -0.005918 -0.018983 -1067650.000000 0 0 1
-19.678135 20.903208 -27.155925 39.517304 -0.815577 2.328411 0.033895 -0.009242 401043.000000 0 0 1
-20.643535 21.070308 -26.107155 39.391585 -0.795629 2.295294 0.049164 0.000743 833995.000000 0 0 1
-21.936535 20.606608 -26.501115 40.101782 -0.754148 2.292742 0.087548 -0.015448 410739.000000 0 0 1
-23.064135 20.870108 -25.439545 40.183158 -0.735501 2.256335 0.095624 -0.001760 337525.000000 0 0 1
-22.904535 20.147808 -24.246475 38.967209 -0.721453 2.242381 0.058440 0.011775 747627.000000 0 0 1
-23.836435 20.539208 -23.183675 39.083468 -0.711232 2.205804 0.050993 0.008385 732541.000000 0 0 1
-23.419635 19.919608 -21.805175 37.692648 -0.704814 2.187684 0.044178 0.012879 388525.000000 0 0 1
-22.251835 20.500508 -21.214675 36.952367 -0.744457 2.182311 0.045805 0.014222 246862.000000 0 0 1
-21.485235 19.623708 -20.430175 35.554146 -0.740146 2.182938 0.042701 0.005259 -347643.000000 0 0 1
-22.064835 19.117808 -19.064575 34.868403 -0.713960 2.149284 0.054413 -0.009391 -1349480.000000 0 0 1
-23.118435 18.199308 -19.223375 35.145625 -0.666900 2.149529 0.081541 -0.017976 355386.000000 0 0 1
-23.930435 18.122908 -18.031775 35.017858 -0.648167 2.111723 0.077846 -0.016658 -108115.000000 0 0 1
-24.836135 19.310708 -17.713675 36.104173 -0.660885 2.083605 0.057005 -0.016162 -1098350.000000 0 0 1
-25.993225 19.245508 -18.528475 37.273874 -0.637332 2.091038 0.063352 -0.017155 10134.800000 0 0 1
-26.888465 20.301208 -18.292375 38.337182 -0.646703 2.068199 0.053416 -0.015708 -934447.000000 0 0 1
-28.245905 20.083508 -19.001875 39.525304 -0.618086 2.072309 0.034509 0.001407 206782.000000 0 0 1
-29.025525 18.930808 -18.681175 39.368044 -0.577929 2.065222 0.036970 -0.010155 288312.000000 0 0 1
-29.442845 18.944208 -17.333075 39.066605 -0.571738 2.030497 0.025083 -0.005520 -1492820.000000 0 0 1
-30.307145 17.727608 -16.980575 39.001680 -0.529266 2.021257 0.014763 -0.006088 -393535.000000 0 0 1
-29.710055 16.425708 -16.964075 37.950903 -0.505042 2.034206 0.030627 -0.015592 266346.000000 0 0 1
-30.621415 15.540408 -16.317375 38.018838 -0.469631 2.014394 0.029021 -0.008138 470381.000000 0 0 1
-29.979855 14.422208 -15.411275 36.664685 -0.448384 2.004606 0.067466 -0.011145 -272699.000000 0 0 1
-29.285285 14.848308 -14.278175 35.804559 -0.469250 1.980983 0.075755 -0.012092 94023.800000 0 0 1
-30.113715 15.118108 -13.141975 36.167727 -0.465273 1.942670 0.038213 -0.005994 510485.000000 0 0 1
-29.329445 15.840908 -11.984775 35.422952 -0.495213 1.915942 0.061345 -0.015780 267592.000000 0 0 1
-28.951795 17.171908 -12.187275 35.799588 -0.535346 1.918171 0.054175 -0.007698 -213662.000000 0 0 1
-30.000585 18.056108 -11.931475 36.992137 -0.541785 1.899209 0.022842 -0.005194 -540433.000000 0 0 1
-29.598145 19.535208 -12.170775 37.494030 -0.583383 1.901391 0.067798 -0.012424 -61706.600000 0 0 1
-28.724145 20.027408 -11.163475 36.753187 -0.608866 1.879414 0.029295 -0.016839 -65521.400000 0 0 1
-27.939025 20.980808 -11.817075 36.883962 -0.644109 1.896932 0.024972 -0.020470 -240805.000000 0 0 1
-27.048545 21.831108 -10.887575 36.424721 -0.679060 1.874343 0.048408 -0.020552 833414.000000 0 0 1
-27.884985 22.785908 -10.165675 37.418056 -0.685105 1.845933 0.025387 -0.022987 954497.000000 0 0 1
-27.118055 23.924308 -9.812175 37.470524 -0.722909 1.835749 0.052216 -0.020864 522257.000000 0 0 1
-27.923665 24.727808 -8.749175 38.311142 -0.724774 1.801201 0.055595 -0.003626 347292.000000 0 0 1
-27.634845 24.253908 -7.456875 37.517218 -0.720333 1.770888 0.059495 -0.008956 246593.000000 0 0 1
-28.560735 24.707708 -6.487675 38.318094 -0.713192 1.740927 0.076897 -0.016808 11887.100000 0 0 1
-28.205965 24.052208 -5.110375 37.419261 -0.706080 1.707795 0.073177 -0.015747 233069.000000 0 0 1
-28.619815 22.669308 -5.043875 36.856912 -0.669896 1.708077 0.067154 -0.011893 217340.000000 0 0 1
-27.996845 22.023808 -3.926675 35.836995 -0.666550 1.680587 0.072649 -0.014923 200688.000000 0 0 1
-27.908475 20.479208 -4.157575 34.864973 -0.633052 1.690329 0.086073 -0.009880 522625.000000 0 0 1
-26.898845 20.040008 -5.094075 33.927855 -0.640302 1.721511 0.059362 -0.019089 391453.000000 0 0 1
-26.990435 20.449108 -6.495775 34.479627 -0.648375 1.760324 0.047403 -0.017731 -335807.000000 0 0 1
-28.078215 19.724508 -7.353175 35.092899 -0.612391 1.781895 0.048199 -0.018161 156935.000000 0 0 1
-27.831175 18.298308 -7.398075 34.119406 -0.581612 1.789361 0.048463 -0.018556 352814.000000 0 0 1
-28.358425 17.794508 -8.604575 34.567087 -0.560385 1.822365 0.040081 -0.017193 -160678.000000 0 0 1
-27.897635 16.357208 -8.892675 33.539767 -0.530307 1.839144 0.083871 -0.021040 -266413.000000 0 0 1
-28.545095 15.355408 -8.176275 33.428468 -0.493533 1.817893 0.074282 -0.015936 -57691.500000 0 0 1
-28.170255 14.073008 -8.630575 32.651181 -0.463303 1.838302 0.092932 -0.021608 -62933.800000 0 0 1
-28.894895 12.977008 -7.820675 32.626379 -0.422114 1.812857 0.098178 -0.029685 -1287920.000000 0 0 1
-30.230375 12.857608 -8.131275 33.842448 -0.402142 1.813439 0.110255 -0.018865 -1244540.000000 0 0 1
-30.855315 12.171108 -7.058575 33.911794 -0.375719 1.780474 0.117207 -0.015022 -120266.000000 0 0 1
-31.514835 10.816408 -7.443275 34.140618 -0.330619 1.790580 0.116583 -0.012682 -189770.000000 0 0 1
-30.608145 9.842908 -7.929775 33.115294 -0.311134 1.812606 0.139554 -0.011903 57297.000000 0 0 1
-31.226745 8.660508 -8.370675 33.469123 -0.270543 1.823581 0.129945 -0.005699 -752263.000000 0 0 1
-30.218905 7.577208 -8.743175 32.357988 -0.245679 1.844399 0.170328 -0.011995 -146940.000000 0 0 1
-29.499705 7.867608 -9.937675 32.107463 -0.260635 1.885477 0.149809 -0.024953 228309.000000 0 0 1
-28.451175 6.941608 -10.101375 30.978913 -0.239308 1.902942 0.175489 -0.040986 -291962.000000 0 0 1
-27.739745 7.106208 -11.431775 30.833052 -0.250781 1.950627 0.133333 -0.034095 -200745.000000 0 0 1
-27.011185 8.305108 -11.634075 30.560278 -0.298295 1.961342 0.159741 -0.040163 642276.000000 0 0 1
-26.235875 8.236908 -12.832975 30.345560 -0.304211 2.007434 0.138578 -0.022815 63469.000000 0 0 1
-32.331245 25.722908 -33.554485 53.224814 -0.672055 2.252903 0.035780 -0.024922 73441.600000 0 0 1
-32.177175 27.075308 -33.884205 54.005390 -0.699506 2.249035 0.019364 -0.026500 284287.000000 0 0 1
-32.852745 27.352108 32.802150 53.883408 -0.694286 0.916298 0.033457 -0.026769 229731.000000 0 0 1
-32.702365 28.851308 32.415135 54.337681 -0.722915 0.931601 0.042946 -0.028928 142577.000000 0 0 1
-33.554825 29.210808 31.344643 54.421358 -0.716298 0.957016 0.064686 -0.021783 138675.000000 0 0 1
-33.637185 30.592008 31.356523 55.231899 -0.738023 0.967057 0.059533 -0.020663 53745.000000 0 0 1
-33.529175 31.131008 29.917223 54.666127 -0.748326 0.991695 0.069567 -0.021703 -55688.400000 0 0 1
-32.231025 31.139908 29.373323 53.584745 -0.768182 0.990627 0.064380 -0.019548 -126481.000000 0 0 1
-32.119755 31.885308 28.188133 53.319062 -0.781735 1.013765 0.079696 -0.017289 -482423.000000 0 0 1
-30.703805 31.741508 27.658323 52.107867 -0.802014 1.011264 0.079960 -0.021805 -842658.000000 0 0 1
-30.465465 30.486808 27.063883 50.892472 -0.785748 1.010089 0.101951 -0.022660 721412.000000 0 0 1
-29.209835 30.363808 26.374043 49.706794 -0.804766 1.011497 0.091074 -0.013154 474041.000000 0 0 1
-29.218825 31.001708 24.962693 49.375922 -0.814995 1.040761 0.105844 -0.019208 -285462.000000 0 0 1
-29.206435 32.407908 25.042673 50.303318 -0.837311 1.049698 0.089464 -0.025951 -432945.000000 0 0 1
-30.188555 32.945808 24.217033 50.825582 -0.829043 1.074157 0.094422 -0.025237 -599418.000000 0 0 1
-30.446335 -33.695995 24.477923 51.590387 0.836018 1.076438 0.083743 -0.012844 -355649.000000 0 0 1
-30.933975 -33.573995 25.762793 52.419895 0.826301 1.057020 0.066120 -0.019189 -2184.220000 0 0 1
-30.863165 -32.293695 26.291263 51.832887 0.808045 1.038827 0.043843 -0.015690 -309221.000000 0 0 1
-31.216335 -32.238195 27.772923 52.774008 0.801501 1.016598 0.041474 -0.013603 1417450.000000 0 0 1
-32.631425 -32.504195 28.027153 53.915247 0.783445 1.024136 0.037696 -0.022589 1457490.000000 0 0 1
-32.796315 -32.614895 29.419013 54.816128 0.782625 1.004292 0.027973 -0.016969 948419.000000 0 0 1
-34.264067 -32.990995 29.857833 56.159791 0.766471 1.010239 0.046388 -0.022447 850910.000000 0 0 1
-34.528286 -33.158495 31.177283 57.128900 0.765164 0.993529 0.038898 -0.020952 315958.000000 0 0 1
-35.916861 -33.294695 31.470683 58.214787 0.747530 0.999651 0.039079 -0.023747 489868.000000 0 0 1
-36.201975 -33.866495 32.892872 59.493390 0.752079 0.984976 0.042356 -0.010100 102976.000000 0 0 1
-35.773437 32.881508 33.016934 58.745640 -0.743300 0.973956 0.032299 -0.003831 64632.400000 0 0 1
-36.459765 32.319908 -33.791175 59.293629 -0.725281 2.177175 0.046775 -0.008007 181147.000000 0 0 1
-36.016440 30.931608 -33.299755 57.989844 -0.709592 2.182465 0.040554 -0.010955 -54581.900000 0 0 1
-34.893843 31.089708 -32.478435 56.912204 -0.727809 2.178125 0.039232 -0.014037 -385798.000000 0 0 1
-34.246865 29.817708 -32.169595 55.649135 -0.716372 2.187169 0.025801 -0.017891 340107.000000 0 0 1
-33.642035 29.826408 -30.766365 54.479081 -0.725352 2.170911 0.021751 -0.014878 187148.000000 0 0 1
-34.540344 29.814508 -29.644235 54.412507 -0.712096 2.146954 0.033520 -0.018135 -232478.000000 0 0 1
-35.045572 31.058408 -29.316385 55.247328 -0.725155 2.130151 0.022763 -0.011727 -289979.000000 0 0 1
-36.005380 31.088608 -28.156875 55.278373 -0.712247 2.105243 0.034814 -0.011915 155650.000000 0 0 1
-35.305545 31.057908 -26.897945 54.171714 -0.721480 2.090394 0.024116 -0.027238 -26032.500000 0 0 1
-36.237755 30.823708 -25.886215 54.160613 -0.704840 2.069119 0.074791 -0.030639 -279097.000000 0 0 1
-35.711904 30.382508 -24.475075 52.891078 -0.704939 2.051885 0.089081 -0.035933 -268604.000000 0 0 1
-35.369542 31.572008 -23.744975 53.024711 -0.728730 2.035110 0.069757 -0.034904 21571.100000 0 0 1
-35.375311 31.387608 -22.314475 52.292737 -0.725740 2.011662 0.055269 -0.033783 -15113.600000 0 0 1
-36.770555 31.094208 -21.674775 52.808326 -0.701950 1.993735 0.054766 -0.033217 356235.000000 0 0 1
36.484812 32.187108 -21.686375 53.267723 0.722897 1.990095 0.062160 -0.039961 -221390.000000 0 0 1
36.731022 33.397308 -20.945375 53.881879 0.737897 1.970047 0.061510 -0.042118 -553905.000000 0 0 1
36.972712 33.311908 -19.470775 53.439459 0.733360 1.943733 0.055660 -0.036316 -191978.000000 0 0 1
-36.094635 32.512408 -19.182075 52.228645 -0.733232 1.946870 0.047419 -0.039224 -398858.000000 0 0 1
-35.934698 32.230308 -17.812875 51.452830 -0.731107 1.924312 0.052252 -0.028899 -48880.100000 0 0 1
-34.614700 31.524908 -17.446775 49.963859 -0.738716 1.927501 0.053834 -0.029255 -67590.100000 0 0 1
-34.426682 31.172008 -16.095675 49.152429 -0.735824 1.904415 0.047385 -0.024514 -193341.000000 0 0 1
-33.190135 30.512608 -15.955075 47.824353 -0.743391 1.910935 0.048033 -0.020503 -170725.000000 0 0 1
-32.815665 30.311608 -14.455275 46.953343 -0.745752 1.883744 0.065941 -0.020545 -450777.000000 0 0 1
-33.774545 29.538608 -13.790175 46.940581 -0.718593 1.868975 0.054117 -0.013296 20026.600000 0 0 1
-33.348545 29.270008 -12.491075 46.096483 -0.720357 1.845204 0.072461 -0.012296 -50711.400000 0 0 1
-34.282128 28.223708 -11.844875 45.958057 -0.688774 1.831471 0.060970 -0.020248 140636.000000 0 0 1
-33.831685 27.819008 -10.519175 45.045900 -0.688178 1.806494 0.073320 -0.017118 723013.000000 0 0 1
-34.753342 26.897508 -9.921375 45.052241 -0.658657 1.792836 0.074104 -0.025095 693836.000000 0 0 1
-34.033595 26.179408 -8.744575 43.819112 -0.655690 1.771706 0.084458 -0.013664 340321.000000 0 0 1
-33.579345 26.995408 -7.689975 43.765970 -0.677132 1.747420 0.087152 -0.020490 607401.000000 0 0 1
-32.373085 26.452708 -7.149475 42.413174 -0.685093 1.740172 0.091294 -0.027898 211134.000000 0 0 1
-32.117415 27.130308 -5.799375 42.440720 -0.701422 1.707872 0.092549 -0.032834 294741.000000 0 0 1
-31.145775 26.406208 -5.015875 41.140079 -0.703231 1.693022 0.105011 -0.029585 758445.000000 0 0 1
-31.224475 26.950908 -3.736475 41.415945 -0.712070 1.661137 0.101360 -0.022743 -107351.000000 0 0 1
-30.359255 26.226708 -2.684975 40.208627 -0.712496 1.637622 0.097525 -0.023444 -220172.000000 0 0 1
-30.888855 24.971808 -2.300575 39.786998 -0.679867 1.628651 0.094830 -0.015111 -226895.000000 0 0 1
-30.002525 24.195708 -1.562175 38.574916 -0.678665 1.611305 0.095324 -0.024199 -296090.000000 0 0 1
-30.614055 22.873008 -1.076175 38.230263 -0.641669 1.598950 0.104680 -0.024514 -174154.000000 0 0 1
-30.979755 22.111408 -2.164375 38.122750 -0.619886 1.627601 0.089971 -0.018939 -122952.000000 0 0 1
-31.787455 21.034108 -1.819975 38.160035 -0.584564 1.618508 0.092812 -0.012848 -447781.000000 0 0 1
-32.120425 20.176108 -3.025275 38.051929 -0.560854 1.650384 0.105969 -0.010364 519812.000000 0 0 1
-31.103185 19.354408 -3.639175 36.813650 -0.556630 1.669812 0.082784 -0.011883 480300.000000 0 0 1
-31.712905 18.683308 -4.649375 37.099744 -0.532395 1.696448 0.083816 -0.006128 290048.000000 0 0 1
-30.762255 17.584008 -5.228875 35.816962 -0.519283 1.717309 0.080676 -0.004492 211805.000000 0 0 1
-30.684275 16.426008 -4.371775 35.077783 -0.491505 1.695752 0.099970 -0.014700 511176.000000 0 0 1
-29.852465 15.440008 -5.027675 33.982952 -0.477321 1.719288 0.099643 -0.021401 -25888.400000 0 0 1
-29.493755 14.177408 -4.153875 32.986893 -0.448082 1.697057 0.105437 -0.024349 -753141.000000 0 0 1
-30.552775 13.522708 -3.530175 33.597586 -0.416684 1.676063 0.133709 -0.023103 -454189.000000 0 0 1
-30.333555 12.185208 -3.191475 32.844929 -0.381977 1.668118 0.121059 -0.021495 -834225.000000 0 0 1
-31.470775 11.611208 -2.378375 33.628656 -0.353458 1.641580 0.148394 -0.018359 -831903.000000 0 0 1
-32.491635 11.240508 -3.243975 34.533733 -0.333063 1.664871 0.151953 -0.010937 167207.000000 0 0 1
-33.459525 10.315008 -2.728875 35.119595 -0.299039 1.648577 0.167300 -0.010017 412043.000000 0 0 1
-34.454224 9.787708 -3.785875 36.017018 -0.276787 1.676104 0.123507 -0.011127 -114363.000000 0 0 1
-33.860735 9.093008 -4.880675 35.398490 -0.262352 1.709115 0.119918 -0.014081 153889.000000 0 0 1
-34.803324 8.490508 -5.748675 36.282328 -0.239283 1.729910 0.109115 -0.003191 -349003.000000 0 0 1
-34.222240 7.641508 -6.852875 35.728367 -0.219687 1.763797 0.114889 -0.006011 -408079.000000 0 0 1
-33.575805 6.460208 -6.284175 34.764347 -0.190084 1.752560 0.110800 -0.004145 584344.000000 0 0 1
-33.194225 5.520808 -7.222675 34.416608 -0.164810 1.782228 0.117025 -0.005717 -479595.000000 0 0 1
-32.156045 4.487808 -6.742175 33.160346 -0.138668 1.775544 0.145361 -0.011060 345007.000000 0 0 1
-30.827565 5.016808 -6.748475 31.953858 -0.161324 1.783593 0.161844 -0.018513 658103.000000 0 0 1
-29.913885 4.003708 -6.331075 30.837521 -0.133050 1.777571 0.161062 -0.021409 575980.000000 0 0 1
-28.438685 4.513908 -6.202675 29.455175 -0.157411 1.782965 0.189575 -0.020710 762392.000000 0 0 1
-27.694935 4.571708 -7.438275 29.038558 -0.163598 1.829835 0.191082 -0.018385 1039400.000000 0 0 1
-26.299025 4.508108 -7.119275 27.616043 -0.169767 1.831536 0.193013 -0.027108 473133.000000 0 0 1
-25.330115 4.852108 -8.242575 27.075777 -0.189262 1.880132 0.177957 -0.025043 -315744.000000 0 0 1
-25.284455 3.910808 -9.303275 27.224052 -0.153456 1.919553 0.183891 -0.044643 329911.000000 0 0 1
-24.387535 4.334908 -10.288075 26.821405 -0.175914 1.964463 0.176350 -0.042788 -362045.000000 0 0 1
-24.782435 3.821208 -11.723275 27.680424 -0.152985 2.008126 0.168969 -0.050199 53718.400000 0 0 1
-25.989815 4.462008 -12.094975 29.011522 -0.170025 2.000831 0.169433 -0.037760 204718.000000 0 0 1
-26.475205 3.782508 -13.188175 29.818983 -0.141909 2.028929 0.153481 -0.046064 -456332.000000 0 0 1
-27.465295 4.564808 -14.046375 31.184620 -0.164697 2.038039 0.131905 -0.039437 -571119.000000 0 0 1
-26.865315 5.645508 -14.785575 31.180605 -0.207127 2.064842 0.105951 -0.027402 390412.000000 0 0 1
-27.677865 6.476808 -15.611575 32.430456 -0.229871 2.073032 0.134593 -0.028673 -167692.000000 0 0 1
-28.494125 5.822508 -16.773875 33.573496 -0.201566 2.093952 0.092566 -0.018112 -15127.800000 0 0 1
-29.712295 5.232808 -16.411775 34.344564 -0.174328 2.069009 0.108707 -0.034519 97137.700000 0 0 1
-30.376925 4.654208 -17.573975 35.401466 -0.152033 2.090265 0.112277 -0.021324 -142967.000000 0 0 1
-31.686505 3.945008 -17.284275 36.309005 -0.123864 2.066934 0.112874 -0.024477 -534899.000000 0 0 1
-31.567635 2.826308 -16.417875 35.693839 -0.089294 2.048751 0.123202 -0.037654 86661.500000 0 0 1
-31.782915 1.617308 -17.056675 36.106779 -0.050842 2.062803 0.140706 -0.035346 -7464.930000 0 0 1
-31.954025 0.454508 -16.035175 35.754623 -0.014223 2.035858 0.146418 -0.042651 -73209.100000 0 0 1
-31.872795 -0.776692 -16.696375 35.989543 0.024364 2.053215 0.147651 -0.026858 182782.000000 0 0 1
-31.947635 -1.886092 -15.805275 35.693352 0.058969 2.029524 0.154959 -0.037225 7506.230000 0 0 1
-31.757615 -3.219992 -16.462975 35.915790 0.101047 2.046965 0.138268 -0.030085 133651.000000 0 0 1
-32.783285 -3.512092 -17.394775 37.278100 0.106724 2.056264 0.141737 -0.032291 177161.000000 0 0 1
-32.404455 -4.524492 -18.239375 37.459238 0.138729 2.079348 0.129862 -0.027783 235667.000000 0 0 1
-33.438295 -4.843392 -19.375275 38.948418 0.143845 2.091464 0.133881 -0.025933 32214.700000 0 0 1
-33.142705 -6.072392 -20.006575 39.186424 0.181210 2.106619 0.129059 -0.021246 185076.000000 0 0 1
-33.922505 -6.334992 -21.176175 40.488255 0.184622 2.121187 0.118232 -0.020564 -318465.000000 0 0 1
-33.366755 -7.423092 -22.127175 40.719215 0.218905 2.145289 0.109373 -0.014317 -1434730.000000 0 0 1
-32.288155 -6.952892 -22.771975 40.117708 0.212100 2.174419 0.102770 -0.017805 -1374140.000000 0 0 1
-31.795685 -7.814092 -23.772575 40.461845 0.240984 2.198800 0.093468 -0.014226 356566.000000 0 0 1
-30.538025 -7.277992 -24.531875 39.841599 0.233961 2.234115 0.100888 -0.010561 179766.000000 0 0 1
-30.790965 -6.225792 -25.481865 40.449591 0.199506 2.252306 0.099636 -0.015048 -26088.700000 0 0 1
-30.811105 -6.740992 -26.784865 41.378667 0.215391 2.274848 0.082055 -0.019816 -453999.000000 0 0 1
-32.186365 -6.941392 -27.413145 42.844200 0.212409 2.265078 0.082963 -0.014961 -889435.000000 0 0 1
-32.979545 -7.885892 -26.823075 43.235575 0.234708 2.240041 0.065497 -0.010457 -144282.000000 0 0 1
-34.209213 -8.023892 -27.553435 44.652490 0.230389 2.235802 0.058504 -0.011505 782490.000000 0 0 1
-35.056344 -9.210692 -27.054895 45.229984 0.256933 2.212003 0.050478 -0.015142 -399426.000000 0 0 1
-34.494067 -10.449392 -27.497525 45.333699 0.294145 2.222521 0.049944 -0.008036 -4545.370000 0 0 1
-35.224676 -11.583392 -27.115395 45.936885 0.317704 2.202196 0.050214 -0.008491 694497.000000 0 0 1
-36.621505 -11.794292 -27.847825 47.494644 0.311570 2.197325 0.034887 -0.001209 1104930.000000 0 0 1
36.546962 -10.952192 -27.279955 46.902312 -0.291158 2.191532 0.035925 -0.014860 445219.000000 0 0 1
35.723882 -10.493592 -28.376555 46.813888 -0.285705 2.222016 0.027299 -0.017260 629056.000000 0 0 1
34.660462 -9.357892 -28.075485 45.575768 -0.263700 2.234474 0.033401 -0.018452 -85776.300000 0 0 1
33.619732 -9.864792 -27.322345 44.430969 -0.285412 2.233105 0.031855 -0.013752 -732609.000000 0 0 1
32.758872 -8.794692 -26.998215 43.351977 -0.262283 2.243072 0.019211 -0.009465 -121364.000000 0 0 1
31.591922 -9.191292 -26.073745 41.980585 -0.283122 2.240930 0.023033 -0.007943 -42293.800000 0 0 1
31.969522 -9.491292 -24.744875 41.526423 -0.288597 2.209161 0.003654 -0.000844 280721.000000 0 0 1
30.808872 -9.877592 -24.029275 40.300862 -0.310255 2.209615 -0.004997 0.007764 112475.000000 0 0 1
31.009582 -10.074692 -22.487875 39.608056 -0.314132 2.174579 -0.014705 0.008265 -23125.300000 0 0 1
31.795082 -11.184392 -22.116375 40.313173 -0.338246 2.151502 -0.022564 0.003725 77839.700000 0 0 1
31.940652 -11.185292 -20.703875 39.673246 -0.336844 2.119826 -0.012940 -0.000915 -509429.000000 0 0 1
32.818332 -12.303192 -20.204475 40.455312 -0.358672 2.093734 0.015853 -0.007645 427207.000000 0 0 1
34.198392 -12.000192 -20.467675 41.622834 -0.337476 2.084885 0.026847 -0.009607 631923.000000 0 0 1
35.065512 -12.949992 -19.895575 42.345322 -0.353772 2.059907 0.052351 -0.012781 330825.000000 0 0 1
36.521972 -12.904792 -20.437075 43.795686 -0.339650 2.056291 0.061779 -0.018962 184209.000000 0 0 1
-36.946525 -11.665092 -20.277175 43.729668 0.305824 2.052956 0.070710 -0.018082 366058.000000 0 0 1
-37.084905 -10.735592 -21.360575 44.122752 0.281784 2.076150 0.074461 -0.011302 -239719.000000 0 0 1
-36.461475 -11.056992 -22.795275 44.399558 0.294437 2.109953 0.061703 -0.012018 511169.000000 0 0 1
-37.079575 -12.206592 -23.447075 45.537469 0.318026 2.111683 0.064647 -0.009064 333815.000000 0 0 1
35.814372 -11.983692 -23.965775 44.728475 -0.322895 2.136258 0.070643 -0.008969 -249572.000000 0 0 1
35.250322 -13.096492 -24.895975 45.098923 -0.355724 2.155594 0.055589 -0.021156 -106504.000000 0 0 1
35.089172 -14.426092 -24.327075 45.068489 -0.390061 2.140972 0.063649 -0.032786 557247.000000 0 0 1
34.228832 -14.616092 -23.206575 43.861010 -0.403573 2.128328 0.044207 -0.028839 -102009.000000 0 0 1
-30.295735 8.797408 -18.969875 36.811439 -0.282612 2.112184 0.054930 -0.001856 692359.000000 0 0 1
-29.003145 8.205808 -19.120075 35.694466 -0.275722 2.136085 0.056860 -0.004430 771091.000000 0 0 1
-28.342015 8.584608 -20.347275 35.930167 -0.294109 2.172807 0.067051 -0.021381 -215188.000000 0 0 1
-27.266305 7.568008 -20.719475 35.071680 -0.270744 2.202815 0.073003 -0.022517 306791.000000 0 0 1
-26.064265 7.835508 -19.967475 33.755609 -0.292028 2.203752 0.087136 -0.028841 990552.000000 0 0 1
-25.034035 6.854208 -20.251575 32.921260 -0.267246 2.233375 0.108690 -0.036523 1077770.000000 0 0 1
-23.660635 7.251408 -19.620875 31.581439 -0.297387 2.241170 0.097865 -0.040213 377692.000000 0 0 1
-23.068935 8.311208 -20.299375 31.832633 -0.345801 2.262293 0.097487 -0.035591 533755.000000 0 0 1
-21.751935 8.616608 -19.807075 30.654735 -0.377166 2.273305 0.099557 -0.033624 475472.000000 0 0 1
-20.975135 9.565508 -20.664675 30.959393 -0.427866 2.301611 0.107667 -0.028548 -640406.000000 0 0 1
-20.303535 8.927008 -21.715475 31.040084 -0.414237 2.345626 0.118952 -0.033428 -43761.900000 0 0 1
-19.623435 9.947108 -22.457875 31.438516 -0.469152 2.366481 0.117996 -0.027966 -46376.500000 0 0 1
-18.605835 9.303608 -23.407775 31.315461 -0.463677 2.415061 0.114048 -0.024958 -209771.000000 0 0 1
-19.231235 8.549008 -24.445575 32.256969 -0.418302 2.430790 0.109353 -0.021845 -181079.000000 0 0 1
-18.372435 7.767308 -25.210315 32.147121 -0.399980 2.472229 0.086219 -0.010177 -459432.000000 0 0 1
-19.134335 6.749308 -26.133785 33.085505 -0.339107 2.481420 0.069478 -0.006326 -73955.900000 0 0 1
-19.783835 5.729308 -25.498425 32.777961 -0.281884 2.462135 0.093810 -0.006701 10903.600000 0 0 1
-20.273235 4.737608 -26.405075 33.625540 -0.229568 2.473926 0.085144 -0.011518 -394413.000000 0 0 1
-20.707335 3.455708 -25.643045 33.140630 -0.165359 2.455559 0.083220 -0.005777 -149692.000000 0 0 1
-19.709435 2.575908 -25.202385 32.097621 -0.129958 2.473782 0.079416 -0.002303 519871.000000 0 0 1
-18.703035 3.035408 -24.288975 30.805381 -0.160892 2.479106 0.085875 -0.007480 523516.000000 0 0 1
-17.723035 1.930908 -23.765675 29.709286 -0.108521 2.497993 0.076425 -0.011947 265695.000000 0 0 1
-18.093035 1.297908 -22.528175 28.923366 -0.071613 2.463693 0.091749 -0.013789 -56336.400000 0 0 1
-19.231535 0.485008 -22.626975 29.699615 -0.025214 2.436977 0.088038 -0.008757 -164594.000000 0 0 1
-19.546735 -0.320792 -21.336375 28.938186 0.016410 2.399874 0.120082 -0.025464 86208.300000 0 0 1
-18.706835 -1.440392 -21.235975 28.337025 0.076847 2.417963 0.115474 -0.027008 274341.000000 0 0 1
-19.237135 -2.271392 -20.239975 28.015766 0.117529 2.378135 0.122428 -0.026726 -29934.600000 0 0 1
-18.478135 -3.626892 -20.072475 27.522719 0.193816 2.388103 0.099880 -0.032033 -172168.000000 0 0 1
-18.483535 -4.442692 -21.211475 28.483420 0.235885 2.410875 0.097888 -0.034528 398676.000000 0 0 1
-18.996035 -5.739292 -20.896475 28.817555 0.293411 2.382020 0.108111 -0.025528 -257020.000000 0 0 1
-19.166835 -6.605992 -22.148875 30.026310 0.331907 2.400378 0.075189 -0.032762 244329.000000 0 0 1
-17.869435 -6.892792 -22.643175 29.657050 0.368145 2.439513 0.072237 -0.025875 403320.000000 0 0 1
-18.010535 -7.501192 -23.923475 30.870372 0.394640 2.457457 0.085381 -0.033661 121724.000000 0 0 1
-16.662835 -7.448092 -24.652175 30.673341 0.420347 2.504284 0.076338 -0.035618 -459700.000000 0 0 1
-16.677235 -8.157192 -25.894225 31.861902 0.454907 2.519570 0.084181 -0.059002 -274120.000000 0 0 1
-15.462235 -8.171692 -26.584935 31.821628 0.486182 2.559722 0.086964 -0.055659 39462.600000 0 0 1
-14.285235 -9.109292 -26.145525 31.155025 0.567660 2.566620 0.079739 -0.048203 111520.000000 0 0 1
-13.682935 -8.698492 -24.934875 29.742805 0.566270 2.565045 0.071642 -0.041500 254193.000000 0 0 1
-12.886535 -9.684492 -24.280475 29.144358 0.644473 2.555504 0.060984 -0.034125 6839.690000 0 0 1
-12.026535 -9.080892 -23.172375 27.641618 0.646739 2.564981 0.082923 -0.029915 -419193.000000 0 0 1
-12.716835 -8.706792 -22.023175 26.880222 0.600361 2.530999 0.082163 -0.024661 -299029.000000 0 0 1
-11.875435 -8.195392 -21.023375 25.498484 0.604060 2.540106 0.080641 -0.023721 -906171.000000 0 0 1
-12.541535 -7.895292 -19.649575 24.611613 0.561851 2.495407 0.063041 -0.016334 -563438.000000 0 1 0
-13.386335 -6.826492 -19.649275 24.736389 0.471584 2.488728 0.049349 -0.006300 1023160.000000 0 1 0
-14.790235 -7.090592 -19.955975 25.831540 0.447041 2.453633 0.066108 -0.021692 1145350.000000 0 0 1
-15.630435 -5.857592 -19.578175 25.727938 0.358556 2.435602 0.078735 -0.015591 -706438.000000 0 0 1
-15.794735 -5.597392 -18.185975 24.729216 0.340575 2.397060 0.072665 -0.013861 -50082.700000 0 1 0
-15.100335 -4.489392 -17.786975 23.760286 0.288982 2.416746 0.076638 -0.015284 -902690.000000 0 1 0
-14.898035 -4.272792 -16.285575 22.481729 0.279305 2.380948 0.071735 -0.012306 8626.370000 0 1 0
-16.066135 -4.077492 -15.507975 22.698984 0.248546 2.322934 0.099269 -0.025819 165768.000000 0 1 0
-16.678835 -2.818292 -15.716175 23.089488 0.167393 2.319464 0.067140 -0.030202 -204826.000000 0 1 0
-17.831635 -2.558892 -14.723475 23.265765 0.142530 2.256010 0.062647 -0.033880 -141256.000000 0 1 0
-17.421335 -2.561492 -13.359575 22.102995 0.145986 2.219839 0.068935 -0.036663 910898.000000 0 1 0
-18.410635 -2.019092 -12.490875 22.339430 0.109233 2.164145 0.082144 -0.042252 271583.000000 0 1 0
-17.740135 -0.768392 -11.885775 21.367603 0.043287 2.160665 0.055306 -0.035548 273691.000000 0 1 0
-17.689535 0.284008 -12.817275 21.846803 -0.016054 2.197760 0.084837 -0.038171 143322.000000 0 1 0
-16.889335 1.277708 -12.277975 20.919628 -0.075508 2.198036 0.079740 -0.026859 -1159760.000000 0 1 0
-16.490335 2.287808 -13.383575 21.360835 -0.137856 2.247912 0.094374 -0.020585 251644.000000 0 1 0
-15.682835 1.617008 -14.359675 21.325250 -0.102744 2.309547 0.092601 -0.031588 1162960.000000 0 1 0
-14.292935 1.514408 -13.980075 20.050534 -0.105561 2.342339 0.076434 -0.025719 6830.460000 0 1 0
-13.584235 0.535408 -14.920775 20.185331 -0.039394 2.402662 0.059993 -0.032929 -486117.000000 0 1 0
-13.197435 1.065708 -16.133575 20.871038 -0.080576 2.454373 0.070542 -0.037095 153541.000000 0 1 0
-12.863935 -0.012992 -17.010175 21.326674 0.001010 2.494104 0.046738 -0.026432 -107951.000000 0 1 0
-12.309935 0.449708 -18.373575 22.120691 -0.036516 2.550991 0.062677 -0.028704 494164.000000 0 1 0
-10.962035 0.924508 -18.252075 21.311010 -0.084138 2.599173 0.043367 -0.019513 309535.000000 0 1 0
-10.713735 1.897508 -19.221475 22.087321 -0.175292 2.626504 0.059911 -0.021612 -169558.000000 0 1 0
-9.332535 2.553608 -19.061475 21.376551 -0.267087 2.671884 0.043029 -0.019715 -576840.000000 0 1 0
-8.365735 1.609708 -19.481675 21.262933 -0.190094 2.729356 0.042008 -0.012817 -396951.000000 0 1 0
-7.025035 1.979108 -19.259275 20.595816 -0.274605 2.779355 0.032609 -0.008732 113040.000000 0 1 0
-6.416135 3.027108 -20.196675 21.406444 -0.440831 2.803792 0.041510 -0.007217 -886567.000000 0 1 0
-6.241135 2.683708 -21.541475 22.587368 -0.406101 2.836089 0.043517 -0.013063 120625.000000 0 1 0
-6.106035 3.826708 -22.363175 23.495509 -0.559827 2.829869 0.054864 -0.009455 -318786.000000 0 1 0
-5.501035 3.408408 -23.721975 24.588833 -0.554702 2.875272 0.073516 -0.019591 -8867.150000 0 1 0
-4.199535 2.863808 -23.680375 24.219778 -0.598498 2.930148 0.071811 -0.025429 -250263.000000 0 1 0
-3.836535 2.326808 -24.924375 25.325037 -0.545176 2.963476 0.093438 -0.027650 575021.000000 0 0 1
-2.330235 1.905608 -24.997075 25.177670 -0.685486 3.021747 0.082332 -0.022105 4551.780000 0 0 1
-1.409035 2.969408 -24.972375 25.187740 -1.127742 3.010729 0.079474 -0.021550 220167.000000 0 0 1
-0.046235 2.584008 -25.026715 25.159803 -1.552906 3.038691 0.074179 -0.020169 559404.000000 0 0 1
0.645565 1.613308 -24.003075 24.065891 1.190161 3.069325 0.058247 -0.009502 -835573.000000 0 1 0
0.249765 0.269808 -23.997875 24.000691 0.823955 3.126273 0.048257 -0.009240 76746.800000 0 1 0
0.902865 -0.472292 -22.934475 22.957098 -0.481959 3.097194 0.040902 -0.006199 -205878.000000 0 1 0
0.496565 -1.971592 -22.851575 22.941844 -1.324068 3.052854 0.042662 -0.012165 -511112.000000 0 1 0
-0.622735 -2.393992 -22.131875 22.269685 1.316312 3.030285 0.041039 -0.014407 -220466.000000 0 1 0
-1.851335 -2.465492 -22.845175 23.052290 0.926720 3.007443 0.046417 -0.019530 487192.000000 0 1 0
-2.690935 -1.155392 -22.688675 22.876888 0.405562 3.013230 0.055640 -0.025449 -1556360.000000 0 1 0
-3.154735 -0.882692 -21.408175 21.657364 0.272822 2.989750 0.043636 -0.027005 798480.000000 0 1 0
-4.206435 0.103808 -21.401575 21.811288 -0.024673 2.947461 0.044161 -0.028369 931662.000000 0 1 0
-5.533435 -0.028892 -22.173975 22.853991 0.005221 2.897038 0.040643 -0.019194 -700160.000000 0 1 0
-6.295035 -1.178692 -21.876175 22.794381 0.185098 2.856793 0.035570 -0.004396 682566.000000 0 1 0
-7.680235 -0.789592 -21.793975 23.121133 0.102448 2.801128 0.043037 -0.014065 803065.000000 0 1 0
-8.554635 -2.014292 -21.400875 23.135181 0.231250 2.751927 0.037064 -0.011212 -128028.000000 0 1 0
-8.901535 -2.842992 -22.524675 24.386080 0.309142 2.748345 0.064067 -0.017759 100049.000000 0 1 0
-9.016735 -4.157192 -22.154775 24.277928 0.432007 2.720268 0.037519 -0.019063 -208154.000000 0 1 0
-9.780735 -5.065192 -23.169375 25.654217 0.477845 2.697826 0.044391 -0.021741 807784.000000 0 0 1
-11.179335 -4.751392 -23.178475 26.168587 0.401884 2.658875 0.048992 -0.024845 343626.000000 0 0 1
-11.871535 -5.560192 -24.089975 27.425826 0.438020 2.643234 0.041917 -0.036912 190549.000000 0 0 1
-13.407135 -5.362992 -23.974775 27.987546 0.380515 2.599485 0.088201 -0.043317 223838.000000 0 0 1
-13.839335 -4.090692 -24.450775 28.391923 0.287401 2.608398 0.073566 -0.040611 -1093660.000000 0 0 1
-15.053035 -3.727492 -23.927075 28.513031 0.242741 2.566538 0.059399 -0.045668 -990544.000000 0 0 1
-15.447935 -2.339592 -24.286875 28.878446 0.150308 2.569932 0.075948 -0.035053 -443649.000000 0 0 1
-15.886335 -2.451892 -25.577425 30.209138 0.153131 2.580508 0.073902 -0.031871 133069.000000 0 0 1
-16.526935 -1.245492 -26.029045 30.857770 0.075219 2.574594 0.064540 -0.020897 -388338.000000 0 0 1
-18.053035 -1.242792 -26.199255 31.841130 0.068733 2.537137 0.072827 -0.014381 -129570.000000 0 0 1
-18.566135 -1.840592 -27.388985 33.139789 0.098814 2.543602 0.071584 -0.025005 -23359.500000 0 0 1
-18.317535 -1.001492 -28.516605 33.907695 0.054620 2.569938 0.057611 -0.028296 -474196.000000 0 0 1
-18.606635 -1.717992 -29.862215 35.226555 0.092071 2.582466 0.056767 -0.033389 -781453.000000 0 0 1
-19.814935 -2.344392 -30.045855 36.067731 0.117767 2.555376 0.062322 -0.032370 -887686.000000 0 0 1
-19.770935 -2.924692 -31.380695 37.204726 0.146864 2.574488 0.071571 -0.044487 -538039.000000 0 0 1
-21.126535 -3.477292 -31.944535 38.456148 0.163131 2.551114 0.050912 -0.036940 41381.400000 0 0 1
-22.017535 -2.455692 -32.241005 39.118853 0.111074 2.539550 0.036950 -0.029017 -118173.000000 0 0 1
-22.772135 -2.029592 -31.126885 38.620879 0.088891 2.508092 0.034404 -0.014519 -672994.000000 0 0 1
-23.887335 -1.000892 -31.481425 39.530831 0.041876 2.492076 0.039496 -0.014411 202966.000000 0 0 1
-23.343435 0.208408 -31.957805 39.576011 -0.008928 2.510705 0.042656 -0.022866 100637.000000 0 0 1
-24.361535 1.057808 -32.379355 40.534256 -0.043394 2.496118 0.037970 -0.024602 -506953.000000 0 0 1
-23.833935 2.272808 -33.078465 40.833894 -0.095073 2.515074 0.052766 -0.024256 -789880.000000 0 0 1
-23.236235 3.260008 -32.234205 39.869715 -0.139389 2.512375 0.047211 -0.020200 396623.000000 0 0 1
-24.056135 4.220808 -31.575275 39.918803 -0.173689 2.483218 0.042454 -0.022856 -382104.000000 0 0 1
-25.135985 5.020708 -32.348185 41.272634 -0.197147 2.471507 0.035475 -0.024998 877.332000 0 0 1
-26.335285 4.296308 -32.541975 42.083080 -0.161714 2.454793 0.056596 -0.033234 519559.000000 0 0 1
-27.309975 5.046308 -33.293195 43.355931 -0.182718 2.446359 0.078828 -0.037030 826443.000000 0 0 1
-28.713225 4.401608 -33.460865 44.310866 -0.152111 2.426662 0.086731 -0.029963 171056.000000 0 0 1
-28.673905 3.296108 33.578808 44.278589 -0.114449 0.710013 0.088711 -0.028778 346464.000000 0 0 1
-29.976835 2.786008 33.373913 44.946529 -0.092672 0.733964 0.098340 -0.024106 89745.200000 0 0 1
-29.989085 1.338208 32.869987 44.514852 -0.044594 0.740094 0.096428 -0.005119 -171280.000000 0 0 1
-29.869025 0.463508 33.915153 45.195255 -0.015517 0.722108 0.090452 -0.007522 109692.000000 0 0 1
-29.956105 -0.908492 33.498608 44.948307 0.030318 0.729857 0.072442 0.000856 -619508.000000 0 0 1
-29.656665 -1.941692 -33.226645 44.579119 0.065379 2.411842 0.031849 -0.002377 56242.500000 0 0 1
-28.417385 -1.958592 -32.541805 43.247577 0.068813 2.422576 0.056508 -0.010530 322731.000000 0 0 1
-27.953165 -0.748392 -32.048385 42.532793 0.026767 2.424163 0.063293 -0.004544 -761325.000000 0 0 1
-28.213535 -0.602092 -30.511385 41.560927 0.021337 2.395190 0.080619 -0.009407 -454494.000000 0 0 1
-27.333085 -1.426292 -29.812235 40.470991 0.052135 2.398873 0.068973 -0.016415 210674.000000 0 0 1
-27.152965 -0.845592 -28.516755 39.385325 0.031132 2.380445 0.083043 -0.019655 125721.000000 0 0 1
-25.952635 -1.389492 -27.678865 37.968269 0.053488 2.387656 0.076959 -0.020354 230278.000000 0 0 1
-26.155545 -2.690392 -27.260605 37.874679 0.102501 2.374250 0.075063 -0.014793 544638.000000 0 0 1
-25.036435 -3.210092 -26.521255 36.612903 0.127521 2.380915 0.088337 -0.018674 364873.000000 0 0 1
-25.325165 -4.476992 -25.724755 36.375409 0.174973 2.356329 0.096178 -0.022842 371143.000000 0 0 1
-26.158065 -4.283292 -24.568875 36.141673 0.162306 2.318277 0.112053 -0.018427 218727.000000 0 0 1
-26.655555 -5.454992 -24.001575 36.281553 0.201860 2.293662 0.111166 -0.021279 76662.600000 0 0 1
-27.633665 -5.121192 -22.855975 36.224875 0.183245 2.253570 0.111350 -0.021294 58584.000000 0 0 1
-28.252605 -6.235092 -22.224675 36.483177 0.217209 2.225817 0.122228 -0.025265 -394866.000000 0 0 1
-29.215355 -5.819092 -21.331175 36.639020 0.196606 2.192226 0.134979 -0.021402 -428858.000000 0 0 1
-29.850975 -6.972692 -20.568975 36.915875 0.229469 2.161788 0.140394 -0.033416 -686753.000000 0 0 1
-28.930355 -7.554792 -19.701675 35.807768 0.255433 2.153408 0.132485 -0.034298 -259442.000000 0 0 1
-29.418755 -8.436092 -18.751875 35.892389 0.279265 2.120515 0.142490 -0.021337 117705.000000 0 0 1
-30.103795 -7.808792 -17.508275 35.689709 0.253802 2.083539 0.149755 -0.038908 247980.000000 0 0 1
-29.092485 -7.423092 -16.626475 34.320761 0.249824 2.076523 0.151833 -0.041927 185313.000000 0 0 1
-29.605375 -6.548292 -15.646175 34.119805 0.217681 2.047177 0.147695 -0.042777 -101104.000000 0 0 1
-28.522565 -5.987492 -14.704875 32.643837 0.206917 2.038081 0.149539 -0.038967 -197323.000000 0 0 1
-27.694625 -5.040292 -15.315575 32.046273 0.180025 2.069082 0.156575 -0.036996 43506.300000 0 0 1
-26.758315 -4.472892 -14.434475 30.730575 0.165628 2.059759 0.148972 -0.044063 -244313.000000 0 0 1
-14.067235 20.864208 -4.762575 25.610240 -0.977577 1.757849 0.069257 -0.035267 -203091.000000 0 0 1
-14.379835 20.522808 -6.095075 25.789828 -0.959617 1.809390 0.095165 -0.034884 80116.700000 0 0 1
-15.189335 19.377808 -6.174075 25.383745 -0.905980 1.816490 0.098107 -0.047003 -289687.000000 0 0 1
-15.429335 18.884408 -7.649375 25.557742 -0.885751 1.874753 0.113654 -0.043288 -933600.000000 0 0 1
-14.281835 18.380308 -8.257575 24.698058 -0.910227 1.911702 0.098360 -0.036952 -678857.000000 0 1 0
-14.420935 17.313908 -9.187275 24.333943 -0.876308 1.957945 0.086835 -0.031093 -502618.000000 0 1 0
-15.065935 15.980708 -8.734075 23.635767 -0.814854 1.949297 0.083517 -0.032960 -75902.400000 0 1 0
-16.424635 16.096608 -8.395675 24.481764 -0.775312 1.920837 0.098040 -0.024865 -224717.000000 0 1 0
-16.851635 15.164908 -7.438275 23.859588 -0.732764 1.887833 0.107646 -0.012168 333063.000000 0 1 0
-18.352635 15.347708 -7.082875 24.950721 -0.696467 1.858629 0.118947 -0.012917 649100.000000 0 1 0
-19.291035 14.790808 -7.994875 25.589647 -0.654116 1.888542 0.112134 -0.018607 342307.000000 0 0 1
-20.616335 15.235508 -7.799875 26.795373 -0.636425 1.866163 0.112853 -0.025232 671851.000000 0 0 1
-21.735335 14.446008 -8.570275 27.469283 -0.586593 1.888088 0.114166 -0.020659 464417.000000 0 0 1
-21.791435 13.135108 -8.083175 26.697105 -0.542450 1.878398 0.140393 -0.020004 -94198.000000 0 0 1
-22.646735 12.350808 -8.845375 27.270088 -0.499280 1.901133 0.150024 -0.020646 -218619.000000 0 0 1
-22.827435 10.953008 -8.215975 26.618835 -0.447372 1.884573 0.146802 -0.023613 -473676.000000 0 0 1
-21.711935 10.109208 -8.235575 25.326446 -0.435756 1.901995 0.137471 -0.020666 -119818.000000 0 0 1
-21.713435 9.153408 -7.137175 24.621076 -0.398949 1.864899 0.144101 -0.023080 -648686.000000 0 1 0
-20.471735 8.268508 -7.089775 23.188899 -0.383863 1.881512 0.080155 -0.008043 -977330.000000 0 1 0
-20.459335 7.144108 -7.884375 23.060486 -0.335949 1.919734 0.094849 -0.009620 -13.159800 0 1 0
-19.353035 6.307608 -7.756575 21.782799 -0.315067 1.934874 0.048227 0.001546 -738698.000000 0 1 0
-19.271735 5.081508 -8.644775 21.724493 -0.257809 1.980053 0.042161 -0.011291 -908004.000000 0 1 0
-20.202035 4.063608 -8.415575 22.258864 -0.198500 1.958515 0.068231 -0.017545 347870.000000 0 1 0
-20.278135 3.243308 -9.492075 22.623467 -0.158598 2.003765 0.080985 -0.023341 -196542.000000 0 1 0
-21.202635 2.008108 -9.349175 23.259219 -0.094429 1.984448 0.087181 -0.027485 104766.000000 0 1 0
-20.772435 0.954308 -8.458775 22.448956 -0.045909 1.957136 0.076500 -0.027628 13375.000000 0 1 0
-21.762835 -0.010292 -8.335475 23.304532 0.000473 1.936575 0.092191 -0.023608 -403506.000000 0 1 0
-21.532735 -1.223392 -9.257675 23.470404 0.056754 1.976255 0.077156 -0.040966 -822396.000000 0 1 0
-20.448235 -1.980392 -8.895975 22.387287 0.096548 1.979442 0.052674 -0.025927 -406233.000000 0 1 0
-20.476735 -3.344392 -9.334175 22.751009 0.161897 1.993552 0.047207 -0.021131 -151853.000000 0 1 0
-21.532935 -4.272692 -8.616175 23.583079 0.195882 1.944809 0.061719 -0.022821 375576.000000 0 1 0
-21.382235 -4.328292 -7.227775 22.982054 0.199726 1.890722 0.061576 -0.017271 1102510.000000 0 1 0
-22.479435 -5.015192 -6.551375 23.945723 0.219507 1.847923 0.082469 -0.009435 704843.000000 0 1 0
-22.612735 -6.550592 -6.729275 24.485284 0.281968 1.849209 0.097300 -0.020162 263056.000000 0 1 0
-21.379635 -7.191692 -6.406975 23.449062 0.324490 1.847545 0.074247 -0.024641 991877.000000 0 1 0
-21.585735 -8.539492 -6.525075 24.113139 0.376715 1.844815 0.095195 -0.028345 -639138.000000 0 1 0
-20.553635 -9.402092 -5.798875 23.334056 0.429025 1.821944 0.088600 -0.028913 -461594.000000 0 1 0
-19.316735 -9.368392 -6.472075 22.422996 0.451566 1.863598 0.068534 -0.024648 -33797.400000 0 1 0
-18.312635 -9.879592 -5.621975 21.553782 0.494743 1.834683 0.057060 -0.023835 218880.000000 0 1 0
-17.418035 -11.106392 -6.082675 21.534595 0.567635 1.857155 0.039346 -0.029205 298340.000000 0 1 0
-16.411535 -11.008092 -7.084275 20.992939 0.590827 1.915013 0.046172 -0.031414 669973.000000 0 1 0
-16.851735 -10.565292 -8.348775 21.571008 0.560004 1.968212 0.060196 -0.034194 -108252.000000 0 1 0
-15.796535 -10.839592 -9.469275 21.370410 0.601404 2.029852 0.058107 -0.030902 468077.000000 0 1 0
-15.827135 -12.195792 -9.859675 22.281129 0.656532 2.029195 0.060359 -0.031617 907138.000000 0 1 0
-14.733235 -12.548992 -10.741975 22.134485 0.705508 2.077508 0.061235 -0.020887 809532.000000 0 1 0
-15.010935 -13.884892 -11.466275 23.443418 0.746449 2.081859 0.083557 -0.018628 376681.000000 0 1 0
-15.987235 -13.819492 -12.522375 24.563792 0.712799 2.105737 0.086573 -0.017554 427653.000000 0 1 0
-16.223635 -15.100392 -13.066375 25.728550 0.749555 2.103489 0.087548 -0.008174 216681.000000 0 0 1
-17.032535 -14.862992 -14.387375 26.795752 0.717482 2.137587 0.114683 -0.007719 113045.000000 0 0 1
-17.360135 -16.043692 -15.097775 28.048478 0.746009 2.139184 0.112467 -0.001906 228575.000000 0 0 1
-17.564835 -15.780192 -16.419275 28.759876 0.731929 2.178409 0.103749 -0.002214 -302041.000000 0 0 1
-17.813235 -17.083492 -17.265475 30.120651 0.764490 2.181215 0.100457 -0.013115 -196454.000000 0 0 1
-18.980135 -17.818392 -16.993375 31.088830 0.753838 2.149103 0.066408 -0.008119 -202190.000000 0 0 1
-19.884235 -17.760192 -18.086275 32.216774 0.729034 2.166865 0.074688 -0.009800 26400.800000 0 0 1
-21.387135 -17.881892 -17.748875 33.048360 0.696372 2.137741 0.070661 -0.013253 -24148.400000 0 0 1
-21.957435 -16.712192 -17.195775 32.513396 0.650579 2.128080 0.064001 0.006228 193618.000000 0 0 1
-21.706535 -16.596392 -15.825375 31.576199 0.652767 2.095759 0.061065 0.003745 -535751.000000 0 0 1
-21.607335 -15.145692 -15.298975 30.501271 0.611364 2.096226 0.075017 -0.004936 29237.700000 0 0 1
-22.862535 -14.503792 -15.146875 31.023915 0.565324 2.080859 0.092693 -0.003081 576429.000000 0 0 1
-22.630635 -13.159492 -14.854875 30.099587 0.526698 2.086933 0.103164 -0.008100 -211574.000000 0 0 1
-23.911335 -12.430092 -14.442575 30.575269 0.479394 2.062764 0.124465 -0.023427 40827.900000 0 0 1
-24.590935 -12.931192 -13.278775 30.793760 0.484115 2.016637 0.143607 -0.014384 833154.000000 0 0 1
-25.708485 -12.129492 -12.893075 31.213493 0.440841 1.996609 0.185717 -0.023182 10888.200000 0 0 1
-26.401475 -12.694092 -11.664975 31.531721 0.448178 1.949745 0.199232 -0.030846 255555.000000 0 0 1
-27.405525 -11.817092 -11.110875 31.845847 0.407105 1.927189 0.173617 -0.038376 485083.000000 0 0 1
-28.053325 -12.385792 -10.025075 32.262966 0.415770 1.886757 0.167711 -0.032771 -244052.000000 0 0 1
-28.869075 -11.347092 -9.193775 32.352828 0.374504 1.858939 0.158049 -0.034750 -284495.000000 0 0 1
-28.111665 -10.300592 -8.713775 31.181689 0.351225 1.854019 0.172758 -0.037758 -409593.000000 0 0 1
-28.839805 -9.476692 -7.845275 31.354272 0.317482 1.823698 0.193602 -0.038450 249073.000000 0 0 1
-27.981485 -8.297292 -7.180175 30.056005 0.288268 1.812022 0.164642 -0.030394 207588.000000 0 0 1
-27.144765 -8.837692 -6.187275 29.210022 0.314753 1.784233 0.161032 -0.032122 -348712.000000 0 0 1
-26.448895 -7.873792 -5.428075 28.124804 0.289344 1.765015 0.142086 -0.027213 -474266.000000 0 0 1
-27.020235 -6.550392 -4.869275 28.226061 0.237837 1.744174 0.152438 -0.029822 -324972.000000 0 0 1
-27.981665 -6.601192 -3.804175 29.000363 0.231675 1.702352 0.157874 -0.033477 776297.000000 0 0 1
-27.452855 -6.992092 -2.532875 28.442293 0.249392 1.659968 0.176422 -0.032233 -88577.300000 0 0 1
-26.912885 -5.786392 -1.671175 27.578588 0.211780 1.631430 0.174672 -0.028711 823627.000000 0 0 1
-27.935965 -4.914292 -1.119775 28.387009 0.174131 1.610253 0.190901 -0.033887 944979.000000 0 0 1
-27.335685 -3.844792 -0.449075 27.608400 0.139734 1.587063 0.174868 -0.037614 -870734.000000 0 0 1
-28.354555 -2.913692 0.120425 28.504120 0.102400 1.566571 0.184868 -0.034013 79797.300000 0 0 1
-29.295955 -3.478692 1.070225 29.521173 0.118190 1.534536 0.169142 -0.031198 806457.000000 0 0 1
-28.766695 -3.658392 2.360425 29.094298 0.126496 1.489577 0.170809 -0.031651 463875.000000 0 0 1
-29.947215 -3.812592 3.415025 30.381473 0.126629 1.458153 0.133444 -0.024541 946632.000000 0 0 1
-30.594325 -5.066292 3.271525 31.183054 0.164107 1.465689 0.133319 -0.023319 -166403.000000 0 0 1
-31.555445 -5.298392 4.259725 32.279472 0.166356 1.438446 0.131004 -0.026560 -341870.000000 0 0 1
-32.328105 -6.612192 4.089625 33.249849 0.201751 1.447487 0.116446 -0.021204 -305522.000000 0 0 1
-31.635945 -7.859592 4.367725 32.888952 0.243509 1.437601 0.101363 -0.013216 -99466.300000 0 0 1
-32.306635 -9.016492 4.140325 33.795829 0.272166 1.447978 0.122729 -0.018211 -823018.000000 0 0 1
-31.405005 -10.226592 4.423125 33.322988 0.314807 1.437668 0.096737 -0.012671 -17867.800000 0 0 1
-31.289225 -10.437792 5.843125 33.497839 0.321982 1.395467 0.085052 -0.010346 -95198.100000 0 0 1
-30.239315 -11.264392 6.188425 32.857256 0.356584 1.381322 0.074510 -0.007378 -662525.000000 0 0 1
-30.430075 -11.743792 7.692925 33.512493 0.368316 1.339177 0.084090 -0.022594 -113597.000000 0 0 1
-30.515875 -10.699892 8.612025 33.464508 0.337239 1.310520 0.103824 -0.013548 479408.000000 0 0 1
-30.399145 -11.078892 9.945825 33.849214 0.349487 1.272568 0.093356 -0.016053 -236273.000000 0 0 1
-30.442395 -9.958492 10.976125 33.858327 0.316153 1.240654 0.078986 -0.021221 -92311.900000 0 0 1
-29.345285 -9.063192 10.954025 32.607941 0.299553 1.228203 0.092495 -0.023538 270065.000000 0 0 1
-29.611945 -7.932692 11.775325 32.839810 0.261743 1.204062 0.086696 -0.027620 762658.000000 0 0 1
-28.494525 -6.790492 11.738225 31.556848 0.233945 1.189665 0.109279 -0.021527 849197.000000 0 0 1
-28.684755 -5.937392 10.578425 31.144355 0.204105 1.224243 0.113358 -0.019821 853429.000000 0 0 1
-27.827885 -4.784292 10.818025 30.237564 0.170260 1.204920 0.122058 -0.028521 385645.000000 0 0 1
-27.723475 -3.881692 9.558525 29.580804 0.139110 1.241758 0.137664 -0.034160 193314.000000 0 0 1
-26.928115 -4.421792 8.498025 28.581323 0.162755 1.268904 0.126611 -0.025305 128764.000000 0 0 1
-27.174675 -3.626792 7.330225 28.378667 0.132678 1.309534 0.141595 -0.039308 -28017.200000 0 0 1
-26.432465 -4.032992 6.036525 27.411309 0.151409 1.348756 0.139671 -0.029096 -467377.000000 0 0 1
-25.050935 -3.796392 6.030625 26.044776 0.150402 1.337127 0.162382 -0.043545 43418.100000 0 0 1
-24.466035 -4.306192 4.824025 25.306153 0.174223 1.378996 0.185523 -0.029751 496546.000000 0 0 1
-22.911535 -4.147492 4.850825 23.783831 0.179083 1.365400 0.173654 -0.027390 647438.000000 0 1 0
-22.547535 -2.755392 4.736325 23.203799 0.121601 1.365233 0.144899 -0.026820 931033.000000 0 1 0
-21.157835 -2.465692 4.492625 21.769641 0.116015 1.362932 0.111720 -0.020077 791492.000000 0 1 0
-20.702035 -1.000492 4.805025 21.275890 0.048291 1.342987 0.084701 -0.023528 -331319.000000 0 1 0
-20.852335 -0.023692 3.793625 21.194622 0.001136 1.390837 0.089550 -0.018895 1495890.000000 0 1 0
-22.216335 0.390208 3.557825 22.502798 -0.017562 1.412024 0.101937 -0.033364 787595.000000 0 1 0
-22.344235 1.508208 2.556425 22.540515 -0.067397 1.457137 0.123219 -0.020182 -66002.400000 0 1 0
-21.687735 2.693408 3.021825 22.062269 -0.123558 1.433396 0.095852 -0.020504 402097.000000 0 1 0
-21.832035 3.769908 2.147325 22.258952 -0.170992 1.474176 0.111854 -0.012675 221323.000000 0 1 0
-20.648835 4.041908 1.166725 21.073031 -0.193301 1.515402 0.078819 -0.001044 -92092.800000 0 1 0
-20.920735 4.955508 0.074625 21.499762 -0.232584 1.567325 0.095142 0.003019 983012.000000 0 1 0
-21.779435 4.507608 -1.009975 22.263925 -0.204085 1.616176 0.115295 -0.009856 429297.000000 0 1 0
-21.212435 3.284208 -1.790875 21.539745 -0.153605 1.654035 0.095634 -0.006002 -174727.000000 0 1 0
-21.145935 2.083908 -0.999275 21.271854 -0.098232 1.617790 0.070029 0.000129 485932.000000 0 1 0
-20.586235 1.002908 -1.709875 20.681454 -0.048679 1.653568 0.053929 0.002217 -742392.000000 0 1 0
-19.810635 0.148008 -0.784675 19.826721 -0.007471 1.610383 0.052895 0.000454 -1018180.000000 0 1 0
-20.608835 -0.660992 0.050525 20.619494 0.032062 1.568346 0.076081 -0.007098 680064.000000 0 1 0
-19.944635 -1.490492 1.014825 20.025980 0.074593 1.520099 0.068765 -0.010577 -149060.000000 0 1 0
-19.127035 -2.704892 0.470425 19.323074 0.140486 1.546449 0.038859 -0.010683 109897.000000 0 1 0
-18.252035 -3.307192 1.400625 18.602044 0.179251 1.495431 0.033467 -0.012694 531814.000000 0 1 0
-17.574435 -4.461892 0.946025 18.156657 0.248632 1.518669 0.022834 -0.008768 -579954.000000 0 1 0
-18.427035 -5.673292 0.617025 19.290479 0.298669 1.538805 0.026394 -0.010455 -506301.000000 0 1 0
-19.051435 -6.130292 1.804125 20.094589 0.311313 1.480894 0.048303 -0.015825 920112.000000 0 1 0
-20.238235 -6.881992 1.561825 21.433321 0.327782 1.497863 0.082861 -0.017466 -139593.000000 0 1 0
-20.994335 -7.292292 2.798325 22.400228 0.334308 1.445545 0.111406 -0.022118 -513219.000000 0 1 0
-20.236335 -8.100592 3.696825 22.108716 0.380764 1.402796 0.101697 -0.021772 460509.000000 0 1 0
-20.961735 -8.670192 4.736925 23.173368 0.392192 1.364933 0.097046 -0.028058 -348557.000000 0 1 0
-20.136235 -9.643192 5.619625 23.022582 0.446624 1.324213 0.096525 -0.017061 -275039.000000 0 1 0
-19.576335 -10.695392 4.922625 22.844179 0.500031 1.353606 0.098730 -0.015898 -102076.000000 0 1 0
-18.733935 -11.358092 5.791325 22.660671 0.545028 1.312362 0.110048 -0.014285 -658582.000000 0 1 0
-18.192935 -12.635992 5.228725 22.759410 0.607062 1.338987 0.087193 -0.002914 -158622.000000 0 1 0
-19.099735 -13.740892 5.251925 24.107980 0.623647 1.351185 0.099132 -0.000552 173222.000000 0 1 0
-18.419635 -14.961592 5.145825 24.281921 0.682174 1.357257 0.083879 0.002553 -865423.000000 0 1 0
-19.314635 -16.147592 4.991925 25.665524 0.696327 1.375049 0.095913 -0.000849 -325889.000000 0 0 1
-18.596735 -17.381092 4.939725 25.929554 0.751622 1.379119 0.100871 -0.010317 91447.000000 0 0 1
-19.464935 -18.474492 5.060725 27.309366 0.759298 1.384408 0.096401 -0.013391 -113865.000000 0 0 1
-18.840335 -19.858692 4.777525 27.787598 0.811707 1.398008 0.099027 -0.024461 -158972.000000 0 0 1
-18.411835 -20.159992 3.461325 27.520932 0.830689 1.444692 0.097641 -0.024695 430454.000000 0 0 1
-17.669435 -21.369992 3.339025 27.929099 0.879906 1.450956 0.086788 -0.021393 1128200.000000 0 0 1
-16.100035 -21.293792 3.430025 26.914713 0.923409 1.443008 0.098329 -0.018550 1095000.000000 0 0 1
-15.482535 -22.558692 3.802725 27.623616 0.969309 1.432696 0.088904 -0.026205 824470.000000 0 0 1
-14.094935 -22.343592 4.070325 26.729587 1.008018 1.417924 0.090940 -0.025309 647964.000000 0 0 1
-13.167135 -23.575792 4.215325 27.330576 1.061449 1.415943 0.105923 -0.029393 -283535.000000 0 0 1
-13.115235 -24.328592 2.974625 27.798168 1.076370 1.463583 0.106526 -0.032729 286931.000000 0 0 1
-12.385635 -25.538282 3.184725 28.561342 1.119234 1.459059 0.103513 -0.028049 195773.000000 0 0 1
18.768365 19.166208 -23.834275 35.884087 0.795885 2.297222 0.071410 -0.013536 -412077.000000 0 0 1
17.977365 19.457808 -24.957475 36.395982 0.824924 2.326390 0.065252 -0.017972 -117808.000000 0 0 1
18.638165 19.288608 -26.177305 37.479099 0.802546 2.344027 0.062281 -0.014251 86451.700000 0 0 1
17.688365 19.611408 -27.378585 38.040406 0.836909 2.374201 0.053384 -0.016103 439846.000000 0 0 1
17.438765 21.015708 -27.668465 38.875628 0.878149 2.362736 0.045553 -0.010512 -396400.000000 0 0 1
16.601065 21.140008 -28.734755 39.346937 0.905089 2.389546 0.047688 -0.017851 -545279.000000 0 0 1
16.359365 22.572308 -29.200785 40.371076 0.943650 2.379380 0.054416 -0.016217 -150061.000000 0 0 1
15.475865 23.249708 -28.317625 39.773599 0.983507 2.363097 0.064022 -0.018075 347950.000000 0 0 1
15.561965 24.659808 -28.584825 40.833480 1.007847 2.346241 0.067153 -0.012949 65220.300000 0 0 1
14.545565 25.413808 -27.711265 40.315621 1.050957 2.328642 0.067662 -0.023799 1033610.000000 0 0 1
13.131665 25.167308 -27.872095 39.783008 1.089881 2.347039 0.090069 -0.034568 1043670.000000 0 0 1
12.450165 25.825708 -26.817765 39.257691 1.121584 2.322824 0.077349 -0.026579 -622486.000000 0 0 1
11.074565 25.251008 -26.435355 38.198002 1.157480 2.335137 0.097289 -0.037051 368766.000000 0 0 1
10.280065 25.985708 -25.519695 37.844307 1.194085 2.310858 0.076605 -0.034021 65471.600000 0 0 1
9.778365 27.211008 -25.928815 38.837596 1.225813 2.301806 0.087754 -0.047754 -622103.000000 0 0 1
9.308965 28.076508 -24.742675 38.563546 1.250645 2.267389 0.088977 -0.047260 379319.000000 0 0 1
10.395065 28.585708 -23.982675 38.734594 1.222017 2.238461 0.081600 -0.035518 543901.000000 0 0 1
9.838165 29.546108 -23.023875 38.728037 1.249367 2.207442 0.096075 -0.036725 -44109.000000 0 0 1
10.849565 30.099608 -22.037975 38.850635 1.224838 2.173958 0.071978 -0.026584 -151989.000000 0 0 1
11.850365 30.942708 -22.586675 40.100377 1.205050 2.169114 0.064959 -0.033817 267331.000000 0 0 1
12.572865 31.646308 -21.570575 40.309496 1.192626 2.135451 0.042736 -0.012047 312760.000000 0 0 1
13.905665 32.215708 -22.151775 41.496030 1.163313 2.133918 0.033190 0.002849 -610606.000000 0 0 1
14.823565 31.225608 -22.312875 41.141719 1.127573 2.144018 0.035011 -0.007796 -1151240.000000 0 0 1
15.922465 31.830108 -22.963175 42.355497 1.106962 2.143794 0.023203 -0.003202 358124.000000 0 0 1
17.137765 30.883708 -23.281775 42.303043 1.064189 2.153588 0.007775 -0.001989 356285.000000 0 0 1
17.908065 30.562408 -22.169275 41.787993 1.040771 2.130008 0.016056 0.002630 -1130650.000000 0 0 1
19.126665 30.132008 -22.637175 42.263565 1.005208 2.136037 0.024317 0.000044 -767487.000000 0 0 1
20.064065 29.401808 -21.631475 41.652776 0.971974 2.116861 0.032218 0.000953 197383.000000 0 0 1
20.801565 30.233108 -20.744275 42.155319 0.968143 2.085287 0.042692 -0.000714 38100.200000 0 0 1
21.754365 29.470408 -20.049075 41.757907 0.934905 2.071595 0.061322 -0.009458 -120251.000000 0 0 1
22.521465 30.262408 -19.001475 42.238440 0.931014 2.037407 0.077746 -0.014671 -290515.000000 0 0 1
23.454465 31.215408 -19.492575 43.640281 0.926416 2.033830 0.082055 -0.017395 -63600.400000 0 0 1
23.926765 31.897408 -18.384375 43.908086 0.927221 2.002811 0.086628 -0.021446 -314025.000000 0 0 1
25.291865 32.559008 -18.631275 45.242589 0.910362 1.995234 0.090440 -0.025295 103723.000000 0 0 1
26.371265 31.668108 -18.827475 45.307687 0.876409 1.999340 0.089557 -0.020235 181753.000000 0 0 1
27.616065 32.306008 -18.598775 46.392237 0.863506 1.983298 0.080734 -0.022357 890406.000000 0 0 1
28.935965 31.677008 -19.138975 46.978967 0.830589 1.990396 0.087470 -0.028665 767481.000000 0 0 1
29.521065 30.676608 -18.292575 46.337521 0.804592 1.976612 0.085745 -0.016899 323502.000000 0 0 1
30.727765 30.127408 -18.821475 46.969184 0.775533 1.983099 0.066889 -0.020043 349196.000000 0 0 1
31.209265 28.937708 -17.964075 46.196506 0.747649 1.970193 0.055821 -0.019946 -428384.000000 0 0 1
31.791865 29.286508 -16.773375 46.365595 0.744402 1.940955 0.055447 -0.018142 -89406.600000 0 0 1
32.010365 28.154608 -15.967775 45.522690 0.721399 1.929184 0.063665 -0.013922 -318106.000000 0 0 1
32.462365 28.663608 -14.576875 45.693467 0.723332 1.895486 0.068328 -0.022818 100998.000000 0 0 1
33.788265 29.156108 -14.517775 46.930708 0.711939 1.885300 0.044541 -0.019515 -82194.300000 0 0 1
33.888565 30.541808 -14.882175 47.986624 0.733501 1.886128 0.048434 -0.023085 684402.000000 0 0 1
35.373465 31.032808 -15.117975 49.425402 0.720126 1.881653 0.040728 -0.022658 989454.000000 0 0 1
35.967865 31.252908 -13.895475 49.633817 0.715371 1.854549 0.040498 -0.027307 392625.000000 0 0 1
-36.807061 31.566608 -13.977275 50.463598 -0.708903 1.851443 0.033062 -0.035800 947795.000000 0 0 1
-36.179361 31.566808 -12.587875 49.637326 -0.717417 1.827193 0.025397 -0.027325 -511165.000000 0 0 1
-36.762261 32.547608 -11.728275 50.481314 -0.724664 1.805268 0.035649 -0.031906 364961.000000 0 0 1
-35.881761 33.072408 -10.734175 49.965063 -0.744678 1.787318 0.036747 -0.025041 -394898.000000 0 0 1
-36.402261 -33.792995 -10.059675 50.678281 0.748244 1.770624 0.023582 -0.018133 -648012.000000 0 0 1
-35.640061 -33.046795 -9.160175 49.459209 0.747661 1.757078 0.021186 -0.020203 -629739.000000 0 0 1
-35.464361 -33.722995 -7.946075 49.579243 0.760235 1.731761 0.019951 -0.013387 -145588.000000 0 0 1
-35.199361 -32.842295 -6.703475 48.606048 0.750770 1.709152 0.015147 -0.008877 -338852.000000 0 0 1
-36.174961 -31.856295 -6.469775 48.634446 0.722003 1.704220 0.017512 -0.005344 -411880.000000 0 0 1
-35.922961 -30.937895 -5.456975 47.722018 0.710977 1.685396 0.047322 -0.007160 957441.000000 0 0 1
36.904065 -30.292795 -4.929075 47.998534 -0.687327 1.673670 0.030668 0.003827 910606.000000 0 0 1
36.109165 -31.215095 -4.205875 47.916003 -0.712832 1.658685 0.010624 0.010807 663782.000000 0 0 1
34.782165 -30.785395 -3.879175 46.611024 -0.724517 1.654117 0.010800 0.012884 323218.000000 0 0 1
34.653165 -29.664895 -2.797375 45.702004 -0.707997 1.632044 0.008354 0.016764 -810421.000000 0 0 1
35.187265 -28.391895 -3.063575 45.316982 -0.678922 1.638451 0.038918 0.005682 19902.500000 0 0 1
34.703265 -27.384295 -2.217075 44.262079 -0.668058 1.620907 0.028071 0.006613 -292439.000000 0 0 1
35.167965 -25.969995 -2.555275 43.792189 -0.636072 1.629179 0.048224 -0.017424 -267695.000000 0 0 1
34.837165 -25.627695 -3.882875 43.422155 -0.634249 1.660337 0.037877 -0.011738 366402.000000 0 0 1
34.603765 -24.216195 -3.927775 42.417827 -0.610601 1.663526 0.049000 -0.018731 -208734.000000 0 0 1
34.227065 -23.658795 -5.294875 41.943608 -0.604816 1.697372 0.057011 -0.020625 -768738.000000 0 0 1
35.271665 -23.696995 -6.212975 42.944604 -0.591577 1.715980 0.075167 -0.027341 -251580.000000 0 0 1
34.894765 -23.183695 -7.456075 42.552572 -0.586424 1.746926 0.052459 -0.025575 -216113.000000 0 0 1
36.060765 -23.109795 -8.452275 43.656413 -0.569921 1.765636 0.057917 -0.032026 -49606.700000 0 0 1
36.615665 -24.341495 -8.901875 44.860436 -0.586698 1.770557 0.062353 -0.017479 92405.100000 0 0 1
-36.414961 -24.109995 -9.692075 44.735641 0.584828 1.789180 0.061673 -0.018354 528694.000000 0 0 1
-35.676861 -25.381995 -10.234675 44.964793 0.618364 1.800424 0.064423 -0.020958 127770.000000 0 0 1
-35.061861 -26.258295 -9.305775 44.782023 0.642805 1.780123 0.062054 -0.017022 633151.000000 0 0 1
-35.970161 -27.230995 -8.704575 45.947243 0.647994 1.761395 0.048663 -0.015187 556595.000000 0 0 1
-35.235261 -28.492995 -8.233675 46.056137 0.679993 1.750537 0.032428 -0.008418 192703.000000 0 0 1
-34.504561 -29.210195 -9.239975 46.143010 0.702494 1.772406 0.030985 -0.010798 234031.000000 0 0 1
-33.798661 -30.292995 -8.725475 46.218491 0.730755 1.760724 0.038563 -0.022485 -448199.000000 0 0 1
-33.215061 -31.219595 -9.801175 46.625813 0.754439 1.782585 0.032376 -0.022637 -557400.000000 0 0 1
-32.006461 -30.758995 -10.349775 45.581215 0.765526 1.799856 0.016227 0.000336 -85786.200000 0 0 1
-31.597861 -31.488295 -11.468275 46.059297 0.783661 1.822433 0.009215 -0.000744 -314149.000000 0 0 1
-31.852061 -30.839595 -12.884575 46.169759 0.769250 1.853621 -0.003458 0.006549 -398938.000000 0 0 1
-30.906061 -29.843095 -13.189575 44.941738 0.767902 1.868663 0.004111 0.007130 -185352.000000 0 0 1
-31.083861 -29.285995 -14.488075 45.097452 0.755626 1.897858 -0.004771 0.020003 80557.100000 0 0 1
-30.017261 -28.260295 -15.030775 43.881709 0.755259 1.920404 0.007957 0.004679 895868.000000 0 0 1
-28.821161 -28.948795 -15.437275 43.669228 0.787608 1.932111 0.020430 0.000008 -78931.300000 0 0 1
-27.886061 -28.030895 -15.890775 42.613146 0.787988 1.952937 0.042428 0.011274 -427660.000000 0 0 1
-26.679861 -28.700095 -16.571775 42.545671 0.821862 1.970891 0.061761 -0.000991 -493872.000000 0 0 1
-26.999861 -29.274595 -17.821975 43.630462 0.825798 1.991580 0.051755 -0.000874 -39661.300000 0 0 1
-27.031361 -28.392595 -18.929475 43.533423 0.809954 2.020642 0.044719 0.010200 887336.000000 0 0 1
-25.688361 -27.636095 -19.324175 42.391855 0.821908 2.044119 0.064282 0.004658 987269.000000 0 0 1
-25.314261 -26.525895 -18.478775 41.059713 0.808766 2.037614 0.075160 -0.002450 -106331.000000 0 0 1
-24.011861 -26.045895 -18.720575 40.067668 0.826010 2.056945 0.088600 -0.011351 25928.900000 0 0 1
-23.670961 -24.946895 -17.737675 38.694794 0.811636 2.046990 0.094904 -0.012364 -143500.000000 0 0 1
-23.709861 -25.268595 -16.374475 38.324702 0.817212 2.012252 0.102684 -0.009261 177007.000000 0 0 1
-23.202561 -24.239095 -15.570175 36.990849 0.807243 2.005255 0.115094 -0.009757 -144997.000000 0 0 1
-23.583461 -24.382195 -14.071475 36.724344 0.802049 1.964016 0.103682 -0.001535 305668.000000 0 0 1
-24.931761 -23.993795 -13.846575 37.269593 0.766229 1.951447 0.065240 0.016427 311832.000000 0 0 1
-25.334461 -23.998595 -12.469575 37.057493 0.758326 1.913986 0.061055 0.019931 -268522.000000 0 0 1
-26.859261 -24.031495 -12.342375 38.095497 0.729890 1.900735 0.034677 0.033914 -1165410.000000 0 0 1
-27.403961 -25.311495 -12.555475 39.361006 0.745725 1.895452 0.036917 0.021695 44528.200000 0 0 1
-28.759761 -25.465495 -12.216575 40.309552 0.724721 1.878708 0.016541 0.024112 231441.000000 0 0 1
-29.889361 -24.586195 -12.864575 40.784215 0.688354 1.891706 0.026710 0.027710 -829432.000000 0 0 1
-30.122161 -23.330395 -12.214375 40.010534 0.659014 1.881028 0.032047 0.034296 272733.000000 0 0 1
-30.770461 -23.316395 -10.956475 40.131283 0.648444 1.847323 0.042200 0.018190 369043.000000 0 0 1
-32.280861 -23.759495 -10.830275 41.519422 0.634496 1.834697 0.030264 0.011088 1332510.000000 0 0 1
-33.312761 -22.849495 -11.295875 41.945634 0.601206 1.843460 0.048764 0.003542 873214.000000 0 0 1
-33.363661 -22.658895 -12.684575 42.278338 0.596594 1.875516 0.052002 0.012795 -482800.000000 0 0 1
-34.826961 -22.440095 -13.144175 43.465439 0.572380 1.878011 0.037609 -0.002137 -22327.300000 0 0 1
-35.659861 -23.577495 -13.138175 44.722875 0.584193 1.868963 0.045050 -0.001125 348308.000000 0 0 1
-36.942761 -23.073895 -13.541275 45.612919 0.558301 1.872213 0.059722 -0.019180 405011.000000 0 0 1
36.073065 -24.054195 -13.264975 45.341260 -0.588108 1.867698 0.054808 -0.014219 -154639.000000 0 0 1
36.125465 -25.092595 -14.189475 46.217191 -0.607090 1.882854 0.043309 -0.007179 36271.800000 0 0 1
35.474065 -26.238995 -13.675475 46.194294 -0.636855 1.871343 0.036385 -0.018379 214660.000000 0 0 1
35.416365 -27.459095 -14.609875 47.135647 -0.659511 1.885941 0.033622 -0.017673 516332.000000 0 0 1
34.278365 -27.412695 -15.464375 46.536105 -0.674563 1.909547 0.039807 -0.024725 102069.000000 0 0 1
34.278465 -28.421995 -16.480575 47.480863 -0.692264 1.925273 0.032629 -0.023261 498951.000000 0 0 1
33.169265 -28.107495 -17.550975 46.885692 -0.702980 1.954476 0.035893 -0.022633 668991.000000 0 0 1
31.833365 -28.423395 -17.201175 46.012313 -0.728868 1.953940 0.069086 -0.030187 234653.000000 0 0 1
31.001465 -27.982295 -18.280875 45.588267 -0.734256 1.983404 0.077674 -0.030003 107809.000000 0 0 1
29.489665 -28.112395 -18.024275 44.551336 -0.761493 1.987308 0.083284 -0.037479 13145.100000 0 0 1
29.004265 -27.173795 -17.056875 43.250428 -0.752826 1.976184 0.071162 -0.035421 -1151520.000000 0 0 1
27.630565 -27.288095 -16.995475 42.390263 -0.779162 1.983327 0.086754 -0.035156 -1030680.000000 0 0 1
27.130865 -26.272395 -15.931675 40.989521 -0.769324 1.969991 0.079547 -0.037753 -82169.000000 0 0 1
27.109965 -24.947395 -16.414575 40.333125 -0.743880 1.989936 0.075407 -0.042766 -230559.000000 0 0 1
26.509365 -24.216595 -15.404875 39.070450 -0.740230 1.976086 0.087138 -0.042567 -85703.000000 0 0 1
26.458365 -22.721395 -15.599775 38.205495 -0.709558 1.991401 0.089527 -0.043961 -214492.000000 0 0 1
25.314065 -22.333595 -16.305075 37.489289 -0.722927 2.020753 0.107656 -0.046576 -208909.000000 0 0 1
25.115765 -20.918295 -16.215075 36.487058 -0.694468 2.031308 0.103437 -0.038663 82879.800000 0 0 1
23.602065 -20.595195 -16.208275 35.269359 -0.717470 2.048292 0.107575 -0.037818 -101048.000000 0 0 1
23.090265 -20.830895 -14.910275 34.487720 -0.734002 2.017878 0.116163 -0.037562 324936.000000 0 0 1
21.715565 -20.471795 -14.825575 33.323533 -0.755925 2.031857 0.097391 -0.027539 375006.000000 0 0 1
21.394465 -19.163295 -14.120375 32.005312 -0.730441 2.027719 0.090295 -0.021038 -251183.000000 0 0 1
21.371465 -19.245495 -12.699875 31.439075 -0.733104 1.986629 0.100335 -0.027652 385733.000000 0 0 1
20.786665 -18.058395 -12.073475 30.065925 -0.715279 1.984023 0.093913 -0.032449 74948.900000 0 0 1
19.930765 -18.269395 -10.814475 29.119737 -0.741934 1.951291 0.104816 -0.022663 63619.700000 0 0 1
20.610965 -18.775095 -9.682775 29.513932 -0.738820 1.905061 0.117381 -0.042553 54069.100000 0 0 1
19.682965 -18.778495 -8.615375 28.535516 -0.761886 1.877500 0.113433 -0.046552 407738.000000 0 0 1
20.206365 -19.579395 -7.386075 29.089586 -0.769641 1.827515 0.110012 -0.048049 822988.000000 0 0 1
21.245665 -18.898895 -6.633375 29.198428 -0.727007 1.799980 0.108626 -0.048593 651046.000000 0 0 1
21.910865 -19.826795 -5.766675 30.107181 -0.735507 1.763525 0.114707 -0.035184 -572069.000000 0 0 1
23.181865 -19.223195 -5.191775 30.559526 -0.692314 1.741515 0.103942 -0.026264 -806028.000000 0 0 1
24.103865 -18.927895 -6.210675 31.270337 -0.665691 1.770738 0.083882 -0.035777 -388691.000000 0 0 1
25.078165 -18.093095 -5.653275 31.436189 -0.624989 1.751613 0.091661 -0.038215 -164739.000000 0 0 1
26.214365 -17.689495 -6.634775 32.313022 -0.593613 1.777595 0.082085 -0.047527 349580.000000 0 0 1
27.205965 -18.623895 -7.015575 33.708045 -0.600283 1.780457 0.082375 -0.051242 424013.000000 0 0 1
26.904565 -19.486495 -8.167675 34.209502 -0.626837 1.811879 0.080285 -0.052115 230286.000000 0 0 1
27.936465 -20.688995 -8.305575 35.741617 -0.637441 1.805318 0.064372 -0.050655 456616.000000 0 0 1
29.210065 -20.183995 -8.624975 36.537813 -0.604656 1.809102 0.054749 -0.044331 -258352.000000 0 0 1
30.195265 -21.147195 -8.292075 37.785135 -0.610960 1.792050 0.044057 -0.040348 67225.200000 0 0 1
-30.826175 29.908108 4.142825 43.149867 -0.770283 1.474638 0.080186 -0.010736 288297.000000 0 0 1
-29.964365 30.427308 3.156225 42.821093 -0.793064 1.497022 0.066283 -0.000804 89536.100000 0 0 1
-28.958135 31.221708 3.781325 42.751223 -0.822994 1.482231 0.058838 0.013935 643160.000000 0 0 1
-28.266295 32.364608 2.928725 43.070044 -0.852890 1.502745 0.060449 0.012827 -300536.000000 0 0 1
-27.412205 31.987208 1.901225 42.169007 -0.862267 1.525695 0.056447 0.013795 31234.100000 0 0 1
-26.777895 33.108708 1.285425 42.601579 -0.890720 1.540619 0.071174 -0.003894 409472.000000 0 0 1
-25.425135 33.546808 1.896925 42.135782 -0.922258 1.525762 0.056749 0.003675 -410007.000000 0 0 1
-24.295335 32.772008 1.591425 40.826467 -0.932858 1.531806 0.060748 0.006985 -77144.500000 0 0 1
-23.171035 33.451008 2.137025 40.748419 -0.964996 1.518328 0.055301 0.004081 -132125.000000 0 0 1
-21.789835 33.089008 1.610425 39.651896 -0.988454 1.530171 0.049291 0.000569 -380243.000000 0 0 1
-21.449935 33.721908 0.391225 39.967735 -1.004267 1.561008 0.064242 -0.007958 -115335.000000 0 0 1
-20.171035 33.292208 0.000825 38.926106 -1.026066 1.570775 0.063139 -0.014156 -521618.000000 0 0 1
-19.636635 -33.867895 -1.108975 39.164544 1.045362 1.599116 0.072296 -0.017151 -31811.600000 0 0 1
-19.461535 -32.480095 -0.802375 37.872836 1.030977 1.591984 0.082338 -0.024364 370345.000000 0 0 1
-18.502735 -32.159695 0.195925 37.103039 1.048707 1.565516 0.080126 -0.024482 -235227.000000 0 0 1
-18.366635 -30.611395 0.346225 35.700289 1.030382 1.561098 0.089467 -0.028355 -42366.300000 0 0 1
-17.607235 -30.039295 -0.722275 34.826651 1.040630 1.591537 0.092353 -0.025381 246883.000000 0 0 1
-17.595235 -28.633895 -0.541975 33.612289 1.019791 1.586921 0.075704 -0.027259 -447365.000000 0 0 1
-16.704735 -27.898695 -1.516775 32.552818 1.031286 1.617407 0.080090 -0.019058 -483539.000000 0 0 1
-17.060935 -28.039895 -2.869675 32.947628 1.024185 1.658005 0.079453 -0.013074 -506030.000000 0 0 1
-16.328335 -27.214695 -3.712375 31.953651 1.030390 1.687239 0.089432 -0.005384 -584445.000000 0 0 1
-16.786235 -27.113495 -5.203175 32.310870 1.016444 1.732535 0.126447 -0.015012 -628659.000000 0 0 1
-18.034535 -26.502495 -5.276775 32.488013 0.973288 1.733941 0.108821 -0.009379 -1031390.000000 0 0 1
-18.444835 -26.303295 -6.620175 32.800944 0.959241 1.774021 0.140341 -0.011368 78511.900000 0 0 1
-19.009135 -24.910995 -6.808775 32.066560 0.918975 1.784758 0.109084 -0.003329 353288.000000 0 0 1
-17.981235 -23.905495 -6.781775 30.672299 0.925901 1.793743 0.117625 0.001506 364912.000000 0 0 1
-18.432035 -22.651295 -7.223775 30.083284 0.887739 1.813292 0.085986 -0.003922 70587.500000 0 0 1
-17.309835 -21.593095 -7.181875 28.591457 0.895058 1.824705 0.094351 0.000356 -15147.700000 0 0 1
-16.316035 -21.808495 -8.125475 28.422645 0.928480 1.860721 0.123033 -0.010213 -280618.000000 0 0 1
-15.087935 -21.171995 -7.806575 27.144829 0.951640 1.862506 0.147820 -0.024436 1038560.000000 0 0 1
-13.999735 -21.105395 -8.919375 26.851173 0.985111 1.909408 0.121696 -0.007463 747630.000000 0 0 1
-14.478235 -20.218295 -9.912975 26.770614 0.949349 1.950121 0.123934 -0.005105 322448.000000 0 0 1
-13.588535 -20.280895 -11.036675 26.791251 0.980478 1.995390 0.115148 0.002579 593397.000000 0 0 1
-14.087435 -19.360995 -12.212775 26.878538 0.941773 2.042460 0.136545 -0.000948 401117.000000 0 0 1
-15.270635 -19.897195 -12.785675 28.152515 0.916204 2.042223 0.118041 0.022287 -213278.000000 0 0 1
-15.661735 -18.966595 -13.784175 28.196190 0.880548 2.081586 0.119588 -0.008052 -243102.000000 0 0 1
-16.886135 -19.480895 -14.554875 29.605594 0.856627 2.084752 0.131809 -0.013055 -332943.000000 0 0 1
-18.028135 -19.343795 -13.743475 29.800656 0.820588 2.050121 0.130052 -0.011917 218722.000000 0 0 1
-19.183035 -19.808495 -14.450375 31.131633 0.801438 2.053494 0.106756 -0.003722 971443.000000 0 0 1
-20.599935 -19.645495 -13.769075 31.621040 0.761687 2.021324 0.077522 0.008104 796707.000000 0 0 1
-21.506335 -20.277495 -14.649675 32.989577 0.755997 2.030932 0.087149 0.000771 -784992.000000 0 0 1
-22.813335 -19.894995 -14.320875 33.486512 0.717172 2.012700 0.073555 0.013406 -1025980.000000 0 0 1
-23.804835 -20.484995 -15.273275 34.922458 0.710581 2.023444 0.080908 0.002760 -815765.000000 0 0 1
-23.544735 -20.073895 -16.602075 35.113312 0.705993 2.063278 0.074069 -0.017320 -112743.000000 0 0 1
-24.488535 -20.604495 -17.452875 36.453208 0.699476 2.070055 0.094730 -0.024773 -578787.000000 0 0 1
-24.600235 -19.936895 -18.831775 36.841377 0.681072 2.107328 0.093350 -0.024169 -374847.000000 0 0 1
-23.483935 -20.111095 -19.657775 36.638496 0.708184 2.137120 0.083350 -0.032993 -49674.400000 0 0 1
-23.711335 -19.436495 -20.887275 37.098288 0.686646 2.168838 0.089003 -0.039415 -913440.000000 0 0 1
-22.438335 -18.831795 -21.369375 36.259696 0.698231 2.201041 0.076690 -0.029496 -826376.000000 0 0 1
-21.362335 -19.668595 -21.738775 36.273644 0.744142 2.213422 0.065870 -0.028806 764581.000000 0 0 1
-20.280135 -18.873995 -22.275775 35.548863 0.749501 2.248010 0.059846 -0.023923 854084.000000 0 0 1
-18.893935 -19.547595 -22.418175 35.237250 0.802401 2.260368 0.074493 -0.020748 -106973.000000 0 0 1
-18.939435 -20.624395 -23.371275 36.473063 0.827961 2.266312 0.051882 -0.014055 503646.000000 0 0 1
-17.883935 -21.562795 -23.132275 36.330309 0.878391 2.261035 0.042740 -0.009765 257963.000000 0 0 1
-17.928135 -22.871195 -23.968375 37.669517 0.905966 2.260463 0.037616 -0.006406 -157419.000000 0 0 1
-17.974935 -22.793495 -25.370905 38.552879 0.903046 2.289063 0.038887 -0.007410 285070.000000 0 0 1
-18.302035 -24.062795 -25.876795 39.794360 0.920549 2.278727 0.064804 -0.017621 -124032.000000 0 0 1
-18.111535 -24.267795 -27.417905 40.849664 0.929655 2.306610 0.073968 -0.007351 505537.000000 0 0 1
-16.780035 -24.212595 -27.919685 40.587290 0.964764 2.329377 0.041487 -0.000418 514277.000000 0 0 1
-16.892835 -24.265195 -29.304195 41.628156 0.962642 2.351742 0.068994 -0.006791 492255.000000 0 0 1
-15.492235 -24.022595 -29.970685 41.416619 0.998013 2.379857 0.041536 -0.016935 -14348.700000 0 0 1
-14.714135 -25.114295 -29.701945 41.586525 1.040819 2.366306 0.053782 -0.011482 -263645.000000 0 0 1
-13.359335 -24.780895 -30.029155 41.162054 1.076362 2.388438 0.055376 -0.016751 214095.000000 0 0 1
-12.410035 -25.903295 -29.704035 41.319721 1.124015 2.372990 0.076210 -0.015935 -1595610.000000 0 0 1
-12.585635 -27.072195 -30.463145 42.653313 1.135628 2.366282 0.086552 -0.010157 487592.000000 0 0 1
-11.575435 -28.048495 -30.199525 42.810279 1.179395 2.353822 0.080694 -0.014564 1118260.000000 0 0 1
-10.126635 -27.748595 -30.722205 42.619093 1.220872 2.375832 0.081501 -0.013318 117321.000000 0 0 1
-9.532535 -26.592095 -30.196345 41.350066 1.226594 2.389500 0.070709 -0.021514 -399339.000000 0 0 1
-8.320135 -26.380395 -30.890225 41.465116 1.265280 2.411285 0.069792 -0.017563 461783.000000 0 0 1
-7.349335 -25.256895 -30.346165 40.159845 1.287632 2.427419 0.099228 -0.029638 -44158.300000 0 0 1
-7.875135 -23.908595 -30.441715 39.501097 1.252603 2.450665 0.104437 -0.025075 357279.000000 0 0 1
-8.786635 -23.504995 -29.409995 38.660542 1.213061 2.435224 0.096170 -0.017526 428623.000000 0 0 1
-9.371235 -22.040395 -29.376945 37.902558 1.168769 2.457614 0.095533 -0.029735 -99931.100000 0 0 1
-10.220735 -21.764695 -30.429765 38.783191 1.131762 2.472867 0.080756 -0.029336 -351882.000000 0 0 1
-10.729035 -20.432295 -30.386935 38.157000 1.087270 2.492059 0.079532 -0.024428 357154.000000 0 0 1
-11.544735 -20.012395 -31.647025 39.183045 1.047551 2.510988 0.059167 -0.022004 160546.000000 0 0 1
-12.006535 -18.681795 -31.587695 38.612806 0.999580 2.528831 0.055052 -0.016342 247329.000000 0 0 1
-12.855935 -18.417295 -32.697005 39.668198 0.961390 2.539695 0.045583 -0.018589 -676477.000000 0 0 1
-13.681435 -17.134695 -32.629985 39.312788 0.896993 2.549921 0.060507 -0.019211 -569442.000000 0 0 1
-13.118335 -15.855295 -32.647355 38.591849 0.879583 2.579169 0.070826 -0.023698 -230360.000000 0 0 1
-12.191035 -15.492995 -31.625695 37.267127 0.904110 2.584171 0.068817 -0.020151 261447.000000 0 0 1
-11.783235 -13.955995 -31.590665 36.490882 0.869613 2.617371 0.067256 -0.018921 359443.000000 0 0 1
-10.938635 -13.342295 -32.647445 36.925956 0.884070 2.655431 0.065674 -0.019726 646982.000000 0 0 1
-11.300035 -13.550295 33.933093 38.245994 0.875704 0.479485 0.075433 -0.017724 -402643.000000 0 0 1
-12.000235 -12.272895 33.370439 37.526201 0.796631 0.475078 0.069690 -0.012454 -424792.000000 0 0 1
-13.186835 -11.975595 -33.889735 38.286049 0.737298 2.657660 0.056238 -0.012255 -872889.000000 0 0 1
-14.003535 -11.267595 33.102715 37.667591 0.677555 0.497430 0.058636 -0.022856 -165607.000000 0 0 1
-15.066735 -10.445395 33.797856 38.450069 0.606198 0.497022 0.078642 -0.024384 -505406.000000 0 0 1
-14.562035 -9.373695 -33.450575 37.667757 0.571939 2.663866 0.073397 -0.024123 -426914.000000 0 0 1
-15.529635 -8.800395 -32.609505 37.175211 0.515562 2.640762 0.079574 -0.036340 -13126.400000 0 0 1
-14.937535 -7.673895 -31.738485 35.907520 0.474573 2.654923 0.083949 -0.046640 -138158.000000 0 0 1
-14.832435 -6.401095 -32.349185 36.158607 0.407414 2.678436 0.082816 -0.050660 767586.000000 0 0 1
-16.044635 -5.627895 -32.316535 36.516598 0.337356 2.657252 0.091958 -0.042522 529434.000000 0 0 1
-16.424435 -4.935695 -30.966595 35.398490 0.291924 2.635819 0.092148 -0.052580 -151253.000000 0 0 1
-16.917335 -5.860495 -29.986885 34.924989 0.333482 2.603345 0.098217 -0.059736 56090.900000 0 0 1
-17.178135 -5.262495 -28.720965 33.877367 0.297271 2.582604 0.092606 -0.060929 -323129.000000 0 0 1
-15.981135 -4.758395 -27.906565 32.508696 0.289392 2.603005 0.083559 -0.055112 -128375.000000 0 0 1
-15.429235 -3.543495 -28.381345 32.497975 0.225746 2.632786 0.084265 -0.052700 -622119.000000 0 0 1
-14.106035 -3.389495 -27.970365 31.508891 0.235816 2.663116 0.075462 -0.044544 -723990.000000 0 0 1
-13.698135 -2.075795 -28.607285 31.785603 0.150394 2.690583 0.066142 -0.026360 -267857.000000 0 0 1
-13.791935 -2.166795 -29.984605 33.075504 0.155832 2.705834 0.066214 -0.041644 295973.000000 0 0 1
-13.507435 -0.924795 -30.582405 33.445321 0.068359 2.724820 0.062162 -0.042657 -75188.100000 0 0 1
-13.546235 -1.163795 -32.056425 34.820529 0.085702 2.740458 0.057664 -0.043277 -870880.000000 0 0 1
-14.885835 -1.306795 -32.411955 35.690763 0.087563 2.709599 0.063935 -0.044043 -112439.000000 0 0 1
-14.935935 -1.685795 -33.776925 36.970322 0.112393 2.722904 0.056213 -0.043257 518313.000000 0 0 1
-16.410435 -1.823795 33.624148 37.459470 0.110682 0.456470 0.051288 -0.038451 744787.000000 0 0 1
-16.430335 -1.807795 32.248229 36.237719 0.109587 0.473653 0.053009 -0.034704 882497.000000 0 0 1
-17.778635 -1.778795 31.759593 36.440577 0.099721 0.512452 0.057755 -0.028954 745279.000000 0 0 1
-17.790735 -1.902795 30.230673 35.128684 0.106549 0.534410 0.060048 -0.021066 -161973.000000 0 0 1
-17.208835 -0.748795 29.640863 34.282436 0.043485 0.526427 0.049927 -0.010584 -18010.900000 0 0 1
-17.054835 -0.897795 28.239523 33.002183 0.052593 0.543920 0.044405 -0.016101 202850.000000 0 0 1
-16.236035 0.298205 27.559593 31.987949 -0.018365 0.532458 0.037596 -0.014515 444800.000000 0 0 1
-16.763235 1.640205 27.694423 32.414153 -0.097535 0.546415 0.032218 -0.012841 614655.000000 0 0 1
-18.124835 1.918205 27.338453 32.856965 -0.105440 0.588013 0.048643 -0.019117 695633.000000 0 0 1
-18.306935 2.812205 26.069093 31.978898 -0.152423 0.617728 0.045246 -0.017875 -471054.000000 0 0 1
-18.164435 4.200205 26.318143 32.252644 -0.227239 0.616340 0.027984 -0.012001 27467.300000 0 0 1
-18.744835 4.975205 25.291573 31.871384 -0.259436 0.654174 0.029512 -0.011867 -423322.000000 0 0 1
-18.682035 6.499205 25.564113 32.323087 -0.334790 0.658529 0.022271 -0.009473 897566.000000 0 0 1
-17.378635 7.089205 25.401163 31.583110 -0.387321 0.636360 0.007722 -0.007664 689868.000000 0 0 1
-16.886235 7.217205 24.062383 30.269312 -0.403903 0.651882 0.009426 -0.001232 -835999.000000 0 0 1
-15.759435 8.180205 23.925243 29.794173 -0.478785 0.638455 0.017196 -0.004209 -825665.000000 0 0 1
-14.557735 7.778205 24.510153 29.549546 -0.490710 0.592657 0.011689 -0.001082 -587277.000000 0 0 1
-13.432835 8.346205 23.904333 28.662123 -0.555955 0.584471 0.033612 -0.003847 -97841.100000 0 0 1
-12.138135 8.275205 24.758923 28.789192 -0.598374 0.535512 0.026495 0.010718 -347242.000000 0 0 1
-11.074635 8.754205 23.993343 27.838178 -0.668905 0.531819 0.022449 0.001584 -356247.000000 0 0 1
-9.808635 8.873205 24.590373 27.921846 -0.735368 0.493488 0.025337 -0.003229 83034.000000 0 0 1
-9.624335 10.193205 25.443543 29.050010 -0.814096 0.503595 0.026295 -0.015343 -648542.000000 0 0 1
-10.623235 10.317205 26.451143 30.314366 -0.770785 0.510375 0.016360 -0.013951 354591.000000 0 0 1
-10.694935 11.511205 27.192003 31.405326 -0.822140 0.523968 0.032797 -0.017875 64819.200000 0 0 1
-11.534335 12.619205 26.450503 31.494671 -0.830284 0.573807 0.022999 -0.019474 122927.000000 0 0 1
-12.920935 12.521205 26.249143 31.823712 -0.769688 0.600895 0.015617 -0.019598 -32396.100000 0 0 1
-13.343435 11.823205 25.110283 30.795482 -0.725065 0.617396 0.017121 -0.015059 -150854.000000 0 0 1
-14.873935 11.716205 24.937753 31.311258 -0.667196 0.649400 -0.004098 -0.016698 19596.100000 0 0 1
-15.423535 12.874205 24.311093 31.538228 -0.695551 0.690629 0.013473 -0.015532 310422.000000 0 0 1
-16.582935 12.722205 23.502423 31.451742 -0.654410 0.726877 0.022675 -0.007839 315139.000000 0 0 1
-16.298635 11.991205 22.127113 29.984056 -0.634298 0.740750 0.013871 0.006244 -111346.000000 0 0 1
-16.360035 10.585205 22.120613 29.479125 -0.574275 0.722156 0.023689 0.000361 -16303.600000 0 0 1
-15.967535 10.131205 20.870813 28.163705 -0.565393 0.736158 0.038262 -0.003193 -276423.000000 0 0 1
-16.348735 8.696205 20.470213 27.603165 -0.488856 0.735360 0.028176 0.002450 20957.400000 0 0 1
-17.744435 8.561205 20.602713 28.506683 -0.449528 0.763048 0.045208 0.000253 -281970.000000 0 0 1
-18.199835 7.242205 20.413613 28.291325 -0.378718 0.764758 0.035631 -0.001021 361923.000000 0 0 1
-19.720235 7.026205 20.634113 29.394248 -0.342271 0.792625 0.047581 -0.007809 361457.000000 0 0 1
-20.152835 7.160205 21.960413 30.653956 -0.341384 0.772171 0.041721 -0.017866 144652.000000 0 0 1
-21.552635 7.284205 22.129713 31.737988 -0.325920 0.799225 0.048570 -0.023334 53084.700000 0 0 1
-21.889335 8.172205 23.347323 33.030673 -0.357316 0.785779 0.072277 -0.021171 -669273.000000 0 0 1
-21.779035 9.593205 23.191143 33.229280 -0.414908 0.798317 0.058955 -0.010764 1264680.000000 0 0 1
-20.495835 10.279205 23.129273 32.568459 -0.464868 0.781051 0.038298 -0.006277 610397.000000 0 0 1
-19.527835 10.177205 24.289103 32.785246 -0.480435 0.736454 0.034171 -0.017797 -859665.000000 0 0 1
-19.923635 10.669205 25.574343 34.129608 -0.491647 0.723746 0.045708 -0.018682 -37920.700000 0 0 1
-19.203135 10.105205 26.651973 34.368637 -0.484408 0.683331 0.047252 -0.021486 -74317.200000 0 0 1
-32.108375 -14.384192 20.883913 40.914429 0.421180 1.035113 0.037251 -0.018415 -10799.100000 0 0 1
-31.345155 -15.560892 21.162913 40.896564 0.460793 1.026900 0.034561 -0.010706 226941.000000 0 0 1
-31.629955 -16.729992 20.393213 41.185310 0.486522 1.052780 0.023609 -0.005324 -130190.000000 0 0 1
-31.233775 -16.682092 18.874813 40.126044 0.490557 1.081066 0.036927 -0.017675 13327.400000 0 0 1
-31.989675 -15.783992 18.089513 39.996302 0.458361 1.101477 0.041199 -0.025431 152764.000000 0 0 1
-31.201465 -15.467592 16.961913 38.736085 0.460228 1.117553 0.049682 -0.026679 -489330.000000 0 0 1
-31.828995 -14.353592 16.136413 38.464195 0.423652 1.137882 0.049440 -0.023229 902670.000000 0 0 1
-33.129495 -14.600692 15.529213 39.394163 0.415106 1.165598 0.066050 -0.024554 957303.000000 0 0 1
-34.226242 -14.498692 16.386013 40.622027 0.400696 1.155591 0.068618 -0.022668 -967683.000000 0 0 1
-34.696409 -13.054792 16.806513 40.702914 0.359873 1.145153 0.044252 -0.018699 -654701.000000 0 0 1
-35.836617 -13.115592 17.616813 42.031344 0.350842 1.138304 0.026454 -0.013869 -99424.900000 0 0 1
-36.499085 -11.858592 17.746713 42.281854 0.314142 1.137655 0.021957 -0.006103 -93381.100000 0 0 1
36.664262 -11.844192 18.897213 42.914539 -0.312462 1.114813 0.034256 0.008941 -298056.000000 0 0 1
-37.010945 -12.317292 20.140313 43.899406 0.321272 1.094171 0.024105 0.005507 -39875.000000 0 0 1
36.334162 -11.995992 21.239013 43.762664 -0.318889 1.064064 0.024544 0.000751 -924337.000000 0 0 1
36.947932 -12.408992 22.610913 45.059806 -0.324015 1.045120 0.015172 -0.001731 246643.000000 0 0 1
-36.105655 -11.638192 23.030643 44.378782 0.311822 1.025167 0.016009 -0.005433 -630753.000000 0 0 1
-34.969293 -12.217292 22.503413 43.341864 0.336115 1.024873 0.011302 -0.008334 -1827290.000000 0 0 1
-33.766675 -11.270792 22.647313 42.191466 0.322157 1.004187 0.034920 -0.015101 -483649.000000 0 0 1
-33.879325 -10.088192 21.873613 41.569642 0.289408 1.016680 0.046755 -0.009919 -360277.000000 0 0 1
-32.642715 -9.460792 21.704813 40.325579 0.282099 1.002450 0.058567 -0.016471 -788801.000000 0 0 1
-32.683235 -8.152192 20.928613 39.656763 0.244442 1.014854 0.057794 -0.016506 -57201.400000 0 0 1
-32.850085 -8.332192 19.537413 39.118588 0.248404 1.047843 0.060806 -0.011365 660571.000000 0 0 1
-34.184983 -8.626492 19.114813 40.104931 0.247187 1.073990 0.038992 -0.010634 140967.000000 0 0 1
-34.470565 -8.424892 17.590713 39.605956 0.239709 1.110579 0.047936 -0.011667 109458.000000 0 0 1
-35.846435 -8.624292 17.310913 40.730983 0.236103 1.131828 -0.001268 -0.006911 206969.000000 0 0 1
-36.142415 -8.483792 15.932113 40.399023 0.230558 1.165415 0.016609 -0.003485 -263276.000000 0 0 1
36.507822 -8.466592 15.809213 40.674752 -0.227883 1.171604 0.033482 -0.012311 -101389.000000 0 0 1
36.018092 -9.816092 15.972513 40.605169 -0.266071 1.166511 0.031413 -0.002213 -675347.000000 0 0 1
34.629292 -9.800392 15.852113 39.325882 -0.275797 1.155899 0.060759 -0.008123 -441237.000000 0 0 1
33.965382 -11.186392 15.740413 39.071001 -0.318158 1.156149 0.073709 -0.009660 -88286.300000 0 0 1
33.932382 -11.924292 16.933313 39.753394 -0.337933 1.130775 0.070030 -0.012485 147328.000000 0 0 1
32.785652 -12.751392 17.030813 39.083827 -0.370929 1.119924 0.081449 -0.011993 210339.000000 0 0 1
32.582532 -13.171492 18.456513 39.695748 -0.384165 1.087219 0.068944 -0.007167 -250448.000000 0 0 1
33.463202 -14.127592 18.957813 40.972837 -0.399482 1.089767 0.063600 -0.011136 -380136.000000 0 0 1
33.333762 -14.202392 20.346513 41.555122 -0.402773 1.059134 0.070757 -0.009028 52130.500000 0 0 1
34.056672 -15.342692 21.109013 42.905076 -0.423274 1.056418 0.059803 0.003315 -111686.000000 0 0 1
34.183112 -15.176492 22.478713 43.636035 -0.417833 1.029624 0.049763 -0.002155 -30468.100000 0 0 1
34.717542 -16.310792 23.168603 44.812206 -0.439209 1.027436 0.049237 0.005661 67764.400000 0 0 1
35.019942 -16.037292 24.634193 45.721270 -0.429443 1.001795 0.053365 0.008946 -76229.200000 0 0 1
36.128962 -15.189192 24.744413 46.349751 -0.397982 1.007634 0.050929 0.006895 -107152.000000 0 0 1
36.559522 -14.954192 26.066503 47.325353 -0.388272 0.987482 0.046818 -0.002517 50873.100000 0 0 1
-36.476285 -13.899092 26.168253 46.994484 0.364059 0.980224 0.031599 -0.011361 1013940.000000 0 0 1
-35.215953 -14.577092 25.968133 46.119398 0.392461 0.972709 0.009726 -0.005151 783263.000000 0 0 1
-34.110619 -13.746792 26.285183 45.204197 0.383095 0.950254 0.030581 -0.017015 821628.000000 0 0 1
-32.708245 -14.416892 26.080253 44.247662 0.415154 0.940461 0.021581 -0.013721 -5212.700000 0 0 1
-32.367175 -14.354892 24.734363 43.191268 0.417437 0.961037 0.015296 -0.005287 2260340.000000 0 0 1
-30.990595 -14.812792 24.385363 42.124597 0.445875 0.953434 0.020033 -0.017925 2231080.000000 0 0 1
-30.710755 -16.291292 24.627753 42.603789 0.487729 0.954441 0.024914 -0.015451 -955405.000000 0 0 1
-30.473235 -16.550992 25.975023 43.327303 0.497555 0.927911 0.032537 -0.020850 41762.000000 0 0 1
-30.491095 -17.943492 26.246973 44.052007 0.531908 0.932513 0.034087 -0.025168 -381999.000000 0 0 1
-30.206555 -18.207692 27.757493 44.882451 0.542456 0.904029 0.040364 -0.030754 358447.000000 0 0 1
-28.870485 -17.852292 28.102243 44.067508 0.553809 0.879276 0.041848 -0.023894 329584.000000 0 0 1
-28.641715 -17.994492 29.504103 44.884759 0.560941 0.853526 0.053117 -0.032664 -487737.000000 0 0 1
-27.505755 -17.080192 29.885803 44.062009 0.555695 0.825395 0.057344 -0.030527 -622617.000000 0 0 1
-27.740505 -15.683392 30.038333 43.792760 0.514560 0.814929 0.056729 -0.035120 -116593.000000 0 0 1
-26.517415 -15.015492 29.823243 42.638762 0.515234 0.796183 0.056637 -0.030744 -387933.000000 0 0 1
-26.360895 -13.691192 30.586593 42.636664 0.479027 0.770765 0.059335 -0.023129 -320641.000000 0 0 1
-26.040725 -13.762092 31.943107 43.449701 0.486174 0.744872 0.062166 -0.027299 226289.000000 0 0 1
-25.832135 -12.465292 32.431563 43.295368 0.449590 0.724129 0.061458 -0.023044 -442919.000000 0 0 1
-25.466925 -12.396392 33.940073 44.205919 0.453003 0.695440 0.066977 -0.025063 102962.000000 0 0 1
-24.125835 -12.543992 -33.552815 43.187950 0.479472 2.460527 0.075734 -0.026103 313395.000000 0 0 1
-23.587135 -13.847192 -33.704705 43.406275 0.530855 2.459879 0.074847 -0.022129 -588032.000000 0 0 1
-23.469235 -14.569692 -32.333985 42.527255 0.555573 2.434590 0.073887 -0.021847 -414519.000000 0 0 1
-22.400335 -14.069392 -31.554815 41.175589 0.560817 2.443933 0.076193 -0.014442 14310.900000 0 0 1
-22.293135 -14.964192 -30.417855 40.572857 0.591167 2.418419 0.078473 -0.020290 207627.000000 0 0 1
-20.917035 -14.926192 -29.683145 39.260701 0.619789 2.428057 0.080936 -0.021436 312869.000000 0 0 1
-20.575735 -13.821392 -28.894715 38.069624 0.591502 2.432567 0.080027 -0.021633 202736.000000 0 0 1
-20.988235 -13.926792 -27.558725 37.335570 0.585843 2.401099 0.083958 -0.022899 -223805.000000 0 0 1
-20.596635 -12.680492 -26.756705 36.068511 0.551854 2.406592 0.083233 -0.019761 1045190.000000 0 0 1
-19.219735 -12.799192 -26.317395 35.011752 0.587499 2.421392 0.072268 -0.014987 1177470.000000 0 0 1
-18.738935 -11.535792 -25.844285 33.943323 0.551815 2.436259 0.081008 -0.023505 -115169.000000 0 0 1
-17.344335 -11.547592 -25.230885 32.722628 0.587392 2.451290 0.078789 -0.019129 -656182.000000 0 0 1
-17.420035 -12.242892 -23.952975 32.048260 0.612606 2.414941 0.078077 -0.019814 602801.000000 0 0 1
-16.178135 -12.429092 -23.266975 30.944571 0.655088 2.421723 0.074333 -0.026634 888761.000000 0 0 1
-15.134035 -13.434792 -23.883375 31.304125 0.725989 2.438655 0.060448 -0.022473 612515.000000 0 0 1
-14.274035 -12.825992 -24.892575 31.430787 0.732016 2.484843 0.071324 -0.032473 489172.000000 0 0 1
-13.777435 -13.738192 -25.823045 32.332418 0.783972 2.495884 0.071052 -0.023890 -392568.000000 0 0 1
-12.755535 -13.127392 -26.773665 32.432410 0.799764 2.541923 0.078277 -0.031360 -329026.000000 0 0 1
-13.337935 -12.170392 -27.586605 32.970285 0.739659 2.562046 0.079332 -0.029626 -308565.000000 0 0 1
-12.427335 -11.535392 -28.430845 33.103124 0.748193 2.603830 0.084904 -0.036707 -195901.000000 0 0 1
-13.159035 -10.673592 -29.472665 33.995937 0.681486 2.619839 0.072589 -0.033254 239855.000000 0 0 1
-12.269635 -9.778692 -30.137425 33.976920 0.672899 2.661597 0.065768 -0.027014 298223.000000 0 0 1
-11.823935 -10.255192 -31.379015 35.065894 0.714466 2.678910 0.071651 -0.018074 27309.000000 0 0 1
-11.121735 -9.253392 -32.343805 35.432188 0.693957 2.720975 0.053866 -0.016370 716411.000000 0 0 1
-9.782735 -8.991092 -31.911055 34.566704 0.743256 2.747052 0.040566 -0.018819 410901.000000 0 0 1
-9.346335 -7.696492 -32.305185 34.499491 0.688893 2.783012 0.036261 -0.021387 -40964.400000 0 0 1
-7.831135 -7.401692 -32.195655 33.951022 0.757214 2.818623 0.040592 -0.023070 -79581.800000 0 0 1
-7.365335 -7.429292 -30.862755 32.587607 0.789721 2.814780 0.035697 -0.017855 -272601.000000 0 0 1
-7.570635 -6.308092 -29.995585 31.572799 0.694678 2.824177 0.046694 -0.017081 -444071.000000 0 0 1
-7.023835 -4.901892 -30.302485 31.489734 0.609311 2.866122 0.041398 -0.023509 -589087.000000 0 0 1
-5.672235 -4.769992 -29.973685 30.876347 0.699209 2.899195 0.048959 -0.026351 -525646.000000 0 0 1
-5.223535 -3.612192 -30.684275 31.334613 0.605014 2.937500 0.059858 -0.029579 203603.000000 0 0 1
-3.759635 -3.232092 -30.296795 30.699789 0.710088 2.979384 0.055878 -0.017784 -461786.000000 0 0 1
-2.804935 -4.060792 -30.948235 31.339287 0.966315 2.983453 0.058924 -0.021350 5880.860000 0 0 1
-1.471035 -3.798992 -30.568765 30.839028 1.201358 3.009105 0.078513 -0.020601 223986.000000 0 0 1
-0.911335 -2.410592 -31.045145 31.151926 1.209351 3.058771 0.079313 -0.021755 -241884.000000 0 0 1
0.513965 -2.298092 -30.769885 30.859864 -1.350768 3.065210 0.077021 -0.019696 1310960.000000 0 0 1
0.978165 -1.136192 -31.445615 31.481334 -0.859999 3.093951 0.059619 -0.019156 141046.000000 0 0 1
1.271965 0.059208 -30.465015 30.491614 0.046515 3.099820 0.060968 -0.023778 -140496.000000 0 0 1
0.068465 0.521608 -29.911675 29.916301 1.440284 3.124007 0.078129 -0.020812 -219174.000000 0 0 1
0.341365 1.715708 -29.144625 29.197077 1.374396 3.081642 0.101390 -0.030960 536231.000000 0 0 1
-0.928935 2.371808 -28.549645 28.663053 -1.197503 3.052607 0.094189 -0.027868 -406486.000000 0 0 1
-1.971935 2.734708 -29.363005 29.555933 -0.946064 3.027271 0.084215 -0.040357 -886736.000000 0 0 1
-2.510835 3.916908 -28.846235 29.219030 -1.000757 2.981681 0.109205 -0.033658 720928.000000 0 0 1
-3.913435 4.220508 -29.514985 30.070949 -0.823132 2.949001 0.127460 -0.033188 870709.000000 0 0 1
-3.679835 4.895608 -30.750745 31.354688 -0.926233 2.945003 0.118282 -0.035157 -137526.000000 0 0 1
-4.849935 5.259108 -31.428275 32.232228 -0.825852 2.917776 0.138130 -0.035876 -471380.000000 0 0 1
-4.503935 5.765708 -32.880875 33.685022 -0.907650 2.922649 0.139841 -0.038161 247848.000000 0 0 1
-4.025735 4.822208 -33.882115 34.459511 -0.875174 2.958274 0.149356 -0.035015 1308500.000000 0 0 1
-2.832235 4.049808 -33.563285 33.925161 -0.960507 2.995401 0.128041 -0.036588 571259.000000 0 0 1
-2.376135 3.167408 33.174842 33.410307 -0.927178 0.118794 0.108755 -0.034023 -439072.000000 0 0 1
-3.325935 2.203308 32.743725 32.985874 -0.585087 0.121244 0.102030 -0.042463 17251.900000 0 0 1
-3.053935 1.682708 31.421773 31.614646 -0.503608 0.110517 0.094182 -0.028812 10956.600000 0 0 1
-2.787735 2.689308 30.233863 30.480982 -0.767429 0.127423 0.096826 -0.030756 377028.000000 0 0 1
-3.891735 3.601308 30.118273 30.581454 -0.746658 0.174266 0.083038 -0.027665 463620.000000 0 0 1
-3.715835 4.598108 29.191883 29.784493 -0.891122 0.199815 0.085584 -0.029373 209728.000000 0 0 1
-5.017335 5.431708 29.078433 30.003872 -0.825034 0.249014 0.086306 -0.018672 298702.000000 0 0 1
-5.183235 6.035108 27.805403 28.921080 -0.861188 0.278665 0.088104 -0.011501 -280675.000000 0 0 1
-6.399235 6.740508 27.742973 29.258455 -0.811365 0.323264 0.079395 -0.005244 -319250.000000 0 0 1
-6.520135 7.599108 26.497943 28.326658 -0.861669 0.361289 0.079039 -0.005147 282330.000000 0 0 1
-5.571135 8.666408 26.385263 28.325364 -0.999469 0.372263 0.101985 -0.007815 392534.000000 0 0 1
-5.804935 9.362608 25.138633 27.446430 -1.015792 0.413011 0.093716 -0.008945 99990.400000 0 0 1
-5.119235 10.733608 25.268443 27.926888 -1.125770 0.439870 0.105166 -0.015462 -481203.000000 0 0 1
-5.126235 11.414408 24.056203 27.115823 -1.148689 0.479632 0.115297 -0.017665 381742.000000 0 0 1
-4.444335 12.670108 24.095713 27.584182 -1.233433 0.508381 0.107782 -0.017197 408957.000000 0 0 1
-2.880035 12.707108 24.186713 27.472937 -1.347914 0.494127 0.095489 -0.010531 260201.000000 0 0 1
-2.190435 12.256708 25.301733 28.199336 -1.393950 0.457305 0.108551 -0.006168 -95567.600000 0 0 1
-2.480635 13.007408 26.496493 29.621113 -1.382350 0.463454 0.117786 -0.016031 -668826.000000 0 0 1
-1.492335 12.759008 27.639023 30.478434 -1.454362 0.435074 0.120106 -0.017556 -423941.000000 0 0 1
-0.170335 13.131908 27.420083 30.402910 -1.557826 0.446671 0.125443 -0.020132 -766144.000000 0 0 1
0.654765 12.577408 28.419953 31.085585 1.518784 0.417147 0.123955 -0.023397 437356.000000 0 0 1
2.178965 12.794008 28.223933 31.064850 1.402104 0.430999 0.126197 -0.024711 165560.000000 0 0 1
2.733765 14.073708 28.437433 31.846983 1.378939 0.466963 0.126860 -0.021099 -841892.000000 0 0 1
4.100365 13.868208 28.269003 31.753373 1.283320 0.472864 0.122430 -0.018105 -295840.000000 0 0 1
5.031965 15.074108 28.625113 32.740594 1.248612 0.506804 0.125220 -0.018017 29370.400000 0 0 1
4.954965 15.618808 29.961063 34.149145 1.263596 0.500466 0.134967 -0.013719 281937.000000 0 0 1
3.851165 16.489408 30.185263 34.610434 1.341355 0.511230 0.107596 -0.010883 236755.000000 0 0 1
4.001465 17.940508 29.609863 34.851363 1.351347 0.555562 0.109484 -0.008835 -486781.000000 0 0 1
4.905865 18.697508 30.328493 35.965008 1.314200 0.567443 0.127942 -0.009550 -570363.000000 0 0 1
5.334665 19.739208 29.517423 35.907844 1.306845 0.605825 0.106763 -0.004458 -394407.000000 0 0 1
6.583165 20.437508 30.042123 36.926399 1.259179 0.620535 0.109085 -0.013512 -631490.000000 0 0 1
6.372365 21.239308 31.218853 38.292715 1.279315 0.617603 0.113359 -0.028302 -413582.000000 0 0 1
7.351965 22.153808 31.634183 39.313663 1.250372 0.635692 0.097858 -0.022982 -496578.000000 0 0 1
7.395065 23.549408 30.883983 39.535832 1.266524 0.674268 0.081414 -0.008012 27750.000000 0 0 1
7.895265 23.511908 29.568843 38.593542 1.246829 0.697951 0.056842 -0.004657 125030.000000 0 0 1
7.807565 24.781308 28.973723 38.917193 1.265582 0.731016 0.056961 -0.012040 -120407.000000 0 0 1
8.283165 24.776708 27.537903 37.958295 1.248165 0.759068 0.070821 -0.012963 42430.000000 0 0 1
7.397765 24.188508 26.560163 36.677692 1.273992 0.760995 0.066860 -0.011180 461542.000000 0 0 1
7.689665 24.490808 25.226513 35.990382 1.266562 0.794105 0.076834 -0.015434 -272866.000000 0 0 1
28.625492 2.190808 7.603325 29.698973 0.076385 1.311901 0.101168 0.017209 123733.000000 0 0 1
29.221052 3.283508 8.260525 30.543209 0.111899 1.296932 0.091354 -0.001618 143975.000000 0 0 1
28.761992 3.264308 9.624525 30.504744 0.113010 1.249803 0.099837 0.003014 -42942.200000 0 0 1
29.205212 4.440608 10.567425 31.374096 0.150893 1.227259 0.098844 -0.007963 -67265.000000 0 0 1
28.865092 5.747908 10.154825 31.134426 0.196559 1.238557 0.087758 -0.005469 270253.000000 0 0 1
29.813422 6.262208 9.218725 31.828294 0.207037 1.276946 0.094293 -0.020445 64498.800000 0 0 1
29.427752 7.652108 8.742025 31.638116 0.254396 1.290841 0.112563 -0.034787 241440.000000 0 0 1
28.307492 7.739408 7.876025 30.384936 0.266883 1.308594 0.090791 -0.029161 8615.200000 0 0 1
28.387092 9.027608 7.285825 30.666072 0.307904 1.330917 0.116396 -0.054227 -331755.000000 0 0 1
27.454592 9.244808 6.122325 29.609187 0.324805 1.362523 0.106349 -0.040757 -989929.000000 0 0 1
26.110192 9.455308 6.383825 28.493828 0.347441 1.344836 0.098491 -0.037086 -620287.000000 0 0 1
25.432592 9.652908 5.146125 27.685339 0.362753 1.383830 0.111807 -0.037107 772225.000000 0 0 1
23.913792 10.012308 5.255825 26.452589 0.396508 1.370777 0.070527 -0.032400 584192.000000 0 0 1
23.758892 11.387108 5.682425 26.952572 0.446933 1.358372 0.068092 -0.024565 -641090.000000 0 0 1
22.494292 11.689508 6.145425 26.084555 0.479256 1.332964 0.070547 -0.021573 -959454.000000 0 0 1
22.470192 13.171908 6.542125 26.855318 0.530207 1.324714 0.069026 -0.013492 -107852.000000 0 0 1
22.434492 14.022408 5.396125 27.000973 0.558627 1.369592 0.074412 -0.015855 278911.000000 0 0 1
22.459592 15.414008 5.695225 27.829131 0.601472 1.364690 0.098397 -0.019236 -187982.000000 0 0 1
22.012592 16.466708 4.662425 27.882699 0.642257 1.402791 0.092599 -0.023983 1551580.000000 0 0 1
20.587492 16.410808 4.305525 26.677650 0.672986 1.408697 0.108810 -0.019935 2047390.000000 0 0 1
20.202292 17.289408 3.266425 26.790405 0.707860 1.448567 0.118746 -0.020280 -1044210.000000 0 0 1
18.744892 17.458608 2.944325 25.784550 0.749884 1.456357 0.101797 -0.017614 -1087850.000000 0 0 1
17.966092 18.088808 3.955225 25.799792 0.788802 1.416885 0.109762 -0.028154 -361066.000000 0 0 1
16.676192 18.147508 3.430025 24.883579 0.827623 1.432513 0.087672 -0.030023 -641241.000000 0 1 0
15.743692 19.115208 4.223625 25.121585 0.881817 1.401867 0.100100 -0.034662 -49234.400000 0 0 1
14.369292 18.943908 4.048925 24.119329 0.921866 1.402127 0.093494 -0.036976 -139637.000000 0 1 0
13.565292 20.104708 4.283925 24.628611 0.977231 1.395966 0.069851 -0.033686 381394.000000 0 1 0
12.086492 19.837408 3.947925 23.562516 1.023583 1.402451 0.059546 -0.029864 -4626.230000 0 1 0
11.442492 18.922908 4.794925 22.627381 1.026935 1.357269 0.049108 -0.041354 658780.000000 0 1 0
10.023292 18.808508 4.623325 21.808290 1.081167 1.357177 0.040649 -0.036159 966986.000000 0 1 0
9.288692 18.375508 5.917625 21.423291 1.102764 1.290933 0.029256 -0.029324 -867976.000000 0 1 0
9.219292 19.366308 6.913325 22.535379 1.126493 1.258992 0.039907 -0.027579 62895.100000 0 1 0
8.617492 18.801108 8.066125 22.199217 1.141020 1.198933 0.040469 -0.018349 -2773.570000 0 1 0
7.550192 19.655708 8.811825 22.825436 1.204052 1.174447 0.036170 -0.018672 358454.000000 0 1 0
6.272592 19.790108 8.243025 22.336993 1.263857 1.192831 0.030797 -0.024330 -376300.000000 0 1 0
6.159492 20.874408 7.303425 22.956922 1.283865 1.247034 0.029750 -0.023063 374332.000000 0 1 0
4.764092 21.012008 6.578325 22.527215 1.347834 1.274461 0.005037 -0.017144 1088580.000000 0 1 0
3.645492 21.474108 7.342825 22.985735 1.402637 1.245646 0.005259 -0.008600 266970.000000 0 1 0
3.657292 22.793508 7.964425 24.420317 1.411699 1.238580 0.026852 -0.013471 -713762.000000 0 1 0
3.644992 24.065908 7.077325 25.348421 1.420480 1.287834 0.037937 -0.014678 20756.500000 0 0 1
2.530992 24.188008 6.215025 25.101637 1.466537 1.320600 0.025337 -0.016425 251623.000000 0 0 1
2.828892 25.129108 5.213625 25.819694 1.458694 1.367474 0.039929 -0.006437 270102.000000 0 0 1
1.570092 25.527208 4.400125 25.951198 1.509367 1.400419 0.042773 -0.010555 -3838.400000 0 0 1
0.518692 26.178508 5.026125 26.661682 1.550985 1.381147 0.050478 -0.014556 169129.000000 0 0 1
-0.684608 26.125508 4.250425 26.477858 -1.544598 1.409571 0.062818 -0.021762 1001070.000000 0 0 1
-1.855608 26.953208 4.911725 27.459857 -1.502059 1.390959 0.081124 -0.022280 580857.000000 0 0 1
-2.896108 27.100908 3.946025 27.539386 -1.464336 1.427015 0.112917 -0.032760 -160839.000000 0 0 1
-3.897908 27.914608 4.533825 28.547760 -1.432057 1.411306 0.110686 -0.033931 219097.000000 0 0 1
-5.001108 28.295708 3.512925 28.948209 -1.395859 1.449144 0.115623 -0.042454 241864.000000 0 0 1
-4.448908 29.310608 2.694325 29.768506 -1.420161 1.480163 0.122787 -0.042792 315388.000000 0 0 1
-5.386308 29.693808 1.718425 30.227265 -1.391353 1.513915 0.142254 -0.050810 -224756.000000 0 0 1
-4.737608 30.597308 0.607225 30.967869 -1.417179 1.551187 0.131807 -0.050239 331550.000000 0 0 1
-4.193008 31.814208 1.173925 32.110797 -1.439755 1.534230 0.127072 -0.046772 913270.000000 0 0 1
-2.922508 31.725808 1.838425 31.913128 -1.478938 1.513157 0.140843 -0.049700 -172988.000000 0 0 1
-2.204408 33.079908 2.016325 33.214535 -1.504256 1.510053 0.117715 -0.050865 -986493.000000 0 0 1
-1.727308 33.672808 0.804725 33.726684 -1.519544 1.546934 0.084263 -0.035638 -54120.600000 0 0 1
-0.959108 -33.282195 0.928625 33.308959 1.541987 1.542914 0.085066 -0.033734 85080.400000 0 0 1
0.459392 -33.527395 1.494725 33.563841 -1.557095 1.526248 0.059885 -0.021998 -824600.000000 0 0 1
0.339292 -33.645895 2.919925 33.774063 -1.560712 1.484234 0.064380 -0.027910 -387704.000000 0 0 1
1.511792 -34.019795 3.589825 34.242062 -1.526387 1.465767 0.049565 -0.018868 -291987.000000 0 0 1
1.379692 -33.902395 5.086725 34.309630 -1.530123 1.421988 0.056748 -0.022485 715808.000000 0 0 1
0.292492 33.377708 5.582725 33.842633 1.562033 1.405078 0.074977 -0.038965 773087.000000 0 0 1
-0.235008 33.746708 6.864725 34.438641 -1.563833 1.370120 0.077966 -0.037759 57895.800000 0 0 1
0.766992 33.657208 8.023625 34.608879 1.548012 1.336830 0.079379 -0.030128 -130176.000000 0 0 1
1.214892 32.367608 8.330825 33.444591 1.533280 1.319052 0.076020 -0.031503 679689.000000 0 0 1
2.198792 32.451208 9.402525 33.857393 1.503143 1.289387 0.102110 -0.035923 754667.000000 0 0 1
2.960392 31.091908 9.708425 32.706639 1.475868 1.269421 0.087138 -0.033443 630503.000000 0 0 1
2.133292 30.041908 10.261625 31.817733 1.499905 1.242413 0.100798 -0.034277 535833.000000 0 0 1
2.836492 28.835108 10.172525 30.708133 1.472742 1.233153 0.070494 -0.032343 43308.800000 0 0 1
2.158192 27.744808 11.034725 29.936555 1.493165 1.193290 0.067809 -0.036940 -245554.000000 0 0 1
2.474892 27.874308 12.438725 30.623913 1.482241 1.152530 0.078448 -0.032140 4600.400000 0 0 1
2.139592 26.776808 13.277325 29.964357 1.491061 1.111738 0.085331 -0.023699 -958882.000000 0 0 1
0.652392 26.503008 13.504625 29.752478 1.546186 1.099660 0.054001 -0.026465 -407039.000000 0 0 1
-0.145208 27.374808 14.312025 30.890699 -1.565492 1.089068 0.067432 -0.024700 237338.000000 0 0 1
-0.434708 28.508508 13.603525 31.590820 -1.555549 1.125621 0.091514 -0.030899 -937492.000000 0 0 1
-0.930608 29.681308 14.475125 33.035970 -1.539453 1.117243 0.068667 -0.020274 195304.000000 0 0 1
-2.207208 29.531708 15.055125 33.221234 -1.496195 1.100469 0.039403 -0.013496 -115873.000000 0 0 1
-2.693408 30.753808 15.601825 34.590000 -1.483440 1.102855 0.041352 -0.006125 -814436.000000 0 0 1
-4.030708 30.513508 16.254425 34.806998 -1.439461 1.084916 0.040079 -0.000511 210857.000000 0 0 1
-5.117108 30.289808 15.300625 34.318602 -1.403438 1.108683 0.038382 -0.004176 511416.000000 0 0 1
-6.314708 30.076708 15.981125 34.639288 -1.363849 1.091271 0.033670 -0.002025 -185251.000000 0 0 1
-7.421008 29.291108 15.194125 33.821618 -1.322664 1.104878 0.030028 -0.009203 821426.000000 0 0 1
-8.611208 28.984408 15.931425 34.176880 -1.282004 1.085867 0.036093 -0.012211 510194.000000 0 0 1
-9.461108 28.197708 15.082825 33.348387 -1.247072 1.101476 0.034934 -0.011278 381748.000000 0 0 1
-10.785708 27.769408 15.760125 33.702420 -1.200328 1.084193 0.037124 -0.008896 909777.000000 0 0 1
-11.819008 28.729808 16.126625 35.002270 -1.180514 1.091978 0.039449 -0.016503 1024750.000000 0 0 1
-11.442908 29.598108 17.189925 36.089911 -1.201887 1.074345 0.046960 -0.026053 -393088.000000 0 0 1
-12.552808 30.524408 17.753925 37.476851 -1.180639 1.077274 0.066374 -0.022913 903595.000000 0 0 1
-13.662008 29.933408 18.478125 37.737256 -1.142622 1.059106 0.077775 -0.020784 1039460.000000 0 0 1
-14.616308 30.916008 18.801525 39.024779 -1.129165 1.068107 0.084757 -0.023343 64470.100000 0 0 1
-15.547008 30.673608 20.003525 39.783423 -1.101681 1.043949 0.079125 -0.030051 207270.000000 0 0 1
-14.785808 30.669708 21.208125 40.112787 -1.121573 1.013714 0.085292 -0.034288 184470.000000 0 0 1
-15.672008 30.555508 22.281225 40.935363 -1.096880 0.995239 0.079470 -0.027241 26582.600000 0 0 1
-14.974608 30.631708 23.679025 41.511886 -1.116101 0.963785 0.090521 -0.019468 -681451.000000 0 0 1
-14.069608 29.551008 23.860325 40.503470 -1.126441 0.940860 0.086222 -0.022686 515875.000000 0 0 1
-13.598208 29.297208 25.240625 40.991790 -1.136240 0.907461 0.094347 -0.017416 335658.000000 0 0 1
-13.168108 30.572208 26.056925 42.273187 -1.164089 0.906642 0.094405 -0.016941 -312359.000000 0 0 1
-14.323808 31.241108 26.515225 43.407782 -1.140903 0.913675 0.107013 -0.018454 517019.000000 0 0 1
-13.866008 32.405008 27.149925 44.491226 -1.166474 0.914444 0.102541 -0.018126 -27243.100000 0 0 1
-15.022408 33.281508 27.675025 45.817448 -1.146800 0.922251 0.119555 -0.021820 -504342.000000 0 0 1
-15.718608 32.725508 28.727025 46.295524 -1.123019 0.901398 0.101124 -0.022640 -244218.000000 0 0 1
-15.123708 32.828208 30.003525 46.974773 -1.139086 0.877968 0.125167 -0.019877 -142072.000000 0 0 1
-15.937708 32.139808 31.152925 47.512973 -1.110445 0.855724 0.115571 -0.017113 -570010.000000 0 0 1
-17.217408 32.602008 31.401525 48.429184 -1.084915 0.865314 0.125090 -0.014258 -748979.000000 0 0 1
-17.657008 32.334608 32.717025 49.271702 -1.070974 0.844624 0.100237 -0.011299 -255579.000000 0 0 1
-19.134208 32.604308 32.994825 50.177857 -1.040094 0.853224 0.090078 -0.008922 -445964.000000 0 0 1
-19.376808 33.959908 33.178325 51.279015 -1.052291 0.867132 0.122560 -0.008628 -108534.000000 0 0 1
-20.764708 -33.950395 33.327025 51.908506 1.021877 0.873648 0.088899 -0.009552 -138556.000000 0 0 1
-21.177808 -32.439495 33.320525 51.098706 0.992427 0.860470 0.105702 -0.002069 -87114.500000 0 0 1
-20.912908 -31.547795 -33.505362 50.549207 0.985409 2.295384 0.114614 -0.006303 328324.000000 0 0 1
-21.591808 -31.943295 -32.316762 50.308581 0.976400 2.268384 0.073745 -0.000527 16293.400000 0 0 1
-21.196908 -31.074095 -31.119062 48.819097 0.972157 2.261963 0.081130 -0.003411 -119299.000000 0 0 1
-21.415408 -29.651095 -31.208662 48.081053 0.945295 2.277177 0.095834 -0.002489 -3679.060000 0 0 1
-20.776208 -28.922795 -30.192762 46.688133 0.947872 2.274034 0.099766 -0.011070 -45975.600000 0 0 1
-21.040908 -27.416995 -30.209162 45.902123 0.916227 2.289117 0.098965 -0.022232 -358306.000000 0 0 1
-22.316208 -27.130195 -29.719562 46.014269 0.882450 2.272968 0.103634 -0.024907 -346977.000000 0 0 1
-22.605908 -25.721795 -29.721962 45.343498 0.849783 2.285620 0.112019 -0.023578 496952.000000 0 0 1
-23.827908 -25.335995 -28.817362 45.167712 0.816063 2.262705 0.103357 -0.026535 342916.000000 0 0 1
-23.687208 -25.523195 -27.430862 44.327976 0.822690 2.238031 0.098858 -0.030246 -229521.000000 0 0 1
-22.909208 -24.561795 -26.804762 42.972187 0.820197 2.244353 0.107068 -0.038337 -352210.000000 0 0 1
-22.782808 -24.771695 -25.304362 42.107053 0.827197 2.215489 0.100285 -0.029423 -647954.000000 0 0 1
-23.983208 -24.504195 -24.677162 42.244670 0.796143 2.194627 0.096026 -0.035115 -546733.000000 0 0 1
-23.923108 -24.968595 -23.366062 41.733903 0.806779 2.165040 0.093604 -0.023269 -144647.000000 0 0 1
-25.279908 -24.878595 -22.605962 42.060049 0.777397 2.138229 0.089607 -0.025585 785691.000000 0 0 1
-26.400008 -25.642595 -23.081462 43.442571 0.770845 2.130942 0.070105 -0.021642 568063.000000 0 0 1
-26.207608 -27.072695 -23.109262 44.201895 0.801633 2.120942 0.062177 -0.002975 -479580.000000 0 0 1
-27.588308 -27.790895 -23.175262 45.503201 0.789056 2.105180 0.035218 -0.001974 1003990.000000 0 0 1
-28.385108 -27.612995 -21.976162 45.289552 0.771611 2.077430 0.036842 -0.000346 -248784.000000 0 0 1
-29.522408 -26.859195 -22.235762 45.688270 0.738198 2.079086 0.038229 -0.000636 -552001.000000 0 0 1
-30.223908 -26.422095 -20.928562 45.272689 0.718383 2.051359 0.039718 0.009640 89465.700000 0 0 1
-30.822008 -27.521495 -20.204362 45.996142 0.728888 2.025573 0.032199 0.010445 183280.000000 0 0 1
-31.398908 -27.142195 -19.022162 45.655589 0.712813 2.000548 0.029151 0.014237 -858867.000000 0 0 1
-32.310808 -28.144095 -18.315262 46.599648 0.716584 1.974726 0.021519 0.005363 489277.000000 0 0 1
-33.669708 -28.374795 -18.736062 47.852045 0.700264 1.973103 0.023732 0.002130 1384930.000000 0 0 1
-34.604908 -27.318495 -18.539062 47.827781 0.668269 1.968846 0.015008 0.008345 -191680.000000 0 0 1
-35.017308 -26.920795 -17.109562 47.367480 0.655416 1.940360 0.024419 0.014108 -551427.000000 0 0 1
-33.961608 -26.271395 -16.399562 45.962187 0.658411 1.935642 0.020465 0.022158 349306.000000 0 0 1
-34.295308 -25.670495 -15.164762 45.443508 0.642549 1.911028 0.019623 0.021579 -152129.000000 0 0 1
-34.000508 -26.531995 -13.899962 45.312142 0.662638 1.882584 0.013485 0.021564 295623.000000 0 0 1
-35.015308 -27.503795 -13.638962 46.567712 0.665824 1.868039 0.026568 0.018074 688326.000000 0 0 1
-34.676808 -28.250495 -12.440862 46.425709 0.683628 1.842085 0.023331 0.006610 -213953.000000 0 0 1
-35.450008 -29.537595 -12.223962 47.734660 0.694670 1.829763 0.036506 -0.002574 -312927.000000 0 0 1
-35.184408 -30.504995 -13.232762 48.410776 0.714283 1.847663 0.022133 -0.007173 108012.000000 0 0 1
-35.882008 -31.634895 -12.830962 49.526949 0.722576 1.832856 0.012138 -0.014032 -199305.000000 0 0 1
-35.517808 -32.832595 -13.775662 50.291777 0.746132 1.848257 0.012265 -0.013497 367885.000000 0 0 1
-34.170308 -33.293495 -13.707262 49.638249 0.772402 1.850575 0.017038 -0.011333 349448.000000 0 0 1
-33.677508 -33.726795 -14.913662 49.940850 0.786129 1.874049 0.038198 -0.030485 854642.000000 0 0 1
-32.141108 34.031908 -14.927962 49.133142 -0.813964 1.879503 0.035860 -0.023364 1019390.000000 0 0 1
-31.636208 33.603908 -16.133562 48.891350 -0.815550 1.907087 0.048463 -0.021404 -1199950.000000 0 0 1
-30.305008 33.231408 -16.078662 47.762363 -0.831424 1.914141 0.047180 -0.019727 -920751.000000 0 0 1
9.258665 19.780308 -9.048875 23.640339 1.133013 1.963592 0.037041 -0.032144 -1281180.000000 0 1 0
7.876965 19.819808 -9.146175 23.206118 1.192508 1.975915 0.052485 -0.030581 -842182.000000 0 1 0
7.426865 19.816808 -10.503975 23.626208 1.212222 2.031513 0.063479 -0.031071 -36567.700000 0 1 0
7.617565 18.557408 -11.416075 23.080976 1.181283 2.088182 0.053310 -0.023888 592545.000000 0 1 0
8.974265 18.141908 -11.716275 23.386692 1.111421 2.095528 0.087700 -0.030894 908235.000000 0 1 0
9.014965 17.065308 -12.680475 23.093046 1.084795 2.152088 0.085232 -0.035887 239943.000000 0 1 0
10.418365 16.550608 -13.110475 23.544628 1.008978 2.161367 0.110753 -0.034735 355182.000000 0 1 0
10.295065 15.477808 -14.053875 23.303697 0.983844 2.218147 0.121016 -0.039200 -173025.000000 0 1 0
11.542165 15.073308 -14.559675 23.925098 0.917300 2.225031 0.140721 -0.042486 -162430.000000 0 1 0
11.524665 13.843208 -15.467775 23.742459 0.876542 2.280332 0.120614 -0.041616 -61535.100000 0 1 0
11.554465 12.556708 -14.803975 22.590579 0.826942 2.285398 0.130321 -0.034715 364630.000000 0 1 0
12.773365 12.182808 -14.183775 22.644186 0.761739 2.247692 0.153440 -0.033012 715023.000000 0 1 0
13.961065 11.544108 -14.977675 23.505500 0.690917 2.261654 0.170539 -0.036098 523082.000000 0 1 0
14.516665 12.384108 -15.943475 24.865520 0.706289 2.266842 0.138940 -0.031833 -127236.000000 0 1 0
15.353265 11.683908 -16.834775 25.605587 0.650507 2.288246 0.123435 -0.036717 -208722.000000 0 0 1
15.766665 12.602208 -17.949675 27.011002 0.674311 2.297664 0.078490 -0.028514 -772012.000000 0 0 1
16.547065 13.640908 -17.532375 27.699529 0.689425 2.256152 0.047131 -0.019010 -378109.000000 0 0 1
17.498265 13.937308 -18.575675 29.077372 0.672601 2.263781 0.026756 -0.015941 222666.000000 0 0 1
18.594465 14.881408 -18.024275 29.867791 0.674932 2.218640 0.023896 -0.000628 -578052.000000 0 0 1
18.202265 16.195608 -17.684675 30.105945 0.727128 2.198657 0.029228 -0.008225 -23378.200000 0 0 1
18.089665 17.017908 -18.809675 31.155241 0.754880 2.218981 0.032081 0.002780 -134963.000000 0 0 1
17.608165 18.433808 -18.383175 31.429188 0.808302 2.195563 0.036816 -0.000528 -704987.000000 0 0 1
18.549065 19.262808 -17.830075 32.140864 0.804272 2.158856 0.046876 0.001932 -467655.000000 0 0 1
17.952365 20.246408 -17.027375 31.970861 0.845382 2.132455 0.028450 0.011075 5166.170000 0 0 1
18.734465 21.573508 -17.119475 33.308751 0.855716 2.110595 0.041826 -0.002247 411413.000000 0 0 1
20.040065 21.596208 -16.543375 33.788810 0.822755 2.082440 0.077115 -0.008311 239614.000000 0 0 1
20.283465 22.877808 -16.028175 34.521232 0.845434 2.053639 0.067321 -0.008663 249841.000000 0 0 1
21.735565 23.034708 -15.517075 35.267722 0.814408 2.026372 0.073458 -0.015002 -651285.000000 0 0 1
21.958665 22.485408 -14.240575 34.504645 0.797249 1.996229 0.081128 -0.013523 243603.000000 0 0 1
23.108265 23.016308 -13.574975 35.327359 0.783404 1.965205 0.081876 -0.018359 1543560.000000 0 0 1
24.506065 22.453208 -14.103775 36.105543 0.741710 1.972108 0.084763 -0.010221 528229.000000 0 0 1
24.835865 22.875008 -15.392175 37.108021 0.744323 1.998512 0.089031 -0.013588 145594.000000 0 0 1
25.929765 23.791908 -15.251875 38.353974 0.742428 1.979762 0.085438 -0.007947 392287.000000 0 0 1
26.634565 24.252208 -16.579075 39.653946 0.738615 2.002142 0.090396 -0.015929 -4136.900000 0 0 1
27.345765 23.275708 -17.316875 39.867576 0.705169 2.020124 0.099709 -0.016592 260201.000000 0 0 1
27.394465 23.648808 -18.698375 40.735146 0.712147 2.047692 0.083699 -0.014023 -1039900.000000 0 0 1
28.051165 22.534208 -19.523475 40.936835 0.676765 2.067940 0.075910 -0.017113 389990.000000 0 0 1
29.473265 22.588108 -19.552475 41.966597 0.653910 2.055454 0.072036 -0.013016 153375.000000 0 0 1
29.982865 21.477308 -20.262775 42.081196 0.621595 2.073180 0.086721 -0.010699 336280.000000 0 0 1
31.509565 21.562108 -20.526375 43.348694 0.600114 2.064077 0.100681 -0.013398 -11282.500000 0 0 1
31.838765 22.733708 -21.184175 44.489299 0.620078 2.067083 0.088692 -0.002075 -930130.000000 0 0 1
33.132265 22.589408 -21.648275 45.570563 0.598403 2.065817 0.105973 -0.012019 -969514.000000 0 0 1
33.782065 23.790608 -22.420475 47.009559 0.613564 2.067960 0.100183 -0.014718 -74178.700000 0 0 1
33.239265 24.270808 -23.669875 47.478246 0.630698 2.092712 0.112308 -0.022081 -772894.000000 0 0 1
32.006665 24.837308 -23.405975 46.788440 0.659937 2.094685 0.091782 -0.014658 -1284600.000000 0 0 1
31.382365 25.393908 -24.691075 47.321798 0.680312 2.119720 0.091350 -0.017177 -141562.000000 0 0 1
32.022165 26.563708 -25.214065 48.649756 0.692496 2.115632 0.103077 -0.027116 309184.000000 0 0 1
31.131865 27.277808 -26.069415 48.917137 0.719510 2.132856 0.095012 -0.021368 413434.000000 0 0 1
30.755765 26.735808 -27.482635 49.152983 0.715589 2.164126 0.090923 -0.019268 613543.000000 0 0 1
29.978765 25.510808 -27.476395 48.004999 0.705053 2.180184 0.088800 -0.025237 102864.000000 0 0 1
29.817465 25.138908 -28.838835 48.504890 0.700471 2.207509 0.074464 -0.027311 -232793.000000 0 0 1
29.115265 23.731908 -29.015235 47.463523 0.683882 2.228519 0.065708 -0.028331 1043150.000000 0 0 1
27.703765 23.917408 -28.816305 46.582405 0.712180 2.237768 0.054927 -0.022199 346214.000000 0 0 1
27.015865 22.738808 -29.126385 45.773974 0.699646 2.260500 0.055091 -0.025153 280293.000000 0 0 1
25.627365 22.699908 -28.407715 44.486469 0.724896 2.263435 0.045392 -0.015763 119984.000000 0 0 1
25.622265 22.651308 -26.996695 43.570676 0.723932 2.239038 0.048088 -0.002744 116181.000000 0 0 1
24.351165 22.857908 -26.421215 42.585723 0.753778 2.240080 0.041922 -0.003135 -77716.600000 0 0 1
24.507465 22.934008 -24.911075 41.798878 0.752244 2.209275 0.055722 0.001535 -60055.400000 0 0 1
24.676065 21.685708 -24.282675 40.851272 0.720987 2.207336 0.058222 -0.002522 278975.000000 0 0 1
25.148665 21.878208 -22.962375 40.476932 0.715966 2.174014 0.064179 -0.006478 -50979.700000 0 0 1
25.495965 20.594408 -22.202075 39.586690 0.679450 2.166205 0.089438 -0.005913 -52494.100000 0 0 1
26.778565 20.133908 -22.547375 40.383783 0.644695 2.163165 0.069197 -0.006664 -289178.000000 0 0 1
26.918265 18.733108 -22.337475 39.679782 0.607986 2.168739 0.105621 -0.007742 -379717.000000 0 0 1
28.211965 18.202908 -22.921175 40.652689 0.573007 2.169811 0.111010 -0.016760 193800.000000 0 0 1
29.403565 18.325608 -22.127475 41.109886 0.557336 2.139158 0.124028 -0.026104 379524.000000 0 0 1
30.506065 17.917908 -22.876975 42.131074 0.531070 2.144796 0.110596 -0.020171 131391.000000 0 0 1
31.836265 17.535208 -22.185875 42.582207 0.503452 2.118833 0.093453 -0.017499 448480.000000 0 0 1
32.533965 18.594808 -21.600975 43.253068 0.519238 2.093713 0.083703 -0.011868 -448649.000000 0 0 1
33.769565 18.256308 -21.046075 43.779146 0.495609 2.072287 0.082629 -0.014194 -71607.700000 0 0 1
34.372965 19.295808 -20.077075 44.237065 0.511527 2.041880 0.067168 -0.019061 -65944.300000 0 0 1
34.037765 19.091708 -18.719575 43.283776 0.511172 2.018043 0.074732 -0.020451 125563.000000 0 0 1
34.262765 20.283108 -18.005975 43.698475 0.534507 1.995500 0.050937 -0.016915 -102516.000000 0 0 1
33.864965 20.324708 -16.498075 42.803226 0.540544 1.966481 0.059375 -0.024297 -38483.800000 0 0 1
34.354965 19.174108 -15.840075 42.412475 0.509054 1.953551 0.058024 -0.025325 227848.000000 0 0 1
33.941265 19.286908 -14.480675 41.637534 0.516742 1.925998 0.074535 -0.026364 -289234.000000 0 0 1
34.396365 18.143408 -13.489575 41.161412 0.485389 1.904690 0.061663 -0.021334 -538021.000000 0 0 1
35.780565 17.886308 -13.566575 42.240038 0.463559 1.897770 0.039578 -0.016686 -80170.100000 0 0 1
36.198865 16.936408 -12.605975 41.905971 0.437616 1.876344 0.034860 -0.021204 -61845.900000 0 0 1
36.223665 17.370908 -11.163075 41.695523 0.447151 1.841831 0.062662 -0.025439 -783001.000000 0 0 1
37.081165 18.450708 -10.788475 42.799914 0.461707 1.825613 0.049495 -0.022761 343023.000000 0 0 1
36.678365 19.083408 -9.607875 42.447500 0.479748 1.799122 0.058319 -0.023302 -416085.000000 0 0 1
35.526465 20.092008 -9.660575 41.942165 0.514704 1.803214 0.068536 -0.020737 -740918.000000 0 0 1
34.279265 19.516908 -9.884675 40.665520 0.517578 1.816329 0.096540 -0.032126 -674933.000000 0 0 1
33.271065 20.536908 -9.876075 40.326979 0.553014 1.818213 0.078177 -0.016555 116372.000000 0 0 1
31.893965 19.894708 -10.109575 38.925929 0.557719 1.833521 0.071309 -0.016642 -318186.000000 0 0 1
31.605365 19.590108 -11.439075 38.904034 0.554876 1.869240 0.084724 -0.020654 -724734.000000 0 0 1
30.424865 18.869908 -11.516875 37.608301 0.555150 1.882029 0.091208 -0.022353 -556089.000000 0 0 1
30.054365 18.317308 -12.921875 37.493513 0.547355 1.922655 0.117717 -0.022909 453108.000000 0 0 1
31.036265 17.366808 -13.396375 38.004193 0.510157 1.931035 0.111173 -0.020219 567391.000000 0 0 1
30.524765 16.581508 -14.404275 37.605729 0.497619 1.963875 0.103685 -0.016711 -194513.000000 0 0 1
31.645365 15.859408 -15.173275 38.512053 0.464576 1.975763 0.093316 -0.023288 325515.000000 0 0 1
32.393565 14.991708 -14.296375 38.451017 0.433446 1.951752 0.070270 -0.023881 -301228.000000 0 0 1
33.441865 14.348008 -14.890875 39.318721 0.405290 1.959212 0.068687 -0.023318 -372202.000000 0 0 1
34.199465 13.279608 -14.037775 39.281173 0.370379 1.936243 0.059675 -0.033200 467733.000000 0 0 1
35.098265 13.675608 -13.010675 39.852078 0.371542 1.903367 0.057209 -0.020045 281520.000000 0 0 1
35.938565 12.658308 -12.536875 40.112174 0.338652 1.888668 0.052539 -0.007106 198952.000000 0 0 1
36.811865 13.169808 -11.339475 40.707996 0.343571 1.853087 0.070102 -0.008884 220771.000000 0 0 1
-36.257161 13.920508 -11.783775 40.585954 -0.366584 1.865380 0.041491 -0.009041 88426.500000 0 0 1
-35.383961 14.265808 -10.704775 39.624868 -0.383238 1.844348 0.033156 -0.011421 43803.000000 0 0 1
-33.933261 14.620708 -11.135575 38.590573 -0.406829 1.863516 0.049160 -0.019748 397003.000000 0 0 1
-33.029561 13.639508 -11.583375 37.565445 -0.391619 1.884256 0.062511 -0.018724 229904.000000 0 0 1
-32.787761 12.545708 -10.662975 36.689659 -0.365447 1.865677 0.091160 -0.017894 -650766.000000 0 0 1
-31.665761 11.613408 -11.188675 35.535589 -0.351518 1.891104 0.113014 -0.017944 313213.000000 0 0 1
-32.059361 10.877008 -12.386675 36.049156 -0.327090 1.921549 0.091511 -0.009954 104206.000000 0 0 1
-31.175161 9.795408 -12.553475 35.006148 -0.304438 1.937572 0.134468 -0.022039 -116811.000000 0 0 1
-31.277961 9.045608 -13.888475 35.398074 -0.281520 1.973983 0.142792 -0.037577 181305.000000 0 0 1
-32.432261 8.223208 -14.033875 36.282535 -0.248317 1.967949 0.101316 -0.031376 252357.000000 0 0 1
-32.355461 7.363608 -15.129775 36.469284 -0.223773 1.998589 0.118580 -0.041197 -690723.000000 0 0 1
-33.626961 6.871408 -15.812075 37.789026 -0.201567 2.002513 0.122075 -0.038402 -1068870.000000 0 0 1
-34.299161 5.973508 -15.007775 37.912380 -0.172430 1.977794 0.125032 -0.039061 -193283.000000 0 0 1
-35.428161 5.557108 -15.768475 39.175003 -0.155588 1.985057 0.081321 -0.040112 22169.500000 0 0 1
-36.599461 5.180408 -14.812375 39.821648 -0.140609 1.951924 0.078678 -0.036702 330051.000000 0 0 1
36.536565 4.441608 -15.469275 39.924265 0.120973 1.968677 0.078994 -0.030810 827492.000000 0 0 1
35.559965 3.994008 -14.514575 38.615232 0.111849 1.956139 0.103288 -0.034930 232424.000000 0 0 1
34.690365 2.835208 -15.032375 37.913482 0.081548 1.978488 0.107706 -0.032793 -180454.000000 0 0 1
35.377865 1.587708 -15.130475 38.510329 0.044848 1.974573 0.110834 -0.034723 701934.000000 0 0 1
34.474365 0.422308 -15.051775 37.619359 0.012249 1.982430 0.103390 -0.028100 838860.000000 0 0 1
33.987865 0.124408 -13.597975 36.607313 0.003660 1.951372 0.132160 -0.030699 340790.000000 0 0 1
35.090865 -0.189492 -12.734375 37.330538 -0.005400 1.918910 0.149232 -0.032319 347669.000000 0 0 1
34.821665 -0.273492 -11.369075 36.631667 -0.007854 1.886370 0.163658 -0.025315 -198175.000000 0 0 1
35.026065 1.080308 -10.636575 36.621429 0.030833 1.865490 0.156568 -0.033164 409665.000000 0 0 1
33.938665 2.011108 -10.795975 35.671146 0.059188 1.878271 0.140971 -0.019745 847182.000000 0 0 1
34.336565 3.350308 -10.559075 36.079334 0.097265 1.867807 0.141040 -0.027222 -400014.000000 0 0 1
33.322865 4.400108 -11.013875 35.370606 0.131285 1.887446 0.125735 -0.024325 -267002.000000 0 0 1
33.194665 4.509908 -12.392975 35.718495 0.135036 1.925127 0.114343 -0.023791 885046.000000 0 0 1
32.009865 5.289408 -12.596675 34.803528 0.163763 1.941141 0.104783 -0.021672 501834.000000 0 0 1
32.176265 5.890908 -14.035275 35.594997 0.181077 1.976107 0.065668 -0.014832 -199223.000000 0 0 1
31.962065 4.992008 -15.107875 35.703524 0.154934 2.007713 0.061083 -0.013498 340287.000000 0 0 1
32.376465 5.599308 -16.352175 36.701245 0.171250 2.032583 0.047001 -0.009410 -527059.000000 0 0 1
31.412365 6.703908 -16.934475 36.310543 0.210262 2.055989 0.053551 -0.006116 599381.000000 0 0 1
30.233665 6.248108 -17.568675 35.521426 0.203792 2.088164 0.050640 -0.001847 1100050.000000 0 0 1
29.223765 5.603308 -16.742175 34.142729 0.189439 2.083297 0.055363 0.001561 -248551.000000 0 0 1
27.821565 5.584008 -17.369975 33.270658 0.198076 2.120085 0.054103 0.008193 -303604.000000 0 0 1
27.681665 4.633508 -18.399475 33.560165 0.165848 2.151071 0.060604 0.004335 -642549.000000 0 0 1
26.629165 4.952708 -19.216175 33.209986 0.183887 2.187840 0.058881 0.003371 -832131.000000 0 0 1
26.250065 3.778108 -20.110075 33.282956 0.142946 2.219577 0.056171 0.012003 -233166.000000 0 0 1
25.530165 2.890408 -19.279275 32.122177 0.112735 2.214530 0.063746 0.001987 -54227.700000 0 0 1
25.154065 1.725708 -19.946475 32.149136 0.068498 2.240095 0.064806 -0.003896 64613.400000 0 0 1
24.031665 0.931408 -19.208375 30.779053 0.038738 2.244741 0.064964 -0.011308 1048790.000000 0 0 1
22.714365 1.509008 -19.312875 29.853084 0.066337 2.274349 0.062248 -0.019241 747224.000000 0 0 1
21.857665 0.908608 -18.356675 28.557847 0.041545 2.268930 0.069275 -0.021245 -602753.000000 0 0 1
20.519965 1.629908 -18.406275 27.613702 0.079264 2.300385 0.056979 -0.031084 -1453720.000000 0 0 1
19.721765 1.292408 -19.526375 27.783046 0.065439 2.350145 0.050116 -0.028028 346888.000000 0 0 1
18.502965 2.008708 -19.608875 27.035210 0.108138 2.382279 0.040343 -0.024661 -162860.000000 0 0 1
17.347265 1.575608 -18.748375 25.591243 0.090579 2.392944 0.065289 -0.025818 -1687170.000000 0 0 1
17.524065 1.790608 -17.342075 24.719359 0.101827 2.348378 0.066932 -0.033838 516327.000000 0 1 0
16.312465 1.695408 -16.590775 23.328625 0.103561 2.361967 0.043358 -0.024844 382782.000000 0 1 0
15.462165 2.982008 -16.404175 22.739127 0.190519 2.376629 0.055961 -0.023654 -57422.300000 0 1 0
14.838065 3.381108 -17.592775 23.261681 0.224042 2.428433 0.057101 -0.014966 -176270.000000 0 1 0
13.979465 4.444108 -17.334575 22.708215 0.307799 2.439297 0.073034 -0.017659 -418954.000000 0 1 0
-20.399635 -21.916492 -17.066975 34.463884 0.821229 2.088877 0.106917 -0.018609 -58843.700000 0 0 1
-20.063035 -22.403692 -18.342975 35.226630 0.840460 2.118483 0.115867 -0.026093 460557.000000 0 0 1
-20.993035 -21.935992 -19.333275 35.995427 0.807360 2.137796 0.118724 -0.024114 146072.000000 0 0 1
-20.738835 -22.713092 -20.641175 37.041084 0.830802 2.161868 0.098251 -0.017841 -14086.000000 0 0 1
-21.142335 -24.086492 -20.476875 38.032352 0.850401 2.139342 0.092446 -0.014531 275136.000000 0 0 1
-20.526735 -24.916992 -21.403575 38.733917 0.881708 2.156253 0.085629 -0.020842 -231395.000000 0 0 1
-20.618635 -26.452852 -21.097275 39.622928 0.908713 2.132290 0.090594 -0.010290 -474400.000000 0 0 1
-21.838435 -27.011212 -21.469475 40.834558 0.890897 2.124413 0.083380 -0.000180 -407912.000000 0 0 1
-21.823535 -28.432442 -21.264275 41.675410 0.916153 2.106255 0.122904 -0.017593 -142291.000000 0 0 1
-23.109035 -29.172292 -21.673575 43.067318 0.900856 2.098151 0.094725 -0.007533 -364007.000000 0 0 1
-23.547835 -29.116272 -22.983275 43.937327 0.890742 2.121271 0.063074 -0.006041 -261435.000000 0 0 1
-22.789335 -29.729782 -23.975275 44.475021 0.916788 2.140132 0.063356 -0.010414 -716306.000000 0 0 1
-23.173035 -29.113882 -25.325705 45.011098 0.898533 2.168390 0.054851 -0.001817 -783726.000000 0 0 1
-24.524935 -29.366992 -25.532345 45.997753 0.875005 2.159253 0.040395 0.001212 -341026.000000 0 0 1
-25.045735 -28.578082 -26.634285 46.404533 0.851176 2.182128 0.044234 0.001047 -55634.300000 0 0 1
-24.507735 -28.811272 -28.085135 47.111498 0.865937 2.209483 0.054742 -0.011831 -535227.000000 0 0 1
-24.822935 -30.106592 -28.559385 48.355180 0.881293 2.202619 0.038768 0.005967 295462.000000 0 0 1
-24.689035 -30.194782 -29.950085 49.176019 0.885380 2.225644 0.063227 0.006347 -169873.000000 0 0 1
-25.446775 -31.400632 -30.571545 50.676990 0.889752 2.218382 0.031630 0.008174 150564.000000 0 0 1
-24.799435 -32.643602 -30.358695 51.012420 0.921114 2.208216 0.023628 0.010921 511398.000000 0 0 1
-25.752675 -33.638982 -30.728655 52.335758 0.917411 2.198323 0.025775 0.010450 115881.000000 0 0 1
-25.314715 33.026743 -30.568175 51.633456 -0.916824 2.204363 0.025892 0.002872 784568.000000 0 0 1
-24.249035 32.615421 -31.467195 51.400056 -0.931479 2.229638 0.039508 -0.006365 801106.000000 0 0 1
-23.773035 31.282291 -31.216225 50.181586 -0.920956 2.242174 0.059877 -0.007830 346554.000000 0 0 1
-22.600235 30.778181 -32.114915 49.894236 -0.937423 2.270067 0.063652 -0.001233 171451.000000 0 0 1
-22.833235 30.422821 -33.460305 50.660602 -0.926956 2.292254 0.062190 0.007587 265639.000000 0 0 1
-21.825535 29.516521 -33.932195 49.989727 -0.934091 2.316901 0.064606 0.009259 441210.000000 0 0 1
-21.785435 29.397511 32.444291 48.902462 -0.933039 0.845377 0.061444 0.006390 -41897.400000 0 0 1
-21.333135 30.558581 31.828013 49.009712 -0.961343 0.863972 0.061810 -0.000520 37957.200000 0 0 1
-21.437235 30.534841 30.365083 48.103740 -0.958690 0.887643 0.077836 -0.003869 -72304.900000 0 0 1
-20.921435 31.823871 29.659313 48.271524 -0.989227 0.909137 0.083470 -0.018674 -338729.000000 0 0 1
-21.848035 32.843492 29.752063 49.408672 -0.983798 0.924589 0.066258 -0.005585 -379511.000000 0 0 1
-21.482835 33.988822 29.013253 49.583475 -1.007139 0.945744 0.084578 -0.025845 328822.000000 0 0 1
-22.590435 -32.996782 29.013903 49.405687 0.970464 0.943129 0.094613 -0.031230 332083.000000 0 0 1
-22.745735 -32.437052 30.282743 49.865572 0.959247 0.918154 0.077420 -0.016375 275457.000000 0 0 1
-23.918735 -31.652782 30.472343 50.025675 0.923683 0.915828 0.074943 -0.015330 299400.000000 0 0 1
-23.917435 -30.227642 29.913963 48.791384 0.901417 0.910819 0.100608 -0.019759 -779459.000000 0 0 1
-23.667835 -30.164812 28.523383 47.787714 0.905506 0.931193 0.069645 -0.014656 2112.210000 0 0 1
-23.555135 -28.859282 28.034083 46.622015 0.886251 0.925662 0.093681 -0.029325 322180.000000 0 0 1
-24.830835 -28.380212 27.230803 46.513690 0.852003 0.945378 0.084520 -0.013878 606602.000000 0 0 1
-26.034905 -28.103742 27.963893 47.430115 0.823593 0.940256 0.102566 -0.011221 774277.000000 0 0 1
-26.761705 -29.283842 28.363653 48.767089 0.830369 0.950084 0.068067 -0.010391 -1151450.000000 0 0 1
-27.706035 -29.727122 27.230893 48.916742 0.820574 0.980414 0.044599 0.005350 -1229100.000000 0 0 1
-27.097365 -29.918912 25.984873 48.006479 0.834845 0.998840 0.045466 0.007347 -159559.000000 0 0 1
-27.979275 -30.176212 24.902323 48.099576 0.823157 1.026607 0.038377 0.010458 -24406.000000 0 0 1
-27.144705 -30.356522 23.589063 47.061633 0.841197 1.045768 0.046561 0.005886 -145073.000000 0 0 1
-26.434045 -29.154712 23.326403 45.747972 0.834302 1.035740 0.041330 -0.003851 787887.000000 0 0 1
-25.666625 -29.106272 22.081913 44.649317 0.848114 1.053464 0.074944 -0.009830 764122.000000 0 0 1
-24.414535 -30.020202 21.972813 44.498163 0.888016 1.054352 0.082066 -0.013927 -693813.000000 0 0 1
-24.674835 -31.408692 21.745013 45.477455 0.904894 1.072250 0.084302 -0.020540 140319.000000 0 0 1
-23.457335 -32.082372 21.504613 45.188201 0.939463 1.074821 0.084210 -0.009456 -59553.000000 0 0 1
-22.797735 -32.542362 22.784413 45.802527 0.959698 1.050141 0.096288 -0.014694 -452062.000000 0 0 1
-22.215735 -31.513322 23.580603 45.195941 0.956747 1.021905 0.106735 -0.023649 -49336.000000 0 0 1
-21.585435 -32.110902 24.682353 45.894003 0.978962 1.002956 0.110522 -0.041515 -118469.000000 0 0 1
-20.809435 -31.109302 25.572213 45.329453 0.981240 0.971404 0.116588 -0.026378 -338660.000000 0 0 1
-19.546135 -30.718512 25.039813 44.189032 1.004114 0.968359 0.123961 -0.032196 105679.000000 0 0 1
-18.804635 -30.080352 26.034033 44.002417 1.012091 0.937692 0.130333 -0.024992 -384063.000000 0 0 1
-17.825735 -31.006012 26.741743 44.657030 1.049028 0.928763 0.127995 -0.034258 -891649.000000 0 0 1
-18.534635 -32.031852 27.442573 46.072410 1.046237 0.932734 0.128197 -0.029660 546920.000000 0 0 1
-17.802635 -32.622802 28.542713 46.860084 1.071252 0.915865 0.144497 -0.027369 -210635.000000 0 0 1
-18.036735 -32.055292 29.932793 47.421910 1.058273 0.887695 0.165205 -0.029864 108823.000000 0 0 1
-17.464835 -30.753942 30.069303 46.421852 1.054322 0.866182 0.169464 -0.027941 400272.000000 0 0 1
-17.876135 -30.218462 31.309293 47.042358 1.036603 0.842559 0.163922 -0.021344 -5607.070000 0 0 1
-17.536335 -28.718402 31.394753 46.020649 1.022597 0.820045 0.161895 -0.026536 527569.000000 0 0 1
-18.372735 -27.732932 30.687043 45.258894 0.985692 0.825713 0.178339 -0.033295 649082.000000 0 0 1
-18.471735 -27.847362 29.263863 44.419075 0.985114 0.851557 0.160355 -0.029038 35450.100000 0 0 1
-17.160735 -27.673492 28.445413 43.237188 1.015718 0.852780 0.137202 -0.021848 110294.000000 0 0 1
-16.633635 -26.372572 28.528153 42.261635 1.008096 0.829782 0.121009 -0.018862 288199.000000 0 0 1
-15.530935 -26.117422 27.669523 41.096619 1.034314 0.832161 0.095580 -0.020036 44239.600000 0 0 1
-15.562635 -24.744692 27.051953 39.828426 1.009377 0.824108 0.094482 -0.015671 -853586.000000 0 0 1
-16.723835 -24.483192 26.341393 39.660841 0.971521 0.844418 0.112136 -0.029182 -512640.000000 0 0 1
-16.554035 -23.383192 25.416233 38.298754 0.954757 0.845134 0.090148 -0.021697 -290126.000000 0 0 1
-17.286835 -22.116792 25.811003 38.133909 0.907366 0.827319 0.088568 -0.017998 -364531.000000 0 0 1
-17.020235 -21.063192 24.868653 36.766783 0.891163 0.827947 0.080123 -0.012894 260376.000000 0 0 1
-17.636035 -19.841992 25.247503 36.635648 0.844190 0.810479 0.090795 -0.012888 76277.000000 0 0 1
-17.238735 -18.731892 24.231263 35.145580 0.826885 0.810061 0.074311 -0.015718 -217969.000000 0 0 1
-15.895935 -18.342892 24.289733 34.338514 0.856744 0.785038 0.076873 -0.015091 -559110.000000 0 0 1
-15.648435 -17.247392 23.442843 33.044105 0.833967 0.782092 0.080280 -0.012948 225381.000000 0 0 1
-14.250035 -16.660492 23.760373 32.329410 0.863222 0.745209 0.064140 -0.009462 -328076.000000 0 0 1
-13.199735 -17.487392 23.353983 32.022654 0.924221 0.753504 0.038553 -0.004174 -489729.000000 0 0 1
-11.923435 -16.909792 23.479613 31.295392 0.956642 0.722344 0.038162 -0.006105 -358345.000000 0 0 1
-11.439935 -16.101192 22.284113 29.777544 0.953057 0.725221 0.045258 -0.009634 -602805.000000 0 0 1
-11.127735 -16.977392 21.225313 29.369579 0.990603 0.763100 0.069135 -0.006742 218759.000000 0 0 1
-9.724335 -17.229292 21.240213 29.026846 1.056959 0.749920 0.061194 -0.012953 -68784.200000 0 0 1
-9.233735 -18.344092 20.274113 28.858399 1.104462 0.791839 0.064365 -0.010157 24779.600000 0 0 1
-8.909835 -17.964992 18.957013 27.595188 1.110390 0.813488 0.065341 -0.017765 -170372.000000 0 0 1
-8.663635 -19.069892 18.106913 27.687174 1.144364 0.857960 0.060862 -0.018702 168455.000000 0 0 1
-8.361735 -18.668192 16.632513 26.363999 1.149679 0.888110 0.052600 -0.028209 -573220.000000 0 0 1
-7.090935 -18.163192 16.413813 25.487176 1.198592 0.871077 0.055580 -0.029195 -881371.000000 0 0 1
-6.846335 -17.617892 15.151113 24.224339 1.200155 0.895088 0.066700 -0.036335 488936.000000 0 1 0
-5.852035 -16.413292 15.051213 23.025669 1.228305 0.858371 0.054972 -0.034237 304728.000000 0 1 0
-6.434235 -15.313292 15.660013 22.828322 1.173021 0.814832 0.057102 -0.037062 -430828.000000 0 1 0
-5.493335 -14.310392 15.831313 22.036209 1.204272 0.769264 0.041485 -0.025211 -354202.000000 0 1 0
-5.702735 -13.354892 17.031213 22.381611 1.167220 0.706025 0.027126 -0.007485 -301324.000000 0 1 0
-5.581335 -13.781792 18.384113 23.644548 1.186005 0.680084 0.041576 -0.002380 -179440.000000 0 1 0
-6.478635 -14.668892 19.015113 24.874155 1.154901 0.700605 0.070299 -0.019453 1240360.000000 0 1 0
-7.872235 -14.064892 19.526713 25.319671 1.060530 0.690061 0.066301 -0.022447 1518290.000000 0 0 1
-7.656835 -13.234492 20.654713 25.698172 1.046297 0.637237 0.059975 -0.015378 -486238.000000 0 0 1
-8.837635 -12.577492 20.985413 26.013162 0.958291 0.632211 0.059823 -0.014682 -233713.000000 0 0 1
-8.594435 -11.518892 22.090713 26.354293 0.929785 0.576784 0.075669 -0.017294 -270801.000000 0 0 1
-7.923535 -10.357892 21.592513 25.225085 0.917780 0.543327 0.065262 -0.017367 263133.000000 0 0 1
-7.359235 -9.582392 22.680613 25.698069 0.915877 0.489474 0.065465 -0.020232 -16154.900000 0 0 1
-5.907035 -9.954092 22.988173 25.737775 1.035223 0.466454 0.084077 -0.026783 -507277.000000 0 0 1
-5.847435 -11.065492 23.841583 26.926913 1.084657 0.483403 0.089710 -0.023303 71529.200000 0 0 1
-4.516735 -11.379192 24.211773 27.131104 1.192940 0.468162 0.094277 -0.026887 16470.200000 0 0 1
-4.501535 -12.572792 25.151003 28.476514 1.226979 0.488113 0.096251 -0.027946 399226.000000 0 0 1
-3.151435 -12.968692 25.427413 28.717100 1.332414 0.483346 0.087513 -0.027395 790193.000000 0 0 1
-3.131135 -14.024192 26.389273 30.047889 1.351132 0.498626 0.084111 -0.024133 82371.000000 0 0 1
-3.175135 -15.537092 25.969283 30.428380 1.369214 0.548215 0.086245 -0.040037 149632.000000 0 0 1
-1.954035 -15.939692 25.372303 30.027417 1.448816 0.564285 0.080057 -0.044677 213086.000000 0 0 1
-1.995135 -17.218992 24.706223 30.180651 1.455442 0.611807 0.078121 -0.041840 215840.000000 0 0 1
-0.532835 -17.785692 24.592593 30.354742 1.540847 0.626349 0.082441 -0.047922 868683.000000 0 0 1
-0.023635 -18.377792 25.758483 31.642427 1.569510 0.619707 0.083277 -0.048293 -332647.000000 0 0 1
0.647865 -17.418992 26.510243 31.727495 -1.533620 0.581644 0.094918 -0.045993 -890753.000000 0 0 1
1.160465 -17.877392 27.862693 33.125178 -1.505975 0.571421 0.079754 -0.035546 -875759.000000 0 0 1
2.267565 -18.726192 27.746683 33.551311 -1.450292 0.597059 0.085931 -0.043519 163506.000000 0 0 1
3.146065 -18.823092 28.899553 34.632220 -1.405188 0.583626 0.086904 -0.041986 386944.000000 0 0 1
4.092065 -17.673792 29.131373 34.318286 -1.343272 0.556974 0.110244 -0.035249 -949778.000000 0 0 1
3.428765 -16.457592 29.426903 33.890284 -1.365395 0.519033 0.094910 -0.037955 477058.000000 0 0 1
4.350165 -15.564592 30.094693 34.159493 -1.298260 0.492814 0.119280 -0.049467 -23544.300000 0 0 1
3.621665 -14.474592 30.840223 34.260029 -1.325621 0.450612 0.120114 -0.043925 180522.000000 0 0 1
2.835965 -14.933192 31.940977 35.373279 -1.383121 0.444167 0.107279 -0.048373 29431.900000 0 0 1
2.078765 -13.901192 32.514327 35.422392 -1.422358 0.408033 0.093895 -0.037206 26719.600000 0 0 1
1.145365 -14.340092 33.668942 36.613491 -1.491094 0.403793 0.074680 -0.027057 270774.000000 0 0 1
1.876365 -14.750092 -33.131715 36.315237 -1.444266 2.719751 0.095205 -0.030683 -56307.000000 0 0 1
1.046965 -15.400892 -32.178685 35.689653 -1.502920 2.694308 0.075262 -0.031223 326489.000000 0 0 1
1.797965 -15.656492 -30.854515 34.646204 -1.456459 2.669371 0.084949 -0.025959 31029.100000 0 0 1
1.126765 -16.471192 -29.957745 34.205792 -1.502494 2.637906 0.059273 -0.023880 -335854.000000 0 0 1
1.683765 -16.257492 -28.677455 33.008143 -1.467596 2.623569 0.063615 -0.026232 -194.468000 0 0 1
1.345565 -17.372692 -27.690875 32.717052 -1.493498 2.579937 0.063242 -0.033562 61179.600000 0 0 1
2.089865 -18.526892 -28.074515 33.701508 -1.458469 2.555367 0.057687 -0.027536 199633.000000 0 0 1
1.902765 -19.527592 -27.120855 33.473693 -1.473663 2.515313 0.058466 -0.025620 -1018310.000000 0 0 1
2.738465 -20.776892 -27.472275 34.552920 -1.439748 2.489933 0.047709 -0.020209 768024.000000 0 0 1
4.137565 -20.742392 -27.164955 34.428201 -1.373907 2.480028 0.052771 -0.017433 518172.000000 0 0 1
4.453965 -20.574292 -25.781885 33.284304 -1.357604 2.456872 0.072626 -0.021262 -1384350.000000 0 0 1
5.704265 -21.374392 -25.450255 33.721191 -1.310001 2.426032 0.052593 -0.019931 -612304.000000 0 0 1
5.438165 -22.782792 -25.491145 34.618314 -1.336485 2.398454 0.068681 -0.017401 212741.000000 0 0 1
5.517465 -23.358292 -26.765245 35.950390 -1.338838 2.410589 0.047939 -0.014129 -303086.000000 0 0 1
5.062365 -24.838292 -26.818425 36.902523 -1.369737 2.384356 0.053737 -0.004516 147515.000000 0 0 1
5.911665 -25.701602 -26.078585 37.089253 -1.344717 2.350587 0.056835 -0.002442 208758.000000 0 0 1
5.504065 -27.065682 -26.304785 38.141677 -1.370173 2.331816 0.060360 -0.001451 -28111.800000 0 0 1
6.158365 -28.048392 -25.382475 38.326332 -1.354664 2.294644 0.068925 0.000550 -480018.000000 0 0 1
7.482365 -28.383282 -25.677725 38.999257 -1.313042 2.289508 0.068592 -0.006777 -520792.000000 0 0 1
7.869865 -29.513872 -24.982375 39.460391 -1.310210 2.256348 0.067603 -0.002022 988008.000000 0 0 1
9.304565 -30.050032 -25.402705 40.433609 -1.270523 2.250107 0.085327 -0.005882 1132040.000000 0 0 1
9.368965 -30.494202 -26.731875 41.620511 -1.272713 2.268261 0.079281 -0.006422 381650.000000 0 0 1
10.705165 -30.389022 -27.212025 42.173303 -1.232100 2.272138 0.087995 -0.019559 486962.000000 0 0 1
10.747665 -30.168282 -28.738985 43.029836 -1.228558 2.302160 0.096578 -0.021897 -77180.300000 0 0 1
10.287465 -31.233762 -29.516555 44.188311 -1.252617 2.302277 0.093389 -0.024577 94951.200000 0 0 1
10.164465 -30.970662 -30.894575 44.910722 -1.253676 2.329403 0.094585 -0.026696 -30612.700000 0 0 1
-35.541655 -4.666192 -5.310175 36.237833 0.130541 1.717863 0.213680 -0.051149 -11505.100000 0 0 1
-35.037822 -4.038992 -4.149175 35.513069 0.114769 1.687899 0.199482 -0.054386 1011150.000000 0 0 1
-34.111735 -2.940992 -4.360875 34.514882 0.086004 1.697483 0.196914 -0.050037 569934.000000 0 0 1
-34.859137 -1.722592 -4.943175 35.249989 0.049376 1.711492 0.218611 -0.040337 21780.100000 0 0 1
-35.845084 -1.198692 -4.064275 36.094670 0.033428 1.683636 0.183295 -0.038916 258965.000000 0 0 1
-36.469495 -0.062792 -4.664875 36.766684 0.001722 1.698017 0.179481 -0.043195 196804.000000 0 0 1
36.567092 0.490208 -3.796775 36.766942 0.013405 1.674247 0.178046 -0.040559 -119248.000000 0 0 1
-37.086205 1.273908 -2.797775 37.213398 -0.034336 1.646049 0.177953 -0.029130 -34039.700000 0 0 1
36.066212 2.028008 -2.215175 36.191041 0.056171 1.632042 0.153526 -0.029753 -539675.000000 0 0 1
36.558242 3.137208 -1.216575 36.712766 0.085604 1.603940 0.139031 -0.029209 298267.000000 0 0 1
-36.908305 4.267808 -1.688275 37.192572 -0.115121 1.616205 0.166039 -0.041030 1182590.000000 0 0 1
-35.582687 4.003808 -2.203075 35.874944 -0.112050 1.632245 0.148158 -0.007402 218444.000000 0 0 1
-34.740308 5.238108 -2.426675 35.216693 -0.149652 1.639758 0.138068 -0.010562 -334031.000000 0 0 1
-34.075835 5.683208 -1.251975 34.569189 -0.165260 1.607021 0.144257 -0.022074 282067.000000 0 0 1
-33.596085 7.010908 -1.331575 34.345638 -0.205730 1.609576 0.157106 -0.031137 -386553.000000 0 0 1
-32.769675 7.472008 -0.166875 33.611164 -0.224183 1.575761 0.167545 -0.036003 -176727.000000 0 0 1
-31.392095 7.076708 -0.176275 32.180343 -0.221723 1.576274 0.181390 -0.034725 1066300.000000 0 0 1
-30.623535 7.579208 0.915525 31.560790 -0.242621 1.541784 0.181831 -0.051341 250623.000000 0 0 1
-30.385245 9.149208 1.029725 31.749511 -0.292472 1.538358 0.174423 -0.047279 -824338.000000 0 0 1
-31.576345 9.832908 1.344925 33.099251 -0.301883 1.530152 0.183401 -0.048711 -104529.000000 0 0 1
-31.451145 11.231608 1.445125 33.427712 -0.342997 1.527551 0.177398 -0.032959 1442200.000000 0 0 1
-32.897895 11.924308 1.596925 35.028713 -0.347735 1.525191 0.175577 -0.043748 1270200.000000 0 0 1
-33.611795 11.907308 0.356825 35.660399 -0.340465 1.560790 0.167504 -0.039817 76585.600000 0 0 1
-34.867362 12.514808 0.442725 37.047933 -0.344605 1.558846 0.168535 -0.027093 382473.000000 0 0 1
-36.095705 11.660208 0.911925 37.943273 -0.312454 1.546760 0.178631 -0.039197 131920.000000 0 0 1
-36.649405 10.816708 -0.058275 38.212347 -0.286992 1.572321 0.171259 -0.025904 -462247.000000 0 0 1
36.354282 10.257708 0.442925 37.776323 0.275010 1.559071 0.172861 -0.033608 -195774.000000 0 0 1
35.745492 9.223108 -0.507875 36.919695 0.252514 1.584553 0.173923 -0.034095 89857.400000 0 0 1
35.344832 9.744008 -1.769775 36.706061 0.269002 1.619030 0.160662 -0.032524 181241.000000 0 0 1
34.996902 8.617008 -2.611775 36.136648 0.241420 1.643134 0.152480 -0.040652 -180629.000000 0 0 1
34.459782 9.032308 -3.981675 35.845682 0.256345 1.682104 0.118929 -0.022534 344573.000000 0 0 1
33.089142 9.414708 -4.032375 34.637957 0.277200 1.687476 0.136128 -0.030502 496742.000000 0 0 1
32.707782 9.932708 -5.275375 34.587386 0.294830 1.723917 0.115452 -0.015758 -537232.000000 0 0 1
31.303742 10.515708 -5.326375 33.449584 0.324081 1.730713 0.140243 -0.029973 -148542.000000 0 0 1
30.231602 9.608308 -5.530675 32.200275 0.307727 1.743411 0.125657 -0.019804 960124.000000 0 0 1
28.993792 10.216908 -5.882875 31.299096 0.338796 1.759878 0.143737 -0.017587 402973.000000 0 0 1
27.778892 9.263108 -5.864775 29.864152 0.321863 1.768463 0.160646 -0.011295 -313506.000000 0 0 1
27.784592 8.337108 -6.899975 29.817790 0.291514 1.804318 0.146360 -0.018119 59807.700000 0 0 1
26.723292 7.426008 -6.930775 28.588732 0.271047 1.815666 0.176569 -0.024867 -483923.000000 0 0 1
26.561792 6.495808 -8.175775 28.540631 0.239847 1.861327 0.163638 -0.034588 667443.000000 0 0 1
27.530792 5.398608 -8.090375 29.198350 0.193636 1.851554 0.161457 -0.029582 1188000.000000 0 0 1
27.377792 4.451308 -9.125075 29.199737 0.161178 1.888626 0.148588 -0.026362 470.069000 0 0 1
28.374892 3.265708 -8.992775 29.944438 0.114587 1.875820 0.146868 -0.019598 566794.000000 0 0 1
29.750172 3.479908 -9.297375 31.362775 0.116442 1.871766 0.163506 -0.013400 1230940.000000 0 0 1
30.737602 2.962008 -8.402575 32.002764 0.096068 1.836468 0.122702 -0.022524 472027.000000 0 0 1
30.928462 1.416908 -8.207775 32.030376 0.045780 1.829937 0.125832 -0.023806 107770.000000 0 0 1
29.890622 0.955908 -7.294075 30.782569 0.031969 1.810026 0.154470 -0.035835 974448.000000 0 0 1
30.093852 -0.286192 -6.643975 30.819868 -0.009510 1.788076 0.144854 -0.034175 -313651.000000 0 0 1
29.969892 -1.573092 -7.460075 30.924452 -0.052441 1.814435 0.134435 -0.030171 -566857.000000 0 0 1
30.825102 -1.704392 -8.569275 32.039418 -0.055236 1.841553 0.154504 -0.028811 148641.000000 0 0 1
30.725172 -2.989892 -9.194575 32.210493 -0.097005 1.860275 0.124950 -0.028343 -227827.000000 0 0 1
31.566222 -3.153192 -10.493175 33.413705 -0.099561 1.890240 0.129406 -0.033140 210196.000000 0 0 1
32.937302 -3.414892 -10.236775 34.660048 -0.103309 1.870616 0.165439 -0.031782 80759.300000 0 0 1
33.594992 -3.862992 -11.396575 35.685124 -0.114484 1.895855 0.145347 -0.037766 -565202.000000 0 0 1
35.103602 -4.009992 -11.263475 37.083807 -0.113740 1.879402 0.170093 -0.037280 -557061.000000 0 0 1
35.377142 -5.100292 -10.390575 37.222563 -0.143183 1.853702 0.155372 -0.045344 640656.000000 0 0 1
36.771482 -5.201892 -10.089475 38.483751 -0.140533 1.836072 0.160603 -0.037908 536611.000000 0 0 1
-37.019735 -6.478292 -9.349475 38.727790 0.173241 1.814620 0.157574 -0.052326 -262377.000000 0 0 1
36.732882 -6.551992 -7.994575 38.159487 -0.176512 1.781864 0.158090 -0.048756 284636.000000 0 0 1
36.466502 -7.889892 -7.692675 38.095057 -0.213076 1.774128 0.142763 -0.037391 -342084.000000 0 0 1
36.209942 -7.979692 -6.168375 37.588352 -0.216906 1.735645 0.157116 -0.035672 -163466.000000 0 0 1
-36.825365 -7.766392 -5.350475 38.013838 0.207852 1.712016 0.160544 -0.037315 406980.000000 0 0 1
-36.989915 -8.045892 -4.039875 38.069814 0.214180 1.677114 0.158504 -0.028355 -558050.000000 0 0 1
-36.706905 -9.501992 -3.568275 38.084344 0.253301 1.664628 0.144736 -0.041838 -22438.200000 0 0 1
36.673322 -10.470392 -4.232675 38.372870 -0.278106 1.681325 0.105614 -0.033336 108768.000000 0 0 1
-36.697655 -11.333792 -4.973875 38.728699 0.299549 1.699581 0.083795 -0.033196 -509629.000000 0 0 1
36.820502 -12.039892 -6.161575 39.225927 -0.316030 1.728529 0.078430 -0.024657 -337248.000000 0 0 1
36.530502 -11.169092 -7.253475 38.882375 -0.296721 1.758445 0.103359 -0.026992 242506.000000 0 0 1
36.314002 -11.854992 -8.462975 39.126328 -0.315550 1.788818 0.095381 -0.028658 -107876.000000 0 0 1
36.572272 -10.999092 -9.730375 39.410548 -0.292144 1.820274 0.076077 -0.030028 -1283680.000000 0 0 1
35.647152 -9.997492 -9.897575 38.322725 -0.273432 1.832026 0.078802 -0.036657 -214999.000000 0 0 1
35.891182 -9.336292 -11.145875 38.724331 -0.254488 1.862752 0.085860 -0.040132 241564.000000 0 0 1
34.732922 -8.411992 -11.663775 37.592301 -0.237615 1.886274 0.090770 -0.035068 16834.000000 0 0 1
35.008902 -7.920392 -12.981375 38.168992 -0.222494 1.917822 0.102211 -0.031102 -140122.000000 0 0 1
34.004032 -7.239792 -13.659675 37.353387 -0.209777 1.945168 0.088991 -0.030045 -596245.000000 0 0 1
34.407482 -6.717392 -15.078975 38.162464 -0.192805 1.977001 0.083639 -0.028077 -26077.100000 0 0 1
35.325992 -5.639292 -15.055275 38.812223 -0.158300 1.969149 0.081229 -0.030231 742869.000000 0 0 1
34.638232 -4.382592 -14.985475 37.994456 -0.125856 1.976224 0.098026 -0.029633 568565.000000 0 0 1
35.635642 -3.175492 -15.150175 38.852420 -0.088875 1.971364 0.105858 -0.030328 315356.000000 0 0 1
36.210992 -3.044292 -16.472975 39.898152 -0.083874 1.996405 0.085973 -0.033120 4013.920000 0 0 1
-36.606035 -2.711892 -16.377575 40.194292 0.073948 1.990468 0.132368 -0.031947 -97334.300000 0 0 1
-36.160085 -1.249192 -16.042475 39.578696 0.034532 1.988137 0.124302 -0.025905 -439217.000000 0 0 1
-36.250625 -0.325892 -17.074075 40.071661 0.008990 2.010961 0.094497 -0.024027 -60103.800000 0 0 1
-36.141835 1.005308 -16.580075 39.776145 -0.027808 2.000757 0.102200 -0.032184 -276657.000000 0 0 1
-36.388825 2.127108 -17.607675 40.480876 -0.058389 2.020793 0.079844 -0.030064 -188007.000000 0 0 1
-35.353316 2.282908 -18.541175 39.985544 -0.064485 2.052960 0.084745 -0.026772 52779.500000 0 0 1
-35.503007 3.510408 -19.206575 40.517638 -0.098556 2.064658 0.071505 -0.017787 -342442.000000 0 0 1
-34.698758 3.728908 -20.462075 40.454975 -0.107054 2.101104 0.076564 -0.008355 -1113380.000000 0 0 1
-33.337245 3.926908 -20.344775 39.251781 -0.117253 2.115675 0.080695 -0.013231 -864089.000000 0 0 1
-32.706325 4.177708 -21.570075 39.400825 -0.127046 2.150113 0.071561 -0.007395 -260984.000000 0 0 1
-31.286215 4.694508 -21.261775 38.117302 -0.148939 2.162527 0.091174 -0.013928 242449.000000 0 0 1
-30.359545 3.666608 -20.882675 37.030151 -0.120191 2.169942 0.093505 -0.006494 1349790.000000 0 0 1
-28.996765 4.136708 -20.983575 36.031030 -0.141705 2.192444 0.075521 -0.003453 484731.000000 0 0 1
-27.951365 3.154108 -20.515775 34.815574 -0.112367 2.200951 0.111673 -0.013533 -472704.000000 0 0 1
-27.636595 3.251708 -19.121675 33.763788 -0.117121 2.172851 0.111104 -0.016819 181948.000000 0 0 1
-26.862605 2.146708 -18.677175 32.787875 -0.079745 2.176860 0.121606 -0.016770 -178803.000000 0 0 1
-25.896505 2.458508 -17.505475 31.354662 -0.094652 2.163138 0.109078 -0.027538 -507655.000000 0 0 1
-24.858135 3.303508 -17.869975 30.792467 -0.132120 2.189937 0.100216 -0.028477 -426513.000000 0 0 1
-23.983335 3.369708 -16.736075 29.438945 -0.139588 2.175479 0.113804 -0.033395 -63560.900000 0 0 1
-22.814035 4.339108 -16.955975 28.754358 -0.187950 2.201463 0.107239 -0.034216 -180974.000000 0 0 1
-21.657435 3.764208 -17.534675 28.119007 -0.172088 2.244120 0.128221 -0.040067 345191.000000 0 0 1
-20.621335 4.757708 -17.540075 27.486896 -0.226750 2.262857 0.118940 -0.044009 -272855.000000 0 0 1
-19.272035 4.125008 -17.883475 26.612885 -0.210859 2.307683 0.148469 -0.044986 -659407.000000 0 0 1
-18.834835 3.259908 -16.843875 25.477325 -0.171381 2.293123 0.173204 -0.043978 384748.000000 0 0 1
-17.774935 2.414508 -17.304975 24.924692 -0.135011 2.338230 0.144214 -0.047587 -702521.000000 0 1 0
-17.899035 0.900108 -16.971275 24.682176 -0.050246 2.328964 0.155614 -0.040997 190947.000000 0 1 0
-18.875935 0.157808 -17.680075 25.863311 -0.008360 2.323476 0.126237 -0.039611 2573240.000000 0 0 1
-20.280535 0.643008 -17.498475 26.793845 -0.031695 2.282438 0.134710 -0.044866 1320420.000000 0 0 1
-21.261335 -0.433792 -17.943675 27.824593 0.020400 2.271670 0.123987 -0.039413 -899959.000000 0 0 1
-21.088535 -1.608592 -17.142375 27.224527 0.076131 2.251920 0.120084 -0.045732 441982.000000 0 0 1
-22.102635 -2.596192 -17.274675 28.172345 0.116925 2.230874 0.125060 -0.033871 -72134.300000 0 0 1
-22.043135 -3.758792 -16.247175 27.640531 0.168895 2.199136 0.138284 -0.042868 -177425.000000 0 0 1
-22.484635 -3.338292 -15.021975 27.246334 0.147393 2.154765 0.129704 -0.038415 210755.000000 0 0 1
-22.827535 -4.409392 -14.160175 27.222226 0.190811 2.117846 0.137097 -0.048848 -133830.000000 0 0 1
-23.188135 -3.840192 -12.765375 26.746803 0.164121 2.068339 0.135910 -0.046448 308016.000000 0 0 1
-24.242735 -2.864192 -12.816275 27.571193 0.117601 2.054254 0.128460 -0.036543 721207.000000 0 0 1
-24.532735 -2.390592 -11.557075 27.223813 0.097138 2.009229 0.139864 -0.042917 221991.000000 0 0 1
-25.639845 -1.272592 -11.429975 28.100986 0.049593 1.989686 0.164369 -0.050691 300421.000000 0 0 1
-25.943665 -0.933892 -10.093375 27.853583 0.035981 1.941609 0.156931 -0.047638 500935.000000 0 0 1
-26.287585 0.435608 -9.940475 28.107648 -0.016569 1.932275 0.157184 -0.042744 -51774.200000 0 0 1
-26.531665 0.816408 -8.439775 27.853645 -0.030761 1.878640 0.173931 -0.037497 -260323.000000 0 0 1
-25.304035 0.582308 -7.811875 26.488840 -0.023008 1.870160 0.156536 -0.035176 283280.000000 0 0 1
-25.405875 0.840608 -6.424675 26.219106 -0.033075 1.818355 0.157641 -0.036247 294846.000000 0 0 1
-24.049135 1.228308 -5.762975 24.760482 -0.051031 1.805700 0.099951 -0.022075 201836.000000 0 1 0
-23.713135 2.579208 -5.892375 24.570005 -0.108341 1.812977 0.127994 -0.020522 1797550.000000 0 1 0
-22.348335 2.897108 -5.465575 23.188657 -0.128915 1.808735 0.107184 -0.006002 1212230.000000 0 1 0
-22.001335 4.403108 -5.449275 23.089839 -0.197520 1.809047 0.104943 -0.011073 -264922.000000 0 1 0
-22.635535 5.245908 -4.478675 23.663168 -0.227735 1.761213 0.113694 -0.011070 717177.000000 0 1 0
-22.354535 6.646208 -4.657175 23.782064 -0.288986 1.767897 0.114142 -0.016000 -667324.000000 0 1 0
-22.958835 7.585308 -3.576875 24.442566 -0.319097 1.717662 0.125771 -0.014786 -677178.000000 0 1 0
-22.474135 7.626108 -2.266475 23.840746 -0.327136 1.666007 0.119531 -0.014332 1211640.000000 0 1 0
-21.080835 7.976408 -2.150875 22.641796 -0.361724 1.665936 0.120779 -0.012412 610702.000000 0 1 0
-20.610735 9.425008 -2.383275 22.788444 -0.428897 1.675571 0.112981 -0.014622 -586499.000000 0 1 0
-20.496735 9.832308 -3.734575 23.037740 -0.447277 1.733622 0.097372 -0.010688 606070.000000 0 1 0
-20.113935 11.213408 -3.775675 23.335951 -0.508579 1.733307 0.113513 -0.009472 -243239.000000 0 1 0
-19.896435 11.642608 -5.206675 23.633195 -0.529437 1.792931 0.106773 -0.013818 -134910.000000 0 1 0
-18.737735 11.085508 -5.795175 22.529431 -0.534231 1.830948 0.075377 -0.006725 205122.000000 0 1 0
-18.609235 11.695408 -7.093875 23.095654 -0.561093 1.882995 0.074551 -0.006236 701279.000000 0 1 0
-17.286035 11.419308 -7.915475 22.177969 -0.583797 1.935751 0.058074 -0.000258 500793.000000 0 1 0
-17.028035 10.059308 -8.319275 21.455861 -0.533590 1.968974 0.041338 0.002216 470212.000000 0 1 0
-17.906035 9.480708 -9.282775 22.286314 -0.486945 2.000414 0.064248 0.001464 -208318.000000 0 1 0
-17.907035 9.999308 -10.766375 23.163827 -0.509270 2.054197 0.064439 0.000937 485332.000000 0 1 0
-16.694135 9.773708 -11.486475 22.497969 -0.529658 2.106628 0.060665 -0.005203 547406.000000 0 1 0
-16.766835 10.433508 -12.760875 23.512226 -0.556634 2.144485 0.072128 -0.011205 223417.000000 0 1 0
-15.767135 9.801008 -13.747975 23.101279 -0.556158 2.208208 0.068246 -0.005386 -135227.000000 0 1 0
-16.166235 8.573608 -14.295675 23.221116 -0.487624 2.233985 0.093527 -0.025477 175570.000000 0 1 0
-15.721935 7.435908 -13.533675 22.037067 -0.441786 2.232082 0.071100 -0.018874 89612.400000 0 1 0
-15.907835 6.149808 -14.330175 22.276293 -0.368893 2.269587 0.092473 -0.025464 360140.000000 0 1 0
-15.072035 6.228608 -15.496375 22.496653 -0.391881 2.330670 0.110176 -0.021018 517645.000000 0 1 0
-14.868035 4.987608 -16.102975 22.477555 -0.323662 2.369428 0.095817 -0.029231 52082.600000 0 1 0
33.004452 -15.813392 28.200213 46.201831 -0.446812 0.914269 0.052901 -0.001191 -188678.000000 0 0 1
32.554322 -14.541192 28.518093 45.656453 -0.420085 0.896147 0.051362 -0.006285 -271715.000000 0 0 1
31.482842 -14.534792 29.437373 45.486134 -0.432519 0.866927 0.061857 -0.011463 191125.000000 0 0 1
31.849062 -14.414192 30.937673 46.682665 -0.424996 0.846347 0.053626 -0.017971 -10005.300000 0 0 1
32.693902 -13.376692 31.358713 47.235537 -0.388369 0.844802 0.032984 -0.017568 170525.000000 0 0 1
32.651612 -13.277292 32.774227 48.130699 -0.386213 0.821748 0.022104 -0.015737 -223778.000000 0 0 1
33.114752 -11.889492 33.259216 48.416136 -0.344705 0.813520 0.017882 -0.019241 13754.100000 0 0 1
32.645382 -11.694292 -33.347285 48.109446 -0.343981 2.336653 0.022140 -0.029763 108029.000000 0 0 1
33.146932 -10.541592 -32.749685 47.774325 -0.307911 2.326098 0.043293 -0.030835 -612912.000000 0 0 1
32.543912 -10.254192 -31.363135 46.345451 -0.305241 2.314102 0.050848 -0.026735 705524.000000 0 0 1
31.184582 -9.795692 -31.487515 45.386092 -0.304360 2.337507 0.095146 -0.032779 928620.000000 0 0 1
30.630492 -9.452492 -30.179145 44.026781 -0.299326 2.326049 0.083947 -0.028369 628456.000000 0 0 1
29.257462 -10.164792 -29.931735 43.072390 -0.334380 2.339101 0.090552 -0.006821 445971.000000 0 0 1
28.783792 -9.993492 -28.594795 41.785630 -0.334171 2.324469 0.081230 -0.013025 231262.000000 0 0 1
27.937992 -11.055392 -28.178465 41.191977 -0.376804 2.324133 0.111831 -0.008394 -413025.000000 0 0 1
27.404292 -10.728292 -26.734915 39.759868 -0.373142 2.308256 0.092534 -0.001208 -388048.000000 0 0 1
26.490592 -9.637092 -26.561785 38.731814 -0.348909 2.326481 0.095503 -0.011705 1232930.000000 0 0 1
25.219192 -9.603392 -27.221065 38.330394 -0.363843 2.360535 0.098124 -0.016551 670100.000000 0 0 1
24.249492 -10.773892 -26.983035 37.844402 -0.418098 2.364563 0.105652 0.002739 -1006830.000000 0 0 1
24.721692 -11.917592 -27.619245 38.936021 -0.449201 2.359371 0.093174 -0.006276 250327.000000 0 0 1
23.815592 -13.003392 -27.529015 38.653813 -0.499770 2.363415 0.098598 -0.011563 423288.000000 0 0 1
24.585292 -14.162892 -28.206565 40.007929 -0.522639 2.353254 0.088289 -0.002574 355269.000000 0 0 1
24.619592 -14.164992 -29.590345 41.016580 -0.522101 2.376653 0.084107 -0.009804 372576.000000 0 0 1
25.711592 -14.953992 -30.032435 42.268841 -0.526784 2.361019 0.082028 0.000242 -118145.000000 0 0 1
25.743292 -14.870592 -31.593995 43.382394 -0.523823 2.386587 0.088756 -0.006837 -157012.000000 0 0 1
24.600592 -15.426392 -32.209015 43.365693 -0.560089 2.407935 0.094701 -0.005349 38614.000000 0 0 1
24.763792 -15.698892 -33.608155 44.600545 -0.565006 2.424222 0.080683 -0.007491 57557.000000 0 0 1
24.893092 -14.482992 33.320751 44.041974 -0.526935 0.712748 0.074342 -0.016762 187691.000000 0 0 1
23.719692 -13.715592 33.153019 43.010044 -0.524263 0.690668 0.080183 -0.015683 3931.000000 0 0 1
23.819092 -12.955092 32.018914 41.957054 -0.498144 0.702645 0.083947 -0.020286 232393.000000 0 0 1
22.842392 -11.705092 32.203469 41.180668 -0.473541 0.672921 0.089600 -0.023792 1382380.000000 0 0 1
21.445592 -12.003892 32.184438 40.494998 -0.510288 0.652159 0.081596 -0.018259 485772.000000 0 0 1
20.832192 -12.259492 30.958113 39.276966 -0.531912 0.662917 0.073696 -0.014664 -628633.000000 0 0 1
19.313492 -12.459992 31.144193 38.706887 -0.572954 0.635767 0.075351 -0.010870 -233503.000000 0 0 1
18.694392 -11.267992 31.338783 38.191193 -0.542437 0.608378 0.073934 -0.016553 -349762.000000 0 0 1
17.710092 -11.280092 32.372716 38.586015 -0.567132 0.575399 0.053347 -0.012580 352138.000000 0 0 1
17.006292 -9.934092 32.693982 38.168005 -0.528678 0.542190 0.056181 -0.020256 -817137.000000 0 0 1
16.207892 -9.636392 31.572763 36.774925 -0.536402 0.538380 0.090262 -0.027295 -291475.000000 0 0 1
15.431892 -8.477192 31.707963 36.268457 -0.502328 0.506893 0.092477 -0.028358 589800.000000 0 0 1
14.208892 -8.532592 32.697141 36.657888 -0.540795 0.469148 0.095433 -0.033160 -503360.000000 0 0 1
13.422392 -9.697892 32.589123 36.554899 -0.625678 0.470125 0.089162 -0.028514 -135405.000000 0 0 1
12.287392 -9.661292 33.426162 36.900255 -0.666317 0.437410 0.093775 -0.033870 1095680.000000 0 0 1
10.944092 -9.106892 32.792452 35.749874 -0.694027 0.409614 0.109278 -0.037418 482142.000000 0 0 1
11.158192 -7.709792 32.532878 35.246762 -0.604629 0.394983 0.104623 -0.040707 -342624.000000 0 0 1
9.952292 -7.100692 32.217040 34.458752 -0.619711 0.362692 0.100535 -0.032768 -537013.000000 0 0 1
10.023492 -5.567792 32.055165 34.044152 -0.507036 0.343516 0.087568 -0.031066 -58151.600000 0 0 1
10.338092 -4.849892 33.210086 35.118476 -0.438647 0.331183 0.087097 -0.033927 96066.100000 0 0 1
10.601892 -3.560992 32.828874 34.681634 -0.324043 0.328343 0.051129 -0.027126 -69059.800000 0 0 1
10.672892 -2.637792 -33.866555 35.606349 -0.242293 2.827697 0.058341 -0.031610 178491.000000 0 0 1
9.339692 -2.346292 -33.492935 34.849844 -0.246124 2.861624 0.054730 -0.018899 18877.400000 0 0 1
9.343392 -1.594092 -32.283175 33.645854 -0.168985 2.856016 0.056647 -0.018135 -648096.000000 0 0 1
7.943292 -1.260792 -31.815735 32.816558 -0.157411 2.893989 0.056140 -0.014312 -686991.000000 0 0 1
7.238092 -0.519692 -32.784125 33.577654 -0.071677 2.923756 0.046598 -0.016315 109488.000000 0 0 1
5.914292 -0.236592 -32.350495 32.887525 -0.039982 2.960629 0.050078 -0.016256 841986.000000 0 0 1
5.053392 0.667508 -33.336255 33.723704 0.131331 2.989863 0.079735 -0.022729 509212.000000 0 0 1
5.653092 1.955908 -33.365535 33.897521 0.333097 2.964194 0.058289 -0.027326 59900.600000 0 0 1
4.983192 2.863408 33.712568 34.198955 0.521544 0.168856 0.078344 -0.032238 12629.700000 0 0 1
5.786692 4.186808 33.553995 34.305768 0.626340 0.209735 0.066569 -0.037041 -171737.000000 0 0 1
5.240392 4.975408 32.583315 33.374972 0.759465 0.218241 0.095318 -0.047771 -436299.000000 0 0 1
6.104692 6.032708 32.363935 33.482609 0.779467 0.259223 0.091895 -0.048319 -459802.000000 0 0 1
5.491892 7.157508 31.536633 32.801677 0.916320 0.278629 0.109309 -0.053211 -510981.000000 0 0 1
4.413892 7.737208 32.252541 33.460024 1.052369 0.269468 0.122154 -0.054843 46405.300000 0 0 1
4.062392 8.934208 31.640753 33.127939 1.144040 0.300773 0.143570 -0.051418 -111166.000000 0 0 1
3.479892 9.036908 30.176493 31.692208 1.203222 0.310523 0.150929 -0.051769 -997403.000000 0 0 1
2.227192 8.470608 30.048603 31.299043 1.313684 0.283620 0.137736 -0.050210 -829699.000000 0 0 1
1.944592 8.318408 28.665393 29.911237 1.341151 0.289633 0.116063 -0.030435 -1579910.000000 0 0 1
0.598592 7.856108 28.272063 29.349383 1.494749 0.271785 0.133081 -0.031335 -1641710.000000 0 0 1
-0.377808 8.823408 28.584613 29.917810 -1.528004 0.299656 0.136574 -0.030169 169965.000000 0 0 1
-1.556508 8.585808 27.794933 29.132406 -1.391456 0.304190 0.124222 -0.014346 1146870.000000 0 0 1
-2.893008 8.849708 28.565963 30.044984 -1.254843 0.315075 0.098602 -0.018961 463415.000000 0 0 1
-3.279308 10.219608 28.652073 30.596332 -1.260292 0.358414 0.115924 -0.018459 -991912.000000 0 0 1
-4.594308 10.252808 29.068083 31.163780 -1.149522 0.368823 0.090987 -0.015733 -1138350.000000 0 0 1
-5.026908 11.464208 29.872373 32.389142 -1.157558 0.396817 0.066162 -0.014154 -96311.400000 0 0 1
-5.173608 12.754808 29.320123 32.390136 -1.185454 0.438905 0.073842 -0.019432 -116266.000000 0 0 1
-6.241608 12.841408 28.417583 31.802805 -1.118368 0.465592 0.073744 -0.023000 -294294.000000 0 0 1
-6.414008 14.219208 27.756333 31.839274 -1.147044 0.512005 0.057428 -0.020731 -15856.900000 0 0 1
-5.516308 14.421108 26.701753 30.844474 -1.205452 0.524269 0.071004 -0.017268 -260525.000000 0 0 1
-5.606108 15.778408 26.359133 31.228040 -1.229406 0.565939 0.046049 -0.012231 86334.900000 0 0 1
-4.326008 16.357908 25.710933 30.779012 -1.312255 0.582046 0.081397 -0.017950 121869.000000 0 0 1
-4.076708 16.127408 24.332583 29.475200 -1.323202 0.599660 0.081757 -0.007398 -758805.000000 0 0 1
-3.194908 17.029908 23.799943 29.439132 -1.385346 0.629290 0.091245 -0.004258 -425968.000000 0 0 1
-2.986008 16.833308 22.294913 28.095189 -1.395236 0.654177 0.084659 -0.011084 182889.000000 0 0 1
-2.327608 15.607308 21.961813 27.043059 -1.422752 0.623045 0.086650 -0.016939 54613.000000 0 0 1
-2.392708 15.485408 20.540513 25.834775 -1.417495 0.651670 0.081367 -0.011950 448648.000000 0 0 1
-1.493608 14.290408 20.073013 24.685471 -1.466656 0.621251 0.069592 -0.013534 183766.000000 0 1 0
-2.158808 13.079308 20.212813 24.172020 -1.407216 0.580466 0.069502 -0.006669 -465328.000000 0 1 0
-1.368108 12.078308 19.640913 23.098110 -1.458007 0.554193 0.059292 0.002021 -528481.000000 0 1 0
-2.064008 10.762308 19.272113 22.169838 -1.381316 0.517024 0.047026 -0.003447 -629726.000000 0 1 0
-2.159008 9.868608 20.407213 22.770706 -1.355414 0.459657 0.066691 -0.007870 294776.000000 0 1 0
-3.084408 10.208708 21.467713 23.970690 -1.277382 0.461059 0.086466 -0.005973 1786960.000000 0 1 0
-4.630408 10.281808 21.047213 23.877634 -1.147652 0.491849 0.067976 -0.001082 997692.000000 0 1 0
-5.249408 9.023808 20.971213 23.425993 -1.043920 0.461891 0.049830 -0.000906 -119449.000000 0 1 0
-6.643008 9.194308 21.119113 23.972521 -0.945120 0.492884 0.045924 0.006604 335048.000000 0 1 0
-7.494508 7.896308 21.088113 23.732421 -0.811499 0.476560 0.048399 0.004597 285349.000000 0 1 0
-7.077408 7.078208 22.188013 24.341295 -0.785455 0.423788 0.049153 -0.005631 237033.000000 0 1 0
-7.715408 5.805008 22.211313 24.219167 -0.645030 0.410061 0.045036 -0.002853 153965.000000 0 1 0
-7.839308 5.147008 23.590143 25.385848 -0.580976 0.378382 0.044154 -0.007207 304334.000000 0 0 1
-8.785408 5.789208 24.448203 26.616028 -0.582646 0.406395 0.036165 -0.002340 169238.000000 0 0 1
-8.962408 4.925608 25.552453 27.522976 -0.502525 0.380701 0.038084 0.003149 193475.000000 0 0 1
-10.026508 5.308408 26.634533 28.950102 -0.486919 0.402677 0.030856 0.002492 15340.000000 0 0 1
-9.653608 6.340608 27.507553 29.833889 -0.581149 0.397521 0.035212 0.001499 28939.900000 0 0 1
-10.635308 6.697108 28.475933 31.126191 -0.561976 0.415649 0.035502 0.000138 209990.000000 0 0 1
-10.235708 8.061608 29.145633 31.925337 -0.667132 0.420387 0.055126 -0.004807 266565.000000 0 0 1
-9.042408 7.816308 29.862163 32.165332 -0.712798 0.380724 0.059220 -0.003871 143872.000000 0 0 1
-8.704208 8.920808 30.708323 33.141290 -0.797687 0.385560 0.067803 -0.014016 433237.000000 0 0 1
-7.660208 8.506908 31.822973 33.819341 -0.837722 0.345313 0.093477 -0.016314 965146.000000 0 0 1
-6.309808 8.500708 31.347713 33.087079 -0.932262 0.325689 0.080964 -0.019118 215430.000000 0 0 1
-5.486008 7.775408 32.227826 33.603363 -0.956349 0.287113 0.109227 -0.025148 438539.000000 0 0 1
-3.970608 7.713208 31.894293 33.053066 -1.095394 0.265574 0.090092 -0.028584 326539.000000 0 0 1
-3.279308 8.831708 32.316200 33.661398 -1.215264 0.283661 0.082051 -0.029462 173344.000000 0 0 1
-1.853808 8.702108 32.252236 33.456987 -1.360904 0.269173 0.103993 -0.037226 1074620.000000 0 0 1
-1.088408 9.923008 31.614213 33.152815 -1.461548 0.305853 0.124375 -0.035034 93799.700000 0 0 1
-1.103008 11.058108 32.412069 34.264275 -1.471379 0.330305 0.107878 -0.043351 -79766.400000 0 0 1
-1.668708 12.163908 31.721873 34.015033 -1.434462 0.369290 0.092548 -0.037897 -149269.000000 0 0 1
-1.910708 13.415008 32.592311 35.296911 -1.429317 0.394014 0.085721 -0.044254 -903732.000000 0 0 1
-0.773108 13.933508 33.153552 35.970798 -1.515368 0.398408 0.149165 -0.048113 -810861.000000 0 0 1
-1.184008 14.978908 -33.909085 37.089022 -1.491915 2.724479 0.138180 -0.046519 465332.000000 0 0 1
-0.025108 15.501608 -33.014895 36.473055 -1.569177 2.702613 0.115945 -0.047696 322556.000000 0 0 1
0.970092 16.238508 -33.730795 37.448588 1.511127 2.692227 0.149308 -0.048346 -393095.000000 0 0 1
2.136192 16.188108 -32.985355 36.805594 1.439594 2.681936 0.172580 -0.049814 -247525.000000 0 0 1
3.353692 16.944908 -33.614435 37.792954 1.375404 2.666907 0.175821 -0.035874 382029.000000 0 0 1
3.333692 18.320008 -33.697685 38.500262 1.390796 2.636767 0.154098 -0.028151 104698.000000 0 0 1
4.548692 18.798908 33.651862 38.814138 1.333393 0.521646 0.122230 -0.006436 621069.000000 0 0 1
4.511992 20.348108 33.521970 39.473105 1.352587 0.556260 0.123347 -0.029180 -64491.300000 0 0 1
4.526792 21.004508 -33.186065 39.534745 1.358528 2.567003 0.153106 -0.049901 54628.400000 0 0 1
4.245192 22.382308 -33.215655 40.277402 1.383356 2.540419 0.120631 -0.039395 111662.000000 0 0 1
4.003692 23.061608 -31.828965 39.508864 1.398901 2.507510 0.145791 -0.042610 33495.500000 0 0 1
3.574992 24.379008 -31.946505 40.344712 1.425192 2.484610 0.139963 -0.046899 -68034.000000 0 0 1
3.246192 24.789608 -30.637355 39.543772 1.440588 2.457149 0.133275 -0.045589 184098.000000 0 0 1
2.699992 26.236608 -30.678785 40.457847 1.468248 2.431483 0.124858 -0.053816 204613.000000 0 0 1
3.788792 27.129108 -30.561565 41.040866 1.432036 2.410824 0.109864 -0.045481 154174.000000 0 0 1
3.346792 28.434808 -30.196815 41.612341 1.453635 2.382804 0.097431 -0.042905 -23763.400000 0 0 1
4.415892 29.533608 -29.941995 42.287790 1.422375 2.357533 0.107615 -0.042447 -361952.000000 0 0 1
5.247892 29.335108 -28.869595 41.491474 1.393774 2.340324 0.106964 -0.054257 -254812.000000 0 0 1
6.049492 30.491608 -28.627055 42.259233 1.374941 2.315040 0.099528 -0.043433 -804254.000000 0 0 1
7.088592 30.282108 -27.529655 41.534758 1.340852 2.295362 0.114324 -0.053856 30131.200000 0 0 1
8.261492 29.505208 -27.841515 41.399994 1.297787 2.308378 0.112496 -0.051333 1440350.000000 0 0 1
9.448892 30.251308 -28.196265 42.419955 1.268051 2.297880 0.114853 -0.052086 523987.000000 0 0 1
9.431692 31.417808 -29.260785 43.957127 1.279154 2.299183 0.118990 -0.048540 -1251570.000000 0 0 1
8.976192 32.593508 -28.565705 44.259556 1.302060 2.272361 0.106984 -0.034176 261865.000000 0 0 1
8.767492 33.776308 -29.436915 45.653476 1.316826 2.271545 0.081424 -0.018180 -468132.000000 0 0 1
7.501592 33.867008 -30.287215 46.049577 1.352814 2.288569 0.067013 -0.014443 -448809.000000 0 0 1
7.428692 32.995708 -31.385985 46.140896 1.349348 2.318860 0.057815 -0.017301 17299.200000 0 0 1
6.116592 32.878308 -31.888405 46.208941 1.386862 2.332412 0.052579 -0.010267 -17880.700000 0 0 1
6.035692 32.167108 -33.234755 46.644414 1.385317 2.363870 0.065406 -0.028172 -55956.800000 0 0 1
6.304292 33.075408 33.603469 47.570157 1.382452 0.786400 0.069232 -0.016567 224168.000000 0 0 1
6.215692 32.348608 32.443119 46.234438 1.380963 0.793003 0.087841 -0.019823 -153821.000000 0 0 1
5.844992 33.068308 31.176413 45.821890 1.395848 0.822512 0.064843 -0.025127 118113.000000 0 0 1
6.943292 33.676608 30.506573 45.967099 1.367470 0.845094 0.064671 -0.019949 48696.300000 0 0 1
6.586392 -33.812895 29.322773 45.238450 -1.378416 0.865601 0.038250 -0.030144 -329017.000000 0 0 1
18.761865 -22.231292 29.063003 41.120506 -0.869831 0.785865 0.074267 -0.009590 -446139.000000 0 0 1
17.836565 -21.173392 29.222683 40.254450 -0.870728 0.758383 0.077427 -0.011757 -47149.100000 0 0 1
16.539565 -21.567692 29.585073 40.174607 -0.916587 0.743045 0.072759 -0.012617 -46558.500000 0 0 1
16.301165 -21.990692 31.072193 41.410140 -0.932902 0.722201 0.067335 -0.018233 -533820.000000 0 0 1
16.949365 -23.193092 31.434363 42.583091 -0.939701 0.740415 0.077276 -0.026371 227125.000000 0 0 1
16.630165 -23.440492 32.748950 43.571926 -0.953747 0.720302 0.113045 -0.026184 541987.000000 0 0 1
17.521465 -24.624192 33.319201 44.983571 -0.952357 0.736689 0.093670 -0.034484 327943.000000 0 0 1
17.074565 -25.858092 32.885900 45.184778 -0.987202 0.755674 0.127004 -0.037359 -52052.700000 0 0 1
17.696465 -26.851762 33.655484 46.549689 -0.988090 0.762660 0.128971 -0.036696 110180.000000 0 0 1
17.182265 -28.295072 33.345315 46.986714 -1.025061 0.781759 0.125156 -0.033975 48586.500000 0 0 1
17.666965 -28.711982 32.082425 46.537958 -1.019191 0.810161 0.112430 -0.041644 132096.000000 0 0 1
17.314165 -30.040462 31.778483 47.032772 -1.047939 0.828928 0.123723 -0.038760 -124262.000000 0 0 1
18.109465 -30.635392 30.613703 46.943357 -1.036925 0.860391 0.117128 -0.038222 -347718.000000 0 0 1
19.294065 -31.269532 30.980993 48.061070 -1.017953 0.870274 0.125110 -0.039974 -460448.000000 0 0 1
20.043665 -31.801812 29.922683 48.046547 -1.008418 0.898499 0.110301 -0.035203 -316287.000000 0 0 1
21.398265 -32.343882 30.421993 49.290061 -0.986319 0.905613 0.110082 -0.035572 -112021.000000 0 0 1
22.285965 -31.329722 30.840383 49.288385 -0.952503 0.894751 0.089749 -0.030115 -705279.000000 0 0 1
23.575965 -31.810162 30.972163 50.269149 -0.932986 0.906981 0.084377 -0.028843 -718472.000000 0 0 1
24.600965 -30.651642 31.081303 50.107664 -0.894473 0.901683 0.061111 -0.021146 453023.000000 0 0 1
25.786965 -30.813022 30.313353 50.331990 -0.873965 0.924457 0.054351 -0.015117 141750.000000 0 0 1
26.649465 -29.704332 30.320243 50.118444 -0.839554 0.921066 0.050010 -0.012107 405194.000000 0 0 1
27.776965 -29.850002 29.255983 50.184608 -0.821356 0.948420 0.054520 -0.013858 -267814.000000 0 0 1
28.792165 -30.747482 29.562993 51.462287 -0.818227 0.958853 0.036158 -0.012859 -410697.000000 0 0 1
29.810065 -30.514712 28.593273 51.355261 -0.797079 0.980299 0.037113 -0.031596 156966.000000 0 0 1
31.078165 -31.356042 28.830413 52.728042 -0.789849 0.992288 0.013838 -0.028123 -172934.000000 0 0 1
30.770965 -32.689402 28.440133 53.144054 -0.815619 1.006109 0.001632 -0.023843 294717.000000 0 0 1
31.754165 -33.606422 28.868183 54.507711 -0.813730 1.012648 0.004974 -0.018871 -572139.000000 0 0 1
31.022865 33.203984 29.274213 54.054623 0.819345 0.998496 -0.002185 -0.012321 -283720.000000 0 0 1
30.411965 33.236780 30.550973 54.432831 0.829750 0.974889 0.012645 -0.011385 1028590.000000 0 0 1
29.330665 -33.955862 30.892953 54.476261 -0.858352 0.967828 0.011129 -0.013646 699633.000000 0 0 1
27.992365 34.048754 30.110473 53.380996 0.882709 0.971493 0.017697 -0.014899 51083.400000 0 0 1
27.381165 32.760601 30.348533 52.383381 0.874607 0.952860 0.014056 -0.015113 809214.000000 0 0 1
26.001565 32.847149 29.927613 51.484742 0.901203 0.950482 0.047672 -0.023763 1396920.000000 0 0 1
25.216865 31.475741 30.010773 50.271852 0.895353 0.931078 0.069123 -0.026581 88383.100000 0 0 1
25.634665 30.418531 29.142263 49.312215 0.870537 0.938530 0.064075 -0.015542 147608.000000 0 0 1
24.657765 29.388631 29.053693 48.122906 0.872709 0.922613 0.080581 -0.024876 -150639.000000 0 0 1
24.183365 29.060291 27.658853 46.843866 0.876740 0.939183 0.085483 -0.029159 76067.900000 0 0 1
22.956665 29.674741 27.283063 46.389269 0.912355 0.942048 0.116741 -0.030662 79837.600000 0 0 1
22.367965 29.099561 26.143033 45.061830 0.915453 0.951872 0.107254 -0.032483 1589500.000000 0 0 1
20.910665 29.747561 25.951373 44.672666 0.958102 0.950934 0.111058 -0.031252 1523300.000000 0 0 1
20.870565 30.965111 25.258113 45.082046 0.977732 0.976085 0.130584 -0.042401 1005420.000000 0 0 1
19.475865 31.325991 25.080763 44.605736 1.014562 0.973660 0.112996 -0.029087 1088970.000000 0 0 1
19.246365 32.845941 24.549863 45.298722 1.040765 0.998035 0.135067 -0.025331 -219045.000000 0 0 1
19.578165 33.135337 23.194113 44.935754 1.037129 1.028433 0.123096 -0.028374 322275.000000 0 0 1
20.960265 33.444493 23.072633 45.718850 1.010963 1.041804 0.106821 -0.023701 513180.000000 0 0 1
21.483165 33.498827 21.556213 45.258901 1.000554 1.074370 0.111384 -0.026329 243494.000000 0 0 1
21.034265 -33.379432 20.964313 44.678062 -1.008498 1.082377 0.103453 -0.019444 267607.000000 0 0 1
21.557565 -33.251492 19.672413 44.242447 -0.995604 1.110013 0.112734 -0.022172 30939.500000 0 0 1
21.309965 -31.844022 19.102213 42.814143 -0.981043 1.108320 0.109883 -0.024448 19554.900000 0 0 1
21.976765 -30.825682 19.865013 42.753007 -0.951441 1.087562 0.105204 -0.020252 423394.000000 0 0 1
21.663265 -29.502612 19.418213 41.433901 -0.937430 1.083029 0.094627 -0.025894 -93357.300000 0 0 1
22.559365 -29.084682 18.235213 41.077569 -0.911084 1.110826 0.073952 -0.017897 -296837.000000 0 0 1
22.305665 -29.841572 17.060913 40.977272 -0.928917 1.141369 0.058831 -0.020458 159304.000000 0 0 1
22.909565 -29.217722 15.951913 40.410233 -0.905827 1.165001 0.042747 -0.014293 -294025.000000 0 0 1
22.595465 -29.895692 14.564713 40.204954 -0.923587 1.200103 0.019732 -0.009441 -168318.000000 0 0 1
23.127365 -31.180582 14.440713 41.420259 -0.932613 1.214678 0.055297 -0.011870 -210509.000000 0 0 1
23.392465 -31.607442 13.092013 41.444404 -0.933666 1.249398 0.042652 -0.005660 -150729.000000 0 0 1
22.253465 -31.789612 12.058313 40.634948 -0.960055 1.269512 0.031256 -0.006024 -28338.300000 0 0 1
21.368565 -32.872152 12.295013 41.089674 -0.994385 1.266917 0.036060 -0.013483 84874.000000 0 0 1
20.241265 -32.825352 11.434013 40.223739 -1.018235 1.282562 0.045264 -0.002962 -338427.000000 0 0 1
19.030565 -33.426052 12.114213 40.326387 -1.053231 1.265680 0.066005 -0.002666 -845327.000000 0 0 1
18.526265 -32.744222 13.287713 39.899497 -1.055913 1.231282 0.060345 0.000792 551324.000000 0 0 1
19.188165 -33.121202 14.521613 40.939919 -1.045713 1.208197 0.065738 -0.008982 -1010380.000000 0 0 1
19.001865 -32.159602 15.771013 40.546710 -1.037124 1.171295 0.069137 -0.011942 88592.900000 0 0 1
17.689965 -31.821902 16.216013 39.856334 -1.063431 1.151781 0.077618 -0.022490 -37004.100000 0 0 1
16.860065 -32.904292 16.491813 40.483751 -1.097280 1.151225 0.071866 -0.013904 -1045470.000000 0 0 1
16.898165 -33.700732 17.810413 41.695301 -1.106015 1.129451 0.059878 -0.009845 -213202.000000 0 0 1
17.966465 33.472854 17.799613 41.952974 1.078185 1.132635 0.057196 -0.006089 224800.000000 0 0 1
18.142865 32.879320 19.133213 42.146092 1.066571 1.099576 0.063382 -0.006772 -7967.730000 0 0 1
19.051465 31.655241 19.144213 41.611459 1.029023 1.092722 0.077809 -0.007863 160349.000000 0 0 1
18.355465 30.431761 18.800813 40.205544 1.028051 1.084203 0.047594 -0.006492 148676.000000 0 0 1
19.236865 29.338341 18.581613 39.699768 0.990431 1.083710 0.052263 -0.016724 -69867.700000 0 0 1
18.594165 27.997331 18.335713 38.285662 0.984545 1.071374 0.049453 -0.014295 -91927.200000 0 0 1
18.111465 27.324231 19.469113 38.127223 0.985451 1.034873 0.058994 -0.029004 5296.780000 0 0 1
17.519165 26.054291 19.139613 36.770532 0.978828 1.023342 0.068813 -0.029261 -233453.000000 0 0 1
17.445065 25.127291 20.395813 36.765476 0.963928 0.982728 0.082415 -0.034749 590368.000000 0 0 1
16.254065 25.269731 21.186213 36.764243 0.999200 0.956636 0.087965 -0.038853 1163820.000000 0 0 1
15.183465 24.396121 20.771213 35.456334 1.014089 0.944898 0.090884 -0.035441 488348.000000 0 0 1
13.819465 24.659091 21.440013 35.478480 1.059988 0.921896 0.111387 -0.048559 -200734.000000 0 0 1
13.242565 25.915071 21.119413 35.958115 1.098389 0.943036 0.105375 -0.043725 -310168.000000 0 0 1
12.115965 26.038061 21.975913 36.162384 1.135278 0.917634 0.111350 -0.037938 -479322.000000 0 0 1
11.223765 27.135061 21.385613 36.326697 1.178599 0.941344 0.099059 -0.036452 -348510.000000 0 0 1
11.829565 28.428371 21.444813 37.523205 1.176473 0.962454 0.086681 -0.034240 45743.800000 0 0 1
11.293065 29.241561 20.438313 37.420941 1.202244 0.993007 0.080645 -0.032464 108101.000000 0 0 1
11.744765 30.736241 20.642913 38.843093 1.205803 1.010493 0.070972 -0.025138 -35975.700000 0 0 1
11.103565 31.494201 21.623313 39.783684 1.231844 0.996169 0.073193 -0.017549 -462581.000000 0 0 1
11.593565 31.257671 22.942073 40.469636 1.215622 0.968063 0.075696 -0.016994 178703.000000 0 0 1
11.013165 32.074357 24.143113 41.628645 1.240046 0.952112 0.062159 -0.013507 723113.000000 0 0 1
9.642365 31.873741 24.494033 41.338459 1.277031 0.936608 0.049904 -0.010410 348430.000000 0 0 1
9.261265 32.564142 25.634403 42.465480 1.293712 0.922721 0.050449 -0.014712 167845.000000 0 0 1
7.808665 32.350689 26.139263 42.317885 1.333951 0.904997 0.092713 -0.037391 562748.000000 0 0 1
6.691465 33.102746 25.625493 42.393789 1.371342 0.921704 0.073184 -0.029167 871485.000000 0 0 1
6.152965 32.692881 24.373223 41.239998 1.384767 0.938487 0.074040 -0.037646 -256296.000000 0 0 1
5.224865 31.485651 24.459793 40.211030 1.406351 0.916897 0.058589 -0.033299 -336834.000000 0 0 1
5.971665 30.267441 24.746413 39.549510 1.376001 0.894759 0.058822 -0.033036 197753.000000 0 0 1
5.258065 29.060521 24.492153 38.367000 1.391798 0.878424 0.044697 -0.028837 -501918.000000 0 0 1
6.151565 27.805591 24.730313 37.717118 1.353068 0.855715 0.066538 -0.027560 306109.000000 0 0 1
7.109165 27.372871 23.773543 36.945847 1.316695 0.871774 0.089674 -0.035462 811604.000000 0 0 1
8.245265 28.252111 23.661653 37.762945 1.286837 0.893634 0.113669 -0.044539 681438.000000 0 0 1
9.513765 27.724231 24.430703 38.157620 1.240231 0.875963 0.109720 -0.051513 -137539.000000 0 0 1
9.328865 27.823951 25.818483 39.087006 1.247293 0.849260 0.110563 -0.046728 870482.000000 0 0 1
10.474365 27.587911 26.675493 39.779229 1.207936 0.835795 0.101466 -0.029865 224923.000000 0 0 1
11.524165 28.639771 26.857113 40.918790 1.188237 0.854824 0.091960 -0.020557 -570217.000000 0 0 1
11.138865 29.714811 27.662893 42.098455 1.212149 0.853831 0.100813 -0.031715 -91414.500000 0 0 1
12.210365 30.615781 27.789063 43.112076 1.191303 0.870326 0.082049 -0.020889 -127201.000000 0 0 1
11.834065 31.866801 28.654293 44.459044 1.215220 0.870414 0.071277 -0.031398 -25096.600000 0 0 1
11.685965 31.630841 30.037283 45.158723 1.216902 0.843103 0.081330 -0.044731 -158077.000000 0 0 1
10.367065 31.333771 30.412653 44.879959 1.251274 0.826242 0.101496 -0.036310 -323111.000000 0 0 1
10.244365 30.985571 31.903840 45.638883 1.251492 0.796729 0.131258 -0.035923 -257439.000000 0 0 1
10.739365 29.745101 32.201423 45.133542 1.224315 0.776358 0.109475 -0.029559 74584.600000 0 0 1
10.963665 29.628451 33.627259 46.139350 1.216383 0.754200 0.133750 -0.035477 -192689.000000 0 0 1
11.152965 28.209181 -33.797095 45.413546 1.194291 2.410144 0.134218 -0.039750 -115321.000000 0 0 1
12.465565 27.773481 33.852468 45.527422 1.148916 0.732414 0.145010 -0.033197 -110539.000000 0 0 1
12.665365 26.473641 -33.507895 44.542611 1.124566 2.422291 0.133122 -0.038850 949743.000000 0 0 1
14.171565 26.003421 -33.488705 44.704636 1.071809 2.417514 0.144791 -0.035117 1059640.000000 0 0 1
14.247765 24.602681 -33.339295 43.815514 1.045876 2.435498 0.103607 -0.037231 -141358.000000 0 0 1
14.348865 24.065171 -32.030465 42.555529 1.033139 2.422911 0.104329 -0.030082 -102813.000000 0 0 1
14.295565 22.541711 -32.134785 41.774829 1.005621 2.448444 0.075862 -0.045863 -738258.000000 0 0 1
15.450565 22.025611 -32.681405 42.331096 0.959077 2.452845 0.065251 -0.031150 -862351.000000 0 0 1
15.435965 20.593411 -32.753505 41.655128 0.927578 2.475597 0.059465 -0.027426 1179090.000000 0 0 1
16.843165 20.011011 -33.244825 42.300723 0.871144 2.474973 0.073392 -0.033390 777797.000000 0 0 1
17.849865 20.339411 -32.352205 42.177891 0.850496 2.445014 0.047885 -0.031299 -874225.000000 0 0 1
19.019465 19.621111 -32.697505 42.612849 0.800967 2.445441 0.058228 -0.031100 -364349.000000 0 0 1
20.132565 19.911911 -31.683905 42.493225 0.779888 2.412265 0.034331 -0.025837 -482269.000000 0 0 1
20.681465 21.176911 -31.968705 43.568138 0.797234 2.394641 0.010992 -0.017121 227236.000000 0 0 1
21.722265 21.563211 -31.045685 43.596599 0.781724 2.363299 0.000601 -0.007210 423383.000000 0 0 1
21.275665 21.979311 -29.597625 42.564815 0.801664 2.339709 0.014179 -0.009012 726015.000000 0 0 1
20.328965 23.089061 -29.641225 42.719712 0.848883 2.337623 -0.008047 -0.001506 487678.000000 0 0 1
19.889965 23.624341 -28.399555 41.955392 0.871008 2.314338 0.006261 0.005210 90900.300000 0 0 1
20.953765 24.385741 -27.534355 42.330430 0.860949 2.278989 0.008674 0.007670 226402.000000 0 0 1
21.487165 25.496561 -28.261335 43.708992 0.870528 2.273888 0.021895 0.016417 -665886.000000 0 0 1
20.787265 26.673181 -28.227305 44.049401 0.908785 2.266349 0.029733 0.015992 -778104.000000 0 0 1
21.509865 27.767061 -29.046395 45.578252 0.911702 2.261768 0.041918 0.006479 -369838.000000 0 0 1
21.626265 27.712661 -30.493205 46.535175 0.908137 2.285339 0.036069 0.008663 -41876.300000 0 0 1
22.164665 26.553431 -31.102305 46.515701 0.875241 2.303176 0.030143 0.012448 -558001.000000 0 0 1
23.509565 25.982381 -30.669605 46.566173 0.835321 2.289785 0.048768 0.003834 -421300.000000 0 0 1
24.654665 26.777271 -30.959335 47.784466 0.826645 2.275615 0.038453 0.004324 -654865.000000 0 0 1
25.771865 26.082361 -30.574185 47.741590 0.791386 2.265828 0.051005 -0.007817 -1295380.000000 0 0 1
27.127465 26.730601 -30.801145 48.980965 0.778030 2.250856 0.056403 0.000867 -513814.000000 0 0 1
27.443265 27.910521 -30.082365 49.366777 0.793839 2.226055 0.052170 -0.002572 -511692.000000 0 0 1
28.723065 28.383101 -30.369515 50.526452 0.779445 2.215625 0.054843 -0.021414 -296635.000000 0 0 1
29.076365 29.835611 -29.906925 51.283749 0.798285 2.193417 0.041803 -0.010528 37427.500000 0 0 1
29.267765 29.848251 -28.493135 50.590305 0.795217 2.169066 0.056282 -0.016219 242317.000000 0 0 1
28.899165 31.096441 -27.935245 50.818582 0.822006 2.152808 0.054994 -0.018390 -710847.000000 0 0 1
29.270865 31.186291 -26.446265 50.286909 0.817070 2.124578 0.076073 -0.013964 -100404.000000 0 0 1
28.713465 30.260721 -25.505515 48.894842 0.811628 2.119569 0.078683 -0.009129 -446341.000000 0 0 1
27.320765 30.273311 -25.461835 48.074969 0.836618 2.128958 0.074641 -0.003561 -671920.000000 0 0 1
26.675065 29.963761 -24.053075 46.775383 0.843397 2.110900 0.073223 0.003487 81442.500000 0 0 1
26.845265 30.962311 -23.095775 47.039853 0.856498 2.084014 0.093400 -0.017080 15296.100000 0 0 1
26.429465 30.428981 -21.878375 45.859599 0.855624 2.068118 0.087439 -0.010238 -9899.520000 0 0 1
3.232465 -25.910182 -19.113675 32.359217 -1.446681 2.202687 0.070937 -0.007350 -69355.800000 0 0 1
3.210865 -27.170042 -18.415575 32.979603 -1.453165 2.163244 0.078491 -0.009051 220289.000000 0 0 1
3.334165 -26.963742 -16.988275 32.043119 -1.447767 2.129596 0.090730 -0.016121 -126780.000000 0 0 1
3.328065 -28.302232 -16.202775 32.781431 -1.453744 2.087788 0.083276 -0.020015 -476135.000000 0 0 1
4.594365 -28.762322 -15.856875 33.163531 -1.412399 2.069334 0.076459 -0.026733 -552250.000000 0 0 1
4.519365 -29.755922 -14.894175 33.580887 -1.420067 2.030331 0.080517 -0.030402 150510.000000 0 0 1
5.964165 -30.141752 -14.497275 33.974512 -1.375449 2.011649 0.098896 -0.032553 -444247.000000 0 0 1
6.632765 -29.017102 -13.957275 32.875390 -1.346076 2.009262 0.092695 -0.028065 -1262700.000000 0 0 1
7.995765 -29.229732 -13.934075 33.353679 -1.303780 2.001783 0.092349 -0.025163 -789313.000000 0 0 1
8.594765 -30.076772 -12.784575 33.792418 -1.292454 1.958784 0.087208 -0.025907 -1204880.000000 0 0 1
8.684965 -29.471222 -11.499275 32.805714 -1.284215 1.928930 0.086836 -0.034150 -11535.500000 0 0 1
9.032165 -30.339382 -10.402775 33.320802 -1.281447 1.888305 0.101514 -0.031840 30092.700000 0 0 1
10.331465 -31.169052 -10.450475 34.459562 -1.250728 1.878916 0.086399 -0.022312 197483.000000 0 0 1
11.497765 -30.457432 -10.008475 34.059115 -1.209833 1.869055 0.079135 -0.025586 448972.000000 0 0 1
12.483165 -31.440932 -9.720875 35.197401 -1.192848 1.850615 0.077750 -0.022417 738627.000000 0 0 1
13.675665 -30.934412 -8.803575 34.949458 -1.154543 1.825434 0.076447 -0.021741 911294.000000 0 0 1
14.688365 -30.202822 -9.476875 34.896557 -1.118149 1.845821 0.058916 -0.031696 790177.000000 0 0 1
15.782265 -29.838022 -8.631975 34.841045 -1.084272 1.821157 0.052186 -0.020713 634961.000000 0 0 1
16.929965 -29.058302 -9.326475 34.899739 -1.043254 1.841320 0.066549 -0.028709 209048.000000 0 0 1
16.635665 -27.691102 -9.562375 33.689486 -1.029819 1.858591 0.068174 -0.026829 254168.000000 0 0 1
16.079665 -27.330572 -10.829175 33.508011 -1.038995 1.899886 0.052347 -0.028624 -119392.000000 0 0 1
15.676965 -25.829302 -10.901675 32.121124 -1.025286 1.917068 0.052036 -0.024354 -444598.000000 0 0 1
14.594065 -25.512132 -10.025675 31.054303 -1.051186 1.899528 0.032778 -0.020685 480976.000000 0 0 1
13.994665 -24.243092 -10.305875 29.829335 -1.047262 1.923562 0.014619 -0.007661 286341.000000 0 0 1
13.329265 -23.908592 -11.666575 29.755656 -1.062206 1.973687 0.000891 -0.005583 36478.300000 0 0 1
14.238265 -23.625292 -12.752775 30.389404 -1.028416 2.003851 0.004821 -0.010515 317076.000000 0 0 1
13.619565 -24.024692 -13.972575 30.950141 -1.055072 2.039191 0.016398 -0.014862 -445048.000000 0 0 1
14.227065 -23.435992 -15.234075 31.364504 -1.025201 2.077972 0.028267 -0.015586 -285378.000000 0 0 1
15.415865 -24.154992 -15.504075 32.580498 -1.002757 2.066749 0.026827 -0.020495 -241115.000000 0 0 1
15.924065 -23.609792 -16.687375 33.007069 -0.977412 2.100838 0.030569 -0.024148 -768405.000000 0 0 1
16.909265 -24.610092 -17.313475 34.515740 -0.968790 2.096256 0.045783 -0.031227 860906.000000 0 0 1
18.151865 -24.927992 -16.658675 35.048630 -0.941412 2.066103 0.072881 -0.034318 1115200.000000 0 0 1
19.192365 -23.955092 -16.731375 34.959008 -0.895336 2.069856 0.081655 -0.040437 -1141250.000000 0 0 1
20.507065 -24.344492 -16.166475 35.700825 -0.870749 2.040735 0.090841 -0.040724 -863632.000000 0 0 1
21.235965 -25.158902 -17.068475 37.084625 -0.869753 2.049081 0.101929 -0.035848 -205403.000000 0 0 1
22.550665 -25.439982 -16.643975 37.851646 -0.845531 2.026079 0.119751 -0.034672 -116684.000000 0 0 1
23.245465 -26.522912 -17.423675 39.337018 -0.851157 2.029664 0.105194 -0.034114 -395643.000000 0 0 1
24.108365 -25.887702 -18.344175 39.848402 -0.820973 2.049185 0.102176 -0.031802 -65831.500000 0 0 1
24.676665 -26.771792 -19.295575 41.206624 -0.826098 2.058121 0.095063 -0.034134 361095.000000 0 0 1
25.598765 -26.038832 -20.364875 41.809636 -0.793920 2.079546 0.087012 -0.027078 505922.000000 0 0 1
24.962765 -25.054542 -21.191375 41.230378 -0.787233 2.110608 0.087621 -0.024951 37339.900000 0 0 1
25.035565 -23.758292 -20.545875 40.166764 -0.759227 2.107743 0.091094 -0.019141 -323503.000000 0 0 1
24.291565 -22.613292 -21.249875 39.408099 -0.749633 2.140314 0.126372 -0.025470 -681457.000000 0 0 1
24.684365 -22.161892 -22.551875 40.113020 -0.731604 2.167850 0.097509 -0.014466 -76257.900000 0 0 1
24.316265 -22.968992 -23.667775 40.975833 -0.756913 2.186586 0.075063 -0.021074 -55833.200000 0 0 1
23.674065 -22.147692 -24.851575 40.848285 -0.752099 2.224823 0.072373 -0.025867 -71223.800000 0 0 1
24.567465 -21.270992 -25.453185 41.278082 -0.713607 2.235247 0.063569 -0.010451 -416094.000000 0 0 1
23.856065 -20.361792 -26.253925 40.902115 -0.706538 2.267733 0.048306 0.000103 -75985.000000 0 0 1
24.596565 -19.521992 -27.334355 41.632513 -0.670880 2.287049 0.048745 0.005424 80568.300000 0 0 1
23.617165 -18.681092 -27.929825 41.071021 -0.669227 2.318610 0.041789 0.009878 544125.000000 0 0 1
24.124865 -18.044792 -29.077735 41.870494 -0.642204 2.338477 0.050812 -0.000523 364441.000000 0 0 1
23.023965 -17.280692 -29.908865 41.512233 -0.643855 2.375295 0.072989 -0.005592 317314.000000 0 0 1
21.959565 -18.062892 -30.427285 41.645050 -0.688342 2.390046 0.067738 -0.008067 1033820.000000 0 0 1
20.856265 -17.203692 -30.804835 40.986445 -0.689722 2.421259 0.077713 -0.009264 340567.000000 0 0 1
19.773165 -17.931692 -31.591325 41.358620 -0.736598 2.440037 0.074788 -0.004449 -234211.000000 0 0 1
20.238765 -18.565892 -32.787715 42.770717 -0.742315 2.444314 0.062523 -0.004294 68470.700000 0 0 1
19.141765 -19.113392 -33.461805 43.028145 -0.784656 2.461751 0.078165 -0.005846 -195748.000000 0 0 1
19.542065 -20.055692 33.298970 43.507982 -0.798369 0.699207 0.071895 -0.019011 -135538.000000 0 0 1
20.289765 -21.130592 33.803293 44.730740 -0.805695 0.714065 0.061075 -0.014510 -28940.500000 0 0 1
20.723765 -21.955692 32.764610 44.553861 -0.814255 0.744549 0.056542 -0.017688 1289.670000 0 0 1
21.535365 -23.157392 33.332897 45.946912 -0.821675 0.759086 0.033526 -0.012361 137611.000000 0 0 1
20.743565 -24.074792 -33.837635 46.420649 -0.859589 2.387561 0.064481 -0.016211 275794.000000 0 0 1
21.013165 -23.854092 -32.484765 45.451411 -0.848632 2.367012 0.065002 -0.022201 297615.000000 0 0 1
19.972265 -24.521392 -31.511125 44.644608 -0.887286 2.354378 0.088054 -0.028110 271033.000000 0 0 1
20.030165 -25.933062 -31.496625 45.450727 -0.913126 2.336416 0.093672 -0.035188 297680.000000 0 0 1
21.131665 -26.424832 -30.741065 45.714681 -0.896245 2.308317 0.064862 -0.039424 106661.000000 0 0 1
21.185165 -27.968612 -30.741195 46.648425 -0.922537 2.290281 0.074622 -0.048723 -47421.700000 0 0 1
19.940965 -28.541112 -30.389935 46.214557 -0.960960 2.288403 0.086489 -0.047435 10779.700000 0 0 1
19.927565 -29.941742 -30.542035 47.185079 -0.983571 2.274809 0.089428 -0.043149 -424368.000000 0 0 1
18.513065 -30.484412 -30.249375 46.765988 -1.025029 2.274209 0.137485 -0.051746 78275.400000 0 0 1
17.555765 -30.150522 -31.237005 46.829577 -1.043515 2.301019 0.145250 -0.061595 -157435.000000 0 0 1
17.558365 -30.950452 -32.353115 48.093146 -1.054764 2.308672 0.152025 -0.057749 -901092.000000 0 0 1
16.216265 -31.583112 -32.712925 48.276243 -1.096449 2.315317 0.154102 -0.056956 242810.000000 0 0 1
15.232665 -30.731162 -33.344035 47.835792 -1.110615 2.342074 0.149020 -0.049234 1315170.000000 0 0 1
14.000265 -31.491062 -33.483985 48.050719 -1.152460 2.341788 0.108451 -0.034748 1447560.000000 0 0 1
12.829865 -30.706302 33.743232 47.392912 -1.175018 0.778470 0.111665 -0.030504 240540.000000 0 0 1
12.167965 -29.829962 -33.360485 46.376804 -1.183489 2.373642 0.125347 -0.034827 -477855.000000 0 0 1
11.466065 -28.944152 33.753517 45.918781 -1.193618 0.745026 0.099257 -0.029196 -65742.400000 0 0 1
10.579965 -27.909472 -33.404015 44.796233 -1.208452 2.412363 0.102057 -0.036486 911887.000000 0 0 1
9.526965 -28.444572 -32.570485 44.279715 -1.247609 2.397292 0.091954 -0.023233 153961.000000 0 0 1
8.632865 -27.424692 -32.232825 43.192535 -1.265832 2.413221 0.051430 -0.015956 745386.000000 0 0 1
7.290965 -28.056142 -31.672305 42.935302 -1.316550 2.400417 0.036233 -0.013310 693880.000000 0 0 1
6.422965 -28.773282 -32.506165 43.884017 -1.351170 2.404951 0.034905 -0.012934 -76421.800000 0 0 1
6.695965 -30.195082 -32.533655 44.888947 -1.352571 2.381480 0.032173 -0.010210 -107811.000000 0 0 1
5.466965 -31.111842 -32.742125 45.495946 -1.396852 2.374125 0.049490 -0.014040 102717.000000 0 0 1
4.643965 -31.134292 -31.602205 44.605043 -1.422729 2.358152 0.053499 -0.018734 102657.000000 0 0 1
3.545465 -32.033262 -31.765335 45.251924 -1.460564 2.348951 0.067508 -0.031153 -122241.000000 0 0 1
2.719865 -32.146722 -30.438685 44.354514 -1.486389 2.327130 0.061706 -0.035378 -66119.200000 0 0 1
1.685665 -31.214232 -30.271245 43.514572 -1.516846 2.340131 0.061466 -0.037204 87706.300000 0 0 1
0.432065 -31.658392 -30.796085 44.168306 -1.557149 2.342342 0.055010 -0.014518 30683.900000 0 0 1
-0.627835 -30.546272 -30.526735 43.189703 1.550246 2.355769 0.051182 -0.013371 -384406.000000 0 0 1
-1.277435 -30.828792 -29.326925 42.568941 1.529384 2.330805 0.045747 -0.021056 -316639.000000 0 0 1
-2.070035 -29.769672 -28.884355 41.531005 1.501373 2.339896 0.074533 -0.020616 -103816.000000 0 0 1
-2.762635 -29.939832 -27.513245 40.755421 1.478784 2.311872 0.071397 -0.021140 -338421.000000 0 0 1
-1.825235 -30.134862 -26.487365 40.162443 1.510301 2.290957 0.068660 -0.017289 -185841.000000 0 0 1
-2.437935 -30.294842 -25.221945 39.495157 1.490496 2.263485 0.072160 -0.020308 268595.000000 0 0 1
-1.425135 -30.706522 -24.115575 39.070224 1.524418 2.236022 0.055595 -0.020528 163751.000000 0 0 1
-1.960435 -30.699812 -22.809075 38.295896 1.507025 2.208810 0.062633 -0.030534 -126142.000000 0 0 1
-1.009835 -31.002452 -21.773575 37.898025 1.538235 2.182827 0.062583 -0.025013 251688.000000 0 0 1
-1.434735 -30.757622 -20.322275 36.892880 1.524184 2.154173 0.041327 -0.012144 44380.600000 0 0 1
-1.585535 -29.375162 -19.855275 35.491492 1.516873 2.164503 0.037460 -0.017550 417357.000000 0 0 1
-0.319835 -28.789632 -19.521475 34.785531 1.559687 2.166626 0.051218 -0.027102 407988.000000 0 0 1
-0.319335 -27.390542 -18.893775 33.276395 1.559138 2.174607 0.047702 -0.026381 -375766.000000 0 0 1
-0.720535 -27.414682 -17.570975 32.570279 1.544520 2.140614 0.041967 -0.027610 -32478.800000 0 0 1
-0.697735 -26.134872 -16.918875 31.141077 1.544105 2.145156 0.061152 -0.027293 -125361.000000 0 0 1
-1.694635 -26.054532 -15.756175 30.495368 1.505846 2.113758 0.059131 -0.025223 -277966.000000 0 0 1
-1.797335 -24.787892 -15.174275 29.119214 1.498414 2.118946 0.049105 -0.017079 169428.000000 0 0 1
-2.735635 -24.803392 -14.111575 28.667551 1.460948 2.085468 0.055335 -0.019782 -8391.230000 0 0 1
-2.587435 -23.581392 -13.210275 27.153052 1.461510 2.078889 0.049434 -0.014387 -509999.000000 0 0 1
-1.354735 -23.691492 -12.581475 26.859181 1.513676 2.058302 0.061547 -0.019554 -865745.000000 0 0 1
-1.177235 -22.653592 -11.670475 25.510215 1.518876 2.045958 0.061120 -0.015423 150483.000000 0 0 1
0.075865 -22.670792 -10.762475 25.095845 -1.567450 2.014021 0.065521 -0.018810 268560.000000 0 0 1
0.370365 -21.336392 -10.343875 23.714437 -1.553440 2.022151 0.053234 -0.012834 271482.000000 0 1 0
1.651965 -21.349792 -9.711575 23.512917 -1.493574 1.996577 0.045661 -0.015484 695250.000000 0 1 0
2.212965 -19.936792 -9.378975 22.143578 -1.460250 2.008160 0.037783 -0.014136 -1227380.000000 0 1 0
2.521465 -19.248592 -10.604075 22.120408 -1.440543 2.070744 0.032086 -0.002906 418192.000000 0 1 0
3.427965 -18.129492 -10.461075 21.209986 -1.383920 2.086578 0.019443 -0.004317 275386.000000 0 1 0
4.891165 -18.367992 -10.098975 21.524310 -1.310548 2.059169 0.040892 -0.021793 -589887.000000 0 1 0
4.892365 -19.047992 -8.862575 21.570963 -1.319387 1.994190 0.037843 -0.017169 -745033.000000 0 1 0
6.005465 -19.917392 -8.811775 22.592377 -1.277947 1.971464 0.038835 -0.004325 -350056.000000 0 1 0
5.890665 -21.023392 -7.735675 23.162979 -1.297606 1.911306 0.040638 -0.011480 -132884.000000 0 1 0
4.919065 -21.988992 -8.076375 23.936182 -1.350714 1.914964 0.062111 -0.024525 110438.000000 0 1 0
4.974365 -23.121192 -7.189675 24.718925 -1.358883 1.865919 0.077368 -0.016666 584200.000000 0 1 0
3.869065 -24.174392 -7.575575 25.627333 -1.412094 1.870885 0.080781 -0.016570 684624.000000 0 0 1
4.288865 -24.817392 -8.752675 26.662832 -1.399670 1.905270 0.086826 -0.019513 99359.700000 0 0 1
3.388365 -25.847092 -9.128375 27.620290 -1.440447 1.907625 0.074896 -0.021934 35348.500000 0 0 1
3.850965 -26.819662 -10.215975 28.956697 -1.428184 1.931360 0.070049 -0.025437 -17446.000000 0 0 1
4.853265 -27.721222 -9.780975 29.794090 -1.397479 1.905284 0.093659 -0.034122 -56935.300000 0 0 1
5.228365 -28.675622 -10.761075 31.071334 -1.390449 1.924457 0.109621 -0.023487 -33308.700000 0 0 1
4.752965 -30.136042 -10.613075 32.301843 -1.414368 1.905574 0.101881 -0.041637 -749686.000000 0 0 1
3.438565 -30.282902 -11.028475 32.411497 -1.457733 1.917994 0.106806 -0.035210 -739119.000000 0 0 1
3.095265 -31.663312 -10.921475 33.636655 -1.473350 1.901480 0.098601 -0.030425 1814530.000000 0 0 1
1.544365 -31.920692 -11.275575 33.888851 -1.522453 1.909985 0.068225 -0.034088 1736840.000000 0 0 1
1.249665 -31.784092 -12.653975 34.233218 -1.531499 1.949418 0.081975 -0.046612 289442.000000 0 0 1
0.728365 -32.928642 -13.327175 35.530825 -1.548680 1.955288 0.079906 -0.035783 -186264.000000 0 0 1
0.520065 -32.722552 -14.849675 35.938123 -1.554904 1.996763 0.088761 -0.032519 416300.000000 0 0 1
-0.486135 -31.735572 -15.173775 35.179913 1.555479 2.016751 0.073982 -0.031938 541758.000000 0 0 1
-0.711535 -31.576792 -16.577175 35.670755 1.548267 2.054123 0.052189 -0.029791 -411615.000000 0 0 1
-2.069135 -30.966072 -16.900975 35.338674 1.504076 2.069465 0.045042 -0.016590 -822799.000000 0 0 1
-3.182635 -31.686302 -16.546775 35.887973 1.470690 2.049994 0.049137 -0.024064 -1035710.000000 0 0 1
-4.360735 -31.283632 -17.179675 35.955846 1.432295 2.068944 0.052812 -0.020688 -52349.700000 0 0 1
-5.621235 -31.402872 -16.310375 35.829694 1.393668 2.043415 0.056618 -0.023776 -458876.000000 0 0 1
-5.731235 -30.282172 -15.463775 34.481666 1.383748 2.035842 0.041630 -0.018987 753320.000000 0 0 1
-7.046635 -29.929532 -14.997575 34.210513 1.339567 2.024604 0.054999 -0.024371 834221.000000 0 0 1
-7.764635 -30.824412 -13.973775 34.723195 1.324031 1.984970 0.046187 -0.028773 -293747.000000 0 0 1
-8.093735 -32.109742 -14.421075 36.118021 1.323875 1.981524 0.055963 -0.026958 -36219.200000 0 0 1
-8.774635 -32.748642 -13.336775 36.432641 1.309007 1.945575 0.052579 -0.024846 -126451.000000 0 0 1
-9.342135 34.024363 -13.768175 37.874733 -1.302828 1.942839 0.088021 -0.034323 -327090.000000 0 0 1
-8.446335 32.917423 -13.818275 36.685720 -1.319623 1.956991 0.076823 -0.027166 -130483.000000 0 0 1
-8.952235 31.753161 -14.390875 35.993097 -1.295997 1.982120 0.109069 -0.038085 -426321.000000 0 0 1
-7.770835 -22.544992 -3.152475 24.054119 1.238868 1.702232 0.067826 -0.004857 121469.000000 0 1 0
-7.450135 -21.292492 -3.759175 22.869327 1.234215 1.735922 0.058292 -0.009342 704222.000000 0 1 0
-6.237335 -21.391892 -4.527075 22.737893 1.287087 1.771234 0.047771 -0.002381 474382.000000 0 1 0
-6.177335 -20.211992 -5.508375 21.840931 1.274185 1.825754 0.046324 -0.018809 26297.200000 0 1 0
-6.879335 -20.419292 -6.709175 22.567360 1.245836 1.872655 0.054993 -0.015563 -233327.000000 0 1 0
-6.608135 -19.353292 -7.583175 21.811050 1.241761 1.925887 0.031423 -0.013735 -475377.000000 0 1 0
-7.470335 -19.307592 -8.843975 22.512327 1.201624 1.974525 0.035060 -0.027235 -287459.000000 0 1 0
-7.230735 -20.312992 -9.832675 23.697735 1.228816 1.998652 0.046849 -0.011441 -749767.000000 0 1 0
-8.173335 -20.434992 -10.838975 24.533154 1.190318 2.028411 0.067032 -0.006733 -616797.000000 0 1 0
-7.779335 -21.387892 -11.967875 25.713615 1.221946 2.054916 0.056876 -0.008175 45904.500000 0 0 1
-6.704935 -20.780392 -12.731075 25.275702 1.258685 2.098659 0.057382 -0.005226 621454.000000 0 0 1
-6.526835 -21.425292 -13.991975 26.408674 1.275095 2.129190 0.036048 -0.008465 -65649.800000 0 0 1
-5.607935 -20.698892 -15.018775 26.181227 1.306219 2.181747 0.020025 -0.002850 1091020.000000 0 0 1
-4.232735 -20.770492 -14.554775 25.713242 1.369763 2.172493 0.019275 -0.003699 1251640.000000 0 0 1
-3.269035 -20.094992 -15.366375 25.507269 1.409530 2.217340 0.032773 -0.000200 287041.000000 0 0 1
-3.175635 -18.530192 -15.312275 24.247029 1.401069 2.254297 0.037045 -0.000197 -950153.000000 0 1 0
-4.144735 -17.783192 -16.036975 24.302372 1.341814 2.291473 0.033392 0.000540 -220989.000000 0 1 0
-4.132935 -18.032492 -17.425575 25.414613 1.345494 2.326295 0.046490 -0.012302 -995776.000000 0 0 1
-5.544035 -17.840092 -18.010275 25.949474 1.269495 2.337898 0.041745 -0.005551 68308.800000 0 0 1
-6.412735 -18.846292 -17.480775 26.493081 1.242820 2.291381 0.022089 -0.004571 184365.000000 0 0 1
-7.623735 -18.937092 -18.206875 27.353703 1.188066 2.299106 0.006504 -0.001866 136178.000000 0 0 1
-8.702935 -19.908992 -17.717175 28.035822 1.158692 2.254860 0.051280 -0.011527 60105.000000 0 0 1
-8.348935 -21.292992 -17.760075 28.957149 1.197121 2.231057 0.048689 -0.008437 664731.000000 0 0 1
-9.523935 -22.060392 -17.524575 29.740157 1.163247 2.200934 0.078023 -0.020094 372340.000000 0 0 1
-9.254135 -23.512192 -17.944675 30.991507 1.195829 2.188321 0.072934 -0.026527 -433166.000000 0 0 1
-9.161535 -23.688792 -19.381275 31.948809 1.201768 2.222618 0.075709 -0.030974 135763.000000 0 0 1
-8.403735 -24.787992 -19.791975 32.814472 1.243933 2.218238 0.093050 -0.042577 78376.300000 0 0 1
-6.857235 -24.728392 -19.681075 32.339755 1.300291 2.225056 0.076256 -0.032911 -371617.000000 0 0 1
-6.242335 -23.782992 -20.545575 32.042442 1.314116 2.266856 0.091715 -0.031690 255419.000000 0 0 1
-6.103735 -22.417892 -20.086775 30.713124 1.304969 2.283673 0.066785 -0.035136 -678853.000000 0 0 1
-5.127435 -22.282492 -18.925475 29.681200 1.344623 2.262208 0.080393 -0.021989 -1472720.000000 0 0 1
-3.830335 -22.579292 -19.276175 29.934375 1.402757 2.270444 0.080338 -0.031573 -350153.000000 0 0 1
-2.926535 -22.371092 -18.161775 28.963432 1.440717 2.248568 0.042637 -0.026471 806048.000000 0 0 1
-1.454235 -22.822892 -18.350775 29.321496 1.507164 2.247014 0.070277 -0.021482 -81474.400000 0 0 1
-0.643235 -21.862992 -18.916175 28.917569 1.541384 2.283843 0.091189 -0.030815 -1116010.000000 0 0 1
0.628265 -22.381492 -19.171575 29.476688 -1.542733 2.278904 0.069995 -0.028980 -150596.000000 0 0 1
1.498165 -21.275892 -19.846175 29.133807 -1.500496 2.320207 0.066471 -0.022651 -16297.500000 0 0 1
1.021665 -21.065692 -21.169475 29.882333 -1.522335 2.358064 0.073143 -0.028456 -470895.000000 0 0 1
2.017465 -20.884692 -22.124675 30.491667 -1.474495 2.382699 0.070311 -0.030694 -796341.000000 0 0 1
1.596865 -21.269192 -23.574175 31.791040 -1.495858 2.406152 0.091705 -0.034502 381900.000000 0 0 1
0.749865 -20.441092 -24.375675 31.820969 -1.534129 2.443432 0.057581 -0.027062 906698.000000 0 0 1
-0.544635 -20.134592 -23.820175 31.194537 1.543753 2.439668 0.061586 -0.033165 4318.420000 0 0 1
-1.239435 -19.023392 -24.557475 31.088506 1.505735 2.481477 0.068090 -0.030100 -520491.000000 0 0 1
-0.782435 -17.703792 -24.320775 30.092134 1.526629 2.511903 0.039992 -0.032095 -309324.000000 0 0 1
-1.524235 -16.675192 -24.913575 30.017853 1.479642 2.549830 0.057894 -0.042701 -597358.000000 0 0 1
-1.005935 -15.301692 -24.714175 29.085118 1.505151 2.586248 0.047681 -0.028318 292131.000000 0 0 1
0.274565 -15.115592 -25.317235 29.487605 -1.552634 2.603274 0.049809 -0.038183 237551.000000 0 0 1
0.919165 -13.839392 -25.070815 28.651691 -1.504477 2.636274 0.053922 -0.035848 743809.000000 0 0 1
0.310765 -12.521592 -25.742345 28.627873 -1.545983 2.688747 0.049077 -0.026098 -358281.000000 0 0 1
1.033165 -11.432392 -25.362575 27.839310 -1.480669 2.716583 0.046375 -0.025378 -360816.000000 0 0 1
0.616465 -10.239092 -26.061935 28.007918 -1.510662 2.766627 0.051752 -0.021771 -377309.000000 0 0 1
1.466365 -8.969592 -25.729685 27.287735 -1.408748 2.802037 0.050282 -0.025539 1479820.000000 0 0 1
2.880565 -8.930692 -26.024955 27.665017 -1.258785 2.795535 0.081126 -0.026603 913043.000000 0 0 1
3.213065 -9.090792 -27.395625 29.042840 -1.231059 2.803181 0.084424 -0.025243 937997.000000 0 0 1
4.730565 -8.753492 -27.750945 29.480787 -1.075338 2.797326 0.099895 -0.031255 934653.000000 0 0 1
4.956265 -7.355892 -27.816785 29.196699 -0.977884 2.832919 0.097693 -0.032469 483227.000000 0 0 1
6.183165 -6.885292 -28.382545 29.853101 -0.839073 2.826412 0.086145 -0.026048 638244.000000 0 0 1
7.457265 -6.979592 -27.455995 29.294319 -0.752323 2.785443 0.095500 -0.023166 454935.000000 0 0 1
8.015565 -8.264792 -27.156515 29.496311 -0.800705 2.740602 0.070003 -0.016864 382705.000000 0 0 1
8.648665 -8.857092 -28.299105 30.888296 -0.797304 2.729228 0.077849 -0.032200 -604906.000000 0 0 1
9.259965 -10.205692 -27.922695 31.138079 -0.833944 2.683139 0.061637 -0.018766 -444110.000000 0 0 1
8.298765 -11.168292 -27.607135 30.915273 -0.931748 2.674749 0.078701 -0.031358 -45900.900000 0 0 1
8.766465 -12.317792 -26.847025 30.811388 -0.952267 2.628712 0.071368 -0.032600 71073.900000 0 0 1
9.590365 -13.379092 -27.648595 32.177943 -0.948872 2.604580 0.076412 -0.044060 164.658000 0 0 1
8.889365 -14.032492 -28.696535 33.157544 -1.006119 2.616865 0.094899 -0.052083 229430.000000 0 0 1
9.542465 -15.265792 -29.081165 34.202590 -1.012134 2.587279 0.089419 -0.051497 209473.000000 0 0 1
8.721965 -16.095392 -30.091075 35.222253 -1.074199 2.595037 0.089269 -0.051798 -88213.600000 0 0 1
8.642365 -15.329992 -31.328005 35.932478 -1.057454 2.629779 0.090128 -0.050257 -15391.600000 0 0 1
7.578565 -15.749492 -32.121805 36.568996 -1.122306 2.643277 0.104658 -0.045861 -1040460.000000 0 0 1
6.649765 -14.620492 -32.504445 36.256269 -1.143937 2.682645 0.123200 -0.044697 -407475.000000 0 0 1
7.167365 -13.624292 -33.389725 36.767733 -1.086509 2.709582 0.122292 -0.048017 -342900.000000 0 0 1
6.149965 -12.793492 -33.860275 36.715306 -1.122699 2.744628 0.102681 -0.045536 -424469.000000 0 0 1
6.565165 -11.603492 33.200059 35.776896 -1.055909 0.381855 0.118766 -0.042025 -42704.200000 0 0 1
7.001965 -12.010792 31.847293 34.749628 -1.042991 0.411608 0.112883 -0.033757 232400.000000 0 0 1
6.913765 -10.962992 30.924613 33.530866 -1.008147 0.396876 0.124368 -0.032901 -101341.000000 0 0 1
7.550465 -11.216892 29.508463 32.458859 -0.978330 0.429669 0.110561 -0.026975 501198.000000 0 0 1
6.689865 -11.957792 28.640473 31.749327 -1.060722 0.446228 0.101013 -0.028674 628879.000000 0 0 1
7.326465 -11.968292 27.333673 30.725344 -1.021486 0.474299 0.083621 -0.026720 336370.000000 0 0 1
6.549265 -12.703592 26.217643 29.860323 -1.094791 0.499109 0.072367 -0.040157 27859.400000 0 0 1
6.618565 -14.139992 26.373003 30.647676 -1.133014 0.534503 0.070929 -0.037241 -3396.470000 0 0 1
6.049765 -14.901192 25.236163 29.925058 -1.185135 0.567380 0.065484 -0.044727 77473.200000 0 0 1
4.544465 -15.155992 25.324513 29.861132 -1.279481 0.558452 0.071171 -0.053704 -401918.000000 0 0 1
3.669365 -14.096792 25.071363 28.995810 -1.316149 0.526334 0.057675 -0.055447 -521557.000000 0 0 1
2.369265 -14.578692 24.869813 28.925063 -1.409689 0.535915 0.056001 -0.050363 -37964.700000 0 0 1
1.262965 -13.519592 24.749973 28.230048 -1.477649 0.501787 0.070339 -0.041876 -568151.000000 0 0 1
1.522965 -12.671392 23.655213 26.878480 -1.451181 0.494766 0.061650 -0.032024 -303617.000000 0 0 1
0.601765 -11.642492 23.409723 26.151957 -1.519155 0.462046 0.065653 -0.017236 696044.000000 0 0 1
-0.885635 -12.036392 23.113643 26.074883 1.497349 0.481215 0.069317 -0.015563 62129.300000 0 0 1
-1.104835 -12.471692 21.775813 25.118713 1.482440 0.521815 0.072433 -0.021270 -163301.000000 0 0 1
-2.347735 -13.136692 21.688513 25.465194 1.393948 0.551590 0.080001 -0.023417 28618.300000 0 0 1
-2.578835 -13.682492 20.289713 24.607588 1.384505 0.601424 0.079992 -0.027131 335012.000000 0 1 0
-1.638535 -14.643692 19.804213 24.684597 1.459366 0.639674 0.094079 -0.037017 49294.500000 0 1 0
-2.010435 -15.003892 18.503913 23.907183 1.437596 0.685678 0.086951 -0.043769 581027.000000 0 1 0
-3.085635 -16.121692 18.299213 24.582336 1.381687 0.731153 0.068587 -0.040266 375210.000000 0 1 0
-2.593235 -17.270392 17.675813 24.848051 1.421755 0.779371 0.053724 -0.032611 -602946.000000 0 1 0
-3.604135 -18.226092 17.684313 25.649856 1.375569 0.810066 0.055036 -0.027716 -176437.000000 0 0 1
-3.236035 -19.539692 16.979913 26.088099 1.406673 0.862069 0.057939 -0.030520 312254.000000 0 0 1
-2.302435 -20.366492 17.696613 27.078872 1.458224 0.858569 0.073367 -0.034339 2850.370000 0 0 1
-2.261535 -21.776792 17.395113 27.963067 1.467317 0.899407 0.075472 -0.044585 -388926.000000 0 0 1
-1.200135 -22.588092 18.161113 29.008416 1.517715 0.894302 0.092665 -0.031874 523206.000000 0 0 1
0.050565 -22.485192 17.477513 28.478937 -1.568547 0.910058 0.096230 -0.040406 180326.000000 0 0 1
1.051965 -23.320592 18.091313 29.533916 -1.525718 0.911500 0.120779 -0.033494 725845.000000 0 0 1
2.378565 -23.278592 17.292813 29.096250 -1.468971 0.934362 0.123010 -0.036163 204619.000000 0 0 1
3.089765 -22.055392 17.367913 28.242368 -1.431611 0.908462 0.120669 -0.027462 -252716.000000 0 0 1
4.268165 -22.093292 16.587813 27.955076 -1.379959 0.935552 0.102846 -0.015655 108646.000000 0 0 1
4.988165 -20.726592 16.713113 27.088771 -1.334623 0.905902 0.087137 -0.017458 -545905.000000 0 0 1
5.681465 -20.635892 17.913613 27.910869 -1.302133 0.873934 0.090615 -0.012081 -386692.000000 0 0 1
6.044865 -19.287692 18.307713 27.271373 -1.267087 0.834813 0.089796 -0.015092 926538.000000 0 0 1
7.266365 -18.617492 17.579713 26.616862 -1.198682 0.849348 0.094293 -0.021432 238711.000000 0 0 1
6.872665 -18.170692 16.288413 25.351922 -1.209199 0.873050 0.077432 -0.020786 -402286.000000 0 0 1
7.897765 -17.520092 15.619113 24.764591 -1.147291 0.888337 0.087378 -0.021113 -322430.000000 0 1 0
7.390765 -16.722492 14.409713 23.278852 -1.154644 0.903322 0.059028 -0.016048 47466.500000 0 1 0
6.846865 -17.413992 13.303013 22.958589 -1.196181 0.952761 0.059945 -0.024658 -158769.000000 0 1 0
6.191865 -16.442792 12.549713 21.591662 -1.210650 0.950557 0.048373 -0.019308 -404152.000000 0 1 0
6.623165 -16.530992 11.092513 20.980559 -1.189729 1.013723 0.056330 -0.020817 294004.000000 0 1 0
7.995565 -16.189592 11.013013 21.149903 -1.112064 1.023111 0.056481 -0.016854 -146711.000000 0 1 0
8.480265 -16.440692 9.723413 20.898708 -1.094581 1.086864 0.056143 -0.019423 188823.000000 0 1 0
9.818065 -15.712492 9.462713 20.804320 -1.012300 1.098600 0.041317 -0.016947 264839.000000 0 1 0
10.530465 -16.321192 8.423613 21.171425 -0.997801 1.161595 0.041065 -0.011252 549050.000000 0 1 0
11.915765 -15.943592 8.364213 21.590360 -0.928980 1.172981 0.048849 -0.012643 1324710.000000 0 1 0
12.862465 -16.840092 7.500913 22.478777 -0.918521 1.230583 0.054263 -0.019135 301984.000000 0 1 0
13.175665 -18.060892 8.154213 23.796747 -0.940536 1.221049 0.056130 -0.022850 125803.000000 0 1 0
13.718965 -19.033292 7.214013 24.546246 -0.946255 1.272497 0.053076 -0.021446 214660.000000 0 1 0
14.278365 -20.252992 7.998613 26.039071 -0.956722 1.258571 0.067135 -0.024542 167368.000000 0 0 1
13.293165 -21.028692 8.668613 26.344999 -1.007076 1.235507 0.067147 -0.023037 215535.000000 0 0 1
13.917665 -22.185892 9.184213 27.753648 -1.010530 1.233519 0.057216 -0.016982 193270.000000 0 0 1
12.932165 -23.072292 9.959813 28.262509 -1.059923 1.210658 0.068555 -0.022930 18447.800000 0 0 1
12.571365 -22.436792 11.177113 28.042409 -1.060079 1.160830 0.066230 -0.029132 -915355.000000 0 0 1
11.480765 -22.895092 11.875013 28.231350 -1.105989 1.136654 0.090735 -0.030180 -937426.000000 0 0 1
11.729965 -24.215892 12.535113 29.683843 -1.119714 1.134829 0.086315 -0.022768 -549040.000000 0 0 1
12.752065 -24.191592 13.483813 30.490351 -1.085683 1.112710 0.074654 -0.027906 -377752.000000 0 0 1
12.895865 -25.439332 14.098713 31.815667 -1.101623 1.111701 0.069193 -0.027315 92041.500000 0 0 1
14.175765 -25.639222 14.951413 32.891743 -1.065734 1.098913 0.056249 -0.022397 83685.800000 0 0 1
14.132665 -25.009392 16.227313 32.992841 -1.056438 1.056591 0.055426 -0.023739 -22910.200000 0 0 1
15.092565 -25.599112 17.047313 34.259465 -1.038078 1.049973 0.056474 -0.016605 -560565.000000 0 0 1
15.023765 -25.010692 18.513013 34.554014 -1.029867 1.005377 0.061341 -0.014531 -152870.000000 0 0 1
15.466765 -23.727992 18.803613 33.997269 -0.993131 0.984725 0.041151 -0.020081 138734.000000 0 0 1
16.861365 -23.714192 19.088013 34.799724 -0.952710 0.990215 0.045178 -0.021443 130803.000000 0 0 1
17.420765 -22.357992 19.428913 34.363433 -0.908884 0.969884 0.054370 -0.024613 -242077.000000 0 0 1
17.490865 -21.380592 18.388213 33.184129 -0.885133 0.983483 0.049150 -0.017906 -409862.000000 0 0 1
16.270565 -20.829792 18.004913 31.981063 -0.907674 0.972801 0.058355 -0.009189 -1026750.000000 0 0 1
16.396165 -19.836792 16.803213 30.735655 -0.880073 0.992377 0.044771 -0.006984 535280.000000 0 0 1
17.276365 -18.734392 17.069713 30.672876 -0.825865 0.980619 0.047590 -0.005398 985362.000000 0 0 1
18.691465 -18.938392 17.077613 31.617691 -0.791960 1.000207 0.061431 -0.007710 419781.000000 0 0 1
19.502465 -17.657292 17.368013 31.524181 -0.735784 0.987303 0.078013 -0.007762 -135282.000000 0 0 1
19.521065 -17.303792 18.743413 32.121779 -0.725259 0.947751 0.074376 -0.001117 137716.000000 0 0 1
20.115965 -16.022592 18.939913 31.938939 -0.672610 0.936012 0.093292 -0.008793 3485.420000 0 0 1
20.646265 -15.862392 20.361613 33.052670 -0.655107 0.907097 0.085414 -0.003671 -100808.000000 0 0 1
21.853165 -16.525092 20.667313 34.318760 -0.647449 0.924522 0.076181 0.000518 -142472.000000 0 0 1
22.356665 -16.044892 21.902613 35.170776 -0.622492 0.898543 0.089535 -0.000441 -32882.900000 0 0 1
34.892272 -1.382992 -7.501375 35.716298 -0.039615 1.782399 0.172783 -0.030733 -204661.000000 0 0 1
36.096762 -1.210592 -8.184875 37.032876 -0.033525 1.793653 0.176833 -0.028330 37886.600000 0 0 1
36.995582 -2.327692 -8.007275 37.923709 -0.062835 1.783539 0.180381 -0.037663 11579.100000 0 0 1
-35.760363 -1.946692 -8.410975 36.787738 0.054383 1.801472 0.174324 -0.034808 -428660.000000 0 0 1
-34.779942 -2.934992 -8.132175 35.838398 0.084188 1.799702 0.180891 -0.039025 651472.000000 0 0 1
-33.513865 -2.383692 -8.552875 34.670056 0.071006 1.820063 0.204329 -0.035241 1055320.000000 0 0 1
-32.347605 -3.426892 -8.299175 33.570633 0.105546 1.820602 0.192957 -0.030552 252892.000000 0 0 1
-31.884665 -3.563892 -6.989275 32.835699 0.111312 1.785293 0.195450 -0.037381 -98422.700000 0 0 1
-30.795785 -4.434192 -6.877775 31.864497 0.143004 1.788353 0.181974 -0.035169 -91168.600000 0 0 1
-30.244485 -4.410992 -5.411775 31.039861 0.144823 1.746041 0.198114 -0.045799 109251.000000 0 0 1
-29.753495 -3.101792 -5.000675 30.329825 0.103874 1.736429 0.192038 -0.040068 531124.000000 0 0 1
-29.841145 -2.875992 -3.617675 30.196901 0.096080 1.690888 0.190903 -0.041881 -249278.000000 0 0 1
-29.389305 -1.493592 -3.097175 29.589771 0.050777 1.675659 0.214616 -0.041429 -789543.000000 0 0 1
-28.024305 -1.248692 -3.202675 28.234341 0.044528 1.684473 0.183899 -0.028618 -394851.000000 0 0 1
-27.812175 0.039508 -2.756875 27.948506 -0.001421 1.669598 0.205715 -0.036983 -804021.000000 0 0 1
-26.362965 0.310908 -2.409375 26.474661 -0.011793 1.661929 0.182406 -0.019675 -742257.000000 0 0 1
-25.910495 -0.465992 -1.307675 25.947657 0.017983 1.621214 0.177151 -0.025905 480487.000000 0 0 1
-24.569135 -0.216492 -0.923675 24.587444 0.008811 1.608372 0.149421 -0.022456 233478.000000 0 1 0
-24.197835 -1.051792 0.332925 24.222971 0.043439 1.557052 0.145757 -0.028822 -44451.200000 0 1 0
-24.293535 -2.467192 0.086925 24.418649 0.101211 1.567237 0.150452 -0.030236 270133.000000 0 1 0
-23.609235 -3.152992 1.094025 23.843955 0.132764 1.524897 0.138978 -0.027630 -242479.000000 0 1 0
-23.893635 -4.698092 1.166025 24.379037 0.194149 1.522949 0.141622 -0.018310 -1225480.000000 0 1 0
-25.009935 -4.995292 1.880525 25.573153 0.197138 1.497195 0.153209 -0.025502 -816660.000000 0 0 1
-25.324595 -6.357992 1.809625 26.173152 0.245976 1.501601 0.148179 -0.015675 -225836.000000 0 0 1
-26.662705 -6.767592 2.457725 27.617757 0.248573 1.481688 0.153960 -0.017288 -276699.000000 0 0 1
-26.632625 -6.975192 3.844825 27.798070 0.256151 1.432039 0.146465 -0.019048 537305.000000 0 0 1
-27.871495 -7.586792 4.187725 29.187611 0.265767 1.426823 0.121803 -0.007409 328333.000000 0 0 1
-28.151215 -7.889592 5.666025 29.779865 0.273248 1.379366 0.122872 -0.016071 -28490.600000 0 0 1
-27.180685 -8.743792 6.254225 29.229417 0.311236 1.355159 0.124650 -0.005643 200795.000000 0 0 1
-27.295735 -8.862692 7.639925 29.698028 0.313953 1.310617 0.091396 -0.010328 -75118.500000 0 0 1
-26.703795 -7.740892 8.524225 29.080517 0.282147 1.273303 0.104431 -0.017388 402116.000000 0 0 1
-25.277275 -7.737992 8.594325 27.797114 0.297066 1.256465 0.131451 -0.018273 648028.000000 0 0 1
-24.831435 -6.391392 8.734125 27.087543 0.251923 1.242490 0.125850 -0.030540 -1176250.000000 0 0 1
-23.534635 -6.008192 8.032825 25.583269 0.249953 1.251406 0.178761 -0.039021 -97567.800000 0 0 1
-22.448335 -6.724292 8.665825 24.984802 0.291040 1.216592 0.169942 -0.045792 47847.000000 0 1 0
-21.312335 -6.523292 7.864025 23.634971 0.297026 1.231601 0.159266 -0.037098 606484.000000 0 1 0
-19.964035 -6.856492 8.641625 22.809030 0.330821 1.182223 0.180453 -0.037693 878491.000000 0 1 0
-19.608935 -5.845292 9.568125 22.588200 0.289707 1.133392 0.146536 -0.039305 -263709.000000 0 1 0
-18.527535 -6.245092 10.339525 22.117335 0.325111 1.084353 0.146659 -0.049236 -588530.000000 0 1 0
-18.123835 -5.193692 11.422125 22.043429 0.279088 1.026093 0.131318 -0.031905 241727.000000 0 1 0
-19.132035 -4.986192 12.416625 23.346722 0.254949 1.010029 0.129837 -0.032868 426632.000000 0 1 0
-19.095935 -3.738492 13.025425 23.415652 0.193329 0.980906 0.110376 -0.027170 318626.000000 0 1 0
-20.297635 -3.607992 14.001425 24.920905 0.175917 0.974195 0.111086 -0.030189 161875.000000 0 1 0
-20.230535 -4.493892 15.060525 25.618138 0.218585 0.942354 0.110654 -0.030736 -125331.000000 0 0 1
-21.329435 -4.455792 15.934525 26.994591 0.205942 0.939383 0.083293 -0.015871 -148871.000000 0 0 1
-21.161835 -5.370492 17.174125 27.777977 0.248535 0.904264 0.091265 -0.013105 258033.000000 0 0 1
-22.237235 -5.135392 18.072925 29.111810 0.226958 0.901020 0.073843 -0.012643 609642.000000 0 0 1
-21.952635 -5.795392 19.277625 29.784754 0.258107 0.866850 0.089999 -0.013396 -382248.000000 0 0 1
-22.751235 -5.451292 20.539725 31.132227 0.235171 0.850300 0.088364 -0.012427 -577370.000000 0 0 1
-22.594035 -4.091592 20.976125 31.100311 0.179150 0.830554 0.064660 -0.007974 229092.000000 0 0 1
-23.285335 -3.773292 22.157125 32.363293 0.160649 0.816690 0.065108 -0.012714 -197618.000000 0 0 1
-23.316935 -2.255392 22.456925 32.451190 0.096428 0.806510 0.062662 -0.013656 475413.000000 0 0 1
-24.060435 -1.467892 21.458225 32.272506 0.060933 0.843427 0.072094 -0.016860 375062.000000 0 0 1
-23.797535 -0.085892 21.635725 32.162628 0.003609 0.832948 0.074194 -0.020586 -249017.000000 0 0 1
-24.987235 0.852208 21.359625 32.883457 -0.034093 0.863797 0.085535 -0.027795 -345519.000000 0 0 1
-26.072375 0.467708 22.163325 34.222806 -0.017937 0.866341 0.088918 -0.031099 -242656.000000 0 0 1
-27.262885 1.138108 21.787825 34.918040 -0.041721 0.896983 0.092829 -0.032210 -89089.900000 0 0 1
-28.356415 1.083008 22.829125 36.420161 -0.038174 0.893323 0.099428 -0.029272 -565069.000000 0 0 1
-28.122585 1.994908 23.867225 36.939192 -0.070818 0.868304 0.102407 -0.030948 -97733.600000 0 0 1
-29.165365 1.909708 24.806025 38.335419 -0.065385 0.867050 0.095985 -0.027370 -165034.000000 0 0 1
-29.149515 2.897908 25.964825 39.144147 -0.099090 0.845559 0.120137 -0.023014 -786611.000000 0 0 1
-28.072425 2.667408 26.785825 38.892885 -0.094734 0.811091 0.105139 -0.022749 -610780.000000 0 0 1
-27.915255 3.424008 27.954025 39.653661 -0.122048 0.788437 0.097687 -0.019136 268513.000000 0 0 1
-26.640625 3.098008 28.816625 39.366463 -0.115769 0.749529 0.112896 -0.021493 407367.000000 0 0 1
-26.606815 1.786608 29.454925 39.732948 -0.067048 0.735758 0.093095 -0.021022 -59199.100000 0 0 1
-25.791015 1.801808 30.587925 40.050520 -0.069749 0.701719 0.101267 -0.023885 -112182.000000 0 0 1
-26.059455 0.629608 31.586625 40.953711 -0.024156 0.689952 0.066915 -0.022241 -18497.800000 0 0 1
-25.940355 -0.632692 31.020525 40.442246 0.024385 0.696593 0.055693 -0.017589 -15923.300000 0 0 1
-26.330125 -1.698092 31.866725 41.372058 0.064403 0.691567 0.057282 -0.016584 -633982.000000 0 0 1
-27.023165 -2.776992 31.013325 41.228503 0.102404 0.719356 0.051336 -0.009733 154107.000000 0 0 1
-28.369995 -2.547892 30.639125 41.834249 0.089569 0.748966 0.053255 -0.006485 92641.600000 0 0 1
-28.519415 -1.539292 29.611825 41.141058 0.053921 0.767335 0.056281 -0.001868 -929926.000000 0 0 1
-29.984885 -1.339492 29.234825 41.899434 0.044643 0.798561 0.075316 -0.012480 -246571.000000 0 0 1
-30.779835 -0.762692 30.242125 43.157457 0.024774 0.794363 0.093386 -0.008356 139259.000000 0 0 1
-32.136805 -0.681692 29.772925 43.813993 0.021209 0.823674 0.080243 -0.013787 1216780.000000 0 0 1
-33.117435 -0.382592 30.981325 45.351443 0.011552 0.818744 0.074603 -0.013599 343707.000000 0 0 1
-33.171205 -1.486892 31.808725 45.981895 0.044795 0.806864 0.082065 -0.017976 53290.800000 0 0 1
-33.957685 -1.194292 32.958325 47.337109 0.035156 0.800640 0.093772 -0.018746 114156.000000 0 0 1
-34.238093 -2.475992 33.719725 48.118576 0.072191 0.794330 0.092097 -0.017223 -59507.500000 0 0 1
-35.298126 -3.185592 33.119325 48.507684 0.090004 0.819257 0.063552 -0.016512 -97635.900000 0 0 1
-35.527175 -4.482092 33.602625 49.106066 0.125497 0.817171 0.049159 -0.011654 114334.000000 0 0 1
-36.858975 -5.078592 33.102925 49.801403 0.136922 0.843706 0.037242 -0.009254 284999.000000 0 0 1
36.151412 -4.630992 33.759925 49.680008 -0.127406 0.823651 0.033402 -0.015921 281317.000000 0 0 1
34.951452 -5.205892 33.231425 48.508071 -0.147859 0.816097 0.032341 -0.025385 562786.000000 0 0 1
33.763812 -4.739992 -33.767462 47.986498 -0.139475 2.351369 0.046710 -0.028209 -418537.000000 0 0 1
33.600972 -5.404392 -32.494562 47.054536 -0.159475 2.333076 0.041995 -0.030869 199586.000000 0 0 1
33.178072 -6.803692 -32.542662 46.969134 -0.202262 2.336233 0.053833 -0.029171 -31707.700000 0 0 1
31.869142 -7.099892 -33.345262 46.668589 -0.219203 2.366723 0.070356 -0.031314 -703603.000000 0 0 1
30.731772 -6.712892 -32.663762 45.347834 -0.215057 2.375022 0.083902 -0.038191 -871142.000000 0 0 1
29.581312 -7.324992 -33.188162 45.057337 -0.242740 2.398790 0.095093 -0.036350 349754.000000 0 0 1
28.301192 -6.925792 -32.391462 43.567544 -0.240001 2.409051 0.117308 -0.042952 203960.000000 0 0 1
27.074092 -7.532292 -32.712862 43.126247 -0.271348 2.431862 0.111238 -0.038739 -678579.000000 0 0 1
26.071492 -6.912792 -31.980062 41.835795 -0.259184 2.440935 0.119674 -0.039835 -158031.000000 0 0 1
24.675792 -7.462492 -32.440062 41.435988 -0.293677 2.470103 0.110846 -0.041668 295452.000000 0 0 1
24.383292 -8.827292 -32.274562 41.401852 -0.347345 2.464734 0.115336 -0.046227 32216.900000 0 0 1
24.159392 -9.316392 -30.955062 40.356997 -0.368050 2.444997 0.118137 -0.043133 -197725.000000 0 0 1
23.697892 -10.796292 -30.871562 40.388158 -0.427485 2.440863 0.114275 -0.036466 107850.000000 0 0 1
22.537992 -11.070092 -31.630362 40.385490 -0.456562 2.470610 0.119287 -0.045365 -148011.000000 0 0 1
22.436992 -12.470492 -31.661562 40.760106 -0.507286 2.460330 0.105168 -0.025204 -861868.000000 0 0 1
21.230992 -13.031992 -32.473362 40.928072 -0.550519 2.487212 0.089941 -0.021998 1182490.000000 0 0 1
19.930692 -12.818192 -31.895662 39.735019 -0.571536 2.502620 0.088518 -0.018013 684968.000000 0 0 1
19.547292 -11.444592 -31.929962 39.148407 -0.529676 2.524585 0.080159 -0.032188 -1667590.000000 0 0 1
18.172692 -11.148192 -31.329562 37.895519 -0.550257 2.544076 0.068657 -0.027660 -378061.000000 0 0 1
17.107392 -11.538392 -32.153262 38.205099 -0.593384 2.571028 0.053315 -0.014735 679833.000000 0 0 1
15.841392 -11.151592 -31.544762 37.018640 -0.613374 2.590842 0.067941 -0.027917 1694420.000000 0 0 1
14.546492 -11.473492 -32.354562 37.283496 -0.667841 2.621551 0.072617 -0.028479 -101460.000000 0 0 1
14.284392 -12.881292 -32.567062 37.823076 -0.733794 2.608101 0.085158 -0.030304 410506.000000 0 0 1
13.029492 -13.183592 -33.175062 38.002098 -0.791277 2.632075 0.084606 -0.036450 330036.000000 0 0 1
11.837492 -13.171792 -32.221862 36.767794 -0.838700 2.639051 0.084090 -0.034499 -825372.000000 0 0 1
11.289292 -11.908292 -32.083062 36.035793 -0.812076 2.668824 0.122240 -0.036268 169969.000000 0 0 1
10.181792 -11.937092 -31.164062 34.890712 -0.864590 2.675188 0.119478 -0.043710 679873.000000 0 0 1
8.989492 -11.058292 -31.613262 34.677011 -0.888228 2.718075 0.106270 -0.037415 -132689.000000 0 0 1
9.279492 -9.739592 -31.530462 34.280295 -0.809585 2.738326 0.103926 -0.036613 174078.000000 0 0 1
8.298792 -9.055492 -32.259862 34.519133 -0.828974 2.777789 0.094241 -0.033181 -189952.000000 0 0 1
8.692092 -7.558092 -32.410462 34.396442 -0.715727 2.800119 0.099122 -0.032612 -74583.600000 0 0 1
8.703492 -6.862292 -31.174962 33.086554 -0.667660 2.800006 0.093044 -0.036288 221505.000000 0 0 1
9.121492 -5.530992 -31.401162 33.163631 -0.545090 2.814111 0.081998 -0.033063 7657.040000 0 0 1
9.247492 -4.538092 -30.208662 31.916667 -0.456210 2.812963 0.075917 -0.024153 416567.000000 0 0 1
7.947992 -4.113392 -29.824962 31.138704 -0.477580 2.850079 0.073382 -0.022611 284563.000000 0 0 1
8.038192 -3.225592 -28.727162 30.004446 -0.381612 2.848760 0.083940 -0.020445 -428336.000000 0 0 1
6.705192 -2.617492 -28.375962 29.274666 -0.372175 2.893168 0.074298 -0.021009 -2083330.000000 0 0 1
6.108792 -1.739192 -29.287262 29.968080 -0.277364 2.928029 0.058860 -0.011891 -645083.000000 0 0 1
4.806792 -1.360892 -29.013262 29.440221 -0.275898 2.971077 0.067958 -0.019139 -217828.000000 0 0 1
3.706192 -2.468592 -29.041062 29.380488 -0.587591 2.989441 0.068340 -0.021367 -794195.000000 0 0 1
3.733592 -3.256492 -27.850062 28.287283 -0.717250 2.965545 0.075634 -0.024511 -382904.000000 0 0 1
2.768292 -4.270492 -27.924862 28.384828 -0.995661 2.961323 0.078704 -0.022549 -2788.330000 0 0 1
2.901692 -5.207592 -26.660462 27.318841 -1.062439 2.921605 0.075102 -0.024016 -43931.700000 0 0 1
2.488592 -4.729492 -25.386562 25.942989 -1.086420 2.934107 0.055863 -0.025463 -197857.000000 0 0 1
2.921692 -5.632192 -24.403262 25.214620 -1.092263 2.887222 0.066958 -0.032886 -48196.000000 0 0 1
2.847592 -5.049892 -23.026862 23.745453 -1.057350 2.894951 0.064663 -0.035186 -430464.000000 0 1 0
3.790992 -4.065892 -22.865762 23.531812 -0.820372 2.903103 0.066716 -0.028266 -726584.000000 0 1 0
3.751992 -3.610192 -21.523362 22.144210 -0.766140 2.904238 0.057588 -0.029149 509512.000000 0 1 0
4.867892 -2.545592 -21.147262 21.849098 -0.481827 2.887445 0.064176 -0.029900 -642576.000000 0 1 0
6.113592 -3.040592 -20.935162 22.020495 -0.461525 2.826322 0.063012 -0.027979 -1443970.000000 0 1 0
6.923492 -2.055292 -20.311262 21.557048 -0.288571 2.799963 0.068272 -0.025933 820194.000000 0 1 0
8.432892 -2.437492 -20.127062 21.957997 -0.281377 2.730329 0.080962 -0.026328 -602833.000000 0 1 0
9.102592 -2.607292 -21.349062 23.354605 -0.278965 2.724144 0.087918 -0.035077 147093.000000 0 1 0
10.336392 -3.315892 -21.266462 23.876736 -0.310426 2.669629 0.082047 -0.036258 692903.000000 0 1 0
11.500392 -2.600892 -20.550662 23.692897 -0.222415 2.620702 0.071169 -0.032954 -1150930.000000 0 1 0
11.303492 -2.629992 -19.143762 22.386813 -0.228603 2.596609 0.061508 -0.020713 118774.000000 0 1 0
12.444692 -2.266092 -18.374762 22.307788 -0.180120 2.538689 0.051031 -0.032987 -13156.600000 0 1 0
12.762992 -0.749492 -18.327962 22.346586 -0.058656 2.532502 0.050254 -0.031564 -29194.300000 0 1 0
13.316392 -0.198592 -19.530562 23.639132 -0.014912 2.543119 0.064701 -0.036316 345169.000000 0 1 0
13.554592 1.140608 -19.321562 23.629446 0.083951 2.528183 0.094365 -0.045005 -199787.000000 0 1 0
13.959492 2.056408 -20.520362 24.903443 0.146261 2.539226 0.074809 -0.038144 670455.000000 0 1 0
15.288692 2.102108 -21.061962 26.110710 0.136638 2.509243 0.072170 -0.032359 655301.000000 0 0 1
15.299092 3.232808 -21.915362 26.922042 0.208244 2.521854 0.069511 -0.035644 -426391.000000 0 0 1
16.567692 3.512408 -22.740562 28.354163 0.208910 2.501463 0.048037 -0.026270 -62985.900000 0 0 1
16.972092 2.541108 -23.680462 29.245058 0.148619 2.514480 0.039329 -0.028890 -1754.480000 0 0 1
17.615692 1.380408 -23.201462 29.163778 0.078203 2.490723 0.042283 -0.025439 -515246.000000 0 0 1
9.366965 26.709308 2.813625 28.443693 1.233498 1.471715 0.026707 -0.007428 -33560.900000 0 0 1
9.368165 27.246708 4.118225 29.105075 1.239631 1.428825 0.031630 -0.004257 -92269.300000 0 0 1
10.666365 27.666208 4.422825 29.979190 1.202819 1.422726 0.028662 -0.011600 -558760.000000 0 0 1
10.816665 28.201308 5.842325 30.764376 1.204549 1.379730 0.026796 -0.016182 -138486.000000 0 0 1
10.678465 27.265208 6.891725 30.081840 1.197507 1.339644 0.023361 -0.010107 220167.000000 0 0 1
10.668265 27.993008 8.108125 31.034853 1.206684 1.306470 0.032353 -0.005535 -238434.000000 0 0 1
10.401665 27.033008 9.348025 30.436224 1.203482 1.258615 0.043255 -0.006121 1194310.000000 0 0 1
11.520565 26.284708 9.949425 30.374338 1.157715 1.237076 0.045336 -0.001146 1415420.000000 0 0 1
12.258065 25.366008 9.102825 29.606688 1.120640 1.258275 0.044584 -0.002660 702089.000000 0 0 1
13.481165 24.709508 9.837925 29.817552 1.071348 1.234559 0.054241 -0.003746 394780.000000 0 0 1
14.400365 25.662708 10.288825 31.173788 1.059441 1.234443 0.070680 -0.009766 -211809.000000 0 0 1
15.494065 25.129408 11.017025 31.510761 1.018281 1.213623 0.070212 -0.010518 924096.000000 0 0 1
16.691265 26.170308 11.111125 32.968780 1.003050 1.227047 0.075162 -0.012327 154107.000000 0 0 1
17.279365 26.397708 9.840125 33.049108 0.991209 1.268469 0.077363 -0.022952 811652.000000 0 0 1
18.692265 26.229708 9.725025 33.644829 0.951639 1.277562 0.089799 -0.031674 603463.000000 0 0 1
19.710265 27.013608 10.522125 35.056308 0.940452 1.265947 0.082349 -0.028549 -1016540.000000 0 0 1
19.885265 28.435008 10.306225 36.196571 0.960525 1.282072 0.087217 -0.040620 777509.000000 0 0 1
18.778665 29.281108 10.717025 36.398849 1.000545 1.271934 0.072712 -0.018335 690333.000000 0 0 1
19.178765 30.754108 10.943225 37.860195 1.013193 1.277569 0.056892 -0.005631 -691185.000000 0 0 1
19.531565 31.487408 9.786325 38.323767 1.015586 1.312577 0.075398 -0.033006 446770.000000 0 0 1
18.590865 31.578308 8.684325 37.659359 1.038710 1.338100 0.080581 -0.044864 507148.000000 0 0 1
17.226965 32.239808 8.973325 37.638998 1.080057 1.330073 0.073418 -0.029596 -216735.000000 0 0 1
17.398265 33.580208 9.214825 38.926123 1.092765 1.331802 0.059808 -0.025212 930828.000000 0 0 1
16.124965 -33.928895 9.548425 38.760248 -1.127138 1.321888 0.078125 -0.018715 1104760.000000 0 0 1
16.332165 -32.398295 9.884025 37.604296 -1.103870 1.304829 0.101104 -0.022131 -244908.000000 0 0 1
16.845865 -31.666595 8.816425 36.936239 -1.081896 1.329776 0.090901 -0.031816 -82551.100000 0 0 1
16.920165 -30.233495 9.032925 35.804329 -1.060575 1.315755 0.060787 -0.018705 -236968.000000 0 0 1
17.431465 -29.523995 7.782025 35.157960 -1.037453 1.347603 0.062197 -0.015901 130065.000000 0 0 1
16.545565 -29.633995 6.689025 34.592954 -1.061580 1.376207 0.073690 -0.018878 101035.000000 0 0 1
17.191665 -29.114995 5.534225 34.261698 -1.037410 1.408557 0.076572 -0.016805 120509.000000 0 0 1
16.606265 -29.599995 4.208325 34.199967 -1.059530 1.447433 0.078635 -0.027599 -106040.000000 0 0 1
16.970765 -30.904795 3.897725 35.472602 -1.068621 1.460694 0.062092 -0.031470 -198459.000000 0 0 1
16.767165 -31.154095 2.497125 35.467606 -1.077057 1.500332 0.072587 -0.027611 -325125.000000 0 0 1
17.164365 -32.518795 2.042225 36.827410 -1.085134 1.515314 0.066143 -0.022609 267680.000000 0 0 1
18.518065 -32.928495 2.252525 37.845454 -1.058504 1.511242 0.067058 -0.012351 415372.000000 0 0 1
18.766665 34.006008 1.538125 38.871097 1.066524 1.531216 0.078291 -0.017356 162203.000000 0 0 1
20.156165 33.412708 1.889925 39.067274 1.027992 1.522401 0.093132 -0.025811 130092.000000 0 0 1
20.394765 32.984408 3.215425 38.913450 1.017018 1.488072 0.090456 -0.052377 -47591.900000 0 0 1
21.722965 32.512808 3.307125 39.241649 0.981777 1.486420 0.074388 -0.032662 112816.000000 0 0 1
22.232465 32.368408 4.801225 39.560689 0.968946 1.449133 0.072923 -0.021257 -357580.000000 0 0 1
21.597365 31.373408 5.552225 38.491092 0.967900 1.426044 0.087102 -0.039070 -15753.200000 0 0 1
22.177765 30.031908 5.562625 37.745352 0.934713 1.422885 0.065263 -0.038403 253718.000000 0 0 1
21.361565 28.991008 6.399025 36.575163 0.935775 1.394936 0.085940 -0.052202 527027.000000 0 0 1
20.127465 28.701908 5.760625 35.526036 0.959226 1.407925 0.088294 -0.051105 123836.000000 0 0 1
19.057865 28.543308 6.664625 34.961978 0.982091 1.378998 0.099171 -0.056417 -376698.000000 0 0 1
17.679165 28.711108 6.040725 34.254503 1.018869 1.393521 0.093438 -0.055065 -872709.000000 0 0 1
17.263065 30.074408 5.873125 35.170685 1.049705 1.403021 0.088736 -0.060349 114608.000000 0 0 1
17.778365 30.680308 4.681325 35.766834 1.045608 1.439535 0.097354 -0.058068 -256103.000000 0 0 1
17.739665 32.259008 4.723825 37.116760 1.068019 1.443181 0.101951 -0.058110 -213485.000000 0 0 1
16.447265 32.807308 4.830825 37.015792 1.106086 1.439916 0.073916 -0.051338 -321836.000000 0 0 1
16.475265 -33.864595 5.064925 37.998666 -1.118004 1.437106 0.082051 -0.051535 -267173.000000 0 0 1
15.120965 -33.219595 5.382625 36.893871 -1.143641 1.424379 0.084779 -0.048787 260935.000000 0 0 1
14.063565 -33.333895 4.430725 36.449468 -1.171554 1.448937 0.071960 -0.035838 -19411.900000 0 0 1
13.339565 -32.139295 4.379325 35.072165 -1.177379 1.445603 0.074172 -0.032249 -810713.000000 0 0 1
12.290965 -32.203595 3.305325 34.627511 -1.206196 1.475197 0.075125 -0.028867 -1323200.000000 0 0 1
11.547565 -31.099995 3.251525 33.333592 -1.215270 1.473096 0.083301 -0.030889 -881354.000000 0 0 1
10.815665 -31.072995 2.045825 32.965058 -1.235839 1.508696 0.077072 -0.019235 -160049.000000 0 0 1
9.804865 -29.865995 1.950625 31.494729 -1.253587 1.508822 0.087344 -0.021741 656817.000000 0 0 1
9.098065 -29.577695 0.716425 30.953644 -1.272383 1.547649 0.092490 -0.013282 1012790.000000 0 0 1
8.103265 -30.574595 0.352825 31.632155 -1.311720 1.559642 0.076091 -0.015455 -126694.000000 0 0 1
8.398965 -31.225095 -1.044075 32.351804 -1.308034 1.603074 0.100498 -0.021041 -793173.000000 0 0 1
9.519465 -32.025695 -0.974775 33.424774 -1.281869 1.599964 0.089090 -0.024401 -869835.000000 0 0 1
9.779365 -32.802895 -2.132975 34.295998 -1.281061 1.633030 0.092264 -0.017284 -612382.000000 0 0 1
11.105365 -33.541895 -2.187575 35.400188 -1.251067 1.632631 0.074255 -0.015113 -439162.000000 0 0 1
11.290165 33.472308 -1.225275 35.346351 1.245481 1.605468 0.072955 -0.019725 -3194.360000 0 0 1
12.585765 32.911408 -1.245475 35.257815 1.205542 1.606128 0.084144 -0.022570 -143322.000000 0 0 1
12.823365 31.878108 -0.157575 34.360985 1.188341 1.575382 0.068832 -0.029290 -636964.000000 0 0 1
12.951365 32.528608 1.160125 35.031330 1.191883 1.537673 0.065460 -0.028285 -606209.000000 0 0 1
14.189265 32.955308 1.608825 35.916235 1.164225 1.525988 0.075112 -0.027627 -916551.000000 0 0 1
15.354865 31.967208 1.736825 35.506209 1.123007 1.521861 0.075631 -0.035128 -821248.000000 0 0 1
16.032565 31.708608 0.544525 35.535553 1.102661 1.555472 0.083750 -0.033940 -192600.000000 0 0 1
16.699765 30.471808 0.643125 34.753804 1.069459 1.552290 0.084383 -0.027839 -357437.000000 0 0 1
17.431065 30.003808 -0.618275 34.705227 1.044493 1.588612 0.077110 -0.021254 126125.000000 0 0 1
18.489865 30.858508 -1.009375 35.988074 1.030978 1.598847 0.057596 -0.009546 53265.000000 0 0 1
18.077865 31.888008 -1.860275 36.703064 1.055058 1.621503 0.061467 -0.013869 -397478.000000 0 0 1
19.190865 32.558008 -2.676875 37.887714 1.038181 1.641508 0.051687 -0.006052 710539.000000 0 0 1
20.201765 33.222208 -1.879875 38.927630 1.024457 1.619107 0.051220 -0.006315 996059.000000 0 0 1
21.142365 -34.039195 -2.544775 40.151491 -1.014993 1.634218 0.054506 0.002743 -608228.000000 0 0 1
22.026665 -33.191295 -1.547275 39.865149 -0.984901 1.609619 0.060912 -0.001486 119216.000000 0 0 1
23.129965 -33.802795 -0.863975 40.967923 -0.970711 1.591887 0.056559 -0.010528 1303060.000000 0 0 1
24.052265 33.504008 -1.644075 41.276301 0.948163 1.610638 0.056696 -0.006093 -510110.000000 0 0 1
24.813365 -33.984395 -2.784775 42.171046 -0.940127 1.636880 0.047335 -0.006999 -1044900.000000 0 0 1
23.973165 -33.461295 -3.840775 41.341534 -0.949119 1.663834 0.047101 -0.014878 432581.000000 0 0 1
24.755765 -32.976995 -4.928475 41.528544 -0.926849 1.689753 0.040774 -0.018838 -308725.000000 0 0 1
23.870365 -32.654395 -6.084175 40.903802 -0.939566 1.720094 0.044485 -0.025200 -205660.000000 0 0 1
22.928965 -31.600195 -5.837475 39.476396 -0.943098 1.719213 0.061575 -0.022101 339370.000000 0 0 1
22.388265 -31.102895 -7.041175 38.964120 -0.946896 1.752504 0.066313 -0.024679 -712524.000000 0 0 1
21.356965 -30.022495 -6.876275 37.480039 -0.952483 1.755306 0.088349 -0.022726 -436506.000000 0 0 1
20.181765 -30.502395 -6.252875 37.105231 -0.986278 1.740122 0.078020 -0.019981 -339606.000000 0 0 1
19.432565 -29.340995 -5.925575 35.687967 -0.985822 1.737607 0.082567 -0.024683 217436.000000 0 0 1
18.179565 -29.525395 -5.054075 35.039823 -1.018893 1.715539 0.067749 -0.010409 1421440.000000 0 0 1
17.005565 -30.185495 -5.641775 35.102464 -1.057747 1.732219 0.065442 -0.013831 1142310.000000 0 0 1
15.942665 -30.072695 -4.702375 34.360557 -1.083330 1.708081 0.051273 -0.008719 1916150.000000 0 0 1
14.660365 -31.016595 -5.057475 34.677565 -1.129257 1.717161 0.052555 -0.009561 1594920.000000 0 0 1
14.983265 -32.391395 -5.004075 36.038056 -1.137539 1.710102 0.045371 -0.000846 274220.000000 0 0 1
13.850165 -33.222595 -5.261575 36.376532 -1.175815 1.715947 0.067470 -0.006253 367152.000000 0 0 1
14.209365 33.394308 -5.294175 36.675798 1.168500 1.715653 0.060949 -0.008574 5316.970000 0 0 1
14.357565 32.722008 -4.051775 35.962291 1.157317 1.683703 0.061457 -0.014091 -263781.000000 0 0 1
14.765665 31.374908 -4.143975 34.922518 1.130928 1.689739 0.065994 -0.019247 -201518.000000 0 0 1
13.814665 30.254108 -4.653775 33.582937 1.142450 1.709819 0.076383 -0.024703 -504882.000000 0 0 1
12.721765 29.865708 -3.898675 32.695619 1.168108 1.690322 0.075593 -0.025737 -384324.000000 0 0 1
13.067965 29.169708 -2.736475 32.080086 1.149609 1.656201 0.084707 -0.032796 -189510.000000 0 0 1
11.829165 28.533008 -2.057875 30.956365 1.177786 1.637322 0.070868 -0.028693 214621.000000 0 0 1
10.834765 29.407608 -1.560775 31.378903 1.217794 1.620556 0.058861 -0.033168 -400942.000000 0 0 1
10.082465 28.618308 -0.714075 30.350841 1.232067 1.594326 0.048850 -0.019931 -268782.000000 0 0 1
8.809265 29.266108 -0.115975 30.563405 1.278417 1.574591 0.039343 -0.011791 165288.000000 0 0 1
7.993865 28.359908 0.592725 29.470962 1.296053 1.550683 0.031202 -0.007418 116181.000000 0 0 1
6.809465 29.078808 0.949825 29.880564 1.340768 1.539004 0.035462 -0.004526 221069.000000 0 0 1
5.765565 28.243608 1.716925 28.877171 1.369426 1.511305 0.022005 -0.007122 73001.300000 0 0 1
5.245765 27.162508 0.954325 27.680871 1.380020 1.536314 0.025623 -0.014656 -88389.400000 0 0 1
4.199065 26.536308 1.655325 26.917428 1.413859 1.509261 0.024154 -0.015388 190954.000000 0 0 1
3.428965 25.536708 0.748025 25.776749 1.437319 1.541773 0.033873 -0.017551 -689941.000000 0 0 1
2.222265 25.100008 1.244125 25.228887 1.482490 1.521463 0.052135 -0.019699 -728474.000000 0 0 1
1.584765 24.309108 0.243025 24.361923 1.505696 1.560821 0.046740 -0.020429 -832091.000000 0 1 0
0.279065 23.726108 0.691125 23.737813 1.559035 1.541677 0.055020 -0.018875 -733726.000000 0 1 0
-0.728635 24.693908 0.828525 24.718545 -1.541298 1.537272 0.069608 -0.023549 -103466.000000 0 1 0
-2.035835 24.156708 0.927025 24.260061 -1.486719 1.532575 0.060773 -0.020627 379247.000000 0 1 0
-3.132335 25.193708 1.351325 25.423622 -1.447101 1.517619 0.095205 -0.036856 -158073.000000 0 0 1
-4.387335 24.603608 1.132825 25.017385 -1.394330 1.525499 0.091898 -0.026870 -199292.000000 0 0 1
-5.325835 25.023608 2.139225 25.673367 -1.361093 1.487375 0.095876 -0.032744 747834.000000 0 0 1
-6.736235 25.260808 1.509625 26.187101 -1.310193 1.513117 0.107175 -0.035814 250821.000000 0 0 1
-6.814035 26.539108 0.961225 27.416770 -1.319471 1.535729 0.122387 -0.045014 -751691.000000 0 0 1
-7.833335 26.608208 0.048225 27.737343 -1.284489 1.569058 0.110208 -0.032169 -793120.000000 0 0 1
-7.713435 27.688708 -1.059075 28.762533 -1.299108 1.607626 0.101270 -0.031346 -104537.000000 0 0 1
-7.915535 28.994408 -0.587275 30.061209 -1.304288 1.590334 0.121267 -0.041243 93832.600000 0 0 1
-7.898035 29.924608 -1.630575 30.992256 -1.312750 1.623433 0.119477 -0.040396 -209906.000000 0 0 1
-7.888535 31.396808 -1.181375 32.394200 -1.324639 1.607273 0.115246 -0.039476 -1033970.000000 0 0 1
-8.129435 32.389708 -2.135275 33.462521 -1.324888 1.634651 0.095711 -0.022841 -111890.000000 0 0 1
-7.239535 32.569508 -3.222975 33.519715 -1.352073 1.667097 0.079865 -0.022285 -601998.000000 0 0 1
-5.808335 32.879608 -2.808175 33.506585 -1.395946 1.654704 0.097984 -0.021404 -1316500.000000 0 0 1
-5.601035 -33.896295 -2.311075 34.433580 1.407036 1.637964 0.095544 -0.025630 118710.000000 0 0 1
-4.752635 -33.873695 -1.165275 34.225321 1.431402 1.604850 0.115087 -0.031671 248280.000000 0 0 1
-4.445235 -32.380895 -0.764875 32.693539 1.434370 1.594194 0.103979 -0.028734 348435.000000 0 0 1
-5.685535 -31.704495 -0.632775 32.216466 1.393353 1.590439 0.099088 -0.024837 200176.000000 0 0 1
-5.860735 -30.680695 -1.633775 31.278147 1.382047 1.623054 0.096083 -0.018338 604812.000000 0 0 1
-7.165435 -29.814595 -1.479475 30.699224 1.334936 1.619008 0.116020 -0.021727 634837.000000 0 0 1
-7.330735 -29.188895 -0.202875 30.096053 1.324737 1.577537 0.108549 -0.016084 -633151.000000 0 0 1
-8.519935 -28.466895 -0.096475 29.714688 1.279989 1.574043 0.090998 -0.014232 -269546.000000 0 0 1
-8.655235 -27.765895 1.277625 29.111687 1.268621 1.526895 0.087349 -0.016283 249396.000000 0 0 1
-7.814535 -26.619395 1.423325 27.779218 1.285253 1.519537 0.090106 -0.024407 -234740.000000 0 0 1
-7.574835 -26.232995 2.805325 27.448460 1.289690 1.468414 0.100527 -0.025727 -222044.000000 0 0 1
-8.568435 -25.357495 3.570425 27.003121 1.244937 1.438185 0.091258 -0.023633 -331815.000000 0 0 1
-8.473835 -24.036895 3.102225 25.674929 1.231865 1.449673 0.085880 -0.020651 -412066.000000 0 0 1
-9.430235 -23.176795 3.631425 25.283995 1.184371 1.426672 0.088789 -0.024330 -549016.000000 0 0 1
-8.851835 -21.767495 3.861925 23.813720 1.184567 1.407905 0.061073 -0.008104 -69858.700000 0 1 0
-7.860035 -21.866795 4.848025 23.736895 1.225727 1.365109 0.049880 -0.011686 -56599.300000 0 1 0
-7.037135 -20.693695 4.979125 22.417448 1.243002 1.346819 0.032466 -0.011088 630463.000000 0 1 0
-7.729335 -19.502295 5.754725 21.753137 1.193458 1.303062 0.042966 -0.014388 241326.000000 0 1 0
-8.022335 -19.863195 7.111925 22.571749 1.186950 1.250255 0.041946 -0.019637 167930.000000 0 1 0
-8.950835 -19.026895 7.771625 22.417367 1.131083 1.216768 0.033701 -0.017403 -165829.000000 0 1 0
-28.027745 28.345008 -5.352375 40.219919 -0.791026 1.704270 0.111139 -0.029974 -279814.000000 0 0 1
-27.283175 29.128908 -4.497175 40.163285 -0.818105 1.683004 0.104355 -0.038914 -222743.000000 0 0 1
-26.124865 28.480108 -4.020675 38.856028 -0.828504 1.674458 0.089802 -0.035831 1553.360000 0 0 1
-25.242755 29.306408 -3.090275 38.802217 -0.859756 1.650522 0.083614 -0.027391 -575163.000000 0 0 1
-25.853525 29.505808 -1.835475 39.272973 -0.851277 1.617550 0.068362 -0.030056 -102941.000000 0 0 1
-25.303855 30.496508 -1.002475 39.639968 -0.878189 1.596089 0.067827 -0.025581 -486375.000000 0 0 1
-23.964535 30.214608 -0.323075 38.565864 -0.900250 1.579174 0.050899 -0.020516 -16880.200000 0 0 1
-22.918935 30.083008 -1.287875 37.840766 -0.919750 1.604837 0.071741 -0.024650 546172.000000 0 0 1
-21.652335 29.925708 -0.632675 36.942819 -0.944448 1.587923 0.057851 -0.025787 845588.000000 0 0 1
-20.471635 29.524808 -1.587275 35.962780 -0.964533 1.614947 0.059390 -0.024192 -60709.800000 0 0 1
-19.264335 29.550208 -0.880575 35.286043 -0.993073 1.595754 0.054772 -0.018414 -1358730.000000 0 0 1
-18.276735 28.959708 -1.619775 34.283048 -1.007816 1.618061 0.057290 -0.023980 -1178410.000000 0 0 1
-16.900335 29.500508 -1.257275 34.021788 -1.050555 1.607760 0.053073 -0.024273 -764199.000000 0 0 1
-16.401235 29.142608 0.035125 33.440893 -1.058185 1.569746 0.051021 -0.021394 -140206.000000 0 0 1
-15.346135 29.986408 0.414325 33.687686 -1.097777 1.558497 0.050550 -0.021670 -297654.000000 0 0 1
-14.686835 29.339808 1.652525 32.852067 -1.106687 1.520473 0.061990 -0.027022 -355438.000000 0 0 1
-15.514535 29.360908 2.809525 33.326523 -1.084682 1.486393 0.052740 -0.020121 -176428.000000 0 0 1
-15.096035 28.546108 3.877125 32.523878 -1.084352 1.451304 0.054916 -0.030590 655857.000000 0 0 1
-13.854735 29.065308 4.704525 32.540411 -1.125981 1.425713 0.067354 -0.022757 766330.000000 0 0 1
-14.150335 30.211108 5.492825 33.809971 -1.132762 1.407611 0.050936 -0.025241 -302165.000000 0 0 1
-14.178835 31.479408 4.811125 34.858850 -1.147596 1.432337 0.051242 -0.028116 -147364.000000 0 0 1
-13.921035 32.671608 5.774025 35.980113 -1.168003 1.409621 0.065695 -0.027730 333086.000000 0 0 1
-15.058035 32.986408 6.584925 36.853884 -1.142557 1.391155 0.054259 -0.028472 395443.000000 0 0 1
-14.865035 -34.004995 7.446725 37.851851 1.158686 1.372771 0.074762 -0.035491 245220.000000 0 0 1
-16.182835 -33.679095 8.209325 38.256484 1.122869 1.354528 0.053359 -0.030116 381086.000000 0 0 1
-16.440035 33.443808 9.227125 38.391443 -1.113914 1.328077 0.023707 -0.027157 -241332.000000 0 0 1
-17.469235 33.957908 10.022025 39.481067 -1.095665 1.314144 0.043192 -0.027091 -1044230.000000 0 0 1
-17.569235 33.310208 11.467525 39.366891 -1.085436 1.275212 0.043680 -0.017495 742335.000000 0 0 1
-16.523235 33.532908 12.436025 39.397055 -1.112968 1.249646 0.053533 -0.028371 726749.000000 0 0 1
-15.208335 33.105908 12.098125 38.388270 -1.140166 1.250180 0.065657 -0.028756 -242058.000000 0 0 1
-14.228835 33.295108 13.246425 38.555048 -1.166933 1.220079 0.071733 -0.021713 -470598.000000 0 0 1
-14.517635 32.550408 14.419225 38.447430 -1.151270 1.186359 0.056089 -0.013427 -56872.300000 0 0 1
-13.854035 31.285808 14.415625 37.128780 -1.153928 1.172053 0.046168 -0.011207 -458916.000000 0 0 1
-14.431035 30.086108 13.684825 36.065262 -1.123555 1.181599 0.042685 -0.015941 -271818.000000 0 0 1
-14.373835 30.206308 12.286125 35.636737 -1.126650 1.218813 0.035458 -0.012730 776827.000000 0 0 1
-15.556635 29.583508 11.742025 35.426939 -1.086679 1.232963 0.014491 -0.011264 742338.000000 0 0 1
-15.497335 29.543508 10.214625 34.890182 -1.087695 1.273679 0.017003 -0.003173 -24320.600000 0 0 1
-14.745335 28.450008 9.718325 33.485425 -1.092625 1.276334 0.008393 -0.002684 60460.400000 0 0 1
-14.687635 28.415008 8.368125 33.063043 -1.093723 1.314917 0.016100 -0.007998 -835536.000000 0 0 1
-13.935835 27.161608 7.872325 31.526718 -1.096747 1.318422 0.036040 -0.006628 287329.000000 0 0 1
-12.538335 27.163808 8.150325 31.008227 -1.138352 1.304828 0.037400 -0.006234 585372.000000 0 0 1
-11.969635 25.852108 7.864025 29.554129 -1.137181 1.301463 0.051933 -0.010352 -317284.000000 0 0 1
-10.819335 25.890708 6.890825 28.894121 -1.174968 1.329990 0.080030 -0.019723 -678681.000000 0 0 1
-11.267135 26.151408 5.534225 29.008139 -1.163988 1.378838 0.090100 -0.024974 184357.000000 0 0 1
-10.159535 26.192708 4.695525 28.483716 -1.200785 1.405191 0.119570 -0.021629 -320575.000000 0 0 1
-10.559435 26.515508 3.205325 28.720166 -1.191811 1.458958 0.123278 -0.029370 234974.000000 0 0 1
-10.888935 27.923508 3.008725 30.122145 -1.198979 1.470745 0.123438 -0.030798 103627.000000 0 0 1
-10.975535 28.226908 1.611325 30.328486 -1.199954 1.517642 0.128843 -0.033001 -86789.900000 0 0 1
-10.651235 29.670508 1.330225 31.552454 -1.226141 1.528625 0.152710 -0.041716 382970.000000 0 0 1
-11.591635 30.591208 1.899525 32.768830 -1.208593 1.512796 0.121393 -0.039543 82131.000000 0 0 1
-11.145835 31.937708 1.728125 33.870832 -1.235025 1.519753 0.122795 -0.041547 -216792.000000 0 0 1
-11.924235 33.066308 2.445225 35.235596 -1.224696 1.501344 0.112922 -0.037785 -64529.700000 0 0 1
-13.239235 33.304908 2.015025 35.896442 -1.192433 1.514632 0.083103 -0.032641 -245621.000000 0 0 1
-13.285935 -33.998695 0.876125 36.512941 1.198265 1.546799 0.074010 -0.028001 -847717.000000 0 0 1
-14.751235 -33.738095 0.519625 36.825643 1.158614 1.556685 0.070920 -0.024734 -235926.000000 0 0 1
-15.472735 33.305508 -0.111975 36.724310 -1.135892 1.573845 0.067538 -0.018108 108033.000000 0 0 1
-15.519635 33.337608 -1.504975 36.803806 -1.135104 1.611700 0.082590 -0.027114 534025.000000 0 0 1
-14.211135 33.094308 -2.369975 36.094409 -1.165194 1.636504 0.078230 -0.025614 826347.000000 0 0 1
-13.761635 31.733608 -2.326775 34.667252 -1.161612 1.637964 0.069361 -0.026400 1421790.000000 0 0 1
-12.317135 31.566608 -2.322675 33.964060 -1.198771 1.639236 0.069424 -0.021241 1419310.000000 0 0 1
-11.891635 30.076808 -2.432375 32.433652 -1.194283 1.645862 0.044289 -0.017341 -78920.800000 0 0 1
-12.032835 29.524108 -3.727075 32.099115 -1.183790 1.687170 0.042719 -0.022618 684538.000000 0 0 1
-10.799435 29.560608 -4.507475 31.792683 -1.220529 1.713053 0.045070 -0.026557 947731.000000 0 0 1
-10.915635 28.951508 -5.958875 31.509508 -1.210246 1.761056 0.037275 -0.022549 -458383.000000 0 0 1
-10.988335 27.551608 -5.867275 30.236725 -1.191301 1.766080 0.036338 -0.018386 24002.500000 0 0 1
-10.912035 27.027408 -7.176075 30.017484 -1.187070 1.812197 0.031036 -0.014360 4459.720000 0 0 1
-11.432035 25.567608 -7.288575 28.939892 -1.150332 1.825390 0.048852 -0.027122 -95407.600000 0 0 1
-10.713635 24.607808 -6.577075 27.633026 -1.160171 1.811118 0.028555 -0.018970 -104695.000000 0 0 1
-11.322635 23.336408 -6.710375 26.792147 -1.119065 1.823952 0.076261 -0.032075 -61673.600000 0 0 1
-10.690835 22.307008 -5.719375 25.389128 -1.123879 1.798015 0.074813 -0.036146 -38303.400000 0 0 1
-9.370835 21.917908 -6.039275 24.590244 -1.166774 1.818931 0.066147 -0.031088 -26420.600000 0 1 0
-8.824935 20.802808 -5.355775 23.223278 -1.169588 1.803512 0.067504 -0.024864 -251519.000000 0 1 0
-8.594935 20.729908 -3.831375 22.765795 -1.177754 1.739896 0.065247 -0.030234 -341651.000000 0 1 0
-9.691135 20.611408 -2.948775 22.966138 -1.131286 1.699548 0.074746 -0.037475 -177712.000000 0 1 0
-10.318735 19.344208 -2.971175 22.124705 -1.080766 1.705495 0.076398 -0.034309 6014.310000 0 1 0
-11.727235 19.217008 -2.342975 22.634287 -1.022872 1.674496 0.089333 -0.037434 -105255.000000 0 1 0
-11.789235 19.219708 -0.919175 22.566083 -1.020587 1.611540 0.090259 -0.035405 256558.000000 0 1 0
-11.257135 18.040308 -0.249375 21.265888 -1.012917 1.582523 0.077501 -0.035683 3242.350000 0 1 0
-11.143835 18.315108 1.290625 21.477755 -1.024186 1.510669 0.078457 -0.029584 -196474.000000 0 1 0
-12.383435 18.439508 1.926725 22.295228 -0.979406 1.484270 0.102204 -0.031672 -64897.500000 0 1 0
-12.125635 18.536908 3.290525 22.393650 -0.991520 1.423322 0.096039 -0.026198 699803.000000 0 1 0
-13.440135 18.534108 4.158525 23.268943 -0.943385 1.391115 0.100456 -0.032472 534411.000000 0 1 0
-13.975535 17.242408 4.201725 22.589172 -0.889666 1.383701 0.069549 -0.025835 526032.000000 0 1 0
-15.188135 17.244408 4.957025 23.507895 -0.848715 1.358335 0.095368 -0.035316 276689.000000 0 1 0
-15.548835 15.861408 5.520425 22.887237 -0.795349 1.327193 0.078755 -0.031712 -319853.000000 0 1 0
-14.646835 15.345608 6.488225 22.183654 -0.808692 1.273979 0.061786 -0.031509 84406.400000 0 1 0
-15.013535 15.659908 7.841225 23.067808 -0.806468 1.223964 0.058844 -0.033430 -480835.000000 0 1 0
-13.841435 15.534708 8.857625 22.613492 -0.842976 1.168322 0.045472 -0.024684 902689.000000 0 1 0
-12.726435 16.418308 8.755525 22.542897 -0.911401 1.171908 0.040836 -0.030032 689647.000000 0 1 0
-11.907335 16.241808 7.592025 21.522542 -0.938181 1.210290 0.038460 -0.026415 -771436.000000 0 1 0
-10.779335 17.273708 7.476825 21.690504 -1.012894 1.218872 0.053650 -0.033495 -198572.000000 0 1 0
-9.754435 17.112208 8.415225 21.419446 -1.052707 1.167037 0.043153 -0.031196 -762582.000000 0 1 0
-9.048435 18.234108 8.694925 22.135008 -1.110164 1.167108 0.042078 -0.030653 -1227120.000000 0 1 0
-7.760935 17.989908 9.409225 21.734821 -1.163513 1.123078 0.032009 -0.037628 -749631.000000 0 1 0
-6.706635 17.320208 8.675825 20.499720 -1.201360 1.133804 0.023510 -0.030269 692855.000000 0 1 0
-5.469035 17.420408 9.368425 20.521899 -1.266596 1.096729 0.027777 -0.035395 53157.000000 0 1 0
-4.613335 18.613808 8.931825 21.155005 -1.327847 1.134916 0.025421 -0.031512 -1347150.000000 0 1 0
-5.131735 19.853508 9.365925 22.543670 -1.317853 1.142351 0.036378 -0.037020 -107409.000000 0 1 0
-4.681235 20.940708 8.615625 23.122634 -1.350865 1.188981 0.045937 -0.032244 113196.000000 0 1 0
-3.224835 21.457508 8.632925 23.352765 -1.421623 1.192137 0.047284 -0.028695 571605.000000 0 1 0
-2.163235 20.611208 8.177725 22.279513 -1.466225 1.194959 0.034408 -0.019995 574985.000000 0 1 0
-0.934335 21.322308 8.233925 22.875999 -1.527005 1.202596 0.029709 -0.017352 1670700.000000 0 1 0
0.446065 20.536408 8.084725 22.075004 1.549079 1.195832 0.020941 -0.008918 1494140.000000 0 1 0
0.842465 19.748008 9.184125 21.795452 1.528161 1.135832 0.017953 -0.019367 -883456.000000 0 1 0
2.202765 19.452908 9.078025 21.579582 1.458041 1.136605 0.013654 -0.016861 -465630.000000 0 1 0
2.695465 18.911608 10.447125 21.772848 1.429220 1.070343 0.004055 -0.027855 595285.000000 0 1 0
4.111565 18.757108 10.578625 21.923535 1.355009 1.067263 0.023051 -0.007808 471961.000000 0 1 0
4.479365 18.121408 11.778725 22.072347 1.328468 1.007895 0.017374 -0.015333 -82680.300000 0 1 0
5.986465 18.239608 12.048525 22.664687 1.253662 1.010309 0.035189 -0.015387 -382019.000000 0 1 0
6.844565 17.516108 11.223225 21.900295 1.198282 1.032739 0.032431 -0.017036 -663557.000000 0 1 0
7.620065 16.729608 12.070425 21.991825 1.143391 0.989797 0.037704 -0.015983 -1121290.000000 0 1 0
8.768265 16.089708 11.311625 21.534021 1.071830 1.017739 0.046198 -0.024977 -19182.900000 0 1 0
9.780365 17.034508 10.911425 22.469740 1.049601 1.063741 0.059745 -0.029748 289400.000000 0 1 0
10.798965 16.466908 10.136725 22.147910 0.990356 1.095409 0.061101 -0.034073 -177524.000000 0 1 0
11.996665 17.401008 9.883225 23.332236 0.967204 1.133395 0.066266 -0.023126 -314499.000000 0 1 0
12.996665 16.854608 9.086225 23.141967 0.913925 1.167307 0.073287 -0.021629 -561973.000000 0 1 0
13.947665 17.860608 8.791125 24.306842 0.907800 1.200735 0.080448 -0.015490 236880.000000 0 1 0
14.974465 17.449108 7.700825 24.248891 0.861573 1.247626 0.079650 -0.021084 -81499.500000 0 1 0
15.965665 16.541708 8.100625 24.375207 0.803117 1.232023 0.098088 -0.027848 130871.000000 0 1 0
16.905065 16.396308 7.032525 24.577969 0.770122 1.280609 0.110627 -0.023279 706907.000000 0 1 0
18.380265 16.243308 7.549025 25.664509 0.723757 1.272238 0.096176 -0.020205 389574.000000 0 0 1
18.562965 15.020508 8.169325 25.237615 0.680305 1.241163 0.095132 -0.017127 -667169.000000 0 0 1
19.602165 15.114508 9.043725 26.353031 0.656846 1.220500 0.089678 -0.019737 -1068080.000000 0 0 1
19.859565 13.925908 10.033625 26.248941 0.611544 1.178568 0.074343 -0.021345 -549453.000000 0 0 1
20.534965 12.916208 9.414125 26.021895 0.561461 1.200623 0.087709 -0.031355 -9317.600000 0 0 1
20.829365 11.827908 10.233725 26.047860 0.516443 1.167033 0.097457 -0.038013 -163953.000000 0 0 1
21.834365 10.759808 9.657725 26.187490 0.457865 1.193088 0.092602 -0.025894 -1477670.000000 0 0 1
23.136965 11.195208 9.899725 27.543718 0.450658 1.203152 0.066980 -0.026860 -111659.000000 0 0 1
24.067165 10.412608 9.160725 27.777144 0.408331 1.234711 0.083226 -0.027018 -172520.000000 0 0 1
24.413165 9.098808 9.849725 27.853331 0.356753 1.209349 0.098971 -0.027076 -970514.000000 0 0 1
23.385365 8.112408 9.719525 26.592399 0.333911 1.196626 0.117840 -0.029323 617065.000000 0 0 1
23.712065 6.785008 10.089525 26.647644 0.278695 1.182484 0.127478 -0.034175 -135248.000000 0 0 1
24.764665 6.028608 9.271925 27.121972 0.238791 1.221901 0.131533 -0.033912 269195.000000 0 0 1
24.208465 5.807908 7.975525 26.141741 0.235462 1.260766 0.129422 -0.022414 547120.000000 0 0 1
25.117365 5.227708 7.032425 26.601992 0.205202 1.303259 0.126721 -0.014620 340332.000000 0 0 1
24.439865 4.957408 5.651425 25.569934 0.200126 1.347938 0.115157 -0.014483 -109199.000000 0 0 1
23.544865 3.887708 5.531425 24.496360 0.163643 1.343026 0.121343 -0.012891 265506.000000 0 1 0
23.344565 3.575808 4.133925 23.975915 0.151994 1.397510 0.125602 -0.013625 734177.000000 0 1 0
22.270965 2.420608 3.928725 22.744013 0.108264 1.397189 0.111887 -0.013951 313376.000000 0 1 0
22.835765 1.228108 4.365925 23.281790 0.053728 1.382154 0.130642 -0.014939 143077.000000 0 1 0
22.348365 0.153008 3.691125 22.651650 0.006846 1.407115 0.127573 -0.011355 -468793.000000 0 1 0
22.986365 -1.200792 4.014725 23.365207 -0.052192 1.398114 0.138527 -0.017979 -609048.000000 0 1 0
22.736365 -1.660192 5.334225 23.412657 -0.072890 1.340943 0.124314 -0.020089 670343.000000 0 1 0
22.868365 -3.077692 5.464025 23.712653 -0.133779 1.338280 0.115916 -0.023360 -293748.000000 0 1 0
23.028565 -3.482192 6.923925 24.297762 -0.150075 1.281830 0.154544 -0.025891 -139694.000000 0 1 0
22.803265 -4.853192 7.027825 24.350210 -0.209700 1.278017 0.130288 -0.025850 493276.000000 0 1 0
22.584865 -5.066092 8.435725 24.635399 -0.220661 1.221302 0.149036 -0.029326 -43787.700000 0 1 0
22.282365 -6.523292 8.805025 24.831142 -0.284798 1.208314 0.135686 -0.029690 230366.000000 0 1 0
21.046965 -7.034792 8.334925 23.705148 -0.322569 1.211508 0.140540 -0.032896 459528.000000 0 1 0
20.703565 -8.217992 9.041725 24.040088 -0.377862 1.185202 0.130367 -0.029029 -50429.200000 0 1 0
-27.000605 -33.018695 5.313425 42.982547 0.885333 1.446861 0.071759 -0.009725 83862.400000 0 0 1
-27.806235 34.008208 5.757525 44.304560 -0.885396 1.440474 0.066062 -0.007558 156190.000000 0 0 1
-27.726415 33.732108 7.164225 44.248563 -0.882808 1.408172 0.057666 -0.001939 -585669.000000 0 0 1
-28.592255 32.641108 7.705825 44.071972 -0.851424 1.395047 0.075967 -0.011428 -201091.000000 0 0 1
-29.987385 32.876508 7.680425 45.156361 -0.831324 1.399880 0.085480 -0.009001 122367.000000 0 0 1
-30.733275 31.715508 7.968725 44.876589 -0.801125 1.392280 0.106210 -0.018826 74077.300000 0 0 1
-32.259345 31.898608 8.034925 46.073274 -0.779776 1.395506 0.112968 -0.018689 -18121.500000 0 0 1
-32.809415 32.183408 6.747525 46.451680 -0.775767 1.425022 0.091459 -0.009554 -341603.000000 0 0 1
-34.206328 32.270908 6.862225 47.524462 -0.756292 1.425896 0.073763 -0.008488 -476695.000000 0 0 1
-34.812530 32.244008 5.460425 47.764051 -0.747113 1.456225 0.070588 0.007077 -434553.000000 0 0 1
-34.658465 30.946108 4.907325 46.722079 -0.728872 1.465570 0.076613 -0.001997 828797.000000 0 0 1
-35.542582 30.725208 3.776225 47.133570 -0.712830 1.490593 0.085970 0.006126 510516.000000 0 0 1
-35.147662 29.486908 3.013525 45.977356 -0.698040 1.505206 0.089062 -0.004341 23876.300000 0 0 1
-35.544904 28.324408 3.700225 45.600482 -0.672825 1.489563 0.118788 -0.013194 312219.000000 0 0 1
-34.978631 27.183208 3.060725 44.404948 -0.660644 1.501814 0.093255 -0.008318 134047.000000 0 0 1
-35.541342 25.845608 3.678425 44.098903 -0.628748 1.487286 0.111434 -0.014083 -525036.000000 0 0 1
-36.889455 25.628508 3.420925 45.048363 -0.607186 1.494784 0.126638 -0.011522 -436500.000000 0 0 1
36.678542 24.697808 4.367825 44.433941 0.592621 1.472338 0.132621 -0.010821 123578.000000 0 0 1
35.155112 24.496708 4.242325 43.057728 0.608587 1.472110 0.143552 -0.021022 -273057.000000 0 0 1
34.666012 23.604708 3.283025 42.067718 0.597804 1.492675 0.108752 -0.020294 162629.000000 0 0 1
35.148282 22.264608 3.465425 41.750733 0.564651 1.487698 0.097023 -0.017656 -903901.000000 0 0 1
34.501902 21.224008 2.573925 40.588975 0.551488 1.507339 0.101758 -0.022675 -198073.000000 0 0 1
33.162582 20.895208 2.865725 39.301132 0.562247 1.497814 0.091642 -0.032414 145366.000000 0 0 1
32.836422 19.995908 3.928925 38.645872 0.546978 1.468956 0.067003 -0.016969 -133166.000000 0 0 1
33.203712 18.463208 3.651225 38.166844 0.507483 1.474985 0.068987 -0.023036 -106962.000000 0 0 1
32.465072 17.932508 2.554825 37.176375 0.504656 1.502020 0.057220 -0.031707 381951.000000 0 0 1
32.574772 16.525808 2.367825 36.603616 0.469486 1.506063 0.063351 -0.025737 -314051.000000 0 0 1
31.925242 15.539208 3.407325 35.669286 0.452981 1.475125 0.074311 -0.028122 242790.000000 0 0 1
30.512542 15.450408 3.292125 34.359401 0.468725 1.474835 0.060088 -0.025202 299714.000000 0 0 1
29.945952 14.612608 4.278525 33.594555 0.453974 1.443092 0.078087 -0.037382 -137894.000000 0 0 1
28.411392 14.595108 4.301825 32.229336 0.474552 1.436921 0.063762 -0.026328 -261774.000000 0 0 1
27.805492 14.135308 3.117425 31.347578 0.470316 1.471185 0.069167 -0.036664 849238.000000 0 0 1
26.440792 14.595708 3.096925 30.360190 0.504389 1.468612 0.051345 -0.023436 1141870.000000 0 0 1
25.612992 14.423508 1.758425 29.447496 0.512870 1.511047 0.064122 -0.027541 390989.000000 0 0 1
26.213992 15.067808 0.633425 30.242577 0.521684 1.549850 0.083909 -0.031614 455174.000000 0 0 1
27.305992 14.413908 0.020625 30.876826 0.485691 1.570128 0.090385 -0.029311 -507466.000000 0 0 1
27.893792 15.299508 -1.169175 31.835602 0.501684 1.607530 0.113349 -0.036096 80056.900000 0 0 1
28.322492 16.635708 -0.880475 32.858569 0.531079 1.597595 0.081210 -0.030482 53613.100000 0 0 1
29.462352 16.575608 -0.075375 33.805128 0.512468 1.573026 0.078096 -0.025498 -1324100.000000 0 0 1
30.159912 17.919208 0.000625 35.081595 0.536099 1.570778 0.093218 -0.019420 -353539.000000 0 0 1
30.909462 18.269708 -1.151575 35.923575 0.533829 1.602858 0.082028 -0.013867 -62432.400000 0 0 1
31.479132 19.527108 -0.988375 37.056991 0.555226 1.597471 0.072579 0.003117 -343011.000000 0 0 1
32.448452 19.841608 -2.111175 38.092631 0.548819 1.626247 0.073687 0.000866 -412065.000000 0 0 1
32.974832 21.144708 -2.185275 39.232814 0.570191 1.626525 0.017552 0.010205 547033.000000 0 0 1
32.105482 22.104408 -2.829875 39.081646 0.602962 1.643269 0.073190 -0.001157 344561.000000 0 0 1
32.813952 23.507208 -2.959175 40.473460 0.621634 1.643976 0.075092 -0.002615 163993.000000 0 0 1
32.988042 24.315508 -1.774075 41.019534 0.635194 1.614059 0.083613 0.001568 388077.000000 0 0 1
33.793792 23.754008 -0.740375 41.313696 0.612677 1.588718 0.092666 0.010879 -268579.000000 0 0 1
33.881832 24.681608 0.484525 41.921296 0.629573 1.559238 0.092980 -0.011735 -257664.000000 0 0 1
34.321182 25.980308 0.252925 43.046300 0.647951 1.564921 0.110972 -0.005323 848677.000000 0 0 1
35.657252 26.139808 0.782625 44.219246 0.632588 1.553097 0.115982 -0.008812 930901.000000 0 0 1
36.500692 27.267508 0.155925 45.561407 0.641605 1.567374 0.103447 -0.006692 -149501.000000 0 0 1
36.896582 27.082308 -1.187375 45.784485 0.633186 1.596733 0.099127 -0.013324 -151391.000000 0 0 1
35.950012 27.467208 -2.147975 45.293098 0.652426 1.618238 0.083271 -0.014265 -261701.000000 0 0 1
36.196942 26.929308 -3.567175 45.256281 0.639628 1.649700 0.091798 -0.011614 237943.000000 0 0 1
37.089672 27.814608 -4.261875 46.555985 0.643455 1.662468 0.088381 -0.008740 297210.000000 0 0 1
-36.738915 27.315008 -5.543075 46.114891 -0.639322 1.691289 0.080080 -0.008896 97755.900000 0 0 1
36.413122 27.526808 -6.695175 46.135301 0.647304 1.716431 0.068187 -0.002474 703017.000000 0 0 1
35.172122 26.849808 -6.466275 44.719158 0.652012 1.715902 0.077133 -0.000991 -169143.000000 0 0 1
34.249182 27.108508 -7.499575 44.318408 0.669542 1.740835 0.067669 -0.003876 -80245.400000 0 0 1
33.182592 25.984008 -7.289375 42.771346 0.664327 1.742059 0.072131 0.002294 -542755.000000 0 0 1
33.581552 24.626408 -7.426175 42.300457 0.632748 1.747269 0.064503 -0.006464 130828.000000 0 0 1
34.526702 24.058608 -6.510675 42.582845 0.608583 1.724293 0.073096 -0.006882 332539.000000 0 0 1
34.687102 22.521508 -6.684175 41.893813 0.575866 1.731032 0.072832 -0.003884 989513.000000 0 0 1
33.609352 21.751208 -6.064375 40.490496 0.574388 1.721135 0.076817 0.003253 967280.000000 0 0 1
33.764542 20.394808 -6.323875 39.949767 0.543378 1.729761 0.083841 -0.004594 77304.600000 0 0 1
32.693142 19.535008 -5.599075 38.494256 0.538599 1.716766 0.101571 -0.004092 -79291.800000 0 0 1
31.471592 19.587608 -6.276275 37.596903 0.556720 1.738518 0.093890 -0.009915 -569213.000000 0 0 1
30.501042 18.808008 -5.594275 36.267763 0.552561 1.725664 0.132708 -0.022707 953034.000000 0 0 1
29.213262 18.558508 -6.483375 35.211746 0.565955 1.755978 0.108878 -0.024990 896758.000000 0 0 1
29.408622 17.562908 -7.461875 35.057130 0.538360 1.785286 0.099625 -0.027953 9839.840000 0 0 1
28.257692 17.485208 -8.272475 34.244175 0.554112 1.814783 0.114428 -0.028664 9427.310000 0 0 1
28.395892 16.425508 -9.442775 34.136344 0.524421 1.851071 0.104476 -0.027477 -649609.000000 0 0 1
27.345692 16.261808 -10.333475 33.451666 0.536495 1.884841 0.100748 -0.021139 -442676.000000 0 0 1
27.524892 15.210408 -11.279275 33.409553 0.504841 1.915169 0.081805 -0.015034 -152824.000000 0 0 1
26.726592 15.402008 -12.590675 33.317528 0.522796 1.958323 0.089850 -0.014000 -167007.000000 0 0 1
25.331492 15.273408 -12.440175 32.089242 0.542580 1.968904 0.080582 -0.011212 315084.000000 0 0 1
24.537992 15.408608 -13.620575 32.016532 0.560717 2.010226 0.073440 -0.013469 -82645.000000 0 0 1
24.433192 14.103308 -14.516475 31.727153 0.523500 2.046024 0.065267 -0.013594 -770732.000000 0 0 1
25.674892 13.583708 -14.923975 32.656427 0.486629 2.045415 0.077509 -0.014784 -57669.100000 0 0 1
26.021492 14.162708 -16.155175 33.744481 0.498433 2.070027 0.089363 -0.018094 -34634.100000 0 0 1
27.435092 13.852708 -16.728875 34.991957 0.467581 2.069261 0.110910 -0.015011 412900.000000 0 0 1
27.485592 12.502408 -17.188575 34.745001 0.426898 2.088293 0.114064 -0.020834 448093.000000 0 0 1
28.819092 12.112308 -17.513975 35.832770 0.397872 2.081475 0.102661 -0.003405 611643.000000 0 0 1
28.878592 10.568408 -17.869775 35.566743 0.350822 2.097203 0.075949 0.001813 -218931.000000 0 0 1
28.157092 10.256408 -19.046075 35.507305 0.349319 2.136961 0.087070 -0.001682 104414.000000 0 0 1
28.551392 9.025608 -19.702375 35.844486 0.306178 2.152757 0.069885 0.003976 1895920.000000 0 0 1
30.037342 8.852608 -20.321875 37.330807 0.286606 2.146438 0.064968 0.002951 1374260.000000 0 0 1
30.381182 9.728908 -21.444575 38.438752 0.309910 2.162637 0.066654 -0.005121 332064.000000 0 0 1
30.984712 9.085308 -22.554875 39.386769 0.285224 2.180532 0.040282 -0.002141 -977256.000000 0 0 1
32.371212 8.491408 -22.433075 40.289480 0.256534 2.161321 0.036273 0.002926 -1507000.000000 0 0 1
33.347342 9.465208 -22.330075 41.234301 0.276563 2.143066 0.032090 0.004083 -646249.000000 0 0 1
34.645792 8.924708 -22.397175 42.209179 0.252117 2.130132 0.007046 0.010548 -280362.000000 0 0 1
35.732132 9.989908 -22.363475 43.320994 0.272617 2.113236 0.025517 0.004203 -456043.000000 0 0 1
35.767222 10.617208 -21.079475 42.852812 0.288557 2.085072 0.029413 0.002052 340795.000000 0 0 1
36.686752 11.701708 -21.034375 43.878157 0.308762 2.070746 0.011808 0.005471 72506.500000 0 0 1
36.567672 12.492708 -19.707675 43.378046 0.329201 2.042409 0.003108 0.000778 -82664.600000 0 0 1
36.856262 11.601308 -18.611175 42.887647 0.304953 2.019671 0.010730 0.003817 256092.000000 0 0 1
36.518542 12.140108 -17.401575 42.235068 0.320943 1.995463 0.022662 0.009201 -277692.000000 0 0 1
36.906622 11.200208 -16.208975 41.836279 0.294641 1.968647 0.017874 0.006879 89642.900000 0 0 1
36.067902 10.109508 -15.895475 40.691053 0.273279 1.972121 0.014346 0.007955 421062.000000 0 0 1
36.725432 9.423708 -14.860875 40.723571 0.251180 1.944344 0.019165 -0.007923 439176.000000 0 0 1
35.808582 8.228508 -14.453275 39.482402 0.225870 1.945577 0.073833 -0.013902 429197.000000 0 0 1
34.684282 8.528508 -13.639475 38.233103 0.241106 1.935578 0.084449 -0.018525 815947.000000 0 0 1
34.937432 8.177908 -12.356275 37.949702 0.229933 1.902438 0.084213 -0.017623 79060.400000 0 0 1
33.800772 8.808408 -11.502075 36.774692 0.254928 1.888906 0.096204 -0.014646 167376.000000 0 0 1
33.877902 10.234208 -11.495875 37.210300 0.293374 1.884878 0.091410 -0.023311 404637.000000 0 0 1
32.975462 10.774008 -10.525175 36.252443 0.315794 1.865368 0.073192 -0.010838 -276315.000000 0 0 1
33.283292 10.488108 -8.991075 36.036334 0.305267 1.822960 0.098050 -0.013865 378473.000000 0 0 1
34.447372 11.108508 -8.408775 37.158147 0.311949 1.799071 0.098709 -0.014674 745124.000000 0 0 1
34.434212 12.538908 -8.158175 37.543242 0.349217 1.789845 0.098276 -0.016080 -565504.000000 0 0 1
34.164282 12.949208 -6.698475 37.144982 0.362297 1.752122 0.090609 -0.017865 441109.000000 0 0 1
35.337422 12.751208 -5.886875 38.026070 0.346300 1.726233 0.111624 -0.015265 953328.000000 0 0 1
35.141972 13.171108 -4.593675 37.809233 0.358593 1.692593 0.105321 -0.011827 -619890.000000 0 0 1
36.430672 12.954108 -3.827575 38.854255 0.341639 1.669467 0.130374 -0.016397 -67973.700000 0 0 1
-36.803865 14.006308 -4.015975 39.583193 -0.363642 1.672428 0.131643 -0.008900 495507.000000 0 0 1
-35.653824 13.895308 -3.190675 38.398634 -0.371620 1.653986 0.138799 -0.015531 562601.000000 0 0 1
-34.869466 15.220708 -2.922375 38.158746 -0.411575 1.647456 0.127758 -0.015752 -36191.000000 0 0 1
-35.525240 16.140008 -2.108575 39.076701 -0.426445 1.624782 0.138894 -0.014224 -168253.000000 0 0 1
-34.659184 17.123708 -1.612075 38.692107 -0.458884 1.612473 0.159262 -0.018279 -18438.500000 0 0 1
-35.377762 18.195208 -0.751475 39.789651 -0.475032 1.589684 0.140324 -0.009027 187855.000000 0 0 1
-36.324725 18.972108 -1.444375 41.006252 -0.481322 1.606027 0.114107 -0.001129 312682.000000 0 0 1
36.999892 19.786408 -0.674075 41.963655 0.491075 1.586860 0.104887 -0.000354 117139.000000 0 0 1
36.371082 20.903908 -1.509075 41.977450 0.521639 1.606754 0.086321 -0.004282 -171910.000000 0 0 1
-36.927505 21.917908 -1.905775 42.984500 -0.535655 1.615147 0.093339 0.003280 155614.000000 0 0 1
36.799512 22.400608 -3.152575 43.196413 0.546807 1.643844 0.072932 0.000323 502813.000000 0 0 1
-36.388165 23.535308 -3.603075 43.485531 -0.574112 1.653748 0.081245 -0.007752 -3155.730000 0 0 1
-35.189415 23.032208 -4.100775 42.256288 -0.579547 1.667995 0.090080 -0.013206 -792295.000000 0 0 1
-34.355514 24.093908 -4.482575 42.200844 -0.611605 1.677217 0.099881 -0.011964 -163464.000000 0 0 1
-32.972435 23.615308 -4.952075 40.858136 -0.621525 1.692297 0.098015 -0.019558 -170719.000000 0 0 1
-32.869465 23.099108 -6.248075 40.657213 -0.612571 1.725085 0.085080 -0.013872 -1134570.000000 0 0 1
-31.579025 22.696708 -6.539275 39.435231 -0.623184 1.737389 0.074659 -0.007370 -1018770.000000 0 0 1
-31.388365 21.924608 -7.844475 39.082652 -0.609715 1.772884 0.060061 -0.015611 -115432.000000 0 0 1
-31.692215 22.712008 -8.933075 40.000395 -0.621809 1.796020 0.065570 -0.023917 -220370.000000 0 0 1
-31.285245 22.104808 -10.064375 39.606574 -0.615113 1.827722 0.025839 -0.018779 53821.000000 0 0 1
-32.359385 22.073608 -11.202375 40.741467 -0.598638 1.849347 0.029836 -0.015894 164091.000000 0 0 1
-32.820285 23.350108 -11.581275 41.910912 -0.618372 1.850770 0.040353 -0.017248 -181881.000000 0 0 1
-33.668395 23.232508 -12.697375 42.831455 -0.604009 1.871769 0.031964 -0.017977 -511711.000000 0 0 1
-34.127445 24.650808 -13.158575 44.107742 -0.625547 1.873737 0.052232 -0.022218 796136.000000 0 0 1
-33.079675 25.651008 -13.233575 43.901783 -0.659579 1.876995 0.040360 -0.020561 502392.000000 0 0 1
-32.076105 25.514308 -14.226475 43.384894 -0.671948 1.904890 0.035857 -0.016276 -469802.000000 0 0 1
-30.832985 26.338908 -13.932775 42.878121 -0.706953 1.901744 0.043724 -0.017703 -394336.000000 0 0 1
-29.944855 25.834808 -12.930875 41.609364 -0.711847 1.886798 0.045961 -0.018419 421214.000000 0 0 1
-30.430045 25.776308 -11.589875 41.529879 -0.702789 1.853625 0.051057 -0.019101 -532055.000000 0 0 1
-30.691505 27.021408 -10.754675 42.282242 -0.721891 1.827976 0.054321 -0.006770 -513723.000000 0 0 1
-29.515515 27.629808 -10.319775 41.726127 -0.752412 1.820711 0.066371 -0.004146 -325274.000000 0 0 1
-29.812935 28.707308 -9.486275 42.460688 -0.766507 1.796111 0.048831 -0.009285 379136.000000 0 0 1
-28.475445 29.437308 -9.200375 41.976814 -0.802005 1.791768 0.074531 -0.014771 416930.000000 0 0 1
-28.523235 30.733908 -8.680875 42.819454 -0.822687 1.774943 0.071540 -0.032850 -1015710.000000 0 0 1
-27.264105 31.260008 -8.474275 42.335952 -0.853570 1.772325 0.111584 -0.029171 -1091840.000000 0 0 1
34.901622 -25.125952 33.388151 54.444515 -0.623962 0.910627 0.034725 -0.001930 69658.700000 0 0 1
34.544102 -23.753092 33.648153 53.755953 -0.602366 0.894456 0.029237 -0.009077 -360907.000000 0 0 1
33.406712 -23.652392 -33.494485 52.889739 -0.616084 2.256592 0.016374 -0.001987 -348891.000000 0 0 1
33.006322 -22.207792 -33.131475 51.771594 -0.592260 2.265236 0.010482 -0.005534 155891.000000 0 0 1
32.562232 -21.399892 33.713574 51.525327 -0.581420 0.857526 0.016730 -0.002014 61024.600000 0 0 1
32.253662 -20.099092 -33.790695 50.853547 -0.557273 2.297582 0.016089 0.000523 219995.000000 0 0 1
32.055732 -19.127992 32.945704 49.788246 -0.537997 0.847690 0.019103 -0.007287 1170590.000000 0 0 1
33.317062 -19.082992 32.230365 50.129668 -0.520156 0.872466 0.039832 -0.016990 1239640.000000 0 0 1
33.055002 -18.657092 30.893133 48.939819 -0.513851 0.887636 0.045399 -0.013876 -163408.000000 0 0 1
34.278402 -18.665992 29.954303 49.200491 -0.498642 0.916223 0.036935 -0.011439 95280.600000 0 0 1
35.137102 -17.561492 30.281743 49.598446 -0.463487 0.914056 0.026319 -0.014250 301411.000000 0 0 1
36.315152 -17.569892 29.518543 49.988356 -0.450618 0.939108 0.047152 -0.022995 510018.000000 0 0 1
-36.875395 -16.340892 29.779713 50.136322 0.417133 0.934806 0.044603 -0.026777 1214060.000000 0 0 1
-35.482551 -16.623792 29.640873 49.131896 0.438137 0.923174 0.043145 -0.019978 444968.000000 0 0 1
-34.726153 -15.511692 30.009733 48.446902 0.420095 0.902773 0.041887 -0.022483 -508521.000000 0 0 1
-33.283775 -15.910492 30.308583 47.744775 0.445914 0.883041 0.064423 -0.028732 -202071.000000 0 0 1
-32.426775 -14.849892 30.754823 47.094311 0.429447 0.859195 0.059232 -0.024235 545100.000000 0 0 1
-31.129965 -15.375592 31.021693 46.559950 0.458769 0.841595 0.059245 -0.027755 593808.000000 0 0 1
-30.204925 -14.429292 31.846043 46.202947 0.445660 0.810323 0.048649 -0.026745 241910.000000 0 0 1
-30.821375 -14.058792 33.059853 47.334560 0.427946 0.797596 0.060519 -0.026640 609649.000000 0 0 1
-30.150695 -12.874592 33.489953 46.865728 0.403570 0.774753 0.051044 -0.020246 160797.000000 0 0 1
-30.641565 -12.407992 -33.062955 46.754922 0.384758 2.356262 0.039356 -0.012847 -260943.000000 0 0 1
-30.223675 -13.272792 -32.022145 45.989730 0.413796 2.341011 0.057625 -0.013669 367944.000000 0 0 1
-30.164265 -12.742492 -30.711155 44.893529 0.399697 2.324150 0.058766 -0.005905 -446856.000000 0 0 1
-30.145605 -13.829792 -29.622045 44.468935 0.430120 2.299803 0.066233 -0.008313 422096.000000 0 0 1
-31.378615 -14.559392 -29.452295 45.431608 0.434428 2.276116 0.072967 -0.007998 693409.000000 0 0 1
-31.499005 -15.339592 -28.269345 45.018287 0.453183 2.249716 0.093717 -0.013670 645989.000000 0 0 1
-32.867395 -16.096292 -28.266765 46.242472 0.455401 2.228464 0.080413 -0.013349 442544.000000 0 0 1
-32.858295 -17.313092 -29.071815 47.165465 0.484937 2.234933 0.092477 -0.011685 -436138.000000 0 0 1
-34.078515 -17.956392 -29.081675 48.265111 0.484945 2.217477 0.081144 -0.011068 -1088130.000000 0 0 1
-33.943755 -19.325392 -29.748905 49.098336 0.517567 2.221699 0.088591 -0.019685 -143190.000000 0 0 1
-35.108094 -20.118492 -29.847025 50.280979 0.520363 2.206327 0.061862 -0.012738 -68710.900000 0 0 1
-34.876060 -21.329292 -30.498055 51.004015 0.548886 2.211742 0.061147 -0.024562 -716303.000000 0 0 1
-36.144835 -22.015192 -30.940075 52.425242 0.547071 2.202072 0.062395 -0.017110 -471963.000000 0 0 1
-36.955605 -22.536792 -29.892555 52.604073 0.547619 2.175181 0.045940 -0.013352 202358.000000 0 0 1
36.161882 -23.387292 -30.264105 52.636139 -0.574079 2.183362 0.043907 -0.008125 57604.800000 0 0 1
36.578892 -24.868192 -30.647775 53.811973 -0.597075 2.176736 0.040616 -0.007560 14605.100000 0 0 1
-36.832345 -24.821592 -31.873975 54.668851 0.592999 2.193258 0.048977 -0.007543 -87162.300000 0 0 1
-35.995891 -25.964542 -31.804415 54.602036 0.624892 2.192569 0.041955 -0.008528 -85003.900000 0 0 1
-36.319255 -27.169272 -32.802615 55.975612 0.642263 2.196930 0.045812 -0.008200 99071.700000 0 0 1
36.570152 -27.723352 -32.660895 56.326675 -0.648657 2.189338 0.045833 -0.010486 -245454.000000 0 0 1
36.363912 -28.878982 -33.453715 57.231815 -0.671173 2.195097 0.044777 -0.015530 -144819.000000 0 0 1
36.974212 -30.221032 -33.030055 58.063651 -0.685234 2.175915 0.047806 -0.014639 -138140.000000 0 0 1
36.577402 -30.668962 -31.779735 57.344948 -0.697761 2.158180 0.052883 -0.018885 -101174.000000 0 0 1
-36.751755 -31.687712 -31.305355 57.747968 0.711540 2.143734 0.049026 -0.017382 -106112.000000 0 0 1
36.985382 -32.189522 -29.925665 57.442399 -0.716179 2.118781 0.043507 -0.019714 209883.000000 0 0 1
35.941492 -33.157062 -29.886035 57.309307 -0.745123 2.119389 0.052458 -0.012803 327071.000000 0 0 1
35.486922 -33.356632 -28.553765 56.456213 -0.754464 2.101069 0.054036 -0.014722 63218.500000 0 0 1
34.293252 33.758061 -28.529205 55.942375 0.777534 2.105952 0.059780 -0.024798 203148.000000 0 0 1
33.073202 -33.768922 -28.976345 55.441909 -0.795806 2.120745 0.070263 -0.016597 -238953.000000 0 0 1
32.063602 33.374014 -28.775785 54.497203 0.805421 2.127067 0.066390 -0.026120 1274360.000000 0 0 1
30.660902 33.752034 -29.442495 54.278460 0.833351 2.144128 0.036419 -0.012385 1321140.000000 0 0 1
30.685202 33.271935 -30.764315 54.727017 0.825821 2.167769 0.032128 -0.002983 30600.000000 0 0 1
29.569222 33.778401 -31.476295 54.827697 0.851746 2.182294 0.025316 -0.003025 64030.400000 0 0 1
29.463432 33.290757 -32.894065 55.302693 0.846312 2.207814 0.017459 -0.007088 -217715.000000 0 0 1
29.025792 31.999341 -32.999225 54.363621 0.834086 2.223088 0.014419 0.003242 -85923.800000 0 0 1
29.056192 31.577821 33.540469 54.464522 0.826962 0.907367 0.017382 -0.001984 24344.000000 0 0 1
28.915192 30.053471 33.428336 53.448602 0.804699 0.895114 0.020640 -0.002276 -116629.000000 0 0 1
30.065852 29.409221 33.942763 54.045989 0.774358 0.891771 0.034546 -0.001251 37169.800000 0 0 1
29.720732 28.071621 -33.818465 53.056822 0.756871 2.261917 0.030916 0.001194 902822.000000 0 0 1
31.012732 27.312201 -33.392395 53.130009 0.722036 2.250424 0.053148 -0.011330 485462.000000 0 0 1
31.639892 27.750391 -32.212125 52.998000 0.720001 2.224082 0.070648 -0.016753 -513501.000000 0 0 1
32.724212 26.857611 -32.045655 53.095474 0.687252 2.218740 0.069457 -0.014634 518680.000000 0 0 1
33.597542 27.187581 -30.774975 53.057125 0.680334 2.189568 0.091482 -0.024962 823042.000000 0 0 1
34.515682 28.298351 -30.650215 54.143925 0.686740 2.172549 0.076831 -0.016311 367619.000000 0 0 1
33.947062 29.544581 -30.498315 54.363890 0.716169 2.166393 0.078689 -0.015662 -177078.000000 0 0 1
33.057812 29.863271 -29.274245 53.306804 0.734671 2.152161 0.076665 -0.010858 529174.000000 0 0 1
33.773162 29.806041 -28.020385 53.048737 0.723082 2.127277 0.085573 -0.021247 66706.300000 0 0 1
32.911372 30.227201 -26.993015 52.205986 0.742911 2.114195 0.085578 -0.019294 -390518.000000 0 0 1
33.570742 30.568351 -25.634575 52.139718 0.738622 2.084782 0.086789 -0.025670 -194137.000000 0 0 1
34.221322 31.797471 -25.776715 53.353698 0.748700 2.075021 0.073433 -0.027466 -72491.200000 0 0 1
34.616972 32.347683 -24.517175 53.346033 0.751523 2.048327 0.059624 -0.040188 170206.000000 0 0 1
34.817062 33.900103 -24.613075 54.472454 0.772055 2.039628 0.061764 -0.036595 674198.000000 0 0 1
33.501582 -33.646672 -24.741275 53.540500 -0.787559 2.051162 0.071527 -0.031701 840670.000000 0 0 1
33.428552 -32.223352 -24.641475 52.564387 -0.767043 2.058713 0.061839 -0.029236 -523679.000000 0 0 1
33.987892 -31.320222 -25.832615 52.947682 -0.744573 2.080467 0.055448 -0.023423 792163.000000 0 0 1
35.360702 -31.376242 -26.224345 54.060744 -0.725765 2.077263 0.065257 -0.030001 638177.000000 0 0 1
36.284272 -30.722512 -25.344305 53.877221 -0.702585 2.060550 0.062746 -0.027234 -378805.000000 0 0 1
-36.470425 -31.080802 -25.770345 54.407892 0.705781 2.064228 0.041795 -0.027316 -524122.000000 0 0 1
-35.922332 -32.384912 -25.530385 54.690008 0.733657 2.056488 0.043461 -0.033718 65297.400000 0 0 1
-35.850122 -32.862772 -24.149775 54.299214 0.741950 2.031696 0.047397 -0.028885 -654425.000000 0 0 1
-34.607686 -32.383212 -23.402175 52.858548 0.752205 2.029440 0.031512 -0.022692 -352761.000000 0 0 1
-34.653652 -30.979122 -23.196075 51.948430 0.729470 2.033670 0.003869 -0.018645 -205412.000000 0 0 1
-34.127737 -30.461612 -21.997075 50.759073 0.728698 2.019017 0.030976 -0.019456 -362913.000000 0 0 1
-33.917715 -28.928942 -22.049675 49.734125 0.706184 2.030130 0.033538 -0.013764 758451.000000 0 0 1
-35.109032 -28.152702 -22.327775 50.236921 0.675877 2.031356 0.025005 -0.017251 594697.000000 0 0 1
-35.363625 -27.942292 -23.706675 50.925083 0.668701 2.055019 0.029334 -0.020952 722623.000000 0 0 1
-36.651635 -27.093522 -24.069575 51.543629 0.636564 2.056663 0.029885 -0.016987 958739.000000 0 0 1
-36.470755 -25.769672 -23.664575 50.539133 0.615131 2.058097 0.024952 -0.014462 -54691.500000 0 0 1
36.714262 -24.968992 -24.256775 50.594256 -0.597238 2.070810 0.042399 -0.015152 -224390.000000 0 0 1
37.088112 -24.420392 -25.584645 51.248977 -0.582287 2.093498 0.044659 -0.017297 -1101640.000000 0 0 1
-36.039556 -23.558892 -25.428865 50.004981 0.578969 2.104269 0.040263 -0.024082 -998842.000000 0 0 1
-35.829455 -22.786292 -26.589095 50.099350 0.566446 2.130255 0.052467 -0.028172 878683.000000 0 0 1
-34.535282 -21.860192 -26.635225 48.785129 0.564318 2.148343 0.053032 -0.034877 564351.000000 0 0 1
-34.472393 -20.666592 -25.874575 47.801124 0.540060 2.142774 0.068610 -0.027694 -120618.000000 0 0 1
-35.401245 -19.615092 -26.084945 48.150018 0.505970 2.143306 0.071494 -0.027489 282790.000000 0 0 1
-36.564215 -19.668392 -25.030355 48.479955 0.493517 2.113325 0.069401 -0.031072 376645.000000 0 0 1
-36.217905 -19.263692 -23.668175 47.360415 0.488828 2.094102 0.069291 -0.034955 -25808.700000 0 0 1
-35.652984 -20.288892 -22.819575 46.941531 0.517363 2.078449 0.052586 -0.029932 77039.800000 0 0 1
-36.568435 -21.489792 -22.485075 48.006668 0.531296 2.058246 0.056850 -0.013904 291918.000000 0 0 1
36.552162 -21.076192 -21.635875 47.417059 -0.523040 2.044616 0.053392 -0.013363 -131338.000000 0 0 1
35.794202 -22.141892 -21.162475 47.109857 -0.553976 2.036683 0.047220 -0.002579 -361485.000000 0 0 1
34.744042 -21.813592 -20.088075 45.678354 -0.560637 2.026141 0.054330 -0.010488 -465700.000000 0 0 1
33.624972 -21.177292 -20.617275 44.768163 -0.562050 2.049393 0.074814 -0.007025 -560865.000000 0 0 1
32.528942 -21.368892 -19.717475 43.629582 -0.581224 2.039723 0.069045 -0.010576 -26501.000000 0 0 1
31.219582 -20.859192 -20.308175 42.687119 -0.589025 2.066607 0.057741 -0.011736 -732392.000000 0 0 1
30.677992 -21.547092 -21.484375 43.208734 -0.612310 2.091191 0.057752 -0.007083 151952.000000 0 0 1
29.540802 -20.977992 -22.074075 42.426406 -0.617496 2.117988 0.072102 -0.011843 -92563.900000 0 0 1
29.728832 -19.536392 -22.650875 42.172695 -0.581387 2.137789 0.064530 -0.023372 -626952.000000 0 0 1
29.825992 -18.427292 -21.771975 41.269526 -0.553424 2.126517 0.068749 -0.012789 -105226.000000 0 0 1
30.068672 -17.240892 -22.492775 41.319466 -0.520619 2.146425 0.048028 -0.017045 -118086.000000 0 0 1
30.835692 -16.230692 -21.580075 40.987497 -0.484513 2.125279 0.050325 -0.027236 -556567.000000 0 0 1
30.232322 -15.963092 -20.300975 39.761076 -0.485807 2.106649 0.037327 -0.020453 500534.000000 0 0 1
31.120922 -15.739592 -19.178675 39.800353 -0.468242 2.073586 0.023712 -0.011898 371723.000000 0 0 1
32.198792 -16.808792 -18.837175 40.916217 -0.481117 2.049224 0.044160 -0.020491 -17859.400000 0 0 1
33.217612 -16.892792 -19.806575 42.202803 -0.470464 2.059316 0.045094 -0.026396 -138648.000000 0 0 1
34.170172 -17.886792 -19.434875 43.188567 -0.482241 2.037562 0.048725 -0.025715 -507445.000000 0 0 1
35.283622 -18.015692 -20.428975 44.574007 -0.472089 2.046896 0.054485 -0.027079 -521500.000000 0 0 1
36.134642 -16.876892 -20.450975 44.819462 -0.436947 2.044625 0.057220 -0.023773 799499.000000 0 0 1
-37.008235 -16.963092 -21.455175 46.018262 0.429784 2.055823 0.065154 -0.015591 538584.000000 0 0 1
-36.094695 -15.757392 -21.566475 44.902508 0.411619 2.071788 0.070571 -0.022054 -181224.000000 0 0 1
-35.062774 -15.659192 -20.601275 43.577757 0.420027 2.063202 0.084903 -0.022147 232118.000000 0 0 1
-34.240470 -14.528192 -20.838475 42.634729 0.401277 2.081473 0.091414 -0.020027 330188.000000 0 0 1
-32.958445 -14.408692 -19.957875 41.136191 0.412140 2.077349 0.089643 -0.021056 691213.000000 0 0 1
-31.873855 -15.314092 -20.108375 40.679365 0.447893 2.087842 0.105125 -0.027548 567864.000000 0 0 1
-32.174225 -16.628692 -19.633675 41.196787 0.477023 2.067560 0.086061 -0.022388 -878393.000000 0 0 1
-30.990245 -17.567092 -19.719875 40.716967 0.515694 2.076377 0.084504 -0.025432 -572623.000000 0 0 1
-31.304175 -18.825992 -19.248675 41.290202 0.541440 2.055764 0.086407 -0.024053 31228.300000 0 0 1
-30.251985 -19.753392 -19.357475 40.988912 0.578455 2.062651 0.092859 -0.027017 -239752.000000 0 0 1
-30.760575 -21.185892 -19.140775 41.969325 0.603126 2.044366 0.073724 -0.003756 -151258.000000 0 0 1
-31.520585 -21.749392 -20.209975 43.301575 0.603987 2.056382 0.069332 -0.011101 337570.000000 0 0 1
-31.923775 -23.083692 -19.883375 44.128594 0.626054 2.038209 0.056325 0.003929 65019.300000 0 0 1
-32.989795 -23.603092 -20.889775 45.626913 0.621031 2.046359 0.032434 -0.004128 74064.000000 0 0 1
-32.462755 -23.867092 -22.174475 45.991041 0.633971 2.073901 0.034797 -0.019769 154348.000000 0 0 1
-33.392655 -24.607492 -22.958375 47.409756 0.635073 2.076307 0.031495 -0.020881 41404.800000 0 0 1
-33.048575 -24.773892 -24.426275 47.985382 0.643258 2.104860 0.034897 -0.021122 -167632.000000 0 0 1
-31.792795 -25.384672 -24.603575 47.544708 0.673790 2.114703 0.045985 -0.027217 -244297.000000 0 0 1
-31.529705 -25.784312 -25.955125 48.297220 0.685488 2.138152 0.049988 -0.028888 -907048.000000 0 0 1
-30.079345 -26.085502 -26.255885 47.692681 0.714408 2.153786 0.058812 -0.025572 -795210.000000 0 0 1
-29.295165 -24.894792 -26.263935 46.559119 0.704373 2.170138 0.079282 -0.039397 427764.000000 0 0 1
-27.908605 -25.252902 -26.294825 45.913147 0.735484 2.180602 0.073939 -0.034287 385766.000000 0 0 1
-26.974665 -24.077792 -26.435275 44.790583 0.728716 2.202099 0.088654 -0.036540 -394820.000000 0 0 1
-26.949415 -23.432292 -27.727055 45.212087 0.715702 2.230986 0.109597 -0.042285 -33754.900000 0 0 1
-26.195645 -22.230892 -27.667285 44.112390 0.703709 2.248749 0.118389 -0.049839 199412.000000 0 0 1
-25.880725 -21.659292 -29.107865 44.566855 0.696833 2.282504 0.112705 -0.044321 325521.000000 0 0 1
-24.929735 -22.385992 -29.874455 44.889947 0.731689 2.298966 0.113993 -0.031596 225756.000000 0 0 1
-24.854235 -21.836692 -31.224215 45.492040 0.720860 2.327277 0.116247 -0.032452 218003.000000 0 0 1
-24.211535 -22.813292 -32.276625 46.351108 0.755673 2.341096 0.118108 -0.044082 47956.700000 0 0 1
-25.017935 -23.931492 -32.406235 47.421276 0.763207 2.323164 0.109611 -0.036418 -47279.500000 0 0 1
-24.368335 -24.972992 -33.116565 48.105851 0.797652 2.330091 0.102711 -0.013901 198428.000000 0 0 1
-20.005335 -13.937492 -11.921375 27.140123 0.608500 2.025563 0.066390 0.020098 58113.700000 0 0 1
-20.046735 -13.488992 -10.556475 26.367852 0.592290 1.982699 0.085286 0.009824 -480215.000000 0 0 1
-19.089435 -14.181292 -9.816475 25.727004 0.638933 1.962283 0.051063 -0.008097 -157364.000000 0 0 1
-19.098335 -13.948792 -8.256575 25.049675 0.630817 1.906685 0.091436 -0.025307 -502289.000000 0 0 1
-20.233235 -14.602592 -7.764275 26.132421 0.625150 1.872464 0.162264 -0.033855 -70357.900000 0 0 1
-20.612435 -14.004092 -6.503775 25.754342 0.596766 1.826092 0.106968 -0.039945 400585.000000 0 0 1
-21.938235 -14.578792 -5.907375 26.994895 0.586528 1.791415 0.176175 -0.046043 206164.000000 0 0 1
-21.952435 -15.955892 -5.437075 27.677819 0.628513 1.768524 0.147987 -0.045127 239961.000000 0 0 1
-21.669935 -15.961292 -4.037775 27.214932 0.634846 1.719712 0.162780 -0.044412 -174793.000000 0 0 1
-21.616435 -17.355192 -3.335075 27.921240 0.676489 1.690528 0.128367 -0.039845 567327.000000 0 0 1
-22.850135 -17.993892 -2.976375 29.236409 0.667056 1.672777 0.138994 -0.041623 705900.000000 0 0 1
-22.528135 -19.177592 -2.299675 29.674659 0.705233 1.648370 0.113777 -0.030641 185507.000000 0 0 1
-23.783135 -19.992392 -1.902275 31.127992 0.699019 1.631946 0.118382 -0.039556 -7703.470000 0 0 1
-24.458835 -20.573292 -2.956775 32.097312 0.699328 1.663046 0.080959 -0.035889 134222.000000 0 0 1
-25.455775 -21.520692 -2.567075 33.432417 0.701826 1.647656 0.082438 -0.032911 319973.000000 0 0 1
-25.528475 -22.696492 -3.614175 34.349614 0.726741 1.676209 0.076670 -0.033993 -146640.000000 0 0 1
-24.371635 -23.494492 -3.628275 34.046029 0.767075 1.677569 0.070356 -0.029713 -299421.000000 0 0 1
-24.256135 -24.256392 -4.793675 34.636858 0.785403 1.709640 0.077144 -0.024363 219973.000000 0 0 1
-22.821435 -24.157292 -5.393575 33.667243 0.813826 1.731692 0.080287 -0.019942 526298.000000 0 0 1
-22.369335 -22.944692 -6.052875 32.611092 0.798095 1.757487 0.072482 -0.015913 189374.000000 0 0 1
-22.061535 -21.903492 -5.202775 31.520519 0.781803 1.736615 0.074973 -0.014935 -496180.000000 0 0 1
-22.090835 -20.518592 -5.919975 30.725619 0.748516 1.764681 0.101971 -0.007346 -154816.000000 0 0 1
-20.922235 -20.259892 -6.662175 29.876206 0.769316 1.795680 0.072338 0.003886 -38580.400000 0 0 1
-20.848235 -18.990792 -7.238975 29.115319 0.738808 1.822063 0.059615 0.004829 40956.900000 0 0 1
-19.566835 -18.645792 -8.035775 28.197522 0.761300 1.859784 0.052621 0.005328 -218770.000000 0 0 1
-19.409535 -19.410192 -9.225775 28.958600 0.785415 1.895033 0.044508 0.005306 -96202.000000 0 0 1
-18.148535 -19.398492 -9.855175 28.333642 0.818676 1.926048 0.080252 0.010332 -329582.000000 0 0 1
-17.632435 -18.078992 -10.467475 27.337167 0.797902 1.963733 0.074566 0.011412 132890.000000 0 0 1
-16.940435 -17.105992 -9.640975 25.933408 0.790261 1.951699 0.069646 -0.005067 524317.000000 0 0 1
-15.636035 -17.480692 -9.241375 25.208395 0.841042 1.946147 0.066685 -0.003660 -388811.000000 0 0 1
-14.822035 -16.448092 -8.455975 23.700969 0.837352 1.935613 0.030336 -0.001253 -196163.000000 0 1 0
-15.098235 -16.210292 -7.103675 23.263543 0.820903 1.881109 -0.016055 -0.009905 -837689.000000 0 1 0
-16.196135 -15.418592 -6.827975 23.380953 0.760809 1.867147 0.044426 -0.003651 -954639.000000 0 1 0
-16.720135 -15.485592 -5.407475 23.422366 0.747084 1.803766 0.035411 -0.019612 -565597.000000 0 1 0
-17.373735 -14.348392 -5.011175 23.083216 0.690316 1.789630 0.053788 -0.013416 -73125.800000 0 1 0
-17.565435 -14.459692 -3.557775 23.027916 0.688722 1.725916 0.034097 -0.013969 -102320.000000 0 1 0
-18.301535 -13.245392 -2.958375 22.784612 0.626476 1.701005 0.048771 -0.015414 -538682.000000 0 1 0
-19.689135 -13.376692 -2.950175 23.985442 0.596763 1.694107 0.101666 -0.032819 -409350.000000 0 1 0
-20.281835 -12.346292 -2.198275 23.845673 0.546819 1.663115 0.110448 -0.027012 -758915.000000 0 1 0
-21.808935 -12.302692 -2.315175 25.146489 0.513614 1.662994 0.130747 -0.026653 -407059.000000 0 0 1
-22.343835 -11.928192 -3.578675 25.579985 0.490357 1.711158 0.142101 -0.029690 -427703.000000 0 0 1
-23.727735 -12.032392 -3.567975 26.842397 0.469313 1.704114 0.146480 -0.026997 -573616.000000 0 0 1
-24.445535 -11.279392 -4.732475 27.335054 0.432301 1.744801 0.159736 -0.037518 -23305.700000 0 0 1
-24.161435 -11.859492 -5.956775 27.566386 0.456296 1.788603 0.177709 -0.043784 274293.000000 0 0 1
-24.886835 -11.298192 -7.041975 28.223981 0.426161 1.822964 0.182421 -0.042767 -228395.000000 0 0 1
-24.321635 -11.626092 -8.422175 28.242538 0.445905 1.873612 0.196522 -0.044192 -62298.100000 0 0 1
-23.229435 -10.730392 -8.632875 27.005082 0.432731 1.896184 0.176235 -0.041562 272678.000000 0 0 1
-22.402335 -11.309192 -9.650975 26.886869 0.467498 1.937936 0.136441 -0.032709 78167.200000 0 0 1
-20.998935 -10.668092 -9.736675 25.486590 0.470051 1.962790 0.110771 -0.031705 -180260.000000 0 0 1
-20.943035 -9.328692 -10.257875 25.116910 0.419048 1.991502 0.101140 -0.032393 752490.000000 0 0 1
-19.652835 -8.772492 -9.979375 23.722952 0.419833 2.004973 0.097827 -0.025858 418884.000000 0 1 0
-19.459835 -7.270792 -10.416475 23.239030 0.357570 2.035583 0.089501 -0.032920 -118930.000000 0 1 0
-19.323435 -7.346692 -11.833275 23.820063 0.363318 2.090678 0.109781 -0.027577 335569.000000 0 1 0
-19.138935 -6.088592 -12.449675 23.629731 0.308002 2.125704 0.113953 -0.041034 -306121.000000 0 1 0
-18.480135 -6.120392 -13.837075 23.883869 0.319818 2.188725 0.114864 -0.028944 -549952.000000 0 1 0
-19.273235 -6.557392 -14.899675 25.228105 0.327947 2.202596 0.126481 -0.035848 18926.500000 0 0 1
-18.674635 -6.580492 -16.198175 25.581746 0.338790 2.256468 0.137523 -0.037488 35125.600000 0 0 1
-19.519035 -7.445092 -17.175875 27.045014 0.364394 2.258915 0.114289 -0.031308 -397143.000000 0 0 1
-20.795335 -6.962592 -17.466175 28.035529 0.323084 2.243370 0.113447 -0.034355 -316663.000000 0 0 1
-21.322335 -7.695592 -18.542275 29.286175 0.346367 2.256401 0.125414 -0.032146 -658414.000000 0 0 1
-22.735635 -7.194992 -18.848775 30.396600 0.306491 2.239660 0.119017 -0.032610 -934272.000000 0 0 1
-22.791435 -5.867192 -19.443475 30.527400 0.251959 2.261291 0.118178 -0.039696 994844.000000 0 0 1
-23.880335 -5.757692 -20.397375 31.929207 0.236590 2.263774 0.106150 -0.033055 2201410.000000 0 0 1
-25.334865 -5.521192 -19.774375 32.609275 0.214574 2.222326 0.145294 -0.031143 994335.000000 0 0 1
-25.466455 -4.180492 -19.316875 32.235981 0.162706 2.213339 0.143775 -0.033939 504951.000000 0 0 1
-26.715235 -4.113692 -18.626975 32.826672 0.152783 2.174183 0.160322 -0.030016 -26751.100000 0 0 1
-26.950115 -2.703392 -18.051475 32.549543 0.099977 2.158660 0.154000 -0.032023 -72243.300000 0 0 1
-27.258195 -1.691492 -18.967575 33.251153 0.061975 2.177830 0.149998 -0.028854 138580.000000 0 0 1
-28.607905 -1.751792 -19.389475 34.603941 0.061158 2.165575 0.162565 -0.024722 -9482.400000 0 0 1
-29.054225 -0.525392 -20.263175 35.426265 0.018081 2.179716 0.150454 -0.020848 -86354.500000 0 0 1
-28.438315 -0.376992 -21.517575 35.663509 0.013256 2.218491 0.140474 -0.022437 -206886.000000 0 0 1
-28.786985 -1.402292 -22.412375 36.509881 0.048674 2.231752 0.142138 -0.017349 -26199.800000 0 0 1
-28.032365 -1.429892 -23.773675 36.783769 0.050964 2.273534 0.135028 -0.017266 -206441.000000 0 0 1
-28.224475 -0.362892 -24.699175 37.507358 0.012857 2.289641 0.128915 -0.013299 307531.000000 0 0 1
-27.723225 0.991308 -24.346975 36.909823 -0.035742 2.291128 0.114129 -0.004961 623713.000000 0 0 1
-26.257975 1.223608 -23.848575 35.492717 -0.046566 2.307606 0.107745 -0.014096 705556.000000 0 0 1
-25.262995 0.739108 -24.727075 35.358074 -0.029248 2.345261 0.092333 -0.013707 -283689.000000 0 0 1
-23.938535 0.858908 -24.283375 34.109727 -0.035864 2.363024 0.096570 -0.019027 -119352.000000 0 0 1
-22.957635 0.331508 -25.341355 34.195718 -0.014439 2.405456 0.094072 -0.013513 -366343.000000 0 0 1
-22.904335 1.084408 -26.547095 35.078950 -0.047310 2.429171 0.060804 -0.011072 564663.000000 0 0 1
-22.088535 0.436308 -27.560855 35.322718 -0.019750 2.465875 0.046880 -0.009148 348937.000000 0 0 1
-21.907235 1.266008 -28.902255 36.288704 -0.057725 2.492203 0.048498 -0.007912 223432.000000 0 0 1
-20.904335 2.318708 -28.838365 35.693401 -0.110468 2.511455 0.052895 -0.005555 970758.000000 0 0 1
-20.813535 2.992708 -30.101665 36.718793 -0.142808 2.531839 0.038597 -0.007100 -69319.200000 0 0 1
-20.117635 2.236608 -31.281215 37.259039 -0.110722 2.567270 0.033790 -0.007338 -236965.000000 0 0 1
-18.726135 2.081608 -31.157785 36.411657 -0.110706 2.597716 0.023643 -0.004144 -374811.000000 0 0 1
-18.140835 1.490208 -32.253025 37.034689 -0.081963 2.627800 0.020047 -0.003793 -1588860.000000 0 0 1
-16.654235 1.425908 -32.116165 36.205590 -0.085410 2.661712 0.026842 -0.020558 -1668430.000000 0 0 1
-16.160335 2.671908 -32.506335 36.399963 -0.163855 2.674835 0.021624 -0.013800 175182.000000 0 0 1
-14.769135 2.501008 -32.778495 36.039036 -0.167749 2.712942 0.039832 -0.022911 365683.000000 0 0 1
-14.044335 3.850008 -32.989785 36.060945 -0.267560 2.725893 0.045183 -0.014880 -424290.000000 0 0 1
-13.987335 4.792308 -31.901305 35.161129 -0.330083 2.707588 0.047426 -0.024029 -10812.300000 0 0 1
-13.384435 5.942708 -32.347995 35.508473 -0.417854 2.716483 0.055151 -0.006501 -481051.000000 0 0 1
-13.178835 6.967908 -31.256845 34.629810 -0.486358 2.696566 0.057815 -0.013538 259396.000000 0 0 1
-11.986335 6.755008 -30.479395 33.440931 -0.513194 2.717566 0.095138 -0.028769 746981.000000 0 0 1
-12.100535 5.795808 -29.441935 32.354935 -0.446684 2.714002 0.097106 -0.033769 -279690.000000 0 0 1
-10.708335 5.184108 -29.152785 31.486954 -0.450862 2.754125 0.125110 -0.040442 109580.000000 0 0 1
-10.072235 4.447008 -30.214955 32.158502 -0.415773 2.792149 0.105834 -0.041774 53371.900000 0 0 1
-10.784735 3.326808 -30.736065 32.742691 -0.299213 2.789680 0.103879 -0.035678 -608495.000000 0 0 1
-10.224835 2.574808 -31.916645 33.613228 -0.246690 2.822519 0.093901 -0.045496 6145.850000 0 0 1
-10.934635 1.309308 -32.099285 33.935889 -0.119172 2.811093 0.097793 -0.046170 616029.000000 0 0 1
-10.383435 0.371208 -33.022925 34.618883 -0.035735 2.836767 0.081779 -0.039266 -497348.000000 0 0 1
-10.767335 0.738908 33.446614 35.144807 -0.068518 0.312135 0.083005 -0.032458 201494.000000 0 0 1
-12.180735 0.705208 33.325776 35.489082 -0.057831 0.350960 0.055757 -0.030462 22302.300000 0 0 1
-12.418235 1.017608 31.985018 34.326221 -0.081762 0.371468 0.043921 -0.018554 978960.000000 0 0 1
-13.947535 0.773808 31.634873 34.581753 -0.055423 0.415821 0.043503 -0.013499 1362210.000000 0 0 1
-14.717635 1.979308 31.616353 34.930219 -0.133683 0.439113 0.032827 -0.005954 117059.000000 0 0 1
-16.036835 1.670708 31.226943 35.143894 -0.103805 0.476632 0.027564 -0.007109 60611.100000 0 0 1
-17.022435 2.835708 31.008023 35.486645 -0.165071 0.507846 0.031434 -0.003304 384.351000 0 0 1
-17.541835 3.510708 32.134163 36.778328 -0.197524 0.507987 0.031026 -0.009995 361480.000000 0 0 1
-16.794035 4.641608 32.524743 36.897737 -0.269653 0.491802 0.018077 -0.003730 -629296.000000 0 0 1
-17.339335 5.265408 33.819685 38.368582 -0.294819 0.491889 0.010560 -0.000266 168090.000000 0 0 1
-18.703935 5.647708 33.707197 38.960350 -0.293248 0.525314 0.016007 0.003811 -21621.000000 0 0 1
-19.440435 5.235208 -33.102125 38.743884 -0.263054 2.595159 0.021044 0.002359 348658.000000 0 0 1
-20.939835 5.679908 -33.174525 39.639464 -0.264876 2.562403 0.023793 -0.002942 342737.000000 0 0 1
-21.226735 7.073208 -33.067815 39.925993 -0.321650 2.546734 0.023741 -0.013583 302719.000000 0 0 1
-20.814835 7.862108 33.748129 40.422843 -0.361150 0.582886 0.014133 -0.011429 -495110.000000 0 0 1
-20.760635 9.363208 -33.824815 40.777343 -0.423692 2.549009 0.030579 -0.006935 -653154.000000 0 0 1
-19.770735 9.612008 -32.849695 39.526891 -0.452525 2.551829 0.031623 -0.005430 340935.000000 0 0 1
-19.371135 10.968108 -32.617955 39.490141 -0.515202 2.542730 0.044724 -0.008533 -274695.000000 0 0 1
-18.820935 11.725908 -33.837975 40.456557 -0.557178 2.561483 0.022833 -0.021739 -362783.000000 0 0 1
-19.764835 12.039308 33.052095 40.348911 -0.547104 0.610857 0.039482 -0.020383 682004.000000 0 0 1
-19.089635 12.201508 31.787333 39.034926 -0.568724 0.619222 0.023014 -0.014032 391117.000000 0 0 1
-19.708435 11.351408 30.604223 38.129979 -0.522561 0.639107 0.033832 -0.017027 58089.800000 0 0 1
-19.669735 9.910908 30.723503 37.802886 -0.466736 0.621976 0.034337 -0.015513 46578.300000 0 0 1
-18.417635 9.343108 30.418913 36.767012 -0.469464 0.596436 0.022764 -0.021355 -88824.700000 0 0 1
-18.380835 7.811708 30.548173 36.497516 -0.401864 0.579031 0.028018 -0.010763 -218264.000000 0 0 1
-19.002035 7.178708 29.478323 35.799199 -0.361211 0.603357 0.035889 -0.001412 -1241.160000 0 0 1
-19.326535 5.891308 29.784273 35.990629 -0.295882 0.596056 0.030827 -0.000870 -540441.000000 0 0 1
-19.961135 5.154008 28.653113 35.298889 -0.252683 0.623691 0.043172 -0.008649 -185690.000000 0 0 1
-21.255535 5.642308 28.329863 35.863833 -0.259467 0.660104 0.080728 -0.017914 303617.000000 0 0 1
-21.942135 4.668508 27.544953 35.524311 -0.209638 0.683475 0.080137 -0.015398 906995.000000 0 0 1
-23.448735 4.942208 27.186293 36.240351 -0.207726 0.722483 0.090157 -0.014505 818649.000000 0 0 1
-23.636135 5.931508 26.179183 35.765895 -0.245873 0.749603 0.098200 -0.024951 -177995.000000 0 0 1
-24.901935 6.517608 26.299983 36.800471 -0.255989 0.774652 0.100174 -0.019997 -495041.000000 0 0 1
-25.247595 7.206508 24.901423 36.186401 -0.278040 0.811870 0.101754 -0.029404 -101326.000000 0 0 1
-25.348255 6.371708 23.781533 35.336864 -0.246265 0.832546 0.102908 -0.030554 590728.000000 0 0 1
-26.378675 5.381108 23.835083 35.956946 -0.201234 0.846140 0.104153 -0.028133 -4726.350000 0 0 1
-26.525595 4.574308 22.504213 35.085197 -0.170769 0.874454 0.103402 -0.031983 246799.000000 0 0 1
-27.270565 5.390908 21.566413 35.183174 -0.195166 0.910976 0.103649 -0.040433 417682.000000 0 0 1
-27.703885 4.514508 20.530813 34.776433 -0.161536 0.939284 0.105833 -0.032303 407494.000000 0 0 1
-28.545275 5.121408 19.333813 34.854811 -0.177525 0.982799 0.104604 -0.033625 -108077.000000 0 0 1
-29.892775 5.293808 19.612813 36.142285 -0.175276 0.997201 0.117674 -0.028920 -506577.000000 0 0 1
-30.726895 5.561008 18.492913 36.291248 -0.179044 1.036112 0.119408 -0.027060 -584073.000000 0 0 1
-32.183525 5.618708 18.888513 37.737581 -0.172841 1.046594 0.119106 -0.022461 -910751.000000 0 0 1
-32.525695 6.756608 19.656513 38.599884 -0.204818 1.036498 0.117366 -0.032977 -13717.800000 0 0 1
-33.851845 6.774608 20.129813 39.963134 -0.197516 1.042909 0.120860 -0.022017 -111280.000000 0 0 1
-34.187199 7.888908 21.096813 40.939894 -0.226786 1.029425 0.119614 -0.013422 67671.600000 0 0 1
-33.686465 7.666308 22.403913 41.176273 -0.223767 0.995483 0.103152 -0.018947 212261.000000 0 0 1
-34.166430 8.739408 23.178343 42.201395 -0.250420 0.989352 0.108292 -0.004300 134431.000000 0 0 1
-0.916435 31.874108 11.434125 33.875328 -1.542053 1.226499 0.094767 0.000957 -54782.700000 0 0 1
-0.974535 32.219208 12.768825 34.670881 -1.540559 1.193631 0.072237 -0.005482 -40920.300000 0 0 1
-0.640635 33.548208 12.982725 35.978380 -1.551703 1.201619 0.078275 -0.013627 -152785.000000 0 0 1
-0.520835 33.944208 14.473825 36.904907 -1.555454 1.167783 0.059673 -0.006415 84090.800000 0 0 1
-1.706035 33.942508 15.240425 37.246141 -1.520576 1.149240 0.048525 0.009928 -367724.000000 0 0 1
-1.448935 -33.751495 16.545725 37.616803 1.527893 1.115365 0.039629 -0.003214 49757.300000 0 0 1
-2.658535 -33.348195 17.418225 37.716899 1.491244 1.090756 0.039318 0.005066 -147772.000000 0 0 1
-3.413835 33.678008 17.932125 38.306966 -1.469775 1.083638 0.036545 0.004424 -398260.000000 0 0 1
-4.167535 -33.954795 18.998225 39.130921 1.448669 1.063857 0.030387 0.000698 -782966.000000 0 0 1
-5.242935 33.198308 19.479825 38.846874 -1.414162 1.045521 0.027261 -0.006884 -545928.000000 0 0 1
-6.255435 33.053808 18.532125 38.407348 -1.383758 1.067272 0.033549 -0.015996 -819878.000000 0 0 1
-7.286035 32.237308 18.986225 38.115707 -1.348518 1.049366 0.048160 -0.028421 -376749.000000 0 0 1
-8.379535 32.015208 17.929825 37.638661 -1.314803 1.074278 0.030613 -0.028393 -210884.000000 0 0 1
-9.028735 33.205908 17.504425 38.607710 -1.305313 1.100229 0.043268 -0.028970 264722.000000 0 0 1
-9.966735 33.012908 16.449325 38.206913 -1.277594 1.125713 0.049223 -0.029264 701780.000000 0 0 1
-11.159435 34.018908 16.329225 39.350511 -1.253821 1.142888 0.087837 -0.033549 604154.000000 0 0 1
-12.203435 33.832608 17.260325 39.893458 -1.224621 1.123355 0.081377 -0.024684 777140.000000 0 0 1
-13.328635 -33.400395 16.971925 39.765376 1.191104 1.129843 0.055051 -0.026539 1165240.000000 0 0 1
-14.575635 -33.566495 17.882925 40.730305 1.161132 1.116247 0.082832 -0.021394 298642.000000 0 0 1
-14.422935 -33.167895 19.241225 40.967732 1.160615 1.081882 0.088086 -0.023613 233599.000000 0 0 1
-15.637935 -33.380595 19.962225 41.920157 1.132686 1.074472 0.078570 -0.025206 529727.000000 0 0 1
-15.515835 -33.020395 21.446425 42.320642 1.131528 1.039374 0.085780 -0.032394 29405.400000 0 0 1
-15.613035 -31.627395 21.627925 41.374220 1.112237 1.020735 0.091924 -0.019221 -29494.000000 0 0 1
-15.423135 -31.262895 22.975125 41.750426 1.112494 0.988077 0.079206 -0.022000 202537.000000 0 0 1
-15.696635 -29.713495 23.121425 40.790641 1.084792 0.968141 0.085910 -0.027992 3044.580000 0 0 1
-15.626535 -29.294395 24.465925 41.242353 1.080763 0.935739 0.096012 -0.037247 -33325.200000 0 0 1
-15.559635 -27.844295 24.650925 40.312220 1.061215 0.912841 0.086639 -0.024247 478473.000000 0 0 1
-16.773935 -26.995095 24.141125 39.911076 1.014812 0.921190 0.103130 -0.022477 1351200.000000 0 0 1
-17.994335 -26.963295 24.925125 40.891041 0.982311 0.915304 0.116293 -0.025847 1425480.000000 0 0 1
-18.934935 -26.027995 24.374925 40.374810 0.941862 0.922642 0.116825 -0.019957 -203068.000000 0 0 1
-20.076535 -25.646595 25.360325 41.279064 0.906622 0.909218 0.115448 -0.013773 528274.000000 0 0 1
-20.942735 -26.692795 25.860725 42.660058 0.905526 0.919517 0.124097 -0.019665 550105.000000 0 0 1
-21.655435 -27.438295 24.895025 42.913636 0.902650 0.951921 0.108399 -0.021147 -1261750.000000 0 0 1
-23.025635 -26.912995 24.513525 43.074378 0.863084 0.965388 0.078907 -0.006853 -1058350.000000 0 0 1
-23.052535 -25.645295 23.898125 41.954986 0.838590 0.964761 0.084212 -0.007407 384240.000000 0 0 1
-24.128435 -25.431595 22.976025 41.914736 0.811687 0.990632 0.070132 -0.006345 261846.000000 0 0 1
-24.530335 -23.921895 22.810225 41.161885 0.772841 0.983444 0.074509 0.007275 -10750.500000 0 0 1
-25.005535 -23.322795 23.971525 41.759592 0.750593 0.959369 0.063995 0.007181 199329.000000 0 0 1
-25.790125 -22.135995 23.756325 41.466803 0.709300 0.960757 0.045288 0.003868 374811.000000 0 0 1
-26.190775 -21.502995 25.047325 42.139103 0.687424 0.934282 0.051448 0.002544 704141.000000 0 0 1
-27.346885 -22.068495 25.710825 43.542130 0.678985 0.939141 0.037140 0.006786 860477.000000 0 0 1
-27.852835 -21.158095 26.666025 43.983204 0.649641 0.919425 0.031497 -0.000814 -1401080.000000 0 0 1
-28.848665 -21.814095 27.586725 45.487664 0.647429 0.919188 0.030855 -0.002010 -169457.000000 0 0 1
-30.217365 -21.785895 27.212825 46.132984 0.624663 0.939889 0.031212 -0.008587 445515.000000 0 0 1
-30.590955 -22.429395 26.017025 45.997498 0.632664 0.969614 0.013700 0.002871 -863345.000000 0 0 1
-32.114885 -22.747995 26.002325 47.169460 0.616296 0.986931 0.017619 -0.003748 521937.000000 0 0 1
-32.599785 -23.202695 24.706425 47.026784 0.618564 1.017647 0.004525 -0.006669 266228.000000 0 0 1
-32.415235 -24.562995 24.574725 47.518473 0.648450 1.027265 -0.001145 0.000845 -595939.000000 0 0 1
-32.740355 -25.149995 23.171925 47.343333 0.655026 1.059344 0.003837 0.002132 -243827.000000 0 0 1
-34.085495 -25.533295 23.055225 48.428437 0.642922 1.074618 0.012408 -0.003280 -360078.000000 0 0 1
-34.287801 -25.988795 21.706425 48.189622 0.648576 1.103541 0.015420 0.004506 -135949.000000 0 0 1
-35.690719 -26.590495 21.553925 49.451527 0.640310 1.119803 0.045019 -0.004512 -379428.000000 0 0 1
-36.022479 -27.830395 22.246225 50.666008 0.657799 1.116226 0.036284 -0.003703 366621.000000 0 0 1
-35.128737 -28.947395 22.121025 50.609481 0.689227 1.118433 0.010538 0.002854 -105056.000000 0 0 1
-35.448669 -29.945495 20.906825 50.896327 0.701442 1.147495 0.028977 -0.000159 -73202.400000 0 0 1
-35.339918 -29.389495 19.587825 49.963337 0.693728 1.167944 0.039261 -0.005643 286503.000000 0 0 1
-35.922353 -30.306095 18.700425 50.582415 0.700799 1.192108 0.061154 -0.005448 -276230.000000 0 0 1
-36.005828 -29.773095 17.296625 49.819976 0.690927 1.216231 0.082328 -0.007380 -155245.000000 0 0 1
-34.778272 -29.600095 16.620825 48.599852 0.705137 1.221759 0.074632 -0.011759 -1004.120000 0 0 1
-34.884464 -28.798495 15.408325 47.788028 0.690121 1.242500 0.098534 -0.021640 151763.000000 0 0 1
-35.657847 -29.491895 14.238325 48.414706 0.691036 1.272292 0.097346 -0.022290 113537.000000 0 0 1
-34.949703 -30.580695 13.690325 48.415758 0.718825 1.284120 0.103816 -0.033506 23527.200000 0 0 1
-35.687661 -31.451895 12.834625 49.270259 0.722393 1.307262 0.114818 -0.030746 153841.000000 0 0 1
-36.227555 -31.055995 11.470225 49.076232 0.708687 1.334892 0.113936 -0.028683 -151211.000000 0 0 1
36.907192 -30.135995 11.554225 49.028758 -0.684742 1.332896 0.109372 -0.029636 -311023.000000 0 0 1
36.626692 -29.556795 10.335725 48.186574 -0.678979 1.354623 0.086404 -0.019662 -714692.000000 0 0 1
35.588452 -28.486995 10.344525 46.744582 -0.675019 1.347650 0.121164 -0.011178 -730366.000000 0 0 1
35.538942 -27.555795 9.269025 45.915717 -0.659541 1.367529 0.132162 -0.045514 545476.000000 0 0 1
34.406892 -26.680495 9.381525 44.538703 -0.659585 1.358569 0.103235 -0.035570 462494.000000 0 0 1
34.381332 -25.591195 8.295625 43.655500 -0.639865 1.379609 0.084076 -0.035773 359559.000000 0 0 1
35.365632 -24.561595 8.446725 43.878777 -0.607028 1.377086 0.097921 -0.042216 397169.000000 0 0 1
35.577252 -23.930995 7.165525 43.471578 -0.592133 1.405208 0.080680 -0.046477 -85109.000000 0 0 1
36.204882 -22.515895 7.325825 43.259990 -0.556369 1.400632 0.102008 -0.059132 -409835.000000 0 0 1
35.410932 -21.516795 7.909425 42.183712 -0.546012 1.382180 0.083585 -0.054353 -487711.000000 0 0 1
35.641582 -20.214495 7.474125 41.651059 -0.515923 1.390373 0.097451 -0.050252 -498185.000000 0 0 1
34.919762 -19.156295 8.283925 40.681406 -0.501753 1.365733 0.100240 -0.038281 -586050.000000 0 0 1
35.434172 -18.923995 9.578025 41.296933 -0.490523 1.336734 0.091210 -0.049911 -334892.000000 0 0 1
34.587112 -18.241795 10.504025 40.489084 -0.485339 1.308366 0.078407 -0.038394 -190551.000000 0 0 1
34.872672 -18.413895 11.957325 41.208645 -0.485821 1.276397 0.075246 -0.047419 -36498.700000 0 0 1
36.046302 -17.775095 12.402925 42.060937 -0.458127 1.271466 0.069164 -0.041511 85721.600000 0 0 1
36.465662 -18.191795 13.698925 42.992400 -0.462747 1.246506 0.077392 -0.034087 372463.000000 0 0 1
-36.419965 -17.515295 14.258125 42.854329 0.448272 1.231619 0.100571 -0.040263 1185670.000000 0 0 1
-35.190215 -17.982995 13.683125 41.820655 0.472427 1.237472 0.097006 -0.041893 1014320.000000 0 0 1
-34.045485 -17.466795 14.360825 40.870738 0.474027 1.211760 0.082841 -0.035396 582980.000000 0 0 1
-32.734645 -17.426995 13.544125 39.480380 0.489208 1.220624 0.083121 -0.036376 63.592700 0 0 1
-32.019255 -18.640495 13.481525 39.426542 0.527202 1.221815 0.075832 -0.039164 124573.000000 0 0 1
-30.840125 -18.401595 12.726425 38.101101 0.537973 1.230234 0.045734 -0.034554 -6771.460000 0 0 1
-29.988165 -19.627995 12.459825 37.944636 0.579549 1.236220 0.054034 -0.030710 -191563.000000 0 0 1
-30.661375 -20.508995 11.584625 38.664484 0.589538 1.266503 0.073651 -0.028127 48584.500000 0 0 1
-29.724795 -21.254295 10.812825 38.108079 0.620746 1.283103 0.073378 -0.022806 -275540.000000 0 0 1
-30.349875 -22.259695 9.836225 38.901931 0.632816 1.315175 0.083304 -0.021911 177864.000000 0 0 1
-30.923295 -23.459595 10.333625 40.166983 0.649007 1.310604 0.095559 -0.020826 771843.000000 0 0 1
-32.181385 -23.260995 11.012825 41.206768 0.625871 1.300250 0.123731 -0.032929 429724.000000 0 0 1
-33.049585 -24.552395 11.111825 42.644669 0.638939 1.307186 0.136292 -0.034363 153216.000000 0 0 1
-33.379335 -25.028995 9.824925 42.862101 0.643396 1.339518 0.128367 -0.022773 -55028.100000 0 0 1
-34.244627 -26.146795 9.884625 44.204696 0.652104 1.345279 0.142111 -0.016994 94143.200000 0 0 1
-34.471074 -26.888395 8.534525 44.543000 0.662444 1.378002 0.122592 -0.022280 -74788.100000 0 0 1
-33.289355 -27.364895 7.947425 43.819860 0.688031 1.388421 0.108554 -0.017561 -431639.000000 0 0 1
-33.488345 -28.273695 6.896225 44.366980 0.701167 1.414728 0.087348 -0.008384 871589.000000 0 0 1
-32.141575 -28.644795 6.145125 43.489857 0.727936 1.429022 0.084367 -0.005328 1027870.000000 0 0 1
-31.666465 -27.567795 5.341425 42.323505 0.716314 1.444254 0.089991 0.000448 -108483.000000 0 0 1
-30.422515 -27.965995 4.793525 41.600530 0.743351 1.455312 0.076717 -0.012555 -45067.200000 0 0 1
-29.620045 -26.840995 4.111125 40.183173 0.736217 1.468307 0.077899 -0.012987 145292.000000 0 0 1
-30.075135 -26.522795 2.834725 40.199602 0.722716 1.500222 0.101060 -0.018991 334011.000000 0 0 1
-29.144885 -25.577895 2.317925 38.846181 0.720307 1.511092 0.097944 -0.019848 248727.000000 0 0 1
-29.765535 -24.882895 1.101925 38.811850 0.696288 1.542401 0.098968 -0.026246 -60022.300000 0 0 1
-29.534735 -25.642495 -0.146575 39.113419 0.714974 1.574544 0.102070 -0.035513 -31797.000000 0 0 1
-29.757495 -25.006195 -1.361775 38.893093 0.698855 1.605817 0.109263 -0.039156 -583687.000000 0 0 1
-31.192015 -24.771795 -1.822875 39.873631 0.671177 1.616529 0.118476 -0.034593 -558988.000000 0 0 1
-31.752755 -23.516595 -1.468775 39.540169 0.637468 1.607951 0.107931 -0.021237 195149.000000 0 0 1
-32.959495 -23.411595 -2.238975 40.490049 0.617615 1.626121 0.122982 -0.023852 445377.000000 0 0 1
-33.684515 -22.067095 -1.981275 40.317845 0.579960 1.619958 0.103925 -0.020860 4303.210000 0 0 1
-34.177411 -21.919395 -0.642275 40.607484 0.570264 1.586614 0.112115 -0.023623 361250.000000 0 0 1
-34.930263 -20.733095 -0.455675 40.622557 0.535668 1.582014 0.105033 -0.022480 10425.500000 0 0 1
-35.119677 -20.162095 0.969025 40.507293 0.521155 1.546872 0.117237 -0.022231 10581.600000 0 0 1
-35.853973 -21.147295 1.670725 41.659414 0.532899 1.530681 0.114769 -0.038364 176688.000000 0 0 1
-36.090925 -20.769695 3.026025 41.750352 0.522197 1.498254 0.121360 -0.045941 -1236290.000000 0 0 1
37.073172 -21.699195 3.676925 43.113744 -0.529546 1.485408 0.137962 -0.034747 -416627.000000 0 0 1
35.784122 -21.560695 3.142725 41.895628 -0.542271 1.495713 0.088880 -0.037349 -155714.000000 0 0 1
35.044522 -20.473495 3.730725 40.757831 -0.528731 1.479134 0.077853 -0.040017 170839.000000 0 0 1
33.692952 -20.210495 2.981725 39.402662 -0.540304 1.495051 0.050684 -0.029384 637852.000000 0 0 1
32.600672 -21.080095 3.143725 38.949419 -0.573992 1.489995 0.035249 -0.027798 -635312.000000 0 0 1
31.459042 -20.543995 2.550825 37.659444 -0.578509 1.503010 0.042743 -0.021442 -440388.000000 0 0 1
30.249172 -21.464895 2.753025 37.193188 -0.617142 1.496709 0.030979 -0.002158 -364156.000000 0 0 1
30.072812 -22.692295 1.985525 37.726073 -0.646425 1.518142 0.010483 -0.009732 -890008.000000 0 0 1
28.981692 -23.348095 2.503525 37.300665 -0.678156 1.503628 0.015862 0.001499 -773430.000000 0 0 1
28.667492 -24.608995 1.637525 37.816785 -0.709367 1.527481 0.007980 0.004802 -131434.000000 0 0 1
28.204492 -24.235295 0.341425 37.188163 -0.709852 1.561615 0.005050 -0.002015 294973.000000 0 0 1
27.830292 -25.388995 -0.528375 37.674997 -0.739558 1.584821 0.008470 -0.006099 -245244.000000 0 0 1
26.879992 -25.088395 -1.683875 36.807567 -0.750937 1.616560 0.039778 -0.014135 -511947.000000 0 0 1
27.428992 -24.305495 -2.729175 36.749899 -0.725096 1.645128 0.018816 -0.022815 176170.000000 0 0 1
28.107092 -25.040895 -3.740675 37.829191 -0.727770 1.669841 0.018839 -0.020924 -310708.000000 0 0 1
27.228692 -25.488795 -4.976175 37.627684 -0.752406 1.703433 0.032379 -0.024841 283477.000000 0 0 1
26.721892 -24.465895 -5.809475 36.693181 -0.741354 1.729791 0.042524 -0.044490 1007940.000000 0 0 1
25.631092 -23.686995 -5.276675 35.296882 -0.745999 1.720853 0.063386 -0.049446 169715.000000 0 0 1
24.892292 -22.699895 -6.231075 34.259856 -0.739364 1.753691 0.085278 -0.056902 -222788.000000 0 0 1
24.218592 -23.420095 -7.214175 34.454105 -0.768638 1.781742 0.104973 -0.054902 -182346.000000 0 0 1
23.135492 -22.852195 -7.887375 33.461687 -0.779238 1.808749 0.107840 -0.056290 -268255.000000 0 0 1
23.310992 -21.505895 -8.678475 32.881937 -0.745143 1.837889 0.108485 -0.053758 -254803.000000 0 0 1
24.200592 -21.607395 -9.800675 33.891022 -0.728848 1.864169 0.113024 -0.044672 330944.000000 0 0 1
23.929992 -20.602595 -10.743675 33.354729 -0.710818 1.898747 0.108880 -0.044874 34844.900000 0 0 1
24.884392 -20.555995 -11.991775 34.432318 -0.690430 1.926522 0.077662 -0.035020 243448.000000 0 0 1
26.220892 -20.327095 -11.619675 35.153134 -0.659451 1.907677 0.068183 -0.037003 -45873.600000 0 0 1
27.122392 -20.156595 -12.706275 36.102103 -0.639117 1.930454 0.063445 -0.043102 -481515.000000 0 0 1
28.451492 -20.832095 -12.502275 37.413506 -0.632009 1.911515 0.045425 -0.035588 -1051750.000000 0 0 1
28.477692 -22.229795 -12.681275 38.287824 -0.662802 1.908381 0.039251 -0.038165 -123019.000000 0 0 1
29.542432 -22.815695 -12.000375 39.208675 -0.657623 1.881852 0.045412 -0.033018 -708671.000000 0 0 1
29.779642 -24.272295 -12.571475 40.422931 -0.683859 1.887040 0.029146 -0.042239 -826818.000000 0 0 1
30.583892 -24.378495 -13.694475 41.439403 -0.672972 1.907598 0.027474 -0.037977 -79002.700000 0 0 1
30.886112 -25.766795 -13.807475 42.526768 -0.695280 1.901467 0.036789 -0.034434 -232429.000000 0 0 1
-4.228735 -9.034092 -27.396085 29.155488 1.133004 2.792415 0.053965 -0.019282 132321.000000 0 0 1
-3.904435 -7.791692 -26.802155 28.183516 1.106267 2.827208 0.038520 -0.012173 287002.000000 0 0 1
-4.593335 -6.753292 -27.510205 28.696986 0.973509 2.852997 0.039073 -0.013830 165069.000000 0 0 1
-4.372135 -5.407392 -26.794125 27.681773 0.890865 2.887667 0.038310 -0.014072 -220857.000000 0 0 1
-5.177235 -5.214892 -25.641725 26.673899 0.789022 2.862493 0.031019 -0.014233 227912.000000 0 0 1
-4.842335 -4.059092 -24.914775 25.703510 0.697633 2.893221 0.037785 -0.019652 9266.630000 0 0 1
-5.340435 -4.074492 -23.437475 24.381078 0.651739 2.862471 0.032626 -0.024362 -52616.700000 0 1 0
-4.723035 -5.081492 -22.641075 23.680094 0.821942 2.844264 0.032404 -0.026101 348110.000000 0 1 0
-5.177435 -5.088092 -21.316175 22.518299 0.776695 2.813366 0.029611 -0.023425 -228278.000000 0 1 0
-4.627335 -6.227592 -20.427475 21.851244 0.931766 2.778612 0.027164 -0.029434 -256377.000000 0 1 0
-5.138735 -7.537492 -20.762175 22.677925 0.972419 2.727604 0.027273 -0.019005 355998.000000 0 1 0
-4.510635 -8.556692 -20.020875 22.235067 1.085668 2.691528 0.037230 -0.023942 -1053580.000000 0 1 0
-5.337335 -9.854992 -20.124575 23.034898 1.074435 2.633463 0.051531 -0.019800 765101.000000 0 1 0
-6.560635 -9.862692 -19.382075 22.715181 0.983812 2.593011 0.068105 -0.015066 783730.000000 0 1 0
-7.620635 -9.097892 -19.933375 23.198817 0.873530 2.604580 0.054884 -0.015806 -904136.000000 0 1 0
-8.871635 -8.904592 -19.065275 22.835988 0.787252 2.558708 0.058752 -0.005859 74000.400000 0 1 0
-9.622235 -10.153992 -18.998175 23.592829 0.812280 2.506897 0.104115 -0.007102 300288.000000 0 1 0
-9.948535 -10.506692 -17.665475 22.834905 0.812678 2.455326 0.077325 -0.008667 -435111.000000 0 1 0
-10.555035 -11.888192 -17.489775 23.635356 0.844730 2.403842 0.088466 -0.006145 668596.000000 0 1 0
-11.802935 -12.067792 -18.193875 24.818500 0.796493 2.393632 0.097867 -0.019612 690208.000000 0 1 0
-11.697635 -12.154292 -19.637575 25.888140 0.804541 2.431889 0.103753 -0.021631 -733975.000000 0 0 1
-13.035035 -11.755692 -20.392475 26.906531 0.733838 2.430885 0.090927 -0.021514 1498280.000000 0 0 1
-14.075935 -12.748892 -20.306775 27.803440 0.735968 2.389659 0.082860 -0.016051 499523.000000 0 0 1
-14.669535 -12.806492 -18.998175 27.205369 0.717696 2.343850 0.080646 -0.006459 -1480600.000000 0 0 1
-15.813335 -13.806992 -18.945875 28.277920 0.717766 2.304989 0.076893 0.001468 -448261.000000 0 0 1
-15.426735 -15.145992 -19.231375 28.934944 0.776216 2.297811 0.090590 -0.009828 31428.200000 0 0 1
-15.986235 -15.670992 -20.439875 30.313828 0.775440 2.310780 0.106765 -0.010667 233858.000000 0 0 1
-15.605735 -17.171092 -20.780175 31.148050 0.833120 2.301162 0.062650 -0.006923 -62644.500000 0 0 1
-16.298535 -18.102292 -20.005275 31.520568 0.837784 2.258382 0.071774 -0.002694 200730.000000 0 0 1
-15.883635 -19.392192 -20.393175 32.314525 0.884533 2.253746 0.059164 -0.002742 -268056.000000 0 0 1
-16.587135 -20.504492 -19.596375 32.857041 0.890621 2.209822 0.070429 -0.013119 -151138.000000 0 0 1
-16.206535 -21.778492 -20.012375 33.726097 0.931048 2.206047 0.064998 -0.009632 530828.000000 0 0 1
-17.108335 -22.767292 -19.492475 34.510886 0.926372 2.171013 0.094889 -0.013550 79408.300000 0 0 1
-16.750535 -24.250292 -19.869375 35.545029 0.966315 2.163966 0.096447 -0.011906 -16050.100000 0 0 1
-16.934535 -24.660392 -21.237175 36.686932 0.969046 2.188146 0.075308 -0.008984 339514.000000 0 0 1
-16.375235 -25.971412 -21.393475 37.421161 1.008245 2.179366 0.079745 -0.007105 34128.100000 0 0 1
-16.453535 -26.484422 -22.889875 38.679319 1.014896 2.204069 0.081920 -0.014961 418227.000000 0 0 1
-17.748535 -26.943242 -23.262675 39.775631 0.988303 2.195488 0.108252 -0.016875 157055.000000 0 0 1
-17.988135 -28.337932 -23.119275 40.756744 1.005201 2.173959 0.112104 -0.010878 402474.000000 0 0 1
-19.067535 -29.000142 -24.068875 42.236120 0.989168 2.177138 0.117300 -0.014849 353168.000000 0 0 1
-18.718335 -29.103392 -25.474705 42.969106 0.999240 2.205403 0.116748 -0.011450 61520.200000 0 0 1
-18.634835 -27.860612 -26.214115 42.551740 0.981277 2.234518 0.135861 -0.026758 -306834.000000 0 0 1
-17.386435 -27.662832 -27.065485 42.427124 1.009675 2.262602 0.144597 -0.034439 -513383.000000 0 0 1
-17.545535 -28.113202 -28.396255 43.641095 1.012842 2.279272 0.132825 -0.021055 370802.000000 0 0 1
-16.347835 -27.972322 -29.157585 43.587466 1.041905 2.303584 0.104007 -0.011770 247145.000000 0 0 1
-16.533735 -28.059132 -30.667385 44.734413 1.038322 2.326146 0.115634 -0.018839 6622.520000 0 0 1
-16.605735 -29.367272 -31.183875 45.941497 1.056168 2.316888 0.123627 -0.016164 33352.800000 0 0 1
-17.100635 -29.385972 -32.479875 47.020307 1.043768 2.333340 0.122331 -0.015452 -68351.600000 0 0 1
-17.146335 -30.813512 -33.111795 48.372102 1.063011 2.324745 0.137109 -0.017797 461081.000000 0 0 1
-15.867235 -31.427942 -33.241345 48.419744 1.103255 2.327495 0.141274 -0.017332 236662.000000 0 0 1
-15.938035 -32.451172 33.731139 49.445821 1.114263 0.820051 0.136950 -0.017666 268310.000000 0 0 1
-14.561135 -32.865112 33.162623 48.907073 1.153731 0.825657 0.121252 -0.026006 -86898.400000 0 0 1
-13.642135 -33.524732 33.960993 49.632293 1.184332 0.817219 0.125390 -0.020274 -116373.000000 0 0 1
-12.651835 33.981060 33.139146 49.122137 -1.214377 0.830336 0.112735 -0.020055 437001.000000 0 0 1
-11.637135 33.049588 33.897145 48.751560 -1.232242 0.801954 0.121471 -0.024684 545908.000000 0 0 1
-10.757735 33.763738 -33.179485 48.544794 -1.262348 2.323318 0.122578 -0.024135 20070.900000 0 0 1
-9.914635 32.905604 -32.431415 47.253311 -1.278142 2.327229 0.123376 -0.031405 450611.000000 0 0 1
-8.922335 33.707691 -31.525635 47.007256 -1.312033 2.305887 0.115686 -0.036791 627693.000000 0 0 1
-9.592435 -33.853992 -30.353455 46.469773 1.294686 2.282582 0.136532 -0.030574 327766.000000 0 0 1
-8.810835 -32.834602 -29.767195 45.186588 1.308632 2.289968 0.107976 -0.028554 -185708.000000 0 0 1
-9.747235 -31.811332 -29.096665 44.199381 1.273471 2.289361 0.128059 -0.024433 247394.000000 0 0 1
-9.932235 -31.896552 -27.677395 43.382917 1.268924 2.262667 0.144843 -0.026289 94310.800000 0 0 1
-10.639635 -33.082402 -27.227615 44.147368 1.259634 2.235396 0.162484 -0.030314 -201127.000000 0 0 1
-10.823535 -33.032942 -25.672105 43.213205 1.254162 2.206918 0.141737 -0.029724 -813776.000000 0 0 1
-9.736835 -33.037372 -24.825075 42.456545 1.284189 2.195328 0.145531 -0.040535 -1328120.000000 0 0 1
-10.083735 -33.156782 -23.478875 41.860619 1.275561 2.166247 0.132270 -0.041954 488760.000000 0 0 1
-8.913935 -33.502572 -22.470975 41.313742 1.310754 2.145886 0.129801 -0.053736 693842.000000 0 0 1
-8.444135 33.259673 -22.552475 41.062433 -1.322164 2.152232 0.125417 -0.052250 -272824.000000 0 0 1
-7.758735 32.912872 -21.393775 40.014356 -1.339287 2.134893 0.125385 -0.052353 -107293.000000 0 0 1
-7.006835 31.539211 -21.413775 38.760383 -1.352184 2.156116 0.122523 -0.059248 34964.200000 0 0 1
-5.819835 31.579081 -22.171575 39.021629 -1.388547 2.175097 0.093670 -0.062721 -255364.000000 0 0 1
-5.139835 30.363601 -22.102675 37.906390 -1.403110 2.193318 0.089757 -0.044834 14573.300000 0 0 1
-3.682035 30.559671 -22.593675 38.182784 -1.450888 2.203992 0.089356 -0.053984 60570.200000 0 0 1
-3.665435 30.862291 -24.008375 39.272363 -1.452583 2.228536 0.100093 -0.046887 252250.000000 0 0 1
-2.422635 31.462471 -24.355875 39.861822 -1.493947 2.228129 0.078433 -0.048318 226226.000000 0 0 1
-2.347635 31.802641 -25.838485 41.043229 -1.497111 2.251761 0.078851 -0.027195 13108.000000 0 0 1
-1.170135 32.487235 -26.200345 41.752218 -1.534794 2.249160 0.087384 -0.036562 -101167.000000 0 0 1
-1.428735 33.862265 -26.176385 42.824028 -1.528629 2.228441 0.066851 -0.029600 647293.000000 0 0 1
-0.288535 -33.255672 -26.665105 42.626878 1.562120 2.246628 0.047455 -0.010722 600464.000000 0 0 1
0.770465 -32.909112 -25.787225 41.816076 -1.547389 2.235317 0.057806 -0.020278 106723.000000 0 0 1
1.514965 -31.894182 -26.451175 41.463220 -1.523332 2.262621 0.059292 -0.009705 703051.000000 0 0 1
2.748265 -31.378662 -25.607255 40.594394 -1.483435 2.253390 0.054424 -0.013886 320818.000000 0 0 1
2.347065 -30.832792 -24.351875 39.359669 -1.494820 2.237885 0.055353 -0.008404 -337233.000000 0 0 1
3.370765 -30.159012 -23.728075 38.522066 -1.459492 2.234401 0.044472 -0.001081 -921690.000000 0 0 1
3.103265 -29.545012 -22.349375 37.175698 -1.466145 2.215776 0.054425 0.001880 -245360.000000 0 0 1
2.979765 -30.507942 -21.314375 37.335185 -1.473433 2.178389 0.068485 -0.004472 514148.000000 0 0 1
3.274865 -29.852112 -20.087575 36.130098 -1.461530 2.160337 0.072154 -0.011750 -279314.000000 0 0 1
3.226165 -30.863872 -18.929375 36.349800 -1.466646 2.118533 0.069868 -0.014439 -373708.000000 0 0 1
1.977865 -31.448882 -18.667275 36.625282 -1.507988 2.105612 0.064521 -0.021698 -141448.000000 0 0 1
1.846465 -32.818862 -18.920175 37.927037 -1.514593 2.093076 0.070959 -0.013979 -262034.000000 0 0 1
2.583865 -33.890582 -18.012575 38.466878 -1.494702 2.058119 0.055855 -0.027551 1278950.000000 0 0 1
3.887365 33.802056 -18.493775 38.726093 1.456296 2.068664 0.062149 -0.010177 1047340.000000 0 0 1
4.468765 32.833611 -17.606375 37.523330 1.435524 2.059194 0.060621 -0.026993 317734.000000 0 0 1
5.652665 32.039571 -18.214575 37.286157 1.396166 2.081175 0.070552 -0.018764 336093.000000 0 0 1
6.875765 32.758571 -18.174175 38.088066 1.363907 2.068219 0.095931 -0.023210 913640.000000 0 0 1
7.894165 31.998321 -18.938175 38.011378 1.328921 2.092345 0.073561 -0.028253 699109.000000 0 0 1
9.188165 32.747164 -19.245675 39.079344 1.297251 2.085730 0.052470 -0.023768 -40181.900000 0 0 1
9.900365 33.043565 -18.043475 38.928928 1.279692 2.052735 0.043838 -0.013336 415459.000000 0 0 1
11.117965 33.776854 -18.263075 39.975304 1.252807 2.045257 0.045625 -0.000038 738681.000000 0 0 1
11.997565 33.813258 -16.988975 39.697648 1.229835 2.013030 0.026383 0.005690 262568.000000 0 0 1
12.830265 32.659989 -16.730075 38.873976 1.196475 2.015696 0.026753 0.001960 263334.000000 0 0 1
13.470465 32.855542 -15.472175 38.734071 1.181707 1.981709 0.030384 -0.006293 -817073.000000 0 0 1
14.534765 31.859831 -15.237175 38.190048 1.142790 1.981204 0.047179 -0.002922 -799266.000000 0 0 1
14.152065 30.630931 -14.701275 36.805738 1.137993 1.981690 0.060628 -0.013713 204404.000000 0 0 1
15.334165 29.859281 -14.447075 36.543553 1.096369 1.977233 0.072664 -0.013380 649651.000000 0 0 1
15.025765 28.509471 -13.670175 35.006246 1.085748 1.971978 0.073073 -0.021239 -70543.400000 0 0 1
14.842265 28.738621 -12.273175 34.595260 1.094070 1.933459 0.067558 -0.027983 1024570.000000 0 0 1
13.454465 28.732071 -11.834275 33.861551 1.132851 1.927823 0.091046 -0.025189 1477000.000000 0 0 1
12.851265 27.327061 -11.489975 32.310104 1.131209 1.934369 0.082018 -0.026037 -558758.000000 0 0 1
12.331665 26.710621 -12.647975 32.023406 1.138275 1.976821 0.059024 -0.023590 -96122.200000 0 0 1
11.894765 25.373441 -12.600975 30.725910 1.132429 1.993370 0.086601 -0.027026 252653.000000 0 0 1
10.878565 24.972811 -11.496075 29.565930 1.159968 1.970156 0.088587 -0.031763 -443189.000000 0 0 1
9.711865 25.748011 -11.455975 29.808049 1.210108 1.965273 0.071412 -0.018233 -199859.000000 0 0 1
9.458465 26.200921 -10.163375 29.652066 1.224358 1.920644 0.068158 -0.011491 -264888.000000 0 0 1
8.247665 27.143111 -10.185475 30.141605 1.275803 1.915503 0.063222 -0.011306 -113397.000000 0 0 1
8.564765 28.392141 -10.796475 31.559987 1.277818 1.919941 0.065313 -0.013653 -180948.000000 0 0 1
7.607065 29.387251 -10.521775 32.127647 1.317500 1.904452 0.048992 -0.009231 -216154.000000 0 0 1
8.092765 30.827081 -10.556275 33.574346 1.314068 1.890637 0.083244 -0.015291 -671165.000000 0 0 1
9.001865 31.182601 -9.543775 33.830043 1.289755 1.856788 0.080163 -0.013002 -405674.000000 0 0 1
9.478065 32.471446 -9.735975 35.199684 1.286797 1.851043 0.085789 -0.020474 -578936.000000 0 0 1
10.481365 32.768060 -10.839575 36.070780 1.261216 1.876022 0.058691 -0.014576 -124088.000000 0 0 1
11.860365 32.568508 -10.503875 36.217501 1.221557 1.865046 0.063057 -0.014168 923191.000000 0 0 1
12.683065 33.109389 -11.568875 37.295182 1.204973 1.886197 0.061152 -0.011005 201865.000000 0 0 1
14.199665 32.983863 -11.381975 37.671144 1.164273 1.877734 0.071318 -0.019787 -121920.000000 0 0 1
14.744865 33.771973 -10.346275 38.275353 1.159141 1.844513 0.066843 -0.020467 367447.000000 0 0 1
16.144465 33.911183 -10.586775 39.021685 1.126466 1.845545 0.067093 -0.029608 602155.000000 0 0 1
16.856965 -33.289182 -9.496175 38.503302 -1.102058 1.820000 0.073130 -0.033548 189682.000000 0 0 1
16.916565 -33.808642 -8.199075 38.683579 -1.106859 1.784369 0.066793 -0.025240 158803.000000 0 0 1
17.587765 -32.874462 -7.375575 38.006037 -1.079544 1.766099 0.061122 -0.024827 -522421.000000 0 0 1
17.981165 -33.446252 -5.974075 38.440391 -1.077512 1.726840 0.057118 -0.017798 386770.000000 0 0 1
18.991065 33.663757 -5.908475 39.100117 1.057162 1.722489 0.041761 -0.024977 -64310.500000 0 0 1
20.303865 -33.981892 -6.159975 40.061967 -1.032224 1.725170 0.057438 -0.023689 -895276.000000 0 0 1
21.104565 33.047484 -6.889075 39.812036 1.002467 1.744712 0.042103 -0.019934 -321594.000000 0 0 1
21.381765 31.801791 -6.264975 38.830191 0.978873 1.732848 0.040465 -0.008368 -172156.000000 0 0 1
22.253065 31.907831 -5.163575 39.242466 0.961806 1.702760 0.041217 -0.003041 -618120.000000 0 0 1
22.479265 30.525561 -4.572375 38.184210 0.936051 1.690830 0.026522 -0.006232 428610.000000 0 0 1
23.318765 29.711291 -5.439975 38.159127 0.905365 1.713844 0.021831 -0.003092 433946.000000 0 0 1
23.543165 28.438901 -4.977075 37.253497 0.879302 1.704797 0.015651 0.000538 8837.120000 0 0 1
24.534265 27.604021 -5.874075 37.395413 0.844207 1.728530 0.011817 0.009244 -549608.000000 0 0 1
25.832965 28.103921 -5.765075 38.605810 0.827477 1.720689 0.034271 0.005291 -616816.000000 0 0 1
26.674165 27.294591 -6.607475 38.731957 0.796894 1.742230 0.023652 0.005172 -62061.000000 0 0 1
27.578665 26.402121 -5.751875 38.610087 0.763606 1.720326 0.038801 0.010605 -529158.000000 0 0 1
28.684465 27.102501 -5.179175 39.801608 0.757049 1.701291 0.046816 0.002392 284936.000000 0 0 1
29.468665 26.090101 -4.526475 39.617983 0.724662 1.685299 0.055616 0.001308 57428.000000 0 0 1
30.636465 26.714821 -3.738075 40.819700 0.717125 1.662500 0.057097 0.000097 -278146.000000 0 0 1
30.292065 27.461031 -2.643575 40.972014 0.736418 1.635363 0.061787 -0.006279 511854.000000 0 0 1
31.460365 27.869191 -1.895975 42.071857 0.724943 1.615877 0.079691 -0.014684 898364.000000 0 0 1
31.109665 28.876121 -0.793875 42.453173 0.748181 1.589497 0.088286 -0.015471 2537.960000 0 0 1
31.156365 30.194651 -1.334475 43.407567 0.769724 1.601544 0.068435 0.002446 -22046.300000 0 0 1
30.729865 31.083571 -0.318475 43.710576 0.791120 1.578082 0.075506 -0.007484 -11006.100000 0 0 1
33.877742 23.225508 19.135413 45.313239 0.600974 1.134824 0.116550 -0.011873 132556.000000 0 0 1
34.224032 22.630808 20.338313 45.793939 0.584247 1.110597 0.107262 -0.031336 1391.880000 0 0 1
35.042082 23.506008 21.094713 47.174854 0.590854 1.107209 0.107484 -0.030619 8543.680000 0 0 1
34.786702 23.406408 22.633513 47.647146 0.592275 1.075806 0.082783 -0.018557 -291211.000000 0 0 1
33.476282 23.776008 22.951763 47.039807 0.617562 1.061089 0.064625 -0.018152 -211981.000000 0 0 1
33.201672 23.604408 24.340323 47.454930 0.618031 1.032220 0.065634 -0.013366 296296.000000 0 0 1
31.884222 24.285708 24.805463 47.135021 0.650937 1.016595 0.033915 -0.007016 337520.000000 0 0 1
31.954792 25.705808 24.940513 47.999234 0.677444 1.024411 0.015113 -0.013000 -402732.000000 0 0 1
30.715532 26.286808 25.217203 47.648164 0.707860 1.013095 0.008007 -0.007707 -472925.000000 0 0 1
30.634152 27.792808 25.469213 48.575428 0.736806 1.018877 -0.006612 0.003977 -584937.000000 0 0 1
30.675522 28.621208 24.365953 48.516604 0.750767 1.044634 -0.004607 0.001602 291869.000000 0 0 1
30.542852 29.969908 24.815333 49.465765 0.775930 1.045272 -0.007374 -0.005319 -258239.000000 0 0 1
30.518572 30.967408 23.631343 49.485391 0.792698 1.072942 0.013159 -0.016138 -325305.000000 0 0 1
31.795502 31.223608 23.107953 50.198059 0.776323 1.092423 0.002904 -0.021510 -247518.000000 0 0 1
31.733362 32.024008 21.909513 50.125543 0.789957 1.118433 0.013978 -0.019962 429656.000000 0 0 1
33.173342 32.392308 21.468013 51.094107 0.773486 1.137168 0.008629 -0.027732 338192.000000 0 0 1
33.839492 33.378708 22.155813 52.441676 0.778543 1.134611 0.013388 -0.008997 -424045.000000 0 0 1
35.222592 33.392508 21.894213 53.245161 0.758733 1.147030 0.013588 0.004719 -74920.800000 0 0 1
35.912272 -33.557495 22.621713 54.106733 -0.751515 1.139450 0.015325 0.003500 -297918.000000 0 0 1
35.472022 -32.285195 22.172913 52.841614 -0.738400 1.137780 0.022536 -0.002366 -8322.060000 0 0 1
35.942892 -31.284595 23.072723 52.943063 -0.716217 1.119867 0.027078 -0.004840 -896777.000000 0 0 1
35.246682 -29.908395 22.766213 51.528061 -0.703649 1.113168 0.041979 -0.004545 835883.000000 0 0 1
33.838952 -29.925095 23.037843 50.708265 -0.724095 1.099186 0.041777 -0.009464 886769.000000 0 0 1
33.020412 -30.593995 22.095113 50.145131 -0.747274 1.114503 0.053453 -0.008055 -1353130.000000 0 0 1
32.228162 -31.770195 22.586513 50.578160 -0.778242 1.107872 0.034306 -0.010729 -769812.000000 0 0 1
31.208462 -31.434295 23.497063 50.141748 -0.789003 1.083077 0.045252 -0.015664 -69018.200000 0 0 1
30.603072 -32.683595 23.829923 50.721106 -0.818261 1.081707 0.031906 -0.021377 371502.000000 0 0 1
29.525002 -32.793195 24.978773 50.705606 -0.837794 1.055694 0.031546 -0.023899 483565.000000 0 0 1
29.319482 33.957108 25.277063 51.494146 0.858559 1.057705 0.027568 -0.027963 -159715.000000 0 0 1
28.536892 33.751008 26.398403 51.481651 0.868913 1.032385 0.035371 -0.025132 -822570.000000 0 0 1
28.163392 32.252408 26.551933 50.382533 0.852976 1.015722 0.029930 -0.010446 96699.800000 0 0 1
27.493892 31.610708 25.487253 49.038261 0.854939 1.024247 0.040681 -0.018159 286369.000000 0 0 1
26.103292 31.912808 25.437633 48.444632 0.885202 1.017979 0.060210 -0.026517 95163.600000 0 0 1
25.473292 31.678008 24.061253 47.236942 0.893541 1.036340 0.086192 -0.031221 -106814.000000 0 0 1
25.618492 32.690908 23.014843 47.483530 0.906100 1.064786 0.096435 -0.039034 -135231.000000 0 0 1
26.924792 32.894008 22.527213 48.108580 0.884857 1.083478 0.068134 -0.027953 -230634.000000 0 0 1
27.125292 33.580808 21.195713 48.090648 0.891341 1.114368 0.077662 -0.035109 -531458.000000 0 0 1
28.443292 33.775108 20.790013 48.805772 0.870884 1.130758 0.075304 -0.038336 -534411.000000 0 0 1
28.442392 -33.809695 19.501013 48.294457 -0.871404 1.155136 0.067402 -0.032093 -495132.000000 0 0 1
29.849172 -33.528195 18.979113 48.737251 -0.843383 1.170798 0.076110 -0.033140 -307372.000000 0 0 1
30.549782 33.390608 18.666513 48.955700 0.829798 1.179601 0.071738 -0.032926 -979366.000000 0 0 1
31.671822 33.783708 17.956113 49.667547 0.817651 1.200892 0.077373 -0.029303 -1043380.000000 0 0 1
32.438582 32.621008 17.339513 49.163508 0.788202 1.210351 0.059651 -0.027618 -529165.000000 0 0 1
33.218692 31.952808 18.303413 49.593128 0.765977 1.192786 0.044546 -0.026229 -121641.000000 0 0 1
33.920362 30.870308 17.685713 49.156397 0.738357 1.202759 0.072412 -0.031212 145686.000000 0 0 1
34.836912 30.165408 18.704413 49.733463 0.713655 1.185220 0.060607 -0.038686 646033.000000 0 0 1
35.918122 31.033708 19.113513 51.171563 0.712573 1.187997 0.061916 -0.030613 907710.000000 0 0 1
37.013052 30.332208 19.711413 51.754697 0.686519 1.180068 0.078281 -0.030633 439970.000000 0 0 1
-36.161595 31.278808 20.363613 51.968274 -0.713123 1.168158 0.095478 -0.029039 7104.580000 0 0 1
-35.482362 32.046808 19.353013 51.580374 -0.734567 1.186183 0.105806 -0.034233 909779.000000 0 0 1
-34.282545 32.783808 19.663613 51.349086 -0.763055 1.177820 0.083916 -0.017510 846555.000000 0 0 1
-34.521625 34.039108 20.533313 52.649980 -0.778360 1.170168 0.059972 -0.015314 -180064.000000 0 0 1
-34.520635 33.770808 21.929913 53.038314 -0.774419 1.144531 0.050931 -0.011113 26440.600000 0 0 1
-34.307134 -33.142295 22.660413 52.809899 0.768130 1.127307 0.023909 -0.000244 -82108.600000 0 0 1
-34.223069 -33.320495 24.179043 53.535968 0.772036 1.102192 0.028219 -0.004191 -201391.000000 0 0 1
-35.487135 -33.679195 24.673693 54.794306 0.759265 1.103699 0.026046 -0.000330 -536080.000000 0 0 1
-35.438320 33.971808 26.010143 55.556150 -0.764273 1.083569 0.030001 0.000196 -947492.000000 0 0 1
-36.731475 33.856408 26.757633 56.669467 -0.744690 1.079045 0.011518 -0.006256 -826982.000000 0 0 1
-36.664335 33.028508 27.876423 56.676721 -0.733276 1.056584 0.023552 -0.006991 -324545.000000 0 0 1
36.308732 33.029408 28.611993 56.814716 0.738139 1.043034 0.024444 -0.015437 -14767.500000 0 0 1
36.249272 32.031508 29.784573 56.807992 0.723706 1.018901 0.028391 -0.004524 -145816.000000 0 0 1
36.116762 30.644008 29.496593 55.798967 0.703605 1.013819 0.020291 -0.000881 -105486.000000 0 0 1
37.044352 30.065608 28.614383 55.632793 0.681781 1.030554 0.028538 -0.004439 -446018.000000 0 0 1
36.686402 28.607708 28.276713 54.441395 0.662296 1.024651 0.039528 -0.000577 -668588.000000 0 0 1
35.649102 28.376308 27.378903 53.157103 0.672291 1.029723 0.027051 0.000845 -400812.000000 0 0 1
35.529022 27.076608 26.785853 52.085852 0.651199 1.030648 0.040622 -0.006027 -71815.900000 0 0 1
34.972492 25.976008 27.731713 51.641806 0.638848 1.003918 0.031189 -0.007451 104682.000000 0 0 1
35.925252 25.582008 28.729153 52.634847 0.618794 0.993429 0.035314 -0.003662 284844.000000 0 0 1
35.685652 24.228408 29.115903 52.040535 0.596451 0.977032 0.048088 -0.007846 382077.000000 0 0 1
36.293132 23.111108 28.114333 51.397767 0.567033 0.992026 0.051403 -0.013818 661215.000000 0 0 1
35.711012 23.149508 26.785173 50.285401 0.575141 1.009052 0.064032 -0.008217 234890.000000 0 0 1
36.570652 22.437108 25.927323 50.130455 0.550307 1.027224 0.072792 -0.032132 -189453.000000 0 0 1
36.459552 20.864908 25.854533 49.326465 0.519784 1.019078 0.076391 -0.037531 -217290.000000 0 0 1
35.182942 20.435908 25.396683 47.963082 0.526217 1.012780 0.103326 -0.018509 554828.000000 0 0 1
34.844992 19.098808 25.738033 47.343260 0.501389 0.996020 0.107591 -0.016892 -331894.000000 0 0 1
34.518652 18.823508 27.237463 47.830337 0.499238 0.964948 0.082897 0.000914 -490651.000000 0 0 1
33.295822 19.193408 27.816203 47.441963 0.522924 0.944287 0.060164 -0.009670 50045.800000 0 0 1
33.219542 20.619408 27.986983 48.082940 0.555502 0.949541 0.061934 -0.032452 -862750.000000 0 0 1
32.238982 21.141208 29.089643 48.296066 0.580418 0.924393 0.059547 -0.021899 357655.000000 0 0 1
30.844042 21.010408 28.817063 47.150984 0.597985 0.913264 0.060671 -0.022321 779168.000000 0 0 1
30.346852 21.873508 27.741893 46.572464 0.624539 0.932695 0.043150 -0.011404 -382791.000000 0 0 1
29.980812 23.270508 28.298193 47.340821 0.660047 0.930099 0.037785 -0.003118 -514697.000000 0 0 1
31.150972 24.050208 28.379553 48.520043 0.657466 0.946035 0.039358 -0.011356 -149765.000000 0 0 1
31.058632 25.350408 28.953743 49.453018 0.684548 0.945325 0.021834 -0.001993 -101528.000000 0 0 1
31.296842 25.266708 30.436693 50.440967 0.679191 0.923023 0.026196 -0.006759 -318633.000000 0 0 1
32.660412 25.109308 30.747273 51.405979 0.655425 0.929635 0.024979 0.004805 -311778.000000 0 0 1
32.979502 25.069308 32.118302 52.418537 0.649964 0.911289 0.039453 0.003730 572.835000 0 0 1
32.507182 23.925408 33.001446 52.136719 0.634483 0.885401 0.052733 0.000795 -267390.000000 0 0 1
32.819302 24.140208 -33.574605 52.793090 0.634188 2.260056 0.052996 -0.015690 49480.300000 0 0 1
32.687682 22.932708 -32.816415 51.684724 0.611779 2.258720 0.051790 -0.028501 -480165.000000 0 0 1
33.337632 22.967408 -31.417295 51.243985 0.603260 2.230765 0.064168 -0.034358 -55242.200000 0 0 1
32.620962 23.698808 -30.362605 50.474235 0.628284 2.216232 0.053997 -0.041314 412853.000000 0 0 1
33.062822 23.469808 -29.024355 49.863767 0.617309 2.192072 0.076332 -0.047431 338901.000000 0 0 1
34.508722 24.012608 -28.710595 50.909287 0.607930 2.169965 0.083957 -0.026430 719959.000000 0 0 1
35.122472 23.234008 -27.742115 50.428485 0.584427 2.153314 0.077913 -0.024607 -843326.000000 0 0 1
36.157062 23.884808 -27.063485 51.090600 0.583780 2.129061 0.101597 -0.019394 -79144.300000 0 0 1
36.851622 22.915908 -26.030005 50.603775 0.556326 2.111091 0.094784 -0.014569 25070.300000 0 0 1
-36.509525 21.983908 -26.683975 50.281926 -0.541993 2.130207 0.078481 -0.012896 -148046.000000 0 0 1
-36.530265 20.719308 -25.997065 49.392280 -0.515939 2.125085 0.053554 -0.003378 99240.500000 0 0 1
-35.323824 19.823808 -26.402655 48.351381 -0.511403 2.148448 0.062947 -0.000026 960383.000000 0 0 1
-34.092582 20.159208 -25.766025 47.250247 -0.534004 2.147555 0.064954 -0.007067 -106051.000000 0 0 1
-33.027965 19.300208 -26.013335 46.260545 -0.528840 2.167988 0.043067 -0.010159 -19053.600000 0 0 1
-31.760215 19.613008 -25.190035 45.032423 -0.553212 2.164429 0.049037 -0.012201 -153461.000000 0 0 1
-31.923795 19.666708 -23.813375 44.418294 -0.552139 2.136626 0.045233 -0.008959 -820514.000000 0 0 1
-30.748755 19.721908 -23.085075 43.212964 -0.570298 2.134377 0.049539 -0.002994 -728720.000000 0 0 1
-31.005965 20.109108 -21.605175 42.808056 -0.575360 2.099829 0.037178 -0.004181 -125701.000000 0 0 1
-31.729185 19.102408 -20.941775 42.546458 -0.541922 2.085423 0.009576 0.000033 -203477.000000 0 0 1
-32.457055 19.756808 -19.911475 42.898236 -0.546796 2.053478 0.013657 0.006378 144298.000000 0 0 1
-33.543465 18.821208 -19.260475 43.015901 -0.511325 2.035046 -0.005804 0.005936 683475.000000 0 0 1
-34.143386 19.261808 -18.006975 43.139763 -0.513638 2.001390 0.001588 0.001126 140246.000000 0 0 1
-35.261212 20.091908 -18.182075 44.470503 -0.517919 1.991998 0.013895 0.001202 -1223520.000000 0 0 1
-36.194975 19.982008 -17.017775 44.709747 -0.504428 1.961271 0.026002 -0.007799 -1020630.000000 0 0 1
-35.842176 20.557308 -15.803675 44.238226 -0.520744 1.936108 0.026893 -0.014371 -28442.500000 0 0 1
-36.756775 20.171308 -14.815875 44.468554 -0.501905 1.910467 0.034578 -0.007450 -1077930.000000 0 0 1
-36.697515 21.049308 -13.553475 44.423841 -0.520774 1.880834 0.044058 -0.008356 -304664.000000 0 0 1
-37.025445 22.384208 -13.729575 45.392043 -0.543768 1.878076 0.055022 -0.015513 315059.000000 0 0 1
35.813162 22.705208 -14.024875 44.663253 0.565038 1.890214 0.065874 -0.016409 -233204.000000 0 0 1
35.527292 24.168108 -14.479275 45.342423 0.597360 1.895821 0.070234 -0.019142 86748.800000 0 0 1
35.869802 25.210108 -13.580175 45.897858 0.612618 1.871171 0.068576 -0.022082 74612.400000 0 0 1
35.438142 26.433308 -14.119675 46.410634 0.640872 1.879930 0.051187 -0.015331 -463298.000000 0 0 1
36.520322 27.379308 -14.637975 47.933608 0.643309 1.881134 0.083854 -0.016033 -222159.000000 0 0 1
37.054842 27.019308 -15.900575 48.537950 0.630037 1.904549 0.081142 -0.012422 139649.000000 0 0 1
-36.008033 27.836708 -16.191675 48.307671 -0.658103 1.912591 0.079967 -0.016508 -616615.000000 0 0 1
-35.635647 27.690608 -17.691275 48.473191 -0.660588 1.944397 0.076747 -0.017133 204329.000000 0 0 1
-34.945441 26.474308 -18.117275 47.437416 -0.648341 1.962669 0.071852 -0.020017 106955.000000 0 0 1
-33.639335 26.346308 -17.654675 46.232243 -0.664412 1.962614 0.073871 -0.011218 -1071340.000000 0 0 1
-33.002765 25.046108 -18.089175 45.207391 -0.649179 1.982463 0.065466 -0.012929 -242586.000000 0 0 1
-32.640585 25.062008 -19.463175 45.522820 -0.654807 2.012575 0.060381 -0.004217 288327.000000 0 0 1
-32.291615 23.779108 -19.937175 44.784878 -0.634731 2.032168 0.044334 -0.001221 -206109.000000 0 0 1
-31.931245 23.664608 -21.406275 45.142515 -0.637788 2.064844 0.038881 0.008568 -164625.000000 0 0 1
-33.029895 23.838408 -22.263375 46.420917 -0.625156 2.070993 0.061602 0.004690 272826.000000 0 0 1
-32.649385 23.609308 -23.626675 46.707617 -0.626073 2.101154 0.067667 0.001579 779863.000000 0 0 1
-33.696605 24.199908 -24.686875 48.275651 -0.622817 2.107578 0.044668 0.001917 626089.000000 0 0 1
-33.723635 25.564908 -24.811575 49.055706 -0.648647 2.101086 0.038463 0.009163 -81238.800000 0 0 1
-34.471763 26.043008 -25.916015 50.380358 -0.647004 2.111112 0.042901 -0.002901 -100383.000000 0 0 1
-34.076535 27.440908 -26.415835 51.107827 -0.677948 2.113981 0.020110 0.000641 -336182.000000 0 0 1
-32.799395 27.481608 -26.987375 50.590093 -0.697409 2.133473 0.010470 0.006624 -615404.000000 0 0 1
-32.491445 28.835508 -27.288875 51.301688 -0.725855 2.131674 0.011333 -0.002417 -1618170.000000 0 0 1
-31.166505 29.046308 -27.891525 50.921274 -0.750201 2.150455 0.013691 0.001186 -1300090.000000 0 0 1
-30.161855 28.563708 -26.987435 49.537304 -0.758191 2.146935 -0.017950 0.003185 685358.000000 0 0 1
-28.839415 28.583808 -27.548355 49.067889 -0.780947 2.166913 0.028860 0.003468 1226690.000000 0 0 1
-27.902775 29.799408 -27.269275 49.093614 -0.818256 2.159706 0.022431 -0.000493 179811.000000 0 0 1
-27.301345 29.948608 -25.981255 48.138427 -0.831606 2.140900 0.018274 0.003956 976750.000000 0 0 1
-28.273605 30.403808 -24.993675 48.461036 -0.821686 2.112677 0.009743 0.010436 679953.000000 0 0 1
-27.581855 30.769408 -23.692475 47.632432 -0.839971 2.091398 -0.006014 0.008026 309270.000000 0 0 1
-26.791285 31.958108 -23.749075 47.990751 -0.873119 2.088479 -0.000150 0.008292 286451.000000 0 0 1
-26.070595 32.262808 -22.586575 47.230478 -0.891154 2.069424 0.012911 0.024269 -77249.200000 0 0 1
-25.464055 33.671608 -22.743375 47.952647 -0.923309 2.064952 0.004430 0.027565 3284.560000 0 0 1
-26.315725 -33.392695 -22.318475 48.017744 0.903373 2.054201 -0.005139 0.012899 441816.000000 0 0 1
-25.510855 -32.212295 -22.348075 46.774695 0.900977 2.068924 0.011675 0.014526 454986.000000 0 0 1
17.306465 8.742008 -24.623175 31.340663 0.467743 2.474562 0.045885 -0.017999 -594542.000000 0 0 1
16.024465 8.162008 -24.714575 30.564883 0.471097 2.512554 0.027553 -0.020290 -26360.700000 0 0 1
16.069365 6.815308 -25.094725 30.568254 0.401123 2.533853 0.021213 -0.024841 -319388.000000 0 0 1
14.710965 6.113008 -25.219815 29.829858 0.393832 2.578214 0.064167 -0.036527 -528488.000000 0 0 1
14.028765 6.115008 -24.008375 28.471067 0.411059 2.574107 0.083245 -0.035254 -1264200.000000 0 0 1
12.768765 5.645208 -24.323475 28.045341 0.416274 2.620531 0.086837 -0.030801 -1215870.000000 0 0 1
11.842565 5.697508 -23.084975 26.563584 0.448417 2.624067 0.082838 -0.033318 -108625.000000 0 0 1
12.185865 4.802608 -21.992775 25.597705 0.375421 2.604441 0.079743 -0.020768 335481.000000 0 0 1
11.412665 5.176808 -20.841675 24.319204 0.425845 2.600225 0.087861 -0.015616 63831.600000 0 1 0
11.839865 6.376308 -19.967775 24.073881 0.494007 2.548896 0.087105 -0.029349 -114020.000000 0 1 0
11.070565 6.581008 -18.785275 22.776164 0.536336 2.540605 0.067654 -0.013504 -295608.000000 0 1 0
11.257765 7.857008 -18.214375 22.808623 0.609328 2.495719 0.065461 -0.019354 1185060.000000 0 1 0
12.701865 8.253108 -17.692975 23.291469 0.576203 2.433545 0.046915 -0.018734 1244890.000000 0 1 0
13.239765 7.568908 -16.512175 22.477359 0.519336 2.395893 0.062033 -0.024666 -511089.000000 0 1 0
14.386165 8.214708 -16.145675 23.132790 0.518834 2.343336 0.040652 -0.017668 -1258960.000000 0 1 0
15.064065 7.718008 -14.859675 22.523402 0.473475 2.291274 0.053250 -0.028529 -199643.000000 0 1 0
16.302665 8.382808 -14.717375 23.508498 0.474942 2.247267 0.036545 -0.030612 288848.000000 0 1 0
16.741265 8.145708 -13.399675 22.938479 0.452842 2.194637 0.024246 -0.031604 -414039.000000 0 1 0
17.510365 9.323608 -12.814875 23.617019 0.489279 2.144340 0.070164 -0.035833 256594.000000 0 1 0
16.674665 10.475208 -12.633475 23.396135 0.560905 2.141211 0.086170 -0.031446 799097.000000 0 1 0
17.471865 11.433108 -11.988075 24.076876 0.579443 2.091981 0.134479 -0.054430 105157.000000 0 1 0
16.743765 12.754708 -11.597875 24.032207 0.650984 2.074414 0.155707 -0.046907 -29371.400000 0 1 0
15.560365 12.635308 -10.830575 22.783269 0.682027 2.066185 0.149643 -0.029035 550894.000000 0 1 0
15.124365 13.806708 -10.107775 22.837222 0.739885 2.029293 0.080347 -0.021304 -224435.000000 0 1 0
14.629965 15.025208 -10.891775 23.630987 0.798725 2.049817 0.081880 -0.018263 -627357.000000 0 1 0
13.567465 15.559408 -10.151575 23.004908 0.853680 2.027819 0.120837 -0.024851 -133607.000000 0 1 0
13.334865 16.917608 -10.457375 23.945371 0.903277 2.022743 0.119721 -0.017973 116970.000000 0 1 0
12.201165 17.475508 -9.565675 23.361591 0.961288 1.992660 0.112917 -0.014896 -2692.470000 0 1 0
12.541165 17.317108 -8.201275 22.900305 0.944008 1.937060 0.091282 -0.019117 892245.000000 0 1 0
11.433965 17.456008 -7.275375 22.099296 0.990903 1.906266 0.075533 -0.023186 567424.000000 0 1 0
11.792665 16.965908 -5.845275 21.472686 0.963380 1.846495 0.062820 -0.028031 447226.000000 0 1 0
12.802165 17.818108 -5.313375 22.574596 0.947767 1.808395 0.069443 -0.032465 378370.000000 0 1 0
13.547865 17.260108 -4.261475 22.352095 0.905316 1.762623 0.089333 -0.034355 -295770.000000 0 1 0
14.613065 18.202108 -3.655275 23.626668 0.894337 1.726130 0.087675 -0.035711 51470.000000 0 1 0
15.713865 18.489508 -4.502175 24.679081 0.866372 1.754252 0.097090 -0.041103 315291.000000 0 1 0
16.409865 19.657008 -4.123175 25.936118 0.875187 1.730448 0.081271 -0.031176 91775.000000 0 0 1
17.826965 19.903208 -4.716575 27.132720 0.840371 1.745517 0.060804 -0.028860 405605.000000 0 0 1
18.823065 19.062708 -4.176875 27.113482 0.791723 1.725464 0.066721 -0.044455 59548.400000 0 0 1
19.147465 18.080608 -5.123775 26.828844 0.756749 1.762957 0.080751 -0.041178 -588852.000000 0 0 1
20.177065 16.978908 -4.859875 26.814468 0.699536 1.753044 0.103134 -0.047846 917244.000000 0 0 1
21.533465 17.493308 -4.772575 28.151082 0.682243 1.741153 0.095496 -0.051033 1325290.000000 0 0 1
22.383965 16.549008 -4.164175 28.146970 0.636634 1.719285 0.105994 -0.054193 385983.000000 0 0 1
23.912365 16.517008 -4.464275 29.403104 0.604478 1.723216 0.107380 -0.046884 295894.000000 0 0 1
24.522765 17.680308 -4.040575 30.500583 0.624665 1.703662 0.123484 -0.047194 -317786.000000 0 0 1
25.911665 17.510308 -3.904775 31.516227 0.594278 1.695013 0.097480 -0.038730 -200344.000000 0 0 1
26.581665 18.805608 -3.350775 32.733218 0.615719 1.673342 0.115732 -0.031555 -149136.000000 0 0 1
26.473765 19.997508 -4.138975 33.434888 0.646930 1.694907 0.124023 -0.032866 226574.000000 0 0 1
26.785765 21.145508 -3.323275 34.287810 0.668263 1.667872 0.116549 -0.008158 -195243.000000 0 0 1
26.764865 22.543708 -4.007375 35.222661 0.699999 1.684816 0.080779 -0.005426 -323414.000000 0 0 1
27.828265 22.967408 -4.829175 36.403779 0.689994 1.703844 0.078843 0.005547 9798.380000 0 0 1
28.182265 22.191408 -5.938575 36.358841 0.667026 1.734864 0.085506 -0.001797 -209598.000000 0 0 1
29.245265 22.789008 -6.858675 37.704985 0.661952 1.753718 0.073556 -0.001488 -235413.000000 0 0 1
28.749165 23.886208 -7.664175 38.155013 0.693270 1.773042 0.063290 0.000639 189635.000000 0 0 1
29.749665 24.642208 -8.311875 39.514153 0.691772 1.782731 0.051410 -0.000514 290494.000000 0 0 1
30.725965 23.934408 -9.334075 40.050790 0.661782 1.806015 0.057820 -0.010927 459809.000000 0 0 1
30.147665 23.680408 -10.625375 39.781177 0.665825 1.841174 0.050969 -0.003803 -200121.000000 0 0 1
31.133465 23.370308 -11.562975 40.609929 0.643916 1.859524 0.041138 -0.007456 -294605.000000 0 0 1
30.662565 22.870908 -12.955975 40.387234 0.640866 1.897364 0.057939 -0.006678 -19665.100000 0 0 1
30.449065 23.915308 -13.917775 41.143554 0.665787 1.915878 0.054352 -0.014793 122459.000000 0 0 1
30.279665 23.335008 -15.163575 41.125597 0.656586 1.948421 0.061391 -0.016995 -118166.000000 0 0 1
30.606765 24.121808 -16.448075 42.298639 0.667455 1.970186 0.057547 -0.006689 1319400.000000 0 0 1
32.028865 24.303008 -16.697375 43.534891 0.649100 1.964423 0.055332 -0.003088 1298230.000000 0 0 1
32.290565 24.878808 -17.992875 44.557595 0.656472 1.986476 0.072193 -0.011601 -30599.100000 0 0 1
33.746465 25.359508 -18.086375 45.924346 0.644442 1.975591 0.075760 -0.015223 -275264.000000 0 0 1
34.681065 24.336608 -18.237475 46.126481 0.611883 1.977278 0.082446 -0.011067 -1408570.000000 0 0 1
35.961865 24.827908 -18.314775 47.382610 0.604251 1.967662 0.084685 -0.019090 -1008630.000000 0 0 1
37.083065 23.793608 -18.039175 47.609887 0.570469 1.959399 0.070643 -0.017805 37632.200000 0 0 1
-37.031561 22.806808 -19.077175 47.491321 -0.552011 1.984167 0.061344 -0.006554 376224.000000 0 0 1
-36.237561 23.242408 -20.187075 47.548800 -0.570299 2.009267 0.081640 -0.003467 -207045.000000 0 0 1
-36.278761 22.352708 -21.458175 47.710013 -0.552201 2.037296 0.080727 -0.008301 51988.000000 0 0 1
-35.823061 21.008708 -21.290575 46.668470 -0.530402 2.044527 0.056947 -0.007463 354517.000000 0 0 1
-35.668561 20.468908 -22.579175 46.915260 -0.520980 2.072906 0.039317 -0.007082 -84534.500000 0 0 1
-35.400861 18.928008 -22.569775 46.053069 -0.491002 2.082980 0.023911 -0.008689 238342.000000 0 0 1
-36.522161 18.138608 -22.211475 46.435191 -0.460961 2.069552 0.032155 -0.013273 161360.000000 0 0 1
-36.196261 16.761108 -22.260075 45.679481 -0.433663 2.079803 0.019976 -0.014067 193013.000000 0 0 1
36.766065 15.801708 -22.198775 45.762683 0.405921 2.077256 0.014375 -0.011988 -913937.000000 0 0 1
35.788665 15.922108 -23.135275 45.492670 0.418598 2.104296 0.060445 -0.017274 -991935.000000 0 0 1
34.796165 14.968608 -22.897275 44.261920 0.406250 2.114505 0.079195 -0.008018 -566869.000000 0 0 1
34.964665 13.629608 -23.570375 44.315422 0.371692 2.131612 0.034482 -0.009634 -671371.000000 0 0 1
34.840265 13.747708 -24.973775 45.017030 0.375836 2.158874 0.034122 0.001334 85355.700000 0 0 1
35.221165 12.508208 -25.522865 45.259280 0.341241 2.169928 0.027207 0.005645 -126977.000000 0 0 1
34.955365 12.409108 -27.097975 45.936519 0.341121 2.201732 0.035005 0.003759 637657.000000 0 0 1
33.554965 12.610708 -27.339645 45.082389 0.359491 2.222369 0.015081 0.005081 787615.000000 0 0 1
33.181565 13.896808 -27.906805 45.529411 0.396617 2.230573 0.027136 0.002630 -201025.000000 0 0 1
33.438665 14.090208 -29.437085 46.724943 0.398796 2.252360 0.042391 -0.004696 881696.000000 0 0 1
34.845765 14.211708 -29.733775 47.961415 0.387252 2.239478 0.040217 -0.001354 1004800.000000 0 0 1
35.217465 14.245408 -31.115585 49.105816 0.384378 2.257050 0.048905 -0.002579 839948.000000 0 0 1
36.783865 14.301408 -31.309755 50.377413 0.370810 2.241457 0.080994 -0.011768 1404790.000000 0 0 1
-36.589561 13.145608 -31.039255 49.749757 -0.344911 2.244529 0.081918 -0.007236 255414.000000 0 0 1
-36.244361 13.190608 -29.662345 48.656968 -0.349035 2.226380 0.062157 -0.009795 -819614.000000 0 0 1
-35.142861 12.206708 -29.270085 47.336691 -0.334308 2.237423 0.065442 -0.014671 -381317.000000 0 0 1
-35.414161 10.873008 -29.315725 47.241897 -0.297889 2.240234 0.071158 -0.014237 -237304.000000 0 0 1
-34.263361 10.114108 -29.069945 46.057950 -0.287036 2.253844 0.069874 -0.019032 -194488.000000 0 0 1
-34.263861 8.626408 -29.593975 46.089374 -0.246638 2.268030 0.085764 -0.017178 -772876.000000 0 0 1
-34.463961 8.579608 -30.985585 47.132587 -0.243985 2.288177 0.078592 -0.017523 399837.000000 0 0 1
-35.008661 7.360708 -31.554315 47.701794 -0.207235 2.293602 0.081179 -0.023110 426126.000000 0 0 1
-36.362961 6.857808 -30.994195 48.269396 -0.186404 2.268042 0.093179 -0.006877 -329414.000000 0 0 1
-36.183561 6.150308 -29.763115 47.253776 -0.168366 2.252165 0.095079 -0.017035 9870.720000 0 0 1
36.798465 5.547308 -29.353755 47.397707 0.149622 2.238657 0.088587 -0.009916 -306905.000000 0 0 1
36.920365 4.966408 -27.947135 46.570602 0.133714 2.214426 0.086490 -0.009071 -77968.300000 0 0 1
-36.516961 3.744508 -27.964735 46.146898 -0.102184 2.221811 0.099692 -0.005681 69326.900000 0 0 1
37.048865 2.648508 -27.363425 46.134478 0.071365 2.205729 0.104020 -0.003779 -500814.000000 0 0 1
-36.266861 1.387408 -27.253795 45.386996 -0.038237 2.214892 0.131881 -0.008758 -443361.000000 0 0 1
-35.222561 1.504608 -26.345915 44.011361 -0.042691 2.212569 0.125878 -0.009526 -88148.000000 0 0 1
-34.341061 0.366408 -26.286605 43.248449 -0.010669 2.224089 0.128462 -0.012121 415370.000000 0 0 1
-33.086461 0.515608 -25.410955 41.721654 -0.015582 2.225670 0.123422 -0.008389 -28407.600000 0 0 1
-33.342261 0.200108 -24.044275 41.108072 -0.006002 2.195558 0.115852 -0.011297 481864.000000 0 0 1
-32.302961 0.713108 -23.231075 39.795385 -0.022072 2.194152 0.133436 -0.008220 300302.000000 0 0 1
-32.740461 0.507708 -21.764875 39.318003 -0.015506 2.157429 0.127311 -0.003191 -177981.000000 0 0 1
-32.697061 -0.839092 -21.312075 39.038525 0.025657 2.148288 0.139235 -0.017565 201879.000000 0 0 1
-33.172361 -1.028092 -19.993775 38.745497 0.030983 2.113004 0.125026 -0.020802 1222680.000000 0 0 1
-34.721161 -0.876192 -19.689175 39.924809 0.025230 2.086511 0.102306 -0.014930 974609.000000 0 0 1
-35.568861 -1.906292 -20.155175 40.926873 0.053543 2.085720 0.093208 -0.015015 312972.000000 0 0 1
-36.945661 -1.567792 -20.005875 42.043726 0.042410 2.066709 0.074975 -0.014093 441482.000000 0 0 1
36.378465 -2.801492 -19.761575 41.494107 -0.076858 2.067182 0.065820 -0.023010 -428566.000000 0 0 1
36.012765 -3.584392 -20.856575 41.770370 -0.099204 2.093604 0.060141 -0.020838 -400862.000000 0 0 1
37.058665 -4.385592 -21.281175 42.958893 -0.117794 2.089074 0.057341 -0.016403 -569390.000000 0 0 1
36.688265 -5.400592 -22.431575 43.340175 -0.146153 2.114805 0.051668 -0.015917 -257694.000000 0 0 1
36.167365 -6.647292 -21.972375 42.837484 -0.181764 2.109384 0.050931 -0.012880 238583.000000 0 0 1
35.747965 -7.551792 -22.969575 43.157247 -0.208190 2.132029 0.049258 -0.010006 1279100.000000 0 0 1
34.312365 -7.294492 -23.620375 42.290308 -0.209472 2.163408 0.032207 -0.008533 914419.000000 0 0 1
34.088465 -6.124092 -24.400475 42.366392 -0.177757 2.184549 0.048633 -0.015837 -46444.500000 0 0 1
32.720665 -6.012592 -24.727475 41.451673 -0.181728 2.209976 0.040997 -0.014911 -52075.100000 0 0 1
32.330265 -4.891792 -25.715885 41.599067 -0.150168 2.237227 0.066173 -0.034077 -15307.600000 0 0 1
32.677765 -5.295792 -27.026305 42.735265 -0.160664 2.255460 0.059213 -0.034311 276857.000000 0 0 1
32.529365 -4.212292 -27.912665 43.069942 -0.128775 2.275854 0.067891 -0.039113 -222889.000000 0 0 1
32.099765 -4.616692 -29.340095 43.732710 -0.142844 2.306213 0.070325 -0.036171 64992.300000 0 0 1
31.725565 -3.492392 -30.165035 43.916257 -0.109640 2.327979 0.077137 -0.045031 -85849.500000 0 0 1
31.074865 -3.933492 -31.293705 44.276580 -0.125912 2.355729 0.087198 -0.048289 -667697.000000 0 0 1
30.654665 -2.870292 -32.366205 44.671224 -0.093361 2.381167 0.086542 -0.037021 608049.000000 0 0 1
29.630765 -1.869792 -32.085835 43.714748 -0.063019 2.394963 0.077381 -0.026694 1489470.000000 0 0 1
28.274365 -2.317092 -32.026705 42.784559 -0.081768 2.416680 0.083365 -0.024738 1018240.000000 0 0 1
27.437165 -2.636992 -33.316725 43.240674 -0.095816 2.450414 0.098758 -0.037849 -61019.500000 0 0 1
28.080565 -3.572892 33.819229 44.102425 -0.126557 0.696903 0.115060 -0.050329 357328.000000 0 0 1
27.341565 -3.736892 32.568815 42.687858 -0.135833 0.702928 0.091190 -0.037433 178483.000000 0 0 1
28.037765 -4.838692 31.681283 42.582072 -0.170894 0.731752 0.072911 -0.050441 1288390.000000 0 0 1
29.423465 -4.605392 31.362533 43.249953 -0.155261 0.759550 0.086114 -0.044956 887338.000000 0 0 1
29.667865 -3.553092 30.438933 42.653667 -0.119195 0.776130 0.116279 -0.044929 -482307.000000 0 0 1
30.196865 -2.192392 31.074883 43.385546 -0.072476 0.772383 0.095748 -0.041598 1423680.000000 0 0 1
31.595765 -2.348392 31.483183 44.665402 -0.074190 0.788560 0.080404 -0.034650 1323590.000000 0 0 1
32.003765 -1.204092 32.145134 45.376210 -0.037606 0.783548 0.068876 -0.025285 -277115.000000 0 0 1
33.483965 -1.243292 32.552885 46.716293 -0.037114 0.799841 0.059148 -0.023305 425685.000000 0 0 1
34.409465 -1.366992 31.450313 46.636918 -0.039706 0.830692 0.069397 -0.022800 101733.000000 0 0 1
35.697065 -1.723792 31.881563 47.892442 -0.048252 0.842377 0.059334 -0.018917 360331.000000 0 0 1
36.559465 -2.346192 30.699053 47.796767 -0.064087 0.873323 0.067304 -0.013645 380976.000000 0 0 1
36.822065 -1.472692 29.625883 47.283467 -0.039974 0.893666 0.069305 -0.008971 120339.000000 0 0 1
-36.225761 -1.963092 28.937313 46.406116 0.054138 0.897499 0.070817 -0.008243 182474.000000 0 0 1
-36.097861 -1.296892 27.525303 45.413432 0.035912 0.919642 0.088574 -0.008330 -290588.000000 0 0 1
-37.015361 -1.737292 26.596353 45.612730 0.046900 0.948269 0.111247 -0.027082 -595370.000000 0 0 1
-36.802761 -1.154592 25.351433 44.704266 0.031362 0.967825 0.120227 -0.025326 7900.050000 0 0 1
-27.200795 14.898308 13.180525 33.698206 -0.501088 1.168933 0.108418 -0.003489 331584.000000 0 0 1
-28.491675 14.295008 13.115925 34.469556 -0.465027 1.180451 0.099468 -0.009485 249158.000000 0 0 1
-29.478755 15.179908 13.570925 35.827316 -0.475531 1.182311 0.101948 -0.008730 -1317030.000000 0 0 1
-30.807905 14.490408 13.604925 36.663236 -0.439645 1.190627 0.101949 -0.011999 -801919.000000 0 0 1
-31.788585 15.208108 14.359825 38.052664 -0.446230 1.183845 0.091980 -0.018202 -43127.500000 0 0 1
-32.909855 14.387808 14.623925 38.780494 -0.412149 1.184139 0.103658 -0.022633 -324479.000000 0 0 1
-33.859485 15.036608 15.576725 40.189534 -0.417927 1.172790 0.095668 -0.021585 -119921.000000 0 0 1
-33.175695 15.312608 16.830025 40.228751 -0.432426 1.139159 0.068461 -0.013716 492631.000000 0 0 1
-34.020935 15.942108 17.756325 41.555528 -0.438211 1.129301 0.067228 -0.021795 -45678.900000 0 0 1
-33.262805 16.160608 19.061025 41.604112 -0.452261 1.094881 0.068834 -0.004253 -77093.100000 0 0 1
-32.790615 14.979608 19.683725 41.073862 -0.428516 1.071022 0.062853 -0.017855 638762.000000 0 0 1
-31.565445 15.279508 20.387725 40.564763 -0.450813 1.044196 0.078639 -0.011833 728425.000000 0 0 1
-31.694645 15.805908 21.853425 41.616697 -0.462602 1.017950 0.082679 -0.027163 -421236.000000 0 0 1
-32.159835 17.154308 21.907825 42.526204 -0.490015 1.029601 0.059055 -0.023553 213588.000000 0 0 1
-32.442925 17.742308 23.200525 43.653147 -0.500443 1.010456 0.060321 -0.038511 -504822.000000 0 0 1
-33.353455 16.923708 24.152625 44.522064 -0.469554 0.997402 0.056420 -0.029797 -130534.000000 0 0 1
-34.630131 16.584708 23.669225 45.105773 -0.446634 1.018376 0.117033 -0.027942 600938.000000 0 0 1
-35.664328 17.572008 23.716125 46.294431 -0.457795 1.032948 0.122938 -0.035785 447532.000000 0 0 1
37.057982 17.048508 23.587525 47.120240 0.431180 1.046526 0.085177 -0.045023 220376.000000 0 0 1
36.648042 16.212208 24.595825 47.019882 0.416496 1.020319 0.099278 -0.032519 -8093.380000 0 0 1
35.381322 15.660908 24.255825 45.666695 0.416710 1.010840 0.127982 -0.040583 427829.000000 0 0 1
34.746832 14.859308 25.426825 45.548489 0.404109 0.978538 0.126107 -0.024688 -849939.000000 0 0 1
33.986732 15.605208 26.305625 45.723150 0.430442 0.957796 0.101043 -0.025427 -231474.000000 0 0 1
33.647132 14.967008 27.492525 45.956281 0.418540 0.929503 0.103204 -0.019426 474647.000000 0 0 1
32.640632 13.760708 27.404625 44.785951 0.398972 0.912333 0.107112 -0.016178 -199228.000000 0 0 1
33.246042 12.647408 26.918225 44.607702 0.363513 0.922984 0.100646 -0.020625 -165835.000000 0 0 1
32.295932 11.587708 26.956325 43.634226 0.344491 0.904881 0.092975 -0.009354 426368.000000 0 0 1
32.883452 10.166108 26.712725 43.568806 0.299835 0.910798 0.100608 -0.016266 251825.000000 0 0 1
33.738292 9.690208 27.752025 44.747597 0.279688 0.901811 0.097635 -0.009248 40972.200000 0 0 1
34.284202 8.436008 27.463025 44.730197 0.241268 0.909715 0.101426 -0.006274 -15414.500000 0 0 1
35.452052 8.036408 28.394425 46.126730 0.222917 0.907682 0.090078 -0.004914 1054580.000000 0 0 1
36.748712 8.538808 28.024125 46.997135 0.228305 0.931919 0.082117 -0.007668 608692.000000 0 0 1
-36.358105 7.972608 28.725825 47.017521 -0.215864 0.913524 0.085657 -0.005506 -259159.000000 0 0 1
-35.137221 8.872008 28.819325 46.302163 -0.247326 0.898967 0.076819 -0.007547 -643986.000000 0 0 1
-34.376302 8.896508 27.650925 45.005018 -0.253242 0.909175 0.077092 -0.006360 -220334.000000 0 0 1
-33.206995 9.645308 27.891625 44.426110 -0.282682 0.892046 0.084170 -0.003814 140292.000000 0 0 1
-32.452525 10.161008 26.625525 43.189478 -0.303435 0.906530 0.076806 -0.009010 53446.000000 0 0 1
-31.841985 9.204108 25.801225 42.003938 -0.281386 0.909352 0.080095 -0.019067 591015.000000 0 0 1
-30.888655 9.839808 24.930925 40.895988 -0.308394 0.915218 0.083345 -0.017795 511307.000000 0 0 1
-30.172515 8.873808 23.943625 39.527488 -0.286037 0.920093 0.086762 -0.023938 -436830.000000 0 0 1
-29.255435 9.418208 23.070525 38.429575 -0.311453 0.926879 0.091187 -0.027765 -595199.000000 0 0 1
-28.734475 8.266208 22.462825 37.397577 -0.280112 0.926483 0.101227 -0.028437 -328940.000000 0 0 1
-27.617205 8.655408 21.453825 36.026278 -0.303710 0.932902 0.088264 -0.030342 -717797.000000 0 0 1
-26.559555 9.214308 22.232425 35.841235 -0.333937 0.901667 0.094288 -0.020862 831877.000000 0 0 1
-25.481265 9.871708 21.532625 34.790795 -0.369606 0.903433 0.088950 -0.018663 1019180.000000 0 0 1
-24.658635 9.022608 20.539225 33.336399 -0.350769 0.906989 0.080742 -0.029722 -721007.000000 0 0 1
-25.361715 8.899808 19.284425 33.080390 -0.337490 0.948434 0.084247 -0.033181 539812.000000 0 0 1
-24.794635 7.943608 18.399725 31.881416 -0.310044 0.955586 0.083322 -0.034089 -248417.000000 0 0 1
-24.671235 6.474408 18.839325 31.709745 -0.256640 0.934628 0.080280 -0.026530 40094.300000 0 0 1
-23.410835 6.150308 19.430425 31.039248 -0.256907 0.894389 0.065541 -0.018775 709494.000000 0 0 1
-23.300035 4.855008 19.985225 31.078481 -0.205430 0.872313 0.063454 -0.019599 -249000.000000 0 0 1
-23.343935 3.633308 19.038925 30.341735 -0.154404 0.892480 0.064227 -0.030399 241562.000000 0 0 1
-24.675435 3.442608 18.549225 31.061268 -0.138621 0.930813 0.082829 -0.037778 827185.000000 0 0 1
-24.693635 2.742508 17.326725 30.290466 -0.110608 0.961831 0.079402 -0.031217 -52868.100000 0 0 1
-24.549435 1.214508 17.360025 30.091864 -0.049432 0.955867 0.072450 -0.028748 -662842.000000 0 0 1
-23.245035 0.763608 17.640725 29.190922 -0.032839 0.921881 0.051479 -0.018457 244943.000000 0 0 1
-23.359735 -0.602092 17.959025 29.471449 0.025769 0.915530 0.073305 -0.019379 488727.000000 0 0 1
-22.017435 -1.325392 18.334525 28.682380 0.060125 0.877305 0.075970 -0.013507 229219.000000 0 0 1
-21.313835 -0.791592 19.394525 28.828003 0.037123 0.832854 0.051585 -0.006409 632824.000000 0 0 1
-20.223635 -1.703992 19.734525 28.308134 0.084059 0.799406 0.047543 -0.001615 1157890.000000 0 0 1
-19.167935 -1.256092 20.784825 28.301881 0.065437 0.746018 0.052327 -0.004433 318395.000000 0 0 1
-19.576435 -1.129192 22.124325 29.563451 0.057617 0.725199 0.044722 -0.013020 -239308.000000 0 0 1
-18.475935 -0.816992 22.973325 29.492394 0.044190 0.677795 0.036820 -0.013991 -628669.000000 0 0 1
-18.683535 -1.028292 24.502525 30.830271 0.054982 0.652192 0.041657 -0.015990 296129.000000 0 0 1
-19.565235 -0.107292 25.138825 31.855462 0.005484 0.661368 0.035741 -0.016549 59352.300000 0 0 1
-20.922435 -0.125592 24.748025 32.407234 0.006003 0.701837 0.092349 -0.023575 -626340.000000 0 0 1
-21.663535 0.979908 25.534125 33.500157 -0.045202 0.704077 0.073146 -0.026859 -305917.000000 0 0 1
-21.455235 2.300808 24.947325 32.984691 -0.106829 0.713111 0.061007 -0.021522 414856.000000 0 0 1
-22.609735 2.671908 24.209425 33.233048 -0.117630 0.754704 0.068245 -0.023449 -589704.000000 0 0 1
-22.347335 3.910608 23.346925 32.554188 -0.173238 0.771062 0.073591 -0.024674 326360.000000 0 0 1
-21.561135 3.613008 22.191825 31.151460 -0.166028 0.777906 0.082391 -0.023940 681029.000000 0 0 1
-20.186635 3.290708 22.362825 30.305526 -0.161593 0.740824 0.042809 -0.013531 -524238.000000 0 0 1
-19.741635 2.423908 21.165225 29.044349 -0.122170 0.754344 0.034752 -0.014037 -340441.000000 0 0 1
-19.532935 3.231808 19.993325 28.137398 -0.163969 0.780502 0.035208 -0.005325 268105.000000 0 0 1
-19.210935 2.464008 18.842625 27.021767 -0.127564 0.799155 0.051609 -0.011764 -63111.700000 0 0 1
-18.827435 3.352408 17.669325 26.036820 -0.176213 0.824903 0.053123 -0.016159 700191.000000 0 0 1
-17.455935 3.807908 17.693625 25.145063 -0.214779 0.790258 0.068287 -0.021363 919097.000000 0 0 1
-17.191435 4.346908 16.437725 24.179327 -0.247662 0.823272 0.074841 -0.019118 123255.000000 0 1 0
-15.755735 4.932608 16.346625 23.233294 -0.303402 0.790365 0.085628 -0.013446 185285.000000 0 1 0
-15.341735 6.135208 16.997125 23.704680 -0.380423 0.771255 0.080766 -0.021441 88466.800000 0 1 0
-16.131035 7.278508 16.798825 24.400563 -0.423861 0.811432 0.089567 -0.032289 -664084.000000 0 1 0
-15.877235 8.088008 15.449925 23.583949 -0.471147 0.856477 0.076112 -0.033365 56633.400000 0 1 0
-16.319935 7.561108 14.211525 22.923309 -0.433863 0.902105 0.116076 -0.030366 1485430.000000 0 1 0
-17.761035 7.574908 14.026525 23.865812 -0.403132 0.942553 0.083671 -0.035413 1087760.000000 0 1 0
-18.187135 6.557208 12.966425 23.278682 -0.346034 0.980017 0.089688 -0.036931 -4664.690000 0 1 0
-17.793935 5.198108 13.298625 22.814423 -0.284219 0.948498 0.082741 -0.029698 401226.000000 0 1 0
-18.090935 4.360008 12.252525 22.280394 -0.236495 0.988523 0.069231 -0.037370 62060.100000 0 1 0
-17.680335 2.966808 12.665025 21.949921 -0.166254 0.955750 0.062679 -0.015920 -503630.000000 0 1 0
-18.379535 2.500508 13.813225 23.127149 -0.135218 0.930699 0.061712 -0.023315 108444.000000 0 1 0
-18.088935 1.221008 14.248625 23.059136 -0.067398 0.904706 0.062822 -0.014029 -332850.000000 0 1 0
-19.301035 0.610208 14.983925 24.442183 -0.031605 0.910899 0.089274 -0.015669 343765.000000 0 1 0
-20.359735 0.318508 14.072325 24.751779 -0.015643 0.966069 0.088804 -0.021121 269484.000000 0 1 0
-21.494735 -0.193792 14.728325 26.057336 0.009016 0.970087 0.077965 -0.027674 -130009.000000 0 0 1
-22.764235 -0.266792 13.857825 26.651846 0.011719 1.023995 0.089040 -0.021210 -64189.000000 0 0 1
-22.743335 -1.493092 13.182225 26.329824 0.065556 1.046438 0.110232 -0.040116 -1270330.000000 0 0 1
-23.875535 -1.580592 12.490025 26.991483 0.066105 1.089713 0.118591 -0.030035 -1748930.000000 0 0 1
-24.013135 -2.919592 11.763925 26.898784 0.120989 1.118157 0.128607 -0.040921 -82342.800000 0 0 1
-24.130535 -3.996792 12.682625 27.551879 0.164142 1.092443 0.128567 -0.036710 224045.000000 0 0 1
-23.838135 -5.258292 12.089925 27.241009 0.217107 1.110947 0.142399 -0.047667 -80561.300000 0 0 1
-24.024335 -6.514692 13.010225 28.086933 0.264803 1.089179 0.138161 -0.040925 -105498.000000 0 0 1
-25.291345 -6.593292 13.616825 29.471029 0.255018 1.090501 0.114530 -0.029906 54522.100000 0 0 1
-25.511715 -7.928692 14.061525 30.190035 0.301323 1.086295 0.131114 -0.046949 -242591.000000 0 0 1
-26.512775 -8.002092 15.182225 31.582601 0.293126 1.069327 0.127635 -0.037401 205525.000000 0 0 1
-27.887675 -7.721792 14.947525 32.569571 0.270122 1.093993 0.118422 -0.034515 956248.000000 0 0 1
-28.686895 -7.999692 16.138425 33.873024 0.271953 1.074196 0.106658 -0.028087 206809.000000 0 0 1
-30.138085 -7.433892 15.974125 34.910451 0.241834 1.095531 0.097719 -0.025114 608989.000000 0 0 1
-31.024435 -7.936992 14.986025 35.356645 0.250458 1.133101 0.092384 -0.020845 336291.000000 0 0 1
-31.099535 -9.349692 14.735325 35.661290 0.292042 1.144829 0.091925 -0.024032 -807677.000000 0 0 1
-31.446595 -10.289792 15.929025 36.721955 0.316234 1.122119 0.079180 -0.018686 -574488.000000 0 0 1
-30.373405 -10.392092 16.810125 36.236992 0.329659 1.088411 0.087486 -0.015117 -77128.500000 0 0 1
-30.808695 -11.074892 17.974025 37.348286 0.345089 1.068711 0.077619 -0.013602 644515.000000 0 0 1
-29.592205 -11.301692 18.959925 36.917551 0.364819 1.031450 0.082213 -0.004700 48695.800000 0 0 1
-28.635205 -12.074192 18.353925 36.091933 0.399034 1.037317 0.084507 -0.015114 -1519410.000000 0 0 1
-27.442305 -11.802892 18.983725 35.394493 0.406181 1.004694 0.079282 -0.021979 -393297.000000 0 0 1
-26.196335 -12.690392 18.611525 34.549716 0.451117 1.001917 0.096346 -0.018489 336336.000000 0 0 1
-25.608985 -12.376092 17.405425 33.345713 0.450175 1.021639 0.089138 -0.015338 -1483790.000000 0 0 1
-24.486635 -13.083292 17.202925 32.660503 0.490712 1.016060 0.081725 -0.022009 -1359000.000000 0 0 1
-23.868035 -12.816492 15.782025 31.353116 0.492787 1.043309 0.085123 -0.024005 -123370.000000 0 0 1
-23.449735 -11.552392 15.484525 30.382862 0.457746 1.036022 0.080827 -0.029028 -213529.000000 0 0 1
-23.257735 -11.426292 14.109425 29.505224 0.456655 1.072191 0.071186 -0.028690 603252.000000 0 0 1
-21.933335 -10.731892 13.636025 27.967586 0.455048 1.061497 0.079124 -0.038902 -44663.300000 0 0 1
-21.873735 -9.357592 13.983225 27.596293 0.404240 1.039436 0.095253 -0.044880 960786.000000 0 0 1
-20.567335 -8.786592 13.755625 26.257126 0.403742 1.019395 0.115335 -0.041911 780441.000000 0 0 1
-19.953835 -8.787592 12.361725 25.063710 0.414839 1.055018 0.145722 -0.034518 -700588.000000 0 0 1
-19.465535 -10.046092 11.827925 24.894393 0.476442 1.075691 0.139694 -0.037424 306213.000000 0 1 0
-19.496935 -10.107092 10.455625 24.322908 0.478254 1.126450 0.173110 -0.025926 -1021340.000000 0 1 0
-18.838635 -11.407692 9.876325 24.136516 0.544489 1.149234 0.158887 -0.017301 1043330.000000 0 1 0
-17.396035 -11.405492 9.923325 23.047335 0.580328 1.125680 0.164009 -0.029855 1194200.000000 0 1 0
-16.822635 -11.581192 11.210625 23.298136 0.602918 1.068795 0.158717 -0.028654 -702488.000000 0 1 0
-15.314335 -11.877592 11.105025 22.336688 0.659676 1.050468 0.161518 -0.032451 77791.400000 0 1 0
-14.827835 -13.187992 10.720125 22.554576 0.726932 1.075495 0.136119 -0.036688 -815724.000000 0 1 0
-13.482235 -13.373992 10.890825 21.891651 0.781368 1.050096 0.147493 -0.038574 -1319590.000000 0 1 0
-13.118435 -14.877092 10.849125 22.608067 0.848135 1.070280 0.146196 -0.040376 -187610.000000 0 1 0
-13.120835 -15.473892 9.593525 22.441777 0.867503 1.129087 0.107503 -0.040937 108418.000000 0 1 0
-12.889735 -16.862992 9.762725 23.362717 0.918155 1.139690 0.087767 -0.033645 22444.900000 0 1 0
-13.276035 -17.792292 8.597425 23.806185 0.929752 1.201304 0.073212 -0.018891 -842297.000000 0 1 0
-12.399035 -17.687292 7.471825 22.856170 0.959390 1.237768 0.080792 -0.018647 211900.000000 0 1 0
-12.783235 -18.475092 6.348025 23.346039 0.965516 1.295419 0.058246 -0.013258 -118851.000000 0 1 0
-11.701935 -18.474892 5.247825 22.489921 1.006182 1.335284 0.052065 -0.006202 -33379.900000 0 1 0
-12.164835 -18.827192 3.937325 22.758490 0.997146 1.396917 0.071374 -0.022088 215542.000000 0 1 0
-11.143535 -18.666492 2.986125 21.943865 1.032600 1.434293 0.079961 -0.027892 114048.000000 0 1 0
-11.537835 -19.423192 1.717425 22.656821 1.034783 1.494922 0.088980 -0.029905 102411.000000 0 1 0
-11.332135 -20.768092 2.042725 23.746655 1.071298 1.484668 0.092513 -0.034825 -107335.000000 0 1 0
-11.919935 -21.720792 1.181025 24.804686 1.068890 1.523165 0.099833 -0.033085 -197386.000000 0 1 0
-11.067635 -22.205392 -0.029675 24.810740 1.108413 1.571992 0.105536 -0.028436 48137.900000 0 1 0
-10.729535 -21.190092 -1.010975 23.773199 1.102084 1.613335 0.091446 -0.038000 -376885.000000 0 1 0
-11.586835 -21.081492 -2.065775 24.144388 1.068244 1.656460 0.100286 -0.036417 102710.000000 0 1 0
-12.893535 -20.223392 -1.871175 24.056810 1.003219 1.648656 0.100543 -0.029051 264022.000000 0 1 0
-13.921135 -20.758392 -1.100575 25.018395 0.980057 1.614801 0.114141 -0.016951 -364710.000000 0 0 1
-14.829335 -19.718392 -0.798675 24.685259 0.925981 1.603156 0.108978 -0.003311 -122999.000000 0 1 0
27.256665 -20.503292 -3.943575 34.334568 -0.644927 1.685908 0.083402 -0.026831 -100323.000000 0 0 1
26.051865 -20.359792 -3.218675 33.220185 -0.663364 1.667838 0.107040 -0.037592 199276.000000 0 0 1
25.834865 -21.474392 -2.399975 33.680108 -0.693488 1.642115 0.070434 -0.030652 -150989.000000 0 0 1
24.457165 -21.587592 -1.707975 32.666408 -0.723157 1.623106 0.067439 -0.030878 441732.000000 0 0 1
23.362365 -21.906392 -2.573975 32.129666 -0.753246 1.650994 0.081100 -0.038260 279921.000000 0 0 1
22.210265 -22.153992 -1.802575 31.422039 -0.784130 1.628194 0.077423 -0.036690 451156.000000 0 0 1
21.017765 -22.840992 -2.551875 31.144332 -0.826945 1.652825 0.096433 -0.044606 492463.000000 0 0 1
20.408665 -22.006792 -3.533875 30.220867 -0.823058 1.687999 0.104793 -0.047980 -250845.000000 0 0 1
19.522665 -22.802192 -4.277075 30.321078 -0.862728 1.712328 0.103227 -0.042174 -179322.000000 0 0 1
18.531965 -22.112292 -5.252275 29.325306 -0.873261 1.750872 0.093782 -0.027256 -35530.900000 0 0 1
17.381265 -21.487692 -4.749675 28.042623 -0.890656 1.740990 0.081244 -0.025514 51976.200000 0 0 1
17.656265 -20.410692 -3.847075 27.260595 -0.857630 1.712391 0.085032 -0.037030 -800404.000000 0 0 1
16.428665 -19.961992 -3.040175 26.031228 -0.882189 1.687853 0.072987 -0.019876 -210997.000000 0 0 1
16.059265 -20.948192 -2.080675 26.477461 -0.916744 1.649460 0.080319 -0.024335 78042.800000 0 0 1
15.279465 -20.314092 -1.089475 25.442314 -0.925914 1.613631 0.078691 -0.008074 -222102.000000 0 0 1
14.951165 -21.023492 0.208825 25.798608 -0.952617 1.562702 0.080754 -0.014611 -188799.000000 0 0 1
13.986265 -22.034892 0.085825 26.099031 -1.005229 1.567508 0.077106 -0.024912 -299131.000000 0 0 1
13.395065 -22.373292 1.299125 26.108996 -1.031327 1.521018 0.075616 -0.017081 52291.500000 0 0 1
12.472265 -23.610192 1.190625 26.728564 -1.084799 1.526237 0.077242 -0.021721 320208.000000 0 0 1
13.074965 -24.833792 1.577225 28.109777 -1.086175 1.514657 0.079791 -0.020653 932422.000000 0 0 1
12.104365 -25.891882 1.367025 28.614227 -1.133488 1.523004 0.078292 -0.020730 905139.000000 0 0 1
12.516765 -27.081472 2.270725 29.920423 -1.137852 1.494831 0.083615 -0.021489 154357.000000 0 0 1
12.009765 -27.035052 3.595225 29.800237 -1.152752 1.449858 0.099185 -0.026405 31826.500000 0 0 1
12.521665 -28.156842 4.267225 31.109630 -1.152349 1.433195 0.093657 -0.025258 -206514.000000 0 0 1
11.966765 -28.609642 5.618225 31.516338 -1.174634 1.391575 0.097575 -0.029146 -418653.000000 0 0 1
12.812565 -29.522182 6.295525 32.792601 -1.161329 1.377617 0.090545 -0.027255 -223129.000000 0 0 1
12.517065 -29.834952 7.647525 33.245841 -1.173556 1.338688 0.091168 -0.020580 -96276.300000 0 0 1
13.467865 -30.912142 8.199325 34.701194 -1.159913 1.332257 0.090228 -0.016789 -301864.000000 0 0 1
13.137065 -31.396262 9.493225 35.333116 -1.174506 1.298776 0.086427 -0.016548 304788.000000 0 0 1
12.053465 -32.355962 9.464025 35.801705 -1.214196 1.303271 0.071615 -0.018083 852756.000000 0 0 1
11.743765 -32.686152 10.932625 36.411850 -1.225871 1.265843 0.069740 -0.011169 341160.000000 0 0 1
12.869965 -33.370772 11.493825 37.567971 -1.202708 1.259863 0.080528 -0.018817 368522.000000 0 0 1
12.746265 -33.775632 12.844725 38.317719 -1.209940 1.228961 0.084735 -0.015539 386509.000000 0 0 1
11.555865 33.388500 13.277325 37.744103 1.237597 1.211333 0.079426 -0.010822 538297.000000 0 0 1
11.555465 32.024491 12.838025 36.385598 1.224504 1.210200 0.086472 -0.010328 565662.000000 0 0 1
10.244765 31.443811 12.949225 35.515503 1.255830 1.197585 0.076005 -0.007135 613944.000000 0 0 1
10.062965 30.317691 11.915625 34.094102 1.250321 1.213767 0.083453 -0.006790 -260286.000000 0 0 1
9.918965 30.731851 10.508125 33.959583 1.258593 1.256202 0.078754 -0.014901 437379.000000 0 0 1
11.020165 31.484011 9.989225 34.820563 1.234100 1.279831 0.060089 -0.014916 394362.000000 0 0 1
10.614665 31.704851 8.503025 34.498843 1.247730 1.321757 0.051312 -0.015661 -256166.000000 0 0 1
9.457165 32.475865 8.487825 34.873528 1.287427 1.324938 0.067112 -0.012678 -671102.000000 0 0 1
8.926965 32.638895 7.218125 34.598982 1.303819 1.360630 0.060739 -0.015804 -159749.000000 0 0 1
9.414165 33.949277 6.541025 35.832457 1.300292 1.387222 0.065213 -0.011215 -132001.000000 0 0 1
8.796965 -32.979772 6.955125 34.834261 -1.310127 1.369782 0.068287 -0.009564 290692.000000 0 0 1
9.411765 -31.831552 6.291325 33.784757 -1.283313 1.383485 0.081941 -0.025435 385975.000000 0 0 1
8.654765 -30.548902 6.655825 32.441337 -1.294722 1.364164 0.076956 -0.018173 5893.180000 0 0 1
8.737865 -30.192452 8.008225 32.435569 -1.289087 1.321320 0.098656 -0.016801 -13323.700000 0 0 1
7.993565 -29.067382 8.387325 31.291484 -1.302429 1.299440 0.112090 -0.017822 -192099.000000 0 0 1
8.571065 -27.753502 7.860625 30.091684 -1.271260 1.306508 0.113164 -0.023195 94776.000000 0 0 1
9.625165 -27.212692 8.650325 30.133080 -1.230828 1.279629 0.108940 -0.026092 219729.000000 0 0 1
10.344865 -26.103172 8.083225 29.218664 -1.193478 1.290494 0.100343 -0.031990 180074.000000 0 0 1
9.621765 -24.862292 7.425825 27.674082 -1.201545 1.299136 0.093257 -0.029285 -746748.000000 0 0 1
9.095565 -25.256392 6.209325 27.553046 -1.225126 1.343485 0.085544 -0.029085 -408952.000000 0 0 1
8.424265 -24.260792 5.473325 26.258552 -1.236584 1.360817 0.089539 -0.026860 246806.000000 0 0 1
7.971265 -24.726392 4.038025 26.291466 -1.258937 1.416599 0.095432 -0.020291 707460.000000 0 0 1
7.034065 -25.811412 3.931925 27.040102 -1.304739 1.424868 0.058202 -0.015936 395770.000000 0 0 1
7.689165 -27.098922 4.024025 28.454659 -1.294319 1.428902 0.071489 -0.019814 265215.000000 0 0 1
6.805565 -28.311892 3.620425 29.342570 -1.334894 1.447096 0.073136 -0.016055 133425.000000 0 0 1
5.859065 -28.643752 4.631225 29.601375 -1.369030 1.413698 0.057321 -0.010639 -441161.000000 0 0 1
4.850665 -29.511742 4.268625 30.210810 -1.407889 1.429027 0.054487 -0.009482 -221845.000000 0 0 1
5.256265 -31.006552 4.316725 31.743798 -1.402872 1.434387 0.052913 -0.005673 -532282.000000 0 0 1
6.123265 -31.444442 3.336225 32.208348 -1.378470 1.467028 0.058386 -0.011260 -495292.000000 0 0 1
6.314465 -32.814902 3.581125 33.608254 -1.380693 1.464039 0.056443 -0.011082 -384375.000000 0 0 1
7.392865 -33.447602 2.714525 34.362264 -1.353265 1.491717 0.061794 -0.011298 -264169.000000 0 0 1
7.106165 -33.529212 1.316025 34.299235 -1.361947 1.532418 0.063110 -0.014652 -81246.000000 0 0 1
7.968865 33.586433 0.781525 34.527700 1.337840 1.548160 0.053994 -0.014623 -321665.000000 0 0 1
7.466865 33.026272 -0.584575 33.864885 1.348446 1.588059 0.072441 -0.012134 320945.000000 0 0 1
6.317365 32.217767 -0.622175 32.837185 1.377170 1.589745 0.053075 -0.006775 594812.000000 0 0 1
5.046665 32.862826 -0.362675 33.250048 1.418419 1.581704 0.051685 -0.014514 472343.000000 0 0 1
3.962365 31.827721 -0.046075 32.073452 1.446939 1.572233 0.042581 -0.015449 -232506.000000 0 0 1
3.794765 30.898591 -1.091275 31.149865 1.448595 1.605837 0.053149 -0.014789 99360.300000 0 0 1
2.807165 29.973791 -0.666475 30.112332 1.477415 1.592931 0.055314 -0.024750 72339.400000 0 0 1
2.533365 28.824201 -1.656975 28.982720 1.483131 1.627999 0.066339 -0.016336 -157556.000000 0 0 1
2.063965 29.278081 -2.917075 29.495344 1.500418 1.669858 0.084851 -0.025552 51047.600000 0 0 1
2.106065 28.245621 -3.860675 28.585931 1.496372 1.706265 0.089479 -0.031985 -284759.000000 0 0 1
1.804365 28.783821 -5.241275 29.312712 1.508191 1.750569 0.093475 -0.038580 -426057.000000 0 0 1
0.482765 29.263851 -5.228475 29.731179 1.554301 1.747574 0.094410 -0.040046 -202391.000000 0 0 1
0.231865 30.243631 -6.251875 30.883927 1.563130 1.774636 0.081014 -0.032836 1828.890000 0 0 1
0.234765 29.689601 -7.721975 30.678273 1.562889 1.825241 0.076727 -0.028804 -324388.000000 0 0 1
-0.966535 28.987171 -8.004475 30.087570 -1.537465 1.840078 0.085993 -0.027820 339832.000000 0 0 1
-1.045335 28.655321 -9.406475 30.177838 -1.534333 1.887779 0.079558 -0.025215 177738.000000 0 0 1
-1.394735 29.802831 -10.378975 31.589194 -1.524032 1.905576 0.070585 -0.024561 -411771.000000 0 0 1
-0.191135 30.479061 -10.610175 32.273604 -1.564525 1.905783 0.064238 -0.028149 -228983.000000 0 0 1
-0.271935 31.640591 -11.349275 33.615577 -1.562202 1.915183 0.052198 -0.026800 86345.200000 0 0 1
-0.664635 32.958436 -10.545675 34.610858 -1.550633 1.880412 0.045842 -0.024493 290651.000000 0 0 1
0.326965 33.165467 -9.555275 34.516060 1.560938 1.851296 0.043357 -0.033209 532508.000000 0 0 1
-0.188335 -34.028712 -8.595875 35.098116 1.565262 1.818223 0.048328 -0.031094 69.794900 0 0 1
0.919265 -33.849232 -7.532175 34.689324 -1.543645 1.789672 0.060777 -0.036963 771869.000000 0 0 1
2.121765 -33.245772 -8.028775 34.267250 -1.507062 1.807294 0.072992 -0.034498 434538.000000 0 0 1
2.938265 -32.962992 -6.877875 33.800849 -1.481893 1.775710 0.080474 -0.041123 -1114330.000000 0 0 1
4.139365 -32.116962 -7.167475 33.166342 -1.442619 1.788622 0.067498 -0.036686 -426930.000000 0 0 1
5.146065 -32.740212 -7.967175 34.086351 -1.414893 1.806714 0.074218 -0.029602 896269.000000 0 0 1
6.120065 -33.492912 -7.195275 34.799459 -1.390063 1.779063 0.093454 -0.023401 -62490.200000 0 0 1
6.540765 33.383089 -8.121375 34.973833 1.377317 1.805148 0.094549 -0.010688 27381.800000 0 0 1
5.465765 32.481854 -8.385875 33.989239 1.404087 1.820092 0.076529 -0.008233 619479.000000 0 0 1
4.511665 32.847844 -9.416275 34.467408 1.434300 1.847508 0.079760 -0.013402 511081.000000 0 0 1
3.594765 31.650041 -9.668075 33.288423 1.457702 1.865476 0.062102 -0.033861 167864.000000 0 0 1
4.261665 30.564281 -10.328575 32.542534 1.432257 1.893769 0.053184 -0.022056 598711.000000 0 0 1
3.294065 29.546131 -10.611175 31.566149 1.459766 1.913630 0.053162 -0.024812 546959.000000 0 0 1
3.905965 28.385631 -11.396075 30.836199 1.434051 1.949340 0.051377 -0.020305 -153409.000000 0 0 1
3.948765 28.724001 -12.766275 31.680258 1.434180 1.985559 0.043864 -0.020113 -84195.900000 0 0 1
5.032765 28.009851 -13.312375 31.418145 1.393015 2.008340 0.037432 -0.028528 35893.200000 0 0 1
5.434365 28.610491 -14.666675 32.606807 1.383089 2.037342 0.042355 -0.024149 71913.400000 0 0 1
4.653665 28.002221 -15.697575 32.437553 1.406112 2.075939 0.054763 -0.023814 166132.000000 0 0 1
4.511565 28.834701 -16.823775 33.687291 1.415592 2.093714 0.072501 -0.023413 352695.000000 0 0 1
3.371065 28.315991 -17.744075 33.585884 1.452302 2.127416 0.065380 -0.025769 498924.000000 0 0 1
3.788865 27.061191 -18.296575 32.885076 1.431690 2.160818 0.074857 -0.019577 112438.000000 0 0 1
2.863765 26.666081 -19.294375 33.038673 1.463813 2.194436 0.096228 -0.030122 277228.000000 0 0 1
3.319365 25.471891 -20.124275 32.631608 1.441212 2.235354 0.099029 -0.031585 169402.000000 0 0 1
3.356465 24.238331 -19.416875 31.237439 1.433194 2.241567 0.102737 -0.039563 -200216.000000 0 0 1
4.267265 23.342311 -20.003975 31.035980 1.389981 2.271220 0.094638 -0.033599 51739.400000 0 0 1
4.702365 22.233211 -19.009375 29.627424 1.362366 2.267397 0.085649 -0.031965 -121685.000000 0 0 1
3.786865 21.169111 -18.865075 28.607039 1.393782 2.290891 0.116405 -0.033742 -679914.000000 0 0 1
4.402665 20.115511 -18.176875 27.466635 1.355325 2.293987 0.102354 -0.026552 143371.000000 0 0 1
3.547365 18.898411 -17.659175 26.107091 1.385248 2.313678 0.097264 -0.035613 69781.200000 0 0 1
2.744765 19.186811 -16.530275 25.473858 1.428706 2.276949 0.085043 -0.031687 -583085.000000 0 0 1
1.744665 18.242711 -16.347175 24.557494 1.475450 2.299187 0.057068 -0.012828 -278397.000000 0 1 0
2.184865 17.122911 -15.403575 23.135208 1.443883 2.299371 0.052007 -0.013217 199518.000000 0 1 0
3.284065 16.414811 -15.970675 23.136412 1.373336 2.332677 0.063780 -0.024480 -13064.900000 0 1 0
2.913065 15.151411 -16.619775 22.677480 1.380851 2.393335 0.074435 -0.036109 59977.200000 0 1 0
2.785565 15.322011 -18.192375 23.947566 1.390959 2.433610 0.068865 -0.035595 18388.600000 0 1 0
4.059465 15.408811 -18.811375 24.653165 1.313199 2.438801 0.095686 -0.040488 -74216.500000 0 1 0
4.017665 16.045811 -20.087275 26.021305 1.325453 2.452707 0.085866 -0.035928 -89423.500000 0 0 1
4.476265 15.036911 -21.250475 26.414548 1.281465 2.505628 0.089476 -0.039399 855056.000000 0 0 1
3.535965 13.964911 -21.495275 25.876024 1.322805 2.551164 0.084833 -0.036231 1901700.000000 0 0 1
2.249265 14.379411 -22.083575 26.448269 1.415631 2.558879 0.092794 -0.038541 1763330.000000 0 0 1
1.433565 13.149111 -22.638275 26.219186 1.462201 2.612814 0.097469 -0.032708 134845.000000 0 0 1
0.914865 12.290511 -21.679875 24.938136 1.496497 2.624674 0.088761 -0.027418 -257871.000000 0 1 0
0.224065 11.233411 -22.268175 24.942160 1.550853 2.674303 0.068122 -0.022590 -473392.000000 0 1 0
-0.462235 10.353811 -21.252175 23.644661 -1.526182 2.687855 0.036276 -0.018494 -541564.000000 0 1 0
-1.560435 11.020611 -20.617875 23.430441 -1.430139 2.646576 0.036354 -0.015444 -30707.200000 0 1 0
-2.135735 10.180711 -19.666875 22.248465 -1.364013 2.655073 0.028363 -0.010362 483263.000000 0 1 0
-3.251135 9.216111 -20.187375 22.428479 -1.231659 2.690744 0.039819 -0.008386 -20830.500000 0 1 0
-2.667035 8.171911 -20.954675 22.649318 -1.255329 2.752303 0.036904 -0.005508 -653149.000000 0 1 0
-3.603935 7.197911 -21.278875 22.750577 -1.106595 2.779934 0.043978 -0.004202 -813975.000000 0 1 0
-3.106535 5.967611 -21.989575 22.995746 -1.090832 2.844683 0.049255 -0.012817 -1123630.000000 0 1 0
-2.246535 5.239111 -21.210275 21.962945 -1.165711 2.879038 0.042172 -0.003357 -384860.000000 0 1 0
-1.903035 4.027711 -21.871475 22.320515 -1.129402 2.940666 0.060305 -0.014464 -733337.000000 0 1 0
-1.096035 3.110611 -20.985375 21.242955 -1.232026 2.985708 0.047322 -0.016693 698605.000000 0 1 0
0.311965 3.254911 -21.308675 21.558093 1.475244 2.989330 0.037990 -0.001886 508542.000000 0 1 0
1.045265 2.485911 -20.446775 20.623844 1.172764 3.010459 0.031595 0.003712 279584.000000 0 1 0
2.599265 2.551911 -20.588175 20.907926 0.776206 2.966479 0.023916 0.006436 475181.000000 0 1 0
3.224365 1.720611 -21.527075 21.835109 0.490187 2.973423 0.039858 0.000813 -1278370.000000 0 1 0
4.584865 1.896811 -21.461775 22.027861 0.392270 2.914395 0.063567 0.004758 -1603710.000000 0 1 0
5.322865 1.055411 -22.462075 23.108258 0.195740 2.904550 0.054363 -0.004678 -1289930.000000 0 1 0
6.677765 1.253911 -22.326975 23.337923 0.185613 2.846180 0.058317 -0.014110 -1106850.000000 0 1 0
7.516765 0.345211 -23.010875 24.209942 0.045893 2.825548 0.065183 -0.029431 -494668.000000 0 1 0
8.985665 0.667111 -22.828175 24.542061 0.074106 2.765659 0.083476 -0.033188 -679160.000000 0 1 0
9.276265 1.895211 -23.497975 25.333688 0.201534 2.758568 0.065498 -0.027984 -377324.000000 0 0 1
10.629465 2.198611 -23.290475 25.695635 0.203965 2.705474 0.070901 -0.032950 -354513.000000 0 0 1
14.272165 -20.028392 22.613613 33.409679 -0.951666 0.827310 0.095623 -0.002225 -578293.000000 0 0 1
13.588865 -21.192192 23.031463 34.120588 -1.000618 0.829829 0.090055 -0.002441 -162556.000000 0 0 1
12.202165 -21.112792 22.809713 33.390505 -1.046747 0.818770 0.082633 -0.012975 175640.000000 0 0 1
11.565965 -21.093792 21.406513 32.201838 -1.069251 0.843623 0.090551 -0.015284 -590495.000000 0 0 1
11.658365 -19.847792 20.769513 31.003628 -1.039702 0.836714 0.099399 -0.018443 -166595.000000 0 0 1
10.964465 -19.878092 19.534913 29.949471 -1.066737 0.860231 0.122092 -0.018172 145607.000000 0 0 1
11.103265 -18.605592 18.704513 28.623580 -1.032755 0.858643 0.121377 -0.030772 -16877.700000 0 0 1
10.343665 -17.548992 19.245013 28.023723 -1.038195 0.813802 0.146798 -0.033474 -123242.000000 0 0 1
10.531065 -16.379992 18.555313 26.898087 -0.999413 0.809532 0.139505 -0.031169 172183.000000 0 0 1
9.556065 -15.250992 19.000313 26.171034 -1.011057 0.758301 0.104697 -0.030362 1416800.000000 0 0 1
8.161165 -15.524692 18.764613 25.685236 -1.086809 0.751654 0.088363 -0.027540 303057.000000 0 0 1
7.300165 -14.495492 19.037013 25.016385 -1.104260 0.705971 0.061645 -0.022365 -415423.000000 0 0 1
5.873465 -14.697892 18.519013 24.361434 -1.190624 0.707210 0.022065 -0.013267 -489570.000000 0 1 0
5.804165 -14.836992 17.135213 23.397439 -1.197903 0.749023 0.016994 -0.007304 -273172.000000 0 1 0
4.494065 -14.870892 16.609213 22.742163 -1.277317 0.751996 0.006389 -0.011653 275862.000000 0 1 0
3.744065 -16.257492 16.763813 23.650570 -1.344445 0.782983 0.005088 -0.005635 -427709.000000 0 1 0
2.462765 -16.174892 16.204513 23.027778 -1.419698 0.790213 0.018454 -0.007430 -718908.000000 0 1 0
1.756865 -17.325592 16.626213 24.076828 -1.469739 0.808549 0.022763 -0.014015 -516837.000000 0 1 0
0.296265 -17.249692 16.218413 23.678609 -1.553623 0.816276 0.037196 -0.010606 -694970.000000 0 1 0
0.022365 -17.371092 14.839813 22.846780 -1.569509 0.863822 0.036871 -0.007228 329445.000000 0 1 0
-1.337135 -17.741292 14.609113 23.021024 1.495570 0.883307 0.036062 0.000575 215259.000000 0 1 0
-1.759335 -17.937092 13.115813 22.290335 1.473025 0.941708 0.030776 -0.017739 817768.000000 0 1 0
-3.109835 -18.382592 12.893613 22.667951 1.403210 0.965746 0.026870 -0.022386 722355.000000 0 1 0
-3.178235 -19.725392 12.398913 23.514363 1.411045 1.015387 0.034600 -0.024564 459588.000000 0 1 0
-4.674435 -20.121892 12.226413 24.004708 1.342539 1.036386 0.029115 -0.025505 540356.000000 0 1 0
-5.221135 -20.469192 13.469113 25.053244 1.321049 1.003185 0.025001 -0.030826 -1039090.000000 0 0 1
-6.547835 -20.833992 13.315213 25.577807 1.266285 1.023270 0.028475 -0.034540 -739917.000000 0 0 1
-7.110935 -21.686592 14.479413 27.028264 1.253948 1.005444 0.035587 -0.027166 327431.000000 0 0 1
-8.516835 -21.633492 14.650413 27.480521 1.195744 1.008512 0.049986 -0.029879 -45663.100000 0 0 1
-9.013635 -22.379092 15.727413 28.799668 1.187904 0.993098 0.044047 -0.026943 628797.000000 0 0 1
-10.557635 -22.152092 15.830413 29.202410 1.126045 0.997871 0.075179 -0.028826 652528.000000 0 0 1
-10.807535 -20.805092 16.127013 28.455846 1.091698 0.968255 0.067658 -0.027300 -181905.000000 0 0 1
-12.158535 -20.431792 15.890513 28.597141 1.034003 0.981630 0.072872 -0.024574 271355.000000 0 0 1
-12.525135 -19.177792 16.705813 28.350500 0.992241 0.940654 0.075555 -0.019947 -179950.000000 0 0 1
-12.773435 -19.506192 18.054913 29.489524 0.991026 0.911895 0.072852 -0.016025 -81355.400000 0 0 1
-13.138835 -18.382192 18.813913 29.402334 0.950234 0.876457 0.073199 -0.018641 -223963.000000 0 0 1
-13.643635 -18.725292 20.224113 30.753862 0.941119 0.853152 0.067800 -0.013801 381005.000000 0 0 1
-14.936135 -19.317792 20.053213 31.597413 0.912624 0.883244 0.077153 -0.014019 308313.000000 0 0 1
-15.354735 -19.954992 21.196713 32.913070 0.914951 0.871053 0.073740 -0.009871 490550.000000 0 0 1
-16.774435 -20.599392 21.075313 33.909960 0.887386 0.900130 0.083102 -0.019979 -8303.720000 0 0 1
-16.686635 -21.768292 20.295413 34.120464 0.916783 0.933759 0.078788 -0.020764 -281094.000000 0 0 1
-17.898635 -22.289392 19.864713 34.810701 0.894222 0.963500 0.063661 -0.014284 -398426.000000 0 0 1
-18.817835 -22.981692 20.917813 36.329381 0.884686 0.957236 0.064845 -0.022428 -477933.000000 0 0 1
-19.429935 -22.044992 21.772613 36.572540 0.848366 0.933124 0.071725 -0.019920 30100.700000 0 0 1
-20.404935 -22.629492 22.616813 37.947009 0.837045 0.932273 0.071137 -0.014770 167664.000000 0 0 1
-20.944235 -21.778492 23.795373 38.460154 0.804923 0.903707 0.076103 -0.009398 364416.000000 0 0 1
-22.054335 -20.974792 23.399993 38.391343 0.760315 0.915351 0.072746 -0.002538 339677.000000 0 0 1
-22.226535 -19.900692 24.215293 38.424429 0.730244 0.888978 0.084852 -0.005389 249468.000000 0 0 1
-23.350735 -18.929492 23.768563 38.321365 0.681207 0.901744 0.075936 -0.008394 -74907.900000 0 0 1
-22.996835 -18.262292 22.591513 37.050535 0.671146 0.915053 0.097230 -0.008346 -310990.000000 0 0 1
-23.882335 -17.280792 22.119813 36.854820 0.626377 0.927060 0.074096 -0.010285 -323865.000000 0 0 1
-23.478735 -16.625792 20.729313 35.459446 0.616156 0.946419 0.084204 -0.009804 376449.000000 0 0 1
-22.371335 -15.718392 20.662513 34.270744 0.612478 0.923640 0.101101 -0.014386 180294.000000 0 0 1
-22.187135 -15.245992 19.348113 33.152054 0.602053 0.947620 0.084212 -0.013319 -283357.000000 0 0 1
-20.947135 -14.358592 19.265813 31.876686 0.600906 0.921802 0.092262 -0.024971 -223364.000000 0 0 1
-20.684535 -14.143292 17.891313 30.789312 0.599744 0.950731 0.086978 -0.029996 493993.000000 0 0 1
-19.568435 -13.251792 17.719313 29.538241 0.595261 0.927449 0.105493 -0.045199 -5669.060000 0 0 1
-19.467435 -12.907792 16.232213 28.444276 0.585491 0.963478 0.106361 -0.044623 224061.000000 0 0 1
-18.813735 -11.687492 15.829013 27.223367 0.555877 0.950287 0.103858 -0.046293 1282350.000000 0 0 1
-17.462235 -11.387792 16.247013 26.430604 0.577877 0.908785 0.118252 -0.047516 478847.000000 0 0 1
-16.908435 -10.272892 15.344313 25.037480 0.545960 0.911129 0.118266 -0.047704 23464.200000 0 0 1
-17.489135 -8.969692 15.564813 25.071669 0.473892 0.901017 0.128791 -0.042718 406265.000000 0 0 1
-16.823535 -8.007192 14.753713 23.765910 0.444225 0.901042 0.112728 -0.036798 -401324.000000 0 1 0
-16.945435 -6.564592 15.391413 23.814642 0.369594 0.868070 0.109430 -0.029335 737046.000000 0 1 0
-16.078835 -6.262892 16.504813 23.878056 0.371432 0.807631 0.081023 -0.020659 573746.000000 0 1 0
-14.687735 -6.287492 16.256113 22.793054 0.404475 0.776737 0.077530 -0.018521 165715.000000 0 1 0
-13.743435 -6.332992 17.531313 23.158923 0.431800 0.712086 0.059550 -0.011066 481551.000000 0 1 0
-13.800735 -7.441992 18.399413 24.173992 0.494549 0.705752 0.056947 -0.014880 289082.000000 0 1 0
-13.216835 -8.666792 17.834413 23.829903 0.580399 0.725143 0.051200 -0.016914 -276198.000000 0 1 0
-13.374235 -9.830392 18.831113 25.102142 0.633848 0.722463 0.065678 -0.016569 513206.000000 0 0 1
-14.672035 -10.331292 19.119013 26.221000 0.613505 0.753719 0.068143 -0.018407 421165.000000 0 0 1
-15.560635 -9.519892 19.860513 26.966677 0.549046 0.742939 0.069556 -0.016673 -551874.000000 0 0 1
-16.936435 -10.154892 20.172913 28.229613 0.540117 0.774743 0.075362 -0.018279 101678.000000 0 0 1
-17.984735 -10.194592 19.265613 28.258524 0.515685 0.820627 0.095255 -0.027149 97955.200000 0 0 1
-18.461435 -8.957692 18.709213 27.768677 0.451747 0.831521 0.092362 -0.027586 -181411.000000 0 0 1
-19.719935 -9.003892 17.792713 28.045080 0.428319 0.883522 0.132864 -0.032832 -401244.000000 0 0 1
-20.920435 -9.328392 18.411213 29.388029 0.419438 0.893759 0.116717 -0.031201 -267908.000000 0 0 1
-21.938235 -9.367092 17.405813 29.529491 0.403543 0.940433 0.127991 -0.029653 -951782.000000 0 0 1
-23.322935 -9.531392 17.923013 30.919914 0.387958 0.952486 0.115674 -0.026416 -1330410.000000 0 0 1
-23.884235 -8.393592 18.569513 31.396430 0.337947 0.937937 0.107674 -0.024764 627057.000000 0 0 1
-25.258215 -8.657092 18.826613 32.670537 0.330196 0.956655 0.097839 -0.016309 -31961.300000 0 0 1
-25.912915 -7.532992 19.634413 33.372672 0.282907 0.941794 0.105785 -0.022503 -401085.000000 0 0 1
-25.720665 -7.381292 20.991713 34.010117 0.279469 0.905592 0.124593 -0.028274 -482592.000000 0 0 1
-26.641665 -6.535592 21.536313 34.875565 0.240564 0.905212 0.107502 -0.023578 -1001270.000000 0 0 1
-26.804535 -6.571992 23.126973 36.007374 0.240439 0.873321 0.099547 -0.018922 648629.000000 0 0 1
-25.700855 -6.150292 23.951043 35.665284 0.234886 0.834497 0.105901 -0.020236 727325.000000 0 0 1
-24.624635 -7.051092 24.094783 35.166021 0.278881 0.815956 0.117554 -0.023435 575448.000000 0 0 1
-23.452435 -6.770492 25.100423 35.012676 0.281049 0.771457 0.103643 -0.012834 885074.000000 0 0 1
-22.834935 -5.465892 24.889503 34.216919 0.234945 0.756266 0.077188 -0.008523 310100.000000 0 0 1
-22.004435 -5.187292 25.996223 34.451513 0.231512 0.715791 0.083049 -0.020775 52378.900000 0 0 1
-21.349335 -3.740292 25.723603 33.637592 0.173435 0.700178 0.074029 -0.021525 721297.000000 0 0 1
-20.211535 -3.437992 26.554593 33.548060 0.168488 0.657473 0.066853 -0.019829 260361.000000 0 0 1
-20.358935 -3.339092 27.979923 34.763657 0.162564 0.635355 0.079616 -0.027300 -258645.000000 0 0 1
-21.172635 -2.094692 28.470263 35.541863 0.098613 0.641775 0.088403 -0.030604 879399.000000 0 0 1
-22.546635 -2.133592 28.066363 36.064160 0.094349 0.678947 0.082704 -0.024542 125565.000000 0 0 1
-23.201435 -0.958392 28.529933 36.785624 0.041284 0.683174 0.092981 -0.023516 1171670.000000 0 0 1
-24.585435 -0.759192 27.791433 37.113120 0.030870 0.724501 0.086664 -0.020640 552031.000000 0 0 1
-24.441235 -0.265092 26.435583 36.003948 0.010846 0.746248 0.071336 -0.024145 586433.000000 0 0 1
-25.680935 -0.047792 25.733713 36.355696 0.001861 0.784373 0.096211 -0.021313 630859.000000 0 0 1
-26.475175 -1.310392 25.310883 36.650959 0.049455 0.808488 0.085046 -0.019602 50612.300000 0 0 1
-27.380255 -1.728092 26.349883 38.039203 0.063031 0.805566 0.070284 -0.011903 335883.000000 0 0 1
-28.182375 -2.818292 25.990913 38.441079 0.099671 0.828308 0.058478 -0.012861 66964.700000 0 0 1
-27.447985 -4.185492 26.109333 38.113088 0.151322 0.816125 0.076705 -0.019775 227810.000000 0 0 1
-27.083375 -4.504392 27.450153 38.824085 0.164807 0.785494 0.065734 -0.016652 131489.000000 0 0 1
-26.213495 -5.634292 27.450243 38.371974 0.211717 0.773640 0.072523 -0.028304 150447.000000 0 0 1
-25.823265 -6.164492 28.830893 39.192631 0.234333 0.744214 0.060181 -0.022279 -81128.800000 0 0 1
-26.894925 -6.835992 29.456703 40.469310 0.248903 0.755575 0.073908 -0.021169 5482.590000 0 0 1
-26.537145 -7.442792 30.668703 41.233294 0.273442 0.732081 0.079895 -0.016628 -936739.000000 0 0 1
-27.637145 -7.874192 31.643103 42.744597 0.277559 0.737305 0.054218 -0.018945 -592266.000000 0 0 1
-28.298425 -9.003892 31.060193 42.972159 0.308048 0.762954 0.056803 -0.026155 -204546.000000 0 0 1
-29.601005 -8.995292 31.587553 44.214344 0.295017 0.775003 0.053567 -0.021304 -700414.000000 0 0 1
-30.604585 -9.511992 30.566293 44.287886 0.301338 0.809069 0.037944 -0.026636 -694732.000000 0 0 1
-30.573315 -10.906392 30.355873 44.442727 0.342657 0.818888 0.043292 -0.025856 -114464.000000 0 0 1
-31.421585 -11.303992 29.336153 44.448915 0.345336 0.849982 0.026080 -0.028927 -405538.000000 0 0 1
-30.847275 -12.563492 28.754063 44.002179 0.386767 0.858638 0.027601 -0.025908 483621.000000 0 0 1
-29.702205 -12.267192 27.948053 42.588714 0.391668 0.854983 0.042269 -0.030932 454368.000000 0 0 1
-28.987645 -13.409692 27.483713 42.136182 0.433283 0.860235 0.053582 -0.029148 -369150.000000 0 0 1
-27.718425 -13.047692 26.683953 40.627412 0.439953 0.854233 0.073858 -0.030386 -320143.000000 0 0 1
-26.623835 -12.557692 27.424283 40.232020 0.440729 0.820777 0.063228 -0.033760 -67825.900000 0 0 1
-26.768975 -11.260492 28.065913 40.386534 0.398184 0.802470 0.072166 -0.042840 -943435.000000 0 0 1
-26.779525 -10.091892 27.086013 39.403570 0.360393 0.812893 0.080201 -0.041980 -470068.000000 0 0 1
-25.629495 -9.861792 26.333793 38.047267 0.367320 0.806355 0.095878 -0.032215 -461879.000000 0 0 1
-25.325265 -10.725892 25.240333 37.329454 0.400621 0.828271 0.084591 -0.028834 -334329.000000 0 0 1
-26.190775 -10.429492 24.013363 37.032048 0.378964 0.865252 0.093904 -0.020989 -982655.000000 0 0 1
-27.480345 -10.914092 24.111743 38.153150 0.378056 0.886701 0.073751 -0.022941 -1137270.000000 0 0 1
-28.173935 -10.730592 22.915563 37.868710 0.363907 0.920865 0.097586 -0.019287 654871.000000 0 0 1
-29.597365 -11.397192 22.908833 39.124348 0.367574 0.945251 0.083810 -0.025064 724889.000000 0 0 1
-30.666775 -10.819692 23.620653 40.192686 0.339180 0.942601 0.075495 -0.024217 -409800.000000 0 0 1
-30.674165 -10.846692 25.043593 41.057723 0.339887 0.914785 0.084275 -0.028303 -1444650.000000 0 0 1
-32.013075 -10.602792 25.663363 42.377639 0.319831 0.920293 0.036160 -0.028356 -1505370.000000 0 0 1
-32.551785 -9.363592 25.302183 42.278789 0.280090 0.929218 0.056439 -0.031441 -606170.000000 0 0 1
-33.894545 -9.112592 25.640843 43.466450 0.262641 0.939862 0.045245 -0.023803 18222.000000 0 0 1
-34.266086 -9.061192 27.188413 44.670791 0.258519 0.916451 0.027105 -0.023411 -503790.000000 0 0 1
-34.507352 -10.369892 27.725613 45.464289 0.291927 0.914947 0.032782 -0.031865 -175269.000000 0 0 1
-35.199638 -10.203492 28.918053 46.683825 0.282142 0.902761 0.038289 -0.031262 -827907.000000 0 0 1
-35.712128 -11.632992 29.361353 47.673594 0.314904 0.907290 0.032523 -0.024399 851753.000000 0 0 1
-36.944705 -12.071592 28.778743 48.361664 0.315812 0.933439 0.029509 -0.018746 969565.000000 0 0 1
36.015902 -11.509992 29.225283 47.788516 -0.309323 0.912772 0.032357 -0.016758 -178362.000000 0 0 1
34.753852 -12.090392 28.608033 46.609305 -0.334791 0.909952 0.045100 -0.017802 -351477.000000 0 0 1
34.614782 -11.578992 27.268173 45.561052 -0.322809 0.929172 0.047682 -0.016767 673001.000000 0 0 1
33.430452 -12.050492 26.585243 44.380002 -0.345967 0.928499 0.057108 -0.007908 637247.000000 0 0 1
33.376822 -11.718692 25.123893 43.388362 -0.337657 0.953237 0.059522 -0.018489 26611.200000 0 0 1
33.264032 -10.341792 24.951453 42.848844 -0.301427 0.949225 0.067496 -0.031577 -16130.300000 0 0 1
33.274252 -10.006692 23.604913 42.005971 -0.292130 0.974065 0.064494 -0.026853 -253500.000000 0 0 1
32.836552 -8.487292 23.352713 41.177936 -0.252935 0.967795 0.095663 -0.022941 -303284.000000 0 0 1
31.468012 -8.249492 23.481593 40.120756 -0.256385 0.945580 0.111884 -0.027341 -714580.000000 0 0 1
31.149362 -6.937692 23.057713 39.370959 -0.219146 0.945111 0.119267 -0.024903 -472995.000000 0 0 1
29.704292 -6.664392 22.674813 37.959270 -0.220703 0.930609 0.110282 -0.019973 -412540.000000 0 0 1
29.506932 -7.118092 21.318913 37.092079 -0.236712 0.958490 0.109101 -0.026595 -263599.000000 0 0 1
28.134292 -7.060292 21.040913 35.834426 -0.245872 0.943238 0.119594 -0.037691 -626514.000000 0 0 1
15.281465 -16.893292 26.016623 34.579924 -0.835452 0.719156 0.091576 -0.007092 558441.000000 0 0 1
14.479665 -18.057292 26.232163 34.983608 -0.894914 0.722974 0.083836 -0.003768 474053.000000 0 0 1
15.372065 -19.145892 26.224283 35.924623 -0.894295 0.752503 0.075279 0.000117 -479709.000000 0 0 1
14.706465 -20.544892 26.163013 36.371361 -0.949531 0.767959 0.050845 -0.008050 -282874.000000 0 0 1
14.117865 -21.003492 27.325583 37.244439 -0.978995 0.747071 0.058002 -0.008887 1293790.000000 0 0 1
12.774865 -20.448792 27.509553 36.580401 -1.012395 0.719660 0.065487 -0.000448 600402.000000 0 0 1
12.177665 -20.907892 28.813583 37.625231 -1.043386 0.698504 0.071702 -0.007871 -549905.000000 0 0 1
12.661965 -20.334692 30.009363 38.397746 -1.013868 0.673666 0.083320 -0.010690 90451.700000 0 0 1
11.841365 -19.410992 30.749553 38.243163 -1.023032 0.636714 0.098082 -0.012416 234157.000000 0 0 1
11.464265 -18.065392 30.171543 36.987967 -1.005325 0.616837 0.083680 -0.007097 -333860.000000 0 0 1
12.542265 -17.209392 30.261063 37.002750 -0.941000 0.613208 0.084226 0.005857 -796362.000000 0 0 1
12.279465 -15.905992 29.759483 35.908392 -0.913362 0.593906 0.075695 0.007785 300326.000000 0 0 1
13.305865 -14.832692 30.188753 36.172028 -0.839606 0.583411 0.073022 0.004420 484999.000000 0 0 1
12.870765 -13.594092 29.664633 35.077719 -0.812723 0.562953 0.082559 0.001065 592225.000000 0 0 1
13.594065 -12.564092 30.429993 35.617965 -0.746044 0.546509 0.082791 0.001560 718113.000000 0 0 1
13.196565 -11.070692 29.996583 34.590526 -0.698019 0.521263 0.080116 -0.002150 194298.000000 0 0 1
13.550265 -10.803592 28.639323 33.474439 -0.673091 0.544169 0.088581 -0.008646 1504870.000000 0 0 1
14.948865 -10.516892 28.315503 33.702244 -0.613087 0.573206 0.088140 -0.010239 1280480.000000 0 0 1
15.123265 -9.500292 27.189393 32.530474 -0.560890 0.581184 0.076743 -0.006926 -41897.700000 0 0 1
15.302965 -8.163992 27.619653 32.614057 -0.490080 0.560737 0.068323 -0.013142 -168355.000000 0 0 1
16.563165 -7.790292 28.128543 33.559529 -0.439638 0.576880 0.077791 -0.021178 -444153.000000 0 0 1
16.928265 -6.242492 28.070463 33.368934 -0.353290 0.571269 0.073365 -0.024180 -89007.000000 0 0 1
18.322365 -6.107692 27.933793 33.960414 -0.321762 0.604934 0.075496 -0.034150 -244953.000000 0 0 1
18.699565 -4.809792 27.630903 33.708673 -0.251757 0.609914 0.079325 -0.034268 -303821.000000 0 0 1
20.216065 -4.626692 27.433693 34.390450 -0.224987 0.647304 0.078717 -0.033006 -744037.000000 0 0 1
20.640165 -5.315792 26.316543 33.864945 -0.252068 0.680747 0.084856 -0.030079 1372540.000000 0 0 1
22.005665 -5.083592 25.851693 34.327864 -0.227030 0.718062 0.093631 -0.024635 1571450.000000 0 0 1
23.183265 -5.585292 26.723063 35.815937 -0.236414 0.728578 0.090859 -0.037628 -542529.000000 0 0 1
23.493565 -4.642892 27.724533 36.635417 -0.195110 0.712441 0.086550 -0.029209 181690.000000 0 0 1
24.598865 -5.081892 28.506483 37.994070 -0.203724 0.722299 0.094371 -0.047531 152804.000000 0 0 1
25.426165 -3.949892 29.122223 38.861232 -0.154116 0.723656 0.104013 -0.041714 -280635.000000 0 0 1
26.239165 -3.181392 28.271873 38.702892 -0.120657 0.751765 0.089113 -0.028953 -43200.300000 0 0 1
26.458865 -1.859292 28.682123 39.066516 -0.070156 0.746328 0.080347 -0.032824 -104684.000000 0 0 1
27.395765 -1.082392 27.692783 38.969087 -0.039489 0.780397 0.086573 -0.032037 1045440.000000 0 0 1
28.775665 -1.388092 27.923583 40.120969 -0.048201 0.801006 0.103680 -0.028909 179172.000000 0 0 1
29.644165 -0.930192 26.912163 40.048799 -0.031368 0.833911 0.103800 -0.017750 -130941.000000 0 0 1
31.090765 -1.051292 27.398763 41.453988 -0.033801 0.848720 0.095163 -0.020882 -362356.000000 0 0 1
31.515065 -0.059392 28.340523 42.383819 -0.001885 0.838386 0.083944 -0.008845 -423078.000000 0 0 1
32.881065 -0.211092 28.601283 43.580298 -0.006420 0.854906 0.095493 -0.018135 -30537.700000 0 0 1
33.500165 0.908708 29.525763 44.663828 0.027119 0.848557 0.092143 -0.021724 -133952.000000 0 0 1
33.454365 2.138208 28.829363 44.214236 0.063827 0.860527 0.092902 -0.011869 87099.000000 0 0 1
33.669565 3.202408 29.687063 45.002408 0.094828 0.850407 0.081024 -0.010989 -309240.000000 0 0 1
33.679465 4.603608 28.994343 44.678535 0.135847 0.864587 0.086228 -0.011575 -102675.000000 0 0 1
33.599365 5.695408 29.830613 45.290402 0.167913 0.851770 0.086740 -0.005022 274916.000000 0 0 1
32.342565 5.964108 30.437313 44.811183 0.182356 0.824077 0.087038 0.002553 -144911.000000 0 0 1
32.421965 6.962608 31.569953 45.785627 0.211537 0.809975 0.076426 -0.002020 -180521.000000 0 0 1
32.939565 6.401508 32.755602 46.892683 0.191948 0.797465 0.074364 0.003640 131554.000000 0 0 1
32.927965 7.394408 33.759038 47.734692 0.220899 0.785235 0.070990 -0.000623 86833.900000 0 0 1
33.457965 6.788908 -32.807725 47.348406 0.200191 2.336300 0.069644 0.003050 -148446.000000 0 0 1
32.608065 5.886808 -32.160635 46.176259 0.178608 2.341270 0.062633 -0.001919 -102998.000000 0 0 1
32.652665 4.561708 -32.616705 46.377313 0.138806 2.350811 0.081384 -0.009053 -184647.000000 0 0 1
32.549865 3.458808 -31.545875 45.459865 0.105865 2.337726 0.081690 -0.016048 25262.700000 0 0 1
32.637265 2.134608 -32.103635 45.830023 0.065311 2.346885 0.077062 -0.018244 99716.500000 0 0 1
32.905465 1.142608 -31.135865 45.315751 0.034710 2.328269 0.068102 -0.019433 54804.800000 0 0 1
33.395865 -0.260992 -31.662065 46.019977 -0.007815 2.329535 0.061895 -0.030017 -347824.000000 0 0 1
34.669865 -0.156892 -32.250955 47.351328 -0.004525 2.320059 0.064479 -0.020144 -296036.000000 0 0 1
35.446565 -1.321592 -32.159885 47.879680 -0.037267 2.307272 0.050746 -0.013610 1003730.000000 0 0 1
36.342965 -1.453192 -30.836105 47.684256 -0.039964 2.274010 0.062526 -0.017861 251033.000000 0 0 1
35.442565 -1.720292 -29.756135 46.309420 -0.048499 2.268618 0.056863 -0.025034 317940.000000 0 0 1
36.126565 -1.819392 -28.558405 46.087107 -0.050319 2.239108 0.065263 -0.025157 -297583.000000 0 0 1
35.234865 -1.548692 -27.337045 44.622956 -0.043925 2.230171 0.080214 -0.028483 -246213.000000 0 0 1
34.647465 -0.278592 -27.271495 44.093751 -0.008041 2.237615 0.074030 -0.025298 659079.000000 0 0 1
33.662165 -0.272592 -26.226085 42.673448 -0.008098 2.232645 0.074847 -0.018358 219197.000000 0 0 1
33.022265 1.099708 -26.057185 42.079166 0.033290 2.238573 0.063308 -0.008646 148858.000000 0 0 1
32.278465 1.567908 -27.188805 42.232556 0.048536 2.270234 0.070311 -0.019651 535887.000000 0 0 1
31.336765 2.569408 -26.816235 41.324389 0.081810 2.276961 0.069441 -0.008740 381623.000000 0 0 1
30.477365 3.060008 -28.026955 41.517992 0.100067 2.311836 0.089844 -0.007047 279094.000000 0 0 1
29.470165 3.980308 -27.597285 40.570231 0.134250 2.318879 0.070997 -0.007722 288930.000000 0 0 1
28.883965 4.562508 -28.751195 41.008915 0.156665 2.347730 0.054701 -0.011461 -693770.000000 0 0 1
27.729465 5.505108 -28.452285 40.109375 0.195981 2.359397 0.047985 -0.012462 -1339290.000000 0 0 1
26.628565 4.741808 -28.103895 39.005053 0.176225 2.375347 0.065405 -0.012167 -829048.000000 0 0 1
25.732165 5.501508 -27.346665 37.950639 0.210628 2.375442 0.079424 -0.019784 687386.000000 0 0 1
24.315365 4.835408 -27.114805 36.740044 0.196301 2.400924 0.090770 -0.009051 1089040.000000 0 0 1
23.478365 4.799508 -28.269645 37.059975 0.201644 2.438441 0.103172 -0.015162 1326890.000000 0 0 1
22.138565 4.324808 -27.971075 35.933286 0.192922 2.462936 0.092395 -0.015383 961519.000000 0 0 1
21.374965 3.956608 -29.258845 36.450293 0.183033 2.502614 0.079122 -0.012518 -163749.000000 0 0 1
21.770465 2.767108 -29.968665 37.144729 0.126426 2.509526 0.075527 -0.020107 -97486.100000 0 0 1
21.145265 2.634908 -31.256975 37.829399 0.123971 2.543234 0.051885 -0.023769 -258893.000000 0 0 1
21.561665 3.510808 -32.446435 39.115244 0.161410 2.549024 0.064209 -0.020144 93217.500000 0 0 1
22.961665 3.466708 -32.655925 40.070757 0.149846 2.523450 0.060423 -0.028644 55071.500000 0 0 1
23.243965 4.011008 -33.956775 41.345286 0.170878 2.534478 0.063847 -0.031354 318163.000000 0 0 1
24.725765 3.769608 33.582995 41.873511 0.151292 0.640143 0.098486 -0.026589 268080.000000 0 0 1
24.822665 2.445408 33.090802 41.438459 0.098198 0.645909 0.115391 -0.030767 92993.600000 0 0 1
26.125865 2.025108 32.726201 41.924529 0.077359 0.675174 0.111273 -0.031326 -297587.000000 0 0 1
26.242865 0.489008 32.516842 41.788421 0.018632 0.679113 0.085015 -0.032511 -578780.000000 0 0 1
25.674565 0.000408 31.317523 40.496550 0.000016 0.686707 0.084790 -0.032128 -43074.200000 0 0 1
24.280265 -0.144992 31.205543 39.539072 -0.005972 0.661237 0.106165 -0.047608 -564769.000000 0 0 1
23.687765 -1.286192 32.068260 39.889069 -0.054244 0.636912 0.100717 -0.054221 -855298.000000 0 0 1
23.743465 -2.602192 31.618313 39.626270 -0.109160 0.646972 0.097049 -0.057247 85456.000000 0 0 1
23.111765 -3.402092 32.602866 40.108288 -0.146152 0.621732 0.117078 -0.051389 -38096.900000 0 0 1
22.912565 -4.870192 32.154778 39.782335 -0.209438 0.629592 0.114834 -0.054428 -246945.000000 0 0 1
24.118065 -5.578892 32.068393 40.511565 -0.227318 0.657396 0.100731 -0.044025 -60084.400000 0 0 1
23.840765 -6.915492 31.842063 40.374783 -0.282322 0.662166 0.112152 -0.047452 206431.000000 0 0 1
25.162565 -7.739292 31.756033 41.249205 -0.298389 0.692178 0.095833 -0.040738 492582.000000 0 0 1
25.697765 -7.552892 30.455643 40.558199 -0.285863 0.721354 0.103564 -0.044943 1268810.000000 0 0 1
27.075265 -8.054992 30.386843 41.488710 -0.289165 0.748938 0.103603 -0.037599 2031150.000000 0 0 1
27.725665 -7.913192 28.964153 40.868732 -0.278019 0.783126 0.104870 -0.034140 600570.000000 0 0 1
26.887365 -8.592492 27.999773 39.758629 -0.309316 0.789439 0.087942 -0.027537 244990.000000 0 0 1
27.164365 -8.154392 26.697613 38.950730 -0.291628 0.815616 0.096695 -0.030945 -165478.000000 0 0 1
26.337765 -8.821292 25.590613 37.767347 -0.323186 0.826322 0.078837 -0.033445 -28559.100000 0 0 1
24.989265 -8.361492 25.567153 36.715899 -0.322893 0.800496 0.084609 -0.037510 279012.000000 0 0 1
24.281565 -9.066492 24.555603 35.703968 -0.357358 0.812404 0.106403 -0.042445 -497135.000000 0 0 1
22.917765 -8.554992 24.150653 34.375367 -0.357271 0.791812 0.097550 -0.029575 -15767.600000 0 0 1
21.858765 -8.887592 25.071163 34.429030 -0.386176 0.755107 0.085119 -0.017275 560179.000000 0 0 1
20.629565 -8.347192 24.601873 33.173886 -0.384485 0.735339 0.088941 -0.011027 1064750.000000 0 0 1
19.479365 -8.427092 25.696233 33.328035 -0.408304 0.690371 0.077705 -0.015482 922672.000000 0 0 1
18.810065 -9.679192 25.993283 33.513520 -0.475240 0.683122 0.092327 -0.011402 628384.000000 0 0 1
19.581065 -10.533792 26.830803 34.846389 -0.493551 0.691996 0.090404 -0.015451 193411.000000 0 0 1
18.677765 -11.554192 27.558403 35.239521 -0.553989 0.672878 0.084268 -0.007163 458770.000000 0 0 1
17.979565 -12.475192 26.691603 34.515748 -0.606589 0.686741 0.086092 -0.005382 786903.000000 0 0 1
17.172765 -13.520292 27.292123 34.965156 -0.666955 0.675248 0.093080 -0.004099 470870.000000 0 0 1
17.973065 -14.576692 28.099853 36.402098 -0.681430 0.688926 0.089184 0.002012 12478.800000 0 0 1
17.123965 -15.345192 28.899833 36.931090 -0.730669 0.672071 0.073166 0.004160 -58425.400000 0 0 1
17.898165 -16.306092 29.559213 38.209685 -0.738886 0.686285 0.082310 -0.002403 -177800.000000 0 0 1
18.255365 -17.599392 28.743343 38.329841 -0.767105 0.722894 0.085540 0.000207 186486.000000 0 0 1
19.324665 -17.471692 27.816993 38.111518 -0.735083 0.752644 0.084766 0.000987 199226.000000 0 0 1
19.574465 -18.707692 27.148823 38.343135 -0.762760 0.784065 0.075240 0.005251 96532.600000 0 0 1
20.640765 -18.484592 26.044163 38.026566 -0.730344 0.816338 0.079417 -0.008921 352573.000000 0 0 1
21.969565 -18.327092 26.545793 39.028492 -0.695252 0.822809 0.072269 -0.014281 449052.000000 0 0 1
22.795465 -17.950792 25.427663 38.580179 -0.667055 0.851193 0.067853 -0.009758 411235.000000 0 0 1
24.235765 -17.617792 25.908083 39.610449 -0.628574 0.857841 0.067451 -0.008691 -22253.400000 0 0 1
25.000165 -18.728092 26.214483 40.779269 -0.642937 0.872598 0.064935 -0.013144 77702.300000 0 0 1
26.368265 -18.441992 26.466773 41.663924 -0.610324 0.882471 0.063533 -0.013293 400795.000000 0 0 1
27.206265 -19.729992 26.579433 42.847633 -0.627439 0.901640 0.063826 -0.015219 -103587.000000 0 0 1
26.838865 -20.473192 27.717013 43.677329 -0.651655 0.883324 0.067507 -0.011276 -62447.100000 0 0 1
27.717365 -21.548392 27.944063 44.871552 -0.660828 0.898535 0.072639 -0.018641 207019.000000 0 0 1
27.180965 -22.482592 29.056983 45.700985 -0.691075 0.881743 0.057312 -0.013742 -10276.100000 0 0 1
27.013765 -22.018292 30.338243 46.205602 -0.683867 0.854505 0.049534 -0.014581 -73176.000000 0 0 1
26.349165 -23.081692 31.003833 46.779062 -0.719392 0.846282 0.039923 -0.010851 -161849.000000 0 0 1
25.847065 -22.843792 32.456720 47.363997 -0.723796 0.815834 0.028464 -0.007580 -136609.000000 0 0 1
25.301565 -23.961792 33.050196 48.027618 -0.758209 0.811860 0.027925 -0.010893 61995.800000 0 0 1
25.186365 -23.960992 -33.482365 48.265421 -0.760471 2.337428 0.015310 -0.008207 -633906.000000 0 0 1
25.186165 -25.405662 -32.995525 48.667188 -0.789737 2.315811 0.024983 -0.015072 1238640.000000 0 0 1
23.950665 -26.187632 -33.064585 48.504569 -0.829985 2.320852 0.045336 -0.021238 855491.000000 0 0 1
23.584165 -26.518522 33.588424 48.863351 -0.843898 0.812900 0.036217 -0.021151 277450.000000 0 0 1
22.222965 -27.281122 33.438498 48.541250 -0.887221 0.810871 0.071918 -0.028673 492355.000000 0 0 1
22.229365 -28.646592 33.876952 49.622775 -0.910870 0.819359 0.079971 -0.031868 -17322.700000 0 0 1
20.950765 -29.236402 33.875433 49.408974 -0.949017 0.815351 0.113498 -0.038987 -495780.000000 0 0 1
21.044665 -30.817322 33.842372 50.377489 -0.971650 0.834193 0.098230 -0.038099 -189356.000000 0 0 1
21.601365 -31.403942 -32.955095 50.387149 -0.968268 2.283706 0.086907 -0.046505 807109.000000 0 0 1
23.030465 -31.455112 -32.917565 51.023450 -0.938805 2.272010 0.069560 -0.025511 132418.000000 0 0 1
23.607565 -32.469162 -31.882185 51.264386 -0.942128 2.241984 0.057125 -0.029782 -315653.000000 0 0 1
24.952565 -32.734372 -32.218575 52.270510 -0.919486 2.234935 0.054006 -0.013826 212747.000000 0 0 1
25.686065 -33.472092 -31.231495 52.493439 -0.916260 2.208012 0.046455 -0.003337 650330.000000 0 0 1
26.336565 -32.670582 -30.009285 51.590103 -0.892332 2.191597 0.039621 -0.017767 104180.000000 0 0 1
26.798265 -33.360942 -28.852585 51.609797 -0.894057 2.164039 0.050710 -0.011614 9740.840000 0 0 1
27.227065 -32.524482 -27.800005 50.714843 -0.873824 2.150963 0.044756 -0.013325 -568120.000000 0 0 1
27.672465 -33.227242 -26.527285 50.729792 -0.876358 2.121062 0.053814 -0.017893 1088.820000 0 0 1
28.998465 -33.711392 -26.545415 51.788300 -0.860412 2.108978 0.056099 -0.001553 -74783.100000 0 0 1
29.912965 -32.773762 -26.006315 51.431832 -0.831003 2.100927 0.063324 -0.022215 -250016.000000 0 0 1
-27.477465 -30.792795 9.393725 42.325516 0.842233 1.346993 0.046558 -0.008031 13372.000000 0 0 1
-27.345205 -31.805795 10.388525 43.212154 0.860666 1.328011 0.057524 -0.010471 -154332.000000 0 0 1
-25.969005 -31.923995 10.666925 42.512515 0.887900 1.317173 0.037845 -0.010729 -66992.200000 0 0 1
-25.714535 -32.947795 11.765825 43.419225 0.908082 1.296383 0.039149 -0.012769 -105963.000000 0 0 1
-25.818705 33.763708 11.537225 44.042038 -0.917961 1.305744 0.053878 0.000721 294295.000000 0 0 1
-27.130825 33.258308 11.254425 44.371824 -0.886519 1.314356 0.044490 -0.020476 591008.000000 0 0 1
-27.168505 31.709208 11.120325 43.211841 -0.862367 1.310523 0.058940 -0.013808 331816.000000 0 0 1
-26.554475 31.367208 9.858425 42.263819 -0.868298 1.335368 0.098345 -0.027243 307916.000000 0 0 1
-26.745785 29.983008 9.687025 41.329847 -0.842401 1.334212 0.116280 -0.027516 169580.000000 0 0 1
-26.111665 29.524708 8.335425 40.286558 -0.846667 1.362388 0.091266 -0.015858 163867.000000 0 0 1
-24.729735 29.264808 8.390625 39.222333 -0.869193 1.355205 0.070545 -0.007433 233397.000000 0 0 1
-24.059435 29.315408 7.132025 38.589057 -0.883555 1.384908 0.046759 -0.005135 1193910.000000 0 0 1
-22.772235 28.399008 6.923225 37.054141 -0.894918 1.382851 0.088265 -0.007096 897212.000000 0 0 1
-22.933535 27.014208 7.154525 36.151095 -0.866916 1.371575 0.079165 -0.014506 44897.400000 0 0 1
-23.625435 26.266608 6.175325 35.864056 -0.838287 1.397747 0.063591 -0.015755 -475570.000000 0 0 1
-23.908435 24.822208 6.494025 35.070324 -0.804147 1.384550 0.082354 -0.013831 130409.000000 0 0 1
-25.099835 24.666508 7.290125 35.938618 -0.776691 1.366529 0.108692 -0.022880 906024.000000 0 0 1
-25.470465 23.332508 7.559825 35.359602 -0.741618 1.355335 0.107996 -0.029241 -52396.300000 0 0 1
-26.062775 22.473108 6.366725 34.997771 -0.711574 1.387860 0.090595 -0.034645 655511.000000 0 0 1
-27.478305 22.745208 6.209525 36.207181 -0.691435 1.398444 0.099874 -0.036672 1033870.000000 0 0 1
-27.980015 22.384508 4.951525 36.172711 -0.674752 1.433480 0.084536 -0.031517 -126556.000000 0 0 1
-27.610175 23.223208 3.647625 36.262161 -0.699311 1.470036 0.066615 -0.038119 441903.000000 0 0 1
-26.199145 23.200208 3.378725 35.157654 -0.724765 1.474546 0.069537 -0.040020 831217.000000 0 0 1
-25.889905 24.149208 2.403225 35.485869 -0.750625 1.503021 0.052692 -0.037143 272842.000000 0 0 1
-24.406335 24.609208 2.428925 34.744524 -0.789537 1.500831 0.054637 -0.031680 258385.000000 0 0 1
-24.074135 25.363208 1.262725 34.992153 -0.811467 1.534703 0.032871 -0.033412 13445.000000 0 0 1
-22.749235 25.847808 1.449825 34.463587 -0.849073 1.528716 0.042467 -0.029528 -868821.000000 0 0 1
-22.202735 26.449908 0.186225 34.533951 -0.872473 1.565404 0.053970 -0.029879 -254403.000000 0 0 1
-21.856735 25.551808 -0.814975 33.634446 -0.863182 1.595029 0.057945 -0.033369 140677.000000 0 0 1
-20.608435 24.906008 -0.620075 32.332666 -0.879541 1.589975 0.058515 -0.035748 -385038.000000 0 0 1
-20.254135 24.003508 -1.799975 31.458517 -0.869913 1.628045 0.066022 -0.044489 -7448.040000 0 0 1
-21.160635 22.916808 -1.948675 31.252998 -0.825220 1.633188 0.068927 -0.040854 356833.000000 0 0 1
-20.733235 22.078008 -3.028975 30.438136 -0.816800 1.670474 0.076028 -0.044322 -776025.000000 0 0 1
-21.895535 21.353808 -3.679775 30.804875 -0.772873 1.690537 0.074511 -0.033600 -786562.000000 0 0 1
-22.566635 22.368908 -4.365275 32.072990 -0.780998 1.707324 0.066206 -0.028418 -348977.000000 0 0 1
-23.683235 21.853308 -5.057375 32.619622 -0.745234 1.726465 0.058334 -0.022835 28554.100000 0 0 1
-24.051435 22.657208 -6.344675 33.646329 -0.755558 1.760502 0.070257 -0.015102 -26147.000000 0 0 1
-23.145135 22.505908 -7.424275 33.126017 -0.771397 1.796839 0.081022 -0.024705 100295.000000 0 0 1
-23.533835 23.102508 -8.654975 34.095100 -0.776150 1.827453 0.086560 -0.021228 -48695.900000 0 0 1
-22.696635 22.541308 -9.822975 33.462496 -0.781965 1.868737 0.091061 -0.022963 303475.000000 0 0 1
-23.227835 21.317808 -10.352275 33.183593 -0.742546 1.888062 0.071087 -0.020981 431928.000000 0 0 1
-22.554735 21.165908 -11.596475 33.033164 -0.753643 1.929494 0.065320 -0.017596 92342.700000 0 0 1
-23.507335 20.945508 -12.788175 33.983033 -0.727832 1.956607 0.056355 -0.015738 -122607.000000 0 0 1
-24.181535 19.708608 -12.788475 33.715292 -0.683837 1.959844 0.059961 -0.011161 229621.000000 0 0 1
-25.100695 19.755908 -13.868275 34.823409 -0.666805 1.980400 0.067654 -0.015364 464609.000000 0 0 1
-26.016645 18.497208 -14.141875 34.914254 -0.618054 1.987825 0.095097 -0.024416 588767.000000 0 0 1
-25.429375 17.585308 -15.016075 34.371189 -0.605022 2.022923 0.078560 -0.026653 -40214.800000 0 0 1
-26.391675 16.597408 -15.228075 34.697099 -0.561390 2.025155 0.091971 -0.029118 -55204.900000 0 0 1
-26.093795 15.628108 -16.383375 34.547632 -0.539625 2.064881 0.097412 -0.022584 -69429.600000 0 0 1
-25.020135 14.731708 -16.210875 33.253914 -0.532139 2.080006 0.109940 -0.022969 18036.800000 0 0 1
-24.546235 14.407608 -17.495375 33.409354 -0.530775 2.121946 0.104972 -0.033603 -248202.000000 0 0 1
-23.692335 13.167408 -17.632275 32.335808 -0.507260 2.147527 0.103472 -0.029641 -297293.000000 0 0 1
-22.424935 13.257408 -17.029575 31.123030 -0.533917 2.149775 0.114250 -0.037651 -110148.000000 0 0 1
-21.816035 11.972808 -17.015475 30.146540 -0.501927 2.170533 0.119145 -0.028395 -391555.000000 0 0 1
-20.586835 11.997508 -16.120775 28.768687 -0.527658 2.165615 0.119774 -0.029210 -688668.000000 0 0 1
-19.606435 12.925208 -16.420375 28.654877 -0.582839 2.181006 0.107862 -0.025194 -719230.000000 0 0 1
-18.427235 12.830408 -15.696675 27.396495 -0.608221 2.180890 0.106377 -0.012612 -225819.000000 0 0 1
-17.468135 14.034308 -15.927375 27.491431 -0.676825 2.188737 0.101891 -0.016938 -97217.000000 0 0 1
-16.835135 14.078108 -17.206275 27.886749 -0.696448 2.235728 0.104751 -0.020829 -283203.000000 0 0 1
-16.096635 15.211308 -17.337275 28.125907 -0.757128 2.234980 0.100777 -0.010727 -1113380.000000 0 0 1
-15.208135 15.316808 -18.579275 28.479491 -0.788958 2.281509 0.122065 -0.018581 -174742.000000 0 0 1
-14.181635 14.359308 -18.468775 27.356976 -0.791623 2.311901 0.114782 -0.017261 -425395.000000 0 0 1
-13.250735 14.441308 -19.515975 27.658753 -0.828365 2.354064 0.130622 -0.027068 382017.000000 0 0 1
-12.093835 13.395908 -19.439075 26.525249 -0.836436 2.393300 0.112688 -0.032138 484101.000000 0 0 1
-12.521635 12.102208 -19.838975 26.397721 -0.768366 2.421192 0.124723 -0.034820 44089.600000 0 0 1
-11.437835 11.207608 -19.851575 25.505285 -0.775232 2.462801 0.104460 -0.023739 -288560.000000 0 0 1
-11.763535 9.907108 -20.537275 25.657576 -0.699941 2.498820 0.107226 -0.031917 -189091.000000 0 0 1
-11.950135 10.141208 -21.883375 26.917130 -0.703696 2.520066 0.101187 -0.040779 -6361.080000 0 0 1
-12.205135 8.972208 -22.613275 27.218119 -0.633908 2.551370 0.094421 -0.017598 -59210.300000 0 0 1
-11.931235 9.223808 -24.096875 28.426965 -0.658110 2.582387 0.080077 -0.030945 -466250.000000 0 0 1
-10.547135 9.234408 -24.374575 28.118254 -0.719134 2.619664 0.082122 -0.031856 -166496.000000 0 0 1
-10.321235 8.484408 -25.574265 28.854048 -0.688033 2.660159 0.062984 -0.036368 141587.000000 0 0 1
-9.912835 9.374108 -26.827975 30.097814 -0.757473 2.671132 0.095189 -0.042712 1405850.000000 0 0 1
-8.560935 9.924808 -26.868925 29.895326 -0.859044 2.687745 0.083567 -0.043057 1456720.000000 0 0 1
-8.424735 11.163208 -26.163245 29.666627 -0.924302 2.650691 0.060811 -0.038970 -216390.000000 0 0 1
-6.993835 11.674908 -26.409935 29.710299 -1.031077 2.665768 0.067421 -0.040046 -45671.300000 0 0 1
-6.674035 12.191508 -27.709465 30.999839 -1.069926 2.676675 0.068159 -0.052132 -341996.000000 0 0 1
-5.307235 12.470508 -27.760235 30.891924 -1.168432 2.687420 0.079425 -0.040905 -651661.000000 0 0 1
-4.752235 12.713908 -29.192795 32.193888 -1.213094 2.706381 0.072998 -0.032761 -292579.000000 0 0 1
-3.353935 12.847808 -29.123675 32.007866 -1.315444 2.713818 0.092654 -0.041262 27129.700000 0 0 1
-2.742835 13.023308 -30.401865 33.187393 -1.363220 2.728956 0.094512 -0.038699 2084200.000000 0 0 1
-1.169835 12.723108 -30.518185 33.084824 -1.479108 2.745103 0.123499 -0.056267 1710340.000000 0 0 1
-0.953535 11.325108 -30.414255 32.468357 -1.486798 2.783980 0.104555 -0.038196 585537.000000 0 0 1
0.421665 10.939208 -30.287755 32.205468 1.532269 2.794759 0.116940 -0.046339 1048980.000000 0 0 1
1.155765 10.693008 -31.653665 33.430984 1.463128 2.814051 0.128483 -0.040293 -23950.200000 0 0 1
1.530665 11.732108 -32.510105 34.596130 1.441061 2.792559 0.137730 -0.049675 46490.200000 0 0 1
1.517865 11.193808 -33.789925 35.628139 1.436020 2.818965 0.151778 -0.043104 -284950.000000 0 0 1
2.135265 12.016308 33.002862 35.187212 1.394935 0.354206 0.155550 -0.052823 -1506740.000000 0 0 1
3.499065 12.008408 33.041893 35.330044 1.287262 0.361874 0.156859 -0.056633 -1721630.000000 0 0 1
3.977765 12.900208 32.080085 34.804738 1.271698 0.398315 0.148598 -0.046340 -31110.500000 0 0 1
5.500565 12.882508 31.857433 34.801024 1.167250 0.414255 0.146701 -0.039774 -63527.500000 0 0 1
5.985765 11.850508 31.024953 33.746283 1.103072 0.404348 0.160110 -0.046844 -25681.900000 0 0 1
7.349665 11.578308 31.265583 34.141052 1.005196 0.413359 0.148657 -0.026288 107454.000000 0 0 1
7.852965 10.420208 30.360953 33.045987 0.924977 0.405897 0.118756 -0.018338 42489.500000 0 0 1
8.008765 10.771108 28.996973 31.952801 0.931442 0.433517 0.113538 -0.032031 68106.800000 0 0 1
8.667465 9.723308 28.263553 31.120670 0.842747 0.431852 0.090176 -0.031796 137293.000000 0 0 1
7.725965 8.803108 27.477073 29.869295 0.850473 0.402945 0.075906 -0.020306 -59247.300000 0 0 1
7.050565 7.879508 28.304313 30.214752 0.840863 0.357509 0.092873 -0.027091 94107.700000 0 0 1
6.320865 6.944408 27.483253 29.043197 0.832369 0.329239 0.100870 -0.022775 144083.000000 0 0 1
5.577865 5.783408 28.271333 29.390962 0.803488 0.276907 0.118376 -0.034371 269109.000000 0 0 1
6.345765 4.675208 28.668293 29.732092 0.634964 0.268309 0.087819 -0.036743 104760.000000 0 0 1
5.567265 3.885808 29.553603 30.323413 0.609365 0.225809 0.090023 -0.042926 -188532.000000 0 0 1
6.299465 2.675008 30.137843 30.905153 0.401566 0.223300 0.100467 -0.033675 -168480.000000 0 0 1
6.415665 1.630408 29.224313 29.964636 0.248861 0.222751 0.096258 -0.023695 796143.000000 0 0 1
7.679065 1.559308 28.523813 29.580523 0.200336 0.268097 0.086600 -0.021258 542115.000000 0 0 1
7.845365 0.154508 27.864873 28.948657 0.019692 0.274496 0.074890 -0.019863 -124208.000000 0 0 1
7.919265 -0.930992 28.733373 29.819259 -0.117023 0.270698 0.050408 -0.024649 34736.100000 0 0 1
8.139165 -2.157892 28.104593 29.338893 -0.259162 0.291097 0.063172 -0.020716 -216880.000000 0 0 1
8.745665 -3.327592 28.937943 30.413222 -0.363570 0.312746 0.055443 -0.015519 288033.000000 0 0 1
10.110365 -3.208192 29.286203 31.147932 -0.307267 0.347493 0.046404 -0.020769 188281.000000 0 0 1
10.995765 -3.916192 28.393473 30.699067 -0.342147 0.390032 0.059110 -0.016692 -814864.000000 0 0 1
12.381965 -3.878192 28.992673 31.763635 -0.303534 0.420798 0.046864 -0.021000 -488168.000000 0 0 1
13.233865 -4.960692 28.566333 31.871288 -0.358638 0.459435 0.055128 -0.023128 376891.000000 0 0 1
13.221865 -6.081292 29.457673 32.856572 -0.431091 0.458870 0.073909 -0.023167 -561179.000000 0 0 1
12.420265 -7.275692 28.944033 32.325775 -0.529907 0.461500 0.078347 -0.021114 255326.000000 0 0 1
11.018565 -7.016892 28.961193 31.770997 -0.567057 0.423732 0.073857 -0.021707 -282421.000000 0 0 1
10.292765 -8.107192 28.594553 31.453394 -0.667171 0.429657 0.080381 -0.020967 -627693.000000 0 0 1
8.803665 -7.803192 28.449603 30.785942 -0.725226 0.392096 0.091705 -0.023742 -549384.000000 0 0 1
8.148065 -7.382292 29.601633 31.577616 -0.736130 0.355638 0.110217 -0.033713 -577626.000000 0 0 1
6.766165 -7.301992 29.334293 30.977424 -0.823468 0.327165 0.103495 -0.035580 -149807.000000 0 0 1
6.088665 -6.707092 30.583863 31.897172 -0.833691 0.287955 0.094820 -0.033865 -249947.000000 0 0 1
6.074865 -7.548992 31.757973 33.203314 -0.893181 0.296140 0.100239 -0.029422 245476.000000 0 0 1
5.355365 -7.195192 32.958966 34.157637 -0.930955 0.265705 0.100703 -0.025132 258491.000000 0 0 1
5.835665 -5.914292 33.739354 34.747343 -0.792090 0.241456 0.099911 -0.026920 -178357.000000 0 0 1
5.874265 -4.781392 32.851266 33.713119 -0.683193 0.226601 0.101660 -0.019595 345190.000000 0 0 1
6.614265 -3.641892 33.393829 34.236817 -0.503313 0.222369 0.083714 -0.015991 315751.000000 0 0 1
6.623065 -2.557792 32.308762 33.079652 -0.368549 0.216311 0.079900 -0.020414 272993.000000 0 0 1
5.320565 -2.040692 32.081783 32.583947 -0.366244 0.175791 0.089127 -0.025705 127594.000000 0 0 1
5.375565 -1.008992 31.123203 31.600135 -0.185541 0.173959 0.076859 -0.024991 499198.000000 0 0 1
3.980565 -0.455892 30.659573 30.920254 -0.114033 0.129943 0.091247 -0.027989 502000.000000 0 0 1
3.333165 0.094508 31.792583 31.966971 0.028346 0.104501 0.091075 -0.030472 -362566.000000 0 0 1
2.075465 0.613308 31.422063 31.496503 0.287327 0.068766 0.096726 -0.032128 -191030.000000 0 0 1
1.131265 0.872408 32.602048 32.633332 0.656919 0.043791 0.088160 -0.036101 -140076.000000 0 0 1
1.599365 2.006008 33.298184 33.396872 0.897712 0.076896 0.078215 -0.030783 525203.000000 0 0 1
0.820365 2.402508 -33.462005 33.558170 1.241748 3.065869 0.065234 -0.032289 -28783.000000 0 0 1
1.521365 3.503808 -32.653615 32.876280 1.161156 3.025141 0.064006 -0.031565 -450411.000000 0 0 1
2.524265 3.059308 -31.806045 32.052391 0.880931 3.017531 0.050222 -0.010025 -92396.800000 0 0 1
3.239465 4.108508 -31.106025 31.542967 0.903121 2.974953 0.047990 -0.013603 68834.000000 0 0 1
4.339465 3.570408 -30.198455 30.716859 0.688475 2.957611 0.051019 -0.011039 -97774.800000 0 0 1
3.832965 2.922408 -29.022625 29.420143 0.651416 2.977019 0.049596 -0.008999 -300689.000000 0 0 1
4.845765 2.937308 -28.087825 28.653710 0.544936 2.942522 0.051268 -0.013343 -495007.000000 0 0 1
4.543765 2.349608 -26.673235 27.159306 0.477239 2.952116 0.050295 -0.013652 -106037.000000 0 0 1
4.469565 0.938508 -26.801855 27.188182 0.206971 2.972814 0.054702 -0.017945 333281.000000 0 0 1
3.794165 0.287108 -25.699335 25.979490 0.075527 2.994602 0.066767 -0.015461 70728.900000 0 0 1
4.131665 -1.189392 -25.499025 25.858955 -0.280294 2.974551 0.064702 -0.019300 -193807.000000 0 0 1
5.459765 -1.380692 -25.089415 25.713694 -0.247692 2.920790 0.062871 -0.020241 -410193.000000 0 0 1
5.648365 -2.751692 -24.799875 25.583386 -0.453328 2.893466 0.078897 -0.022408 -680686.000000 0 0 1
7.072265 -3.198692 -24.486475 25.687273 -0.424754 2.834621 0.084374 -0.029233 -265174.000000 0 0 1
7.912765 -3.090392 -25.618455 26.990139 -0.372340 2.821411 0.089217 -0.030391 107072.000000 0 0 1
9.208365 -3.616692 -25.275245 27.142447 -0.374251 2.768508 0.079742 -0.021870 844540.000000 0 0 1
-30.184165 -3.284692 18.077913 35.336722 0.108395 1.033762 0.120666 -0.029524 436252.000000 0 0 1
-31.542465 -3.446692 18.457813 36.708277 0.108840 1.043933 0.093171 0.001656 -297501.000000 0 0 1
-31.811495 -4.756892 18.799913 37.256354 0.148434 1.041867 0.097779 -0.015784 -901504.000000 0 0 1
-33.240955 -5.031892 19.178113 38.705051 0.150236 1.052393 0.090687 -0.015157 -1107140.000000 0 0 1
-34.100538 -4.947592 18.074813 38.910464 0.144083 1.087700 0.079658 -0.016088 -128384.000000 0 0 1
-35.438769 -4.878092 18.537113 40.290528 0.136789 1.092704 0.086953 -0.011697 -65501.800000 0 0 1
-36.467635 -4.849092 17.402813 40.697174 0.132194 1.128941 0.060684 -0.017648 -659601.000000 0 0 1
36.398372 -4.919992 17.851313 40.837693 -0.134356 1.118393 0.093920 -0.021187 -285459.000000 0 0 1
35.489852 -4.720392 16.747613 39.525868 -0.132231 1.133256 0.069469 -0.023435 441755.000000 0 0 1
34.093462 -5.373892 16.811813 38.391144 -0.156336 1.117525 0.069159 -0.020540 -29129.400000 0 0 1
33.306142 -4.687892 17.746813 38.029262 -0.139833 1.085283 0.096828 -0.032471 -490783.000000 0 0 1
32.187392 -5.453392 18.071413 37.314121 -0.167833 1.065228 0.142739 -0.037224 -491028.000000 0 0 1
31.387032 -5.076592 19.335213 37.212471 -0.160353 1.024426 0.137903 -0.031484 197635.000000 0 0 1
30.367442 -4.078092 19.251613 36.186143 -0.133493 1.009816 0.135485 -0.034414 305793.000000 0 0 1
30.723032 -2.741292 18.958513 36.205588 -0.088990 1.019684 0.146162 -0.044214 -88830.000000 0 0 1
29.559472 -1.735592 19.218713 35.300617 -0.058648 0.995087 0.115461 -0.023503 122860.000000 0 0 1
29.893852 -0.413192 18.981613 35.413482 -0.013821 1.005105 0.132410 -0.034371 -251586.000000 0 0 1
29.010392 0.481808 19.606913 35.018081 0.016607 0.976521 0.101397 -0.024980 -119463.000000 0 0 1
29.250872 2.022908 19.197013 35.046126 0.069047 0.991107 0.115888 -0.022023 179997.000000 0 0 1
29.206602 2.162808 17.788213 34.265491 0.073917 1.024965 0.117238 -0.028769 80913.600000 0 0 1
28.892392 3.482808 17.388513 33.900747 0.119965 1.032209 0.110322 -0.020144 100143.000000 0 0 1
28.552192 3.454008 15.891613 32.858807 0.120387 1.065995 0.107927 -0.030526 -9164.310000 0 0 1
28.301692 4.785808 15.435913 32.590752 0.167515 1.077390 0.103744 -0.016099 166402.000000 0 0 1
27.625992 4.729108 14.193913 31.416987 0.169540 1.102024 0.084566 -0.022254 -140289.000000 0 0 1
27.357792 6.080408 13.490413 31.103237 0.218700 1.122168 0.086658 -0.005343 -24479.500000 0 0 1
26.359792 6.826408 14.162013 30.692036 0.253403 1.091198 0.089525 -0.008911 -189708.000000 0 0 1
25.891492 7.883408 13.369313 30.187017 0.295561 1.111985 0.093279 -0.028299 87432.500000 0 0 1
24.557392 8.469708 13.997013 29.507928 0.332119 1.076574 0.099405 -0.030232 761719.000000 0 0 1
23.398692 7.687108 13.786213 28.224990 0.317419 1.060495 0.106696 -0.027682 358436.000000 0 0 1
23.352792 6.329708 14.300113 28.105361 0.264688 1.037002 0.129673 -0.032796 -955934.000000 0 0 1
21.979692 5.630208 14.087813 26.707163 0.250763 1.015151 0.145473 -0.026696 97203.500000 0 0 1
21.600192 5.429008 12.744113 25.660375 0.246240 1.051067 0.154390 -0.028448 826880.000000 0 0 1
20.631992 4.382908 12.590013 24.564149 0.209321 1.032661 0.153384 -0.025908 103071.000000 0 1 0
20.190392 4.265308 11.139513 23.450661 0.208193 1.075811 0.154259 -0.026685 270640.000000 0 1 0
21.222692 3.666308 10.353113 23.896264 0.171066 1.122698 0.168924 -0.034064 1220420.000000 0 1 0
20.659592 3.243508 9.085413 22.800961 0.155727 1.160952 0.165365 -0.029441 436371.000000 0 1 0
21.771492 2.612308 8.216313 23.416443 0.119417 1.212288 0.151603 -0.019082 -548419.000000 0 1 0
22.204092 1.287408 8.596913 23.845042 0.057916 1.201958 0.158182 -0.024143 494473.000000 0 1 0
23.048092 0.703308 7.638813 24.291164 0.030505 1.250899 0.148531 -0.009118 730364.000000 0 1 0
24.545192 1.226608 7.579813 25.718176 0.049932 1.271628 0.145378 -0.007466 1218010.000000 0 0 1
25.488992 0.813108 8.605113 26.914640 0.031890 1.245364 0.121444 0.006925 977573.000000 0 0 1
25.257492 1.472508 9.814913 27.137459 0.058234 1.200734 0.117780 -0.003887 -365989.000000 0 0 1
26.045892 0.814808 10.976213 28.275955 0.031273 1.172138 0.097552 -0.010745 -320675.000000 0 0 1
27.436192 0.949608 10.967613 29.562390 0.034598 1.190712 0.112348 -0.014656 -481127.000000 0 0 1
27.966392 0.282908 12.097713 30.472180 0.010116 1.162541 0.116293 -0.027392 -8233.260000 0 0 1
29.497612 0.398708 12.247813 31.941775 0.013516 1.177276 0.132361 -0.029016 -46321.600000 0 0 1
29.879062 1.693808 12.691813 32.507068 0.056628 1.169695 0.127345 -0.023656 -330854.000000 0 0 1
31.272402 1.637608 12.824513 33.839518 0.052318 1.182102 0.127652 -0.030766 -448345.000000 0 0 1
31.945752 3.007908 13.101413 34.658702 0.093880 1.183148 0.125072 -0.031548 -147824.000000 0 0 1
32.204892 3.745808 11.964613 34.559197 0.115791 1.217272 0.115696 -0.034334 96760.700000 0 0 1
33.014192 4.876608 12.217913 35.538649 0.146652 1.219844 0.103846 -0.028824 911006.000000 0 0 1
34.477042 4.707508 11.669613 36.701593 0.135701 1.247220 0.121113 -0.029551 668979.000000 0 0 1
35.285592 3.714008 12.317313 37.557730 0.104870 1.236656 0.117432 -0.039304 -508561.000000 0 0 1
36.569542 3.802208 11.827313 38.622189 0.103600 1.259565 0.122218 -0.025904 -606523.000000 0 0 1
-36.513965 2.986008 12.583113 38.736553 -0.081596 1.239956 0.148701 -0.021477 788.411000 0 0 1
-36.567245 1.576408 12.395813 38.643300 -0.043083 1.244248 0.150572 -0.022370 -294469.000000 0 0 1
36.574342 0.826808 12.941913 38.805402 0.022602 1.230774 0.130578 -0.027165 -629415.000000 0 0 1
36.493142 0.642408 14.478613 39.265663 0.017602 1.193149 0.137142 -0.021687 -107161.000000 0 0 1
-36.676795 -0.096392 15.151713 39.683384 0.002628 1.179037 0.127849 -0.018406 115286.000000 0 0 1
-36.923395 -0.213592 16.527013 40.453984 0.005785 1.149944 0.129837 -0.021579 -131232.000000 0 0 1
-35.952715 -1.174492 17.284713 39.909127 0.032656 1.122865 0.113988 -0.014459 321521.000000 0 0 1
-34.677359 -0.535092 17.371713 38.788941 0.015429 1.106435 0.116270 -0.015474 260501.000000 0 0 1
-33.728725 -1.245892 18.154913 38.324665 0.036922 1.077294 0.127243 -0.018092 7558.180000 0 0 1
-33.854415 -1.166292 19.673913 39.173262 0.034437 1.044623 0.116822 -0.023587 -456754.000000 0 0 1
-34.709537 -2.115092 20.271713 40.251309 0.060862 1.043002 0.114638 -0.029425 -89950.300000 0 0 1
-34.814699 -1.864992 21.671613 41.051190 0.053518 1.014651 0.112238 -0.031774 148313.000000 0 0 1
-35.447874 -3.107192 22.392313 42.043097 0.087432 1.009122 0.097687 -0.027033 80051.800000 0 0 1
-34.689889 -4.304992 22.330913 41.480007 0.123468 1.002314 0.098901 -0.030461 -227199.000000 0 0 1
-35.104928 -5.321292 23.200433 42.413821 0.150437 0.992018 0.081433 -0.033152 -178407.000000 0 0 1
-35.077936 -5.101392 24.739553 43.226511 0.144418 0.961460 0.089338 -0.038283 1194520.000000 0 0 1
-33.774335 -4.689892 25.232733 42.419236 0.137977 0.933728 0.088041 -0.036352 565949.000000 0 0 1
-33.708735 -4.547692 26.642253 43.206133 0.134102 0.906340 0.070808 -0.038733 300362.000000 0 0 1
-32.405165 -3.825292 27.101423 42.417150 0.117502 0.877695 0.072596 -0.028277 217521.000000 0 0 1
-32.315085 -2.442292 26.826023 42.069763 0.075434 0.879345 0.079977 -0.022805 -93275.300000 0 0 1
-32.074485 -2.061392 25.496513 41.025529 0.064181 0.900167 0.104646 -0.027089 -262545.000000 0 0 1
-32.112275 -0.581092 25.228683 40.841428 0.018094 0.904953 0.106663 -0.023871 905192.000000 0 0 1
-33.449695 -0.031792 25.225113 41.894980 0.000950 0.924663 0.114457 -0.029390 881051.000000 0 0 1
-33.541175 1.376708 25.027253 41.872056 -0.041022 0.930157 0.124082 -0.027151 -360980.000000 0 0 1
-34.972218 1.736908 24.628483 42.809286 -0.049625 0.957817 0.127856 -0.026041 -329140.000000 0 0 1
-35.403760 1.152308 23.375623 42.440237 -0.032536 0.987487 0.147210 -0.023135 337445.000000 0 0 1
-36.585365 1.742808 22.834913 43.162015 -0.047601 1.013314 0.146419 -0.011112 608534.000000 0 0 1
-36.237775 3.066808 22.109313 42.560584 -0.084429 1.024556 0.143689 -0.011625 329666.000000 0 0 1
-35.431483 2.881808 20.935113 41.254984 -0.081156 1.038566 0.135051 -0.022577 -10312.900000 0 0 1
-36.209005 2.866908 19.760213 41.349452 -0.079012 1.072553 0.151621 -0.013764 -43635.900000 0 0 1
-35.465835 2.413808 18.507413 40.077128 -0.067955 1.090779 0.160397 -0.014955 289191.000000 0 0 1
-34.687673 3.445508 17.837513 39.157158 -0.099005 1.097822 0.144097 -0.022765 654983.000000 0 0 1
-34.019505 2.974208 16.650113 37.992089 -0.087205 1.117143 0.150412 -0.012432 -177476.000000 0 0 1
-33.238185 4.086308 15.973613 37.102980 -0.122326 1.125726 0.139224 -0.010900 -388597.000000 0 0 1
-34.020415 5.073808 15.374313 37.676274 -0.148049 1.150464 0.145824 -0.014875 -402156.000000 0 0 1
-33.191425 5.886708 14.588513 36.730760 -0.175531 1.162361 0.155005 -0.012822 -144176.000000 0 0 1
-33.920185 6.864208 13.642113 37.199510 -0.199667 1.195306 0.156513 -0.019185 282474.000000 0 0 1
-33.014085 7.538608 12.747313 36.183620 -0.224496 1.210774 0.187031 -0.018979 634913.000000 0 0 1
-33.513325 8.805908 12.183513 36.730436 -0.256950 1.232691 0.150439 -0.025597 228064.000000 0 0 1
-32.409285 9.542608 11.343213 35.638344 -0.286349 1.246875 0.182432 -0.029573 463417.000000 0 0 1
-32.785065 10.870708 11.036413 36.260656 -0.320167 1.261526 0.151255 -0.009533 438932.000000 0 0 1
-31.781395 11.600008 10.322313 35.371844 -0.349969 1.274664 0.161341 -0.029122 278841.000000 0 0 1
-32.267515 13.040708 10.039613 36.222181 -0.384073 1.289951 0.138878 -0.012694 -277052.000000 0 0 1
-31.456995 13.663208 9.110713 35.485643 -0.409760 1.311145 0.151296 -0.018002 -214610.000000 0 0 1
-31.510855 15.060308 9.282913 36.137506 -0.445845 1.311006 0.121564 -0.008299 -315551.000000 0 0 1
-30.516465 15.964608 8.513913 35.476894 -0.481994 1.328446 0.120024 -0.007420 -404389.000000 0 0 1
-29.212365 15.740808 8.988513 34.379189 -0.494235 1.306270 0.136214 -0.000090 5020.590000 0 0 1
-28.236965 16.474308 8.251213 33.716635 -0.528147 1.323563 0.113874 -0.017023 380462.000000 0 0 1
-26.792805 16.303108 8.815313 32.578451 -0.546638 1.296793 0.115038 -0.006884 118873.000000 0 0 1
-26.614205 16.863508 10.135113 33.097044 -0.564780 1.259572 0.106412 -0.008573 174481.000000 0 0 1
-26.764645 18.280908 10.238813 33.990750 -0.599242 1.264821 0.102056 -0.015561 -231825.000000 0 0 1
-26.846335 18.900708 11.674513 34.846186 -0.613428 1.229159 0.119886 -0.002298 578406.000000 0 0 1
-25.563815 18.722808 12.277513 33.982194 -0.632138 1.201143 0.110586 0.001215 614780.000000 0 0 1
-25.483605 19.228208 13.587413 34.695185 -0.646396 1.168402 0.115055 -0.009573 453594.000000 0 0 1
-26.115445 18.316808 14.723213 35.132533 -0.611650 1.138369 0.109263 -0.006553 1027930.000000 0 0 1
-25.166215 17.256608 14.912113 33.963215 -0.601068 1.116237 0.110696 -0.009509 1089390.000000 0 0 1
-25.682845 16.510308 16.011613 34.475651 -0.571335 1.087803 0.113827 -0.004676 414361.000000 0 0 1
-24.657135 15.417708 16.378213 33.375528 -0.558803 1.057874 0.100580 -0.002994 321314.000000 0 0 1
-23.540135 15.852608 17.138513 33.153759 -0.592670 1.027524 0.092420 0.001059 228938.000000 0 0 1
-22.486435 14.925208 17.270213 32.041564 -0.585976 1.001554 0.079443 -0.003944 24372.300000 0 0 1
-22.734635 13.757708 18.212613 32.215484 -0.544193 0.969954 0.095018 -0.005852 -533546.000000 0 0 1
-22.868835 14.047008 19.567813 33.214475 -0.550826 0.940808 0.092886 -0.008360 171599.000000 0 0 1
-23.211935 12.937408 20.424213 33.515950 -0.508476 0.915508 0.092923 -0.015091 -452566.000000 0 0 1
-22.958135 13.221008 21.954813 34.407627 -0.522491 0.878794 0.087550 -0.015850 474660.000000 0 0 1
-21.619235 13.564508 22.312313 33.900243 -0.560343 0.852403 0.075925 -0.006974 539330.000000 0 0 1
-21.190735 14.862708 21.948613 33.936543 -0.611650 0.867475 0.064867 0.005029 -1856990.000000 0 0 1
-19.753335 15.118508 22.273213 33.389512 -0.653262 0.840525 0.070191 0.000864 -651015.000000 0 0 1
-18.814135 14.384808 21.469713 31.966278 -0.652764 0.834381 0.050636 0.000903 268839.000000 0 0 1
-18.316335 15.178608 20.421513 31.351498 -0.691993 0.861404 0.053883 0.005044 -533502.000000 0 0 1
-17.017735 14.568108 19.750913 29.865224 -0.707999 0.848199 0.040617 0.005503 1031350.000000 0 0 1
-15.779835 14.525708 20.418313 29.612613 -0.744039 0.809978 0.039034 0.002479 122963.000000 0 0 1
-15.306735 15.811008 20.747313 30.244588 -0.801602 0.814841 0.019995 0.000888 -1078090.000000 0 0 1
-14.228135 15.723008 21.869513 30.461917 -0.835267 0.769973 0.006011 -0.001690 392005.000000 0 0 1
-13.064835 15.082608 21.347313 29.221272 -0.856962 0.751684 0.016330 0.004700 -251221.000000 0 0 1
-12.186235 14.712308 22.368713 29.416248 -0.879035 0.706836 0.029557 0.002455 -104940.000000 0 0 1
-10.882535 14.065308 21.863613 28.182974 -0.912290 0.682856 0.025377 0.000088 -481250.000000 0 0 1
-10.262135 13.285808 22.883113 28.380644 -0.913104 0.632938 0.031774 -0.008157 -23020.400000 0 0 1
-9.181035 12.484408 22.477613 27.301921 -0.936705 0.603600 0.046199 0.006951 1335330.000000 0 0 1
-7.759335 13.202608 22.622913 27.318717 -1.039461 0.595068 0.046661 0.011122 790613.000000 0 0 1
-7.467435 14.215608 21.680713 26.979611 -1.087116 0.637483 0.034919 0.011362 -495802.000000 0 0 1
-6.884135 15.338508 22.249013 27.886909 -1.148929 0.647109 0.039621 0.011598 -800925.000000 0 0 1
-7.751535 16.436508 22.855313 29.199493 -1.130122 0.671756 0.052863 -0.011657 676808.000000 0 0 1
-8.809035 16.871208 21.937913 29.043222 -1.089599 0.714602 0.001903 -0.002401 276868.000000 0 0 1
-8.354535 17.669008 20.864713 28.588955 -1.129115 0.752742 0.030042 -0.002018 -1386720.000000 0 0 1
-9.283635 17.703508 19.606813 28.000485 -1.087824 0.795075 0.034764 -0.005409 1048330.000000 0 0 1
-10.415435 18.572008 19.738213 29.034424 -1.059689 0.823278 0.008437 -0.003485 -198297.000000 0 0 1
-11.392835 18.107808 20.619613 29.712923 -1.009206 0.803820 0.015344 0.000295 -1447140.000000 0 0 1
-12.611235 19.056308 20.668213 30.811704 -0.986179 0.835522 0.010087 -0.003672 127527.000000 0 0 1
-13.356735 19.025208 19.458513 30.314924 -0.958693 0.873850 0.018449 -0.004209 324624.000000 0 0 1
-14.617235 19.687808 19.612813 31.399614 -0.932144 0.896152 0.012289 -0.006982 267331.000000 0 0 1
-15.369235 19.714408 18.307413 30.984393 -0.908623 0.938673 0.032990 -0.003413 -679897.000000 0 0 1
-16.077935 18.527008 18.080113 30.473603 -0.856053 0.935639 0.042960 -0.002715 309865.000000 0 0 1
-16.881535 18.672808 16.894413 30.316351 -0.835737 0.979701 0.046430 -0.010737 -503724.000000 0 0 1
-17.556135 17.350608 16.442413 29.658294 -0.779510 0.983160 0.048055 -0.008974 529958.000000 0 0 1
-18.455035 16.703808 17.341313 30.336886 -0.735630 0.962312 0.057928 -0.006123 593802.000000 0 0 1
-19.615735 17.443308 17.708513 31.664451 -0.726844 0.977309 0.066567 -0.005293 -346170.000000 0 0 1
35.304682 -9.759792 11.916125 38.518413 -0.269709 1.256274 0.064465 -0.016925 606933.000000 0 0 1
33.940842 -10.106992 11.638225 37.277075 -0.289421 1.253279 0.077819 -0.016377 756897.000000 0 0 1
33.624982 -11.414992 12.151725 37.531399 -0.327272 1.241080 0.072423 -0.016836 535552.000000 0 0 1
32.089662 -11.737892 12.131825 36.258871 -0.350667 1.229627 0.100057 -0.012604 525379.000000 0 0 1
31.363792 -11.025092 13.102725 35.734039 -0.338031 1.195365 0.107355 -0.000284 945030.000000 0 0 1
29.931582 -11.094992 12.989725 34.463479 -0.354977 1.184335 0.111849 -0.007911 953121.000000 0 0 1
29.277082 -11.990292 14.033525 34.610034 -0.388708 1.153297 0.109288 -0.013737 -995802.000000 0 0 1
29.224052 -11.350092 15.257325 34.866256 -0.370451 1.117873 0.120308 -0.015360 -18089.800000 0 0 1
28.339492 -11.863392 16.223525 34.742908 -0.396452 1.084947 0.125745 -0.024065 636666.000000 0 0 1
26.824392 -11.585892 15.951125 33.289928 -0.407714 1.071101 0.126672 -0.030139 3685.730000 0 0 1
26.461692 -10.384692 16.508725 32.872496 -0.373974 1.044650 0.119582 -0.033428 -252407.000000 0 0 1
25.459692 -9.757992 15.725125 31.475290 -0.366003 1.047657 0.144746 -0.031274 2357.000000 0 0 1
25.268892 -8.282492 16.041125 31.055342 -0.316739 1.027999 0.163901 -0.036060 487782.000000 0 0 1
26.467092 -7.519092 15.911225 31.783813 -0.276799 1.046496 0.157234 -0.029793 297337.000000 0 0 1
26.201692 -6.146892 16.167125 31.395683 -0.230432 1.029850 0.148170 -0.041141 -387029.000000 0 0 1
27.466392 -5.323792 16.151725 32.305165 -0.191455 1.047228 0.154086 -0.038635 -455101.000000 0 0 1
28.102592 -5.171992 14.898825 32.225458 -0.182003 1.090174 0.162552 -0.041124 686909.000000 0 0 1
29.234702 -4.290292 14.970225 33.123739 -0.145713 1.101848 0.162997 -0.036776 493568.000000 0 0 1
29.569762 -3.606892 13.637925 32.762379 -0.121379 1.141460 0.164181 -0.040145 185391.000000 0 0 1
30.154132 -4.499192 12.658625 33.011440 -0.148114 1.177255 0.147645 -0.036941 422548.000000 0 0 1
30.181282 -3.831192 11.412025 32.493417 -0.126264 1.211933 0.141380 -0.030718 -83807.200000 0 0 1
30.744302 -4.665192 10.274725 32.749750 -0.150593 1.251673 0.141549 -0.028069 -233886.000000 0 0 1
32.144152 -4.792592 10.260625 34.080726 -0.148007 1.264984 0.129013 -0.030827 5786.340000 0 0 1
32.523582 -5.606492 9.159525 34.250738 -0.170705 1.300076 0.120213 -0.024659 -507297.000000 0 0 1
33.869512 -6.322892 9.220825 35.667162 -0.184559 1.309302 0.104013 -0.023444 -269047.000000 0 0 1
34.938112 -5.464692 8.851025 36.453740 -0.155154 1.325544 0.104352 -0.022304 512636.000000 0 0 1
36.138462 -6.216292 8.591625 37.662272 -0.170346 1.340647 0.100802 -0.031029 556723.000000 0 0 1
-36.831025 -5.348392 8.245325 38.119746 0.144206 1.352773 0.095600 -0.026551 -119550.000000 0 0 1
-36.839975 -4.772092 6.968925 37.795800 0.128818 1.385352 0.109140 -0.027549 -543494.000000 0 0 1
-35.730461 -3.953692 6.798425 36.585736 0.110205 1.383888 0.117227 -0.016396 -385896.000000 0 0 1
-35.734258 -3.205392 5.491525 36.295572 0.089461 1.418913 0.128806 -0.023863 17111.000000 0 0 1
-35.244008 -3.982092 4.376225 35.737214 0.112509 1.448033 0.128150 -0.032699 220077.000000 0 0 1
-35.400130 -3.378592 3.092325 35.695189 0.095152 1.484056 0.131532 -0.025574 -179699.000000 0 0 1
-34.833826 -4.249192 1.993625 35.148621 0.121385 1.514046 0.170186 -0.040240 -186129.000000 0 0 1
-35.531266 -5.444592 1.638825 35.983332 0.152051 1.525237 0.156577 -0.026434 142309.000000 0 0 1
-36.378495 -5.344692 0.479125 36.772138 0.145875 1.557766 0.137701 -0.026209 -80089.800000 0 0 1
-35.740704 -5.292092 -0.940375 36.142612 0.147001 1.596818 0.182323 -0.033025 -709047.000000 0 0 1
-35.130632 -6.535492 -1.244875 35.755051 0.183931 1.605620 0.164854 -0.039226 269874.000000 0 0 1
-34.125052 -6.515992 -2.217775 34.812294 0.188673 1.634546 0.170804 -0.040046 207975.000000 0 0 1
-32.689015 -6.005792 -1.864575 33.288404 0.181699 1.626838 0.174409 -0.043394 129398.000000 0 0 1
-32.173695 -6.980792 -0.963075 32.936387 0.213660 1.600041 0.152602 -0.040470 -671991.000000 0 0 1
-31.224315 -6.401292 -0.130475 31.873992 0.202208 1.574890 0.168236 -0.043626 -472147.000000 0 0 1
-30.569455 -7.452392 0.772625 31.474222 0.239121 1.546246 0.150037 -0.032837 -450501.000000 0 0 1
-29.796485 -8.325692 0.021025 30.937810 0.272469 1.570117 0.161734 -0.031216 -31951.200000 0 0 1
-29.342095 -9.350792 0.764525 30.805524 0.308507 1.545976 0.148981 -0.028132 -336350.000000 0 0 1
-29.016975 -10.625892 -0.049075 30.901404 0.351030 1.572384 0.135190 -0.023817 -79795.300000 0 0 1
-27.903715 -10.538192 -0.929275 29.841822 0.361103 1.601941 0.151461 -0.031031 319942.000000 0 0 1
-27.489515 -11.787392 -1.445675 29.945050 0.405081 1.619093 0.143131 -0.011339 -626633.000000 0 0 1
-28.440475 -12.714092 -2.192875 31.230072 0.420391 1.641071 0.147063 -0.019576 -854537.000000 0 0 1
-29.238475 -13.514992 -1.342375 32.238880 0.432980 1.612447 0.148842 -0.028040 323910.000000 0 0 1
-29.882195 -14.475692 -2.151675 33.273426 0.451110 1.635508 0.130782 -0.029518 -230866.000000 0 0 1
-30.885765 -15.459292 -1.527875 34.572454 0.464073 1.615004 0.109150 -0.028487 354434.000000 0 0 1
-30.158035 -16.398092 -0.714475 34.335331 0.498023 1.591607 0.084105 -0.018769 1190440.000000 0 0 1
-31.071895 -17.148392 0.121625 35.490066 0.504296 1.567369 0.092385 -0.007516 586963.000000 0 0 1
-31.331535 -18.652692 -0.321275 36.464931 0.536981 1.579607 0.103650 -0.006532 -206299.000000 0 0 1
-30.234285 -19.515892 -0.055475 35.985901 0.573197 1.572338 0.107848 -0.014885 219253.000000 0 0 1
-30.431455 -20.896892 -0.152075 36.915805 0.601735 1.574916 0.108525 -0.019831 -193660.000000 0 0 1
-31.289785 -21.528692 0.974225 37.993214 0.602655 1.545151 0.114759 -0.020199 109146.000000 0 0 1
-30.620035 -21.674092 2.237125 37.581345 0.615968 1.511234 0.119750 -0.017690 900833.000000 0 0 1
-31.537215 -22.161792 3.265325 38.683372 0.612548 1.486284 0.111928 -0.015677 958574.000000 0 0 1
-30.841625 -22.233092 4.676225 38.306439 0.624602 1.448417 0.101801 -0.014226 293489.000000 0 0 1
-30.574725 -20.947292 5.245425 37.431501 0.600668 1.430200 0.082479 -0.013835 201608.000000 0 0 1
-29.638695 -21.099192 6.312625 36.925294 0.618655 1.398996 0.083135 -0.015002 284924.000000 0 0 1
-29.359205 -19.724192 6.896225 36.035601 0.591564 1.378236 0.082628 -0.008478 760609.000000 0 0 1
-28.196665 -19.796892 7.750025 35.313336 0.612134 1.349531 0.084425 -0.020533 539904.000000 0 0 1
-27.862275 -18.482792 8.141725 34.412318 0.585712 1.331938 0.091513 -0.027640 860305.000000 0 0 1
-26.795875 -18.434592 9.327125 33.835607 0.602602 1.291520 0.091044 -0.020349 779653.000000 0 0 1
-27.270095 -19.131192 10.483225 34.922179 0.611762 1.265906 0.083728 -0.026323 21605.200000 0 0 1
-26.288215 -19.348492 11.478825 34.600546 0.634490 1.232635 0.071101 -0.006920 36109.200000 0 0 1
-25.883765 -18.149592 12.388925 33.953828 0.611528 1.197297 0.069471 -0.020430 -444211.000000 0 0 1
-25.150255 -17.098292 11.827825 32.631033 0.597071 1.199878 0.072218 -0.019255 -112864.000000 0 0 1
-24.852335 -16.051892 12.776125 32.226249 0.573481 1.163149 0.062045 -0.010782 -37807.600000 0 0 1
-23.962235 -16.269192 14.025225 32.180464 0.596459 1.119836 0.059653 -0.012644 -344141.000000 0 0 1
-24.582035 -17.041792 15.075225 33.495694 0.606190 1.103959 0.047271 -0.024792 -309422.000000 0 0 1
-23.778535 -17.162192 16.228725 33.516131 0.625176 1.065340 0.059218 -0.024335 -129078.000000 0 0 1
-24.546335 -17.715492 17.460325 34.946018 0.625153 1.047617 0.061126 -0.008324 495637.000000 0 0 1
-25.531035 -16.879692 18.086225 35.550939 0.584170 1.037074 0.071379 -0.017735 582032.000000 0 0 1
-26.507085 -17.653592 18.766625 36.965674 0.587538 1.038310 0.055350 -0.006852 -106754.000000 0 0 1
-27.487135 -16.764092 19.557925 37.670808 0.547659 1.024905 0.046910 -0.008944 -343060.000000 0 0 1
-26.938365 -16.230892 20.756925 37.682453 0.542270 0.987428 0.059152 -0.015945 611249.000000 0 0 1
-27.776515 -15.219192 21.352525 38.198022 0.501242 0.977622 0.061049 -0.018312 213991.000000 0 0 1
-27.014035 -14.473692 22.474625 38.004666 0.491863 0.938046 0.066459 -0.019621 81953.200000 0 0 1
-26.059165 -13.614292 21.864425 36.639898 0.481436 0.931366 0.068619 -0.018185 -444569.000000 0 0 1
-24.898535 -13.569592 22.623625 36.275326 0.498993 0.897375 0.077247 -0.023688 -1037500.000000 0 0 1
-23.813335 -12.828892 21.860525 34.778412 0.494147 0.891088 0.089455 -0.022313 -629554.000000 0 0 1
-23.947735 -11.425492 21.942525 34.431240 0.445161 0.879826 0.107282 -0.017387 -48367.900000 0 0 1
-22.926435 -10.844092 21.192325 33.050422 0.441811 0.874720 0.111690 -0.022085 -773718.000000 0 0 1
-22.605835 -9.446692 21.754725 32.764795 0.395831 0.844686 0.110814 -0.019321 26108.800000 0 0 1
-22.056135 -9.533492 23.076525 33.314960 0.407985 0.805601 0.107075 -0.016683 1398620.000000 0 0 1
-20.622635 -9.755392 23.077225 32.450255 0.441850 0.779654 0.080119 -0.010805 1072950.000000 0 0 1
-20.048935 -9.927192 24.510925 33.185756 0.459759 0.739808 0.061180 -0.010300 162716.000000 0 0 1
-20.489435 -11.118792 25.076725 34.238671 0.497190 0.748942 0.080991 -0.009710 -347052.000000 0 0 1
-19.681335 -11.449992 26.146325 34.671135 0.526907 0.716478 0.076904 -0.004595 -890696.000000 0 0 1
-20.077235 -12.764692 26.854925 35.877844 0.566313 0.724984 0.080620 -0.025453 -255126.000000 0 0 1
-21.194335 -12.839192 27.699025 37.165584 0.544662 0.729831 0.087205 -0.025868 -230298.000000 0 0 1
-22.355235 -13.174692 26.914925 37.386391 0.532540 0.767120 0.085462 -0.021126 535695.000000 0 0 1
-23.565635 -13.491992 27.863325 38.906784 0.519975 0.772517 0.079188 -0.021262 -52918.700000 0 0 1
-23.552435 -14.610492 28.780625 39.956327 0.555241 0.766559 0.067818 -0.014667 -621529.000000 0 0 1
-22.626835 -14.456792 29.811625 40.121135 0.568548 0.733194 0.074901 -0.011654 -329978.000000 0 0 1
-22.912135 -15.465892 30.935825 41.487167 0.593756 0.729253 0.062863 -0.021377 -231712.000000 0 0 1
-22.658035 -16.834692 30.645925 41.664927 0.639000 0.744343 0.067095 -0.020677 -125275.000000 0 0 1
-22.949035 -17.744692 31.701525 42.971141 0.658198 0.741080 0.076299 -0.018272 292307.000000 0 0 1
-24.405535 -18.094392 32.126725 44.217232 0.637978 0.757486 0.068916 -0.022457 152337.000000 0 0 1
-24.901635 -17.060092 32.953825 44.688844 0.600655 0.741574 0.071310 -0.021138 751813.000000 0 0 1
-26.263095 -17.249492 33.371625 45.836235 0.581138 0.755306 0.082487 -0.033680 808261.000000 0 0 1
-27.087995 -16.166092 -33.816262 46.245449 0.538063 2.390926 0.083729 -0.029780 107829.000000 0 0 1
-26.638995 -15.990092 -32.475762 44.944345 0.540604 2.378320 0.083819 -0.032364 357069.000000 0 0 1
-27.353785 -14.993492 -31.748462 44.508417 0.501408 2.365011 0.064036 -0.021216 -494942.000000 0 0 1
-26.579025 -14.641892 -30.510762 43.031804 0.503520 2.358915 0.068734 -0.014587 -621093.000000 0 0 1
-26.646885 -15.582392 -29.489162 42.690491 0.529148 2.333345 0.086953 -0.013209 106297.000000 0 0 1
-25.987095 -15.182992 -28.318762 41.325592 0.528759 2.325757 0.096880 -0.005648 -313969.000000 0 0 1
-26.547415 -16.003292 -27.127262 41.191733 0.542490 2.289701 0.095957 -0.009015 210374.000000 0 0 1
-27.792535 -15.623092 -26.562062 41.497579 0.512110 2.265408 0.090652 -0.010451 286010.000000 0 0 1
-27.928535 -14.397892 -25.873662 40.703178 0.475991 2.259668 0.091395 -0.003193 207311.000000 0 0 1
-26.974735 -14.348492 -24.580062 39.213454 0.488859 2.248271 0.098204 -0.017676 691668.000000 0 0 1
-25.597565 -14.144892 -24.821662 38.359199 0.504828 2.274551 0.093630 -0.026774 497400.000000 0 0 1
-24.720935 -14.546192 -23.785462 37.262105 0.531858 2.263121 0.100186 -0.021424 -18508.600000 0 0 1
-24.067835 -15.910492 -23.877062 37.450213 0.584117 2.262134 0.097265 -0.006219 -957580.000000 0 0 1
-23.146635 -16.038092 -24.895562 37.586914 0.605939 2.294743 0.089633 -0.007463 -267868.000000 0 0 1
-22.512235 -17.313692 -24.908962 37.775932 0.655600 2.290800 0.091158 -0.014260 -336531.000000 0 0 1
-21.693735 -17.460692 -26.198762 38.234395 0.677705 2.325694 0.072508 -0.009216 -28328.200000 0 0 1
-22.389835 -17.284892 -27.432662 39.403339 0.657431 2.340889 0.086716 -0.015025 411575.000000 0 0 1
-23.398735 -18.235292 -27.765762 40.632058 0.662008 2.323132 0.100737 -0.026160 14435.100000 0 0 1
-23.988335 -18.122692 -29.172562 41.891652 0.646999 2.341139 0.097323 -0.033734 126780.000000 0 0 1
-23.019035 -18.317092 -30.211862 42.168097 0.672136 2.369515 0.100184 -0.029750 676634.000000 0 0 1
-23.634035 -18.215792 -31.491162 43.382899 0.656646 2.383122 0.093354 -0.030694 24775.800000 0 0 1
-22.663435 -18.572092 -32.634862 43.858728 0.686503 2.409969 0.094304 -0.027307 -238280.000000 0 0 1
-21.432535 -17.850192 -32.774962 43.036972 0.694456 2.436503 0.089216 -0.019862 1502570.000000 0 0 1
-20.289635 -18.643992 -32.358162 42.500804 0.743155 2.436195 0.075935 -0.021503 579656.000000 0 0 1
-19.886935 -19.777092 -33.289562 43.529512 0.782629 2.441463 0.074368 -0.018348 -1252960.000000 0 0 1
-19.409435 -19.439392 33.332025 43.193055 0.786169 0.689288 0.076398 -0.018958 400827.000000 0 0 1
-19.275235 -20.578592 32.461525 42.997253 0.818090 0.715192 0.075722 -0.022141 678596.000000 0 0 1
-20.671435 -21.020492 31.881825 43.423727 0.793770 0.746304 0.087819 -0.021826 1169270.000000 0 0 1
-21.562935 -21.668192 32.795525 44.833215 0.787833 0.750276 0.100223 -0.023258 914136.000000 0 0 1
-22.818735 -22.166192 32.309925 45.342761 0.770893 0.777641 0.113045 -0.019290 686256.000000 0 0 1
-22.764935 -23.444292 31.378825 45.304611 0.800099 0.805683 0.114259 -0.008998 -417886.000000 0 0 1
-22.346735 -24.595392 32.059525 46.174918 0.833264 0.803341 0.127553 -0.009639 -6029.880000 0 0 1
-22.522935 -25.705052 31.224225 46.292381 0.851283 0.830509 0.122836 -0.000903 4987.350000 0 0 1
-22.303235 -27.105302 31.817825 47.376214 0.882285 0.834431 0.140075 -0.015862 -249647.000000 0 0 1
-23.142735 -27.354732 32.896025 48.641710 0.868616 0.828078 0.107884 -0.007136 -264239.000000 0 0 1
-22.729135 -28.498982 33.595025 49.572485 0.897556 0.826173 0.112814 -0.019209 -405053.000000 0 0 1
-23.927535 -29.220942 -33.658962 50.589683 0.884667 2.298735 0.082374 -0.004207 -164187.000000 0 0 1
-24.917735 -29.772322 33.376725 51.198539 0.873932 0.860699 0.067009 -0.001655 1365610.000000 0 0 1
-25.924865 -28.792412 32.980525 50.880415 0.837757 0.865582 0.063913 0.002888 185753.000000 0 0 1
-26.920905 -28.365882 -33.829862 51.708973 0.811528 2.283968 0.029074 0.009001 -1087850.000000 0 0 1
-27.957085 -27.580202 33.590825 51.677942 0.778612 0.863208 0.035265 0.002310 -511641.000000 0 0 1
-28.991345 -27.530552 -33.401662 52.097028 0.759559 2.266783 0.042921 0.000952 -82371.500000 0 0 1
-30.180195 -26.589642 -33.774062 52.521809 0.722235 2.269268 0.045242 -0.000304 289629.000000 0 0 1
-31.044565 -27.241412 33.219525 53.003739 0.720241 0.893435 0.024371 0.006548 -680392.000000 0 0 1
-32.204415 -26.563832 32.943925 53.179542 0.689711 0.902710 0.039944 -0.006762 -866439.000000 0 0 1
