# x y z rho theta phi s1 s2 stress_xx np intf bulk
-0.632063 -10.821490 -14.398891 18.023102 1.512454 2.496282 0.009417 -0.003859 89031.100000 1 0 0
2.222637 -13.526490 -13.033191 18.914812 -1.407934 2.330969 0.005532 0.000981 84141.200000 1 0 0
2.248837 -11.184290 -14.635791 18.556723 -1.372371 2.479497 0.006011 -0.003194 -671129.000000 1 0 0
-5.513063 -6.388890 -16.387891 18.432980 0.858853 2.666068 0.024063 -0.004548 -1584400.000000 1 0 0
4.600337 -14.113590 -11.538991 18.801724 -1.255705 2.231560 0.009698 -0.000373 1021570.000000 1 0 0
14.023837 -10.714290 -7.764191 19.280733 -0.652405 1.985252 0.027682 -0.006462 -939717.000000 1 0 0
7.150537 10.874810 -10.829891 16.931574 0.989144 2.264809 0.012406 -0.010025 -1123610.000000 1 0 0
5.816337 -4.231090 -12.513191 14.433012 -0.628912 2.619914 0.003145 -0.002506 2661040.000000 1 0 0
13.709237 0.557510 -9.941291 16.943531 0.040644 2.197812 0.010118 -0.001200 1094020.000000 1 0 0
14.130737 5.065510 -10.310191 18.210907 0.344205 2.172630 -0.001276 -0.004801 -255092.000000 1 0 0
4.145937 4.296910 -13.394891 14.665447 0.803278 2.722268 0.008882 -0.005097 3573230.000000 1 0 0
10.456937 -4.975190 -13.619991 17.877477 -0.444084 2.436964 0.020231 -0.005627 -604377.000000 1 0 0
2.609037 -7.569290 -12.018591 14.441182 -1.238862 2.553940 0.002859 -0.000833 2339730.000000 1 0 0
-5.537663 -2.018490 -15.190891 16.294268 0.349535 2.771474 0.014652 -0.006085 -793105.000000 1 0 0
10.653337 0.072710 -9.577891 14.326020 0.006825 2.303075 0.005739 -0.003638 2892280.000000 1 0 0
-1.589363 -9.577190 -16.853891 19.449994 1.406342 2.618992 0.020990 -0.011525 779020.000000 1 0 0
8.475337 1.893510 -17.941191 19.932462 0.219805 2.690793 0.019564 -0.003449 -112563.000000 1 0 0
16.461937 -5.969890 -8.769891 19.584328 -0.347898 2.035101 0.049833 -0.005059 -679579.000000 1 0 0
10.112937 7.594610 -9.866891 16.040733 0.644128 2.233328 0.007717 -0.004443 209312.000000 1 0 0
13.906637 -2.242390 -10.522591 17.582598 -0.159870 2.212382 0.026069 -0.005470 -461846.000000 1 0 0
7.221637 -1.915090 -13.610591 15.526358 -0.259221 2.639572 0.007585 -0.005473 -679166.000000 1 0 0
-2.760963 6.535810 -13.850591 15.562088 -1.171099 2.668188 0.004109 -0.007243 1447050.000000 1 0 0
11.215437 1.790110 -13.796891 17.870218 0.158276 2.452873 0.012302 -0.002073 -398284.000000 1 0 0
-2.298363 10.615010 -12.919491 16.878216 -1.357568 2.442542 0.008632 -0.006731 -2076120.000000 1 0 0
2.904237 -1.101890 -15.141191 15.456533 -0.362629 2.939248 0.007147 -0.005866 -216641.000000 1 0 0
-9.150363 0.450310 -15.286091 17.821237 -0.049173 2.601665 0.019223 -0.003741 -1330740.000000 1 0 0
2.445237 -1.739490 -17.932991 18.182331 -0.618322 2.975793 0.018990 -0.013026 1664870.000000 1 0 0
0.939037 7.792810 -13.161891 15.324655 1.450874 2.603856 0.007456 -0.006019 -669454.000000 1 0 0
9.498437 -9.042990 -9.885091 16.422880 -0.760839 2.216687 0.014765 0.000523 446978.000000 1 0 0
3.922737 7.257710 -13.469991 15.795660 1.075282 2.592053 0.010337 -0.006553 2297070.000000 1 0 0
-2.708563 9.043210 -15.547391 18.188934 -1.279786 2.595908 0.002965 -0.002062 -289724.000000 1 0 0
5.574837 -7.581090 -15.250791 17.920333 -0.936730 2.588745 0.003795 -0.006508 597877.000000 1 0 0
4.172437 7.236910 -16.338891 18.350516 1.047798 2.668971 0.018713 -0.003766 -426000.000000 1 0 0
-0.177563 5.030410 -13.463891 14.374036 -1.535513 2.783826 0.009404 -0.009067 1651310.000000 1 0 0
8.864637 4.440610 -16.602691 19.337790 0.464396 2.603255 0.027161 -0.001508 -1718670.000000 1 0 0
5.333437 0.331410 -14.230391 15.200638 0.062058 2.782371 0.004439 0.000648 183393.000000 1 0 0
6.317437 7.939410 -11.588091 15.402210 0.898679 2.422442 0.004877 -0.004303 -262846.000000 1 0 0
2.803437 -8.442090 -15.053391 17.485214 -1.250176 2.607874 0.005984 -0.005870 876395.000000 1 0 0
4.023737 11.364310 -13.862791 18.371581 1.230502 2.425807 0.009152 -0.014159 -2143220.000000 1 0 0
0.603237 -4.518790 -13.779191 14.513768 -1.438086 2.822077 0.005537 -0.003732 1104180.000000 1 0 0
8.428537 -0.066590 -11.589891 14.330744 -0.007900 2.512808 0.004112 -0.002742 215185.000000 1 0 0
-0.968663 -5.044390 -16.292591 17.083111 1.381078 2.836187 0.009351 -0.010047 217795.000000 1 0 0
4.379537 0.878010 -11.573591 12.405613 0.197857 2.773268 0.004324 -0.005900 -404693.000000 1 0 0
-2.829463 -7.198890 -15.527791 17.347685 1.196303 2.679436 0.005739 -0.004195 2268360.000000 1 0 0
11.490037 -3.750590 -11.306291 16.550531 -0.315517 2.322847 0.015388 -0.004590 619104.000000 1 0 0
6.573237 -7.050290 -12.486591 15.774314 -0.820401 2.484182 0.004189 -0.000931 -1490430.000000 1 0 0
3.488837 -3.977090 -14.554591 15.486295 -0.850703 2.792949 0.008552 -0.007371 3202910.000000 1 0 0
-0.500463 -1.502190 -18.287591 18.356007 1.249205 3.055227 0.018370 -0.014125 434182.000000 1 0 0
14.937737 2.970310 -8.405791 17.395863 0.196286 2.075110 0.008183 -0.001417 -145471.000000 1 0 0
7.011437 4.381810 -14.225191 16.453466 0.558565 2.615092 0.015253 -0.003878 1589960.000000 1 0 0
10.195937 -9.629390 -13.981491 19.803140 -0.756829 2.354664 0.023938 -0.009061 160649.000000 1 0 0
9.092937 -3.087990 -15.489391 18.224665 -0.327383 2.586618 0.019400 -0.012241 -200598.000000 1 0 0
-5.309463 -2.008390 -18.095491 18.964989 0.361631 2.837612 0.011802 0.000462 480177.000000 1 0 0
5.031937 -9.172490 -11.134491 15.278476 -1.069036 2.387320 -0.001248 0.000609 1300080.000000 1 0 0
-2.412563 3.910210 -17.093691 17.700409 -1.017977 2.879011 0.008270 -0.001235 1317790.000000 1 0 0
9.732937 9.243410 -14.415891 19.697426 0.759607 2.391854 0.036292 -0.019203 -225625.000000 1 0 0
9.894237 9.978910 -11.583291 18.211183 0.789659 2.260170 0.020007 -0.013929 -445651.000000 1 0 0
12.136437 -5.962990 -9.612091 16.590438 -0.456687 2.188758 0.020950 -0.002270 -945629.000000 1 0 0
8.266437 6.931410 -13.610191 17.367087 0.697780 2.471360 0.020159 -0.004494 284978.000000 1 0 0
4.078437 -4.099990 -17.460691 18.393458 -0.788034 2.821760 0.021532 -0.013410 -740470.000000 1 0 0
9.413237 -7.439490 -12.374091 17.235810 -0.668812 2.371619 0.014315 -0.003265 -74210.000000 1 0 0
12.145837 -8.679090 -8.749191 17.303071 -0.620440 2.100924 0.022622 -0.001964 935395.000000 1 0 0
-2.895963 -2.556190 -13.880291 14.407747 0.723159 2.870171 0.011110 -0.008654 -2981560.000000 1 0 0
-0.477563 6.123510 -17.592091 18.633494 -1.492965 2.805684 0.012353 0.001224 2665780.000000 1 0 0
1.136237 -8.501890 -17.447391 19.441826 -1.437938 2.684672 0.015697 -0.013799 1611350.000000 1 0 0
-0.007563 8.513310 -15.945091 18.075465 -1.569908 2.651183 0.004102 0.002970 -961435.000000 1 0 0
1.821037 3.329310 -14.946891 15.421090 1.070282 2.892961 0.014155 -0.003932 1458160.000000 1 0 0
-1.932363 -0.503690 -15.804691 15.930348 0.254986 3.015908 0.010377 -0.008289 1930830.000000 1 0 0
14.232137 -4.270890 -8.400091 17.069146 -0.291537 2.085321 0.026743 -0.003752 -1153290.000000 1 0 0
0.606237 0.573010 -14.504391 14.528359 0.757230 3.084143 0.007942 -0.005996 2211140.000000 1 0 0
8.825737 2.742310 -12.501691 15.546902 0.301260 2.505003 0.009153 -0.000058 1024570.000000 1 0 0
5.858637 1.177210 -17.005891 18.025254 0.198295 2.803678 0.019178 0.000076 -1203160.000000 1 0 0
15.245437 1.656210 -12.268491 19.638794 0.108212 2.245552 0.017671 -0.010934 -570404.000000 1 0 0
8.898137 -11.237990 -11.795691 18.563609 -0.901081 2.259349 0.018110 -0.003841 -134038.000000 1 0 0
-4.600463 0.728010 -15.097191 15.799349 -0.156946 2.842342 0.013832 -0.007467 1033450.000000 1 0 0
2.398637 5.105110 -17.255591 18.154091 1.131558 2.825660 0.017570 -0.002325 2576970.000000 1 0 0
6.057737 -11.689390 -12.501391 18.155516 -1.092675 2.330315 0.008241 -0.000861 1393630.000000 1 0 0
12.839437 7.140710 -8.650191 17.048949 0.507556 2.102931 0.009468 -0.006470 940024.000000 1 0 0
-5.054563 3.527710 -15.724291 16.889247 -0.609333 2.768004 0.002784 -0.005649 1830480.000000 1 0 0
-0.573063 -4.351290 -19.111791 19.609250 1.439850 2.915865 0.023113 -0.014117 -2118350.000000 1 0 0
9.740937 4.471110 -10.164791 14.771582 0.430315 2.329707 -0.001598 0.000507 312038.000000 1 0 0
13.286337 3.722910 -12.851091 18.855698 0.273200 2.320674 0.000366 -0.005971 210433.000000 1 0 0
-6.300763 5.749910 -17.208191 19.206325 -0.739719 2.681395 0.001970 0.002980 -434125.000000 1 0 0
-10.196163 3.245810 -15.502291 18.836615 -0.308193 2.537446 0.021378 -0.000035 -748122.000000 1 0 0
10.600637 13.491910 -8.308191 19.063871 0.904834 2.021732 0.036850 -0.013360 -660794.000000 1 0 0
7.436837 13.505210 -12.269591 19.703809 1.067443 2.242987 0.029220 -0.018318 -609323.000000 1 0 0
5.303737 15.084210 -11.177891 19.509184 1.232689 2.180904 0.017642 -0.017816 -1026280.000000 1 0 0
14.264037 9.557910 -9.675391 19.708617 0.590355 2.083944 0.040866 -0.015767 -1578840.000000 1 0 0
8.368537 -17.169690 -2.163891 19.222723 -1.117278 1.683605 0.028484 -0.004960 883476.000000 1 0 0
0.711537 -16.112290 0.026209 16.128014 -1.526664 1.569171 0.011137 -0.006452 3619240.000000 1 0 0
-9.162863 -11.704490 7.494709 16.647036 0.906600 1.103793 0.020076 -0.004392 467768.000000 1 0 0
2.118937 -16.004590 -2.532691 16.341704 -1.439166 1.726407 0.009537 -0.007643 2042590.000000 1 0 0
-1.238863 -11.085190 -9.477491 14.636907 1.459500 2.275104 0.005133 0.000741 1677610.000000 1 0 0
-4.718063 -12.679190 -13.064491 18.806990 1.214561 2.338745 0.025088 -0.001464 -147780.000000 1 0 0
-8.189263 -17.919590 -1.766491 19.781209 1.142136 1.660217 0.022707 -0.009657 -1512140.000000 1 0 0
-11.288763 -7.070490 -8.952291 16.049035 0.559555 2.162540 0.023260 -0.009639 3241720.000000 1 0 0
-13.521363 -11.437590 -4.878991 18.369820 0.702103 1.839621 0.026121 -0.007113 233697.000000 1 0 0
-5.787963 -13.483390 9.733809 17.608219 1.165318 0.985077 0.019487 -0.010158 611804.000000 1 0 0
0.203537 -14.090690 -3.666791 14.561398 -1.556353 1.825352 0.009350 -0.003719 -265706.000000 1 0 0
-14.589863 -11.542290 1.788609 18.689240 0.669301 1.474947 0.026679 -0.011171 -58101.300000 1 0 0
-3.865863 -16.437690 -7.496491 18.475387 1.339811 1.988602 0.015708 -0.010274 406095.000000 1 0 0
0.636437 -15.317690 -9.124791 17.840921 -1.529271 2.107671 0.005262 0.002825 86103.100000 1 0 0
4.527537 -14.241990 -2.650391 15.177530 -1.262999 1.746322 0.008176 0.000076 -355579.000000 1 0 0
-3.485163 -18.196090 -2.451091 18.688282 1.381555 1.702332 0.014538 -0.013026 801680.000000 1 0 0
-0.892363 -13.572390 0.683009 13.618832 1.505142 1.520623 0.013456 -0.004912 2922360.000000 1 0 0
-8.403563 -11.270790 -10.578491 17.594176 0.930114 2.215860 0.024384 -0.011690 1053990.000000 1 0 0
-3.731663 -14.152190 -0.437191 14.642436 1.312983 1.600659 0.005408 -0.001341 5066540.000000 1 0 0
-1.453963 -14.859390 -7.240191 16.593247 1.473259 2.022316 -0.000173 -0.002648 203325.000000 1 0 0
-14.175763 -7.870090 -1.869091 16.321277 0.506811 1.685567 0.023911 -0.009469 1108210.000000 1 0 0
-10.623363 -7.297090 -11.741691 17.434755 0.601873 2.309682 0.024097 -0.008803 156431.000000 1 0 0
-9.510463 -14.711190 6.796609 18.789942 0.996901 1.200689 0.012718 -0.001186 1389210.000000 1 0 0
-2.441063 -14.415590 -12.338491 19.131293 1.403053 2.271738 0.024547 0.000955 -418468.000000 1 0 0
2.342037 -17.811390 -4.803691 18.595865 -1.440055 1.832079 0.016198 -0.014771 -919616.000000 1 0 0
-6.528163 -9.720090 -9.238291 14.914526 0.979375 2.238794 0.013347 -0.007804 277843.000000 1 0 0
-10.983463 -15.402890 0.389509 18.921871 0.951347 1.550210 0.020438 -0.009175 1093650.000000 1 0 0
-12.583663 -11.049890 3.997409 17.217082 0.720591 1.336481 0.022105 -0.006700 1172990.000000 1 0 0
-16.918863 -8.937890 -1.778291 19.217079 0.486014 1.663466 0.032696 -0.014957 -1392200.000000 1 0 0
-1.323363 -19.315390 -3.947091 19.758924 1.502390 1.771912 0.013308 -0.014222 -781839.000000 1 0 0
3.446737 -14.274590 -8.795591 17.117427 -1.333872 2.110449 0.009591 0.001575 1271360.000000 1 0 0
-4.286663 -8.065790 -13.073491 15.948310 1.082297 2.531756 0.004992 -0.000161 1771700.000000 1 0 0
5.604037 -16.522490 1.274309 17.493477 -1.243796 1.497887 0.024544 -0.006603 3916330.000000 1 0 0
-2.745263 -13.856290 -3.212591 14.486337 1.375205 1.794422 0.004857 -0.002091 -257652.000000 1 0 0
-0.426363 -13.982390 3.670109 14.462320 1.540313 1.314220 0.013698 -0.003619 -3373550.000000 1 0 0
1.161437 -16.140890 7.112309 17.676600 -1.498964 1.156706 0.019363 -0.014860 3070170.000000 1 0 0
-5.496363 -10.335790 -14.702391 18.793585 1.082049 2.469160 0.018975 -0.006147 -98052.500000 1 0 0
-0.334663 -17.309190 -5.833291 18.268753 1.551464 1.895792 0.011809 -0.013084 -299890.000000 1 0 0
-6.550363 -13.454090 -1.273691 15.018058 1.117710 1.655709 0.007209 -0.003093 2321670.000000 1 0 0
-1.725563 -17.862890 -0.129191 17.946506 1.474495 1.577995 0.012910 -0.006142 2209150.000000 1 0 0
-9.376163 -9.831790 -4.952791 14.460521 0.809114 1.920377 0.014257 -0.003273 2538230.000000 1 0 0
-0.844263 -16.644790 4.960909 17.388859 1.520117 1.281485 0.025501 -0.009260 2859050.000000 1 0 0
-6.678763 -9.897290 -6.355691 13.526161 0.977179 2.059953 0.015703 -0.006660 2425150.000000 1 0 0
-6.017563 -14.552490 -8.565991 17.926579 1.178700 2.068988 0.020936 -0.007657 390291.000000 1 0 0
-5.686863 -12.256790 -10.372591 17.034082 1.136380 2.225509 0.018966 -0.003758 2925080.000000 1 0 0
-10.841863 -12.077290 -9.009391 18.562760 0.839250 2.077557 0.047177 -0.019264 -211939.000000 1 0 0
3.998537 -17.083590 6.675309 18.772242 -1.340878 1.207246 0.029148 -0.016778 1518010.000000 1 0 0
-6.715663 -14.439490 -4.086791 16.440829 1.135465 1.822006 0.017158 -0.010394 -819490.000000 1 0 0
-2.782963 -12.200290 -7.111991 14.393483 1.346527 2.087609 0.010126 -0.002180 3476390.000000 1 0 0
-7.005363 -12.852290 4.377509 15.278058 1.071748 1.280201 0.004944 -0.002960 1277790.000000 1 0 0
2.654437 -16.335090 2.459509 16.731120 -1.409705 1.423260 0.017449 -0.008399 3136860.000000 1 0 0
-6.224163 -12.073790 7.204109 15.375819 1.094818 1.083165 0.008297 -0.002984 1329900.000000 1 0 0
-11.188463 -12.855690 -1.008991 17.072450 0.854628 1.629931 0.019009 -0.004050 590911.000000 1 0 0
-14.210263 -8.669190 4.484309 17.239358 0.547788 1.307649 0.023357 -0.008241 110474.000000 1 0 0
-7.992163 -15.522590 4.400709 18.005324 1.095321 1.323884 0.010263 -0.001258 1641270.000000 1 0 0
-16.520063 -9.243590 1.055209 18.959692 0.510136 1.515112 0.032057 -0.010321 131981.000000 1 0 0
-6.678363 -17.090490 2.270909 18.488981 1.198277 1.447660 0.011669 -0.000684 468629.000000 1 0 0
-11.550063 -14.846790 -4.718991 19.393298 0.909646 1.816595 0.046616 -0.012041 -371739.000000 1 0 0
-9.972663 -9.915890 -12.708691 18.954939 0.782544 2.305636 0.027104 -0.006617 647490.000000 1 0 0
-4.331263 -16.079690 -4.511591 17.253136 1.307679 1.835366 0.010371 -0.010689 1276770.000000 1 0 0
-11.821463 -8.278390 0.021009 14.431880 0.610917 1.569341 0.001225 -0.003407 2150310.000000 1 0 0
-9.593763 -11.252490 3.421309 15.177753 0.864800 1.343426 0.003984 -0.001038 2318370.000000 1 0 0
-14.085863 -12.932990 -0.739191 19.136880 0.742755 1.609432 0.023510 -0.005359 -1014670.000000 1 0 0
5.722937 -14.995990 -7.102791 17.552246 -1.206225 1.987409 0.013599 -0.006700 186329.000000 1 0 0
-7.455663 -10.604090 -1.291491 13.026956 0.957997 1.670099 0.003823 -0.001212 837739.000000 1 0 0
-11.567063 -8.180790 -6.120891 15.433327 0.615574 1.978609 0.016835 -0.007858 957892.000000 1 0 0
-14.378763 -6.607590 -9.389691 18.400418 0.430757 2.106327 0.031665 -0.016155 2403130.000000 1 0 0
-3.946863 -16.478690 1.363909 16.999564 1.335712 1.490478 0.011311 -0.006365 1513310.000000 1 0 0
-7.994263 -15.612390 0.112809 17.540458 1.097558 1.564365 0.016127 -0.005349 801060.000000 1 0 0
1.083937 -18.447390 3.748309 18.855528 -1.512106 1.370672 0.021272 -0.019210 -1385970.000000 1 0 0
-14.007563 -8.609290 -4.636491 17.082996 0.551098 1.845654 0.019866 -0.013048 373166.000000 1 0 0
-3.243163 -14.431890 11.098209 18.492371 1.349746 0.927107 0.009843 -0.017664 1300590.000000 1 0 0
-10.720063 -12.103990 -3.839391 16.618280 0.845959 1.803937 0.024192 -0.011230 2937050.000000 1 0 0
-9.960863 -10.736790 0.484309 14.653737 0.822869 1.537740 0.003677 -0.000266 1596520.000000 1 0 0
-0.027863 -13.321890 -11.110391 17.346882 1.568705 2.265924 0.010647 0.000497 1120410.000000 1 0 0
-5.828763 -12.691290 -6.351591 15.342295 1.140258 1.997632 0.010186 -0.008405 2305100.000000 1 0 0
1.877537 -15.769290 9.990709 18.761927 -1.452291 1.009246 0.011604 -0.010539 -23734.500000 1 0 0
-8.951663 -15.630590 -5.536091 18.843989 1.050691 1.868981 0.042362 -0.015056 -1371920.000000 1 0 0
-3.306363 -15.401390 5.957609 16.841257 1.359326 1.209218 0.012949 -0.008165 -732674.000000 1 0 0
-17.412263 -5.415990 -6.579091 19.385672 0.301558 1.917053 0.026922 -0.014804 -940491.000000 1 0 0
18.749037 5.683010 -2.943991 19.811362 0.294307 1.719950 0.013373 0.003388 -1310490.000000 1 0 0
12.942237 -12.483090 -5.675891 18.855894 -0.767341 1.876552 0.032146 -0.003696 370522.000000 1 0 0
11.056937 -13.472890 -1.556291 17.498475 -0.883572 1.659853 0.032995 -0.006112 2114260.000000 1 0 0
18.762837 -2.884490 4.851809 19.593478 -0.152540 1.320570 0.047765 -0.017527 -858212.000000 1 0 0
8.895037 -16.885590 4.906009 19.705678 -1.085953 1.319186 0.052446 -0.018871 -220651.000000 1 0 0
17.985937 -0.946490 6.769409 19.240963 -0.052575 1.211279 0.059473 -0.015332 -969556.000000 1 0 0
17.973037 -4.069390 -4.873991 19.061631 -0.222662 1.829364 0.054989 -0.009513 -948702.000000 1 0 0
5.525637 -11.737290 14.777009 19.663586 -1.130800 0.720477 0.003266 0.000357 134142.000000 1 0 0
16.099937 -8.766490 -0.621891 18.342466 -0.498614 1.604707 0.045752 -0.004466 711812.000000 1 0 0
13.904937 -12.441990 -1.281691 18.702756 -0.729929 1.639380 0.041721 -0.007883 553055.000000 1 0 0
10.974237 -1.902690 13.883109 17.798731 -0.171671 0.676122 0.008496 -0.001870 31938.200000 1 0 0
17.069837 -5.914790 -1.318891 18.113628 -0.333558 1.643673 0.046731 -0.006045 -1278700.000000 1 0 0
17.737937 3.718410 -0.970791 18.149474 0.206638 1.624311 0.020199 -0.001132 494630.000000 1 0 0
9.708437 -10.936090 9.524909 17.452097 -0.844794 0.993483 0.018502 -0.004052 -57814.200000 1 0 0
9.123937 -11.038490 4.283709 14.948065 -0.880071 1.280149 0.006818 -0.003596 271596.000000 1 0 0
14.053237 -10.186690 6.926509 18.687928 -0.627219 1.191097 0.037648 -0.007030 1020280.000000 1 0 0
16.169337 -0.458190 -4.653891 16.831996 -0.028329 1.850937 0.023374 -0.000798 -1838930.000000 1 0 0
15.786237 -0.426390 -1.593391 15.872176 -0.027004 1.671355 0.025939 -0.001916 1120160.000000 1 0 0
12.873337 -5.095990 -0.191291 13.846606 -0.376929 1.584612 0.016275 -0.005950 1050870.000000 1 0 0
14.342337 -7.406190 1.177709 16.184600 -0.476671 1.497965 0.027506 -0.003328 1369980.000000 1 0 0
15.518237 2.452210 3.697709 16.140076 0.156725 1.339642 0.021857 -0.005783 1996420.000000 1 0 0
15.925237 -7.100790 5.089609 18.164209 -0.419425 1.286794 0.041602 -0.013039 -1577410.000000 1 0 0
13.747537 -12.090590 3.340909 18.610180 -0.721358 1.390297 0.027295 -0.003101 798206.000000 1 0 0
13.889237 -0.911390 9.249409 16.712064 -0.065524 0.984287 0.033559 -0.007601 800379.000000 1 0 0
14.132437 -2.755390 -1.532891 14.479906 -0.192554 1.676858 0.010486 -0.004548 1212570.000000 1 0 0
14.960537 1.798210 9.170709 17.639533 0.119623 1.024068 0.043153 -0.008202 -1324860.000000 1 0 0
14.548337 -10.071190 -2.876791 17.926486 -0.605510 1.731970 0.045940 -0.007644 1122040.000000 1 0 0
7.462737 -12.563990 6.118609 15.842464 -1.034816 1.174271 0.004449 -0.005793 -626336.000000 1 0 0
12.427137 -4.597190 7.112509 15.038473 -0.354320 1.078156 0.018716 -0.005541 1834550.000000 1 0 0
15.118337 -8.967790 -5.623791 18.455687 -0.535385 1.880439 0.052099 -0.005198 -305335.000000 1 0 0
14.280237 -4.538190 4.696709 15.702847 -0.307702 1.267048 0.024206 -0.011063 1498180.000000 1 0 0
17.173637 -4.031390 1.000809 17.668829 -0.230568 1.514123 0.039479 -0.015090 -1426950.000000 1 0 0
10.274837 -14.447790 1.177609 17.767883 -0.952613 1.504470 0.029860 -0.005895 111441.000000 1 0 0
16.292337 -2.399790 8.676709 18.614094 -0.146244 1.085878 0.063809 -0.012724 763941.000000 1 0 0
16.163237 -2.547890 3.378909 16.708052 -0.156348 1.367159 0.034717 -0.013557 2667480.000000 1 0 0
7.884137 -15.264490 2.655309 17.384330 -1.094035 1.417455 0.020831 -0.007073 1996110.000000 1 0 0
16.622637 -6.966790 7.880409 19.671021 -0.396875 1.158614 0.057054 -0.013009 595133.000000 1 0 0
10.224937 -8.492190 5.216609 14.278642 -0.693086 1.196795 0.008421 -0.002312 509354.000000 1 0 0
11.017937 -11.835690 2.181509 16.316785 -0.821165 1.436698 0.021960 -0.004655 297276.000000 1 0 0
12.275737 -7.069290 12.055209 18.600985 -0.522492 0.865716 0.024816 -0.007113 -69879.300000 1 0 0
15.213437 -9.854990 4.344309 18.639809 -0.574814 1.335567 0.036781 -0.007841 -1041360.000000 1 0 0
7.348237 -10.264790 7.778009 14.827674 -0.949500 1.018598 0.004213 -0.001496 -821415.000000 1 0 0
15.136637 -3.192890 -4.303491 16.057159 -0.207890 1.842124 0.029476 -0.004198 954745.000000 1 0 0
11.803137 -8.875890 9.883809 17.770344 -0.644776 0.980994 0.022651 -0.002336 -2586390.000000 1 0 0
16.992437 -6.513590 2.540609 18.374560 -0.366047 1.432084 0.041297 -0.009456 2841880.000000 1 0 0
17.510137 4.008110 2.055709 18.080259 0.225026 1.456851 0.020916 0.001610 -931648.000000 1 0 0
14.755037 -4.850890 8.866509 17.884553 -0.317630 1.052083 0.050131 -0.009006 -239450.000000 1 0 0
12.854537 -12.769990 6.215709 19.155855 -0.782099 1.240333 0.028565 -0.002013 -1412120.000000 1 0 0
18.212537 0.841910 -0.877891 18.253109 0.046194 1.618910 0.032686 -0.006342 929283.000000 1 0 0
11.590537 -2.057490 11.073809 16.161778 -0.175685 0.815939 0.009948 0.000204 891316.000000 1 0 0
5.840737 -12.484890 10.631909 17.407589 -1.133219 0.913773 0.001059 -0.000732 -1249510.000000 1 0 0
10.614337 -4.968290 11.091409 16.135904 -0.437782 0.812928 0.008765 -0.002153 790862.000000 1 0 0
18.027637 1.320410 4.923009 18.734332 0.073113 1.304894 0.045666 -0.010294 -666145.000000 1 0 0
12.233337 -7.725190 7.217309 16.168569 -0.563250 1.108082 0.025151 -0.007618 -115856.000000 1 0 0
10.630037 -7.793790 14.403209 19.524172 -0.632653 0.741122 0.025193 -0.005107 -465545.000000 1 0 0
14.217937 -0.284790 3.858809 14.735034 -0.020028 1.305827 0.017028 -0.005964 2887980.000000 1 0 0
11.742337 -7.630490 2.627109 14.248107 -0.576254 1.385352 0.016687 -0.004478 2666510.000000 1 0 0
9.267137 6.039610 3.546109 11.616006 0.577586 1.260566 0.003251 -0.002443 2544760.000000 1 0 0
-3.826563 14.572510 -9.977491 18.070721 -1.314006 2.155720 0.011224 -0.003156 386866.000000 1 0 0
8.730837 -6.377490 9.319409 14.274147 -0.630875 0.859406 0.003204 -0.000080 -181882.000000 1 0 0
5.893637 -10.735990 -8.546791 14.934660 -1.068751 2.180078 0.004546 0.002913 1251260.000000 1 0 0
5.310837 1.075910 0.490609 5.440888 0.199883 1.480503 0.000419 -0.001313 4128810.000000 1 0 0
-0.672463 9.870410 11.018409 14.808192 -1.502772 0.731647 -0.006987 0.001685 -1338580.000000 1 0 0
-6.385163 -5.206590 1.093109 8.311063 0.684073 1.438890 0.005009 -0.001870 1935330.000000 1 0 0
-1.031563 3.908710 -10.928591 11.652306 -1.312766 2.787296 0.011203 -0.010388 1828110.000000 1 0 0
10.921337 5.764010 1.262309 12.413413 0.485620 1.468931 0.003300 -0.000174 1759790.000000 1 0 0
-10.073763 -1.778890 -13.629391 17.041287 0.174785 2.497736 0.018318 -0.004596 1774670.000000 1 0 0
7.426737 10.920210 -6.011591 14.510225 0.973557 1.997970 -0.002389 0.002086 990370.000000 1 0 0
-12.406563 -2.920090 -9.607091 15.960762 0.231159 2.216699 0.014012 -0.004745 73888.300000 1 0 0
-3.967263 -8.712390 2.506909 9.895934 1.143495 1.314678 0.009480 -0.002963 -1884760.000000 1 0 0
8.060437 -6.663290 -5.922691 12.018666 -0.690791 2.086091 0.006035 -0.005900 2377530.000000 1 0 0
14.315037 3.134310 -4.152191 15.231049 0.215551 1.846905 0.016003 -0.000484 1166750.000000 1 0 0
-2.553563 -4.997790 9.730809 11.233309 1.098436 0.523157 0.002428 -0.002350 1740470.000000 1 0 0
3.520837 -1.887890 -4.621091 6.108592 -0.492190 2.428726 0.001160 -0.004255 -2818870.000000 1 0 0
-3.911263 8.400010 -3.532891 9.916626 -1.135024 1.935058 0.002448 -0.001284 435118.000000 1 0 0
5.757037 0.100610 11.683509 13.025282 0.017474 0.457890 -0.001765 -0.000231 1611940.000000 1 0 0
7.112437 4.733910 12.389309 15.049639 0.587251 0.603720 0.010331 -0.000641 1729060.000000 1 0 0
1.221737 -14.465790 12.484509 19.147185 -1.486539 0.860540 -0.003565 -0.007416 1382480.000000 1 0 0
3.021637 8.635110 -9.133191 12.927126 1.234189 2.355356 0.003705 -0.004289 1218290.000000 1 0 0
-4.327563 -8.869990 -4.567691 10.875124 1.116885 2.004256 0.007657 -0.002149 649081.000000 1 0 0
5.777237 -6.628490 -4.104791 9.703744 -0.853909 2.007562 0.004881 -0.006336 1936300.000000 1 0 0
-3.143063 3.423210 8.651109 9.820331 -0.828037 0.492954 -0.002823 0.001619 520676.000000 1 0 0
-3.853863 3.176110 -11.131091 12.200046 -0.689286 2.719860 0.008081 -0.012548 736485.000000 1 0 0
3.022537 -6.095190 8.429909 10.832841 -1.110443 0.679032 -0.003488 0.000753 -600593.000000 1 0 0
-5.113863 -8.735590 10.419309 14.526670 1.041177 0.770943 0.007991 -0.005402 1897470.000000 1 0 0
-13.336163 -2.535390 6.485309 15.044623 0.187872 1.125116 0.010824 -0.002869 821949.000000 1 0 0
4.047837 -6.001590 -8.241391 10.969256 -0.977417 2.420852 0.003342 -0.001863 2783750.000000 1 0 0
2.876937 -0.589790 12.459809 12.801229 -0.202204 0.231475 -0.000851 -0.000922 1162130.000000 1 0 0
1.463837 -1.492590 -7.526391 7.811351 -0.795123 2.870653 0.006005 -0.007585 -1222330.000000 1 0 0
3.616737 -3.457290 3.462209 6.084450 -0.762862 0.965476 0.000685 0.000483 2468730.000000 1 0 0
1.502737 0.434810 -11.770891 11.874390 0.281654 3.009465 0.008493 -0.010431 -312186.000000 1 0 0
4.087737 3.551010 -10.516791 11.828869 0.715250 2.666124 0.002626 -0.002484 2410280.000000 1 0 0
2.816537 3.277610 3.324709 5.452458 0.860913 0.915034 -0.008662 0.001442 -752845.000000 1 0 0
-5.341763 0.877810 2.505209 5.964986 -0.162874 1.137367 0.000666 -0.002150 1422250.000000 1 0 0
-9.503963 -9.334090 5.646209 14.468249 0.776381 1.169895 0.009818 -0.004432 -1287670.000000 1 0 0
-3.054463 3.826710 -0.514191 4.923195 -0.897157 1.675430 0.000873 -0.004430 -393162.000000 1 0 0
-15.901963 -6.493290 4.835209 17.844173 0.387669 1.296397 0.035546 -0.012065 311293.000000 1 0 0
1.003637 6.591110 -8.064191 10.463326 1.419686 2.450751 0.005623 -0.004521 906143.000000 1 0 0
-1.586863 6.431310 -9.470391 11.557170 -1.328888 2.531227 0.007254 -0.008136 -685968.000000 1 0 0
2.000437 -0.312990 5.174409 5.556458 -0.155202 0.372989 -0.003027 0.001026 2986190.000000 1 0 0
-3.419363 -0.490990 -6.373091 7.249097 0.142616 2.644886 0.009076 -0.007341 529320.000000 1 0 0
1.958637 -1.123490 -2.475491 3.350603 -0.520788 2.402113 0.005494 -0.002283 549191.000000 1 0 0
2.483637 -8.640390 -7.603591 11.774522 -1.290897 2.272823 0.000517 -0.000256 1628100.000000 1 0 0
-2.441663 14.016510 -5.555391 15.273724 -1.398328 1.943057 0.008263 0.003111 3633600.000000 1 0 0
6.954937 -5.069990 -8.181291 11.874740 -0.629910 2.330858 0.006773 -0.006318 4362320.000000 1 0 0
-14.141963 -4.992690 -2.248491 15.165019 0.339381 1.719613 0.014895 -0.004517 957789.000000 1 0 0
-2.728063 6.830310 -6.794791 10.013224 -1.190803 2.316626 0.007696 -0.005168 -2536650.000000 1 0 0
-5.648763 -1.056890 -8.201991 10.014899 0.184963 2.530426 0.012011 -0.009363 -175655.000000 1 0 0
-5.723763 -10.653090 3.427909 12.569819 1.077766 1.294588 0.005081 -0.004454 -4487230.000000 1 0 0
8.016837 -7.531890 6.736709 12.898926 -0.754219 1.021287 0.000889 -0.000636 1130220.000000 1 0 0
8.624437 -6.037090 13.207609 16.889888 -0.610725 0.672955 0.003606 -0.000497 318049.000000 1 0 0
-4.740763 9.472010 -0.821691 10.623982 -1.106747 1.648217 0.001431 0.002284 1532500.000000 1 0 0
2.677537 6.559110 12.075009 13.999892 1.183227 0.530593 -0.001753 -0.003327 1869710.000000 1 0 0
5.958137 -2.835290 10.959809 12.792798 -0.444157 0.541925 -0.003265 -0.000320 -883215.000000 1 0 0
-9.653163 -6.486690 -1.141291 11.686028 0.591669 1.668615 0.004946 -0.002109 404984.000000 1 0 0
0.828537 -13.343290 6.260309 14.762159 -1.508782 1.132853 0.010396 -0.005040 420350.000000 1 0 0
-0.604463 -3.176490 8.722909 9.302936 1.382752 0.354986 0.001347 -0.001497 752402.000000 1 0 0
4.137137 0.746710 3.361409 5.382615 0.178567 0.896313 -0.004415 0.001680 1510370.000000 1 0 0
-10.263463 5.525610 8.275409 14.295225 -0.493876 0.953426 0.003131 -0.004016 1126420.000000 1 0 0
9.387537 7.969410 0.071009 12.314316 0.703876 1.565030 0.000578 0.001321 455193.000000 1 0 0
4.175037 2.875110 8.204109 9.643889 0.603063 0.553470 -0.004235 0.001131 2510370.000000 1 0 0
1.301137 2.639810 -9.709391 10.145631 1.112853 2.847281 0.008665 -0.009919 1214300.000000 1 0 0
-1.415463 -10.067990 3.031809 10.609421 1.431121 1.280991 0.012190 -0.002961 -2450950.000000 1 0 0
-9.916463 9.471810 8.984509 16.394293 -0.762468 0.990793 0.004167 -0.004956 1217790.000000 1 0 0
9.793937 -2.073490 -7.586491 12.560868 -0.208631 2.219280 0.008309 -0.004493 -68201.900000 1 0 0
-5.181763 -1.881390 6.655709 8.642266 0.348279 0.691744 0.001579 -0.002010 169970.000000 1 0 0
3.162737 -7.852190 -4.908091 9.785149 -1.187892 2.096227 -0.000723 -0.002997 1806280.000000 1 0 0
-5.132763 4.836810 -13.148091 14.920197 -0.755721 2.649249 0.003267 -0.012687 2121330.000000 1 0 0
-5.671663 9.634710 5.464009 12.443906 -1.038749 1.116209 -0.003235 0.002522 1723490.000000 1 0 0
-0.454363 -1.892290 -9.424291 9.623121 1.335144 2.937959 0.005927 -0.008378 -414363.000000 1 0 0
-16.743963 0.157510 6.261609 17.877161 -0.009407 1.212950 0.017599 -0.008679 -243730.000000 1 0 0
-5.965163 -2.847090 4.009309 7.730696 0.445312 1.025558 -0.000180 0.000105 1286110.000000 1 0 0
0.990537 -5.724090 -5.092091 7.725008 -1.399446 2.290510 0.003480 -0.003140 1400140.000000 1 0 0
-7.079163 1.490510 -8.522191 11.178726 -0.207518 2.437745 0.006820 -0.008814 697332.000000 1 0 0
7.973237 1.939110 4.751409 9.482011 0.238571 1.045930 0.000999 -0.000284 408521.000000 1 0 0
0.547737 -8.128290 -0.499691 8.162034 -1.503512 1.632056 0.005915 -0.000848 1118450.000000 1 0 0
5.449537 5.549110 -3.358691 8.471769 0.794451 1.978450 -0.003682 -0.001166 507070.000000 1 0 0
-0.728863 -0.386490 -1.331491 1.566360 0.487564 2.586884 0.005227 -0.002973 873401.000000 1 0 0
9.044737 6.415010 -6.306091 12.756426 0.616909 2.087879 0.001208 -0.000654 932730.000000 1 0 0
-15.036263 -7.144790 2.339909 16.811080 0.443587 1.431154 0.019653 -0.006715 1366570.000000 1 0 0
-6.471663 6.842610 8.876709 12.942168 -0.813252 0.814991 -0.000401 0.002794 -287835.000000 1 0 0
-9.428463 -3.181290 -9.714791 13.906606 0.325418 2.344199 0.010230 -0.004683 787040.000000 1 0 0
14.815937 3.434410 -1.187091 15.255043 0.227782 1.648691 0.004858 0.000118 200482.000000 1 0 0
12.040737 1.624610 -5.716091 13.427300 0.134116 2.010539 0.008644 -0.003497 432389.000000 1 0 0
1.625037 -9.365890 12.661309 15.832542 -1.399001 0.643998 -0.009226 -0.004264 -236258.000000 1 0 0
-3.647763 6.347710 7.901309 10.771736 -1.049219 0.747306 -0.004397 0.003923 1176660.000000 1 0 0
-3.945363 12.909510 -12.343791 18.291816 -1.274194 2.311525 0.009491 -0.010795 -235024.000000 1 0 0
-10.282063 7.756710 6.384309 14.375214 -0.646306 1.110605 0.000423 -0.003561 639131.000000 1 0 0
8.088737 -9.344190 -7.240291 14.323524 -0.857290 2.100737 0.008184 -0.002418 193483.000000 1 0 0
5.834237 -3.841390 -0.341291 6.993645 -0.582273 1.619616 0.003117 -0.004220 51951.900000 1 0 0
-1.727563 -4.488690 4.109309 6.326076 1.203400 0.863761 0.005501 -0.000667 605061.000000 1 0 0
9.874837 -2.078390 -2.540691 10.406114 -0.207445 1.817443 0.001082 -0.003827 -3212730.000000 1 0 0
13.520437 7.065410 1.537709 15.332540 0.481542 1.470337 0.004252 0.000939 -1552270.000000 1 0 0
5.445137 -3.736790 -3.296591 7.381099 -0.601446 2.033787 0.002053 -0.006521 -3016940.000000 1 0 0
-12.302163 -5.904590 1.858509 13.771763 0.447490 1.435433 0.004683 -0.001629 411282.000000 1 0 0
3.767937 -5.810090 -0.318991 6.932261 -0.995465 1.616828 0.004916 -0.002684 -388163.000000 1 0 0
-5.193063 3.806210 -8.711191 10.832358 -0.632494 2.505095 0.008197 -0.012280 481940.000000 1 0 0
-1.687563 -9.237890 7.211109 11.840041 1.390110 0.915941 0.005693 -0.003646 1698510.000000 1 0 0
-7.445963 -7.491590 2.519409 10.858808 0.788453 1.336647 0.007643 -0.004044 -4014850.000000 1 0 0
-5.746163 13.026910 -8.496191 16.580231 -1.155369 2.108807 0.013094 -0.005257 1413030.000000 1 0 0
9.323137 -13.832190 -4.136091 17.185971 -0.977722 1.813849 0.022648 -0.001885 1762710.000000 1 0 0
-6.519163 -5.166090 -6.756691 10.716382 0.670118 2.252995 0.009461 -0.003219 1999770.000000 1 0 0
3.464337 0.358810 -6.278891 7.180170 0.103205 2.635152 0.000794 -0.007427 1373890.000000 1 0 0
-3.503763 5.692010 4.964709 8.326084 -1.019015 0.931932 -0.003974 0.002423 315891.000000 1 0 0
-2.625363 -10.819590 -2.895891 11.504010 1.332748 1.825263 0.007601 -0.002091 1239380.000000 1 0 0
-12.587063 -0.445290 1.751109 12.716086 0.035362 1.432649 0.004582 -0.003800 41133.800000 1 0 0
8.513737 -11.971090 -6.109791 15.909753 -0.952599 1.964951 0.018272 -0.001812 1230970.000000 1 0 0
6.036437 3.917510 1.003809 7.265885 0.575656 1.432199 -0.001075 -0.001971 -1650260.000000 1 0 0
3.428537 -4.848590 -10.878791 12.394022 -0.955308 2.641932 0.002708 -0.003953 633881.000000 1 0 0
-7.631963 4.250010 8.519109 12.201831 -0.508102 0.797940 -0.001447 0.001083 1341200.000000 1 0 0
8.195737 8.719910 4.112009 12.653678 0.816376 1.239821 0.002290 -0.000433 2791950.000000 1 0 0
0.300037 10.540410 -6.362091 12.315294 1.542339 2.113673 0.002236 -0.000299 1281440.000000 1 0 0
5.418437 8.047310 3.238109 10.227610 0.978200 1.248648 -0.000037 -0.000847 2553880.000000 1 0 0
8.033737 6.762310 -3.673791 11.125039 0.699679 1.907341 -0.001870 -0.000549 375177.000000 1 0 0
10.518737 2.563410 -8.143591 13.547434 0.239040 2.215694 0.002686 -0.002347 -1534150.000000 1 0 0
3.374137 -12.582890 -0.358591 13.032363 -1.308807 1.598315 0.006214 -0.001638 -1246070.000000 1 0 0
0.603637 2.166010 5.193409 5.659282 1.299007 0.408595 -0.004088 0.000804 575243.000000 1 0 0
-4.896063 13.508110 1.499809 14.446104 -1.223070 1.466788 0.003771 0.001006 1740770.000000 1 0 0
8.186837 4.083310 -7.912291 12.095539 0.462659 2.283854 -0.001334 0.000104 475819.000000 1 0 0
-13.888263 -0.530190 -3.719891 14.387583 0.038157 1.832316 0.006111 -0.002117 471357.000000 1 0 0
-8.523563 0.023910 -0.490491 8.537698 -0.002805 1.628278 0.001529 -0.000928 93315.000000 1 0 0
1.835837 -3.925190 -1.124991 4.476942 -1.133316 1.824804 0.007694 -0.003044 -1589610.000000 1 0 0
8.105737 -5.688390 -0.341391 9.908445 -0.611915 1.605258 0.005086 -0.005022 2216890.000000 1 0 0
-2.338363 -1.220490 7.382309 7.839390 0.481047 0.343165 0.001913 -0.000214 922048.000000 1 0 0
-5.825863 8.644010 -11.723891 15.687868 -0.977750 2.414819 0.001340 -0.010924 -1355160.000000 1 0 0
-6.220963 9.118710 -8.880291 14.167245 -0.972103 2.248260 0.005813 -0.005175 1148910.000000 1 0 0
-1.489763 13.910310 -8.306891 16.270235 -1.464105 2.106629 0.016539 0.000416 178687.000000 1 0 0
-1.571163 7.180910 9.764609 12.222178 -1.355394 0.645290 -0.006641 0.001610 1622750.000000 1 0 0
9.986837 2.341210 -3.933691 10.985995 0.230271 1.936990 0.000248 -0.000731 -3756930.000000 1 0 0
-2.887063 -7.546390 -6.998491 10.689341 1.205401 2.284604 0.006191 -0.001490 59130.200000 1 0 0
-5.608163 -5.068690 -1.667691 7.741079 0.734914 1.787932 0.005870 -0.000938 18542.900000 1 0 0
5.696837 7.396710 -8.837891 12.855877 0.914501 2.328781 -0.000414 -0.002342 -596320.000000 1 0 0
-9.619063 5.238810 -7.520391 13.286376 -0.498709 2.172470 0.006631 -0.006055 187337.000000 1 0 0
-0.388663 6.136910 -5.313391 8.126798 -1.507549 2.283407 0.005811 -0.004376 -2581760.000000 1 0 0
-8.262563 2.826110 -6.396991 10.824895 -0.329564 2.203034 0.005835 -0.005303 2254550.000000 1 0 0
3.686337 1.384310 -2.105791 4.465394 0.359231 2.061878 -0.001280 -0.002528 3261730.000000 1 0 0
-6.816163 12.499910 -3.442591 14.647842 -1.071571 1.808039 0.011914 0.006320 902484.000000 1 0 0
-6.598963 3.186310 -2.434891 7.721890 -0.449834 1.891593 0.004868 -0.002878 -826495.000000 1 0 0
12.063337 4.047510 -0.777091 12.747953 0.323719 1.631792 0.002709 -0.000708 589475.000000 1 0 0
2.303737 12.331110 -5.569591 13.725299 1.386102 1.988639 0.002127 -0.000295 665199.000000 1 0 0
-9.240163 -1.472090 -4.319591 10.305655 0.157987 2.003303 0.001679 0.000617 -489091.000000 1 0 0
-1.133063 5.708210 3.394709 6.737325 -1.374846 1.042728 -0.004911 0.000789 -392817.000000 1 0 0
11.517937 2.771410 12.076409 16.916951 0.236128 0.775795 0.024728 0.001010 257146.000000 1 0 0
-7.006463 -2.336090 -5.900791 9.453421 0.321828 2.244899 0.009512 -0.003148 -1231110.000000 1 0 0
7.458937 -7.387990 10.883509 15.121802 -0.780620 0.767393 0.004256 -0.001480 -1785920.000000 1 0 0
-5.474563 -1.926490 -11.002191 12.439068 0.338365 2.656189 0.009822 -0.007753 372456.000000 1 0 0
0.801537 -6.143690 4.443309 7.624328 -1.441064 0.948650 0.003562 -0.000439 2236580.000000 1 0 0
-4.823163 -9.401890 7.326609 12.858368 1.096803 0.964542 0.003520 -0.003433 3217720.000000 1 0 0
-8.703863 9.343910 1.625109 12.872718 -0.820847 1.444214 0.003268 -0.001839 1529660.000000 1 0 0
-8.180063 7.193810 -9.164791 14.235791 -0.721335 2.270231 0.006986 -0.007997 -2305770.000000 1 0 0
-1.231963 -10.658490 -0.111991 10.730036 1.455722 1.581234 0.009670 -0.001680 -669193.000000 1 0 0
-4.019863 10.399810 7.820409 13.618890 -1.201954 0.959130 -0.001683 0.004962 2301020.000000 1 0 0
-7.508663 12.139810 1.944009 14.406047 -1.016873 1.435439 -0.001877 -0.001718 1341810.000000 1 0 0
-8.108263 -8.268290 -2.858191 11.928026 0.795170 1.812771 0.011716 -0.003171 1171100.000000 1 0 0
5.462737 4.584810 -8.012491 10.726695 0.698242 2.414285 0.000765 -0.001305 308910.000000 1 0 0
-8.961163 -0.125390 -10.301091 13.653961 0.013992 2.425596 0.009329 -0.007784 -1324290.000000 1 0 0
-15.231263 -2.237890 -1.650291 15.482991 0.145884 1.677587 0.011380 -0.004502 -871330.000000 1 0 0
-7.220463 -5.829590 8.706609 12.724946 0.679219 0.817268 0.008212 -0.004430 -2365360.000000 1 0 0
8.047137 3.418710 -0.929791 8.792525 0.401731 1.676742 -0.002859 0.000555 740975.000000 1 0 0
11.906937 7.173610 -5.763591 15.048415 0.542236 1.963842 0.003635 -0.003564 -54498.600000 1 0 0
3.743437 13.245010 -9.537391 16.745311 1.295351 2.176762 -0.002910 -0.007316 1068630.000000 1 0 0
-9.696263 5.428810 -0.550691 11.126220 -0.510402 1.620311 0.002056 -0.001213 1963420.000000 1 0 0
11.232737 -1.343690 -5.090091 12.405196 -0.119057 1.993600 0.011804 -0.004207 -2283090.000000 1 0 0
10.565337 1.749510 -1.122291 10.767853 0.164101 1.675212 0.002063 -0.001459 -774441.000000 1 0 0
14.657637 5.052410 4.950309 16.275095 0.331941 1.261735 0.018231 -0.007880 2775170.000000 1 0 0
0.878137 -0.869190 10.314309 10.388050 -0.780278 0.119223 0.001900 -0.000540 1961860.000000 1 0 0
-7.955363 1.433110 -12.609291 14.977844 -0.178232 2.571522 0.005412 -0.009455 246116.000000 1 0 0
3.203637 -11.598390 -7.815991 14.348367 -1.301302 2.146864 -0.001588 0.002330 1328690.000000 1 0 0
2.929037 4.988310 -6.736991 8.879726 1.039857 2.432102 0.000434 -0.002652 -2505060.000000 1 0 0
6.508537 8.060210 0.614209 10.378116 0.891505 1.511579 0.001900 -0.000772 -460556.000000 1 0 0
-9.072663 -5.509690 6.629409 12.514750 0.545759 1.012517 0.004264 -0.003652 -892018.000000 1 0 0
-0.220963 -6.870290 -11.838191 13.689137 1.538645 2.615523 0.005981 -0.000518 1749220.000000 1 0 0
6.494737 -13.435790 -4.685491 15.641479 -1.120524 1.875023 0.012015 0.000820 3092110.000000 1 0 0
-3.343163 -0.345690 9.988009 10.538338 0.103036 0.324600 0.002074 0.000130 465533.000000 1 0 0
8.530237 8.421910 7.022909 13.892975 0.779008 1.040834 0.003255 -0.002775 -566525.000000 1 0 0
-7.884963 5.789110 -2.769591 10.166468 -0.633310 1.846708 0.004756 -0.003295 909165.000000 1 0 0
-5.381563 5.933910 -6.487891 10.308503 -0.834173 2.251542 0.007786 -0.006024 -795966.000000 1 0 0
3.457637 -13.629690 2.508709 14.283463 -1.322353 1.394243 0.013726 -0.006600 -1114630.000000 1 0 0
-11.299063 -7.050790 6.471709 14.807616 0.557891 1.118477 0.012623 -0.005582 -684592.000000 1 0 0
-12.942863 -3.740290 -6.803091 15.092698 0.281321 2.038406 0.015297 -0.006068 -483949.000000 1 0 0
6.128337 0.347210 -7.229391 9.483731 0.056596 2.437646 -0.001731 -0.002400 1238440.000000 1 0 0
-1.485163 2.149910 -2.471891 3.596953 -0.966270 2.328449 0.004674 -0.005014 3638910.000000 1 0 0
7.635837 0.954910 -4.977891 9.165001 0.124411 2.144970 -0.000469 -0.001814 84387.700000 1 0 0
3.654137 -4.569390 10.848509 12.325672 -0.896239 0.494606 -0.006722 0.002023 940047.000000 1 0 0
6.025537 -2.528990 2.053509 6.849801 -0.397383 1.266323 0.005268 -0.002612 -1316320.000000 1 0 0
-6.235363 7.723010 1.155609 9.993001 -0.891575 1.454895 0.000586 -0.000498 -89103.300000 1 0 0
5.989437 -3.423390 7.941109 10.519228 -0.519254 0.715274 -0.000437 -0.000836 436578.000000 1 0 0
6.758937 -2.329790 -7.782491 10.567796 -0.331943 2.398581 0.005183 -0.006913 1094670.000000 1 0 0
12.260237 -8.130590 -5.761791 15.799308 -0.585576 1.944092 0.025989 -0.004947 501924.000000 1 0 0
5.588637 -9.632090 10.017109 14.978401 -1.045055 0.838243 -0.007379 0.000599 1332870.000000 1 0 0
-6.606863 7.626710 -4.588191 11.084622 -0.856927 1.997557 0.004970 -0.000171 2308000.000000 1 0 0
-1.281763 -7.564690 9.667409 12.342052 1.402950 0.670855 0.003417 -0.002867 718202.000000 1 0 0
10.151037 -9.272290 0.805809 13.772009 -0.740187 1.512252 0.006616 -0.003162 1967100.000000 1 0 0
11.057737 6.119710 9.737609 15.954480 0.505475 0.914310 0.013459 -0.006762 1085050.000000 1 0 0
-15.292063 -4.237390 -5.027591 16.645700 0.270315 1.877623 0.016987 -0.009230 1554630.000000 1 0 0
-4.782063 -4.646690 7.760109 10.231283 0.771042 0.709836 0.004766 -0.002268 -1292780.000000 1 0 0
2.980637 10.832310 -11.056791 15.763114 1.302280 2.348204 0.001674 -0.005710 39736.900000 1 0 0
9.941737 -1.367690 1.574109 10.158077 -0.136712 1.415208 0.005389 -0.004181 78949.000000 1 0 0
-1.585963 -2.690390 0.549409 3.171014 1.038139 1.396658 0.002866 -0.000950 323981.000000 1 0 0
1.559937 2.959910 0.776609 3.434762 1.085766 1.342721 -0.005840 -0.001703 152532.000000 1 0 0
-8.947863 -2.383290 4.284209 10.202881 0.260309 1.137459 0.001659 -0.002426 6116320.000000 1 0 0
9.824737 4.917910 -2.601191 11.290593 0.464099 1.803270 -0.000426 0.001471 55434.700000 1 0 0
2.558137 8.483910 2.473109 9.199841 1.277938 1.298628 -0.003909 -0.000352 1221930.000000 1 0 0
-8.159963 -0.030990 2.431109 8.514473 0.003798 1.281240 -0.001050 -0.002386 1976700.000000 1 0 0
6.852837 2.066410 13.664709 15.425813 0.292870 0.482508 0.004271 0.000157 -1402350.000000 1 0 0
6.763037 4.358310 3.814809 8.904286 0.572450 1.128048 -0.001877 -0.000143 110994.000000 1 0 0
-0.392463 3.362310 7.792209 8.495745 -1.454598 0.409827 -0.005974 0.001421 1877680.000000 1 0 0
2.752437 -10.344990 9.297609 14.178867 -1.310756 0.855638 -0.001719 -0.005955 2839810.000000 1 0 0
1.331137 -4.423390 6.824809 8.241136 -1.278485 0.595016 -0.000991 0.000973 -876224.000000 1 0 0
-0.188463 10.782710 -2.008891 10.969868 -1.553320 1.754964 0.003149 -0.001464 1841430.000000 1 0 0
8.731337 5.493410 8.004909 13.057273 0.561585 0.910867 0.004494 -0.002471 -143828.000000 1 0 0
2.660137 11.359510 -2.844491 12.008577 1.340764 1.809941 0.002932 -0.003633 1604570.000000 1 0 0
1.516737 2.425310 -6.689091 7.275064 1.011925 2.737487 0.004618 -0.007011 2767690.000000 1 0 0
-13.659363 -2.171690 3.536009 14.275777 0.157669 1.320498 0.010682 -0.004059 385979.000000 1 0 0
-0.902963 -10.587590 -5.288091 11.869132 1.485717 2.032566 0.003929 0.000159 691840.000000 1 0 0
-5.720763 2.919710 0.396909 6.435012 -0.471910 1.509077 0.004005 -0.003104 717491.000000 1 0 0
3.716337 7.292210 -5.011991 9.597267 1.099474 2.120261 -0.001054 -0.000970 -2263160.000000 1 0 0
3.026937 9.753310 -6.484991 12.097294 1.269872 2.136571 0.002146 -0.000126 604000.000000 1 0 0
-12.229063 1.678810 -2.648891 12.624778 -0.136428 1.782184 0.007298 -0.003502 1584960.000000 1 0 0
-2.408263 9.583710 -5.751591 11.433636 -1.324607 2.097910 0.001390 -0.001061 1510440.000000 1 0 0
-1.282263 3.268510 1.729009 3.913673 -1.196938 1.113207 -0.005560 -0.002276 -1477250.000000 1 0 0
12.803737 3.767410 9.649109 16.469194 0.286167 0.944820 0.028857 -0.006127 1304760.000000 1 0 0
-2.497563 -9.550390 11.608909 15.238587 1.315010 0.704694 -0.000270 -0.006950 2174030.000000 1 0 0
-0.402663 -8.937890 -7.545391 11.703885 1.525775 2.271415 0.004434 -0.000191 1909350.000000 1 0 0
2.411837 7.631610 -0.445691 8.016051 1.264697 1.626425 -0.003783 -0.001422 1274290.000000 1 0 0
-11.818763 -1.310690 -5.639191 13.160606 0.110448 2.013617 0.007081 0.001087 -1167450.000000 1 0 0
-6.150063 -7.170090 -10.959391 14.468646 0.861827 2.430207 0.009345 -0.003000 1525440.000000 1 0 0
-4.740863 -2.289490 -1.492291 5.472155 0.449896 1.847001 0.004214 -0.001647 -409100.000000 1 0 0
-10.419763 3.656210 4.461409 11.909808 -0.337469 1.186831 0.007605 -0.006654 2517220.000000 1 0 0
6.734837 9.397110 -3.596991 12.107933 0.948955 1.872427 -0.003073 0.002324 416001.000000 1 0 0
1.242637 -2.771190 -11.499991 11.894260 -1.149263 2.883396 0.004548 -0.005889 -476291.000000 1 0 0
1.144037 8.806810 7.563309 11.665006 1.441616 0.865347 -0.010650 0.007552 1293100.000000 1 0 0
10.267637 0.569510 10.559209 14.739254 0.055410 0.772167 0.004872 0.000364 -72346.100000 1 0 0
-5.323263 -0.790690 -4.067791 6.746054 0.147457 2.218038 0.005767 -0.003005 -628615.000000 1 0 0
11.738937 5.671710 5.389509 14.107365 0.450080 1.178799 0.009722 -0.002935 1766370.000000 1 0 0
9.913337 -3.471190 3.695409 11.134606 -0.336812 1.232495 0.013736 -0.006841 -1423920.000000 1 0 0
7.305137 -1.685990 -3.413091 8.237522 -0.226823 1.998008 -0.000026 -0.001981 -2737330.000000 1 0 0
2.229637 9.240510 10.504009 14.166599 1.334033 0.735548 -0.007536 0.003032 2275020.000000 1 0 0
2.508037 -10.933690 6.397609 12.913761 -1.345311 1.052489 -0.001427 -0.003204 775272.000000 1 0 0
5.982037 -7.613790 -1.298791 9.769412 -0.904846 1.704136 0.002778 -0.005484 -162637.000000 1 0 0
-0.258963 -5.644690 -2.259391 6.085592 1.524951 1.951171 0.006333 -0.001356 1459760.000000 1 0 0
7.787937 -4.993390 2.541809 9.594097 -0.570143 1.302660 0.006029 -0.003148 1585800.000000 1 0 0
-2.622663 -12.421790 4.625409 13.511981 1.362718 1.221412 0.009847 -0.004456 -371590.000000 1 0 0
4.888337 -10.318190 -1.099091 11.470348 -1.128361 1.666764 0.005860 -0.004442 492310.000000 1 0 0
0.919437 0.211710 1.001509 1.375938 0.226316 0.755580 -0.002839 -0.000505 -2231160.000000 1 0 0
-1.559463 8.476410 2.370309 8.938670 -1.388854 1.302411 -0.005393 0.002585 -297886.000000 1 0 0
-7.578563 0.668910 -3.091891 8.212299 -0.088035 1.956806 0.001864 0.000391 -141591.000000 1 0 0
4.358337 -6.367190 12.857409 14.994972 -0.970549 0.540507 0.002523 -0.002859 -297556.000000 1 0 0
-5.177663 13.110110 8.528109 16.474582 -1.194662 1.026691 0.002710 -0.006164 877321.000000 1 0 0
0.604637 6.118810 8.221609 10.266464 1.472300 0.642130 -0.007416 0.005174 56259.500000 1 0 0
7.932137 -0.556090 -0.777091 7.989487 -0.069991 1.668214 0.000477 -0.001863 5503920.000000 1 0 0
2.494537 -9.264390 -2.382091 9.885645 -1.307774 1.814156 0.000262 -0.002376 508883.000000 1 0 0
-7.157563 12.131410 4.836909 14.892868 -1.037760 1.240017 -0.000647 -0.001019 -1213300.000000 1 0 0
-14.994963 0.241110 0.143709 14.997590 -0.016078 1.561214 0.012562 -0.006608 153622.000000 1 0 0
6.845537 -0.509190 3.894909 7.892462 -0.074246 1.054690 0.001649 0.000090 -705237.000000 1 0 0
-4.279963 -5.005690 5.035409 8.290378 0.863395 0.918038 0.005041 -0.003016 -787711.000000 1 0 0
2.850937 5.197510 6.820109 9.036362 1.069090 0.715538 -0.008039 0.002655 -398379.000000 1 0 0
2.034937 -7.164490 1.748109 7.650279 -1.294054 1.340257 0.004578 -0.000510 1241910.000000 1 0 0
-2.412263 6.403810 -1.833691 7.084506 -1.210543 1.832608 0.000919 -0.002249 2258970.000000 1 0 0
2.724737 -3.851990 -6.467891 8.005974 -0.955149 2.511347 0.000902 -0.004230 -603041.000000 1 0 0
-5.110963 0.981710 -12.220191 13.282273 -0.189768 2.738973 0.007944 -0.009851 -183143.000000 1 0 0
-7.500463 6.263210 -11.899391 15.397411 -0.695746 2.454065 0.003663 -0.010553 2034720.000000 1 0 0
-1.015763 11.113310 -9.076091 14.384466 -1.479649 2.253592 0.003283 -0.002161 1268480.000000 1 0 0
4.654837 5.943810 -0.580791 7.571902 0.906421 1.647575 -0.002572 -0.000642 506655.000000 1 0 0
-2.597163 13.320510 3.613909 14.044273 -1.378237 1.310546 -0.001245 0.002077 1429420.000000 1 0 0
1.489837 -7.913190 10.092009 12.910726 -1.384702 0.673447 -0.004753 -0.000971 -503072.000000 1 0 0
12.947037 -0.234390 -1.095791 12.995440 -0.018102 1.655218 0.012017 -0.006319 133725.000000 1 0 0
-1.039263 3.136810 -5.409391 6.338861 -1.250866 2.593211 0.008592 -0.008821 1314100.000000 1 0 0
6.515737 1.154910 7.246409 9.813210 0.175427 0.740051 -0.000995 -0.000019 3248720.000000 1 0 0
5.446437 -6.128190 6.768709 10.631736 -0.844231 0.880648 -0.003205 -0.000982 1092720.000000 1 0 0
12.165137 -4.885990 2.669509 13.378704 -0.381918 1.369914 0.017667 -0.008173 -734602.000000 1 0 0
4.351337 -9.168090 13.855509 17.174491 -1.127660 0.632166 -0.001499 -0.001987 1301880.000000 1 0 0
-2.795063 -4.389290 -1.387091 5.385375 1.003762 1.831299 0.006910 -0.002897 2711710.000000 1 0 0
-9.290363 -5.118490 -7.575191 13.034313 0.503569 2.190966 0.012006 -0.004499 76323.300000 1 0 0
-10.661063 -3.257990 7.802209 13.606882 0.296584 0.960144 0.001240 -0.000891 19879.300000 1 0 0
12.129937 -0.648290 1.692009 12.264523 -0.053395 1.432395 0.010633 -0.007442 438710.000000 1 0 0
-7.521163 4.647410 4.336609 9.847462 -0.553485 1.114776 0.000464 -0.003614 2575170.000000 1 0 0
-1.199163 10.549910 6.915309 12.671231 -1.457616 0.993514 -0.006539 0.008332 1153810.000000 1 0 0
7.421137 -9.995890 1.863009 12.588164 -0.932165 1.422254 0.001925 -0.003948 4241980.000000 1 0 0
-4.297463 -1.705790 1.567609 4.882142 0.377857 1.243916 0.000309 0.000183 2856950.000000 1 0 0
6.746237 -14.928790 -0.937891 16.409147 -1.146368 1.627984 0.020902 -0.004766 -1234070.000000 1 0 0
-10.488163 1.658610 2.313609 10.867628 -0.156842 1.356265 0.002314 -0.002295 76143.700000 1 0 0
-3.044963 8.201410 -11.447891 14.407954 -1.215297 2.489068 0.003640 -0.008091 427652.000000 1 0 0
-1.234263 -5.178190 -6.973591 8.773142 1.336804 2.489605 0.001609 -0.003751 -431421.000000 1 0 0
12.817337 -0.485290 6.494809 14.377141 -0.037844 1.102075 0.018880 -0.005554 1940290.000000 1 0 0
6.064237 -13.294890 3.725609 15.080094 -1.142854 1.321157 0.006477 -0.003386 879092.000000 1 0 0
-5.592463 3.479110 -5.032891 8.289140 -0.556516 2.223286 0.007449 -0.006470 347696.000000 1 0 0
-4.297563 8.045810 3.427609 9.744364 -1.080214 1.211353 -0.004648 0.001742 -53452.700000 1 0 0
13.987937 6.161410 -3.855891 15.763668 0.414909 1.817910 0.021477 -0.003892 1337780.000000 1 0 0
-6.771263 -8.508590 5.219809 12.062028 0.898612 1.123258 0.009482 -0.005059 510681.000000 1 0 0
1.680137 11.429410 2.641909 11.850484 1.424841 1.345970 -0.001634 0.000259 682726.000000 1 0 0
-7.387263 7.226210 5.952709 11.925792 -0.774378 1.048184 -0.002849 -0.001856 -125220.000000 1 0 0
-17.402463 -3.979090 5.108209 18.568056 0.224787 1.292095 0.026970 -0.012410 -827909.000000 1 0 0
7.615737 -13.165790 -8.553491 17.449919 -1.046374 2.083085 0.025442 -0.001245 -549349.000000 1 0 0
-2.277863 12.842310 -2.750091 13.329538 -1.395250 1.778604 0.001669 0.003276 -108839.000000 1 0 0
-5.525763 13.931810 -5.763391 16.057586 -1.193199 1.937907 0.017460 0.004015 3702980.000000 1 0 0
-5.646963 2.409610 7.317409 9.551905 -0.403317 0.698095 0.001374 -0.000509 2803790.000000 1 0 0
-7.462363 5.090010 1.408509 9.142154 -0.598605 1.416113 0.001178 -0.001571 1726800.000000 1 0 0
10.840137 -5.730790 -5.009391 13.245547 -0.486315 1.958641 0.010397 -0.005919 2145230.000000 1 0 0
-9.580763 -0.844390 6.836209 11.799906 0.087907 0.952872 0.001671 -0.001479 679554.000000 1 0 0
-11.251363 -4.523790 -2.591791 12.400614 0.382286 1.781354 0.003373 -0.001566 1324070.000000 1 0 0
6.485337 -4.326090 13.563009 15.643844 -0.588273 0.521672 0.006155 -0.004071 -1278360.000000 1 0 0
0.277637 10.209710 -11.720691 15.546378 1.543610 2.424802 0.004414 -0.003900 -582507.000000 1 0 0
-11.857263 -3.199090 1.410609 12.361986 0.263525 1.456439 0.005472 -0.003184 4685000.000000 1 0 0
5.174737 5.976510 5.423009 9.586741 0.857175 0.969541 -0.005214 0.001902 -4219400.000000 1 0 0
-7.168663 -0.088590 8.055109 10.783430 0.012357 0.727274 -0.000910 -0.000345 185302.000000 1 0 0
1.725937 2.038310 9.635809 9.999119 0.868193 0.270394 -0.001186 -0.001473 1780830.000000 1 0 0
10.531437 -4.954290 -2.022591 11.813002 -0.439712 1.742861 0.008465 -0.006320 2817780.000000 1 0 0
-9.607763 -2.364490 -1.693991 10.038403 0.241307 1.740359 0.003257 -0.000820 15910.000000 1 0 0
-1.964363 -5.212690 -9.983091 11.432102 1.210411 2.632630 0.006809 -0.004471 1110030.000000 1 0 0
7.646337 -1.580790 6.532309 10.180198 -0.203866 0.874125 0.002989 -0.002490 1525610.000000 1 0 0
1.525137 -11.875590 -2.635591 12.259772 -1.443069 1.787466 0.005410 0.000863 -2397880.000000 1 0 0
-0.840463 -1.532890 4.817109 5.124517 1.069269 0.348130 0.004286 -0.000184 2970480.000000 1 0 0
7.519937 1.563110 9.895709 12.526684 0.204944 0.660036 -0.001515 -0.000314 1401850.000000 1 0 0
-3.861863 10.658610 -7.959891 13.852069 -1.223185 2.182955 0.007804 0.000346 3728990.000000 1 0 0
-9.572663 12.581910 6.335609 17.031744 -0.920402 1.189646 0.002161 -0.004994 1085190.000000 1 0 0
-2.514763 -2.388090 -11.101491 11.630568 0.759567 2.838808 0.009541 -0.007697 -2839190.000000 1 0 0
1.119337 -11.933990 11.117809 16.348661 -1.477276 0.822974 -0.005666 -0.003535 2426530.000000 1 0 0
1.425937 3.396710 -2.031091 4.206693 1.173339 2.074673 -0.001033 -0.003975 3170940.000000 1 0 0
-1.833263 -9.413790 -12.148791 15.478159 1.378461 2.473329 0.005181 -0.000553 897158.000000 1 0 0
1.283237 -2.679490 1.511909 3.333501 -1.124162 1.100052 0.008631 -0.002336 1453620.000000 1 0 0
-1.145063 -2.278590 -6.603491 7.078787 1.105125 2.773058 0.009043 -0.008696 815983.000000 1 0 0
1.804037 5.857710 3.988509 7.312696 1.272038 0.993903 -0.011128 0.003784 -1141070.000000 1 0 0
-10.903963 8.598410 3.588509 14.342471 -0.667725 1.317908 0.000950 -0.005807 806144.000000 1 0 0
-16.456763 -1.485390 3.822309 16.959997 0.090016 1.343471 0.022569 -0.007985 -833244.000000 1 0 0
-12.261763 0.173910 6.669209 13.959206 -0.014182 1.072688 0.002632 0.000276 44014.900000 1 0 0
-5.038463 2.980710 4.603809 7.447537 -0.534214 0.904390 -0.003418 -0.000461 1622920.000000 1 0 0
5.249137 -5.978090 3.791509 8.812862 -0.850234 1.126055 -0.002725 -0.001165 663995.000000 1 0 0
9.898237 3.440110 6.232909 12.192564 0.334489 1.034209 0.002731 -0.000748 -78116.500000 1 0 0
-12.123263 5.841510 3.163809 13.824126 -0.449017 1.339888 0.009284 -0.005683 2050350.000000 1 0 0
-4.866263 12.411310 -1.255591 13.390207 -1.197134 1.664704 0.000035 0.003587 493152.000000 1 0 0
-1.742763 -12.146590 10.325709 16.037367 1.428291 0.871273 0.008441 -0.009137 111913.000000 1 0 0
5.113937 6.293610 13.909509 16.100818 0.888444 0.527832 0.003734 -0.006117 1263710.000000 1 0 0
12.901137 -3.754090 -5.933191 14.687929 -0.283170 1.986627 0.008220 -0.002450 1487130.000000 1 0 0
3.526737 -2.435890 6.439009 7.735132 -0.604452 0.587305 -0.002301 0.002276 2059840.000000 1 0 0
7.286637 -11.802190 -0.688491 13.887432 -1.017683 1.620393 0.008991 -0.000293 -313012.000000 1 0 0
-6.053863 -6.568490 -4.136691 9.844111 0.826147 2.004484 0.011485 -0.002352 623166.000000 1 0 0
0.417437 -8.916090 5.058509 10.259602 -1.524012 1.055203 0.008522 -0.003845 3404540.000000 1 0 0
-10.256263 2.505210 -0.501791 10.569712 -0.239570 1.618289 0.001940 0.000407 -1277570.000000 1 0 0
-1.876163 8.919310 -0.397491 9.123162 -1.363470 1.614380 0.001377 -0.000225 819993.000000 1 0 0
-3.516163 2.334410 -6.685191 7.905988 -0.586091 2.578458 0.010853 -0.010988 67750.700000 1 0 0
-12.639063 2.986410 6.305909 14.437073 -0.232029 1.118774 0.008353 -0.003996 714950.000000 1 0 0
11.315837 1.682510 7.944109 13.927953 0.147605 0.963838 0.015746 -0.010054 -2184400.000000 1 0 0
6.080837 2.621410 -3.237691 7.370957 0.407021 2.025560 -0.002362 -0.000687 906293.000000 1 0 0
10.493837 -2.359990 6.447809 12.540510 -0.221213 1.030770 0.013245 -0.006781 4051280.000000 1 0 0
-0.906763 10.948810 4.028109 11.701467 -1.488166 1.219367 -0.002075 0.004406 1443830.000000 1 0 0
-1.597363 -12.186090 7.402009 14.347198 1.440459 1.028715 0.007272 -0.003467 -201252.000000 1 0 0
8.057937 8.723010 -7.807591 14.211957 0.825010 2.152404 -0.000920 -0.002194 2125220.000000 1 0 0
-4.640863 -5.942990 -8.740291 11.543371 0.907813 2.429766 0.007506 -0.003824 1666590.000000 1 0 0
-8.475563 -5.278590 -11.697891 15.379835 0.557016 2.435032 0.012934 -0.001475 1875100.000000 1 0 0
5.969337 -0.684790 -9.887791 11.570234 -0.114219 2.595555 0.002685 -0.003691 679105.000000 1 0 0
-11.185863 -5.398890 -5.347191 13.522722 0.449674 1.977324 0.005794 -0.005534 157615.000000 1 0 0
3.914537 8.893210 -2.711791 10.087943 1.156146 1.842959 0.002628 -0.002883 155873.000000 1 0 0
11.798137 -10.357390 -3.938791 16.185970 -0.720461 1.816610 0.023974 -0.004237 -99629.800000 1 0 0
4.087037 -11.286390 3.989409 12.649184 -1.223365 1.249930 0.003222 -0.001930 541126.000000 1 0 0
-0.993863 0.885310 3.164809 3.433301 -0.727696 0.398104 -0.000631 -0.001452 -2038090.000000 1 0 0
-10.685963 -5.078990 4.467809 12.647026 0.443689 1.209733 0.006946 -0.003667 3722080.000000 1 0 0
4.586737 -8.624690 2.723109 10.140944 -1.082022 1.298934 0.000536 -0.001763 5212900.000000 1 0 0
-3.759063 -5.759790 2.572209 7.343160 0.992568 1.212919 0.005964 -0.001789 1687800.000000 1 0 0
10.006437 5.216410 12.334509 16.717650 0.480546 0.740971 0.018909 0.001314 1657320.000000 1 0 0
1.596437 -12.376390 -5.334091 13.571152 -1.442514 1.974738 0.002181 -0.000797 891227.000000 1 0 0
9.931037 -10.652590 -1.726791 14.665775 -0.820439 1.688813 0.012773 -0.005514 2028480.000000 1 0 0
9.710137 -4.463890 -9.166191 14.079493 -0.430903 2.279739 0.014113 -0.004539 2499670.000000 1 0 0
-7.356263 -3.034590 -13.172091 15.389195 0.391251 2.598145 0.010667 0.000362 1512160.000000 1 0 0
0.510637 6.144410 -2.446091 6.633090 1.487881 1.948483 -0.000477 -0.003771 1193310.000000 1 0 0
-5.925463 -9.548490 0.910909 11.274508 1.015392 1.489914 0.005629 -0.003602 973157.000000 1 0 0
-8.982563 -4.053290 0.600109 9.872980 0.423884 1.509976 0.000584 -0.001017 4367310.000000 1 0 0
1.739837 3.762310 12.105909 12.795900 1.137647 0.329892 -0.000882 -0.007250 1502320.000000 1 0 0
6.528837 4.301510 9.598409 12.379748 0.582570 0.683556 -0.003368 0.002532 2742170.000000 1 0 0
-8.298563 9.877010 -3.668291 13.411855 -0.872025 1.847838 0.005726 0.004472 1866830.000000 1 0 0
16.459737 2.212410 -5.921191 17.631738 0.133613 1.913278 0.030161 -0.003554 127522.000000 1 0 0
-10.999863 2.702610 -5.161991 12.447781 -0.240923 1.998400 0.006340 -0.000697 1326120.000000 1 0 0
-13.697063 3.983610 1.427509 14.335846 -0.283029 1.471055 0.008934 -0.003644 -523469.000000 1 0 0
-17.526463 10.535610 3.589809 20.762050 -0.541247 1.397021 0.052517 -0.009148 27726.300000 1 0 0
-14.344563 2.873410 -1.184591 14.677406 -0.197697 1.651593 0.007560 -0.001253 1920020.000000 1 0 0
-14.368863 5.096110 5.042509 16.058066 -0.340823 1.251375 0.011295 -0.005011 1090740.000000 1 0 0
-17.522963 7.673910 3.099109 19.379051 -0.412775 1.410186 0.034873 -0.008093 -1005700.000000 1 0 0
-15.169763 12.646810 -3.205691 20.008498 -0.694946 1.731706 0.053798 0.005479 79305.100000 1 0 0
-8.469663 12.490510 -9.710691 17.945628 -0.974928 2.142562 0.017130 -0.009225 2859130.000000 1 0 0
-12.503063 8.785410 -9.912891 18.214704 -0.612509 2.146261 0.013828 -0.003062 -72140.800000 1 0 0
-13.827763 -3.386690 -12.241791 18.775999 0.240191 2.281004 0.018860 -0.000647 -1445490.000000 1 0 0
-14.900363 5.843710 -7.621091 17.727121 -0.373752 2.015191 0.029223 -0.000520 165772.000000 1 0 0
-10.866463 13.480210 -8.492291 19.285100 -0.892344 2.026790 0.029716 -0.006530 -96445.400000 1 0 0
-10.955763 13.575910 3.905309 17.876955 -0.891801 1.350565 0.011939 -0.007235 -885801.000000 1 0 0
-15.151263 3.256510 2.980609 15.781308 -0.211712 1.380785 0.011619 -0.001292 184881.000000 1 0 0
-11.031663 9.434410 -12.487491 19.147927 -0.707512 2.281225 0.015085 -0.012766 579946.000000 1 0 0
-13.124863 11.555510 -9.148791 19.735558 -0.721897 2.052815 0.026304 -0.008880 775666.000000 1 0 0
-8.866663 14.666110 -3.270791 17.447366 -1.027025 1.759378 0.022529 -0.000126 860103.000000 1 0 0
-16.667063 8.403210 -4.055691 19.101141 -0.466987 1.784752 0.027807 0.005766 -1623580.000000 1 0 0
-17.003163 6.702510 0.318209 18.279291 -0.375489 1.553387 0.030538 -0.000681 216840.000000 1 0 0
-10.591963 2.800210 -12.637391 16.725266 -0.258458 2.427346 0.014478 -0.006807 912692.000000 1 0 0
-16.953363 0.980410 2.181509 17.121236 -0.057766 1.443034 0.022356 -0.007084 -166963.000000 1 0 0
-12.654863 1.262810 -7.071091 14.551309 -0.099459 2.078237 0.011162 -0.003220 2461090.000000 1 0 0
-12.319163 8.928310 -5.516291 16.183509 -0.627144 1.918627 0.019598 0.000755 -1119530.000000 1 0 0
-9.648063 13.972110 1.337409 17.032136 -0.966459 1.492193 0.020063 -0.003480 -610715.000000 1 0 0
-12.249963 11.080710 2.745609 16.744615 -0.735324 1.406083 0.011149 -0.006276 -1372420.000000 1 0 0
-12.658863 6.870810 -3.654791 14.859756 -0.497273 1.819298 0.010356 0.003486 34523.400000 1 0 0
-15.933763 3.741910 -9.357991 18.853612 -0.230662 2.090186 0.037129 -0.010902 -2112890.000000 1 0 0
-15.158563 5.915710 -4.706991 16.939110 -0.372078 1.852380 0.017347 0.004163 2037800.000000 1 0 0
-18.079563 5.150610 7.341909 20.181750 -0.277534 1.198463 0.036966 -0.012428 612149.000000 1 0 0
-15.804763 10.100610 -1.877491 18.850407 -0.568665 1.670561 0.033120 0.006019 -645643.000000 1 0 0
-8.816163 9.848510 -8.502691 15.716668 -0.840652 2.142420 0.011864 -0.004970 321303.000000 1 0 0
-17.072163 4.251610 -1.274091 17.639679 -0.244073 1.643088 0.014329 0.002481 1422410.000000 1 0 0
-10.278363 5.445610 -4.634191 12.520988 -0.487213 1.949928 0.003452 -0.000738 555868.000000 1 0 0
-18.297663 2.662010 5.853209 19.394609 -0.144470 1.264221 0.033275 -0.009283 -216533.000000 1 0 0
-10.333363 10.073910 -5.841191 15.568609 -0.772685 1.955398 0.011350 0.001513 894554.000000 1 0 0
-15.390363 0.460110 -6.009891 16.528574 -0.029887 1.942932 0.013485 -0.001889 173842.000000 1 0 0
-16.393263 -4.101090 -9.061291 19.174593 0.245138 2.062998 0.031043 -0.016945 -1215770.000000 1 0 0
-9.965963 9.648110 -1.099891 13.914605 -0.769194 1.649925 0.003967 0.005237 1714130.000000 1 0 0
-17.348663 -2.974690 -3.329891 17.914047 0.169814 1.757765 0.021729 -0.009348 -1057400.000000 1 0 0
-11.999663 5.095610 -11.505791 17.387938 -0.401571 2.293895 0.014462 -0.011781 165528.000000 1 0 0
-16.436363 7.009910 5.773009 18.778193 -0.403130 1.258304 0.032446 -0.007756 454458.000000 1 0 0
-12.218163 6.017010 -8.763391 16.195214 -0.457601 2.142553 0.013508 -0.003898 1617000.000000 1 0 0
-14.519863 8.278310 -0.022791 16.713987 -0.518172 1.572160 0.025094 0.000070 2111560.000000 1 0 0
-14.830763 11.754110 3.941009 19.329827 -0.670181 1.365474 0.018085 -0.014917 1214150.000000 1 0 0
-17.428863 4.175910 -4.077991 18.380248 -0.235164 1.794526 0.023733 -0.004061 2023230.000000 1 0 0
-13.852263 13.462510 -0.665891 19.327902 -0.771130 1.605255 0.038628 0.004443 1117430.000000 1 0 0
-10.053363 6.857510 -13.021791 17.823092 -0.598619 2.390016 -0.002078 -0.014813 1728640.000000 1 0 0
-15.934363 -1.134390 -8.466191 18.079468 0.071071 2.058136 0.022681 -0.009005 176097.000000 1 0 0
-11.469663 11.890710 0.026109 16.520982 -0.803420 1.569216 0.024978 0.000470 466370.000000 1 0 0
-11.993863 7.392710 -0.939091 14.120440 -0.552373 1.637351 0.007610 0.003723 2106330.000000 1 0 0
-11.477263 0.156910 -11.742191 16.420452 -0.013671 2.367557 0.012097 -0.008284 -302488.000000 1 0 0
-19.128463 -1.200590 -4.913191 19.785828 0.062682 1.821741 0.026279 -0.009560 314946.000000 1 0 0
-17.970163 1.530610 -5.213391 18.773625 -0.084970 1.852193 0.012927 -0.001294 -53756.500000 1 0 0
-13.308763 -0.153090 -9.524491 16.366507 0.011502 2.191921 0.014584 -0.010084 -631628.000000 1 0 0
-6.120763 11.084610 -13.215991 18.302862 -1.066277 2.377590 -0.003077 -0.010532 -73358.000000 1 0 0
16.451537 6.044110 7.108909 18.913511 0.352081 1.185467 0.043482 -0.010251 1129680.000000 1 0 0
14.922037 10.115410 -5.462091 18.836750 0.595728 1.864992 0.050702 -0.016327 1079760.000000 1 0 0
2.436437 16.971910 4.421109 17.706727 1.428213 1.318441 0.013811 -0.008533 2588570.000000 1 0 0
-3.844963 18.185610 -5.919491 19.507448 -1.362436 1.879105 0.016151 0.000843 2043050.000000 1 0 0
5.476537 14.497610 5.731109 16.523280 1.209613 1.216585 0.006008 -0.006826 -105467.000000 1 0 0
9.853137 6.155910 15.080409 19.036761 0.558431 0.656435 0.027731 -0.002863 -752014.000000 1 0 0
4.696037 12.739110 -1.128791 13.623944 1.217621 1.653745 0.000859 -0.004188 2255330.000000 1 0 0
3.486337 13.654410 13.031509 19.194210 1.320811 0.824493 0.003406 -0.005412 -31831.600000 1 0 0
-0.789863 12.386910 9.238309 15.472743 -1.507117 0.930953 -0.003906 0.001350 -583789.000000 1 0 0
-7.807363 13.964210 8.353509 18.048136 -1.060995 1.089593 0.010912 -0.013743 482048.000000 1 0 0
11.402837 12.767810 -4.131891 17.610059 0.841811 1.807637 0.027739 -0.006794 -1154480.000000 1 0 0
-5.741563 16.246010 0.990209 17.259169 -1.231084 1.513392 0.007330 0.001198 1216020.000000 1 0 0
3.176537 10.591910 6.726709 12.943244 1.279429 1.024287 -0.007343 0.008716 2804110.000000 1 0 0
-1.150963 15.478410 2.422309 15.709026 -1.496574 1.415980 0.008823 -0.006753 -969462.000000 1 0 0
9.712637 8.810110 9.603509 16.253638 0.736711 0.938681 0.009484 -0.009451 1227690.000000 1 0 0
7.258237 12.259710 6.406209 15.621204 1.036250 1.148236 0.001803 -0.002977 -778978.000000 1 0 0
11.808037 13.961110 -1.498191 18.346305 0.868757 1.652549 0.016111 -0.004958 -460030.000000 1 0 0
9.654337 15.946710 -1.122491 18.675218 1.026407 1.630938 0.002969 -0.000559 88953.200000 1 0 0
10.134437 13.676410 3.094909 17.301141 0.933070 1.390944 0.004476 -0.001558 1538480.000000 1 0 0
-6.015963 14.490010 6.232409 16.881799 -1.177273 1.192671 -0.002169 -0.011160 493181.000000 1 0 0
-0.940863 18.200210 -6.283291 19.277257 -1.519147 1.902806 0.029272 0.007352 -123948.000000 1 0 0
-3.562963 15.700410 5.396009 16.979827 -1.347641 1.247399 0.004309 -0.007164 2942420.000000 1 0 0
6.919637 12.334110 10.606709 17.678064 1.059535 0.927304 0.001147 -0.003509 3142590.000000 1 0 0
1.480637 14.599310 6.172809 15.919665 1.469724 1.172610 -0.000700 -0.002532 284649.000000 1 0 0
17.486537 7.735710 -1.310091 19.166025 0.416500 1.639205 0.028422 -0.004524 292079.000000 1 0 0
2.148937 16.201310 -3.285891 16.670257 1.438926 1.769207 0.007308 -0.005039 951630.000000 1 0 0
6.773637 11.246910 0.669709 13.146241 1.028712 1.519831 0.005045 -0.002077 2015400.000000 1 0 0
12.615337 9.286110 3.274609 16.003176 0.634544 1.364718 0.010517 -0.000290 -2650980.000000 1 0 0
6.056837 14.337610 -3.370791 15.925281 1.171093 1.784072 -0.005427 -0.000010 419763.000000 1 0 0
3.191037 16.494010 1.622209 16.877993 1.379691 1.474534 0.016807 -0.014684 -1238290.000000 1 0 0
2.813637 18.933010 -2.516091 19.305599 1.423266 1.701498 0.026315 -0.012266 -911641.000000 1 0 0
3.870737 11.999110 10.639009 16.496962 1.258750 0.869895 -0.002094 -0.002737 2305620.000000 1 0 0
8.015237 11.569010 3.509109 14.505167 0.964906 1.326451 -0.002695 0.000146 975024.000000 1 0 0
0.690837 12.565210 0.136909 12.584932 1.515872 1.559917 0.005354 -0.002535 -1310710.000000 1 0 0
12.068737 9.846410 -4.544491 16.225246 0.684338 1.854682 0.017660 -0.003080 -5567.350000 1 0 0
-1.256763 16.519010 9.793309 19.244897 -1.494863 1.036915 0.001910 -0.006046 135795.000000 1 0 0
8.087437 14.826310 -7.889691 18.640636 1.071431 2.007828 0.011632 -0.001207 1109260.000000 1 0 0
14.523237 7.696810 -1.256991 16.484699 0.487331 1.647122 0.013935 -0.001275 2350460.000000 1 0 0
12.446537 8.294810 6.072609 16.143009 0.587842 1.185131 0.009712 -0.006614 -1504560.000000 1 0 0
-3.024663 14.257010 10.246609 17.815834 -1.361743 0.958020 0.001216 -0.007408 3311970.000000 1 0 0
-4.600063 17.182210 -3.106391 18.056539 -1.309209 1.743693 0.019937 -0.003810 -637818.000000 1 0 0
-7.060063 16.438510 -1.685391 17.969687 -1.165135 1.664725 0.015116 -0.002033 74961.200000 1 0 0
8.339237 11.289010 -1.831491 14.154115 0.934564 1.700557 0.004163 -0.000911 -1380550.000000 1 0 0
8.587237 13.005310 -4.158691 16.129893 0.987223 1.831567 0.012310 0.001647 836634.000000 1 0 0
2.589037 14.857210 -7.311391 16.759960 1.398268 2.022214 0.001257 0.000723 -1405470.000000 1 0 0
11.189737 11.269810 9.818809 18.671579 0.788963 1.017060 0.017284 -0.012922 -168086.000000 1 0 0
8.555937 15.626110 1.537409 17.881359 1.069843 1.484712 0.001675 -0.003876 -165560.000000 1 0 0
5.985537 9.945210 7.775409 13.971072 1.029017 0.980585 0.001509 0.004478 3595160.000000 1 0 0
14.408037 11.340610 2.531909 18.509768 0.666827 1.433578 0.020978 -0.004422 770210.000000 1 0 0
12.064037 12.654810 1.196309 17.524736 0.809293 1.502479 0.009226 0.000124 2526710.000000 1 0 0
5.143937 15.940310 8.267409 18.678962 1.258646 1.112294 0.015482 -0.003773 -2426770.000000 1 0 0
11.567037 15.018710 5.173309 19.649965 0.914508 1.304383 0.015137 -0.002139 606569.000000 1 0 0
6.073237 16.892310 1.896109 18.050750 1.225660 1.465559 0.001836 -0.010862 470402.000000 1 0 0
-0.646463 16.141510 -4.201191 16.691803 -1.530768 1.825224 0.010291 0.000377 1172270.000000 1 0 0
16.024237 6.437610 2.604109 17.464260 0.382007 1.421127 0.005557 -0.000647 -491852.000000 1 0 0
7.654937 16.783510 -3.058291 18.698594 1.142882 1.735092 0.004758 -0.004562 -1248320.000000 1 0 0
14.808937 8.298610 7.598909 18.598789 0.510776 1.149909 0.037282 -0.011858 670190.000000 1 0 0
2.023437 12.927010 8.529709 15.619150 1.415528 0.993088 -0.002317 0.000803 755649.000000 1 0 0
15.995337 7.335110 -5.798391 18.527708 0.429964 1.889102 0.028393 -0.007608 -2084060.000000 1 0 0
-2.887263 17.084210 0.684709 17.339993 -1.403376 1.531299 0.009521 -0.003980 1538050.000000 1 0 0
-2.958163 18.503210 4.545709 19.281675 -1.412265 1.332803 0.016686 -0.016542 2150550.000000 1 0 0
-0.701563 19.082210 0.855509 19.114257 -1.534048 1.526024 0.022901 -0.011682 393522.000000 1 0 0
6.947637 16.845510 -5.911891 19.157018 1.179618 1.884519 0.011187 -0.006724 220750.000000 1 0 0
11.032437 10.070310 0.859209 14.962087 0.739837 1.513339 0.002002 -0.000283 -2277250.000000 1 0 0
9.005037 8.894610 14.311809 19.105828 0.779229 0.724123 0.028150 -0.008252 1220230.000000 1 0 0
6.357737 12.427910 -8.392091 16.288062 1.097936 2.112072 0.007806 -0.004643 182387.000000 1 0 0
6.256437 8.993010 13.398609 17.307223 0.962962 0.685405 0.011842 -0.007283 158536.000000 1 0 0
16.539737 9.451610 2.959909 19.278405 0.519161 1.416652 0.019583 -0.005852 -1286110.000000 1 0 0
2.597237 14.734110 -0.705891 14.977915 1.396315 1.617943 0.006302 -0.005381 669435.000000 1 0 0
9.087837 12.943410 8.451409 17.931731 0.958648 1.080020 0.010603 -0.006850 507488.000000 1 0 0
7.023537 9.321610 10.587909 15.758373 0.925079 0.834037 0.007140 -0.005829 813961.000000 1 0 0
4.372637 15.749710 -5.254391 17.169215 1.299984 1.881822 0.009833 -0.008378 59247.900000 1 0 0
0.273037 16.316710 -8.168591 18.249259 1.554064 2.034890 0.009371 0.002164 788424.000000 1 0 0
-2.374063 15.726210 -1.995191 16.029057 -1.420965 1.695593 0.007566 -0.001440 409938.000000 1 0 0
13.078837 10.456510 7.734909 18.445146 0.674435 1.138071 0.025400 -0.014507 1707130.000000 1 0 0
-1.037463 15.919110 6.973809 17.410584 -1.505717 1.158679 0.006898 -0.007005 3106250.000000 1 0 0
13.225237 13.298910 6.839909 19.963774 0.788176 1.221096 0.026168 -0.011660 -640254.000000 1 0 0
5.452337 17.351310 4.645509 18.771699 1.266334 1.320724 0.012129 -0.012583 621208.000000 1 0 0
10.736037 9.477510 -1.853891 14.440311 0.723217 1.699535 0.004715 0.001522 1336840.000000 1 0 0
3.212037 12.743710 4.661309 13.944430 1.323890 1.229958 -0.001592 0.002890 1864570.000000 1 0 0
-0.157363 18.048810 3.558309 18.396899 -1.562078 1.376151 0.015888 -0.014360 3333570.000000 1 0 0
-7.767363 15.926910 -5.662291 18.602686 -1.117047 1.880084 0.038644 -0.007781 -999323.000000 1 0 0
-12.443463 -9.177990 8.228509 17.515240 0.635502 1.081742 0.022117 -0.004183 -261048.000000 1 0 0
-13.382463 -11.715890 6.724009 19.014855 0.719094 1.209359 0.039659 -0.007242 -711093.000000 1 0 0
-6.612563 -12.236090 12.266909 18.545214 1.075342 0.848033 0.029294 -0.011163 335480.000000 1 0 0
-1.834863 -10.714390 14.376309 18.023405 1.401189 0.647413 0.001199 -0.009685 435746.000000 1 0 0
-8.918063 2.836910 10.912709 14.375922 -0.307986 0.708873 0.002291 0.000410 760120.000000 1 0 0
0.509737 9.924910 15.161809 18.128545 1.519482 0.580205 -0.005808 -0.009706 -335493.000000 1 0 0
0.971737 -6.713590 16.540209 17.877222 -1.427053 0.389204 0.002983 -0.015373 1754080.000000 1 0 0
6.097737 2.302210 17.908209 19.057453 0.361006 0.349056 0.015324 0.003130 2367980.000000 1 0 0
-5.136963 -2.976390 17.537209 18.514886 0.525140 0.326424 0.011922 -0.013915 421821.000000 1 0 0
-4.461663 8.170010 13.088609 16.061357 -1.070950 0.618217 0.003780 -0.000624 1782140.000000 1 0 0
-0.056863 -4.978390 18.614309 19.268630 1.559375 0.261349 0.012615 -0.020109 -81862.900000 1 0 0
-11.774563 2.037110 11.029709 16.261754 -0.171314 0.825403 0.010627 0.000565 2677650.000000 1 0 0
-3.375263 -6.118990 14.295809 15.912404 1.066722 0.454669 0.008968 -0.010018 1849970.000000 1 0 0
-7.489263 -2.373690 14.479309 16.473429 0.306930 0.497142 0.008223 -0.003372 451768.000000 1 0 0
-6.205063 -1.162590 10.584609 12.324300 0.185214 0.537794 0.004066 -0.000590 170364.000000 1 0 0
-4.075063 2.391210 11.120909 12.082990 -0.530650 0.401752 0.004259 0.001835 469519.000000 1 0 0
-6.488363 6.219110 13.600209 16.301592 -0.764213 0.583958 0.000459 -0.001070 840822.000000 1 0 0
-9.080363 5.433310 12.501509 16.378693 -0.539211 0.702423 0.003945 -0.002092 -654940.000000 1 0 0
-12.232163 -2.272090 15.786009 20.099411 0.183654 0.667460 0.008547 0.003439 1324060.000000 1 0 0
-3.487463 -7.600890 16.878509 18.836666 1.140629 0.460016 0.011944 -0.011358 -1843650.000000 1 0 0
-0.546563 -5.409690 14.436109 15.426105 1.470104 0.360209 0.000461 -0.006026 767425.000000 1 0 0
-14.219863 -2.265290 13.660109 19.847787 0.157977 0.811731 0.005372 0.004406 -558249.000000 1 0 0
-6.633463 1.433910 12.134809 13.903688 -0.212888 0.509935 0.003426 0.000404 1224070.000000 1 0 0
2.168537 -2.320490 14.618109 14.959156 -0.819235 0.213942 0.003463 -0.002543 1069440.000000 1 0 0
-12.641563 3.921210 9.063909 16.041804 -0.300774 0.970341 0.007360 -0.001769 -690584.000000 1 0 0
-9.141563 -3.128290 12.507109 15.804498 0.329714 0.657760 0.004432 0.001798 669858.000000 1 0 0
-7.156463 -7.247090 15.315309 18.392770 0.791690 0.586865 0.017155 -0.007776 -958722.000000 1 0 0
-3.235963 6.015010 19.467809 20.631224 -1.077227 0.337429 0.024071 -0.014939 924378.000000 1 0 0
0.577837 5.329210 16.104409 16.973107 1.462790 0.321321 0.008627 -0.012259 -370012.000000 1 0 0
3.446737 1.450910 16.778309 17.190020 0.398437 0.219303 0.009671 -0.005131 1605900.000000 1 0 0
-11.699863 11.328510 7.802509 18.058270 -0.769274 1.124005 0.006485 -0.012336 -1213270.000000 1 0 0
0.610937 -9.414190 15.365109 18.030163 -1.505992 0.550641 -0.010299 -0.004923 1297800.000000 1 0 0
-2.592063 -3.625690 18.865809 19.385128 0.950130 0.231991 0.016311 -0.019638 893696.000000 1 0 0
-12.965163 2.321610 13.596009 18.929786 -0.177187 0.769536 0.010269 -0.006340 593488.000000 1 0 0
-5.438763 -0.641490 15.624009 16.556006 0.117405 0.337134 0.010623 -0.003373 2159450.000000 1 0 0
-4.550763 -6.001390 11.625509 13.852025 0.922014 0.574868 0.005046 -0.004634 213037.000000 1 0 0
2.396537 1.782910 13.995609 14.310808 0.639620 0.210269 0.002046 -0.003022 854491.000000 1 0 0
-0.047963 3.177510 14.298809 14.647690 -1.555703 0.218693 0.008789 -0.006058 795386.000000 1 0 0
-13.094863 7.010210 12.229409 19.239983 -0.491519 0.881979 0.013626 -0.000413 1165280.000000 1 0 0
0.895937 1.435510 18.173409 18.252019 1.012827 0.092844 0.019481 -0.008630 666284.000000 1 0 0
-2.113863 6.396210 12.439009 14.145985 -1.251610 0.496340 -0.001869 -0.000761 464934.000000 1 0 0
-13.547363 -2.716290 10.821009 17.550029 0.197879 0.906404 0.011063 -0.000882 -808241.000000 1 0 0
-2.667463 3.601610 13.477809 14.203461 -0.933319 0.321032 0.006735 -0.002538 -207204.000000 1 0 0
3.345837 6.094010 16.271409 17.694359 1.068693 0.403782 0.004680 -0.009446 51467.900000 1 0 0
-3.723863 12.425810 12.341109 17.904494 -1.279626 0.810309 0.001031 -0.002967 -166861.000000 1 0 0
3.741337 -1.496490 17.076009 17.545004 -0.380496 0.231737 0.018362 -0.006795 482858.000000 1 0 0
-15.885963 0.396210 9.079109 18.301668 -0.024936 1.051717 0.014551 -0.001273 364034.000000 1 0 0
-4.792763 4.556510 15.221809 16.596260 -0.760134 0.409844 0.011863 -0.005765 1109500.000000 1 0 0
-7.968163 -8.265290 10.359309 15.463568 0.803699 0.836699 0.014925 -0.010144 3393200.000000 1 0 0
-2.645763 -0.524990 14.689109 14.934712 0.195882 0.181606 0.009460 -0.003625 196007.000000 1 0 0
-1.843963 0.968010 17.116709 17.242940 -0.483417 0.121076 0.014236 -0.010651 715165.000000 1 0 0
-0.782663 -2.553790 14.339509 14.586155 1.273413 0.184160 0.008743 -0.004724 209432.000000 1 0 0
4.973337 -8.229590 16.472309 19.073468 -1.027204 0.528381 0.010181 -0.009176 -969441.000000 1 0 0
-4.544363 9.988910 10.690409 15.320392 -1.143841 0.798489 0.001390 -0.001610 -613129.000000 1 0 0
-6.406563 2.060310 15.133309 16.562185 -0.311148 0.418433 0.016892 -0.002170 288838.000000 1 0 0
-5.033463 6.813310 17.315509 19.276509 -0.934522 0.454980 0.022239 -0.003430 -1912830.000000 1 0 0
-3.974263 9.080410 15.758509 18.616639 -1.158239 0.561468 0.007264 -0.004108 -790009.000000 1 0 0
-4.545563 -9.818290 18.436009 21.376328 1.137210 0.530706 0.027097 -0.013827 -1961300.000000 1 0 0
-6.918963 -4.144690 11.059509 13.688070 0.539708 0.630103 0.006746 -0.000197 718114.000000 1 0 0
-2.439663 -0.797090 19.433109 19.601863 0.315788 0.131312 0.021692 -0.016786 205922.000000 1 0 0
-5.739163 -4.590590 15.191709 16.876005 0.674662 0.450577 0.010032 -0.010188 1915990.000000 1 0 0
-12.982263 -0.040890 9.610909 16.152722 0.003150 0.933528 0.002289 0.001522 1495680.000000 1 0 0
-14.453163 8.870310 10.444809 19.916586 -0.550452 1.018753 0.009577 -0.003774 -2608260.000000 1 0 0
-8.408563 10.482310 12.836409 18.583761 -0.894735 0.808295 0.009638 -0.011901 -1430250.000000 1 0 0
-10.517763 7.119010 10.745009 16.636072 -0.595024 0.868613 0.007713 -0.002099 350035.000000 1 0 0
-9.897763 -6.666690 14.795609 19.008433 0.592756 0.678730 0.023149 -0.007599 -1772040.000000 1 0 0
-0.715563 -13.531390 14.602709 19.921086 1.517964 0.748034 0.000915 -0.010263 569629.000000 1 0 0
3.772437 -5.639890 17.017009 18.319886 -0.981260 0.379414 0.021529 -0.012307 1804300.000000 1 0 0
-7.349963 9.281510 10.392409 15.753430 -0.901018 0.850388 0.000430 -0.004630 413618.000000 1 0 0
-10.301763 -6.824490 11.781909 17.073763 0.585084 0.809225 0.016849 -0.009552 1741920.000000 1 0 0
-10.995563 -4.104990 10.618909 15.827653 0.357307 0.835363 0.008107 0.000543 -432960.000000 1 0 0
-10.108163 -10.339290 9.714409 17.419691 0.796701 0.979222 0.025044 -0.005765 1017370.000000 1 0 0
-9.859463 -3.713690 15.198209 18.492866 0.360227 0.606160 0.014291 -0.011754 598892.000000 1 0 0
5.634837 -3.381690 16.119409 17.407543 -0.540522 0.387117 0.015726 -0.004903 -269858.000000 1 0 0
-11.403763 0.542210 15.292309 19.083882 -0.047511 0.641297 0.016641 -0.001936 -340820.000000 1 0 0
-3.087763 3.197610 18.707009 19.227875 -0.802873 0.233291 0.017147 -0.016497 1694410.000000 1 0 0
0.406937 7.261110 13.889109 15.677904 1.514812 0.482358 -0.002469 -0.007583 -285934.000000 1 0 0
-13.100763 -7.429390 12.160309 19.357142 0.515874 0.891549 0.023028 -0.007289 -588570.000000 1 0 0
-1.561263 -1.125390 12.052709 12.205402 0.624563 0.158344 0.007659 -0.001926 1712320.000000 1 0 0
1.998137 -4.868790 13.087909 14.106418 -1.181359 0.382329 -0.003817 -0.003611 1105030.000000 1 0 0
-14.760163 -4.106190 8.583109 17.561121 0.271333 1.060133 0.021682 -0.007379 -2096140.000000 1 0 0
8.106737 1.076610 16.086109 18.045531 0.132032 0.470332 0.020124 -0.002890 847588.000000 1 0 0
-1.267863 11.315110 13.469809 17.637317 -1.459211 0.701754 -0.005379 -0.001327 1934410.000000 1 0 0
2.919437 -12.282090 -13.699591 18.629322 -1.337428 2.397020 0.005167 -0.000782 -672660.000000 1 0 0
0.912137 -10.667990 -14.005691 17.629446 -1.485502 2.488896 0.003867 -0.001571 -2217230.000000 1 0 0
3.213637 -14.477090 -12.274091 19.250114 -1.352357 2.262190 0.009512 -0.002037 -788990.000000 1 0 0
-5.186963 -10.305790 -16.293391 19.964681 1.104508 2.525445 0.020449 -0.006675 156331.000000 1 0 0
-0.929963 -12.214090 -15.139691 19.474575 1.494804 2.461331 0.016368 -0.002869 -310947.000000 1 0 0
5.692937 -15.018790 -12.275591 20.215432 -1.208476 2.223377 0.015202 -0.001414 145789.000000 1 0 0
2.032837 -11.946590 -16.007691 20.077340 -1.402250 2.493607 0.015466 -0.004029 -814173.000000 1 0 0
1.368037 -14.407290 -14.056291 20.174757 -1.476126 2.341620 0.019199 0.005391 -343814.000000 1 0 0
-0.957763 -10.739090 -15.950591 19.252706 1.481847 2.547194 0.012328 -0.010735 -268637.000000 1 0 0
-5.888363 -5.680390 -15.038791 17.120306 0.767423 2.643339 0.020321 -0.002313 -205979.000000 1 0 0
-6.363263 -7.714890 -16.692991 19.459357 0.881114 2.601846 0.023672 0.003239 532511.000000 1 0 0
5.118637 -12.601890 -11.583491 17.865758 -1.184974 2.276228 0.004938 0.003897 -66819.900000 1 0 0
-1.826963 -15.564490 -13.253391 20.524217 1.453951 2.272794 0.025771 0.001646 -25673.300000 1 0 0
15.717437 -7.391890 -8.904591 19.518442 -0.439605 2.044533 0.028248 0.005976 225592.000000 1 0 0
19.232137 -3.425690 -4.156591 19.972172 -0.176274 1.780448 0.056781 -0.011640 111560.000000 1 0 0
14.796237 -11.771290 -8.709691 20.817074 -0.672028 2.002470 0.023476 -0.003312 -6470.700000 1 0 0
17.889837 -3.517290 -6.385191 19.318081 -0.194132 1.907661 0.066698 -0.008353 702645.000000 1 0 0
9.619337 -9.183990 -15.412891 20.357664 -0.762250 2.429667 0.031757 -0.010986 97263.900000 1 0 0
1.297437 1.834110 -15.222091 15.386986 0.955126 2.995061 0.011230 -0.003978 3889.370000 1 0 0
4.873837 -4.397990 -13.842891 15.320647 -0.734121 2.698768 0.005281 -0.005816 862570.000000 1 0 0
13.210337 -5.434990 -8.614091 16.680967 -0.390312 2.113441 0.020441 -0.002714 -1857340.000000 1 0 0
2.939237 0.945910 -12.185891 12.570990 0.311355 2.893433 0.003628 -0.007908 -3834530.000000 1 0 0
0.518437 6.303810 -12.856391 14.328070 1.488739 2.684381 0.010929 -0.009209 -441267.000000 1 0 0
3.188837 -1.078490 -16.706791 17.042555 -0.326131 2.942763 0.010881 -0.006983 -90504.100000 1 0 0
13.225737 4.443310 -11.445691 18.046245 0.324112 2.257824 -0.003223 -0.001965 494127.000000 1 0 0
-3.916963 9.323610 -16.533891 19.381482 -1.173073 2.592650 0.006573 -0.002262 -778841.000000 1 0 0
-0.179563 -5.015390 -17.678791 18.377323 1.535009 2.864992 0.016247 -0.012012 870522.000000 1 0 0
-0.428363 -8.810590 -17.639491 19.722110 1.522215 2.677888 0.019557 -0.006777 -246827.000000 1 0 0
5.583137 -10.194590 -12.247391 16.884894 -1.069754 2.382333 0.002647 -0.002012 688316.000000 1 0 0
1.922737 -9.737990 -18.077991 20.623751 -1.375857 2.639467 0.023287 -0.012688 -784482.000000 1 0 0
11.231137 8.672110 -14.310391 20.152697 0.657526 2.360434 0.048673 -0.025469 -308169.000000 1 0 0
11.137037 -3.775690 -12.871591 17.434657 -0.326861 2.401307 0.016703 -0.006600 3885.380000 1 0 0
4.917937 7.509610 -12.223491 15.165555 0.990994 2.508165 0.004315 -0.004367 212196.000000 1 0 0
9.780537 -5.933590 -12.548691 16.980460 -0.545312 2.402393 0.017361 -0.003311 -968271.000000 1 0 0
-3.334863 0.244910 -15.954591 16.301235 -0.073308 2.934998 0.016762 -0.006355 -1395720.000000 1 0 0
-0.742563 10.705910 -12.805891 16.708045 -1.501547 2.444093 0.006297 -0.006276 -2659390.000000 1 0 0
6.708837 -5.504390 -12.278091 15.035235 -0.687098 2.526329 0.004917 -0.002938 -256345.000000 1 0 0
17.920237 -6.200190 -8.106291 20.622541 -0.333096 1.974774 0.053728 -0.009256 940473.000000 1 0 0
13.139137 4.791810 -14.073491 19.840905 0.349708 2.359325 0.005459 -0.004859 277237.000000 1 0 0
14.212037 0.932810 -11.354191 18.214548 0.065541 2.243827 0.012471 -0.003195 -783491.000000 1 0 0
15.214237 6.100310 -10.886791 19.677627 0.381334 2.157066 0.019512 -0.018272 465432.000000 1 0 0
8.195537 1.485910 -11.677291 14.343426 0.179359 2.522011 -0.001123 0.001356 947535.000000 1 0 0
9.914537 1.291410 -8.882491 13.374020 0.129525 2.297166 0.001686 -0.002550 335282.000000 1 0 0
-0.029463 -5.781990 -13.064391 14.286727 1.565701 2.724925 0.003940 -0.003403 -60990.200000 1 0 0
10.706337 -5.731090 -8.996391 15.113109 -0.491486 2.208399 0.015735 -0.004881 -993654.000000 1 0 0
10.328637 8.461110 -11.158091 17.400405 0.686333 2.266929 0.017045 -0.012053 654692.000000 1 0 0
8.602437 8.119610 -14.626391 18.811201 0.756533 2.461535 0.031464 -0.009450 1091340.000000 1 0 0
8.678037 10.540010 -10.789591 17.401592 0.881983 2.239583 0.019582 -0.009871 -3052080.000000 1 0 0
6.891637 2.035510 -17.802591 19.198182 0.287194 2.757947 0.023839 -0.001776 -1863420.000000 1 0 0
12.086737 2.637410 -12.829491 17.822485 0.214839 2.374381 0.003270 -0.004307 -1361690.000000 1 0 0
2.771137 -0.757590 -19.156391 19.370608 -0.266865 2.992735 0.030511 -0.019332 -215101.000000 1 0 0
10.362737 -2.094990 -15.344491 18.634073 -0.199477 2.538286 0.027489 -0.012702 721991.000000 1 0 0
8.288837 -0.925190 -12.957191 15.409399 -0.111159 2.569672 0.005848 -0.002288 190155.000000 1 0 0
0.662937 4.336810 -14.621691 15.265689 1.419108 2.850093 0.010793 -0.004875 -1205090.000000 1 0 0
4.060337 -7.737790 -15.751191 18.012766 -1.087552 2.635089 0.009110 -0.010263 -329887.000000 1 0 0
11.528337 -5.789890 -14.508091 19.414172 -0.465431 2.414776 0.029412 -0.003387 -440263.000000 1 0 0
-5.872663 4.260110 -16.897091 18.388812 -0.627579 2.736026 0.002643 -0.003345 449992.000000 1 0 0
11.423437 7.801510 -8.999991 16.503281 0.599184 2.147598 0.012335 -0.007199 -688489.000000 1 0 0
9.679637 6.231410 -13.388791 17.657450 0.571980 2.431424 0.021273 -0.002803 -512460.000000 1 0 0
12.113037 0.680410 -9.982091 15.710848 0.056113 2.259275 0.007250 -0.000772 9493.170000 1 0 0
5.533137 -7.244390 -13.694491 16.451014 -0.918533 2.554294 0.003438 -0.003081 -266418.000000 1 0 0
8.646037 -10.152990 -10.620191 17.047745 -0.865388 2.243327 0.009829 0.000756 99298.500000 1 0 0
10.251137 4.736110 -15.933291 19.529114 0.432795 2.525035 0.035431 -0.003352 -1533120.000000 1 0 0
9.842337 -0.311890 -10.887691 14.680282 -0.031678 2.406329 0.002806 -0.001801 -367227.000000 1 0 0
-1.676363 5.320210 -13.992191 15.063075 -1.265550 2.762246 0.007128 -0.007468 1072340.000000 1 0 0
1.398837 -0.750690 -14.860991 14.945545 -0.492538 3.035170 0.007544 -0.006326 -1588810.000000 1 0 0
11.577637 -10.465190 -14.122091 21.047454 -0.734973 2.306305 0.049403 -0.008510 592699.000000 1 0 0
9.559337 -7.761790 -10.820391 16.392289 -0.681991 2.291735 0.011865 -0.000054 -204378.000000 1 0 0
14.035137 -0.938190 -9.650191 17.058471 -0.066746 2.172093 0.013757 -0.000825 752300.000000 1 0 0
4.059037 11.056110 -12.280291 17.015255 1.218943 2.377084 0.008049 -0.012602 529884.000000 1 0 0
-1.188563 2.883310 -16.807191 17.094087 -1.179799 2.958123 0.011771 -0.006151 287066.000000 1 0 0
5.993037 -0.304090 -17.590991 18.586337 -0.050697 2.812845 0.010271 -0.000699 -110549.000000 1 0 0
6.386437 -6.434690 -16.022891 18.409911 -0.789162 2.626690 0.007790 -0.006714 240713.000000 1 0 0
-1.759963 -5.246590 -19.672491 20.436024 1.247143 2.867377 0.027874 -0.021224 -645891.000000 1 0 0
0.027037 -4.349690 -15.269791 15.877249 -1.564581 2.864082 0.004955 -0.007929 133991.000000 1 0 0
0.514537 0.801110 -12.912091 12.947147 0.999868 3.067988 0.006993 -0.010539 -125708.000000 1 0 0
15.625737 0.640110 -13.442491 20.622171 0.040942 2.280813 0.034087 -0.018266 689090.000000 1 0 0
-0.125263 6.985210 -16.298191 17.732453 -1.552866 2.736629 0.008675 0.002269 -330701.000000 1 0 0
-4.872063 -0.511590 -18.361491 19.003765 0.104621 2.880866 0.010534 -0.001539 -486168.000000 1 0 0
10.443737 -8.344590 -13.114391 18.726747 -0.674133 2.346618 0.013090 -0.007969 -170570.000000 1 0 0
4.043637 8.535110 -17.279291 19.691952 1.128356 2.641378 0.020458 -0.012249 -341870.000000 1 0 0
9.006637 0.770110 -16.892091 19.158687 0.085297 2.650236 0.013602 -0.003053 -739792.000000 1 0 0
3.286837 4.881210 -18.596291 19.505167 0.978171 2.835119 0.022248 0.000178 -113750.000000 1 0 0
1.463237 -8.277890 -15.906791 17.991401 -1.395839 2.655431 0.005047 -0.011947 127755.000000 1 0 0
4.475137 7.769510 -14.889191 17.380453 1.048221 2.599562 0.014167 -0.004425 663986.000000 1 0 0
-5.682463 -0.418590 -15.195291 16.228446 0.073531 2.782844 0.014081 -0.006089 -602589.000000 1 0 0
2.928137 3.303610 -13.766191 14.456688 0.845577 2.831276 0.005907 -0.004373 655925.000000 1 0 0
-2.463663 -10.349090 -17.930691 20.849052 1.337090 2.606114 0.033090 -0.016062 -634276.000000 1 0 0
6.329537 -8.972290 -15.390491 18.905878 -0.956419 2.521903 0.002759 -0.011445 -282021.000000 1 0 0
-1.866263 5.394310 -17.228791 18.149731 -1.237717 2.821667 0.007019 -0.003850 432377.000000 1 0 0
10.149537 -12.097790 -11.435991 19.497474 -0.872748 2.197573 0.034656 -0.008152 -1041790.000000 1 0 0
10.877137 3.650010 -9.335291 14.791292 0.323760 2.253811 0.001525 -0.001615 -395337.000000 1 0 0
4.689137 -0.507390 -10.864691 11.844279 -0.107786 2.732028 0.006412 -0.007413 868810.000000 1 0 0
6.418837 9.555110 -11.400891 16.201293 0.979269 2.351392 0.010226 -0.010594 89706.400000 1 0 0
10.924337 -9.564390 -9.337291 17.262783 -0.719120 2.142293 0.025923 -0.001720 347064.000000 1 0 0
3.283437 -2.417590 -14.370591 14.937857 -0.634674 2.865122 0.007275 -0.006934 -149323.000000 1 0 0
9.336137 -4.353890 -14.550191 17.827727 -0.436366 2.525522 0.019833 -0.011158 -46341.200000 1 0 0
-3.968663 -6.623790 -16.517391 18.233186 1.031000 2.704290 0.009240 -0.004560 -1477050.000000 1 0 0
5.975637 -7.893190 -11.219591 14.962951 -0.922791 2.418593 0.004819 -0.001020 613974.000000 1 0 0
5.454537 6.502010 -16.922591 18.931513 0.872782 2.676734 0.028315 -0.006132 -1217900.000000 1 0 0
8.944137 1.412010 -19.415391 21.423089 0.156578 2.705203 0.032870 -0.009631 669540.000000 1 0 0
13.111337 5.724510 -9.297291 17.062145 0.411661 2.147075 -0.001115 -0.006156 324002.000000 1 0 0
-1.541463 -0.791290 -17.363091 17.449331 0.474260 3.042130 0.015318 -0.007951 -159479.000000 1 0 0
-0.400363 -0.507590 -19.583491 19.594158 0.902950 3.108593 0.025063 -0.014183 -153919.000000 1 0 0
2.818437 6.395510 -16.404091 17.830881 1.155712 2.738831 0.012803 -0.004397 -628479.000000 1 0 0
7.882237 3.914310 -15.439191 17.771328 0.460923 2.623509 0.020784 -0.002245 -203085.000000 1 0 0
3.205537 -9.956690 -14.852291 18.165948 -1.259327 2.528009 0.007204 -0.005804 -27641.300000 1 0 0
9.152837 -10.631590 -13.239591 19.289683 -0.860003 2.327263 0.023181 -0.005111 313655.000000 1 0 0
3.841837 0.123810 -14.724891 15.218326 0.032216 2.886248 0.005132 -0.002547 -2045430.000000 1 0 0
-1.050563 -2.810590 -19.000191 19.235653 1.213089 2.984966 0.024375 -0.006990 452867.000000 1 0 0
9.391137 10.106310 -13.108391 19.030524 0.822062 2.330641 0.033010 -0.018188 560775.000000 1 0 0
4.489437 2.025110 -10.537991 11.632083 0.423755 2.704395 0.002681 -0.003149 -308365.000000 1 0 0
-0.572563 7.080110 -18.889791 20.181179 -1.490103 2.781915 0.014722 0.000802 186663.000000 1 0 0
0.883337 -1.821290 -17.554691 17.671009 -1.119216 3.026792 0.020397 -0.012856 -822509.000000 1 0 0
-4.388663 -2.317990 -14.168791 15.012930 0.485934 2.804658 0.015326 -0.007172 -4715530.000000 1 0 0
10.023837 6.044610 -10.322291 15.606547 0.542640 2.293490 0.005370 -0.000713 64115.400000 1 0 0
8.304337 5.743510 -17.272791 20.007479 0.605085 2.612602 0.040210 -0.013976 -605339.000000 1 0 0
11.325437 0.246410 -13.363291 17.518669 0.021754 2.438433 0.007270 -0.001099 126093.000000 1 0 0
6.876037 12.121710 -11.735891 18.219409 1.054806 2.270698 0.019652 -0.017187 -147703.000000 1 0 0
-0.904963 0.492110 -15.062991 15.098173 -0.498063 3.073312 0.010415 -0.006452 694976.000000 1 0 0
-4.477063 -2.954590 -19.090691 19.829982 0.583331 2.867675 0.020960 0.001134 218141.000000 1 0 0
5.935437 -12.084590 -14.036991 19.450034 -1.114248 2.377044 0.008404 -0.000921 182850.000000 1 0 0
2.182037 -4.760090 -14.001691 14.948815 -1.140977 2.783714 0.004346 -0.004484 326970.000000 1 0 0
11.796737 1.919610 -15.311491 19.423945 0.161310 2.478804 0.030403 -0.005858 524087.000000 1 0 0
9.698937 2.266710 -13.754291 16.981986 0.229586 2.514836 0.013298 -0.001340 -579482.000000 1 0 0
-2.298263 -4.167590 -16.434291 17.109551 1.066832 2.859709 0.010460 -0.008624 -819072.000000 1 0 0
-2.795263 10.063410 -14.337291 17.738197 -1.299861 2.512008 0.005352 -0.005647 130860.000000 1 0 0
3.524437 5.740710 -13.602091 15.178744 1.020192 2.681762 0.008167 -0.005188 243586.000000 1 0 0
-5.107963 -2.544790 -16.597191 17.550897 0.462207 2.810416 0.016903 -0.003526 283183.000000 1 0 0
-4.296563 6.109910 -13.651691 15.561495 -0.957918 2.640949 0.001842 -0.008069 370208.000000 1 0 0
5.954137 -1.127290 -14.034591 15.286996 -0.187114 2.733990 0.005634 -0.001431 -2249990.000000 1 0 0
6.806837 -2.947790 -12.504891 14.539422 -0.408680 2.606199 0.005491 -0.005880 1008580.000000 1 0 0
3.019137 -3.163790 -18.218391 18.735915 -0.808789 2.906008 0.024948 -0.017809 -172706.000000 1 0 0
7.567237 -12.072990 -12.031791 18.648971 -1.010910 2.272044 0.017174 -0.000107 101672.000000 1 0 0
-5.932563 -5.460790 -17.615891 19.373568 0.744014 2.712334 0.033459 -0.003819 546693.000000 1 0 0
0.583137 8.638210 -11.903591 14.719178 1.503392 2.512757 0.007677 -0.006741 -1745.830000 1 0 0
0.266337 8.560410 -14.405691 16.759340 1.539694 2.605208 0.003043 -0.000785 -345699.000000 1 0 0
7.699437 -2.519890 -15.009491 17.056259 -0.316295 2.646656 0.008735 -0.010486 -300575.000000 1 0 0
14.388337 1.483910 -8.828191 16.945889 0.102770 2.118776 0.010188 0.001388 799313.000000 1 0 0
2.820237 10.546410 -14.527091 18.171870 1.309498 2.497138 0.008467 -0.009071 -292223.000000 1 0 0
6.102437 1.112910 -15.409691 16.611348 0.180389 2.758895 0.011391 0.000066 463075.000000 1 0 0
16.815537 -5.423290 -10.221691 20.412185 -0.311984 2.095278 0.073413 -0.012051 538336.000000 1 0 0
4.934337 -4.347990 -11.166091 12.958946 -0.722314 2.609311 0.005037 -0.003004 -287350.000000 1 0 0
8.949737 -3.639390 -16.995291 19.549497 -0.386224 2.624675 0.014974 -0.011289 506233.000000 1 0 0
13.449337 -9.577990 -8.705591 18.665740 -0.618836 2.056006 0.036395 -0.002711 -818200.000000 1 0 0
2.466537 -7.742490 -13.621191 15.860857 -1.262390 2.603705 0.005533 -0.003419 188213.000000 1 0 0
-6.907263 -2.180690 -18.387591 19.762823 0.305806 2.766335 0.028285 -0.006768 918753.000000 1 0 0
-1.430963 -6.437490 -15.693291 17.022582 1.352067 2.743779 0.009947 -0.009066 349047.000000 1 0 0
1.587537 -7.187490 -18.271291 19.698232 -1.353412 2.758625 0.024840 -0.020811 -83610.900000 1 0 0
5.414837 10.895910 -14.439291 18.882119 1.109583 2.441383 0.021228 -0.024813 -870854.000000 1 0 0
5.461737 -3.361990 -17.249891 18.403594 -0.551777 2.785629 0.018040 -0.012501 -1223820.000000 1 0 0
3.936837 12.984310 -14.064191 19.542069 1.276407 2.374149 0.010347 -0.014843 -33129.700000 1 0 0
9.557837 10.204710 -15.691891 21.017226 0.818119 2.413764 0.052170 -0.029262 313381.000000 1 0 0
2.527237 3.831310 -16.288191 16.922500 0.987683 2.866930 0.017469 -0.003459 136939.000000 1 0 0
16.642737 1.889210 -11.470391 20.300731 0.113032 2.171258 0.037064 -0.007457 788930.000000 1 0 0
10.110937 -3.681390 -10.504891 15.037832 -0.349180 2.344185 0.015809 -0.004622 -109817.000000 1 0 0
14.705637 -2.035790 -11.915491 19.036258 -0.137562 2.247128 0.045252 -0.008814 151905.000000 1 0 0
-2.564263 -8.716990 -15.936591 18.344925 1.284698 2.623407 0.010421 -0.004154 90335.300000 1 0 0
14.052337 8.193010 -8.876091 18.530477 0.527852 2.070311 0.028696 -0.009715 1004670.000000 1 0 0
-8.394163 -0.047590 -16.568391 18.573525 0.005669 2.672643 0.018254 -0.007978 -704005.000000 1 0 0
-3.491063 3.850810 -15.950991 16.776483 -0.834358 2.826587 0.005626 -0.005326 -786897.000000 1 0 0
15.099437 3.954010 -9.661191 18.356628 0.256114 2.125046 0.006535 -0.003554 958177.000000 1 0 0
5.333337 1.067010 -12.823491 13.929282 0.197457 2.740446 0.005826 -0.002208 -263322.000000 1 0 0
7.921637 -7.644190 -12.889391 16.950586 -0.767576 2.434740 0.008998 -0.002501 -3756730.000000 1 0 0
3.273537 -6.130390 -11.819991 13.711670 -1.080332 2.610075 0.003889 -0.002378 -813686.000000 1 0 0
-3.047363 3.587410 -18.535991 19.124301 -0.866616 2.892910 0.003496 -0.001331 -108713.000000 1 0 0
0.840537 5.176110 -17.673191 18.434758 1.409814 2.853152 0.017112 -0.009076 943078.000000 1 0 0
6.346037 7.126010 -10.237091 13.994650 0.843229 2.391316 0.002362 -0.001588 422101.000000 1 0 0
9.760337 3.662010 -11.575291 15.577607 0.358940 2.408446 0.010727 -0.001337 -141187.000000 1 0 0
4.441737 1.810510 -17.433291 18.081112 0.387052 2.873098 0.016850 -0.000745 -619911.000000 1 0 0
2.519137 7.959510 -13.189291 15.609524 1.264277 2.577271 0.007950 -0.006313 -1011630.000000 1 0 0
14.532937 -3.480890 -9.729491 17.832157 -0.235089 2.147919 0.032486 -0.003683 424498.000000 1 0 0
-1.345263 9.247510 -16.349291 18.831503 -1.426337 2.622336 0.003611 0.002718 -1968760.000000 1 0 0
-5.300363 1.987310 -15.823891 16.805915 -0.358717 2.798048 0.010113 -0.006954 799873.000000 1 0 0
4.605137 4.154210 -11.894091 13.413953 0.733964 2.660944 0.003875 -0.003743 527356.000000 1 0 0
9.106037 3.352010 -17.766791 20.243881 0.352715 2.641707 0.021533 0.001550 822385.000000 1 0 0
-4.160863 14.182610 -13.321891 19.898040 -1.285426 2.304342 0.016929 -0.010737 -161444.000000 1 0 0
15.597137 -4.898590 -7.981491 18.192610 -0.304314 2.024972 0.038451 -0.002783 -1095310.000000 1 0 0
1.179837 9.285910 -16.734291 19.174374 1.444417 2.631588 0.006669 0.004387 -222904.000000 1 0 0
0.441837 -3.232790 -12.815891 13.224719 -1.434964 2.892295 0.001475 -0.004859 394086.000000 1 0 0
7.594737 3.646610 -12.944991 15.445083 0.447642 2.564643 0.008617 -0.001654 -124016.000000 1 0 0
-2.831263 7.544010 -15.061091 17.081118 -1.211763 2.650333 0.000594 -0.004399 -592459.000000 1 0 0
12.305637 -5.094590 -10.968491 17.253734 -0.392521 2.259733 0.026604 -0.005198 -597996.000000 1 0 0
0.762837 -4.463990 -19.950191 20.457743 -1.401544 2.918375 0.035571 -0.017398 -1009710.000000 1 0 0
3.541737 -4.531890 -16.053391 17.052662 -0.907429 2.797556 0.012018 -0.014129 382209.000000 1 0 0
-5.703163 3.961110 -14.346891 15.938938 -0.607056 2.690832 0.001746 -0.008297 706011.000000 1 0 0
12.403337 -7.508690 -9.791891 17.495837 -0.544364 2.164784 0.022007 0.000167 -58168.000000 1 0 0
-2.011163 -1.924690 -15.049891 15.305176 0.763431 2.958692 0.011620 -0.007480 482452.000000 1 0 0
7.151437 5.961310 -14.146391 16.935189 0.694885 2.559520 0.021022 -0.007280 67588.700000 1 0 0
4.323637 -5.449890 -18.296091 19.574015 -0.900127 2.778248 0.024251 -0.017116 155149.000000 1 0 0
7.651537 7.385610 -12.207291 16.189849 0.767715 2.424940 0.012280 -0.006425 -498972.000000 1 0 0
12.352837 -2.457590 -10.891191 16.650836 -0.196385 2.283779 0.017350 -0.007402 -59564.700000 1 0 0
7.379637 -0.669790 -10.574791 12.912546 -0.090514 2.530383 0.004367 -0.002710 -1575170.000000 1 0 0
5.456537 4.073410 -14.348691 15.882424 0.641270 2.698505 0.007635 -0.003767 506028.000000 1 0 0
14.679537 3.007010 -12.892691 19.767458 0.202049 2.281303 0.004261 -0.012714 -1043280.000000 1 0 0
-6.424063 6.628310 -15.848591 18.340690 -0.801045 2.614199 -0.000983 0.000606 250531.000000 1 0 0
-11.183763 3.757010 -16.698891 20.446140 -0.324090 2.526510 0.042256 -0.014977 288154.000000 1 0 0
-5.065363 6.322110 -18.034991 19.770885 -0.895316 2.719417 0.001828 0.010928 -85019.200000 1 0 0
-10.032963 1.657710 -15.729891 18.730665 -0.163747 2.567699 0.028167 -0.014882 -302062.000000 1 0 0
-7.714163 5.828610 -17.988591 20.422302 -0.647058 2.648410 0.005992 -0.000063 182884.000000 1 0 0
-8.780563 3.964510 -15.615291 18.348105 -0.424109 2.588792 0.005699 -0.000931 -1145650.000000 1 0 0
9.016037 13.523610 -12.168091 20.303679 0.982779 2.213429 0.043362 -0.020651 -1410410.000000 1 0 0
13.892937 9.308910 -11.231791 20.145040 0.590339 2.162223 0.022033 -0.012496 383989.000000 1 0 0
8.467937 16.005110 -8.876391 20.165808 1.084159 2.026585 0.032328 -0.013072 -58404.000000 1 0 0
7.031537 13.710410 -13.845891 20.715370 1.096913 2.302835 0.032067 -0.018316 41030.200000 1 0 0
4.745337 15.809210 -12.473491 20.689063 1.279190 2.217931 0.035590 -0.026329 16486.200000 1 0 0
11.120337 11.019510 -11.546691 19.452958 0.780844 2.206284 0.043308 -0.017358 275222.000000 1 0 0
15.763837 10.086210 -9.585291 21.026364 0.569194 2.044146 0.054270 -0.010922 -337284.000000 1 0 0
13.234437 10.626710 -9.079291 19.248657 0.676543 2.061996 0.055238 -0.017609 120266.000000 1 0 0
10.243237 11.937810 -8.583191 17.919441 0.861647 2.070297 0.019437 -0.000602 303032.000000 1 0 0
5.402437 16.176510 -10.008191 19.774471 1.248475 2.101473 0.021033 -0.017356 204654.000000 1 0 0
6.809437 14.674510 -11.375391 19.776481 1.136335 2.183642 0.021229 -0.009569 -1280810.000000 1 0 0
10.544637 14.136010 -9.778791 20.165339 0.929898 2.077080 0.038394 -0.006004 -615581.000000 1 0 0
8.238537 -18.547590 -1.377691 20.341696 -1.152790 1.638576 0.048393 -0.003316 -205380.000000 1 0 0
7.450237 -17.226790 -3.488291 19.090219 -1.162607 1.754555 0.033178 -0.009388 301106.000000 1 0 0
4.517137 -18.349090 5.819309 19.772657 -1.329418 1.272062 0.033552 -0.005812 40953.400000 1 0 0
9.952937 -17.036790 -2.506991 19.889649 -1.042074 1.697177 0.048217 -0.003328 474832.000000 1 0 0
-9.614263 -12.139990 -10.069291 18.471709 0.900983 2.147328 0.039716 -0.014497 -221854.000000 1 0 0
-5.013563 -7.036490 -12.100691 14.868582 0.951724 2.521532 0.003702 -0.001416 350477.000000 1 0 0
-10.759063 -9.509590 -5.717791 15.455836 0.723830 1.949745 0.014756 -0.003677 367268.000000 1 0 0
-4.538563 -11.452490 -14.097991 18.721950 1.193488 2.423435 0.019002 -0.004741 150930.000000 1 0 0
-2.789863 -15.336590 7.469809 17.285612 1.390855 1.123932 0.009449 -0.007375 -352879.000000 1 0 0
-4.675663 -12.035990 -11.620691 17.371452 1.200266 2.303596 0.018412 -0.003537 986890.000000 1 0 0
-14.447063 -12.633190 -4.402591 19.690046 0.718517 1.796297 0.053930 -0.016820 -12709.200000 1 0 0
-3.126463 -12.334690 -3.262191 13.136256 1.322555 1.821757 0.007006 -0.003878 737676.000000 1 0 0
-2.430463 -17.464990 -1.503591 17.697282 1.432522 1.655861 0.005910 -0.007492 -448061.000000 1 0 0
-5.734063 -12.217590 3.684409 13.990134 1.131986 1.304295 0.004302 -0.003586 -208511.000000 1 0 0
-8.657563 -10.586990 -11.999991 18.194437 0.885323 2.291005 0.018562 -0.006157 1393790.000000 1 0 0
-10.165263 -12.012990 -7.563091 17.459806 0.868519 2.018805 0.037873 -0.010555 303549.000000 1 0 0
-10.921863 -15.060790 6.066809 19.568359 0.943367 1.255570 0.038000 -0.015999 138163.000000 1 0 0
-9.457063 -15.799090 0.687709 18.426075 1.031420 1.533465 0.015818 0.000094 -1255560.000000 1 0 0
-14.869763 -7.691590 -8.288291 18.680636 0.477363 2.030501 0.026004 -0.016845 -209573.000000 1 0 0
-2.436363 -16.450390 5.136209 17.404937 1.423761 1.271235 0.020160 -0.007104 60639.900000 1 0 0
4.525837 -15.754790 5.921709 17.428805 -1.291061 1.224129 0.022613 -0.009101 115396.000000 1 0 0
4.370537 -14.637890 -10.061091 18.291937 -1.280646 2.153195 0.009730 0.001061 444889.000000 1 0 0
-7.578963 -14.134590 -0.251891 16.040286 1.078610 1.586501 0.004418 0.002072 949172.000000 1 0 0
3.088237 -14.739090 9.778009 17.955151 -1.364257 0.994909 0.014057 -0.011974 -597146.000000 1 0 0
2.512437 -17.204790 10.363609 20.241579 -1.425790 1.033289 0.027701 -0.011502 -461599.000000 1 0 0
-8.285563 -17.064990 -5.686391 19.804027 1.118792 1.862029 0.049223 -0.012772 -588212.000000 1 0 0
-6.312663 -9.168790 -7.745291 13.561193 0.967834 2.178686 0.014163 -0.007044 466973.000000 1 0 0
-6.102163 -13.091890 -4.807891 15.223330 1.134632 1.892121 0.009360 -0.007692 635419.000000 1 0 0
2.218537 -19.430790 -4.928291 20.168429 -1.457112 1.817653 0.013797 -0.017469 -31724.200000 1 0 0
-5.441163 -12.823990 8.361609 16.247384 1.169522 1.030205 0.010170 -0.004461 806585.000000 1 0 0
2.220837 -17.389990 3.594409 17.895911 -1.443776 1.368570 0.019760 -0.015037 -302001.000000 1 0 0
-17.461663 -9.983490 -2.872491 20.318242 0.519379 1.712647 0.055376 -0.026805 705782.000000 1 0 0
-3.477263 -15.510890 2.561909 16.101007 1.350261 1.411002 0.008801 -0.002647 236171.000000 1 0 0
-10.040763 -10.337690 -14.242591 20.261692 0.799968 2.350308 0.039516 -0.013882 -397097.000000 1 0 0
6.341937 -14.613990 -5.711091 16.923516 -1.161358 1.915019 0.014281 -0.004219 228971.000000 1 0 0
-7.275863 -12.359890 -10.756891 17.928072 1.038751 2.214301 0.025250 -0.008868 15657.300000 1 0 0
-7.121563 -14.288890 3.862409 16.425810 1.108431 1.333431 0.003189 -0.000699 1048050.000000 1 0 0
3.223637 -14.995090 -3.039091 15.635876 -1.359040 1.766408 0.008341 -0.005615 -2545630.000000 1 0 0
-7.588763 -11.368690 7.640509 15.659304 0.982207 1.061089 0.014343 -0.008207 -812296.000000 1 0 0
-12.686163 -12.317790 -1.096391 17.716342 0.770667 1.632722 0.023732 -0.003464 -2214880.000000 1 0 0
-1.913963 -13.679790 3.984809 14.376321 1.431787 1.289940 0.010723 -0.001421 -3368750.000000 1 0 0
-3.165263 -13.877190 5.270609 15.178096 1.346542 1.216158 0.008066 -0.004696 156980.000000 1 0 0
-14.396063 -10.145090 -4.493091 18.175735 0.613882 1.820589 0.023756 -0.014465 1354820.000000 1 0 0
-6.224963 -8.692390 -10.405691 14.919323 0.949320 2.342649 0.012414 -0.004557 222385.000000 1 0 0
0.937037 -19.280890 2.376809 19.449421 -1.522235 1.448285 0.027352 -0.022803 89187.700000 1 0 0
6.633937 -14.321490 -8.191791 17.782565 -1.137007 2.049540 0.020590 -0.001184 -2158420.000000 1 0 0
-3.819763 -16.715490 -5.885491 18.128353 1.346137 1.901445 0.010742 -0.012990 -239274.000000 1 0 0
-3.495163 -13.664290 -13.258791 19.357802 1.320377 2.325308 0.028847 -0.000550 -1014710.000000 1 0 0
-8.198363 -14.596990 -4.573791 17.355254 1.059055 1.837486 0.018736 -0.012235 -2232840.000000 1 0 0
-4.539663 -14.389490 10.155609 18.187973 1.265195 0.978377 0.019179 -0.007796 -282556.000000 1 0 0
-0.207363 -12.151090 -10.050791 15.770554 1.553733 2.261804 0.008048 0.001624 385521.000000 1 0 0
2.406037 -17.146390 6.827309 18.611820 -1.431383 1.195201 0.019685 -0.016430 90947.300000 1 0 0
-2.802763 -19.334890 -3.356691 19.823239 1.426840 1.740947 0.017504 -0.012531 -618285.000000 1 0 0
0.715337 -15.432790 -3.050391 15.747622 -1.524478 1.765733 0.006768 -0.006183 -280944.000000 1 0 0
6.068937 -17.841290 0.454109 18.850725 -1.242912 1.546704 0.020629 -0.006855 -312570.000000 1 0 0
-7.027863 -16.703290 3.845909 18.525166 1.172533 1.361671 0.009972 -0.001813 1149980.000000 1 0 0
-5.206163 -13.495090 -9.484991 17.297012 1.202607 2.151198 0.015882 -0.005889 300432.000000 1 0 0
5.660237 -15.184990 -2.108291 16.342187 -1.213998 1.700166 0.018022 -0.003545 -671312.000000 1 0 0
-8.844463 -10.276290 -0.568291 13.570174 0.860142 1.612686 0.002995 0.000235 -380914.000000 1 0 0
-7.371963 -18.184290 -3.077491 19.861651 1.185641 1.726369 0.025635 -0.021074 -116504.000000 1 0 0
7.922937 -15.972290 -1.198691 17.869634 -1.110320 1.637926 0.017717 -0.003108 -184557.000000 1 0 0
-8.029063 -10.193990 -9.475791 16.067791 0.903645 2.201531 0.020539 -0.009985 -1115780.000000 1 0 0
-9.126563 -15.070690 -7.037491 18.972246 1.026281 1.950813 0.046424 -0.014130 -390804.000000 1 0 0
-11.332563 -10.409290 -12.010291 19.519923 0.742958 2.233542 0.031092 -0.005712 -441056.000000 1 0 0
6.624237 -16.297190 2.457809 17.762875 -1.184729 1.431983 0.027010 -0.005997 469635.000000 1 0 0
-2.174963 -11.073290 -6.166491 12.859775 1.376850 2.070901 0.008227 -0.003257 -239733.000000 1 0 0
-12.385963 -15.246390 -3.377391 19.931665 0.888548 1.741066 0.035357 -0.016337 122611.000000 1 0 0
-0.315163 -19.612290 -2.761291 19.808230 1.554728 1.710653 0.023742 -0.021109 -775638.000000 1 0 0
-5.914863 -15.733990 -4.625791 17.433932 1.211211 1.839345 0.015517 -0.010515 -677929.000000 1 0 0
2.027037 -16.090790 -0.948791 16.245695 -1.445481 1.629232 0.011733 -0.007667 1728480.000000 1 0 0
-13.345463 -11.864890 5.117809 18.576032 0.726737 1.291680 0.035537 -0.010688 60303.300000 1 0 0
2.162837 -15.199790 -8.798991 17.695584 -1.429451 2.091214 0.008314 0.003876 -2033590.000000 1 0 0
-11.911263 -16.689690 0.118909 20.504587 0.950941 1.564997 0.055368 -0.023351 573686.000000 1 0 0
-7.574863 -16.604790 -1.068891 18.282235 1.142810 1.629296 0.018562 -0.005403 605037.000000 1 0 0
-2.997363 -14.516490 -1.806591 14.932395 1.367178 1.692078 0.006230 -0.002288 516618.000000 1 0 0
-1.724163 -10.590990 -13.261291 17.058829 1.409417 2.461295 0.010469 0.000871 -41464.600000 1 0 0
1.731037 -19.420990 4.821909 20.085371 -1.481899 1.328358 0.032500 -0.020188 -304922.000000 1 0 0
-17.459463 -9.557690 2.320509 20.039138 0.500862 1.454737 0.050228 -0.015919 -48807.900000 1 0 0
-2.664363 -15.522290 -8.037391 17.681628 1.400805 2.042676 0.007409 -0.007992 -126116.000000 1 0 0
-10.457563 -12.196090 0.229109 16.067287 0.861992 1.556536 0.008283 0.001529 144740.000000 1 0 0
-6.823163 -11.461690 -6.608691 14.886258 1.033839 2.030794 0.013418 -0.006313 663634.000000 1 0 0
-2.094263 -13.582890 -6.604291 15.247868 1.417817 2.018758 0.002458 -0.001374 761757.000000 1 0 0
-14.251763 -14.459490 -1.164091 20.335799 0.792633 1.628071 0.048656 -0.011543 19753.000000 1 0 0
-9.428363 -11.323390 -4.445391 15.390734 0.876464 1.863807 0.013741 -0.007114 1580190.000000 1 0 0
9.638137 -14.973090 -5.206691 18.552539 -0.998865 1.855263 0.030785 -0.004006 -199124.000000 1 0 0
-5.535263 -10.959490 -9.477291 15.510274 1.103104 2.228161 0.014559 -0.005019 -617915.000000 1 0 0
-10.374863 -15.875990 -4.915391 19.591986 0.991969 1.824394 0.048190 -0.015718 -2230280.000000 1 0 0
2.430637 -17.399190 -3.232491 17.863057 -1.431996 1.752758 0.015278 -0.011550 402348.000000 1 0 0
-0.185463 -14.470490 -8.074791 16.572016 1.557980 2.079739 0.004763 0.000818 -973993.000000 1 0 0
-0.484963 -18.398690 -6.946591 19.672369 1.544444 1.931694 0.014082 -0.008208 108286.000000 1 0 0
-1.701863 -10.001590 -10.629991 14.694381 1.402251 2.379518 0.007216 -0.001697 463266.000000 1 0 0
-5.156963 -17.362690 1.985409 18.220843 1.282081 1.461616 0.015656 -0.004826 -1195670.000000 1 0 0
0.249137 -12.889090 -2.614091 13.153865 -1.551469 1.770860 0.006535 -0.001542 -465085.000000 1 0 0
2.612837 -14.874290 3.070609 15.411037 -1.396909 1.370206 0.016825 -0.007090 -692364.000000 1 0 0
-9.302563 -13.142090 6.778009 17.469792 0.954825 1.172352 0.010223 -0.003808 -1046020.000000 1 0 0
-1.033263 -17.844690 -4.489091 18.429664 1.512958 1.816851 0.010881 -0.016204 -131059.000000 1 0 0
-9.736863 -17.771890 -2.074691 20.370344 1.069582 1.672822 0.043699 -0.015872 -1219390.000000 1 0 0
1.395137 -16.284390 1.437309 16.407121 -1.485332 1.483081 0.012634 -0.009699 1107350.000000 1 0 0
-0.305663 -18.012190 4.345109 18.531389 1.553828 1.334120 0.021642 -0.011115 -803922.000000 1 0 0
-17.408363 -9.401490 -0.276191 19.786748 0.495177 1.584755 0.040524 -0.013442 1318610.000000 1 0 0
-14.747963 -7.106890 -10.895691 19.665360 0.449055 2.158024 0.044895 -0.021387 554967.000000 1 0 0
2.912837 -12.739290 -8.912991 15.818202 -1.346011 2.169369 0.000380 0.004483 977394.000000 1 0 0
-11.613263 -14.611190 1.646509 18.736748 0.899222 1.482807 0.029477 -0.010363 198419.000000 1 0 0
-2.112663 -15.327990 10.385109 18.634943 1.433829 0.979675 0.019266 -0.012924 113475.000000 1 0 0
-7.057063 -15.850990 1.368209 17.404827 1.151931 1.492104 0.010826 -0.001377 -1351350.000000 1 0 0
-12.527863 -14.983290 -5.982591 20.426398 0.874414 1.868039 0.052597 -0.013564 391212.000000 1 0 0
0.992137 -13.803090 -5.053491 14.732528 -1.499042 1.920922 0.005551 -0.000896 248456.000000 1 0 0
6.010037 -16.592790 -7.218691 19.067006 -1.223288 1.959075 0.029984 -0.012111 95530.200000 1 0 0
-6.575863 -12.947690 5.906909 15.677252 1.100865 1.184476 0.009580 -0.002122 -495624.000000 1 0 0
-2.524663 -13.647590 0.546109 13.889884 1.387875 1.531469 0.009769 -0.003891 2540050.000000 1 0 0
-4.302363 -15.542690 0.139109 16.127767 1.300749 1.562171 0.008530 -0.003355 169864.000000 1 0 0
-17.568563 -7.568590 -2.289091 19.265978 0.406776 1.689893 0.026033 -0.011379 368099.000000 1 0 0
1.262437 -12.890990 -11.941691 17.617472 -1.473176 2.315606 0.007694 0.002503 -458829.000000 1 0 0
1.217037 -17.060890 -5.613091 18.001720 -1.499582 1.887892 0.013447 -0.014156 -2123720.000000 1 0 0
-12.773763 -6.486690 -9.279391 17.069073 0.469879 2.145561 0.025042 -0.007212 1072040.000000 1 0 0
-11.747763 -13.382690 -9.104491 19.999952 0.850364 2.043422 0.067115 -0.018654 442603.000000 1 0 0
-4.311563 -9.985790 3.478809 11.419619 1.163206 1.261242 0.007907 -0.004776 -5631410.000000 1 0 0
-7.055463 -14.426490 9.487209 18.652354 1.115936 1.037200 0.022623 -0.010381 -1196340.000000 1 0 0
-5.264363 -15.853190 -8.036591 18.537096 1.250184 2.019215 0.018435 -0.011756 -151271.000000 1 0 0
-0.256763 -13.497390 2.155609 13.670849 1.551775 1.412456 0.012906 -0.005080 678610.000000 1 0 0
-10.904363 -13.403090 -4.739091 17.916666 0.887835 1.838489 0.040002 -0.010085 -609404.000000 1 0 0
-9.793063 -10.594190 6.602809 15.866255 0.824673 1.141585 0.016606 -0.005178 -668070.000000 1 0 0
-15.483563 -8.028590 -4.935191 18.126089 0.478356 1.846548 0.033661 -0.014995 440875.000000 1 0 0
-14.512063 -7.248990 5.229909 17.044054 0.463259 1.258918 0.024544 -0.008583 136739.000000 1 0 0
-1.657463 -19.458390 0.118509 19.529213 1.485822 1.564728 0.023993 -0.008408 -178306.000000 1 0 0
-15.201963 -12.167190 -1.568791 19.534618 0.674966 1.651191 0.045012 -0.007497 69004.400000 1 0 0
-4.381163 -12.153190 -6.830091 14.613170 1.224803 2.057136 0.009455 -0.005889 652736.000000 1 0 0
-7.560163 -18.383590 1.921409 19.970084 1.180634 1.474433 0.028570 -0.005008 66425.800000 1 0 0
-2.443863 -11.833990 -8.656791 14.864582 1.367147 2.192446 0.007309 -0.000470 897621.000000 1 0 0
-1.022763 -20.473090 -5.028991 21.106496 1.520881 1.811378 0.019448 -0.009086 -285670.000000 1 0 0
-5.345463 -8.948590 -13.930091 17.398237 1.032326 2.499194 0.011174 -0.003520 816170.000000 1 0 0
-8.022863 -19.276490 -0.873291 20.897656 1.176403 1.612597 0.020809 0.000438 208020.000000 1 0 0
-17.097563 -7.320290 5.487709 19.391448 0.404534 1.283880 0.048690 -0.017388 -689498.000000 1 0 0
-3.607963 -14.711590 -4.251391 15.732851 1.330297 1.844422 0.007141 -0.007473 -2220800.000000 1 0 0
-3.034963 -14.981690 -10.973591 18.817059 1.370923 2.193425 0.019853 -0.000291 -351500.000000 1 0 0
-0.218563 -16.589790 6.446809 17.799726 1.557623 1.200184 0.026948 -0.015496 -763865.000000 1 0 0
-11.108263 -11.638290 3.794809 16.530090 0.808695 1.339161 0.015287 -0.004540 -180896.000000 1 0 0
-0.124963 -14.725290 -0.139091 14.726477 1.562310 1.580241 0.008048 -0.002593 1047920.000000 1 0 0
-7.168663 -9.520390 -2.456291 12.168029 0.925391 1.774057 0.010563 -0.000106 622231.000000 1 0 0
-11.068963 -14.454090 -0.829691 18.224463 0.917259 1.616338 0.022499 -0.010206 199762.000000 1 0 0
0.271337 -14.756690 -10.563791 18.150129 -1.552411 2.192010 0.006826 0.002042 193302.000000 1 0 0
-1.339863 -14.100790 -3.896291 14.690425 1.476060 1.839235 0.002909 -0.002938 -3063690.000000 1 0 0
-11.378463 -8.068390 -7.693691 15.929884 0.616803 2.074842 0.019414 -0.008155 642313.000000 1 0 0
-0.206163 -17.389190 -0.189691 17.391446 1.558941 1.581704 0.010582 -0.009552 -467513.000000 1 0 0
-12.819163 -9.482190 4.405409 16.542385 0.636869 1.301233 0.022930 -0.007049 -204198.000000 1 0 0
4.048237 -16.731890 1.746709 17.303044 -1.333411 1.469676 0.022050 -0.012563 1735470.000000 1 0 0
-3.666363 -17.836390 -8.214291 19.976326 1.368065 1.994568 0.030795 -0.012580 399334.000000 1 0 0
-13.213663 -11.216590 2.492409 17.510708 0.703834 1.427975 0.013150 -0.007619 -483195.000000 1 0 0
-8.458263 -12.231390 4.039509 15.409956 0.965784 1.305561 0.011447 -0.005475 255108.000000 1 0 0
-8.138563 -9.415890 -5.878691 13.764236 0.858034 2.012078 0.016529 -0.008038 204620.000000 1 0 0
3.676137 -17.383190 -5.548491 18.613839 -1.362390 1.873481 0.002011 -0.002351 -1260490.000000 1 0 0
-2.651763 -12.985290 11.302509 17.418275 1.369353 0.864674 0.011830 -0.012656 4624.180000 1 0 0
0.132237 -16.809890 -9.267891 19.195929 -1.562930 2.074651 0.009265 -0.000931 -172753.000000 1 0 0
-7.014163 -10.878890 -14.634591 19.537655 0.998121 2.417416 0.027274 -0.002982 -773911.000000 1 0 0
-4.600063 -18.941090 -1.592991 19.556663 1.332547 1.652342 0.029394 -0.014611 -739333.000000 1 0 0
-2.582663 -17.283290 1.092509 17.509307 1.422463 1.508360 0.017502 -0.011208 768764.000000 1 0 0
4.234737 -14.564490 -7.444891 16.896264 -1.287840 2.027089 0.008665 -0.004894 -894346.000000 1 0 0
-0.986363 -15.893490 -6.128491 17.062659 1.508815 1.938181 0.004091 -0.006022 -683354.000000 1 0 0
-9.680063 -15.224190 8.302909 19.859957 1.004444 1.139473 0.032892 -0.007713 -408780.000000 1 0 0
-7.268163 -12.118190 -1.728791 14.236061 1.030544 1.692534 0.004656 -0.005101 698341.000000 1 0 0
-7.373163 -14.960590 -9.351691 19.121634 1.112894 2.081812 0.036251 -0.014375 192258.000000 1 0 0
-5.045563 -13.207590 -0.689991 14.155360 1.205885 1.619560 0.005919 -0.002115 2646840.000000 1 0 0
-6.497163 -13.794990 -7.273191 16.894205 1.130633 2.015858 0.015883 -0.007444 501279.000000 1 0 0
5.872837 -15.225090 0.333109 16.321903 -1.202648 1.550386 0.016522 -0.003959 -546774.000000 1 0 0
-14.336963 -12.776290 0.824609 19.221396 0.727900 1.527883 0.014672 -0.006437 865664.000000 1 0 0
0.908537 -15.355490 11.195009 19.024845 -1.511698 0.941666 0.011357 -0.006908 169404.000000 1 0 0
-9.328763 -10.784690 1.951109 14.392435 0.857658 1.434813 0.003982 -0.001067 180314.000000 1 0 0
-9.397763 -8.907190 -3.615091 13.443395 0.758605 1.843060 0.012819 -0.003575 503650.000000 1 0 0
-12.128963 -7.174190 -12.331991 18.725884 0.534140 2.289691 0.034252 -0.012578 -199195.000000 1 0 0
-13.275063 -8.400290 -0.646791 15.722930 0.564179 1.611945 0.011745 -0.007040 71176.900000 1 0 0
-11.191863 -9.686790 0.472209 14.809277 0.713436 1.538905 -0.003612 0.000946 823358.000000 1 0 0
-15.599563 -12.120790 2.901209 19.966896 0.660556 1.424979 0.042477 -0.011194 1114.090000 1 0 0
-10.385263 -12.548690 -2.368991 16.460116 0.879453 1.715221 0.022523 -0.007636 705357.000000 1 0 0
-3.334263 -8.921890 -12.110591 15.407266 1.213151 2.475159 0.004458 0.000213 -925598.000000 1 0 0
-0.277163 -15.524390 3.981809 16.029295 1.552945 1.319760 0.022042 -0.010256 -729254.000000 1 0 0
-15.871163 -7.747690 1.117609 17.696598 0.454132 1.507600 0.030440 -0.008473 834671.000000 1 0 0
-6.095263 -13.390590 -13.404591 19.903346 1.143635 2.309709 0.029364 -0.005459 -826039.000000 1 0 0
-15.318163 -10.357590 1.037609 18.520325 0.594549 1.514742 0.036568 -0.010383 820948.000000 1 0 0
-9.784563 -8.358590 -12.622991 18.026192 0.706964 2.346556 0.019083 -0.005125 772384.000000 1 0 0
-13.171163 -11.536590 -6.481791 18.670459 0.719338 1.925346 0.039095 -0.009898 39659.900000 1 0 0
-12.184063 -11.422690 -4.000491 17.173618 0.753157 1.805900 0.020998 -0.004743 225738.000000 1 0 0
-11.748063 -10.800590 -9.214591 18.427653 0.743404 2.094443 0.043170 -0.022453 85470.000000 1 0 0
-13.139363 -8.280090 -5.897291 16.612670 0.562312 1.933697 0.017813 -0.013582 -1442770.000000 1 0 0
-13.367863 -8.143890 -3.234191 15.983826 0.547167 1.774545 0.015216 -0.010170 631931.000000 1 0 0
-4.300063 -17.141290 -3.333391 17.984044 1.325008 1.757227 0.011947 -0.013124 459845.000000 1 0 0
-15.355063 -8.916190 -1.844791 17.851601 0.526083 1.674321 0.039952 -0.011564 -3307810.000000 1 0 0
-9.431063 -15.557990 3.674709 18.560697 1.025839 1.371496 0.014381 -0.005949 -478488.000000 1 0 0
4.768537 -17.040090 8.129709 19.472950 -1.297934 1.140118 0.039004 -0.026522 575456.000000 1 0 0
-8.293963 -15.394990 5.959209 18.474515 1.076636 1.242360 0.012921 -0.002287 254720.000000 1 0 0
0.993637 -15.931590 8.690309 18.174827 -1.508508 1.072248 0.009552 -0.013075 49883.000000 1 0 0
-10.705563 -7.794790 -10.231691 16.734854 0.629341 2.228625 0.022651 -0.008774 616547.000000 1 0 0
-4.830263 -15.908290 6.040209 17.688676 1.276011 1.222312 0.011705 -0.004486 -358895.000000 1 0 0
-1.301363 -13.403290 -12.037491 18.062195 1.474007 2.300229 0.013789 0.000528 -1911970.000000 1 0 0
-6.419763 -14.385190 -2.553991 15.958381 1.151044 1.731528 0.011812 -0.009288 336973.000000 1 0 0
-17.600963 -6.926290 -7.182891 20.232680 0.374906 1.933726 0.043304 -0.023484 318262.000000 1 0 0
-17.308063 -4.082290 -10.367691 20.584537 0.231627 2.098631 0.050358 -0.018529 245858.000000 1 0 0
-15.234163 -5.223190 -9.269291 18.581744 0.330300 2.093055 0.024207 -0.016538 797356.000000 1 0 0
-16.080463 -5.425390 -5.711791 17.906443 0.325397 1.895449 0.024612 -0.011858 -408007.000000 1 0 0
-15.144163 -4.302190 -12.374391 20.024487 0.276790 2.236945 0.046826 -0.016469 -465551.000000 1 0 0
-18.678563 -5.171990 -5.648491 20.187711 0.270127 1.854381 0.037349 -0.016603 -1038920.000000 1 0 0
-17.319263 -4.402990 -7.815891 19.504649 0.248951 1.983098 0.027628 -0.017925 422112.000000 1 0 0
12.251537 -7.774790 8.788609 16.964291 -0.565471 1.026209 0.027601 -0.004833 500326.000000 1 0 0
16.118737 -3.265490 1.946409 16.560966 -0.199884 1.452994 0.032414 -0.013054 143633.000000 1 0 0
11.993437 -2.017790 12.649209 17.547549 -0.166680 0.765764 0.018085 0.000666 172864.000000 1 0 0
9.595337 -9.948590 5.297309 14.802243 -0.803471 1.204808 0.005710 -0.002414 201153.000000 1 0 0
16.670537 -1.582590 7.361209 18.292041 -0.094650 1.156630 0.044445 -0.019482 -400975.000000 1 0 0
5.123037 -12.775990 9.267209 16.593751 -1.189437 0.978249 0.006780 -0.001679 -676090.000000 1 0 0
15.248737 -8.972190 -1.937991 17.798313 -0.531838 1.679899 0.038199 -0.003110 554347.000000 1 0 0
11.011337 -8.452390 6.578809 15.361418 -0.654675 1.128221 0.019164 -0.006328 -3050160.000000 1 0 0
20.139037 -3.241590 4.106509 20.807501 -0.159592 1.372135 0.067807 -0.022526 231970.000000 1 0 0
13.548037 -8.650790 6.872109 17.481743 -0.568268 1.166793 0.028506 -0.007755 329618.000000 1 0 0
8.291837 -10.987990 8.815809 16.346528 -0.924340 1.001181 0.006938 -0.003025 -1745230.000000 1 0 0
16.744637 0.238910 -0.518291 16.754359 0.014267 1.601736 0.027514 -0.004110 82570.900000 1 0 0
12.476837 -12.393090 2.388609 17.747270 -0.782031 1.435796 0.026069 -0.005184 -1059450.000000 1 0 0
10.484637 -11.439690 3.594809 15.928489 -0.828932 1.343151 0.015400 -0.006123 -610319.000000 1 0 0
16.220437 3.108210 2.445209 16.695586 0.189328 1.423809 0.012794 -0.001645 463472.000000 1 0 0
18.370337 -3.032890 0.606809 18.628900 -0.163621 1.538217 0.045966 -0.015227 460384.000000 1 0 0
13.518637 -11.417490 -0.159291 17.695705 -0.701336 1.579798 0.039258 -0.007968 -469656.000000 1 0 0
16.974637 -7.416390 -0.686091 18.536770 -0.411915 1.607817 0.045867 -0.003906 257511.000000 1 0 0
10.043437 -5.613690 9.753809 15.083797 -0.509682 0.867623 0.012201 -0.004887 -414297.000000 1 0 0
11.395637 -13.401090 6.160609 18.638746 -0.866098 1.233934 0.033020 -0.003350 -744168.000000 1 0 0
12.846137 -1.761590 10.132309 16.455702 -0.136280 0.907481 0.025981 -0.005434 -78644.600000 1 0 0
15.547737 -1.960190 -1.289291 15.723763 -0.125414 1.652885 0.020883 -0.004704 988271.000000 1 0 0
10.528637 -12.211890 9.034009 18.482309 -0.859283 1.060092 0.038027 -0.013873 69400.800000 1 0 0
14.442437 1.272310 3.454809 14.904310 0.087868 1.336869 0.018485 -0.006199 1471670.000000 1 0 0
15.041937 -5.801090 5.250109 16.955121 -0.368084 1.255974 0.037636 -0.013182 -700674.000000 1 0 0
14.272037 -3.356790 -2.989191 14.963099 -0.231002 1.771920 0.013779 -0.004336 833179.000000 1 0 0
13.900737 0.649010 9.617409 16.915858 0.046655 0.966061 0.036764 -0.005176 360692.000000 1 0 0
15.396537 -3.343290 4.559209 16.401747 -0.213826 1.289115 0.035639 -0.010534 760974.000000 1 0 0
18.437937 4.883310 -4.295691 19.551399 0.258907 1.792316 0.009759 -0.001993 565498.000000 1 0 0
18.209137 -5.655890 -5.044591 19.723327 -0.301160 1.829438 0.065420 -0.005903 559392.000000 1 0 0
17.479737 0.022910 5.613109 18.358886 0.001311 1.260077 0.055968 -0.013379 785535.000000 1 0 0
17.068237 -6.591690 4.102509 18.751151 -0.368550 1.350225 0.046812 -0.013501 22262.100000 1 0 0
9.379237 -6.832590 14.367009 18.467954 -0.629586 0.679411 0.001521 -0.001532 -902413.000000 1 0 0
8.688437 -12.324190 5.120809 15.924738 -0.956729 1.243416 0.013310 -0.003770 -1316840.000000 1 0 0
17.104037 -9.999690 -0.411591 19.816944 -0.529048 1.591567 0.064049 -0.002908 297542.000000 1 0 0
14.979237 -8.658490 0.518809 17.309423 -0.524111 1.540819 0.041536 -0.008767 115798.000000 1 0 0
10.023037 -12.928590 1.574009 16.434330 -0.911323 1.474874 0.019433 -0.006679 105528.000000 1 0 0
17.003537 -8.078090 8.994009 20.863077 -0.443516 1.125088 0.073455 -0.015842 778369.000000 1 0 0
19.100137 -0.077690 -1.859091 19.190557 -0.004067 1.667824 0.050993 -0.005772 -129324.000000 1 0 0
13.450337 -1.196990 7.749709 15.569275 -0.088759 1.049786 0.026335 -0.007919 -370285.000000 1 0 0
12.976637 -9.756090 -3.030591 16.515413 -0.644665 1.755343 0.025672 -0.003949 -470797.000000 1 0 0
8.928737 -15.270090 1.433609 17.746921 -1.041687 1.489927 0.028941 -0.002075 -301775.000000 1 0 0
11.427837 -8.078790 11.210409 17.931413 -0.615368 0.895431 0.027941 -0.002161 -256818.000000 1 0 0
13.896137 -3.896090 -0.457991 14.439248 -0.273354 1.602520 0.014764 -0.008140 -154622.000000 1 0 0
7.138737 -13.433790 10.705609 18.602106 -1.082344 0.957575 0.016206 0.003524 -118610.000000 1 0 0
15.452637 -6.537990 1.953009 16.892114 -0.400259 1.454921 0.029291 -0.006918 934090.000000 1 0 0
15.953737 -5.962290 -2.438891 17.205197 -0.357651 1.713029 0.048096 -0.006197 -149818.000000 1 0 0
11.177937 -8.450090 3.900209 14.545168 -0.647306 1.299330 0.017971 -0.006542 908535.000000 1 0 0
10.828437 -14.470490 -0.325391 18.076393 -0.928377 1.588798 0.040440 -0.006038 603104.000000 1 0 0
13.501637 -12.908690 4.725509 19.268080 -0.762951 1.323018 0.024667 -0.001396 769532.000000 1 0 0
12.853437 -11.262290 6.719409 18.363019 -0.719514 1.196174 0.025072 -0.003096 764855.000000 1 0 0
11.013937 -10.505990 1.320209 15.278271 -0.761799 1.484278 0.013621 -0.003351 328270.000000 1 0 0
13.867437 -7.358690 11.912409 19.706892 -0.487862 0.921684 0.039160 -0.010145 687096.000000 1 0 0
15.203237 -1.688190 -4.847391 16.046357 -0.110588 1.877677 0.018701 -0.000663 -176960.000000 1 0 0
12.928237 -11.545190 -6.946591 18.673131 -0.728946 1.951970 0.028656 0.001124 76464.900000 1 0 0
17.744537 -5.217690 1.932709 18.596457 -0.285984 1.466679 0.054180 -0.012053 638342.000000 1 0 0
10.572637 -9.642790 9.244309 17.035882 -0.739434 0.997222 0.017155 -0.004153 -1436210.000000 1 0 0
16.318337 1.877410 9.993409 19.227090 0.114546 1.024230 0.057066 -0.007960 -71628.700000 1 0 0
18.032137 3.719610 0.607409 18.421791 0.203424 1.537818 0.012953 -0.001071 256514.000000 1 0 0
13.253437 -4.101790 5.807009 15.039934 -0.300139 1.174390 0.028027 -0.015512 -1206240.000000 1 0 0
12.085337 -6.146390 6.855309 15.193049 -0.470490 1.102672 0.025219 -0.007805 -108966.000000 1 0 0
16.625837 -10.170090 3.670109 19.832268 -0.548981 1.384666 0.037009 -0.005893 -404087.000000 1 0 0
16.452537 -8.126190 -5.552891 19.171737 -0.458769 1.864646 0.057751 -0.002036 -304896.000000 1 0 0
14.013737 -0.459590 5.426609 15.034764 -0.032784 1.201523 0.022917 -0.005834 499392.000000 1 0 0
18.312837 -4.322590 5.431309 19.584276 -0.231799 1.289782 0.060330 -0.014427 183272.000000 1 0 0
13.690537 -13.658190 7.202909 20.636348 -0.784215 1.214250 0.049404 -0.005215 -361618.000000 1 0 0
14.988237 -13.473890 -0.743691 20.167945 -0.732243 1.607680 0.040891 -0.005479 234367.000000 1 0 0
17.856437 -5.909090 7.973509 20.429061 -0.319579 1.169836 0.075154 -0.015159 611155.000000 1 0 0
14.291137 3.254510 9.225709 17.318838 0.223911 1.009011 0.034088 -0.010331 1167300.000000 1 0 0
18.684137 3.838810 3.068709 19.319689 0.202638 1.411282 0.035005 -0.003619 -1193570.000000 1 0 0
14.904437 -10.561090 8.249909 20.043449 -0.616466 1.146586 0.043647 -0.014438 191607.000000 1 0 0
14.807337 -4.754390 10.447709 18.735423 -0.310685 0.979251 0.054360 -0.011641 231476.000000 1 0 0
17.886937 -7.812290 2.116009 19.632928 -0.411789 1.462808 0.070481 -0.010833 607139.000000 1 0 0
18.593537 -5.724490 -1.810191 19.538838 -0.298666 1.663575 0.062714 -0.006867 596419.000000 1 0 0
14.466637 -12.856390 -5.276891 20.060307 -0.726533 1.836980 0.044851 -0.005745 42089.300000 1 0 0
15.318937 -1.525790 9.567709 18.125642 -0.099274 1.014723 0.066147 -0.010635 -1067490.000000 1 0 0
12.918437 -9.924590 10.226009 19.234208 -0.655079 1.010240 0.020896 -0.008469 -1791750.000000 1 0 0
16.691137 2.131510 4.720509 17.476286 0.127016 1.297290 0.030470 -0.009263 -936756.000000 1 0 0
14.900637 2.420010 0.012209 15.095879 0.161004 1.569988 0.010492 -0.001207 -1188970.000000 1 0 0
15.048037 -9.965590 -6.848591 19.304393 -0.584940 1.933463 0.044708 -0.002949 -173849.000000 1 0 0
16.278737 -0.149290 -3.107391 16.573335 -0.009171 1.759406 0.028982 0.001785 -217462.000000 1 0 0
12.123437 2.672410 13.569309 18.391456 0.216964 0.740983 0.040627 -0.003426 -54267.700000 1 0 0
17.615537 -2.757290 9.536909 20.220347 -0.155266 1.079636 0.067747 -0.020602 512254.000000 1 0 0
8.071937 -18.215390 4.510909 20.428042 -1.153663 1.348142 0.060486 -0.016785 -61506.800000 1 0 0
6.879737 -11.178190 6.593909 14.688851 -1.019086 1.105256 0.005931 -0.004814 -173166.000000 1 0 0
18.039037 2.259210 -1.556891 18.246500 0.124591 1.656226 0.030661 -0.002277 573037.000000 1 0 0
17.705537 -2.361390 3.820309 18.266279 -0.132588 1.360095 0.046146 -0.016884 -369309.000000 1 0 0
12.639337 -13.318490 -1.815891 18.450812 -0.811556 1.669374 0.036328 -0.003349 562967.000000 1 0 0
15.054937 -8.279990 4.432109 17.744096 -0.502832 1.318344 0.031873 -0.006484 -158519.000000 1 0 0
11.511537 -2.914290 15.023909 19.150102 -0.247953 0.668852 0.025085 -0.004848 82030.000000 1 0 0
12.212437 -13.825590 -6.231991 19.471216 -0.847273 1.896591 0.035161 -0.008135 -260721.000000 1 0 0
10.647337 -11.967490 -1.176491 16.061467 -0.843708 1.644111 0.024151 -0.008083 -1062950.000000 1 0 0
13.286137 -7.967390 2.249409 15.654410 -0.540182 1.426605 0.018719 -0.004186 157835.000000 1 0 0
8.762637 -7.817690 10.095509 15.486103 -0.728468 0.860699 0.011249 -0.003501 -2424610.000000 1 0 0
15.602037 -3.756990 8.148409 17.998197 -0.236302 1.100966 0.059299 -0.013604 -601864.000000 1 0 0
10.435637 -17.214290 5.172009 20.784224 -1.025816 1.319311 0.070783 -0.021279 -551654.000000 1 0 0
15.212437 -6.290890 8.303909 18.437690 -0.392121 1.103609 0.048149 -0.006712 615939.000000 1 0 0
16.620037 -4.777190 -0.294891 17.295494 -0.279890 1.587847 0.031449 -0.009055 -534623.000000 1 0 0
14.002737 -10.542990 3.582609 17.890398 -0.645370 1.369180 0.030669 -0.006268 91889.200000 1 0 0
15.178637 -9.905190 -4.331591 18.635087 -0.578183 1.805385 0.053010 -0.008793 708850.000000 1 0 0
13.760637 -6.417390 0.083609 15.183708 -0.436374 1.565290 0.024604 -0.006321 19471.500000 1 0 0
17.683137 -0.849390 -4.906891 18.370965 -0.047997 1.841179 0.040187 -0.005295 -908546.000000 1 0 0
14.366037 0.272910 -1.543491 14.451292 0.018995 1.677807 0.014206 -0.001824 -2233490.000000 1 0 0
4.833837 -12.878990 11.828009 18.142110 -1.211739 0.860624 -0.002486 0.000439 -438195.000000 1 0 0
11.829337 -7.145490 13.607509 19.394730 -0.543391 0.793144 0.020179 -0.009005 -166983.000000 1 0 0
12.018937 -5.575490 11.554309 17.579618 -0.434346 0.853624 0.021566 -0.006231 355580.000000 1 0 0
13.283137 -4.520790 8.423909 16.365864 -0.328044 1.030110 0.034068 -0.007713 -2184040.000000 1 0 0
15.560537 -1.057490 3.362909 15.954866 -0.067855 1.358427 0.029019 -0.009576 1116610.000000 1 0 0
15.185937 -10.420190 5.837209 19.320094 -0.601386 1.263868 0.040746 -0.009478 341802.000000 1 0 0
13.844837 -7.968190 -5.580891 16.920930 -0.522236 1.906911 0.039310 -0.005051 -103576.000000 1 0 0
9.476037 -2.340390 13.472109 16.636419 -0.242134 0.626992 0.000831 -0.003464 -338604.000000 1 0 0
10.107137 -9.249390 13.878109 19.501470 -0.741114 0.778960 0.040906 0.004161 436319.000000 1 0 0
20.258437 6.225610 -2.980791 21.402046 0.298149 1.710527 0.063564 -0.011292 -143608.000000 1 0 0
10.904437 -3.430590 10.752309 15.693560 -0.304801 0.815998 0.010091 -0.000448 767907.000000 1 0 0
10.315237 -13.985990 -2.883291 17.616055 -0.935317 1.735210 0.028740 -0.002010 445521.000000 1 0 0
15.015637 -12.733690 2.637509 19.863853 -0.703348 1.437624 0.034653 -0.000482 -447919.000000 1 0 0
10.912537 -0.363390 14.457809 18.117499 -0.033288 0.646823 0.013187 -0.002114 32009.800000 1 0 0
18.992237 -2.013090 6.153709 20.065536 -0.105601 1.259093 0.065078 -0.021809 685062.000000 1 0 0
18.693537 -0.066590 7.922409 20.303136 -0.003562 1.169941 0.058152 -0.012438 164813.000000 1 0 0
18.948937 0.836210 0.538409 18.975019 0.044101 1.542418 0.043708 -0.011581 -233522.000000 1 0 0
18.632537 0.776410 3.564009 18.986216 0.041646 1.381960 0.043685 -0.012455 217998.000000 1 0 0
16.636737 -3.716290 -4.106491 17.534397 -0.219771 1.807188 0.039651 -0.005416 -674502.000000 1 0 0
11.114837 -8.011390 15.907209 20.994315 -0.624539 0.711028 0.047344 -0.012085 432044.000000 1 0 0
16.499837 -7.577290 6.417309 19.257253 -0.430507 1.231057 0.043224 -0.011568 140013.000000 1 0 0
19.046737 2.175810 5.866609 20.048178 0.113742 1.273825 0.058459 -0.009871 648622.000000 1 0 0
15.280437 1.598110 7.610509 17.145424 0.104207 1.110872 0.040913 -0.009290 146149.000000 1 0 0
8.798737 -15.731590 3.823809 18.426128 -1.060838 1.361756 0.035154 -0.013248 114809.000000 1 0 0
11.403937 -15.088190 2.141609 19.033910 -0.923582 1.458042 0.036692 -0.002274 213731.000000 1 0 0
8.107237 -16.204090 6.114809 19.123041 -1.106892 1.245319 0.040876 -0.012725 230085.000000 1 0 0
14.683837 -11.588090 -2.408991 18.860067 -0.668104 1.698876 0.040820 -0.005076 1008560.000000 1 0 0
13.635337 -4.757090 3.275809 14.808215 -0.335676 1.347735 0.017478 -0.007011 -1315460.000000 1 0 0
-0.981263 10.234410 -5.515791 11.667475 -1.475210 2.063204 0.000482 0.001094 -1738830.000000 1 0 0
8.269737 -1.831190 -7.912791 11.591120 -0.217916 2.322193 0.002164 -0.006810 -3114310.000000 1 0 0
3.041337 -10.242890 7.745609 13.197006 -1.282166 0.943545 -0.002526 -0.003934 722403.000000 1 0 0
-6.370663 1.283210 8.184009 10.450358 -0.198765 0.671110 -0.000179 0.000794 104468.000000 1 0 0
7.355037 -6.223690 -7.229291 12.045477 -0.702273 2.214505 0.005080 -0.005318 -256086.000000 1 0 0
-11.343863 -4.409790 -4.125291 12.850973 0.370760 1.897592 0.005431 -0.003837 -82935.100000 1 0 0
2.128737 -3.157490 2.816709 4.736572 -0.977606 0.933938 0.004019 -0.001236 2284930.000000 1 0 0
-3.643663 -4.292290 8.767409 10.419573 0.866950 0.570860 0.002478 -0.001638 -2291630.000000 1 0 0
-4.862063 -1.092790 -2.548491 5.597201 0.221084 2.043523 0.003647 -0.000075 12130.400000 1 0 0
5.110537 -5.239290 -3.640791 8.174540 -0.797838 2.032397 0.006237 -0.006618 63471.400000 1 0 0
2.788137 14.336810 -8.852591 17.078823 1.378720 2.115702 0.007932 -0.003589 -318734.000000 1 0 0
5.358037 -5.415690 13.662509 15.642967 -0.790749 0.508663 0.003153 -0.002941 -1335350.000000 1 0 0
-4.834363 -0.881090 9.856509 11.013545 0.180277 0.462490 0.007157 -0.000398 -3199170.000000 1 0 0
-1.015363 11.957910 -2.687491 12.298178 -1.486088 1.791102 -0.000697 0.000691 -1630340.000000 1 0 0
3.046337 9.356110 -10.518991 14.403685 1.256023 2.389555 0.007059 -0.004142 -869010.000000 1 0 0
-10.659463 2.686110 1.046609 11.042406 -0.246854 1.475873 0.002384 -0.001273 -235945.000000 1 0 0
5.763537 -9.062490 -0.765991 10.767257 -1.004342 1.641997 0.004200 -0.005009 392898.000000 1 0 0
-6.938563 5.401710 9.290909 12.792308 -0.661496 0.757889 0.000965 0.003563 171563.000000 1 0 0
-5.501863 -1.853890 5.102309 7.729228 0.325008 0.849802 0.001974 -0.002661 535138.000000 1 0 0
6.645937 -3.815990 -7.243691 10.545203 -0.521221 2.328036 0.005963 -0.006408 335779.000000 1 0 0
6.172837 4.800810 11.083909 13.564835 0.661014 0.614423 0.003854 -0.000697 594895.000000 1 0 0
3.831937 -9.843090 3.402409 11.097141 -1.199546 1.259175 0.000204 -0.000918 1156150.000000 1 0 0
-6.679263 6.698410 -5.887391 11.141931 -0.786829 2.127511 0.006182 -0.004817 439154.000000 1 0 0
-11.110563 8.397710 5.174909 14.857518 -0.647223 1.215037 0.002156 -0.007405 234092.000000 1 0 0
-9.232663 -5.587190 5.021209 11.902576 0.544201 1.135302 0.004890 -0.003855 -555674.000000 1 0 0
3.295637 9.751510 -8.048091 13.066175 1.244886 2.234386 0.002053 -0.003059 517185.000000 1 0 0
-8.149763 -8.573690 5.956309 13.244033 0.810742 1.104327 0.008549 -0.004403 -2597980.000000 1 0 0
-7.866463 -5.774590 -7.420291 12.259194 0.633232 2.220919 0.005673 -0.002277 -400523.000000 1 0 0
9.192837 -1.533690 6.975009 11.640928 -0.165313 0.928320 0.004811 -0.005645 1342160.000000 1 0 0
-4.136763 -0.299190 -4.935891 6.447119 0.072199 2.442764 0.010052 -0.005990 -1337940.000000 1 0 0
9.102237 1.144210 -4.417491 10.182050 0.125051 2.019559 -0.002015 -0.001283 -3370550.000000 1 0 0
-1.817163 -10.626890 10.653209 15.156640 1.401438 0.791366 -0.001412 -0.006370 -250640.000000 1 0 0
-12.943763 0.272110 -2.736091 13.232583 -0.021019 1.779068 0.008064 -0.002995 -706869.000000 1 0 0
-9.874963 -4.965190 -6.120691 12.634511 0.465890 2.076522 0.007254 -0.005395 -1315900.000000 1 0 0
-5.776663 8.360710 -0.248191 10.165280 -0.966184 1.595214 -0.000543 0.001133 1013000.000000 1 0 0
6.362337 9.697810 0.475909 11.608331 0.990173 1.529788 0.003609 -0.002279 339388.000000 1 0 0
-0.575663 -12.118290 -0.001291 12.131955 1.523328 1.570903 0.011046 -0.001942 -151114.000000 1 0 0
6.094337 4.684310 2.402209 8.053217 0.655320 1.267894 -0.000317 -0.001802 348836.000000 1 0 0
3.563037 -7.533790 -8.131691 11.643780 -1.129029 2.343917 0.002857 -0.002695 764813.000000 1 0 0
-6.615263 -9.887790 4.477709 12.711411 0.981157 1.210813 0.008186 -0.004129 -2579080.000000 1 0 0
-0.087763 6.478210 -9.181091 11.236874 -1.557250 2.527073 0.008564 -0.007161 -4053550.000000 1 0 0
-17.362563 -2.723290 4.104809 18.047836 0.155581 1.341348 0.030002 -0.008568 -180013.000000 1 0 0
-8.333063 0.930610 -9.326791 12.541731 -0.111216 2.409325 0.009158 -0.009616 368507.000000 1 0 0
-9.958563 -5.846790 -11.893791 16.577702 0.530889 2.370941 0.014978 0.001797 -519734.000000 1 0 0
2.099037 9.459710 6.448509 11.639388 1.352442 0.983605 -0.007208 0.006354 -156199.000000 1 0 0
-11.332063 1.671910 -1.302291 11.528526 -0.146481 1.684000 0.005596 -0.002479 -1360520.000000 1 0 0
-6.198263 -5.333990 -3.138791 8.759105 0.710594 1.937292 0.010207 -0.003041 808461.000000 1 0 0
-6.982763 -8.380090 1.258909 10.980425 0.876103 1.455893 0.005999 -0.002829 221669.000000 1 0 0
0.075437 10.813410 -7.914991 13.400844 1.563820 2.202640 0.003111 0.000304 945526.000000 1 0 0
-2.783163 9.157110 -4.257091 10.474803 -1.275734 1.989321 0.002242 -0.001816 -1124280.000000 1 0 0
3.424937 -4.859290 9.293309 11.032157 -0.956841 0.569105 -0.004209 0.000137 -1212150.000000 1 0 0
-8.939763 1.588010 -0.420891 9.089461 -0.175801 1.617118 -0.000719 0.000220 -1266510.000000 1 0 0
2.470637 3.555310 -10.309091 11.181307 0.963492 2.743994 0.005145 -0.007517 1001230.000000 1 0 0
-13.747663 0.461810 1.128509 13.801632 -0.033579 1.488939 0.008144 -0.004387 -15255.300000 1 0 0
9.494337 -12.496890 -4.945191 16.455078 -0.921093 1.876041 0.027493 -0.004922 -1677010.000000 1 0 0
-4.753563 9.353910 -8.280291 13.366197 -1.100618 2.238895 0.003338 -0.004692 -72769.600000 1 0 0
-2.398663 7.195910 8.360509 11.288615 -1.249042 0.736812 -0.005388 0.004640 -1199820.000000 1 0 0
-10.765763 -1.327490 -4.509991 11.747506 0.122687 1.964824 0.004936 -0.001682 -4282630.000000 1 0 0
2.798137 -7.198890 9.506909 12.248874 -1.200078 0.682266 -0.004461 0.000103 -399625.000000 1 0 0
-16.159963 -6.435390 3.239409 17.693288 0.378980 1.386671 0.033769 -0.009896 299695.000000 1 0 0
-10.787463 -0.107290 6.109009 12.397616 0.009945 1.055541 0.002530 -0.001489 -939887.000000 1 0 0
-8.414863 9.794510 9.396109 15.969635 -0.861019 0.941751 0.001956 -0.004450 -1493520.000000 1 0 0
0.242537 -6.079590 -3.734491 7.139093 -1.530924 2.121286 0.003420 -0.001594 375151.000000 1 0 0
4.987037 1.485210 -3.058691 6.035890 0.289450 2.102208 -0.003162 -0.001877 195620.000000 1 0 0
0.352837 5.347910 3.697809 6.511408 1.504915 0.966848 -0.005938 0.002704 -3822620.000000 1 0 0
6.040737 -11.284790 -1.548891 12.893256 -1.079310 1.691219 0.003236 -0.002133 -2278790.000000 1 0 0
6.428137 -13.424590 5.276809 15.791937 -1.124225 1.230098 0.009096 -0.006075 -380759.000000 1 0 0
8.118337 -8.274190 -5.996191 13.050820 -0.794905 2.048171 0.004870 -0.005378 675145.000000 1 0 0
-13.156763 -1.265390 -4.884091 14.090989 0.095883 1.924752 0.006271 -0.000901 -4498610.000000 1 0 0
-6.764463 -1.589090 -7.225791 10.024731 0.230734 2.375747 0.008312 -0.003422 -652997.000000 1 0 0
-5.797463 12.825110 -4.602291 14.807941 -1.146247 1.886830 0.009986 0.003236 223595.000000 1 0 0
-4.255363 6.948210 -6.703091 10.550695 -1.021280 2.259222 0.007238 -0.005560 -5143260.000000 1 0 0
-9.318063 -3.627990 -8.196891 12.929719 0.371292 2.257456 0.009309 -0.002449 514366.000000 1 0 0
-2.289563 -6.476990 9.107209 11.407662 1.231014 0.646260 0.000691 -0.002018 -435801.000000 1 0 0
7.329237 -6.017690 10.057609 13.823379 -0.687447 0.756009 -0.000602 0.001424 557064.000000 1 0 0
9.578437 -5.133690 12.281909 16.399589 -0.492003 0.724372 0.005196 0.002182 -1015430.000000 1 0 0
-6.470663 2.903210 -9.037991 11.488402 -0.421750 2.476251 0.006715 -0.010273 -439131.000000 1 0 0
7.359437 5.447010 8.851709 12.735148 0.637161 0.802291 -0.000111 -0.000184 290271.000000 1 0 0
12.711237 3.361710 11.193409 17.267572 0.258548 0.865535 0.030938 -0.003785 286826.000000 1 0 0
-7.427963 -7.369290 -3.973991 11.192572 0.781433 1.933770 0.012601 -0.004974 -494896.000000 1 0 0
2.359537 1.380810 -5.812991 6.423777 0.529469 2.701983 0.000036 -0.005438 38919.800000 1 0 0
12.791337 6.855610 -7.066591 16.141697 0.491998 2.023930 0.008138 -0.003484 282806.000000 1 0 0
0.776137 -7.754090 1.002509 7.857055 -1.471035 1.442854 0.006907 -0.001491 362823.000000 1 0 0
-10.299763 -5.874990 -8.592591 14.643539 0.518371 2.197877 0.012708 -0.005406 -4480.110000 1 0 0
-6.715863 0.255610 3.117809 7.408704 -0.038042 1.136436 0.000914 -0.002957 977982.000000 1 0 0
10.835937 -7.902790 1.339509 13.478349 -0.630129 1.471250 0.009019 -0.004964 287752.000000 1 0 0
6.124637 1.119510 10.508909 12.214813 0.180792 0.534857 0.001893 0.000332 -499729.000000 1 0 0
-12.851463 5.260710 1.874509 14.012458 -0.388538 1.436620 0.011549 -0.005214 -307488.000000 1 0 0
1.994337 7.418610 3.576409 8.473716 1.308176 1.135081 -0.008254 0.002811 319877.000000 1 0 0
10.071037 -9.326590 -0.794591 13.749270 -0.747039 1.628620 0.008670 -0.004934 922683.000000 1 0 0
6.885037 -11.857290 -9.120491 16.467617 -1.044720 2.157770 0.006827 0.002255 -586375.000000 1 0 0
10.216437 3.668110 12.033809 16.206270 0.344706 0.733941 0.014436 0.000533 -1011350.000000 1 0 0
-11.008363 -3.131490 -1.896391 11.601146 0.277144 1.734999 0.001277 -0.000008 81581.800000 1 0 0
12.357037 1.020210 6.883909 14.181868 0.082374 1.063973 0.018078 -0.005015 115374.000000 1 0 0
-9.533763 9.286610 3.028209 13.649316 -0.772267 1.347077 -0.000171 -0.003497 724528.000000 1 0 0
-6.713663 7.635910 -8.898591 13.511673 -0.849580 2.289734 0.005437 -0.009607 -2811610.000000 1 0 0
8.458637 5.605410 12.166709 15.842916 0.585241 0.695148 0.014098 -0.002198 -412472.000000 1 0 0
1.353437 4.839910 -2.762591 5.734844 1.298121 2.073413 -0.001477 -0.004256 83990.600000 1 0 0
1.365637 0.457410 9.512509 9.620916 0.323199 0.150260 0.000778 0.000057 793286.000000 1 0 0
2.584637 12.531910 -3.986591 13.402314 1.367404 1.872823 0.002179 -0.003211 696607.000000 1 0 0
2.072337 0.603810 13.012909 13.190715 0.283518 0.164378 0.000015 -0.002879 -534550.000000 1 0 0
-12.312063 -1.748390 0.813009 12.462133 0.141063 1.505512 0.002518 -0.004207 9116.550000 1 0 0
3.265537 8.787010 -1.249091 9.457035 1.214981 1.703264 -0.000416 0.000304 337609.000000 1 0 0
3.665137 -2.814090 -5.890191 7.486433 -0.654796 2.476374 0.002444 -0.004465 -2334460.000000 1 0 0
-7.721163 -7.242690 9.183609 14.014692 0.753434 0.856237 0.009261 -0.004107 -359810.000000 1 0 0
-7.076063 10.924510 -3.518191 13.483073 -0.996023 1.834786 0.010822 0.007227 630058.000000 1 0 0
0.370937 0.549410 2.474809 2.562055 0.976941 0.261718 -0.004162 0.000355 -2823800.000000 1 0 0
-7.027163 4.646010 -2.120591 8.686964 -0.584174 1.817400 0.005244 -0.003288 -849227.000000 1 0 0
-6.924863 -3.885990 -5.960191 9.928672 0.511375 2.214674 0.005076 -0.001773 -171343.000000 1 0 0
2.869737 -6.145890 13.398809 15.017837 -1.133948 0.468619 -0.000248 -0.003422 -1279200.000000 1 0 0
-5.422663 -0.534890 -11.821091 13.016511 0.098322 2.709667 0.010916 -0.009154 -667994.000000 1 0 0
11.917837 2.446910 -0.702191 12.186684 0.202501 1.628448 0.004667 -0.001013 -2152120.000000 1 0 0
6.170037 -10.916990 10.802509 16.551260 -1.056375 0.859693 0.001337 -0.000764 364799.000000 1 0 0
-8.163263 6.291410 -10.461491 14.685486 -0.656617 2.363665 0.005370 -0.009636 163862.000000 1 0 0
2.859137 7.956710 11.255809 14.077540 1.225828 0.644238 -0.003792 -0.000741 1030310.000000 1 0 0
-6.151563 -10.202790 -0.512691 11.924827 1.028226 1.613803 0.009490 -0.000536 -508.327000 1 0 0
11.247037 4.271810 5.970209 13.430845 0.362987 1.110164 0.009377 -0.004064 427732.000000 1 0 0
-7.827563 10.676010 1.399409 13.311885 -0.938140 1.465477 -0.002217 0.000319 931801.000000 1 0 0
4.302437 -2.761290 -3.629191 6.269506 -0.570587 2.188131 0.003725 -0.005277 -4860090.000000 1 0 0
6.334237 6.454710 6.368609 11.060968 0.794818 0.957247 -0.000010 0.000385 -4917270.000000 1 0 0
-0.439463 10.290810 -10.269391 14.544906 -1.528118 2.354697 0.004704 -0.004419 -61699.400000 1 0 0
13.984037 6.588210 -2.325591 15.632216 0.440281 1.720120 0.010013 -0.000063 869127.000000 1 0 0
1.486537 9.498210 -6.188891 11.433642 1.415549 2.142764 0.001935 -0.001183 -1400130.000000 1 0 0
0.558337 7.372710 7.221009 10.334968 1.495210 0.797222 -0.010212 0.006803 -27839.000000 1 0 0
12.206337 6.365210 1.950409 13.903764 0.480674 1.430053 0.001810 -0.001806 -2522090.000000 1 0 0
-6.779563 6.808310 -3.219791 10.133243 -0.787514 1.894147 0.003429 -0.003447 154532.000000 1 0 0
0.904437 9.831210 11.145609 14.889436 1.479058 0.724911 -0.010617 -0.000115 -1863380.000000 1 0 0
-3.570563 13.326310 -10.886891 17.574523 -1.309012 2.238864 0.009305 -0.007831 -510941.000000 1 0 0
-9.991863 -5.482190 -2.327791 11.632298 0.501818 1.772271 0.005156 -0.001654 245659.000000 1 0 0
-4.063863 3.879910 -12.492491 13.697847 -0.762245 2.718940 0.007222 -0.013482 -799677.000000 1 0 0
-3.138863 8.375610 2.423909 9.267073 -1.212234 1.306157 -0.004141 0.003708 -2851000.000000 1 0 0
7.006437 8.942010 7.116109 13.404802 0.906172 1.011178 0.003856 0.001185 -629546.000000 1 0 0
-1.352663 -2.262490 -8.163591 8.578623 1.031948 2.829263 0.005880 -0.007769 -1873760.000000 1 0 0
0.770937 -1.292490 4.828909 5.057988 -1.032973 0.302114 0.001448 -0.000463 486222.000000 1 0 0
2.630537 -8.837190 -6.034891 11.019780 -1.281482 2.150339 -0.002963 -0.001805 25245.300000 1 0 0
5.185837 3.948410 8.768709 10.925800 0.650747 0.639207 0.000411 0.000904 -41435.100000 1 0 0
6.196137 -7.562390 -2.899091 10.197381 -0.884376 1.859070 0.004959 -0.006700 620816.000000 1 0 0
1.782537 2.235510 -8.238691 8.720721 0.897659 2.807554 0.005979 -0.007993 118798.000000 1 0 0
-5.303363 10.939310 -0.681091 12.176127 -1.119384 1.626762 -0.000918 0.002210 749322.000000 1 0 0
-5.401163 3.238310 -3.466591 7.188635 -0.540094 2.073997 0.006182 -0.003068 231787.000000 1 0 0
1.995137 13.640710 -6.437891 15.214992 1.425563 2.007691 -0.006172 0.000526 704147.000000 1 0 0
-5.273063 -2.594690 2.548709 6.405742 0.457279 1.161593 -0.001337 -0.001565 920238.000000 1 0 0
10.374337 -3.384590 -1.749991 11.051913 -0.315359 1.729808 0.002478 -0.003827 129723.000000 1 0 0
2.254837 -3.181490 7.075509 8.078923 -0.954231 0.503708 -0.001256 0.001109 -1252030.000000 1 0 0
-2.884663 9.764510 -11.737791 15.538426 -1.283544 2.427067 0.004868 -0.006587 -2641980.000000 1 0 0
0.512437 -2.141290 9.336109 9.592218 -1.335902 0.231600 0.001616 -0.000719 1051550.000000 1 0 0
9.400737 2.670510 4.967609 10.962783 0.276783 1.100519 0.003061 -0.003136 -123010.000000 1 0 0
13.422337 2.074810 -5.000491 14.473039 0.153365 1.923572 0.011554 -0.002319 -1044110.000000 1 0 0
-6.431663 3.774210 7.597309 10.645660 -0.530670 0.776097 -0.000941 -0.001165 53121.500000 1 0 0
10.668137 0.003910 2.019909 10.857679 0.000367 1.383671 0.005451 -0.001149 2091700.000000 1 0 0
15.334537 6.738110 -4.507591 17.345562 0.414010 1.833684 0.025012 -0.006348 204829.000000 1 0 0
8.156937 -4.876190 -9.218291 13.239703 -0.538798 2.340972 0.010155 -0.003527 197619.000000 1 0 0
4.466237 5.697910 -2.126391 7.545528 0.905988 1.856474 -0.002224 -0.002374 -135626.000000 1 0 0
-1.634163 -10.508890 1.448409 10.733366 1.416529 1.435439 0.012028 -0.002537 -731132.000000 1 0 0
-2.732163 12.144410 -12.949491 17.962203 -1.349508 2.375940 0.006670 -0.007753 -1063960.000000 1 0 0
8.322337 4.228910 -9.502091 13.320462 0.470138 2.365057 0.002581 -0.001974 -1822030.000000 1 0 0
4.164737 7.587410 -9.055991 12.526963 1.068797 2.378815 0.005392 -0.005489 -3415930.000000 1 0 0
-1.738963 -5.033790 -2.413291 5.846965 1.238173 1.996259 0.008112 -0.002445 106028.000000 1 0 0
-3.258363 -9.118090 7.041309 11.972323 1.227587 0.942049 0.005855 -0.002742 -503194.000000 1 0 0
1.102737 7.166910 -1.303391 7.367459 1.418129 1.748644 -0.001707 -0.003035 1115260.000000 1 0 0
0.459537 -0.618190 -2.361691 2.484133 -0.931559 2.826315 0.004599 -0.002076 -1338610.000000 1 0 0
4.013037 -6.590190 7.302109 10.623364 -1.023828 0.812944 0.000483 -0.000263 -1011820.000000 1 0 0
-13.863063 3.929010 5.959609 15.592902 -0.276173 1.178620 0.007573 -0.000055 -383223.000000 1 0 0
4.130537 6.252710 12.662209 14.713574 0.987006 0.534389 0.002281 -0.002553 -1207090.000000 1 0 0
8.287637 10.126710 -7.118391 14.896532 0.884940 2.069008 0.006893 -0.003963 252711.000000 1 0 0
12.427737 5.353010 9.460009 16.510455 0.406715 0.960670 0.023850 -0.004035 -71666.900000 1 0 0
7.470837 4.021910 0.408509 8.494471 0.493853 1.522687 0.002091 -0.000207 -2222600.000000 1 0 0
-10.853663 -7.560690 -1.052891 13.269311 0.608442 1.650228 0.004647 -0.004089 -338948.000000 1 0 0
10.485537 6.816710 0.158309 12.507561 0.576450 1.558139 0.002651 0.001127 -363142.000000 1 0 0
14.657037 3.559810 4.476709 15.733464 0.238260 1.282276 0.019373 -0.005083 965578.000000 1 0 0
2.130037 5.636810 8.201309 10.177041 1.209503 0.633663 -0.008391 0.004696 -223201.000000 1 0 0
4.177137 0.005410 11.748609 12.469095 0.001295 0.341605 -0.001294 -0.000545 -1611250.000000 1 0 0
-1.387363 -1.714890 -0.771791 2.336939 0.890585 1.907372 0.006148 -0.003210 -1049610.000000 1 0 0
3.137037 -5.332090 -9.376891 11.233800 -1.039001 2.558390 -0.002152 -0.001538 602623.000000 1 0 0
-4.058663 -5.395790 -1.458391 6.907546 0.925895 1.783527 0.005934 -0.002732 -289766.000000 1 0 0
-1.188663 -8.704390 8.575209 12.276544 1.435077 0.797492 0.004924 -0.003085 -626011.000000 1 0 0
3.948337 8.499910 -6.001591 11.129103 1.135937 2.140366 0.001068 -0.000335 426502.000000 1 0 0
-14.276563 -1.763590 -2.807491 14.656484 0.122908 1.763540 0.007945 -0.003237 -1086450.000000 1 0 0
8.942237 -10.611590 -6.758191 15.435108 -0.870564 2.023997 0.006054 -0.000009 276078.000000 1 0 0
14.753037 6.116610 1.721509 16.063269 0.393029 1.463420 0.004136 0.001329 -1747520.000000 1 0 0
-5.828063 0.497910 -8.457591 10.283243 -0.085226 2.536525 0.009383 -0.009206 -433024.000000 1 0 0
-8.027563 -4.518090 -13.038991 15.964654 0.512634 2.526537 0.011617 -0.000388 818955.000000 1 0 0
0.799837 -10.614990 12.056209 16.083219 -1.495589 0.723317 -0.008231 -0.003160 -271598.000000 1 0 0
0.296837 11.694210 3.317609 12.159326 1.545419 1.294447 0.000841 0.002384 -2350990.000000 1 0 0
5.122837 -13.321790 -3.869991 14.788183 -1.203683 1.835574 0.006321 -0.000275 640645.000000 1 0 0
-7.594963 1.535910 -7.031291 10.463343 -0.199536 2.307693 0.002936 -0.004741 644215.000000 1 0 0
1.434237 2.802610 3.984709 5.078343 1.097793 0.668669 -0.006876 0.000009 -1242360.000000 1 0 0
17.259337 5.593410 2.061109 18.259768 0.313400 1.457678 0.011898 -0.004443 311965.000000 1 0 0
2.548137 -8.185290 -3.502991 9.260827 -1.268999 1.958711 -0.000823 -0.002988 449458.000000 1 0 0
-0.258063 -9.511990 -0.569991 9.532546 1.543673 1.630626 0.011399 -0.000822 -1394790.000000 1 0 0
0.783237 11.842510 -5.645691 13.142767 1.504755 2.014809 0.000320 0.001946 -273957.000000 1 0 0
5.914137 -5.026490 7.766709 10.980181 -0.704442 0.785070 -0.004724 -0.000500 -1700420.000000 1 0 0
-5.921463 -1.909590 -9.480091 11.339417 0.311956 2.560803 0.012368 -0.007870 -110404.000000 1 0 0
2.047937 -1.320190 11.271509 11.531863 -0.572601 0.212896 -0.001516 0.000296 -654823.000000 1 0 0
18.050837 2.206710 -5.749191 19.072374 0.121646 1.877000 0.038199 -0.002580 -152367.000000 1 0 0
-8.946863 4.745010 7.777109 12.768904 -0.487635 0.915914 0.001796 -0.004792 -495575.000000 1 0 0
11.633337 -7.112490 -4.765091 14.443965 -0.548751 1.906996 0.013871 -0.005623 376503.000000 1 0 0
10.783537 0.625910 9.057209 14.096434 0.057978 0.873017 0.010315 -0.005126 6285.230000 1 0 0
-8.418263 -7.428590 -1.526091 11.330492 0.723027 1.705896 0.007199 -0.003164 -688985.000000 1 0 0
10.399837 -10.288490 -3.222391 14.979767 -0.780016 1.787607 0.015990 -0.001296 -534137.000000 1 0 0
7.745537 -13.888190 -3.758891 16.340270 -1.062056 1.802914 0.016718 -0.003069 349603.000000 1 0 0
1.694337 -1.207290 -11.698691 11.882243 -0.619095 2.965595 0.006563 -0.009698 239629.000000 1 0 0
-11.843663 -2.641590 -6.432791 13.734306 0.219446 2.058246 0.010038 -0.003679 1408.790000 1 0 0
2.691137 -12.230690 -6.442491 14.083241 -1.354216 2.045931 0.001383 0.001059 -105968.000000 1 0 0
-5.537463 1.500810 1.060409 5.834415 -0.264670 1.388030 0.000595 -0.001089 571991.000000 1 0 0
0.136137 6.765810 -3.922691 7.821907 1.550678 2.096129 0.004119 -0.004654 895190.000000 1 0 0
5.592137 -11.773990 3.653709 13.536928 -1.127383 1.297500 0.000272 -0.004958 -2000160.000000 1 0 0
-4.367963 -9.213290 1.045909 10.249768 1.128088 1.468576 0.010117 -0.003090 -286826.000000 1 0 0
7.148537 -6.190990 -4.776891 10.594745 -0.713738 2.038540 0.006926 -0.007278 -942746.000000 1 0 0
-7.002463 -6.069390 2.209909 9.526578 0.714139 1.336691 0.005983 -0.002996 -295915.000000 1 0 0
-6.289163 -0.816290 6.985109 9.434599 0.129071 0.737173 0.001141 -0.001404 -1000710.000000 1 0 0
4.205537 -4.925090 3.237009 7.240254 -0.864042 1.107292 -0.001397 0.000621 -888523.000000 1 0 0
-2.474863 10.575910 -8.790591 13.973164 -1.340923 2.251198 0.003840 -0.001872 -234093.000000 1 0 0
-2.347363 -4.958690 2.706009 6.117287 1.128667 1.112574 0.005858 0.000102 524354.000000 1 0 0
15.189937 5.253010 6.458909 17.321830 0.332948 1.188689 0.029637 -0.012123 846720.000000 1 0 0
6.761437 0.330710 0.076309 6.769950 0.048872 1.559524 0.000470 -0.001832 5409520.000000 1 0 0
-9.609763 9.124810 0.358509 13.256630 -0.759518 1.543749 0.002575 -0.003000 -1479390.000000 1 0 0
7.186337 10.490110 -2.520491 12.962975 0.970169 1.766480 -0.002630 0.000537 -698325.000000 1 0 0
1.663037 -4.301890 -5.360891 7.071852 -1.201910 2.431130 0.002719 -0.004167 -167861.000000 1 0 0
0.986837 -8.143890 -7.861991 11.362556 -1.450209 2.334943 -0.002104 0.000464 639413.000000 1 0 0
-10.455563 0.317610 -10.522891 14.837483 -0.030368 2.359173 0.011171 -0.007216 -3558330.000000 1 0 0
5.699037 -2.528690 0.502509 6.255062 -0.417606 1.490373 0.000897 -0.001979 213578.000000 1 0 0
-3.309363 5.248610 -1.160791 6.312466 -1.008236 1.755737 0.002701 -0.004829 991543.000000 1 0 0
-0.344663 4.539710 -5.103991 6.839480 -1.495020 2.413213 0.006509 -0.007233 -939804.000000 1 0 0
3.997937 -9.724390 10.142609 14.608894 -1.180737 0.803382 -0.006316 -0.002279 -971425.000000 1 0 0
7.415037 -13.416290 -0.791991 15.349490 -1.065891 1.622416 0.012243 -0.003723 1051180.000000 1 0 0
12.987437 -0.074290 0.519209 12.998023 -0.005720 1.530840 0.007480 -0.008885 216598.000000 1 0 0
9.271237 2.473110 -0.551891 9.611279 0.260681 1.628249 0.001337 -0.001654 -555311.000000 1 0 0
-0.783163 -5.732390 4.525909 7.345576 1.435016 0.906963 0.003541 0.001004 1474950.000000 1 0 0
11.431037 -3.709790 3.353209 12.476985 -0.313813 1.298700 0.013203 -0.007710 -2194360.000000 1 0 0
1.632137 -8.141490 11.647509 14.304272 -1.372947 0.619329 -0.007310 -0.001728 131499.000000 1 0 0
9.545637 -5.995290 -5.874391 12.711064 -0.560801 2.051212 0.006122 -0.004912 -97921.300000 1 0 0
3.193937 6.306710 -0.077491 7.069783 1.102014 1.581757 -0.005332 -0.001005 -1227950.000000 1 0 0
6.344537 -1.379590 11.451009 13.163663 -0.214112 0.515806 -0.004359 0.001423 423138.000000 1 0 0
-4.811863 -7.509590 -3.789791 9.690742 1.000942 1.972594 0.012474 -0.002613 254066.000000 1 0 0
-3.303863 -8.439090 -5.746591 10.731125 1.197643 2.135904 0.011354 0.000219 -456929.000000 1 0 0
9.716137 5.366510 2.226109 11.320703 0.504630 1.372866 0.002795 -0.002943 -41518.400000 1 0 0
8.877637 -1.355690 0.332309 8.986699 -0.151538 1.533810 0.001461 -0.001876 1756090.000000 1 0 0
-3.899963 9.728410 9.274509 13.995292 -1.189528 0.846394 -0.001777 0.003562 58931.200000 1 0 0
-14.362863 -3.527090 -6.131491 16.010228 0.240805 1.963809 0.011817 -0.004896 -857820.000000 1 0 0
10.612537 6.313910 -6.030691 13.742657 0.536697 2.025093 0.000405 -0.000139 -1385760.000000 1 0 0
-1.711563 4.361510 2.808309 5.462492 -1.196838 1.030829 -0.006106 -0.002240 30750.000000 1 0 0
6.994337 -3.651790 2.588009 8.303861 -0.481176 1.253853 0.004563 -0.004825 -2455880.000000 1 0 0
8.391137 -11.128990 -1.670691 14.037692 -0.924747 1.690094 0.011878 -0.004518 -344582.000000 1 0 0
4.445137 0.452010 1.755809 4.800669 0.101338 1.196366 0.001093 -0.000420 664836.000000 1 0 0
-10.795563 2.324410 3.701809 11.646908 -0.212074 1.247350 0.004203 -0.004737 -3769.280000 1 0 0
-0.960763 -3.087790 4.280009 5.364326 1.269143 0.647051 0.004840 -0.002533 427415.000000 1 0 0
8.652937 -8.642090 -8.595091 14.947729 -0.784771 2.183412 0.007835 -0.001376 6677.230000 1 0 0
11.984437 -4.786990 1.092309 12.951260 -0.380018 1.486356 0.011944 -0.006403 150591.000000 1 0 0
2.944037 4.815310 3.483709 6.632556 1.022043 1.017795 -0.008809 0.000327 -112380.000000 1 0 0
6.230637 7.426210 2.028609 9.903771 0.872719 1.364504 -0.001114 -0.001616 -556091.000000 1 0 0
-1.580063 -1.304290 -10.376791 10.577124 0.690078 2.946655 0.008562 -0.009029 593051.000000 1 0 0
-0.918563 -8.698290 5.946709 10.576736 1.465584 0.973699 0.003770 -0.002915 367905.000000 1 0 0
-4.273363 -0.219890 2.130909 4.780247 0.051411 1.108758 0.000205 -0.000487 394543.000000 1 0 0
-8.452363 6.173010 -7.990791 13.168190 -0.630793 2.222857 0.005842 -0.008414 -857414.000000 1 0 0
6.619937 11.229310 -9.384491 16.062056 1.038116 2.194770 0.007963 -0.005742 4475.480000 1 0 0
-11.288563 -5.751490 3.114009 13.046392 0.471216 1.329782 0.008587 -0.002102 1018060.000000 1 0 0
1.459737 -6.264290 2.991709 7.093834 -1.341857 1.135440 0.005429 -0.000916 924787.000000 1 0 0
10.102537 2.164410 7.132009 12.554341 0.211054 0.966612 0.009049 -0.002738 -2334030.000000 1 0 0
-4.000263 -2.425690 -10.649691 11.631938 0.545099 2.727684 0.007726 -0.008098 -2716520.000000 1 0 0
-8.251163 11.845310 5.913809 15.600199 -0.962372 1.181988 0.000833 -0.000634 -1306530.000000 1 0 0
6.874537 6.089810 -2.854691 9.617396 0.724942 1.872163 -0.000826 0.000122 -3249350.000000 1 0 0
3.912737 -9.972390 -2.288491 10.954234 -1.196896 1.781260 0.000399 -0.004637 -2157190.000000 1 0 0
8.644537 -12.905790 -7.375191 17.195373 -0.980615 2.014077 0.020682 -0.001735 483189.000000 1 0 0
-1.089863 9.410310 3.577309 10.126149 -1.455494 1.209727 -0.004129 0.003645 90801.200000 1 0 0
0.559237 -13.184690 4.670109 13.998525 -1.528406 1.230661 0.013237 -0.005188 -691841.000000 1 0 0
-11.115363 -6.961790 -5.181391 14.101937 0.559549 1.947034 0.011520 -0.007591 146316.000000 1 0 0
3.517937 10.195710 -3.437391 11.320073 1.238546 1.879322 0.000661 -0.003254 -664019.000000 1 0 0
11.777237 -8.091990 -7.287891 16.040478 -0.602007 2.042432 0.022489 -0.003729 337987.000000 1 0 0
11.818137 -4.907190 -5.936491 14.106409 -0.393562 2.005163 0.011692 -0.003083 -567624.000000 1 0 0
1.342337 -10.298190 -2.715091 10.734351 -1.441180 1.826509 0.001377 -0.000677 -1203640.000000 1 0 0
2.373737 -12.054490 -3.970591 12.911659 -1.376367 1.883382 0.004509 -0.000089 -1503390.000000 1 0 0
-7.610063 -5.825790 7.143209 11.953172 0.653371 0.930293 0.005589 -0.001472 -1734140.000000 1 0 0
-7.243963 -0.912390 9.416909 11.915773 0.125292 0.659515 0.002883 0.000249 -299869.000000 1 0 0
16.242037 2.780910 -7.451191 18.084730 0.169573 1.995461 0.023618 -0.002293 556772.000000 1 0 0
-1.940063 6.307810 -5.496891 8.588837 -1.272413 2.265300 0.007178 -0.004449 -1230860.000000 1 0 0
7.622437 1.250310 8.383909 11.399770 0.162582 0.744472 0.000998 -0.002140 -85596.000000 1 0 0
7.898037 8.347110 -3.806791 12.105573 0.813035 1.890690 -0.000856 0.001831 -241442.000000 1 0 0
7.994137 0.531610 3.980609 8.946177 0.066402 1.109677 0.002680 -0.002475 -689117.000000 1 0 0
-7.059863 5.761710 5.382609 10.583547 -0.684494 1.037258 -0.000469 -0.004195 272397.000000 1 0 0
-5.984663 -2.027390 -4.753391 7.907037 0.326630 2.215748 0.008629 -0.003541 -1160090.000000 1 0 0
-15.182863 -2.110990 3.092609 15.637770 0.138152 1.371719 0.018384 -0.005536 -1571870.000000 1 0 0
1.100837 1.245610 -10.425491 10.557189 0.847019 2.983474 0.007144 -0.010888 349944.000000 1 0 0
1.477237 -9.344690 9.388309 13.328383 -1.414011 0.789240 -0.001604 -0.003627 -93212.700000 1 0 0
-0.184263 -6.871590 -1.214891 6.980591 1.543987 1.745725 0.006456 -0.001130 629537.000000 1 0 0
-0.379263 -10.276090 -8.365191 13.255877 1.533906 2.253709 0.002195 0.001509 -145057.000000 1 0 0
-4.278063 6.523310 3.848509 8.698645 -0.990346 1.112494 -0.003621 0.001964 -179786.000000 1 0 0
10.662237 -1.202890 -8.575691 13.735818 -0.112343 2.245071 0.012892 -0.003679 115831.000000 1 0 0
3.072037 -0.932490 6.220409 7.000031 -0.294702 0.476456 -0.003017 0.001138 1114070.000000 1 0 0
1.984237 -12.396190 6.771909 14.263992 -1.412075 1.076110 0.005204 -0.004618 91297.500000 1 0 0
2.943837 -5.031390 -1.440491 6.004671 -1.041409 1.813054 0.008785 -0.003919 -1159360.000000 1 0 0
-1.042263 9.494410 -1.644191 9.691930 -1.461458 1.741266 0.002557 -0.001451 197077.000000 1 0 0
4.622737 -2.507190 2.739809 5.929776 -0.496959 1.090499 0.002198 0.001139 -2348830.000000 1 0 0
17.822937 6.935210 -2.666891 19.309752 0.371090 1.709350 0.023951 0.004516 155082.000000 1 0 0
-7.097563 3.513410 -5.503091 9.643830 -0.459653 2.178073 0.006511 -0.006614 -1039590.000000 1 0 0
-13.865463 -6.025690 2.138809 15.268743 0.409959 1.430257 0.006000 -0.003391 276957.000000 1 0 0
6.638937 -6.029590 2.969809 9.447285 -0.737336 1.251018 0.000785 -0.004365 547023.000000 1 0 0
-4.603563 1.958510 3.450109 6.077155 -0.402238 0.967065 -0.001292 -0.002305 650556.000000 1 0 0
6.979737 -12.099490 -5.517991 15.018741 -1.047564 1.947016 0.015249 -0.000494 1170010.000000 1 0 0
3.065337 -12.233290 3.237409 13.020387 -1.325278 1.319519 0.006113 -0.003885 -516463.000000 1 0 0
3.378337 11.293610 -6.138091 13.290408 1.280131 2.050869 0.000326 0.002092 -450256.000000 1 0 0
-5.559763 -8.385890 6.304109 11.873328 0.985343 1.011078 0.008317 -0.001911 684225.000000 1 0 0
-3.977563 6.391810 6.339609 9.842098 -1.014148 0.870908 -0.001332 0.002441 495104.000000 1 0 0
4.324737 4.322710 -6.921591 9.235669 0.785164 2.418014 -0.001055 -0.002097 -2310320.000000 1 0 0
-0.284063 -2.761690 1.469109 3.141004 1.468298 1.084087 0.005935 -0.000589 -2262400.000000 1 0 0
-13.246863 -0.966690 6.435709 14.759141 0.072846 1.119593 0.005025 -0.001763 -1201980.000000 1 0 0
-0.361563 -9.263990 -5.970691 11.027302 1.531787 2.142953 0.001897 0.000239 -156742.000000 1 0 0
2.102637 -1.640790 -3.968091 4.781110 -0.662643 2.549817 0.003350 -0.003253 -1151000.000000 1 0 0
11.384537 -1.970290 1.141009 11.609979 -0.171370 1.472359 0.010806 -0.008088 1087020.000000 1 0 0
0.543037 -4.330390 -1.922991 4.769178 -1.446046 1.985821 0.007252 -0.003216 -1793410.000000 1 0 0
1.171937 -7.393990 -11.248891 13.512293 -1.413605 2.554389 0.000065 -0.000082 482476.000000 1 0 0
-4.482563 4.225410 -10.076991 11.810724 -0.755876 2.592899 0.008607 -0.013809 104691.000000 1 0 0
-0.981063 5.723010 -2.113591 6.179207 -1.401022 1.919893 0.002575 -0.004581 -1124480.000000 1 0 0
-11.403163 1.722810 -3.993991 12.204596 -0.149948 1.904191 0.005736 -0.001749 -421692.000000 1 0 0
-1.664463 -11.191690 4.153509 12.053049 1.423155 1.218981 0.016159 -0.003059 -311537.000000 1 0 0
-3.535963 -5.355990 -9.724291 11.651244 0.987292 2.558228 0.003591 0.000200 -423833.000000 1 0 0
-12.937463 -3.825990 -8.402091 15.893750 0.287534 2.127795 0.018582 -0.003423 -161169.000000 1 0 0
11.437437 4.384510 0.621809 12.264809 0.366069 1.520076 0.005945 0.000129 270280.000000 1 0 0
-8.829363 -2.341390 -3.052691 9.631131 0.259216 1.893320 0.005959 -0.002071 -169138.000000 1 0 0
-2.399863 -6.117190 -6.489291 9.235272 1.196933 2.349931 0.003414 -0.003349 -1103160.000000 1 0 0
-0.061463 2.688310 -1.929791 3.309816 -1.547937 2.193275 0.001815 -0.004484 1455190.000000 1 0 0
8.082537 6.125610 -5.094891 11.349379 0.648527 2.036346 -0.000452 -0.000296 -545441.000000 1 0 0
-9.699463 -0.914890 -1.017391 9.795494 0.094045 1.674847 -0.000196 -0.000360 -550598.000000 1 0 0
6.189037 0.490410 -8.826391 10.791193 0.079073 2.528592 -0.001027 -0.003695 533154.000000 1 0 0
-4.110563 2.479110 7.799009 9.157907 -0.542701 0.551738 -0.003749 0.002288 -228453.000000 1 0 0
-10.197863 -3.329090 1.446009 10.824518 0.315543 1.436809 0.002288 -0.002004 3341800.000000 1 0 0
-1.759263 -8.195090 -7.866691 11.495187 1.359333 2.324503 0.003149 -0.001657 -1598610.000000 1 0 0
-9.463763 -9.879290 4.141209 14.293803 0.806877 1.276861 0.004727 -0.003581 -538515.000000 1 0 0
-1.073263 -10.692590 7.249909 12.963200 1.470757 0.977293 0.008803 -0.005239 66163.600000 1 0 0
9.465037 3.840710 -3.736991 10.876722 0.385478 1.921519 -0.000678 -0.000034 -706323.000000 1 0 0
12.959337 -0.871590 3.011609 13.333187 -0.067155 1.342957 0.011543 -0.005237 250852.000000 1 0 0
6.522537 11.932210 -6.871291 15.236002 1.070542 2.038671 -0.002532 0.001439 321782.000000 1 0 0
-11.786363 -0.011990 -6.509791 13.464616 0.001017 2.075415 0.008884 -0.001657 1030240.000000 1 0 0
-7.555563 -6.612590 -11.464991 15.240042 0.718940 2.422333 0.014554 -0.004124 -1158520.000000 1 0 0
4.024437 6.140710 6.483509 9.794912 0.990655 0.847411 -0.006185 0.002249 -3454070.000000 1 0 0
-4.286563 -1.336690 -7.420091 8.672895 0.302277 2.597408 0.007769 -0.008202 -1254630.000000 1 0 0
9.689737 9.264710 0.936709 13.438872 0.762978 1.501038 0.004982 -0.000094 -2281850.000000 1 0 0
-8.860263 3.835310 4.802909 10.783404 -0.408515 1.109177 0.002432 -0.004970 1271790.000000 1 0 0
-7.037263 7.765110 -12.195191 16.079263 -0.834530 2.431716 0.001947 -0.010881 -1737600.000000 1 0 0
11.211937 -3.540890 7.307409 13.843542 -0.305901 1.014721 0.014383 -0.004678 449000.000000 1 0 0
11.849237 6.906710 6.418209 15.142670 0.527738 1.133105 0.009653 -0.005995 -29446.300000 1 0 0
-10.152763 -0.642990 -14.728091 17.899964 0.063247 2.537117 0.023887 -0.006136 274464.000000 1 0 0
1.717837 -13.011990 12.098009 17.850061 -1.439536 0.826088 -0.004618 -0.004949 93521.400000 1 0 0
2.838337 3.074310 13.107809 13.759441 0.825287 0.308990 -0.000539 -0.003673 -378735.000000 1 0 0
-2.682263 -1.353190 10.967609 11.371636 0.467237 0.267364 0.008062 -0.001856 -717857.000000 1 0 0
2.604937 -10.149590 -8.241391 13.331181 -1.319565 2.237252 -0.002931 0.001766 -837822.000000 1 0 0
13.863237 3.603510 -7.437191 16.139592 0.254305 2.049697 0.008838 -0.003935 -2866030.000000 1 0 0
7.354837 -1.566890 4.966409 9.011880 -0.209904 0.987119 0.000576 -0.001327 476088.000000 1 0 0
-1.294763 8.718410 10.131109 13.428569 -1.423365 0.715989 -0.005018 0.002983 -243016.000000 1 0 0
-12.152163 -4.694390 0.804809 13.052206 0.368641 1.509096 0.003214 -0.003045 -568124.000000 1 0 0
-4.993763 4.900610 -5.413491 8.846442 -0.775984 2.229307 0.009123 -0.007918 -386463.000000 1 0 0
-11.251663 0.302410 1.970609 11.426928 -0.026870 1.397477 0.000733 -0.001024 -3178950.000000 1 0 0
-1.438763 2.306110 -4.080491 4.902916 -1.012994 2.553964 0.006440 -0.006743 820931.000000 1 0 0
3.078637 -9.823390 13.099209 16.660320 -1.267093 0.666077 -0.003213 -0.002542 -1353350.000000 1 0 0
8.782837 4.713110 -1.462991 10.074322 0.492518 1.716531 -0.001227 -0.001664 -1355020.000000 1 0 0
4.026937 2.313310 3.696009 5.935327 0.521428 0.898590 -0.006949 0.001206 -171717.000000 1 0 0
-5.497163 -3.255490 7.425209 9.795445 0.534674 0.710514 0.004246 -0.002137 80114.800000 1 0 0
1.670937 -5.655990 7.735709 9.727458 -1.283539 0.651385 -0.002094 0.000273 -905940.000000 1 0 0
-5.905863 -6.326690 -9.653391 12.965114 0.819787 2.410682 0.009556 -0.002522 456761.000000 1 0 0
-11.781963 -5.831590 5.425609 14.221791 0.459607 1.179378 0.009487 -0.003731 -723691.000000 1 0 0
10.501137 6.177410 4.546509 13.004038 0.531743 1.213628 0.002476 -0.001973 -701486.000000 1 0 0
1.475337 -3.786790 0.399209 4.083597 -1.199287 1.472881 0.011979 -0.002216 -781568.000000 1 0 0
8.774937 4.321210 6.955909 12.002377 0.457589 0.952627 0.002029 0.000828 20903.600000 1 0 0
-7.889163 12.199110 3.463709 14.935008 -0.996745 1.336747 -0.001934 -0.002782 -467414.000000 1 0 0
-6.286063 13.301910 -7.022191 16.302349 -1.129334 2.016117 0.021222 -0.002608 696770.000000 1 0 0
4.568337 -7.048990 -0.929291 8.451126 -0.995769 1.680980 0.004762 -0.003982 -1178660.000000 1 0 0
-1.833663 -8.190990 11.060009 13.884468 1.350564 0.649189 0.000013 -0.003317 119463.000000 1 0 0
11.646137 8.761110 -5.691691 15.645603 0.644956 1.943128 0.008556 -0.006045 792800.000000 1 0 0
-3.384663 -3.012090 -1.970291 4.940716 0.727220 1.980989 0.007628 -0.003115 -2061380.000000 1 0 0
-1.954463 6.022310 4.706709 7.889313 -1.256983 0.931547 -0.007197 0.002466 -410295.000000 1 0 0
0.295337 -11.562190 -5.688591 12.889202 -1.545259 2.027894 -0.000310 -0.002618 -570472.000000 1 0 0
-8.795963 6.254010 -1.578491 10.907486 -0.618076 1.716023 0.004157 -0.000665 -619256.000000 1 0 0
2.802437 -0.011490 3.807109 4.727353 -0.004100 0.634554 -0.002875 0.001508 -401728.000000 1 0 0
-10.021963 3.966810 -1.102991 10.834755 -0.376891 1.672774 0.008438 -0.001735 69671.000000 1 0 0
6.399337 5.417310 13.577109 15.957339 0.702483 0.553218 0.014388 -0.004463 -823009.000000 1 0 0
-8.812663 -1.720290 5.733309 10.653322 0.192782 1.002531 0.001920 -0.003070 -342322.000000 1 0 0
12.875437 -1.773290 -1.454691 13.078132 -0.136866 1.682258 0.009961 -0.008512 -1483000.000000 1 0 0
5.478237 -5.504390 5.308909 9.407120 -0.787779 0.971150 -0.003642 -0.002312 90646.900000 1 0 0
-9.035663 -1.189890 3.192509 9.656664 0.130935 1.233855 -0.001316 -0.001252 684082.000000 1 0 0
1.872937 5.534710 5.537009 8.049806 1.244494 0.812282 -0.005785 0.001133 -361601.000000 1 0 0
9.278337 3.060310 -7.343691 12.222227 0.318598 2.215357 0.000405 -0.001939 -1869590.000000 1 0 0
2.263337 -2.430990 -1.545891 3.663630 -0.821097 2.006398 0.007160 -0.003175 216932.000000 1 0 0
-6.362163 0.400310 -4.061591 7.558696 -0.062838 2.138076 -0.000369 0.000644 -2223340.000000 1 0 0
-3.905363 4.123310 4.945209 7.530514 -0.812538 0.854376 -0.003314 -0.000826 875416.000000 1 0 0
-6.434463 1.845110 -12.405591 14.096291 -0.279261 2.646786 0.007831 -0.011598 -2187340.000000 1 0 0
-0.101363 3.116010 6.245309 6.980235 -1.538278 0.463007 -0.006362 0.000146 1238320.000000 1 0 0
-8.823063 9.382910 -2.211691 13.068169 -0.816139 1.740857 0.001712 0.004476 426819.000000 1 0 0
-1.379563 -3.787890 -6.178791 7.377585 1.221524 2.563504 0.006451 -0.004489 403593.000000 1 0 0
-3.275063 7.044010 -3.052691 8.346439 -1.135586 1.945232 0.004653 -0.001324 858840.000000 1 0 0
7.080537 -0.388190 -4.328391 8.307807 -0.054770 2.118822 -0.000845 -0.001239 -448448.000000 1 0 0
-5.246563 -10.879590 6.819309 13.870648 1.121458 1.056829 0.004114 -0.003594 162778.000000 1 0 0
9.654537 8.404010 -1.413591 12.877721 0.716260 1.680788 0.004019 0.003205 99193.300000 1 0 0
13.675937 4.619310 -4.177391 15.027304 0.325738 1.852494 0.006149 -0.003900 804637.000000 1 0 0
4.739137 1.102510 -6.893891 8.438049 0.228574 2.526986 -0.003207 -0.004406 124449.000000 1 0 0
8.958337 -4.759890 3.610309 10.767668 -0.488401 1.228882 0.006669 -0.004707 -14952.400000 1 0 0
-8.706263 -3.248790 -0.734991 9.321688 0.357153 1.649726 0.002040 -0.000580 196780.000000 1 0 0
-8.496363 -4.238690 -10.458791 14.125898 0.462753 2.404459 0.010359 -0.005117 -90755.000000 1 0 0
10.422537 -1.006290 10.760409 15.014270 -0.096251 0.771768 0.006532 -0.000484 653628.000000 1 0 0
2.238337 -11.670590 9.967109 15.509870 -1.381304 0.872870 -0.003010 -0.004848 735739.000000 1 0 0
-6.337463 -10.685890 1.960609 12.577586 1.035489 1.414277 0.007943 -0.002619 -548805.000000 1 0 0
-3.719963 -1.323090 6.617409 7.705764 0.341720 0.537950 0.004438 -0.000659 -2463280.000000 1 0 0
4.802537 -7.498790 3.790709 9.678103 -1.001170 1.168341 -0.002363 -0.000665 71439.000000 1 0 0
11.618837 -9.487390 -5.278391 15.901866 -0.684753 1.909151 0.020832 -0.003844 798910.000000 1 0 0
11.198237 1.307410 11.615609 16.187409 0.116225 0.770488 0.010706 0.002599 -159762.000000 1 0 0
-10.282063 -3.476490 4.321709 11.682636 0.326045 1.191867 0.004555 -0.002756 3104380.000000 1 0 0
1.932837 8.673810 8.997009 12.645830 1.351543 0.779222 -0.008706 0.003922 -120635.000000 1 0 0
6.542137 8.791310 4.124509 11.708897 0.931044 1.210818 -0.000064 0.000841 2219230.000000 1 0 0
-4.289863 3.565510 0.507509 5.601193 -0.693447 1.480065 0.002423 -0.002820 -643046.000000 1 0 0
4.868937 6.955510 4.237309 9.488965 0.960063 1.107889 -0.002661 0.000399 -958600.000000 1 0 0
-8.309563 13.192710 1.052909 15.627062 -1.008710 1.503368 0.001394 -0.000234 -731940.000000 1 0 0
8.899837 8.299310 -9.122191 15.208550 0.750496 2.214056 -0.000604 -0.004290 -1090920.000000 1 0 0
7.086037 1.978810 6.054609 9.528163 0.272318 0.882214 -0.000383 0.000967 -1231000.000000 1 0 0
11.521237 -6.184090 3.188709 13.459187 -0.492618 1.331605 0.016669 -0.005109 -315154.000000 1 0 0
11.302237 4.766310 -2.017391 12.430934 0.399084 1.733805 0.004557 0.001560 -167304.000000 1 0 0
-3.980163 14.383810 -5.952491 16.067602 -1.300840 1.950306 0.011494 0.006335 1641230.000000 1 0 0
7.090537 -3.001790 6.886509 10.330076 -0.400474 0.841096 0.002703 -0.002751 -576854.000000 1 0 0
-7.966363 -0.478490 0.922909 8.033907 0.059992 1.455665 0.001970 -0.001787 156714.000000 1 0 0
-3.317563 1.088010 10.660009 11.217210 -0.316902 0.316514 0.003381 0.002233 -118342.000000 1 0 0
7.067337 -1.312990 -1.889691 7.432504 -0.183689 1.827865 0.003166 -0.003187 -2217110.000000 1 0 0
-7.760963 5.365810 2.955809 9.887431 -0.604920 1.267208 0.000793 -0.002230 733658.000000 1 0 0
9.397737 -2.179690 2.868909 10.064747 -0.227908 1.281743 0.006113 -0.006000 -1750910.000000 1 0 0
0.246137 3.405410 1.527109 3.740249 1.498644 1.150215 -0.004146 -0.001256 -4896710.000000 1 0 0
-7.530563 -3.109190 3.913109 9.038190 0.391557 1.123030 0.001491 -0.001106 417258.000000 1 0 0
-2.164963 8.320210 -6.782491 10.950577 -1.316236 2.238740 0.003725 -0.003462 -433283.000000 1 0 0
4.404037 9.740610 7.402509 13.002776 1.146171 0.965139 -0.005561 0.006330 2063840.000000 1 0 0
-11.901463 -3.217790 6.799709 14.079597 0.264056 1.066778 0.007764 -0.004884 -252282.000000 1 0 0
-4.770263 2.342110 -5.739591 7.822007 -0.456407 2.394658 0.009486 -0.008656 -1071630.000000 1 0 0
-2.773663 2.849210 -1.748491 4.343780 -0.798833 1.985072 0.002564 -0.004429 1487940.000000 1 0 0
2.292937 5.097510 11.449609 12.741104 1.148096 0.454147 -0.001501 -0.004837 428729.000000 1 0 0
-0.719863 1.610310 4.558809 4.888154 -1.150412 0.369179 -0.001874 -0.000659 -525149.000000 1 0 0
4.981037 1.620910 7.609409 9.238029 0.314608 0.602882 -0.004723 0.002359 1861240.000000 1 0 0
3.304537 -8.129790 1.891109 8.977179 -1.184723 1.358549 0.003393 -0.002052 1553420.000000 1 0 0
5.030337 6.495510 -4.627991 9.429435 0.911841 2.083807 0.000647 -0.001858 -2294090.000000 1 0 0
-4.066763 2.932310 -8.024891 9.462340 -0.624709 2.583161 0.011809 -0.013834 -209349.000000 1 0 0
-8.595963 -2.044290 -13.031391 15.744423 0.233482 2.545763 0.007275 -0.001314 280516.000000 1 0 0
-7.686363 8.143410 1.443309 11.290636 -0.814263 1.442613 -0.000645 -0.000394 -3042610.000000 1 0 0
7.461637 0.965510 -6.557791 9.980624 0.128682 2.287698 -0.001403 -0.000752 647629.000000 1 0 0
8.914537 8.812210 5.532009 13.701355 0.779626 1.155177 0.001595 -0.001010 118216.000000 1 0 0
9.411837 -1.035590 -1.410791 9.573163 -0.109590 1.718704 0.000865 -0.002654 917786.000000 1 0 0
5.434737 0.201510 4.143409 6.837018 0.037061 0.919741 -0.000732 0.001693 -759024.000000 1 0 0
-4.093163 -7.245090 -7.971391 11.523384 1.056542 2.334717 0.012346 -0.003847 -830676.000000 1 0 0
-2.249363 7.391310 -0.609491 7.750005 -1.275376 1.649522 0.000046 -0.002023 196864.000000 1 0 0
13.461737 -3.331390 -7.369991 15.704562 -0.242597 2.059283 0.015362 -0.003522 1226340.000000 1 0 0
-4.823663 -5.118090 1.548709 7.201463 0.815005 1.354048 0.005199 -0.000957 1149300.000000 1 0 0
-8.938463 1.354510 2.497009 9.379013 -0.150393 1.301313 0.001378 -0.002865 -1193520.000000 1 0 0
-1.088763 11.198510 10.260209 15.227079 -1.473877 0.831439 -0.003685 0.001353 230504.000000 1 0 0
-8.628963 0.250410 7.527109 11.453344 -0.029012 0.853702 -0.001133 -0.001329 -517042.000000 1 0 0
-6.138063 12.899010 -2.075291 14.434927 -1.126650 1.715065 0.003925 0.003908 106531.000000 1 0 0
-13.056663 -0.721390 3.253909 13.475340 0.055195 1.326914 0.010412 -0.004930 400672.000000 1 0 0
-6.740563 12.891510 8.713909 16.957548 -1.089022 1.031111 0.009068 -0.006900 -1707700.000000 1 0 0
-8.105463 0.942610 -14.153691 16.337503 -0.115773 2.618606 0.008897 -0.004415 306362.000000 1 0 0
7.189937 2.845910 3.724709 8.582998 0.376896 1.121909 0.000290 -0.000547 -483788.000000 1 0 0
-1.752163 0.611110 -2.021991 2.744445 -0.335583 2.399059 0.006216 -0.004924 614706.000000 1 0 0
-6.262363 9.555110 -10.459591 15.489363 -0.990638 2.312135 0.001971 -0.006814 -281274.000000 1 0 0
-10.140363 13.664310 5.278309 17.815749 -0.932367 1.270009 -0.001865 -0.005751 796120.000000 1 0 0
-5.598163 8.216510 2.516909 10.255989 -0.972710 1.322855 -0.001616 0.000922 -1069600.000000 1 0 0
-2.374363 -10.751090 -1.277291 11.083998 1.353437 1.686290 0.007895 -0.000634 392024.000000 1 0 0
-2.311163 -12.300990 8.822309 15.313033 1.385077 0.956809 0.005262 -0.004443 553636.000000 1 0 0
-14.730363 -6.382990 -1.729591 16.146753 0.408898 1.678119 0.025922 -0.006191 149286.000000 1 0 0
-2.770863 -9.342690 3.297009 10.287556 1.282479 1.244555 0.009883 -0.003275 -2184730.000000 1 0 0
4.616637 -2.641490 7.609209 9.283904 -0.519703 0.610061 -0.004670 0.002992 -525699.000000 1 0 0
-15.074963 -1.294190 -0.335391 15.134131 0.085640 1.592959 0.009854 -0.008037 219928.000000 1 0 0
5.483137 8.813110 -2.819291 10.755654 1.014244 1.836016 -0.001409 0.001162 -2306180.000000 1 0 0
-5.701563 -5.621090 8.599409 11.749652 0.778291 0.749710 0.007225 -0.000998 -4505390.000000 1 0 0
3.359937 3.699310 7.028809 8.624281 0.833436 0.618063 -0.005970 0.001535 247902.000000 1 0 0
3.281137 2.297110 9.402209 10.219790 0.610790 0.402715 0.001089 -0.001734 -569534.000000 1 0 0
9.966637 -3.255790 5.231109 11.717445 -0.315741 1.108016 0.012953 -0.005602 -105310.000000 1 0 0
6.428237 10.069910 -5.059091 12.973809 1.002647 1.971370 -0.003332 0.000203 688702.000000 1 0 0
-4.534263 12.018510 -8.385291 15.340053 -1.210034 2.149127 0.007645 -0.004653 -968595.000000 1 0 0
-3.476663 -7.261890 2.122109 8.326198 1.124289 1.313082 0.006866 -0.003953 800166.000000 1 0 0
-7.470163 -4.039090 1.293809 8.590200 0.495672 1.419606 0.002126 -0.002382 3039200.000000 1 0 0
-2.065363 -3.943590 -10.969491 11.838385 1.088348 2.756074 0.007418 -0.004237 -1140180.000000 1 0 0
-5.206363 8.409210 -4.509391 10.869942 -1.016432 1.998574 0.006035 -0.000094 327933.000000 1 0 0
-10.956963 -3.218190 -10.153291 15.280743 0.285678 2.297554 0.015878 -0.000876 -1487320.000000 1 0 0
4.799437 -11.512090 -7.664391 14.639183 -1.175803 2.121812 0.003567 -0.001638 -762588.000000 1 0 0
-9.463063 -4.087890 7.222209 12.586529 0.407771 0.959652 0.002454 -0.002539 -1000460.000000 1 0 0
-5.567863 -9.612090 -5.246591 12.284954 1.045769 2.012051 0.013369 -0.006967 -218921.000000 1 0 0
5.002837 4.272610 -9.482991 11.541693 0.706833 2.535059 0.000634 0.001473 -253314.000000 1 0 0
-3.378263 -7.159690 -14.047991 16.125131 1.129925 2.628409 0.003273 -0.000508 -17622.600000 1 0 0
0.638537 -0.973990 -8.741491 8.818733 -0.990502 3.009141 0.007038 -0.010347 -943326.000000 1 0 0
-7.769763 2.242610 -2.960391 8.611762 -0.280996 1.921716 0.003956 -0.001513 -589779.000000 1 0 0
-2.393563 7.349310 -12.594991 14.777527 -1.255945 2.591177 0.004179 -0.011161 -420288.000000 1 0 0
-9.817563 8.844810 7.481409 15.185082 -0.733322 1.055628 0.000016 -0.003629 -319263.000000 1 0 0
-10.596663 -3.071590 -14.387391 18.130663 0.282132 2.487399 0.024632 0.000708 -258845.000000 1 0 0
-3.303063 4.804510 7.989909 9.891016 -0.968514 0.630395 -0.002527 0.001342 -371327.000000 1 0 0
8.727637 -2.329490 -3.541291 9.702520 -0.260829 1.944415 0.001121 -0.002524 -5468210.000000 1 0 0
1.992937 -8.504990 -1.099291 8.804265 -1.340624 1.695982 0.003035 -0.001122 -281885.000000 1 0 0
-13.656763 -2.866790 4.996909 14.822104 0.206913 1.226934 0.015807 -0.006491 163140.000000 1 0 0
7.056437 2.683010 -1.951591 7.797471 0.363341 1.823771 -0.002369 -0.001897 62467.300000 1 0 0
-11.182463 4.420110 8.923309 14.973654 -0.376424 0.932368 0.002611 -0.000924 -3450680.000000 1 0 0
-1.834663 -2.533690 8.023309 8.611566 0.944073 0.371759 0.002540 -0.001908 -1948830.000000 1 0 0
3.035637 11.879410 -9.908591 15.764379 1.320613 2.250475 -0.001961 -0.006046 386031.000000 1 0 0
3.739137 -5.047390 -6.949591 9.367716 -0.933205 2.406645 0.000952 -0.003365 760784.000000 1 0 0
8.454237 -13.814190 -9.763091 18.910946 -1.021602 2.113282 0.020749 0.003331 164557.000000 1 0 0
-6.336263 -5.823390 -0.419791 8.616050 0.743245 1.619538 0.007195 -0.002452 -205752.000000 1 0 0
-1.220063 -4.148990 9.801709 10.713364 1.284795 0.415524 0.000336 -0.002567 -320842.000000 1 0 0
2.794437 3.255010 1.775609 4.642925 0.861386 1.178368 -0.008631 0.000394 172405.000000 1 0 0
-9.113863 13.263810 7.733109 17.854752 -0.968765 1.122854 0.005610 -0.018365 393197.000000 1 0 0
4.047137 -11.153990 -0.000691 11.865530 -1.222727 1.570855 0.004006 -0.002001 317331.000000 1 0 0
-12.490463 -1.424190 -9.051291 15.490831 0.113532 2.194813 0.013136 -0.005525 146078.000000 1 0 0
-4.252663 1.017910 -13.567391 14.254662 -0.234938 2.829803 0.009464 -0.011350 100538.000000 1 0 0
3.904737 -3.154390 5.044809 7.116688 -0.679501 0.782901 -0.002309 0.004080 -172655.000000 1 0 0
1.697737 -1.206090 1.005709 2.312664 -0.617679 1.120902 0.004300 -0.001091 563150.000000 1 0 0
8.060537 -8.909890 7.447109 14.135693 -0.835405 1.015929 0.008436 -0.002989 -1135200.000000 1 0 0
-0.058663 2.296910 -6.307691 6.713136 -1.545262 2.792268 0.005975 -0.010079 194289.000000 1 0 0
-3.732063 -9.812790 -3.446391 11.049740 1.207364 1.887986 0.011268 -0.002850 -221778.000000 1 0 0
-9.500363 2.339510 -5.518391 11.233114 -0.241451 2.084333 0.004000 -0.002715 -1107300.000000 1 0 0
8.926537 -7.617390 5.400509 12.917940 -0.706431 1.139485 0.003422 -0.002852 300668.000000 1 0 0
-5.575663 -4.259990 4.625309 8.404107 0.652422 0.987997 0.003042 -0.001219 -1518270.000000 1 0 0
-0.224863 -12.515990 10.429909 16.293667 1.552832 0.876141 0.003962 -0.005600 -1649890.000000 1 0 0
-14.352463 -8.376990 2.986309 16.884466 0.528320 1.392994 0.017756 -0.007441 -1601020.000000 1 0 0
10.915737 -1.398390 -3.542491 11.561057 -0.127414 1.882222 0.008979 -0.003888 -648594.000000 1 0 0
-13.597763 2.989910 2.690209 14.180126 -0.216438 1.379923 0.012039 -0.004479 -1307300.000000 1 0 0
-6.389563 6.162410 0.915009 8.924072 -0.767303 1.468083 -0.000610 -0.001491 450311.000000 1 0 0
7.127237 -6.974690 -0.402291 9.980262 -0.774581 1.611116 0.002913 -0.005471 -334381.000000 1 0 0
-6.970763 7.774110 10.014809 14.468059 -0.839827 0.806262 0.001436 0.000642 104290.000000 1 0 0
-12.573563 -5.111190 -1.938491 13.710452 0.386100 1.712659 0.001586 -0.003896 -1495150.000000 1 0 0
-9.398463 -5.598590 0.235109 10.942148 0.537246 1.549308 0.003072 -0.001349 -1407560.000000 1 0 0
-1.798063 1.850010 2.183409 3.379770 -0.799637 0.868434 -0.000069 -0.001594 -380154.000000 1 0 0
-7.158063 7.320610 7.516709 12.701580 -0.796624 0.937515 -0.002305 -0.000691 -82483.900000 1 0 0
5.613337 7.212110 -0.369991 9.146637 0.909415 1.611258 0.001064 -0.000312 -1888470.000000 1 0 0
-0.049663 -4.050390 7.475509 8.502433 1.558536 0.496574 0.001770 -0.000445 -1322850.000000 1 0 0
6.357637 0.683810 13.057409 14.539019 0.107145 0.455379 0.000009 0.000638 682770.000000 1 0 0
5.822437 6.110510 -7.944291 11.590982 0.809535 2.325929 -0.002093 -0.001784 -1040930.000000 1 0 0
9.903937 5.251010 9.061309 14.414173 0.487510 0.890995 0.009410 -0.004550 -1665710.000000 1 0 0
-1.225063 -5.017790 -8.544491 9.984353 1.331337 2.597869 0.005584 -0.003578 556809.000000 1 0 0
10.034837 -3.568890 -7.946091 13.288163 -0.341699 2.211778 0.011597 -0.009233 426992.000000 1 0 0
8.499637 -5.358190 1.166009 10.115018 -0.562475 1.455264 0.006646 -0.004083 934973.000000 1 0 0
15.755037 3.188510 -4.849391 16.790008 0.199683 1.863797 0.023859 -0.002548 -245146.000000 1 0 0
-7.000863 3.611210 1.081209 7.951223 -0.476226 1.434393 0.002037 -0.003070 399044.000000 1 0 0
-1.790363 3.860010 0.366409 4.270754 -1.136506 1.484896 -0.001160 -0.002510 -2064970.000000 1 0 0
-2.716663 10.070410 6.921909 12.518237 -1.307302 0.984900 -0.005961 0.006018 -341195.000000 1 0 0
5.573837 -5.812490 -8.726891 11.874818 -0.806355 2.396326 0.005762 -0.004270 1353310.000000 1 0 0
-1.310363 -0.944690 6.247809 6.453264 0.624640 0.253013 0.003441 -0.000158 -535952.000000 1 0 0
-5.641063 5.125810 -7.897291 10.975551 -0.737579 2.373928 0.007312 -0.009404 -50135.800000 1 0 0
6.756237 -1.195590 2.472109 7.292976 -0.175148 1.224973 0.000968 -0.000290 -1332770.000000 1 0 0
8.789037 7.534010 3.220809 12.015910 0.708662 1.299433 0.000909 -0.001366 -400673.000000 1 0 0
-5.298063 -4.865990 -7.765391 10.585302 0.742914 2.394402 0.008761 -0.006436 1487330.000000 1 0 0
-2.237163 7.788110 -10.116491 12.961595 -1.291074 2.466257 0.006198 -0.007731 767318.000000 1 0 0
-2.748063 -2.175290 1.559009 3.835915 0.669581 1.152259 -0.000594 0.000811 1173170.000000 1 0 0
5.917137 -2.105790 -9.152691 11.100387 -0.341903 2.540181 0.002075 -0.005510 1301070.000000 1 0 0
1.233237 -7.540990 5.155709 9.217849 -1.408694 0.977233 0.003999 -0.001217 901152.000000 1 0 0
1.737737 11.904110 1.132209 12.083438 1.425842 1.476959 0.001092 -0.002836 376195.000000 1 0 0
-1.108463 6.980410 2.393009 7.461991 -1.413315 1.244335 -0.004121 0.001895 322498.000000 1 0 0
8.702337 7.891010 -6.689391 13.518382 0.736542 2.088443 0.002245 -0.001254 72187.800000 1 0 0
3.791937 -11.250890 5.553409 13.107313 -1.245719 1.133284 0.004220 -0.003833 -448403.000000 1 0 0
7.704237 -7.036290 12.382409 16.192242 -0.740115 0.700201 0.001456 -0.000565 -477899.000000 1 0 0
-8.756363 0.009610 -3.957991 9.609354 -0.001098 1.995323 0.001919 -0.001087 -407246.000000 1 0 0
-3.344663 -5.056390 11.103309 12.650586 0.986398 0.499773 0.003800 -0.004318 782436.000000 1 0 0
-8.169963 0.210510 -11.630391 14.214732 -0.025761 2.529057 0.008902 -0.007177 -1413690.000000 1 0 0
1.433137 -4.935990 5.283909 7.371402 -1.288221 0.771577 0.000351 0.000654 -659482.000000 1 0 0
6.693737 3.733610 -7.558191 10.764395 0.508794 2.349205 -0.003085 -0.001689 -2279800.000000 1 0 0
16.217237 4.168010 -1.273591 16.792650 0.251566 1.646711 0.009844 0.001814 -731299.000000 1 0 0
7.890637 7.475310 0.146709 10.870324 0.758376 1.557300 0.001980 -0.002413 -2491850.000000 1 0 0
5.452337 -10.358490 13.919609 18.187408 -1.086281 0.699222 0.002430 -0.003303 612786.000000 1 0 0
-5.224563 -9.115390 8.840709 13.731152 1.050347 0.871286 0.003626 -0.008722 97305.000000 1 0 0
-12.714263 -3.161090 2.776709 13.392352 0.243685 1.361946 0.006043 -0.002512 -444574.000000 1 0 0
-2.157963 -1.316090 -5.902891 6.421294 0.547649 2.737013 0.008434 -0.008286 -1470850.000000 1 0 0
-2.571463 12.990610 -4.303591 13.924413 -1.375375 1.885009 0.007139 0.004290 575168.000000 1 0 0
4.051737 -0.491890 -5.059891 6.500848 -0.120811 2.462819 -0.001196 -0.002977 -989314.000000 1 0 0
-8.832663 3.846610 -7.458391 12.183593 -0.410729 2.229594 0.009012 -0.008940 336041.000000 1 0 0
-4.587063 7.748410 -11.305691 14.453292 -1.036280 2.469022 0.001866 -0.010506 -1486860.000000 1 0 0
-10.088463 -6.480790 7.324309 14.050738 0.571011 1.022451 0.006133 -0.001716 -2062690.000000 1 0 0
8.026237 5.247210 4.175209 10.458779 0.579012 1.160145 0.000827 -0.001161 -1374720.000000 1 0 0
-6.690763 -7.609090 3.890009 10.853420 0.849529 1.204229 0.009400 -0.002719 -1467820.000000 1 0 0
-4.233863 11.889810 8.168709 15.033995 -1.228705 0.996375 0.001243 -0.002219 -23180.200000 1 0 0
-7.290163 9.907910 -7.988191 14.667118 -0.936450 2.146747 0.010356 -0.004852 -598123.000000 1 0 0
13.124737 5.475310 4.688709 14.974035 0.395224 1.252317 0.012711 -0.004776 -509805.000000 1 0 0
5.377937 4.022010 -3.678491 7.657027 0.642138 2.071915 -0.002895 -0.001102 784564.000000 1 0 0
-2.944263 -4.145890 5.011609 7.139560 0.953281 0.792666 0.005240 -0.001897 -2472980.000000 1 0 0
12.277837 -2.448290 -5.254891 13.577675 -0.196826 1.968199 0.011773 -0.003988 -2729390.000000 1 0 0
-5.324963 9.814110 7.037509 13.198429 -1.073666 1.008408 -0.004629 0.004680 785414.000000 1 0 0
1.774237 3.778310 -0.564191 4.212108 1.131776 1.705145 -0.005128 -0.002173 318857.000000 1 0 0
-0.226163 9.616710 7.718909 12.333444 -1.547283 0.894573 -0.008761 0.007956 -292334.000000 1 0 0
-5.555063 2.068310 5.778309 8.278013 -0.356427 0.798152 -0.000463 -0.002625 462361.000000 1 0 0
8.794937 1.079210 10.748509 13.930042 0.122098 0.689434 0.005280 0.000115 -1441370.000000 1 0 0
0.365937 -3.044090 -10.209191 10.659642 -1.451158 2.849844 0.004520 -0.006312 -2967550.000000 1 0 0
1.196137 10.661710 -2.776091 11.081944 1.459074 1.823999 0.004155 -0.001676 92609.400000 1 0 0
2.226137 -4.366990 11.589509 12.583442 -1.099368 0.400124 -0.004248 -0.000432 421347.000000 1 0 0
6.484437 -3.088590 9.458909 11.876795 -0.444515 0.649445 -0.002105 -0.001807 434223.000000 1 0 0
-10.673263 -8.237790 5.632309 14.611729 0.657317 1.175085 0.010371 -0.004154 -973873.000000 1 0 0
-2.991463 0.870310 -7.045991 7.704043 -0.283116 2.725273 0.011664 -0.008492 424025.000000 1 0 0
11.056437 2.630410 -4.976791 12.406945 0.233566 1.983546 0.003794 -0.002041 -2783910.000000 1 0 0
-2.068163 -4.146090 0.010909 4.633301 1.108091 1.568442 0.003545 -0.000801 1060690.000000 1 0 0
-1.263063 -6.455690 -10.718591 12.576146 1.377586 2.591154 0.002759 -0.000137 598713.000000 1 0 0
0.372837 6.754010 -6.605191 9.454322 1.515650 2.344295 0.005865 -0.002067 -3140850.000000 1 0 0
2.065037 3.814410 -6.156491 7.531034 1.074597 2.527823 0.000810 -0.004499 -1610730.000000 1 0 0
1.564037 -14.708390 6.539309 16.172368 -1.464858 1.154527 0.015752 -0.009783 159641.000000 1 0 0
-1.663563 5.336210 -10.585391 11.970509 -1.268595 2.655766 0.010111 -0.010519 -307415.000000 1 0 0
13.625737 4.386210 -0.732591 14.333047 0.311431 1.621931 0.006657 -0.001268 -576776.000000 1 0 0
-2.371863 3.364510 -6.285691 7.513692 -0.956746 2.561779 0.010438 -0.010487 -170595.000000 1 0 0
5.597137 7.788210 14.235509 17.164903 0.947651 0.592874 0.010726 -0.005939 710587.000000 1 0 0
15.797337 0.737010 -5.661491 16.797366 0.046620 1.914574 0.019042 -0.004247 89312.200000 1 0 0
6.177937 -8.320990 10.650009 14.860298 -0.932143 0.771773 -0.004904 -0.000423 147638.000000 1 0 0
0.074637 -5.904590 -6.357291 8.676687 -1.558157 2.393057 0.002698 -0.002603 -639650.000000 1 0 0
8.563137 5.571910 -7.495291 12.670946 0.576857 2.203756 -0.000366 0.000798 -1132910.000000 1 0 0
-16.056763 -0.767590 5.180709 16.889304 0.047768 1.259025 0.015653 -0.010026 -499238.000000 1 0 0
-0.344963 3.950310 -12.334591 12.956314 -1.483692 2.830546 0.007702 -0.009059 310816.000000 1 0 0
-11.240563 3.596210 5.806509 13.152891 -0.309641 1.113568 0.008403 -0.006172 -415493.000000 1 0 0
5.162337 -9.810590 -9.685291 14.720810 -1.086409 2.288866 -0.003973 0.003209 163432.000000 1 0 0
1.570837 11.133910 -11.680091 16.212835 1.430636 2.375208 0.002490 -0.003049 -2321740.000000 1 0 0
5.728537 2.376110 1.227309 6.322050 0.393187 1.375424 -0.001280 -0.000725 -568391.000000 1 0 0
5.649037 4.546810 4.950109 8.780016 0.677711 0.971826 -0.006112 0.001039 -215072.000000 1 0 0
0.318737 -1.589390 -6.386191 6.588716 -1.372881 2.893008 0.006543 -0.007143 829178.000000 1 0 0
12.617537 6.738610 -4.445591 14.979131 0.490528 1.872121 0.006109 -0.005937 124375.000000 1 0 0
7.332737 3.202310 12.635609 14.956017 0.411751 0.564509 0.003808 0.000696 -253999.000000 1 0 0
-2.481663 -0.212990 8.628109 8.980439 0.085616 0.281042 -0.001388 0.000189 955582.000000 1 0 0
2.457737 -15.167890 13.311409 20.329756 -1.410157 0.856912 -0.002261 -0.005546 808167.000000 1 0 0
18.666937 4.760710 -1.659591 19.335799 0.249711 1.656732 0.000738 -0.002580 18631.200000 1 0 0
-0.424063 -13.274790 7.247809 15.130453 1.538862 1.071257 0.009970 -0.007059 -1094470.000000 1 0 0
4.268237 1.596410 -0.656991 4.604129 0.357912 1.713981 -0.000324 -0.001758 307042.000000 1 0 0
2.681637 -0.476390 -7.382591 7.868975 -0.175815 2.788159 0.003639 -0.007037 214634.000000 1 0 0
7.317237 -11.280190 0.877309 13.474209 -0.995349 1.505640 0.001587 -0.000197 406927.000000 1 0 0
-11.868563 -7.342090 1.294009 14.015832 0.553996 1.478340 0.005817 -0.001038 277140.000000 1 0 0
0.217637 -7.013990 9.872709 12.112547 -1.539777 0.617927 -0.002406 -0.002766 -1351440.000000 1 0 0
-4.641663 -7.230290 10.616509 13.657686 1.000083 0.680388 0.005086 -0.002863 -1014330.000000 1 0 0
11.775037 0.794210 -1.619691 11.912416 0.067347 1.707185 0.006368 -0.002382 964356.000000 1 0 0
6.590537 -9.738090 -7.548591 13.973074 -0.975825 2.141500 0.001636 -0.001070 -1524140.000000 1 0 0
-10.894763 4.856510 3.535709 12.441174 -0.419327 1.282630 0.005202 -0.006087 707169.000000 1 0 0
5.972737 -9.139190 1.951009 11.090753 -0.991943 1.393963 -0.001741 -0.002544 4941650.000000 1 0 0
11.597337 -1.332990 5.876009 13.069145 -0.114437 1.104468 0.015096 -0.007885 127656.000000 1 0 0
-6.273463 3.754110 3.980809 8.324454 -0.539250 1.072185 -0.000664 -0.002042 -1797850.000000 1 0 0
9.486737 6.360910 -3.136691 11.844753 0.590656 1.838810 0.003426 0.001320 136584.000000 1 0 0
-2.421763 6.505010 10.885909 12.910582 -1.214402 0.567630 -0.004858 0.000374 -11766.600000 1 0 0
1.918137 9.856410 2.867609 10.442761 1.378591 1.292620 -0.004035 0.001789 -299386.000000 1 0 0
2.868137 6.153710 -5.639291 8.825869 1.134649 2.263929 -0.000424 -0.001506 -2799290.000000 1 0 0
11.924337 0.054610 -5.530991 13.144757 0.004580 2.005096 0.008759 -0.003618 503466.000000 1 0 0
-2.668263 -12.413490 6.263509 14.157892 1.359069 1.112519 0.009124 -0.003658 -318463.000000 1 0 0
10.753937 1.853710 -2.701891 11.242046 0.170698 1.813510 0.003872 -0.000076 125039.000000 1 0 0
-8.953863 5.260810 0.846409 10.419415 -0.531212 1.489473 0.001930 -0.002210 -19670.200000 1 0 0
1.344337 -10.151090 5.623209 11.682138 -1.439130 1.068601 0.004640 -0.004058 436414.000000 1 0 0
9.389037 -5.802890 -1.274891 11.110935 -0.553586 1.685792 0.008535 -0.008407 261403.000000 1 0 0
-7.872763 8.615510 -4.531391 12.519622 -0.830415 1.941148 0.005756 0.001784 -352749.000000 1 0 0
-7.407463 0.036610 -1.649491 7.588984 -0.004942 1.789898 0.002236 -0.000044 -1108400.000000 1 0 0
4.149837 8.779210 2.617409 10.057162 1.129235 1.307512 0.000291 -0.002410 132224.000000 1 0 0
-1.303063 -10.485090 -3.774591 11.219742 1.447153 1.913913 0.008086 -0.000073 -481328.000000 1 0 0
3.140137 7.817210 -3.625591 9.171376 1.188829 1.977208 0.002990 -0.003442 -67823.000000 1 0 0
-4.398463 1.690410 -11.014091 11.979740 -0.366915 2.737331 0.008841 -0.012750 -705495.000000 1 0 0
1.237037 2.694610 11.035209 11.426593 1.140419 0.262486 -0.000451 -0.002219 461831.000000 1 0 0
2.162337 5.439610 -8.028491 9.935881 1.192432 2.511597 0.003203 -0.002161 647314.000000 1 0 0
15.669237 5.960410 4.090909 17.256506 0.363487 1.331453 0.018446 -0.007713 446088.000000 1 0 0
-4.399463 9.012110 4.684109 11.068617 -1.116655 1.133835 -0.003562 0.002513 351673.000000 1 0 0
-0.848963 -8.191890 -12.513691 14.980663 1.467530 2.559516 0.007129 -0.000965 249623.000000 1 0 0
14.279037 -4.198490 -5.219891 15.772300 -0.285972 1.908110 0.021744 -0.001572 1333260.000000 1 0 0
-5.919063 -6.184490 -5.684791 10.276189 0.807324 2.156997 0.012248 -0.002502 676472.000000 1 0 0
-9.024663 2.564810 -12.352991 15.511904 -0.276899 2.492042 0.006206 -0.008290 -290510.000000 1 0 0
10.571837 5.672510 13.750809 18.248996 0.492472 0.717411 0.030464 0.001289 879332.000000 1 0 0
-0.477363 10.903810 5.541809 12.240613 -1.527045 1.100961 -0.005166 0.007559 818967.000000 1 0 0
0.405137 11.283010 -0.681391 11.310825 1.534905 1.631075 0.002496 -0.001129 -195077.000000 1 0 0
-1.562663 -0.524690 3.720309 4.069142 0.323939 0.417085 0.001403 -0.000321 897045.000000 1 0 0
-4.888763 6.794110 8.847409 12.179351 -0.947064 0.757688 0.000482 0.001763 -924743.000000 1 0 0
3.512737 -8.792990 -11.486191 14.885851 -1.190727 2.452177 -0.001492 0.000072 177116.000000 1 0 0
6.640137 -3.792290 12.015809 14.242631 -0.518911 0.566749 0.004236 -0.001609 -666040.000000 1 0 0
-2.488163 -1.777990 -12.577391 12.943839 0.620444 2.903076 0.007574 -0.010110 967676.000000 1 0 0
-16.062663 -4.929290 5.179409 17.582188 0.297756 1.271777 0.022477 -0.009585 1635470.000000 1 0 0
-8.943363 7.287510 5.677809 12.858035 -0.683731 1.113441 -0.003538 -0.002233 -2957590.000000 1 0 0
-12.874463 1.454210 5.901509 14.237077 -0.112476 1.143384 0.007478 -0.003891 496525.000000 1 0 0
-3.590363 3.568310 10.183209 11.371952 -0.782318 0.461317 0.002510 0.000721 453941.000000 1 0 0
2.056137 -12.219190 -1.187091 12.447710 -1.404087 1.666308 0.006971 -0.000400 -2228500.000000 1 0 0
10.425237 -5.023990 -3.615491 12.124265 -0.449068 1.873606 0.009283 -0.005959 686737.000000 1 0 0
3.317337 -13.525890 0.934409 13.958063 -1.330285 1.503802 0.011095 -0.001426 199591.000000 1 0 0
10.010637 -1.674690 -6.060091 11.821258 -0.165756 2.109057 0.008548 -0.004056 -210478.000000 1 0 0
12.035037 -5.342490 -1.519991 13.254987 -0.417779 1.685722 0.014268 -0.005925 547944.000000 1 0 0
1.450337 1.018610 5.891709 6.152502 0.612286 0.292202 -0.003820 0.000905 170191.000000 1 0 0
-10.797563 11.553010 6.537809 17.111469 -0.819185 1.178759 0.000381 -0.008758 46709.800000 1 0 0
4.851237 -14.080990 3.116209 15.215766 -1.239008 1.364536 0.008999 -0.006440 -3606910.000000 1 0 0
5.304337 -3.402790 -1.752791 6.541196 -0.570384 1.842073 0.003272 -0.005575 -1372820.000000 1 0 0
2.025137 -2.969790 -7.671891 8.472233 -0.972313 2.703432 0.002416 -0.005019 30768.300000 1 0 0
-2.709363 14.811910 -8.852991 17.467363 -1.389879 2.102300 0.015919 0.001950 -832738.000000 1 0 0
-2.286863 5.984410 -8.069291 10.303221 -1.205783 2.470562 0.010990 -0.008939 -139507.000000 1 0 0
2.625737 -3.558690 -11.254291 12.092056 -0.935124 2.767167 -0.000233 -0.002736 -644180.000000 1 0 0
14.601237 2.776710 -2.623691 15.092713 0.187926 1.745522 0.013856 0.000440 600638.000000 1 0 0
-3.484863 13.210510 2.230309 13.843270 -1.312877 1.408980 -0.001119 0.001332 357396.000000 1 0 0
7.823437 -4.975590 14.097409 16.873044 -0.566460 0.581756 0.004129 -0.001167 -1300760.000000 1 0 0
-11.355363 7.262410 2.846809 13.776473 -0.568999 1.362654 0.005439 -0.004556 1376020.000000 1 0 0
-2.303163 11.775610 3.938409 12.628564 -1.377647 1.253641 -0.003164 0.003848 1006130.000000 1 0 0
1.802837 1.411210 0.569509 2.359253 0.664148 1.326994 -0.004502 -0.000840 -1843900.000000 1 0 0
-6.813663 8.541910 5.229509 12.113547 -0.897475 1.124411 -0.005064 0.000545 -1110380.000000 1 0 0
-1.123463 9.093810 0.970409 9.214187 -1.447878 1.465284 -0.001721 0.000768 146617.000000 1 0 0
4.878537 12.959510 -8.450591 16.222254 1.210760 2.118732 0.002515 -0.010864 -2296990.000000 1 0 0
8.885537 6.850110 7.189409 13.325328 0.656761 1.000918 0.002381 -0.001801 -1470660.000000 1 0 0
7.378437 -13.761590 2.893909 15.880724 -1.078640 1.387545 0.014395 -0.004847 497487.000000 1 0 0
4.271137 -13.325690 -1.417991 14.065110 -1.260623 1.671784 0.004627 0.000745 -3316480.000000 1 0 0
12.163037 -11.788890 -4.434791 17.509562 -0.769779 1.826864 0.024621 -0.002931 -820148.000000 1 0 0
3.023437 -0.060290 -2.027191 3.640646 -0.019938 2.161351 0.001817 -0.002274 45678.900000 1 0 0
-13.556663 -3.038890 -10.712191 17.543346 0.220517 2.227630 0.017080 -0.006795 204220.000000 1 0 0
-6.587763 13.597810 5.008109 15.917922 -1.119648 1.250739 0.002366 -0.006082 365017.000000 1 0 0
7.355537 -4.314590 -0.649191 8.552254 -0.530491 1.646778 0.001230 -0.003533 38471.600000 1 0 0
11.701637 2.105510 -7.231391 13.915979 0.178028 2.117234 0.012292 -0.003151 -2015380.000000 1 0 0
-7.602463 -4.592390 9.686009 13.141776 0.543404 0.742117 0.006973 -0.001072 259067.000000 1 0 0
0.901037 2.770210 8.499809 8.985137 1.256330 0.330175 -0.003152 0.000010 -1148040.000000 1 0 0
1.623437 7.927110 -8.698291 11.880020 1.368794 2.392311 0.004589 -0.005439 400658.000000 1 0 0
-8.516563 -1.977390 -5.644891 10.407051 0.228139 2.144100 0.009639 -0.002000 -1205470.000000 1 0 0
6.659937 -0.442890 7.098209 9.743484 -0.066403 0.754654 0.001138 0.000514 483459.000000 1 0 0
-10.860763 6.412010 7.085509 14.466323 -0.533318 1.058944 0.004067 -0.004704 191643.000000 1 0 0
-6.028463 11.041210 4.772309 13.454577 -1.071032 1.208205 -0.003676 0.002123 -326415.000000 1 0 0
6.100837 -1.214990 -6.815391 9.227457 -0.196579 2.401786 -0.000094 -0.003736 -1173700.000000 1 0 0
4.502737 -5.812490 11.376809 13.545902 -0.911695 0.573751 -0.003058 -0.003042 -1178540.000000 1 0 0
-9.014963 -7.399790 2.696309 11.970653 0.687316 1.343604 0.005138 -0.003163 -1908170.000000 1 0 0
-1.175463 12.702810 -9.293391 15.783226 -1.478523 2.200388 0.012590 0.000428 456573.000000 1 0 0
-4.479263 9.284810 -2.382791 10.580605 -1.121304 1.797948 0.001461 0.000764 439485.000000 1 0 0
-3.290863 9.658410 -0.153091 10.204808 -1.242408 1.585799 0.001190 0.000495 32437.600000 1 0 0
-3.456563 10.622910 -6.420591 12.884799 -1.256214 2.092442 0.005719 0.002480 838232.000000 1 0 0
4.864737 -4.919890 0.282909 6.924667 -0.791035 1.529930 0.003120 -0.003678 -2024860.000000 1 0 0
-2.275263 2.898510 -11.008091 11.608456 -0.905283 2.818576 0.010447 -0.010902 -19101.400000 1 0 0
-3.533463 12.147110 -2.064591 12.817964 -1.287719 1.732571 0.000822 0.003332 -964065.000000 1 0 0
-0.228063 0.302410 -0.021391 0.379371 -0.924643 1.627211 -0.000663 -0.001746 -2277910.000000 1 0 0
-4.857163 -1.725490 0.046909 5.154760 0.341341 1.561696 -0.000658 0.000226 578898.000000 1 0 0
2.526237 2.438510 -2.604591 4.371738 0.767730 2.209032 -0.003913 -0.002308 935130.000000 1 0 0
6.084937 -9.755390 8.516909 14.308453 -1.013095 0.933237 -0.002122 0.000367 -1622160.000000 1 0 0
-4.314263 -5.483090 6.519609 9.548950 0.904137 0.819267 0.006091 -0.003826 188262.000000 1 0 0
-6.343963 5.152010 -12.143891 14.637731 -0.682083 2.549240 0.002253 -0.009120 401452.000000 1 0 0
-12.920663 2.983810 7.850709 15.410396 -0.226955 1.036260 0.006817 -0.002337 629515.000000 1 0 0
4.729337 -7.529590 -4.926691 10.165315 -1.009971 2.076767 0.003387 -0.006006 81203.500000 1 0 0
-5.915163 2.560310 -1.135191 6.544693 -0.408491 1.745130 0.004394 -0.003434 -473617.000000 1 0 0
-6.797463 -2.789590 -14.658691 16.397089 0.389428 2.676949 0.012681 -0.002323 -882661.000000 1 0 0
2.777437 -6.095990 0.909109 6.760305 -1.143281 1.435910 0.004718 -0.001243 -29576.300000 1 0 0
4.773337 -7.880490 13.010209 15.942158 -1.026185 0.616186 -0.001262 -0.000621 -352400.000000 1 0 0
-10.127863 -1.788190 8.013509 13.037928 0.174760 0.908879 0.005623 -0.001351 -240444.000000 1 0 0
-4.605663 13.403010 -0.045591 14.172329 -1.239808 1.574013 0.003279 0.002552 609530.000000 1 0 0
6.916437 2.263810 -4.525691 8.569936 0.316319 2.127145 -0.002987 -0.000437 -2210300.000000 1 0 0
5.019037 4.534810 -0.006691 6.764265 0.734758 1.571785 -0.004032 -0.001552 -1235760.000000 1 0 0
-5.922563 12.358310 1.886009 13.833352 -1.123896 1.434033 -0.000745 0.002074 -576693.000000 1 0 0
6.437637 -7.333390 6.505909 11.728113 -0.850353 0.982761 -0.002563 -0.000594 -385260.000000 1 0 0
-0.330963 4.952910 7.710109 9.169877 -1.504074 0.572022 -0.007515 0.002252 -989860.000000 1 0 0
-5.863863 -3.464690 -1.656491 7.009489 0.533668 1.809374 0.004119 -0.001533 183688.000000 1 0 0
2.348637 -6.549890 -5.163791 8.664980 -1.226501 2.209230 -0.000109 -0.001680 -485732.000000 1 0 0
-14.341763 -4.799490 -3.844091 15.604432 0.322936 1.819705 0.014422 -0.008707 24369.400000 1 0 0
-12.462563 -5.137990 -6.290091 14.875472 0.391042 2.007384 0.016374 -0.010291 -764199.000000 1 0 0
-14.833163 -3.780890 -1.435491 15.374606 0.249580 1.664300 0.011513 -0.005402 354831.000000 1 0 0
11.799937 3.008110 8.697009 14.964131 0.249609 0.950606 0.018564 -0.008939 -1366330.000000 1 0 0
8.668337 -6.497790 7.737609 13.312848 -0.643245 0.950577 0.005319 -0.002444 69874.800000 1 0 0
-8.846763 -1.667690 -9.918491 13.394882 0.186322 2.404564 0.006667 -0.005591 254696.000000 1 0 0
-8.875763 5.222310 -3.904391 11.013445 -0.531831 1.933188 0.006087 -0.002384 -148275.000000 1 0 0
-4.266263 -6.248090 4.059309 8.585897 0.971700 1.078344 0.003797 -0.002206 -1394080.000000 1 0 0
-0.141163 -9.197690 3.527409 9.851905 1.555450 1.204625 0.007905 -0.003349 1225280.000000 1 0 0
7.937737 -10.416390 3.335109 13.514133 -0.919632 1.321433 0.001181 -0.002984 630567.000000 1 0 0
-0.071463 6.521410 9.621109 11.623237 -1.559838 0.595714 -0.007855 -0.000107 1554890.000000 1 0 0
-0.072063 3.421210 -9.731191 10.315326 -1.549736 2.803449 0.009371 -0.009558 -685670.000000 1 0 0
4.441637 -3.212690 11.123509 12.400886 -0.626201 0.457877 -0.003757 -0.000628 -2591590.000000 1 0 0
8.611237 -9.116790 1.267809 12.604626 -0.813908 1.470043 0.003112 -0.003288 361579.000000 1 0 0
-0.290963 -0.382490 11.343509 11.353685 0.920476 0.042341 0.006727 -0.001488 59921.500000 1 0 0
10.902037 6.041910 11.303309 16.826285 0.506062 0.834207 0.017570 -0.006044 427847.000000 1 0 0
-6.292963 -2.941190 -11.959991 13.830884 0.437211 2.615410 0.008591 -0.004485 33749.000000 1 0 0
-1.771563 2.735410 8.414009 9.023107 -0.996081 0.369534 -0.002919 0.001688 -1016360.000000 1 0 0
-1.801563 13.376710 -6.836691 15.130180 -1.436923 2.039643 0.009913 0.000954 297133.000000 1 0 0
7.592937 3.119610 9.744309 12.741123 0.389831 0.700078 0.001557 -0.000897 685295.000000 1 0 0
6.476837 8.559710 -8.104891 13.450179 0.923043 2.217534 0.001213 -0.003908 421226.000000 1 0 0
6.603837 -2.993490 -3.997591 8.279636 -0.425591 2.074671 0.002258 -0.003569 -2713800.000000 1 0 0
1.987337 8.163410 1.024209 8.464029 1.331997 1.449492 -0.004021 0.000532 854679.000000 1 0 0
-17.738963 6.111110 6.092109 19.726386 -0.331769 1.256833 0.038011 -0.012455 523541.000000 1 0 0
-14.692863 3.090010 -10.113691 18.102904 -0.207286 2.163587 0.034943 -0.011940 -875653.000000 1 0 0
-18.328163 0.121810 -4.511591 18.875669 -0.006646 1.812149 0.029078 -0.006961 454969.000000 1 0 0
-13.002663 7.840510 0.202309 15.184986 -0.542617 1.557473 0.009556 -0.001505 -807285.000000 1 0 0
-12.659863 -4.284990 -12.807991 18.511561 0.326367 2.334902 0.030445 0.000001 -992784.000000 1 0 0
-17.407763 -0.656090 -8.869291 19.548018 0.037672 2.041730 0.031305 -0.015546 -304078.000000 1 0 0
-16.684463 -2.045590 -2.216691 16.954925 0.121996 1.701912 0.019407 -0.007851 -1113620.000000 1 0 0
-15.277763 4.123210 1.616009 15.906678 -0.263603 1.469028 0.015878 -0.004006 -1341200.000000 1 0 0
-13.163963 5.869810 4.340409 15.052699 -0.419439 1.278296 0.012150 -0.005432 -524637.000000 1 0 0
-10.077363 14.349710 2.815209 17.759303 -0.958549 1.411605 0.020767 -0.004631 189747.000000 1 0 0
-11.911263 2.605210 -6.496491 13.815560 -0.215327 2.060348 0.009059 -0.001431 794049.000000 1 0 0
-15.988663 10.676110 4.027709 19.642788 -0.588738 1.364284 0.031454 -0.009601 -85714.500000 1 0 0
-12.739163 1.093010 -8.656591 15.440775 -0.085590 2.165945 0.014733 -0.006247 754581.000000 1 0 0
-12.347863 14.340210 4.066109 19.355738 -0.859913 1.359147 0.029345 -0.013968 -237684.000000 1 0 0
-10.446663 11.191310 -1.005391 15.342393 -0.819798 1.636374 0.014283 0.004926 621563.000000 1 0 0
-17.275163 5.556210 8.710909 20.129150 -0.311181 1.123254 0.036583 -0.011174 646979.000000 1 0 0
-11.720963 12.347010 -9.234491 19.367640 -0.811404 2.067807 0.020219 -0.010291 49888.000000 1 0 0
-17.125063 -0.415590 2.880909 17.370669 0.024263 1.404177 0.016111 -0.007884 302638.000000 1 0 0
-13.067563 14.848110 -0.583591 19.788082 -0.849095 1.600293 0.047775 -0.002517 -11611.300000 1 0 0
-16.612063 4.706210 -10.441191 20.177401 -0.276067 2.114687 0.058325 -0.012728 413891.000000 1 0 0
-11.975163 7.579510 -8.910891 16.740893 -0.564286 2.132091 0.010311 -0.004994 -203886.000000 1 0 0
-14.992263 13.471210 -1.826291 20.238004 -0.732010 1.661160 0.057638 -0.001049 1796530.000000 1 0 0
-11.875863 10.475710 -5.552891 16.781276 -0.722838 1.908051 0.021166 0.001796 1164430.000000 1 0 0
-17.767463 2.833710 -0.838991 18.011568 -0.158157 1.617394 0.017916 -0.002020 -58747.700000 1 0 0
-9.457263 15.376210 0.653609 18.063634 -1.019378 1.534605 0.027295 -0.006885 319465.000000 1 0 0
-8.212863 13.246510 -3.571391 15.989872 -1.015799 1.796050 0.014961 0.007578 -278671.000000 1 0 0
-18.068663 11.722710 2.639609 21.699449 -0.575522 1.448850 0.072985 0.004793 -313184.000000 1 0 0
-8.466263 15.619710 -7.074491 19.123320 -1.074097 1.949741 0.061805 -0.019868 225454.000000 1 0 0
-6.356763 15.273010 -5.396891 17.401141 -1.176395 1.886143 0.015855 0.002238 -652246.000000 1 0 0
-17.433463 5.220510 -0.079291 18.198507 -0.290955 1.575153 0.025830 0.000197 644186.000000 1 0 0
-5.292763 12.068910 -12.241891 17.987102 -1.157509 2.319368 -0.005773 -0.011518 -495440.000000 1 0 0
-11.179863 3.738410 -11.445091 16.430312 -0.322699 2.341421 0.010712 -0.009385 552779.000000 1 0 0
-11.758563 10.978510 1.255809 16.135940 -0.751104 1.492891 0.015623 -0.002655 131770.000000 1 0 0
-12.924463 0.119010 -11.085091 17.027482 -0.009208 2.279713 0.013915 -0.011384 80765.800000 1 0 0
-14.072963 -2.026290 -13.035891 19.289598 0.143002 2.312844 0.034198 -0.011593 40807.500000 1 0 0
-18.679163 -2.296990 -3.832691 19.206166 0.122356 1.771700 0.018854 -0.008162 -22019.400000 1 0 0
-18.504663 4.926310 -5.020691 19.796425 -0.260185 1.827213 0.050474 -0.009685 585087.000000 1 0 0
-8.058263 15.297810 -2.088391 17.416084 -1.085971 1.690997 0.020559 -0.003458 -1080850.000000 1 0 0
-15.942063 9.275210 -5.196591 19.162032 -0.526935 1.845428 0.024423 0.004812 33058.900000 1 0 0
-18.342963 1.722510 1.910909 18.522498 -0.093631 1.467446 0.028218 -0.007654 -271296.000000 1 0 0
-15.703263 -2.667690 -8.800191 18.197593 0.168275 2.075549 0.017652 -0.010398 -135450.000000 1 0 0
-9.783463 10.373210 -7.328891 16.032227 -0.814648 2.045567 0.019411 -0.002423 150637.000000 1 0 0
-14.129863 12.074510 -7.984991 20.228863 -0.707123 1.976573 0.045075 -0.003586 676697.000000 1 0 0
-11.128563 6.497010 -3.828991 13.443111 -0.528433 1.859625 0.002912 0.002355 -1351330.000000 1 0 0
-13.180463 5.003610 -12.609291 18.914411 -0.362818 2.300502 0.040691 -0.016662 389931.000000 1 0 0
-17.699963 9.202010 2.675109 20.127640 -0.479432 1.437495 0.036770 -0.006898 948168.000000 1 0 0
-13.384163 8.645510 -6.666991 17.272216 -0.573523 1.967083 0.016153 -0.000462 -883225.000000 1 0 0
-15.854463 7.060010 -3.818491 17.770443 -0.418939 1.787364 0.019275 0.006450 -883776.000000 1 0 0
-14.876263 -0.362290 -9.389191 17.595209 0.024349 2.133674 0.023279 -0.013984 -557271.000000 1 0 0
-10.010163 5.910310 -6.124491 13.139426 -0.533354 2.055691 0.006263 -0.002817 444314.000000 1 0 0
-12.813463 12.218810 -0.713991 17.719875 -0.761647 1.611100 0.031459 0.001998 -530346.000000 1 0 0
-10.764863 3.538110 -14.074991 18.069473 -0.317550 2.463766 0.018162 -0.002303 183675.000000 1 0 0
-10.981363 6.261810 -11.848091 17.325642 -0.518236 2.323819 0.004529 -0.012041 -583323.000000 1 0 0
-5.802763 11.435710 -14.712591 19.516861 -1.101227 2.424683 0.006240 -0.019235 -278627.000000 1 0 0
-15.570663 13.141310 3.563009 20.684164 -0.700988 1.397675 0.026212 -0.015385 472457.000000 1 0 0
-15.047663 11.053810 -2.913391 18.897268 -0.633563 1.725584 0.037037 0.008036 890341.000000 1 0 0
-18.070263 7.919110 -4.602091 20.258973 -0.413031 1.799960 0.024890 0.000530 -974583.000000 1 0 0
-4.003463 15.873410 -10.900791 19.667743 -1.323737 2.158255 0.028304 -0.005728 -17020.100000 1 0 0
-15.860263 4.501010 -4.485191 17.085783 -0.276521 1.836419 0.019888 0.002007 2018820.000000 1 0 0
-18.757463 -1.739090 -6.343691 19.877356 0.092450 1.895620 0.032094 -0.010613 234387.000000 1 0 0
-10.803263 8.511410 -5.849391 14.945567 -0.667292 1.972927 0.008568 0.000665 287983.000000 1 0 0
-11.249063 13.561710 -6.950491 18.941244 -0.878341 1.946525 0.033496 0.002260 445166.000000 1 0 0
-9.444363 10.486210 -4.558591 14.830285 -0.837624 1.883239 0.005974 0.005791 -1062550.000000 1 0 0
-11.046363 6.271410 -0.307791 12.706198 -0.516358 1.595022 0.005295 -0.000510 -334375.000000 1 0 0
-14.601263 9.256110 -1.257791 17.333624 -0.564992 1.643424 0.027417 0.005880 358157.000000 1 0 0
-18.608463 3.452210 4.498909 19.453351 -0.183433 1.337417 0.026297 -0.007077 386375.000000 1 0 0
-14.794863 13.360210 0.643009 19.944841 -0.734487 1.538551 0.031405 0.006975 944493.000000 1 0 0
-17.027963 2.660210 -8.938591 19.414599 -0.154973 2.049248 0.043616 -0.013691 221663.000000 1 0 0
-9.211463 8.383410 -9.085691 15.416952 -0.738371 2.201027 0.011803 -0.005858 -2212050.000000 1 0 0
-17.668863 4.794610 -2.595891 18.490962 -0.264978 1.711649 0.016055 0.001092 636194.000000 1 0 0
-13.565763 5.875910 -4.487091 15.449603 -0.408747 1.865477 0.012290 0.003593 -683894.000000 1 0 0
-12.071563 9.589810 3.315709 15.769624 -0.671325 1.358956 0.003161 -0.006284 -329062.000000 1 0 0
-17.692063 2.600810 -4.039291 18.332736 -0.145959 1.792951 0.026308 -0.002282 938595.000000 1 0 0
-11.374363 1.426310 -12.695491 17.105145 -0.124746 2.407148 0.019923 -0.005526 183503.000000 1 0 0
-11.251563 12.023610 3.580209 16.851789 -0.818556 1.356712 0.010265 -0.007445 594801.000000 1 0 0
-16.606463 12.970610 -3.887491 21.427178 -0.663084 1.753235 0.064236 -0.001956 717611.000000 1 0 0
-11.110263 4.111710 -4.565491 12.695977 -0.354452 1.938637 0.001082 0.000303 -169824.000000 1 0 0
-11.258163 14.870910 -9.145891 20.773482 -0.922792 2.026693 0.054686 -0.010920 455395.000000 1 0 0
-15.538963 7.019910 -0.278191 17.053326 -0.424318 1.587110 0.023491 0.000629 604369.000000 1 0 0
-12.766763 8.380710 -4.132291 15.820948 -0.580894 1.835052 0.013178 0.005047 446412.000000 1 0 0
-19.235163 1.915010 -6.101591 20.270377 -0.099231 1.876548 0.041805 -0.008872 -89828.100000 1 0 0
-12.771563 9.995710 -8.941191 18.519502 -0.664074 2.074644 0.021817 -0.008765 786713.000000 1 0 0
-16.608363 10.906510 -0.749691 19.883454 -0.581062 1.608510 0.026931 0.001494 249875.000000 1 0 0
-10.710663 6.596310 -14.466291 19.170373 -0.552003 2.425867 0.015300 -0.016782 -269365.000000 1 0 0
-13.944663 13.125710 -4.130791 19.590848 -0.755155 1.783244 0.041635 0.007888 286370.000000 1 0 0
-18.080863 7.672410 -0.351591 19.644519 -0.401310 1.588695 0.039287 0.000465 -52871.800000 1 0 0
-12.812763 6.648910 -2.078791 14.584111 -0.478676 1.713822 0.007619 0.004409 94924.900000 1 0 0
-13.880463 8.403610 -10.692891 19.432597 -0.544401 2.153466 0.026238 -0.006959 55399.400000 1 0 0
-15.017563 1.406310 -0.969791 15.114411 -0.093372 1.635004 0.011440 -0.003155 -361511.000000 1 0 0
-13.456363 2.701310 -2.510391 13.952521 -0.198113 1.751705 0.005565 -0.001083 306967.000000 1 0 0
-11.394863 9.311710 -10.931191 18.331443 -0.685132 2.209691 0.012312 -0.009879 -545578.000000 1 0 0
-15.582463 4.467210 -8.010091 18.081225 -0.279194 2.029745 0.032906 -0.005042 323496.000000 1 0 0
-18.407963 10.427510 4.942809 21.725963 -0.515398 1.341280 0.066105 -0.017773 531300.000000 1 0 0
-15.320063 6.322210 -6.225991 17.704170 -0.391385 1.930149 0.022224 0.002443 473029.000000 1 0 0
-7.709363 11.173210 -12.988591 18.787719 -0.966823 2.334130 -0.002965 -0.008858 -870207.000000 1 0 0
-16.843563 9.223010 -2.712991 19.394068 -0.500975 1.711144 0.031777 0.004051 624906.000000 1 0 0
-20.718963 -0.920790 -4.699791 21.265261 0.044413 1.793644 0.043090 -0.015794 1278690.000000 1 0 0
-15.412363 4.339810 4.135709 16.537200 -0.274473 1.318028 0.017567 -0.003895 -156659.000000 1 0 0
-6.864963 12.450410 -9.457391 17.075792 -1.066891 2.157775 0.011497 -0.007863 279158.000000 1 0 0
-17.252063 1.518410 5.607409 18.203909 -0.087787 1.257671 0.024611 -0.009907 150481.000000 1 0 0
-10.402963 14.528810 -2.809391 18.088689 -0.949397 1.726740 0.047298 0.000235 246368.000000 1 0 0
-9.844363 8.425410 -12.817691 18.226141 -0.707887 2.350767 -0.009760 -0.014535 -323665.000000 1 0 0
-13.784063 11.363710 2.806109 18.083378 -0.689448 1.414991 0.024892 -0.013127 -1591200.000000 1 0 0
-16.981063 6.725310 1.934309 18.366488 -0.377095 1.465283 0.031562 -0.003315 827820.000000 1 0 0
-9.304663 13.261510 -8.572591 18.328495 -0.958978 2.057505 0.032083 -0.013690 -949136.000000 1 0 0
-5.588363 9.611210 -12.944091 17.063254 -1.044134 2.431950 -0.001527 -0.011232 -572762.000000 1 0 0
-15.971063 1.886610 3.059209 16.370490 -0.117582 1.382818 0.014967 -0.005409 -486177.000000 1 0 0
-18.689263 -4.709790 4.565409 19.806909 0.246865 1.338209 0.047337 -0.014664 -665682.000000 1 0 0
-5.160163 14.392510 -9.142891 17.814716 -1.226542 2.109730 0.009141 -0.003526 -498904.000000 1 0 0
-15.526163 -0.864490 -6.904691 17.014225 0.055622 1.988671 0.022162 -0.005129 782715.000000 1 0 0
-8.924063 10.937910 -9.682991 17.118326 -0.886445 2.172018 0.010144 -0.009262 209636.000000 1 0 0
-16.672763 1.391610 -6.172191 17.832935 -0.083273 1.924220 0.007922 -0.000983 61631.800000 1 0 0
-11.184063 8.712110 -1.509491 14.257023 -0.661789 1.676872 0.007615 0.002228 -467776.000000 1 0 0
-10.523763 10.944510 -12.625991 19.747090 -0.804994 2.264494 0.013935 -0.013275 -816917.000000 1 0 0
-13.926363 11.831710 -10.487091 21.069220 -0.704256 2.091793 0.051380 -0.015178 -16075.600000 1 0 0
-13.298163 5.685310 -7.659391 16.365518 -0.404008 2.057845 0.016536 0.000904 -393689.000000 1 0 0
-8.808563 15.634110 -4.513991 18.503846 -1.057709 1.817232 0.034608 -0.002378 95479.500000 1 0 0
-8.650163 6.046910 -12.971391 16.722662 -0.610089 2.458584 0.001604 -0.010341 -165826.000000 1 0 0
-16.460263 7.489910 4.272009 18.581956 -0.427029 1.338820 0.031706 -0.005342 420508.000000 1 0 0
-12.719263 5.442610 -10.141791 17.153938 -0.404327 2.203370 0.017408 -0.006586 319352.000000 1 0 0
-12.347163 9.140510 -13.378691 20.371321 -0.637259 2.287286 0.033366 -0.020053 -389736.000000 1 0 0
-10.862263 5.188910 -8.463091 14.715212 -0.445650 2.183554 0.003800 -0.003372 -987235.000000 1 0 0
-17.700163 -4.437690 -2.741291 18.452738 0.245651 1.719906 0.019190 -0.009168 263425.000000 1 0 0
-8.817863 13.147110 -11.147791 19.361675 -0.980002 2.184337 0.032019 -0.009082 43342.600000 1 0 0
-15.153563 6.105010 6.029309 17.414196 -0.382983 1.217247 0.021480 -0.008001 -327141.000000 1 0 0
-16.317663 -3.127890 -4.524291 17.219728 0.189390 1.836656 0.015625 -0.008099 -853542.000000 1 0 0
-11.146763 -1.221390 -12.547291 16.827853 0.109138 2.412271 0.015372 -0.003290 439267.000000 1 0 0
-15.375463 6.968610 -8.628291 18.958212 -0.425536 2.043305 0.026242 0.001748 -409360.000000 1 0 0
-14.880263 9.147310 1.226109 17.509965 -0.551178 1.500715 0.025326 -0.007058 -372895.000000 1 0 0
-19.675063 5.279110 7.638609 21.756045 -0.262140 1.212048 0.058137 -0.014306 963185.000000 1 0 0
-16.380263 0.497910 0.792009 16.406957 -0.030388 1.522505 0.022470 -0.006450 -1485680.000000 1 0 0
-17.644763 3.664410 6.957109 19.317530 -0.204766 1.202373 0.029593 -0.003270 1069760.000000 1 0 0
-15.459163 4.025810 -1.410291 16.036889 -0.254757 1.658850 0.009382 0.000869 1026390.000000 1 0 0
-10.801763 13.268710 0.509309 17.117131 -0.887530 1.541038 0.026819 -0.004903 -1003400.000000 1 0 0
-13.384463 3.259010 0.038409 13.775576 -0.238844 1.568008 0.007963 -0.002431 -975183.000000 1 0 0
-15.094263 0.249710 -4.453391 15.739499 -0.016542 1.857658 0.009486 -0.000623 61314.100000 1 0 0
-18.985363 7.072910 3.448609 20.551472 -0.356617 1.402195 0.046893 -0.011201 735330.000000 1 0 0
-14.145363 1.321310 -6.491791 15.619876 -0.093139 1.999411 0.016379 0.000072 -736025.000000 1 0 0
-14.154363 11.997710 5.369009 19.316245 -0.703118 1.289134 0.018948 -0.013117 -91992.400000 1 0 0
17.800937 5.716710 6.237309 19.709342 0.310743 1.248796 0.046711 -0.010600 1113450.000000 1 0 0
18.549437 7.383810 -0.139091 19.965510 0.378834 1.577763 0.035327 -0.008519 403066.000000 1 0 0
16.764137 5.464910 8.605209 19.620172 0.315125 1.116767 0.050411 -0.007429 653777.000000 1 0 0
11.448637 12.213810 11.085009 20.077995 0.817724 0.985919 0.020148 -0.018245 463235.000000 1 0 0
-2.251263 16.320210 -0.559691 16.484256 -1.433718 1.604756 0.006733 -0.003213 -26384.800000 1 0 0
14.991837 12.604810 3.359509 19.872662 0.699116 1.400929 0.035990 -0.010059 230206.000000 1 0 0
13.280237 11.730510 6.796809 18.978045 0.723515 1.204521 0.024577 -0.009929 972376.000000 1 0 0
-0.722563 15.860110 8.482409 18.000457 -1.525269 1.080108 0.002169 -0.007712 -4383.260000 1 0 0
0.656337 12.970810 9.324409 15.988036 1.520238 0.948120 -0.007479 -0.002560 -2350420.000000 1 0 0
0.807737 15.555310 -3.826791 16.039465 1.518916 1.811706 0.011897 0.000397 99999.600000 1 0 0
5.234237 10.178310 13.537909 17.727668 1.095811 0.701833 0.009798 -0.013670 -395553.000000 1 0 0
-1.425163 16.577410 -2.895391 16.888603 -1.485037 1.743088 0.004643 0.004190 -1559070.000000 1 0 0
8.563237 10.077510 3.350109 13.642158 0.866455 1.322688 -0.000233 -0.001247 494107.000000 1 0 0
12.626137 13.461210 -4.880291 19.090331 0.817398 1.829308 0.054292 -0.018042 -82986.500000 1 0 0
2.281137 11.591310 7.681509 14.091403 1.376482 0.994264 -0.005073 0.006729 858142.000000 1 0 0
-0.238663 14.860110 -8.479591 17.110912 -1.554737 2.089283 0.011677 -0.001361 -2315990.000000 1 0 0
2.484037 15.872110 0.383609 16.069894 1.415552 1.546923 0.014400 -0.009839 -1222520.000000 1 0 0
1.857837 13.365410 5.238309 14.475000 1.432678 1.200505 0.002417 0.001891 192236.000000 1 0 0
17.599137 9.295110 -1.743691 19.979218 0.485919 1.658183 0.026192 -0.006228 204122.000000 1 0 0
-7.238463 14.963810 7.165609 18.101296 -1.120248 1.163790 0.009465 -0.012429 -202562.000000 1 0 0
8.535337 15.799310 -0.038991 17.957497 1.075481 1.572968 0.001659 -0.006402 -966694.000000 1 0 0
15.555037 10.319310 2.024609 18.776218 0.585742 1.462758 0.024525 -0.009273 262610.000000 1 0 0
14.095537 7.514810 8.798509 18.236510 0.489802 1.067328 0.032898 -0.013925 -956182.000000 1 0 0
4.229337 18.489910 -1.922191 19.064598 1.345927 1.671793 0.027829 -0.016596 -900885.000000 1 0 0
-0.418063 17.505010 -4.943491 18.194457 -1.546918 1.845959 0.016696 0.000194 669101.000000 1 0 0
1.321037 13.743610 -0.762891 13.828014 1.474971 1.625994 0.001294 -0.004327 593736.000000 1 0 0
10.282737 14.728010 4.266909 18.462272 0.961296 1.337573 0.010459 -0.006782 303431.000000 1 0 0
-1.474063 15.239110 -5.202891 16.170140 -1.474367 1.898383 0.012429 0.003054 152075.000000 1 0 0
15.202137 8.700410 -6.113591 18.552037 0.519814 1.906610 0.041750 -0.014017 759498.000000 1 0 0
-2.179963 18.491210 0.946309 18.643299 -1.453446 1.520016 0.010251 -0.008202 -864573.000000 1 0 0
-3.827863 19.259110 3.370609 19.923024 -1.374597 1.400797 0.026952 -0.023627 564764.000000 1 0 0
1.870537 17.649310 -2.639691 17.943384 1.465207 1.718444 0.012890 -0.006649 -238697.000000 1 0 0
2.900237 12.325710 3.174109 13.054098 1.339700 1.325184 0.001234 0.002629 690098.000000 1 0 0
-2.532863 16.091610 1.889009 16.398893 -1.414675 1.455349 0.011765 -0.009240 -697925.000000 1 0 0
11.732637 12.763510 -2.566091 17.525604 0.827456 1.717744 0.010555 -0.001151 212523.000000 1 0 0
7.228337 11.609310 4.937009 14.539567 1.013901 1.224351 -0.004155 0.000683 224401.000000 1 0 0
7.108737 15.742510 2.118609 17.402565 1.146643 1.448752 0.001466 -0.003873 -2593300.000000 1 0 0
5.380537 12.249210 10.126009 16.778838 1.156913 0.922914 -0.001333 -0.001309 259542.000000 1 0 0
-1.298563 14.105110 3.193109 14.520205 -1.478992 1.349076 0.003173 -0.002210 -1141090.000000 1 0 0
4.722837 16.120510 1.527109 16.867368 1.285801 1.480136 0.005387 -0.011050 -1994190.000000 1 0 0
7.058437 13.199010 11.933209 19.142541 1.079721 0.897730 0.008208 -0.007482 -52763.700000 1 0 0
0.589937 17.009410 -9.585991 19.533543 1.536127 2.083741 0.020352 -0.002595 339790.000000 1 0 0
9.662737 9.706710 15.523909 20.702185 0.787668 0.722934 0.031072 -0.012527 -374285.000000 1 0 0
13.582137 7.766410 0.084809 15.646046 0.519434 1.565376 0.002913 0.000973 451998.000000 1 0 0
12.381837 13.598310 -0.065691 18.390982 0.832187 1.574368 0.011062 -0.000993 517464.000000 1 0 0
9.392037 12.364210 3.588709 15.936213 0.921170 1.343656 0.000677 0.002294 314302.000000 1 0 0
-0.774063 12.870210 0.663809 12.910543 -1.510725 1.519358 0.002312 -0.002462 -606746.000000 1 0 0
16.038637 7.354310 -0.767591 17.661057 0.429931 1.614272 0.018559 -0.002336 -97129.600000 1 0 0
-4.153963 18.507710 -2.330491 19.110781 -1.350010 1.693047 0.015794 -0.001737 37125.200000 1 0 0
11.584337 9.133410 -3.194091 15.093649 0.667645 1.784027 0.009421 -0.002088 947463.000000 1 0 0
14.587437 9.874610 7.845909 19.283660 0.595071 1.151773 0.030478 -0.013792 664235.000000 1 0 0
4.467637 13.741810 4.738609 15.206957 1.256463 1.253912 0.002462 0.001978 194083.000000 1 0 0
2.132137 15.988310 5.623709 17.082101 1.438223 1.235323 0.001496 0.000112 553994.000000 1 0 0
6.230337 18.370210 5.589909 20.187343 1.243816 1.290228 0.024898 -0.018836 -218004.000000 1 0 0
10.623937 17.124210 -0.614191 20.161444 1.015508 1.601265 0.024194 -0.007395 -915101.000000 1 0 0
10.053737 13.570210 -4.388591 17.449583 0.933165 1.825027 0.025736 -0.004262 -798667.000000 1 0 0
16.569137 7.929110 2.460009 18.532639 0.446338 1.437664 0.012722 -0.000482 309015.000000 1 0 0
3.991237 14.007010 -0.451691 14.571559 1.293207 1.601799 0.002181 -0.005113 267722.000000 1 0 0
5.596937 13.142910 -2.397791 14.484861 1.168204 1.737100 -0.000416 -0.003431 -259069.000000 1 0 0
-6.127563 16.849710 -2.936691 18.168212 -1.222005 1.733148 0.015504 -0.002732 -1789250.000000 1 0 0
18.055037 10.003510 2.846709 20.836466 0.505952 1.433746 0.043011 -0.011557 783940.000000 1 0 0
7.890137 12.965610 9.478509 17.894229 1.024119 1.012554 0.007351 -0.003393 -36704.200000 1 0 0
-2.630563 15.757810 6.696709 17.322655 -1.405385 1.173869 0.004270 -0.005037 812685.000000 1 0 0
11.128037 15.987710 6.400809 20.503913 0.962735 1.253315 0.018139 -0.007405 694.537000 1 0 0
13.480437 11.956310 1.426009 18.075094 0.725551 1.491821 0.014007 -0.002913 -785234.000000 1 0 0
17.513437 7.628110 -5.495691 19.877403 0.410779 1.850925 0.033560 0.001264 -1129590.000000 1 0 0
9.282637 9.263110 8.165509 15.448239 0.784345 1.013879 0.005545 -0.004646 -874776.000000 1 0 0
-1.937163 14.193110 -2.006691 14.464570 -1.435148 1.709977 0.003597 -0.002084 513955.000000 1 0 0
10.862437 11.603410 0.864409 15.917879 0.818368 1.516465 0.003718 0.002351 768803.000000 1 0 0
11.749737 9.740610 -0.587391 15.273534 0.692179 1.609264 0.002116 0.003791 -339476.000000 1 0 0
-0.205363 16.185510 10.935509 19.534541 -1.558109 0.976647 0.000231 -0.010727 -509872.000000 1 0 0
2.295337 20.063110 -1.518191 20.250972 1.456886 1.645836 0.045167 -0.020275 -493095.000000 1 0 0
9.217337 14.236810 1.916709 17.068094 0.996230 1.458261 -0.000487 -0.002930 -115086.000000 1 0 0
8.457637 11.790310 -5.160491 15.400445 0.948529 1.912494 0.009463 0.001021 -525681.000000 1 0 0
10.318637 10.072010 10.334309 17.740282 0.773304 0.948954 0.001911 -0.010933 -466824.000000 1 0 0
-5.148763 15.738910 5.820109 17.552685 -1.254634 1.232819 0.001971 -0.009869 1489870.000000 1 0 0
14.579537 9.143310 -1.938591 17.318232 0.560132 1.682971 0.029094 -0.001862 -332742.000000 1 0 0
11.977137 9.478510 7.033309 16.815511 0.669465 1.139264 0.007541 -0.009416 -234127.000000 1 0 0
3.093037 12.989810 9.691309 16.499198 1.337037 0.942978 -0.002890 -0.002404 -1062850.000000 1 0 0
8.522237 12.641910 -2.633891 15.472033 0.977648 1.741865 0.007337 -0.001856 -933105.000000 1 0 0
9.419637 16.808810 2.237109 19.397688 1.060004 1.455210 0.002837 -0.007297 -282254.000000 1 0 0
9.472337 14.187210 -7.386791 18.589426 0.982101 1.979440 0.032481 -0.019518 369702.000000 1 0 0
6.305937 11.471610 7.416909 15.045704 1.068184 1.055309 -0.001567 0.001482 -546743.000000 1 0 0
5.415537 16.917610 -5.446791 18.579588 1.260991 1.868327 0.016435 -0.007000 -1296940.000000 1 0 0
-4.007363 17.247310 -4.600291 18.294572 -1.342500 1.824981 0.011591 0.001857 478821.000000 1 0 0
0.052737 18.356210 -0.382991 18.360281 1.567923 1.591658 0.018458 -0.015005 -564979.000000 1 0 0
6.530037 15.711110 -2.619891 17.214651 1.176887 1.723580 -0.000473 0.000357 489061.000000 1 0 0
-0.613163 20.630210 0.731709 20.652287 -1.541083 1.535359 0.030654 -0.013249 58564.200000 1 0 0
-1.366863 18.785010 4.341209 19.328503 -1.498161 1.344262 0.017208 -0.016854 1019580.000000 1 0 0
7.263537 13.833510 -4.285291 16.201503 1.087296 1.838481 0.007357 0.001454 -1329120.000000 1 0 0
-1.061563 11.942610 7.703209 14.251045 -1.482141 0.999722 -0.004279 0.007028 513204.000000 1 0 0
7.469737 10.828510 10.947909 17.114623 0.966934 0.876712 0.011170 -0.007916 316409.000000 1 0 0
1.603237 16.131910 -7.257691 17.761840 1.471739 1.991728 0.013234 0.001567 509691.000000 1 0 0
8.824337 7.361210 14.725209 18.678547 0.695246 0.662676 0.025157 -0.007168 263148.000000 1 0 0
11.353637 11.259710 -4.774791 16.687863 0.781245 1.860975 0.026433 -0.006130 1999.920000 1 0 0
-3.209663 16.940610 4.464709 17.810667 -1.383550 1.317418 0.008614 -0.013236 -883583.000000 1 0 0
3.984437 15.259810 -6.702591 17.136577 1.315392 1.972653 0.014829 -0.009386 -1097320.000000 1 0 0
-4.504063 14.092310 9.578409 17.624577 -1.261446 0.996232 0.007423 -0.006801 714905.000000 1 0 0
6.379037 17.861310 0.678109 18.978365 1.227773 1.535058 0.000947 -0.009794 -267809.000000 1 0 0
9.780137 10.685310 -2.107691 14.637940 0.829599 1.715287 0.008315 -0.001294 -1029940.000000 1 0 0
7.437637 18.216310 -2.413791 19.823693 1.183159 1.692862 0.020858 -0.004435 111990.000000 1 0 0
3.347337 10.433110 10.432209 15.128960 1.260334 0.809926 -0.004223 0.002258 1490710.000000 1 0 0
0.162837 18.698610 2.120709 18.819191 1.562088 1.457868 0.021750 -0.012822 301523.000000 1 0 0
-0.894363 17.158710 -7.488491 18.742965 -1.518720 1.981807 0.021572 0.009138 -121706.000000 1 0 0
10.012637 8.889510 13.055409 18.700802 0.726050 0.798028 0.021658 -0.006124 223519.000000 1 0 0
3.651737 11.413210 5.443309 13.161541 1.261132 1.144417 -0.003766 0.004392 780054.000000 1 0 0
12.835937 13.794710 8.302409 20.590903 0.821385 1.155777 0.027773 -0.020398 -358354.000000 1 0 0
-0.606663 17.438110 6.712309 18.695209 -1.536021 1.203558 0.009582 -0.008320 -416526.000000 1 0 0
12.098337 13.656210 5.839709 19.156305 0.845814 1.261020 0.011719 -0.006073 -1077830.000000 1 0 0
4.976437 14.509510 -4.526891 15.993235 1.240391 1.857769 0.002279 -0.002242 -748324.000000 1 0 0
3.879737 17.627910 4.789409 18.674422 1.354160 1.311429 0.012653 -0.010555 373390.000000 1 0 0
7.065037 11.684210 2.197409 13.829827 1.026954 1.411231 0.005475 0.000228 502492.000000 1 0 0
6.309637 8.607910 11.835409 15.936893 0.938261 0.733789 0.007759 -0.006708 158755.000000 1 0 0
-5.355963 14.982110 1.908909 16.024790 -1.227464 1.451391 0.004949 0.001968 48932.000000 1 0 0
6.828737 13.714510 6.059309 16.475274 1.108814 1.194174 -0.000735 -0.002364 -263236.000000 1 0 0
5.890437 15.849810 4.985409 17.628614 1.214974 1.284082 0.004964 -0.010543 661138.000000 1 0 0
1.230537 18.004710 4.431009 18.582725 1.502557 1.330029 0.015796 -0.009933 890704.000000 1 0 0
7.218937 18.140710 -6.880391 20.701164 1.192066 1.909609 0.017068 -0.009014 344307.000000 1 0 0
-2.347963 18.802610 -6.001191 19.876252 -1.446565 1.877510 0.024557 0.006577 -1614240.000000 1 0 0
13.624737 10.047510 -4.523691 17.522833 0.635418 1.831913 0.031863 -0.008454 -1710750.000000 1 0 0
-1.567363 18.088310 9.657109 20.564614 -1.484362 1.081961 0.013953 -0.013984 42393.700000 1 0 0
3.469037 11.756710 -1.516491 12.351283 1.283870 1.693887 0.002135 -0.004259 560347.000000 1 0 0
4.374637 13.831210 -10.878591 18.132390 1.264465 2.214239 0.002338 -0.017684 -419491.000000 1 0 0
11.577337 13.426810 2.507309 17.905322 0.859230 1.430303 0.010437 -0.003070 -779536.000000 1 0 0
15.854737 6.322310 -7.015991 18.454496 0.379441 1.960785 0.011229 -0.006904 31721.800000 1 0 0
2.528037 16.149610 3.062709 16.630727 1.415518 1.385579 0.014090 -0.007248 146502.000000 1 0 0
13.388037 10.634710 3.534809 17.459423 0.671283 1.366929 0.015666 0.000871 -554261.000000 1 0 0
-4.946563 19.387310 -5.810591 20.835049 -1.320982 1.853430 0.010669 -0.002292 610668.000000 1 0 0
5.503837 12.070610 0.116909 13.266707 1.142989 1.561984 0.003447 -0.003217 595734.000000 1 0 0
4.583137 15.420810 9.706309 18.788799 1.281906 1.027920 0.008107 -0.004641 5120.360000 1 0 0
7.620837 9.608210 13.913309 18.546564 0.900241 0.722458 0.018306 -0.010293 -1215520.000000 1 0 0
-4.941963 13.687510 7.103909 16.193717 -1.224306 1.116664 -0.001220 -0.002628 -699922.000000 1 0 0
-4.471963 17.176910 0.624509 17.760482 -1.316103 1.535626 0.010701 -0.005798 -906654.000000 1 0 0
-0.619563 16.537310 3.456409 16.906012 -1.533349 1.364896 0.014508 -0.010589 -1234930.000000 1 0 0
7.872537 17.038510 -4.648091 19.336298 1.137972 1.813555 0.010630 -0.006605 404285.000000 1 0 0
3.188737 16.423810 -4.476491 17.319023 1.379029 1.832237 0.013837 -0.006276 -877818.000000 1 0 0
9.486337 14.506310 8.377209 19.251007 0.991652 1.120584 0.015750 -0.004266 325833.000000 1 0 0
12.586237 10.787710 9.195909 18.956603 0.708604 1.064315 0.026661 -0.019913 202135.000000 1 0 0
3.725837 12.292710 12.214309 17.725178 1.276504 0.810559 0.002083 -0.004010 522675.000000 1 0 0
-3.428763 19.120210 5.924809 20.308674 -1.393356 1.274753 0.026640 -0.022534 169593.000000 1 0 0
-2.666663 15.807710 10.186009 18.993409 -1.403676 1.004759 0.008163 -0.011225 822887.000000 1 0 0
2.007137 14.264510 7.657009 16.313634 1.431006 1.082228 -0.001444 0.000600 134108.000000 1 0 0
4.519737 17.409310 7.995509 19.683503 1.316788 1.152501 0.022492 -0.007939 -9288.540000 1 0 0
-1.943563 13.441110 9.368209 16.498613 -1.427193 0.966944 0.001401 -0.005238 -707262.000000 1 0 0
5.869737 17.813810 3.176509 19.023035 1.252495 1.403028 0.000516 -0.013206 449218.000000 1 0 0
7.194437 15.433110 -6.709991 18.302043 1.134578 1.946175 0.007354 -0.003207 -506938.000000 1 0 0
10.848737 7.693210 9.491009 16.338905 0.616830 0.950982 0.009299 -0.009657 61235.000000 1 0 0
9.029437 16.233610 -2.576291 18.753616 1.063191 1.708608 0.011824 -0.010941 -1421420.000000 1 0 0
14.748937 11.253310 -6.613291 19.695272 0.651764 1.913230 0.070841 -0.015142 327041.000000 1 0 0
11.051537 6.694910 16.001709 20.567279 0.544666 0.679292 0.043047 -0.013439 199.052000 1 0 0
8.351337 8.433710 10.371109 15.761732 0.790306 0.852646 0.008297 -0.005835 -105230.000000 1 0 0
16.072037 9.426010 4.512609 19.170907 0.530423 1.333178 0.023490 -0.007075 -149480.000000 1 0 0
-3.251763 14.236510 4.765209 15.360970 -1.346238 1.255377 -0.003906 -0.001646 -810113.000000 1 0 0
4.625237 14.769610 12.717909 20.031960 1.267311 0.882942 0.006558 -0.000558 -380080.000000 1 0 0
16.205237 10.584110 -4.580891 19.890139 0.578572 1.803192 0.058653 -0.022246 898626.000000 1 0 0
14.688937 13.843110 6.374009 21.166591 0.755762 1.264913 0.040495 -0.006140 751062.000000 1 0 0
6.110437 9.393810 9.281609 14.550924 0.994087 0.879066 0.000781 -0.002470 319549.000000 1 0 0
10.415837 12.110110 8.744709 18.210282 0.860471 1.069905 0.017127 -0.011402 -671450.000000 1 0 0
8.062537 11.477410 -0.283991 14.029116 0.958415 1.591041 0.002786 -0.001369 296145.000000 1 0 0
7.265937 13.674110 -8.680191 17.751643 1.082373 2.081716 0.012240 -0.002053 -900426.000000 1 0 0
2.825637 15.373710 -2.109391 15.772911 1.389028 1.704933 0.005057 -0.004349 643211.000000 1 0 0
12.039637 13.647310 -7.675091 19.751176 0.847904 1.969896 0.046836 -0.024941 -735586.000000 1 0 0
-8.092563 14.860110 9.689309 19.498594 -1.072122 1.050746 0.023378 -0.014378 67352.400000 1 0 0
11.476937 9.490610 2.268209 15.064413 0.690947 1.419654 0.010736 0.001820 -2705940.000000 1 0 0
11.995137 8.704010 4.604109 15.519050 0.627720 1.269588 0.007652 -0.003046 333149.000000 1 0 0
13.997537 8.037310 6.256609 17.311111 0.521229 1.201004 0.017171 -0.008668 -2643250.000000 1 0 0
16.229637 7.609810 7.274709 19.345069 0.438446 1.185267 0.052192 -0.014129 456723.000000 1 0 0
13.592337 8.246610 2.624209 16.113493 0.545339 1.407210 0.007222 -0.000374 -2971330.000000 1 0 0
-4.144363 17.271810 -7.161491 19.151452 -1.335299 1.954050 0.014957 -0.004675 -632.345000 1 0 0
3.014737 19.549210 -4.027091 20.186077 1.417789 1.771642 0.038721 -0.016017 512858.000000 1 0 0
-0.089663 14.854010 6.138409 16.072639 -1.564760 1.178927 0.004717 -0.001886 84338.000000 1 0 0
6.680837 16.155210 8.451309 19.417750 1.178672 1.120496 0.021567 -0.006756 -2340110.000000 1 0 0
12.687937 15.118110 -2.170891 19.855824 0.872574 1.680348 0.038561 -0.014221 -528479.000000 1 0 0
12.746537 15.675410 4.300109 20.656322 0.888085 1.361089 0.021219 -0.003468 104920.000000 1 0 0
3.035837 18.065710 1.281909 18.363809 1.404308 1.500933 0.029166 -0.014906 -322766.000000 1 0 0
10.361937 14.553810 -1.206891 17.906415 0.952079 1.638247 0.012753 0.004292 -1504080.000000 1 0 0
-6.293463 15.818510 -0.424991 17.029785 -1.192141 1.595755 0.006961 -0.003465 -681755.000000 1 0 0
-3.908963 15.918110 -2.448191 16.572865 -1.329994 1.719062 0.015400 -0.003106 -487407.000000 1 0 0
-6.699363 17.219310 1.839709 18.568001 -1.199755 1.471554 0.006557 -0.003780 -157872.000000 1 0 0
0.140437 19.364010 -6.608191 20.461007 1.563544 1.899657 0.034394 -0.000571 525468.000000 1 0 0
4.867637 14.824410 7.152709 17.164448 1.253535 1.140966 0.013235 -0.004698 -426419.000000 1 0 0
8.681537 12.468010 6.992909 16.724866 0.962555 1.139428 0.006958 -0.004286 -1683030.000000 1 0 0
-7.559463 17.538210 -5.627491 19.909871 -1.163831 1.857350 0.038990 -0.006023 359490.000000 1 0 0
-7.819263 17.795810 -1.288391 19.480547 -1.156802 1.636982 0.032723 -0.007487 32382.500000 1 0 0
-13.785663 -9.170390 9.136909 18.910941 0.586995 1.066542 0.033942 -0.010458 546251.000000 1 0 0
-12.592663 -12.944590 7.355709 19.499847 0.799178 1.184005 0.035142 -0.008238 -16543.300000 1 0 0
-3.758663 -15.093290 12.451109 19.923982 1.326732 0.895753 0.025138 -0.015470 418044.000000 1 0 0
-1.966963 -14.297790 15.229109 20.981456 1.434083 0.758546 0.032938 -0.005410 -744100.000000 1 0 0
-7.194263 -13.632790 12.768309 20.015996 1.085221 0.879021 0.041695 -0.016792 47273.200000 1 0 0
-9.817863 -11.684290 8.894109 17.664038 0.871983 1.043134 0.024630 -0.003151 290631.000000 1 0 0
-10.624063 -10.723290 11.131109 18.755299 0.790046 0.935406 0.044849 -0.012200 130173.000000 1 0 0
-6.077563 -12.285190 10.735409 17.410103 1.111392 0.906355 0.022005 -0.009391 704208.000000 1 0 0
-12.584263 -10.405090 7.165709 17.831909 0.690890 1.157263 0.024342 -0.006153 -88492.000000 1 0 0
-7.762163 -11.128490 12.483409 18.437190 0.961748 0.827012 0.028984 -0.012081 81663.800000 1 0 0
-14.938863 -11.646290 7.110309 20.232701 0.662176 1.211702 0.060433 -0.007357 -4936.960000 1 0 0
-11.126063 -9.254390 9.093509 17.091662 0.693818 1.009784 0.022438 -0.003183 -600900.000000 1 0 0
-5.315063 -11.841090 13.147109 18.474517 1.148886 0.778974 0.026632 -0.017957 191817.000000 1 0 0
4.062137 -12.406790 14.744109 19.693099 -1.254384 0.724706 -0.007501 -0.002373 -376040.000000 1 0 0
6.554337 -12.796890 14.133109 20.160965 -1.097451 0.793979 0.010839 -0.001408 -162781.000000 1 0 0
6.507637 -8.444190 16.105109 19.313938 -0.914201 0.584733 0.009261 -0.007520 -836636.000000 1 0 0
0.644337 -1.881190 14.477009 14.612934 -1.240805 0.136500 0.007816 -0.006072 -1714620.000000 1 0 0
-0.244963 -6.330890 15.601009 16.838398 1.532122 0.385757 0.000364 -0.009153 -650104.000000 1 0 0
-1.576263 -4.716990 18.286009 18.950270 1.248295 0.265554 0.014031 -0.024007 -1939430.000000 1 0 0
-5.131563 12.813910 12.918009 18.905137 -1.189886 0.818514 0.010750 -0.003368 -1155560.000000 1 0 0
-4.103763 8.852910 11.694409 15.230696 -1.136732 0.695367 -0.000139 0.002037 68753.700000 1 0 0
-0.721763 -3.946890 15.004609 15.531812 1.389926 0.261294 0.005654 -0.007816 225331.000000 1 0 0
-4.388563 9.206610 14.253209 17.526413 -1.125982 0.621095 0.004351 -0.004530 271282.000000 1 0 0
-13.396663 -2.664590 16.836009 21.679987 0.196337 0.681594 0.018572 0.003668 -204311.000000 1 0 0
-0.274463 0.838010 17.226509 17.249064 -1.254289 0.051145 0.014920 -0.007293 -1253920.000000 1 0 0
-3.408063 -7.385290 15.295909 17.324037 1.138448 0.488730 0.005035 -0.010928 -2327.280000 1 0 0
-7.524863 5.479810 12.634609 15.693478 -0.629420 0.634975 0.003076 -0.000543 -1978570.000000 1 0 0
-9.850663 10.103410 13.381509 19.446832 -0.798064 0.811919 0.018070 -0.007973 -434413.000000 1 0 0
-5.653263 2.196410 11.112909 12.660188 -0.370572 0.499580 0.004772 0.001622 -1282340.000000 1 0 0
-7.159663 -7.272090 16.899509 19.741770 0.793188 0.543260 0.015652 -0.015624 -100188.000000 1 0 0
-4.716063 3.024510 18.546509 19.374259 -0.570250 0.293367 0.020398 -0.015824 1159500.000000 1 0 0
0.999537 -8.317390 16.459109 18.468360 -1.451196 0.470800 0.001656 -0.011578 670583.000000 1 0 0
-15.020463 -3.625090 13.920609 20.797571 0.236815 0.837479 0.022940 -0.003858 103999.000000 1 0 0
-14.402563 2.362110 12.846809 19.443608 -0.162559 0.849017 0.009989 -0.000177 -353220.000000 1 0 0
-5.655063 0.926510 15.912409 16.912804 -0.162395 0.345666 0.013971 -0.005549 440091.000000 1 0 0
4.417437 5.636710 15.164709 16.770649 0.906080 0.441197 0.005076 -0.007664 215680.000000 1 0 0
-1.240363 -12.141290 14.015709 18.584658 1.468989 0.716430 0.000732 -0.006036 27003.600000 1 0 0
-5.898163 -4.106290 16.717409 18.196750 0.608170 0.406012 0.011953 -0.012495 35808.300000 1 0 0
-12.966463 -1.633290 9.814709 16.343969 0.125303 0.926658 0.001441 0.002281 -687073.000000 1 0 0
-14.506363 10.462710 10.414009 20.696726 -0.624846 1.043531 0.012772 0.001861 353159.000000 1 0 0
-3.589763 -3.349190 17.708609 18.376570 0.750742 0.270447 0.014012 -0.014844 -1580780.000000 1 0 0
-7.975163 9.327310 11.840309 17.052709 -0.863387 0.803300 0.001740 -0.005354 -90108.600000 1 0 0
-3.966563 10.540710 16.409809 19.902815 -1.210879 0.601484 -0.002729 -0.005215 141271.000000 1 0 0
-12.433963 12.671110 8.212109 19.560144 -0.794844 1.137529 0.011471 -0.015680 49454.200000 1 0 0
-12.739263 3.133710 10.403809 16.743602 -0.241199 0.900319 0.007367 0.001680 261314.000000 1 0 0
-10.176863 -3.563090 13.661809 17.404287 0.336779 0.668152 0.010517 -0.001732 -1514710.000000 1 0 0
-4.275663 -6.427090 17.569909 19.190896 0.983771 0.413964 0.012596 -0.016788 -851941.000000 1 0 0
0.760137 -3.687390 18.131809 18.518563 -1.367499 0.204733 0.013857 -0.012331 -622289.000000 1 0 0
-6.103663 1.813810 13.599909 15.016729 -0.288856 0.437885 0.008399 -0.000456 -921643.000000 1 0 0
-10.542763 8.584510 10.180609 16.984949 -0.683373 0.928057 0.008321 -0.009114 -209214.000000 1 0 0
4.595937 2.420610 17.324809 18.086763 0.484767 0.291297 0.009515 -0.003217 -298274.000000 1 0 0
0.511137 -5.421990 13.279409 14.352768 -1.476803 0.389192 -0.002900 -0.005015 -1449960.000000 1 0 0
-4.120163 5.666010 20.787709 21.936460 -0.942066 0.325056 0.035920 -0.016140 144824.000000 1 0 0
-10.798463 10.828510 8.977809 17.733147 -0.786787 1.039939 0.010050 -0.008800 -24162.100000 1 0 0
0.537737 4.126510 13.119109 13.763295 1.441214 0.307162 0.003382 -0.006234 -2027130.000000 1 0 0
-3.278863 7.069010 13.250409 15.371896 -1.136496 0.531616 0.004798 -0.001401 -395132.000000 1 0 0
0.675637 8.760010 14.096209 16.610159 1.493821 0.557369 -0.005539 -0.004977 -51264.300000 1 0 0
-4.207863 -6.595290 13.029209 15.197508 1.002896 0.540745 0.008927 -0.006589 -62562.100000 1 0 0
-5.051663 8.186810 16.515809 19.113219 -1.017935 0.527429 0.014385 -0.001316 -115672.000000 1 0 0
1.598537 -10.684390 15.609209 18.983122 -1.422284 0.605412 -0.007703 -0.003872 -95568.700000 1 0 0
-15.082863 -1.093090 14.350309 20.847518 0.072346 0.811590 0.013551 -0.000697 451264.000000 1 0 0
-13.923563 -5.438490 8.447209 17.169686 0.372373 1.056429 0.032990 -0.005283 -568191.000000 1 0 0
-14.199563 -1.988090 12.090509 18.755280 0.139106 0.870237 0.007507 0.002987 675421.000000 1 0 0
9.434337 1.513710 16.906309 19.419612 0.159091 0.514418 0.032014 -0.003284 182006.000000 1 0 0
4.896837 -6.723090 16.926109 18.859271 -0.941289 0.456739 0.018848 -0.013087 -240604.000000 1 0 0
-6.183263 -2.698190 11.029409 12.929070 0.411461 0.548954 0.004867 -0.000955 294403.000000 1 0 0
0.588437 -6.340090 18.028509 19.119889 -1.478249 0.339506 0.013923 -0.018844 -101662.000000 1 0 0
-8.664263 11.861310 11.978409 18.953692 -0.939916 0.886687 0.018298 -0.014056 170184.000000 1 0 0
-6.700163 -5.831990 14.846109 17.300614 0.716233 0.539187 0.014884 -0.008663 -493099.000000 1 0 0
-4.333163 -8.930290 17.151009 19.816243 1.119042 0.524644 0.018292 -0.012914 154937.000000 1 0 0
2.417737 -6.057490 16.221009 17.483128 -1.191039 0.382299 0.009575 -0.014325 773807.000000 1 0 0
2.132637 5.141410 16.000409 16.940937 1.177600 0.334782 0.004915 -0.011126 -3117960.000000 1 0 0
0.816737 -8.823090 13.887409 16.473436 -1.478491 0.567926 -0.004415 -0.007307 -459916.000000 1 0 0
-9.958163 -2.953590 11.119409 15.216109 0.288334 0.751353 -0.000411 0.000099 192302.000000 1 0 0
-1.242063 10.067010 12.464309 16.070047 -1.448037 0.683094 -0.004200 -0.002437 -633681.000000 1 0 0
-12.422963 -3.755490 11.207509 17.147653 0.293568 0.858480 0.008454 -0.002354 -1613810.000000 1 0 0
-1.825363 6.676810 19.880009 21.050570 -1.303929 0.335053 0.017859 -0.015379 309474.000000 1 0 0
0.359937 -13.433390 15.791109 20.735107 -1.544009 0.705073 -0.004896 -0.005502 -440188.000000 1 0 0
4.005437 -8.630890 15.299109 18.016618 -1.136294 0.556391 0.005037 -0.007163 -836372.000000 1 0 0
4.431537 -4.413390 16.273009 17.433512 -0.783346 0.366931 0.016614 -0.003741 -821681.000000 1 0 0
7.961137 1.866610 14.757409 16.871427 0.230305 0.505983 0.005658 0.001948 -542757.000000 1 0 0
-6.420663 -0.138290 11.844809 13.473810 0.021535 0.496828 0.004145 0.000451 201079.000000 1 0 0
-3.371763 -10.901390 18.612309 21.831792 1.270832 0.549985 0.035512 -0.006277 -255031.000000 1 0 0
3.224737 -1.573490 13.666409 14.129598 -0.453956 0.256757 -0.000468 -0.000525 879069.000000 1 0 0
-2.542163 8.376310 15.869409 18.123557 -1.276137 0.504071 0.010755 -0.011850 -1339250.000000 1 0 0
-3.340163 4.010210 14.855209 15.745340 -0.876305 0.337857 0.008480 -0.004137 -596522.000000 1 0 0
-4.692563 -8.991290 19.802109 22.248303 1.089782 0.473341 0.036820 -0.012238 106839.000000 1 0 0
-5.787463 -2.884990 18.992609 20.063327 0.462438 0.328172 0.015123 -0.018801 -1189330.000000 1 0 0
-6.601363 -8.810190 11.017809 15.575287 0.927751 0.784997 0.015577 -0.008474 -319708.000000 1 0 0
-11.757563 2.392410 12.560209 17.370169 -0.200738 0.762530 0.010332 -0.004540 -184264.000000 1 0 0
-11.624163 -7.674790 11.575509 18.111212 0.583543 0.877423 0.022668 -0.005834 -441253.000000 1 0 0
-11.033663 -7.518090 15.459809 20.427166 0.598118 0.712353 0.036824 -0.020102 -1087230.000000 1 0 0
0.259837 5.674310 17.641109 18.533053 1.525037 0.311507 0.010769 -0.013805 -265278.000000 1 0 0
-2.195063 -0.181190 13.194509 13.377078 0.082357 0.165403 0.009065 -0.002259 47377.900000 1 0 0
-5.882063 -10.596690 18.200209 21.866324 1.064057 0.587481 0.047281 -0.012917 -1469220.000000 1 0 0
0.444637 2.651710 19.112909 19.301103 1.404663 0.139759 0.024367 -0.014564 -581752.000000 1 0 0
-0.813963 10.793410 14.882709 18.402589 -1.495526 0.628808 -0.001141 -0.003030 218374.000000 1 0 0
-12.750263 -2.390690 14.272009 19.286650 0.185349 0.737735 0.007571 0.001025 -902904.000000 1 0 0
-13.789363 8.416810 11.818309 20.016535 -0.548020 0.939208 0.015361 -0.002830 605760.000000 1 0 0
-18.117663 -0.544190 6.728609 19.334427 0.030027 1.215347 0.042463 -0.016572 79273.400000 1 0 0
-2.039363 -7.793290 17.510809 19.274927 1.314853 0.431173 0.000995 -0.015702 -1931290.000000 1 0 0
5.612537 2.603810 14.465109 15.732761 0.434376 0.404178 0.004225 0.001581 -2740730.000000 1 0 0
-14.120963 -6.762590 11.145809 19.218827 0.446629 0.952139 0.028280 -0.006628 328771.000000 1 0 0
2.963237 7.641910 16.000809 17.977916 1.200885 0.473395 0.000535 -0.025874 -1161320.000000 1 0 0
0.968737 2.021710 14.688309 14.858405 1.123954 0.151457 0.009709 -0.007692 -1347910.000000 1 0 0
-14.422463 0.641910 9.655109 17.367805 -0.044478 0.981327 0.007621 0.002969 -1813650.000000 1 0 0
-9.608363 -5.241390 15.472909 18.952671 0.499384 0.615652 0.016512 -0.006885 -469855.000000 1 0 0
-2.499763 -0.197090 17.987309 18.161249 0.078681 0.138512 0.017327 -0.014189 58234.600000 1 0 0
6.721137 3.778410 17.683909 19.291726 0.512137 0.411160 0.021012 0.002238 -239363.000000 1 0 0
-4.162263 -0.890190 14.638709 15.244956 0.210697 0.282961 0.011175 -0.003098 -1225710.000000 1 0 0
4.681137 -9.110090 17.763409 20.504767 -1.096137 0.523037 0.018896 -0.009931 -399654.000000 1 0 0
1.792037 6.739510 13.409109 15.114119 1.310910 0.479575 -0.002541 -0.004546 -2214820.000000 1 0 0
-3.897063 -0.758790 20.142009 20.529574 0.192302 0.194618 0.023496 -0.020491 -232748.000000 1 0 0
-10.772663 1.708510 16.207509 19.535932 -0.157287 0.592360 0.019073 -0.008314 -426938.000000 1 0 0
-4.048063 7.020110 18.531409 20.225773 -1.047732 0.412235 0.025596 -0.009431 -482274.000000 1 0 0
-12.697363 1.021410 14.512409 19.310006 -0.080270 0.720390 0.020333 -0.003245 -207339.000000 1 0 0
-16.246663 -4.634990 8.420209 18.876894 0.277906 1.108439 0.042095 -0.011922 -1677450.000000 1 0 0
-2.356763 0.729710 15.624509 15.818094 -0.300263 0.156609 0.012149 -0.005308 40422.900000 1 0 0
-13.607763 -8.882190 12.560509 20.538523 0.578292 0.912767 0.039699 -0.015204 358903.000000 1 0 0
6.069937 -3.227390 14.601209 16.138633 -0.488685 0.440036 0.008123 -0.003185 584624.000000 1 0 0
-15.765463 0.301410 7.507109 17.464174 -0.019116 1.126461 0.017831 -0.007088 351166.000000 1 0 0
-14.159563 5.837110 12.381109 19.694084 -0.391012 0.890953 0.023241 -0.005189 -510482.000000 1 0 0
0.411537 9.281510 16.649009 19.065815 1.526486 0.508987 -0.002948 -0.018185 -407583.000000 1 0 0
-10.444163 -5.576490 10.824309 16.041928 0.490425 0.830169 0.012994 -0.005595 -6592.620000 1 0 0
-3.184763 -11.063090 15.145709 19.024384 1.290502 0.649939 0.018514 -0.010166 -1423860.000000 1 0 0
-3.699863 2.715310 12.650309 13.457051 -0.633114 0.348018 0.010779 -0.001846 -1589430.000000 1 0 0
-12.416263 -7.789790 7.396209 16.417927 0.560313 1.103476 0.021417 -0.006826 793020.000000 1 0 0
-8.286963 -2.004690 13.156109 15.677237 0.237349 0.575013 0.006615 0.000787 -1259710.000000 1 0 0
-9.878163 6.332310 9.581709 15.148776 -0.570052 0.886010 0.003712 -0.000943 -741532.000000 1 0 0
-17.719063 -3.347290 6.559309 19.188384 0.186709 1.221925 0.030221 -0.020834 205365.000000 1 0 0
-1.394163 -0.033690 20.369909 20.417591 0.024160 0.068356 0.024343 -0.018632 -673403.000000 1 0 0
-2.570163 2.660710 20.144009 20.480875 -0.802707 0.181621 0.023039 -0.014734 -619446.000000 1 0 0
-3.825263 11.325810 11.202409 16.382936 -1.245078 0.817859 0.000331 -0.004116 -454378.000000 1 0 0
-4.172863 -4.853490 14.873609 16.192387 0.860660 0.406385 0.008944 -0.008970 983236.000000 1 0 0
-0.069363 -14.416690 13.440809 19.710431 1.565985 0.820421 -0.000477 -0.007858 43712.500000 1 0 0
-12.171463 0.340310 8.263909 14.715724 -0.027952 0.974514 0.004091 -0.000032 -597969.000000 1 0 0
-7.983263 1.995310 15.456609 17.510583 -0.244919 0.489217 0.012839 0.001198 -538270.000000 1 0 0
3.560337 -2.111990 18.537209 18.993805 -0.535404 0.219709 0.023478 -0.007477 -288151.000000 1 0 0
-2.208163 4.813310 12.528509 13.601746 -1.140680 0.399911 0.000377 -0.001054 -332360.000000 1 0 0
-10.256063 -6.304690 13.289009 17.931361 0.551179 0.736083 0.008080 -0.008975 -756381.000000 1 0 0
2.411637 -3.851590 14.205409 14.914570 -1.011377 0.309612 -0.002722 -0.004417 -99518.600000 1 0 0
6.816837 1.182110 17.005109 18.358660 0.171703 0.386400 0.013248 -0.002248 -1074120.000000 1 0 0
-1.900763 -5.789890 13.766509 15.054983 1.253592 0.416735 0.001610 -0.005835 -1988660.000000 1 0 0
-12.978763 3.578510 14.592809 19.854574 -0.269036 0.745152 0.009308 0.001275 23266.700000 1 0 0
-13.115563 -6.378590 13.344809 19.768367 0.452658 0.829752 0.015594 -0.015048 -912474.000000 1 0 0
-9.531463 6.841210 11.937809 16.738048 -0.622540 0.776724 0.001097 -0.000196 -406674.000000 1 0 0
-1.039563 -2.520690 12.723809 13.012682 1.179636 0.211102 0.004368 -0.002171 663021.000000 1 0 0
0.066737 6.574410 15.263409 16.619236 1.560646 0.406733 0.006190 -0.010404 34681.200000 1 0 0
-16.403563 -0.994590 9.585709 19.025034 0.060558 1.042750 0.023106 -0.004866 -310642.000000 1 0 0
-1.438063 2.666010 13.777309 14.106378 -1.076123 0.216420 0.008025 -0.004874 -2312290.000000 1 0 0
-11.129063 -3.407290 16.081909 19.851788 0.297100 0.626476 0.011861 -0.006660 -922744.000000 1 0 0
-5.234763 -1.485890 16.993709 17.843676 0.276576 0.309894 0.018665 -0.007155 332633.000000 1 0 0
-12.027263 6.618710 11.078509 17.640742 -0.503080 0.891807 0.011946 0.001107 303160.000000 1 0 0
-2.805063 4.734610 18.660209 19.454776 -1.035940 0.286785 0.021185 -0.015999 97686.300000 1 0 0
5.194037 -1.952990 16.586709 17.490315 -0.359652 0.322844 0.017693 -0.001149 -109940.000000 1 0 0
-8.124663 -4.288890 12.090209 15.184791 0.485706 0.649799 0.010947 -0.002123 -1858940.000000 1 0 0
-11.771263 -0.740590 16.142509 19.992292 0.062832 0.631002 0.027306 0.001155 474736.000000 1 0 0
2.070537 2.028710 17.331609 17.572350 0.775195 0.165719 0.013714 -0.010774 -1988090.000000 1 0 0
-8.915163 -7.603790 11.494909 16.414344 0.706178 0.794983 0.016658 -0.010918 1154600.000000 1 0 0
-7.317863 6.658010 14.935609 17.915151 -0.738219 0.585047 0.008364 -0.002372 -569977.000000 1 0 0
-5.726763 3.368410 15.697309 17.045455 -0.531689 0.400391 0.012964 -0.007548 -136624.000000 1 0 0
-9.448463 4.235310 11.496409 15.471869 -0.421401 0.733176 0.000754 -0.000678 -137732.000000 1 0 0
-10.269163 0.107210 14.216009 17.537449 -0.010440 0.625605 0.006715 0.001300 118691.000000 1 0 0
8.146837 -0.494990 15.773509 17.760055 -0.060684 0.477503 0.013470 -0.003016 -158775.000000 1 0 0
-8.636363 -7.576290 14.892709 18.809033 0.720106 0.657071 0.024513 -0.004254 -3011270.000000 1 0 0
-0.218563 4.098410 15.602709 16.133483 -1.517518 0.257219 0.009562 -0.012962 -528516.000000 1 0 0
-8.064563 3.130910 9.609309 12.929757 -0.370319 0.732966 -0.003073 0.000704 -331325.000000 1 0 0
-2.111963 -9.719290 13.150109 16.487885 1.356827 0.647554 -0.000449 -0.004796 144182.000000 1 0 0
-6.100963 10.304810 10.515109 15.936700 -1.036243 0.850237 0.004958 -0.006321 -901620.000000 1 0 0
-8.577063 -2.819090 15.584109 18.010490 0.317555 0.525088 0.010996 -0.007691 244006.000000 1 0 0
4.065937 5.896510 17.692509 19.087314 0.967119 0.384663 0.005906 -0.008336 241919.000000 1 0 0
-6.833263 -1.052690 15.010809 16.526525 0.152852 0.431628 0.009697 -0.003746 -657691.000000 1 0 0
-0.914763 -9.963790 15.471109 18.424688 1.479244 0.574076 -0.007837 -0.003611 305416.000000 1 0 0
-4.524563 5.620510 16.367509 17.887347 -0.893008 0.415207 0.015272 -0.005079 -55160.000000 1 0 0
3.690737 0.052610 17.391109 17.778498 0.014254 0.209138 0.014173 -0.007161 -712113.000000 1 0 0
1.383337 0.270110 19.179109 19.230830 0.192834 0.073358 0.018640 -0.010294 -581217.000000 1 0 0
-6.479563 6.472810 17.810909 20.027743 -0.784877 0.474958 0.025690 -0.007191 -2136220.000000 1 0 0
-12.320763 0.556010 10.927909 16.478154 -0.045097 0.845743 0.010143 0.001789 -523981.000000 1 0 0
-5.408863 5.151010 13.890409 15.771245 -0.760985 0.493368 0.005538 -0.001445 -2377510.000000 1 0 0
-8.727063 -9.568490 9.860209 16.277019 0.831357 0.920057 0.024183 -0.006208 -668418.000000 1 0 0
6.857837 -3.889290 17.025109 18.761952 -0.515900 0.433676 0.023805 -0.004859 -496216.000000 1 0 0
-16.890663 1.569910 9.515709 19.450138 -0.092679 1.059583 0.029310 -0.002318 -66099.900000 1 0 0
-4.101963 -9.638090 11.291609 15.401926 1.168418 0.747884 0.006347 -0.005316 1384960.000000 1 0 0
-11.200163 -4.048090 9.086209 14.979649 0.346822 0.919057 0.005222 -0.000077 77396.600000 1 0 0
3.525237 -5.237490 18.577309 19.620780 -0.978369 0.327598 0.017846 -0.015437 -223347.000000 1 0 0
2.556637 -1.954490 16.101709 16.420154 -0.652702 0.197264 0.011611 -0.006268 -148697.000000 1 0 0
-3.377263 -4.394990 20.064209 20.815723 0.915601 0.269528 0.015514 -0.021107 -578483.000000 1 0 0
-6.324163 -3.421290 14.268109 15.977459 0.495897 0.466796 0.009834 -0.003758 -239458.000000 1 0 0
-9.795163 5.267010 13.952809 17.842856 -0.493363 0.672955 0.015585 -0.001718 144504.000000 1 0 0
-5.953963 -5.300790 11.634709 14.103706 0.727428 0.600700 0.006803 -0.003369 -1238990.000000 1 0 0
6.205937 1.903410 19.449409 20.504052 0.297599 0.322127 0.028399 -0.005192 -120564.000000 1 0 0
-2.780163 11.876610 13.510409 18.202042 -1.340849 0.734379 0.004173 -0.009070 250068.000000 1 0 0
3.294437 1.223810 15.194709 15.595840 0.355679 0.227294 0.003669 -0.002504 -809480.000000 1 0 0
-5.917163 7.520710 12.973109 16.120654 -0.904167 0.635541 0.001434 -0.000547 -557243.000000 1 0 0
-1.923863 -1.815990 15.155609 15.384783 0.756562 0.172819 0.009010 -0.005995 -705992.000000 1 0 0
-7.303563 10.748110 13.987909 19.092551 -0.973947 0.748608 0.019903 -0.012229 518890.000000 1 0 0
-10.204063 2.031510 10.539709 14.809977 -0.196519 0.778934 0.000028 0.000710 345200.000000 1 0 0
-13.745263 5.099610 9.126509 17.269379 -0.355267 1.013988 0.012766 -0.002005 387978.000000 1 0 0
0.093437 -5.018990 20.211209 20.825272 -1.552182 0.243444 0.019547 -0.023804 -306173.000000 1 0 0
-14.463263 -2.958090 7.505909 16.561249 0.201742 1.100421 0.015441 -0.004988 -286977.000000 1 0 0
-2.301663 2.443410 17.529309 17.847818 -0.815262 0.189204 0.013122 -0.012630 -30754.900000 1 0 0
-6.119363 -8.371790 14.827309 18.093716 0.939599 0.610306 0.011125 -0.002906 -682820.000000 1 0 0
-8.127163 1.938810 11.991909 14.615596 -0.234182 0.608534 -0.001302 0.000748 -740402.000000 1 0 0
-14.668063 -3.508690 10.057709 18.127893 0.234794 0.982650 0.016080 -0.005588 -190768.000000 1 0 0
-0.653363 6.923410 12.757009 14.529342 -1.476705 0.499093 0.001591 -0.004921 -1244540.000000 1 0 0
-1.884663 -2.280090 19.346209 19.571065 0.880060 0.151732 0.018651 -0.015801 -2331.990000 1 0 0
-12.798663 10.219510 7.387409 17.967136 -0.673815 1.147068 0.007107 -0.012693 226141.000000 1 0 0
-19.704863 2.130210 6.495709 20.856982 -0.107688 1.254088 0.054045 -0.016329 1448720.000000 1 0 0
-16.436463 8.317610 6.660009 19.588152 -0.468473 1.223877 0.040949 -0.008799 424776.000000 1 0 0
-12.315763 7.142210 13.638309 19.715290 -0.525527 0.806869 0.018809 -0.002139 15258.200000 1 0 0
-15.941263 8.401410 10.340809 20.775946 -0.485031 1.049817 0.026347 -0.002144 -2009260.000000 1 0 0
1.846437 10.774510 14.998809 18.559733 1.401074 0.629814 -0.005039 -0.013845 -678668.000000 1 0 0
2.076937 14.372410 12.689309 19.284668 1.427281 0.852637 -0.004751 -0.003463 -327687.000000 1 0 0
-2.954863 13.712110 11.746909 18.295985 -1.358549 0.873629 -0.015327 -0.005524 464500.000000 1 0 0
9.169837 4.878910 15.740509 18.858773 0.488966 0.583296 0.028477 0.000951 -80872.600000 1 0 0
-0.187063 12.437510 12.976209 17.975224 -1.555757 0.764261 -0.011074 -0.004527 382031.000000 1 0 0
3.527537 13.356610 14.614009 20.109993 1.312588 0.757285 0.003131 -0.005801 105329.000000 1 0 0
-2.818863 -4.141390 -13.667791 14.556978 0.973171 2.790265 0.005943 -0.007120 -142087.000000 1 0 0
6.029037 -11.495690 16.260009 20.805962 -1.087772 0.673718 0.012650 -0.005867 149889.000000 1 0 0
7.977637 -13.505390 7.335109 17.315948 -1.037243 1.133376 0.007451 -0.006494 103673.000000 1 0 0
-0.004163 15.535010 1.324009 15.591330 -1.570528 1.485774 0.007365 -0.006943 -2446540.000000 1 0 0
-13.672663 8.246310 9.181809 18.418713 -0.542713 1.048924 0.005925 0.000246 378849.000000 1 0 0
-15.416663 -9.676490 4.818009 18.828733 0.560513 1.312032 0.035101 -0.009573 -946119.000000 1 0 0
9.430037 -11.009690 11.115409 18.267216 -0.862528 0.916641 0.021225 -0.005703 242324.000000 1 0 0
-6.001563 -10.347590 -16.780491 20.607674 1.045215 2.522290 0.035034 -0.006261 79977.300000 1 0 0
-1.745963 -12.669690 -14.968891 19.688502 1.433853 2.434549 0.022114 -0.000098 -40244.400000 1 0 0
5.559937 -15.056590 -13.215391 20.790871 -1.217059 2.259626 0.026077 -0.017845 116225.000000 1 0 0
2.629737 -11.623990 -16.672591 20.494095 -1.348308 2.520996 0.017997 -0.010139 269961.000000 1 0 0
0.618937 -14.010290 -14.484991 20.161504 -1.526648 2.372365 0.028720 0.003209 248671.000000 1 0 0
-6.367363 -6.203190 -14.406591 16.928459 0.772339 2.588736 0.016571 -0.003744 -38438.500000 1 0 0
-6.108863 -8.045490 -17.546491 20.246665 0.921376 2.619217 0.019944 -0.000534 25154.600000 1 0 0
-2.424363 -16.271590 -13.467391 21.260592 1.422891 2.256792 0.032332 -0.000181 270013.000000 1 0 0
16.305537 -8.137790 -8.922191 20.290383 -0.462912 2.026089 0.046740 -0.003546 41917.800000 1 0 0
19.049637 -2.670790 -3.609491 19.571668 -0.139294 1.756282 0.051706 -0.012552 127489.000000 1 0 0
15.262437 -11.342390 -9.417691 21.219912 -0.639107 2.030646 0.009714 -0.006749 64503.200000 1 0 0
18.306137 -2.674190 -6.520791 19.615979 -0.145056 1.909667 0.136668 -0.004872 -228335.000000 1 0 0
9.382337 -9.925090 -15.957991 21.004597 -0.813502 2.433706 0.046162 0.001010 112835.000000 1 0 0
-4.767963 9.242810 -16.119491 19.183352 -1.094544 2.568606 0.003102 -0.012847 665550.000000 1 0 0
2.857937 -9.628690 -18.203791 20.790802 -1.282264 2.637410 0.021531 -0.010922 180766.000000 1 0 0
11.444837 8.374610 -15.186891 20.778836 0.631710 2.390411 0.052943 -0.029951 304092.000000 1 0 0
18.520637 -5.471590 -8.212091 20.985488 -0.287261 1.972864 0.059309 -0.011512 288621.000000 1 0 0
12.668737 5.583010 -13.838491 19.574747 0.415086 2.355982 0.016602 -0.004892 114671.000000 1 0 0
15.785437 6.462710 -10.219791 19.884435 0.388592 2.110590 0.000952 -0.024915 222922.000000 1 0 0
3.526937 -0.218190 -18.955391 19.281953 -0.061785 2.957287 0.034554 -0.016398 197043.000000 1 0 0
10.307837 -1.597090 -14.537291 17.892317 -0.153717 2.519203 0.019430 -0.011020 86985.300000 1 0 0
12.269937 -6.144290 -14.031691 19.626308 -0.464255 2.367339 0.029313 0.002946 156896.000000 1 0 0
10.416737 6.700110 -13.015091 17.966426 0.571584 2.380977 0.025142 -0.004296 543749.000000 1 0 0
10.741037 5.392810 -16.414191 20.343990 0.465307 2.509567 0.039382 -0.010922 401339.000000 1 0 0
11.977937 -10.586190 -14.975091 21.904148 -0.723797 2.323569 0.051841 -0.003111 368530.000000 1 0 0
-1.235263 2.051110 -17.262991 17.428247 -1.028730 3.003773 0.012506 -0.010429 362618.000000 1 0 0
6.611837 -0.748290 -17.023391 18.277641 -0.112695 2.768976 0.016957 0.002511 93407.100000 1 0 0
6.134637 -5.536290 -15.843691 17.869158 -0.734175 2.660846 -0.026228 -0.005712 16700.400000 1 0 0
-2.177063 -4.617390 -20.249191 20.882759 1.130214 2.894635 0.033858 -0.025742 255481.000000 1 0 0
16.071837 -0.120190 -13.088391 20.727382 -0.007478 2.254223 0.040851 -0.012607 -8069.240000 1 0 0
-3.954263 -0.459590 -18.601191 19.022400 0.115707 2.930761 0.009920 -0.005405 134693.000000 1 0 0
3.970237 8.414710 -18.218691 20.457048 1.129945 2.669421 0.025798 -0.010896 148033.000000 1 0 0
9.934037 0.566010 -16.863691 19.580335 0.056915 2.608533 0.035249 -0.021559 -99926.300000 1 0 0
4.178337 4.569510 -18.493391 19.502421 0.830085 2.818510 0.029697 0.000161 511092.000000 1 0 0
-2.747563 -11.176790 -17.560691 20.996371 1.329748 2.561420 0.038880 -0.029803 261138.000000 1 0 0
7.098937 -8.914890 -15.944891 19.598717 -0.898315 2.521059 0.038425 -0.025156 161246.000000 1 0 0
10.116737 -12.963990 -11.824691 20.254301 -0.908139 2.194212 0.013753 0.044494 267789.000000 1 0 0
6.163337 7.102110 -17.122391 19.534660 0.856049 2.639367 0.036766 -0.009737 351244.000000 1 0 0
8.738637 1.915810 -20.194191 22.087088 0.215820 2.724569 0.053377 -0.006702 79074.300000 1 0 0
-1.168363 -0.460190 -20.140691 20.179799 0.375215 3.079326 0.025758 -0.014029 138219.000000 1 0 0
-0.962163 6.798510 -19.709191 20.870977 -1.430204 2.806363 0.012196 -0.001771 -26738.600000 1 0 0
8.864837 6.334610 -17.761591 20.837148 0.620442 2.591355 0.054951 -0.027851 -26916.900000 1 0 0
12.002737 0.038610 -12.730391 17.496572 0.003217 2.385604 -0.002430 -0.005645 -38206.600000 1 0 0
-4.372163 -2.471890 -19.902191 20.526160 0.514567 2.894392 0.018888 -0.005411 343872.000000 1 0 0
5.733237 -11.278090 -14.496591 19.241010 -1.100490 2.424047 -0.005608 -0.007374 38414.400000 1 0 0
11.634737 2.754310 -15.735291 19.762406 0.232452 2.491823 0.042078 -0.005805 -55125.500000 1 0 0
-2.885263 -4.414590 -17.139191 17.932239 0.991912 2.843081 0.010620 -0.007043 307762.000000 1 0 0
-6.272163 -4.606890 -17.375191 19.038401 0.633506 2.720491 0.015951 -0.013072 25523.000000 1 0 0
3.071237 10.024910 -15.280391 18.531639 1.273514 2.540215 0.005268 -0.018041 243501.000000 1 0 0
17.229837 -6.033090 -10.820891 21.221619 -0.336812 2.105864 0.075710 -0.011626 -91216.700000 1 0 0
9.692037 -3.496290 -17.570591 20.368733 -0.346209 2.611234 0.015740 -0.014748 -28532.600000 1 0 0
-7.213163 -1.522190 -19.000291 20.380330 0.207978 2.771478 0.021784 0.002577 518400.000000 1 0 0
1.658337 -7.361790 -19.202491 20.632055 -1.349232 2.767150 0.030703 -0.026899 268557.000000 1 0 0
5.955737 10.405110 -13.831791 18.304523 1.050929 2.427440 0.024775 -0.021178 391936.000000 1 0 0
6.104637 -3.592890 -17.910091 19.259979 -0.531959 2.764971 0.020694 -0.016079 506276.000000 1 0 0
4.160637 13.186710 -14.964991 20.375259 1.265165 2.395680 0.017433 -0.016587 110217.000000 1 0 0
9.522537 11.124410 -15.456091 21.291359 0.862827 2.383186 0.059728 -0.031236 28132.000000 1 0 0
17.039637 1.085110 -11.156691 20.396039 0.063596 2.149576 0.049400 -0.011909 109871.000000 1 0 0
15.099837 -2.806690 -12.306491 19.680759 -0.183778 2.246320 0.053268 -0.009973 4327.870000 1 0 0
-8.821563 -0.224690 -17.398091 19.508050 0.025465 2.672196 0.031438 -0.011182 244181.000000 1 0 0
-3.100863 4.401910 -19.021991 19.769378 -0.957099 2.865745 0.009297 -0.002445 2905.780000 1 0 0
3.736337 1.470110 -16.895691 17.366226 0.374858 2.908277 0.014049 -0.003123 467305.000000 1 0 0
-5.003163 14.255910 -13.755191 20.432031 -1.233272 2.309347 0.019683 -0.015255 370611.000000 1 0 0
1.335637 9.113610 -17.655391 19.913680 1.425278 2.660730 0.015013 -0.009760 445354.000000 1 0 0
1.287137 -5.224490 -19.728291 20.448899 -1.329241 2.875328 0.036271 -0.009739 477072.000000 1 0 0
3.828837 -6.163790 -17.911191 19.325192 -1.014947 2.756680 0.025540 -0.026067 58870.400000 1 0 0
-7.274763 7.038110 -15.743991 18.717116 -0.768865 2.570211 0.004954 -0.008351 85731.200000 1 0 0
-11.931763 3.188410 -16.838991 20.882637 -0.261119 2.508773 0.067989 -0.028339 324245.000000 1 0 0
-4.792563 7.115610 -17.589491 19.570150 -0.978059 2.687802 -0.004524 0.021554 255893.000000 1 0 0
-8.277463 5.076610 -17.847591 20.318092 -0.550145 2.643319 0.012530 -0.003572 466927.000000 1 0 0
-8.471963 4.222110 -14.754591 17.529927 -0.462337 2.571184 -0.007323 -0.025732 334723.000000 1 0 0
9.536537 13.798110 -12.913991 21.168480 0.966036 2.226930 0.044823 -0.029988 372975.000000 1 0 0
14.095937 10.083510 -11.742891 20.934853 0.620953 2.166299 0.045171 -0.023413 106504.000000 1 0 0
8.215137 15.827210 -9.774791 20.335574 1.092024 2.072220 0.017760 -0.010996 -12861.800000 1 0 0
7.707037 13.346510 -14.406091 21.096521 1.047117 2.322475 0.044598 -0.035178 234991.000000 1 0 0
4.160437 15.233310 -12.951791 20.423317 1.304184 2.257727 0.024377 -0.027453 175009.000000 1 0 0
10.765337 11.835010 -11.880591 19.927578 0.832693 2.209541 0.039634 -0.009723 189214.000000 1 0 0
15.857837 10.796410 -8.961391 21.174040 0.597741 2.007799 0.056051 -0.041597 333382.000000 1 0 0
13.000437 11.231610 -9.773391 19.765616 0.712532 2.088015 0.050350 -0.023717 156174.000000 1 0 0
10.569737 11.332110 -7.928191 17.406673 0.820193 2.043695 0.023703 -0.011082 145587.000000 1 0 0
5.774137 16.993210 -10.320391 20.703147 1.243245 2.092657 0.054081 -0.009784 -9764.180000 1 0 0
11.249937 13.904010 -10.371491 20.674874 0.890522 2.096298 0.067499 -0.030763 190427.000000 1 0 0
8.320437 -19.362190 -1.859691 21.156146 -1.164930 1.658813 0.046916 -0.006004 208780.000000 1 0 0
7.883037 -17.703590 -4.186691 19.826440 -1.151875 1.783565 0.036340 0.013177 227708.000000 1 0 0
4.018437 -18.558690 5.038409 19.645823 -1.357562 1.311436 0.042877 -0.031728 -79918.300000 1 0 0
10.608337 -17.677890 -2.258091 20.739903 -1.030310 1.679889 0.055702 -0.010150 649980.000000 1 0 0
-3.243863 -14.629390 7.912809 16.945626 1.352591 1.084955 0.027339 -0.037225 174559.000000 1 0 0
-15.335963 -12.525790 -4.720291 20.356039 0.684877 1.804813 0.056056 -0.011823 178455.000000 1 0 0
-9.400463 -12.548690 -7.387791 17.332564 0.927859 2.011126 0.035628 -0.010195 203526.000000 1 0 0
-11.587463 -15.516690 6.568409 20.449474 0.929363 1.243798 0.038566 -0.007792 426992.000000 1 0 0
-14.950763 -7.266190 -7.442791 18.213126 0.452391 1.991771 0.061782 -0.034683 -22242.900000 1 0 0
4.969337 -15.120890 6.473009 17.182417 -1.253275 1.184540 0.024165 -0.016882 258973.000000 1 0 0
2.901537 -14.053890 9.147109 17.017648 -1.367199 1.003318 0.008559 -0.008121 375126.000000 1 0 0
3.456037 -17.184190 10.255709 20.308130 -1.372327 1.041408 0.028355 -0.014690 36175.100000 1 0 0
-7.352163 -17.155490 -5.838191 19.556319 1.165914 1.873951 -0.006176 -0.011680 -31039.600000 1 0 0
2.150837 -19.928290 -4.121791 20.463430 -1.463284 1.773606 0.025420 -0.016231 109469.000000 1 0 0
-16.776563 -10.364990 -3.408791 20.012645 0.553424 1.741963 -0.050539 -0.035057 -188789.000000 1 0 0
-3.963063 -14.697090 2.626509 15.446970 1.307411 1.399932 0.006688 -0.003040 142764.000000 1 0 0
-10.843563 -10.070290 -14.674491 20.840688 0.748441 2.351989 0.051329 -0.005368 155229.000000 1 0 0
0.946237 -20.210090 2.574209 20.395334 -1.524010 1.444243 0.034400 -0.019549 187146.000000 1 0 0
5.511837 -18.583890 0.655809 19.395138 -1.282469 1.536977 0.013917 0.001792 183822.000000 1 0 0
-7.883363 -18.640090 -3.735691 20.580470 1.170684 1.753324 0.040030 -0.026159 41942.300000 1 0 0
-9.864663 -15.422690 -7.520991 19.792328 1.001753 1.960587 0.063500 -0.019702 49503.600000 1 0 0
-11.767063 -11.010890 -12.603391 20.458468 0.752213 2.234512 0.034636 -0.003358 208736.000000 1 0 0
-13.283763 -14.936390 -3.359191 20.269146 0.843893 1.737294 0.044502 -0.021167 206425.000000 1 0 0
-0.202463 -20.532690 -2.554391 20.691961 1.560936 1.694561 0.037524 -0.019269 479161.000000 1 0 0
-12.307663 -16.657890 -0.743791 20.724794 0.934470 1.606693 0.057005 -0.022984 217512.000000 1 0 0
1.120137 -20.049290 5.188709 20.740092 -1.514985 1.317933 0.036445 -0.023730 187640.000000 1 0 0
-18.336163 -9.195490 2.268309 20.637760 0.464843 1.460663 0.067844 -0.007712 81547.800000 1 0 0
-14.749163 -14.995290 -0.557391 21.040609 0.793673 1.597291 0.055644 -0.017001 -6555.020000 1 0 0
9.864837 -15.816390 -4.832591 19.256872 -1.013125 1.824462 0.031057 0.004787 174362.000000 1 0 0
0.130937 -19.121890 -6.961091 20.349953 -1.563949 1.919914 0.018162 -0.012196 121749.000000 1 0 0
-10.133763 -18.538790 -2.470891 21.271699 1.070548 1.687218 0.043131 0.034919 592065.000000 1 0 0
-14.274363 -6.597090 -11.542391 19.506559 0.432923 2.203985 0.029415 -0.017336 -230670.000000 1 0 0
-12.563263 -14.607890 1.657209 19.338365 0.860506 1.484996 0.049043 -0.029309 290814.000000 1 0 0
-2.497963 -16.106690 10.000809 19.122799 1.416934 1.020455 0.023775 -0.024680 454403.000000 1 0 0
-12.531963 -14.277690 -6.618791 20.117428 0.850422 1.906049 0.054571 -0.015857 109074.000000 1 0 0
5.255737 -17.012390 -7.615591 19.365985 -1.271162 1.974955 0.024452 -0.007681 -36008.900000 1 0 0
-17.384263 -7.104490 -3.097291 19.033644 0.387961 1.734250 0.013382 -0.013719 -209836.000000 1 0 0
-12.022363 -13.477190 -10.009091 20.648336 0.842389 2.076863 0.062696 -0.020619 -36194.600000 1 0 0
-7.813363 -14.132390 9.978809 18.982880 1.065753 1.017289 0.036723 -0.005935 573224.000000 1 0 0
-16.004063 -8.540290 -5.543291 18.968254 0.490190 1.867365 0.053570 -0.006338 373074.000000 1 0 0
-0.768963 -19.789390 0.059209 19.804412 1.531959 1.567807 0.023199 -0.008174 236635.000000 1 0 0
-14.805363 -11.486390 -2.099591 18.855880 0.659826 1.682377 0.031055 -0.007716 95384.400000 1 0 0
-7.081663 -19.092290 1.507509 20.419061 1.215610 1.496901 0.028243 -0.010857 85341.300000 1 0 0
-1.366863 -21.329090 -4.802291 21.905716 1.506799 1.791817 0.012493 -0.002176 -43597.500000 1 0 0
-8.828963 -19.416190 -0.390591 21.332875 1.144023 1.589107 0.031720 -0.022374 194118.000000 1 0 0
-17.836363 -7.348090 4.891109 19.901086 0.390785 1.322481 0.058203 -0.015318 164194.000000 1 0 0
-2.530663 -15.723890 -10.661691 19.165506 1.411221 2.160718 0.020563 -0.001182 155267.000000 1 0 0
-3.076663 -18.395390 -7.721991 20.186267 1.405078 1.963337 0.022235 -0.004020 102881.000000 1 0 0
3.966837 -18.002990 -6.207191 19.451803 -1.353919 1.895583 0.008350 0.027903 413771.000000 1 0 0
0.782337 -17.481990 -9.099591 19.723959 -1.526075 2.050309 0.010216 0.003781 -28921.100000 1 0 0
-7.682863 -10.209990 -14.545791 19.361051 0.925707 2.420813 0.026604 -0.020765 -33472.400000 1 0 0
-5.218663 -19.375090 -2.168791 20.182473 1.307691 1.678463 0.034990 -0.019326 359812.000000 1 0 0
-9.745063 -16.167390 8.395609 20.660034 1.028350 1.152319 0.027914 -0.004077 255611.000000 1 0 0
-8.049363 -14.293890 -9.322891 18.868594 1.057926 2.087591 0.080459 -0.031453 239845.000000 1 0 0
-12.449663 -8.024690 -12.608191 19.451381 0.572549 2.276001 0.035446 -0.013973 279831.000000 1 0 0
-15.426063 -13.022690 3.144109 20.431331 0.701117 1.416296 0.052940 -0.012803 118572.000000 1 0 0
-6.151463 -14.269190 -13.047591 20.290143 1.163769 2.269272 0.014444 -0.000626 518670.000000 1 0 0
-13.908863 -11.249390 -7.007091 19.212094 0.680080 1.944132 0.051755 -0.023956 233274.000000 1 0 0
-11.975963 -10.452090 -8.360691 17.960262 0.717557 2.055008 0.047159 -0.013091 104621.000000 1 0 0
-9.541763 -14.809490 3.100209 17.887916 0.998438 1.396604 0.004727 -0.007948 496557.000000 1 0 0
5.042637 -17.880890 8.476709 20.420798 -1.295922 1.142742 0.046367 -0.022795 258252.000000 1 0 0
-4.927263 -16.616790 5.414809 18.158078 1.282532 1.267986 0.010279 0.003840 478802.000000 1 0 0
-18.385563 -7.451190 -7.076591 21.062462 0.385045 1.913443 0.050947 -0.022150 16303.200000 1 0 0
-17.043963 -4.715490 -11.024891 20.839404 0.269915 2.128266 0.059705 -0.008998 -362148.000000 1 0 0
-15.722563 -3.995690 -13.062891 20.827954 0.248869 2.248725 0.052257 -0.021586 221221.000000 1 0 0
-19.385163 -5.675290 -6.035591 21.081315 0.284806 1.861160 0.053178 -0.016399 -596357.000000 1 0 0
5.708937 -13.216090 8.662609 16.801720 -1.163038 1.029113 0.026250 -0.009118 212493.000000 1 0 0
20.147937 -3.303290 3.158509 20.659798 -0.162506 1.417313 0.066394 -0.013658 58926.100000 1 0 0
18.087037 -2.131690 0.707609 18.225962 -0.117316 1.531962 0.042084 -0.024475 211697.000000 1 0 0
14.198937 -11.404990 0.503709 18.219147 -0.676706 1.543146 0.042212 -0.001519 83780.800000 1 0 0
11.211437 -13.808690 5.322509 18.566242 -0.888834 1.280040 0.034209 0.000481 422623.000000 1 0 0
10.158137 -12.658690 8.281909 18.221421 -0.894555 1.098969 0.036706 -0.026290 -29837.200000 1 0 0
18.611937 5.372910 -5.090891 20.029716 0.281040 1.827783 0.052183 0.010006 -113124.000000 1 0 0
18.972537 -6.132490 -4.740291 20.494754 -0.312630 1.804203 0.068989 -0.005625 -103094.000000 1 0 0
18.015737 -9.836790 -0.200391 20.527283 -0.499775 1.580559 0.087229 -0.005357 244927.000000 1 0 0
17.904937 -8.376090 8.961109 21.703620 -0.437565 1.145176 0.114454 -0.020713 -145533.000000 1 0 0
19.977537 0.267410 -1.975691 20.076773 0.013385 1.669363 0.070396 -0.009063 167243.000000 1 0 0
7.321537 -13.720390 11.592709 19.397033 -1.080612 0.930225 0.013969 0.009643 319299.000000 1 0 0
16.042237 -6.657790 -3.080091 17.639911 -0.393384 1.746305 0.039471 -0.006164 328776.000000 1 0 0
14.344537 -7.068490 11.143909 19.491434 -0.457843 0.962179 0.048645 -0.040423 468798.000000 1 0 0
17.168837 2.041710 9.603209 19.777744 0.118364 1.063797 0.111685 -0.019833 521409.000000 1 0 0
16.615437 -10.032990 2.730109 19.600692 -0.543235 1.431056 0.035132 -0.007224 250284.000000 1 0 0
16.407637 -7.220590 -5.836391 18.852345 -0.414570 1.885552 0.054824 -0.000343 225822.000000 1 0 0
18.956637 -4.954490 5.729109 20.413812 -0.255641 1.286326 0.174186 -0.023396 -395768.000000 1 0 0
13.704737 -13.385290 8.112809 20.803929 -0.773607 1.170202 0.060633 -0.010269 184956.000000 1 0 0
15.184637 -14.106990 -1.424291 20.775200 -0.748624 1.639407 0.040984 -0.008639 150690.000000 1 0 0
18.715837 -6.296490 7.855509 21.251761 -0.324531 1.192174 0.092503 -0.025611 342145.000000 1 0 0
19.451137 3.545110 2.591209 19.940634 0.180278 1.440482 0.047623 -0.008026 128200.000000 1 0 0
15.848537 -10.513990 8.155309 20.693699 -0.585741 1.165712 0.071359 -0.032772 322750.000000 1 0 0
14.095337 -4.244890 10.816209 18.267129 -0.292517 0.937118 0.042814 -0.007813 -89494.400000 1 0 0
18.779337 -7.599490 2.362709 20.396032 -0.384528 1.454694 0.076105 -0.010114 -138835.000000 1 0 0
18.961437 -4.877490 -1.586991 19.642925 -0.251774 1.651676 0.059253 -0.009126 284498.000000 1 0 0
14.993937 -13.270790 -5.949791 20.888561 -0.724509 1.859630 0.057674 -0.012541 370985.000000 1 0 0
13.755837 -9.639690 10.572509 19.847534 -0.611243 1.009025 0.028729 0.000868 493221.000000 1 0 0
14.178737 2.214810 0.594709 14.362995 0.154954 1.529379 0.003344 -0.004315 -220487.000000 1 0 0
12.959037 3.123710 13.592209 19.037919 0.236533 0.775666 0.039920 -0.014140 163854.000000 1 0 0
18.216437 -3.398890 9.176709 20.678564 -0.184463 1.110985 0.073928 -0.018984 265390.000000 1 0 0
7.128037 -18.159890 4.602909 20.044383 -1.196759 1.339093 0.042536 -0.028970 430496.000000 1 0 0
12.256737 -2.533590 15.473609 19.901740 -0.203839 0.680115 0.026961 0.009916 208955.000000 1 0 0
11.326637 -13.685990 -6.545391 18.932542 -0.879446 1.923804 0.018945 -0.005759 57792.700000 1 0 0
11.044337 -17.062390 4.458609 20.808213 -0.996328 1.354850 0.070750 -0.025185 524561.000000 1 0 0
18.283737 -0.423390 -4.306591 18.788853 -0.023152 1.802062 0.060599 -0.014902 140446.000000 1 0 0
4.093137 -13.357490 11.474409 18.078672 -1.273451 0.883185 -0.006203 -0.010804 -180630.000000 1 0 0
9.067437 -2.732690 14.234809 17.097245 -0.292717 0.587049 0.003640 -0.002263 269680.000000 1 0 0
9.270437 -9.466190 14.272309 19.474305 -0.795845 0.748252 0.036670 0.004106 288775.000000 1 0 0
20.991937 5.622510 -3.008791 21.939162 0.261699 1.708372 0.076257 -0.008830 673892.000000 1 0 0
14.797537 -13.598290 2.309709 20.229071 -0.743190 1.456369 0.035597 -0.000254 316555.000000 1 0 0
10.923137 0.323410 13.801509 17.604010 0.029599 0.669716 0.019265 -0.027056 175186.000000 1 0 0
19.515137 0.386010 7.771909 21.009334 0.019777 1.191866 0.094823 -0.014744 -131324.000000 1 0 0
19.854737 1.091510 0.408609 19.888915 0.054920 1.550250 0.056269 -0.013873 -2623.600000 1 0 0
18.020037 0.279710 3.034309 18.275858 0.015521 1.403996 0.037440 -0.007663 11612.700000 1 0 0
10.438437 -8.310590 16.503409 21.222379 -0.672391 0.679890 0.046435 -0.001892 101483.000000 1 0 0
19.209237 3.087910 5.656309 20.261387 0.159388 1.287870 0.055148 -0.002906 103325.000000 1 0 0
15.244737 2.416510 7.129309 17.002017 0.157206 1.138099 0.038032 -0.009030 -17208.100000 1 0 0
11.416937 -16.010590 1.914309 19.757277 -0.951341 1.473753 0.018763 0.001391 284129.000000 1 0 0
8.560237 -16.425990 6.919809 19.773076 -1.090380 1.213267 0.041918 -0.004103 423426.000000 1 0 0
6.112737 6.512210 7.290609 11.529415 0.817029 0.886215 0.000095 0.002439 -1054520.000000 1 0 0
18.518037 2.674310 -6.431491 19.784683 0.143425 1.901887 0.042082 -0.003312 231514.000000 1 0 0
14.116937 4.500510 -7.253891 16.497316 0.308616 2.026062 0.012440 -0.004264 370136.000000 1 0 0
-10.488263 -3.888890 -13.915391 17.853998 0.355070 2.464503 0.020229 -0.002944 -199845.000000 1 0 0
7.901737 -14.276490 -10.382291 19.340309 -1.065286 2.137461 0.017321 0.007081 68876.800000 1 0 0
2.292937 -15.211190 14.246009 20.966321 -1.421183 0.823755 0.000188 -0.011592 323555.000000 1 0 0
-9.516063 -7.790990 1.990309 12.458584 0.686052 1.410355 0.003162 0.000212 246764.000000 1 0 0
-13.972563 3.050410 -9.495591 17.166938 -0.214942 2.156916 0.030813 -0.009209 239212.000000 1 0 0
-12.784863 -4.650690 -13.675791 19.290124 0.348885 2.358809 0.030919 -0.000826 210774.000000 1 0 0
-18.118463 -1.204790 -8.558991 20.074525 0.066397 2.011262 0.068783 -0.030348 458998.000000 1 0 0
-12.401163 15.016310 4.731409 20.041573 -0.880493 1.332467 0.032264 -0.020992 354041.000000 1 0 0
-17.595563 6.374410 9.072109 20.797599 -0.347567 1.119414 0.046241 -0.012777 196044.000000 1 0 0
-13.331463 15.423710 0.124609 20.387111 -0.858031 1.564684 0.054475 -0.012090 148183.000000 1 0 0
-16.620363 5.602310 -10.125891 20.252309 -0.325114 2.094380 0.079290 -0.023929 -144369.000000 1 0 0
-18.543763 2.925910 -0.299191 18.775559 -0.156494 1.586732 0.053069 -0.006876 -1041.330000 1 0 0
-9.877763 15.399410 -0.197991 18.296209 -1.000464 1.581618 0.024543 -0.007472 79469.800000 1 0 0
-18.509663 12.316210 3.236009 22.467052 -0.587121 1.426260 0.086297 -0.012108 -92697.800000 1 0 0
-8.984363 16.316210 -7.460591 20.064843 -1.067462 1.951769 0.075266 -0.025131 132143.000000 1 0 0
-14.958063 -1.684690 -12.985391 19.879693 0.112155 2.282598 0.045999 -0.027980 202382.000000 1 0 0
-19.211963 5.430310 -4.635591 20.495768 -0.275467 1.798943 0.060464 -0.011340 129416.000000 1 0 0
-16.558163 9.889210 -5.578491 20.077072 -0.538388 1.852356 0.034434 0.014302 109705.000000 1 0 0
-19.086763 1.228110 2.234809 19.256354 -0.064255 1.454479 0.034415 -0.011396 481823.000000 1 0 0
-13.874863 12.920110 -7.635191 20.438621 -0.749781 1.953648 0.035814 0.025799 62324.700000 1 0 0
-13.477863 4.101910 -12.642691 18.929239 -0.295438 2.302169 0.065583 -0.036104 -61878.200000 1 0 0
-14.067163 9.280010 -6.849491 18.191185 -0.583159 1.956842 0.026393 -0.003309 348495.000000 1 0 0
-6.476363 11.898510 -15.197091 20.358521 -1.072340 2.413542 0.011484 -0.018368 -173576.000000 1 0 0
-14.954863 13.832610 3.349709 20.644844 -0.746434 1.407822 0.035582 -0.017475 23548.500000 1 0 0
-18.418863 8.571610 -5.198091 20.970150 -0.435563 1.821288 0.034182 -0.004742 190288.000000 1 0 0
-4.889663 16.060710 -11.187191 20.174451 -1.275263 2.158586 0.019681 0.002006 118151.000000 1 0 0
-19.450863 -2.360690 -6.531991 20.653713 0.120776 1.892583 0.039038 -0.015752 67200.900000 1 0 0
-10.666363 14.137310 -6.469291 18.854352 -0.924432 1.921032 0.037239 0.002452 104845.000000 1 0 0
-19.222763 3.053310 3.893909 19.849430 -0.157522 1.373343 0.031688 -0.008678 -109925.000000 1 0 0
-15.359763 12.603210 0.745109 19.882616 -0.687137 1.533312 0.033265 0.003350 149010.000000 1 0 0
-16.927963 1.787110 -9.299591 19.396703 -0.105182 2.070815 0.001521 -0.008140 148288.000000 1 0 0
-17.235663 13.326610 -3.271091 22.031039 -0.658184 1.719824 0.069161 0.027637 264568.000000 1 0 0
-10.901463 15.534410 -8.566991 20.821939 -0.958889 1.994830 0.064710 -0.012402 115928.000000 1 0 0
-19.204863 1.860610 -7.049491 20.542248 -0.096581 1.921086 0.052718 -0.018470 324922.000000 1 0 0
-17.248063 10.372510 -0.293391 20.128853 -0.541428 1.585372 0.037741 0.001188 51440.500000 1 0 0
-11.618163 6.335510 -14.362291 19.529358 -0.499236 2.397083 0.026161 -0.026530 372035.000000 1 0 0
-13.644863 12.482210 -4.761991 19.096189 -0.740928 1.822825 0.046202 0.000146 420688.000000 1 0 0
-18.977363 7.359810 -0.318891 20.357034 -0.369963 1.586462 0.041157 -0.003691 90896.800000 1 0 0
-14.663263 8.750310 -10.281091 19.931885 -0.538027 2.112751 0.034033 -0.008013 566208.000000 1 0 0
-18.520763 11.248610 5.407109 22.333534 -0.545807 1.326259 0.057927 -0.021629 116528.000000 1 0 0
-8.129563 11.872510 -13.475291 19.713695 -0.970387 2.323411 -0.003958 -0.012706 415069.000000 1 0 0
-20.979063 -0.021090 -4.859091 21.534445 0.001005 1.798399 0.042235 -0.018529 207365.000000 1 0 0
-10.697063 13.650710 -2.597691 17.536164 -0.906119 1.719477 0.032680 0.008856 503556.000000 1 0 0
-18.846063 -4.680890 3.628909 19.754843 0.243449 1.386050 0.050230 -0.017870 100947.000000 1 0 0
-10.955463 11.449110 -13.305391 20.691489 -0.807428 2.269253 0.022198 -0.009867 304924.000000 1 0 0
-14.795863 11.451810 -10.532091 21.470595 -0.658677 2.083501 0.054702 -0.012005 235073.000000 1 0 0
-12.582863 9.843310 -13.972891 21.224064 -0.663842 2.289423 0.049440 -0.022661 250738.000000 1 0 0
-18.541063 -4.724890 -3.077291 19.379508 0.249523 1.730262 0.031882 -0.013206 -201661.000000 1 0 0
-9.675263 12.855510 -11.434991 19.739146 -0.925623 2.188672 0.035862 -0.010263 121016.000000 1 0 0
-15.744263 7.751710 -8.236991 19.386048 -0.457510 2.009640 0.027819 -0.000733 6083.500000 1 0 0
-14.226063 9.213610 1.911809 17.056568 -0.574726 1.458474 0.020594 -0.005406 -450989.000000 1 0 0
-20.009763 6.141310 7.855809 22.356656 -0.297789 1.211746 0.065105 -0.012618 259324.000000 1 0 0
-18.969063 6.130610 3.568709 20.252048 -0.312594 1.393657 0.036552 -0.006554 229082.000000 1 0 0
-14.656463 12.629910 5.869809 20.218339 -0.711264 1.276234 0.034080 -0.019080 35061.400000 1 0 0
18.116837 6.382210 5.637409 20.018311 0.338705 1.285322 0.042579 -0.012042 190625.000000 1 0 0
18.359237 7.982210 0.573809 20.027644 0.410124 1.542142 0.040226 -0.001349 24993.100000 1 0 0
16.349337 4.697110 8.980609 19.235774 0.279762 1.085048 0.030989 0.000725 -191269.000000 1 0 0
11.916837 13.013610 10.876109 20.728116 0.829363 1.018430 0.037356 -0.022151 135286.000000 1 0 0
15.115537 12.428610 4.284809 20.032708 0.688156 1.355240 0.035560 -0.009737 33538.300000 1 0 0
5.387337 10.590710 14.380009 18.653986 1.100225 0.690573 0.009615 -0.005853 222214.000000 1 0 0
12.397837 14.259510 -5.341891 19.636084 0.855122 1.846313 0.029628 0.018036 212848.000000 1 0 0
17.252737 9.454310 -2.613891 19.846242 0.501298 1.702887 -0.003646 -0.011734 -62166.400000 1 0 0
14.453037 7.525910 9.678709 18.952757 0.480082 1.034826 0.038500 -0.014608 541.207000 1 0 0
4.861737 19.198410 -1.900191 19.895381 1.322774 1.666451 0.029745 -0.013320 611786.000000 1 0 0
-4.753763 19.408710 3.521609 20.290343 -1.330596 1.396352 0.024035 -0.010492 451560.000000 1 0 0
6.451037 12.911010 12.604409 19.161973 1.107426 0.852926 0.010905 -0.001805 -294337.000000 1 0 0
0.477137 16.359410 -10.269491 19.321501 1.541639 2.131174 0.013335 -0.010128 74717.800000 1 0 0
10.506437 9.297710 15.676809 21.037941 0.724440 0.730009 0.039561 -0.018520 164280.000000 1 0 0
-1.427363 12.211110 0.460809 12.302883 -1.454434 1.533332 -0.002703 0.004233 408665.000000 1 0 0
-4.880263 19.099610 -2.173891 19.832748 -1.320633 1.680628 0.020522 0.001461 47206.900000 1 0 0
6.226937 18.248810 6.532109 20.358346 1.241961 1.244163 0.029389 -0.023255 62092.900000 1 0 0
11.204937 17.451010 -1.290991 20.778716 1.000009 1.632967 0.030803 -0.006592 392309.000000 1 0 0
18.201737 10.570810 3.594409 21.353338 0.526151 1.401661 0.035495 -0.013591 208511.000000 1 0 0
11.839437 16.463610 6.813209 21.392582 0.947348 1.246666 0.037549 -0.002342 13376.600000 1 0 0
17.672937 8.372410 -4.927391 20.167031 0.442421 1.817624 0.008352 0.016043 307551.000000 1 0 0
0.432637 15.521710 10.701409 18.858177 1.542931 0.967369 -0.005319 -0.011980 369601.000000 1 0 0
1.415637 20.307510 -1.780791 20.434535 1.501199 1.658053 0.043172 -0.009402 195688.000000 1 0 0
14.204937 9.805010 -1.369091 17.314527 0.604155 1.649951 0.017676 -0.006579 -90418.400000 1 0 0
10.359637 16.676310 2.200509 19.755091 1.014921 1.459175 0.035834 -0.021435 259008.000000 1 0 0
0.918237 18.044010 -0.146291 18.067951 1.519951 1.578893 0.017730 0.006477 -23845.400000 1 0 0
0.169037 21.004510 1.119609 21.035008 1.562749 1.517545 0.038280 -0.011146 245310.000000 1 0 0
6.115137 17.412010 -0.116291 18.454986 1.233051 1.577098 0.006490 -0.019353 -13224.100000 1 0 0
8.055437 18.905410 -2.627991 20.717407 1.168001 1.697988 0.027423 -0.012085 -38589.900000 1 0 0
10.441237 9.714210 12.858509 19.202254 0.749343 0.837079 0.025717 -0.009530 210504.000000 1 0 0
12.115037 14.412010 8.261609 20.560504 0.871773 1.157294 0.021114 -0.021277 182035.000000 1 0 0
0.291237 17.713310 6.855409 18.995863 1.554356 1.201575 0.005892 -0.005231 155783.000000 1 0 0
6.996637 18.087710 -7.802491 20.904474 1.201706 1.953301 0.019678 -0.013431 129693.000000 1 0 0
-1.112463 18.539110 8.955509 20.618859 -1.510862 1.121496 0.030702 -0.024588 48766.200000 1 0 0
15.925237 6.827910 -7.817191 19.008998 0.405041 1.994606 0.030350 -0.004224 -246473.000000 1 0 0
-5.450363 19.469910 -6.611791 21.272039 -1.297845 1.886853 0.016966 -0.007145 254125.000000 1 0 0
3.774337 15.800710 10.029009 19.091597 1.336319 1.017717 0.010051 -0.002372 251661.000000 1 0 0
8.877937 15.026210 7.865209 19.143309 1.037147 1.147400 0.011241 0.003288 72329.000000 1 0 0
-2.703463 18.985010 6.523209 20.255656 -1.429347 1.242909 0.025408 -0.023856 188421.000000 1 0 0
4.986837 18.123110 8.413709 20.593838 1.302277 1.149926 0.026655 -0.010778 -37919.400000 1 0 0
14.282937 12.065710 -6.453491 19.779565 0.701446 1.903152 0.013947 -0.016879 61163.900000 1 0 0
11.900437 6.671010 15.576009 20.705913 0.510921 0.719327 0.055124 -0.015299 205910.000000 1 0 0
16.845137 9.631610 5.025009 20.044382 0.519406 1.317399 0.043590 -0.010410 179144.000000 1 0 0
5.178537 14.620310 11.960209 19.586151 1.230383 0.913920 0.003467 -0.033184 105720.000000 1 0 0
16.371737 11.518710 -4.617391 20.543484 0.613120 1.797495 0.072355 0.014739 45825.200000 1 0 0
15.389937 13.486810 6.907009 21.597476 0.719588 1.245271 0.055759 -0.004540 356642.000000 1 0 0
12.589937 14.338710 -8.023791 20.699911 0.850248 1.968849 0.083054 -0.033244 374209.000000 1 0 0
-8.188763 15.749710 9.369909 20.072479 -1.091331 1.085123 0.024566 -0.014582 -30291.700000 1 0 0
-3.387463 16.927410 -7.620791 18.870309 -1.373288 1.986519 0.001731 0.016810 -253477.000000 1 0 0
2.290037 19.280010 -4.579291 19.948257 1.452572 1.802420 0.033997 -0.026978 131346.000000 1 0 0
6.872137 16.426510 9.341409 20.107671 1.174566 1.087648 0.017801 -0.010358 508932.000000 1 0 0
13.549337 15.181510 -1.775291 20.425828 0.842146 1.657820 0.062843 -0.020578 142098.000000 1 0 0
12.731937 16.625210 4.285809 21.374471 0.917246 1.368917 0.036446 -0.010045 284400.000000 1 0 0
3.536337 18.411510 0.552309 18.756184 1.381035 1.541345 0.051788 -0.016286 31775.600000 1 0 0
-7.017663 17.885010 1.241409 19.252592 -1.196879 1.506271 -0.004198 0.010854 228056.000000 1 0 0
0.237037 20.001510 -5.910491 20.857864 1.558946 1.858103 0.039679 0.004851 247643.000000 1 0 0
-7.188263 17.950710 -6.398491 20.367617 -1.189907 1.890358 0.040336 -0.013879 -27736.100000 1 0 0
-7.624463 18.562510 -1.814391 20.149224 -1.181061 1.660966 0.036542 -0.010838 10683.800000 1 0 0
-14.592163 -9.111290 8.638209 19.250078 0.558165 1.105446 0.047652 -0.013398 410053.000000 1 0 0
-13.163163 -13.557090 7.804909 20.444563 0.800140 1.179097 0.045597 -0.006619 141132.000000 1 0 0
-3.777563 -16.043090 12.448909 20.654928 1.339545 0.923905 0.049411 -0.014122 86209.800000 1 0 0
-2.152863 -15.142690 14.836609 21.308704 1.429571 0.800609 0.035343 -0.019805 432844.000000 1 0 0
-7.429263 -13.504790 13.679909 20.608571 1.067861 0.844912 0.035003 -0.014349 214551.000000 1 0 0
-10.113663 -10.381690 11.855809 18.725007 0.798475 0.885175 0.055795 -0.015654 -15312.400000 1 0 0
-7.465363 -10.512790 13.143109 18.411728 0.953309 0.775824 0.027970 -0.004770 436427.000000 1 0 0
-15.430463 -12.285890 6.608709 20.801859 0.672426 1.247496 0.070065 -0.017221 227739.000000 1 0 0
-4.660063 -12.510290 13.307509 18.849757 1.214221 0.786994 0.034505 -0.016686 497190.000000 1 0 0
3.715837 -12.437990 13.860109 18.989830 -1.280488 0.752664 -0.006170 -0.000963 537279.000000 1 0 0
6.872037 -13.340790 14.844209 21.108105 -1.095130 0.790842 0.024515 0.001913 321761.000000 1 0 0
6.936337 -9.078490 16.667709 20.207530 -0.918369 0.600901 0.023846 -0.008644 429702.000000 1 0 0
-5.045763 13.622010 13.410209 19.769993 -1.216054 0.825334 0.002217 -0.000534 461580.000000 1 0 0
-13.738363 -1.931490 17.334309 22.202512 0.139675 0.674953 0.035203 -0.009234 228250.000000 1 0 0
-10.458263 9.808810 12.713309 19.162888 -0.753364 0.845398 0.019937 -0.001308 442655.000000 1 0 0
-7.227563 -8.162890 17.222709 20.383625 0.846097 0.564364 0.032117 -0.012077 137106.000000 1 0 0
-5.160063 2.184810 18.555909 19.383535 -0.400521 0.293274 0.026389 -0.006991 539966.000000 1 0 0
-15.838963 -3.492090 14.384209 21.678859 0.217003 0.845292 0.039353 -0.011397 151121.000000 1 0 0
-14.620063 3.286410 12.818409 19.719492 -0.221112 0.863163 0.018532 0.017262 246013.000000 1 0 0
-14.157363 10.979410 9.697209 20.371899 -0.659639 1.074685 -0.023540 0.011944 -144763.000000 1 0 0
-4.451063 11.106810 15.820509 19.835869 -1.189643 0.647539 0.015874 -0.009553 280267.000000 1 0 0
-12.556963 13.310910 7.520809 19.784343 -0.814536 1.180849 0.001002 -0.023699 91978.800000 1 0 0
-3.943363 -6.232890 18.438509 19.858944 1.006700 0.380514 0.012836 -0.017514 274634.000000 1 0 0
0.331437 -2.870090 18.357409 18.583373 -1.455826 0.156104 0.012293 -0.013157 -152498.000000 1 0 0
-4.501863 6.415710 21.228909 22.629510 -0.958935 0.353672 0.039120 -0.010454 202078.000000 1 0 0
2.234437 -10.601390 16.310009 19.580566 -1.363068 0.586344 -0.001584 -0.009858 355910.000000 1 0 0
-15.160263 -0.393290 13.712409 20.445499 0.025936 0.835670 0.004994 -0.002421 73225.100000 1 0 0
-14.161063 -6.113790 7.822609 17.294721 0.407559 1.101440 0.032193 -0.006572 -180472.000000 1 0 0
10.116937 0.853310 16.885409 19.702731 0.084146 0.541360 0.034511 0.014618 546765.000000 1 0 0
-7.904963 12.432110 11.980909 18.989155 -1.004432 0.888039 0.023338 -0.005121 183556.000000 1 0 0
-2.023063 7.335110 20.535809 21.900139 -1.301681 0.354840 0.019573 -0.006688 626611.000000 1 0 0
0.858437 -14.225390 15.954609 21.392713 -1.510524 0.729067 -0.022224 0.016548 574865.000000 1 0 0
-3.320363 -11.560490 17.930109 21.590705 1.291108 0.590872 0.039749 -0.011925 384539.000000 1 0 0
-2.193963 8.290710 16.749109 18.817067 -1.312097 0.473227 0.009699 -0.021916 445070.000000 1 0 0
-5.441863 -9.256790 20.322309 22.984740 1.039338 0.486092 0.077089 -0.021993 150200.000000 1 0 0
-6.713363 -3.087990 18.929909 20.321083 0.431119 0.372170 0.012524 -0.022615 119379.000000 1 0 0
-10.757663 -8.060290 16.189409 21.042637 0.643028 0.692954 0.052559 -0.017519 200346.000000 1 0 0
0.003437 6.584410 17.733409 18.916349 1.570274 0.355523 0.010781 -0.014427 174914.000000 1 0 0
-6.347763 -11.051590 18.892109 22.789110 1.049431 0.593484 0.072018 -0.018770 457960.000000 1 0 0
0.457137 3.482810 18.652909 18.980779 1.440287 0.186138 0.020207 -0.016874 82216.000000 1 0 0
-18.486463 -0.465990 7.600609 19.993392 0.025202 1.180831 0.032655 -0.013906 180110.000000 1 0 0
-1.694263 -8.668290 17.377009 19.492825 1.377774 0.470246 -0.000147 -0.013908 353536.000000 1 0 0
5.681537 3.423610 14.940309 16.346676 0.542318 0.417843 0.005926 -0.003164 355055.000000 1 0 0
-14.134863 -7.195090 10.300109 18.911793 0.470847 0.994837 0.041786 0.000207 134928.000000 1 0 0
3.692337 8.176110 16.293309 18.599840 1.146612 0.503308 0.009214 -0.027476 202971.000000 1 0 0
6.038337 4.435310 17.616209 19.143258 0.633523 0.402127 0.018694 -0.022883 159146.000000 1 0 0
3.802537 -9.414490 17.958109 20.629726 -1.186930 0.514586 -0.019858 -0.010734 393100.000000 1 0 0
-4.640263 -0.721590 19.551409 20.107470 0.154271 0.235724 0.020132 -0.021353 758098.000000 1 0 0
-11.073063 1.849210 17.097709 20.453948 -0.165474 0.581003 0.035797 -0.010494 145544.000000 1 0 0
-16.862063 -4.181390 8.984209 19.558354 0.243073 1.093528 0.041204 -0.008361 320663.000000 1 0 0
-13.336363 -9.561190 11.954009 20.302051 0.621996 0.941213 0.059140 -0.021424 57071.400000 1 0 0
-14.888663 6.044810 12.953509 20.639899 -0.385669 0.892335 0.031565 -0.006163 207792.000000 1 0 0
1.251237 8.948910 16.943409 19.202284 1.431877 0.489933 0.002073 -0.028537 -59240.100000 1 0 0
-3.820263 -10.364990 15.038709 18.659855 1.217671 0.633536 0.020196 -0.012752 584831.000000 1 0 0
-18.201663 -4.041790 6.992009 19.912931 0.218511 1.212020 0.074070 -0.008940 -263546.000000 1 0 0
-1.400763 -0.536690 21.175809 21.228874 0.365889 0.070720 0.024066 -0.014909 488375.000000 1 0 0
-1.656263 2.401410 20.156609 20.366612 -0.967014 0.143728 0.022104 -0.023117 -176209.000000 1 0 0
-8.178263 1.865010 16.377209 18.400414 -0.224211 0.473351 0.016221 0.006625 564110.000000 1 0 0
2.681837 -2.118790 18.898609 19.205180 -0.668645 0.178917 0.018651 -0.009985 10697.400000 1 0 0
-12.664763 4.368610 14.168809 19.499645 -0.332162 0.757409 0.007739 0.000437 200931.000000 1 0 0
-13.324563 -5.472690 13.149409 19.503879 0.389715 0.830923 0.022332 -0.007858 41058.900000 1 0 0
-17.183363 -0.898190 10.119609 19.961994 0.052223 1.039161 0.025468 -0.007616 30854.700000 1 0 0
-8.083363 7.199010 14.781909 18.321336 -0.727595 0.632057 0.019323 -0.012053 225660.000000 1 0 0
-9.705563 0.844410 14.012609 17.066464 -0.086784 0.607529 0.015861 -0.002884 217580.000000 1 0 0
7.373437 -0.765890 15.293009 16.995008 -0.103500 0.451364 0.008841 0.001453 235755.000000 1 0 0
4.100037 6.666010 18.248509 19.855833 1.019372 0.405132 0.014304 -0.003732 137903.000000 1 0 0
1.682637 0.656810 19.993609 20.075036 0.372156 0.090099 0.022447 -0.009491 244571.000000 1 0 0
-7.118363 7.094910 17.482909 20.165837 -0.783748 0.521733 0.024975 -0.011175 602574.000000 1 0 0
7.643237 -3.401090 16.807309 18.774241 -0.418672 0.461844 0.015650 0.004020 357557.000000 1 0 0
-16.764063 2.389510 9.052409 19.201294 -0.141584 1.079864 0.035198 -0.005032 309179.000000 1 0 0
4.035737 -5.734890 19.205309 20.445538 -0.957580 0.350096 0.031531 -0.024110 83250.600000 1 0 0
-3.729163 -3.933990 20.816609 21.510792 0.812121 0.254741 0.012781 -0.010171 387363.000000 1 0 0
-10.273163 6.010410 14.301309 18.606192 -0.529361 0.694097 0.025699 -0.005432 -117621.000000 1 0 0
6.789637 2.494210 19.910509 21.183688 0.352052 0.348464 0.038554 -0.007938 103910.000000 1 0 0
-7.480463 11.524810 14.505509 19.979699 -0.995072 0.758291 0.026871 -0.015344 282003.000000 1 0 0
-14.669363 4.886710 9.182409 17.982959 -0.321562 1.034894 0.017748 -0.004920 548812.000000 1 0 0
0.705737 -5.685290 20.500609 21.286042 -1.447294 0.272500 0.026354 -0.020712 200887.000000 1 0 0
-5.716763 -8.284890 13.971209 17.219625 0.966798 0.624332 0.001143 -0.000446 289891.000000 1 0 0
-12.789563 9.938510 6.480009 17.445270 -0.660608 1.190228 -0.005657 -0.018569 83932.100000 1 0 0
-19.877263 2.333010 7.407709 21.340635 -0.116836 1.216301 0.038825 -0.013291 -69509.900000 1 0 0
-15.941563 9.009410 6.236809 19.344268 -0.514402 1.242521 0.028364 -0.014380 23750.300000 1 0 0
-12.749363 7.757310 14.218009 20.612470 -0.546607 0.809615 0.017327 -0.002250 320188.000000 1 0 0
-16.546163 8.934810 10.842909 21.706567 -0.495128 1.047749 0.039652 -0.007950 401493.000000 1 0 0
2.423037 10.324510 14.392509 17.877666 1.340280 0.635028 -0.005371 -0.051021 242526.000000 1 0 0
1.576537 14.610110 13.461009 19.928361 1.463305 0.829194 -0.003692 -0.009089 649189.000000 1 0 0
8.598237 5.165610 16.443109 19.261076 0.540990 0.547754 0.019973 -0.006114 171990.000000 1 0 0
-0.333463 13.336110 13.247809 18.800731 -1.545797 0.788876 -0.008972 0.002887 168252.000000 1 0 0
3.897137 12.520210 14.871809 19.827104 1.269035 0.722621 0.008881 -0.008379 96538.100000 1 0 0
-3.669763 -4.559390 -13.606191 14.811604 0.893087 2.735362 0.008069 -0.007449 88289.300000 1 0 0
5.471437 -11.868290 16.933009 21.389711 -1.138822 0.657303 -0.022631 0.011920 187512.000000 1 0 0
8.725637 -14.031390 7.077609 17.975238 -1.014454 1.166097 0.019558 -0.003305 248329.000000 1 0 0
-0.340063 15.400510 0.445609 15.410708 -1.548719 1.541877 0.005855 -0.004391 -385476.000000 1 0 0
-14.267563 8.113910 8.453109 18.462231 -0.517084 1.095210 0.016278 -0.002023 138941.000000 1 0 0
-16.027663 -10.004690 4.168809 19.348353 0.558034 1.353633 0.046697 -0.010478 143515.000000 1 0 0
8.907837 -10.293990 11.458209 17.793435 -0.857462 0.871137 0.010720 -0.000509 115530.000000 1 0 0
-25.190343 6.129310 30.929811 40.358085 -0.238682 0.697603 0.060930 -0.024854 -571083.000000 0 0 1
-24.203163 5.203510 30.625821 39.380332 -0.211769 0.679808 0.047258 -0.019925 -489721.000000 0 0 1
-23.398663 4.909410 31.717471 39.718984 -0.206816 0.645919 0.033727 -0.004098 -520953.000000 0 0 1
-22.049463 4.276210 31.385811 38.594480 -0.191559 0.621132 0.041768 -0.013410 -576939.000000 0 0 1
-22.243063 2.962710 30.874811 38.167859 -0.132418 0.628481 0.011924 -0.019339 -302276.000000 0 0 1
-21.063163 2.317510 30.527281 37.161036 -0.109586 0.606784 0.019178 -0.020468 -612366.000000 0 0 1
-20.555663 1.286210 31.519361 37.651822 -0.062491 0.578786 0.007645 -0.016776 -150912.000000 0 0 1
-21.545863 0.334010 31.830651 38.438602 -0.015501 0.595103 0.015185 -0.007151 246519.000000 0 0 1
-21.072163 -0.464290 32.874902 39.051387 0.022030 0.570119 0.008449 -0.004234 -18078.900000 0 0 1
-21.703863 -1.879090 32.876119 39.438913 0.086363 0.585210 0.022797 -0.027835 -121575.000000 0 0 1
-21.095063 -2.659290 31.864211 38.306676 0.125401 0.588420 0.033567 -0.026109 115322.000000 0 0 1
-21.315063 -4.062290 32.062821 38.715095 0.188325 0.594955 0.039083 -0.034347 -334313.000000 0 0 1
-22.687263 -4.678790 31.624551 39.200959 0.203379 0.632201 0.035605 -0.031786 447204.000000 0 0 1
-23.810663 -4.400090 32.417906 40.462688 0.182733 0.641531 0.030950 -0.030883 140826.000000 0 0 1
-23.716563 -5.046890 33.678041 41.498878 0.209673 0.624012 0.040442 -0.028866 -807533.000000 0 0 1
-24.915463 -4.608190 -33.584861 42.070876 0.182886 2.495251 0.042007 -0.023233 180599.000000 0 0 1
-24.891963 -5.085990 -32.259021 41.062410 0.201548 2.474477 0.054226 -0.020959 1596950.000000 0 0 1
-26.159143 -4.640190 -31.650271 41.322776 0.175557 2.443280 0.053002 -0.016714 1387200.000000 0 0 1
-26.423453 -5.047790 -30.187101 40.434393 0.188760 2.413688 0.043205 -0.007150 -640126.000000 0 0 1
-26.761413 -6.390090 -30.204711 40.857448 0.234391 2.402783 0.039779 -0.009035 483892.000000 0 0 1
-26.339883 -6.999690 -28.991971 39.790947 0.259742 2.387083 0.025704 0.004230 -200741.000000 0 0 1
-26.823333 -8.486490 -28.842841 40.291701 0.306420 2.368638 0.022520 0.004351 -391274.000000 0 0 1
-28.195323 -8.740590 -28.765361 41.216746 0.300607 2.343264 0.043394 0.006184 -557991.000000 0 0 1
-28.428293 -9.930890 -28.053461 41.155645 0.336079 2.320802 0.041364 -0.001588 554892.000000 0 0 1
-29.888633 -10.300690 -27.606761 41.971036 0.331888 2.288634 0.089670 -0.001204 694391.000000 0 0 1
-29.915443 -11.384490 -26.675521 41.666819 0.363632 2.265568 0.102649 -0.006981 -214884.000000 0 0 1
-31.164423 -11.532090 -26.037151 42.215443 0.354415 2.235427 0.103214 -0.008779 -370431.000000 0 0 1
-31.078833 -12.381290 -24.734691 41.605230 0.379112 2.207451 0.098217 -0.013985 -227500.000000 0 0 1
-30.526963 -11.605290 -23.717391 40.362023 0.363291 2.198906 0.099153 -0.012595 221067.000000 0 0 1
-30.527893 -12.289490 -22.538291 39.886820 0.382716 2.171298 0.098758 -0.018532 -418680.000000 0 0 1
-29.999303 -11.424690 -21.389591 38.574555 0.363874 2.158558 0.111772 -0.021670 1339.950000 0 0 1
-29.767713 -12.223990 -20.194791 37.991739 0.389650 2.131235 0.111487 -0.017574 1097720.000000 0 0 1
-28.474263 -12.870990 -20.126091 37.168610 0.424534 2.142994 0.125191 -0.022848 457810.000000 0 0 1
-28.142213 -13.426690 -18.746791 36.382720 0.445161 2.112115 0.101577 -0.023196 -150986.000000 0 0 1
-27.712443 -12.270490 -18.077491 35.289377 0.416833 2.108616 0.077628 -0.020133 120891.000000 0 0 1
-27.532283 -12.408490 -16.686491 34.502699 0.423427 2.075592 0.083891 -0.022889 -25681.500000 0 0 1
-27.287233 -11.127890 -15.938891 33.503302 0.387217 2.066602 0.068623 -0.019340 -673749.000000 0 0 1
-26.023783 -10.621990 -16.209291 32.446958 0.387525 2.093890 0.060903 -0.020495 -461746.000000 0 0 1
-25.803363 -9.366590 -15.612591 31.580050 0.348208 2.087919 0.061263 -0.029551 -743048.000000 0 0 1
-24.408963 -8.803090 -15.861391 30.411767 0.346131 2.119468 0.070811 -0.028009 -1091890.000000 0 0 1
-23.487863 -9.455990 -15.076591 29.468611 0.382738 2.107860 0.065564 -0.032961 -495218.000000 0 0 1
-22.429063 -8.558890 -14.801891 28.203075 0.364543 2.123315 0.100083 -0.056370 -401532.000000 0 0 1
-21.338463 -8.977290 -13.846591 26.974985 0.398231 2.109836 0.067786 -0.029419 -540396.000000 0 0 1
-20.478363 -10.002590 -14.265391 26.887107 0.454362 2.130065 0.061035 -0.015500 395488.000000 0 0 1
-19.391563 -10.121190 -13.345491 25.623687 0.481043 2.118615 0.087474 -0.023123 198442.000000 0 0 1
-18.348663 -11.173490 -13.801891 25.534536 0.546977 2.141850 0.090776 -0.015700 -38795.800000 0 0 1
-17.588163 -10.719090 -14.898491 25.420610 0.547338 2.197008 0.102874 -0.029172 63234.800000 0 0 1
-18.108363 -11.154190 -16.128891 26.692132 0.552079 2.219629 0.083553 -0.033098 -216837.000000 0 0 1
-17.491863 -10.477790 -17.373491 26.787824 0.539691 2.276486 0.089821 -0.031445 -227725.000000 0 0 1
-18.203063 -10.838990 -18.513491 28.135112 0.537066 2.288984 0.057094 -0.019529 -38188.400000 0 0 1
-17.805463 -10.222490 -19.695291 28.450629 0.521173 2.335415 0.064069 -0.025766 -64476.700000 0 0 1
-18.669063 -10.523990 -20.975391 29.987586 0.513310 2.345451 0.067535 -0.024387 -550518.000000 0 0 1
-19.960863 -10.034590 -20.923391 30.609105 0.465816 2.323436 0.051090 -0.030515 -363973.000000 0 0 1
-20.752363 -10.653290 -21.956891 32.035265 0.474273 2.325946 0.052359 -0.019670 728978.000000 0 0 1
-22.143163 -9.986790 -22.164391 32.883368 0.423694 2.310448 0.042447 -0.017685 48941.800000 0 0 1
-21.916263 -8.678790 -22.705691 32.729075 0.377051 2.337475 0.038477 -0.027273 972906.000000 0 0 1
-22.822163 -8.450690 -23.817991 34.052342 0.354630 2.345427 0.041752 -0.031372 46833.600000 0 0 1
-22.269663 -7.538890 -24.892991 34.240820 0.326418 2.384735 0.031438 -0.035028 -118819.000000 0 0 1
-21.263163 -8.243790 -25.607651 34.290435 0.369861 2.414014 0.047483 -0.038408 285144.000000 0 0 1
-20.725563 -7.490190 -26.644481 34.577164 0.346793 2.450547 0.038274 -0.043350 -20767.400000 0 0 1
-19.545963 -8.121290 -27.460521 34.671029 0.393794 2.484925 0.063628 -0.040866 112864.000000 0 0 1
-19.776063 -9.254190 -28.274231 35.723449 0.437680 2.484015 0.066653 -0.034452 124462.000000 0 0 1
-18.511263 -9.719490 -28.690331 35.500288 0.483493 2.511838 0.049645 -0.024638 -175909.000000 0 0 1
-18.499663 -11.037990 -29.522361 36.546471 0.537959 2.511212 0.050232 -0.025282 -162270.000000 0 0 1
-19.141263 -10.945490 -30.778961 37.862067 0.519446 2.519951 0.053842 -0.020937 243182.000000 0 0 1
-19.101263 -12.184390 -31.516531 38.815066 0.567811 2.518309 0.054909 -0.017149 -295487.000000 0 0 1
-19.841663 -12.150290 -32.843431 40.249374 0.549460 2.525251 0.042588 -0.017727 -163211.000000 0 0 1
-19.212263 -11.307190 -33.788971 40.480343 0.531951 2.558385 0.044297 -0.016626 -150583.000000 0 0 1
-19.667663 -11.474290 33.012046 40.103260 0.528131 0.603814 0.041966 -0.019980 -201061.000000 0 0 1
-19.000663 -12.496790 32.081241 39.324305 0.581771 0.616664 0.052049 -0.017694 -593737.000000 0 0 1
-17.710263 -12.247190 31.591091 38.231454 0.605019 0.598269 0.060108 -0.012768 137314.000000 0 0 1
-17.350463 -13.039690 30.378581 37.335375 0.644490 0.620363 0.063611 -0.014808 132226.000000 0 0 1
-17.188963 -14.540290 30.577601 37.971965 0.702114 0.634669 0.059017 -0.009923 -481771.000000 0 0 1
-18.376063 -15.292490 30.363601 38.645675 0.694067 0.666982 0.049512 -0.012138 85484.000000 0 0 1
-18.355963 -16.631590 30.753481 39.488324 0.736153 0.678047 0.051722 -0.019309 -104014.000000 0 0 1
-18.780563 -16.784290 32.259809 40.928196 0.729326 0.662910 0.039070 -0.015785 -812057.000000 0 0 1
-17.862963 -16.323590 33.183899 41.069650 0.740400 0.630062 0.054416 -0.013543 -233927.000000 0 0 1
-18.497263 -16.021890 -33.724641 41.667746 0.713811 2.513876 0.049796 -0.013553 -32178.800000 0 0 1
-17.436963 -15.510990 -32.756541 40.219764 0.727010 2.522558 0.061053 -0.012442 -126159.000000 0 0 1
-17.044863 -14.156890 -33.011821 39.758335 0.693103 2.550464 0.049047 -0.010880 -149184.000000 0 0 1
-15.717963 -13.872690 -32.626281 38.781182 0.723119 2.570464 0.048120 -0.010161 132546.000000 0 0 1
-15.455063 -13.521990 -31.157481 37.316106 0.718786 2.558858 0.077285 -0.019868 -322263.000000 0 0 1
-15.707163 -14.652290 -30.361741 37.191933 0.750666 2.525864 0.068722 -0.026230 -208369.000000 0 0 1
-15.996963 -14.321890 -29.026951 36.105169 0.730206 2.504713 0.065072 -0.024712 -230883.000000 0 0 1
-16.226163 -15.564490 -28.195281 36.062662 0.764588 2.468410 0.082129 -0.026131 546521.000000 0 0 1
-15.059763 -16.252390 -27.734141 35.498158 0.823468 2.467517 0.076142 -0.033517 64106.600000 0 0 1
-14.284063 -16.899790 -28.696831 36.237349 0.869083 2.484732 0.078129 -0.032079 -762599.000000 0 0 1
-12.892163 -17.266490 -28.154161 35.454144 0.929438 2.488323 0.064677 -0.031780 -318712.000000 0 0 1
-11.997163 -16.195690 -28.335231 34.772368 0.933233 2.523315 0.060133 -0.030888 638842.000000 0 0 1
-10.717863 -16.476890 -27.705461 33.969884 0.994085 2.524543 0.063796 -0.032749 1167640.000000 0 0 1
-9.463863 -15.852490 -28.359311 33.839572 1.032589 2.564499 0.053893 -0.040412 161235.000000 0 0 1
-9.395863 -14.432590 -28.268301 33.101038 0.993706 2.594423 0.059737 -0.037187 103369.000000 0 0 1
-8.760363 -13.949090 -27.061891 31.680704 1.010025 2.594821 0.064963 -0.037401 -52160.800000 0 0 1
-8.516063 -12.428490 -27.209391 31.102116 0.970069 2.635903 0.052232 -0.036043 38636.600000 0 0 1
-7.642563 -12.101490 -28.282661 31.698008 1.007509 2.673108 0.063358 -0.035833 353204.000000 0 0 1
-7.392863 -10.728390 -28.478071 31.316981 0.967428 2.712513 0.062463 -0.022804 -520700.000000 0 0 1
-6.609063 -10.434790 -29.714821 32.179732 1.006202 2.747647 0.067394 -0.018658 -479848.000000 0 0 1
-5.217163 -10.705290 -29.565921 31.874217 1.117324 2.758682 0.073486 -0.024825 699047.000000 0 0 1
-4.478063 -10.512990 -30.796261 32.847917 1.168117 2.786289 0.077036 -0.019460 267304.000000 0 0 1
-4.322463 -9.022690 -31.260011 32.821957 1.124036 2.831848 0.074146 -0.017231 -1003210.000000 0 0 1
-3.262763 -8.778690 -32.137901 33.474702 1.214950 2.858032 0.066697 -0.016541 -109055.000000 0 0 1
-3.241563 -7.422890 -32.488201 33.482685 1.159059 2.897258 0.052069 -0.016289 -64692.800000 0 0 1
-1.837963 -6.940690 -32.915251 33.689242 1.311928 2.926823 0.064742 -0.017661 -75294.900000 0 0 1
-1.456663 -7.442990 33.989190 34.825062 1.377530 0.219539 0.060293 -0.024680 842463.000000 0 0 1
-0.254863 -6.773990 33.484275 34.163556 1.533190 0.199747 0.077207 -0.019500 1047100.000000 0 0 1
0.252637 -7.349190 32.164543 32.994427 -1.536434 0.224759 0.060628 -0.019732 -276771.000000 0 0 1
-0.414363 -6.996990 30.978331 31.761400 1.511645 0.222516 0.060548 -0.016814 -4056.180000 0 0 1
0.077637 -7.693090 29.864401 30.839457 -1.560705 0.252132 0.058659 -0.022452 -123928.000000 0 0 1
-0.365363 -6.890390 28.625411 29.445290 1.517821 0.236535 0.049005 -0.021237 343548.000000 0 0 1
0.390537 -5.667890 28.328501 28.892585 -1.502002 0.197926 0.062783 -0.019182 551349.000000 0 0 1
0.005537 -5.070790 27.089651 27.560154 -1.569704 0.185044 0.063355 -0.015637 -285452.000000 0 0 1
-1.319163 -4.313090 27.085811 27.458770 1.273980 0.165005 0.042234 -0.006420 -59128.300000 0 0 1
-2.500363 -5.077790 27.108081 27.692667 1.113238 0.205837 0.031415 -0.001732 72015.700000 0 0 1
-3.660963 -4.235890 27.064801 27.637816 0.858074 0.203986 0.018719 -0.003342 1427550.000000 0 0 1
-5.006763 -5.008590 27.367341 28.268799 0.785581 0.253218 0.019248 0.001861 698666.000000 0 0 1
-5.551763 -5.836490 26.387341 27.589462 0.810395 0.296283 0.019223 0.003125 -67598.800000 0 0 1
-6.762363 -6.402190 26.864921 28.433107 0.758046 0.333671 0.010443 0.000979 413452.000000 0 0 1
-6.850763 -7.867290 26.792501 28.751788 0.854355 0.371304 0.018041 0.003049 -299462.000000 0 0 1
-5.946063 -8.476290 27.643211 29.518642 0.959069 0.358380 0.017827 -0.002580 -516790.000000 0 0 1
-6.044063 -9.909990 27.764511 30.093299 1.023132 0.395992 0.024599 -0.004754 -21955.300000 0 0 1
-5.117463 -10.500490 28.855301 31.130003 1.117316 0.384652 0.023112 -0.016471 -8809.410000 0 0 1
-5.191063 -11.913890 28.900051 31.687550 1.159885 0.422585 0.037912 -0.022197 -71891.300000 0 0 1
-4.606063 -12.446490 30.041981 32.842831 1.216355 0.415983 0.047450 -0.030011 -393119.000000 0 0 1
-4.546063 -13.991390 30.079291 33.484166 1.256638 0.454880 0.065275 -0.035617 1030580.000000 0 0 1
-5.872363 -14.580190 30.128921 33.982620 1.187910 0.480859 0.090453 -0.039787 1058920.000000 0 0 1
-5.773763 -16.002790 30.228401 34.686911 1.224535 0.512617 0.085577 -0.043654 156765.000000 0 0 1
-6.353163 -16.439190 31.592251 36.175682 1.202013 0.508859 0.104136 -0.045287 573291.000000 0 0 1
-7.770863 -16.447790 31.727771 36.572770 1.129425 0.520593 0.105805 -0.040606 367181.000000 0 0 1
-8.140763 -16.765190 33.084982 37.973144 1.118755 0.513006 0.115652 -0.035473 297583.000000 0 0 1
-9.634763 -16.994890 33.450875 38.737785 1.055055 0.528587 0.129528 -0.031781 698780.000000 0 0 1
-10.207063 -18.286890 33.165415 39.224217 1.061708 0.563232 0.115935 -0.035493 299365.000000 0 0 1
-10.678663 -18.440590 31.825161 38.300523 1.045898 0.590014 0.114200 -0.036259 -410350.000000 0 0 1
-11.248863 -19.874990 31.663221 39.039873 1.055767 0.624854 0.104023 -0.037263 -428115.000000 0 0 1
-12.407663 -20.226590 32.359734 40.127514 1.020558 0.632719 0.101052 -0.027908 -289258.000000 0 0 1
-12.642863 -21.595590 32.405687 40.943131 1.041154 0.657569 0.086100 -0.030054 -218567.000000 0 0 1
-11.863063 -22.413390 33.463241 41.986674 1.083996 0.648490 0.095479 -0.029488 407492.000000 0 0 1
-10.516063 -22.758790 33.128727 41.545910 1.137954 0.647821 0.097993 -0.031213 137908.000000 0 0 1
-9.949663 -23.486390 -33.954151 42.467525 1.170082 2.497312 0.094040 -0.031376 -89047.200000 0 0 1
-10.210863 -25.010790 -33.869881 43.324014 1.183191 2.468313 0.095713 -0.020439 -417683.000000 0 0 1
-9.596963 -25.716210 33.249716 43.115760 1.213616 0.690114 0.091192 -0.015635 -247156.000000 0 0 1
-9.670763 -27.090690 33.536465 44.182843 1.227919 0.708962 0.082277 -0.017258 -669347.000000 0 0 1
-8.968163 -27.918680 32.430408 43.721985 1.259983 0.735133 0.067506 -0.020981 269397.000000 0 0 1
-7.619263 -27.557520 32.244750 43.095173 1.301049 0.725418 0.067023 -0.023835 -67626.000000 0 0 1
-6.684263 -28.150780 33.148557 43.999689 1.337669 0.717607 0.069750 -0.025607 45683.200000 0 0 1
-5.224863 -27.667350 32.973436 43.359300 1.384149 0.706760 0.076845 -0.027120 191649.000000 0 0 1
-4.882463 -26.457940 33.584999 43.032699 1.388312 0.675406 0.072105 -0.026399 -106567.000000 0 0 1
-5.149263 -25.294030 32.841192 41.771362 1.369964 0.666140 0.080026 -0.017926 -35904.900000 0 0 1
-4.752763 -24.007390 33.640626 41.600904 1.375353 0.628940 0.081234 -0.024010 -28623.200000 0 0 1
-3.409063 -24.042190 34.052376 41.823592 1.429940 0.619463 0.066340 -0.023638 -137444.000000 0 0 1
-2.929663 -22.845890 -33.443701 40.607865 1.443256 2.538485 0.065103 -0.026846 92859.600000 0 0 1
34.595721 -15.284790 2.158709 37.883357 -0.416024 1.513782 0.116753 -0.047690 138379.000000 0 0 1
35.604651 -15.839490 2.992809 39.083725 -0.418581 1.494147 0.094152 -0.044830 31894.000000 0 0 1
35.120021 -16.175990 4.271009 38.901415 -0.431627 1.460784 0.095596 -0.045456 24300.900000 0 0 1
36.101331 -16.187190 5.491409 39.943545 -0.421508 1.432880 0.069764 -0.030021 154085.000000 0 0 1
-36.422663 -17.225890 5.472509 40.660669 0.441770 1.435797 0.098901 -0.033359 -104471.000000 0 0 1
-35.676150 -17.213390 6.643609 40.164985 0.449542 1.404625 0.081076 -0.025706 -328378.000000 0 0 1
-34.434890 -18.107190 6.726409 39.482611 0.484104 1.399597 0.064411 -0.034535 -516398.000000 0 0 1
-34.670927 -19.497290 6.787409 40.352031 0.512278 1.401788 0.073804 -0.040738 593246.000000 0 0 1
-33.404373 -20.149390 6.988109 39.631853 0.542766 1.393544 0.057624 -0.030389 711476.000000 0 0 1
-33.391633 -21.681290 7.252009 40.468150 0.575885 1.390620 0.051871 -0.025568 -431023.000000 0 0 1
-33.360733 -22.376990 6.035409 40.621354 0.590830 1.421667 0.081101 -0.028906 358678.000000 0 0 1
-33.894973 -23.685290 6.160009 41.806792 0.609910 1.422913 0.091621 -0.032105 -290705.000000 0 0 1
-33.331723 -24.660290 5.121009 41.777487 0.636970 1.447909 0.098675 -0.024415 -22946.800000 0 0 1
-33.689093 -24.286090 3.778409 41.701865 0.624608 1.480067 0.106139 -0.029901 177298.000000 0 0 1
-33.262823 -25.305450 2.900009 41.895003 0.650360 1.501520 0.098624 -0.019668 81828.500000 0 0 1
-33.633213 -25.019290 1.400109 41.941843 0.639577 1.537408 0.107417 -0.022291 1376390.000000 0 0 1
-35.040521 -25.252520 1.110309 43.206025 0.624462 1.545095 0.101201 -0.013110 1301610.000000 0 0 1
-35.453896 -24.542790 -0.008691 43.119919 0.605502 1.570998 0.098827 -0.011110 -518636.000000 0 0 1
-36.665613 -23.649190 0.230209 43.631461 0.572850 1.565520 0.102659 -0.018927 265026.000000 0 0 1
35.554171 -24.328690 0.298809 43.082172 -0.600091 1.563860 0.081860 -0.006185 558203.000000 0 0 1
34.584841 -23.380790 0.689209 41.752217 -0.594465 1.554288 0.108974 -0.019425 426454.000000 0 0 1
33.082591 -23.670990 0.424509 40.681124 -0.621061 1.560361 0.068512 -0.009225 508904.000000 0 0 1
32.788481 -23.369790 -0.932491 40.275317 -0.619228 1.593951 0.072356 -0.017641 -438045.000000 0 0 1
31.416251 -23.415190 -1.191391 39.200400 -0.640500 1.601193 0.067227 -0.011676 -265864.000000 0 0 1
31.022741 -23.026990 -2.646291 38.725387 -0.638530 1.639184 0.062459 -0.004684 -53118.400000 0 0 1
31.266671 -21.708690 -2.964891 38.179347 -0.606895 1.648532 0.090950 -0.028348 -26148.100000 0 0 1
30.997361 -21.457490 -4.292691 37.943214 -0.605496 1.684174 0.082660 -0.041689 66819.600000 0 0 1
31.036531 -19.984790 -4.666691 37.208011 -0.572083 1.696549 0.089941 -0.043096 223346.000000 0 0 1
29.929711 -19.367390 -4.048891 35.878642 -0.574331 1.683887 0.091350 -0.049989 197367.000000 0 0 1
30.022671 -17.940690 -4.184491 35.224127 -0.538632 1.689874 0.095605 -0.044892 -423641.000000 0 0 1
29.120901 -17.247690 -3.195791 33.995923 -0.534723 1.664940 0.096248 -0.038884 -635618.000000 0 0 1
29.515721 -17.115890 -1.843691 34.169148 -0.525502 1.624780 0.103453 -0.032579 -237461.000000 0 0 1
29.904291 -18.285090 -1.155991 35.070607 -0.548799 1.603764 0.095648 -0.026982 -289136.000000 0 0 1
28.882791 -19.435090 -0.937191 34.825518 -0.592302 1.597711 0.088015 -0.022548 62540.500000 0 0 1
27.894881 -19.113290 0.026109 33.814833 -0.600717 1.570024 0.086200 -0.006126 219018.000000 0 0 1
27.136181 -20.250190 0.435709 33.861960 -0.641092 1.557929 0.063441 -0.002686 862453.000000 0 0 1
25.999781 -19.903090 1.514009 32.778253 -0.653354 1.524590 0.071775 0.006730 -465085.000000 0 0 1
25.492281 -21.108790 2.010009 33.158371 -0.691610 1.510141 0.059146 0.016191 215643.000000 0 0 1
24.401581 -21.008490 2.923309 32.331711 -0.710816 1.480257 0.039047 0.017932 521538.000000 0 0 1
23.065481 -20.464690 2.357709 30.925374 -0.725722 1.494484 0.013128 0.016755 -1079310.000000 0 0 1
23.023981 -19.074990 1.902209 29.959595 -0.691869 1.507261 0.053629 -0.007171 34284.400000 0 0 1
22.976981 -18.186090 3.023209 29.458705 -0.669531 1.467990 0.077860 -0.001547 -473498.000000 0 0 1
22.788681 -16.755090 2.577909 28.402511 -0.633986 1.479908 0.069484 0.003746 540222.000000 0 0 1
21.467981 -16.476090 2.108809 27.143744 -0.654590 1.493028 0.055971 0.000913 386574.000000 0 0 1
21.421881 -15.203890 1.604209 26.317841 -0.617231 1.509803 0.070752 -0.012229 -136990.000000 0 0 1
20.026981 -14.741590 1.169309 24.895014 -0.634537 1.523809 0.046048 -0.007111 -182614.000000 0 1 0
19.099581 -14.519490 2.234809 24.095725 -0.649997 1.477916 0.040877 -0.010661 284319.000000 0 1 0
18.222181 -13.445190 2.005209 22.734157 -0.635678 1.482479 0.052296 -0.019061 -425896.000000 0 1 0
18.776981 -12.012290 2.234409 22.402293 -0.569125 1.470890 0.080645 -0.015381 -197436.000000 0 1 0
19.586581 -11.458390 1.175309 22.722461 -0.529326 1.519049 0.078005 -0.015803 523289.000000 0 1 0
20.216981 -10.275090 1.529209 22.729767 -0.470218 1.503468 0.085493 -0.019727 -742798.000000 0 1 0
21.137381 -9.626190 0.504009 23.231583 -0.427344 1.549100 0.099318 -0.016008 -470643.000000 0 1 0
20.554381 -9.067790 -0.650291 22.475104 -0.415479 1.599734 0.107076 -0.008290 248136.000000 0 1 0
21.515181 -8.551890 -1.557491 23.204819 -0.378333 1.637966 0.109644 -0.010496 -41623.900000 0 1 0
20.861981 -7.927390 -2.856491 22.499451 -0.363140 1.698098 0.128597 -0.008462 -271067.000000 0 1 0
21.772981 -7.505890 -3.818991 23.344931 -0.331976 1.735125 0.124018 -0.010237 482302.000000 0 1 0
22.714681 -8.471990 -4.350791 24.630484 -0.356993 1.748371 0.105574 -0.009130 -281962.000000 0 1 0
22.220881 -9.651090 -5.235291 24.785467 -0.409743 1.783624 0.090823 -0.010165 -757367.000000 0 1 0
21.629181 -9.330390 -6.443691 24.421278 -0.407262 1.837814 0.082626 -0.017364 398884.000000 0 1 0
20.229581 -9.142290 -6.245491 23.061300 -0.424455 1.845042 0.084879 -0.013477 -314696.000000 0 1 0
19.460781 -9.083190 -7.552191 22.765367 -0.436690 1.908944 0.076347 -0.006864 -571860.000000 0 1 0
19.309881 -10.285990 -8.332191 23.411504 -0.489449 1.934675 0.071348 -0.007078 1430350.000000 0 1 0
20.499581 -10.750590 -9.037191 24.849121 -0.483000 1.943014 0.062629 -0.005422 716641.000000 0 1 0
20.363881 -12.186190 -9.541091 25.577789 -0.539258 1.953061 0.045005 -0.010692 -208738.000000 0 0 1
19.269181 -12.364990 -10.408591 25.150210 -0.570517 1.997483 0.062931 -0.008619 164810.000000 0 0 1
19.171381 -13.747390 -10.793191 25.942736 -0.622096 1.999881 0.072319 -0.008723 -330724.000000 0 0 1
17.990981 -14.106590 -11.710391 25.686661 -0.664966 2.044173 0.078828 -0.009783 -59221.900000 0 0 1
18.035781 -15.500690 -11.967391 26.622908 -0.709950 2.037018 0.071354 -0.012471 755608.000000 0 0 1
17.038681 -15.741890 -12.976891 26.580509 -0.745859 2.080835 0.079886 -0.014239 142130.000000 0 0 1
17.083681 -17.149890 -13.655491 27.792864 -0.787332 2.084413 0.064283 -0.008635 -344173.000000 0 0 1
16.526781 -18.122290 -12.785591 27.659053 -0.831413 2.051335 0.056728 -0.002985 371310.000000 0 0 1
16.635181 -19.426590 -13.238891 28.799130 -0.862650 2.048451 0.060348 -0.010669 -34321.900000 0 0 1
15.591381 -20.338390 -12.533591 28.527744 -0.916756 2.025668 0.050304 -0.013524 1212810.000000 0 0 1
14.220481 -20.057290 -12.877091 27.754935 -0.954060 2.053253 0.059751 -0.023072 912781.000000 0 0 1
13.302181 -20.709090 -12.007991 27.386242 -0.999828 2.024690 0.061568 -0.018859 595698.000000 0 0 1
11.815781 -20.519390 -12.392591 26.725163 -1.048335 2.052969 0.059296 -0.017067 689081.000000 0 0 1
10.873281 -21.085990 -11.474891 26.353754 -1.094696 2.021299 0.064488 -0.018983 1186770.000000 0 0 1
9.515781 -20.641390 -11.741891 25.582984 -1.138829 2.047635 0.065011 -0.019201 1084390.000000 0 0 1
8.641881 -21.020090 -10.533791 25.049691 -1.180736 2.004810 0.062200 -0.024522 -294876.000000 0 0 1
8.465281 -22.415990 -10.496991 26.159595 -1.209709 1.983696 0.071222 -0.014629 -128163.000000 0 0 1
7.618081 -22.860790 -9.473991 25.892226 -1.249132 1.945397 0.063037 -0.022907 -169962.000000 0 0 1
7.633481 -24.391990 -9.360891 27.218844 -1.267501 1.921876 0.059144 -0.018670 349731.000000 0 0 1
8.864481 -24.975190 -8.974091 27.979876 -1.229735 1.897300 0.047429 -0.007717 -223685.000000 0 0 1
8.907781 -26.310800 -9.422991 29.332567 -1.244349 1.897842 0.030762 -0.005994 21003.200000 0 0 1
10.249781 -27.062310 -9.336691 30.407243 -1.208744 1.882893 0.034857 -0.006321 -45256.600000 0 0 1
10.669981 -27.191750 -7.982591 30.281372 -1.196861 1.837563 0.038153 -0.009081 -126544.000000 0 0 1
12.022181 -27.615730 -7.995291 31.162254 -1.160202 1.830268 0.039068 -0.003302 -25018.200000 0 0 1
12.506281 -28.091720 -6.573691 31.444637 -1.151946 1.781406 0.032868 -0.011130 -177945.000000 0 0 1
12.082981 -29.284280 -6.024191 32.246835 -1.179467 1.758715 0.031422 -0.015927 -607162.000000 0 0 1
10.745181 -29.222830 -5.633391 31.641236 -1.218443 1.749790 0.038280 -0.009015 -674028.000000 0 0 1
10.442081 -30.341130 -4.581591 32.413148 -1.239337 1.712621 0.051292 -0.010158 -36473.500000 0 0 1
10.629881 -31.728600 -4.908891 33.820048 -1.247524 1.716458 0.052917 -0.014347 200065.000000 0 0 1
9.724281 -32.203520 -5.930691 34.158475 -1.277539 1.745304 0.058625 -0.018559 460297.000000 0 0 1
9.680881 -33.706950 -6.101291 35.596400 -1.291117 1.743049 0.055465 -0.015366 -157648.000000 0 0 1
9.308681 33.816698 -4.963491 35.423959 1.302180 1.711376 0.055137 -0.018280 21220.700000 0 0 1
9.570881 32.396238 -5.179291 34.175182 1.283536 1.722934 0.055810 -0.011793 198834.000000 0 0 1
8.948281 31.461152 -4.082291 32.962720 1.293691 1.694961 0.051560 -0.008794 -439804.000000 0 0 1
7.573081 31.352842 -4.203391 32.527231 1.333792 1.700386 0.042984 -0.007454 -934937.000000 0 0 1
7.004581 30.383412 -3.282791 31.352713 1.344215 1.675694 0.038698 -0.007270 1002710.000000 0 0 1
5.676181 29.713392 -3.784491 30.486506 1.382039 1.695254 0.045604 -0.008712 578520.000000 0 0 1
5.893781 28.950452 -4.943691 29.955057 1.369959 1.736592 0.045843 -0.021554 73503.500000 0 0 1
5.607681 29.680782 -6.111391 30.817917 1.384064 1.770426 0.038142 -0.018548 -274173.000000 0 0 1
5.916381 28.944442 -7.442791 30.466037 1.369169 1.817592 0.060031 -0.026533 -339002.000000 0 0 1
5.200281 27.775812 -7.764291 29.305680 1.385716 1.838940 0.092665 -0.038912 -353776.000000 0 0 1
5.515981 26.660612 -7.031391 28.118584 1.366779 1.823541 0.077924 -0.037146 -458617.000000 0 0 1
4.546881 25.482972 -7.365391 26.912915 1.394226 1.848008 0.092744 -0.047599 1856660.000000 0 0 1
3.123681 25.653102 -7.051091 26.787253 1.449627 1.837161 0.087462 -0.042032 1448230.000000 0 0 1
2.404181 26.488742 -7.934391 27.755866 1.480282 1.860704 0.083782 -0.044230 -84098.400000 0 0 1
1.729981 25.850922 -9.199091 27.493386 1.503975 1.911969 0.096564 -0.042845 199750.000000 0 0 1
2.773681 25.334012 -9.982091 27.370561 1.461746 1.944109 0.097124 -0.045907 242243.000000 0 0 1
2.231581 24.693432 -11.139791 27.181620 1.480670 1.993062 0.107178 -0.040363 -124224.000000 0 0 1
1.848081 23.166702 -10.907391 25.672605 1.491192 2.009609 0.113661 -0.034532 968406.000000 0 0 1
0.601281 22.974002 -10.197391 25.142655 1.544630 1.988411 0.112328 -0.025595 696658.000000 0 0 1
0.505281 21.600802 -9.954691 23.789616 1.547409 2.002531 0.078176 -0.018187 -526264.000000 0 1 0
-0.790119 21.247302 -9.225891 23.177342 -1.533627 1.980194 0.077649 -0.005992 -960417.000000 0 1 0
-1.829019 21.029502 -10.124291 23.411248 -1.484041 2.018009 0.071409 -0.013272 -1056070.000000 0 1 0
-2.825219 20.406202 -9.346491 22.621933 -1.433222 1.996718 0.058014 -0.000416 -633606.000000 0 1 0
-4.104419 20.099802 -10.100091 22.866135 -1.369364 2.028295 0.056414 -0.009116 156000.000000 0 1 0
-5.174919 19.535702 -9.320091 22.255056 -1.311848 2.002904 0.054009 -0.012998 548126.000000 0 1 0
-6.069019 18.802702 -10.118791 22.198300 -1.258579 2.044108 0.063153 -0.025953 -1337670.000000 0 1 0
-6.880919 17.832802 -9.302991 21.257975 -1.202541 2.023750 0.056488 -0.025879 -289530.000000 0 1 0
-7.883419 18.416402 -8.486791 21.756327 -1.166332 1.971519 0.073726 -0.021118 555503.000000 0 1 0
-9.068519 18.628802 -9.272591 22.699146 -1.117764 1.991606 0.081953 -0.025703 -227948.000000 0 1 0
-10.336819 18.992702 -8.470391 23.223266 -1.072377 1.944147 0.102774 -0.028395 183236.000000 0 1 0
-10.777419 17.917502 -7.660791 22.268304 -1.029273 1.921994 0.102399 -0.022335 -917602.000000 0 1 0
-11.717619 18.364902 -6.763791 22.810547 -1.002872 1.871843 0.105706 -0.012181 -725600.000000 0 1 0
-12.026919 17.323102 -5.724591 21.851947 -0.963926 1.835861 0.087460 -0.010502 60343.900000 0 1 0
-12.728119 17.785602 -4.595191 22.348343 -0.949650 1.777890 0.089817 -0.010539 -32083.100000 0 1 0
-13.358419 16.753102 -3.875691 21.774636 -0.897661 1.749741 0.082925 0.000449 266672.000000 0 1 0
-14.603319 17.042702 -2.993691 22.642279 -0.862329 1.703401 0.073319 0.003692 916839.000000 0 1 0
-15.842819 16.916802 -3.720591 23.473728 -0.818170 1.729968 0.107870 -0.017523 202117.000000 0 1 0
-16.887419 17.224502 -2.861891 24.291126 -0.795280 1.688887 0.099183 -0.014646 -763820.000000 0 1 0
-18.294519 17.240402 -3.460291 25.375076 -0.755743 1.707588 0.102619 -0.032982 -346433.000000 0 0 1
-18.305819 18.136402 -4.559891 26.169155 -0.780749 1.745937 0.093589 -0.033696 306817.000000 0 0 1
-19.598119 18.243302 -5.140691 27.264098 -0.749611 1.760483 0.067029 -0.036336 385339.000000 0 0 1
-19.674219 19.185102 -6.386191 28.212168 -0.772812 1.799138 0.055174 -0.019635 144173.000000 0 0 1
-19.212219 20.522802 -6.104191 28.767271 -0.818369 1.784614 0.062165 -0.024814 222204.000000 0 0 1
-19.619619 21.296302 -7.201591 29.838311 -0.826354 1.814557 0.053922 -0.009971 -43870.800000 0 0 1
-19.376019 22.808702 -7.068391 30.751083 -0.866592 1.802728 0.048095 -0.007277 -555726.000000 0 0 1
-18.064419 23.197442 -6.829191 30.184141 -0.909163 1.799023 0.065949 -0.013065 -566039.000000 0 0 1
-17.978319 23.774842 -5.536191 30.316868 -0.923345 1.754438 0.047074 -0.011795 -281347.000000 0 0 1
-16.660819 24.514012 -5.280491 30.106532 -0.973863 1.747102 0.063996 -0.014179 -495208.000000 0 0 1
-16.662619 25.334742 -4.091791 30.597954 -0.989028 1.704926 0.048637 -0.019487 -45947.700000 0 0 1
-15.388319 25.815682 -3.735391 30.285358 -1.033261 1.694451 0.070113 -0.025094 151457.000000 0 0 1
-14.836519 27.004322 -4.601991 31.153395 -1.068404 1.719059 0.070331 -0.019956 171630.000000 0 0 1
-15.563219 28.210032 -4.344891 32.509964 -1.066656 1.704845 0.071396 -0.018739 395927.000000 0 0 1
-14.997119 29.287732 -5.137891 33.302894 -1.097546 1.725693 0.072702 -0.020512 317377.000000 0 0 1
-15.453819 30.699802 -4.630891 34.680593 -1.104444 1.704726 0.073364 -0.018597 882513.000000 0 0 1
-16.866519 30.928892 -4.651591 35.534675 -1.071544 1.702076 0.081738 -0.011163 573069.000000 0 0 1
-17.158219 32.174014 -3.993891 36.681369 -1.080869 1.679893 0.090013 -0.018178 48992.600000 0 0 1
12.780537 -8.557790 18.996991 24.443067 -0.590028 0.680603 0.092808 -0.015428 152029.000000 0 1 0
13.495137 -9.701490 19.430291 25.569001 -0.623290 0.707613 0.089223 -0.014089 27058.200000 0 0 1
13.722937 -10.592290 18.353391 25.246040 -0.657350 0.756881 0.090516 -0.017366 85608.800000 0 0 1
14.162237 -12.015790 18.806491 26.431652 -0.703587 0.779146 0.121951 -0.027958 637745.000000 0 0 1
15.454237 -12.139390 19.454191 27.652554 -0.665840 0.790455 0.104980 -0.025335 1154730.000000 0 0 1
15.613937 -13.285490 20.268691 28.829136 -0.705001 0.791101 0.103666 -0.024516 -363030.000000 0 0 1
16.114237 -14.489090 19.441091 29.112855 -0.732344 0.839569 0.112444 -0.026937 -848068.000000 0 0 1
15.241437 -14.891790 18.447191 28.184493 -0.773795 0.857255 0.122669 -0.035381 -202737.000000 0 0 1
15.637937 -16.107590 17.840491 28.675471 -0.800191 0.899308 0.127473 -0.040364 -406213.000000 0 0 1
15.035537 -16.372090 16.461491 27.660321 -0.827928 0.933369 0.121800 -0.039558 -33136.000000 0 0 1
13.614737 -16.312090 16.494991 26.898514 -0.875287 0.910652 0.123861 -0.034416 225625.000000 0 0 1
13.126937 -16.202690 15.140391 25.769654 -0.889885 0.942796 0.132751 -0.034983 192816.000000 0 0 1
12.391737 -17.443890 14.586091 25.895916 -0.953140 0.972472 0.095249 -0.019536 414157.000000 0 0 1
13.342037 -18.455490 14.203591 26.839468 -0.944846 1.013133 0.097163 -0.024048 788038.000000 0 0 1
12.727237 -19.516090 13.480491 26.918097 -0.992918 1.046278 0.087117 -0.021887 -302038.000000 0 0 1
13.825637 -20.316390 12.776891 27.697524 -0.973267 1.091336 0.088051 -0.022778 -5782.970000 0 0 1
14.745837 -20.846490 13.708991 28.981930 -0.955152 1.078083 0.058233 -0.021173 -169013.000000 0 0 1
15.326637 -22.007490 13.178091 29.881390 -0.962472 1.114069 0.040347 -0.013510 -167509.000000 0 0 1
16.180137 -22.836190 14.122291 31.348484 -0.954368 1.103478 0.032358 -0.014452 848735.000000 0 0 1
17.443337 -22.287690 14.557191 31.826450 -0.906728 1.095735 0.042878 -0.016820 785929.000000 0 0 1
18.059437 -23.039290 15.570391 33.157038 -0.905978 1.081964 0.040309 -0.019194 263078.000000 0 0 1
19.510837 -22.651390 15.972591 33.895160 -0.859748 1.080106 0.039451 -0.016108 21970.100000 0 0 1
20.433137 -23.038790 15.000191 34.253534 -0.845265 1.117516 0.026771 -0.021203 -834033.000000 0 0 1
21.665737 -22.451490 15.388891 34.789244 -0.803207 1.112583 0.034148 -0.016633 -548408.000000 0 0 1
22.810237 -23.174590 14.721791 35.694532 -0.793321 1.145667 0.023456 -0.021562 -743019.000000 0 0 1
23.217137 -24.315090 15.413191 36.984124 -0.808493 1.140928 0.028941 -0.019469 -737910.000000 0 0 1
24.312037 -24.911390 14.848591 37.843534 -0.797574 1.167592 0.035204 -0.023226 -863693.000000 0 0 1
24.768637 -26.261210 15.359591 39.230773 -0.814639 1.168515 0.045339 -0.019561 -82134.700000 0 0 1
25.398537 -26.182480 16.672091 40.106938 -0.800595 1.142094 0.039310 -0.006010 343130.000000 0 0 1
25.897137 -27.452090 17.082391 41.425680 -0.814537 1.145751 0.042150 0.004440 -223543.000000 0 0 1
26.441237 -27.505210 18.534391 42.416968 -0.805118 1.118584 0.029003 0.015535 249391.000000 0 0 1
25.459337 -27.029060 19.439691 41.912402 -0.815295 1.088497 0.032516 0.012747 443883.000000 0 0 1
26.135837 -26.720090 20.657791 42.705848 -0.796451 1.065893 0.033096 0.004191 -676973.000000 0 0 1
25.132237 -26.386580 21.664591 42.393813 -0.809741 1.034411 0.022618 -0.011010 -460473.000000 0 0 1
24.398737 -27.577750 22.064391 42.926308 -0.846485 1.030948 0.035137 -0.001275 -10915.300000 0 0 1
23.293537 -27.218030 22.861491 42.497738 -0.862937 1.002798 0.042578 -0.000399 -467649.000000 0 0 1
22.496437 -28.478470 23.120291 43.030928 -0.902216 1.003570 0.094251 -0.003962 -605497.000000 0 0 1
23.158837 -29.502290 23.893851 44.470585 -0.905279 1.003569 0.063878 -0.006684 407055.000000 0 0 1
22.815437 -30.824020 23.514561 44.984429 -0.933607 1.020750 0.075750 -0.015273 -469528.000000 0 0 1
23.865137 -31.763020 24.097671 46.466460 -0.926432 1.025579 0.053068 -0.009381 -125066.000000 0 0 1
23.835537 -31.805220 25.491391 47.217749 -0.927665 1.000515 0.051907 -0.010718 1201110.000000 0 0 1
25.101737 -32.302450 25.977021 48.459788 -0.910185 1.005042 0.061870 -0.010435 562654.000000 0 0 1
24.900037 -32.739550 27.490381 49.473336 -0.920578 0.981639 0.062896 -0.020502 666071.000000 0 0 1
24.147837 -33.967600 27.724351 50.055524 -0.952787 0.983789 0.040900 -0.009078 783738.000000 0 0 1
22.756237 -33.956600 27.472941 49.250984 -0.980382 0.979045 0.041480 -0.007900 -23974.600000 0 0 1
21.957337 33.052998 27.988481 48.559040 0.984429 0.956504 0.069842 -0.023851 53058.000000 0 0 1
21.613937 33.167757 29.357341 49.286061 0.993259 0.932719 0.064248 -0.030273 96244.900000 0 0 1
20.827037 32.051662 29.726041 48.422226 0.994565 0.909814 0.065472 -0.038748 163748.000000 0 0 1
20.540237 32.204798 31.244301 49.348320 1.003045 0.885196 0.050318 -0.040212 264646.000000 0 0 1
21.753737 32.142062 31.993771 50.298495 0.975811 0.881391 0.039852 -0.023141 501288.000000 0 0 1
21.580737 32.578564 33.343927 51.370307 0.985739 0.864409 0.035896 -0.026371 -73869.000000 0 0 1
22.884037 32.493648 -33.961851 52.277372 0.957216 2.277917 0.009546 -0.007838 90127.900000 0 0 1
23.153537 31.106042 -33.681611 51.362662 0.930926 2.285986 0.022979 -0.010579 724276.000000 0 0 1
24.491637 30.947312 -33.192241 51.568413 0.901323 2.270060 0.011158 0.004402 644121.000000 0 0 1
24.728837 29.422922 -32.974061 50.641015 0.871866 2.279873 0.028953 -0.017292 -280661.000000 0 0 1
24.730837 28.707112 33.937178 50.866930 0.859670 0.840386 0.046963 -0.028964 116662.000000 0 0 1
24.113437 27.460592 34.010770 49.922684 0.850207 0.821302 0.053284 -0.041373 -332077.000000 0 0 1
24.317537 26.539842 32.792137 48.693224 0.829067 0.831939 0.072289 -0.047504 -591586.000000 0 0 1
25.622337 26.064972 32.670355 49.022841 0.793962 0.841384 0.060449 -0.049108 -293804.000000 0 0 1
25.803337 25.434632 31.375811 47.928845 0.778202 0.857099 0.079123 -0.059843 -1300460.000000 0 0 1
27.194337 24.948392 31.118791 48.273526 0.742352 0.870251 0.061530 -0.045095 -1234660.000000 0 0 1
27.454237 23.822552 31.931941 48.382827 0.714691 0.849998 0.088169 -0.050967 66149.000000 0 0 1
28.553737 24.001902 32.787295 49.663003 0.699004 0.849717 0.098221 -0.066220 -1239710.000000 0 0 1
28.477437 23.252632 -33.979671 50.062634 0.684738 2.316846 0.081144 -0.062034 -1002310.000000 0 0 1
27.640537 23.784602 -32.994901 49.176926 0.710557 2.306276 0.082527 -0.052185 2451270.000000 0 0 1
26.178737 23.761522 -33.249901 48.533412 0.737034 2.325528 0.084537 -0.050019 1825500.000000 0 0 1
25.539937 22.378802 -33.324041 47.577209 0.719525 2.346782 0.074132 -0.048046 -1232910.000000 0 0 1
25.518437 21.644402 -32.171291 46.418344 0.703440 2.336539 0.068033 -0.052964 302033.000000 0 0 1
25.173637 20.313002 -32.470101 45.832712 0.678944 2.358093 0.070020 -0.037562 -154230.000000 0 0 1
25.033437 19.325002 -31.250141 44.460094 0.657413 2.350236 0.069981 -0.041302 -517123.000000 0 0 1
23.846737 19.492602 -30.502001 43.347439 0.685268 2.351336 0.063420 -0.029775 178600.000000 0 0 1
23.835037 18.728102 -29.341031 42.187046 0.665984 2.339910 0.069844 -0.029264 -136196.000000 0 0 1
22.491237 18.892102 -28.603781 40.999311 0.698646 2.342929 0.088296 -0.033035 -94062.500000 0 0 1
22.375837 18.165002 -27.447331 39.799514 0.681903 2.331788 0.091979 -0.032595 320747.000000 0 0 1
22.900537 18.934502 -26.294011 39.677764 0.690879 2.295200 0.082182 -0.015860 269942.000000 0 0 1
22.850537 18.208102 -24.951391 38.422050 0.672808 2.277595 0.085619 -0.002591 -9951.010000 0 0 1
23.818137 17.190002 -24.883391 38.496531 0.625154 2.273627 0.099300 -0.027711 129553.000000 0 0 1
23.797737 16.580302 -23.597791 37.391101 0.608520 2.253776 0.113188 -0.022468 163256.000000 0 0 1
24.821137 15.416202 -23.531691 37.516511 0.555784 2.248795 0.126445 -0.025552 2761.390000 0 0 1
26.176237 15.762202 -23.310191 38.431854 0.542004 2.222489 0.141021 -0.032052 205546.000000 0 0 1
27.007837 14.620602 -23.155291 38.462355 0.496175 2.216831 0.142161 -0.039764 -11571.900000 0 0 1
26.809737 13.633202 -21.941791 37.229939 0.470438 2.201061 0.136000 -0.030552 -700565.000000 0 0 1
25.653937 12.830902 -22.014991 36.158212 0.463770 2.225409 0.122638 -0.023278 -115355.000000 0 0 1
25.291237 12.336002 -20.736491 34.954623 0.453806 2.205874 0.103985 -0.026193 -551007.000000 0 0 1
23.815937 11.961002 -20.772391 33.789889 0.465427 2.232867 0.096582 -0.017383 -795479.000000 0 0 1
22.915237 12.981602 -20.505691 33.378337 0.515427 2.232347 0.124269 -0.014075 -1671220.000000 0 0 1
21.668237 12.591002 -20.901291 32.632955 0.526392 2.265941 0.098359 -0.020547 -714818.000000 0 0 1
20.588237 13.742302 -20.893591 32.392414 0.588568 2.271839 0.097477 -0.019199 -202053.000000 0 0 1
20.724037 14.718802 -21.929291 33.571158 0.617558 2.282623 0.084582 -0.008111 179888.000000 0 0 1
19.843837 15.826902 -21.808691 33.464723 0.673259 2.280609 0.072852 -0.010022 45973.900000 0 0 1
18.506737 15.646002 -22.568491 33.115456 0.701830 2.320619 0.057106 -0.001494 -136907.000000 0 0 1
17.786037 14.562202 -21.967891 31.796054 0.686066 2.333529 0.055193 -0.008251 -327029.000000 0 0 1
16.662137 14.351302 -22.787091 31.667620 0.711025 2.373980 0.059163 -0.021932 -221623.000000 0 0 1
15.505837 13.567502 -22.092891 30.209335 0.718826 2.391061 0.029493 -0.021234 326891.000000 0 0 1
14.384737 13.694902 -22.947391 30.348867 0.760836 2.428160 0.030363 -0.018826 178899.000000 0 0 1
13.166737 13.208102 -22.383391 29.134740 0.786967 2.446933 0.044751 -0.021188 769369.000000 0 0 1
11.904337 13.464102 -23.263891 29.397345 0.846805 2.483827 0.054580 -0.024025 191798.000000 0 0 1
11.744637 14.870902 -23.295091 30.029010 0.902323 2.458704 0.035036 -0.014403 -89367.800000 0 0 1
11.112437 15.250702 -24.486591 30.913804 0.941099 2.485026 0.043778 -0.025295 -1160800.000000 0 0 1
10.950437 16.733202 -24.611791 31.712022 0.991325 2.459258 0.042000 -0.024860 107960.000000 0 0 1
12.164137 17.496002 -24.439791 32.424985 0.963264 2.424521 0.049367 -0.022648 403369.000000 0 0 1
13.193937 17.221002 -25.372721 33.382897 0.917037 2.434189 0.046883 -0.033976 -771606.000000 0 0 1
12.967237 17.374102 -26.897871 34.547129 0.929633 2.463204 0.062738 -0.043655 -224430.000000 0 0 1
14.190237 17.270502 -27.625321 35.535776 0.882995 2.461309 0.049784 -0.043877 491988.000000 0 0 1
13.829237 17.204902 -28.981471 36.430510 0.893745 2.490674 0.057644 -0.042775 313226.000000 0 0 1
15.001337 17.553302 -29.964241 37.828749 0.863628 2.485042 0.057141 -0.038638 920669.000000 0 0 1
16.022837 16.554002 -30.108761 37.911789 0.801702 2.488452 0.044164 -0.034526 170168.000000 0 0 1
16.751937 16.794302 -31.293901 39.268106 0.786661 2.492991 0.052722 -0.023273 -361401.000000 0 0 1
17.945337 15.836002 -31.369671 39.457196 0.723038 2.489854 0.055196 -0.023794 -264314.000000 0 0 1
18.997337 16.140802 -30.453311 39.355157 0.704282 2.455626 0.064790 -0.033284 -68183.600000 0 0 1
20.017337 15.182502 -30.558351 39.560270 0.648898 2.453487 0.066793 -0.028896 262853.000000 0 0 1
21.388937 15.843202 -30.902251 40.785325 0.637535 2.430548 0.068298 -0.026203 -60646.900000 0 0 1
21.427637 16.282002 -32.248391 42.002451 0.649782 2.446156 0.071352 -0.021506 384184.000000 0 0 1
22.445337 17.217602 -32.617501 43.175691 0.654350 2.427152 0.077172 -0.011597 84531.400000 0 0 1
22.503537 17.424302 33.961615 44.310346 0.658867 0.697502 0.065840 -0.001309 307564.000000 0 0 1
23.492837 18.347702 33.507032 44.847215 0.663042 0.727052 0.077684 -0.011944 460977.000000 0 0 1
23.275937 18.624402 32.128194 43.827599 0.674837 0.747989 0.095484 -0.016351 -246242.000000 0 0 1
24.118737 19.813302 31.622331 44.432558 0.687708 0.778891 0.098822 -0.021722 1016290.000000 0 0 1
25.541537 19.603602 31.622381 45.129217 0.654619 0.794408 0.074357 -0.024784 1042580.000000 0 0 1
26.315037 20.798202 31.512851 46.022887 0.668832 0.816575 0.062681 -0.036565 448034.000000 0 0 1
27.839537 20.599502 31.354981 46.717385 0.637030 0.835020 0.056495 -0.036053 229475.000000 0 0 1
28.412137 19.775302 32.388502 47.405982 0.608047 0.818639 0.054994 -0.039558 -50274.900000 0 0 1
29.812837 19.720602 32.217651 48.121558 0.584403 0.837253 0.054162 -0.032066 -278044.000000 0 0 1
30.564537 18.977202 33.281979 49.010358 0.555638 0.824287 0.038293 -0.032769 -346507.000000 0 0 1
30.747937 19.728702 -33.633291 49.657381 0.570466 2.314892 0.032699 -0.040645 722932.000000 0 0 1
29.667937 19.492102 -32.703961 48.266733 0.581287 2.315246 0.045165 -0.045263 253734.000000 0 0 1
29.972237 20.081302 -31.336091 47.786444 0.590305 2.285976 0.043630 -0.038914 -278825.000000 0 0 1
30.914337 19.294302 -30.675061 47.633241 0.557967 2.270491 0.034869 -0.034176 -198847.000000 0 0 1
31.299137 19.901302 -29.432411 47.349388 0.566358 2.241581 0.015643 -0.027158 554342.000000 0 0 1
32.605337 19.222902 -28.853951 47.593890 0.532710 2.222137 0.044751 -0.012358 1139040.000000 0 0 1
33.763337 19.602402 -29.579801 48.981442 0.526020 2.219179 0.009593 -0.006310 -1233.560000 0 0 1
35.004337 19.282002 -28.996921 49.375303 0.503493 2.198485 0.013257 -0.000797 793829.000000 0 0 1
36.176737 20.168002 -29.585461 50.899942 0.508572 2.191057 0.005925 0.004110 546466.000000 0 0 1
36.643037 19.747102 -30.887531 51.833384 0.494285 2.209183 0.003557 0.005702 -716233.000000 0 0 1
-35.788008 20.586002 -31.179561 51.737124 -0.522000 2.217618 0.005422 0.000637 -314997.000000 0 0 1
-34.840708 19.981302 -32.265591 51.518887 -0.520710 2.247577 0.000635 -0.003443 -50383.900000 0 0 1
-34.163508 18.812302 -31.909111 50.390866 -0.503346 2.256518 0.036075 0.003515 -90449.000000 0 0 1
-33.189608 18.548802 -32.888961 50.272178 -0.509631 2.283944 0.044545 0.005282 462441.000000 0 0 1
-32.355508 17.212402 -32.569361 49.029674 -0.488901 2.297325 0.033548 0.023211 378260.000000 0 0 1
-33.087708 16.070702 -32.951931 49.385156 -0.452142 2.301298 0.038169 0.019974 -104056.000000 0 0 1
-32.334208 14.895402 -33.091241 48.604570 -0.431692 2.319686 0.036141 0.023513 -608808.000000 0 0 1
-33.202608 13.674202 -33.282051 48.960105 -0.390672 2.318258 0.051642 0.017901 -213890.000000 0 0 1
-32.536208 12.416802 -33.377471 48.237303 -0.364571 2.334973 0.065348 0.000557 495238.000000 0 0 1
-33.538608 11.401502 -33.528031 48.774597 -0.327695 2.328710 0.078494 -0.007591 579023.000000 0 0 1
-32.977708 9.945102 -33.719801 48.202274 -0.292897 2.345561 0.093212 -0.015052 83733.900000 0 0 1
-32.241708 9.799102 33.220568 47.319724 -0.295055 0.792531 0.070224 -0.023054 -127387.000000 0 0 1
-32.332008 8.425802 32.773268 46.802136 -0.254932 0.795047 0.105192 -0.035136 235767.000000 0 0 1
-31.150308 8.025702 31.835921 45.257921 -0.252160 0.790580 0.121744 -0.027926 1249890.000000 0 0 1
-29.939708 7.735302 32.591482 44.926893 -0.252834 0.759132 0.081631 -0.012412 1157510.000000 0 0 1
-29.069308 6.913302 31.744531 43.595110 -0.233484 0.755152 0.086249 -0.020240 369096.000000 0 0 1
21.200937 -4.610990 -30.785701 37.662983 -0.214155 2.527678 0.029447 -0.021600 425081.000000 0 0 1
22.193537 -4.558390 -31.859551 39.094283 -0.202575 2.523424 0.029523 -0.023200 1134340.000000 0 0 1
23.229837 -3.615590 -31.549721 39.345682 -0.154405 2.501198 0.026049 -0.022099 181855.000000 0 0 1
22.966037 -2.182490 -32.065851 39.502163 -0.094747 2.517937 0.022552 -0.023418 -754401.000000 0 0 1
23.813737 -1.238190 -31.507671 39.514054 -0.051948 2.493736 0.020818 -0.022139 -168411.000000 0 0 1
23.630437 0.014210 -32.120121 39.876057 0.000601 2.507313 0.015082 -0.025614 -180106.000000 0 0 1
24.637337 1.088710 -31.672111 40.141079 0.044161 2.480008 0.025108 -0.021112 -259708.000000 0 0 1
25.982937 0.798910 -31.928551 41.172607 0.030738 2.458272 0.031915 -0.020155 -823666.000000 0 0 1
26.793737 1.576210 -31.099541 41.080046 0.058760 2.429578 0.047548 -0.018142 85813.800000 0 0 1
28.324437 1.457410 -31.373571 42.293010 0.051409 2.406569 0.057691 -0.016093 467749.000000 0 0 1
28.760037 2.070910 -32.560691 43.492838 0.071882 2.416812 0.068583 -0.014365 80521.000000 0 0 1
28.646137 1.127310 -33.636931 44.196324 0.039333 2.435773 0.061101 -0.017405 -415120.000000 0 0 1
29.331937 1.789610 33.278440 44.396168 0.060937 0.723370 0.056720 -0.024395 335983.000000 0 0 1
28.483237 2.804010 32.750759 43.494476 0.098128 0.718207 0.043118 -0.020401 -38595.600000 0 0 1
29.215737 3.894410 32.402036 43.802027 0.132517 0.738115 0.054332 -0.014116 -704160.000000 0 0 1
28.527737 4.859010 31.438121 42.729348 0.168707 0.744023 0.059213 -0.012227 -342084.000000 0 0 1
28.570137 6.232410 31.793261 43.196146 0.214780 0.743623 0.053429 -0.014948 33791.200000 0 0 1
27.944737 7.115210 30.905061 42.268869 0.249320 0.750784 0.047577 -0.009377 -316424.000000 0 0 1
28.188437 8.570310 31.200681 42.912943 0.295156 0.756753 0.040450 -0.004209 808692.000000 0 0 1
29.511637 8.948810 30.789481 43.577632 0.294417 0.786195 0.037248 -0.005699 625201.000000 0 0 1
29.683937 10.302610 31.082151 44.197058 0.334068 0.790820 0.037156 -0.002944 135826.000000 0 0 1
31.101637 10.776910 30.666631 44.987730 0.333559 0.820758 0.055168 0.004879 -728771.000000 0 0 1
32.072537 10.400510 31.580451 46.196786 0.313581 0.818103 0.070224 -0.013202 -445235.000000 0 0 1
33.380737 10.544910 31.078651 46.811871 0.305978 0.844767 0.089136 -0.019031 -159279.000000 0 0 1
34.027337 11.916510 31.159901 47.652935 0.336857 0.858078 0.092410 -0.013923 -868456.000000 0 0 1
34.256737 12.309010 32.535964 48.822379 0.344950 0.841406 0.093991 -0.013916 253155.000000 0 0 1
34.784537 13.619010 32.749570 49.678725 0.373179 0.851006 0.086602 -0.004456 331680.000000 0 0 1
33.754437 14.812710 32.633823 49.231542 0.413532 0.846159 0.074571 -0.013442 -873340.000000 0 0 1
33.406437 15.126610 31.286121 48.204001 0.425184 0.864480 0.069814 -0.018309 -15250.700000 0 0 1
32.331137 16.014410 31.177371 47.684297 0.459900 0.858163 0.060772 -0.024314 -530868.000000 0 0 1
30.957937 15.479410 31.569341 46.846870 0.463659 0.831344 0.054619 -0.017694 -1476870.000000 0 0 1
30.280837 14.948210 30.440901 45.464563 0.458557 0.837191 0.061375 -0.006466 455349.000000 0 0 1
29.032437 14.366310 30.832561 44.720466 0.459508 0.810066 0.048740 -0.005890 657695.000000 0 0 1
28.153337 13.861210 29.637751 43.164103 0.457506 0.813953 0.043468 0.001821 200665.000000 0 0 1
28.650937 12.693510 29.017271 42.708352 0.417051 0.823813 0.038744 0.001901 458086.000000 0 0 1
27.713137 12.178210 28.052791 41.270883 0.414036 0.823411 0.043552 -0.009314 460645.000000 0 0 1
27.495037 10.663810 27.972581 40.646761 0.369984 0.811809 0.037524 0.002985 -527164.000000 0 0 1
28.325837 10.010810 27.090341 40.453132 0.339715 0.837029 0.043622 0.003483 -543386.000000 0 0 1
28.003737 8.664910 26.857051 39.756649 0.300076 0.829105 0.043886 0.004281 210696.000000 0 0 1
29.165537 7.761910 26.323971 40.047812 0.260104 0.853548 0.057021 -0.001208 175219.000000 0 0 1
29.575937 7.992510 25.021241 39.556020 0.263933 0.885953 0.058659 -0.000101 1028650.000000 0 0 1
30.844237 7.316810 24.794721 40.245258 0.232913 0.907027 0.067868 0.005331 961925.000000 0 0 1
31.335737 7.638610 23.381221 39.836644 0.239104 0.943538 0.078159 0.001036 -278030.000000 0 0 1
31.924537 8.918910 23.294041 40.513397 0.272429 0.958227 0.095354 -0.002492 84637.200000 0 0 1
31.035037 9.982110 23.002791 39.899178 0.311190 0.956330 0.103161 -0.005340 -290426.000000 0 0 1
30.663037 9.970610 21.519891 38.765198 0.314383 0.982272 0.083196 0.002397 279108.000000 0 0 1
31.753137 10.120110 20.597591 39.178298 0.308534 1.017212 0.105640 -0.013925 587456.000000 0 0 1
31.253337 10.078810 19.265491 38.072465 0.311958 1.040230 0.088307 -0.024800 -523610.000000 0 0 1
32.152737 10.903010 18.288791 38.563635 0.326932 1.076685 0.129621 -0.052190 588031.000000 0 0 1
33.416637 10.382210 17.920191 39.314058 0.301235 1.097501 0.149318 -0.044837 750291.000000 0 0 1
34.380137 10.333210 19.008091 40.621134 0.291968 1.083842 0.172836 -0.040331 -458463.000000 0 0 1
35.692437 9.701610 18.501491 41.356697 0.265399 1.106981 0.187950 -0.045115 -102025.000000 0 0 1
35.485237 8.354610 18.151191 40.724283 0.231228 1.108830 0.164636 -0.029372 527004.000000 0 0 1
36.666737 7.971210 17.465991 41.389015 0.214065 1.135151 0.179333 -0.027268 69645.700000 0 0 1
36.590137 6.481710 17.027791 40.875375 0.175325 1.141118 0.177464 -0.027552 -127164.000000 0 0 1
35.369537 6.108110 16.407991 39.465622 0.171007 1.142025 0.138274 -0.025526 342654.000000 0 0 1
35.380937 4.806710 15.836391 39.060292 0.135029 1.153342 0.138474 -0.033279 -548900.000000 0 0 1
34.048037 4.080010 15.960991 37.824179 0.119262 1.135170 0.092220 -0.023655 -455489.000000 0 0 1
34.032837 3.305210 17.155891 38.255496 0.096815 1.105760 0.097850 -0.010532 886959.000000 0 0 1
32.789237 2.595710 17.357291 37.190688 0.078999 1.085228 0.065325 -0.004228 849881.000000 0 0 1
32.738837 1.687510 18.614691 37.698618 0.051499 1.054369 0.046109 -0.010557 95027.500000 0 0 1
33.455437 0.478010 18.465891 38.216277 0.014287 1.066497 0.060263 -0.014848 -44232.800000 0 0 1
33.308337 -0.348890 19.617391 38.657587 -0.010474 1.038555 0.052058 -0.007958 -157150.000000 0 0 1
33.932437 -1.721090 19.607991 39.228124 -0.050678 1.047376 0.057672 -0.004635 -177414.000000 0 0 1
33.604837 -2.361490 20.805491 39.594572 -0.070157 1.017537 0.059200 -0.001194 -133950.000000 0 0 1
34.206237 -3.611890 20.960191 40.279548 -0.105202 1.023514 0.054638 -0.003133 -699747.000000 0 0 1
33.880937 -4.457490 22.180691 40.740276 -0.130812 0.995073 0.052997 -0.002672 -121326.000000 0 0 1
34.477537 -4.067090 23.430421 41.883486 -0.117421 0.977112 0.068961 -0.015396 59488.300000 0 0 1
33.948437 -4.809190 24.441811 42.107324 -0.140725 0.951497 0.075405 -0.020394 -151681.000000 0 0 1
34.155137 -4.165490 25.831941 43.025734 -0.121359 0.926816 0.070166 -0.027692 37911.300000 0 0 1
33.397537 -4.731690 26.876741 43.129381 -0.140741 0.898013 0.072301 -0.027322 -146081.000000 0 0 1
33.726937 -4.108790 28.088471 44.083450 -0.121228 0.879981 0.078724 -0.025270 -101865.000000 0 0 1
32.823237 -4.514890 29.265571 44.206591 -0.136694 0.847288 0.087106 -0.026770 -208946.000000 0 0 1
32.997937 -5.768890 29.864661 44.878078 -0.173077 0.842684 0.091677 -0.039076 60626.000000 0 0 1
31.944137 -6.106790 30.749451 44.757675 -0.188892 0.813415 0.097456 -0.049852 -653588.000000 0 0 1
31.925137 -7.574590 31.166871 45.254421 -0.232954 0.811097 0.095450 -0.041704 286505.000000 0 0 1
33.021337 -7.947990 31.999021 46.663868 -0.236200 0.815184 0.084987 -0.045941 371468.000000 0 0 1
34.124437 -8.497690 31.289631 47.071529 -0.244057 0.843670 0.091067 -0.039256 -554076.000000 0 0 1
35.367337 -8.578690 32.138590 48.552357 -0.237964 0.847397 0.094950 -0.031874 -751200.000000 0 0 1
35.195137 -9.434490 33.259928 49.334876 -0.261905 0.830961 0.065963 -0.028346 -422351.000000 0 0 1
36.386437 -9.495890 33.991567 50.690939 -0.255280 0.835826 0.043229 -0.019229 -352609.000000 0 0 1
36.329337 -9.973490 -32.687561 49.877528 -0.267929 2.285451 0.049907 -0.023078 -327958.000000 0 0 1
35.778037 -9.069290 -31.704481 48.656901 -0.248258 2.280478 0.047687 -0.023674 321191.000000 0 0 1
36.531037 -7.882390 -31.524421 48.892104 -0.212514 2.271526 0.052829 -0.017201 -164400.000000 0 0 1
35.853937 -6.763790 -30.749521 47.715685 -0.186457 2.271077 0.066810 -0.015746 -337455.000000 0 0 1
36.049437 -6.972590 -29.370661 47.019300 -0.191058 2.245481 0.051973 -0.004578 250509.000000 0 0 1
35.380737 -5.932290 -28.693511 45.938068 -0.166125 2.245432 0.056599 -0.010631 -72973.200000 0 0 1
35.821237 -5.751790 -27.193231 45.340003 -0.159210 2.214001 0.052306 -0.010440 -1390840.000000 0 0 1
-36.399108 -5.273890 -27.147421 45.713143 0.143889 2.206650 0.057484 -0.010166 -1662550.000000 0 0 1
-36.000808 -5.050790 -25.832871 44.597151 0.139387 2.188604 0.058128 -0.011840 -283274.000000 0 0 1
-34.515508 -4.792590 -25.565491 43.219018 0.137971 2.203756 0.082370 -0.011181 -941018.000000 0 0 1
-34.197008 -4.291990 -24.310191 42.176319 0.124855 2.185106 0.092116 -0.014092 471743.000000 0 0 1
-32.821108 -4.218490 -23.957091 40.852944 0.127829 2.197432 0.100264 -0.015403 745307.000000 0 0 1
-31.914308 -3.192790 -24.724691 40.497251 0.099711 2.227523 0.107870 -0.017993 -247902.000000 0 0 1
-31.549808 -3.573990 -26.042601 41.065568 0.112800 2.257732 0.106483 -0.004139 167513.000000 0 0 1
-30.655408 -2.661390 -26.667751 40.718620 0.086599 2.284883 0.112429 -0.009368 172597.000000 0 0 1
-29.978408 -3.153790 -27.936351 41.098553 0.104816 2.318205 0.108605 -0.000329 -464213.000000 0 0 1
-30.890008 -3.413790 -28.970711 42.487041 0.110068 2.321115 0.113509 0.001148 -372905.000000 0 0 1
-30.348308 -4.276690 -29.958611 42.858234 0.139998 2.344818 0.092874 0.003952 -232433.000000 0 0 1
-31.426508 -4.735190 -31.045031 44.427935 0.149550 2.344477 0.073645 -0.003568 1085920.000000 0 0 1
-32.429608 -5.703690 -30.602591 44.952532 0.174098 2.319617 0.068402 -0.001790 1023960.000000 0 0 1
-33.319508 -5.204990 -29.591271 44.865631 0.154962 2.291021 0.079999 -0.003804 -311036.000000 0 0 1
-34.505408 -4.300190 -30.065831 45.968130 0.123984 2.283733 0.107957 -0.003923 -377108.000000 0 0 1
-34.213708 -3.056190 -30.710371 46.076512 0.089090 2.300311 0.123713 -0.008480 -128877.000000 0 0 1
-33.584108 -2.005890 -29.978751 45.062639 0.059656 2.298650 0.131164 -0.005514 -192031.000000 0 0 1
-33.254608 -0.688690 -30.668911 45.242959 0.020707 2.315660 0.127991 -0.009348 -508370.000000 0 0 1
-34.391808 -0.075790 -31.147401 46.400030 0.002204 2.306730 0.149567 -0.014496 -867778.000000 0 0 1
-34.080308 1.224710 -31.659941 46.532990 -0.035921 2.319072 0.150258 -0.010068 201990.000000 0 0 1
-35.235608 2.144910 -32.134341 47.736407 -0.060798 2.309273 0.148958 -0.006812 -110049.000000 0 0 1
-35.879508 1.743110 -33.327721 49.001169 -0.048544 2.318752 0.146230 -0.015848 241542.000000 0 0 1
36.553437 2.674310 -33.574931 49.704946 0.073032 2.312418 0.123042 -0.012242 73772.000000 0 0 1
35.634937 2.329310 33.355674 48.865892 0.065273 0.819487 0.091710 -0.004659 -196104.000000 0 0 1
36.101837 2.488010 32.011751 48.314439 0.068808 0.846550 0.085636 -0.015963 282540.000000 0 0 1
-36.510708 1.444810 31.589001 48.300976 -0.039552 0.857932 0.094359 -0.010962 15769.400000 0 0 1
-36.353008 1.409310 30.047401 47.184464 -0.038748 0.880446 0.091317 -0.014311 -380335.000000 0 0 1
-35.601708 2.448010 29.560131 46.338706 -0.068653 0.879009 0.098422 -0.021272 -123430.000000 0 0 1
-35.409708 2.514410 28.176431 45.321970 -0.070890 0.899892 0.073134 -0.017271 -48016.500000 0 0 1
-34.828408 3.858310 27.742611 44.694038 -0.110331 0.901132 0.067846 -0.020630 -362483.000000 0 0 1
-34.693608 4.150310 26.339621 43.756681 -0.119062 0.924847 0.077422 -0.015328 262526.000000 0 0 1
-34.102608 5.416010 26.095791 43.281767 -0.157500 0.923630 0.081021 -0.017380 37714.000000 0 0 1
-33.124308 5.514310 24.904041 41.807160 -0.164960 0.932674 0.089505 -0.016648 544598.000000 0 0 1
-31.897808 4.769710 24.954301 40.779130 -0.148431 0.912288 0.070215 -0.013990 1148440.000000 0 0 1
-31.007808 4.992010 23.844101 39.432797 -0.159622 0.921436 0.067938 -0.013616 265280.000000 0 0 1
-31.444908 4.553910 22.444891 38.901073 -0.143822 0.955778 0.104075 -0.026131 -345407.000000 0 0 1
-31.671008 3.178310 22.374991 38.907514 -0.100019 0.958093 0.102135 -0.024878 -78594.600000 0 0 1
-32.450708 2.840510 21.252191 38.894377 -0.087311 0.992727 0.134290 -0.027566 -228199.000000 0 0 1
-32.231608 1.382610 20.810991 38.391217 -0.042870 0.997890 0.138154 -0.030425 -164814.000000 0 0 1
-30.990108 0.973810 20.289591 37.054050 -0.031413 0.991342 0.151675 -0.030155 -180046.000000 0 0 1
-30.722908 1.425310 19.013991 36.158823 -0.046359 1.017086 0.163330 -0.029998 -15982.300000 0 0 1
-29.319308 1.031910 18.484491 34.675107 -0.035181 1.008563 0.165855 -0.032833 1566.830000 0 0 1
-29.180308 -0.357790 18.266191 34.427781 0.012261 1.011529 0.187456 -0.032052 345348.000000 0 0 1
-27.930108 -0.771090 17.709791 33.080541 0.027601 1.005870 0.196045 -0.035034 222950.000000 0 0 1
-27.681108 -0.590590 16.201891 32.079492 0.021332 1.041351 0.205589 -0.025509 -282125.000000 0 0 1
-27.533708 0.719710 15.751991 31.729297 -0.026133 1.051293 0.204175 -0.026881 206678.000000 0 0 1
-27.462308 0.585910 14.360991 30.996124 -0.021332 1.089063 0.188944 -0.024620 -154055.000000 0 0 1
-27.088508 1.918810 13.666891 30.401530 -0.070717 1.104539 0.181058 -0.028691 600843.000000 0 0 1
-25.686708 2.182410 13.771591 29.227155 -0.084759 1.080155 0.150575 -0.034747 491343.000000 0 0 1
-25.400008 3.398710 13.168191 28.811680 -0.133017 1.096128 0.133788 -0.030459 -223523.000000 0 0 1
-23.895608 3.567810 12.921991 27.399037 -0.148213 1.079667 0.102647 -0.025571 -398131.000000 0 0 1
-23.144708 3.760710 14.088691 27.355286 -0.161079 1.029758 0.050370 -0.014480 -208483.000000 0 0 1
-21.788508 3.924810 13.726091 26.048969 -0.178221 1.015807 0.045635 -0.012445 1161.460000 0 0 1
-20.979708 4.514710 14.894891 26.122568 -0.211962 0.964056 0.026001 -0.011564 -282484.000000 0 0 1
-21.286308 5.905010 15.047291 26.728207 -0.270604 0.972816 0.026354 -0.006642 502970.000000 0 0 1
-20.643208 6.431410 16.212291 27.024867 -0.302020 0.927417 0.019855 0.004916 -23277.100000 0 0 1
-21.006608 7.913510 16.484891 27.850545 -0.360274 0.937375 0.030330 0.002634 -508640.000000 0 0 1
-20.549808 8.840810 15.524891 27.230071 -0.406278 0.964123 0.047387 -0.010371 516203.000000 0 0 1
-20.780208 10.202310 15.955891 28.115737 -0.456392 0.967321 0.041987 -0.003203 -479492.000000 0 0 1
-19.926308 10.806710 17.076991 28.380739 -0.496938 0.925155 0.051435 -0.005470 -426159.000000 0 0 1
-20.228108 10.281810 18.379591 29.201050 -0.470260 0.889996 0.045750 -0.008278 259587.000000 0 0 1
-19.668908 11.046310 19.373891 29.736082 -0.511715 0.861199 0.058126 -0.004790 -377537.000000 0 0 1
-12.400263 -33.665181 -19.934391 41.042550 1.217877 2.077961 0.082666 -0.042014 446462.000000 0 0 1
-13.588763 34.015110 -19.358291 41.429768 -1.190728 2.056980 0.111695 -0.033727 836530.000000 0 0 1
-14.649163 -33.216381 -19.428291 41.175047 1.155433 2.062180 0.096189 -0.047899 74417.900000 0 0 1
-15.905163 -33.796281 -18.795191 41.814137 1.130929 2.036995 0.089033 -0.035535 -1959820.000000 0 0 1
-16.432163 33.491710 -19.685791 42.181050 -1.114670 2.056349 0.078970 -0.036720 58895.600000 0 0 1
-17.237163 32.461610 -19.081891 41.412492 -1.082656 2.049666 0.072637 -0.024116 621779.000000 0 0 1
-18.585663 32.929210 -18.466291 42.080443 -1.056955 2.025096 0.080691 -0.023707 -729508.000000 0 0 1
-18.446063 33.687510 -17.278391 42.114705 -1.069825 1.993546 0.081447 -0.027257 557799.000000 0 0 1
-19.758563 34.064410 -16.839791 42.829469 -1.045186 1.974886 0.042231 -0.023833 506754.000000 0 0 1
-20.280563 33.297910 -15.709891 42.033948 -1.023739 1.953837 0.045804 -0.020028 -453020.000000 0 0 1
-20.295663 31.876910 -15.832491 40.972175 -1.003836 1.967544 0.053874 -0.022344 -66181.700000 0 0 1
-20.712963 31.331110 -14.594991 40.294901 -0.986658 1.941428 0.047327 -0.019267 -19987.700000 0 0 1
-20.547163 29.829110 -14.489191 39.011516 -0.967607 1.951321 0.052034 -0.026884 653649.000000 0 0 1
-19.253663 29.363410 -14.052791 37.820555 -0.990423 1.951490 0.063379 -0.034827 757555.000000 0 0 1
-19.260463 27.934610 -13.813791 36.635075 -0.967163 1.957421 0.063923 -0.040914 -322795.000000 0 0 1
-17.981663 27.437810 -13.131791 35.335783 -0.990662 1.951559 0.080544 -0.032868 70743.300000 0 0 1
-16.796763 27.631610 -13.859491 35.181282 -1.024601 1.975716 0.086177 -0.043601 -146310.000000 0 0 1
-15.667063 26.871910 -13.463291 33.894198 -1.042950 1.979277 0.101618 -0.051482 789548.000000 0 0 1
-14.364063 27.340910 -14.192291 33.989304 -1.087060 2.001546 0.102028 -0.049569 183495.000000 0 0 1
-14.409863 27.232110 -15.588691 34.528818 -1.084102 2.039207 0.082591 -0.048117 -498449.000000 0 0 1
-13.336063 27.906110 -16.142391 34.888083 -1.124992 2.051824 0.089267 -0.047206 -654422.000000 0 0 1
-13.394463 27.907810 -17.701291 35.659406 -1.123314 2.090242 0.107725 -0.050967 -157370.000000 0 0 1
-12.919663 26.706510 -18.314991 34.865374 -1.120221 2.123871 0.081116 -0.038966 300111.000000 0 0 1
-13.694063 26.444210 -19.478691 35.584309 -1.092973 2.150045 0.063878 -0.041805 96357.000000 0 0 1
-12.984963 25.415410 -20.380491 35.070169 -1.098460 2.190919 0.036787 -0.027358 -595659.000000 0 0 1
-11.878563 25.936710 -21.043391 35.449083 -1.141324 2.206350 0.033619 -0.027822 -830566.000000 0 0 1
-11.001263 24.882210 -21.347991 34.581627 -1.154503 2.236130 0.042509 -0.022052 -85710.300000 0 0 1
-9.799663 25.400510 -22.148191 35.096463 -1.202586 2.253723 0.064221 -0.028017 -183364.000000 0 0 1
-10.190963 25.815410 -23.421891 36.316334 -1.194813 2.271742 0.063819 -0.023768 436641.000000 0 0 1
-9.062963 26.279310 -24.160091 36.830007 -1.238698 2.286289 0.058383 -0.026949 235097.000000 0 0 1
-9.581463 27.174210 -25.240461 38.305652 -1.231812 2.290182 0.069125 -0.024915 222132.000000 0 0 1
-10.233763 26.412110 -26.273481 38.634509 -1.201143 2.318630 0.055773 -0.021498 -74188.000000 0 0 1
-10.695563 27.327310 -27.248201 40.045492 -1.197737 2.319147 0.080562 -0.021807 -489241.000000 0 0 1
-11.784463 26.690610 -28.081631 40.494941 -1.155016 2.337077 0.055455 -0.009865 -507937.000000 0 0 1
-12.230363 27.437010 -29.156571 41.862596 -1.151473 2.341280 0.070408 -0.007850 -1344220.000000 0 0 1
-13.460863 27.012110 -29.575301 42.255738 -1.108488 2.346071 0.053698 0.000908 -1160090.000000 0 0 1
-13.617563 27.134010 -31.094671 43.457693 -1.105659 2.368159 0.043497 -0.008812 68260.900000 0 0 1
-12.765463 26.391310 -31.979221 43.383509 -1.120274 2.399607 0.051468 -0.011612 389729.000000 0 0 1
-13.020163 24.986310 -31.875931 42.543100 -1.090418 2.417743 0.042270 -0.011576 -76978.200000 0 0 1
-12.204563 24.375910 -32.980541 42.788462 -1.106604 2.450863 0.033021 -0.001133 -177188.000000 0 0 1
-12.723963 24.583710 33.860740 43.735658 -1.093186 0.685325 0.030159 0.002670 265173.000000 0 0 1
-11.968663 23.848310 32.878535 42.343699 -1.105657 0.681755 0.028594 -0.001633 -113863.000000 0 0 1
-12.508663 23.983810 31.441501 41.475990 -1.090061 0.710455 0.026341 0.003113 127179.000000 0 0 1
-13.698763 23.210910 31.242561 41.261363 -1.037624 0.711801 0.040861 -0.008634 259779.000000 0 0 1
-13.946163 23.097210 29.874991 40.255331 -1.027585 0.734542 0.040884 -0.004278 -458173.000000 0 0 1
-15.204463 22.281510 29.602241 40.049146 -0.971994 0.738992 0.038082 -0.008751 -353756.000000 0 0 1
-15.247263 20.873410 29.883621 39.512138 -0.939916 0.713135 0.025935 -0.010675 -1026400.000000 0 0 1
-16.535063 20.366210 29.858011 39.745335 -0.888849 0.720868 0.037654 -0.019763 -667844.000000 0 0 1
-16.599563 18.871410 30.243561 39.323639 -0.849359 0.693374 0.042913 -0.030071 199481.000000 0 0 1
-16.103363 18.079610 29.131851 37.879485 -0.843148 0.693417 0.040935 -0.033307 353262.000000 0 0 1
-15.288663 16.980610 29.526751 37.335149 -0.837782 0.658589 0.028945 -0.047314 -38544.300000 0 0 1
-15.062463 16.132710 28.292361 35.883141 -0.819693 0.662498 0.033083 -0.039251 685738.000000 0 0 1
-14.093963 16.712910 27.374211 35.032964 -0.870206 0.673915 0.034866 -0.038010 354696.000000 0 0 1
-13.572363 15.749710 26.456151 33.648036 -0.859518 0.666061 0.031525 -0.030703 320393.000000 0 0 1
-12.401563 16.289710 25.581491 32.765319 -0.920094 0.674933 0.029669 -0.023553 9878.650000 0 0 1
-12.640763 17.217710 24.530071 32.526340 -0.937502 0.716422 0.028458 -0.025202 -344975.000000 0 0 1
-13.159063 18.492210 24.841231 33.648321 -0.952327 0.740308 0.023335 -0.026818 710676.000000 0 0 1
-12.063663 19.509410 25.408021 34.230346 -1.016993 0.734351 0.027516 -0.020560 752257.000000 0 0 1
-11.715963 19.335110 26.752301 35.025646 -1.026019 0.701629 0.033345 -0.027494 -155007.000000 0 0 1
-12.710263 19.692010 27.692361 36.279373 -0.997624 0.702377 0.033135 -0.019789 -67256.900000 0 0 1
-12.316063 19.250710 29.098441 36.999926 -1.001645 0.665763 0.034699 -0.017044 -232322.000000 0 0 1
-11.213663 19.913410 29.655351 37.439685 -1.057935 0.656582 0.031556 -0.017464 -262870.000000 0 0 1
-11.393963 19.978510 31.045151 38.636313 -1.052493 0.637607 0.029909 -0.012337 -811965.000000 0 0 1
-10.288663 20.664310 31.819941 39.311308 -1.108834 0.627607 0.020586 -0.008812 -986752.000000 0 0 1
-9.088263 19.950310 31.736391 38.572139 -1.143341 0.604511 0.028571 -0.012212 -61394.200000 0 0 1
-8.059963 20.820410 32.241909 39.217256 -1.201444 0.605644 0.027980 -0.002150 413898.000000 0 0 1
-6.692963 20.218210 32.609715 38.948238 -1.251114 0.578548 0.031037 -0.005553 -304760.000000 0 0 1
-6.728263 19.394610 33.715984 39.473890 -1.236873 0.546913 0.034919 -0.004076 -1201.830000 0 0 1
-5.438963 19.031710 -33.966941 39.313374 -1.292432 2.613967 0.035225 -0.002573 348671.000000 0 0 1
-4.663563 17.944810 33.370517 38.175338 -1.316537 0.507138 0.031084 -0.012264 28686.200000 0 0 1
-5.136863 16.659010 33.764740 37.999574 -1.271694 0.476609 0.035956 -0.014605 47401.600000 0 0 1
-4.748463 15.706410 32.835306 36.706900 -1.277207 0.463425 0.036807 -0.014822 -303761.000000 0 0 1
-5.613763 14.439210 32.921197 36.384204 -1.199994 0.439837 0.042025 -0.025654 -228296.000000 0 0 1
-5.011463 13.291910 33.581739 36.462622 -1.210246 0.400180 0.043186 -0.023072 -2665.740000 0 0 1
-5.676663 12.066510 33.368311 35.934236 -1.131069 0.380191 0.049675 -0.022580 -14003.900000 0 0 1
-4.779263 10.895210 33.798387 35.831242 -1.157415 0.338464 0.064924 -0.035447 61415.700000 0 0 1
-4.745563 10.643310 -32.975851 34.974379 -1.151380 2.801901 0.074130 -0.035810 -152256.000000 0 0 1
-3.630363 9.878110 -32.554891 34.213704 -1.218603 2.828924 0.086005 -0.038603 146788.000000 0 0 1
-3.597363 9.427510 -31.084041 32.680829 -1.206268 2.827703 0.089494 -0.036804 569970.000000 0 0 1
-4.734563 8.655610 -30.678041 32.225423 -1.070264 2.830444 0.091621 -0.031088 212873.000000 0 0 1
-5.272563 9.014710 -29.463471 31.259575 -1.041565 2.800956 0.101016 -0.034615 137865.000000 0 0 1
-6.344263 8.004310 -28.935071 30.684800 -0.900580 2.802261 0.101810 -0.033912 -131364.000000 0 0 1
-5.842963 6.738810 -28.606831 29.965022 -0.856480 2.839359 0.098499 -0.027053 325152.000000 0 0 1
-6.875263 5.818710 -28.205011 29.608263 -0.702357 2.832487 0.109683 -0.046925 48601.500000 0 0 1
-6.598763 5.195510 -26.821431 28.105625 -0.666977 2.838133 0.099005 -0.047644 -222780.000000 0 0 1
-6.811663 5.975010 -25.663441 27.216019 -0.720060 2.802189 0.072747 -0.030126 35449.100000 0 0 1
-5.819663 6.935810 -25.414031 26.978638 -0.872679 2.799354 0.068566 -0.031594 -443539.000000 0 0 1
-6.042163 7.911810 -24.206191 26.173348 -0.918592 2.751414 0.038675 -0.016877 -130966.000000 0 0 1
-6.362263 7.253110 -22.965591 24.909925 -0.850735 2.743870 0.026438 -0.010832 406963.000000 0 1 0
-7.672163 7.564110 -22.523091 24.967328 -0.778306 2.695414 0.034105 -0.008326 225949.000000 0 1 0
-7.517763 7.784510 -20.986991 23.612902 -0.802828 2.665502 0.021952 -0.006405 256306.000000 0 1 0
-6.698963 8.910010 -20.615491 23.436357 -0.926114 2.645895 0.005239 0.000165 104743.000000 0 1 0
-6.618863 9.027310 -19.172391 22.200952 -0.938131 2.613132 0.011237 -0.001533 -543520.000000 0 1 0
-7.869963 9.353510 -18.333591 22.035086 -0.871321 2.553532 0.004995 0.002145 -466008.000000 0 1 0
-7.614163 9.447910 -16.919991 20.821253 -0.892462 2.519449 -0.005034 0.001061 -126935.000000 0 1 0
-8.783663 9.629410 -16.159091 20.760407 -0.831298 2.462847 0.002913 -0.007672 642992.000000 0 1 0
-9.548863 11.024510 -16.327191 21.892870 -0.857002 2.412496 0.027360 -0.014168 610363.000000 0 1 0
-8.649263 12.048410 -15.851591 21.708221 -0.948174 2.389428 0.013245 -0.017155 479814.000000 0 1 0
-9.114063 13.321410 -16.154291 22.836095 -0.970776 2.356612 0.036862 -0.016646 116926.000000 0 1 0
-7.990663 14.372410 -15.933391 22.897376 -1.063379 2.340414 0.046125 -0.016666 248785.000000 0 1 0
-7.542363 14.569810 -14.558391 21.934296 -1.093112 2.296587 0.043198 -0.012588 681429.000000 0 1 0
-8.464163 15.351710 -13.789091 22.303724 -1.066917 2.237300 0.044432 -0.018354 -295113.000000 0 1 0
-7.767063 16.019110 -12.552291 21.783002 -1.119332 2.184920 0.042885 -0.021264 753531.000000 0 1 0
-6.895963 17.137910 -12.717291 22.427478 -1.188239 2.173705 0.040470 -0.026812 675651.000000 0 1 0
-5.978063 17.203110 -13.815991 22.859699 -1.236351 2.219786 0.051970 -0.022794 -121468.000000 0 1 0
-5.907063 18.605310 -14.425791 24.272503 -1.263369 2.207224 0.078247 -0.013667 135867.000000 0 1 0
-5.447363 19.595610 -13.528891 24.427292 -1.299653 2.157769 0.081308 -0.015199 -75216.900000 0 1 0
-5.571763 20.968210 -13.911391 25.772799 -1.311074 2.140961 0.089689 -0.015242 -139441.000000 0 0 1
-5.141663 21.930710 -12.842591 25.929229 -1.340505 2.088970 0.095911 -0.020812 -458173.000000 0 0 1
-5.355963 23.339610 -13.114291 27.302168 -1.345222 2.071837 0.087023 -0.022023 295222.000000 0 0 1
-6.685863 23.833910 -13.254791 28.079272 -1.297306 2.062410 0.083534 -0.027677 262005.000000 0 0 1
-7.543363 23.902610 -11.965791 27.774399 -1.265101 2.016199 0.052813 -0.025781 -294938.000000 0 0 1
-7.957363 22.564310 -11.577291 26.580094 -1.231760 2.021459 0.062335 -0.023816 -241527.000000 0 0 1
-8.764663 22.494210 -10.434891 26.300110 -1.199252 1.978783 0.071354 -0.023176 -88512.400000 0 0 1
-8.044963 22.807010 -9.113791 25.844580 -1.231682 1.931185 0.064558 -0.020208 -15761.600000 0 0 1
-7.814763 24.225810 -8.972491 26.990109 -1.258755 1.909682 0.048692 -0.019613 -30929.800000 0 0 1
-7.239063 24.593710 -7.722291 26.774772 -1.284535 1.863369 0.048877 -0.020342 148700.000000 0 0 1
-7.042663 26.124810 -7.559391 28.093580 -1.307478 1.843233 0.043739 -0.015529 -12718.000000 0 0 1
-6.087163 26.812210 -8.324491 28.727084 -1.347551 1.864792 0.042299 -0.020554 -502757.000000 0 0 1
-6.492063 27.092310 -9.635091 29.478384 -1.335604 1.903768 0.051991 -0.022819 -37467.200000 0 0 1
-5.690863 28.199710 -10.324391 30.564729 -1.371665 1.915362 0.056141 -0.020253 55023.500000 0 0 1
-6.206163 29.484710 -10.100491 31.778680 -1.363337 1.894245 0.041884 -0.021683 79127.400000 0 0 1
-7.112263 29.905010 -11.136191 32.694169 -1.337306 1.918369 0.045180 -0.025369 422935.000000 0 0 1
-8.132863 30.950510 -10.586091 33.706719 -1.313835 1.890268 0.055748 -0.024498 564596.000000 0 0 1
-9.284363 30.362410 -9.942691 33.270595 -1.274041 1.874277 0.062775 -0.020469 51533.800000 0 0 1
-10.232963 31.379310 -9.828191 34.437886 -1.255565 1.860209 0.066728 -0.019858 -403301.000000 0 0 1
-11.399463 30.950310 -8.896291 34.161579 -1.217899 1.834251 0.084179 -0.022792 387556.000000 0 0 1
-12.234163 30.091010 -9.696191 33.899259 -1.184637 1.860877 0.086628 -0.032347 459886.000000 0 0 1
-13.459063 29.769610 -9.024091 33.894104 -1.146191 1.840290 0.102764 -0.023959 625504.000000 0 0 1
-14.377763 28.739210 -9.640791 33.550069 -1.106922 1.862261 0.099152 -0.029545 -227156.000000 0 0 1
-14.226463 27.407910 -9.213991 32.225509 -1.092014 1.860765 0.082983 -0.025625 375946.000000 0 0 1
-15.246463 26.566710 -9.795791 32.159015 -1.049794 1.880320 0.099856 -0.030312 482054.000000 0 0 1
-15.570163 25.220810 -9.113691 31.009331 -1.017714 1.869102 0.088196 -0.028805 114813.000000 0 0 1
-14.579963 24.244910 -9.350191 29.796259 -1.029376 1.889993 0.094753 -0.029211 132168.000000 0 0 1
-15.008463 23.061310 -8.708391 28.860251 -0.993854 1.877317 0.105474 -0.029651 727467.000000 0 0 1
-14.014263 21.874410 -9.025891 27.501929 -1.001008 1.905184 0.107388 -0.027707 429409.000000 0 0 1
-14.008063 21.562310 -10.398291 27.735961 -0.994664 1.955088 0.106725 -0.026902 239789.000000 0 0 1
-13.238063 20.385410 -10.654591 26.539246 -0.994851 1.983913 0.104521 -0.028617 29415.700000 0 0 1
-13.167363 19.975610 -12.150391 26.833495 -0.988000 2.040707 0.100379 -0.023194 -87312.900000 0 0 1
-14.451363 19.660510 -12.627491 27.474190 -0.936935 2.048356 0.107788 -0.013409 -428157.000000 0 0 1
-14.488463 19.374910 -14.012191 27.957901 -0.928708 2.095769 0.105415 -0.002236 366830.000000 0 0 1
-15.912063 18.984510 -14.474791 28.690154 -0.873216 2.099624 0.088960 -0.005875 559484.000000 0 0 1
-16.861063 20.030810 -14.555991 29.956730 -0.871108 2.078190 0.069764 -0.009556 -530205.000000 0 0 1
-18.143363 19.553610 -14.802491 30.506377 -0.822791 2.077418 0.062426 -0.006016 -234351.000000 0 0 1
-19.117163 20.509710 -15.547891 32.060116 -0.820525 2.077114 0.055695 -0.010142 60213.000000 0 0 1
-19.598363 21.579810 -14.789591 32.688164 -0.833480 2.040301 0.064056 -0.026984 215635.000000 0 0 1
-19.988563 22.616210 -15.669291 34.008268 -0.846995 2.049636 0.076901 -0.031302 -187336.000000 0 0 1
-20.437163 23.888810 -14.950791 34.812053 -0.863111 2.014704 0.068989 -0.025107 -28791.700000 0 0 1
-21.630663 23.666010 -14.209091 35.069416 -0.830302 1.987962 0.081711 -0.021660 303090.000000 0 0 1
-21.937963 24.844110 -13.458691 35.772062 -0.847439 1.956525 0.073364 -0.028701 -13953.100000 0 0 1
-25.516183 -0.386290 4.032309 25.835719 0.015138 1.414081 0.120511 -0.041064 -237167.000000 0 0 1
-26.282223 0.208710 5.041509 26.762206 -0.007941 1.381282 0.149983 -0.034820 440633.000000 0 0 1
-27.689073 0.016510 5.007609 28.138252 -0.000596 1.391879 0.150149 -0.026007 106685.000000 0 0 1
-28.278733 0.808010 6.170809 28.955458 -0.028565 1.356035 0.145756 -0.015015 -561926.000000 0 0 1
-28.296113 2.247110 6.101309 29.033524 -0.079248 1.359071 0.161496 -0.024658 123648.000000 0 0 1
-28.632213 2.972510 7.282409 29.692978 -0.103446 1.323012 0.177351 -0.027305 -180968.000000 0 0 1
-27.579353 3.100810 8.411009 28.999670 -0.111962 1.276530 0.182387 -0.026248 -74691.400000 0 0 1
-27.170973 1.799710 8.877009 28.640916 -0.066140 1.255665 0.184242 -0.032692 1424420.000000 0 0 1
-25.970323 1.849710 9.698209 27.783707 -0.071104 1.214227 0.171717 -0.044240 826074.000000 0 0 1
-25.538763 0.469910 10.342409 27.557480 -0.018398 1.186073 0.158892 -0.037366 -57126.900000 0 0 1
-24.393563 -0.074890 9.719609 26.258758 0.003070 1.191629 0.136247 -0.037642 256028.000000 0 0 1
-24.705763 -0.980790 8.696809 26.210135 0.039678 1.232574 0.118493 -0.034654 63454.300000 0 0 1
-23.411563 -1.500590 8.007109 24.788442 0.064009 1.241880 0.093376 -0.039482 274546.000000 0 1 0
-22.420663 -1.896890 8.916009 24.202883 0.084404 1.193524 0.100046 -0.053101 -732836.000000 0 1 0
-21.341463 -2.536590 8.328609 23.049036 0.118302 1.201088 0.110850 -0.039963 -270090.000000 0 1 0
-20.082063 -2.452190 9.224809 22.235099 0.121507 1.142990 0.067655 -0.031923 193322.000000 0 1 0
-19.484863 -1.209290 9.560709 21.737742 0.061984 1.115397 0.054442 -0.028532 538129.000000 0 1 0
-20.199863 -0.649490 10.649709 22.844532 0.032142 1.085826 0.079635 -0.029867 -632289.000000 0 1 0
-20.010663 0.885810 10.920609 22.813834 -0.044238 1.071642 0.053742 -0.016170 -368806.000000 0 1 0
-20.339463 1.909310 9.985809 22.738857 -0.093598 1.116142 0.055792 -0.010962 242762.000000 0 1 0
-21.725963 1.879210 9.708509 23.870569 -0.086281 1.151941 0.081202 -0.012855 -489624.000000 0 1 0
-22.205363 3.182510 9.041109 24.185702 -0.142352 1.187672 0.075143 -0.028121 -371837.000000 0 1 0
-22.300063 4.258310 9.936709 24.782337 -0.188684 1.158233 0.072169 -0.026771 497143.000000 0 1 0
-22.695863 5.482110 9.335409 25.145688 -0.237007 1.190438 0.066236 -0.020970 -365509.000000 0 0 1
-22.597763 6.606610 10.324709 25.708089 -0.284430 1.157519 0.057596 -0.022638 -207840.000000 0 0 1
-23.525063 6.551510 11.368709 26.936935 -0.271609 1.135092 0.071165 -0.019751 46989.800000 0 0 1
-23.494263 7.795710 12.072009 27.540641 -0.320382 1.117052 0.073497 -0.022541 -196237.000000 0 0 1
-24.062363 7.637110 13.539409 28.646787 -0.307332 1.078520 0.087778 -0.022885 -797794.000000 0 0 1
-25.416923 7.403610 13.457509 29.697441 -0.283444 1.100496 0.105794 -0.024450 -950389.000000 0 0 1
-26.005603 6.944910 14.690909 30.665062 -0.260964 1.071194 0.103476 -0.026726 497002.000000 0 0 1
-27.544873 6.778810 14.673309 31.937100 -0.241305 1.093427 0.139195 -0.031099 370675.000000 0 0 1
-28.064313 5.760610 13.767709 31.785848 -0.202453 1.122823 0.169764 -0.027454 711918.000000 0 0 1
-29.484823 5.722010 13.677209 33.002459 -0.191684 1.143480 0.186532 -0.038291 519299.000000 0 0 1
-30.045283 4.847710 12.529909 32.912277 -0.159968 1.180236 0.204883 -0.026734 -101120.000000 0 0 1
-31.028233 3.920510 12.910409 33.834898 -0.125687 1.179301 0.193350 -0.032646 197150.000000 0 0 1
-31.559023 3.180410 11.812009 33.846869 -0.100437 1.214310 0.203218 -0.007679 139867.000000 0 0 1
-32.671273 2.175510 12.252109 34.960823 -0.066490 1.212742 0.164581 0.000387 25427.900000 0 0 1
-32.324023 0.998410 12.953509 34.837232 -0.030878 1.189817 0.187800 -0.003900 -652543.000000 0 0 1
-33.467653 0.332310 13.400609 36.052331 -0.009929 1.189958 0.150450 0.002029 -305605.000000 0 0 1
-33.400743 -0.801790 14.510509 36.425368 0.024001 1.161065 0.138197 -0.013817 -158891.000000 0 0 1
-32.933873 -2.035490 14.047609 35.862495 0.061727 1.168310 0.143094 -0.012165 101551.000000 0 0 1
-33.148103 -2.962990 15.080309 36.537540 0.089149 1.145342 0.156225 -0.013471 43359.300000 0 0 1
-32.934883 -4.417990 14.658509 36.319376 0.133347 1.155348 0.140785 -0.015785 -464619.000000 0 0 1
-33.921503 -4.823090 13.779209 36.929625 0.141237 1.188426 0.101501 -0.009997 -602890.000000 0 0 1
-33.824523 -6.201690 13.374709 36.897726 0.181335 1.199868 0.101327 -0.017972 -1397100.000000 0 0 1
-34.879110 -6.634990 12.334909 37.586240 0.187982 1.236424 0.094615 -0.011030 820126.000000 0 0 1
-36.225103 -6.788290 12.818709 39.021255 0.185243 1.236075 0.074489 -0.008207 817031.000000 0 0 1
36.677391 -5.556690 13.170809 39.364680 -0.150358 1.229632 0.074027 -0.009394 -1414360.000000 0 0 1
35.155481 -5.522490 12.898809 37.852147 -0.155814 1.223062 0.080721 -0.008079 -36664.200000 0 0 1
34.373551 -6.337590 13.734709 37.554605 -0.182326 1.196383 0.069540 -0.002258 -113480.000000 0 0 1
33.040251 -6.210090 13.281409 36.147189 -0.185788 1.194557 0.087788 0.000316 -336443.000000 0 0 1
32.028161 -7.207990 13.776009 35.602481 -0.221364 1.173486 0.076625 0.002126 -430817.000000 0 0 1
31.699161 -7.155990 15.150209 35.854900 -0.222025 1.134548 0.076582 0.008055 -320362.000000 0 0 1
30.699561 -8.055890 15.487609 35.316094 -0.256625 1.116820 0.061408 0.010503 -408628.000000 0 0 1
30.161211 -7.936490 16.917109 35.480630 -0.257303 1.073787 0.053754 0.001377 351672.000000 0 0 1
31.191301 -8.233490 17.865109 36.876141 -0.258081 1.065048 0.033527 0.003315 333359.000000 0 0 1
30.686071 -8.486690 19.170809 37.164214 -0.269820 1.028808 0.039601 -0.010326 -249914.000000 0 0 1
31.762101 -8.961890 20.188609 38.687550 -0.275007 1.021793 0.048738 -0.009530 518321.000000 0 0 1
32.750321 -7.995290 20.537909 39.475485 -0.239445 1.023629 0.056558 -0.000362 -42624.800000 0 0 1
33.908751 -8.140590 19.741209 40.072284 -0.235614 1.055676 0.027234 0.012261 596867.000000 0 0 1
35.210681 -7.692690 20.546509 41.486487 -0.215096 1.052665 0.019686 0.000115 939556.000000 0 0 1
35.344891 -8.483690 21.725609 42.346623 -0.235569 1.032071 0.032990 -0.004753 -533345.000000 0 0 1
36.627391 -8.378990 22.263409 43.674165 -0.224893 1.035889 0.040147 -0.004420 -428648.000000 0 0 1
-36.655743 -8.995190 23.684409 44.559042 0.240641 1.010392 0.043968 -0.007397 -322787.000000 0 0 1
36.492701 -8.264090 24.824909 44.903102 -0.222702 0.985010 0.053651 -0.006102 86864.000000 0 0 1
36.498201 -9.070190 26.036209 45.741352 -0.243576 0.965258 0.050149 -0.014207 -306730.000000 0 0 1
36.183291 -8.175590 27.293809 46.054564 -0.222218 0.936463 0.071319 -0.015444 -305268.000000 0 0 1
-36.317293 -7.419990 27.937109 46.416421 0.201536 0.924943 0.041335 -0.032890 -244786.000000 0 0 1
36.583151 -6.681690 29.022409 47.172791 -0.180653 0.908111 0.057983 -0.045556 27408.700000 0 0 1
-35.791567 -6.183890 29.930109 47.064724 0.171086 0.881577 0.080846 -0.041523 20564.000000 0 0 1
-35.399052 -7.067890 30.955009 47.552714 0.197072 0.861945 0.071970 -0.035303 1253.950000 0 0 1
-33.990003 -7.044390 31.079209 46.592500 0.204356 0.840563 0.080907 -0.048282 74621.600000 0 0 1
-33.363153 -7.971690 32.167109 47.025214 0.234540 0.817510 0.066278 -0.030968 -154172.000000 0 0 1
-33.531823 -9.350590 31.934109 47.239857 0.271949 0.828476 0.059095 -0.025248 92373.900000 0 0 1
-33.149883 -10.076890 33.049409 47.882376 0.295104 0.809002 0.044425 -0.015223 -190815.000000 0 0 1
-33.509033 -11.581290 32.948309 48.400131 0.332765 0.822013 0.055765 -0.015634 -168343.000000 0 0 1
-34.878122 -11.877290 33.066509 49.507045 0.328220 0.839392 0.036168 -0.015124 -272428.000000 0 0 1
-35.102069 -13.270690 33.222909 50.120138 0.361451 0.846157 0.036928 -0.012370 863256.000000 0 0 1
-36.639453 -13.575290 33.331909 51.359071 0.354829 0.864530 0.042022 -0.007024 867633.000000 0 0 1
36.558931 -14.944190 33.629509 51.873193 -0.388044 0.865444 0.036328 -0.013869 -75566.500000 0 0 1
35.212921 -15.176690 33.963409 51.222992 -0.406940 0.845910 0.023793 -0.013556 -254086.000000 0 0 1
34.881851 -16.616090 -33.796872 51.332899 -0.444552 2.289469 0.014228 -0.004293 -405647.000000 0 0 1
35.505731 -17.091690 -32.644672 51.170865 -0.448640 2.262635 0.024820 -0.017438 86723.300000 0 0 1
35.550031 -18.517890 -32.736472 51.753199 -0.480225 2.255637 0.023492 -0.026346 -209077.000000 0 0 1
36.046981 -19.188990 -31.445372 51.540408 -0.489178 2.226997 0.027910 -0.031073 -823168.000000 0 0 1
35.123281 -19.154490 -30.458772 50.281967 -0.499266 2.221516 0.025483 -0.024297 -683968.000000 0 0 1
35.585611 -19.840990 -29.298972 50.183965 -0.508626 2.194236 0.024005 -0.018387 -141066.000000 0 0 1
34.486821 -19.812990 -28.185172 48.747301 -0.521465 2.187304 0.023270 -0.019437 151989.000000 0 0 1
33.347131 -20.574290 -28.452072 48.423682 -0.552806 2.198843 0.031035 -0.020919 -130537.000000 0 0 1
32.339471 -19.851790 -29.139172 47.843770 -0.550546 2.225657 0.027712 -0.018891 -660820.000000 0 0 1
31.092771 -20.671890 -29.529372 47.603270 -0.586741 2.239950 0.034598 -0.013517 29270.600000 0 0 1
30.134551 -19.852590 -30.144972 47.020590 -0.582535 2.266729 0.025408 -0.007921 -367010.000000 0 0 1
28.897411 -20.426890 -30.378272 46.638585 -0.615326 2.280165 0.032691 -0.005441 -279609.000000 0 0 1
27.924981 -19.809290 -31.399472 46.455779 -0.616990 2.312982 0.033755 -0.000122 274979.000000 0 0 1
28.333381 -20.021890 -32.748872 47.708963 -0.615178 2.327365 0.020895 -0.000667 355052.000000 0 0 1
27.240181 -19.689090 -33.591472 47.519204 -0.625862 2.355906 0.058212 -0.001400 340924.000000 0 0 1
27.569881 -19.753690 33.018809 47.334431 -0.621711 0.798804 0.056543 0.000738 -99445.300000 0 0 1
28.595521 -18.906190 32.548309 47.270924 -0.584180 0.811311 0.033068 -0.003216 -2432.770000 0 0 1
28.752351 -18.899790 31.152009 46.414949 -0.581511 0.835019 0.039354 -0.003317 -475809.000000 0 0 1
27.704581 -18.262890 30.248909 44.900707 -0.582816 0.831613 0.042916 -0.003422 -494023.000000 0 0 1
27.705181 -16.856690 30.485909 44.509726 -0.546596 0.816293 0.051045 -0.011463 1053440.000000 0 0 1
26.602581 -16.180790 29.834509 43.123233 -0.546457 0.806758 0.059427 -0.013886 652896.000000 0 0 1
26.342081 -14.794390 30.339509 42.816644 -0.511725 0.783296 0.066747 -0.014555 357293.000000 0 0 1
27.495281 -13.960290 30.207909 43.167094 -0.469816 0.795693 0.074050 -0.008390 623304.000000 0 0 1
27.195681 -12.647290 30.710309 42.926473 -0.435297 0.773576 0.086512 -0.013085 272235.000000 0 0 1
28.461261 -11.760390 30.841409 43.583743 -0.391840 0.784650 0.084315 -0.016605 246033.000000 0 0 1
29.090861 -11.440790 29.617609 43.062428 -0.374698 0.812366 0.090965 -0.020069 -571356.000000 0 0 1
30.329131 -10.837690 29.761609 43.852766 -0.343195 0.824844 0.094883 -0.021904 -693336.000000 0 0 1
30.841551 -10.277790 28.482409 43.221313 -0.321671 0.851321 0.100341 -0.027842 -375401.000000 0 0 1
30.464581 -8.905290 28.324709 42.540382 -0.284393 0.842189 0.107135 -0.034204 130944.000000 0 0 1
31.088481 -8.248790 27.226909 42.140726 -0.259357 0.868339 0.120357 -0.034037 120473.000000 0 0 1
30.916211 -6.700790 27.205809 41.723720 -0.213439 0.860516 0.111070 -0.042583 -240136.000000 0 0 1
29.582961 -6.353290 26.926609 40.503805 -0.211548 0.843581 0.119137 -0.037290 -467063.000000 0 0 1
29.283901 -4.959490 26.980509 40.125943 -0.167767 0.833356 0.109559 -0.027508 -489428.000000 0 0 1
27.821181 -4.788690 26.621409 38.802695 -0.170454 0.814721 0.090739 -0.025082 -992787.000000 0 0 1
27.428081 -5.061690 25.285109 37.646475 -0.182491 0.834368 0.089923 -0.026380 580358.000000 0 0 1
26.046681 -4.661690 25.240709 36.568489 -0.177099 0.808988 0.083585 -0.021916 473445.000000 0 0 1
25.296181 -5.012490 23.981209 35.215341 -0.195618 0.821686 0.079033 -0.017778 -407968.000000 0 0 1
25.777981 -4.217090 22.949309 34.770087 -0.162156 0.849937 0.087713 -0.006370 314825.000000 0 0 1
25.367081 -4.776390 21.665109 33.699847 -0.186112 0.872538 0.078658 -0.006227 217376.000000 0 0 1
25.640781 -3.772590 20.540309 33.069418 -0.146084 0.900616 0.082583 -0.006295 568915.000000 0 0 1
24.764881 -2.644090 20.661509 32.360292 -0.106365 0.878270 0.065446 -0.002257 465277.000000 0 0 1
25.199681 -1.685590 19.688409 32.023407 -0.066790 0.908647 0.066346 0.002809 -627475.000000 0 0 1
24.100081 -0.801090 19.215309 30.833160 -0.033228 0.897965 0.048004 -0.008023 -1195500.000000 0 0 1
23.270181 -1.367490 18.269509 29.616657 -0.058698 0.906042 0.056758 -0.007381 -325107.000000 0 0 1
22.278881 -0.443990 17.815909 28.529849 -0.019926 0.896349 0.064692 -0.009548 118924.000000 0 0 1
21.103081 -1.202190 17.191109 27.245542 -0.056906 0.887994 0.074417 -0.017306 -525166.000000 0 0 1
21.458881 -1.938490 16.002509 26.838808 -0.090091 0.931981 0.106437 -0.017178 74168.600000 0 0 1
20.376781 -2.708790 15.531909 25.764141 -0.132160 0.923728 0.108562 -0.022874 -136632.000000 0 0 1
20.530681 -3.093290 14.034809 25.060989 -0.149542 0.976379 0.123444 -0.031464 -68156.300000 0 0 1
19.510981 -3.982290 13.596909 24.112507 -0.201340 0.971702 0.123008 -0.032844 641640.000000 0 1 0
19.665981 -4.452890 12.271509 23.604427 -0.222671 1.024084 0.120788 -0.031020 -265972.000000 0 1 0
18.579781 -5.467790 11.893509 22.727969 -0.286207 1.020079 0.101994 -0.025258 -148294.000000 0 1 0
18.756681 -6.737090 12.504309 23.527839 -0.344833 1.010463 0.131245 -0.031466 788126.000000 0 1 0
17.591381 -7.536590 12.357309 22.780693 -0.404768 0.997450 0.100498 -0.015099 11927.400000 0 1 0
17.797881 -9.044990 12.566209 23.589956 -0.470191 1.009017 0.125226 -0.036723 -561987.000000 0 1 0
18.580581 -9.723790 11.630109 23.980190 -0.482138 1.064447 0.107772 -0.045878 252798.000000 0 1 0
18.454281 -11.118290 11.702409 24.517815 -0.542239 1.073214 0.129583 -0.040747 -234042.000000 0 1 0
19.030181 -11.775090 10.465509 24.704806 -0.554099 1.133356 0.115605 -0.044103 -320049.000000 0 1 0
18.294981 -11.439490 9.330009 23.507815 -0.558801 1.162671 0.094209 -0.033061 99470.100000 0 1 0
18.783081 -12.037190 8.156409 23.753423 -0.569918 1.220285 0.081993 -0.044628 -150656.000000 0 1 0
18.551481 -11.274090 6.806709 22.750689 -0.546076 1.266956 0.075274 -0.029737 -371896.000000 0 1 0
19.245581 -10.076090 6.812809 22.766958 -0.482312 1.266899 0.091485 -0.020301 412389.000000 0 1 0
19.361781 -9.556690 5.501909 22.281829 -0.458503 1.321292 0.048885 -0.022154 -225344.000000 0 1 0
19.941481 -8.113190 5.599809 22.245098 -0.386397 1.316327 0.072075 -0.016825 -297691.000000 0 1 0
20.082881 -7.564990 4.346109 21.896115 -0.360250 1.370982 0.058887 -0.021613 559240.000000 0 1 0
20.932981 -6.440690 4.332309 22.325794 -0.298489 1.375508 0.094648 -0.022650 -380388.000000 0 1 0
21.584481 -6.066190 2.950709 22.614048 -0.273977 1.439942 0.098357 -0.026728 -244131.000000 0 1 0
20.648081 -5.792890 1.931409 21.532097 -0.273522 1.480977 0.069994 -0.035197 137494.000000 0 1 0
21.203881 -5.430990 0.696009 21.899422 -0.250741 1.539009 0.074086 -0.021865 -114922.000000 0 1 0
-25.996343 -15.426590 -0.013291 30.228955 0.535563 1.571236 0.070618 -0.017612 -375347.000000 0 0 1
-25.023463 -14.592090 -0.645191 28.974456 0.527927 1.593066 0.064431 -0.013706 1127790.000000 0 0 1
-23.706663 -15.188590 -0.579391 28.160874 0.569802 1.591372 0.081013 -0.010257 987394.000000 0 0 1
-22.929863 -14.855190 0.717009 27.330741 0.574865 1.544559 0.099801 -0.021100 -935553.000000 0 0 1
-23.420763 -15.436490 1.851109 28.111278 0.582742 1.504899 0.086363 -0.008619 -108912.000000 0 0 1
-22.603963 -15.121690 2.994909 27.360083 0.589605 1.461114 0.099031 -0.001643 384373.000000 0 0 1
-23.131863 -15.649790 4.346009 28.264586 0.594812 1.416422 0.104409 0.002435 -278047.000000 0 0 1
-23.134163 -17.078190 4.279809 29.071822 0.635922 1.423044 0.111743 -0.006205 204986.000000 0 0 1
-23.373163 -17.662790 5.567809 29.820788 0.647131 1.382985 0.104965 -0.010637 -216207.000000 0 0 1
-23.615563 -19.208490 5.558909 30.944505 0.682848 1.390175 0.081017 -0.009394 18876.300000 0 0 1
-24.137763 -19.700590 6.758909 31.881463 0.684525 1.357174 0.078751 -0.013172 -79642.400000 0 0 1
-24.486563 -21.064290 6.459009 32.939564 0.710408 1.373431 0.074238 -0.020176 30738.200000 0 0 1
-24.938663 -21.907190 7.721909 34.080636 0.720777 1.342234 0.081428 -0.019551 648448.000000 0 0 1
-23.869163 -22.270090 8.628709 33.766085 0.750754 1.312386 0.092256 -0.017784 165469.000000 0 0 1
-24.264563 -23.112690 9.733409 34.895626 0.761090 1.288117 0.092277 -0.020589 -477339.000000 0 0 1
-23.326663 -23.111690 10.896809 34.598033 0.780769 1.250388 0.111435 -0.025268 -459432.000000 0 0 1
-23.348563 -21.925990 11.640909 34.079542 0.753987 1.222198 0.090799 -0.019014 -299710.000000 0 0 1
-22.599363 -21.988990 12.803709 34.032071 0.771710 1.185078 0.096274 -0.018299 -204609.000000 0 0 1
-23.370963 -21.320890 13.984709 34.588356 0.739559 1.154563 0.081897 -0.013717 16350.700000 0 0 1
-24.520963 -21.985790 14.436009 35.959018 0.730940 1.157689 0.079389 -0.012994 -374996.000000 0 0 1
-25.109113 -21.357190 15.544409 36.444832 0.704828 1.130156 0.080273 -0.003760 26180.400000 0 0 1
-26.461773 -22.037490 15.879709 37.921519 0.694426 1.138726 0.056244 0.002062 287033.000000 0 0 1
-27.468043 -21.739990 14.901009 38.067843 0.669515 1.168608 0.055295 0.006246 187237.000000 0 0 1
-27.939983 -22.871990 14.195909 38.798124 0.685987 1.196206 0.051107 -0.004100 810374.000000 0 0 1
-29.209073 -23.629190 14.758509 40.364863 0.680185 1.196489 0.056269 -0.002001 629500.000000 0 0 1
-28.907853 -24.379390 15.926909 41.032732 0.700620 1.172172 0.058921 0.003971 -555090.000000 0 0 1
-29.688293 -25.510340 16.091809 42.321608 0.709853 1.180755 0.042381 0.003209 -730026.000000 0 0 1
-29.404483 -26.793540 15.263209 42.608485 0.738972 1.204436 0.064344 0.000841 50967.300000 0 0 1
-30.098633 -26.845490 14.021709 42.699138 0.728331 1.236204 0.076048 -0.013892 -959866.000000 0 0 1
-31.452153 -27.107020 14.151409 43.866740 0.711333 1.242321 0.064291 -0.020052 -1024420.000000 0 0 1
-32.090313 -27.339760 12.756209 44.045108 0.705633 1.276970 0.064409 -0.024992 -76852.400000 0 0 1
-31.502703 -28.470550 12.143309 44.163927 0.734883 1.292248 0.100631 -0.038423 -121476.000000 0 0 1
-32.185733 -28.967610 11.028309 44.684085 0.732823 1.321413 0.074506 -0.019811 -96275.500000 0 0 1
-31.539773 -30.211790 10.352209 44.885162 0.763896 1.338063 0.092741 -0.031345 -36513.100000 0 0 1
-31.434333 -31.368480 11.167509 45.790961 0.784350 1.324431 0.069208 -0.022400 -137604.000000 0 0 1
-31.044433 -32.430910 10.353909 46.073031 0.807237 1.344132 0.073489 -0.027144 -364350.000000 0 0 1
-31.044313 -33.751170 11.073909 47.175442 0.827149 1.333846 0.061881 -0.021624 135395.000000 0 0 1
-32.350273 33.995326 11.295809 48.268185 -0.810188 1.334584 0.048665 -0.013192 -35969.300000 0 0 1
-32.290423 32.637198 11.595409 47.353053 -0.790739 1.323409 0.063846 -0.021169 -26632.300000 0 0 1
-33.567283 32.106462 12.315809 48.054829 -0.763158 1.311618 0.071151 -0.018844 437059.000000 0 0 1
-34.776066 31.920242 11.634709 48.617313 -0.742606 1.329139 0.034877 -0.017119 411956.000000 0 0 1
-35.424491 33.150149 11.139409 49.778644 -0.752244 1.345106 0.046742 -0.010988 -69858.200000 0 0 1
36.678561 32.833443 10.502109 50.335337 0.730139 1.360609 0.038514 0.001755 267727.000000 0 0 1
36.726461 32.138262 9.291309 49.679264 0.718870 1.382663 0.026428 -0.004180 71697.900000 0 0 1
35.436241 32.183917 8.732209 48.659873 0.737338 1.390365 0.020242 -0.000547 -221133.000000 0 0 1
35.357181 31.415282 7.363709 47.867259 0.726432 1.416347 0.015940 -0.008811 -62586.000000 0 0 1
35.406211 29.998522 7.444709 46.999307 0.702905 1.411726 0.045214 -0.019837 114468.000000 0 0 1
35.462841 29.374672 6.159809 46.458882 0.691774 1.437819 0.067049 -0.028325 1377.560000 0 0 1
35.730571 27.841662 6.216909 45.721787 0.661936 1.434401 0.082214 -0.030857 250973.000000 0 0 1
34.627031 27.066512 6.698709 44.457846 0.663457 1.419545 0.079187 -0.030006 448807.000000 0 0 1
34.756001 26.685662 8.037609 44.550055 0.654796 1.389385 0.068624 -0.022785 -175221.000000 0 0 1
33.640241 25.705312 8.418409 43.165942 0.652479 1.374514 0.067777 -0.017352 -219699.000000 0 0 1
33.746561 24.608542 7.550109 42.443078 0.630066 1.391957 0.081652 -0.028245 86340.700000 0 0 1
32.699211 23.674002 7.705609 41.098336 0.626648 1.382188 0.081056 -0.025248 -823082.000000 0 0 1
32.966221 22.402802 6.807209 40.435076 0.596881 1.401642 0.068828 -0.020797 628909.000000 0 0 1
34.066161 21.563602 7.222709 40.959246 0.564326 1.393530 0.086294 -0.019556 358932.000000 0 0 1
35.344331 22.130902 7.110309 42.303133 0.559427 1.401915 0.088722 -0.026898 -1130590.000000 0 0 1
36.481671 21.124102 7.147809 42.757821 0.524860 1.402838 0.066152 -0.028073 -439744.000000 0 0 1
36.662001 20.274502 6.050009 42.329191 0.505152 1.427378 0.079957 -0.035635 -145397.000000 0 0 1
-36.633403 18.865402 6.423209 41.703324 -0.475558 1.416159 0.090766 -0.031678 -95752.100000 0 0 1
36.187691 17.919802 5.396109 40.740475 0.459793 1.437955 0.092471 -0.030423 -91142.300000 0 0 1
-36.676753 17.922002 4.138409 41.030584 -0.454524 1.469763 0.105336 -0.030679 51028.700000 0 0 1
36.361441 16.777802 3.400809 40.189732 0.432308 1.486076 0.087723 -0.027793 -458541.000000 0 0 1
-36.144153 16.279702 2.285109 39.707055 -0.423195 1.513215 0.097722 -0.019050 -495037.000000 0 0 1
-35.290234 15.293102 2.745009 38.559236 -0.408924 1.499547 0.103089 -0.024571 -905603.000000 0 0 1
-34.036033 15.885102 2.830409 37.666952 -0.436666 1.495582 0.113693 -0.028273 -847210.000000 0 0 1
-32.765833 14.995302 2.890609 36.149890 -0.429198 1.490749 0.113358 -0.021670 279427.000000 0 0 1
-32.572583 14.325602 4.122209 35.821623 -0.414344 1.455465 0.119321 -0.023913 710757.000000 0 0 1
-31.220483 13.879502 4.227309 34.427159 -0.418324 1.447696 0.114962 -0.021944 408213.000000 0 0 1
-30.835503 13.234502 5.570909 34.014928 -0.405420 1.406277 0.125608 -0.016651 -192888.000000 0 0 1
-31.137473 11.860202 5.771009 33.815842 -0.363931 1.399297 0.135908 -0.007754 234025.000000 0 0 1
-30.902203 11.417802 7.034209 33.686681 -0.353924 1.360436 0.120068 -0.007279 -185179.000000 0 0 1
-31.067553 9.939002 7.379109 33.442905 -0.309627 1.348318 0.130935 -0.007243 -1155520.000000 0 0 1
-32.372653 9.547002 7.311509 34.533927 -0.286780 1.357462 0.124807 -0.011399 -1258740.000000 0 0 1
-32.346993 8.138702 7.329809 34.151026 -0.246490 1.354484 0.137860 -0.010994 -597606.000000 0 0 1
-33.699923 7.488902 7.165309 35.257767 -0.218670 1.366144 0.127483 -0.006618 -658055.000000 0 0 1
-34.617910 7.671602 8.218209 36.397695 -0.218083 1.343043 0.124389 -0.006802 295283.000000 0 0 1
-35.818620 6.948002 7.963009 37.345118 -0.191598 1.355919 0.079915 -0.011447 291336.000000 0 0 1
-36.509163 6.320902 9.154909 38.166545 -0.171433 1.328567 0.077539 -0.013570 -227287.000000 0 0 1
36.321201 7.198802 10.066709 38.371748 0.195663 1.305343 0.080539 -0.013870 -419333.000000 0 0 1
-36.419513 7.657502 11.128009 38.843930 -0.207239 1.280246 0.112819 -0.028457 -475266.000000 0 0 1
36.381861 8.696702 12.074709 39.307392 0.234637 1.258561 0.099861 -0.035278 70898.200000 0 0 1
35.524161 8.252602 13.123409 38.759455 0.228261 1.225383 0.089649 -0.030797 812541.000000 0 0 1
34.911401 9.331402 13.848209 38.699534 0.261182 1.204844 0.119797 -0.047304 -214015.000000 0 0 1
34.043781 9.001302 15.061309 38.299419 0.258488 1.166631 0.115831 -0.043664 144179.000000 0 0 1
32.807641 8.363902 14.688109 36.905782 0.249620 1.161472 0.097759 -0.042322 663021.000000 0 0 1
32.406621 7.700802 15.923109 36.919329 0.233303 1.124869 0.096009 -0.034114 -307656.000000 0 0 1
30.915251 7.325302 15.937609 35.544623 0.232657 1.105841 0.063196 -0.026814 -1137420.000000 0 0 1
30.131171 8.463602 15.775709 35.048439 0.273836 1.103906 0.049172 -0.030167 -27989.000000 0 0 1
28.739861 8.314502 15.571809 33.728205 0.281614 1.090902 0.043840 -0.023394 339409.000000 0 0 1
27.962981 7.767702 16.813809 33.540568 0.270954 1.045698 0.040612 -0.012564 -1025710.000000 0 0 1
27.814281 8.696902 17.836609 34.167455 0.303047 1.021561 0.059937 -0.023571 343337.000000 0 0 1
27.126881 8.171902 18.991409 34.107496 0.292601 0.980255 0.057556 -0.020466 -106622.000000 0 0 1
27.875781 7.145402 19.877409 34.974667 0.250927 0.966313 0.059575 -0.022163 -85664.100000 0 0 1
27.230381 6.805902 21.105409 35.117692 0.244920 0.926056 0.040870 -0.004682 296720.000000 0 0 1
27.872181 5.677102 21.746209 35.804827 0.200935 0.918071 0.056078 -0.005200 -35849.000000 0 0 1
27.280081 5.354502 23.161209 36.184460 0.193815 0.876185 0.054003 0.002287 234769.000000 0 0 1
25.938381 4.921502 23.203209 35.148396 0.187509 0.849778 0.032597 -0.007889 -86664.800000 0 0 1
25.021581 5.931702 23.577409 34.887804 0.232767 0.828738 0.040029 -0.000757 1615090.000000 0 0 1
23.485781 5.516302 23.367609 33.586555 0.230697 0.801343 0.058115 -0.020320 1841580.000000 0 0 1
23.020981 5.277502 21.998909 32.276456 0.225354 0.820880 0.063644 -0.015843 1284800.000000 0 0 1
21.612681 5.097502 21.780409 31.104321 0.231624 0.795066 0.067555 -0.018229 53681.800000 0 0 1
20.794481 3.801902 22.109209 30.588920 0.180835 0.762973 0.082404 -0.022243 608787.000000 0 0 1
19.637581 3.611502 21.285309 29.184618 0.181875 0.753450 0.085596 -0.030072 911900.000000 0 0 1
18.529381 4.433302 21.662109 28.848555 0.234843 0.721387 0.092554 -0.024978 -1097990.000000 0 0 1
17.349581 4.161702 20.731509 27.351841 0.235425 0.710621 0.116547 -0.027816 -772587.000000 0 0 1
16.632581 3.039002 21.225409 27.136623 0.180720 0.672658 0.095141 -0.025974 -89062.500000 0 0 1
15.508281 2.924902 20.361409 25.761383 0.186413 0.659359 0.095873 -0.029748 412678.000000 0 0 1
14.448681 1.847902 20.822709 25.411894 0.127204 0.610419 0.094667 -0.026203 79589.600000 0 0 1
14.916581 0.533102 20.702709 25.522358 0.035724 0.624664 0.072995 -0.031272 168539.000000 0 0 1
14.251481 -0.313598 21.596909 25.877202 -0.022001 0.583404 0.082557 -0.027344 -333401.000000 0 0 1
14.644481 -1.814898 21.452909 26.038088 -0.123302 0.602529 0.063995 -0.024135 -69860.100000 0 0 1
14.375481 -2.430298 20.215909 24.924763 -0.167475 0.624805 0.080018 -0.021426 35507.300000 0 1 0
14.507081 -3.827798 20.297309 25.240606 -0.257978 0.636547 0.061754 -0.015541 -357124.000000 0 0 1
14.071981 -4.660298 19.061609 24.147132 -0.319807 0.660975 0.057919 -0.011464 -340594.000000 0 1 0
12.670281 -4.702798 18.984809 23.303977 -0.355407 0.618654 0.066377 -0.014810 -457715.000000 0 1 0
12.218581 -5.130098 17.740309 22.143401 -0.397509 0.641573 0.062125 -0.008788 -622722.000000 0 1 0
10.706981 -5.276798 17.738609 21.380887 -0.457901 0.592319 0.056634 -0.002806 -251183.000000 0 1 0
10.098981 -6.378998 18.464909 21.991678 -0.563365 0.574192 0.061437 -0.003013 755950.000000 0 1 0
8.696681 -6.420998 18.142609 21.119085 -0.635989 0.537361 0.055519 -0.017638 948919.000000 0 1 0
7.835781 -7.230898 19.137009 21.906859 -0.745273 0.508322 0.057350 -0.025125 -243100.000000 0 1 0
7.863981 -8.632298 18.986009 22.289624 -0.831940 0.551410 0.047746 -0.019697 -168216.000000 0 1 0
8.988481 -9.270798 19.540409 23.421530 -0.800858 0.583948 0.070339 -0.019556 370.124000 0 1 0
9.151981 -10.710198 19.081409 23.718501 -0.863689 0.635972 0.078983 -0.019755 133112.000000 0 1 0
9.401081 -10.825698 17.683509 22.765820 -0.855714 0.681296 0.065048 -0.010500 -17865.800000 0 1 0
9.753281 -12.092198 17.207809 23.183107 -0.892058 0.734365 0.066305 -0.014926 170867.000000 0 1 0
9.948881 -11.998898 15.681709 22.110400 -0.878532 0.782368 0.068439 -0.015645 146123.000000 0 1 0
10.139581 -13.213698 15.027909 22.433256 -0.916281 0.836730 0.047135 -0.011522 -64837.800000 0 1 0
10.119781 -13.048198 13.576109 21.377001 -0.911131 0.882684 0.055037 -0.013738 -278575.000000 0 1 0
10.730981 -14.184298 12.719309 21.866163 -0.923123 0.949993 0.068811 -0.019256 986524.000000 0 1 0
12.157581 -14.173598 12.568009 22.508943 -0.861813 0.978393 0.059353 -0.016456 587473.000000 0 1 0
12.547081 -13.401798 11.440309 21.631415 -0.818325 1.013522 0.044436 -0.011068 -235937.000000 0 1 0
14.023581 -13.173998 11.049409 22.187936 -0.754171 1.049515 0.073749 -0.020729 42604.000000 0 1 0
14.630881 -14.256598 10.458009 22.949580 -0.772442 1.097643 0.087136 -0.017898 -103249.000000 0 1 0
15.941281 -13.950498 10.005309 23.427485 -0.718897 1.129540 0.087689 -0.027126 -52487.400000 0 1 0
16.671281 -15.193898 9.494809 24.473201 -0.739068 1.172371 0.083482 -0.029650 -233970.000000 0 1 0
17.227981 -15.980398 10.518209 25.745081 -0.747847 1.149929 0.094458 -0.029035 116720.000000 0 0 1
16.389481 -17.049598 10.986709 26.077033 -0.805136 1.135899 0.115095 -0.022407 124356.000000 0 0 1
16.784081 -17.697398 12.295409 27.314472 -0.811879 1.103871 0.096461 -0.023773 572192.000000 0 0 1
18.094981 -18.268998 12.220509 28.469729 -0.790184 1.127139 0.124783 -0.028256 369862.000000 0 0 1
18.457181 -18.770398 13.463009 29.567685 -0.793812 1.098055 0.108234 -0.025608 -1228970.000000 0 0 1
19.706081 -19.564098 13.519709 30.884723 -0.781783 1.117705 0.058393 -0.032108 -1391800.000000 0 0 1
20.828981 -18.792498 13.207409 31.007098 -0.734045 1.130787 0.062155 -0.031113 -900037.000000 0 0 1
21.927781 -19.631298 12.939509 32.150371 -0.730196 1.156585 0.047379 -0.032418 75793.700000 0 0 1
22.738981 -19.041098 11.728809 31.893411 -0.697120 1.194208 0.060817 -0.027622 -102280.000000 0 0 1
22.152181 -19.059498 10.434009 31.029859 -0.710495 1.227857 0.056471 -0.017121 -358920.000000 0 0 1
21.044381 -18.251898 10.127009 29.640413 -0.714455 1.222111 0.057685 -0.015529 -158954.000000 0 0 1
21.085581 -16.706798 10.286309 28.801510 -0.670048 1.205587 0.097984 -0.032390 -147514.000000 0 0 1
21.856481 -16.101098 9.268409 28.685441 -0.634918 1.241788 0.091420 -0.020462 120701.000000 0 0 1
21.561381 -14.731998 9.238809 27.699829 -0.599401 1.230748 0.101352 -0.034803 126925.000000 0 0 1
-35.214135 25.161610 7.778509 43.973255 -0.620412 1.392969 0.093051 -0.036556 -470253.000000 0 0 1
-34.377591 24.416710 8.587209 43.031787 -0.617573 1.369893 0.091172 -0.028198 445104.000000 0 0 1
-33.376953 25.293410 9.170209 42.870390 -0.648481 1.355225 0.094128 -0.024409 606715.000000 0 0 1
-32.245483 24.560610 9.974309 41.743043 -0.650932 1.329517 0.099804 -0.021935 714730.000000 0 0 1
-31.367453 23.803910 9.086509 40.411730 -0.649156 1.344009 0.095835 -0.020589 1101980.000000 0 0 1
-30.589343 22.823810 9.843809 39.414906 -0.641024 1.318376 0.089874 -0.021013 519360.000000 0 0 1
-29.782423 21.796910 8.957909 37.978180 -0.631798 1.332683 0.080098 -0.021094 -198107.000000 0 0 1
-30.583023 20.952910 8.196709 37.967510 -0.600667 1.353196 0.087166 -0.030827 -66430.500000 0 0 1
-29.824113 20.157510 7.297409 36.729486 -0.594354 1.370786 0.088472 -0.031278 -277254.000000 0 0 1
-30.678093 19.394910 6.292909 36.836241 -0.563765 1.399120 0.087122 -0.027868 -543012.000000 0 0 1
-31.326643 18.327510 6.941709 36.951909 -0.529351 1.381816 0.100287 -0.026057 261064.000000 0 0 1
-32.279063 17.785610 6.038209 37.346028 -0.503607 1.408401 0.088494 -0.024358 -309985.000000 0 0 1
-32.909613 16.525210 6.550809 37.403721 -0.465358 1.394750 0.092115 -0.012980 -490535.000000 0 0 1
-33.741993 16.761010 7.650009 38.444456 -0.461037 1.370471 0.088841 -0.022634 327800.000000 0 0 1
-34.610079 15.656910 7.929409 38.805566 -0.424831 1.365010 0.089023 -0.026856 362965.000000 0 0 1
-35.548809 15.891710 9.146709 39.999083 -0.420389 1.340082 0.104198 -0.035725 679339.000000 0 0 1
-36.671943 16.734010 8.868609 41.273609 -0.428094 1.354234 0.108269 -0.030220 207704.000000 0 0 1
36.037741 17.053510 9.959309 41.094146 0.441989 1.326005 0.131356 -0.030322 465849.000000 0 0 1
35.032651 18.256910 9.811309 40.704585 0.480416 1.327362 0.111741 -0.029156 1534660.000000 0 0 1
33.811381 18.039910 9.064409 39.380343 0.490122 1.338538 0.106592 -0.029516 849100.000000 0 0 1
32.987941 19.177810 9.071009 39.220861 0.526600 1.337403 0.094378 -0.019000 -124893.000000 0 0 1
31.650131 18.977710 8.316509 37.829204 0.540132 1.349142 0.084954 -0.022992 -596529.000000 0 0 1
31.050551 20.220310 8.431209 38.001092 0.577223 1.347067 0.077522 -0.021006 -1001450.000000 0 0 1
29.754781 20.372310 7.935109 36.923489 0.600365 1.354200 0.049580 -0.019212 -293090.000000 0 0 1
29.462911 20.123010 6.412109 36.250708 0.599222 1.392978 0.032738 -0.003384 -1111910.000000 0 0 1
29.644591 18.804910 5.976009 35.610941 0.565291 1.402185 0.043031 -0.010428 151156.000000 0 0 1
29.301111 18.546210 4.617309 34.983376 0.564298 1.438424 0.046284 -0.011841 876358.000000 0 0 1
27.815081 18.934310 4.205809 33.909817 0.597670 1.446447 0.063543 -0.012542 510802.000000 0 0 1
26.776481 18.167210 4.793909 32.710993 0.596134 1.423713 0.062226 -0.017864 1163350.000000 0 0 1
25.431481 18.467610 4.397909 31.735697 0.628075 1.431770 0.091394 -0.019929 988474.000000 0 0 1
24.747281 19.840010 4.707109 32.065727 0.675779 1.423468 0.092540 -0.017867 -533903.000000 0 0 1
25.314681 20.894810 3.975109 33.063994 0.690040 1.450280 0.077119 -0.018269 319128.000000 0 0 1
24.793081 22.109510 4.446809 33.515690 0.728245 1.437726 0.073757 -0.009130 -47630.800000 0 0 1
25.833081 23.239510 4.296209 35.012574 0.732596 1.447782 0.044833 0.000557 -63421.600000 0 0 1
26.931981 23.175610 5.164609 35.904230 0.710572 1.426452 0.049431 -0.009481 -74317.200000 0 0 1
27.726281 24.325510 5.097909 37.235277 0.720157 1.433454 0.039103 -0.007821 719594.000000 0 0 1
29.148441 24.268410 5.836609 38.375166 0.694294 1.418110 0.043587 -0.008392 1521470.000000 0 0 1
30.032801 23.174010 5.451709 38.323949 0.657197 1.428059 0.042336 -0.009737 814375.000000 0 0 1
30.481781 23.137310 4.078409 38.485160 0.649270 1.464623 0.043473 -0.011746 -461068.000000 0 0 1
31.396901 24.282810 3.610809 39.855467 0.658319 1.480074 0.070657 -0.026053 -474859.000000 0 0 1
30.680761 25.484810 3.358709 40.025812 0.693149 1.486784 0.052410 -0.023478 257929.000000 0 0 1
31.530921 26.417510 2.719209 41.224725 0.697385 1.504788 0.096306 -0.019653 -237600.000000 0 0 1
31.046361 27.926010 2.978709 41.864201 0.732535 1.499584 0.083649 -0.008108 732952.000000 0 0 1
29.877131 28.422310 2.327609 41.302403 0.760449 1.514411 0.096688 -0.019974 1360550.000000 0 0 1
28.615971 27.856710 2.743309 40.029937 0.771954 1.502211 0.075373 -0.010875 492370.000000 0 0 1
27.361981 28.357910 2.018709 39.457880 0.803270 1.519613 0.041939 -0.009203 17947.300000 0 0 1
27.025881 29.728510 2.344009 40.245211 0.832982 1.512520 0.039303 -0.009012 1364190.000000 0 0 1
25.664181 30.098310 1.978909 39.603972 0.864749 1.520808 0.027539 -0.005660 1491600.000000 0 0 1
25.222381 31.468110 2.523409 40.407649 0.895128 1.508307 0.046767 -0.015700 -261944.000000 0 0 1
25.023181 31.575410 3.935909 40.480335 0.900652 1.473412 0.019156 -0.024886 -175704.000000 0 0 1
26.190981 31.659710 4.728109 41.360123 0.879650 1.456230 0.026565 -0.029306 -154848.000000 0 0 1
25.979681 31.550210 6.245709 41.344510 0.881926 1.419151 0.021215 -0.032776 -323857.000000 0 0 1
25.548781 30.293510 6.661409 40.184716 0.870161 1.404258 0.028274 -0.035313 349294.000000 0 0 1
26.494481 29.204410 6.586809 39.978009 0.834013 1.405281 0.041791 -0.041693 420814.000000 0 0 1
25.891081 27.859710 7.117309 38.693251 0.822007 1.385801 0.059062 -0.035827 319326.000000 0 0 1
24.738181 27.455810 6.398809 37.506585 0.837419 1.399353 0.035712 -0.035903 266424.000000 0 0 1
24.304981 26.112010 6.631409 36.284222 0.821224 1.387000 0.045405 -0.035709 -373242.000000 0 0 1
23.109281 25.686710 5.763809 35.029523 0.838170 1.405503 0.049893 -0.019412 -392665.000000 0 0 1
23.232681 25.481610 4.324209 34.752967 0.831531 1.446046 0.032145 -0.019152 -54603.800000 0 0 1
23.462881 26.686810 3.591309 35.715405 0.849596 1.470073 0.021653 -0.022070 -104189.000000 0 0 1
23.486581 26.445810 2.100709 35.431813 0.844594 1.511473 0.023093 -0.009734 722512.000000 0 0 1
24.739981 25.796810 1.798809 35.787956 0.806307 1.520512 0.004448 0.011759 930398.000000 0 0 1
24.823181 25.460210 0.474009 35.561740 0.798066 1.557467 0.015012 0.007691 -1017720.000000 0 0 1
26.112081 24.763610 0.171909 35.987592 0.758899 1.566019 0.039326 0.003196 -3072960.000000 0 0 1
27.200381 25.577710 0.030909 37.337394 0.754663 1.569968 0.058261 -0.000517 -689610.000000 0 0 1
28.253481 24.997710 -0.704991 37.731177 0.724334 1.589482 0.075182 0.000657 264613.000000 0 0 1
28.936391 23.679310 -0.153391 37.390480 0.685814 1.574899 0.065856 -0.004530 -1252900.000000 0 0 1
28.126681 22.550110 -0.313291 36.051572 0.675797 1.579487 0.056002 -0.005472 -67826.200000 0 0 1
28.298781 21.665910 0.776809 35.648789 0.653419 1.549004 0.043891 -0.004093 -114250.000000 0 0 1
27.033281 20.840710 1.116909 34.152321 0.656761 1.538087 0.048858 -0.005594 -185098.000000 0 0 1
26.691681 19.864910 0.207509 33.273166 0.639802 1.564560 0.081275 -0.022542 -139487.000000 0 0 1
25.647481 19.061110 0.647709 31.961520 0.639132 1.550530 0.080220 -0.022700 -616000.000000 0 0 1
25.002481 18.125010 -0.436391 30.884147 0.627261 1.584927 0.086847 -0.033656 153571.000000 0 0 1
23.794181 17.676810 0.188409 29.642338 0.638945 1.564440 0.085410 -0.030150 345149.000000 0 0 1
23.160081 16.749610 -0.684691 28.590341 0.626134 1.594747 0.092686 -0.051177 -161485.000000 0 0 1
21.708881 16.442610 -0.312391 27.234767 0.648229 1.582267 0.098716 -0.036111 -568872.000000 0 0 1
20.946581 15.593210 -1.184791 26.140222 0.639925 1.616136 0.094640 -0.039471 543949.000000 0 0 1
19.632281 15.327410 -0.750291 24.918245 0.662877 1.600911 0.098410 -0.039057 -114795.000000 0 1 0
18.559481 16.361110 -1.133991 24.767443 0.722528 1.616598 0.099665 -0.039982 -624152.000000 0 1 0
18.730381 17.565210 -0.467891 25.682343 0.753307 1.589016 0.089199 -0.033400 192903.000000 0 0 1
17.831781 18.498010 -1.050191 25.714815 0.803734 1.611648 0.072808 -0.032571 224979.000000 0 0 1
17.950581 19.852510 -0.455591 26.768510 0.835667 1.587817 0.071069 -0.019175 -121864.000000 0 0 1
17.517181 19.927110 0.864809 26.545984 0.849670 1.538213 0.064778 -0.010012 134767.000000 0 0 1
17.781981 21.199610 1.525809 27.711919 0.872847 1.515709 0.080757 -0.014163 -215510.000000 0 0 1
16.863981 22.380010 1.128909 28.045199 0.925041 1.530532 0.080544 -0.018171 757263.000000 0 0 1
15.533181 22.147410 1.624809 27.100323 0.959162 1.510805 0.064911 -0.015119 547728.000000 0 0 1
14.595281 23.059710 1.104609 27.312866 1.006512 1.530342 0.062016 -0.018687 489683.000000 0 0 1
13.168481 22.881110 1.709809 26.455199 1.048573 1.506121 0.052968 -0.021550 429498.000000 0 0 1
13.012581 23.287810 3.035609 26.848916 1.061243 1.457491 0.059327 -0.004025 -121341.000000 0 0 1
11.666381 23.220110 3.439709 26.212775 1.105210 1.439194 0.046240 -0.008379 71540.600000 0 0 1
11.421581 23.633110 4.927909 26.706941 1.120608 1.385215 0.061489 -0.009349 -61558.900000 0 0 1
11.933481 22.682510 5.818609 26.282322 1.086480 1.347558 0.060340 -0.023456 -68143.700000 0 0 1
11.258881 22.705610 7.073409 26.312360 1.110463 1.298624 0.054785 -0.009245 -730192.000000 0 0 1
11.832281 21.595810 8.034309 25.902356 1.069569 1.255417 0.051013 -0.012567 699793.000000 0 0 1
13.127981 21.788710 8.595409 26.850938 1.028531 1.244945 0.060073 -0.011739 963571.000000 0 0 1
14.164181 21.758510 7.575809 27.045327 0.993738 1.286882 0.053908 -0.001800 -173617.000000 0 0 1
15.615781 21.763910 8.127009 27.992297 0.948416 1.276224 0.061609 -0.011171 289038.000000 0 0 1
15.847381 20.610110 8.932009 27.489942 0.915300 1.239870 0.067152 -0.016258 685848.000000 0 0 1
17.121281 20.564310 9.598309 28.428097 0.876507 1.226394 0.056455 -0.020164 503424.000000 0 0 1
17.191281 21.309010 10.940809 29.484155 0.891946 1.190631 0.036416 -0.012875 -500100.000000 0 0 1
16.561381 20.706510 12.067209 29.131709 0.896168 1.143700 0.044864 -0.027813 244624.000000 0 0 1
16.579381 21.465410 13.269309 30.194607 0.913127 1.115799 0.053990 -0.017160 555718.000000 0 0 1
17.728681 20.952110 14.271609 30.935027 0.868540 1.091290 0.064423 -0.008096 2299160.000000 0 0 1
19.054681 21.277210 13.738509 31.694593 0.840448 1.122462 0.063071 -0.007957 1347080.000000 0 0 1
20.047981 20.878710 14.708409 32.468129 0.805693 1.100657 0.051628 -0.010309 949532.000000 0 0 1
21.471581 21.339010 14.247409 33.457000 0.782301 1.130904 0.059542 -0.013834 289477.000000 0 0 1
21.878081 20.686210 13.101209 32.836130 0.757404 1.160384 0.046160 -0.013495 316431.000000 0 0 1
23.233581 21.062910 12.829309 33.882690 0.736434 1.182471 0.087569 -0.006562 716515.000000 0 0 1
23.842981 20.472810 11.525309 33.473220 0.709495 1.219288 0.073185 -0.007703 216063.000000 0 0 1
23.614481 21.330710 10.458209 33.496523 0.734629 1.253270 0.096246 -0.014494 212881.000000 0 0 1
24.601581 21.098010 9.483409 33.768312 0.708883 1.286130 0.098759 -0.020647 -290247.000000 0 0 1
24.554981 22.123510 8.247809 34.064985 0.733355 1.326246 0.095578 -0.019634 53357.400000 0 0 1
24.955381 23.452410 8.558709 35.299265 0.754360 1.325894 0.079420 -0.022834 -793989.000000 0 0 1
26.330281 23.594110 8.570609 36.378855 0.730647 1.332967 0.065061 -0.026406 -1338860.000000 0 0 1
26.850781 24.863810 9.268109 37.750118 0.746995 1.322748 0.087494 -0.030077 -143106.000000 0 0 1
28.221481 25.168110 9.052309 38.882259 0.728270 1.335827 0.074644 -0.024890 457654.000000 0 0 1
28.574141 26.195310 9.954409 40.022070 0.741992 1.319435 0.081275 -0.027458 -30107.100000 0 0 1
29.861291 26.918810 9.548509 41.321824 0.733622 1.337612 0.071224 -0.030778 -74348.700000 0 0 1
29.632781 27.689210 8.360009 41.408741 0.751505 1.367509 0.072467 -0.034417 368604.000000 0 0 1
30.900891 28.012510 7.824609 42.435720 0.736410 1.385348 0.077537 -0.032132 -21568.500000 0 0 1
30.834521 28.792210 6.495809 42.684360 0.751160 1.418020 0.097068 -0.026411 57466.300000 0 0 1
30.703891 30.189710 6.693809 43.576997 0.776954 1.416577 0.090781 -0.027450 96373.700000 0 0 1
30.607951 30.745710 5.463709 43.726394 0.787643 1.445517 0.093860 -0.024198 36627.600000 0 0 1
30.687101 32.302910 5.559609 44.900840 0.811044 1.446658 0.051812 -0.014019 317402.000000 0 0 1
29.605761 32.829810 6.324209 44.657510 0.836990 1.428703 0.047456 -0.024157 304482.000000 0 0 1
29.703971 -33.984581 6.585409 45.614091 -0.852509 1.425918 0.036797 -0.003445 266879.000000 0 0 1
28.382081 -33.325281 7.089209 44.343814 -0.865335 1.410238 0.060068 -0.016237 285833.000000 0 0 1
27.356081 -33.334681 6.152109 43.559208 -0.883591 1.429087 0.051846 -0.018538 -1017650.000000 0 0 1
26.279081 -32.524281 6.462109 42.310493 -0.891206 1.417466 0.035550 -0.029168 352645.000000 0 0 1
24.999781 -32.707681 5.563409 41.541943 -0.918181 1.436470 0.045852 -0.016808 509325.000000 0 0 1
25.169481 -32.280181 4.219909 41.149976 -0.908545 1.468066 0.022882 0.001809 382465.000000 0 0 1
24.009181 -32.359381 3.382909 40.435312 -0.932464 1.487036 0.027002 -0.007862 308422.000000 0 0 1
24.427181 -31.785781 1.977909 40.136457 -0.915564 1.521497 0.031412 0.008673 147290.000000 0 0 1
24.598881 -30.400281 2.093009 39.162007 -0.890491 1.517326 0.037186 0.018265 -43480.900000 0 0 1
25.320381 -29.857181 1.021809 39.161424 -0.867435 1.544701 0.034496 0.023387 -206572.000000 0 0 1
25.542581 -28.297881 1.180309 38.139044 -0.836529 1.539844 0.042883 0.023177 535581.000000 0 0 1
24.317781 -27.559781 1.111609 36.771344 -0.847810 1.540561 0.020586 0.024903 402966.000000 0 0 1
23.913581 -27.179481 -0.197391 36.202521 -0.849232 1.576249 0.035049 0.016532 -187321.000000 0 0 1
22.693981 -26.235081 -0.190791 34.689086 -0.857644 1.576296 0.017221 0.016457 -16965.200000 0 0 1
22.930581 -24.842481 0.044109 33.807727 -0.825397 1.569492 0.027249 0.007736 -226306.000000 0 0 1
23.193281 -24.466581 1.402209 33.741786 -0.812108 1.529227 0.022519 0.013591 -191845.000000 0 0 1
22.009181 -24.204781 2.369009 32.800727 -0.832872 1.498509 0.007805 0.007847 -142718.000000 0 0 1
22.253581 -23.651681 3.645809 32.678982 -0.815845 1.458999 0.011826 0.002530 -934888.000000 0 0 1
21.081881 -23.479281 4.358009 31.854586 -0.839147 1.433556 0.018463 -0.002926 -765036.000000 0 0 1
21.299781 -22.700981 5.656109 31.638692 -0.817232 1.391058 0.019813 -0.004045 -126298.000000 0 0 1
21.378881 -21.269081 5.503209 30.654783 -0.782824 1.390296 0.035287 0.003218 176875.000000 0 0 1
20.167881 -20.624681 5.136109 29.300180 -0.796596 1.394593 0.018214 0.000078 -403604.000000 0 0 1
20.177681 -19.092481 5.280709 28.276272 -0.757771 1.382939 0.024724 -0.003520 -158594.000000 0 0 1
19.911281 -18.570881 6.568109 28.008513 -0.750581 1.334088 0.051245 -0.007024 357034.000000 0 0 1
18.543581 -18.511881 6.965209 27.112143 -0.784543 1.310979 0.042007 -0.000644 514526.000000 0 0 1
19.416337 -26.496010 -11.524391 34.811553 -0.938393 1.908213 0.077689 -0.029446 204303.000000 0 0 1
19.729737 -25.348820 -12.259291 34.381905 -0.909409 1.935382 0.075358 -0.030004 -174090.000000 0 0 1
18.472237 -24.846090 -12.654291 33.446715 -0.931490 1.958801 0.068003 -0.023802 16845.600000 0 0 1
18.430637 -23.450090 -13.341691 32.674084 -0.904680 1.991416 0.056434 -0.026886 -88687.300000 0 0 1
18.468037 -22.245090 -12.598191 31.537704 -0.877906 1.981729 0.056228 -0.017827 239660.000000 0 0 1
19.678737 -22.005390 -11.881391 31.822277 -0.841157 1.953432 0.057333 -0.029179 -418739.000000 0 0 1
19.818637 -22.767090 -10.498691 31.958430 -0.854524 1.905523 0.055208 -0.025454 -76280.500000 0 0 1
18.938937 -22.439390 -9.398091 30.830726 -0.869794 1.880555 0.050262 -0.021653 1650610.000000 0 0 1
17.529537 -22.601190 -9.696291 30.201266 -0.911110 1.897640 0.060555 -0.013730 861307.000000 0 0 1
16.504937 -21.957690 -8.756991 28.831198 -0.926227 1.879405 0.055159 -0.005167 -621148.000000 0 0 1
16.539337 -20.516990 -8.719991 27.758508 -0.892329 1.890344 0.045750 -0.009035 -14794.900000 0 0 1
15.644437 -19.971990 -7.815491 26.546387 -0.906310 1.869633 0.046878 -0.010088 1389610.000000 0 0 1
14.057637 -20.056290 -7.964991 25.754863 -0.959460 1.885213 0.056416 -0.007598 1442700.000000 0 0 1
13.471737 -21.324390 -8.053991 26.477992 -1.007356 1.879870 0.050490 -0.007619 -1232790.000000 0 0 1
12.098737 -21.264790 -8.181191 25.797337 -1.053516 1.893501 0.053320 -0.012998 -924688.000000 0 0 1
11.480337 -22.661690 -7.980991 26.627927 -1.101885 1.875198 0.047957 -0.010792 -275026.000000 0 0 1
11.643437 -23.083390 -6.585091 26.679129 -1.103629 1.820199 0.048230 -0.007674 157074.000000 0 0 1
10.986637 -24.275690 -6.232191 27.365224 -1.145801 1.800554 0.033156 -0.003109 -50998.800000 0 0 1
11.395737 -24.657590 -4.822291 27.588295 -1.137877 1.746494 0.045919 -0.007653 -474056.000000 0 0 1
10.814937 -25.770780 -4.318391 28.279753 -1.173458 1.724099 0.064887 -0.008200 -573615.000000 0 0 1
11.386537 -26.160570 -3.118791 28.701141 -1.160271 1.679676 0.048725 -0.013459 -105133.000000 0 0 1
10.373037 -26.977520 -2.270991 28.992134 -1.203717 1.649208 0.056018 -0.014712 -101793.000000 0 0 1
9.495537 -26.172830 -1.555091 27.885490 -1.222763 1.626592 0.044156 -0.009708 -444893.000000 0 0 1
8.811637 -27.066000 -0.665491 28.472024 -1.256057 1.594172 0.047093 -0.015726 315260.000000 0 0 1
7.924637 -26.393100 0.426909 27.560440 -1.279106 1.555306 0.054786 -0.016398 -117760.000000 0 0 1
6.656437 -25.914810 0.110109 26.756263 -1.319373 1.566681 0.046446 -0.024536 -398541.000000 0 0 1
6.043237 -25.432790 1.306809 26.173560 -1.337507 1.520847 0.039890 -0.020331 1034220.000000 0 0 1
4.569237 -24.856290 1.286709 25.305507 -1.389000 1.519927 0.048196 -0.027904 1314060.000000 0 0 1
3.559937 -25.813890 1.007009 26.077655 -1.433753 1.532171 0.056520 -0.026886 -228550.000000 0 0 1
2.309237 -25.168840 1.064809 25.296974 -1.479303 1.528692 0.060424 -0.029952 -523429.000000 0 0 1
1.166337 -26.036330 0.562909 26.068519 -1.526030 1.549201 0.078039 -0.023087 -308041.000000 0 0 1
0.857037 -27.205620 1.297709 27.250033 -1.539305 1.523156 0.077980 -0.019907 -228508.000000 0 0 1
1.472437 -28.324200 0.780309 28.373178 -1.518858 1.543291 0.063676 -0.023959 -605995.000000 0 0 1
1.046937 -29.528220 1.597609 29.589934 -1.535356 1.516778 0.079086 -0.019005 -233623.000000 0 0 1
1.344137 -29.386830 2.951709 29.565268 -1.525089 1.470793 0.054772 -0.017826 1063560.000000 0 0 1
0.446237 -30.310390 3.689809 30.537412 -1.556075 1.449671 0.077238 -0.011267 996387.000000 0 0 1
0.568737 -30.240730 5.277709 30.703085 -1.551992 1.398043 0.070539 -0.013493 25506.000000 0 0 1
1.779137 -30.825040 5.741709 31.405662 -1.513143 1.386938 0.052401 -0.005114 184388.000000 0 0 1
1.877637 -30.687660 7.161909 31.568195 -1.509687 1.341933 0.056221 -0.007001 434271.000000 0 0 1
3.243437 -31.135730 7.782209 32.257035 -1.467000 1.327136 0.049877 -0.002707 598555.000000 0 0 1
3.545037 -32.418260 7.428409 33.446855 -1.461876 1.346833 0.044291 -0.007267 -1201490.000000 0 0 1
4.854237 -32.708150 7.742409 33.960736 -1.423461 1.340793 0.032670 -0.008822 -850071.000000 0 0 1
5.186037 34.040575 7.575709 35.256873 1.419610 1.354236 0.042875 -0.004087 -194964.000000 0 0 1
5.213737 33.612617 6.226509 34.579770 1.416910 1.389747 0.039158 -0.006583 5755.300000 0 0 1
5.317337 32.225074 6.197109 33.243550 1.407264 1.383284 0.030032 -0.007309 -587183.000000 0 0 1
5.631537 31.771732 4.732609 32.612187 1.395368 1.425164 0.040626 -0.012660 339037.000000 0 0 1
6.976637 31.917402 4.308409 32.953853 1.355597 1.439680 0.045877 -0.014224 200352.000000 0 0 1
7.833737 30.881332 4.766509 32.214030 1.322364 1.422287 0.043816 -0.013187 -1469660.000000 0 0 1
9.163137 30.833982 4.092209 32.425973 1.281932 1.444257 0.019194 -0.003105 -390714.000000 0 0 1
10.219937 31.330532 4.958009 33.326134 1.255482 1.421470 0.015153 -0.014417 -512738.000000 0 0 1
11.406537 31.343952 4.285109 33.629073 1.221779 1.443026 0.025201 -0.010343 -61541.400000 0 0 1
12.743137 31.702082 5.058709 34.539833 1.188597 1.423807 0.030431 -0.021676 997541.000000 0 0 1
12.988537 30.672642 6.011409 33.847453 1.170234 1.392246 0.035350 -0.018002 -61747.700000 0 0 1
14.198337 31.152192 6.569509 34.859866 1.143152 1.381208 0.047518 -0.016680 -74543.400000 0 0 1
14.884837 30.191622 7.531409 34.493688 1.112755 1.350682 0.050021 -0.016155 -711996.000000 0 0 1
14.188837 30.068402 8.743109 34.378392 1.129892 1.313652 0.040339 -0.003273 389105.000000 0 0 1
14.822537 29.103612 9.597009 34.041598 1.099735 1.285002 0.041542 -0.009326 230037.000000 0 0 1
14.369537 29.218542 11.084409 34.395798 1.113734 1.242680 0.032111 -0.002701 -118363.000000 0 0 1
14.943037 30.277792 11.816709 35.772527 1.112337 1.234144 0.046122 -0.019587 7714.230000 0 0 1
14.382937 30.501902 13.105509 36.179957 1.130173 1.200136 0.044442 -0.010471 -60707.000000 0 0 1
15.289637 31.369722 14.028809 37.611700 1.117279 1.188566 0.048156 -0.008304 1285720.000000 0 0 1
16.543837 30.745942 14.429309 37.778518 1.077149 1.178897 0.046365 -0.012116 764067.000000 0 0 1
17.262637 31.704792 15.173409 39.158968 1.072201 1.172897 0.054343 -0.009820 61172.500000 0 0 1
18.512537 31.004542 15.780609 39.408416 1.032518 1.158802 0.052245 -0.018218 -240353.000000 0 0 1
19.597137 30.690762 14.993609 39.379931 1.002523 1.180197 0.049525 -0.013966 -569527.000000 0 0 1
19.857737 29.293822 15.039009 38.452952 0.975070 1.168968 0.039963 -0.012767 -65467.800000 0 0 1
21.152237 28.838572 14.325909 38.526770 0.937958 1.189803 0.071219 -0.023229 56076.700000 0 0 1
22.297237 29.258352 15.046609 39.744413 0.919608 1.182530 0.087319 -0.024613 -36451.400000 0 0 1
23.477037 29.073562 14.252909 39.994858 0.891496 1.206418 0.086291 -0.020014 66010.100000 0 0 1
24.668737 29.285012 15.207809 41.199951 0.870750 1.192732 0.095523 -0.018491 -484924.000000 0 0 1
24.687737 28.328232 16.198409 40.918963 0.853958 1.163786 0.084821 -0.010543 265043.000000 0 0 1
25.740537 28.624602 17.104909 42.125064 0.838398 1.152668 0.075531 -0.016011 720777.000000 0 0 1
26.701137 27.383092 17.434709 42.032767 0.798007 1.143086 0.043270 0.003950 506518.000000 0 0 1
26.062437 26.292612 18.072209 41.196563 0.789795 1.116664 0.055581 0.009054 122619.000000 0 0 1
25.844437 26.352162 19.525209 41.756498 0.795125 1.084226 0.080012 0.005280 180076.000000 0 0 1
25.227437 25.006042 20.044309 40.786027 0.780991 1.057042 0.078484 0.000766 -75090.700000 0 0 1
26.127237 23.900242 20.012109 40.673561 0.740912 1.056391 0.056582 0.000746 142710.000000 0 0 1
25.469237 22.635802 20.031809 39.526383 0.726565 1.039332 0.057013 0.000237 565590.000000 0 0 1
26.423837 21.386702 20.308709 39.598660 0.680429 1.032279 0.033919 -0.003076 547934.000000 0 0 1
25.704337 20.136402 20.291209 38.443735 0.664528 1.014769 0.017558 0.007463 76840.600000 0 0 1
26.430237 18.928302 20.236009 38.292742 0.621490 1.014016 0.022463 -0.011293 159349.000000 0 0 1
27.195337 18.449402 21.541809 39.293973 0.596084 0.990560 0.034331 -0.008510 279703.000000 0 0 1
26.298137 17.954302 22.510909 38.996025 0.599035 0.955425 0.018555 0.001861 313599.000000 0 0 1
26.939437 17.567102 23.719809 39.962053 0.577847 0.935323 0.044118 0.004147 -406533.000000 0 0 1
26.012737 16.771202 24.603509 39.538189 0.572662 0.899155 0.025043 0.006792 -366706.000000 0 0 1
25.783637 15.469302 24.120909 38.547548 0.540394 0.894711 0.033808 -0.002548 95350.000000 0 0 1
24.813737 14.868002 24.923309 38.183116 0.539820 0.859612 0.043276 0.000491 -16829.400000 0 0 1
23.981537 13.696202 24.314909 36.795582 0.518909 0.848898 0.043671 -0.005526 343281.000000 0 0 1
22.790837 13.298302 24.979609 36.335216 0.528194 0.812788 0.017981 0.001979 330727.000000 0 0 1
22.271837 12.249202 24.228409 35.115431 0.502833 0.809356 0.033249 -0.006879 -43392.000000 0 0 1
20.987037 11.551302 24.771009 34.459994 0.503152 0.768673 0.044029 -0.006329 -18533.700000 0 0 1
19.927837 12.450402 24.847909 34.198681 0.558437 0.757472 0.066997 -0.009278 -566556.000000 0 0 1
18.699737 11.767802 24.756609 33.182089 0.561688 0.728636 0.086098 -0.012072 616062.000000 0 0 1
17.407337 12.651302 24.924809 32.928968 0.628474 0.712199 0.078324 -0.023689 621560.000000 0 0 1
17.202537 13.210302 26.231709 34.037361 0.654876 0.690898 0.096108 -0.009455 -424522.000000 0 0 1
16.030337 13.944702 26.241109 33.764215 0.715931 0.680613 0.109056 -0.013732 -618965.000000 0 0 1
15.683537 14.345202 27.686409 34.904089 0.740859 0.654727 0.097238 0.002129 -35066.000000 0 0 1
15.370637 13.187502 28.474009 34.941893 0.709101 0.618247 0.098854 0.001983 117610.000000 0 0 1
15.332237 13.428902 29.886709 36.174968 0.719317 0.598519 0.081823 0.000067 -1556790.000000 0 0 1
16.610237 12.949202 30.506609 37.070676 0.662172 0.604245 0.076722 0.002482 -1121460.000000 0 0 1
17.503837 14.020802 30.312309 37.706807 0.675358 0.636981 0.095011 -0.003587 1018540.000000 0 0 1
18.883637 13.615102 30.082809 38.038640 0.624681 0.658602 0.081623 0.006573 1041250.000000 0 0 1
19.820037 14.851102 29.961209 38.872396 0.643051 0.690766 0.086726 0.009367 -123878.000000 0 0 1
19.886737 15.490802 28.673509 38.178756 0.661774 0.721171 0.094354 -0.000556 387295.000000 0 0 1
20.329337 14.635402 27.580509 37.258038 0.623967 0.737344 0.074242 0.002598 -469584.000000 0 0 1
20.060737 15.348102 26.248009 36.427399 0.653084 0.766191 0.069446 -0.003721 46594.100000 0 0 1
21.108837 16.198302 25.784009 37.051088 0.654526 0.801118 0.067561 -0.005789 465698.000000 0 0 1
20.859137 16.797302 24.494409 36.293650 0.677948 0.829974 0.045685 -0.014058 -606899.000000 0 0 1
22.030237 17.629402 24.026609 37.059481 0.674885 0.865413 0.044277 -0.011903 -771225.000000 0 0 1
21.820137 18.242502 22.785309 36.442798 0.696333 0.895364 0.043028 -0.019520 144572.000000 0 0 1
23.023237 18.720802 22.210509 37.065409 0.682694 0.928264 0.046210 -0.013243 183127.000000 0 0 1
23.548037 20.065002 22.791409 38.426068 0.705705 0.935863 0.066630 -0.013762 43278.500000 0 0 1
22.661137 21.151102 22.411509 38.251431 0.750946 0.944806 0.059760 -0.011136 635185.000000 0 0 1
22.944337 22.422502 23.014509 39.482639 0.773896 0.948501 0.081455 -0.013648 -451489.000000 0 0 1
21.877537 23.414172 22.606109 39.215893 0.819313 0.956415 0.074490 -0.023745 -393661.000000 0 0 1
21.982737 23.921472 21.311309 38.854207 0.827607 0.990234 0.094661 -0.019353 -540576.000000 0 0 1
21.108037 24.967522 21.141509 38.934429 0.868967 0.996787 0.092459 -0.022303 -823955.000000 0 0 1
21.562737 26.043572 20.212109 39.392241 0.879244 1.032005 0.093302 -0.020491 -386082.000000 0 0 1
21.579537 25.585112 18.816009 38.396830 0.870122 1.058660 0.090254 -0.019499 86364.300000 0 0 1
21.968837 26.556712 17.883209 38.829086 0.879664 1.092168 0.086651 -0.022207 -129398.000000 0 0 1
21.987237 25.997122 16.429009 37.804778 0.868771 1.121230 0.066932 -0.006658 186769.000000 0 0 1
20.729737 25.558702 15.943809 36.567394 0.889346 1.119634 0.055613 -0.005906 -87726.600000 0 0 1
20.860437 25.116252 14.622209 35.774194 0.877700 1.149727 0.060372 -0.001166 729519.000000 0 0 1
19.476337 24.542902 14.104209 34.360012 0.899993 1.147812 0.053773 -0.002636 1826730.000000 0 0 1
18.433837 25.481852 13.731309 34.317342 0.944531 1.159140 0.045779 0.001478 648089.000000 0 0 1
17.744937 26.012442 14.865009 34.820948 0.972137 1.129736 0.050947 -0.010868 -621406.000000 0 0 1
16.212837 25.928562 14.805309 33.975632 1.011989 1.119911 0.041754 -0.009974 -562617.000000 0 0 1
15.592337 24.662202 14.636209 32.642975 1.007010 1.105853 0.043498 -0.005353 173487.000000 0 0 1
15.328237 23.890582 15.838109 32.504776 1.000348 1.061853 0.059604 -0.005038 -388499.000000 0 0 1
14.210137 24.449932 16.707009 32.845872 1.044320 1.037182 0.099880 -0.023714 -979978.000000 0 0 1
14.543537 25.655852 17.375909 34.229511 1.055093 1.038365 0.090927 -0.025805 28358.500000 0 0 1
13.494737 26.187072 18.162109 34.608278 1.094968 1.018327 0.099626 -0.032647 -70904.500000 0 0 1
13.952437 27.433542 18.945209 36.141260 1.100300 1.019022 0.107549 -0.042954 -179901.000000 0 0 1
14.217437 28.510302 18.070409 36.626664 1.108208 1.054839 0.102301 -0.035608 132387.000000 0 0 1
14.772537 29.555452 18.832909 38.031974 1.107289 1.052747 0.083311 -0.030500 -500241.000000 0 0 1
14.801337 30.887372 18.095109 38.736834 1.123924 1.084755 0.068667 -0.031146 -1387670.000000 0 0 1
13.581137 31.456352 17.883209 38.649172 1.163226 1.089751 0.081909 -0.025025 -1246010.000000 0 0 1
13.598137 32.778795 17.334809 39.494991 1.177558 1.116409 0.063776 -0.025446 -166811.000000 0 0 1
12.166137 33.352688 17.356909 39.518084 1.221022 1.116072 0.081361 -0.029799 -135296.000000 0 0 1
11.855237 -33.622500 16.768109 39.397825 -1.231809 1.131160 0.076672 -0.021634 -639920.000000 0 0 1
12.399337 -32.381110 17.063409 38.645048 -1.205101 1.113480 0.067656 -0.023607 -342985.000000 0 0 1
12.272237 -32.008370 18.589109 38.996134 -1.204675 1.073910 0.086782 -0.030952 400664.000000 0 0 1
13.232637 -32.725290 19.413309 40.285529 -1.186541 1.067983 0.094482 -0.032583 713825.000000 0 0 1
12.996737 -32.555320 20.795309 40.757930 -1.190962 1.035362 0.092426 -0.030808 -29776.500000 0 0 1
14.170637 -33.085820 21.664209 42.009718 -1.166134 1.028977 0.094062 -0.029794 1553880.000000 0 0 1
15.398037 -32.287680 21.500609 41.735716 -1.125798 1.029601 0.097211 -0.027730 627781.000000 0 0 1
16.380737 -32.822950 22.306909 42.933353 -1.107898 1.024448 0.101271 -0.023970 345284.000000 0 0 1
17.838737 -32.294250 22.057109 42.984359 -1.066127 1.031954 0.113207 -0.029288 878150.000000 0 0 1
17.983737 -30.939570 22.445109 42.242806 -1.044275 1.010620 0.123261 -0.033105 1074420.000000 0 0 1
19.317137 -30.376960 22.335709 42.365025 -1.004387 1.015470 0.129482 -0.030318 782611.000000 0 0 1
-4.630063 13.447710 18.075291 22.999881 -1.239207 0.666668 0.012852 0.007272 -326791.000000 0 1 0
-4.411263 14.692810 17.445791 23.231305 -1.279126 0.721281 0.007945 -0.001524 -71917.600000 0 1 0
-5.534663 15.549110 17.567691 24.104586 -1.228833 0.754212 0.012539 -0.002148 -22845.000000 0 1 0
-5.173863 17.038210 17.419191 24.909791 -1.275983 0.796391 0.016002 -0.002986 3781.340000 0 1 0
-4.573563 17.516810 18.622991 25.972522 -1.315402 0.771269 0.008792 0.001425 328258.000000 0 0 1
-4.263263 18.859110 18.577591 26.813585 -1.348475 0.805373 0.011643 -0.007074 -781982.000000 0 0 1
-3.570963 19.342410 19.861191 27.952594 -1.388234 0.780543 0.002143 -0.004720 131371.000000 0 0 1
-4.570263 19.650510 20.822291 28.993062 -1.342281 0.769610 0.000943 -0.011776 543617.000000 0 0 1
-4.037363 20.414010 21.869091 30.187568 -1.375542 0.760574 0.003926 -0.005896 152477.000000 0 0 1
-5.113363 20.585710 22.977391 31.271048 -1.327330 0.745452 0.011298 -0.006706 335685.000000 0 0 1
-5.427263 19.342110 23.599971 30.992435 -1.297238 0.705210 0.016457 -0.014557 -132418.000000 0 0 1
-6.392263 19.433910 24.637291 32.023960 -1.253020 0.692990 0.014721 -0.016545 184386.000000 0 0 1
-5.916163 19.976710 26.074731 33.376062 -1.282873 0.674146 0.014670 -0.019512 -750623.000000 0 0 1
-5.715063 21.325710 26.065561 34.159352 -1.308959 0.702765 0.018630 -0.019105 -333694.000000 0 0 1
-4.567963 21.894910 26.630941 34.777297 -1.365115 0.698580 0.031375 -0.014774 948723.000000 0 0 1
-3.134263 21.493710 26.092311 33.950138 -1.425995 0.694228 0.042996 -0.011388 490844.000000 0 0 1
-2.659663 20.200010 26.377161 33.329699 -1.439883 0.657699 0.051805 -0.011320 708747.000000 0 0 1
-1.278963 20.013710 26.016081 32.848452 -1.506979 0.656713 0.052217 -0.004097 954589.000000 0 0 1
-0.607163 18.800910 26.692661 32.654877 -1.538513 0.613883 0.055318 -0.001471 -217233.000000 0 0 1
-0.940963 17.569910 26.114091 31.488615 -1.517292 0.592909 0.052722 -0.002985 -104167.000000 0 0 1
-0.243863 16.450910 26.646451 31.316533 -1.555974 0.553148 0.049793 -0.000967 632524.000000 0 0 1
1.257637 16.232410 26.276111 30.911273 1.493474 0.554717 0.047058 0.001276 240911.000000 0 0 1
1.544437 15.799510 24.944941 29.567886 1.473354 0.566751 0.038524 0.009300 -163421.000000 0 0 1
1.222137 14.432210 24.652891 28.592785 1.486317 0.531186 0.047097 0.007027 -51415.000000 0 0 1
1.224837 14.030710 23.142841 27.091551 1.483720 0.546698 0.029767 0.009745 451457.000000 0 0 1
2.533337 14.041010 22.583891 26.713290 1.392293 0.563449 0.029918 0.003896 142657.000000 0 0 1
2.523737 13.590010 21.251791 25.351454 1.387183 0.576663 0.020833 -0.001598 -358949.000000 0 0 1
3.927737 13.345710 20.718791 24.956029 1.284571 0.591309 0.014191 -0.008643 -256131.000000 0 1 0
4.475437 14.478010 20.034591 25.120254 1.270994 0.647578 0.017909 -0.011543 -313744.000000 0 0 1
5.873537 14.321010 19.973991 25.269548 1.181584 0.659274 0.020296 -0.009720 -75182.500000 0 0 1
6.572737 15.560210 19.307291 25.653313 1.171124 0.718759 0.034075 -0.017371 -164737.000000 0 0 1
6.304337 15.476910 17.932591 24.512389 1.183980 0.750171 0.041729 -0.027774 100595.000000 0 1 0
6.781337 16.610910 17.197591 24.852887 1.183202 0.806574 0.041266 -0.019047 130789.000000 0 1 0
6.668437 16.367010 15.667691 23.618290 1.183900 0.845481 0.037786 -0.016515 136663.000000 0 1 0
7.614437 15.435410 15.159491 22.935599 1.112515 0.848700 0.036795 -0.014549 20672.200000 0 1 0
7.581437 14.076510 15.567491 22.315311 1.076757 0.798733 0.039592 -0.024378 149298.000000 0 1 0
8.640337 13.151210 14.850891 21.636975 0.989516 0.814316 0.037921 -0.031194 1515990.000000 0 1 0
9.978037 13.629510 15.132691 22.678692 0.938856 0.840266 0.040729 -0.035674 1646220.000000 0 1 0
11.003237 12.886910 14.422591 22.252074 0.864083 0.865649 0.042440 -0.024710 875873.000000 0 1 0
12.439037 13.420810 14.380991 23.273605 0.823345 0.904715 0.043046 -0.018986 119747.000000 0 1 0
13.242737 13.170210 15.542891 24.298271 0.782652 0.876727 0.042264 -0.019900 2184350.000000 0 1 0
14.597137 13.757010 15.553591 25.382000 0.755777 0.911222 0.042297 -0.017925 2449760.000000 0 0 1
15.704037 12.973310 14.773391 25.163001 0.690462 0.943315 0.053278 -0.022483 -412039.000000 0 0 1
17.019737 13.388210 15.000391 26.342500 0.666534 0.964976 0.050656 -0.029090 -410080.000000 0 0 1
17.836337 12.995110 13.946591 26.105846 0.629648 1.007197 0.047474 -0.027016 -341432.000000 0 0 1
19.256437 13.595310 14.111591 27.473256 0.614751 1.031365 0.036025 -0.027786 -349216.000000 0 0 1
19.903037 13.148210 15.227491 28.299872 0.583800 1.002643 0.020790 -0.030872 -84775.500000 0 0 1
21.278037 13.482010 15.045691 29.340965 0.564768 1.032367 0.032408 -0.031828 330913.000000 0 0 1
22.151837 13.181910 16.277991 30.486712 0.536787 1.007546 0.032442 -0.031519 -62326.000000 0 0 1
22.214037 11.861810 16.678891 30.205155 0.490459 0.985811 0.040899 -0.027108 493306.000000 0 0 1
23.195637 11.764910 17.715791 31.469031 0.469394 0.972834 0.032200 -0.027325 8300.760000 0 0 1
23.480137 10.293410 18.037191 31.346632 0.413156 0.957690 0.051284 -0.019682 -78961.600000 0 0 1
22.302437 9.613710 18.438791 30.492804 0.406993 0.921416 0.035452 -0.021474 421204.000000 0 0 1
22.215237 8.392610 17.765191 29.657287 0.361211 0.928525 0.035438 -0.007071 -79083.300000 0 0 1
21.061737 7.513710 18.280091 28.882768 0.342673 0.885495 0.068751 -0.008819 -111068.000000 0 0 1
21.161737 6.228610 17.690991 28.276949 0.286250 0.894854 0.081350 -0.017444 -15884.100000 0 0 1
20.340837 5.336010 18.352791 27.911424 0.256549 0.853251 0.076773 -0.019301 -598729.000000 0 0 1
20.129837 3.981410 17.610991 27.040875 0.195266 0.861536 0.113898 -0.011566 -733584.000000 0 0 1
19.063437 4.047210 16.699591 25.664584 0.209196 0.862309 0.094022 -0.016872 221823.000000 0 0 1
18.925137 2.804810 15.978391 24.926627 0.147135 0.874974 0.083321 -0.018698 109944.000000 0 1 0
18.059437 1.691510 16.649191 24.621129 0.093391 0.828183 0.095203 -0.024850 -39191.800000 0 1 0
18.757737 1.050510 17.685391 25.801730 0.055946 0.815596 0.105508 -0.035056 147576.000000 0 0 1
17.845137 0.508110 18.639391 25.809571 0.028466 0.763834 0.097928 -0.028606 -22772.300000 0 0 1
18.369737 -0.401690 19.777791 26.995733 -0.021863 0.748623 0.093647 -0.034095 -29917.000000 0 0 1
18.967237 -1.644890 19.421391 27.196546 -0.086506 0.775441 0.095317 -0.029890 272075.000000 0 0 1
18.203437 -2.675190 20.035191 27.201666 -0.145916 0.742852 0.064251 -0.024522 139491.000000 0 0 1
18.217637 -3.920690 19.167291 26.732735 -0.211981 0.771312 0.054500 -0.015497 91385.400000 0 0 1
17.432537 -3.725390 17.986591 25.323691 -0.210536 0.780918 0.056802 -0.019541 347239.000000 0 0 1
17.417837 -4.942190 17.239091 24.999850 -0.276476 0.809904 0.082841 -0.019734 -546782.000000 0 1 0
16.652237 -4.834090 15.971891 23.574705 -0.282531 0.826436 0.059125 -0.017881 -185559.000000 0 1 0
15.277837 -4.480890 16.083291 22.631016 -0.285293 0.780340 0.045472 -0.008886 484139.000000 0 1 0
14.598237 -4.481790 14.818491 21.278689 -0.297875 0.800427 0.037648 -0.011983 273354.000000 0 1 0
15.068437 -3.337090 13.776191 20.687614 -0.217945 0.842077 0.038184 -0.008014 -363467.000000 0 1 0
14.507937 -2.084690 13.972191 20.249649 -0.142716 0.809312 0.035845 -0.003630 34591.900000 0 1 0
15.315537 -1.039890 13.454991 20.412834 -0.067794 0.851117 0.049903 -0.006587 145250.000000 0 1 0
14.447137 0.231110 13.558191 19.814078 0.015996 0.817193 0.052460 -0.000827 -149106.000000 0 1 0
14.912037 1.406410 12.965491 19.810370 0.094036 0.857302 0.057999 -0.003394 -735108.000000 0 1 0
15.936637 2.098010 13.551691 21.024423 0.130894 0.870337 0.077670 -0.017313 -827291.000000 0 1 0
16.094137 3.524110 12.964991 20.965008 0.215566 0.904077 0.068976 -0.017662 -341726.000000 0 1 0
15.012037 4.391010 13.159591 20.440573 0.284561 0.871346 0.057253 -0.013341 22629.700000 0 1 0
15.221337 5.611210 12.532091 20.499465 0.353184 0.913047 0.070908 -0.018551 -1059390.000000 0 1 0
14.188837 6.654510 12.684191 20.161703 0.438538 0.890372 0.063887 -0.020941 -1243400.000000 0 1 0
14.475437 7.872210 12.046891 20.411701 0.498096 0.939496 0.051101 -0.027243 -360305.000000 0 1 0
13.663237 8.959310 12.297091 20.449247 0.580389 0.925611 0.047578 -0.020286 -783718.000000 0 1 0
13.921937 9.689010 13.643291 21.767789 0.608005 0.893402 0.070556 -0.021430 882.660000 0 1 0
13.510937 9.015110 14.816291 21.984997 0.588403 0.831284 0.066965 -0.017670 379623.000000 0 1 0
13.852637 9.836610 15.922491 23.284762 0.617465 0.817817 0.069139 -0.023395 63866.800000 0 1 0
13.252537 9.331010 17.279991 23.691677 0.613467 0.753396 0.063289 -0.023570 326829.000000 0 1 0
11.901537 9.713210 17.510491 23.293997 0.684500 0.720135 0.056146 -0.031757 174845.000000 0 1 0
11.247337 9.001310 18.545491 23.483215 0.674927 0.660421 0.058724 -0.018793 -29209.900000 0 1 0
11.709537 9.289910 20.021791 24.985752 0.670681 0.641284 0.080401 -0.019864 150737.000000 0 1 0
13.040837 8.794210 20.231291 25.626289 0.593309 0.660845 0.108625 -0.024719 418959.000000 0 0 1
13.433337 9.212910 21.531391 26.998760 0.601149 0.647664 0.109963 -0.009850 -122148.000000 0 0 1
14.923637 8.907310 21.766591 27.853897 0.538107 0.673801 0.108715 -0.014492 299905.000000 0 0 1
15.817537 9.643310 20.919691 27.943181 0.547492 0.724771 0.094433 -0.011558 763488.000000 0 0 1
16.954437 8.816010 20.561991 28.070811 0.479506 0.748803 0.084909 -0.019681 404081.000000 0 0 1
17.960037 9.603510 19.724591 28.352245 0.491033 0.801406 0.078084 -0.015091 -249254.000000 0 0 1
18.768637 10.522410 20.447691 29.683175 0.510974 0.810875 0.069178 -0.021493 13063.000000 0 0 1
19.524037 11.297810 19.557391 29.854984 0.524582 0.856508 0.053712 -0.026100 -42771.500000 0 0 1
20.478337 12.236710 20.349691 31.356168 0.538612 0.864546 0.040582 -0.017365 -564708.000000 0 0 1
19.838937 13.394110 20.873291 31.759721 0.593848 0.853665 0.044952 -0.017670 34635.700000 0 0 1
20.599537 14.194710 21.720091 33.129942 0.603359 0.855815 0.036637 -0.014207 -528781.000000 0 0 1
21.790137 14.964510 21.085291 33.813253 0.601782 0.897482 0.010034 -0.011391 -631704.000000 0 0 1
22.825637 14.074510 20.770591 33.919301 0.552543 0.911763 -0.023760 -0.001386 -1427680.000000 0 0 1
23.950837 14.854410 20.587691 34.901993 0.555143 0.939897 -0.023278 -0.003290 -801599.000000 0 0 1
25.288637 14.095010 20.590791 35.526963 0.508480 0.952581 -0.010709 -0.008273 -272705.000000 0 0 1
25.485437 13.383810 19.349591 34.684874 0.483569 0.978981 -0.001063 -0.022563 360937.000000 0 0 1
26.665137 12.586110 19.420891 35.307374 0.441003 0.988370 0.035609 -0.028393 245695.000000 0 0 1
27.056237 11.885910 18.131391 34.670768 0.413924 1.020477 0.064576 -0.037414 -316518.000000 0 0 1
27.374437 12.692810 17.038991 34.652481 0.434167 1.056743 0.072272 -0.045282 189764.000000 0 0 1
27.802037 11.975510 15.896691 34.191678 0.406724 1.087242 0.106968 -0.055610 -22128.600000 0 0 1
26.668237 11.541310 14.927891 32.668618 0.408437 1.096234 0.080956 -0.059071 118679.000000 0 0 1
26.294037 12.560510 14.046891 32.349002 0.445644 1.121614 0.092662 -0.057044 -399143.000000 0 0 1
25.154537 12.169610 13.349191 30.968549 0.450599 1.125133 0.087694 -0.048462 -221298.000000 0 0 1
24.511637 13.267510 12.455291 30.528371 0.496119 1.150544 0.076575 -0.047552 17953.000000 0 0 1
24.167437 14.422410 13.217891 31.093143 0.538041 1.131717 0.048949 -0.032786 167845.000000 0 0 1
24.038337 15.572710 12.414991 31.216709 0.574847 1.161784 0.038534 -0.017776 34513.600000 0 0 1
23.176937 16.713410 13.066691 31.420485 0.624762 1.141902 0.035821 -0.013677 741551.000000 0 0 1
21.814837 16.300610 13.257691 30.288007 0.641723 1.117734 0.048903 -0.021663 640902.000000 0 0 1
20.964737 17.362710 13.639091 30.446817 0.691693 1.106309 0.045949 -0.015371 -123548.000000 0 0 1
20.167037 17.976410 12.466291 29.753472 0.728030 1.138468 0.063120 -0.006867 24428.600000 0 0 1
19.091337 17.204110 11.948991 28.341470 0.733449 1.135578 0.057474 -0.000774 -376359.000000 0 0 1
17.841437 17.579810 12.417891 27.956584 0.778012 1.110532 0.042428 -0.013578 -1091390.000000 0 0 1
16.695337 16.902510 11.659191 26.464426 0.791564 1.114573 0.048342 -0.006612 -566492.000000 0 0 1
16.438137 15.656910 12.187191 25.765845 0.761062 1.078106 0.046692 -0.002618 -789228.000000 0 0 1
15.214237 15.204810 11.776791 24.522481 0.785088 1.069863 0.046199 -0.008042 -1062530.000000 0 1 0
15.263737 14.051410 10.720691 23.352880 0.744067 1.093844 0.053898 -0.016599 -187175.000000 0 1 0
15.518137 12.757410 11.261191 23.029948 0.688070 1.059876 0.041380 -0.024840 329311.000000 0 1 0
15.891037 11.815610 10.328091 22.333901 0.639353 1.090051 0.047567 -0.020450 -272678.000000 0 1 0
16.536737 10.602010 11.033791 22.530220 0.570106 1.059013 0.066881 -0.029478 -1353760.000000 0 1 0
17.053937 9.640810 10.171391 22.073495 0.514524 1.091904 0.062439 -0.029287 337981.000000 0 1 0
17.612637 8.450610 10.696091 22.271599 0.447361 1.069849 0.058531 -0.029715 244300.000000 0 1 0
18.911637 8.669610 11.521491 23.781440 0.429840 1.065034 0.059702 -0.027343 -720002.000000 0 1 0
18.667737 9.400410 12.736291 24.475809 0.466495 1.023521 0.056751 -0.027215 1009130.000000 0 1 0
19.779537 9.471210 13.683791 25.849178 0.446576 1.012938 0.060780 -0.027579 566472.000000 0 0 1
19.135237 9.757910 15.088091 26.249278 0.471572 0.958436 0.041797 -0.020236 741436.000000 0 0 1
18.503837 8.715610 15.859091 25.881742 0.440193 0.911258 0.058894 -0.017135 1550510.000000 0 0 1
17.431337 7.951810 15.217391 24.467361 0.427981 0.899570 0.070110 -0.024190 597356.000000 0 1 0
16.861837 6.747710 15.990291 24.197986 0.380659 0.848898 0.070463 -0.019662 -1213860.000000 0 1 0
16.294937 7.120610 17.234691 24.764140 0.411976 0.801049 0.089525 -0.016455 224882.000000 0 1 0
15.592937 6.036110 17.819991 24.436169 0.369341 0.753576 0.086626 0.003662 1011270.000000 0 1 0
14.383637 5.422310 16.972791 22.899041 0.360503 0.735939 0.087846 -0.025606 -589433.000000 0 1 0
13.787037 4.351610 17.663391 22.825737 0.305734 0.685920 0.075538 -0.011730 -38243.000000 0 1 0
13.189737 3.550910 16.658791 21.542828 0.262983 0.686787 0.063687 -0.009292 -157324.000000 0 1 0
13.088437 2.080310 17.077591 21.616636 0.157624 0.659954 0.060019 -0.003812 -367114.000000 0 1 0
14.303737 1.424810 17.324191 22.511209 0.099284 0.692612 0.063961 -0.005941 -290200.000000 0 1 0
14.258737 0.023110 17.176291 22.323464 0.001621 0.692852 0.062402 -0.000944 -299293.000000 0 1 0
13.302337 -0.903590 17.944391 22.355531 -0.067823 0.639017 0.051620 -0.006047 196750.000000 0 1 0
11.925337 -0.712890 17.663891 21.324514 -0.059708 0.594663 0.043401 -0.002398 122595.000000 0 1 0
11.128137 -1.635890 18.390991 21.557831 -0.145959 0.548898 0.041936 -0.015227 202150.000000 0 1 0
-25.749273 14.138710 28.627471 41.017805 -0.502146 0.798296 0.073103 -0.006887 -71259.300000 0 0 1
-24.873163 14.095810 29.755751 41.264644 -0.515580 0.765414 0.068210 -0.010352 58205.500000 0 0 1
-24.067963 12.965610 29.720511 40.381712 -0.494133 0.743669 0.045402 -0.005025 -617744.000000 0 0 1
-23.026163 13.035410 30.851231 40.643875 -0.515130 0.708925 0.049754 -0.017024 -536210.000000 0 0 1
-23.507063 13.044410 32.189989 41.939648 -0.506609 0.695815 0.041124 -0.017746 -236895.000000 0 0 1
-22.470063 13.081210 33.131057 42.115185 -0.527200 0.665388 0.036749 -0.009872 -310465.000000 0 0 1
-22.996163 13.316310 -33.553211 42.801467 -0.524885 2.471762 0.050842 -0.013953 24770.400000 0 0 1
-23.658863 12.141110 -33.121031 42.475299 -0.474131 2.465097 0.025834 -0.002402 194467.000000 0 0 1
-24.322863 12.364210 -31.888321 41.968326 -0.470295 2.433831 0.035039 -0.007704 129727.000000 0 0 1
-25.121433 11.160110 -31.296571 41.654649 -0.418059 2.420878 0.026252 -0.005505 -132561.000000 0 0 1
-24.388063 10.264510 -30.511541 40.386779 -0.398378 2.427188 0.053090 -0.016499 23143.500000 0 0 1
-23.726263 9.253110 -31.247031 40.310452 -0.371851 2.457764 0.030316 -0.011227 66428.000000 0 0 1
-22.844363 8.383710 -30.284721 38.849914 -0.351732 2.464713 0.030911 0.002144 5603.830000 0 0 1
-23.578863 7.462010 -29.471181 38.473301 -0.306498 2.443417 0.035570 0.001715 290898.000000 0 0 1
-22.785763 6.735210 -28.557571 37.149548 -0.287405 2.447633 0.022770 0.013361 -414558.000000 0 0 1
-23.583163 5.745610 -27.717661 36.843539 -0.238976 2.422354 0.024980 0.007284 -245640.000000 0 0 1
-24.040463 4.601810 -28.415481 37.504134 -0.189132 2.430521 0.053859 -0.004006 254561.000000 0 0 1
-24.547863 3.657510 -27.490611 37.036585 -0.147907 2.407226 0.088225 0.000332 -879151.000000 0 0 1
-24.991963 2.349410 -28.218131 37.767458 -0.093731 2.414567 0.102498 0.000717 1092340.000000 0 0 1
-26.371143 2.312710 -28.655521 39.011853 -0.087475 2.395776 0.126987 -0.020772 1232810.000000 0 0 1
-26.743423 3.346210 -29.551471 39.996215 -0.124476 2.402168 0.106034 -0.013876 -1643900.000000 0 0 1
-28.125873 3.311010 -30.166621 41.376957 -0.117182 2.387756 0.141311 -0.020324 -455774.000000 0 0 1
-29.222333 3.504710 -29.221241 41.474193 -0.119362 2.352605 0.113813 -0.025487 886747.000000 0 0 1
-30.458903 3.445410 -29.900411 42.821142 -0.112638 2.343764 0.113780 -0.022170 80318.000000 0 0 1
-30.929063 4.751110 -30.593061 43.762031 -0.152422 2.344903 0.131522 -0.035386 -1029310.000000 0 0 1
-30.198043 5.055410 -31.757871 44.113959 -0.165870 2.374462 0.136064 -0.031601 -61420.400000 0 0 1
-30.344823 6.353110 -32.316831 44.783344 -0.206383 2.376945 0.129073 -0.033777 -432636.000000 0 0 1
-30.107823 7.607810 -31.460891 44.205740 -0.247505 2.362701 0.104156 -0.029695 210086.000000 0 0 1
-28.774663 7.787410 -30.979891 42.992774 -0.264303 2.375440 0.058811 -0.028840 591255.000000 0 0 1
-28.433223 7.109910 -29.768271 41.774980 -0.245032 2.363974 0.051762 -0.021166 -929362.000000 0 0 1
-28.628933 7.916310 -28.477981 41.149474 -0.269774 2.335138 0.039036 -0.010815 2944.600000 0 0 1
-29.922383 8.247910 -28.006411 41.805934 -0.268964 2.304890 0.065523 -0.013992 -173386.000000 0 0 1
-30.614333 7.173810 -27.481161 41.760210 -0.230175 2.289050 0.077801 -0.007416 -648785.000000 0 0 1
-31.885283 7.664210 -26.742911 42.315419 -0.235893 2.254914 0.064397 -0.005270 -197716.000000 0 0 1
-31.723233 8.552110 -25.700881 41.713756 -0.263325 2.234610 0.009965 0.003313 -284867.000000 0 0 1
-31.437673 7.961810 -24.450291 40.614461 -0.248042 2.216812 0.021314 0.000539 -152409.000000 0 0 1
-30.971483 8.972710 -23.448891 39.869698 -0.281989 2.199551 0.012412 -0.003686 -977548.000000 0 0 1
-31.941493 9.675210 -22.779891 40.407822 -0.294119 2.169715 0.007784 0.001583 -466089.000000 0 0 1
-31.356773 10.717210 -22.012791 39.782770 -0.329336 2.157147 0.016465 -0.000123 -461462.000000 0 0 1
-32.345193 11.513310 -21.171491 40.336086 -0.341967 2.123367 0.005072 -0.001022 -413342.000000 0 0 1
-32.709283 10.935210 -19.912591 39.824456 -0.322634 2.094406 0.005304 -0.007385 238593.000000 0 0 1
-33.341693 11.852110 -19.028791 40.177555 -0.341543 2.064190 -0.002972 -0.005265 -291868.000000 0 0 1
-32.396013 12.809410 -18.294291 39.347983 -0.376535 2.054359 0.009178 -0.008742 -102144.000000 0 0 1
-31.659363 12.335210 -17.146391 38.058789 -0.371529 2.038148 0.036419 -0.007881 807619.000000 0 0 1
-32.414843 11.895510 -15.954791 38.036569 -0.351719 2.003646 0.032258 -0.005340 51631.300000 0 0 1
-32.893973 13.055610 -15.066191 38.463652 -0.377831 1.973274 0.025633 0.005409 -249656.000000 0 0 1
-33.845663 13.839810 -15.768391 39.820992 -0.388163 1.977933 0.009009 0.006690 206750.000000 0 0 1
-34.448522 14.780110 -14.883891 40.332153 -0.405295 1.948765 -0.003979 0.013225 181986.000000 0 0 1
-35.109382 15.983510 -15.617391 41.617835 -0.427210 1.955471 -0.007072 0.001114 364581.000000 0 0 1
-36.105703 15.555910 -16.536891 42.650638 -0.406810 1.968963 -0.008507 -0.008970 179936.000000 0 0 1
36.579121 16.628310 -16.924391 43.600090 0.426660 1.969445 -0.006708 -0.007596 -515619.000000 0 0 1
36.001921 16.573310 -18.323391 43.664169 0.431424 2.003849 -0.004078 -0.006827 -30451.500000 0 0 1
34.990691 15.617010 -18.601991 42.594290 0.419789 2.022751 0.041666 -0.015046 569833.000000 0 0 1
33.718451 16.262610 -18.575391 41.790568 0.449392 2.031399 0.089927 -0.020002 -414427.000000 0 0 1
32.548001 15.312010 -18.801791 40.587404 0.439724 2.052446 0.120962 -0.029696 -512019.000000 0 0 1
32.353621 14.898210 -20.154891 40.925947 0.431535 2.085724 0.110907 -0.028897 -10260.500000 0 0 1
31.612351 13.711110 -20.305091 39.995400 0.409239 2.103293 0.085965 -0.022308 -311349.000000 0 0 1
32.320081 12.334910 -20.079191 39.998895 0.364587 2.096699 0.086961 -0.006351 -184730.000000 0 0 1
32.530121 12.150710 -18.719591 39.449609 0.357474 2.065214 0.117154 -0.009490 -37191.300000 0 0 1
33.008631 10.860410 -18.528291 39.380399 0.317861 2.060648 0.089833 -0.007774 -370532.000000 0 0 1
33.247271 10.586410 -17.007291 38.816248 0.308264 2.024335 0.087534 -0.004901 274680.000000 0 0 1
32.044471 10.761310 -16.261191 37.511069 0.323991 2.019174 0.098272 -0.008595 568681.000000 0 0 1
32.327791 10.516610 -14.906491 37.119923 0.314514 1.984034 0.056531 -0.008749 256863.000000 0 0 1
31.383101 11.206210 -13.896391 36.105233 0.342966 1.965880 0.085644 -0.014968 1053980.000000 0 0 1
29.957681 10.981410 -13.935291 34.817329 0.351354 1.982575 0.103739 -0.012346 1190420.000000 0 0 1
29.386871 11.881710 -13.010291 34.264135 0.384225 1.960275 0.115359 -0.016011 -979293.000000 0 0 1
27.875481 11.936410 -13.016091 32.999075 0.404582 1.976253 0.135056 -0.004974 -933661.000000 0 0 1
27.275181 10.833910 -12.304291 31.823022 0.378097 1.967790 0.127011 -0.017029 592065.000000 0 0 1
25.879981 10.703010 -12.579991 30.701532 0.392144 1.992978 0.124643 -0.003505 124547.000000 0 0 1
25.433881 10.008910 -13.868691 30.649652 0.374913 2.040353 0.121416 -0.016443 -541601.000000 0 0 1
25.891881 8.638110 -14.024391 30.686968 0.322011 2.045432 0.113905 -0.016569 134523.000000 0 0 1
27.224581 8.524210 -14.448091 31.977919 0.303438 2.039595 0.126376 -0.023379 -713875.000000 0 0 1
27.944481 7.357410 -13.761691 32.006400 0.257444 2.015252 0.122519 -0.020146 -430253.000000 0 0 1
27.461481 5.993210 -13.866891 31.342339 0.214872 2.029106 0.119379 -0.031151 593340.000000 0 0 1
26.384681 5.740710 -12.951391 29.947382 0.214238 2.018028 0.124920 -0.033233 141127.000000 0 0 1
25.935581 4.293410 -13.038291 29.344246 0.164054 2.031214 0.120617 -0.031266 -298827.000000 0 0 1
25.308181 3.872010 -11.846591 28.210605 0.151817 2.004169 0.117231 -0.035037 366433.000000 0 0 1
24.894481 2.518510 -11.926291 27.718487 0.100824 2.015582 0.109505 -0.039079 -54997.300000 0 0 1
24.104781 1.991110 -10.679191 26.439556 0.082415 1.986583 0.109209 -0.040921 283136.000000 0 0 1
24.893681 1.875510 -9.478991 26.703262 0.075199 1.933684 0.111472 -0.029956 900132.000000 0 0 1
24.063481 1.772810 -8.332791 25.527033 0.073539 1.903321 0.114866 -0.019697 -218969.000000 0 0 1
24.894081 1.395610 -7.056991 25.912625 0.056003 1.846618 0.118780 -0.016603 -76705.300000 0 0 1
25.051781 0.013210 -6.806491 25.959974 0.000527 1.836089 0.099922 -0.025033 115944.000000 0 0 1
26.073581 -0.534690 -7.597991 27.163339 -0.020504 1.854293 0.093239 -0.026058 -693229.000000 0 0 1
26.246481 -2.057190 -7.257991 27.309124 -0.078220 1.839801 0.082315 -0.035516 -261100.000000 0 0 1
26.812881 -2.283590 -5.982891 27.567016 -0.084963 1.789568 0.090117 -0.041348 449228.000000 0 0 1
26.847681 -3.659790 -5.612791 27.671203 -0.135482 1.775052 0.097055 -0.044564 -1138830.000000 0 0 1
28.140581 -4.179890 -5.025391 28.889762 -0.147458 1.745636 0.080076 -0.032352 -392321.000000 0 0 1
29.288051 -4.190790 -5.851291 30.159414 -0.142124 1.766047 0.096266 -0.024936 815013.000000 0 0 1
30.483451 -4.537290 -5.138091 31.244644 -0.147760 1.735994 0.120531 -0.028694 770628.000000 0 0 1
31.693311 -4.762890 -6.083291 32.621428 -0.149164 1.758376 0.125367 -0.023220 -58317.300000 0 0 1
31.396061 -5.778490 -6.976791 32.676891 -0.182014 1.785961 0.111612 -0.015025 -12939.100000 0 0 1
32.214651 -5.718990 -8.142391 33.716304 -0.175697 1.814705 0.113220 -0.021936 -1090980.000000 0 0 1
31.723931 -6.573890 -9.354391 33.721336 -0.204330 1.851886 0.099018 -0.021263 620778.000000 0 0 1
30.452421 -6.169190 -9.856991 32.597073 -0.199879 1.877994 0.096532 -0.018113 1465780.000000 0 0 1
29.324621 -6.386290 -8.960091 31.320941 -0.214431 1.860923 0.101482 -0.017167 -959712.000000 0 0 1
28.184581 -5.435690 -9.194491 30.140604 -0.190521 1.880791 0.093143 -0.017961 -1275950.000000 0 0 1
27.368281 -5.697390 -10.303291 29.793303 -0.205244 1.923915 0.078557 -0.015763 455477.000000 0 0 1
26.159981 -4.938990 -10.242291 28.524424 -0.186603 1.938069 0.078777 -0.019589 -56132.500000 0 0 1
24.953281 -5.685290 -9.717991 27.375685 -0.224013 1.933696 0.102083 -0.016289 -1636010.000000 0 0 1
25.034481 -5.948090 -8.289991 27.033849 -0.233271 1.882470 0.091977 -0.024804 485363.000000 0 0 1
23.931881 -6.610190 -7.683191 25.989632 -0.269489 1.870906 0.093592 -0.027056 -228638.000000 0 0 1
22.793881 -5.647390 -7.311091 24.594839 -0.242868 1.872619 0.114822 -0.013879 -544487.000000 0 1 0
22.165781 -5.102090 -8.444691 24.262440 -0.226238 1.926293 0.107280 -0.013044 208532.000000 0 1 0
21.731581 -3.781790 -8.172391 23.523425 -0.172297 1.925609 0.089745 -0.018934 -130349.000000 0 1 0
21.721181 -2.841790 -9.400691 23.838173 -0.130091 1.976162 0.096251 -0.012902 -229686.000000 0 1 0
23.035081 -2.799190 -9.893391 25.225575 -0.120926 1.973815 0.097157 -0.018936 338277.000000 0 0 1
23.139081 -1.994090 -11.044691 25.717284 -0.085966 2.014697 0.111954 -0.018956 -505469.000000 0 0 1
24.496681 -2.111690 -11.747691 27.249860 -0.085991 2.016519 0.092399 -0.026105 -295857.000000 0 0 1
25.460981 -1.245090 -11.153491 27.824669 -0.048863 1.983240 0.093953 -0.033639 624606.000000 0 0 1
26.697481 -1.345090 -11.844091 29.237771 -0.050340 1.987880 0.087828 -0.031766 -337772.000000 0 0 1
27.615381 -0.193090 -11.442491 29.892761 -0.006992 1.963605 0.075335 -0.024115 -376403.000000 0 0 1
28.947241 -0.420590 -11.875191 31.291210 -0.014529 1.960058 0.087660 -0.026922 511146.000000 0 0 1
29.886591 0.579210 -11.567191 32.052203 0.019378 1.940014 0.089302 -0.026675 1215.030000 0 0 1
29.879801 1.876410 -12.425691 32.414831 0.062716 1.964199 0.092413 -0.026246 -470907.000000 0 0 1
30.082971 1.593610 -13.780891 33.127597 0.052924 1.999832 0.088633 -0.024038 511248.000000 0 0 1
29.986301 2.700810 -14.622491 33.470732 0.089826 2.022917 0.092233 -0.020783 -164565.000000 0 0 1
30.226101 2.323910 -16.098091 34.324427 0.076733 2.058952 0.104667 -0.020486 -146919.000000 0 0 1
29.161081 1.587710 -16.653791 33.619016 0.054393 2.089055 0.075793 -0.015366 -79631.500000 0 0 1
29.398331 1.401210 -18.056391 34.529097 0.047627 2.121084 0.063971 -0.013491 156268.000000 0 0 1
28.313981 0.641410 -18.886491 34.041041 0.022650 2.158937 0.030134 -0.003851 65410.400000 0 0 1
28.237581 -0.748190 -18.696191 33.874302 -0.026490 2.155471 0.047773 0.000583 223714.000000 0 0 1
28.149381 -1.349990 -19.936391 34.520571 -0.047921 2.186486 0.032278 0.001423 -181600.000000 0 0 1
27.928481 -2.834890 -19.909391 34.415411 -0.101159 2.187688 0.037582 0.000670 -520715.000000 0 0 1
26.622881 -3.227190 -19.579591 33.204713 -0.120630 2.201438 0.039658 0.004063 -75861.300000 0 0 1
26.359181 -4.629190 -19.502691 33.114812 -0.173847 2.200545 0.051728 -0.007976 -295136.000000 0 0 1
27.050481 -5.459290 -18.400891 33.168135 -0.199144 2.158890 0.053283 -0.004814 249221.000000 0 0 1
28.466911 -5.445490 -18.474991 34.370681 -0.189009 2.138292 0.052123 -0.010512 190433.000000 0 0 1
29.078951 -5.455190 -17.211791 34.228501 -0.185444 2.097689 0.057482 -0.013429 -241426.000000 0 0 1
30.553031 -5.018590 -17.173291 35.406156 -0.162805 2.077202 0.085420 -0.013304 -423074.000000 0 0 1
31.274821 -5.829090 -18.036291 36.570487 -0.184269 2.086552 0.062234 -0.011354 -970.228000 0 0 1
32.646411 -5.458990 -18.055491 37.703972 -0.165683 2.070169 0.072770 -0.008568 508826.000000 0 0 1
33.583221 -6.553490 -18.715991 39.000888 -0.192720 2.071321 0.061815 -0.003514 206899.000000 0 0 1
33.888341 -7.608190 -17.848191 39.049483 -0.220846 2.045490 0.076084 -0.013041 4473.650000 0 0 1
34.436471 -8.648790 -18.649891 40.105991 -0.246063 2.054448 0.065244 -0.012610 -121400.000000 0 0 1
35.367231 -9.571890 -17.838591 40.751410 -0.264311 2.023882 0.069962 -0.008385 -567257.000000 0 0 1
34.685461 -10.349190 -16.868091 39.933939 -0.289963 2.006888 0.073424 -0.008274 -20193.900000 0 0 1
35.456671 -11.215590 -16.055391 40.506056 -0.306360 1.978356 0.077530 -0.009689 -166798.000000 0 0 1
36.598401 -10.570190 -15.175991 41.005885 -0.281165 1.949905 0.084290 -0.019132 257375.000000 0 0 1
-36.237503 -11.390590 -14.234691 40.565116 0.304553 1.929339 0.082351 -0.025434 299997.000000 0 0 1
-35.658928 -12.635790 -14.609491 40.554403 0.340546 1.939326 0.068711 -0.015340 -162258.000000 0 0 1
-34.218671 -12.482290 -15.170591 39.457215 0.349781 1.965443 0.085540 -0.022919 -195153.000000 0 0 1
-34.043643 -12.011890 -16.507991 39.695956 0.339201 1.999685 0.080858 -0.014642 562001.000000 0 0 1
-32.649713 -12.016390 -16.845391 38.654425 0.352655 2.021717 0.113592 -0.022196 639884.000000 0 0 1
-32.331043 -11.028790 -17.946291 38.587562 0.328743 2.054521 0.139483 -0.022248 -51261.100000 0 0 1
-32.603493 -9.704890 -17.570191 38.286868 0.289312 2.047563 0.130149 -0.020168 939014.000000 0 0 1
-33.921663 -9.241290 -17.938791 39.470000 0.265976 2.042598 0.103635 -0.019195 727061.000000 0 0 1
-34.214359 -7.832990 -17.339191 39.148763 0.225060 2.029633 0.111766 -0.022481 200616.000000 0 0 1
-35.585666 -7.466790 -17.416691 40.316668 0.206825 2.017503 0.103066 -0.023777 392372.000000 0 0 1
-35.719162 -6.130990 -16.994591 40.028286 0.169988 2.009277 0.090118 -0.027185 -163079.000000 0 0 1
24.921037 27.549710 -27.208421 46.047180 0.835454 2.202947 0.062363 0.006894 -94489.300000 0 0 1
25.430837 26.492310 -26.433791 45.247268 0.805838 2.194700 0.053929 0.000828 -1096470.000000 0 0 1
26.629137 26.110810 -26.991351 46.037141 0.775571 2.197274 0.057264 -0.006785 -770196.000000 0 0 1
27.411437 25.133210 -26.073811 45.419255 0.742067 2.182264 0.048228 -0.001051 -28773.000000 0 0 1
27.921937 25.715810 -24.838091 45.363732 0.744291 2.150208 0.053522 0.004187 387496.000000 0 0 1
27.845537 24.775410 -23.773291 44.208192 0.727120 2.138571 0.052098 0.009039 -95772.900000 0 0 1
28.489937 25.209110 -22.429491 44.161723 0.724377 2.103535 0.041599 0.013887 -136493.000000 0 0 1
27.740937 26.123610 -21.693391 43.847529 0.755381 2.088339 0.036135 0.006681 -234767.000000 0 0 1
28.448337 26.626210 -20.600591 44.075472 0.752326 2.057136 0.012283 0.009700 147138.000000 0 0 1
27.592737 27.658610 -19.780691 43.790793 0.786590 2.039476 0.030466 0.007780 669036.000000 0 0 1
26.712337 27.019010 -18.845391 42.411373 0.791106 2.031242 0.048599 0.002588 70429.600000 0 0 1
25.985037 27.954410 -18.111191 42.245549 0.821893 2.013863 0.040648 -0.004590 -600762.000000 0 0 1
25.021037 27.370110 -17.105991 40.838586 0.830205 2.002995 0.038540 -0.005674 -672433.000000 0 0 1
23.987437 26.679810 -17.764491 40.034816 0.838487 2.030549 0.048399 0.002739 -38808.900000 0 0 1
22.852337 26.688210 -16.915591 38.995219 0.862673 2.019487 0.038430 0.013370 -304248.000000 0 0 1
21.738037 25.695310 -17.185291 37.790547 0.868634 2.042889 0.032629 0.013366 -439265.000000 0 0 1
21.182237 25.994810 -18.451191 38.273538 0.887057 2.073832 0.034786 0.010191 -321538.000000 0 0 1
20.259437 24.995610 -18.808191 37.268933 0.889674 2.099786 0.039145 0.013361 -245163.000000 0 0 1
19.651637 25.272510 -20.183691 37.845316 0.909871 2.133318 0.034854 0.010417 -19937.000000 0 0 1
18.694537 26.308410 -20.039991 37.989727 0.952997 2.126464 0.027701 0.008046 -537456.000000 0 0 1
17.812137 26.265210 -21.127191 38.124686 0.974876 2.158150 0.022480 0.002566 -289918.000000 0 0 1
16.712737 27.338510 -20.964491 38.291247 1.022091 2.150171 0.023265 -0.000127 -38250.100000 0 0 1
15.771337 26.962310 -19.961691 37.069804 1.041524 2.139440 0.034033 -0.000298 -364910.000000 0 0 1
14.925137 28.038410 -19.750491 37.403129 1.081636 2.127092 0.029282 -0.009394 -206154.000000 0 0 1
14.353337 28.143810 -18.290291 36.505165 1.099181 2.095588 0.035868 -0.008937 168767.000000 0 0 1
13.473537 27.060210 -18.039991 35.202733 1.108822 2.108843 0.047572 -0.008015 33405.900000 0 0 1
12.901337 27.208110 -16.717791 34.441404 1.128023 2.077615 0.066166 -0.012095 -423148.000000 0 0 1
12.048737 26.045210 -16.346591 33.026293 1.137507 2.088582 0.088313 -0.015859 -489601.000000 0 0 1
12.715537 24.940810 -15.840391 32.165927 1.099317 2.085709 0.066483 -0.012803 -143504.000000 0 0 1
11.794037 23.857910 -15.788491 30.944719 1.111683 2.106232 0.098819 -0.013845 578499.000000 0 0 1
12.492137 22.453610 -15.980291 30.258681 1.063089 2.127184 0.078021 -0.011071 325510.000000 0 0 1
12.769937 22.416310 -17.375691 31.104290 1.052976 2.163526 0.070750 -0.009601 -333800.000000 0 0 1
13.668537 21.390110 -17.737591 30.967529 1.002184 2.180690 0.071400 -0.012464 -66076.300000 0 0 1
13.117737 19.951310 -17.854891 29.814877 0.989176 2.212871 0.072079 -0.010409 -16686.400000 0 0 1
12.521937 19.459610 -16.676091 28.523102 0.999016 2.195247 0.070696 -0.016030 -275257.000000 0 0 1
12.128837 18.142810 -16.874891 27.586812 0.981512 2.229006 0.073302 -0.020841 -414547.000000 0 0 1
13.260937 17.091710 -16.992091 27.508365 0.910943 2.236619 0.074877 -0.019447 -183443.000000 0 0 1
13.799137 16.772010 -15.759791 26.834446 0.882338 2.198512 0.094039 -0.029113 388398.000000 0 0 1
14.915737 15.890710 -15.978391 27.024116 0.817036 2.203422 0.086585 -0.025413 29495.400000 0 0 1
15.502637 15.102210 -14.768791 26.201635 0.772315 2.169605 0.136480 -0.022451 -359954.000000 0 0 1
16.254237 15.868610 -13.815991 26.587490 0.773394 2.117229 0.117665 -0.024631 1071630.000000 0 0 1
17.582137 16.325710 -14.092791 27.825655 0.748361 2.101879 0.097265 -0.022005 737938.000000 0 0 1
18.632237 15.252110 -14.554491 28.135748 0.685972 2.114484 0.084586 -0.019713 -672509.000000 0 0 1
18.955137 14.228210 -13.658791 27.355104 0.643901 2.093603 0.106567 -0.027213 339622.000000 0 0 1
19.890837 14.592810 -12.670791 27.733453 0.632951 2.045278 0.101474 -0.023736 -384221.000000 0 0 1
20.630737 13.398710 -12.042991 27.389530 0.575991 2.026053 0.123682 -0.033520 176154.000000 0 0 1
19.799937 12.753010 -11.051991 26.015827 0.572212 2.009557 0.164485 -0.039675 887661.000000 0 0 1
20.309837 11.471010 -10.695891 25.660780 0.514135 2.000739 0.156891 -0.020579 -122239.000000 0 0 1
20.345637 10.341410 -11.750191 25.670151 0.470255 2.046245 0.119560 -0.019447 -1331130.000000 0 0 1
21.366737 10.454010 -12.737891 26.982914 0.455023 2.062437 0.110932 -0.005456 603515.000000 0 0 1
21.605937 9.275810 -13.495991 27.110863 0.405522 2.091865 0.111937 -0.012341 289067.000000 0 0 1
22.345237 8.049810 -12.726591 26.945782 0.345774 2.062699 0.110822 0.000399 -204211.000000 0 0 1
21.586937 7.508210 -11.655991 25.656016 0.334725 2.042403 0.106113 -0.016712 299806.000000 0 0 1
22.074037 6.344810 -11.014491 25.472313 0.279888 2.017961 0.106828 -0.000429 -885361.000000 0 0 1
21.805837 5.075610 -11.819091 25.316936 0.228692 2.056516 0.093177 -0.012775 605455.000000 0 0 1
20.462837 4.583510 -11.826991 24.075173 0.220355 2.084324 0.054299 -0.026372 921673.000000 0 1 0
19.490737 5.252710 -12.613891 23.803151 0.263244 2.129309 0.014278 -0.029728 -79750.000000 0 1 0
18.537137 4.192210 -13.245591 23.165615 0.222411 2.179468 0.006388 -0.032031 131943.000000 0 1 0
19.258237 3.314410 -14.143691 24.122790 0.170434 2.197306 0.030249 -0.040137 660849.000000 0 1 0
18.939537 1.925710 -13.975791 23.616459 0.101329 2.204064 0.051402 -0.035197 -437107.000000 0 1 0
20.065637 0.994810 -14.473291 24.760767 0.049537 2.195091 0.085115 -0.034377 -172422.000000 0 1 0
21.264037 1.116510 -13.688191 25.313483 0.052459 2.142121 0.107655 -0.025339 1751760.000000 0 0 1
22.482937 0.767910 -14.397291 26.708690 0.034142 2.140104 0.084208 -0.029685 863027.000000 0 0 1
22.624937 -0.692490 -14.856591 27.075553 -0.030598 2.151615 0.080157 -0.022977 -1251560.000000 0 0 1
21.761437 -1.155190 -15.856691 26.950496 -0.053034 2.199830 0.078303 -0.021969 79849.200000 0 0 1
22.371837 -2.190890 -16.597991 27.942662 -0.097619 2.206821 0.069987 -0.021767 203101.000000 0 0 1
21.338137 -2.810990 -17.585991 27.793611 -0.130981 2.255876 0.082980 -0.022476 483967.000000 0 0 1
20.346437 -3.622790 -16.961291 26.735509 -0.176209 2.258042 0.098512 -0.021465 578199.000000 0 0 1
19.704037 -4.482490 -17.889291 26.988303 -0.223684 2.295420 0.098202 -0.018065 236823.000000 0 0 1
18.779937 -5.510890 -17.205491 26.059256 -0.285433 2.291941 0.097983 -0.022388 -253534.000000 0 0 1
19.600937 -6.551290 -16.726291 26.587307 -0.322560 2.251202 0.101978 -0.017840 57610.200000 0 0 1
19.036037 -7.614890 -15.967391 25.986820 -0.380528 2.232475 0.103303 -0.012894 -1192980.000000 0 0 1
19.891337 -8.569190 -15.181391 26.449403 -0.406773 2.182153 0.127369 -0.019339 -706633.000000 0 0 1
20.629637 -9.361590 -16.106691 27.796524 -0.426004 2.188850 0.110865 -0.016601 867849.000000 0 0 1
21.432637 -10.350590 -15.412191 28.355392 -0.449903 2.145441 0.095447 -0.020250 111982.000000 0 0 1
22.095937 -11.372190 -16.434791 29.793614 -0.475317 2.155103 0.084456 -0.017052 -400643.000000 0 0 1
22.996337 -10.779290 -17.308691 30.734595 -0.438328 2.169009 0.084450 -0.014560 -204462.000000 0 0 1
23.360237 -11.685390 -18.318091 31.903000 -0.463828 2.182400 0.072058 -0.009139 -738554.000000 0 0 1
22.459837 -11.655790 -19.561591 31.983707 -0.478701 2.228892 0.077394 -0.010724 -23008.200000 0 0 1
21.170337 -12.169190 -19.302491 31.126492 -0.521701 2.239706 0.087863 -0.018177 6357.620000 0 0 1
20.983737 -13.540790 -19.505291 31.687956 -0.573064 2.233871 0.070474 -0.012668 8677.630000 0 0 1
19.500737 -13.962890 -19.697091 31.035728 -0.621396 2.258363 0.072744 -0.009152 349652.000000 0 0 1
18.884237 -13.513190 -20.892191 31.236266 -0.621106 2.303449 0.080347 -0.007489 421493.000000 0 0 1
17.498537 -13.858890 -20.889291 30.571720 -0.669846 2.323053 0.081399 -0.003177 559725.000000 0 0 1
16.761137 -13.281590 -22.122791 30.769371 -0.670092 2.373141 0.075466 -0.001580 -133406.000000 0 0 1
16.849237 -14.072690 -23.268291 31.989853 -0.695846 2.385270 0.064814 -0.004134 389311.000000 0 0 1
16.214437 -13.468390 -24.378391 32.227495 -0.693148 2.428660 0.071469 -0.010856 -191743.000000 0 0 1
16.070737 -14.406290 -25.587221 33.474104 -0.730839 2.440889 0.065739 -0.019688 -550235.000000 0 0 1
15.271637 -15.553490 -25.417761 33.484272 -0.794542 2.432719 0.077498 -0.022621 41986.000000 0 0 1
15.263337 -16.338490 -26.602161 34.750405 -0.819407 2.442647 0.087156 -0.020428 157199.000000 0 0 1
16.421037 -17.379190 -26.741571 35.871971 -0.813738 2.412040 0.077481 -0.026728 676083.000000 0 0 1
17.746437 -16.900790 -26.944101 36.421934 -0.760996 2.403535 0.068284 -0.023971 542883.000000 0 0 1
18.698937 -17.940690 -26.898931 37.350650 -0.764706 2.374848 0.070815 -0.022779 -575198.000000 0 0 1
20.148137 -17.595390 -27.109881 38.085309 -0.717867 2.362882 0.064294 -0.020238 -647796.000000 0 0 1
20.738637 -16.926690 -26.028191 37.337255 -0.684536 2.342156 0.063256 -0.017962 -119009.000000 0 0 1
22.147437 -16.868190 -26.024911 38.109589 -0.650904 2.322517 0.069976 -0.014932 203037.000000 0 0 1
22.826337 -16.380590 -24.697591 37.407704 -0.622453 2.291918 0.057784 -0.011098 164023.000000 0 0 1
22.712437 -15.049290 -24.326391 36.525459 -0.585183 2.299646 0.077565 -0.018613 -274975.000000 0 0 1
21.369237 -14.694990 -24.077391 35.387960 -0.602403 2.319082 0.091362 -0.016508 -93877.200000 0 0 1
21.211237 -13.462690 -23.175791 34.180080 -0.565541 2.315902 0.094262 -0.014443 44360.400000 0 0 1
21.610537 -12.270390 -23.784891 34.399110 -0.516404 2.334276 0.099221 -0.021010 303124.000000 0 0 1
20.873837 -11.207590 -23.161391 33.132720 -0.492746 2.344863 0.101827 -0.019498 209119.000000 0 0 1
21.011237 -9.889490 -23.955291 33.363603 -0.439915 2.371731 0.112218 -0.019434 -65999.200000 0 0 1
20.655837 -8.742290 -23.227191 32.289218 -0.400375 2.373660 0.110246 -0.018749 188287.000000 0 0 1
20.467337 -7.643990 -24.048491 32.491112 -0.357431 2.404099 0.085347 -0.016243 -558122.000000 0 0 1
19.837437 -6.412190 -23.447291 31.375397 -0.312636 2.414808 0.079690 -0.020806 701906.000000 0 0 1
18.416937 -6.614190 -23.241291 30.382374 -0.344791 2.441775 0.075714 -0.012307 1050750.000000 0 0 1
17.788437 -5.568390 -22.543391 29.251323 -0.303372 2.450703 0.064527 -0.013577 -386112.000000 0 0 1
17.993437 -5.544790 -21.003891 28.207656 -0.298923 2.410757 0.086506 -0.019722 -726911.000000 0 0 1
17.408237 -6.529690 -20.199491 27.453651 -0.358851 2.397595 0.099989 -0.021513 126773.000000 0 0 1
17.833637 -7.885090 -20.538391 28.320288 -0.416304 2.382148 0.113008 -0.018240 -110596.000000 0 0 1
17.613337 -9.011690 -19.488791 27.771445 -0.472916 2.348656 0.096874 -0.014421 -387669.000000 0 0 1
16.276037 -9.358290 -19.280691 26.911559 -0.521814 2.369492 0.077668 -0.014962 -445683.000000 0 0 1
16.086937 -10.341390 -18.275191 26.452154 -0.571328 2.333498 0.094193 -0.013490 -562778.000000 0 0 1
14.607437 -10.602590 -17.956391 25.460245 -0.627855 2.353603 0.076761 -0.004102 14227.900000 0 0 1
13.893037 -9.836190 -16.963991 24.032147 -0.616071 2.354472 0.071447 -0.005055 700339.000000 0 1 0
13.908937 -8.381090 -17.188891 23.646546 -0.542306 2.384607 0.072950 -0.022809 -1056500.000000 0 1 0
12.605537 -7.693290 -16.802791 22.370070 -0.547966 2.420566 0.050289 -0.014175 -953224.000000 0 1 0
11.621437 -7.729390 -17.778891 22.602880 -0.586916 2.476041 0.042006 -0.015287 -280894.000000 0 1 0
10.689837 -6.688590 -17.530391 21.594546 -0.559100 2.518019 0.021235 -0.011952 -769302.000000 0 1 0
9.352037 -6.759190 -18.206391 21.555043 -0.625832 2.576701 0.016976 -0.003634 -731117.000000 0 1 0
9.109637 -5.936290 -19.347991 22.193913 -0.577534 2.629600 0.024547 -0.016191 -230099.000000 0 1 0
7.734737 -5.831290 -19.601991 21.864769 -0.645998 2.682625 0.024032 -0.016034 -206365.000000 0 1 0
7.449737 -5.689890 -21.123391 23.109977 -0.652256 2.723926 0.039435 -0.023124 -58757.900000 0 1 0
7.545237 -6.871190 -21.940891 24.198069 -0.738677 2.706238 0.038319 -0.016152 -67099.300000 0 1 0
6.815437 -6.698090 -23.112091 25.009664 -0.776715 2.749539 0.055744 -0.021594 -131164.000000 0 0 1
6.670237 -7.991490 -23.985491 26.146888 -0.875271 2.732134 0.048817 -0.013074 -262593.000000 0 0 1
5.975137 -9.035290 -23.404291 25.789524 -0.986511 2.708117 0.049010 -0.012012 -77473.300000 0 0 1
5.728237 -10.086690 -24.373291 26.992801 -1.054314 2.697394 0.051762 -0.003757 -225687.000000 0 0 1
5.044337 -11.330090 -23.849391 26.881401 -1.151928 2.662054 0.058295 -0.010297 -73681.500000 0 0 1
5.859037 -12.261990 -23.172591 26.863612 -1.125049 2.611186 0.049644 -0.002932 226966.000000 0 0 1
5.085037 -13.460790 -22.894491 27.040861 -1.209602 2.580479 0.060499 -0.002036 227869.000000 0 0 1
5.842337 -14.622190 -22.161591 27.185979 -1.190676 2.523844 0.070452 -0.006897 1115860.000000 0 0 1
7.056637 -15.180390 -22.751591 28.246685 -1.135660 2.507248 0.074013 -0.008490 2018680.000000 0 0 1
8.257037 -14.368190 -22.771791 28.163416 -1.049206 2.512496 0.089884 -0.008490 913023.000000 0 0 1
8.939437 -13.981090 -21.435591 27.108466 -1.001913 2.482804 0.067404 -0.001103 -530454.000000 0 0 1
9.394537 -15.142790 -20.735691 27.341000 -1.015514 2.431667 0.079780 -0.008260 818150.000000 0 0 1
8.371837 -15.776590 -19.908991 26.746146 -1.082931 2.410385 0.087164 -0.008864 500866.000000 0 0 1
8.818337 -16.198790 -18.467591 26.100110 -1.072276 2.356846 0.085475 -0.008589 158347.000000 0 0 1
9.601137 -17.370090 -18.493791 27.127885 -1.065852 2.320916 0.101169 -0.000638 -238644.000000 0 0 1
10.351337 -17.748990 -17.363591 26.901135 -1.042816 2.272421 0.097580 -0.007727 -639975.000000 0 0 1
9.526437 -18.284390 -16.142491 26.184956 -1.090479 2.235060 0.090661 -0.023108 -41573.500000 0 0 1
9.027637 -19.612790 -16.281091 27.041332 -1.139415 2.216902 0.101674 -0.029324 899355.000000 0 0 1
8.238237 -19.960190 -17.496791 27.792362 -1.179361 2.251775 0.108169 -0.025590 839267.000000 0 0 1
6.703337 -19.645190 -17.387291 27.077409 -1.241964 2.268073 0.102494 -0.015859 607623.000000 0 0 1
6.381137 -18.245590 -17.257591 25.912254 -1.234357 2.299631 0.088103 -0.013024 245805.000000 0 0 1
4.986437 -17.954490 -17.272691 25.408150 -1.299897 2.318299 0.067445 -0.017255 590447.000000 0 0 1
4.653437 -16.449390 -17.204891 24.253766 -1.295106 2.359400 0.036274 -0.006532 196471.000000 0 1 0
5.021437 -15.822390 -15.976291 23.039199 -1.263488 2.337048 0.025561 -0.014202 235395.000000 0 1 0
4.673837 -14.465290 -16.184091 22.203922 -1.258278 2.387487 0.014905 -0.003817 54394.400000 0 1 0
10.899637 29.694010 -18.377491 36.582352 1.219000 2.097122 0.081032 -0.026406 -603206.000000 0 0 1
9.792637 29.219810 -19.061891 36.236014 1.247423 2.124744 0.111211 -0.037258 -921031.000000 0 0 1
8.850037 28.656710 -18.211291 35.088193 1.271259 2.116494 0.109372 -0.035933 -879742.000000 0 0 1
7.774337 27.928510 -18.979891 34.650804 1.299304 2.150466 0.110082 -0.038454 -885231.000000 0 0 1
7.063237 28.893310 -19.681791 35.666309 1.331039 2.155355 0.118700 -0.049108 -896181.000000 0 0 1
6.057637 28.224410 -20.405191 35.350871 1.359380 2.186115 0.110212 -0.055816 390410.000000 0 0 1
5.095137 29.211310 -21.149291 36.421883 1.398110 2.190354 0.101219 -0.051235 1087230.000000 0 0 1
3.926937 29.657810 -20.430191 36.227051 1.439154 2.169956 0.090227 -0.049365 20613.100000 0 0 1
3.094137 30.389010 -21.247691 37.209273 1.469328 2.178559 0.080735 -0.058117 -483327.000000 0 0 1
1.604637 30.312310 -20.788491 36.790928 1.517909 2.171283 0.090396 -0.054961 704243.000000 0 0 1
0.977537 29.024610 -21.063191 35.875362 1.537129 2.198294 0.093372 -0.066467 -78353.900000 0 0 1
0.450037 28.937010 -22.321291 36.548504 1.555245 2.227779 0.115715 -0.076828 -984668.000000 0 0 1
-0.357563 27.660610 -22.431091 35.614478 -1.557870 2.252132 0.113611 -0.069953 -191585.000000 0 0 1
-1.476963 27.556710 -21.594091 35.040811 -1.517250 2.234775 0.119596 -0.068433 -109977.000000 0 0 1
-2.082163 26.267810 -21.541691 34.034948 -1.491695 2.256126 0.127596 -0.065852 294787.000000 0 0 1
-3.218163 26.067710 -20.513391 33.326885 -1.447964 2.233843 0.101059 -0.061180 -167417.000000 0 0 1
-4.460063 26.608910 -20.893891 34.124492 -1.404725 2.229743 0.104651 -0.061230 -231182.000000 0 0 1
-5.422063 26.128810 -19.980591 33.336729 -1.366187 2.213494 0.089183 -0.056598 113619.000000 0 0 1
-6.730063 26.953810 -19.970991 34.214648 -1.326111 2.194071 0.087922 -0.067610 -76913.800000 0 0 1
-7.835363 26.345710 -19.374891 33.628496 -1.281721 2.184801 0.081522 -0.050303 -408891.000000 0 0 1
-8.493763 27.288510 -18.517391 34.054377 -1.269043 2.145707 0.075817 -0.060706 284660.000000 0 0 1
-9.773863 26.778310 -17.824991 33.620479 -1.220829 2.129612 0.075938 -0.045136 -192042.000000 0 0 1
-9.551063 25.908810 -16.705291 32.273147 -1.217612 2.114866 0.090004 -0.050215 162104.000000 0 0 1
-10.754663 25.195310 -16.402591 31.929789 -1.167358 2.110298 0.043195 -0.039480 432048.000000 0 0 1
-10.670363 24.455910 -15.025891 30.622306 -1.159385 2.083671 0.049069 -0.029810 106791.000000 0 0 1
-10.024663 23.174910 -15.038691 29.389327 -1.162535 2.107965 0.056323 -0.027689 -98414.800000 0 0 1
-10.198963 22.414410 -13.827191 28.242094 -1.143777 2.082422 0.073259 -0.024531 -720215.000000 0 0 1
-9.647463 21.003010 -14.047591 27.046900 -1.140205 2.116920 0.097843 -0.011668 -109203.000000 0 0 1
-10.417363 19.941810 -14.599891 26.820777 -1.089399 2.146410 0.072747 -0.011536 -449100.000000 0 0 1
-10.568363 20.046010 -16.038791 27.762846 -1.085622 2.186713 0.081298 -0.008432 54859.000000 0 0 1
-9.264263 19.935310 -16.872091 27.711200 -1.135772 2.225412 0.079593 -0.013063 266791.000000 0 0 1
-8.798763 18.579310 -16.983991 26.665801 -1.128508 2.261293 0.077410 -0.013333 308727.000000 0 0 1
-7.749263 18.472910 -17.956491 26.902324 -1.173599 2.301602 0.096277 -0.022212 422987.000000 0 0 1
-7.153363 17.105610 -18.279691 26.036889 -1.174710 2.349095 0.091175 -0.023162 374629.000000 0 0 1
-8.095463 16.159410 -18.837791 26.106042 -1.106369 2.376889 0.077633 -0.025662 -28060.000000 0 0 1
-7.643763 15.419610 -19.921491 26.325981 -1.110581 2.429083 0.087208 -0.029082 272353.000000 0 0 1
-6.390963 14.517310 -19.719291 25.307057 -1.156096 2.464187 0.072044 -0.023372 53807.100000 0 0 1
-6.596263 13.496710 -18.717791 24.000574 -1.116204 2.465285 0.042101 -0.017077 639389.000000 0 1 0
-5.399563 12.749210 -18.396191 23.024280 -1.170179 2.496412 0.050122 -0.014990 951743.000000 0 1 0
-4.607063 13.267110 -17.164091 22.177630 -1.236570 2.455831 0.036692 -0.008899 -195521.000000 0 1 0
-4.018663 14.475910 -17.508591 23.070596 -1.300005 2.432440 0.041686 -0.017642 -623668.000000 0 1 0
-3.315963 14.967310 -16.403791 22.452179 -1.352771 2.390012 0.031982 -0.008020 -216983.000000 0 1 0
-2.567663 16.293110 -16.648191 23.435456 -1.414490 2.360841 0.061238 -0.013519 -444896.000000 0 1 0
-3.352863 17.418210 -16.926491 24.518194 -1.380630 2.332789 0.071833 -0.017454 -245182.000000 0 1 0
-2.574563 18.617710 -16.983691 25.331665 -1.433382 2.305615 0.081324 -0.019158 447338.000000 0 0 1
-3.415863 19.891010 -17.348991 26.614054 -1.400726 2.280848 0.097110 -0.021757 408431.000000 0 0 1
-3.704263 19.946210 -18.725191 27.608072 -1.387176 2.316176 0.107624 -0.027121 -3129.480000 0 0 1
-4.239663 21.189710 -19.234891 28.930254 -1.373323 2.298118 0.125429 -0.028530 -370911.000000 0 0 1
-3.150963 22.240110 -19.372991 29.662499 -1.430054 2.282486 0.098377 -0.032113 -1025770.000000 0 0 1
-2.209263 21.887310 -20.360291 29.974600 -1.470199 2.317539 0.118507 -0.029802 163030.000000 0 0 1
-1.006063 22.655610 -20.324091 30.452545 -1.526419 2.301511 0.108732 -0.030201 589540.000000 0 0 1
-0.008163 22.261110 -19.216391 29.407937 -1.570430 2.282919 0.112362 -0.029463 -873023.000000 0 0 1
-0.318063 22.655910 -17.863791 28.853188 -1.556758 2.238427 0.106442 -0.025035 241287.000000 0 0 1
0.681137 22.089210 -16.966391 27.861363 1.539970 2.225542 0.099338 -0.025306 651130.000000 0 0 1
0.299437 22.095910 -15.483591 26.982596 1.557245 2.181979 0.096302 -0.027566 -113325.000000 0 0 1
-0.625863 21.090710 -15.118291 25.957128 -1.541130 2.192515 0.097416 -0.016410 -100532.000000 0 0 1
-0.874263 21.045410 -13.692191 25.122693 -1.529278 2.147201 0.100068 -0.015032 112226.000000 0 0 1
-1.629163 19.773410 -13.257991 23.862444 -1.488590 2.159882 0.070365 -0.007332 -26838.300000 0 1 0
-1.010963 18.548110 -13.503091 22.964928 -1.516345 2.199365 0.056172 -0.009070 -298042.000000 0 1 0
-1.856163 17.518010 -13.083091 21.942955 -1.465233 2.209596 0.044029 -0.005379 -76487.000000 0 1 0
-1.237563 16.161810 -13.361791 21.006502 -1.494372 2.260202 0.024929 0.004049 301855.000000 0 1 0
-0.292163 15.715410 -12.335691 19.980709 -1.552208 2.236204 0.018334 -0.004884 752271.000000 0 1 0
-0.075263 14.273210 -12.331391 18.862486 -1.565523 2.283329 0.016242 -0.004408 15370.500000 0 1 0
0.625437 13.590210 -13.534591 19.190366 1.524808 2.353615 0.011141 -0.010015 -460407.000000 0 1 0
-0.127963 13.547710 -14.736091 20.017722 -1.561351 2.398164 0.015734 -0.009490 -52642.100000 0 1 0
0.364937 12.620810 -15.634491 20.096152 1.541889 2.462247 0.010759 -0.011744 -379319.000000 0 1 0
-0.278463 12.801010 -16.986791 21.271917 -1.549047 2.495687 0.016074 -0.002291 -250296.000000 0 1 0
0.127737 13.990610 -17.548891 22.443642 1.561666 2.468519 0.025203 -0.008504 -134335.000000 0 1 0
-0.356263 14.092110 -18.863291 23.548635 -1.545521 2.499819 0.037591 -0.007404 -316516.000000 0 1 0
-0.762163 15.468110 -19.406191 24.828282 -1.521563 2.468049 0.053904 -0.015386 -618048.000000 0 1 0
0.250137 16.395310 -19.592791 25.548899 1.555541 2.444753 0.048924 -0.018387 -457545.000000 0 0 1
-0.356163 17.640110 -19.902391 26.597096 -1.550609 2.416280 0.109144 -0.032048 23750.500000 0 0 1
0.641237 18.750410 -20.247891 27.603734 1.536611 2.394283 0.126048 -0.029838 -99045.000000 0 0 1
1.229537 18.418410 -21.492591 28.331626 1.504139 2.431970 0.110163 -0.037866 -577686.000000 0 0 1
2.208937 19.354310 -21.775591 29.217205 1.457157 2.411781 0.116570 -0.031801 -387152.000000 0 0 1
2.768137 19.149610 -23.212691 30.219185 1.427238 2.446734 0.132238 -0.039097 13958.600000 0 0 1
3.598637 18.018010 -23.338991 29.703659 1.373666 2.474668 0.097429 -0.033355 -141915.000000 0 0 1
3.874337 17.899710 -24.752991 30.791568 1.357638 2.504601 0.097000 -0.046043 221837.000000 0 0 1
4.734937 16.649210 -25.087791 30.479716 1.293718 2.537641 0.064036 -0.032415 1420310.000000 0 0 1
6.102337 16.701110 -24.531791 30.298092 1.220482 2.514405 0.045686 -0.021293 1517790.000000 0 0 1
6.881737 15.619410 -24.965991 30.242767 1.155796 2.541918 0.043061 -0.034261 -32479.000000 0 0 1
7.434337 15.780810 -26.414871 31.655153 1.130535 2.557943 0.036131 -0.037832 -472398.000000 0 0 1
8.597337 16.618410 -26.550181 32.480730 1.093375 2.527703 0.018827 -0.032371 613064.000000 0 0 1
9.119037 16.785410 -27.852351 33.773662 1.073134 2.540427 0.036784 -0.041868 17903.800000 0 0 1
9.725437 15.616710 -28.655141 34.052648 1.013811 2.570841 0.036835 -0.047429 -377368.000000 0 0 1
10.901037 15.098610 -28.072471 33.687746 0.945464 2.555872 0.058359 -0.045605 -84107.700000 0 0 1
11.172337 13.739810 -28.338251 33.416462 0.888097 2.583058 0.047463 -0.032899 -325605.000000 0 0 1
10.675337 12.778610 -27.257181 31.940720 0.874836 2.593208 0.047114 -0.033232 991941.000000 0 0 1
9.250437 12.570810 -27.395131 31.529178 0.936402 2.623735 0.056977 -0.038637 988064.000000 0 0 1
8.732037 12.017910 -26.170951 30.093144 0.942450 2.625319 0.060329 -0.031014 90372.100000 0 0 1
7.250837 11.587110 -26.173031 29.527331 1.011645 2.660306 0.063771 -0.045795 -177827.000000 0 0 1
6.377537 12.651510 -26.409521 29.969926 1.103880 2.649192 0.068293 -0.044420 -388177.000000 0 0 1
5.090537 12.215610 -26.006641 29.180131 1.175956 2.670879 0.084842 -0.048877 116138.000000 0 0 1
3.890237 13.130110 -26.288691 29.641677 1.282753 2.661350 0.095741 -0.050244 -343289.000000 0 0 1
3.523537 13.312610 -27.681521 30.917754 1.312053 2.679963 0.099949 -0.050947 474705.000000 0 0 1
4.075937 14.556010 -28.181751 31.979709 1.297771 2.649272 0.102545 -0.053245 84977.000000 0 0 1
4.077837 14.582210 -29.697921 33.335208 1.298117 2.670092 0.113980 -0.057104 -478956.000000 0 0 1
5.006737 13.715710 -30.235781 33.576637 1.220789 2.691716 0.104064 -0.050671 -632267.000000 0 0 1
4.922237 13.657910 -31.602481 34.777632 1.224891 2.710959 0.107753 -0.049037 -557826.000000 0 0 1
5.964537 12.716410 -32.249411 35.175379 1.132220 2.730833 0.105379 -0.037347 1013060.000000 0 0 1
7.374537 12.885310 -32.029361 35.302903 1.050978 2.707549 0.103166 -0.028665 1135870.000000 0 0 1
7.855337 12.776910 -30.659681 34.131683 1.019560 2.686627 0.092156 -0.036509 -690068.000000 0 0 1
7.909537 11.364710 -30.082791 33.116336 0.962778 2.710231 0.097053 -0.034047 117823.000000 0 0 1
9.042037 10.565510 -30.419171 33.447188 0.862941 2.712801 0.085020 -0.024316 40023.100000 0 0 1
8.931537 9.267910 -29.887121 32.540843 0.803879 2.734939 0.084195 -0.026456 -198961.000000 0 0 1
10.088137 8.295710 -30.147111 32.854796 0.688205 2.732762 0.062401 -0.020967 -603623.000000 0 0 1
11.248637 8.578010 -29.428901 32.652324 0.651505 2.693512 0.063092 -0.027608 122537.000000 0 0 1
12.133137 7.425510 -29.462891 32.717169 0.549198 2.691790 0.029587 -0.015824 424709.000000 0 0 1
13.351137 7.537910 -28.469271 32.335311 0.513975 2.647584 0.035269 -0.003539 880341.000000 0 0 1
14.116337 6.317210 -28.366121 32.308124 0.420782 2.642437 0.023014 -0.008845 467476.000000 0 0 1
15.148837 6.233010 -29.336601 33.600205 0.390339 2.632337 0.016651 -0.006289 -855094.000000 0 0 1
15.999037 4.941010 -29.101151 33.574689 0.299539 2.619462 0.012886 -0.009387 85961.800000 0 0 1
16.753537 5.151810 -27.910271 32.957630 0.298329 2.580836 0.004741 -0.016127 344176.000000 0 0 1
17.560437 4.033010 -27.577151 32.941362 0.225750 2.562864 0.011794 -0.008412 -194324.000000 0 0 1
18.281937 4.191410 -26.228311 32.244711 0.225370 2.520794 0.016174 -0.007900 -188953.000000 0 0 1
19.377837 5.084110 -26.251961 33.022934 0.256584 2.489740 0.041790 -0.016292 160635.000000 0 0 1
19.871937 5.395710 -24.962791 32.359674 0.265132 2.451861 0.054251 -0.024341 -569123.000000 0 0 1
20.982537 6.408910 -24.984291 33.249899 0.296440 2.420992 0.049709 -0.020932 -814150.000000 0 0 1
20.522837 7.699410 -25.337731 33.503259 0.358914 2.428399 0.058490 -0.021077 443248.000000 0 0 1
21.331337 8.369810 -26.298391 34.881012 0.373913 2.424844 0.059134 -0.027831 -514299.000000 0 0 1
21.271337 7.894710 -27.810651 35.891900 0.355385 2.457266 0.068246 -0.027704 -169023.000000 0 0 1
20.252137 8.406610 -28.649091 36.077563 0.393453 2.488317 0.054194 -0.018434 -691241.000000 0 0 1
19.064937 7.717810 -28.500131 35.146747 0.384652 2.516467 0.045959 -0.013633 -1403610.000000 0 0 1
17.924737 8.356310 -29.291041 35.342456 0.436235 2.547716 0.030170 -0.016430 -888963.000000 0 0 1
17.987437 8.181310 -30.689951 36.501435 0.426867 2.569533 0.027575 -0.015269 1085110.000000 0 0 1
16.900937 8.958910 -31.264521 36.652067 0.487424 2.592519 0.020715 -0.012687 479346.000000 0 0 1
16.591837 8.568710 -32.761071 37.709410 0.476714 2.623524 0.018829 0.002954 78810.600000 0 0 1
15.800337 7.382410 -32.852351 37.194456 0.437091 2.653565 0.023035 0.005617 554015.000000 0 0 1
14.426637 7.616610 -33.137301 36.935366 0.485760 2.684116 0.023895 0.000736 433108.000000 0 0 1
13.619837 6.306410 -33.358591 36.579589 0.433638 2.718797 0.020934 -0.000000 103121.000000 0 0 1
13.483937 5.595510 -32.216581 35.369964 0.393350 2.716125 0.030597 -0.005623 489141.000000 0 0 1
12.485537 4.561010 -32.296761 34.925237 0.350243 2.751148 0.034160 -0.012758 414681.000000 0 0 1
12.539337 3.509510 -31.166951 33.777662 0.272897 2.745846 0.043739 -0.012072 930278.000000 0 0 1
13.731937 2.679010 -31.161741 34.158414 0.192673 2.719592 0.035169 -0.018734 1015090.000000 0 0 1
13.601537 1.699710 -30.159521 33.128349 0.124320 2.715008 0.042247 -0.018084 313249.000000 0 0 1
12.668937 0.493810 -30.567941 33.092972 0.038958 2.748422 0.048947 -0.013950 355521.000000 0 0 1
13.265437 -0.597190 -31.248081 33.952481 -0.044988 2.739764 0.049867 -0.014317 335362.000000 0 0 1
14.143737 -1.457690 -30.501181 33.652521 -0.102700 2.705376 0.048265 -0.013288 440365.000000 0 0 1
14.565437 -2.762890 -31.276181 34.611920 -0.187461 2.698954 0.053742 -0.012733 -277792.000000 0 0 1
13.696337 -3.840690 -31.237031 34.323354 -0.273396 2.714276 0.076528 -0.009007 -148579.000000 0 0 1
14.094337 -4.810090 -32.191041 35.469006 -0.328884 2.708286 0.077847 -0.011364 123331.000000 0 0 1
13.286437 -6.126390 -32.042381 35.224653 -0.432047 2.713256 0.086390 -0.006764 328230.000000 0 0 1
13.715937 -6.940990 -30.907811 34.519516 -0.468478 2.680062 0.080881 -0.005652 593581.000000 0 0 1
12.983237 -8.175690 -30.890361 34.490879 -0.561980 2.680596 0.092851 -0.009961 354757.000000 0 0 1
13.417437 -8.962390 -29.626041 33.735061 -0.588902 2.642876 0.067815 -0.008231 -269275.000000 0 0 1
14.795237 -9.174390 -29.447951 34.208921 -0.555061 2.607688 0.085123 -0.010305 -23059.300000 0 0 1
15.127637 -9.885690 -28.225131 33.514627 -0.578822 2.572098 0.088435 -0.009958 46040.900000 0 0 1
15.020137 -11.416590 -28.255271 33.975040 -0.649925 2.552865 0.074520 -0.003660 -474353.000000 0 0 1
13.681437 -11.817990 -28.252411 33.541695 -0.712450 2.572346 0.069052 -0.009225 -376799.000000 0 0 1
13.481137 -13.139790 -28.615151 34.252328 -0.772576 2.559697 0.068770 -0.016609 114470.000000 0 0 1
-10.793263 -3.462090 -18.209691 21.449322 0.310396 2.584817 0.059329 0.015453 89233.100000 0 1 0
-11.361863 -2.729590 -19.288891 22.552248 0.235773 2.596922 0.069707 0.004739 -11831.700000 0 1 0
-12.322863 -3.519690 -19.957091 23.717644 0.278215 2.570748 0.071039 0.005932 -552074.000000 0 1 0
-13.294263 -2.656290 -20.770991 24.803777 0.197210 2.563328 0.078670 -0.026769 -461872.000000 0 1 0
-14.181863 -1.960490 -19.959391 24.563103 0.137369 2.519355 0.075114 -0.027544 -615910.000000 0 1 0
-15.297263 -1.518190 -20.683691 25.770647 0.098922 2.502449 0.075340 -0.029087 81062.300000 0 0 1
-15.765763 -0.118090 -20.161391 25.594041 0.007490 2.477924 0.065704 -0.022427 -46563.400000 0 0 1
-14.911863 0.929210 -20.546691 25.404598 -0.062233 2.512868 0.071420 -0.028428 -4596.280000 0 0 1
-15.514863 2.175310 -20.258791 25.609794 -0.139300 2.483330 0.068927 -0.016213 -194683.000000 0 0 1
-14.939263 3.358410 -21.087791 26.060611 -0.221128 2.513556 0.092332 -0.029441 -540790.000000 0 0 1
-13.597763 3.608410 -20.810291 25.119474 -0.259389 2.547135 0.092309 -0.031638 -496983.000000 0 0 1
-13.281363 4.801310 -21.452291 25.683613 -0.346889 2.559387 0.111567 -0.036186 -404043.000000 0 0 1
-12.014363 5.466810 -20.913191 24.730396 -0.427023 2.578573 0.084342 -0.032033 -309965.000000 0 1 0
-12.199563 6.012210 -19.638691 23.888369 -0.457889 2.535891 0.087854 -0.036357 -80525.300000 0 1 0
-10.940063 6.288210 -19.112791 22.902518 -0.521674 2.558072 0.054351 -0.022674 -681383.000000 0 1 0
-10.925763 6.973910 -17.692291 21.932279 -0.568106 2.509306 0.044336 -0.023180 -578654.000000 0 1 0
-11.450463 8.247810 -17.756091 22.680790 -0.624223 2.470060 0.041479 -0.024036 76335.100000 0 1 0
-12.712763 8.227910 -17.101191 22.842145 -0.574416 2.416847 0.084125 -0.019643 -240921.000000 0 1 0
-13.422763 9.571710 -17.013291 23.690510 -0.619461 2.371934 0.098944 -0.025509 -672237.000000 0 1 0
-12.851163 10.569310 -16.237991 23.249410 -0.688275 2.343992 0.057375 -0.016202 22711.000000 0 1 0
-13.604463 11.784310 -16.251491 24.249997 -0.713829 2.305227 0.069741 -0.020568 -352628.000000 0 1 0
-12.892563 12.919010 -15.598091 24.008737 -0.786423 2.277965 0.070266 -0.012775 -602795.000000 0 1 0
-12.846363 12.918810 -14.144891 23.065183 -0.788210 2.230974 0.098542 -0.019510 58001.500000 0 1 0
-12.439963 14.192510 -13.751291 23.351189 -0.851108 2.200482 0.091586 -0.021424 -907159.000000 0 1 0
-12.934363 14.620510 -12.343791 23.096022 -0.846514 2.134659 0.075920 -0.016786 283168.000000 0 1 0
-14.268963 14.989110 -12.105391 23.975346 -0.810007 2.100074 0.068552 -0.019741 -82282.600000 0 1 0
-15.290663 14.097410 -12.424791 24.226366 -0.744817 2.109312 0.077626 -0.015024 -872646.000000 0 1 0
-16.566563 14.196310 -11.560991 24.690945 -0.708501 2.058081 0.051139 -0.010768 -321139.000000 0 1 0
-17.637763 13.501310 -12.125891 25.306389 -0.653333 2.070497 0.043700 -0.007338 -1387850.000000 0 0 1
-18.746963 13.812610 -11.378591 25.917353 -0.634994 2.025319 0.087262 -0.003694 -1163400.000000 0 0 1
-20.026563 13.220710 -11.993591 26.827162 -0.583484 2.034282 0.073964 -0.011197 -407229.000000 0 0 1
-20.130863 11.799110 -11.798991 26.147406 -0.530151 2.038961 0.082300 -0.015986 130123.000000 0 0 1
-21.340063 11.352210 -12.357791 27.147486 -0.488893 2.043404 0.108585 -0.016857 -230926.000000 0 0 1
-21.994263 10.113610 -11.735991 26.902903 -0.430998 2.022207 0.100046 -0.023053 -36685.900000 0 0 1
-21.437663 8.897510 -12.202891 26.223075 -0.393405 2.054826 0.098434 -0.028344 1009780.000000 0 0 1
-22.098863 7.851010 -11.423791 26.086416 -0.341360 2.024081 0.102760 -0.026205 407735.000000 0 0 1
-21.138963 6.644410 -11.382791 24.911280 -0.304543 2.045341 0.120398 -0.031645 93770.500000 0 1 0
-21.079263 5.863810 -12.590391 25.243565 -0.271319 2.092960 0.131398 -0.030107 356623.000000 0 0 1
-19.824363 5.220910 -12.599591 24.062688 -0.257511 2.121885 0.124235 -0.036837 17978.800000 0 1 0
-19.843563 3.985610 -13.572191 24.369170 -0.198214 2.161494 0.131398 -0.051657 -46384.200000 0 1 0
-20.733263 2.940210 -13.205491 24.756778 -0.140872 2.133422 0.123494 -0.052552 342916.000000 0 1 0
-20.806363 1.896410 -14.144491 25.230294 -0.090895 2.165925 0.117653 -0.055607 -311476.000000 0 0 1
-21.691463 0.691410 -13.807591 25.722504 -0.031864 2.137425 0.134894 -0.048421 110276.000000 0 0 1
-22.994663 0.738110 -14.377391 27.129481 -0.032088 2.129343 0.102934 -0.042004 508799.000000 0 0 1
-23.531463 -0.575990 -14.337591 27.561351 0.024473 2.117889 0.090262 -0.045608 -435592.000000 0 0 1
-24.900363 -0.681990 -15.020591 29.087993 0.027382 2.113420 0.077613 -0.031096 568322.000000 0 0 1
-26.002743 -0.136990 -14.262591 29.657763 0.005268 2.072484 0.122502 -0.036580 1423300.000000 0 0 1
-27.287923 -0.298890 -14.892991 31.088925 0.010953 2.070363 0.086436 -0.019846 1330980.000000 0 0 1
-28.458083 0.158810 -13.946291 31.692061 -0.005580 2.026458 0.085111 -0.011900 216751.000000 0 0 1
-28.692613 -0.767990 -12.915091 31.474679 0.026760 1.993615 0.104095 -0.020882 393446.000000 0 0 1
-29.864053 -0.453690 -12.169491 32.251574 0.015191 1.957708 0.119500 -0.025082 383238.000000 0 0 1
-29.793603 -1.127590 -10.736991 31.689324 0.037829 1.916459 0.126675 -0.038827 -148169.000000 0 0 1
-29.961033 -2.511090 -10.592591 31.877454 0.083616 1.909528 0.137536 -0.043268 552703.000000 0 0 1
-29.005403 -3.324090 -11.292991 31.303269 0.114105 1.939880 0.145129 -0.038111 92964.900000 0 0 1
-29.130843 -4.785490 -10.855391 31.453878 0.162821 1.923164 0.139801 -0.038758 235261.000000 0 0 1
-30.314133 -5.382490 -11.399291 32.830804 0.175726 1.925394 0.122198 -0.035028 626588.000000 0 0 1
-30.621743 -6.694490 -10.928991 33.195635 0.215233 1.906284 0.132765 -0.036798 57002.700000 0 0 1
-29.710753 -7.819190 -11.501891 32.804909 0.257342 1.929024 0.131156 -0.039695 179278.000000 0 0 1
-28.377483 -7.700790 -11.053091 31.412649 0.264988 1.930362 0.082863 -0.035613 -32399.100000 0 0 1
-27.548983 -8.656890 -11.675091 31.147969 0.304466 1.955006 0.088720 -0.037260 410092.000000 0 0 1
-26.076623 -8.737190 -11.162291 29.680389 0.323302 1.956362 0.106474 -0.047710 608108.000000 0 0 1
-25.230783 -7.671190 -11.659591 28.833759 0.295160 1.987089 0.086311 -0.041854 1524080.000000 0 0 1
-23.909163 -7.689990 -11.075991 27.449255 0.311184 1.986144 0.081487 -0.049761 660639.000000 0 0 1
-23.761263 -7.147890 -9.599191 26.605158 0.292210 1.939924 0.082064 -0.050926 -446762.000000 0 0 1
-24.258763 -5.827590 -9.369591 26.650284 0.235759 1.930050 0.084014 -0.034470 777027.000000 0 0 1
-25.666343 -5.745390 -9.212091 27.868141 0.220219 1.907693 0.099896 -0.036418 -230523.000000 0 0 1
-26.038293 -4.379890 -8.606091 27.771225 0.166649 1.885876 0.107932 -0.043911 -417363.000000 0 0 1
-25.649443 -4.240990 -7.260791 26.992573 0.163862 1.843143 0.092968 -0.039654 476995.000000 0 0 1
-25.987823 -2.921990 -6.770791 27.013859 0.111967 1.824139 0.137576 -0.046365 -17997.300000 0 0 1
-25.766983 -2.780290 -5.270891 26.447112 0.107485 1.771439 0.128787 -0.042600 1976480.000000 0 0 1
-24.390263 -2.976190 -4.753991 25.026847 0.121423 1.761913 0.089984 -0.032563 2008660.000000 0 0 1
-24.321163 -2.925790 -3.320891 24.720590 0.119723 1.705541 0.079108 -0.026773 396949.000000 0 1 0
-22.970863 -3.528390 -2.822691 23.411059 0.152412 1.691661 0.053716 -0.011051 370832.000000 0 1 0
-22.877363 -4.928290 -2.907391 23.582085 0.212180 1.694399 0.075873 -0.015290 -106453.000000 0 1 0
-21.664463 -5.395890 -2.420891 22.457188 0.244100 1.678806 0.061470 -0.014282 -643756.000000 0 1 0
-21.708363 -6.902090 -2.264991 22.891528 0.307839 1.669903 0.086894 -0.018537 -395520.000000 0 1 0
-22.604663 -7.311490 -1.285991 23.792488 0.312830 1.624873 0.104723 -0.009811 104318.000000 0 1 0
-23.051763 -8.586090 -1.617491 24.651998 0.356551 1.636456 0.100170 -0.020199 -145154.000000 0 1 0
-23.568163 -9.403290 -0.443391 25.378668 0.379629 1.588268 0.103912 -0.025870 -27590.000000 0 0 1
-22.473263 -9.919090 0.294209 24.566694 0.415657 1.558820 0.101944 -0.019646 310665.000000 0 1 0
-22.796863 -10.892790 1.281609 25.298071 0.445746 1.520114 0.093794 -0.016015 -617349.000000 0 0 1
-21.602863 -11.368890 2.090009 24.501092 0.484440 1.485390 0.095593 -0.016199 116513.000000 0 1 0
-20.755563 -12.211390 1.287309 24.115734 0.531804 1.517390 0.094504 -0.017207 442496.000000 0 1 0
-19.493663 -12.541190 1.808909 23.249871 0.571684 1.492915 0.080543 -0.020591 451281.000000 0 1 0
-18.679963 -13.658490 1.029309 23.163654 0.631350 1.526345 0.073638 -0.019792 205240.000000 0 1 0
-19.465463 -14.835690 0.856309 24.489492 0.651235 1.535823 0.082376 -0.020565 208707.000000 0 1 0
-19.000663 -15.873190 0.021209 24.758510 0.695958 1.569940 0.083535 -0.030064 -533909.000000 0 1 0
-17.914063 -16.788190 0.576709 24.557882 0.752966 1.547310 0.080531 -0.022513 -2057.020000 0 1 0
-16.626463 -16.187290 0.594609 23.212522 0.772015 1.545178 0.083879 -0.016394 967060.000000 0 1 0
-15.545563 -16.912790 1.197809 23.003081 0.827496 1.518701 0.085107 -0.018500 794206.000000 0 1 0
-15.493463 -16.750190 2.724709 22.979128 0.824354 1.451943 0.093402 -0.021383 -229223.000000 0 1 0
-14.906663 -15.514590 3.075009 21.734001 0.805379 1.428836 0.060692 -0.020803 159190.000000 0 1 0
-14.151763 -15.586190 4.309209 21.488858 0.833596 1.368895 0.037484 -0.012309 213120.000000 0 1 0
-14.880363 -15.900890 5.624409 22.492165 0.818540 1.318053 0.077999 -0.016173 -471800.000000 0 1 0
-15.436863 -14.749290 6.343409 22.272789 0.762624 1.281993 0.069309 -0.018383 132622.000000 0 1 0
-15.677863 -14.963090 7.754009 23.017691 0.762075 1.227204 0.072205 -0.024390 -22646.300000 0 1 0
-16.702063 -16.036690 8.250709 24.580654 0.765077 1.228492 0.062582 -0.015201 71943.900000 0 1 0
-16.292663 -17.385590 7.954309 25.119328 0.817839 1.248589 0.063674 -0.006884 18547.400000 0 0 1
-17.068363 -18.395590 8.600409 26.527227 0.822805 1.240619 0.064897 -0.011433 51231.000000 0 0 1
-16.739263 -18.690490 10.105309 27.049115 0.840416 1.187919 0.075075 -0.016607 1546640.000000 0 0 1
-15.333963 -19.027990 10.315109 26.525390 0.892490 1.171384 0.064936 -0.012639 1362370.000000 0 0 1
-15.059163 -19.293590 11.669009 27.114328 0.908043 1.125901 0.082063 -0.017490 -97315.200000 0 0 1
-13.753763 -20.051490 11.993509 27.112221 0.969581 1.112562 0.068158 -0.011308 -823404.000000 0 0 1
-12.673063 -19.228190 11.869109 25.907635 0.988059 1.094904 0.063752 -0.016527 -2263740.000000 0 0 1
-11.528063 -19.961890 12.030409 26.002001 1.047083 1.089789 0.060000 -0.013692 -349869.000000 0 0 1
-10.262463 -19.156590 12.475809 25.058709 1.078987 1.049663 0.082657 -0.022915 497684.000000 0 0 1
-9.599863 -18.559290 11.365509 23.786118 1.093441 1.072624 0.070622 -0.025387 87637.200000 0 1 0
-8.420063 -17.970790 11.903609 23.141795 1.132631 1.030515 0.066022 -0.020757 569561.000000 0 1 0
-7.336163 -17.378390 10.957209 21.814861 1.171348 1.044561 0.044015 -0.014534 352206.000000 0 1 0
-6.605163 -18.329490 10.245709 22.013017 1.224925 1.086666 0.039176 -0.014399 -219568.000000 0 1 0
-5.821263 -17.679990 9.236909 20.779548 1.252719 1.110159 0.031432 -0.004761 -175434.000000 0 1 0
-4.687563 -18.496290 8.655509 20.952418 1.322590 1.144937 0.026704 -0.005137 -962956.000000 0 1 0
-3.525763 -18.443690 9.401909 20.999919 1.381911 1.106592 0.039109 -0.008825 -770126.000000 0 1 0
-2.424263 -18.749990 8.549309 20.749213 1.442216 1.146115 0.039997 -0.017496 -17716.500000 0 1 0
-1.132563 -19.108990 9.284709 21.275385 1.511597 1.119196 0.037087 -0.019851 -457261.000000 0 1 0
-0.211463 -19.645390 8.381709 21.359754 1.560033 1.167550 0.035043 -0.012119 -1756830.000000 0 1 0
1.001537 -19.838790 8.979309 21.799281 -1.520355 1.146249 0.040669 -0.019527 -1025440.000000 0 1 0
2.078537 -20.335290 7.994809 21.949061 -1.468937 1.197976 0.048425 -0.028756 -92542.300000 0 1 0
2.028037 -21.696590 7.533709 23.056706 -1.477595 1.237937 0.050216 -0.025701 -305537.000000 0 1 0
2.144237 -22.705490 8.593009 24.371640 -1.476639 1.210467 0.062115 -0.026064 -17300.000000 0 1 0
1.923137 -24.174190 8.138809 25.579877 -1.491410 1.246995 0.067255 -0.026223 145986.000000 0 0 1
2.043037 -25.087380 9.201609 26.799631 -1.489539 1.220317 0.080446 -0.022700 -183479.000000 0 0 1
1.625737 -26.349140 8.817709 27.832933 -1.509175 1.248434 0.085374 -0.022474 -768120.000000 0 0 1
1.871737 -27.472080 9.855109 29.246226 -1.502769 1.227099 0.094663 -0.018532 237215.000000 0 0 1
1.174837 -27.394560 11.090109 29.577570 -1.527937 1.186454 0.093988 -0.027413 748160.000000 0 0 1
-0.253263 -27.505440 10.962809 29.610750 1.561589 1.191539 0.085686 -0.025893 802629.000000 0 0 1
-1.024263 -27.662260 12.298909 30.290475 1.533786 1.152688 0.084845 -0.030159 291370.000000 0 0 1
-0.703263 -28.866910 12.979609 31.658542 1.546439 1.148356 0.085890 -0.032725 -354987.000000 0 0 1
-1.245763 -28.871480 14.257609 32.224117 1.527674 1.112466 0.086621 -0.037577 -277092.000000 0 0 1
-0.552063 -29.862410 15.159809 33.494598 1.552312 1.101112 0.058576 -0.016897 111867.000000 0 0 1
-1.026463 -29.699830 16.485809 33.984047 1.536249 1.064314 0.061890 -0.018379 -300331.000000 0 0 1
-0.316863 -30.440390 17.389209 35.058556 1.560387 1.051805 0.047280 -0.014074 -321889.000000 0 0 1
-0.772063 -30.029650 18.834309 35.455707 1.545092 1.010772 0.041324 -0.019083 38717.600000 0 0 1
-2.118063 -30.401940 19.008809 35.917948 1.501240 1.013105 0.022745 -0.013199 -291929.000000 0 0 1
-2.512863 -29.955820 20.287609 36.266413 1.487107 0.977129 0.038792 -0.022327 -632562.000000 0 0 1
-3.959063 -30.033260 20.742909 36.714291 1.439729 0.970385 0.059915 -0.027527 -563611.000000 0 0 1
-4.837563 -29.102250 20.126109 35.712788 1.406076 0.972114 0.047298 -0.028622 1151940.000000 0 0 1
-6.105063 -28.875210 20.790709 36.101290 1.362436 0.957093 0.057909 -0.035852 1186540.000000 0 0 1
-6.017863 -27.775120 21.894509 35.875360 1.357430 0.914365 0.065906 -0.039351 -216368.000000 0 0 1
-5.250663 -28.184660 23.033309 36.776050 1.386613 0.893982 0.062451 -0.039562 145738.000000 0 0 1
-5.196663 -27.164560 24.034509 36.641182 1.381777 0.855366 0.063847 -0.038462 -245897.000000 0 0 1
-4.162563 -27.504410 25.135209 37.491309 1.420594 0.836011 0.065149 -0.039458 66455.300000 0 0 1
-4.353563 -28.758270 25.764009 38.855833 1.420552 0.845888 0.064457 -0.035813 -118651.000000 0 0 1
-3.585663 -29.787620 25.211909 39.189280 1.450998 0.871947 0.054648 -0.035424 -114684.000000 0 0 1
-3.757263 -31.052010 26.090509 40.731548 1.450383 0.875585 0.066947 -0.029729 303343.000000 0 0 1
-3.000763 -31.010230 27.289309 41.416728 1.474330 0.851446 0.071486 -0.035488 167550.000000 0 0 1
-3.618863 -31.778360 28.316009 42.717171 1.457407 0.846148 0.069546 -0.025782 -81872.700000 0 0 1
-3.025063 -31.524010 29.719409 43.429915 1.475129 0.817143 0.092459 -0.031123 802042.000000 0 0 1
-1.645063 -31.873590 29.903209 43.735956 1.519230 0.817946 0.095568 -0.031178 605311.000000 0 0 1
-1.194163 -31.676370 31.186509 44.468155 1.533115 0.793546 0.087910 -0.030439 -289463.000000 0 0 1
-29.244283 2.559510 -9.566191 30.875414 -0.087299 1.885813 0.139510 -0.021334 -573751.000000 0 0 1
-30.155963 2.363810 -10.573391 32.043195 -0.078226 1.907071 0.105270 -0.022740 -438524.000000 0 0 1
-30.568323 3.541010 -11.161991 32.734556 -0.115325 1.918761 0.089852 -0.022016 152657.000000 0 0 1
-31.697743 3.385910 -12.224791 34.141717 -0.106415 1.936986 0.090487 -0.025022 948172.000000 0 0 1
-32.886443 2.750810 -11.716591 35.019475 -0.083451 1.911949 0.109377 -0.030583 1285140.000000 0 0 1
-33.872613 2.530210 -12.741091 36.277973 -0.074559 1.929657 0.114667 -0.026682 495510.000000 0 0 1
-35.042164 1.621610 -12.297891 37.172853 -0.046243 1.907979 0.087210 -0.025483 8360.470000 0 0 1
-34.649710 0.323810 -11.987491 36.666159 -0.009345 1.903856 0.110805 -0.025435 -218322.000000 0 0 1
-35.430407 -0.600090 -12.671391 37.632938 0.016936 1.914217 0.086007 -0.025364 -615395.000000 0 0 1
-34.923576 -2.049090 -12.591091 37.180513 0.058606 1.916276 0.095293 -0.029720 414223.000000 0 0 1
-33.640063 -2.298890 -13.198391 36.209616 0.068232 1.943892 0.084313 -0.025540 870021.000000 0 0 1
-33.139013 -3.626890 -12.997991 35.781228 0.109011 1.942564 0.092097 -0.029984 -238391.000000 0 0 1
-33.856073 -4.814890 -13.602391 36.802743 0.141269 1.949378 0.106144 -0.032981 -325363.000000 0 0 1
-33.702353 -6.055690 -12.903491 36.592623 0.177784 1.931172 0.105618 -0.038466 28424.200000 0 0 1
-34.406771 -7.024490 -13.633491 37.670166 0.201392 1.941120 0.108522 -0.036470 -495455.000000 0 0 1
-34.171854 -8.369090 -12.876291 37.464065 0.240184 1.921647 0.095835 -0.038620 632005.000000 0 0 1
-32.873983 -8.979790 -12.757391 36.387998 0.266653 1.929001 0.089352 -0.033676 1033350.000000 0 0 1
-32.257903 -9.272890 -14.025991 36.377015 0.279914 1.966625 0.094367 -0.032202 426207.000000 0 0 1
-31.023103 -10.260090 -13.844591 35.487675 0.319400 1.971562 0.100184 -0.038397 585820.000000 0 0 1
-31.339213 -11.588490 -13.718191 36.119637 0.354183 1.960375 0.099963 -0.032778 -516015.000000 0 0 1
-30.231153 -12.349790 -13.388991 35.294547 0.387823 1.959890 0.092956 -0.023533 -663890.000000 0 0 1
-30.357653 -13.807490 -13.738991 36.069291 0.426861 1.961572 0.097555 -0.021458 -110993.000000 0 0 1
-30.284263 -13.885190 -15.175891 36.609326 0.429896 1.998229 0.092385 -0.025743 -112845.000000 0 0 1
-30.553683 -15.167490 -15.687891 37.545842 0.460780 2.001855 0.095274 -0.023763 -156557.000000 0 0 1
-29.560443 -16.347990 -15.516691 37.173166 0.505171 2.001397 0.069634 -0.012571 -895972.000000 0 0 1
-28.320753 -16.029990 -16.005991 36.265926 0.515056 2.027900 0.076466 -0.019455 -1549540.000000 0 0 1
-27.419183 -17.076690 -16.028591 36.060237 0.557016 2.031407 0.085945 -0.022210 -490067.000000 0 0 1
-26.087683 -16.788990 -16.708491 35.236502 0.571835 2.064830 0.082015 -0.029575 -330376.000000 0 0 1
-26.176903 -16.546990 -18.077191 35.858304 0.563704 2.099169 0.072152 -0.027421 1244990.000000 0 0 1
-24.897063 -16.129090 -18.675091 35.053820 0.574849 2.132649 0.049894 -0.011877 1042010.000000 0 0 1
-24.990663 -15.606990 -20.134391 35.686203 0.558249 2.170268 0.049517 -0.016074 -135661.000000 0 0 1
-25.516133 -16.564890 -21.034091 36.985154 0.575808 2.175742 0.054041 -0.025441 872064.000000 0 0 1
-26.934193 -16.367190 -21.166391 37.965139 0.546043 2.162194 0.067906 -0.029495 602009.000000 0 0 1
-27.604783 -17.586890 -21.860091 39.359704 0.567250 2.159631 0.070475 -0.023662 5034.730000 0 0 1
-27.115963 -17.650190 -23.195491 39.809992 0.577018 2.192788 0.060867 -0.015700 286177.000000 0 0 1
-27.657193 -18.769490 -23.884391 41.081361 0.596251 2.191235 0.049549 -0.012713 -452218.000000 0 0 1
-26.873553 -18.985290 -25.163621 41.422662 0.615053 2.223686 0.056315 -0.015921 933461.000000 0 0 1
-25.519193 -19.458090 -25.027001 40.696403 0.651446 2.233142 0.061499 -0.015526 714182.000000 0 0 1
-25.433503 -20.869890 -24.879191 41.247903 0.687156 2.218257 0.059408 -0.013710 1055650.000000 0 0 1
-23.898563 -21.175990 -24.625991 40.323731 0.725070 2.227750 0.062670 -0.008636 1890670.000000 0 0 1
-23.038463 -21.132990 -25.796111 40.531634 0.742287 2.260675 0.063255 -0.015286 585411.000000 0 0 1
-21.695963 -21.453790 -25.459511 39.738729 0.779786 2.266170 0.054971 -0.014754 178861.000000 0 0 1
-20.703263 -21.308390 -26.594281 39.873906 0.799801 2.300917 0.053687 -0.020378 -610670.000000 0 0 1
-20.820963 -22.289390 -27.617871 41.147007 0.819447 2.306623 0.062275 -0.012344 -204003.000000 0 0 1
-21.733263 -21.914490 -28.633461 42.100530 0.789550 2.318724 0.076769 -0.018861 190427.000000 0 0 1
-21.121563 -22.110890 -30.046561 42.869659 0.808278 2.347429 0.074271 -0.023709 181011.000000 0 0 1
-20.917263 -23.443190 -30.416351 43.729503 0.842278 2.339991 0.070790 -0.030036 -78847.400000 0 0 1
-20.325463 -23.395590 -31.700441 44.332787 0.855504 2.367501 0.077990 -0.028329 181584.000000 0 0 1
-19.427963 -24.642090 -32.002531 44.820088 0.903165 2.366023 0.064364 -0.027238 257573.000000 0 0 1
-18.771263 -24.518590 -33.292201 45.408063 0.917390 2.393780 0.061725 -0.024265 302262.000000 0 0 1
-19.607163 -24.543090 33.655671 46.038118 0.896734 0.750953 0.047676 -0.014303 -133991.000000 0 0 1
-18.791863 -24.545290 32.350989 44.745858 0.917386 0.762670 0.043748 -0.014568 -253201.000000 0 0 1
-18.243363 -23.308190 31.940141 43.546120 0.906692 0.747371 0.050305 -0.023783 -239857.000000 0 0 1
-17.444263 -23.499290 30.784741 42.476101 0.932221 0.760118 0.051653 -0.012342 105745.000000 0 0 1
-16.467063 -22.348290 30.501201 41.242375 0.935772 0.738380 0.049690 -0.008635 -160353.000000 0 0 1
-17.128663 -21.205790 30.016541 40.547125 0.891357 0.737298 0.051208 -0.015889 168896.000000 0 0 1
-16.271363 -20.085290 29.667981 39.349272 0.889919 0.716719 0.049655 -0.014618 269169.000000 0 0 1
-15.616463 -19.425590 30.885591 39.688124 0.893675 0.678990 0.053128 -0.022628 26066.600000 0 0 1
-14.890663 -18.235890 30.594141 38.604157 0.886040 0.655884 0.052320 -0.022738 -25835.000000 0 0 1
-14.437363 -17.679190 31.795601 39.140151 0.885997 0.622621 0.056736 -0.026734 -198948.000000 0 0 1
-13.858663 -16.280090 31.649061 38.193807 0.865569 0.594116 0.063467 -0.022154 -299310.000000 0 0 1
-12.733863 -16.099090 30.825671 37.034497 0.901587 0.587462 0.085014 -0.028874 -213850.000000 0 0 1
-12.482563 -14.766290 30.483261 36.098295 0.869013 0.565256 0.081380 -0.026022 -474233.000000 0 0 1
-10.982063 -14.581390 30.284731 35.360819 0.925278 0.542446 0.095320 -0.027494 -370905.000000 0 0 1
-10.624263 -13.229590 30.018361 34.481865 0.894187 0.514467 0.086490 -0.024867 -312068.000000 0 0 1
-9.283363 -12.959890 30.331051 34.265321 0.949204 0.483911 0.077866 -0.026127 -94487.700000 0 0 1
-8.993463 -11.458390 30.470481 33.773174 0.905343 0.445931 0.072088 -0.021069 -93688.200000 0 0 1
-9.688363 -10.818290 31.500521 34.686922 0.840443 0.431981 0.068398 -0.013350 179630.000000 0 0 1
-9.287563 -9.476690 31.423801 34.110434 0.795477 0.399547 0.056428 -0.010132 55762.700000 0 0 1
-10.151863 -8.575790 32.351159 34.974304 0.701438 0.389766 0.045470 -0.008037 151411.000000 0 0 1
-11.460763 -8.285990 31.910951 34.904376 0.625988 0.417170 0.041069 -0.013960 143021.000000 0 0 1
-12.309063 -7.611890 32.826580 35.875315 0.553837 0.415242 0.039967 -0.012175 88999.300000 0 0 1
-12.044063 -6.124290 33.172891 35.819088 0.470417 0.386794 0.025376 -0.005587 -411022.000000 0 0 1
-12.291863 -5.291590 32.095771 34.773975 0.406516 0.395037 0.035968 -0.008194 121932.000000 0 0 1
-12.521563 -3.977990 32.616431 35.163127 0.307607 0.382927 0.033338 -0.011317 -361339.000000 0 0 1
-12.093763 -2.825690 31.727261 34.071435 0.229531 0.373110 0.039017 -0.009796 -405280.000000 0 0 1
-10.738163 -2.538090 31.930981 33.783688 0.232102 0.332713 0.050509 -0.011698 -285863.000000 0 0 1
-10.371063 -1.430290 31.104231 32.818864 0.137047 0.324674 0.044810 -0.004477 577564.000000 0 0 1
-8.871363 -1.013290 31.321021 32.568914 0.113727 0.277715 0.052476 -0.009945 768697.000000 0 0 1
-8.525763 -0.596690 32.629674 33.730406 0.069873 0.256173 0.067770 -0.030874 -196659.000000 0 0 1
-7.175063 -0.198690 32.615755 33.396234 0.027685 0.216619 0.077034 -0.034339 -140071.000000 0 0 1
-6.689363 0.612310 33.830227 34.490676 -0.091281 0.196011 0.119604 -0.043701 -161599.000000 0 0 1
-7.114463 1.969210 33.954241 34.747429 -0.270029 0.214078 0.116172 -0.040769 -17933.100000 0 0 1
-6.682763 2.886810 32.967666 33.761812 -0.407767 0.217324 0.117474 -0.043476 -252008.000000 0 0 1
-7.493163 4.161610 33.008948 34.103623 -0.506970 0.254054 0.118884 -0.042077 131144.000000 0 0 1
-8.842863 3.950310 32.641662 34.048190 -0.420125 0.288436 0.087431 -0.030682 -12486.000000 0 0 1
-9.674163 5.028010 33.035319 34.787967 -0.479311 0.318778 0.073645 -0.019556 530947.000000 0 0 1
-11.046163 4.926510 32.279523 34.471087 -0.419517 0.358503 0.050747 -0.009054 828858.000000 0 0 1
-11.965763 5.938110 32.734073 35.354776 -0.460650 0.387454 0.052059 -0.006630 -42652.100000 0 0 1
-12.912263 6.249410 31.761301 34.850565 -0.450758 0.424228 0.022078 -0.000451 154534.000000 0 0 1
-13.771063 7.517810 32.127401 35.753735 -0.499700 0.454286 0.028002 -0.006642 778327.000000 0 0 1
-14.547763 7.439010 33.358215 37.144943 -0.472687 0.455468 0.027791 -0.007251 483167.000000 0 0 1
-15.399063 8.570710 33.442405 37.801887 -0.507876 0.484999 0.038475 -0.003347 -65473.000000 0 0 1
-16.016063 8.783210 -33.348331 38.023285 -0.501614 2.640483 0.033630 0.004238 -852312.000000 0 0 1
-15.215763 9.393110 -32.453061 37.053355 -0.553063 2.637984 0.033632 0.002849 -914660.000000 0 0 1
-15.918363 9.779410 -31.302291 36.453595 -0.550903 2.603502 0.038531 0.001101 -854342.000000 0 0 1
-15.023363 10.148210 -30.069031 35.111739 -0.594090 2.599016 0.052219 -0.008033 1236570.000000 0 0 1
-14.138663 11.316010 -30.229211 35.238602 -0.674960 2.601855 0.060771 -0.010464 774909.000000 0 0 1
-12.909363 11.090610 -30.888161 35.266582 -0.709761 2.637986 0.056757 -0.018910 -140349.000000 0 0 1
-12.173663 12.445310 -31.040561 35.589328 -0.796432 2.630452 0.059696 -0.017653 215155.000000 0 0 1
-12.853563 13.307110 -31.957101 36.926272 -0.802733 2.616804 0.060802 -0.016350 348462.000000 0 0 1
-12.145963 14.517010 -32.131901 37.292453 -0.874091 2.609248 0.066303 -0.016022 76553.300000 0 0 1
-12.150363 15.509610 -30.892931 36.640858 -0.906254 2.573870 0.067410 -0.014109 374734.000000 0 0 1
-13.403063 16.187010 -30.817731 37.301393 -0.879206 2.543093 0.065992 -0.016393 514504.000000 0 0 1
-13.426863 17.207010 -29.878441 37.001123 -0.908175 2.510699 0.060374 -0.016409 532750.000000 0 0 1
-14.810363 17.952010 -29.918311 37.904180 -0.880998 2.480488 0.057841 -0.017456 229925.000000 0 0 1
-15.010063 18.570110 -31.161811 39.258241 -0.891020 2.487770 0.049516 -0.017939 1500120.000000 0 0 1
-16.396563 18.979310 -31.382321 40.173518 -0.858278 2.467333 0.048892 -0.019360 1796900.000000 0 0 1
-16.892663 20.192110 -30.546701 40.325976 -0.874135 2.430263 0.040842 -0.021196 -769073.000000 0 0 1
-16.380263 21.388410 -31.072191 41.124909 -0.917230 2.427299 0.044092 -0.015345 -89897.200000 0 0 1
-16.940763 22.655310 -30.722531 41.762740 -0.928730 2.397414 0.028876 -0.010021 581022.000000 0 0 1
-18.359063 22.935710 -31.344111 42.959927 -0.895776 2.388552 0.040470 -0.011355 306137.000000 0 0 1
-19.384063 22.240410 -30.715211 42.588754 -0.853913 2.376336 0.047753 -0.017918 -618094.000000 0 0 1
-20.486263 22.062010 -31.566061 43.621502 -0.822416 2.379851 0.071727 -0.018914 -362773.000000 0 0 1
-21.692263 21.345210 -30.879491 43.355683 -0.777334 2.363475 0.085300 -0.027707 193344.000000 0 0 1
-22.543463 22.123810 -30.053071 43.598828 -0.776003 2.331331 0.112882 -0.024898 775492.000000 0 0 1
-23.462863 22.993710 -30.711501 44.971246 -0.775300 2.322541 0.117366 -0.021213 -810084.000000 0 0 1
-24.832963 22.509510 -31.105921 45.726715 -0.736360 2.318910 0.124439 -0.034709 -1085770.000000 0 0 1
-24.722163 21.617710 -32.246051 46.025195 -0.718505 2.347059 0.123180 -0.028874 -448313.000000 0 0 1
-25.972653 21.325310 -32.746761 46.922254 -0.687456 2.343249 0.134495 -0.028271 -829338.000000 0 0 1
-25.811343 20.509610 34.057875 47.400510 -0.671438 0.769135 0.125143 -0.019064 -88483.900000 0 0 1
-25.326993 19.196910 -33.891461 46.460834 -0.648578 2.388333 0.121838 -0.022122 224497.000000 0 0 1
-25.382683 18.550010 33.011525 45.586668 -0.631108 0.760997 0.098715 -0.030615 161864.000000 0 0 1
-24.749063 17.078110 33.107897 44.724835 -0.604017 0.737343 0.080898 -0.011126 264364.000000 0 0 1
-25.663793 16.076510 33.535074 45.185016 -0.559625 0.734490 0.076068 -0.005730 422005.000000 0 0 1
-25.938163 15.102510 32.515778 44.250988 -0.527266 0.745420 0.075643 -0.009752 -455932.000000 0 0 1
-26.764133 13.860810 32.868267 44.595559 -0.477855 0.742131 0.043603 0.004137 528277.000000 0 0 1
-28.142823 14.229310 33.066115 45.693104 -0.468126 0.761710 0.045530 0.012806 544907.000000 0 0 1
-29.064293 13.149710 33.008629 45.904440 -0.424877 0.768329 0.061271 0.014143 217831.000000 0 0 1
-29.052853 11.871610 33.902912 46.199684 -0.387916 0.746847 0.056650 0.008177 -742859.000000 0 0 1
-27.971043 11.006810 33.715666 45.169406 -0.374897 0.728120 0.062006 -0.007598 -975467.000000 0 0 1
-28.175833 9.714810 -33.860791 45.108849 -0.332028 2.419836 0.075727 -0.009207 -878083.000000 0 0 1
-26.867643 8.927810 -33.624741 43.956788 -0.320810 2.441760 0.062493 -0.013205 -188015.000000 0 0 1
-25.964203 8.800610 33.455383 43.253361 -0.326799 0.686491 0.044809 -0.008898 -349204.000000 0 0 1
-25.259233 10.000710 33.193195 42.893254 -0.376987 0.685890 0.034865 -0.008141 -1450900.000000 0 0 1
-23.950163 9.661210 32.460007 41.480132 -0.383424 0.672056 0.023341 -0.002076 -335617.000000 0 0 1
-24.182263 9.465310 31.076451 40.498392 -0.373084 0.696098 0.023142 -0.012163 395924.000000 0 0 1
-22.939763 9.307910 30.400131 39.205075 -0.385457 0.683427 0.024229 -0.010707 406830.000000 0 0 1
-22.911563 9.110510 28.853511 37.953474 -0.378469 0.707124 0.040963 -0.018366 -54951.400000 0 0 1
-23.522563 10.218810 28.229481 38.139725 -0.409827 0.737489 0.040906 -0.013522 298239.000000 0 0 1
-23.430263 10.094010 26.818081 37.014534 -0.406782 0.760446 0.047629 -0.012752 -886865.000000 0 0 1
-23.631063 11.425110 26.067191 36.992685 -0.450343 0.788855 0.058039 -0.013391 1029210.000000 0 0 1
-24.946963 11.991410 26.171051 38.092897 -0.448069 0.813399 0.069495 -0.013179 540285.000000 0 0 1
-26.011993 11.296910 25.573481 38.186999 -0.409718 0.837004 0.070479 -0.010560 -170235.000000 0 0 1
-27.386503 11.944710 25.919301 39.553847 -0.411279 0.856228 0.072991 -0.006958 266751.000000 0 0 1
-27.531383 13.264710 25.402991 39.739672 -0.448985 0.877293 0.081184 -0.008523 357181.000000 0 0 1
-28.861373 13.766910 25.524771 40.914797 -0.445080 0.897135 0.085009 -0.015835 541300.000000 0 0 1
-29.127253 15.019010 24.634611 40.997946 -0.476077 0.926202 0.112029 -0.020190 -66494.500000 0 0 1
-28.455933 16.198210 25.072561 41.240217 -0.517494 0.917303 0.112564 -0.025741 -20410.400000 0 0 1
-28.648453 17.241710 24.186461 41.267364 -0.541769 0.944570 0.116952 -0.031387 -13426.300000 0 0 1
-22.848563 -9.521890 31.995681 40.453020 0.394853 0.658462 0.052221 -0.028592 498892.000000 0 0 1
-21.919363 -8.876090 31.091071 39.062746 0.384760 0.650260 0.045425 -0.023451 700952.000000 0 0 1
-22.413163 -8.902390 29.701451 38.259360 0.378086 0.681992 0.040781 -0.019360 27324.200000 0 0 1
-21.366963 -8.514190 28.641181 36.733578 0.379191 0.676609 0.056868 -0.017702 -576408.000000 0 0 1
-20.821563 -7.172790 28.668341 36.150521 0.331756 0.655034 0.048486 -0.015857 -522649.000000 0 0 1
-19.587663 -6.969990 29.256631 35.891611 0.341864 0.617828 0.046198 -0.014219 -879330.000000 0 0 1
-18.389063 -7.551790 28.482161 34.733567 0.389668 0.609353 0.057368 -0.019729 -1446840.000000 0 0 1
-18.110163 -8.944990 28.477981 34.913983 0.458773 0.616925 0.058167 -0.013097 69446.300000 0 0 1
-17.608863 -9.515690 29.685771 35.803148 0.495437 0.593231 0.058560 -0.015270 371946.000000 0 0 1
-16.147363 -9.179690 30.145821 35.408679 0.516932 0.552208 0.051193 -0.016267 196926.000000 0 0 1
-15.142363 -9.774590 29.348851 34.441092 0.573214 0.550723 0.052242 -0.014817 -317638.000000 0 0 1
-13.930163 -9.331490 29.937401 34.312885 0.590222 0.510536 0.051259 -0.019671 328713.000000 0 0 1
-12.623663 -9.946890 29.365911 33.476174 0.667354 0.500759 0.060029 -0.013885 91688.600000 0 0 1
-12.304263 -9.594990 28.068011 32.113423 0.662308 0.507366 0.080591 -0.022019 -306451.000000 0 0 1
-11.138063 -10.239290 27.639761 31.509616 0.743380 0.500829 0.084558 -0.017628 -413608.000000 0 0 1
-10.801063 -10.062390 26.168541 30.045086 0.750008 0.513612 0.074547 -0.015960 -35366.100000 0 0 1
-11.750163 -10.579090 25.247531 29.789617 0.733000 0.559486 0.075475 -0.021028 -7406.760000 0 0 1
-11.268063 -10.451890 23.935711 28.445202 0.747839 0.570803 0.070073 -0.020288 -318146.000000 0 0 1
-12.284163 -10.805990 22.872791 28.121782 0.721468 0.620913 0.080668 -0.020554 -1652090.000000 0 0 1
-12.344463 -12.201990 22.682091 28.561365 0.779594 0.653184 0.081189 -0.014967 711620.000000 0 0 1
-13.577263 -12.577290 22.049391 28.787253 0.747184 0.698290 0.079662 -0.012098 1253220.000000 0 0 1
-14.857363 -12.308290 22.942791 29.976772 0.691838 0.699208 0.075226 -0.019434 -353981.000000 0 0 1
-15.985563 -13.116590 22.569091 30.609590 0.687133 0.741700 0.054936 -0.005647 4207.920000 0 0 1
-16.995963 -12.996590 23.515761 31.792532 0.652835 0.738227 0.052162 -0.005558 -748887.000000 0 0 1
-18.193963 -13.837590 23.062391 32.471111 0.650225 0.780952 0.057884 -0.007122 -875362.000000 0 0 1
-18.120263 -15.255990 23.190161 33.149249 0.699790 0.796003 0.051511 -0.007857 -305264.000000 0 0 1
-19.305663 -15.998090 23.011291 34.031853 0.691982 0.828246 0.064512 -0.009600 -250183.000000 0 0 1
-20.316863 -15.977890 24.195301 35.404526 0.666415 0.818392 0.055409 -0.006370 -131426.000000 0 0 1
-19.783463 -16.748890 25.256911 36.191467 0.702523 0.798378 0.060143 -0.010438 498966.000000 0 0 1
-20.512063 -16.439690 26.448941 37.290141 0.675633 0.782328 0.053322 -0.009334 281526.000000 0 0 1
-20.059663 -17.405390 27.577711 38.286653 0.714670 0.766568 0.054250 -0.010734 36432.700000 0 0 1
-20.258763 -18.784590 27.258661 38.811247 0.747659 0.792118 0.054081 -0.006146 202320.000000 0 0 1
-19.986263 -19.620990 28.383641 39.875619 0.776176 0.778732 0.046088 -0.013199 -126122.000000 0 0 1
-19.926563 -21.114890 27.990511 40.328342 0.814344 0.803675 0.045245 -0.003832 443498.000000 0 0 1
-21.243863 -21.626790 27.784051 41.121445 0.794330 0.828939 0.042430 -0.001640 428933.000000 0 0 1
-21.176663 -22.943290 27.277951 41.460007 0.825418 0.852724 0.047688 0.007226 -50213.500000 0 0 1
-22.548063 -23.495090 26.879131 42.224662 0.805963 0.880748 0.057185 0.003520 -615432.000000 0 0 1
-23.378363 -23.883090 27.924991 43.551750 0.796077 0.874747 0.051512 0.005641 -1065950.000000 0 0 1
-24.575663 -24.340490 27.406741 44.131079 0.780591 0.900740 0.040376 0.008287 -1143870.000000 0 0 1
-25.222143 -25.305070 28.341311 45.604089 0.787039 0.900186 0.023056 0.009620 -672100.000000 0 0 1
-25.717103 -24.619690 29.455601 46.207477 0.763600 0.879594 0.025228 0.004750 8978.850000 0 0 1
-26.314563 -25.632160 30.287271 47.610741 0.772262 0.881306 0.017162 0.000575 477363.000000 0 0 1
-27.430583 -25.031790 31.237901 48.526630 0.739706 0.871438 0.028698 -0.003788 862784.000000 0 0 1
-28.558143 -24.656390 30.450981 48.484712 0.712208 0.891747 0.036196 -0.006978 -92870.100000 0 0 1
-29.567003 -24.049390 31.212231 49.262401 0.682850 0.884610 0.048877 -0.017198 -457299.000000 0 0 1
-30.741153 -23.597790 30.317601 49.203974 0.654688 0.906936 0.062903 -0.019036 -1051390.000000 0 0 1
-31.778843 -24.507390 30.397721 50.344101 0.656923 0.922538 0.068330 -0.026145 -1166830.000000 0 0 1
-32.745303 -24.209190 29.443711 50.252083 0.636629 0.944781 0.062244 -0.030427 -1008750.000000 0 0 1
-34.040563 -24.857590 29.891261 51.673467 0.630731 0.953951 0.068544 -0.029700 -753775.000000 0 0 1
-33.909143 -26.292450 29.899791 52.298379 0.659547 0.962201 0.075590 -0.032615 981711.000000 0 0 1
-35.102255 -26.911340 30.458751 53.704041 0.654076 0.967744 0.077893 -0.019452 1038790.000000 0 0 1
-34.978280 -28.396740 30.709621 54.524634 0.681918 0.972513 0.078013 -0.021965 -312179.000000 0 0 1
-34.041653 -28.621230 31.707511 54.620282 0.699112 0.951444 0.079422 -0.021181 -476525.000000 0 0 1
-33.852913 -30.030320 31.786761 55.301338 0.725632 0.958447 0.084057 -0.030452 491813.000000 0 0 1
-32.699223 -30.503150 32.732590 55.417540 0.750665 0.938927 0.083551 -0.020235 279763.000000 0 0 1
-33.112883 -30.378170 34.025614 56.365225 0.742352 0.922708 0.072291 -0.010238 -216605.000000 0 0 1
-32.079793 -30.578080 -33.153131 55.346745 0.761436 2.213058 0.055432 -0.018777 200777.000000 0 0 1
-32.501363 -30.312740 -31.630601 54.549938 0.750569 2.189337 0.052057 -0.021147 160214.000000 0 0 1
-32.583043 -28.971860 -31.289041 53.665887 0.726799 2.193255 0.052427 -0.011673 -529955.000000 0 0 1
-31.360443 -28.452810 -30.853781 52.392705 0.736825 2.200487 0.040825 -0.010099 -456095.000000 0 0 1
-31.371493 -26.909230 -30.767181 51.525689 0.708982 2.210706 0.025943 -0.001149 -165365.000000 0 0 1
-32.148933 -26.290700 -29.765441 51.095364 0.685488 2.192655 0.026715 -0.006146 -193881.000000 0 0 1
-32.205263 -24.888990 -29.800341 50.445031 0.657949 2.202783 0.026009 0.001038 265286.000000 0 0 1
-31.071243 -24.139390 -29.033121 48.898409 0.660499 2.206500 0.026540 -0.000220 130331.000000 0 0 1
-30.993313 -22.745390 -29.327151 48.353076 0.633105 2.222474 0.026279 -0.004477 271138.000000 0 0 1
-30.057403 -22.053590 -28.506651 46.930134 0.632997 2.223614 0.038431 -0.002471 95677.000000 0 0 1
-29.840563 -20.526690 -28.671001 46.193403 0.602544 2.240397 0.045012 -0.022414 -151735.000000 0 0 1
-29.057613 -20.201090 -29.780491 46.252638 0.607503 2.270336 0.047238 -0.008860 141757.000000 0 0 1
-28.867513 -18.842690 -29.964631 45.675588 0.578292 2.286345 0.044674 -0.019622 -107759.000000 0 0 1
-28.476553 -18.358490 -31.401551 46.195299 0.572632 2.318227 0.055398 -0.014192 -54742.900000 0 0 1
-29.530543 -18.188790 -32.315081 47.404109 0.552051 2.320871 0.060736 -0.025004 -129542.000000 0 0 1
-30.266053 -17.010290 -32.069841 47.263714 0.512029 2.316556 0.063215 -0.022382 -287913.000000 0 0 1
-31.292103 -16.608590 -33.147121 48.515694 0.487952 2.322966 0.061473 -0.031982 63103.600000 0 0 1
-32.245913 -17.619390 -33.434531 49.680073 0.500080 2.309049 0.072626 -0.038141 84526.600000 0 0 1
-33.550043 -17.077790 -33.339651 50.287062 0.470841 2.295598 0.071825 -0.036001 102943.000000 0 0 1
-34.471305 -17.760690 33.754185 51.410680 0.475758 0.854548 0.071379 -0.029129 -373301.000000 0 0 1
-34.841326 -19.068590 34.035850 52.306483 0.500766 0.862290 0.054154 -0.032121 -248459.000000 0 0 1
-35.476543 -19.732590 33.003548 52.318203 0.507602 0.888182 0.057845 -0.026972 -656945.000000 0 0 1
-35.648803 -21.208990 33.285298 53.184297 0.536692 0.894578 0.053664 -0.028868 -233455.000000 0 0 1
-34.473512 -21.930390 33.077592 52.568928 0.566578 0.890243 0.064252 -0.032813 -615561.000000 0 0 1
-34.718820 -23.265590 33.451724 53.532252 0.590386 0.895807 0.064611 -0.035925 -635543.000000 0 0 1
-33.478063 -24.157290 33.406051 53.106681 0.625067 0.890483 0.062236 -0.028984 405509.000000 0 0 1
-32.441483 -24.070690 -33.739871 52.632944 0.638344 2.266650 0.041522 -0.029083 689078.000000 0 0 1
-31.743213 -22.825690 -33.700121 51.617263 0.623412 2.282183 0.040140 -0.027499 -1614480.000000 0 0 1
-30.492883 -22.798090 -32.877481 50.304051 0.641997 2.283095 0.041547 -0.017123 -937890.000000 0 0 1
-29.528403 -23.759190 -33.329931 50.470883 0.677553 2.292120 0.037205 -0.012378 402542.000000 0 0 1
-28.286103 -23.645190 -32.651311 49.247403 0.696269 2.295623 0.046026 -0.013785 153612.000000 0 0 1
-28.176343 -24.234890 -31.233191 48.546353 0.710337 2.269686 0.033312 0.003068 -1011280.000000 0 0 1
-28.037223 -25.663580 -31.164141 49.151896 0.741226 2.257559 0.041507 -0.006814 -136508.000000 0 0 1
-27.545203 -26.036970 -29.903941 48.279475 0.757258 2.238765 0.021176 -0.002907 57337.200000 0 0 1
-27.170783 -27.481910 -29.629611 48.697235 0.791091 2.224897 0.026017 -0.008044 -22062.700000 0 0 1
-28.328343 -28.271760 -29.457791 49.694556 0.784398 2.205299 0.016621 0.001109 -40845.000000 0 0 1
-28.075033 -29.540840 -28.852711 49.933432 0.810834 2.186856 0.021714 -0.004169 -265663.000000 0 0 1
-28.709043 -30.802680 -29.453061 51.385767 0.820564 2.181172 0.022990 0.001360 -207889.000000 0 0 1
-28.293603 -31.064880 -30.773341 52.082178 0.832051 2.202922 0.035823 -0.019077 64618.600000 0 0 1
-28.556723 -32.406800 -31.141931 53.249479 0.848468 2.195468 0.043514 -0.010654 -203284.000000 0 0 1
-28.215653 -32.718740 -32.591511 54.118810 0.859165 2.217077 0.056389 -0.024961 401220.000000 0 0 1
-26.813933 -32.781620 -32.823271 53.581608 0.885202 2.230123 0.046982 -0.031341 -183128.000000 0 0 1
-26.453163 -33.058680 33.973095 54.284596 0.895941 0.894597 0.069334 -0.035842 525867.000000 0 0 1
-24.950863 -33.474110 33.879523 53.766938 0.930260 0.889091 0.061582 -0.033813 568077.000000 0 0 1
-24.587563 -33.979040 32.603656 53.123646 0.944400 0.910018 0.066187 -0.025777 113169.000000 0 0 1
-23.564563 33.268075 32.696389 52.259997 -0.954506 0.894834 0.058666 -0.016699 -183620.000000 0 0 1
-23.486563 32.264747 31.530371 50.860563 -0.941569 0.902133 0.057400 -0.014612 -534456.000000 0 0 1
-24.623463 31.446452 31.362231 50.781727 -0.906490 0.905123 0.092864 -0.036934 -205795.000000 0 0 1
-24.532963 30.362722 30.436201 49.498722 -0.891199 0.908552 0.088417 -0.023481 -777279.000000 0 0 1
-25.854953 29.839842 29.885751 49.518208 -0.856825 0.922875 0.094157 -0.023840 -382911.000000 0 0 1
-26.622033 29.102002 30.793261 50.038826 -0.829873 0.907919 0.084121 -0.025972 -68825.500000 0 0 1
-27.824753 28.548172 30.310151 50.079140 -0.798230 0.920723 0.086216 -0.025630 83392.700000 0 0 1
-28.276163 27.393762 31.247341 50.262868 -0.769549 0.899913 0.069381 -0.038882 -532602.000000 0 0 1
-27.454813 26.246102 31.276031 49.201776 -0.762894 0.881922 0.079396 -0.035513 -337508.000000 0 0 1
-28.060513 25.041162 31.674941 49.170663 -0.728600 0.870841 0.076446 -0.020542 885920.000000 0 0 1
-29.287253 24.523882 30.821401 49.082815 -0.697108 0.891884 0.072150 -0.014510 1091880.000000 0 0 1
-28.832093 24.360822 29.505041 47.909150 -0.701538 0.907327 0.078927 -0.021818 184368.000000 0 0 1
-29.862663 23.676292 28.784651 47.758785 -0.670359 0.923905 0.083820 -0.015332 553970.000000 0 0 1
-29.525043 23.375962 27.303811 46.515179 -0.669680 0.943464 0.097723 -0.031797 -30846.400000 0 0 1
-28.416633 22.516502 27.252931 45.356589 -0.670071 0.926221 0.096797 -0.028715 -753000.000000 0 0 1
-27.752003 22.565502 26.079231 44.266261 -0.682685 0.940796 0.102024 -0.032967 -801068.000000 0 0 1
-26.337623 22.000002 26.126791 43.130960 -0.695902 0.920082 0.110602 -0.031735 -543512.000000 0 0 1
-26.324773 20.652002 26.544741 42.709743 -0.665223 0.900121 0.120314 -0.035445 -141469.000000 0 0 1
-25.049963 20.105302 26.766931 41.811391 -0.676329 0.876060 0.105764 -0.029359 -264778.000000 0 0 1
-25.107283 18.850502 27.652441 41.837478 -0.644012 0.848714 0.117057 -0.031379 -513429.000000 0 0 1
-23.862263 18.374502 28.049991 41.156189 -0.656193 0.820918 0.094800 -0.017414 -290065.000000 0 0 1
-24.050563 17.395302 29.047111 41.530239 -0.626180 0.796210 0.088091 -0.016862 -1907.820000 0 0 1
-22.850363 16.466502 29.272471 40.622190 -0.624433 0.766125 0.071245 -0.021985 -439453.000000 0 0 1
-21.729263 16.882702 29.993971 40.704113 -0.660532 0.742356 0.093056 -0.020303 239852.000000 0 0 1
-20.690563 15.897102 29.882231 39.670707 -0.655127 0.717797 0.065942 -0.020794 966053.000000 0 0 1
-19.466763 16.166002 30.844611 39.895921 -0.693029 0.687040 0.057703 -0.023400 352157.000000 0 0 1
-19.758263 16.175102 32.245375 41.131339 -0.686010 0.669775 0.059672 -0.019646 -178267.000000 0 0 1
-18.702863 16.599502 33.054751 41.448246 -0.725887 0.647665 0.049660 -0.021835 -997538.000000 0 0 1
-18.917363 16.315202 -33.573351 41.847608 -0.711675 2.501895 0.053661 -0.027210 -18551.500000 0 0 1
-19.928263 17.068802 -32.917601 42.095702 -0.708263 2.468617 0.064303 -0.024482 131827.000000 0 0 1
-21.182363 16.453802 -33.078761 42.586671 -0.660414 2.460269 0.076000 -0.016036 -1262360.000000 0 0 1
-22.342263 17.097102 -32.359871 42.879469 -0.653181 2.425948 0.097060 -0.029030 -601679.000000 0 0 1
-22.313463 16.839902 -30.946451 41.703186 -0.646500 2.406941 0.085947 -0.028500 81282.200000 0 0 1
-23.221163 17.732602 -30.346671 42.125859 -0.652174 2.375148 0.073360 -0.024267 -501098.000000 0 0 1
-23.321363 17.644602 -28.773511 41.026003 -0.647702 2.348083 0.074938 -0.025849 113366.000000 0 0 1
-23.927063 16.507102 -28.159331 40.471431 -0.603910 2.340306 0.065295 -0.023538 461596.000000 0 0 1
-25.331243 16.449102 -28.402211 41.459986 -0.575925 2.325470 0.069205 -0.015951 62119.100000 0 0 1
-25.952043 15.310802 -27.567351 40.839785 -0.533008 2.311777 0.074433 -0.012919 -209899.000000 0 0 1
-25.512993 13.981602 -27.835951 40.264602 -0.501321 2.334118 0.061839 -0.005124 292576.000000 0 0 1
-26.471303 13.082002 -27.303181 40.216071 -0.458993 2.317076 0.040901 -0.006221 219099.000000 0 0 1
-26.011593 11.638902 -27.377811 39.517231 -0.420732 2.336171 0.053177 -0.011959 -101044.000000 0 0 1
-24.827563 11.420602 -26.666591 38.183048 -0.431136 2.343939 0.062466 -0.016475 -484912.000000 0 0 1
-24.111463 10.360602 -27.206381 37.800686 -0.405842 2.374213 0.052594 -0.002573 166135.000000 0 0 1
-22.988963 9.728802 -26.327271 36.280397 -0.400340 2.382791 0.072004 -0.011204 297181.000000 0 0 1
-23.489663 8.726502 -25.516041 35.762892 -0.355702 2.365246 0.079360 -0.014233 677506.000000 0 0 1
-22.445163 8.240702 -24.658491 34.347281 -0.351869 2.371601 0.090056 -0.008738 457364.000000 0 0 1
-23.046663 7.038002 -23.832691 33.892172 -0.296386 2.350673 0.075700 -0.007221 287498.000000 0 0 1
-23.233163 5.867402 -24.567191 34.318408 -0.247372 2.368652 0.085177 -0.021309 160056.000000 0 0 1
-23.491663 4.781102 -23.725591 33.728635 -0.200781 2.351002 0.074095 -0.007792 -273945.000000 0 0 1
35.762821 24.143610 -10.481991 44.404566 0.593821 1.809102 0.005379 0.008791 25930.200000 0 0 1
36.369511 23.707110 -9.300391 44.398938 0.577668 1.781833 0.014372 0.004021 904102.000000 0 0 1
-35.814694 23.108310 -9.544091 43.678095 -0.573007 1.791083 0.021977 0.006171 974086.000000 0 0 1
-35.157027 22.773010 -8.204091 42.684115 -0.574793 1.764205 0.010748 0.007170 -471894.000000 0 0 1
-35.708026 21.672010 -7.611391 42.457890 -0.545494 1.751040 0.011936 0.000460 -530527.000000 0 0 1
-34.897548 21.225810 -6.580791 41.372463 -0.546451 1.730537 0.030742 -0.007744 -749783.000000 0 0 1
-35.438938 20.126210 -5.649691 41.144887 -0.516491 1.708544 0.037552 -0.002268 -462772.000000 0 0 1
-35.711923 18.894510 -6.297791 40.890172 -0.486641 1.725429 0.031012 -0.002135 422322.000000 0 0 1
-36.014775 17.874810 -5.310191 40.555777 -0.460698 1.702109 0.037865 -0.016699 -368752.000000 0 0 1
-36.648513 16.649310 -5.993991 40.696941 -0.426422 1.718618 0.041589 -0.006787 -368439.000000 0 0 1
35.588191 17.068910 -6.491491 40.000082 0.447213 1.733804 0.037792 -0.011323 -284317.000000 0 0 1
35.095471 16.081310 -7.369891 39.301602 0.429665 1.759434 0.052490 -0.012703 909970.000000 0 0 1
33.878431 16.497010 -8.304291 38.585758 0.453151 1.787710 0.038933 -0.020480 750719.000000 0 0 1
33.386841 15.418210 -9.041791 37.870257 0.432627 1.811882 0.051709 -0.030295 254348.000000 0 0 1
32.510881 15.886010 -10.083391 37.563247 0.454516 1.842567 0.068107 -0.018085 -155339.000000 0 0 1
31.886981 14.731710 -10.847591 36.762387 0.432786 1.870328 0.076343 -0.021639 214290.000000 0 0 1
30.722991 14.045010 -10.367591 35.336263 0.428784 1.868576 0.079713 -0.016964 781208.000000 0 0 1
30.690551 13.462810 -9.078491 34.721408 0.413386 1.835338 0.069895 -0.020165 -354925.000000 0 0 1
29.453531 12.520210 -8.920491 33.224108 0.401941 1.842626 0.102727 -0.009629 266731.000000 0 0 1
29.508921 11.364210 -9.711291 33.079161 0.367606 1.868763 0.101988 -0.012350 389026.000000 0 0 1
28.552321 10.394310 -9.342791 31.789377 0.349131 1.869097 0.123003 -0.010783 -495809.000000 0 0 1
28.953891 9.024510 -9.932891 31.912880 0.302143 1.887305 0.136517 -0.011960 160633.000000 0 0 1
30.087891 8.626710 -9.162491 32.613687 0.279226 1.855570 0.112448 -0.017017 565612.000000 0 0 1
30.171241 7.226910 -9.147091 32.345035 0.235100 1.857506 0.108506 -0.020634 -500190.000000 0 0 1
31.343181 6.649510 -8.350891 33.111152 0.209052 1.825757 0.111486 -0.023639 102712.000000 0 0 1
32.630321 7.001110 -8.834091 34.522378 0.211354 1.829569 0.107060 -0.026468 333104.000000 0 0 1
33.637471 6.578610 -7.941891 35.182826 0.193136 1.798491 0.109891 -0.030046 -822589.000000 0 0 1
35.055521 6.912710 -8.321791 36.686883 0.194695 1.799621 0.102712 -0.029464 -687118.000000 0 0 1
35.543381 6.159610 -9.442691 37.288566 0.171594 1.826817 0.102015 -0.027409 671204.000000 0 0 1
-36.550013 6.432610 -9.645791 38.344794 -0.174211 1.825082 0.099693 -0.027618 -3800.550000 0 0 1
-36.040898 5.574210 -10.845891 38.048016 -0.153448 1.859863 0.095768 -0.023088 586398.000000 0 0 1
-34.661246 5.769610 -11.191391 36.877332 -0.164945 1.879135 0.101552 -0.020985 989577.000000 0 0 1
-34.424610 6.977710 -11.917491 37.091358 -0.199986 1.897899 0.075171 -0.017705 -136097.000000 0 0 1
-33.497203 7.959210 -11.102891 36.175763 -0.233282 1.882746 0.069912 -0.003879 300780.000000 0 0 1
-34.206639 8.609910 -9.992991 36.661759 -0.246581 1.846862 0.078209 -0.013582 675994.000000 0 0 1
-35.017890 9.703410 -10.361191 37.785753 -0.270316 1.848563 0.063454 -0.013663 84468.700000 0 0 1
-35.925925 10.251110 -9.242591 38.486139 -0.277954 1.813321 0.059129 -0.018335 -208753.000000 0 0 1
-35.136110 10.693510 -8.208391 37.633430 -0.295439 1.790678 0.064718 -0.012764 -614216.000000 0 0 1
-35.776834 11.665810 -7.463691 38.363781 -0.315201 1.766595 0.062041 -0.020543 -519397.000000 0 0 1
-34.896616 12.659110 -6.617091 37.706933 -0.347997 1.747197 0.059329 -0.027822 -99113.700000 0 0 1
-34.313789 13.698610 -7.323891 37.665999 -0.379830 1.766486 0.043720 -0.021964 -116013.000000 0 0 1
-33.590573 14.565110 -6.439991 37.174488 -0.409138 1.744912 0.054933 -0.021244 49471.000000 0 0 1
-32.712543 15.572310 -7.187491 36.935990 -0.444292 1.766639 0.037353 -0.007909 163642.000000 0 0 1
-33.560673 16.429510 -7.988891 38.210862 -0.455250 1.781424 0.009924 -0.004659 607811.000000 0 0 1
-32.809073 17.518010 -8.483491 38.148206 -0.490428 1.795054 0.004680 0.003245 370850.000000 0 0 1
-33.594843 18.319410 -9.547091 39.438068 -0.499231 1.815303 -0.005918 0.000245 443290.000000 0 0 1
-33.211743 17.911310 -10.913091 39.280154 -0.494596 1.852328 -0.012516 -0.001306 -57855.000000 0 0 1
-34.080906 18.535110 -11.809691 40.552772 -0.498114 1.866296 -0.014194 -0.001963 -485098.000000 0 0 1
-33.550953 18.604210 -13.268591 40.593579 -0.506296 1.903780 -0.003631 0.015583 11422.200000 0 0 1
-32.716683 19.719710 -13.508791 40.518339 -0.542433 1.910703 0.001024 0.007465 130903.000000 0 0 1
-32.563773 20.066710 -14.905391 41.051710 -0.552267 1.942376 -0.008563 0.006353 -530654.000000 0 0 1
-31.691533 21.283710 -15.144891 41.069664 -0.591403 1.948472 0.016665 -0.002136 634116.000000 0 0 1
-30.294983 21.150610 -14.797991 39.800941 -0.609487 1.951744 0.012975 0.000989 1644940.000000 0 0 1
-29.521053 22.370610 -14.627891 39.823511 -0.648465 1.946920 0.024031 -0.001925 193429.000000 0 0 1
-29.005283 22.945210 -15.891191 40.253187 -0.669272 1.976626 0.022935 -0.006818 -409084.000000 0 0 1
-29.981513 23.646310 -16.705191 41.678562 -0.667810 1.983197 0.024768 0.001122 677994.000000 0 0 1
-29.427193 24.096210 -17.924391 42.046056 -0.686125 2.011199 0.022748 -0.002210 180243.000000 0 0 1
-28.536153 25.370810 -17.828591 42.140820 -0.726747 2.007629 0.032198 0.000976 -89878.800000 0 0 1
-29.297843 26.519410 -17.630391 43.272086 -0.735662 1.990436 0.048398 0.001318 -265695.000000 0 0 1
-28.553593 27.713310 -17.581391 43.502190 -0.770465 1.986845 0.049208 -0.000767 -260235.000000 0 0 1
-29.342633 28.916510 -17.057091 44.588104 -0.778084 1.963349 0.048451 -0.004422 -418811.000000 0 0 1
-29.453563 29.079510 -15.629391 44.242606 -0.779008 1.931856 0.049079 -0.009948 714049.000000 0 0 1
-28.250883 29.126410 -14.829391 43.201516 -0.800656 1.921183 0.048304 -0.011525 510001.000000 0 0 1
-28.442443 29.876410 -13.505091 43.404608 -0.809982 1.887193 0.050969 -0.012889 -114285.000000 0 0 1
-28.164343 31.220710 -13.720491 44.229118 -0.836820 1.886214 0.062582 -0.011051 62563.000000 0 0 1
-28.519553 32.046110 -12.592291 44.708879 -0.843559 1.856310 0.055719 -0.016377 20781.000000 0 0 1
-27.868073 33.451810 -12.429291 45.278476 -0.876207 1.848874 0.038737 -0.015682 -153486.000000 0 0 1
-28.186783 -33.996981 -13.542691 46.191925 0.878564 1.868351 0.029467 -0.024144 306790.000000 0 0 1
-27.337503 -32.843281 -13.672291 44.865931 0.876631 1.880458 0.037495 -0.024771 235820.000000 0 0 1
-27.567083 -32.146881 -15.062691 44.947199 0.861944 1.912529 0.035656 -0.029600 72670.100000 0 0 1
-26.968423 -32.820381 -16.165191 45.450926 0.882965 1.934419 0.032505 -0.033159 -54861.100000 0 0 1
-27.278403 -32.137081 -17.325991 45.575138 0.866991 1.960769 0.033534 -0.019824 43852.700000 0 0 1
-26.446343 -32.632881 -18.537491 45.912445 0.889734 1.986417 0.030603 -0.015929 -102728.000000 0 0 1
-26.753523 -33.949381 -19.001191 47.216065 0.903390 1.984967 0.032341 -0.009545 -75408.500000 0 0 1
-26.381203 33.223210 -18.090491 46.119578 -0.899688 1.973875 0.014386 -0.020850 -623567.000000 0 0 1
-26.555773 31.793210 -18.707291 45.453053 -0.874919 1.994977 0.022492 -0.029542 1751370.000000 0 0 1
-27.928983 31.346310 -18.995791 46.081009 -0.842986 1.995692 0.042946 -0.022125 1766600.000000 0 0 1
-28.653733 32.096110 -19.967991 47.433294 -0.842002 2.005311 0.050913 -0.020756 50698.200000 0 0 1
-30.167473 31.741910 -19.997591 48.140720 -0.810824 1.999177 0.056025 -0.026333 247977.000000 0 0 1
-30.491573 30.467410 -20.448091 47.708737 -0.785002 2.013742 0.047213 -0.021794 393293.000000 0 0 1
-31.880013 30.184610 -20.351391 48.390341 -0.758088 2.004867 0.060022 -0.020750 147533.000000 0 0 1
-32.196083 28.891310 -21.088791 48.125177 -0.731352 2.024399 0.056722 -0.021936 278979.000000 0 0 1
-33.595103 28.614610 -21.105391 48.916913 -0.705509 2.016900 0.060422 -0.025503 538492.000000 0 0 1
-33.748433 27.435410 -21.807191 48.654004 -0.682581 2.035558 0.050303 -0.017061 73055.000000 0 0 1
-35.223696 26.990810 -21.934591 49.500898 -0.653832 2.029867 0.047220 -0.017103 222688.000000 0 0 1
-35.995713 27.542810 -22.970591 50.812851 -0.653139 2.039873 0.035221 -0.005448 844021.000000 0 0 1
36.296021 26.742210 -23.234691 50.718811 0.634987 2.046662 0.030938 0.000265 1336480.000000 0 0 1
35.477001 27.320610 -24.451491 51.018710 0.656237 2.070614 0.040902 -0.003996 119035.000000 0 0 1
36.121451 27.256410 -25.726901 52.053286 0.646424 2.087759 0.039058 -0.002721 -303356.000000 0 0 1
35.269981 27.427410 -26.838591 52.120479 0.660958 2.111727 0.050993 -0.007857 -281778.000000 0 0 1
36.045701 27.832610 -28.091531 53.507765 0.657526 2.123510 0.053014 -0.009023 13899.700000 0 0 1
-36.567793 26.795610 -28.516991 53.557698 -0.632379 2.132293 0.025585 0.010385 -186607.000000 0 0 1
-35.946958 27.259010 -29.702111 54.013451 -0.648800 2.153043 0.001965 0.007626 -750958.000000 0 0 1
-35.862706 26.192010 -30.799441 54.044062 -0.630800 2.177174 -0.013469 0.011168 -80766.900000 0 0 1
-35.093131 25.048410 -30.531071 52.830833 -0.619908 2.186953 -0.012747 0.012403 -488398.000000 0 0 1
-33.717523 25.174310 -30.311331 51.859368 -0.641337 2.195049 -0.023461 0.018188 -557063.000000 0 0 1
-33.251573 24.364910 -29.101431 50.459977 -0.632366 2.185508 -0.029892 0.017929 -71457.700000 0 0 1
-33.074303 22.986010 -29.521931 49.938068 -0.607350 2.203306 -0.013890 0.006365 -60579.100000 0 0 1
-32.719303 22.255110 -28.383781 48.697862 -0.597302 2.193034 0.011220 0.005083 -278347.000000 0 0 1
-32.455523 20.743610 -28.705941 48.038416 -0.568703 2.211254 0.006321 0.000558 -483798.000000 0 0 1
-31.143383 20.452910 -29.075741 47.261301 -0.581094 2.233452 0.062734 -0.009847 -560567.000000 0 0 1
-30.888943 19.137710 -29.532571 46.824689 -0.554681 2.253258 0.055734 -0.008857 -104667.000000 0 0 1
-29.408843 18.795310 -29.777421 45.878519 -0.568677 2.277130 0.088836 -0.017302 -422489.000000 0 0 1
-28.815723 19.356710 -30.926211 46.491490 -0.591508 2.298560 0.097524 -0.018565 265614.000000 0 0 1
-27.610063 18.670610 -31.266211 45.699926 -0.594591 2.324252 0.099474 -0.021783 88996.800000 0 0 1
-27.620043 17.318310 -31.934771 45.635734 -0.560050 2.345880 0.095220 -0.020162 -208790.000000 0 0 1
-28.181433 16.338110 -31.020471 44.982181 -0.525395 2.331756 0.058628 -0.009757 342502.000000 0 0 1
-28.112553 15.091310 -31.663641 44.951635 -0.492666 2.352365 0.032094 0.002699 -117660.000000 0 0 1
-28.663083 13.937110 -30.873881 44.373550 -0.452578 2.340291 0.039157 0.009317 -1214100.000000 0 0 1
-30.035633 13.904310 -30.751341 45.178691 -0.433552 2.319460 0.030642 0.012669 -915757.000000 0 0 1
-30.643103 12.630110 -30.588191 45.101628 -0.390952 2.316115 0.030263 0.013380 1724.350000 0 0 1
-30.153953 11.654110 -29.455331 43.734377 -0.368803 2.309737 0.024125 -0.005196 -360555.000000 0 0 1
-30.541163 12.187810 -28.207621 43.324072 -0.379697 2.279808 0.009756 -0.001238 289494.000000 0 0 1
-30.599123 11.241210 -27.194221 42.452289 -0.352065 2.266054 0.008561 0.000291 -86363.000000 0 0 1
-30.560043 11.954610 -25.841641 41.768641 -0.372884 2.237864 0.000970 -0.006223 -106638.000000 0 0 1
-29.267363 12.253810 -25.385961 40.634732 -0.396510 2.245589 0.027413 -0.013313 -299623.000000 0 0 1
-29.327293 12.902310 -24.097491 40.090508 -0.414458 2.215645 0.026554 -0.012111 -104182.000000 0 0 1
-27.971203 13.100310 -23.384291 38.740565 -0.438008 2.218821 0.033469 -0.009293 -751668.000000 0 0 1
-27.152343 13.959710 -24.131891 38.916210 -0.474884 2.239665 0.047571 -0.002885 17055.500000 0 0 1
-25.773313 13.863910 -23.818391 37.733108 -0.493519 2.253939 0.057114 -0.013707 322132.000000 0 0 1
-25.403233 14.633610 -22.531391 36.974726 -0.522625 2.226066 0.056642 -0.016719 -1030640.000000 0 0 1
-25.525273 16.037410 -22.502691 37.617937 -0.560965 2.212037 0.074735 -0.021663 185210.000000 0 0 1
-25.572883 16.532710 -21.202691 37.106023 -0.573906 2.179017 0.071290 -0.019118 1055800.000000 0 0 1
-27.057923 16.796510 -20.724791 37.996986 -0.555545 2.147701 0.059315 -0.022765 1345510.000000 0 0 1
-27.908343 15.640810 -20.629491 38.066868 -0.510819 2.143525 0.062844 -0.014229 -842373.000000 0 0 1
-29.086923 15.913510 -20.001991 38.721681 -0.500615 2.113622 0.058423 -0.004874 -1048840.000000 0 0 1
-30.113303 14.747810 -20.338791 39.217029 -0.455409 2.116034 0.017725 -0.010596 270405.000000 0 0 1
-30.672213 14.655010 -21.624291 40.288509 -0.445726 2.137360 0.014017 -0.010067 273718.000000 0 0 1
-31.660173 15.628410 -21.910891 41.553591 -0.458539 2.126207 0.000570 -0.005666 -32541.900000 0 0 1
-32.277683 15.699610 -23.356191 42.823338 -0.452702 2.147672 -0.008229 -0.003058 287993.000000 0 0 1
-33.258843 14.702010 -23.662391 43.384427 -0.416222 2.147677 0.002693 -0.003829 375433.000000 0 0 1
-33.837353 15.038810 -24.910491 44.628072 -0.418224 2.162987 0.007914 -0.005041 -681655.000000 0 0 1
-35.007834 14.166310 -25.313351 45.464255 -0.384518 2.161294 0.010180 -0.004390 -980079.000000 0 0 1
-34.943415 12.816210 -25.609841 45.179215 -0.351536 2.173474 0.007960 -0.002912 -222401.000000 0 0 1
-34.616729 11.939210 -24.538191 44.079309 -0.332122 2.161184 -0.001555 -0.006879 -234487.000000 0 0 1
-34.573115 10.464110 -25.010651 43.935527 -0.293901 2.176399 0.008538 -0.012518 550437.000000 0 0 1
-35.892952 9.977910 -25.273871 45.018122 -0.271145 2.166892 0.017105 -0.006309 507044.000000 0 0 1
-35.837733 8.754210 -26.012241 45.139960 -0.239582 2.184938 0.018793 0.004270 121381.000000 0 0 1
36.263361 8.242210 -26.493071 45.660138 0.223491 2.189799 0.050100 -0.000259 -290359.000000 0 0 1
35.503281 7.818010 -25.415611 44.357159 0.216746 2.180929 0.033530 0.009330 -839444.000000 0 0 1
34.415361 7.158910 -26.014011 43.730948 0.205090 2.207894 0.052658 0.005005 -462308.000000 0 0 1
33.675251 6.315810 -24.956791 42.388128 0.185397 2.200331 0.060873 -0.001586 -210050.000000 0 0 1
34.478131 5.298910 -24.386091 42.561737 0.152496 2.180907 0.052270 -0.004512 -161885.000000 0 0 1
33.779251 4.439710 -23.526191 41.403267 0.130684 2.175138 0.056127 -0.004022 -1700.190000 0 0 1
34.629761 3.566310 -22.526691 41.465537 0.102622 2.145115 0.051759 -0.009515 28802.400000 0 0 1
35.425931 2.608210 -23.172891 42.412053 0.073492 2.148826 0.054729 -0.019470 4520.510000 0 0 1
36.270841 1.883610 -22.327091 42.633565 0.051885 2.121982 0.085399 -0.024946 -16749.600000 0 0 1
-36.517893 0.730910 -23.043191 43.186565 -0.020012 2.133616 0.087519 -0.021999 -307625.000000 0 0 1
36.060651 -0.276390 -23.275891 42.921021 -0.007664 2.143964 0.071019 -0.022111 88779.000000 0 0 1
-36.708633 -1.357490 -23.851691 43.798056 0.036963 2.146689 0.075748 -0.021765 456557.000000 0 0 1
-23.303363 29.062210 27.048971 46.035917 -0.894932 0.942753 0.056433 -0.014730 -945609.000000 0 0 1
-24.596663 29.444010 26.656011 46.717111 -0.874857 0.963580 0.057293 -0.018517 308173.000000 0 0 1
-25.027863 28.934610 25.397341 45.919827 -0.857670 0.984740 0.054650 -0.011284 -323504.000000 0 0 1
-25.287863 27.375310 25.364561 45.080424 -0.825015 0.973207 0.058497 -0.014590 -1390900.000000 0 0 1
-26.438593 26.957010 25.992911 45.840059 -0.795107 0.967895 0.072881 -0.012897 -609123.000000 0 0 1
-26.413153 26.854710 27.411701 46.585743 -0.793687 0.941700 0.079441 -0.015719 -451192.000000 0 0 1
-25.753843 25.520410 27.909061 45.754426 -0.780846 0.914767 0.082126 -0.014504 732024.000000 0 0 1
-24.338263 25.370210 27.947441 44.911670 -0.806155 0.899150 0.077032 -0.011143 310136.000000 0 0 1
-23.908663 25.709010 29.281741 45.716493 -0.821667 0.875638 0.068550 -0.011131 296650.000000 0 0 1
-22.456763 25.298710 29.677511 45.000951 -0.844838 0.850661 0.065570 -0.010125 -447887.000000 0 0 1
-21.502263 26.206810 29.139761 44.702012 -0.883689 0.860753 0.068897 -0.014980 730898.000000 0 0 1
-20.202863 26.070110 29.739591 44.410017 -0.911522 0.837046 0.076565 -0.019542 1132110.000000 0 0 1
-19.414263 24.743110 29.406081 43.056390 -0.905496 0.818980 0.074172 -0.021080 -755675.000000 0 0 1
-18.908363 24.732110 28.093411 41.933796 -0.918063 0.836659 0.076394 -0.011998 -425011.000000 0 0 1
-19.655263 23.955110 27.226851 41.248977 -0.883677 0.849896 0.078443 -0.016826 -397193.000000 0 0 1
-19.568463 22.415210 27.316691 40.392673 -0.853101 0.828098 0.066214 -0.013172 -193015.000000 0 0 1
-20.361063 21.891410 28.341271 41.195077 -0.821601 0.812098 0.078473 -0.008653 -217602.000000 0 0 1
-20.206263 20.485510 28.455361 40.467972 -0.792261 0.790968 0.080073 -0.013007 121311.000000 0 0 1
-20.696063 19.881310 29.800461 41.372225 -0.765322 0.766560 0.086210 -0.023842 486556.000000 0 0 1
-19.857663 20.306810 30.910771 41.978198 -0.796580 0.743132 0.076171 -0.025236 412475.000000 0 0 1
-20.324763 19.866610 32.145275 42.908005 -0.773999 0.723992 0.075755 -0.021564 -249717.000000 0 0 1
-19.585863 20.539310 33.311878 43.762433 -0.809156 0.705638 0.088070 -0.023327 -469723.000000 0 0 1
-19.688063 21.950410 33.478475 44.612203 -0.839678 0.722079 0.061287 -0.016703 787859.000000 0 0 1
-18.684463 22.756210 32.792459 44.071529 -0.883339 0.731649 0.068260 -0.008766 420962.000000 0 0 1
-17.236563 22.708010 33.249898 43.798499 -0.921527 0.708781 0.057394 -0.002351 -580368.000000 0 0 1
-16.461863 21.573510 33.000699 42.725349 -0.918990 0.688198 0.076450 -0.019370 -382412.000000 0 0 1
-15.154663 21.720410 33.502310 42.706496 -0.961605 0.668942 0.051067 -0.007463 45791.200000 0 0 1
-14.192363 20.516310 33.157254 41.493923 -0.965622 0.645021 0.038280 -0.016178 1102570.000000 0 0 1
-12.849863 20.439410 33.686187 41.444513 -1.009555 0.621850 0.035939 -0.007943 875362.000000 0 0 1
-12.746563 20.176810 -33.069161 40.781711 -1.007363 2.516454 0.046559 -0.009518 -893380.000000 0 0 1
-11.284963 20.085910 -32.679611 39.984386 -1.058912 2.527522 0.041088 -0.004146 -404614.000000 0 0 1
-10.565263 21.306710 -32.831621 40.540301 -1.110462 2.514695 0.037158 -0.002100 275432.000000 0 0 1
-9.264163 21.153810 -32.264321 39.677384 -1.158014 2.520368 0.038821 -0.003828 270445.000000 0 0 1
-8.444363 22.466410 -32.234481 40.188414 -1.211266 2.501573 0.050252 -0.006176 72284.000000 0 0 1
-8.432163 23.297610 -31.110581 39.771199 -1.223531 2.469048 0.063579 -0.012694 -105512.000000 0 0 1
-7.760763 22.715710 -30.011121 38.430461 -1.241582 2.466934 0.060118 -0.012061 -192369.000000 0 0 1
-7.324763 23.871510 -29.077561 38.327610 -1.273075 2.432048 0.071630 -0.013590 -218111.000000 0 0 1
-6.196063 24.555710 -29.545831 38.914396 -1.323629 2.432959 0.069489 -0.013701 -323548.000000 0 0 1
-5.870763 25.681210 -28.733001 38.981736 -1.346057 2.399549 0.095632 -0.018615 47199.500000 0 0 1
-4.551663 26.335110 -29.200131 39.584130 -1.399651 2.400413 0.074954 -0.018509 -686473.000000 0 0 1
-3.423563 25.640910 -28.776191 38.694266 -1.438062 2.409356 0.079022 -0.011333 -655603.000000 0 0 1
-2.213863 25.912110 -29.415371 39.263249 -1.485566 2.417625 0.094022 -0.012396 -153979.000000 0 0 1
-1.456463 27.178810 -29.029471 39.793457 -1.517259 2.388392 0.098937 -0.026990 -689400.000000 0 0 1
-0.753863 27.156410 -27.793441 38.865335 -1.543043 2.367594 0.104064 -0.044343 502224.000000 0 0 1
-0.007463 28.377310 -27.679591 39.641286 -1.570533 2.343748 0.109022 -0.045779 -523099.000000 0 0 1
0.415937 28.698410 -26.231741 38.882849 1.556304 2.311267 0.114024 -0.059787 81304.400000 0 0 1
1.548337 28.050710 -25.693281 38.070781 1.515655 2.311601 0.135563 -0.066471 279660.000000 0 0 1
2.796737 28.451510 -26.214821 38.788233 1.472813 2.312906 0.133984 -0.065648 -218419.000000 0 0 1
3.997437 28.363810 -25.247761 38.182911 1.430784 2.293256 0.137048 -0.069302 142736.000000 0 0 1
4.309337 27.043210 -24.734191 36.901027 1.412775 2.305389 0.134697 -0.054341 -281254.000000 0 0 1
5.572437 27.152410 -24.140491 36.756887 1.368379 2.287312 0.102527 -0.041999 -515345.000000 0 0 1
6.115637 25.867410 -23.572391 35.527194 1.338637 2.296287 0.107567 -0.038913 -65774.200000 0 0 1
7.256437 26.150010 -22.776991 35.429793 1.300114 2.269044 0.108007 -0.039465 -98017.600000 0 0 1
7.986037 24.983610 -22.418691 34.504424 1.261410 2.278031 0.097715 -0.029748 817434.000000 0 0 1
9.463637 25.253410 -21.986491 34.795128 1.212248 2.254778 0.096956 -0.016787 -628918.000000 0 0 1
9.644037 26.049410 -20.830791 34.720326 1.216222 2.214247 0.104529 -0.011683 439909.000000 0 0 1
10.992137 26.348610 -20.441591 35.113174 1.175567 2.192183 0.114400 -0.021462 968885.000000 0 0 1
11.880037 25.115710 -20.060391 34.268841 1.128971 2.196148 0.077479 -0.004327 -416490.000000 0 0 1
12.113537 24.230410 -21.114191 34.346173 1.107204 2.232861 0.067616 -0.010701 -301495.000000 0 0 1
12.313737 22.888510 -20.753491 33.259877 1.077222 2.244622 0.058202 -0.000871 -267684.000000 0 0 1
12.468837 21.906110 -21.893991 33.387069 1.053336 2.285989 0.061288 -0.014322 -174670.000000 0 0 1
11.306237 21.775510 -22.665791 33.402723 1.091893 2.316598 0.060098 -0.022076 248161.000000 0 0 1
11.629037 20.749110 -23.587991 33.498558 1.059958 2.352021 0.047246 -0.024117 572422.000000 0 0 1
10.711537 20.608610 -24.880691 34.036754 1.091466 2.390575 0.072254 -0.026280 129122.000000 0 0 1
9.386137 20.255710 -24.597791 33.218138 1.136870 2.404600 0.053128 -0.024393 -93451.400000 0 0 1
8.612937 20.174710 -25.807091 33.870452 1.167303 2.437092 0.054473 -0.026083 -25282.400000 0 0 1
7.087737 19.963010 -25.656741 33.272002 1.229636 2.451396 0.052805 -0.028418 315547.000000 0 0 1
6.289337 21.115110 -25.422071 33.640531 1.281304 2.427515 0.082879 -0.024060 128720.000000 0 0 1
6.552137 21.738010 -24.175191 33.164913 1.278043 2.387567 0.087182 -0.024302 -725687.000000 0 0 1
5.227637 22.195910 -23.553391 32.783362 1.339489 2.372376 0.107208 -0.025389 47816.600000 0 0 1
4.485437 23.149110 -24.324491 33.877445 1.379405 2.371742 0.108343 -0.030517 221596.000000 0 0 1
3.226137 23.345410 -23.695291 33.419799 1.433475 2.358903 0.132562 -0.026741 242406.000000 0 0 1
2.317537 24.385410 -24.393991 34.570016 1.476043 2.354122 0.118002 -0.030174 -373953.000000 0 0 1
0.943837 24.223510 -24.192291 34.248156 1.531852 2.355170 0.132565 -0.052865 -271727.000000 0 0 1
0.258637 24.966110 -25.216941 35.486161 1.560437 2.361166 0.119570 -0.036235 153022.000000 0 0 1
-1.228163 24.590210 -25.332991 35.326297 -1.520893 2.370449 0.124332 -0.037723 -130299.000000 0 0 1
-1.583863 23.442610 -26.032911 35.068177 -1.503335 2.407369 0.139733 -0.038193 469627.000000 0 0 1
-2.911663 23.547710 -26.575291 35.626093 -1.447771 2.412757 0.138630 -0.028198 654867.000000 0 0 1
-3.420363 22.202810 -27.170241 35.254583 -1.417947 2.450715 0.111991 -0.026758 337672.000000 0 0 1
-2.613863 21.785810 -28.321631 35.826925 -1.451387 2.482442 0.134137 -0.041149 568071.000000 0 0 1
-3.015863 20.505110 -28.800391 35.482636 -1.424765 2.517811 0.091569 -0.032362 120595.000000 0 0 1
-4.184863 20.515610 -29.836481 36.450225 -1.369573 2.529686 0.081847 -0.026574 14480.000000 0 0 1
-3.988063 20.788510 -31.189881 37.694502 -1.381259 2.545327 0.075797 -0.023381 -166705.000000 0 0 1
-3.503263 22.093810 -31.530831 38.660090 -1.413542 2.524547 0.081719 -0.024657 -26252.100000 0 0 1
-3.113363 22.132410 -32.997371 39.854273 -1.431043 2.546240 0.064701 -0.019735 301430.000000 0 0 1
-2.023563 21.264210 -33.330411 39.587596 -1.475919 2.571666 0.071946 -0.016105 589967.000000 0 0 1
-1.559663 21.433210 33.464884 39.770762 -1.498156 0.570846 0.071546 -0.007733 54522.200000 0 0 1
-0.503463 20.415510 33.012860 38.818751 -1.546140 0.553983 0.080187 -0.007118 229655.000000 0 0 1
-1.096363 19.169010 32.655999 37.882281 -1.513664 0.531518 0.077176 0.008224 968378.000000 0 0 1
-0.118263 18.460010 31.872351 36.832495 -1.564390 0.524983 0.083741 -0.015439 733428.000000 0 0 1
-0.657863 17.032410 31.448031 35.770301 -1.532191 0.496687 0.073470 -0.017232 456499.000000 0 0 1
-1.691563 17.157810 30.466621 35.006668 -1.472525 0.514967 0.076942 -0.009864 250062.000000 0 0 1
-2.106263 15.862410 30.155671 34.138203 -1.438785 0.487854 0.057311 -0.008834 277812.000000 0 0 1
-3.298063 15.774910 29.106121 33.269976 -1.364695 0.505678 0.063239 -0.010557 1299830.000000 0 0 1
-4.571663 16.228510 29.579331 34.047048 -1.296207 0.518067 0.053988 -0.012883 479769.000000 0 0 1
-4.725863 17.659410 29.434361 34.649245 -1.309312 0.555769 0.052764 -0.015450 44021.800000 0 0 1
-6.200563 18.143910 29.562221 35.235967 -1.241496 0.575393 0.033303 -0.017801 894587.000000 0 0 1
-7.005163 17.675610 28.459651 34.226470 -1.193468 0.588976 0.024887 -0.018767 955817.000000 0 0 1
-8.403663 17.953110 28.676781 34.861060 -1.133001 0.604824 0.014937 -0.010424 669560.000000 0 0 1
-9.382663 17.239010 27.684621 33.936059 -1.072364 0.616706 0.018390 -0.018875 106151.000000 0 0 1
-9.627963 15.851910 27.926721 33.524356 -1.024976 0.586238 0.033922 -0.026567 -33095.700000 0 0 1
-10.187763 15.620510 29.175201 34.626337 -0.992873 0.568754 0.034217 -0.027003 -1144840.000000 0 0 1
-10.547063 14.132510 29.525631 34.390860 -0.929669 0.538398 0.032977 -0.028410 99661.400000 0 0 1
-9.556263 13.095210 29.658721 33.800095 -0.940380 0.500225 0.039188 -0.026942 613756.000000 0 0 1
-8.724863 13.194310 30.832461 34.653336 -0.986546 0.474021 0.034126 -0.026559 221756.000000 0 0 1
-9.500863 12.901310 32.162409 35.932308 -0.936039 0.462178 0.052994 -0.022533 -28729.400000 0 0 1
-9.783163 11.491310 32.299062 35.650945 -0.865517 0.437106 0.061335 -0.021417 362245.000000 0 0 1
-10.296063 11.159610 33.591517 36.863747 -0.825624 0.424525 0.061666 -0.018608 -110979.000000 0 0 1
-10.736063 9.670110 33.600978 36.575946 -0.733209 0.406113 0.069951 -0.017371 -391447.000000 0 0 1
-9.681663 8.728510 33.545691 35.989371 -0.733671 0.370628 0.081741 -0.020817 -327440.000000 0 0 1
-9.453663 8.021910 -33.395901 35.623152 -0.703652 2.786107 0.109315 -0.033379 34337.700000 0 0 1
-8.630063 8.657010 -32.240281 34.479813 -0.786957 2.779191 0.099777 -0.037056 -6495.900000 0 0 1
-9.340663 9.753110 -31.696921 34.453823 -0.806996 2.738833 0.088667 -0.037311 339726.000000 0 0 1
-8.614263 10.490410 -30.707111 33.573515 -0.883288 2.725371 0.081425 -0.033184 627741.000000 0 0 1
-7.612563 11.625610 -31.168841 34.126274 -0.991047 2.722205 0.057180 -0.020588 296990.000000 0 0 1
-8.268863 12.799910 -31.595991 35.078746 -0.997232 2.692211 0.052897 -0.014707 -160813.000000 0 0 1
-7.430363 13.888010 -31.951531 35.622850 -1.079527 2.683594 0.033882 -0.013435 -210907.000000 0 0 1
-8.114663 15.228410 -32.366181 36.678630 -1.081205 2.651791 0.033288 -0.007010 -64577.000000 0 0 1
-8.677363 15.199610 -33.669691 37.946974 -1.052053 2.662216 0.038833 -0.011093 -2547.090000 0 0 1
-9.000963 16.518710 -33.988451 38.847135 -1.071881 2.636084 0.049345 -0.009855 -1048490.000000 0 0 1
-9.442263 16.663310 32.670759 37.870843 -1.055260 0.530234 0.034769 -0.014374 943082.000000 0 0 1
-10.678563 15.978110 32.354208 37.631456 -0.981647 0.535987 0.041972 -0.021283 938260.000000 0 0 1
-11.815163 16.682010 32.841047 38.683613 -0.954550 0.556772 0.047176 -0.019078 -760155.000000 0 0 1
-13.125963 16.105210 32.278616 38.387208 -0.886968 0.571909 0.048197 -0.027891 -316500.000000 0 0 1
-13.161963 14.734510 32.317217 37.878035 -0.841709 0.548723 0.045923 -0.027370 -124465.000000 0 0 1
-14.395063 14.278610 32.801861 38.562399 -0.781337 0.553637 0.047815 -0.021917 -236451.000000 0 0 1
-14.419363 12.737010 32.719792 37.957005 -0.723527 0.531550 0.047645 -0.014156 59316.500000 0 0 1
-14.647763 12.326110 31.388411 36.765776 -0.699539 0.547670 0.037014 -0.020306 -468287.000000 0 0 1
-13.517663 11.639510 30.975601 35.744835 -0.710880 0.522497 0.037580 -0.018063 -439210.000000 0 0 1
-13.617463 11.109310 29.539231 34.371765 -0.684309 0.536694 0.038257 -0.017865 82808.000000 0 0 1
-14.440763 9.937110 29.548321 34.356732 -0.602714 0.535439 0.037434 -0.015842 243444.000000 0 0 1
-14.607163 9.462610 28.238731 33.171315 -0.574831 0.552339 0.031014 -0.007106 -174973.000000 0 0 1
-15.351963 8.176110 28.146441 33.087062 -0.489369 0.553522 0.033580 -0.003778 -96435.500000 0 0 1
-14.644663 7.113510 28.769601 33.056892 -0.452175 0.514974 0.016033 -0.002442 369672.000000 0 0 1
-15.287563 5.864210 28.434001 32.811445 -0.366283 0.522473 0.018742 0.002470 1590550.000000 0 0 1
-14.247263 4.593610 28.313841 32.027478 -0.311897 0.486342 0.023760 0.004724 2055210.000000 0 0 1
-13.258263 4.400210 27.269281 30.639143 -0.320446 0.473419 0.022504 -0.003318 946007.000000 0 0 1
-13.817163 4.421210 25.936091 29.717704 -0.309684 0.509991 0.036546 -0.002916 258958.000000 0 0 1
-12.694663 4.374010 24.841201 28.237771 -0.331816 0.495533 0.025998 0.004229 -30404.400000 0 0 1
-12.082063 3.130710 24.800991 27.764487 -0.253544 0.466244 0.026145 -0.002999 -217222.000000 0 0 1
-11.571963 2.919210 23.519191 26.373935 -0.247110 0.469579 0.030065 -0.005179 -97474.500000 0 0 1
-10.596263 1.696510 23.361851 25.708656 -0.158757 0.430600 0.029115 -0.014191 -47412.900000 0 0 1
-9.282663 2.007010 23.728571 25.558580 -0.212933 0.380714 0.020721 -0.023285 127130.000000 0 0 1
-8.394563 0.892410 23.863651 25.312821 -0.105910 0.340015 0.005254 -0.012000 649431.000000 0 0 1
-6.904363 1.296010 24.001381 25.008322 -0.185550 0.284736 0.031695 -0.021113 221615.000000 0 0 1
-6.289763 1.608810 22.761391 23.669185 -0.250413 0.277853 0.027309 -0.021257 673075.000000 0 1 0
-4.876463 1.820810 22.758291 23.345986 -0.357356 0.224854 0.023932 -0.017647 867069.000000 0 1 0
-4.204063 3.157610 23.239841 23.827187 -0.644195 0.222496 0.029965 -0.021324 -233699.000000 0 1 0
-4.152163 3.133810 24.636211 25.179438 -0.646529 0.208097 0.039387 -0.022544 114381.000000 0 0 1
-3.907363 4.414510 25.182011 25.862889 -0.846264 0.229969 0.044793 -0.023616 -73008.600000 0 0 1
4.883737 -23.241990 13.202809 27.172691 -1.363684 1.063421 0.067085 -0.014393 356951.000000 0 0 1
4.624237 -24.560190 13.640309 28.471820 -1.384693 1.071189 0.086883 -0.021278 -400613.000000 0 0 1
3.368237 -24.970490 13.144709 28.419250 -1.436717 1.089951 0.101471 -0.025713 71115.000000 0 0 1
2.897337 -26.230050 13.868009 29.811604 -1.460784 1.086949 0.093233 -0.027793 -81260.500000 0 0 1
2.567537 -26.103040 15.249409 30.339832 -1.472750 1.044169 0.078957 -0.025285 -240236.000000 0 0 1
2.485937 -27.382760 15.832409 31.727915 -1.480260 1.048345 0.074247 -0.024828 50355.200000 0 0 1
2.102137 -27.478800 17.373709 32.578355 -1.494445 1.008311 0.059453 -0.024350 406462.000000 0 0 1
3.073037 -26.750880 18.117509 32.454541 -1.456422 0.978530 0.070166 -0.034782 422379.000000 0 0 1
2.920137 -27.135710 19.444709 33.510754 -1.463597 0.951757 0.061354 -0.029958 310855.000000 0 0 1
3.659637 -26.231760 20.498509 33.491597 -1.432179 0.912147 0.065274 -0.029461 -1155.070000 0 0 1
2.877137 -25.163450 20.937309 32.861041 -1.456953 0.880006 0.060337 -0.024162 -269211.000000 0 0 1
3.574337 -24.305290 21.769809 32.824497 -1.424783 0.845686 0.068654 -0.029703 21182.300000 0 0 1
2.701437 -23.089490 22.292009 32.208011 -1.454327 0.806366 0.071699 -0.028341 182344.000000 0 0 1
2.361337 -22.102090 21.355509 30.824277 -1.464362 0.805411 0.063912 -0.025647 306247.000000 0 0 1
3.446237 -21.291590 20.871609 30.013870 -1.410329 0.801822 0.058863 -0.014522 381894.000000 0 0 1
3.027937 -20.071390 19.992209 28.490657 -1.421067 0.793000 0.040252 -0.016177 205383.000000 0 0 1
2.597037 -18.911190 20.719509 28.172252 -1.434322 0.744454 0.016834 -0.013652 -251620.000000 0 0 1
1.903037 -18.036390 19.905009 26.928466 -1.465674 0.738943 0.002694 -0.023586 5655.860000 0 0 1
1.567737 -16.691190 20.548409 26.519629 -1.477145 0.684338 0.033701 -0.015254 -293819.000000 0 0 1
2.642137 -15.815890 20.561509 26.074871 -1.405269 0.662338 -0.014902 0.003091 -618334.000000 0 0 1
2.208837 -14.603090 21.086709 25.744485 -1.420676 0.610996 0.012913 0.008084 37947.100000 0 0 1
3.135537 -13.430990 20.757409 24.921740 -1.341449 0.586462 -0.022885 0.007578 -762684.000000 0 1 0
3.362437 -12.951490 19.396309 23.564038 -1.316786 0.603892 -0.038115 -0.002297 427260.000000 0 1 0
2.219737 -12.599190 18.580809 22.559106 -1.396405 0.602979 -0.022954 -0.002293 412664.000000 0 1 0
1.256937 -11.520590 19.073109 22.317871 -1.462123 0.545994 -0.013993 -0.005799 -911246.000000 0 1 0
1.646637 -10.144590 18.897209 21.511128 -1.409883 0.498114 -0.005219 -0.009983 -277746.000000 0 1 0
1.339537 -9.227390 19.948509 22.020039 -1.426634 0.437237 0.004401 -0.015319 307557.000000 0 1 0
-0.177063 -9.012390 20.198109 22.118276 1.551152 0.419761 0.004553 -0.010855 190320.000000 0 1 0
-0.458063 -7.994990 21.121209 22.588386 1.513565 0.362404 0.009720 -0.022347 -816291.000000 0 1 0
-1.770463 -7.539590 21.211309 22.580956 1.340153 0.350081 0.015945 -0.020991 -594844.000000 0 1 0
-2.012663 -6.989290 22.591609 23.733558 1.290418 0.311468 0.022683 -0.012214 -330911.000000 0 1 0
-2.103363 -7.968890 23.638109 25.033728 1.312735 0.335486 0.020393 -0.005598 103072.000000 0 0 1
-2.403563 -7.365590 24.888709 26.066777 1.255368 0.301791 0.023782 -0.001372 38180.800000 0 0 1
-2.661063 -8.392190 25.977409 27.428742 1.263737 0.326760 0.027029 -0.003025 539078.000000 0 0 1
-1.467863 -9.153390 26.188009 27.780407 1.411787 0.340226 0.021654 -0.006944 551532.000000 0 0 1
-1.618463 -10.026390 27.251109 29.082140 1.410756 0.356743 0.039773 -0.016600 -589382.000000 0 0 1
-0.416363 -10.940290 27.281309 29.396141 1.532757 0.381634 0.043689 -0.019805 -759757.000000 0 0 1
0.730737 -10.408990 27.867409 29.756907 -1.500709 0.358278 0.044503 -0.016811 -777362.000000 0 0 1
1.748037 -11.364290 27.853009 30.132920 -1.418174 0.391499 0.050361 -0.022212 -174854.000000 0 0 1
2.924737 -11.037590 28.800009 30.981010 -1.311770 0.377465 0.070933 -0.023434 67662.500000 0 0 1
2.512337 -10.980390 30.133409 32.169911 -1.345866 0.357726 0.066413 -0.029722 -211272.000000 0 0 1
3.457937 -10.277490 30.916309 32.762819 -1.246237 0.337335 0.082268 -0.016168 20428.200000 0 0 1
3.090037 -10.011890 32.373509 34.026906 -1.271435 0.313016 0.075408 -0.015576 -201270.000000 0 0 1
3.017237 -11.191990 33.097609 35.068734 -1.307468 0.336874 0.068954 -0.018327 52740.100000 0 0 1
2.529437 -11.065490 -33.745072 35.602991 -1.346070 2.817110 0.065725 -0.020134 -852269.000000 0 0 1
3.529537 -10.671290 -32.685772 34.564342 -1.251372 2.810384 0.044289 -0.001306 -777445.000000 0 0 1
3.749737 -9.293190 -32.842172 34.337038 -1.187282 2.845435 0.043585 -0.008000 236026.000000 0 0 1
4.293537 -8.682190 -31.687172 33.134450 -1.111540 2.844942 0.055420 -0.002532 -226121.000000 0 0 1
3.460737 -7.471190 -31.234672 32.301704 -1.137011 2.883845 0.047882 -0.002569 -10787.600000 0 0 1
3.500937 -6.401290 -32.163272 32.980436 -1.070328 2.918522 0.077772 -0.005970 -19819.500000 0 0 1
2.591737 -5.425090 -31.722072 32.286817 -1.125122 2.954282 0.063177 0.000684 9858.690000 0 0 1
2.599837 -4.200890 -32.705272 33.076297 -1.016612 2.991671 0.074326 -0.000931 -65522.600000 0 0 1
1.965337 -4.414490 -33.939372 34.281646 -1.151940 3.000165 0.078263 -0.013354 -232389.000000 0 0 1
2.120037 -3.316690 33.384509 33.615777 -1.002049 0.117368 0.103497 -0.001893 192608.000000 0 0 1
1.438737 -3.348090 31.988009 32.194913 -1.164936 0.113433 0.095672 -0.004828 955527.000000 0 0 1
0.022237 -3.111890 32.022009 32.172868 -1.563651 0.096878 0.078810 -0.019097 273717.000000 0 0 1
-0.475463 -3.327290 30.732509 30.915757 1.428859 0.108933 0.085521 -0.014607 -529672.000000 0 0 1
-1.995363 -3.411590 30.670109 30.923713 1.041570 0.128158 0.061128 -0.020804 -703719.000000 0 0 1
-2.605463 -2.181690 30.454009 30.643024 0.697105 0.111127 0.056326 -0.020264 -1004310.000000 0 0 1
-3.975763 -2.409590 30.515709 30.867804 0.544871 0.151184 0.043107 -0.019900 -931892.000000 0 0 1
-4.803863 -1.388990 29.771509 30.188560 0.281464 0.166414 0.043132 -0.015593 -548309.000000 0 0 1
-4.584963 -1.438890 28.394309 28.798074 0.304094 0.167651 0.036937 -0.010308 495683.000000 0 0 1
-5.575063 -0.698390 27.639409 28.204716 0.124621 0.200551 0.027029 -0.010248 667847.000000 0 0 1
-5.797963 0.773210 27.858509 28.465958 -0.132577 0.206958 0.040965 -0.010619 261956.000000 0 0 1
-6.644363 1.063310 28.991909 29.762544 -0.158686 0.228058 0.043082 -0.009939 -138397.000000 0 0 1
-7.255563 2.290010 28.819109 29.806516 -0.305726 0.258115 0.045855 -0.016115 -115609.000000 0 0 1
-8.715863 2.299210 29.364209 30.716599 -0.257920 0.297842 0.050967 -0.015108 282845.000000 0 0 1
-9.606163 1.577010 28.540909 30.155411 -0.162715 0.328707 0.026786 0.001517 125211.000000 0 0 1
-10.920263 2.104210 28.692509 30.772389 -0.190356 0.369769 0.021892 0.003127 260228.000000 0 0 1
-11.965563 1.268410 27.911709 30.394853 -0.105611 0.407022 0.018571 0.004329 -104765.000000 0 0 1
-12.238163 0.032310 28.526409 31.040775 -0.002640 0.405265 0.022656 0.005052 -58133.400000 0 0 1
-12.594563 -0.920690 27.574109 30.328241 0.072972 0.429464 0.019285 0.013056 -1250760.000000 0 0 1
-12.252663 -2.356190 27.914209 30.575848 0.189981 0.420341 0.019123 0.013121 1582420.000000 0 0 1
-10.834663 -2.636190 28.130609 30.260050 0.238673 0.377392 0.026716 0.002389 2519890.000000 0 0 1
-9.850263 -2.253790 27.116309 28.937890 0.224933 0.356706 0.026309 0.004231 -65426.500000 0 0 1
-9.836963 -2.916490 25.729709 27.699995 0.288227 0.379444 0.014391 0.000471 389230.000000 0 0 1
-10.954663 -2.526390 24.864009 27.287474 0.226659 0.424639 0.009967 0.001366 1428660.000000 0 0 1
-10.757563 -3.091990 23.552109 26.076568 0.279880 0.443651 0.018215 -0.005428 194436.000000 0 0 1
-9.677463 -2.540390 22.566009 24.684644 0.256714 0.417336 0.017640 -0.002321 65934.900000 0 1 0
-8.353563 -2.653990 22.990909 24.605032 0.307622 0.364229 0.018065 -0.005758 -775869.000000 0 1 0
-7.483263 -2.565790 21.888709 23.274409 0.330309 0.346808 0.013584 -0.004892 819742.000000 0 1 0
-5.968063 -2.426290 22.363709 23.273164 0.386136 0.280480 0.011602 -0.010041 1308480.000000 0 1 0
-5.240163 -3.628890 22.637209 23.517470 0.605685 0.274467 0.009144 -0.006756 250171.000000 0 1 0
-5.886763 -4.607490 23.481609 24.642827 0.664094 0.308210 0.015797 -0.003051 -387663.000000 0 1 0
-5.592663 -6.114890 23.175809 24.612759 0.829975 0.343393 0.023643 -0.004227 -360002.000000 0 1 0
-6.332163 -6.713590 22.135309 23.982087 0.814627 0.395008 0.017394 -0.011238 57944.000000 0 1 0
-6.039163 -6.165790 20.848409 22.564233 0.795773 0.392493 0.016338 -0.016873 452665.000000 0 1 0
-7.321163 -6.112690 19.935509 22.099524 0.695682 0.446234 0.023810 -0.014871 800164.000000 0 1 0
-8.208963 -5.046590 20.165709 22.349742 0.551206 0.445769 0.022640 -0.014994 -579444.000000 0 1 0
-9.209463 -4.977890 19.201509 21.869878 0.495535 0.499152 0.030335 -0.011388 -40681.100000 0 1 0
-9.925663 -3.614790 19.168609 21.886550 0.349257 0.503671 0.027133 -0.019522 -459698.000000 0 1 0
-8.951463 -2.639090 19.007909 21.175318 0.286700 0.456401 0.017934 -0.010180 -533198.000000 0 1 0
-9.440663 -1.319890 18.774509 21.055888 0.138909 0.469817 0.015076 -0.010420 -760654.000000 0 1 0
-8.438363 -0.388790 18.081609 19.957498 0.046041 0.437046 0.010808 -0.015059 418825.000000 0 1 0
-7.296063 -0.027090 18.911009 20.269671 0.003713 0.368217 0.014552 -0.009877 985644.000000 0 1 0
-7.575763 0.687710 20.122609 21.512428 -0.090530 0.361423 0.021555 -0.009532 -694900.000000 0 1 0
-7.605263 2.246410 20.028309 21.541113 -0.287209 0.377005 0.033493 -0.017273 28855.800000 0 1 0
-8.671563 2.715510 19.213409 21.253826 -0.303478 0.441767 0.027569 -0.017820 572328.000000 0 1 0
-8.376363 4.092510 18.960809 21.128758 -0.454469 0.456970 0.030288 -0.019349 336490.000000 0 1 0
-9.268363 4.620310 17.802709 20.595783 -0.462450 0.526868 0.032318 -0.011392 -648046.000000 0 1 0
-10.598663 4.799510 18.176709 21.581467 -0.425214 0.569377 0.020769 -0.002348 -424005.000000 0 1 0
-11.445563 5.082310 17.063709 21.166034 -0.417888 0.633123 0.023268 0.005442 248093.000000 0 1 0
-11.696463 6.590510 16.849509 21.544095 -0.513120 0.672777 0.032919 0.004859 398273.000000 0 1 0
-10.506363 7.331610 16.506409 20.894921 -0.609265 0.660032 0.029899 -0.002679 900266.000000 0 1 0
-10.765863 8.674210 16.743909 21.714148 -0.678216 0.690220 0.032109 -0.004754 -1150.500000 0 1 0
-9.543663 9.600810 16.537909 21.371933 -0.788383 0.685955 0.029433 -0.006006 242440.000000 0 1 0
-8.720763 9.575110 17.713909 21.943496 -0.832060 0.631317 0.032948 0.001898 -207696.000000 0 1 0
-7.748563 10.580110 17.832609 22.135513 -0.938674 0.634091 0.034314 -0.004726 -132404.000000 0 1 0
-8.100463 12.106310 17.836909 23.029016 -0.981104 0.684808 0.023898 0.003226 -398491.000000 0 1 0
-8.255063 12.568810 16.499109 22.323568 -0.989663 0.739079 0.024479 -0.009922 -327099.000000 0 1 0
-8.815263 13.818210 16.375709 23.169283 -1.002942 0.785853 0.031111 -0.014223 -198000.000000 0 1 0
-8.820063 14.459910 14.955109 22.595084 -1.023081 0.847480 0.034919 -0.008610 -593945.000000 0 1 0
-7.542663 14.785010 14.553409 22.074647 -1.099057 0.850933 0.040143 -0.009914 -1033810.000000 0 1 0
-7.525263 15.207110 13.175909 21.482327 -1.111276 0.910517 0.030812 -0.023123 28339.200000 0 1 0
-6.469063 16.339410 12.920109 21.811794 -1.193814 0.936830 0.010279 -0.013132 40581.300000 0 1 0
-5.165563 15.996810 13.280409 21.423124 -1.258454 0.902168 0.003310 -0.017158 -865114.000000 0 1 0
-4.408063 17.181910 13.408309 22.235823 -1.319660 0.923534 0.010990 -0.019063 9579.570000 0 1 0
-2.875963 17.020310 13.474509 21.898049 -1.403405 0.907993 0.013523 -0.019347 285948.000000 0 1 0
-2.245563 16.368610 14.640309 22.075158 -1.434460 0.845706 0.007689 -0.017503 96610.600000 0 1 0
-2.668263 15.103410 14.999309 21.452550 -1.395934 0.796539 0.001234 -0.010815 -654125.000000 0 1 0
-1.617463 14.453310 15.928509 21.569232 -1.459350 0.739979 -0.004603 -0.005578 -740837.000000 0 1 0
-0.383663 14.257410 15.304309 20.919915 -1.543893 0.750179 -0.009259 -0.014110 -298056.000000 0 1 0
0.590837 13.814310 16.270609 21.352213 1.528052 0.704384 -0.010266 -0.000999 281207.000000 0 1 0
1.446637 14.914510 16.901109 22.587228 1.474104 0.725362 -0.009735 -0.002570 -731395.000000 0 1 0
0.848337 15.651010 17.920409 23.807874 1.516646 0.718629 -0.012525 0.001928 -777956.000000 0 1 0
1.708137 16.594610 18.476909 24.893674 1.468224 0.734400 0.003226 -0.001713 -538604.000000 0 1 0
0.983737 17.864410 18.979509 26.083072 1.515785 0.755898 0.008711 -0.003477 440219.000000 0 0 1
0.363037 18.675510 17.974009 25.922413 1.551360 0.804631 0.004167 -0.003624 -190518.000000 0 0 1
-0.849963 18.222610 17.439809 25.237530 -1.524187 0.807888 0.007955 -0.000834 -946566.000000 0 0 1
-1.506463 19.342510 16.569209 25.513542 -1.493070 0.863964 0.002584 0.001246 -422198.000000 0 0 1
-1.908863 20.441510 17.394809 26.908707 -1.477685 0.867890 0.001015 -0.002000 -339056.000000 0 0 1
-2.502163 21.389810 16.574909 27.175585 -1.454346 0.914838 0.016655 -0.011951 -891043.000000 0 0 1
-3.145263 22.516310 17.303309 28.570639 -1.432006 0.920236 0.018229 -0.005546 -544588.000000 0 0 1
-4.285263 22.090210 18.032809 28.836142 -1.379187 0.895211 0.024817 -0.009306 317284.000000 0 0 1
-4.902763 23.146010 18.798709 30.218643 -1.362063 0.899387 0.027033 -0.013816 514774.000000 0 0 1
-5.965863 22.637710 19.827509 30.678781 -1.313119 0.868079 0.035233 -0.021819 694706.000000 0 0 1
-7.317863 22.630410 19.402809 30.694553 -1.258045 0.886503 0.037839 -0.019302 -123077.000000 0 0 1
-8.193363 21.987010 20.303409 31.028829 -1.214091 0.857487 0.026101 -0.019237 1376600.000000 0 0 1
-9.691263 22.331610 19.892609 31.437833 -1.161352 0.885684 0.041367 -0.018307 1081310.000000 0 0 1
-10.111563 23.671710 20.030209 32.615991 -1.167099 0.909523 0.047402 -0.016298 190640.000000 0 0 1
-11.234163 23.854610 19.164609 32.596489 -1.130663 0.942293 0.032746 -0.016112 480030.000000 0 0 1
-11.910763 25.256510 19.358109 33.977846 -1.130132 0.964622 0.033358 -0.011389 5839.850000 0 0 1
-12.454963 25.461510 20.645209 35.066213 -1.115852 0.941286 0.029712 -0.011661 184131.000000 0 0 1
-13.078763 26.731010 20.591309 36.188437 -1.115767 0.965504 0.039341 -0.006526 -300580.000000 0 0 1
-14.074263 27.086910 21.704509 37.454924 -1.091595 0.952702 0.048397 -0.013049 867130.000000 0 0 1
-15.318063 26.341910 21.792709 37.462801 -1.044084 0.949960 0.035010 -0.015140 1353000.000000 0 0 1
-16.129363 26.720610 22.926809 38.727070 -1.027712 0.937246 0.027752 -0.007265 824021.000000 0 0 1
-17.574863 26.159410 22.795909 38.895296 -0.979223 0.944579 0.045641 -0.008013 382497.000000 0 0 1
-17.596263 24.791910 23.009309 38.127361 -0.953551 0.922931 0.059740 -0.014922 -298375.000000 0 0 1
-18.917063 24.392510 23.275609 38.660107 -0.911157 0.924721 0.073789 -0.016518 -160818.000000 0 0 1
27.436537 23.745810 23.355761 43.152272 0.713413 0.998885 0.070331 -0.010621 7811.580000 0 0 1
27.247837 22.969110 24.533301 43.265546 0.700399 0.967888 0.077389 -0.023786 187011.000000 0 0 1
27.141237 21.616510 24.204281 42.305643 0.672570 0.961697 0.075048 -0.010111 -287966.000000 0 0 1
26.778937 20.791710 25.407681 42.366932 0.660197 0.927663 0.097541 -0.013991 763455.000000 0 0 1
25.443537 21.138910 25.812271 41.958317 0.693251 0.908171 0.089431 -0.016552 795678.000000 0 0 1
25.121737 20.593610 27.082981 42.292863 0.686670 0.875820 0.081907 -0.020272 529849.000000 0 0 1
23.755137 21.083710 27.667001 42.122349 0.725890 0.854196 0.092368 -0.025129 70713.400000 0 0 1
23.806137 22.341410 28.357831 43.243928 0.753669 0.855602 0.090569 -0.037597 158788.000000 0 0 1
22.716837 22.489610 29.249741 43.328796 0.780372 0.829744 0.126860 -0.040481 -315688.000000 0 0 1
22.564337 23.906310 29.841721 44.398077 0.814268 0.833701 0.107768 -0.046649 -489152.000000 0 0 1
22.282537 25.006210 28.991321 44.298066 0.842931 0.857328 0.079324 -0.045011 20553.200000 0 0 1
21.794437 26.166910 29.587391 45.112286 0.876313 0.855474 0.086586 -0.052719 247264.000000 0 0 1
20.347937 26.125510 30.172691 44.799242 0.909083 0.831851 0.093168 -0.045498 -106722.000000 0 0 1
19.306337 26.567510 29.269541 43.991741 0.942381 0.842845 0.094350 -0.052592 583497.000000 0 0 1
18.130937 26.914410 29.970271 44.173900 0.977974 0.825131 0.081640 -0.049665 213150.000000 0 0 1
17.188737 25.817610 30.459651 43.471738 0.983411 0.794450 0.080645 -0.028597 -707342.000000 0 0 1
17.631737 25.324610 31.680901 44.225485 0.962605 0.772240 0.076035 -0.031945 611571.000000 0 0 1
16.564237 24.656310 32.397236 43.953253 0.979245 0.742051 0.072005 -0.017156 727358.000000 0 0 1
16.981937 24.178410 33.804594 44.896907 0.958489 0.718281 0.082764 -0.015407 -127097.000000 0 0 1
17.253437 25.259810 -33.468511 45.341816 0.971544 2.401102 0.077039 -0.023450 43621.900000 0 0 1
17.343737 24.861810 -32.134241 44.176060 0.961679 2.385341 0.053621 -0.011081 60788.100000 0 0 1
17.872937 25.995110 -31.200171 44.369339 0.968475 2.350674 0.049928 -0.003081 138734.000000 0 0 1
16.888637 27.009010 -31.025971 44.467106 1.011984 2.343018 0.054537 -0.009788 393572.000000 0 0 1
17.361637 28.190510 -30.386651 44.938623 1.018791 2.313363 0.059508 -0.010506 -173845.000000 0 0 1
16.931537 28.318810 -28.908931 43.867508 1.031930 2.290292 0.071230 -0.013751 -153068.000000 0 0 1
17.346337 27.359410 -27.969661 42.798769 1.005739 2.283016 0.049068 -0.009065 274412.000000 0 0 1
16.956437 28.009310 -26.763401 42.288554 1.026426 2.256058 0.032794 -0.003415 -314916.000000 0 0 1
17.436037 27.240010 -25.482731 41.175273 1.001420 2.238118 0.024828 0.003557 -141307.000000 0 0 1
18.836337 27.266710 -25.488181 41.808234 0.966259 2.226409 0.043034 0.006662 -632960.000000 0 0 1
19.556537 26.652510 -24.440491 41.111458 0.937770 2.207432 0.042042 0.006461 -229041.000000 0 0 1
21.044437 26.608610 -24.788491 42.016136 0.901636 2.201825 0.034059 0.009335 -754801.000000 0 0 1
21.754237 26.309110 -23.642791 41.525867 0.879884 2.176512 0.041823 0.012342 -766955.000000 0 0 1
23.093437 26.009910 -23.943891 42.227149 0.844723 2.173687 0.047011 0.016946 -385160.000000 0 0 1
23.970737 25.767610 -22.732491 41.896683 0.821509 2.144307 0.057906 0.012480 -172927.000000 0 0 1
23.557937 24.713210 -21.866891 40.544791 0.809327 2.140434 0.055746 0.015161 -48447.100000 0 0 1
24.345437 24.749310 -20.702191 40.420408 0.793624 2.108508 0.050998 0.016707 -9921.730000 0 0 1
23.860437 23.878010 -19.535291 39.001377 0.785766 2.095420 0.042774 0.010496 -610875.000000 0 0 1
24.251437 22.545110 -19.809991 38.585618 0.748952 2.109943 0.051120 0.013012 372761.000000 0 0 1
24.139337 21.691110 -18.707691 37.459171 0.732030 2.093720 0.061560 0.005573 -1171100.000000 0 0 1
24.253537 20.244110 -19.180991 36.959010 0.695537 2.116454 0.088953 0.003894 188677.000000 0 0 1
23.229037 19.736910 -20.012691 36.464250 0.704300 2.151761 0.069222 0.002051 -1277500.000000 0 0 1
21.966437 19.697810 -19.496491 35.364406 0.731002 2.154721 0.064934 -0.007333 -1787960.000000 0 0 1
20.921937 19.494910 -20.622291 35.257025 0.750105 2.195569 0.069616 0.000412 -28373.300000 0 0 1
20.895837 20.369310 -21.748891 36.394492 0.772639 2.211285 0.066522 0.001008 -102009.000000 0 0 1
20.915737 21.794810 -21.562391 37.113589 0.805977 2.190733 0.055350 0.006632 -30828.800000 0 0 1
20.669937 22.487410 -22.906291 38.178895 0.827486 2.214263 0.057104 0.008058 564224.000000 0 0 1
19.353537 22.218010 -23.383391 37.616251 0.854194 2.241618 0.073169 -0.000021 163317.000000 0 0 1
19.018137 22.924510 -24.559091 38.605332 0.878266 2.260305 0.059991 -0.000939 618243.000000 0 0 1
17.496137 22.796410 -24.922391 38.038358 0.916192 2.285232 0.048189 -0.010771 503699.000000 0 0 1
16.765837 23.591610 -24.021491 37.612357 0.952945 2.263551 0.043969 -0.004653 -96895.700000 0 0 1
15.376637 23.308010 -24.067491 36.863917 0.987622 2.282169 0.055300 -0.014233 400570.000000 0 0 1
14.611437 24.384110 -23.244991 36.720682 1.030951 2.256247 0.047840 -0.012240 -128853.000000 0 0 1
14.913837 25.664810 -23.767291 38.026164 1.044389 2.245959 0.028814 -0.008794 67161.100000 0 0 1
13.846437 26.558010 -23.509891 38.075802 1.090203 2.236293 0.053289 -0.013766 96966.200000 0 0 1
14.009737 28.006210 -23.945791 39.421078 1.106959 2.223625 0.046913 -0.026456 -84216.700000 0 0 1
13.982737 28.112210 -25.376331 40.370428 1.109239 2.250532 0.054534 -0.035877 -299287.000000 0 0 1
13.290737 29.218410 -25.925371 41.261169 1.143895 2.250193 0.084561 -0.043833 -226789.000000 0 0 1
14.031437 30.560410 -25.935041 42.467002 1.140370 2.227754 0.101789 -0.041916 -86568.300000 0 0 1
15.184937 30.539010 -26.740121 43.338753 1.109367 2.235724 0.063435 -0.027723 -536243.000000 0 0 1
15.832437 31.781710 -26.843191 44.511797 1.108620 2.218125 0.072330 -0.027022 -231250.000000 0 0 1
17.218737 31.702810 -27.475291 45.348039 1.073243 2.221663 0.054512 -0.006511 -189921.000000 0 0 1
18.206337 31.114010 -26.675301 44.845557 1.041368 2.207845 0.021153 0.003061 511311.000000 0 0 1
19.552337 31.097410 -27.151281 45.678604 1.009509 2.207313 0.029880 0.007234 150593.000000 0 0 1
20.498937 30.328110 -26.250141 45.045206 0.976425 2.192906 0.013172 0.015044 -1311870.000000 0 0 1
20.739037 30.947310 -24.961491 44.843279 0.980393 2.161130 0.019293 0.009583 180440.000000 0 0 1
21.693837 32.009710 -24.877691 45.979817 0.975176 2.142489 0.024937 -0.001591 452735.000000 0 0 1
23.159237 31.637810 -25.279111 46.651203 0.938908 2.143463 0.011368 0.005532 -405583.000000 0 0 1
23.338837 31.319710 -26.681071 47.302274 0.930387 2.170084 0.010246 0.008371 204513.000000 0 0 1
24.623137 31.501410 -27.289491 48.408202 0.907344 2.169700 0.003074 0.018119 132619.000000 0 0 1
24.648837 30.938810 -28.762181 48.908467 0.898073 2.199481 0.017293 0.010550 666837.000000 0 0 1
23.754037 31.591810 -29.714201 49.449272 0.926077 2.215426 0.031312 -0.000644 847069.000000 0 0 1
22.437437 31.063810 -29.642541 48.446662 0.945259 2.229205 0.026845 -0.009405 -87236.400000 0 0 1
21.353337 31.738710 -30.513761 48.932610 0.978570 2.244120 0.025058 -0.005886 -1023740.000000 0 0 1
20.969337 32.968110 -29.895261 49.196910 1.004291 2.223914 0.043005 -0.002685 -31131.200000 0 0 1
20.027437 33.689310 -30.641691 49.749181 1.034450 2.234354 0.052418 -0.011480 -499006.000000 0 0 1
18.566637 33.222810 -30.665671 48.875950 1.061182 2.249030 0.060536 -0.019536 -936292.000000 0 0 1
18.196937 31.905910 -31.117561 48.139570 1.052478 2.273657 0.079567 -0.033621 48676.400000 0 0 1
18.496337 31.676710 -32.489571 49.001027 1.042292 2.295667 0.087434 -0.034613 -1086880.000000 0 0 1
17.694737 32.399010 -33.575031 49.900724 1.070913 2.308833 0.105974 -0.046520 -944006.000000 0 0 1
18.052337 33.670810 -34.035769 51.166824 1.078655 2.298547 0.090376 -0.037704 -188926.000000 0 0 1
17.710937 33.930610 32.773707 50.389279 1.089724 0.862672 0.079862 -0.040387 -692000.000000 0 0 1
16.255437 -33.980881 32.440870 49.712670 -1.124602 0.859828 0.089586 -0.041927 -1542480.000000 0 0 1
15.364437 33.227310 32.819141 49.165192 1.137675 0.839913 0.095792 -0.034909 711824.000000 0 0 1
13.969737 33.581910 32.922664 49.059148 1.176582 0.835130 0.082779 -0.036628 1612970.000000 0 0 1
13.242237 -34.045781 31.656451 48.338421 -1.199849 0.856756 0.077514 -0.037156 -1052330.000000 0 0 1
13.778537 -32.861881 31.215661 47.372659 -1.173775 0.851390 0.094585 -0.031268 -128921.000000 0 0 1
12.981037 -32.366581 30.154661 46.102131 -1.189374 0.857825 0.098891 -0.036621 -159688.000000 0 0 1
13.369537 -31.016081 29.552941 44.878927 -1.163811 0.851968 0.096185 -0.034124 -282564.000000 0 0 1
13.268937 -30.008381 30.523451 44.813488 -1.154469 0.821502 0.084303 -0.034146 407547.000000 0 0 1
13.713037 -28.692481 30.165971 43.832541 -1.124959 0.811778 0.099433 -0.039571 -895594.000000 0 0 1
13.280337 -27.696581 31.263691 43.827917 -1.123688 0.776561 0.090055 -0.030885 -306655.000000 0 0 1
11.903637 -27.456881 31.422491 43.392970 -1.161715 0.761013 0.069012 -0.031727 -221868.000000 0 0 1
11.483637 -26.541781 30.414961 41.969154 -1.162453 0.760200 0.053766 -0.032221 -792184.000000 0 0 1
11.687137 -25.009781 30.763631 41.333755 -1.133647 0.731349 0.044089 -0.024825 -301388.000000 0 0 1
10.848337 -24.377581 31.715951 41.447007 -1.152097 0.699418 0.054697 -0.028074 -61972.100000 0 0 1
11.362737 -23.154681 32.259134 41.302576 -1.114591 0.674460 0.044430 -0.022911 162458.000000 0 0 1
10.542637 -22.569281 33.450268 41.706595 -1.133794 0.640097 0.055937 -0.024165 -193307.000000 0 0 1
10.502637 -23.420881 -33.525911 42.223569 -1.149248 2.488173 0.063296 -0.024581 198821.000000 0 0 1
11.788237 -23.660381 -32.993261 42.276843 -1.108568 2.466117 0.056953 -0.024275 245683.000000 0 0 1
12.462337 -22.583581 -32.100801 41.179963 -1.066548 2.464703 0.056116 -0.028216 -195104.000000 0 0 1
12.729037 -21.446381 -32.876481 41.265465 -1.035149 2.492623 0.040121 -0.016771 481291.000000 0 0 1
13.887437 -20.703981 -32.465901 40.933488 -0.979964 2.486740 0.042902 -0.024096 366416.000000 0 0 1
14.144037 -19.471381 -33.357611 41.132939 -0.942570 2.516606 0.031928 -0.020223 -875284.000000 0 0 1
14.525237 -19.793181 33.474716 41.512758 -0.937711 0.632805 0.060040 -0.012244 298866.000000 0 0 1
14.433237 -18.743281 32.511151 40.207012 -0.914587 0.629038 0.028069 -0.006491 -538181.000000 0 0 1
15.439837 -17.578481 32.661471 40.176650 -0.850079 0.621602 0.046358 -0.010122 -769890.000000 0 0 1
15.196137 -16.693681 33.718709 40.577739 -0.832324 0.589955 0.037448 -0.011504 78321.200000 0 0 1
15.929337 -15.519681 33.644339 40.330457 -0.772373 0.584086 0.056786 -0.014180 46319.900000 0 0 1
17.434637 -15.476781 34.022091 41.243181 -0.725980 0.600746 0.066371 -0.009955 77979.200000 0 0 1
18.293537 -16.180681 33.163057 41.185632 -0.724187 0.634768 0.076713 -0.009692 544745.000000 0 0 1
19.658337 -15.888581 33.498192 41.964581 -0.679743 0.646414 0.102757 -0.012923 984157.000000 0 0 1
20.633137 -16.495681 32.391413 41.797577 -0.674421 0.684146 0.114864 -0.025206 43798.300000 0 0 1
20.680137 -15.845181 31.143941 40.603976 -0.653791 0.696617 0.099229 -0.012285 527877.000000 0 0 1
21.460337 -16.564381 30.197771 40.581155 -0.657346 0.731560 0.091293 -0.016345 -329396.000000 0 0 1
21.829437 -15.666481 28.972801 39.514379 -0.622491 0.747749 0.073255 -0.004884 671443.000000 0 0 1
22.725237 -14.511481 29.209411 39.751844 -0.568293 0.745434 0.057511 -0.009786 1212390.000000 0 0 1
23.075037 -13.980981 27.920171 38.826036 -0.544741 0.768276 0.041158 -0.006885 -258754.000000 0 0 1
23.646137 -12.597681 28.073281 38.806577 -0.489510 0.762060 0.036723 0.004729 -193373.000000 0 0 1
22.747837 -11.652981 28.627561 38.376989 -0.473414 0.728827 0.050374 -0.003136 -8533.470000 0 0 1
23.286637 -10.376081 28.664581 38.361292 -0.419173 0.726917 0.043406 -0.010047 -17999.200000 0 0 1
22.244337 -9.229081 28.818881 37.556815 -0.393281 0.696112 0.051977 -0.010686 190119.000000 0 0 1
21.453537 -9.185081 30.001061 38.008994 -0.404526 0.661104 0.060671 -0.015557 441146.000000 0 0 1
20.275837 -8.424081 29.716631 36.947975 -0.393774 0.636328 0.048995 -0.016274 662525.000000 0 0 1
19.212237 -8.411381 30.855991 37.308893 -0.412674 0.596973 0.044445 -0.011075 210393.000000 0 0 1
19.674137 -7.760381 32.097331 38.438702 -0.375709 0.582616 0.048047 -0.011842 343243.000000 0 0 1
20.065137 -8.766981 32.987118 39.593176 -0.411929 0.586014 0.055212 -0.014904 -382441.000000 0 0 1
20.101637 -8.178981 -33.703161 40.085840 -0.386424 2.569509 0.052640 -0.016351 -170484.000000 0 0 1
18.866237 -7.865081 -33.103251 38.905264 -0.394979 2.588432 0.044980 -0.018142 -76726.400000 0 0 1
19.046937 -7.083881 -31.968831 37.881041 -0.356065 2.575358 0.038792 -0.020088 -946335.000000 0 0 1
17.828337 -6.916881 -31.108331 36.516039 -0.370094 2.590416 0.036278 -0.018054 -820385.000000 0 0 1
17.969837 -5.992381 -30.059161 35.529942 -0.321873 2.579278 0.028281 -0.014597 332939.000000 0 0 1
16.761137 -5.707781 -29.381031 34.303927 -0.328219 2.599230 0.032171 -0.006733 138160.000000 0 0 1
17.049137 -4.648381 -28.293361 33.358579 -0.266177 2.583296 0.018577 -0.002168 -268379.000000 0 0 1
17.830637 -5.082881 -27.179731 32.901444 -0.277699 2.542940 0.017319 -0.007438 227261.000000 0 0 1
17.322237 -6.052481 -26.260981 32.036409 -0.336145 2.531724 0.038551 -0.010627 -419158.000000 0 0 1
15.899637 -5.852981 -25.717921 30.797196 -0.352726 2.559063 0.035045 -0.005937 -182492.000000 0 0 1
15.909337 -4.710281 -24.879591 29.904645 -0.287848 2.553435 0.003748 -0.000117 -261773.000000 0 0 1
14.639737 -4.577481 -24.282491 28.721326 -0.303044 2.578207 0.048933 -0.015781 -190315.000000 0 0 1
14.473737 -3.448281 -23.241591 27.596218 -0.233884 2.572151 0.047617 -0.024734 -122557.000000 0 0 1
14.511137 -2.175381 -23.872191 28.021186 -0.148803 2.590463 0.025589 -0.027446 219030.000000 0 0 1
14.111037 -1.114381 -23.035091 27.036616 -0.078809 2.590582 0.041314 -0.033901 -178275.000000 0 0 1
14.448537 0.299619 -23.592491 27.666868 0.020734 2.591994 0.026902 -0.033015 -306078.000000 0 0 1
13.694537 0.812619 -24.697291 28.251670 0.059269 2.634559 0.037510 -0.031541 330206.000000 0 0 1
14.340337 1.942619 -25.263671 29.114809 0.134646 2.621405 0.029169 -0.018144 26683.300000 0 0 1
13.515037 2.551619 -26.427061 29.791887 0.186602 2.661724 0.025972 -0.010990 773771.000000 0 0 1
12.307437 3.283619 -26.148271 29.085859 0.260726 2.688284 0.036817 -0.025224 1022640.000000 0 0 1
11.627337 3.597619 -27.364271 29.948975 0.300068 2.723085 0.043951 -0.020585 -138602.000000 0 0 1
10.319637 4.387619 -27.216151 29.435777 0.402016 2.750766 0.061116 -0.022803 -367404.000000 0 0 1
10.476437 5.730619 -26.732901 29.278724 0.500538 2.721494 0.054208 -0.032732 -679672.000000 0 0 1
9.334137 6.485619 -26.822241 29.131117 0.607246 2.740774 0.064330 -0.038240 -1035370.000000 0 0 1
8.626837 5.253210 -31.068921 32.669502 0.546966 2.827273 0.069179 -0.020704 -51356.100000 0 0 1
8.884437 4.209610 -30.134061 31.697250 0.442484 2.826229 0.049045 -0.007412 447202.000000 0 0 1
8.191937 3.026910 -30.494131 31.720057 0.353939 2.862667 0.048306 -0.001745 -248888.000000 0 0 1
8.144637 2.018410 -29.325731 30.502583 0.242927 2.862907 0.055137 -0.005328 -49162.400000 0 0 1
9.397637 1.536910 -28.828811 30.360797 0.162107 2.822564 0.059770 -0.014408 733688.000000 0 0 1
9.215937 0.458410 -27.964361 29.447395 0.049700 2.822874 0.062881 -0.016954 -402118.000000 0 0 1
10.410837 0.222110 -27.035241 28.971349 0.021331 2.773934 0.062212 -0.027437 -668394.000000 0 0 1
11.452237 -0.432190 -27.694481 29.972067 -0.037721 2.749234 0.053333 -0.018101 -609360.000000 0 0 1
12.296737 -0.963290 -26.732221 29.440606 -0.078177 2.709294 0.050238 -0.022991 -704912.000000 0 0 1
12.998037 -2.274390 -27.194271 30.226647 -0.173226 2.689829 0.049112 -0.015774 -714911.000000 0 0 1
12.180237 -3.339890 -27.480271 30.243649 -0.267628 2.710787 0.070697 -0.016125 -597268.000000 0 0 1
12.865537 -4.506290 -27.857591 31.014094 -0.336907 2.686507 0.060403 -0.007181 -220012.000000 0 0 1
12.089737 -5.770090 -27.422111 30.519302 -0.445300 2.687175 0.070880 -0.004242 -7596.620000 0 0 1
11.939237 -5.747490 -26.039161 29.216723 -0.448653 2.670872 0.068777 -0.006418 288968.000000 0 0 1
11.371537 -6.942890 -25.484251 28.756957 -0.548141 2.659862 0.076737 -0.008757 111770.000000 0 0 1
10.959237 -6.877890 -23.998791 27.264486 -0.560458 2.647125 0.073446 -0.007737 174693.000000 0 0 1
12.066637 -6.694690 -23.128291 26.932145 -0.506529 2.603644 0.042911 -0.002872 131229.000000 0 0 1
11.641937 -6.483190 -21.826291 25.572513 -0.508112 2.593473 0.046221 -0.012326 -163138.000000 0 0 1
12.780637 -6.300490 -20.820991 25.230032 -0.458009 2.541435 0.052780 -0.021664 143979.000000 0 0 1
13.418937 -5.020690 -20.781291 25.241577 -0.358025 2.537990 0.050021 -0.026504 -238295.000000 0 0 1
14.395037 -5.015490 -19.791191 24.981262 -0.335265 2.485270 0.054462 -0.024346 -201336.000000 0 1 0
15.036837 -3.644090 -19.385691 24.803041 -0.237760 2.467999 0.066322 -0.027178 380309.000000 0 1 0
15.953637 -3.105790 -20.367291 26.057455 -0.192271 2.468071 0.066571 -0.020349 535808.000000 0 0 1
16.478837 -1.893090 -19.854191 25.871311 -0.114379 2.445605 0.070126 -0.019214 936937.000000 0 0 1
17.737137 -1.422090 -20.707291 27.302385 -0.080005 2.431716 0.038807 -0.020986 456346.000000 0 0 1
18.856637 -2.247090 -20.744591 28.124015 -0.118608 2.400322 0.060838 -0.023642 -72127.900000 0 0 1
19.758437 -1.666690 -21.695191 29.391410 -0.084154 2.401116 0.058636 -0.023131 -686629.000000 0 0 1
21.124837 -2.278390 -21.812891 30.450812 -0.107438 2.369328 0.047335 -0.016972 -1679490.000000 0 0 1
22.002237 -1.905690 -20.764691 30.313404 -0.086398 2.325400 0.053887 -0.014844 -752569.000000 0 0 1
23.248037 -2.479190 -20.848691 31.325477 -0.106239 2.299028 0.044693 -0.009764 -566262.000000 0 0 1
24.281337 -1.813190 -21.785991 32.672624 -0.074536 2.300698 0.040861 -0.007677 -952011.000000 0 0 1
23.799637 -1.763390 -23.156691 33.253038 -0.073958 2.341135 0.046948 -0.010105 786997.000000 0 0 1
24.799837 -1.264790 -24.072491 34.584916 -0.050956 2.340664 0.036482 0.000279 668440.000000 0 0 1
26.049137 -2.123190 -24.355491 35.724717 -0.081327 2.320955 0.035166 -0.010000 -421766.000000 0 0 1
27.027137 -2.096090 -23.266291 35.723661 -0.077400 2.280073 0.035295 -0.006830 1903940.000000 0 0 1
28.283337 -2.701690 -23.725391 37.015408 -0.095233 2.266544 0.026282 -0.000878 1534140.000000 0 0 1
29.168937 -1.864590 -24.690491 38.261258 -0.063837 2.272229 0.032652 -0.014882 -1029060.000000 0 0 1
28.699237 -1.793090 -26.014491 38.776476 -0.062398 2.306196 0.041621 -0.013034 30830.000000 0 0 1
29.410437 -0.821990 -26.694061 39.726846 -0.027942 2.307622 0.051446 -0.016596 -871032.000000 0 0 1
28.763837 -0.611590 -28.126911 40.235003 -0.021259 2.344886 0.052491 -0.024448 669632.000000 0 0 1
27.438237 -0.130790 -28.315601 39.429014 -0.004767 2.371924 0.042472 -0.019127 315347.000000 0 0 1
27.162137 1.068310 -27.565261 38.713906 0.039311 2.363174 0.030620 -0.012583 -1859030.000000 0 0 1
25.735937 1.524810 -27.621411 37.783671 0.059179 2.390643 0.024123 -0.013059 -1422350.000000 0 0 1
24.813237 0.897310 -26.776851 36.517141 0.036147 2.393912 0.026123 -0.016086 724634.000000 0 0 1
23.516437 1.432410 -27.124051 35.927548 0.060836 2.426397 0.017746 -0.014534 507713.000000 0 0 1
22.394737 1.115110 -26.116431 34.421442 0.049752 2.432151 0.027286 -0.013215 -181489.000000 0 0 1
22.613037 1.761210 -24.885691 33.671188 0.077728 2.402499 0.033278 -0.016531 603580.000000 0 0 1
21.570337 1.478210 -23.966391 32.277739 0.068423 2.407599 0.035575 -0.017968 -23430.600000 0 0 1
21.740737 2.227110 -22.579791 31.423981 0.102083 2.372516 0.046734 -0.016894 -411985.000000 0 0 1
21.431037 3.563810 -22.550391 31.313099 0.164784 2.374827 0.050664 -0.022152 494709.000000 0 0 1
21.782137 4.061710 -21.249391 30.700091 0.184353 2.335275 0.053544 -0.023044 -451947.000000 0 0 1
21.354537 5.528210 -20.974991 30.438915 0.253316 2.331022 0.061811 -0.018127 -362915.000000 0 0 1
22.239837 6.549310 -21.401391 31.551915 0.286390 2.316231 0.055120 -0.014048 172691.000000 0 0 1
21.930037 7.855210 -21.019191 31.375742 0.343956 2.304895 0.054297 -0.019394 -530864.000000 0 0 1
22.231037 8.167210 -19.527091 30.695758 0.352072 2.260294 0.060942 -0.019914 -157766.000000 0 0 1
23.611737 8.294510 -19.234191 31.563699 0.337821 2.226071 0.061757 -0.017714 377582.000000 0 0 1
23.947737 8.499010 -17.877291 31.069676 0.341032 2.183882 0.086557 -0.028787 -6344.690000 0 0 1
23.793737 9.950910 -17.233491 31.018635 0.396110 2.159863 0.099325 -0.035193 36132.500000 0 0 1
22.424537 10.237010 -16.980491 29.933147 0.428254 2.173996 0.086872 -0.041773 116488.000000 0 0 1
22.230037 11.670310 -16.847091 30.235660 0.483431 2.161798 0.077135 -0.028562 1148890.000000 0 0 1
20.704037 12.148310 -16.676191 29.228991 0.530628 2.177955 0.064677 -0.034611 1675100.000000 0 0 1
19.805237 11.758210 -17.676391 29.033734 0.535768 2.225372 0.059436 -0.040655 126914.000000 0 0 1
19.555137 10.388010 -17.892491 28.468497 0.488308 2.250421 0.057332 -0.038711 -883366.000000 0 0 1
18.604337 10.195810 -19.104891 28.549479 0.501333 2.303908 0.069503 -0.024736 434020.000000 0 0 1
19.312437 10.295710 -20.355191 29.888219 0.489786 2.319984 0.078032 -0.023487 1091190.000000 0 0 1
18.461937 9.814110 -21.419491 29.932498 0.488596 2.368269 0.058025 -0.027323 237176.000000 0 0 1
19.213437 10.019510 -22.749091 31.417636 0.480687 2.380506 0.074959 -0.030543 -59486.200000 0 0 1
19.417937 11.372110 -23.057391 32.218386 0.529801 2.368364 0.076782 -0.033170 381371.000000 0 0 1
20.177037 11.501810 -24.249491 33.577407 0.518102 2.377769 0.075297 -0.034248 2702.030000 0 0 1
20.210437 12.940810 -24.746191 34.471731 0.569528 2.371533 0.093782 -0.033641 108664.000000 0 0 1
20.995137 13.170910 -25.911821 35.856535 0.560274 2.378429 0.096773 -0.033972 260712.000000 0 0 1
21.273537 14.546310 -26.172401 36.730819 0.599753 2.363917 0.106143 -0.031691 790438.000000 0 0 1
20.109137 15.273910 -26.975861 36.950870 0.649586 2.389187 0.077867 -0.029048 805555.000000 0 0 1
18.906537 15.402810 -26.266241 35.841583 0.683629 2.393287 0.072564 -0.030454 -570607.000000 0 0 1
17.820037 15.598010 -27.122801 36.006915 0.719004 2.423811 0.060575 -0.035177 -47791.100000 0 0 1
16.437337 15.273210 -26.523371 34.741131 0.748704 2.439446 0.053630 -0.036325 -73796.900000 0 0 1
16.267737 13.866210 -26.436481 33.997037 0.705871 2.461654 0.046879 -0.034821 406533.000000 0 0 1
14.967537 13.479110 -25.999691 32.889170 0.733122 2.482461 0.035880 -0.031642 187227.000000 0 0 1
14.782537 11.940510 -25.792291 32.036564 0.679445 2.506622 0.033558 -0.030448 292961.000000 0 0 1
13.445437 11.550010 -25.471501 31.031917 0.709712 2.533635 0.035777 -0.029723 642361.000000 0 0 1
13.376037 10.135710 -25.456631 30.490835 0.648444 2.558737 0.051177 -0.033121 176195.000000 0 0 1
11.917737 9.609710 -25.312441 29.582066 0.678593 2.597637 0.057402 -0.046435 623033.000000 0 0 1
11.218137 9.934210 -24.094491 28.373925 0.724774 2.585222 0.063334 -0.046061 -256419.000000 0 0 1
9.999837 9.261310 -24.059891 27.652250 0.747074 2.626177 0.074845 -0.048413 -555474.000000 0 0 1
9.041637 9.796910 -22.977491 26.564934 0.825469 2.615858 0.067797 -0.047153 -192957.000000 0 0 1
8.515437 11.080110 -23.265391 27.139637 0.915539 2.600697 0.063566 -0.043596 473671.000000 0 0 1
7.633537 11.669410 -22.295891 26.297391 0.991510 2.582688 0.058425 -0.027011 675682.000000 0 0 1
8.369637 12.681110 -21.335591 26.192915 0.987418 2.522759 0.055878 -0.030500 628575.000000 0 0 1
9.146037 11.967710 -20.353391 25.320675 0.918253 2.504494 0.060072 -0.043159 103184.000000 0 0 1
10.033137 12.819310 -19.639091 25.508674 0.906720 2.449478 0.068571 -0.041672 67306.100000 0 0 1
11.145437 12.041310 -18.878191 25.011997 0.824016 2.426093 0.084163 -0.048812 225816.000000 0 0 1
12.189737 11.382410 -19.593091 25.730102 0.751162 2.436398 0.084914 -0.045967 353698.000000 0 0 1
11.814437 10.441110 -20.570391 25.917922 0.723769 2.487622 0.082697 -0.046616 -774727.000000 0 0 1
13.012637 9.799110 -21.312891 26.825186 0.645448 2.488997 0.071489 -0.044938 -162906.000000 0 0 1
13.875837 9.030310 -20.536891 26.378954 0.576933 2.463122 0.096767 -0.053958 -194191.000000 0 0 1
14.948037 8.622010 -21.352291 27.453655 0.523185 2.461887 0.085602 -0.048647 -482974.000000 0 0 1
15.512137 7.299210 -20.812791 26.964367 0.439810 2.452562 0.104429 -0.048078 -253211.000000 0 0 1
16.175137 7.374510 -19.563191 26.433632 0.427763 2.403996 0.077525 -0.038230 240252.000000 0 0 1
16.646537 6.081710 -19.239491 26.158218 0.350278 2.397208 0.065763 -0.037855 -356955.000000 0 0 1
17.489537 6.137310 -17.948391 25.801070 0.337488 2.340114 0.060332 -0.031689 -898952.000000 0 0 1
18.778937 6.646210 -18.143491 26.944514 0.340161 2.309547 0.056524 -0.042121 -34569.600000 0 0 1
19.461537 6.813810 -16.903191 26.662657 0.336779 2.257466 0.060624 -0.051333 426553.000000 0 0 1
20.207537 5.555210 -16.282091 26.538865 0.268281 2.231305 0.071773 -0.055370 26535.800000 0 0 1
21.356237 5.131210 -17.026791 27.790822 0.235798 2.230239 0.067386 -0.046865 1265120.000000 0 0 1
22.188837 4.303210 -16.159291 27.784614 0.191558 2.191480 0.088405 -0.050003 40958.600000 0 0 1
23.624137 4.018610 -16.596591 29.149543 0.168493 2.176524 0.056605 -0.010541 -262842.000000 0 0 1
24.296037 3.144810 -15.634591 29.062478 0.128721 2.138817 0.062403 -0.011942 549440.000000 0 0 1
25.480937 2.724710 -16.317391 30.380247 0.106527 2.137798 0.062567 -0.018074 423881.000000 0 0 1
26.283137 1.636310 -15.525591 30.569997 0.062177 2.103507 0.084861 -0.027469 -198241.000000 0 0 1
25.739437 0.348610 -15.680391 30.141579 0.013543 2.117910 0.089920 -0.019308 -23106.800000 0 0 1
26.764037 -0.605090 -15.596991 30.982994 -0.022604 2.098331 0.077423 -0.016536 -270731.000000 0 0 1
26.369537 -2.032890 -15.982991 30.902121 -0.076940 2.114388 0.061483 -0.021036 -91634.300000 0 0 1
25.710337 -2.747690 -14.929891 29.857542 -0.106467 2.094438 0.065589 -0.020208 562180.000000 0 0 1
25.493237 -4.104490 -15.136991 29.931262 -0.159633 2.101019 0.055156 -0.016644 -888828.000000 0 0 1
24.820237 -4.788390 -13.907791 28.851334 -0.190581 2.073790 0.060584 -0.020683 11378.900000 0 0 1
23.444737 -4.598190 -13.692291 27.536845 -0.193671 2.091206 0.076866 -0.011318 -439793.000000 0 0 1
22.593237 -5.226190 -14.561191 27.382397 -0.227318 2.131488 0.087167 -0.008983 -369796.000000 0 0 1
21.114937 -5.136790 -14.030491 25.866616 -0.238642 2.144108 0.103969 -0.015498 362522.000000 0 0 1
20.727337 -6.175690 -13.129491 25.301090 -0.289574 2.116395 0.107858 -0.016763 589652.000000 0 0 1
20.775037 -5.738890 -11.800991 24.572350 -0.269518 2.071742 0.115807 -0.020856 -218363.000000 0 1 0
20.450537 -6.945090 -10.815491 24.154369 -0.327384 2.035061 0.103370 -0.018515 443484.000000 0 1 0
19.094337 -7.389190 -10.809791 23.152654 -0.369235 2.056569 0.091216 -0.012552 820137.000000 0 1 0
18.962337 -8.632690 -11.554991 23.824595 -0.427215 2.077162 0.093601 -0.020884 309302.000000 0 1 0
17.495537 -9.167590 -11.408391 22.809864 -0.482660 2.094570 0.091439 -0.024363 444363.000000 0 1 0
16.559037 -8.288490 -11.975491 22.052508 -0.464081 2.144855 0.084053 -0.013879 -851948.000000 0 1 0
15.353937 -8.920590 -12.249891 21.572670 -0.526329 2.174679 0.072757 -0.011417 -519862.000000 0 1 0
14.242137 -7.866190 -12.483491 20.507387 -0.504621 2.225257 0.050288 -0.010628 -428062.000000 0 1 0
14.347637 -6.973690 -13.597991 20.961688 -0.452427 2.276680 0.053371 -0.013120 537791.000000 0 1 0
15.395137 -5.995290 -13.590491 21.392877 -0.371359 2.259169 0.053698 -0.013127 215570.000000 0 1 0
15.089037 -4.881390 -14.577591 21.540964 -0.312880 2.314119 0.044408 -0.016946 -181791.000000 0 1 0
14.044037 -4.037190 -14.160191 20.348092 -0.279919 2.340466 0.052003 -0.021955 15257.000000 0 1 0
13.629937 -2.993590 -15.079091 20.545455 -0.216201 2.394898 0.038817 -0.025867 -336301.000000 0 1 0
14.636437 -1.879290 -15.457491 21.370330 -0.127699 2.379388 0.059939 -0.024599 -120337.000000 0 1 0
15.711037 -2.321490 -16.295391 22.754466 -0.146700 2.369053 0.052322 -0.020203 663436.000000 0 1 0
16.918637 -1.631490 -16.054191 23.380314 -0.096134 2.327673 0.058376 -0.023625 -101844.000000 0 1 0
17.898637 -2.182290 -15.053891 23.489215 -0.121326 2.266447 0.078987 -0.024887 -715126.000000 0 1 0
17.439037 -1.990790 -13.725191 22.281474 -0.113665 2.234440 0.064313 -0.016997 345812.000000 0 1 0
18.384737 -2.579090 -12.869591 22.589303 -0.139375 2.176962 0.063414 -0.010584 -97118.200000 0 1 0
17.942637 -2.502790 -11.412591 21.411431 -0.138594 2.132955 0.062446 -0.008750 -669582.000000 0 1 0
17.863837 -1.218390 -10.821591 20.921471 -0.068099 2.114429 0.064694 -0.007710 647653.000000 0 1 0
17.461137 -1.413990 -9.513891 19.935014 -0.080803 2.068314 0.058666 -0.007838 -1272830.000000 0 1 0
17.711437 -0.201590 -8.627091 19.701835 -0.011381 2.024038 0.069750 -0.009561 -35916.500000 0 1 0
19.060937 0.064710 -8.262691 20.774878 0.003395 1.979832 0.082661 -0.005404 1510640.000000 0 1 0
19.913737 0.728810 -9.246891 21.968001 0.036582 2.005262 0.078252 0.001659 220390.000000 0 1 0
19.504337 2.157310 -9.677491 21.879830 0.110159 2.028960 0.073187 -0.007776 -648662.000000 0 1 0
19.461237 3.208710 -8.759891 21.581734 0.163407 1.988753 0.068665 -0.004317 685637.000000 0 1 0
18.737837 4.264510 -9.376191 21.382365 0.223777 2.024727 0.049929 -0.013694 -329931.000000 0 1 0
18.935437 5.664810 -8.775291 21.625137 0.290690 1.988641 0.073220 -0.006406 66743.300000 0 1 0
18.096237 6.633910 -9.439591 21.461324 0.351378 2.026219 0.053915 -0.013549 879229.000000 0 1 0
18.338337 7.944210 -8.976191 21.908379 0.408798 1.992938 0.062285 -0.011790 -258367.000000 0 1 0
-26.644033 -29.258950 5.927709 40.014102 0.832140 1.422109 0.077212 -0.013976 -144923.000000 0 0 1
-26.736313 -28.234150 6.938609 39.498632 0.812639 1.394213 0.084397 -0.018621 -24683.600000 0 0 1
-25.617943 -27.374480 6.799609 38.103489 0.818533 1.391384 0.077767 -0.016706 -327467.000000 0 0 1
-25.634423 -26.161960 7.707709 37.429675 0.795583 1.363387 0.081413 -0.019269 35503.300000 0 0 1
-26.589933 -25.108290 7.398409 37.312025 0.756747 1.371189 0.076770 -0.021175 517902.000000 0 0 1
-27.948093 -25.370800 7.657009 38.514974 0.737098 1.370657 0.064595 -0.020827 -7434.290000 0 0 1
-28.504763 -25.698470 9.081109 39.438553 0.733671 1.338452 0.049619 -0.016552 -663375.000000 0 0 1
-27.825383 -26.716560 9.698309 39.775416 0.765071 1.324487 0.061848 -0.018456 -573388.000000 0 0 1
-28.366843 -27.030370 10.967809 40.689207 0.761278 1.297870 0.066342 -0.015374 -277823.000000 0 0 1
-27.424443 -27.903590 11.813009 40.868785 0.794058 1.277565 0.059491 -0.014622 982220.000000 0 0 1
-26.192323 -27.277900 12.232309 39.746082 0.805698 1.257957 0.067091 -0.016294 513714.000000 0 0 1
-26.404413 -26.392430 13.300809 39.631615 0.785171 1.228542 0.067699 -0.011945 -252199.000000 0 0 1
-25.104153 -25.792900 13.914909 38.589077 0.798929 1.201894 0.075778 -0.013156 109247.000000 0 0 1
-24.320863 -26.726710 14.529309 38.947686 0.832493 1.188506 0.074760 -0.016365 166268.000000 0 0 1
-23.061363 -26.256670 15.059909 38.053121 0.850098 1.163901 0.097742 -0.019391 895483.000000 0 0 1
-22.354763 -27.392910 15.806509 38.729223 0.886328 1.150393 0.104368 -0.024315 -434817.000000 0 0 1
-23.103763 -27.989950 16.822509 40.002725 0.880740 1.136762 0.107083 -0.016389 -157497.000000 0 0 1
-22.396563 -29.031990 17.438609 40.602556 0.913712 1.126862 0.102592 -0.010604 325902.000000 0 0 1
-23.350263 -29.916000 18.314609 42.138186 0.908042 1.121167 0.121515 -0.018250 163490.000000 0 0 1
-24.395463 -30.559750 17.627609 42.892535 0.897101 1.147277 0.076015 -0.015153 168954.000000 0 0 1
-24.968063 -31.529860 18.531709 44.282734 0.901022 1.139019 0.088415 -0.008893 -175604.000000 0 0 1
-26.024323 -32.503590 17.970909 45.350880 0.895653 1.163352 0.078043 -0.014475 44366.600000 0 0 1
-25.430593 -33.421320 17.077209 45.335756 0.920350 1.184583 0.082727 -0.027775 46291.300000 0 0 1
-26.351933 33.868333 16.601909 46.012083 -0.909571 1.201653 0.072420 -0.023185 -490603.000000 0 0 1
-25.886393 33.262505 15.243409 44.820320 -0.909462 1.223773 0.067249 -0.024945 651652.000000 0 0 1
-24.619263 32.585078 15.264909 43.599460 -0.923760 1.213100 0.055943 -0.023597 889465.000000 0 0 1
-23.611263 33.492460 14.826609 43.578263 -0.956741 1.223635 0.061465 -0.025289 -1065600.000000 0 0 1
-22.186163 33.019800 14.709109 42.413334 -0.979176 1.216635 0.083980 -0.029616 -629865.000000 0 0 1
-21.911663 32.151242 13.615109 41.221288 -0.972582 1.234182 0.072348 -0.026547 113.071000 0 0 1
-20.521563 31.885302 13.680009 40.310665 -0.998929 1.224555 0.079265 -0.024005 135898.000000 0 0 1
-20.125163 30.820242 12.648809 38.921741 -0.992325 1.239805 0.068587 -0.022709 -34694.400000 0 0 1
-19.971163 31.310382 11.350209 38.833164 -1.003014 1.274185 0.054288 -0.018235 -156776.000000 0 0 1
-20.105163 30.324322 10.384609 37.836784 -0.985333 1.292770 0.060630 -0.010219 117188.000000 0 0 1
-19.625463 30.841032 8.998809 37.647133 -1.004082 1.329429 0.043334 -0.008439 -1305510.000000 0 0 1
-18.263063 30.904382 8.867109 36.976289 -1.037055 1.328631 0.050070 -0.016367 -1411720.000000 0 0 1
-17.816363 31.475572 7.604909 36.959019 -1.055723 1.363550 0.072980 -0.028130 105357.000000 0 0 1
-17.486163 30.404502 6.523909 35.675777 -1.048874 1.386895 0.064789 -0.020543 -318941.000000 0 0 1
-18.475063 29.413202 6.337609 35.307644 -1.009956 1.390321 0.047886 -0.008846 -51200.800000 0 0 1
-18.176963 28.201792 7.080509 34.291058 -0.998275 1.362818 0.034318 -0.003073 -265250.000000 0 0 1
-19.089463 27.034592 6.761309 33.778574 -0.955980 1.369269 0.032229 0.003236 -278305.000000 0 0 1
-18.777863 26.420282 5.560209 32.887009 -0.952901 1.400910 0.039782 -0.000711 -266392.000000 0 0 1
-19.904463 25.987992 4.858409 33.093316 -0.917190 1.423454 0.029574 0.000594 -1117560.000000 0 0 1
-19.729263 25.247212 3.497209 32.231910 -0.907473 1.462081 0.042908 -0.010234 -1001230.000000 0 0 1
-19.335263 26.012982 2.331209 32.495572 -0.931602 1.498995 0.047672 -0.012191 1364590.000000 0 0 1
-18.014963 26.609052 2.320509 32.217469 -0.975658 1.498707 0.048518 -0.012946 783330.000000 0 0 1
-16.791463 25.662612 2.463309 30.766716 -0.991393 1.490646 0.045671 -0.018997 -705594.000000 0 0 1
-16.553563 24.635802 1.494309 29.718280 -0.979158 1.520493 0.073411 -0.024637 92976.300000 0 0 1
-16.329163 25.027622 0.175209 29.884011 -0.992704 1.564933 0.074138 -0.027495 -300983.000000 0 0 1
-15.895463 23.816522 -0.654191 28.641237 -0.982277 1.593639 0.080235 -0.027169 -272899.000000 0 0 1
-16.953163 22.944802 -0.925891 28.543493 -0.934458 1.603240 0.093422 -0.039429 -226010.000000 0 0 1
-16.647663 21.861802 -1.792591 27.537183 -0.919979 1.635939 0.096917 -0.033689 -226678.000000 0 0 1
-15.709763 20.749402 -1.287391 26.057470 -0.922755 1.620222 0.091877 -0.033429 -247024.000000 0 0 1
-16.218463 20.028702 -0.203191 25.772636 -0.890132 1.578680 0.104380 -0.033747 -430.030000 0 0 1
-15.352563 19.000802 0.312509 24.430091 -0.891199 1.558004 0.120089 -0.035719 2197.780000 0 1 0
-15.911563 17.954302 1.318209 24.026496 -0.845644 1.515904 0.104799 -0.025357 523672.000000 0 1 0
-16.802363 17.051302 0.611609 23.946615 -0.792751 1.545253 0.094576 -0.015335 308876.000000 0 1 0
-17.633463 16.295102 1.387809 24.049852 -0.745972 1.513059 0.116860 -0.030947 -402006.000000 0 1 0
-17.995663 15.015502 0.653809 23.446464 -0.695365 1.542908 0.110505 -0.022940 -329008.000000 0 1 0
-18.876163 15.230302 -0.400391 24.257617 -0.678906 1.587303 0.119051 -0.026831 -137192.000000 0 1 0
-19.648463 14.070402 -0.628191 24.175048 -0.621454 1.596784 0.104890 -0.021862 -981294.000000 0 1 0
-20.584863 14.263802 -1.849491 25.112014 -0.605963 1.644513 0.080272 -0.013328 -608890.000000 0 0 1
-21.400163 13.176502 -2.238391 25.230886 -0.551898 1.659629 0.071418 -0.019213 661258.000000 0 0 1
-22.303463 12.705502 -1.261491 25.699526 -0.517816 1.619902 0.082684 -0.023451 -858881.000000 0 0 1
-23.588663 13.496902 -0.897791 27.191863 -0.519710 1.603819 0.090072 -0.027119 -500582.000000 0 0 1
-23.353363 14.722502 -0.325991 27.608657 -0.562490 1.582604 0.095079 -0.035975 442775.000000 0 0 1
-24.639263 15.303302 -0.199991 29.005592 -0.555786 1.577691 0.086554 -0.029940 99661.600000 0 0 1
-24.540063 16.680802 0.586509 29.678407 -0.596997 1.551033 0.087387 -0.041612 -144467.000000 0 0 1
-24.258563 16.464502 1.943309 29.382549 -0.596293 1.504610 0.092836 -0.024176 32215.400000 0 0 1
-24.079663 17.607602 2.743109 29.956343 -0.631375 1.479098 0.078324 -0.025650 -594745.000000 0 0 1
-25.342683 18.337602 3.154809 31.439976 -0.626381 1.470283 0.080157 -0.024572 -1280350.000000 0 0 1
-26.136693 17.590002 4.078309 31.767397 -0.592375 1.442061 0.088810 -0.023916 1158080.000000 0 0 1
-27.458193 18.153202 4.256409 33.190483 -0.584154 1.442200 0.086210 -0.029362 1730960.000000 0 0 1
-28.454993 18.183502 3.032109 33.904573 -0.568622 1.481246 0.085557 -0.035304 -545267.000000 0 0 1
-29.716803 18.767902 3.188709 35.291506 -0.563302 1.480319 0.078890 -0.038914 445805.000000 0 0 1
-30.545273 18.715502 2.027809 35.880298 -0.549715 1.514250 0.071102 -0.042116 155257.000000 0 0 1
-31.899823 19.439302 2.018309 37.410677 -0.547292 1.516820 0.081392 -0.045962 -171962.000000 0 0 1
-32.850553 18.838402 2.873309 37.977627 -0.520674 1.495066 0.086678 -0.038008 264428.000000 0 0 1
-34.026833 19.630702 2.994009 39.397385 -0.523275 1.494728 0.095023 -0.038936 223986.000000 0 0 1
-34.218635 20.334802 4.357809 40.042598 -0.536189 1.461751 0.094197 -0.043803 -244833.000000 0 0 1
-33.102953 21.174102 4.640509 39.568705 -0.569061 1.453249 0.097095 -0.044392 783674.000000 0 0 1
-33.470593 21.865102 5.804209 40.398665 -0.578666 1.426624 0.100461 -0.041661 -172482.000000 0 0 1
-32.357933 22.834602 6.226509 40.090202 -0.614533 1.414853 0.091866 -0.041509 -362397.000000 0 0 1
-32.299393 23.953612 5.384309 40.571137 -0.638111 1.437691 0.093019 -0.039946 662052.000000 0 0 1
-31.340103 24.859042 5.933309 40.439810 -0.670582 1.423545 0.077286 -0.037066 80229.400000 0 0 1
-31.682893 26.316242 5.575809 41.562483 -0.693131 1.436236 0.079060 -0.031875 419930.000000 0 0 1
-32.872763 26.764302 6.252809 42.849085 -0.683327 1.424347 0.087339 -0.029072 777014.000000 0 0 1
-33.074863 28.148662 6.116809 43.860109 -0.705109 1.430878 0.076720 -0.024501 -269207.000000 0 0 1
-34.167322 28.566442 7.124409 45.102159 -0.696354 1.412170 0.069455 -0.023470 -837703.000000 0 0 1
-33.678153 28.899852 8.370909 45.160731 -0.709189 1.384360 0.072466 -0.020599 -122153.000000 0 0 1
-34.534511 29.637972 9.202909 46.429898 -0.709243 1.371264 0.072458 -0.016918 -153895.000000 0 0 1
-35.792273 28.933062 9.771309 47.049840 -0.679818 1.361594 0.073256 -0.014914 -121459.000000 0 0 1
-35.373676 27.758962 10.422509 46.157184 -0.665363 1.343027 0.081073 -0.019140 910707.000000 0 0 1
-36.435153 27.057222 11.115309 46.724338 -0.638757 1.330602 0.082271 -0.020657 429797.000000 0 0 1
-35.865526 25.865162 11.882209 45.787875 -0.624794 1.308286 0.100072 -0.015170 -120305.000000 0 0 1
-35.068419 26.372092 12.944409 45.747557 -0.644792 1.283925 0.107876 -0.017874 12875.600000 0 0 1
-34.653606 25.297892 13.748209 45.054068 -0.630592 1.260701 0.110179 -0.014289 181045.000000 0 0 1
-33.368403 25.600902 14.579409 44.513096 -0.654431 1.237107 0.110255 -0.015469 279066.000000 0 0 1
-33.586963 26.635732 15.505609 45.584759 -0.670481 1.223721 0.113864 -0.024235 -158555.000000 0 0 1
-32.495113 26.713592 16.381209 45.143022 -0.688060 1.199447 0.134466 -0.020804 -307969.000000 0 0 1
-32.682553 27.764952 17.441909 46.295378 -0.704224 1.184508 0.130126 -0.035531 -415746.000000 0 0 1
-32.581873 29.011972 16.885709 46.780340 -0.727504 1.201502 0.144265 -0.034160 -90872.600000 0 0 1
-32.935833 30.050942 17.729209 47.980758 -0.739629 1.192318 0.114669 -0.034146 -10742.800000 0 0 1
-32.872723 31.374442 16.933809 48.494592 -0.762082 1.214090 0.090107 -0.028701 849398.000000 0 0 1
-31.547503 31.582792 16.415809 47.562554 -0.785957 1.218407 0.084059 -0.018961 438642.000000 0 0 1
-31.452203 32.663660 15.557809 47.939558 -0.804291 1.240282 0.075709 -0.008478 876182.000000 0 0 1
-29.955003 32.893796 15.073509 46.973554 -0.832124 1.244124 0.095825 -0.013343 1417730.000000 0 0 1
-29.282683 31.987492 14.187509 45.628507 -0.829515 1.254619 0.078824 -0.007537 181211.000000 0 0 1
-29.180993 30.612902 14.570709 44.732379 -0.809341 1.239012 0.084273 -0.014893 -306176.000000 0 0 1
-30.329373 29.672872 14.127809 44.720747 -0.774457 1.249379 0.101304 -0.016917 128081.000000 0 0 1
-30.297293 29.495742 12.781609 44.173457 -0.771994 1.277248 0.107773 -0.021116 -287450.000000 0 0 1
-31.305893 28.658992 12.288109 44.185907 -0.741286 1.288981 0.112902 -0.021327 -87582.900000 0 0 1
-31.199943 28.423412 10.766409 43.557346 -0.738864 1.321030 0.099712 -0.016982 -477167.000000 0 0 1
-30.145373 27.660292 10.303709 42.190067 -0.742434 1.324080 0.091198 -0.011525 -568845.000000 0 0 1
-29.981343 27.831322 8.921909 41.869606 -0.748226 1.356062 0.085533 -0.019228 141054.000000 0 0 1
-28.909433 26.905302 8.273209 40.349679 -0.749507 1.364294 0.086204 -0.020279 321685.000000 0 0 1
-28.645373 27.330582 6.916309 40.191460 -0.761914 1.397851 0.074888 -0.021856 -574189.000000 0 0 1
-27.635413 26.534812 6.399409 38.842821 -0.765083 1.405290 0.063871 -0.017546 -433969.000000 0 0 1
-27.362933 26.878902 4.876709 38.665072 -0.776475 1.444333 0.054161 -0.015251 -210485.000000 0 0 1
-26.702243 28.088792 4.618409 39.029729 -0.810699 1.452188 0.041148 -0.005739 137705.000000 0 0 1
-26.262303 28.059162 3.245809 38.568905 -0.818464 1.486541 0.032155 -0.001370 -143834.000000 0 0 1
-25.203263 29.139742 3.012209 38.644566 -0.857709 1.492771 0.023109 0.000290 734136.000000 0 0 1
-23.908963 28.969062 3.630509 37.736265 -0.880801 1.474440 0.020171 0.001670 1177360.000000 0 0 1
-22.931763 29.756292 2.920209 37.680636 -0.914208 1.493220 0.020542 0.009877 -184368.000000 0 0 1
-21.528163 29.467362 3.423409 36.653881 -0.939843 1.477262 0.024852 -0.002511 -537735.000000 0 0 1
-20.586463 30.275372 2.764809 36.715730 -0.973638 1.495422 0.038916 -0.005668 -707973.000000 0 0 1
-19.259363 29.997972 3.118709 35.784462 -1.000050 1.483533 0.060036 -0.016909 360166.000000 0 0 1
-18.218763 31.038382 2.548109 36.080429 -1.040009 1.500114 0.061284 -0.026686 303796.000000 0 0 1
-18.327363 32.308424 3.124009 37.275809 -1.054796 1.486890 0.066564 -0.027766 34315.000000 0 0 1
-17.403263 33.216523 2.567209 37.587252 -1.088185 1.502443 0.080761 -0.031024 -386354.000000 0 0 1
-16.811263 -33.931940 3.489709 38.028584 1.110803 1.478902 0.095064 -0.034028 -376071.000000 0 0 1
-17.666963 -32.851540 3.682109 37.482038 1.077382 1.472401 0.095173 -0.033366 81964.900000 0 0 1
-17.128563 -31.887410 4.583709 36.485682 1.077866 1.444833 0.096906 -0.040581 43594.600000 0 0 1
-18.218463 -30.841940 4.887709 36.152833 1.037240 1.435185 0.095274 -0.032075 109919.000000 0 0 1
-18.535763 -30.032440 3.755909 35.491250 1.017832 1.464771 0.096275 -0.028404 -322571.000000 0 0 1
-19.663063 -29.261220 4.001409 35.480506 0.979122 1.457778 0.096837 -0.027116 -534807.000000 0 0 1
-20.129063 -28.311420 2.856209 34.855037 0.952734 1.488759 0.076570 -0.033611 127507.000000 0 0 1
-19.391263 -27.095410 2.846409 33.440759 0.949633 1.485575 0.073371 -0.024283 226935.000000 0 0 1
-19.779763 -26.394650 1.681909 33.026435 0.927689 1.519848 0.064691 -0.025807 140546.000000 0 0 1
-18.860863 -25.170710 1.484309 31.488092 0.927732 1.523640 0.071904 -0.030338 496748.000000 0 0 1
-17.607263 -25.522810 0.896509 31.019885 0.966906 1.541891 0.083671 -0.029812 -248966.000000 0 0 1
-16.808763 -24.353490 0.923409 29.605399 0.966678 1.539601 0.075886 -0.022314 -232236.000000 0 0 1
-15.458963 -24.619690 0.246509 29.071798 1.010107 1.562317 0.068677 -0.023000 -467103.000000 0 0 1
-15.400263 -24.796690 -1.159391 29.212807 1.015034 1.610495 0.065042 -0.018345 -38563.200000 0 0 1
-15.519463 -23.629990 -1.943191 28.337363 0.989677 1.639424 0.090517 -0.024041 -326025.000000 0 0 1
-15.540763 -23.833790 -3.484691 28.665448 0.992983 1.692662 0.049309 -0.015804 -1099180.000000 0 0 1
-14.318263 -24.104790 -4.049291 28.327554 1.034800 1.714233 0.070681 -0.014600 -1012700.000000 0 0 1
-14.443163 -24.241590 -5.446191 28.738835 1.033470 1.761456 0.055014 -0.010883 83882.800000 0 0 1
-13.184763 -24.798190 -6.131091 28.746799 1.082125 1.785726 0.079374 -0.013031 82596.500000 0 0 1
-13.060263 -26.208330 -6.079091 29.906561 1.108490 1.775492 0.072972 -0.016196 -50381.700000 0 0 1
-11.873263 -26.609490 -6.740091 29.907660 1.151104 1.798112 0.074420 -0.009050 298673.000000 0 0 1
23.650237 13.235710 28.202661 39.114036 0.510217 0.765499 0.050035 0.003444 -364209.000000 0 0 1
24.288937 11.996810 28.233911 39.128373 0.458772 0.764727 0.038365 0.000243 251025.000000 0 0 1
23.505037 10.965010 28.830211 38.780140 0.436487 0.732616 0.032432 -0.005740 -271868.000000 0 0 1
23.521937 10.903210 30.397641 39.952197 0.434051 0.706174 0.049306 -0.001216 -215300.000000 0 0 1
22.772337 11.963910 30.894231 40.201591 0.483737 0.694330 0.059028 0.000704 24443.800000 0 0 1
23.004437 12.076410 32.308993 41.459797 0.483416 0.677272 0.061489 -0.004852 -364124.000000 0 0 1
22.089937 13.091610 32.978460 41.796344 0.534998 0.661572 0.056122 0.002363 -1154250.000000 0 0 1
20.810337 12.636610 33.188720 41.161209 0.545717 0.632908 0.055932 0.001436 -840341.000000 0 0 1
20.180037 13.383010 -33.896971 41.657454 0.585585 2.521298 0.052797 0.000839 190096.000000 0 0 1
18.952737 12.739010 -33.203121 40.298087 0.591787 2.539122 0.045357 -0.000239 1265190.000000 0 0 1
17.783637 12.678310 34.048765 40.451399 0.619345 0.570335 0.044465 0.001489 823660.000000 0 0 1
16.645837 12.225610 -33.391101 39.262132 0.633478 2.587666 0.041185 -0.003200 17319.700000 0 0 1
15.405137 12.142710 33.811901 39.089746 0.667520 0.525683 0.040345 0.000706 239474.000000 0 0 1
15.471537 11.078510 32.899040 38.005903 0.621422 0.524390 0.042826 0.006757 -386566.000000 0 0 1
14.205337 10.839210 32.378401 36.981629 0.651793 0.504272 0.043663 0.010921 -363996.000000 0 0 1
14.356037 9.691310 31.332461 35.801402 0.593797 0.505001 0.051957 0.013676 250413.000000 0 0 1
14.838037 8.415910 31.850331 36.130852 0.515941 0.491709 0.035684 0.005543 316129.000000 0 0 1
15.217737 7.587410 30.745851 35.134821 0.462519 0.505191 0.032397 -0.007610 57194.600000 0 0 1
15.629337 6.193710 31.308191 35.536474 0.377302 0.492792 0.057965 -0.016401 285435.000000 0 0 1
14.531037 5.383510 31.716571 35.299774 0.354805 0.454474 0.059614 -0.012360 -31550.900000 0 0 1
14.931037 4.045110 31.950951 35.498761 0.264569 0.450893 0.057441 -0.019728 -249668.000000 0 0 1
13.878837 3.039610 32.420346 35.396895 0.215606 0.413029 0.039568 -0.009341 -25055.600000 0 0 1
14.484237 1.781510 32.689252 35.798800 0.122382 0.419879 0.047954 -0.017071 -374360.000000 0 0 1
13.492037 0.983710 33.226755 35.875061 0.072782 0.386644 0.056085 -0.016539 -227677.000000 0 0 1
14.018637 -0.405690 33.693959 36.496159 -0.028931 0.394421 0.044105 -0.018632 -100480.000000 0 0 1
14.244237 -1.342690 32.646998 35.644460 -0.093984 0.413035 0.039437 -0.010249 -128876.000000 0 0 1
14.776937 -2.565090 33.044797 36.289064 -0.171875 0.426064 0.060048 -0.016306 -331735.000000 0 0 1
14.938637 -3.641990 31.912321 35.423483 -0.239132 0.449003 0.065479 -0.012149 -382657.000000 0 0 1
15.317237 -4.965290 32.291779 36.083664 -0.313475 0.462558 0.069815 -0.014001 520279.000000 0 0 1
16.533537 -5.263290 32.982971 37.268437 -0.308197 0.484279 0.051205 -0.018587 1573750.000000 0 0 1
17.905937 -4.949390 32.234014 37.204175 -0.269677 0.522832 0.058008 -0.019595 644036.000000 0 0 1
18.201037 -3.567590 32.103031 37.075733 -0.193556 0.523895 0.056462 -0.022034 151495.000000 0 0 1
19.224137 -3.328590 31.157271 36.761698 -0.171447 0.559450 0.067437 -0.035844 -209182.000000 0 0 1
19.363837 -1.790590 31.012571 36.605244 -0.092209 0.560072 0.068717 -0.038525 -266649.000000 0 0 1
19.799537 -1.266390 32.223865 37.841813 -0.063874 0.551878 0.047615 -0.031834 -127636.000000 0 0 1
19.549337 0.117710 32.345526 37.794490 0.006021 0.543650 0.041538 -0.022492 16093.600000 0 0 1
20.615037 1.102010 31.793701 37.908226 0.053406 0.575901 0.068761 -0.026080 -364846.000000 0 0 1
20.690437 0.956110 30.375121 36.764878 0.046177 0.598468 0.082879 -0.033335 32637.000000 0 0 1
21.569137 1.800110 29.668191 36.724237 0.083265 0.630277 0.076328 -0.027892 228152.000000 0 0 1
20.946737 3.267410 29.614191 36.420352 0.154740 0.621301 0.070646 -0.017428 125740.000000 0 0 1
20.935237 3.962710 30.838631 37.483441 0.187071 0.604605 0.067381 -0.024125 67993.300000 0 0 1
20.349037 5.206710 30.672501 37.175199 0.250496 0.600453 0.061027 -0.022831 -337569.000000 0 0 1
19.931837 5.776210 32.042161 38.175159 0.282071 0.574718 0.060295 -0.016410 -226570.000000 0 0 1
18.777337 5.165510 32.564209 37.943360 0.268452 0.538981 0.049641 -0.009372 46792.500000 0 0 1
18.624937 5.504310 33.932461 39.097284 0.287355 0.519841 0.039078 -0.008607 406922.000000 0 0 1
17.443337 4.654810 -33.579551 38.125103 0.260777 2.648288 0.048424 -0.013908 383856.000000 0 0 1
17.642037 3.279210 -33.458741 37.966854 0.183778 2.649322 0.038218 -0.008940 -220804.000000 0 0 1
16.563737 2.705810 -32.779051 36.825873 0.161927 2.668381 0.036105 -0.012191 -281721.000000 0 0 1
16.765637 1.179510 -32.791881 36.848138 0.070237 2.667965 0.028484 -0.013266 -131262.000000 0 0 1
17.924837 0.778510 -32.091551 36.766472 0.043405 2.631805 0.010108 -0.017514 120636.000000 0 0 1
18.068937 -0.648590 -31.979921 36.737208 -0.035880 2.627024 0.022577 -0.015314 248586.000000 0 0 1
19.310937 -1.125190 -31.153401 36.670324 -0.058201 2.585935 0.035014 -0.016858 192964.000000 0 0 1
19.180037 -1.074990 -29.735481 35.400964 -0.055989 2.568010 0.030433 -0.015848 204980.000000 0 0 1
19.068937 0.211110 -29.093911 34.786844 0.011070 2.561384 0.020688 -0.009569 -419943.000000 0 0 1
18.441137 0.160910 -27.697851 33.275702 0.008725 2.554175 0.006248 -0.011400 477544.000000 0 0 1
17.125937 -0.400790 -27.599491 32.483692 -0.023398 2.586101 0.014696 -0.018419 700928.000000 0 0 1
16.786537 -0.831090 -26.280911 31.195589 -0.049469 2.572622 0.021407 -0.024590 -53261.900000 0 0 1
17.547337 -2.104890 -25.814191 31.284373 -0.119385 2.541258 0.030198 -0.018522 -120006.000000 0 0 1
18.817637 -1.848090 -25.214841 31.516774 -0.097897 2.498167 0.036195 -0.020083 37310.900000 0 0 1
19.722837 -2.894590 -25.232251 32.156421 -0.145723 2.472964 0.037071 -0.009546 -271463.000000 0 0 1
20.415937 -3.167190 -26.555741 33.645935 -0.153906 2.480416 0.043269 -0.019155 -424680.000000 0 0 1
21.521937 -2.274890 -26.783331 34.434223 -0.105310 2.461972 0.045235 -0.014167 325587.000000 0 0 1
22.018537 -2.363990 -28.096511 35.774548 -0.106954 2.474101 0.041220 -0.016554 469900.000000 0 0 1
23.526637 -1.999990 -28.239971 36.810305 -0.084806 2.445223 0.031506 -0.020878 918420.000000 0 0 1
24.385737 -3.116190 -28.005211 37.264817 -0.127099 2.421158 0.029819 -0.018122 1374530.000000 0 0 1
25.809837 -2.905890 -28.155541 38.305696 -0.112116 2.396496 0.020956 -0.023742 1119790.000000 0 0 1
26.674737 -4.100390 -27.797251 38.743282 -0.152524 2.370964 0.036327 -0.023582 -398835.000000 0 0 1
26.735137 -5.107090 -28.780471 39.612692 -0.188751 2.384079 0.060342 -0.032550 915917.000000 0 0 1
27.914537 -5.932290 -28.657161 40.443124 -0.209401 2.358279 0.059887 -0.031710 688310.000000 0 0 1
27.985837 -6.928790 -27.412611 39.782740 -0.242702 2.330985 0.054784 -0.019611 -297526.000000 0 0 1
28.099637 -6.301590 -26.146291 38.896377 -0.220609 2.307978 0.044057 -0.009419 289213.000000 0 0 1
27.767937 -7.215390 -25.129571 38.139421 -0.254224 2.290135 0.023796 -0.005873 -293148.000000 0 0 1
27.726337 -6.740690 -23.667191 37.071857 -0.238488 2.263232 0.004152 0.002013 431083.000000 0 0 1
29.022537 -6.569990 -23.088891 37.663899 -0.222623 2.230679 -0.003254 0.004895 691372.000000 0 0 1
28.962537 -5.953490 -21.817991 36.746391 -0.202734 2.206502 0.004107 0.000608 -514593.000000 0 0 1
30.323437 -5.447690 -21.330391 37.472306 -0.177757 2.176366 0.028143 -0.001916 -321129.000000 0 0 1
30.909337 -4.493990 -22.221391 38.332404 -0.144381 2.189160 0.035416 -0.009547 -163861.000000 0 0 1
32.090137 -3.994390 -21.664391 38.924001 -0.123837 2.161062 0.052198 -0.009428 -63485.700000 0 0 1
32.740737 -2.738990 -22.327191 39.723562 -0.083463 2.167676 0.066147 -0.017604 970.174000 0 0 1
31.876037 -1.638590 -22.092391 38.818042 -0.051360 2.176240 0.050440 -0.016183 476672.000000 0 0 1
32.394337 -0.331990 -22.464291 39.422679 -0.010248 2.177097 0.052263 -0.015757 84081.800000 0 0 1
31.364337 0.791610 -22.248391 38.462178 0.025234 2.187622 0.045128 -0.011563 265335.000000 0 0 1
30.231337 0.745110 -23.122691 38.067673 0.024642 2.223593 0.031256 -0.003198 211036.000000 0 0 1
29.254137 1.606710 -22.582991 36.991587 0.054867 2.227475 0.031745 0.004412 -647858.000000 0 0 1
28.013237 1.551310 -23.480291 36.585134 0.055321 2.267638 0.022518 0.000872 -493106.000000 0 0 1
27.090237 2.563210 -23.115291 35.703888 0.094337 2.274986 0.019993 0.002595 399532.000000 0 0 1
26.192637 2.897810 -24.194491 35.774640 0.110186 2.313528 0.026130 -0.003060 304458.000000 0 0 1
25.160237 3.957310 -23.735091 34.814542 0.156006 2.320959 0.032929 -0.002471 50488.700000 0 0 1
25.748637 5.265010 -23.515491 35.266002 0.201697 2.300707 0.027474 0.003416 602803.000000 0 0 1
24.763337 6.242610 -23.224891 34.519394 0.246946 2.308793 0.052997 -0.016523 -206597.000000 0 0 1
25.382537 7.563610 -22.724891 34.898453 0.289607 2.279924 0.078367 -0.013466 -408141.000000 0 0 1
26.242737 8.090110 -23.669391 36.254257 0.299036 2.282166 0.071294 -0.007078 -122909.000000 0 0 1
26.593137 9.400110 -23.245691 36.550227 0.339771 2.260091 0.091254 -0.010948 -236490.000000 0 0 1
27.334837 10.324710 -24.273891 37.987033 0.361147 2.264000 0.123613 -0.009938 -77250.500000 0 0 1
26.652437 10.763610 -25.424351 38.374540 0.383822 2.294990 0.110768 -0.017162 625051.000000 0 0 1
25.445337 11.532710 -25.294351 37.686506 0.425541 2.306593 0.118172 -0.023275 657378.000000 0 0 1
24.931937 11.779210 -26.732781 38.405635 0.441370 2.340697 0.102273 -0.029090 -305006.000000 0 0 1
24.380737 10.687510 -27.496341 38.271294 0.413131 2.372380 0.081142 -0.021736 296729.000000 0 0 1
25.194737 9.624910 -28.025341 38.895159 0.364912 2.375371 0.072082 -0.020297 310022.000000 0 0 1
26.101737 9.998710 -29.283231 40.481878 0.365824 2.379462 0.062141 -0.012873 -432707.000000 0 0 1
27.089537 10.953710 -28.964931 41.143578 0.384253 2.351805 0.054622 -0.012135 372551.000000 0 0 1
27.916937 11.372710 -30.030471 42.550242 0.386849 2.354299 0.045685 -0.005886 272951.000000 0 0 1
28.992337 10.370110 -30.491181 43.333669 0.343504 2.351300 0.041048 -0.005922 -893954.000000 0 0 1
28.401837 9.360010 -31.237551 43.244175 0.318348 2.377995 0.038296 -0.007203 -319487.000000 0 0 1
29.311137 8.491210 -31.807081 44.078722 0.281974 2.376903 0.031165 -0.010770 -612777.000000 0 0 1
28.654937 7.487510 -32.806781 44.197885 0.255585 2.407248 0.037143 -0.009821 -160622.000000 0 0 1
27.658937 6.691110 -32.236671 42.999891 0.237355 2.418393 0.048828 -0.013264 -226709.000000 0 0 1
27.072037 5.836610 -33.182581 43.220884 0.212345 2.446109 0.053100 -0.012919 243653.000000 0 0 1
25.754237 5.138510 -32.716341 41.952878 0.196935 2.465199 0.046860 -0.014807 23746.800000 0 0 1
24.581937 5.881610 -32.645051 41.286369 0.234850 2.482745 0.052616 -0.015843 -370240.000000 0 0 1
24.309637 6.630510 -31.490451 40.330765 0.266275 2.466749 0.054657 -0.009964 -816242.000000 0 0 1
22.816837 6.892710 -31.335281 39.370259 0.293372 2.491310 0.046044 -0.011210 -533737.000000 0 0 1
22.376537 7.838810 -32.270471 40.044221 0.336954 2.507941 0.054329 -0.010792 -198587.000000 0 0 1
20.974237 7.976310 -32.213321 39.258606 0.363401 2.533154 0.049394 -0.011895 -86082.600000 0 0 1
20.457037 9.122310 -33.101201 39.967441 0.419460 2.546692 0.046594 -0.008157 -341210.000000 0 0 1
20.408237 8.808210 33.596302 40.283895 0.407448 0.584499 0.045885 -0.005081 100947.000000 0 0 1
19.778137 9.881110 32.924870 39.659275 0.463326 0.591342 0.047524 -0.005752 -442523.000000 0 0 1
18.697837 9.483910 31.922721 38.191802 0.469407 0.581112 0.047233 -0.000789 -332373.000000 0 0 1
19.041937 8.611710 30.824701 37.241362 0.424723 0.595798 0.050427 -0.006913 152402.000000 0 0 1
20.128237 8.981310 29.968681 37.201232 0.419693 0.634137 0.058854 -0.004130 -684619.000000 0 0 1
19.911337 10.045210 28.855871 36.469561 0.467239 0.657976 0.069611 -0.002121 -338512.000000 0 0 1
19.016837 9.642810 27.811521 35.044323 0.469285 0.654077 0.062529 0.004474 348608.000000 0 0 1
17.680237 9.806210 28.256921 34.744871 0.506401 0.621048 0.073957 -0.004276 -1072650.000000 0 0 1
16.765737 8.905710 27.458351 33.382070 0.488283 0.604920 0.077202 -0.002415 -920938.000000 0 0 1
16.494337 9.291310 26.152691 32.285520 0.512999 0.626569 0.085343 -0.007070 1361040.000000 0 0 1
15.177837 8.937210 25.644051 31.110413 0.532168 0.601847 0.103119 -0.011561 1274190.000000 0 0 1
15.020237 7.380510 25.293981 30.329275 0.456721 0.584516 0.092625 -0.005672 -160160.000000 0 0 1
14.996137 6.638610 26.453301 31.124466 0.416757 0.554963 0.068426 -0.004738 43302.600000 0 0 1
14.455737 5.368110 26.161481 30.367878 0.355565 0.532609 0.076398 -0.008788 -42331.100000 0 0 1
14.595237 4.194410 27.238841 31.186030 0.279841 0.508592 0.080822 -0.014360 32135.000000 0 0 1
15.954037 3.801810 27.311931 31.857913 0.233935 0.540786 0.066347 -0.008282 441209.000000 0 0 1
16.440437 3.723110 28.681961 33.268670 0.222704 0.531335 0.057974 -0.012378 79314.500000 0 0 1
17.335437 2.488410 29.000641 33.878411 0.142571 0.543273 0.074226 -0.021586 -14578.900000 0 0 1
16.737837 1.201310 28.857591 33.382014 0.071649 0.526711 0.073086 -0.029113 190753.000000 0 0 1
15.674637 0.868210 29.737491 33.626870 0.055333 0.485724 0.047572 -0.020984 393874.000000 0 0 1
15.218937 -0.622190 29.746071 33.419035 -0.040860 0.473246 0.063945 -0.025963 -199845.000000 0 0 1
14.616737 -1.140090 28.591181 32.131050 -0.077841 0.473823 0.064016 -0.020035 471036.000000 0 0 1
15.432437 -1.318790 27.401451 31.476004 -0.085249 0.514476 0.078159 -0.023434 241307.000000 0 0 1
16.679137 -2.299490 27.404751 32.163669 -0.137003 0.550925 0.064979 -0.018279 326220.000000 0 0 1
17.881437 -1.959390 28.004551 33.284228 -0.109141 0.570972 0.067518 -0.029432 -424277.000000 0 0 1
18.526137 -0.949290 27.216101 32.936834 -0.051196 0.598269 0.070105 -0.029109 -1287390.000000 0 0 1
19.990237 -0.785390 27.614491 34.099655 -0.039268 0.626956 0.086500 -0.033399 -587159.000000 0 0 1
20.889037 -1.727290 27.155191 34.303641 -0.082501 0.657353 0.064170 -0.030341 27555.100000 0 0 1
22.253937 -1.398990 27.386581 35.315997 -0.062782 0.683333 0.064645 -0.034913 552715.000000 0 0 1
23.231537 -2.006490 26.366741 35.198513 -0.086155 0.724114 0.061670 -0.027141 -251189.000000 0 0 1
23.180537 -1.410690 25.078651 34.179907 -0.060782 0.747008 0.069563 -0.015952 35369.600000 0 0 1
22.405537 -2.131190 24.173661 33.029016 -0.094834 0.749702 0.074612 -0.005638 -373303.000000 0 0 1
22.358237 -1.439490 22.854291 32.004398 -0.064294 0.775461 0.061507 -0.022901 -248491.000000 0 0 1
21.574937 -0.290590 22.986491 31.526831 -0.013468 0.753777 0.054720 -0.019083 -100364.000000 0 0 1
21.436837 0.373910 21.713391 30.514736 0.017441 0.779065 0.052045 -0.017503 -209456.000000 0 0 1
-30.438753 -27.349881 -9.519891 42.013832 0.731998 1.799371 0.013095 0.007142 -173526.000000 0 0 1
-30.595793 -26.050781 -8.989491 41.177138 0.705335 1.790881 0.014635 0.011039 155135.000000 0 0 1
-31.339883 -26.077081 -7.745291 41.499301 0.693994 1.758534 0.039236 -0.001398 -624186.000000 0 0 1
-31.451943 -24.687981 -7.079591 40.605933 0.665492 1.746041 0.063391 -0.006122 473444.000000 0 0 1
-30.241153 -24.105781 -6.621391 39.235939 0.672981 1.740366 0.049634 -0.012808 -45044.200000 0 0 1
-29.390923 -24.882281 -5.788591 38.941778 0.702515 1.719997 0.049520 -0.018464 150205.000000 0 0 1
-28.206313 -24.044281 -5.171591 37.422840 0.705911 1.709433 0.034924 -0.019102 -58938.900000 0 0 1
-28.540873 -23.069181 -4.172291 36.934761 0.679773 1.684002 0.054697 -0.021018 844908.000000 0 0 1
-29.446263 -21.954381 -4.548091 37.010302 0.640663 1.693995 0.067928 -0.025116 832923.000000 0 0 1
-29.401473 -20.745081 -3.655191 36.168570 0.614461 1.672029 0.072132 -0.027437 190060.000000 0 0 1
-28.238803 -19.956481 -3.868091 34.794443 0.615211 1.682196 0.075286 -0.037006 429871.000000 0 0 1
-28.267223 -18.972981 -2.928191 34.169932 0.591135 1.656597 0.083582 -0.027650 -157426.000000 0 0 1
-27.139723 -17.954581 -3.098091 32.688373 0.584460 1.665715 0.083623 -0.023344 -175707.000000 0 0 1
-27.475033 -17.111081 -4.142491 32.631684 0.557006 1.698087 0.086270 -0.032243 212402.000000 0 0 1
-26.519133 -16.091381 -4.318391 31.318453 0.545393 1.709124 0.086347 -0.031085 -175001.000000 0 0 1
-26.907073 -15.070181 -5.413191 31.311397 0.510551 1.744552 0.078130 -0.041910 466607.000000 0 0 1
-28.104183 -14.330581 -5.143991 31.963594 0.471543 1.732432 0.071945 -0.036873 595810.000000 0 0 1
-28.505223 -13.304681 -6.050591 32.033919 0.436692 1.760819 0.103171 -0.055009 462623.000000 0 0 1
-29.938563 -12.726881 -5.804491 33.045169 0.401955 1.747366 0.105761 -0.044491 -24100.400000 0 0 1
-30.918603 -13.665781 -6.107491 34.351347 0.416175 1.749541 0.108889 -0.040817 56278.200000 0 0 1
-32.197953 -13.081981 -5.866491 35.245740 0.385924 1.738020 0.101106 -0.042295 -278070.000000 0 0 1
-33.303183 -13.681681 -6.697091 36.621598 0.389801 1.754704 0.064888 -0.033712 -748767.000000 0 0 1
-33.988483 -14.756181 -6.099791 37.552222 0.409597 1.733954 0.067423 -0.035386 162829.000000 0 0 1
-34.079591 -15.851081 -7.051891 38.241398 0.435356 1.756262 0.074203 -0.035808 -1105230.000000 0 0 1
-34.903262 -17.090881 -6.603591 39.420088 0.455345 1.739108 0.063811 -0.034564 417145.000000 0 0 1
-36.307813 -16.886081 -6.599391 40.582620 0.435324 1.734138 0.055301 -0.037644 243790.000000 0 0 1
36.694821 -15.992981 -5.618891 40.421001 -0.411014 1.710257 0.084837 -0.041900 -1126760.000000 0 0 1
35.186261 -16.129281 -5.307691 39.069148 -0.429815 1.707071 0.093856 -0.043427 -989796.000000 0 0 1
34.475041 -15.630181 -6.430691 38.395115 -0.425658 1.739077 0.102279 -0.041134 1026180.000000 0 0 1
33.041011 -15.732981 -6.303691 37.134508 -0.444399 1.741375 0.096806 -0.044155 1264350.000000 0 0 1
32.356871 -14.843881 -5.206091 35.977928 -0.430111 1.716008 0.111045 -0.044574 -952750.000000 0 0 1
32.582181 -15.378181 -3.910391 36.240560 -0.440982 1.678908 0.106314 -0.047846 214678.000000 0 0 1
32.035701 -14.585681 -2.876291 35.317153 -0.427248 1.652328 0.108870 -0.043264 -864078.000000 0 0 1
32.019331 -15.185781 -1.448091 35.467485 -0.442852 1.611636 0.113403 -0.041118 -225905.000000 0 0 1
33.216781 -15.502481 -0.763791 36.664218 -0.436660 1.591630 0.139223 -0.041170 614003.000000 0 0 1
34.185511 -16.411181 -1.364691 37.945203 -0.447571 1.606769 0.119738 -0.043065 295470.000000 0 0 1
33.715131 -17.807281 -1.827991 38.172646 -0.485928 1.618702 0.120145 -0.044485 -864861.000000 0 0 1
33.691611 -18.794381 -0.804791 38.587578 -0.508839 1.591654 0.133162 -0.042864 152441.000000 0 0 1
33.513111 -20.119181 -1.336991 39.111349 -0.540668 1.604987 0.111693 -0.038564 -109733.000000 0 0 1
34.636731 -20.713781 -2.238491 40.419980 -0.538969 1.626205 0.108398 -0.045316 22474.300000 0 0 1
34.774931 -20.109381 -3.449891 40.318542 -0.524290 1.656467 0.094040 -0.051554 -363897.000000 0 0 1
35.838371 -20.720781 -4.115391 41.601395 -0.524216 1.669883 0.100510 -0.043610 -329405.000000 0 0 1
36.049551 -20.042081 -5.470891 41.607521 -0.507407 1.702666 0.110822 -0.045667 -177829.000000 0 0 1
34.942791 -20.291081 -6.319591 40.898214 -0.526103 1.725938 0.099615 -0.050287 323539.000000 0 0 1
34.851141 -19.367881 -7.333891 40.540139 -0.507233 1.752702 0.098343 -0.053537 -966529.000000 0 0 1
33.695091 -19.461481 -8.290891 39.785014 -0.523768 1.780727 0.094967 -0.062593 -854828.000000 0 0 1
33.798181 -20.616481 -9.132891 40.629621 -0.547731 1.797518 0.112740 -0.063778 474088.000000 0 0 1
32.819311 -20.677081 -10.175491 40.102238 -0.562207 1.827340 0.117212 -0.066380 72240.900000 0 0 1
32.677501 -22.049981 -10.887991 40.897055 -0.593596 1.840275 0.122445 -0.058999 102598.000000 0 0 1
32.277461 -23.093681 -9.973391 40.922135 -0.621036 1.816992 0.118749 -0.055017 169147.000000 0 0 1
32.009531 -24.285381 -10.664891 41.570780 -0.649041 1.830245 0.089329 -0.038624 -183059.000000 0 0 1
31.231171 -25.366281 -9.828791 41.417864 -0.682142 1.810390 0.081474 -0.029738 505564.000000 0 0 1
29.882381 -24.963981 -9.611491 40.106581 -0.695961 1.812800 0.077495 -0.033988 180938.000000 0 0 1
29.116721 -25.962881 -8.958391 40.026334 -0.728201 1.796521 0.044412 -0.011057 458247.000000 0 0 1
27.644881 -25.477681 -8.871491 38.627129 -0.744625 1.802535 0.033168 -0.015538 231385.000000 0 0 1
26.868881 -25.187281 -10.006591 38.163697 -0.753106 1.836099 0.018670 -0.019479 -210237.000000 0 0 1
25.668381 -24.552481 -9.630491 36.802670 -0.763182 1.835558 0.034941 -0.020060 -171302.000000 0 0 1
24.918181 -24.126681 -10.921191 36.363236 -0.769261 1.875841 0.055164 -0.029750 -48331.400000 0 0 1
24.165481 -25.204581 -11.508291 36.765230 -0.806442 1.889169 0.056308 -0.026203 359008.000000 0 0 1
23.437581 -24.863081 -12.634891 36.429844 -0.814903 1.924983 0.073778 -0.014429 260455.000000 0 0 1
22.649881 -25.997381 -13.348291 36.973745 -0.854102 1.940159 0.088092 -0.024621 94919.000000 0 0 1
23.558581 -26.764781 -14.106991 38.345371 -0.849024 1.947538 0.082681 -0.022574 300147.000000 0 0 1
23.371981 -28.131681 -13.845891 39.106901 -0.877551 1.932697 0.089034 -0.015687 -205123.000000 0 0 1
24.363381 -29.092981 -14.518391 40.629541 -0.873644 1.936210 0.087417 -0.018953 -346913.000000 0 0 1
24.191581 -29.175681 -15.899191 41.100332 -0.878521 1.967997 0.090497 -0.015750 294071.000000 0 0 1
24.601181 -30.428481 -16.419091 42.434622 -0.890899 1.968093 0.090362 -0.020936 -241384.000000 0 0 1
24.464781 -30.595881 -17.951191 43.091516 -0.896293 2.000480 0.078412 -0.014988 -289785.000000 0 0 1
23.110981 -30.557881 -18.323591 42.469466 -0.923274 2.016899 0.075688 -0.014666 -157393.000000 0 0 1
22.985281 -30.745581 -19.741891 43.166610 -0.928835 2.045800 0.056356 -0.006569 24464.700000 0 0 1
21.598581 -30.225381 -20.173091 42.273230 -0.950349 2.068270 0.042812 -0.003205 -11209.800000 0 0 1
21.504481 -30.116281 -21.562791 42.829745 -0.950704 2.098388 0.022288 0.001599 -366124.000000 0 0 1
20.172781 -29.845781 -21.872291 42.143907 -0.976428 2.116466 0.037442 -0.011778 -770228.000000 0 0 1
19.785081 -30.015181 -23.346391 42.865073 -0.988002 2.146766 0.029478 -0.009241 -425202.000000 0 0 1
20.459781 -29.097781 -24.172391 43.006837 -0.957967 2.167670 0.034354 -0.001909 348325.000000 0 0 1
20.581181 -29.636781 -25.453881 44.156810 -0.963807 2.185165 0.028107 -0.002657 -455512.000000 0 0 1
21.130981 -28.531681 -26.353651 44.216401 -0.933329 2.209326 0.030725 -0.010191 484322.000000 0 0 1
20.188381 -27.442081 -26.478351 43.147904 -0.936528 2.231490 0.054107 -0.018012 828093.000000 0 0 1
19.075181 -27.642981 -27.351771 43.314158 -0.966776 2.254249 0.077799 -0.021366 109564.000000 0 0 1
18.402681 -26.307981 -27.681021 42.391125 -0.960400 2.282323 0.073440 -0.030603 -74991.900000 0 0 1
17.500081 -25.849581 -26.663711 41.053711 -0.975676 2.277701 0.050239 -0.020083 111936.000000 0 0 1
16.980381 -24.587881 -27.014881 40.282764 -0.966407 2.305856 0.046778 -0.010235 18218.200000 0 0 1
15.849381 -24.125381 -26.045111 38.879104 -0.989545 2.304870 0.052887 -0.016942 -250303.000000 0 0 1
14.647981 -24.824381 -26.313151 39.028133 -1.037715 2.310691 0.086970 -0.030813 -30714.400000 0 0 1
13.523081 -24.317181 -25.584361 37.798923 -1.063273 2.314277 0.082109 -0.032499 494004.000000 0 0 1
13.440281 -24.435081 -24.016291 36.803486 -1.067922 2.281747 0.078839 -0.029937 -891365.000000 0 0 1
14.357681 -23.648481 -23.329991 36.189531 -1.025151 2.271376 0.051662 -0.024537 -488297.000000 0 0 1
14.339581 -24.042881 -21.964391 35.582555 -1.033016 2.236077 0.060442 -0.028080 423784.000000 0 0 1
15.683381 -23.671381 -21.269891 35.478317 -0.985652 2.213695 0.028113 -0.028670 412893.000000 0 0 1
15.957081 -22.323881 -21.044791 34.581315 -0.950207 2.225040 0.035643 -0.035505 -365924.000000 0 0 1
17.254281 -22.060881 -20.592291 34.762554 -0.907053 2.204794 0.039452 -0.030228 -634313.000000 0 0 1
17.367081 -20.571881 -20.205391 33.661189 -0.869671 2.214620 0.060115 -0.021237 413383.000000 0 0 1
16.563981 -20.135581 -19.086191 32.312378 -0.882413 2.202694 0.046038 -0.015121 888307.000000 0 0 1
15.190281 -19.886981 -19.364391 31.642002 -0.918502 2.229363 0.070313 -0.024647 376379.000000 0 0 1
14.204781 -19.831481 -18.171791 30.418373 -0.949231 2.211045 0.075589 -0.020041 118457.000000 0 0 1
14.419981 -18.750581 -17.350891 29.335534 -0.915219 2.203669 0.071604 -0.015645 423089.000000 0 0 1
13.664081 -19.017481 -16.160991 28.452581 -0.947761 2.174867 0.073660 -0.017094 -36041.400000 0 0 1
13.590481 -17.878081 -15.090591 27.056476 -0.920815 2.162462 0.082847 -0.016666 -311688.000000 0 0 1
12.675781 -16.853781 -15.451591 26.143394 -0.925951 2.203134 0.084999 -0.025931 253601.000000 0 0 1
12.616081 -15.819581 -14.484891 24.884468 -0.897583 2.192088 0.067637 -0.022093 -149627.000000 0 1 0
11.184481 -15.313181 -14.231291 23.708981 -0.939969 2.214609 0.059104 -0.014399 65806.800000 0 1 0
10.575181 -14.499981 -15.270291 23.564076 -0.940660 2.275795 0.069792 -0.014589 1262890.000000 0 1 0
9.280181 -13.975181 -14.878591 22.423201 -0.984609 2.296331 0.062483 -0.017224 1305640.000000 0 1 0
8.446081 -13.437281 -16.096991 22.605529 -1.009644 2.363256 0.042399 -0.005350 91530.400000 0 1 0
8.884781 -12.226681 -16.715391 22.535203 -0.942393 2.406466 0.036143 -0.000803 -126607.000000 0 1 0
10.057081 -12.314181 -17.497291 23.641894 -0.885951 2.404011 0.053814 -0.002366 -115149.000000 0 1 0
10.236681 -11.111181 -18.415791 23.819936 -0.826340 2.454550 0.047324 -0.000445 174188.000000 0 1 0
9.331581 -10.987781 -19.528791 24.273101 -0.866727 2.505704 0.045018 0.000922 552425.000000 0 1 0
9.562581 -9.751081 -20.212691 24.394250 -0.795158 2.547370 0.037270 -0.005002 299556.000000 0 1 0
9.047581 -9.912881 -21.669691 25.489202 -0.831004 2.587070 0.036486 -0.001712 720895.000000 0 0 1
10.042981 -10.675381 -22.376691 26.749608 -0.815912 2.561705 0.046992 0.006932 86476.000000 0 0 1
9.788081 -10.710881 -23.730491 27.814847 -0.830385 2.592808 0.058412 0.014325 -150533.000000 0 0 1
10.866181 -11.321481 -24.628791 29.203205 -0.805916 2.574301 0.078932 0.014769 -202904.000000 0 0 1
10.927681 -12.704581 -24.494891 29.678617 -0.860447 2.541597 0.078294 0.004051 115842.000000 0 0 1
12.144281 -13.273581 -24.967391 30.774050 -0.829798 2.517191 0.072332 -0.011109 158845.000000 0 0 1
12.226481 -14.842081 -24.710491 31.311062 -0.881728 2.480291 0.071385 -0.015706 -341849.000000 0 0 1
11.239681 -15.618681 -25.337051 31.815716 -0.947017 2.492064 0.072830 -0.014019 -411433.000000 0 0 1
11.089881 -16.889781 -24.749291 31.949610 -0.989793 2.456934 0.086112 -0.020893 542417.000000 0 0 1
9.856781 -17.737781 -25.195241 32.350969 -1.063592 2.463562 0.084225 -0.018846 432816.000000 0 0 1
10.067181 -18.451581 -26.375481 33.726473 -1.071338 2.468730 0.083859 -0.035763 -203525.000000 0 0 1
8.925781 -19.164381 -26.795421 34.131183 -1.134923 2.473608 0.097035 -0.032802 -117293.000000 0 0 1
9.194281 -20.173681 -27.893261 35.630692 -1.143166 2.470019 0.086006 -0.038897 -110164.000000 0 0 1
10.069881 -21.242681 -27.540991 36.209946 -1.128132 2.435021 0.085065 -0.042802 265784.000000 0 0 1
10.128281 -22.137681 -28.651601 37.597516 -1.141712 2.437286 0.088815 -0.035899 -66923.700000 0 0 1
11.018081 -23.352081 -28.374111 38.364150 -1.129942 2.403272 0.070379 -0.030188 -217352.000000 0 0 1
10.868381 -24.334181 -29.387351 39.672289 -1.150748 2.404986 0.069286 -0.029201 10920.900000 0 0 1
11.369781 -25.644681 -29.185511 40.481053 -1.153479 2.375993 0.092855 -0.026738 -154102.000000 0 0 1
10.644181 -26.429681 -28.104441 40.021072 -1.187934 2.349337 0.099970 -0.031543 72033.000000 0 0 1
11.140681 -26.183181 -26.795541 39.085480 -1.168511 2.326172 0.108818 -0.030094 -248732.000000 0 0 1
10.279081 -26.716681 -25.779681 38.523143 -1.203511 2.303928 0.101024 -0.026790 589108.000000 0 0 1
9.349981 -25.537981 -25.289721 37.137321 -1.219833 2.319894 0.093315 -0.025945 183070.000000 0 0 1
9.940481 -24.486981 -24.570991 36.085440 -1.185171 2.319803 0.097586 -0.029105 -695489.000000 0 0 1
9.033081 -23.467881 -24.358191 35.009420 -1.203364 2.340275 0.102530 -0.033172 -407789.000000 0 0 1
9.795081 -22.130281 -24.295491 34.292329 -1.154105 2.358141 0.108205 -0.037655 415907.000000 0 0 1
10.678981 -22.024281 -23.198091 33.723301 -1.119323 2.329381 0.113190 -0.030784 -428464.000000 0 0 1
11.539281 -20.953581 -23.329391 33.413591 -1.067411 2.343677 0.084971 -0.027789 -393121.000000 0 0 1
12.355481 -20.717481 -22.038691 32.673779 -1.033043 2.311093 0.076971 -0.022279 -72127.500000 0 0 1
11.707681 -20.024781 -20.967291 31.268018 -1.041733 2.305769 0.088482 -0.016273 62590.400000 0 0 1
11.333681 -18.632681 -21.178891 30.400239 -1.024319 2.341539 0.079392 -0.019194 -128444.000000 0 0 1
12.490381 -17.629681 -21.088191 30.191507 -0.954398 2.344069 0.074728 -0.019302 148615.000000 0 0 1
13.492781 -17.859781 -22.083891 31.444001 -0.923795 2.349454 0.069172 -0.013696 -340998.000000 0 0 1
14.570481 -17.039881 -21.741191 31.230368 -0.863360 2.340824 0.075160 -0.010127 -378554.000000 0 0 1
15.743081 -17.122981 -22.744191 32.532127 -0.827359 2.344976 0.055580 -0.013400 -229313.000000 0 0 1
16.989881 -17.413981 -22.175091 32.918649 -0.797725 2.309910 0.063396 -0.014713 -58015.700000 0 0 1
18.045581 -16.988681 -22.999191 33.811552 -0.755240 2.318855 0.058785 -0.015930 -661594.000000 0 0 1
19.434781 -17.224681 -22.440291 34.321524 -0.725184 2.283426 0.045820 -0.013361 -643135.000000 0 0 1
19.788281 -18.606981 -22.325491 35.159968 -0.754641 2.258765 0.049120 -0.017840 -301475.000000 0 0 1
21.089081 -18.663981 -21.804491 35.616420 -0.724470 2.229640 0.047351 -0.026092 52401.700000 0 0 1
21.525881 -20.134881 -21.358691 36.400147 -0.752022 2.197866 0.043259 -0.026881 475569.000000 0 0 1
20.748181 -20.596981 -20.240291 35.558291 -0.781741 2.176346 0.046352 -0.030561 351855.000000 0 0 1
21.213181 -21.862081 -19.902191 36.387455 -0.800461 2.149515 0.054322 -0.023130 -115219.000000 0 0 1
-16.762463 12.895510 29.032551 35.918844 -0.655745 0.629568 0.039405 -0.025180 -697406.000000 0 0 1
-17.986063 13.322310 28.505311 36.242726 -0.637524 0.665657 0.038067 -0.026389 -319323.000000 0 0 1
-18.112263 13.077010 27.129821 35.143839 -0.625337 0.688869 0.040880 -0.029935 53086.800000 0 0 1
-19.336463 13.817210 26.526961 35.615920 -0.620436 0.730552 0.050262 -0.025669 147627.000000 0 0 1
-19.322663 15.194610 26.708761 36.298752 -0.666370 0.743943 0.054552 -0.027390 -293511.000000 0 0 1
-20.260563 15.859510 25.910151 36.515071 -0.664151 0.781903 0.077173 -0.029953 -952340.000000 0 0 1
-20.458763 17.383910 26.086131 37.433241 -0.704323 0.799771 0.070430 -0.025738 -269997.000000 0 0 1
-19.385463 18.191310 25.709471 36.982386 -0.753630 0.802124 0.050090 -0.028042 -465688.000000 0 0 1
-18.279763 18.042610 26.588581 36.968069 -0.778869 0.768102 0.046499 -0.016187 -1009780.000000 0 0 1
-17.042263 18.840310 26.247131 36.528180 -0.835465 0.769089 0.043271 -0.021217 -466936.000000 0 0 1
-17.284263 20.244310 26.167031 37.326818 -0.864110 0.793963 0.046225 -0.024621 -384317.000000 0 0 1
-16.173363 20.865710 25.587901 36.765421 -0.911413 0.801016 0.051007 -0.021895 -228291.000000 0 0 1
-16.260463 22.385410 25.405721 37.562746 -0.942580 0.827995 0.052281 -0.013893 -109587.000000 0 0 1
-15.979663 23.157010 26.531371 38.671830 -0.966775 0.814730 0.046616 -0.006605 -32428.200000 0 0 1
-16.028463 24.537210 26.114181 39.254767 -0.992153 0.842970 0.049906 -0.012992 -209602.000000 0 0 1
-15.715163 25.535010 27.269681 40.529478 -1.019104 0.832761 0.041259 -0.002735 776099.000000 0 0 1
-14.305763 25.707910 27.482361 40.259554 -1.062997 0.819441 0.047201 -0.009361 653355.000000 0 0 1
-13.966863 26.862110 28.267161 41.420751 -1.091319 0.819701 0.044190 -0.003778 72806.700000 0 0 1
-12.459963 27.090910 28.460291 41.220823 -1.139714 0.808706 0.046800 -0.006482 142391.000000 0 0 1
-11.684863 27.698310 27.459681 40.715679 -1.171587 0.830610 0.048903 -0.009916 -534488.000000 0 0 1
-10.327663 27.445910 27.628701 40.289995 -1.210894 0.815168 0.042740 -0.000254 -284201.000000 0 0 1
-9.386463 27.997510 26.538671 39.702233 -1.247312 0.838683 0.048451 -0.004801 1063030.000000 0 0 1
-7.976263 27.701510 26.548721 39.189655 -1.290444 0.826517 0.043573 -0.008755 1366690.000000 0 0 1
-7.295363 28.447710 25.516981 38.905152 -1.319758 0.855453 0.051901 -0.017266 345959.000000 0 0 1
-5.805463 28.049610 25.423651 38.299426 -1.366707 0.844891 0.039047 -0.021192 -112645.000000 0 0 1
-4.903163 28.695910 26.316421 39.243474 -1.401564 0.835788 0.050332 -0.023081 517830.000000 0 0 1
-3.579263 28.202810 26.133961 38.615975 -1.444560 0.827436 0.039399 -0.014696 530704.000000 0 0 1
-2.684063 29.064410 25.189251 38.554410 -1.478709 0.858805 0.027798 -0.011636 -485464.000000 0 0 1
-3.090063 29.104610 23.854791 37.758150 -1.465022 0.886951 0.014376 -0.009707 -232526.000000 0 0 1
-2.530363 30.221010 23.194061 38.179532 -1.487263 0.917887 0.010672 -0.011472 -301516.000000 0 0 1
-2.853463 30.146910 21.674591 37.239312 -1.476426 0.949567 0.005053 -0.001861 90829.200000 0 0 1
-4.234363 30.073110 21.456391 37.184654 -1.430914 0.955718 0.011805 0.001464 -547563.000000 0 0 1
-4.774963 28.776310 21.372191 36.161400 -1.406361 0.938471 0.008581 -0.005051 -550751.000000 0 0 1
-6.279963 28.615110 21.134291 36.123686 -1.354758 0.945850 0.035299 -0.008767 -465111.000000 0 0 1
-6.655663 28.828810 19.810991 35.607212 -1.343903 0.980779 0.025122 -0.007774 191470.000000 0 0 1
-7.538463 27.804810 19.344691 34.700907 -1.306040 0.979462 0.029644 -0.013348 -490715.000000 0 0 1
-6.891963 26.346910 19.126991 33.279132 -1.314944 0.958505 0.019537 -0.013488 175300.000000 0 0 1
-5.965463 26.294410 18.065191 32.455106 -1.347701 0.980484 0.013764 -0.014979 887344.000000 0 0 1
-4.653663 26.758910 18.456891 32.838281 -1.398608 0.973929 0.016472 -0.010950 72820.600000 0 0 1
-3.665763 27.094610 17.325991 32.368900 -1.436318 1.005973 0.009757 -0.004279 -194863.000000 0 0 1
-3.126363 25.965710 16.742591 31.053287 -1.450970 1.001361 0.020879 -0.011055 -237251.000000 0 0 1
-2.512463 26.172010 15.508391 30.525346 -1.475091 1.037877 0.030591 -0.018379 -50283.100000 0 0 1
-1.951963 24.937510 14.738591 29.033009 -1.492681 1.038342 0.038171 -0.019404 553589.000000 0 0 1
-0.812963 24.362510 15.403791 28.835214 -1.537439 1.007234 0.019451 -0.017110 441102.000000 0 0 1
-0.206463 23.430610 14.502691 27.556563 -1.561985 1.016567 0.015286 -0.023782 -37698.800000 0 0 1
1.078937 22.791510 15.067891 27.343342 1.523492 0.987159 0.008802 -0.021654 48648.300000 0 0 1
2.146437 23.677810 15.330391 28.288987 1.480392 0.998075 0.022789 -0.022198 -389086.000000 0 0 1
3.285437 22.920010 15.680991 27.964521 1.428423 0.975510 0.022962 -0.021268 -361681.000000 0 0 1
4.459937 23.932810 15.728391 28.983663 1.386557 0.997191 0.048358 -0.024232 -834500.000000 0 0 1
5.693937 23.304710 15.662591 28.650431 1.331165 0.992403 0.057822 -0.027226 -720160.000000 0 0 1
6.725237 24.257010 15.848291 29.745582 1.300340 1.008897 0.074916 -0.030227 6603.120000 0 0 1
8.156437 23.704510 15.711091 29.584956 1.239398 1.010957 0.090016 -0.025803 -13724.500000 0 0 1
8.597237 23.286710 14.413291 28.704116 1.217128 1.044733 0.075868 -0.024666 -50959.000000 0 0 1
9.405737 24.143510 13.656791 29.289672 1.199308 1.085731 0.085725 -0.024511 -344087.000000 0 0 1
9.984837 23.445110 12.441891 28.357905 1.168179 1.116595 0.078073 -0.014666 -1123900.000000 0 0 1
11.047537 22.668010 12.789191 28.274550 1.117310 1.101430 0.080586 -0.015918 -915938.000000 0 0 1
11.582137 21.865010 11.753891 27.393038 1.083663 1.127319 0.076828 -0.017963 -35858.500000 0 0 1
12.769737 20.992510 12.170091 27.420116 1.024296 1.110919 0.067941 -0.021459 -196657.000000 0 0 1
12.432737 19.837910 12.896591 26.728967 1.010964 1.067295 0.063897 -0.021187 -574229.000000 0 0 1
13.513837 18.958810 12.942391 26.637675 0.951531 1.063440 0.059762 -0.025961 -476816.000000 0 0 1
14.190537 18.950710 14.335491 27.676832 0.928055 1.026332 0.065328 -0.020278 -322215.000000 0 0 1
15.297837 18.071110 14.263391 27.641150 0.868317 1.028598 0.049520 -0.022116 5847.570000 0 0 1
15.777037 17.850010 15.584291 28.467664 0.846966 0.991496 0.047456 -0.025151 151520.000000 0 0 1
16.931937 16.813810 15.646991 28.534593 0.781898 0.990405 0.037857 -0.023190 137855.000000 0 0 1
17.550337 16.749610 16.905091 29.569340 0.762058 0.962208 0.037328 -0.030374 126400.000000 0 0 1
18.515537 15.732910 17.044791 29.679529 0.704328 0.959054 0.034757 -0.025289 58262.200000 0 0 1
18.872137 15.451110 18.555191 30.646198 0.686055 0.920447 0.036743 -0.026539 -267725.000000 0 0 1
19.543937 16.419310 19.279091 31.988163 0.698732 0.923923 0.051574 -0.024527 663130.000000 0 0 1
18.661537 17.522910 19.575291 32.225725 0.753941 0.917959 0.045217 -0.017222 251167.000000 0 0 1
19.264737 18.518910 20.586591 33.732593 0.765661 0.914372 0.040228 -0.015666 394918.000000 0 0 1
18.311437 19.477510 21.118291 34.068524 0.816246 0.902211 0.074829 -0.019164 613435.000000 0 0 1
18.957937 20.371910 22.002191 35.475548 0.821334 0.901789 0.066254 -0.014250 -171797.000000 0 0 1
18.089137 21.525810 22.485491 36.002426 0.871933 0.896235 0.091879 -0.018897 -689521.000000 0 0 1
17.142537 21.075810 23.382441 35.844035 0.887953 0.860131 0.101335 -0.023210 -123891.000000 0 0 1
16.447537 22.213510 23.947651 36.571184 0.933449 0.856848 0.093121 -0.032637 762239.000000 0 0 1
15.499637 21.950110 25.176771 36.822763 0.955968 0.817937 0.111665 -0.034138 1014550.000000 0 0 1
14.534037 20.897110 25.015511 35.688979 0.963094 0.794094 0.103376 -0.033589 626396.000000 0 0 1
13.637537 20.864110 26.153551 36.128960 0.991869 0.761366 0.096356 -0.026280 406696.000000 0 0 1
12.643237 19.695810 26.150531 35.094538 1.000119 0.730044 0.094396 -0.025581 -114936.000000 0 0 1
13.199937 18.412710 26.344861 34.746481 0.948823 0.710245 0.098996 -0.024639 336387.000000 0 0 1
13.910837 17.765810 25.245901 33.859871 0.906500 0.729362 0.110533 -0.029776 351736.000000 0 0 1
13.031437 17.352110 24.019281 32.370356 0.926655 0.734726 0.115339 -0.032143 -446599.000000 0 0 1
12.538337 18.383410 23.191721 32.140560 0.972222 0.764726 0.100662 -0.031935 -26242.500000 0 0 1
13.444137 19.262810 22.495391 32.524503 0.961459 0.807033 0.101126 -0.028509 325196.000000 0 0 1
14.254037 18.542710 21.398991 31.700575 0.915426 0.829784 0.108396 -0.025002 -330442.000000 0 0 1
13.360837 18.078010 20.433391 30.378444 0.934330 0.833042 0.086000 -0.022269 -215727.000000 0 0 1
13.954137 17.102010 19.593091 29.514164 0.886414 0.844836 0.070301 -0.020595 131484.000000 0 0 1
12.977137 16.386010 18.627591 27.998117 0.900974 0.842880 0.068669 -0.022283 193755.000000 0 0 1
12.340037 17.175810 17.645791 27.543763 0.947792 0.875458 0.074362 -0.025383 720585.000000 0 0 1
11.372737 16.466910 16.825091 26.145400 0.966379 0.871708 0.062091 -0.023978 756959.000000 0 0 1
10.866437 17.126310 15.548891 25.556955 1.005403 0.916751 0.057446 -0.016636 125384.000000 0 0 1
10.027637 18.230010 15.916791 26.196011 1.067905 0.917756 0.063657 -0.023259 225544.000000 0 0 1
9.812137 18.953510 14.721091 25.927285 1.093093 0.966985 0.053896 -0.006897 -147931.000000 0 0 1
8.667237 19.990410 14.757191 26.315626 1.161690 0.975473 0.058415 -0.007293 338327.000000 0 0 1
7.381137 19.437810 14.992791 25.633833 1.207885 0.946061 0.034114 -0.010661 -95337.200000 0 0 1
6.386037 20.424810 15.011791 26.140164 1.267765 0.959071 0.041873 -0.018501 -249746.000000 0 0 1
5.060337 19.928110 15.612391 25.816338 1.322123 0.921346 0.031104 -0.018340 144890.000000 0 0 1
4.062137 19.491410 14.658591 24.724286 1.365331 0.936163 0.028754 -0.016129 107646.000000 0 1 0
3.015037 18.989810 15.468291 24.677345 1.413339 0.893329 0.019028 -0.011447 25079.900000 0 1 0
1.774537 18.538110 14.668891 23.706262 1.475363 0.903611 0.008080 -0.011967 -169067.000000 0 1 0
1.160937 19.556710 13.929791 24.038547 1.511503 0.952709 0.014260 -0.019811 -596085.000000 0 1 0
0.209937 19.017310 13.076391 23.080168 1.559758 0.968466 0.010739 -0.025451 -133961.000000 0 1 0
-0.705463 20.062210 12.329891 23.558781 -1.535647 1.019999 0.018233 -0.026490 -171625.000000 0 1 0
-1.648363 20.703810 13.094991 24.552874 -1.491347 1.008254 0.031669 -0.021286 148935.000000 0 1 0
-2.868663 20.793610 12.323991 24.340998 -1.433703 1.039901 0.041724 -0.027192 405617.000000 0 1 0
-4.061363 21.382210 13.020191 25.361762 -1.383091 1.031679 0.047435 -0.021015 -101222.000000 0 0 1
-4.810763 20.651410 14.008391 25.413760 -1.341927 0.986979 0.045316 -0.024293 325515.000000 0 0 1
-5.786263 21.404910 14.679991 26.592351 -1.306782 0.985990 0.051590 -0.017794 -37428.300000 0 0 1
-6.596363 20.641010 15.761391 26.795238 -1.261478 0.941945 0.041128 -0.013965 58984.100000 0 0 1
-7.662963 19.817310 15.321991 26.195614 -1.201825 0.946031 0.045039 -0.010735 435935.000000 0 0 1
-8.416263 19.172910 16.373391 26.580480 -1.157156 0.907150 0.033393 -0.001922 1505090.000000 0 0 1
-9.635963 20.024110 16.970391 27.960882 -1.122287 0.918600 0.037552 0.002833 1434720.000000 0 0 1
-10.818663 20.187510 16.178891 28.041675 -1.078836 0.955796 0.032005 -0.000399 1468380.000000 0 0 1
-11.911663 19.363410 16.712591 28.215954 -1.019302 0.936874 0.017762 0.000862 73335.100000 0 0 1
-13.106063 19.284010 15.823891 28.178670 -0.973870 0.974532 0.004439 -0.000017 -970914.000000 0 0 1
-13.660863 20.568410 15.568991 29.190275 -0.984526 1.008226 -0.003676 0.008990 -154852.000000 0 0 1
-14.524063 20.561810 14.473591 29.038273 -0.955814 1.049008 -0.001100 0.000075 -851843.000000 0 0 1
-15.397763 21.762310 14.252791 30.229643 -0.955026 1.079824 0.000525 -0.005643 -276741.000000 0 0 1
-16.528463 21.641710 15.132191 31.153442 -0.918565 1.063597 -0.000635 -0.007916 15120.300000 0 0 1
-17.329863 22.773110 14.914191 32.270293 -0.920305 1.090362 0.011871 -0.011637 -441815.000000 0 0 1
-18.637163 22.816810 15.718091 33.391752 -0.885885 1.080692 0.043206 -0.015812 -806979.000000 0 0 1
-19.484563 21.724610 15.321891 32.960086 -0.839703 1.087318 0.047253 -0.023972 491158.000000 0 0 1
-20.650363 21.475810 16.100791 33.865667 -0.804990 1.075342 0.054433 -0.026223 293258.000000 0 0 1
-21.707263 22.576810 16.049491 35.192383 -0.805031 1.097244 0.060260 -0.031187 -1156650.000000 0 0 1
-22.501763 22.520510 14.859691 35.132793 -0.785815 1.134089 0.068446 -0.025146 479384.000000 0 0 1
-23.442863 23.555810 14.617991 36.306056 -0.787801 1.156406 0.083594 -0.029783 174590.000000 0 0 1
-22.875063 24.817710 13.989891 36.536342 -0.826108 1.177859 0.062237 -0.018705 -225081.000000 0 0 1
-21.829063 25.507910 14.636091 36.624809 -0.862958 1.159692 0.033808 -0.017256 21638.300000 0 0 1
-21.510263 26.694910 13.895991 36.992002 -0.892540 1.185700 0.049420 -0.010429 448422.000000 0 0 1
-20.010763 27.087310 14.156991 36.531814 -0.934534 1.172851 0.041877 -0.003304 900829.000000 0 0 1
-19.062163 26.397910 13.362891 35.196343 -0.945386 1.181360 0.033966 -0.002045 -70937.800000 0 0 1
-17.793663 27.018110 13.411791 35.020978 -0.988411 1.177793 0.019702 -0.007567 -25134.700000 0 0 1
-16.697763 26.163610 12.748391 33.554005 -1.002757 1.181069 0.020522 -0.005749 -192151.000000 0 0 1
-15.452963 26.819710 12.734691 33.470334 -1.048076 1.180484 0.024643 -0.003525 -32753.400000 0 0 1
-14.501763 26.079910 11.969891 32.151845 -1.063319 1.189318 0.024531 0.001636 1022740.000000 0 0 1
-13.059663 26.696510 11.962291 32.036774 -1.115834 1.188133 0.030377 0.007454 706595.000000 0 0 1
-11.971663 25.817710 11.605491 30.733732 -1.136608 1.183578 0.022801 0.000849 491975.000000 0 0 1
-10.698863 26.250210 11.985191 30.776355 -1.183779 1.170785 0.033121 -0.004926 22573.400000 0 0 1
-10.086263 27.587810 11.416891 31.514527 -1.220287 1.200090 0.034916 -0.010131 -489144.000000 0 0 1
-8.872363 27.942010 12.054491 31.698352 -1.263338 1.180689 0.052285 -0.023522 171287.000000 0 0 1
-8.355063 29.130910 11.520391 32.421234 -1.291483 1.207524 0.056097 -0.024449 -413111.000000 0 0 1
-6.999863 29.626510 12.016891 32.728182 -1.338781 1.194829 0.046165 -0.023290 -510182.000000 0 0 1
-5.899863 28.864210 11.593891 31.660217 -1.369173 1.195877 0.063464 -0.022293 -9797.090000 0 0 1
-4.742963 29.396610 12.257491 32.200970 -1.410831 1.180291 0.064700 -0.021355 -248713.000000 0 0 1
-3.448663 28.958410 11.606991 31.387976 -1.452264 1.192012 0.070870 -0.032293 -823143.000000 0 0 1
-3.200563 29.498610 10.360791 31.428611 -1.462720 1.234852 0.086832 -0.036839 438895.000000 0 0 1
-1.827463 29.353210 10.018491 31.069611 -1.508619 1.242477 0.089092 -0.038845 299555.000000 0 0 1
-1.423463 30.039710 8.716691 31.311198 -1.523446 1.288680 0.084267 -0.036416 -98461.100000 0 0 1
-2.039063 29.536110 7.565191 30.557678 -1.501869 1.320624 0.087647 -0.034652 63491.300000 0 0 1
-1.995563 30.514410 6.540891 31.271309 -1.505492 1.360074 0.090759 -0.029075 31261.800000 0 0 1
11.747537 -33.930281 -26.606921 44.690008 -1.237488 2.208518 0.157509 -0.050243 -73753.100000 0 0 1
12.331337 -34.049781 -25.329331 44.193036 -1.223333 2.181144 0.146892 -0.046706 228934.000000 0 0 1
13.419237 -33.148581 -25.237491 43.770256 -1.186141 2.185345 0.141030 -0.038757 48406.000000 0 0 1
14.103737 -33.178581 -23.854691 43.229387 -1.168853 2.155337 0.122998 -0.025565 -580819.000000 0 0 1
13.572437 -32.250281 -22.921691 41.829363 -1.172448 2.150745 0.135856 -0.030408 103243.000000 0 0 1
14.100837 -32.241381 -21.622891 41.302417 -1.158510 2.121781 0.099169 -0.021237 -156479.000000 0 0 1
15.570937 -31.825981 -21.416791 41.400798 -1.115784 2.114494 0.058196 -0.003330 605861.000000 0 0 1
16.522437 -32.906181 -21.439691 42.608309 -1.105464 2.098072 0.067991 -0.009179 709790.000000 0 0 1
17.865437 -32.606781 -21.113891 42.757133 -1.069563 2.087262 0.040100 -0.010564 990117.000000 0 0 1
18.887137 -33.826481 -21.121391 44.125593 -1.061562 2.069930 0.020117 0.000751 335464.000000 0 0 1
20.231637 -33.577681 -20.815991 44.385643 -1.028517 2.058932 0.009909 0.004583 190660.000000 0 0 1
20.973137 33.445510 -20.984391 44.708157 1.010700 2.059366 0.013885 0.009390 483972.000000 0 0 1
22.514037 33.551810 -20.762391 45.427774 0.979784 2.045463 0.024383 0.010897 54287.100000 0 0 1
23.067537 -33.853981 -21.722591 46.368893 -0.972674 2.058358 0.019527 0.007037 -563932.000000 0 0 1
24.427437 -33.732081 -21.409591 46.828662 -0.944039 2.045629 0.013460 0.015276 -337251.000000 0 0 1
25.300337 -33.252981 -22.591691 47.500024 -0.920391 2.066459 0.022586 0.007577 -17786.200000 0 0 1
25.370437 -31.863381 -22.856591 46.705009 -0.898361 2.082177 0.019229 0.003745 136994.000000 0 0 1
24.209237 -31.338481 -23.499491 46.047949 -0.913045 2.106361 0.007821 0.005517 278680.000000 0 0 1
23.985037 -29.847881 -23.401991 44.875730 -0.893879 2.119386 0.012877 -0.010525 -440795.000000 0 0 1
24.776237 -28.981581 -24.159291 45.138291 -0.863467 2.135574 0.014950 -0.007728 -386912.000000 0 0 1
24.443137 -27.663981 -23.861891 43.956258 -0.847132 2.144630 0.032977 -0.006491 156256.000000 0 0 1
25.060737 -26.700881 -24.888391 44.276513 -0.817074 2.167734 0.034162 -0.015450 103526.000000 0 0 1
24.426537 -26.762681 -26.127201 44.671327 -0.831004 2.195524 0.034274 -0.014818 -599091.000000 0 0 1
25.043337 -25.967581 -27.108041 45.125712 -0.803515 2.215201 0.037154 -0.015519 -438674.000000 0 0 1
24.126337 -25.687681 -28.352051 45.230254 -0.816731 2.248285 0.036198 -0.014488 312871.000000 0 0 1
23.283237 -24.600381 -28.150681 44.042578 -0.812898 2.264214 0.053311 -0.016115 -40128.500000 0 0 1
22.023537 -24.898781 -27.527181 43.159369 -0.846598 2.262439 0.042160 -0.016677 -386484.000000 0 0 1
21.272837 -23.603081 -27.486371 42.013564 -0.837278 2.283955 0.047159 -0.012515 -714731.000000 0 0 1
20.855637 -23.029881 -28.704671 42.300013 -0.834901 2.316647 0.063190 -0.019778 94659.700000 0 0 1
20.434437 -21.737681 -28.328121 41.140921 -0.816291 2.330302 0.052947 -0.006867 -214377.000000 0 0 1
19.408637 -21.059781 -29.271521 40.951575 -0.826176 2.367111 0.084441 -0.018452 127394.000000 0 0 1
18.242937 -21.858081 -29.284671 40.843266 -0.875306 2.370287 0.068579 -0.021892 273573.000000 0 0 1
17.112437 -21.213581 -29.889211 40.450172 -0.891999 2.402254 0.058981 -0.027928 656569.000000 0 0 1
15.868737 -22.137881 -29.728681 40.319934 -0.948875 2.399890 0.048344 -0.027208 -182594.000000 0 0 1
15.933637 -23.300281 -30.524661 41.575700 -0.970999 2.395276 0.045883 -0.019022 -174136.000000 0 0 1
15.055137 -24.314381 -30.103861 41.522147 -1.016388 2.381841 0.064591 -0.022366 -184861.000000 0 0 1
15.424637 -25.721681 -30.678841 42.903561 -1.030616 2.367514 0.085150 -0.022253 -64636.300000 0 0 1
14.573337 -26.694981 -30.171121 42.840410 -1.071091 2.352188 0.100269 -0.026159 -19146.000000 0 0 1
14.974837 -27.980181 -30.691791 44.148865 -1.079391 2.339479 0.128610 -0.023257 178918.000000 0 0 1
14.186937 -29.119681 -30.028291 44.169257 -1.117446 2.318349 0.140911 -0.034293 -36168.600000 0 0 1
14.426837 -29.493981 -28.683661 43.597947 -1.115870 2.288841 0.168401 -0.037901 -258660.000000 0 0 1
14.248437 -28.526581 -27.676111 42.222635 -1.107565 2.285615 0.139223 -0.028890 -257545.000000 0 0 1
15.320037 -28.341181 -26.583481 41.768499 -1.075232 2.260681 0.108196 -0.018840 -388346.000000 0 0 1
15.494137 -29.378381 -25.603371 41.936740 -1.085470 2.227518 0.116279 -0.025791 63272.700000 0 0 1
16.421737 -29.107681 -24.559791 41.474255 -1.057138 2.204545 0.123414 -0.031495 -1006310.000000 0 0 1
15.975637 -28.048481 -23.487191 39.919749 -1.053051 2.199826 0.108333 -0.026615 439908.000000 0 0 1
14.855337 -28.346081 -22.664791 39.215738 -1.088079 2.187012 0.094223 -0.028151 61847.300000 0 0 1
13.640737 -28.413481 -23.375091 39.240164 -1.123212 2.208924 0.114167 -0.026330 -1764550.000000 0 0 1
12.428737 -28.223681 -22.518491 38.185496 -1.155983 2.201500 0.100539 -0.022643 -831279.000000 0 0 1
12.177037 -26.855981 -22.085891 36.841695 -1.145102 2.213649 0.082426 -0.022413 714463.000000 0 0 1
10.824137 -26.613781 -21.669991 35.986717 -1.184517 2.217008 0.080882 -0.022402 577914.000000 0 0 1
10.495337 -25.127281 -21.372391 34.616635 -1.175136 2.236233 0.100452 -0.030014 -298716.000000 0 0 1
11.164537 -24.626681 -20.250391 33.781632 -1.145159 2.213610 0.083858 -0.024853 -170023.000000 0 0 1
10.782937 -23.306881 -20.010391 32.556077 -1.137472 2.232731 0.086977 -0.031303 -85628.800000 0 0 1
11.400537 -22.567681 -18.790491 31.501667 -1.103021 2.209920 0.087441 -0.029710 -31319.900000 0 0 1
10.815837 -23.062881 -17.599391 30.961547 -1.132278 2.175389 0.083320 -0.030196 157490.000000 0 0 1
11.054337 -22.305581 -16.443591 29.835030 -1.110686 2.154539 0.074162 -0.028372 41574.100000 0 0 1
10.086937 -22.705881 -15.274091 29.165068 -1.152740 2.121999 0.055411 -0.021238 334327.000000 0 0 1
10.440137 -23.899381 -14.648291 29.912360 -1.158942 2.082550 0.068902 -0.017357 -280284.000000 0 0 1
9.473737 -24.211181 -13.684091 29.380050 -1.197816 2.055291 0.067347 -0.018134 -97293.500000 0 0 1
9.448537 -25.766481 -13.351491 30.519645 -1.219323 2.023582 0.057864 -0.011611 795312.000000 0 0 1
10.713237 -26.256681 -12.874591 31.143889 -1.183396 1.996971 0.048293 -0.014833 349997.000000 0 0 1
10.771937 -27.626981 -13.089691 32.413342 -1.199022 1.986503 0.042297 -0.015138 7926.660000 0 0 1
11.997837 -28.406381 -12.400591 33.236204 -1.171160 1.953150 0.054230 -0.016070 1394040.000000 0 0 1
13.287737 -28.052481 -12.870391 33.602866 -1.128430 1.963854 0.049511 -0.017721 149599.000000 0 0 1
13.508637 -28.329081 -14.240991 34.464851 -1.125842 1.996765 0.049165 -0.013886 -565813.000000 0 0 1
14.900437 -27.842081 -14.755791 34.855959 -1.079405 2.007921 0.032268 -0.014300 771123.000000 0 0 1
16.042937 -28.523881 -14.255191 35.695911 -1.058453 1.981605 0.069855 -0.023460 541027.000000 0 0 1
17.233037 -27.867081 -14.728091 35.923090 -1.016956 1.993239 0.087877 -0.024373 456701.000000 0 0 1
18.426637 -28.821681 -14.553991 37.175918 -1.001957 1.973046 0.082385 -0.026463 -188030.000000 0 0 1
18.588637 -29.775781 -15.586591 38.406723 -1.012710 1.988683 0.069404 -0.016993 -580000.000000 0 0 1
19.839237 -30.361281 -15.389591 39.398505 -0.992008 1.972094 0.084990 -0.011745 -239869.000000 0 0 1
20.314937 -31.158181 -16.610391 40.736151 -0.993021 1.990791 0.067587 -0.014010 -102362.000000 0 0 1
19.866137 -32.477981 -16.538391 41.509047 -1.021833 1.980599 0.058487 -0.004792 -146367.000000 0 0 1
20.367137 -33.250181 -17.580191 42.772163 -1.021206 1.994368 0.050475 -0.010795 -9686.100000 0 0 1
20.188637 33.489110 -17.220191 42.727468 1.028290 1.985615 0.027689 0.003205 303793.000000 0 0 1
21.036437 33.075110 -16.146791 42.393554 1.004312 1.961542 0.053642 -0.009645 359060.000000 0 0 1
20.864437 31.689110 -15.927491 41.148626 0.988531 1.968251 0.039693 -0.015595 -144970.000000 0 0 1
21.742237 31.148210 -14.790991 40.764068 0.961397 1.942114 0.045856 -0.018346 451960.000000 0 0 1
23.141337 30.902810 -14.993891 41.416445 0.928036 1.941238 0.048840 -0.013311 984546.000000 0 0 1
23.866637 30.596810 -13.806191 41.187280 0.908347 1.912619 0.061956 -0.011417 352558.000000 0 0 1
23.544037 29.197110 -13.169791 39.752186 0.892176 1.908474 0.066562 -0.014468 -1004820.000000 0 0 1
23.850937 28.089610 -14.019091 39.426239 0.866824 1.934328 0.055343 -0.014102 82254.600000 0 0 1
23.688637 26.862710 -13.389791 38.236674 0.848105 1.928562 0.020676 -0.015036 1069200.000000 0 0 1
22.212737 26.553710 -12.870191 36.934361 0.874180 1.926725 0.014450 -0.007637 1210850.000000 0 0 1
21.331737 26.252810 -13.983891 36.603309 0.888449 1.962798 0.020647 -0.009660 609354.000000 0 0 1
19.957337 26.555710 -13.831091 35.983331 0.926319 1.965327 0.030442 -0.014803 35366.000000 0 0 1
19.416837 28.020410 -13.856891 36.799054 0.964815 1.956872 0.029557 -0.012409 -359568.000000 0 0 1
19.450837 28.680210 -15.063991 37.786417 0.974854 1.980853 0.031426 -0.005969 -227990.000000 0 0 1
18.767537 28.036910 -16.072391 37.371252 0.980913 2.015371 0.030532 0.001842 -838426.000000 0 0 1
18.820137 28.735010 -17.427091 38.517552 0.990946 2.040302 0.024791 0.002256 -233490.000000 0 0 1
17.914337 29.801210 -17.476491 38.916106 1.029548 2.036533 0.024534 -0.005020 -99423.900000 0 0 1
17.970537 30.433010 -18.747891 40.007396 1.037395 2.058514 0.017086 0.005481 22220.800000 0 0 1
16.871437 31.503910 -18.994891 40.471565 1.079127 2.059339 0.017654 0.000184 66687.400000 0 0 1
16.985937 32.721310 -18.180191 41.106271 1.091978 2.028928 0.042759 -0.010009 96801.900000 0 0 1
16.001337 33.635110 -18.615291 41.640034 1.126750 2.034264 0.044297 -0.010800 -45212.200000 0 0 1
15.840737 -33.395981 -17.661291 40.965128 -1.127894 2.016541 0.048184 -0.008539 -59289.400000 0 0 1
14.840337 -32.485481 -18.017791 40.002286 -1.142277 2.038031 0.039076 -0.005195 -269433.000000 0 0 1
14.485637 -31.573581 -16.979091 38.665414 -1.140657 2.025425 0.043368 -0.003909 704319.000000 0 0 1
13.347337 -30.550581 -17.366691 37.591107 -1.158895 2.051033 0.040850 -0.006814 1616990.000000 0 0 1
12.055537 -31.123281 -17.683491 37.771688 -1.201244 2.058013 0.041522 0.005385 229558.000000 0 0 1
11.150237 -30.104881 -17.907691 36.760264 -1.216082 2.079617 0.032192 0.006246 -1428620.000000 0 0 1
9.819537 -30.634981 -18.319991 37.020905 -1.260610 2.088465 0.058888 -0.003045 -1104350.000000 0 0 1
8.984437 -31.295881 -17.308891 36.874788 -1.291234 2.059403 0.055455 0.003702 907201.000000 0 0 1
8.101537 -32.359981 -17.757291 37.790537 -1.325482 2.059959 0.072103 0.001044 163165.000000 0 0 1
6.801537 -31.733281 -18.266291 37.241367 -1.359656 2.083441 0.076504 0.007746 -988705.000000 0 0 1
6.844337 -31.115481 -19.558591 37.383908 -1.354279 2.121377 0.074321 0.008854 -139373.000000 0 0 1
6.764837 -32.065781 -20.622591 38.720390 -1.362878 2.132469 0.090158 -0.003945 -774521.000000 0 0 1
7.124337 -31.529281 -22.042491 39.124457 -1.348569 2.169285 0.095121 -0.002498 1721230.000000 0 0 1
8.519537 -31.380281 -22.484691 39.533099 -1.305693 2.175789 0.096808 -0.006561 1708910.000000 0 0 1
9.375237 -32.536081 -22.419091 40.609202 -1.290247 2.155640 0.096509 -0.010584 -40661.700000 0 0 1
9.104737 -33.741181 -23.356891 42.034603 -1.307233 2.159951 0.115503 -0.025138 -376326.000000 0 0 1
7.983037 33.693510 -23.062691 41.603716 1.338155 2.158369 0.112345 -0.036485 -479290.000000 0 0 1
7.801037 32.636010 -24.016491 41.264478 1.336167 2.191999 0.112114 -0.050364 -628066.000000 0 0 1
6.586237 31.842010 -23.569291 40.159726 1.366832 2.198007 0.118067 -0.064160 606416.000000 0 0 1
5.302137 32.490910 -23.640891 40.529787 1.409034 2.193578 0.114037 -0.059204 686916.000000 0 0 1
4.962937 33.304610 -22.564091 40.533517 1.422868 2.161177 0.087507 -0.049270 -1138190.000000 0 0 1
3.629837 33.995910 -22.768091 41.076558 1.464427 2.158299 0.073850 -0.042805 -199716.000000 0 0 1
2.482137 33.146910 -22.751291 40.280267 1.496053 2.171017 0.074762 -0.055247 661978.000000 0 0 1
1.347137 33.946510 -23.072391 41.067208 1.531133 2.167381 0.069795 -0.044245 525025.000000 0 0 1
-0.088463 33.400910 -22.855691 40.472351 -1.568148 2.170895 0.069147 -0.048732 324372.000000 0 0 1
-0.312063 33.234910 -21.451391 39.557791 -1.561407 2.143944 0.051821 -0.045543 -93214.500000 0 0 1
-1.668563 33.153710 -21.068791 39.317255 -1.520511 2.136330 0.053073 -0.051371 137598.000000 0 0 1
-1.805663 33.509310 -19.533091 38.828803 -1.516963 2.097928 0.060449 -0.047735 112043.000000 0 0 1
-1.158363 32.611010 -18.646891 37.583591 -1.535291 2.089949 0.060724 -0.054750 -239478.000000 0 0 1
-1.495163 32.901210 -17.300591 37.202629 -1.525384 2.054472 0.045347 -0.035938 -26611.300000 0 0 1
-0.833563 32.014210 -16.248791 35.911387 -1.544765 2.040328 0.041816 -0.022380 775937.000000 0 0 1
0.546237 32.250210 -15.962291 35.988459 1.553860 2.030340 0.033780 -0.020834 303481.000000 0 0 1
1.086537 31.225210 -15.185191 34.738802 1.536014 2.023196 0.050334 -0.016422 657854.000000 0 0 1
2.216237 31.633010 -14.169791 34.732435 1.500850 1.991026 0.066312 -0.021845 632435.000000 0 0 1
3.451437 31.994110 -14.753091 35.400412 1.463335 2.000662 0.063086 -0.022314 93631.000000 0 0 1
4.326637 32.562510 -13.798891 35.629289 1.438698 1.968487 0.072543 -0.024945 85348.200000 0 0 1
5.695837 33.011710 -14.338991 36.439295 1.399939 1.975236 0.069503 -0.032888 110254.000000 0 0 1
6.597637 31.966010 -14.643091 35.773939 1.367259 1.992508 0.067466 -0.026585 -695459.000000 0 0 1
7.688737 32.449010 -15.352991 36.711977 1.338139 2.002260 0.064848 -0.009444 -970747.000000 0 0 1
8.858037 31.506410 -15.543291 36.231376 1.296721 2.014183 0.063071 -0.021430 -220561.000000 0 0 1
9.517337 31.298810 -14.268191 35.690005 1.275601 1.982074 0.065816 -0.025865 264926.000000 0 0 1
10.544037 30.296510 -14.332891 35.135267 1.235879 1.990987 0.075221 -0.031396 303627.000000 0 0 1
10.176037 28.823310 -13.972991 33.609216 1.231408 1.999562 0.083486 -0.035522 -77483.500000 0 0 1
9.245137 28.182510 -14.824891 33.158767 1.253813 2.034304 0.102202 -0.038739 115570.000000 0 0 1
8.868337 26.928810 -14.230491 31.722470 1.252657 2.035987 0.082813 -0.029650 741411.000000 0 0 1
7.856037 26.103410 -15.163591 31.193586 1.278461 2.078432 0.092995 -0.025182 572393.000000 0 0 1
8.504537 25.474710 -16.236391 31.383250 1.248588 2.114558 0.096955 -0.022730 -140594.000000 0 0 1
7.748337 24.428910 -16.818191 30.653873 1.263654 2.151543 0.082957 -0.009623 -88316.500000 0 0 1
8.553137 23.562910 -17.818991 30.755216 1.222595 2.188765 0.094714 -0.005515 -78038.900000 0 0 1
7.828437 22.629410 -18.578791 30.307525 1.237742 2.230660 0.089710 -0.010500 -211417.000000 0 0 1
8.646737 22.107310 -19.593791 30.780121 1.197964 2.260843 0.077600 -0.009651 96917.900000 0 0 1
7.857937 21.224610 -20.614091 30.613265 1.216216 2.309556 0.059856 -0.004678 285821.000000 0 0 1
7.331037 19.992810 -20.119691 29.296049 1.219337 2.327834 0.051440 -0.001638 255288.000000 0 0 1
6.798837 19.231810 -21.241691 29.449892 1.230989 2.376448 0.043717 0.001478 225880.000000 0 0 1
24.972337 -12.535090 -9.385991 29.476141 -0.465214 1.894866 0.070249 -0.008291 103294.000000 0 0 1
25.617937 -11.922890 -8.245791 29.435133 -0.435596 1.854730 0.070474 -0.012104 905868.000000 0 0 1
24.719237 -11.904290 -7.158391 28.354811 -0.448803 1.826016 0.049298 -0.005564 -24965.000000 0 0 1
25.485337 -11.356190 -5.884291 28.514738 -0.419186 1.778649 0.033898 -0.011443 73552.800000 0 0 1
25.768937 -9.961090 -5.815691 28.232670 -0.368862 1.778273 0.044504 -0.011552 872788.000000 0 0 1
26.915537 -9.473990 -6.517791 29.269168 -0.338446 1.795364 0.057886 -0.015428 -582125.000000 0 0 1
27.157737 -8.005590 -6.211791 28.986522 -0.286662 1.786771 0.097993 -0.015536 -275685.000000 0 0 1
27.583737 -7.692990 -4.909691 29.054254 -0.271985 1.740595 0.089929 -0.027683 791024.000000 0 0 1
28.962037 -8.018290 -4.725391 30.420747 -0.270090 1.726762 0.092112 -0.025717 21179.800000 0 0 1
29.528137 -7.944590 -3.290491 30.754751 -0.262828 1.677993 0.095550 -0.025758 -298311.000000 0 0 1
29.560037 -6.620390 -2.730691 30.415161 -0.220328 1.660698 0.101998 -0.028528 435073.000000 0 0 1
30.394537 -6.669490 -1.584491 31.157993 -0.216007 1.621672 0.102261 -0.024703 100294.000000 0 0 1
30.770337 -5.329390 -1.012491 31.244858 -0.171498 1.603207 0.107729 -0.030615 -148232.000000 0 0 1
29.635137 -4.664390 -0.513291 30.004355 -0.156113 1.587904 0.127683 -0.031329 62614.600000 0 0 1
29.889137 -3.378990 -0.109191 30.079727 -0.112573 1.574426 0.125008 -0.025821 -285170.000000 0 0 1
30.334637 -3.222390 1.364309 30.535804 -0.105831 1.526102 0.120553 -0.022634 354202.000000 0 0 1
29.326437 -3.551490 2.334709 29.632817 -0.120515 1.491927 0.119600 -0.033034 1002460.000000 0 0 1
29.898237 -3.254390 3.603509 30.289947 -0.108422 1.451547 0.124555 -0.025130 122285.000000 0 0 1
29.355937 -4.171590 4.674909 30.017128 -0.141159 1.414418 0.128966 -0.034277 -332355.000000 0 0 1
29.912137 -5.453890 4.430409 30.726363 -0.180349 1.426103 0.126969 -0.040001 418248.000000 0 0 1
29.723737 -6.291490 5.577609 30.890016 -0.208587 1.389237 0.116051 -0.046046 -474674.000000 0 0 1
30.562037 -7.562590 5.489009 31.958724 -0.242578 1.398187 0.091562 -0.039956 170743.000000 0 0 1
31.928437 -7.206190 5.659409 33.217212 -0.221979 1.399585 0.108834 -0.037083 -41790.300000 0 0 1
32.792337 -8.286290 5.460309 34.260982 -0.247509 1.410740 0.096926 -0.033655 988390.000000 0 0 1
34.302037 -7.948090 5.781409 35.682300 -0.227691 1.408054 0.111006 -0.027798 1175060.000000 0 0 1
35.084837 -7.500490 4.688709 36.182691 -0.210611 1.440847 0.111743 -0.029963 -25845.800000 0 0 1
36.428637 -7.275890 5.092909 37.495625 -0.197136 1.434548 0.117928 -0.021326 462276.000000 0 0 1
-36.137008 -7.177190 3.844209 37.042859 0.196059 1.466832 0.122547 -0.017353 57139.600000 0 0 1
-35.775508 -8.373690 3.129009 36.875417 0.229923 1.485841 0.121539 -0.016524 632799.000000 0 0 1
-35.016708 -8.140690 1.907009 36.001075 0.228423 1.517801 0.154275 -0.024753 285378.000000 0 0 1
-34.900408 -9.443690 1.073409 36.171453 0.264261 1.541116 0.145045 -0.021196 -117674.000000 0 0 1
-34.120608 -10.464490 1.671309 35.728346 0.297584 1.524001 0.135888 -0.019306 403937.000000 0 0 1
-34.157208 -11.647890 0.931309 36.100631 0.328642 1.544996 0.119443 -0.027186 -668070.000000 0 0 1
-33.881808 -12.874890 1.832709 36.291852 0.363142 1.520276 0.109917 -0.029276 839385.000000 0 0 1
-32.581508 -13.046190 2.416809 35.179521 0.380866 1.502043 0.105828 -0.026306 563481.000000 0 0 1
-31.609708 -13.523390 1.520309 34.414635 0.404260 1.526606 0.103155 -0.024418 -652201.000000 0 0 1
-30.317608 -13.915090 2.241609 33.433694 0.430294 1.503700 0.103147 -0.017909 -184710.000000 0 0 1
-29.537508 -12.830990 2.740609 32.320421 0.409803 1.485899 0.109720 -0.015575 137884.000000 0 0 1
-28.317908 -13.325690 3.224909 31.462326 0.439831 1.468115 0.101114 -0.011207 -257032.000000 0 0 1
-27.452408 -12.287790 3.957009 30.336157 0.420859 1.439985 0.112645 -0.010550 494926.000000 0 0 1
-26.168708 -12.751890 4.403509 29.441516 0.453432 1.420665 0.108884 -0.008606 1106960.000000 0 0 1
-25.386708 -11.646190 4.903509 28.357770 0.430108 1.397007 0.103149 0.004296 576460.000000 0 0 1
-23.898808 -11.968390 5.198209 27.228969 0.464283 1.378710 0.097269 0.006754 273003.000000 0 0 1
-23.767608 -12.902790 6.263109 27.759822 0.497355 1.343219 0.087780 -0.000569 251543.000000 0 0 1
-22.397208 -13.145290 6.561509 26.785948 0.530744 1.323317 0.090185 0.002507 647793.000000 0 0 1
-21.972908 -12.562990 7.967609 26.535263 0.519388 1.265826 0.091066 -0.012367 -281237.000000 0 0 1
-21.631808 -11.145190 8.130209 25.656397 0.475751 1.248350 0.085673 -0.010682 941584.000000 0 0 1
-22.694908 -10.200890 8.426409 26.270162 0.422421 1.244265 0.080826 -0.012265 97565.900000 0 0 1
-23.186508 -10.132590 9.894809 27.169667 0.411994 1.198038 0.074518 -0.009348 -371917.000000 0 0 1
-23.604808 -11.388990 10.382509 28.190292 0.449538 1.193616 0.054579 -0.009778 978855.000000 0 0 1
-25.011208 -11.609990 10.173209 29.391267 0.434593 1.217353 0.037385 -0.008180 857731.000000 0 0 1
-26.020908 -11.168290 11.274109 30.478253 0.405426 1.191888 0.054855 -0.016108 -524432.000000 0 0 1
-26.021708 -12.016890 12.401509 31.230312 0.432625 1.162443 0.041475 -0.018418 -330687.000000 0 0 1
-27.044808 -11.674590 13.274909 32.310075 0.407512 1.147399 0.029665 -0.023438 -600705.000000 0 0 1
-27.135808 -12.430890 14.617909 33.234957 0.429569 1.115381 0.039110 -0.026215 -302312.000000 0 0 1
-27.306608 -13.804090 14.518009 33.867039 0.468055 1.127769 0.032821 -0.023182 348740.000000 0 0 1
-27.334908 -14.335090 15.815709 34.681820 0.482996 1.097275 0.027091 -0.016107 -589630.000000 0 0 1
-27.278108 -15.862190 15.844409 35.309341 0.526705 1.105451 0.034040 -0.006854 -1201660.000000 0 0 1
-28.447008 -16.556890 15.635709 36.439515 0.527098 1.127315 0.031560 -0.003914 -993827.000000 0 0 1
-28.207308 -17.969690 15.552109 36.884009 0.567223 1.135533 0.031774 -0.003098 52316.300000 0 0 1
-29.306108 -18.910990 16.110109 38.418864 0.573058 1.138091 0.022436 0.007540 57227.200000 0 0 1
-29.386408 -18.809590 17.521509 39.043116 0.569368 1.105404 0.034253 0.013092 53992.800000 0 0 1
-30.063408 -19.829890 18.250409 40.374627 0.583096 1.101760 0.041176 0.022467 32547.600000 0 0 1
-29.214008 -21.088490 18.463809 40.485737 0.625248 1.097237 0.034376 0.024656 45482.800000 0 0 1
-28.097108 -20.950290 19.309609 40.015286 0.640704 1.067226 0.046707 0.020072 -365179.000000 0 0 1
-27.435208 -22.128290 19.540409 40.301110 0.678731 1.064593 0.047771 0.016235 77576.300000 0 0 1
-26.032508 -21.915390 20.173509 39.559402 0.699742 1.035664 0.062195 0.010856 321769.000000 0 0 1
-24.992208 -21.508890 19.308409 38.210699 0.710629 1.041050 0.056599 0.003218 348471.000000 0 0 1
-23.754808 -21.464090 20.022009 37.760812 0.734783 1.011922 0.064666 0.000084 1239630.000000 0 0 1
-22.518708 -21.027790 19.130709 36.266296 0.751174 1.015133 0.066816 -0.009125 542688.000000 0 0 1
-22.153508 -22.092890 18.223009 36.207068 0.784028 1.043383 0.066654 -0.011090 216400.000000 0 0 1
-20.975308 -21.652390 17.570509 34.892869 0.801280 1.043087 0.072067 -0.018936 62794.600000 0 0 1
-20.665208 -22.443190 16.285209 34.582592 0.826619 1.080477 0.079730 -0.014378 -337118.000000 0 0 1
-20.655208 -23.878390 16.427109 35.590238 0.857649 1.091041 0.085431 -0.016348 -237459.000000 0 0 1
-19.659108 -24.570290 17.134809 35.829895 0.895984 1.072162 0.084387 -0.024495 -30254.400000 0 0 1
-18.252408 -24.646890 16.484009 34.818704 0.933367 1.077622 0.080165 -0.031686 230617.000000 0 0 1
-17.560808 -23.430990 16.484209 33.602417 0.927635 1.058057 0.084626 -0.032022 -289757.000000 0 0 1
-16.177408 -23.590290 16.234209 32.890118 0.969688 1.054584 0.088405 -0.035315 448333.000000 0 0 1
-15.330808 -22.293690 16.225809 31.548679 0.968390 1.030593 0.082793 -0.031277 -356731.000000 0 0 1
-15.681408 -21.451890 15.127909 30.576850 0.939564 1.053249 0.093913 -0.018946 366719.000000 0 0 1
-16.813508 -20.590890 15.341309 30.692582 0.886045 1.047385 0.093031 -0.024360 385989.000000 0 0 1
-16.605908 -19.302490 16.212409 30.185833 0.860354 1.003817 0.084078 -0.033656 -531554.000000 0 0 1
-15.852508 -18.379190 15.432209 28.761949 0.859076 1.004453 0.078627 -0.026035 155552.000000 0 0 1
-15.679908 -17.139090 16.145209 28.289145 0.829830 0.963413 0.063634 -0.022727 -56207.600000 0 0 1
-15.076508 -16.016290 15.269609 26.776550 0.815614 0.963973 0.064822 -0.013573 36173.600000 0 0 1
-15.996908 -15.475590 14.357709 26.486577 0.768835 0.997892 0.077603 -0.019381 8434.920000 0 0 1
-15.920408 -15.921390 13.032109 26.015110 0.785429 1.046107 0.099004 -0.018660 -318045.000000 0 0 1
-16.966608 -15.242990 12.132509 25.834324 0.731937 1.081928 0.085332 -0.009069 -825927.000000 0 0 1
-18.265708 -15.638590 12.431909 27.069428 0.708066 1.093634 0.072232 -0.006906 -870042.000000 0 0 1
-19.101808 -14.516190 12.152109 26.893728 0.649831 1.101951 0.097647 -0.011858 -118735.000000 0 0 1
-20.571008 -14.830190 12.574209 28.305682 0.624633 1.110483 0.058625 -0.013228 710824.000000 0 0 1
-21.270008 -15.927390 11.917909 29.122698 0.642745 1.149185 0.064048 -0.022398 121050.000000 0 0 1
-21.466908 -15.844290 10.565009 28.696500 0.635828 1.193763 0.084295 -0.013117 -654559.000000 0 0 1
-22.099408 -17.038790 9.886309 29.604785 0.656810 1.230313 0.086756 -0.014102 -3671.100000 0 0 1
-21.289608 -18.201790 9.780509 29.668349 0.707367 1.234851 0.095318 -0.005950 -457857.000000 0 0 1
-21.955408 -19.282090 9.181109 30.628936 0.720661 1.266363 0.093044 -0.010918 -154211.000000 0 0 1
-21.223108 -20.638490 9.099709 30.970507 0.771434 1.272577 0.091050 -0.005780 1008020.000000 0 0 1
-19.964308 -20.683390 8.367509 29.939797 0.803087 1.287546 0.105690 -0.007229 670950.000000 0 0 1
-19.566608 -22.007290 8.316209 30.599547 0.844038 1.295559 0.101787 -0.011304 -158607.000000 0 0 1
-18.326208 -22.203090 7.440009 29.735178 0.880764 1.317900 0.083959 -0.016177 -67648.700000 0 0 1
-17.144408 -21.622190 7.948009 28.716209 0.900395 1.290357 0.063787 -0.015588 -450026.000000 0 0 1
-16.018308 -22.112390 7.283409 28.259371 0.943879 1.310120 0.067745 -0.011952 -551507.000000 0 0 1
-14.702908 -21.616590 7.908009 27.312801 0.973505 1.277055 0.036875 -0.006907 -481056.000000 0 0 1
-13.571808 -22.142290 7.237109 26.960169 1.020919 1.299026 0.049397 -0.003557 1596.590000 0 0 1
-12.459308 -21.956090 8.113609 26.516691 1.054643 1.259827 0.047914 0.002828 56638.400000 0 0 1
-11.106308 -22.398490 7.562009 26.119464 1.110474 1.277075 0.044029 0.002940 -77329.400000 0 0 1
-11.029108 -23.790390 7.622109 27.307882 1.136694 1.287921 0.036782 0.002459 -346470.000000 0 0 1
-9.782108 -24.139490 7.063009 26.986862 1.185787 1.305992 0.059009 -0.008169 179747.000000 0 0 1
-9.658108 -25.649460 7.089909 28.309727 1.210674 1.317661 0.056250 -0.013243 -384578.000000 0 0 1
-10.521508 -26.321060 6.224109 29.021369 1.190516 1.354651 0.062092 -0.016396 -570036.000000 0 0 1
-10.398608 -27.718480 6.343809 30.276874 1.211894 1.359706 0.073078 -0.015134 690605.000000 0 0 1
-9.203508 -28.368650 5.528909 30.332387 1.257084 1.387494 0.084356 -0.013138 872823.000000 0 0 1
-7.939508 -27.887050 6.019009 29.613372 1.293432 1.366117 0.081226 -0.016587 665901.000000 0 0 1
-6.807508 -28.672920 5.588509 29.995165 1.337693 1.383388 0.092238 -0.008725 896995.000000 0 0 1
-6.719508 -30.087360 6.245609 31.454867 1.351069 1.370910 0.102722 -0.018965 -739562.000000 0 0 1
-6.543508 -30.006940 7.659709 31.652884 1.356091 1.326379 0.094678 -0.017373 -10636.800000 0 0 1
-6.617508 -31.352840 8.126909 33.058110 1.362784 1.322413 0.126752 -0.023709 -154259.000000 0 0 1
-6.873508 -31.496080 9.605009 33.637841 1.355931 1.281225 0.106899 -0.026009 -197737.000000 0 0 1
-6.040508 -30.767280 10.486309 33.061699 1.376933 1.248048 0.086329 -0.020500 220873.000000 0 0 1
-6.456508 -31.149690 11.757609 33.915056 1.366417 1.216769 0.066485 -0.018524 -525504.000000 0 0 1
-5.609508 -30.514630 12.830609 33.574302 1.388996 1.178668 0.061670 -0.016683 -97882.500000 0 0 1
-5.886508 -29.118230 12.892009 32.384042 1.371326 1.161354 0.068733 -0.011715 732739.000000 0 0 1
-4.860508 -28.495470 13.683109 31.981929 1.401851 1.128696 0.058445 -0.022700 449289.000000 0 0 1
-5.438508 -27.826200 14.975509 32.064632 1.377784 1.084855 0.061318 -0.022213 101693.000000 0 0 1
-6.089508 -28.731810 15.862409 33.379860 1.361944 1.075595 0.054746 -0.026162 894342.000000 0 0 1
-5.190508 -29.492910 16.751709 34.313159 1.396589 1.060769 0.041790 -0.025295 798853.000000 0 0 1
-5.794508 -30.848870 17.173409 35.779255 1.385124 1.070162 0.031788 -0.021674 84046.200000 0 0 1
-6.011508 -31.750780 16.120909 36.112795 1.383677 1.108053 0.034449 -0.014551 197970.000000 0 0 1
-6.610508 -32.969080 16.546709 37.476027 1.372914 1.113496 0.031033 -0.016279 -103014.000000 0 0 1
-6.028508 34.082118 15.773409 38.035958 -1.395725 1.143186 0.022104 -0.020111 -223054.000000 0 0 1
-6.437508 33.859948 14.415909 37.359818 -1.382917 1.174649 0.037025 -0.020700 268260.000000 0 0 1
-5.599508 32.918583 13.743409 36.109125 -1.402307 1.180343 0.038944 -0.025770 827327.000000 0 0 1
-4.342508 33.518350 12.979409 36.205003 -1.441958 1.204138 0.063937 -0.031207 889975.000000 0 0 1
-4.742508 34.100455 11.757509 36.380921 -1.432608 1.241711 0.068402 -0.030917 360851.000000 0 0 1
-3.582508 -33.895800 10.995009 35.814101 1.465495 1.258755 0.079166 -0.032978 -229391.000000 0 0 1
-3.971508 -33.735500 9.538809 35.282371 1.453611 1.297033 0.077508 -0.030166 -973387.000000 0 0 1
-3.937508 33.363391 8.658709 34.692839 -1.453321 1.318548 0.096781 -0.040119 256234.000000 0 0 1
-4.737508 32.200977 8.934009 33.751495 -1.424721 1.302904 0.098615 -0.038123 381395.000000 0 0 1
-6.216508 32.451239 9.338209 34.335551 -1.381525 1.295358 0.112478 -0.026781 -180774.000000 0 0 1
-6.895508 33.230643 8.325409 34.944758 -1.366195 1.330238 0.127520 -0.027677 643078.000000 0 0 1
-8.292508 33.382671 8.663409 35.471440 -1.327317 1.324064 0.097268 -0.028347 907747.000000 0 0 1
-9.138908 33.663755 7.420809 35.662816 -1.305709 1.361182 0.101889 -0.038533 -267345.000000 0 0 1
-9.145708 -33.234740 6.933409 35.160547 1.302258 1.372303 0.123778 -0.039883 -290067.000000 0 0 1
-10.040408 -33.173130 5.880809 35.154662 1.276895 1.402722 0.107801 -0.032301 -664931.000000 0 0 1
-10.282708 -31.754100 5.266409 33.790413 1.257629 1.414303 0.089191 -0.029910 208842.000000 0 0 1
-11.275908 -30.986830 5.950809 33.507340 1.221798 1.392252 0.100047 -0.030748 -127949.000000 0 0 1
-12.496308 -31.072470 5.265109 33.902470 1.188424 1.414864 0.102617 -0.027604 -60222.500000 0 0 1
-13.587508 -30.084900 5.818909 33.519864 1.146580 1.396317 0.091553 -0.033239 79487.800000 0 0 1
-14.185908 -30.387230 7.018409 34.261958 1.134029 1.364490 0.102266 -0.031043 -552406.000000 0 0 1
-15.101808 -29.421130 7.381409 33.884402 1.096567 1.351195 0.092260 -0.030782 -308683.000000 0 0 1
33.698381 -12.849290 -12.526691 38.178569 -0.364285 1.905096 0.080278 -0.020445 -624802.000000 0 0 1
32.774281 -12.992590 -11.495291 37.082376 -0.377422 1.885982 0.086804 -0.012307 39143.400000 0 0 1
32.473601 -14.319090 -11.076491 37.178754 -0.415299 1.873315 0.081037 -0.018239 656260.000000 0 0 1
33.547941 -14.852790 -10.034191 38.036229 -0.416794 1.837762 0.063078 -0.027400 115186.000000 0 0 1
34.811021 -15.106190 -10.555691 39.388155 -0.409426 1.842104 0.073610 -0.028995 -746284.000000 0 0 1
35.647271 -15.478990 -9.445791 39.994375 -0.409660 1.809227 0.068629 -0.031057 863918.000000 0 0 1
-36.329123 -15.417490 -9.882491 40.683754 0.401349 1.816161 0.062436 -0.031998 490754.000000 0 0 1
-35.788967 -14.145890 -10.156991 39.801016 0.376412 1.828845 0.054854 -0.017366 -774456.000000 0 0 1
-34.493948 -14.281090 -10.632591 38.817960 0.392532 1.848252 0.052760 -0.027360 -585484.000000 0 0 1
-33.815623 -12.924990 -10.953791 37.822444 0.365085 1.864617 0.073641 -0.033347 -44674.400000 0 0 1
-33.484943 -12.121990 -9.849591 36.948593 0.347337 1.840635 0.084954 -0.031264 344622.000000 0 0 1
-33.041113 -10.806190 -10.233091 36.238171 0.316087 1.857075 0.092394 -0.030099 -14395.200000 0 0 1
-33.527293 -9.784490 -9.197491 36.116609 0.283951 1.828293 0.089919 -0.035161 -176984.000000 0 0 1
-32.898143 -9.880490 -7.968491 35.262002 0.291765 1.798745 0.100691 -0.028941 27493.300000 0 0 1
-33.555913 -9.122390 -6.995591 35.470489 0.265441 1.769321 0.131249 -0.035904 -548823.000000 0 0 1
-32.782933 -9.045690 -5.714891 34.484855 0.269228 1.737286 0.120839 -0.028390 -997564.000000 0 0 1
-31.739123 -8.092090 -5.673791 33.242229 0.249638 1.742316 0.133026 -0.045511 683363.000000 0 0 1
-30.970413 -8.123190 -4.442191 32.324693 0.256511 1.708657 0.136660 -0.036391 727255.000000 0 0 1
-30.139143 -9.461390 -4.103391 31.854728 0.304181 1.699971 0.126816 -0.031385 -315143.000000 0 0 1
-30.909313 -10.614290 -3.811291 32.902504 0.330784 1.686893 0.137514 -0.029236 257612.000000 0 0 1
-31.513743 -10.738490 -2.535691 33.389533 0.328416 1.646812 0.116193 -0.030921 -148421.000000 0 0 1
-32.237933 -12.095690 -2.361791 34.513303 0.358946 1.639281 0.121158 -0.028897 -299779.000000 0 0 1
-33.607753 -12.071390 -2.679491 35.810323 0.344834 1.645691 0.116313 -0.031043 95939.500000 0 0 1
-34.169579 -13.327190 -2.304791 36.748962 0.371883 1.633555 0.114843 -0.037700 903079.000000 0 0 1
-35.744205 -13.325290 -2.276391 38.215095 0.356837 1.630399 0.101505 -0.029771 811673.000000 0 0 1
-36.346693 -12.728990 -1.186591 38.529434 0.336862 1.601598 0.106639 -0.030050 -428650.000000 0 0 1
35.740961 -12.702390 -1.243791 37.951470 -0.341479 1.603575 0.116141 -0.031865 -154331.000000 0 0 1
35.147291 -11.696190 -0.203591 37.042872 -0.321249 1.576292 0.110065 -0.026982 -31162.900000 0 0 1
34.994391 -12.195890 1.074309 37.074267 -0.335347 1.541815 0.131121 -0.024992 174230.000000 0 0 1
35.307841 -11.130090 1.986809 37.073845 -0.305370 1.517180 0.109950 -0.028582 -321968.000000 0 0 1
35.763561 -11.550290 3.397409 37.735711 -0.312388 1.480643 0.108671 -0.038908 125300.000000 0 0 1
34.736891 -11.651090 4.362709 36.897598 -0.323618 1.452281 0.101847 -0.044000 70442.900000 0 0 1
35.304331 -12.047290 5.600809 37.721374 -0.328851 1.421767 0.086751 -0.043828 -324176.000000 0 0 1
34.306761 -12.332990 6.769809 37.079466 -0.345105 1.387191 0.084786 -0.034185 257781.000000 0 0 1
33.539611 -11.167590 7.071209 36.050279 -0.321421 1.373368 0.086433 -0.029817 157043.000000 0 0 1
32.991361 -11.273990 8.359309 35.852626 -0.329284 1.335473 0.072848 -0.014927 -670199.000000 0 0 1
32.279661 -10.003190 8.871409 34.939122 -0.300507 1.314075 0.074194 -0.025567 -246919.000000 0 0 1
30.992381 -9.854390 8.332209 33.571750 -0.307853 1.319984 0.073535 -0.022729 269842.000000 0 0 1
30.117861 -8.924190 8.969509 32.667703 -0.288067 1.292656 0.093109 -0.014679 -156902.000000 0 0 1
28.633131 -9.253490 8.879609 31.374046 -0.312580 1.283851 0.073249 -0.014809 -422575.000000 0 0 1
28.036381 -8.731390 7.687409 30.354112 -0.301910 1.314750 0.102001 -0.021703 -52531.300000 0 0 1
27.266781 -9.715090 7.049309 29.791829 -0.342274 1.331912 0.121120 -0.035754 -830782.000000 0 0 1
26.399781 -9.120090 5.978909 28.563471 -0.332625 1.359917 0.126438 -0.038828 -173895.000000 0 0 1
25.248381 -8.441390 6.490009 27.401789 -0.322651 1.331678 0.129534 -0.039905 729400.000000 0 0 1
24.363081 -7.796790 5.623809 26.191161 -0.309725 1.354390 0.128528 -0.044682 -279223.000000 0 0 1
24.806181 -6.400690 5.134109 26.128041 -0.252520 1.373011 0.124149 -0.041856 -503665.000000 0 0 1
25.616081 -6.487590 3.963109 26.720380 -0.248047 1.421929 0.107754 -0.044602 464444.000000 0 0 1
25.917781 -5.293090 3.374909 26.667175 -0.201456 1.443899 0.114598 -0.040729 -107653.000000 0 0 1
26.644881 -5.426390 2.016909 27.266524 -0.200908 1.496759 0.121425 -0.038830 134489.000000 0 0 1
25.793981 -5.740590 0.923409 26.441190 -0.218986 1.535866 0.126061 -0.038080 -13571.500000 0 0 1
26.465881 -5.447990 -0.273491 27.022181 -0.203014 1.580917 0.124321 -0.038073 -368661.000000 0 0 1
25.731781 -5.594490 -1.599391 26.381451 -0.214084 1.631459 0.126314 -0.031587 -1188960.000000 0 0 1
24.661481 -4.763990 -1.748191 25.178174 -0.190825 1.640285 0.137620 -0.030039 -808502.000000 0 0 1
23.993381 -4.925090 -2.978791 24.674117 -0.202456 1.691817 0.125149 -0.029170 -216091.000000 0 1 0
22.808781 -3.955890 -3.067891 23.351692 -0.171729 1.702555 0.107245 -0.025453 -285238.000000 0 1 0
23.205381 -2.563890 -3.004491 23.539121 -0.110041 1.698784 0.097570 -0.031207 421046.000000 0 1 0
23.795481 -2.045290 -4.183291 24.246816 -0.085742 1.744193 0.105105 -0.026590 67448.500000 0 1 0
22.754681 -1.365690 -5.145791 23.369206 -0.059946 1.792811 0.109538 -0.016702 308135.000000 0 1 0
22.176281 -0.213290 -4.557791 22.640813 -0.009618 1.773490 0.085410 -0.011347 312087.000000 0 1 0
21.517381 0.640610 -5.484791 22.214658 0.029763 1.820276 0.103921 -0.007736 -348498.000000 0 1 0
21.328481 2.058810 -4.894291 21.979465 0.096231 1.795354 0.105535 -0.002885 -170267.000000 0 1 0
22.492881 2.843310 -4.658491 23.145532 0.125742 1.773450 0.128499 -0.010410 365930.000000 0 1 0
23.117681 2.511310 -3.447091 23.507793 0.108207 1.717963 0.130668 -0.011128 -256215.000000 0 1 0
24.353281 3.370810 -3.137491 24.784845 0.137539 1.697726 0.134279 -0.027246 -269152.000000 0 1 0
23.987681 4.682710 -2.859891 24.607227 0.192789 1.687281 0.124210 -0.015472 124319.000000 0 1 0
25.063781 5.536310 -2.610991 25.800410 0.217398 1.672169 0.120385 -0.021249 -459572.000000 0 0 1
24.633681 7.034010 -2.613791 25.751261 0.278143 1.672473 0.107689 -0.023738 27954.600000 0 0 1
23.582181 7.384410 -1.736891 24.772275 0.303463 1.640968 0.124457 -0.028745 163130.000000 0 1 0
22.871881 8.455310 -2.236291 24.487063 0.354100 1.662249 0.121091 -0.024240 -358918.000000 0 1 0
21.643981 8.866010 -1.383891 23.430391 0.388780 1.629895 0.097314 -0.022479 -161091.000000 0 1 0
22.068281 9.377110 -0.108891 23.978138 0.401797 1.575338 0.083250 -0.028537 1228550.000000 0 1 0
20.998781 9.733410 0.800009 23.158759 0.434042 1.536245 0.061001 -0.027953 457281.000000 0 1 0
21.546581 10.418410 2.075209 24.023009 0.450385 1.484304 0.082918 -0.026870 -352485.000000 0 1 0
22.245981 11.634010 1.888009 25.175354 0.481855 1.495732 0.090953 -0.037221 227025.000000 0 0 1
21.540681 12.793210 1.541909 25.100691 0.535929 1.509329 0.090313 -0.033249 -394271.000000 0 0 1
20.646181 13.422210 2.639509 24.766662 0.576450 1.464018 0.083319 -0.019527 1936040.000000 0 1 0
19.265981 12.870710 2.742909 23.331455 0.588962 1.452961 0.092001 -0.020787 2156470.000000 0 1 0
18.445981 13.655510 3.541209 23.222131 0.637262 1.417706 0.093229 -0.017831 -371931.000000 0 1 0
18.530981 13.475710 5.057409 23.464216 0.628748 1.353554 0.087012 -0.011178 -608991.000000 0 1 0
17.948681 12.314310 5.463209 22.442016 0.601325 1.324889 0.058863 -0.008138 112266.000000 0 1 0
18.058381 12.198010 6.897609 22.857682 0.594077 1.264255 0.058792 -0.015856 -163172.000000 0 1 0
18.243481 10.737610 7.330209 22.402073 0.531975 1.237446 0.054204 -0.016573 -41911.000000 0 1 0
19.390981 10.166910 6.733409 22.906659 0.482907 1.272440 0.055037 -0.019189 598553.000000 0 1 0
19.819481 8.949710 7.378209 22.964040 0.424152 1.243701 0.081413 -0.014463 -778048.000000 0 1 0
20.695881 8.163710 6.533609 23.187361 0.375722 1.285153 0.082310 -0.016090 -706123.000000 0 1 0
20.098081 7.858310 5.229609 22.204385 0.372722 1.333041 0.055730 -0.013487 1066320.000000 0 1 0
20.881981 6.896310 4.509709 22.448914 0.318975 1.368532 0.056671 -0.017717 -34843.200000 0 1 0
20.627381 6.790810 2.976509 21.919479 0.318038 1.434583 0.061623 -0.013054 -140323.000000 0 1 0
21.381481 5.796710 2.297209 22.272107 0.264745 1.467470 0.055147 -0.014394 359896.000000 0 1 0
21.025181 5.644110 0.953809 21.790456 0.262262 1.527010 0.050229 -0.010151 -705648.000000 0 1 0
21.961481 4.670410 0.251809 22.454015 0.209542 1.559582 0.085170 -0.021909 -23075.900000 0 1 0
21.736581 3.338010 0.569009 21.998751 0.152376 1.544928 0.056777 -0.011987 28433.800000 0 1 0
22.959281 2.707810 0.411009 23.122062 0.117397 1.553020 0.088065 -0.014682 -399449.000000 0 1 0
22.806881 1.190210 0.686409 22.848230 0.052139 1.540750 0.105646 -0.018084 176485.000000 0 1 0
21.993181 0.497110 -0.305091 22.000914 0.022599 1.584664 0.063600 -0.025318 932678.000000 0 1 0
22.387081 -0.821490 -0.636991 22.411203 -0.036678 1.599223 0.095980 -0.029379 -966981.000000 0 1 0
22.421181 -1.914390 0.471009 22.507690 -0.085176 1.549868 0.115932 -0.026729 215961.000000 0 1 0
23.509081 -1.877990 1.362509 23.623298 -0.079714 1.513088 0.127564 -0.025076 1416530.000000 0 1 0
24.875381 -2.045990 0.931809 24.976768 -0.082065 1.533481 0.147088 -0.034655 353337.000000 0 1 0
25.829581 -1.555390 2.006809 25.954071 -0.060145 1.493398 0.147895 -0.039543 -699761.000000 0 0 1
25.627181 -0.181290 2.296409 25.730503 -0.007074 1.481429 0.137578 -0.036885 608867.000000 0 0 1
26.510381 0.184510 3.344509 26.721155 0.006960 1.445304 0.140614 -0.037946 -125679.000000 0 0 1
26.396981 1.622510 3.725209 26.707871 0.061389 1.430860 0.147777 -0.032057 -59229.600000 0 0 1
26.719881 2.566410 2.737309 26.982057 0.095755 1.469172 0.166397 -0.034015 827581.000000 0 0 1
28.097981 2.764710 2.390209 28.334666 0.098080 1.486340 0.175232 -0.033144 611171.000000 0 0 1
28.278981 3.777710 1.285209 28.559126 0.132801 1.525779 0.184259 -0.036447 -445762.000000 0 0 1
27.765081 3.410310 0.010409 27.973739 0.122215 1.570424 0.191862 -0.031077 249193.000000 0 0 1
28.368781 4.200910 -1.001591 28.695620 0.147014 1.605707 0.190334 -0.025686 43777.600000 0 0 1
29.825611 3.842010 -1.334191 30.101631 0.128110 1.615134 0.175111 -0.022643 -178856.000000 0 0 1
30.860871 4.177210 -0.426291 31.145211 0.134539 1.584484 0.165904 -0.028400 373962.000000 0 0 1
32.147361 3.823410 -0.908091 32.386663 0.118378 1.598839 0.135780 -0.024860 -68727.300000 0 0 1
33.270891 4.239610 0.021809 33.539931 0.126744 1.570146 0.086337 -0.023737 -570862.000000 0 0 1
33.319391 3.429710 1.183309 33.516339 0.102573 1.535484 0.090619 -0.029135 119704.000000 0 0 1
32.715451 4.021910 2.298309 33.041773 0.122322 1.501182 0.092312 -0.015580 -58709.600000 0 0 1
32.775911 3.089310 3.493609 33.106034 0.093978 1.465072 0.100232 -0.017109 -110052.000000 0 0 1
32.021141 1.917610 3.276609 32.245417 0.059814 1.469006 0.133362 -0.028042 171799.000000 0 0 1
32.182951 0.920410 4.303809 32.482492 0.028592 1.437909 0.124382 -0.024952 -915960.000000 0 0 1
33.259161 -0.148490 4.290009 33.535027 -0.004465 1.442519 0.116160 -0.014985 -720131.000000 0 0 1
34.504061 0.407510 4.604109 34.812270 0.011810 1.438152 0.110518 -0.020013 -280389.000000 0 0 1
35.526441 -0.565990 4.616009 35.829540 -0.015930 1.441605 0.105390 -0.032120 -983219.000000 0 0 1
-36.587433 -0.048590 5.023509 36.930723 0.001328 1.434348 0.122776 -0.043240 -229929.000000 0 0 1
-36.079443 1.030610 4.196909 36.337342 -0.028557 1.455039 0.105204 -0.042294 309718.000000 0 0 1
-35.809852 0.709910 2.836909 35.929063 -0.019822 1.491755 0.141358 -0.038117 -925886.000000 0 0 1
-35.846098 1.971410 1.913809 35.951243 -0.054941 1.517538 0.111393 -0.040183 467950.000000 0 0 1
-34.681881 2.786210 1.806909 34.840505 -0.080164 1.518911 0.140934 -0.048784 439408.000000 0 0 1
-33.610833 2.233510 1.034709 33.700850 -0.066355 1.540089 0.180782 -0.049685 -830557.000000 0 0 1
-32.404403 3.119910 1.223309 32.577227 -0.095985 1.533236 0.185766 -0.045956 -1111180.000000 0 0 1
-31.925543 2.988210 2.525309 32.164373 -0.093327 1.492203 0.174670 -0.041356 415486.000000 0 0 1
-31.016443 3.978810 3.040509 31.418074 -0.127584 1.473869 0.183306 -0.026540 -38129.700000 0 0 1
-31.195523 4.177810 4.542809 31.800187 -0.133131 1.427451 0.174085 -0.021799 -191147.000000 0 0 1
-32.353583 4.802110 5.049409 33.095485 -0.147350 1.417627 0.163481 0.001896 186217.000000 0 0 1
-33.545043 4.039110 5.085509 34.167920 -0.119832 1.421403 0.145319 0.000411 -309971.000000 0 0 1
-33.646383 3.106110 6.322609 34.375899 -0.092055 1.385818 0.125916 -0.000540 -711761.000000 0 0 1
-34.023753 3.721310 7.507609 35.040379 -0.108941 1.354866 0.127767 -0.002700 98655.900000 0 0 1
-33.952413 2.974010 8.702709 35.175961 -0.087370 1.320795 0.122855 -0.004277 -587332.000000 0 0 1
-35.038596 1.971110 9.048209 36.241669 -0.056196 1.318464 0.105578 -0.002214 -704383.000000 0 0 1
-34.909462 0.734210 8.323909 35.895642 -0.021029 1.336774 0.109837 -0.007764 326614.000000 0 0 1
-35.843659 -0.303090 8.627709 36.868647 0.008456 1.334594 0.105778 -0.005771 -173676.000000 0 0 1
-35.416008 -1.133590 9.821009 36.769973 0.031997 1.300421 0.110146 -0.002014 413749.000000 0 0 1
-34.325108 -2.025690 9.528909 35.680760 0.058946 1.300455 0.106378 -0.014365 493594.000000 0 0 1
-34.088340 -2.717390 10.779709 35.855283 0.079548 1.265428 0.103466 0.000013 -152268.000000 0 0 1
-32.887493 -3.685990 10.685009 34.775612 0.111613 1.258488 0.124522 0.004487 -263448.000000 0 0 1
-32.992073 -4.729190 9.737509 34.722633 0.142373 1.286547 0.106302 -0.011506 389845.000000 0 0 1
-31.912133 -5.675590 9.829109 33.870459 0.176010 1.276364 0.094539 -0.019889 486257.000000 0 0 1
-32.041753 -6.801690 8.751909 33.904762 0.209171 1.309708 0.092520 -0.004593 -148396.000000 0 0 1
-33.041793 -7.724390 9.045609 35.117650 0.229652 1.310279 0.107202 -0.013819 -312365.000000 0 0 1
-33.386553 -8.548290 7.946509 35.367813 0.250655 1.344180 0.106546 -0.020865 78652.100000 0 0 1
-34.461551 -9.620790 8.254609 36.719160 0.272243 1.344055 0.115908 -0.025026 -291006.000000 0 0 1
-35.734806 -9.041590 8.321309 37.788503 0.247818 1.348769 0.120719 -0.026635 -482855.000000 0 0 1
-36.619993 -10.108990 8.652209 38.962499 0.269343 1.346864 0.111302 -0.030442 -155268.000000 0 0 1
8.312937 -23.873190 10.685209 27.444631 -1.235715 1.170885 0.079024 -0.024566 -211968.000000 0 0 1
7.644337 -24.474190 9.606709 27.380846 -1.268055 1.212312 0.087758 -0.028519 383923.000000 0 0 1
6.396837 -25.099360 9.955309 27.748974 -1.321248 1.203854 0.080807 -0.028312 1032810.000000 0 0 1
5.829737 -25.886540 8.758809 27.943076 -1.349288 1.251970 0.074822 -0.021583 74413.200000 0 0 1
5.394337 -25.222120 7.589009 26.885819 -1.360097 1.284639 0.072875 -0.022867 -204449.000000 0 0 1
5.323437 -26.224190 6.587409 27.557958 -1.370521 1.329421 0.059050 -0.019485 -332552.000000 0 0 1
4.554137 -25.700060 5.339109 26.640933 -1.395414 1.369020 0.055558 -0.018207 750435.000000 0 0 1
3.132837 -25.699350 5.253409 26.417221 -1.449492 1.370599 0.060238 -0.025543 176728.000000 0 0 1
2.510237 -26.936520 5.150509 27.539156 -1.477874 1.382664 0.060366 -0.024394 222697.000000 0 0 1
0.951837 -26.805660 5.016409 27.287612 -1.535302 1.385910 0.064363 -0.026720 404227.000000 0 0 1
0.382237 -26.279240 6.179709 26.998766 -1.556252 1.339861 0.068753 -0.025255 927761.000000 0 0 1
-1.061263 -26.393990 6.316709 27.160077 1.530609 1.336074 0.073074 -0.024338 1971800.000000 0 0 1
-1.740563 -27.817910 6.515909 28.623814 1.508308 1.341144 0.075199 -0.016802 -148036.000000 0 0 1
-1.436463 -28.465040 7.745409 29.534950 1.520375 1.305448 0.065657 -0.020389 -4701.370000 0 0 1
-2.114563 -29.708820 7.832909 30.796750 1.499740 1.313629 0.074862 -0.017020 21054.000000 0 0 1
-1.972263 -30.489950 9.151609 31.894808 1.506201 1.279775 0.075336 -0.015151 385866.000000 0 0 1
-0.671763 -30.921200 9.533209 32.364393 1.549075 1.271803 0.081087 -0.013234 5078.510000 0 0 1
-0.569363 -31.186240 10.896709 33.040036 1.552541 1.234701 0.077829 -0.009037 1400020.000000 0 0 1
0.961837 -31.396010 11.270109 33.371394 -1.540170 1.226305 0.067968 -0.011866 1130750.000000 0 0 1
1.460437 -32.649340 10.844109 34.434096 -1.526095 1.250420 0.063592 -0.010755 921181.000000 0 0 1
2.852137 -32.811940 11.208409 34.790609 -1.484091 1.242778 0.063934 -0.009638 1303160.000000 0 0 1
3.181637 -33.290880 12.700209 35.772906 -1.475515 1.207858 0.063749 -0.010137 -218810.000000 0 0 1
2.926237 -32.319590 13.693509 35.222591 -1.480502 1.171499 0.054331 -0.007426 154080.000000 0 0 1
3.577437 -32.737580 14.859809 36.129781 -1.461952 1.146928 0.053043 -0.009348 -421005.000000 0 0 1
3.384337 -31.758280 15.989409 35.716989 -1.464632 1.106639 0.057556 -0.013551 198406.000000 0 0 1
3.968737 -30.444170 15.797809 34.527802 -1.441166 1.095571 0.054843 -0.015703 618611.000000 0 0 1
5.371837 -30.403060 16.044009 34.793863 -1.395914 1.091544 0.054129 -0.002779 70463.100000 0 0 1
5.993237 -29.113440 15.404709 33.478595 -1.367774 1.092648 0.062202 -0.008879 -65903.300000 0 0 1
6.204337 -29.142620 13.976009 32.910711 -1.361032 1.132205 0.057992 -0.005027 -172382.000000 0 0 1
5.019737 -29.078750 13.213409 32.332114 -1.399855 1.149792 0.049524 0.003847 -438525.000000 0 0 1
5.305837 -29.062990 11.709609 31.779305 -1.390222 1.193437 0.044749 -0.002443 102840.000000 0 0 1
5.623437 -30.282830 11.053309 32.723821 -1.387191 1.226244 0.044386 -0.009124 181899.000000 0 0 1
6.956137 -30.704120 11.294709 33.446992 -1.348003 1.226335 0.045676 -0.007178 -113540.000000 0 0 1
7.175937 -32.067500 10.661309 34.546811 -1.350647 1.257071 0.029164 -0.006417 -210902.000000 0 0 1
6.781737 -33.076590 11.512009 35.673227 -1.368568 1.242208 0.026833 -0.006709 139921.000000 0 0 1
7.017737 33.895037 10.900209 36.289623 1.366638 1.265719 0.035496 -0.012078 -52302.700000 0 0 1
6.917837 32.737729 11.863609 35.501558 1.362549 1.230070 0.047907 -0.010205 358276.000000 0 0 1
5.625337 32.494412 12.406009 35.234079 1.399378 1.210980 0.045415 -0.008448 286492.000000 0 0 1
5.561537 31.260502 13.084809 34.341839 1.394729 1.179901 0.059945 -0.007873 924185.000000 0 0 1
4.226537 31.011392 13.894609 34.243689 1.435341 1.152990 0.054793 -0.012508 963953.000000 0 0 1
4.242037 31.884102 15.079309 35.524307 1.438528 1.132410 0.071163 -0.017145 -2622.490000 0 0 1
2.990137 31.828622 15.718909 35.624236 1.477126 1.113814 0.060361 -0.015744 -9966.650000 0 0 1
3.081037 31.935382 17.242609 36.423468 1.474617 1.077658 0.058219 -0.013757 -241031.000000 0 0 1
3.486937 33.206724 17.722309 37.801131 1.466173 1.082830 0.065099 -0.014673 16890.900000 0 0 1
3.857037 33.096611 19.088909 38.401157 1.454781 1.050552 0.063752 -0.013630 -248338.000000 0 0 1
4.160237 -33.757630 19.692709 39.302518 -1.448176 1.045979 0.061485 -0.021280 -1135740.000000 0 0 1
3.072637 -32.969520 19.838209 38.600322 -1.477868 1.031026 0.055955 -0.022879 -1456060.000000 0 0 1
3.233237 -32.056270 20.923209 38.416649 -1.470275 0.994838 0.057100 -0.024716 191985.000000 0 0 1
1.954937 -31.325260 21.426309 38.002374 -1.508469 0.971799 0.041113 -0.023275 348343.000000 0 0 1
1.115537 -32.147110 22.211609 39.090110 -1.536109 0.966461 0.042503 -0.018931 -65678.100000 0 0 1
-0.043363 -31.532310 22.715609 38.862416 1.569421 0.946516 0.033839 -0.021762 -179895.000000 0 0 1
-1.149363 -32.454400 23.226309 39.925813 1.535396 0.949934 0.020243 -0.020051 -824430.000000 0 0 1
-1.902363 -33.080330 22.211409 39.890775 1.513352 0.980261 0.010598 -0.019996 -66065.100000 0 0 1
-2.783063 34.111737 22.593109 41.009811 -1.489390 0.987331 0.014555 -0.016091 65475.100000 0 0 1
-4.091863 -33.632250 23.240509 41.085190 1.449726 0.969555 0.040638 -0.011829 -659083.000000 0 0 1
-4.966263 -33.241750 22.201009 40.281044 1.422495 0.987051 0.036005 -0.021496 -614675.000000 0 0 1
-6.165863 -32.703460 22.715909 40.293259 1.384445 0.971860 0.051041 -0.011975 136198.000000 0 0 1
-7.246163 -32.358140 21.661909 39.608009 1.350495 0.992131 0.040717 -0.018680 341940.000000 0 0 1
-7.916263 -33.568290 21.230009 40.499513 1.339202 1.019016 0.029912 -0.004092 -708956.000000 0 0 1
-8.996463 -33.205180 20.473809 40.033701 1.306213 1.033966 0.040559 -0.021481 -714385.000000 0 0 1
-10.238163 -34.114813 20.486009 41.089135 1.279240 1.048842 0.056242 -0.022636 286819.000000 0 0 1
-10.796763 34.069747 21.793009 41.859921 -1.263906 1.023222 0.064526 -0.022285 513575.000000 0 0 1
-12.183363 33.685898 21.822909 41.945363 -1.223758 1.023629 0.042077 -0.014820 967794.000000 0 0 1
-12.737763 33.711374 23.251909 42.887745 -1.209531 0.997794 0.036030 -0.008096 -14675.700000 0 0 1
-13.008163 -33.280040 23.903109 42.989906 1.198185 0.981211 0.024281 -0.007442 156660.000000 0 0 1
-11.822463 -32.664580 24.382109 42.440931 1.223529 0.958809 0.032210 -0.005906 216531.000000 0 0 1
-12.028163 -31.289750 25.070609 41.860012 1.203799 0.928650 0.027988 -0.006908 -230292.000000 0 0 1
-12.711963 -31.442950 26.275309 42.902739 1.186600 0.911654 0.012202 -0.001340 -308150.000000 0 0 1
-13.240263 -30.232880 26.580509 42.377530 1.158015 0.892803 0.022778 -0.012814 -602539.000000 0 0 1
-13.946763 -30.177990 27.930109 43.420206 1.137884 0.872059 0.027983 -0.020773 -441017.000000 0 0 1
-13.136963 -29.964150 29.050609 43.753491 1.157612 0.844693 0.032083 -0.013252 158778.000000 0 0 1
-13.944863 -29.841560 30.218509 44.700517 1.133652 0.828446 0.037670 -0.017509 37577.900000 0 0 1
-13.144163 -29.489770 31.469709 45.086119 1.151508 0.798208 0.044064 -0.012546 -643189.000000 0 0 1
-14.013063 -29.111200 32.523109 45.842999 1.122169 0.782085 0.048283 -0.014165 118054.000000 0 0 1
-13.580763 -28.899620 33.866909 46.546672 1.131494 0.755994 0.051688 -0.013303 -817362.000000 0 0 1
-12.813963 -30.023230 -33.567472 46.822721 1.167401 2.370150 0.056372 -0.009221 552486.000000 0 0 1
-11.465663 -30.094550 34.057309 46.872632 1.206786 0.757447 0.052907 -0.012440 696735.000000 0 0 1
-10.773963 -31.181980 -33.431372 46.968615 1.238119 2.362827 0.045770 -0.006709 566247.000000 0 0 1
-9.264263 -31.319650 -33.825372 47.020238 1.283200 2.373704 0.051145 -0.007491 318659.000000 0 0 1
-8.532863 -30.572900 -32.920272 45.730255 1.298623 2.374425 0.065763 -0.015177 -881578.000000 0 0 1
-7.240463 -31.094890 -32.758272 45.742987 1.342022 2.369049 0.070245 -0.020309 -365438.000000 0 0 1
-6.523063 -30.424960 -31.576572 44.331799 1.359595 2.363535 0.071002 -0.014046 -189161.000000 0 0 1
-6.992563 -30.653550 -30.285072 43.654572 1.346518 2.337470 0.077136 -0.023926 654949.000000 0 0 1
-6.050063 -30.029580 -29.332372 42.411873 1.371988 2.334509 0.070405 -0.019419 1108740.000000 0 0 1
-6.495763 -30.165370 -27.837272 41.557890 1.358697 2.304794 0.072144 -0.032918 40035.400000 0 0 1
-6.494463 -31.459820 -27.389472 42.214707 1.367219 2.276820 0.067662 -0.030386 -328285.000000 0 0 1
-7.142063 -31.405440 -26.157672 41.491379 1.347185 2.252911 0.076016 -0.031858 23054.300000 0 0 1
-7.031263 -32.762980 -25.431572 42.066808 1.359393 2.220000 0.068805 -0.037342 -243102.000000 0 0 1
-5.973663 -32.749830 -24.519672 41.345499 1.390377 2.205630 0.051100 -0.042931 -584759.000000 0 0 1
-5.665963 -34.034780 -23.998272 42.028400 1.405833 2.178521 0.064864 -0.047761 -118819.000000 0 0 1
-4.620363 -33.822170 -22.888372 41.099446 1.435029 2.161448 0.078727 -0.059157 -100666.000000 0 0 1
-5.129763 -33.022480 -21.790572 39.895209 1.416686 2.148612 0.080670 -0.051980 166603.000000 0 0 1
-5.295263 -31.658900 -22.005772 38.917602 1.405071 2.171769 0.052552 -0.033465 -25429.300000 0 0 1
-5.969763 -30.763790 -20.953072 37.697216 1.379127 2.160152 0.069542 -0.034707 -424053.000000 0 0 1
-7.363063 -30.810200 -20.817372 37.905753 1.336215 2.152188 0.089201 -0.038298 -134394.000000 0 0 1
-7.978763 -29.623070 -20.306472 36.790484 1.307697 2.155496 0.091813 -0.036986 242216.000000 0 0 1
-8.215263 -28.495250 -21.338072 36.534684 1.290105 2.194505 0.107703 -0.054196 -252240.000000 0 0 1
-7.026163 -27.781920 -21.703272 35.947657 1.323086 2.218989 0.100260 -0.041019 340036.000000 0 0 1
-7.073463 -27.214030 -22.994672 36.323439 1.316503 2.256287 0.122002 -0.055071 287814.000000 0 0 1
-6.030263 -27.851520 -24.038372 37.281558 1.357573 2.271531 0.107229 -0.049323 1989890.000000 0 0 1
-4.633163 -27.491240 -23.966172 36.764274 1.403833 2.280867 0.098378 -0.033884 1365000.000000 0 0 1
-3.916263 -27.800760 -22.756872 36.139931 1.430848 2.251948 0.066199 -0.033645 -1255420.000000 0 0 1
-2.434663 -27.491200 -22.846372 35.828067 1.482465 2.262262 0.072058 -0.033968 -763704.000000 0 0 1
-2.098063 -26.090950 -23.049472 34.877180 1.490556 2.292781 0.073295 -0.031505 -32279.100000 0 0 1
-2.430963 -25.257640 -21.972672 33.565701 1.474845 2.284472 0.087440 -0.032877 -1014010.000000 0 0 1
-2.395863 -23.784590 -22.365372 32.736169 1.470403 2.322933 0.085550 -0.024481 678729.000000 0 0 1
-3.243263 -23.571190 -23.537172 33.468167 1.434061 2.350784 0.092491 -0.031342 238531.000000 0 0 1
-4.616563 -23.546090 -23.259472 33.417571 1.377187 2.340643 0.087355 -0.033737 -1296770.000000 0 0 1
-5.483263 -23.705290 -24.473872 34.510540 1.343484 2.359118 0.086396 -0.029302 -370421.000000 0 0 1
-5.601363 -22.496690 -25.151172 34.206107 1.326772 2.396881 0.095162 -0.031727 51581.300000 0 0 1
-6.175563 -22.572990 -26.456572 35.321773 1.303749 2.417372 0.108423 -0.031566 13778.900000 0 0 1
-5.970163 -21.240690 -27.155072 34.988679 1.296794 2.459270 0.102429 -0.022329 -23464.400000 0 0 1
-6.229863 -21.305590 -28.571372 36.180971 1.286322 2.481083 0.100207 -0.026343 414286.000000 0 0 1
-5.113663 -21.700290 -29.376872 36.878893 1.339369 2.492408 0.097068 -0.025787 544973.000000 0 0 1
-5.657963 -22.133790 -30.770172 38.323892 1.320530 2.502937 0.110502 -0.028645 144859.000000 0 0 1
-6.085363 -21.020590 -31.495872 38.352142 1.289004 2.534357 0.118542 -0.037027 -298999.000000 0 0 1
-6.930063 -21.474390 -32.525872 39.586709 1.258634 2.535072 0.120172 -0.033044 -73959.100000 0 0 1
-6.777163 -20.587990 -33.779572 40.135455 1.252788 2.571108 0.115938 -0.032930 695964.000000 0 0 1
-5.502663 -20.532290 33.694009 39.838932 1.308949 0.562816 0.106816 -0.029859 149125.000000 0 0 1
-5.483263 -20.132890 32.305409 38.458275 1.304892 0.573491 0.108562 -0.029041 -716187.000000 0 0 1
-4.116563 -20.369190 31.710009 37.912724 1.371385 0.580124 0.063351 -0.028505 -1485970.000000 0 0 1
-3.891263 -21.814890 31.494109 38.508574 1.394276 0.613137 0.082845 -0.033652 933187.000000 0 0 1
-2.707563 -22.149590 30.726009 37.973976 1.449160 0.628121 0.073545 -0.030559 1342400.000000 0 0 1
-1.310463 -21.844990 31.349809 38.232596 1.510879 0.609427 0.053870 -0.035212 -375166.000000 0 0 1
-0.976763 -20.515090 31.037509 37.217603 1.523220 0.584574 0.037539 -0.035793 -624296.000000 0 0 1
0.018437 -19.962190 31.841809 37.581780 -1.569873 0.559977 0.039484 -0.029425 -220273.000000 0 0 1
-0.511163 -19.583290 33.317309 38.649833 1.544700 0.531535 0.032105 -0.030914 310792.000000 0 0 1
-1.483663 -18.546990 33.328809 38.170690 1.490971 0.509165 0.031292 -0.032167 -354541.000000 0 0 1
-1.824963 -18.257890 -33.499572 38.195580 1.471172 2.640490 0.033589 -0.034182 1077950.000000 0 0 1
-3.094563 -17.296090 -33.495672 37.824477 1.393753 2.658485 0.043709 -0.033369 1136970.000000 0 0 1
-2.745363 -16.039990 -34.045072 37.734404 1.401281 2.695707 0.057710 -0.029090 -217564.000000 0 0 1
-3.727863 -15.085090 -33.773672 37.176845 1.328528 2.710381 0.067666 -0.027619 -401161.000000 0 0 1
-3.275563 -13.695690 33.971009 36.774049 1.336039 0.392968 0.066015 -0.031960 109893.000000 0 0 1
-2.239863 -13.248090 -33.264672 35.875720 1.403310 2.757716 0.056081 -0.030323 270065.000000 0 0 1
-2.066463 -11.816590 -33.254972 35.352443 1.397669 2.795395 0.054479 -0.027429 77879.300000 0 0 1
-1.382963 -11.173890 33.634009 35.468507 1.447655 0.323029 0.063510 -0.028756 52929.900000 0 0 1
-2.256163 -11.178290 32.479909 34.423668 1.371638 0.337655 0.061773 -0.030037 568678.000000 0 0 1
-1.611263 -10.825490 31.259509 33.120150 1.423041 0.336786 0.066350 -0.022962 -193338.000000 0 0 1
-0.630763 -11.891590 30.762509 32.986963 1.517803 0.369340 0.052476 -0.030573 -240838.000000 0 0 1
-1.262863 -12.893490 30.030409 32.705693 1.473162 0.407281 0.056467 -0.038091 -188571.000000 0 0 1
-0.370063 -13.954990 29.798709 32.906561 1.544284 0.438110 0.045078 -0.038763 -164319.000000 0 0 1
-0.778563 -15.297390 30.434409 34.071536 1.519945 0.466272 0.031870 -0.038153 -96270.200000 0 0 1
-1.587963 -16.101890 29.614109 33.745932 1.472494 0.500045 0.042331 -0.041942 34918.900000 0 0 1
-2.004663 -17.215090 30.334209 34.936260 1.454870 0.519086 0.052247 -0.035328 -274412.000000 0 0 1
-2.291263 -18.451690 29.478409 34.852423 1.447252 0.562721 0.062819 -0.028794 397172.000000 0 0 1
-3.522863 -18.352390 28.723409 34.267405 1.381147 0.576797 0.078717 -0.033124 833889.000000 0 0 1
-3.790963 -19.526790 27.942809 34.299672 1.379040 0.618642 0.096547 -0.033048 862296.000000 0 0 1
-5.025263 -19.300990 26.977609 33.549559 1.316088 0.636616 0.068683 -0.034568 797569.000000 0 0 1
-5.660563 -20.473390 26.464209 33.934585 1.301051 0.676355 0.079486 -0.023256 -287041.000000 0 0 1
-4.905663 -21.140290 25.503609 33.487482 1.342779 0.705039 0.083349 -0.033236 -364790.000000 0 0 1
-30.011683 -33.279281 -0.555091 44.816513 0.836981 1.583182 0.029433 -0.016580 24596.900000 0 0 1
-29.238513 -32.195881 -0.026491 43.490989 0.833500 1.571405 0.039162 -0.026714 170859.000000 0 0 1
-29.400963 -32.007381 1.396709 43.483789 0.827817 1.538671 0.025854 -0.015404 -10565.700000 0 0 1
-28.676473 -30.681781 1.796309 42.034968 0.819168 1.528050 0.044601 -0.015694 -90389.300000 0 0 1
-27.296943 -30.764581 1.565809 41.158648 0.845051 1.532744 0.060953 -0.020153 -750575.000000 0 0 1
-26.679713 -29.510681 1.841009 39.825579 0.835737 1.524553 0.070211 -0.010829 -964199.000000 0 0 1
-25.221443 -29.659681 2.144409 38.992517 0.866093 1.515773 0.068708 -0.015799 -1295400.000000 0 0 1
-24.901263 -30.497881 3.216409 39.503658 0.886080 1.489286 0.061509 -0.009613 -336478.000000 0 0 1
-23.559363 -30.292181 3.571509 38.541089 0.909778 1.477996 0.060376 -0.008262 -410796.000000 0 0 1
-23.213763 -30.972981 4.902009 39.015818 0.927625 1.444822 0.067732 -0.011161 -242869.000000 0 0 1
-23.733463 -30.506781 6.137509 39.135789 0.909631 1.413320 0.068124 -0.012797 -181399.000000 0 0 1
-23.221463 -31.135381 7.302809 39.521885 0.929974 1.384949 0.066923 -0.019572 -240477.000000 0 0 1
-23.616063 -30.394981 8.597609 39.439729 0.910255 1.351038 0.074520 -0.022384 315744.000000 0 0 1
-22.929963 -29.141981 8.782709 38.107405 0.904134 1.338233 0.086513 -0.021467 223565.000000 0 0 1
-23.567663 -28.492181 9.873209 38.271653 0.879711 1.309869 0.082567 -0.021018 247767.000000 0 0 1
-22.833263 -27.264681 10.497409 37.079865 0.873624 1.283769 0.087028 -0.025676 751685.000000 0 0 1
-21.634763 -27.654981 11.191509 36.852556 0.906936 1.262240 0.079207 -0.022310 54690.200000 0 0 1
-21.131663 -26.494881 11.855509 35.903747 0.897536 1.234278 0.092993 -0.021832 -3764.320000 0 0 1
-19.689763 -26.798981 12.286609 35.451840 0.937146 1.216882 0.095493 -0.019408 -404917.000000 0 0 1
-19.696063 -27.733781 13.373009 36.550444 0.953269 1.196220 0.100414 -0.019792 117746.000000 0 0 1
-18.445063 -27.876081 14.041309 36.255408 0.986254 1.173107 0.103191 -0.025851 498084.000000 0 0 1
-18.510863 -29.059081 15.016909 37.584436 1.003609 1.159769 0.129031 -0.038738 211127.000000 0 0 1
-18.596563 -30.328581 14.374309 38.370246 1.020750 1.186808 0.129850 -0.038717 -69915.400000 0 0 1
-18.669863 -31.293781 15.374409 39.550436 1.032881 1.171544 0.132936 -0.037644 -426.171000 0 0 1
-18.111063 -32.617981 14.937509 40.187965 1.063933 1.189966 0.137056 -0.044119 -8732.350000 0 0 1
-18.096363 -33.495881 16.059709 41.320294 1.075465 1.171615 0.133357 -0.031889 -167790.000000 0 0 1
-17.406863 33.563310 15.758609 40.961304 -1.092358 1.175892 0.119220 -0.031184 -319134.000000 0 0 1
-17.376863 32.412410 16.745509 40.409551 -1.078674 1.143519 0.107778 -0.028663 746884.000000 0 0 1
-18.613763 31.652010 16.659309 40.321887 -1.039191 1.144877 0.109420 -0.032410 1036740.000000 0 0 1
-18.722563 30.509510 17.509909 39.849235 -1.020391 1.115861 0.073894 -0.019383 -217021.000000 0 0 1
-19.318463 30.767110 18.900709 40.951861 -1.010119 1.091072 0.072284 -0.022715 -301457.000000 0 0 1
-18.696363 31.722310 19.730809 41.775158 -1.038225 1.078887 0.070862 -0.020749 -81039.500000 0 0 1
-19.378063 31.812010 20.956809 42.739925 -1.023681 1.058324 0.071941 -0.017505 21164.100000 0 0 1
-18.845163 32.965810 21.857709 43.813745 -1.051477 1.048493 0.059605 -0.009489 1022080.000000 0 0 1
-17.495363 32.931310 22.368109 43.484379 -1.082448 1.030495 0.033298 -0.007093 648615.000000 0 0 1
-17.279863 33.586210 23.626309 44.551428 -1.095622 1.011824 0.035092 -0.008625 -292695.000000 0 0 1
-17.900663 32.998610 24.875709 45.034908 -1.073755 0.985598 0.026634 -0.009201 801075.000000 0 0 1
-19.307663 33.268010 25.014109 45.883026 -1.044938 0.994203 0.016522 -0.011732 958149.000000 0 0 1
-20.058963 32.197210 25.567809 45.746423 -1.013634 0.977734 0.029728 -0.003770 819808.000000 0 0 1
-21.603663 32.318510 25.338709 46.403174 -0.981553 0.993148 0.084083 -0.012940 631344.000000 0 0 1
-21.904463 32.094810 23.965309 45.653241 -0.971917 1.018149 0.078993 -0.001985 1310270.000000 0 0 1
-23.342463 32.237010 23.848409 46.398729 -0.944086 1.030968 0.062373 -0.008408 904029.000000 0 0 1
-23.962463 31.908010 22.527409 45.823629 -0.926665 1.056857 0.056060 -0.017023 -238379.000000 0 0 1
-23.490263 32.768510 21.502709 45.693919 -0.948848 1.080847 0.059448 -0.014861 135309.000000 0 0 1
-23.502163 32.133910 20.290909 44.684011 -0.939318 1.099437 0.044746 -0.005032 -109638.000000 0 0 1
-23.196163 33.080810 19.147309 44.710418 -0.959267 1.128239 0.064029 -0.005450 -403230.000000 0 0 1
-21.929963 33.648210 19.308009 44.563714 -0.993197 1.122681 0.082486 -0.012012 -539069.000000 0 0 1
-21.682763 -33.724681 18.238709 44.047098 0.999404 1.143872 0.102239 -0.011669 361634.000000 0 0 1
-20.251963 -33.127081 18.239409 42.897804 1.022079 1.131632 0.109011 -0.013873 22171.400000 0 0 1
-20.225763 -32.036181 19.092109 42.425312 1.007650 1.104012 0.117211 -0.029979 415656.000000 0 0 1
-18.939463 -31.468581 19.293009 41.487288 1.029015 1.087123 0.103836 -0.026899 160237.000000 0 0 1
-18.979763 -30.560681 20.471809 41.391806 1.015041 1.053438 0.092118 -0.019510 243459.000000 0 0 1
-19.646763 -29.309981 20.198409 40.657669 0.980276 1.050898 0.131400 -0.023911 382296.000000 0 0 1
-20.055163 -28.619881 21.384309 40.970671 0.959572 1.021670 0.111243 -0.014742 -27676.100000 0 0 1
-21.042763 -27.474181 21.124909 40.544917 0.917190 1.022745 0.101239 -0.018848 -575853.000000 0 0 1
-20.466863 -26.361781 20.478909 39.156375 0.910622 1.020426 0.095561 -0.018029 89891.800000 0 0 1
-21.222463 -25.142281 20.356209 38.689825 0.869741 1.016743 0.100401 -0.011067 66009.500000 0 0 1
-22.481963 -25.107581 19.442209 38.907953 0.840514 1.047547 0.096469 -0.011349 -227123.000000 0 0 1
-23.587563 -25.753781 20.025109 40.257116 0.829273 1.050162 0.092830 -0.006827 13247.100000 0 0 1
-24.660763 -25.704981 19.088509 40.413742 0.806128 1.078867 0.076058 0.002805 -508433.000000 0 0 1
-26.012833 -26.182681 19.592209 41.785823 0.788652 1.082783 0.064458 -0.000243 -496251.000000 0 0 1
-26.355743 -27.534981 19.580309 42.850775 0.807277 1.096242 0.054746 0.005520 -94257.400000 0 0 1
-26.540023 -28.100481 18.260709 42.748841 0.813949 1.129444 0.069055 -0.007609 313223.000000 0 0 1
-27.625153 -29.284581 18.328509 44.234263 0.814549 1.143567 0.071125 -0.014555 148384.000000 0 0 1
-28.898423 -28.792481 18.582309 44.826645 0.783562 1.143362 0.042655 -0.004565 -77865.500000 0 0 1
-29.957533 -29.560781 17.948609 45.754193 0.778732 1.167684 0.038656 0.002110 764217.000000 0 0 1
-31.382173 -29.090881 18.245609 46.519055 0.747527 1.167755 0.038855 -0.000240 -25239.100000 0 0 1
-31.812063 -27.889881 17.624309 45.830875 0.719796 1.176075 0.046505 0.005368 -719099.000000 0 0 1
-33.115003 -27.535481 17.944709 46.656391 0.693662 1.176007 0.045661 0.018998 -630038.000000 0 0 1
-33.749233 -26.255081 17.343909 46.142727 0.661148 1.185455 0.036807 0.010103 -137343.000000 0 0 1
-33.949543 -26.251181 15.947709 45.782371 0.658210 1.215000 0.052109 -0.004772 134886.000000 0 0 1
-34.843166 -25.221081 15.599709 45.754783 0.626551 1.222878 0.047023 -0.001140 136637.000000 0 0 1
-34.142183 -23.849281 15.225109 44.342766 0.609738 1.220314 0.028945 0.000274 410677.000000 0 0 1
-33.436093 -23.210781 16.283509 43.839085 0.606812 1.190239 0.023100 0.005682 233866.000000 0 0 1
-32.874823 -21.933081 15.952209 42.617919 0.588351 1.187146 0.037105 0.011301 147761.000000 0 0 1
-33.699003 -20.663581 16.314909 42.764269 0.550055 1.179369 0.037734 -0.000027 14616.900000 0 0 1
-33.881493 -20.497481 17.723809 43.384741 0.544070 1.149957 0.045305 0.011669 203934.000000 0 0 1
-34.465566 -19.252581 18.060309 43.413269 0.509424 1.141744 0.049350 0.014567 -126800.000000 0 0 1
-34.988376 -19.120281 19.488509 44.379878 0.500133 1.116167 0.052067 -0.000351 -254647.000000 0 0 1
-36.168233 -19.844881 19.760109 45.743003 0.501831 1.124108 0.060023 0.000586 -60442.700000 0 0 1
-36.574543 -19.520081 21.036109 46.489232 0.490248 1.101236 0.073921 0.002339 -561639.000000 0 0 1
35.485411 -19.982981 21.364309 45.988778 -0.512870 1.087664 0.089385 -0.001853 -285205.000000 0 0 1
35.306391 -21.413881 21.509909 46.559336 -0.545197 1.090560 0.082732 -0.015446 -232739.000000 0 0 1
35.974271 -21.977281 22.588409 47.826617 -0.548408 1.078900 0.075954 -0.004831 -570927.000000 0 0 1
35.337961 -23.272681 23.147109 48.230466 -0.582379 1.070225 0.088269 -0.000196 408302.000000 0 0 1
34.136331 -23.023581 23.877509 47.597373 -0.593378 1.045284 0.101061 -0.014257 443177.000000 0 0 1
33.986261 -24.071881 24.846809 48.496241 -0.616263 1.032883 0.102852 -0.025929 -269352.000000 0 0 1
32.886621 -23.902781 25.914109 48.212176 -0.628503 1.003325 0.108229 -0.027161 1329160.000000 0 0 1
31.503671 -24.031181 25.550009 47.146389 -0.651647 0.998065 0.094969 -0.016804 743806.000000 0 0 1
30.580591 -24.039781 26.579309 47.112030 -0.666215 0.971366 0.054619 -0.014887 524246.000000 0 0 1
29.225621 -24.755981 26.216009 46.414165 -0.702787 0.970572 0.040781 -0.009651 752274.000000 0 0 1
28.302581 -23.961981 25.516709 45.014610 -0.702538 0.968114 0.037731 -0.000891 -727414.000000 0 0 1
27.083481 -24.598081 25.316209 44.491471 -0.737345 0.965492 0.032138 0.005475 -208482.000000 0 0 1
25.916581 -23.641081 24.938409 43.040611 -0.739514 0.952785 0.032726 0.009515 -265353.000000 0 0 1
26.027381 -23.072181 23.637409 42.053267 -0.725283 0.973895 0.042131 0.003576 140148.000000 0 0 1
26.996481 -22.045481 23.431909 41.998424 -0.684785 0.978915 0.032832 0.009347 228277.000000 0 0 1
26.999281 -21.551981 21.967309 40.939123 -0.673669 1.004412 0.042278 0.006051 29531.600000 0 0 1
25.977181 -20.632481 21.695009 39.638197 -0.671227 0.991631 0.028505 0.004445 -70761.300000 0 0 1
26.217481 -20.006481 20.450409 38.805088 -0.651831 1.015726 0.012162 0.003664 -110965.000000 0 0 1
25.312981 -18.799281 20.244209 37.469828 -0.638796 1.000026 0.026629 0.004019 -241625.000000 0 0 1
25.676481 -17.627981 20.998009 37.562532 -0.601636 0.977599 0.031404 -0.011451 124693.000000 0 0 1
25.503681 -17.658781 22.391609 38.257738 -0.605608 0.945567 0.036997 -0.006834 -54383.100000 0 0 1
26.062281 -16.420881 23.143609 38.529398 -0.562232 0.926452 0.053780 -0.006409 -89050.300000 0 0 1
25.016581 -15.485581 23.044409 37.372147 -0.554282 0.906354 0.025463 0.000161 120135.000000 0 0 1
25.128381 -14.398581 23.932309 37.570070 -0.520330 0.880190 0.021424 -0.000116 383636.000000 0 0 1
23.850981 -13.498181 23.873009 36.345437 -0.514997 0.854181 0.010181 0.000569 594839.000000 0 0 1
22.665381 -14.115681 24.327609 36.122078 -0.557006 0.831886 0.027725 0.007665 460270.000000 0 0 1
21.525081 -13.271881 24.092109 34.927091 -0.552520 0.809607 0.032341 0.006204 602833.000000 0 0 1
20.158081 -13.937081 24.346609 34.544867 -0.604924 0.788680 0.060339 0.004284 -68019.000000 0 0 1
19.740281 -14.942681 23.453609 34.103288 -0.647943 0.812449 0.067792 0.001543 -660986.000000 0 0 1
18.498981 -15.401981 23.856009 33.890154 -0.694297 0.789893 0.064262 0.000920 -776701.000000 0 0 1
17.932281 -16.536381 22.989609 33.519260 -0.744923 0.815008 0.074577 -0.003899 -127608.000000 0 0 1
18.331281 -17.809881 23.353109 34.620738 -0.770972 0.830453 0.064465 -0.001214 234698.000000 0 0 1
17.787081 -18.825381 22.474309 34.290958 -0.813750 0.856084 0.066526 -0.002492 420676.000000 0 0 1
18.380581 -20.203681 22.888109 35.635657 -0.832613 0.873326 0.056510 0.002481 94967.000000 0 0 1
17.765381 -20.643781 24.106409 36.371602 -0.860199 0.846270 0.068290 0.004931 395390.000000 0 0 1
18.046481 -21.987581 24.575809 37.591217 -0.883526 0.858247 0.084204 -0.001623 59690.300000 0 0 1
17.378281 -23.167281 23.741509 37.448456 -0.927217 0.884110 0.084833 -0.005500 218362.000000 0 0 1
18.036681 -23.429681 22.507209 37.159741 -0.914729 0.920166 0.074373 0.003697 132014.000000 0 0 1
19.118681 -24.345181 22.680009 38.374401 -0.905073 0.938475 0.073810 -0.003829 -168000.000000 0 0 1
20.035681 -24.475781 21.446309 38.215659 -0.884821 0.974971 0.070656 0.014519 -11875.500000 0 0 1
19.589181 -25.184081 20.290409 37.811039 -0.909714 1.004362 0.068591 -0.000784 123446.000000 0 0 1
20.674981 -25.246481 19.411909 37.969223 -0.884622 1.034153 0.057547 -0.008980 240336.000000 0 0 1
20.109881 -25.867681 18.099609 37.431806 -0.909980 1.066107 0.058750 -0.013922 445444.000000 0 0 1
19.709881 -27.177781 18.331809 38.251359 -0.943344 1.071001 0.069727 -0.020325 -161105.000000 0 0 1
19.002981 -27.791481 17.273309 37.839754 -0.971046 1.096755 0.073086 -0.023454 -164754.000000 0 0 1
18.186681 -28.980781 17.825509 38.579656 -1.010371 1.090497 0.064596 -0.018930 162825.000000 0 0 1
16.983681 -28.539181 18.465209 37.998609 -1.033987 1.063353 0.090906 -0.024897 -68665.300000 0 0 1
16.280481 -29.699481 18.742909 38.709300 -1.069356 1.065352 0.103395 -0.025716 175777.000000 0 0 1
15.021681 -29.595781 19.676709 38.584117 -1.101118 1.035647 0.092941 -0.023887 461458.000000 0 0 1
14.061381 -28.742881 19.084009 37.256880 -1.115816 1.033020 0.087171 -0.023789 -703237.000000 0 0 1
12.922781 -28.651981 19.899209 37.200979 -1.147090 1.006394 0.070048 -0.024154 -46157.500000 0 0 1
11.741581 -28.064681 19.080609 35.910454 -1.174550 1.010616 0.065769 -0.023190 31755.000000 0 0 1
11.357981 -28.849881 17.939209 35.820869 -1.195739 1.046270 0.063258 -0.023813 -114668.000000 0 0 1
10.791981 -28.090981 16.913709 34.520192 -1.204002 1.058746 0.060150 -0.018415 -47973.100000 0 0 1
10.542181 -28.977681 15.663609 34.586013 -1.221878 1.100794 0.061699 -0.018170 441335.000000 0 0 1
9.502581 -29.957481 15.730309 35.145304 -1.263633 1.106740 0.072578 -0.014413 410513.000000 0 0 1
9.660481 -30.809981 14.619109 35.444297 -1.266955 1.145651 0.060673 -0.012333 162617.000000 0 0 1
8.551381 -31.893781 14.507809 36.066826 -1.308837 1.156825 0.056306 -0.009565 28308.600000 0 0 1
8.517581 -32.988581 15.405809 37.391639 -1.318117 1.146135 0.061364 -0.014182 -640283.000000 0 0 1
7.401381 -33.751181 15.110009 37.712532 -1.354921 1.158556 0.051388 -0.008937 -534079.000000 0 0 1
7.135781 33.346010 16.042009 37.685831 1.359984 1.131086 0.082230 -0.024627 561264.000000 0 0 1
8.250281 32.444410 16.169609 37.177455 1.321784 1.120835 0.083677 -0.023118 409998.000000 0 0 1
7.938381 31.378610 17.074309 36.594632 1.323008 1.085377 0.089438 -0.034164 164563.000000 0 0 1
9.173781 30.554910 17.488409 36.381386 1.279120 1.069347 0.103488 -0.032927 120650.000000 0 0 1
9.745381 29.767910 16.437809 35.373755 1.254414 1.087513 0.095068 -0.026430 607280.000000 0 0 1
11.109481 29.466110 16.757509 35.671927 1.210251 1.081769 0.088785 -0.032183 1108650.000000 0 0 1
11.931381 28.717210 15.635409 34.806638 1.177018 1.104918 0.079738 -0.023287 485456.000000 0 0 1
11.428981 27.403510 15.434109 33.463200 1.175668 1.091419 0.089611 -0.023368 -128413.000000 0 0 1
12.260681 26.793410 14.508809 32.843823 1.141640 1.113246 0.098141 -0.016895 -92482.600000 0 0 1
-9.071263 -9.534290 18.963991 23.082969 0.810279 0.606658 0.048697 -0.023876 -113125.000000 0 1 0
-9.411063 -9.516890 17.596491 22.108274 0.790989 0.650265 0.047923 -0.030340 110116.000000 0 1 0
-9.326863 -10.816490 17.072991 22.259242 0.859215 0.696633 0.066073 -0.031594 81479.900000 0 1 0
-9.747763 -10.901190 15.567191 21.358658 0.841199 0.754160 0.063418 -0.028825 558808.000000 0 1 0
-11.175563 -10.741090 15.496991 21.918507 0.765577 0.785510 0.069160 -0.022089 822987.000000 0 1 0
-11.798463 -11.346290 14.384191 21.790984 0.765864 0.849847 0.085200 -0.017577 87630.100000 0 1 0
-11.776263 -12.938090 14.399391 22.658707 0.832374 0.882153 0.065869 -0.015495 -278366.000000 0 1 0
-10.479763 -13.483790 14.144191 22.174223 0.910106 0.879072 0.079407 -0.016167 486049.000000 0 1 0
-10.327163 -14.832590 14.439791 23.133603 0.962593 0.896700 0.090280 -0.021223 55534.200000 0 1 0
-10.114163 -15.109390 15.960391 24.193471 0.980907 0.850379 0.112286 -0.023168 215930.000000 0 1 0
-11.331963 -14.963390 16.692191 25.118632 0.922632 0.843926 0.102295 -0.020697 316957.000000 0 0 1
-11.083763 -14.968390 18.073991 25.953259 0.933417 0.800420 0.137690 -0.018172 400921.000000 0 0 1
-12.312363 -14.621290 18.995791 26.948404 0.870916 0.788521 0.076424 -0.018866 197556.000000 0 0 1
-12.888063 -13.333390 18.875891 26.460928 0.802380 0.776530 0.082704 -0.010644 -5543.800000 0 0 1
-14.036263 -13.211090 18.058891 26.413502 0.755123 0.817977 0.099568 -0.016078 1122490.000000 0 0 1
-15.367063 -13.576990 18.864691 27.863199 0.723631 0.827054 0.061199 -0.004928 334830.000000 0 0 1
-15.731563 -14.950390 18.911491 28.786120 0.759943 0.854009 0.064494 -0.014321 444533.000000 0 0 1
-16.648463 -15.077290 20.021591 30.089202 0.735915 0.842756 0.058092 -0.007677 40473.400000 0 0 1
-17.045663 -16.497190 20.228691 31.175501 0.769048 0.864705 0.048323 -0.021941 -539255.000000 0 0 1
-18.064463 -16.866590 19.341091 31.382869 0.751119 0.906768 0.047318 -0.011962 -381530.000000 0 0 1
-18.445663 -18.161890 19.561391 32.446028 0.777647 0.923678 0.053115 -0.021839 -1017430.000000 0 0 1
-19.709263 -18.588190 18.855391 33.007599 0.756134 0.962776 0.056188 -0.022036 -820200.000000 0 0 1
-19.495363 -18.688790 17.438091 32.146960 0.764278 0.997447 0.057702 -0.026502 8278.350000 0 0 1
-19.963663 -17.556790 16.771191 31.433446 0.721338 1.008009 0.055990 -0.031827 -672784.000000 0 0 1
-19.517063 -17.476890 15.289091 30.333376 0.730305 1.042532 0.064952 -0.031546 -144437.000000 0 0 1
-20.038663 -18.532690 14.456891 30.887057 0.746374 1.083706 0.072931 -0.025186 76964.500000 0 0 1
-19.528063 -18.499390 13.132591 29.933887 0.758354 1.116623 0.079461 -0.028439 105987.000000 0 0 1
-19.651163 -19.816390 12.394891 30.536713 0.789585 1.152832 0.091802 -0.026271 -409883.000000 0 0 1
-18.786463 -20.791890 12.873291 30.837566 0.836025 1.140154 0.096325 -0.022223 -473147.000000 0 0 1
-18.770563 -21.956090 12.053291 31.299932 0.863456 1.175491 0.084183 -0.013656 -364346.000000 0 0 1
-17.840163 -23.088390 12.518991 31.750123 0.912931 1.165493 0.081098 -0.008687 -64747.400000 0 0 1
-17.769463 -24.324590 11.869791 32.377947 0.939883 1.195443 0.085675 -0.020582 -984231.000000 0 0 1
-16.914363 -24.304490 10.822891 31.526796 0.962803 1.220377 0.065864 -0.016674 -1069890.000000 0 0 1
-17.122663 -25.396290 9.772691 32.150624 0.977583 1.261944 0.062852 -0.015597 643579.000000 0 0 1
-18.382763 -25.359760 9.071891 32.608934 0.943567 1.288874 0.063699 -0.015063 471746.000000 0 0 1
-18.363563 -26.298100 8.011591 33.060491 0.961222 1.326028 0.077785 -0.022795 -252929.000000 0 0 1
-19.608263 -26.252850 7.140491 33.536290 0.929282 1.356236 0.067029 -0.023387 -244134.000000 0 0 1
-19.693063 -25.065090 6.379991 32.508149 0.904850 1.373256 0.066213 -0.020055 -423463.000000 0 0 1
-20.676063 -25.226680 5.404891 33.062030 0.884211 1.406582 0.074412 -0.017959 -356845.000000 0 0 1
-21.051863 -23.908190 4.761291 32.209508 0.848843 1.422430 0.076371 -0.018802 -54720.900000 0 0 1
-21.762863 -24.066590 3.548291 32.640670 0.835623 1.461873 0.072362 -0.025317 -100168.000000 0 0 1
-21.969763 -22.733990 3.074891 31.764127 0.802492 1.473841 0.066475 -0.016442 339653.000000 0 0 1
-22.623463 -22.747690 1.662591 32.125421 0.788136 1.519020 0.041324 -0.013982 140115.000000 0 0 1
-21.689963 -23.169090 0.698291 31.745060 0.818359 1.548798 0.043374 -0.023124 143092.000000 0 0 1
-22.225763 -23.077890 -0.584109 32.045510 0.804205 1.589025 0.043013 -0.021251 -211578.000000 0 0 1
-21.465063 -23.968390 -1.601109 32.214844 0.840441 1.620518 0.053471 -0.020814 -248660.000000 0 0 1
-20.212663 -23.388690 -1.937609 30.973164 0.858112 1.633395 0.059192 -0.023507 377629.000000 0 0 1
-19.382163 -24.045790 -2.886709 31.019371 0.892376 1.663993 0.065784 -0.021912 151808.000000 0 0 1
-19.100863 -25.564790 -2.803809 32.035337 0.929118 1.658431 0.075079 -0.016409 -653964.000000 0 0 1
-20.199463 -26.336320 -3.250709 33.349470 0.916516 1.668425 0.091786 -0.026901 -72024.000000 0 0 1
-19.804463 -27.611470 -3.721709 34.182761 0.948583 1.679889 0.084325 -0.027362 -13827.000000 0 0 1
-21.000163 -28.469730 -4.209209 35.626532 0.935258 1.689221 0.083228 -0.028388 346947.000000 0 0 1
-21.651763 -27.943370 -5.360409 35.754227 0.911583 1.721288 0.072246 -0.023015 -69937.900000 0 0 1
-22.642863 -28.750250 -5.942009 37.075377 0.903680 1.731759 0.078788 -0.032789 -10901.100000 0 0 1
-23.241363 -28.087100 -7.201409 37.160549 0.879526 1.765822 0.066623 -0.017518 -69221.100000 0 0 1
-22.245863 -27.929020 -8.183509 36.631658 0.898184 1.796097 0.085218 -0.015074 325959.000000 0 0 1
-22.797863 -27.999890 -9.507609 37.338064 0.887449 1.828267 0.084868 -0.012064 -96805.300000 0 0 1
-23.530763 -26.755340 -9.970209 36.999326 0.849435 1.843639 0.058673 -0.008845 -215077.000000 0 0 1
-22.743063 -25.598070 -10.262209 35.746623 0.844389 1.861975 0.058079 -0.003866 319559.000000 0 0 1
-22.351063 -24.694290 -9.255509 34.569386 0.835165 1.841840 0.049388 -0.000801 79142.100000 0 0 1
-22.100063 -23.276690 -9.819109 33.565339 0.811323 1.867675 0.049043 0.003129 425469.000000 0 0 1
-23.317863 -22.601390 -10.121409 34.014534 0.769797 1.872934 0.045017 0.001739 251619.000000 0 0 1
-23.138763 -21.239990 -10.427809 33.094996 0.742639 1.891345 0.053473 0.007020 203181.000000 0 0 1
-24.425863 -20.361990 -10.515909 33.493548 0.694910 1.890166 0.071431 0.004274 106699.000000 0 0 1
-25.281303 -20.787290 -11.582609 34.719052 0.688155 1.910926 0.059219 0.009979 1113290.000000 0 0 1
-26.480783 -20.016690 -11.809209 35.232899 0.647263 1.912588 0.058089 -0.000233 642104.000000 0 0 1
-26.446693 -18.449690 -11.940509 34.385962 0.609126 1.925433 0.058190 -0.008859 -1240420.000000 0 0 1
-25.694603 -18.028590 -13.087109 34.007574 0.611832 1.965819 0.063521 0.004419 689802.000000 0 0 1
-25.173283 -16.732990 -12.951209 32.884966 0.586648 1.975595 0.074038 -0.006521 -131121.000000 0 0 1
-24.149763 -16.392090 -11.839109 31.497241 0.596334 1.956140 0.049697 -0.007354 -815231.000000 0 0 1
-24.644663 -16.324990 -10.518909 31.376937 0.585053 1.912660 0.083703 -0.015158 190212.000000 0 0 1
-23.569263 -16.204390 -9.623509 30.177879 0.602302 1.895357 0.074582 -0.013152 -212751.000000 0 0 1
-23.951563 -16.570990 -8.196509 30.256534 0.605238 1.845125 0.063795 -0.023442 -139629.000000 0 0 1
-24.149763 -17.984890 -8.168009 31.199098 0.640115 1.835686 0.060143 -0.012876 265752.000000 0 0 1
-24.731963 -18.259990 -6.878209 31.502492 0.635981 1.790908 0.063484 -0.006760 53125.700000 0 0 1
-25.211523 -19.707890 -6.737109 32.701842 0.663483 1.778298 0.065327 -0.009259 402646.000000 0 0 1
-26.418303 -19.982590 -7.450409 33.952014 0.647579 1.792036 0.052921 -0.019157 503043.000000 0 0 1
-27.003283 -21.265190 -7.431309 35.165466 0.667075 1.783726 0.045591 -0.005924 326210.000000 0 0 1
-26.138263 -22.396790 -8.066809 35.353902 0.708462 1.800997 0.027810 0.001420 148890.000000 0 0 1
-26.810553 -23.628890 -7.862609 36.591677 0.722403 1.787359 0.027999 0.000872 -285323.000000 0 0 1
-26.365613 -24.594490 -8.754709 37.103631 0.750657 1.808995 0.025351 0.005792 73481.400000 0 0 1
-27.044363 -26.008130 -8.641509 38.503196 0.765868 1.797161 0.025725 -0.004905 -74761.000000 0 0 1
-26.813983 -26.611670 -7.338709 38.484118 0.781611 1.762666 0.047922 -0.025601 240413.000000 0 0 1
-27.323713 -27.949170 -7.233109 39.749959 0.796713 1.753781 0.054956 -0.028423 76214.600000 0 0 1
-26.868793 -28.467610 -5.848809 39.579609 0.814283 1.719113 0.071994 -0.036612 -100089.000000 0 0 1
-27.642383 -27.973960 -4.774309 39.616131 0.791360 1.691604 0.060810 -0.033491 -92797.300000 0 0 1
-27.162953 -28.216920 -3.486509 39.321449 0.804427 1.659580 0.055062 -0.036816 -307847.000000 0 0 1
-27.382213 -29.591640 -2.865309 40.418569 0.824158 1.641747 0.063566 -0.025149 -261558.000000 0 0 1
-26.683913 -30.649370 -3.545809 40.792007 0.854453 1.657830 0.085646 -0.037921 210678.000000 0 0 1
-26.749263 -31.965560 -3.000509 41.789032 0.874007 1.642660 0.075314 -0.040310 -153770.000000 0 0 1
-25.897223 -32.011780 -1.725909 41.211636 0.890597 1.612688 0.083605 -0.039809 407147.000000 0 0 1
-24.503663 -31.748770 -1.916309 40.150792 0.913489 1.618542 0.087199 -0.047440 274756.000000 0 0 1
-23.808263 -31.944380 -0.708609 39.846944 0.930308 1.588581 0.123063 -0.032027 349380.000000 0 0 1
-22.592863 -30.979330 -0.567209 38.346813 0.940683 1.585588 0.119404 -0.031227 328645.000000 0 0 1
-22.931163 -29.630190 -0.292009 37.468275 0.912166 1.578590 0.091424 -0.031122 -159030.000000 0 0 1
-23.373163 -28.913620 -1.439509 37.207182 0.890967 1.609495 0.105134 -0.040339 -23451.800000 0 0 1
-23.934663 -27.472870 -1.192109 36.456108 0.854116 1.603502 0.062064 -0.029185 -36585.400000 0 0 1
-25.215833 -27.511140 -0.623409 37.324117 0.828903 1.587500 0.078223 -0.032011 -352789.000000 0 0 1
-25.816433 -26.350680 -0.054809 36.889694 0.795639 1.572282 0.063511 -0.035092 3236.980000 0 0 1
-25.116253 -25.709010 1.141191 35.959445 0.797060 1.539056 0.062933 -0.024190 -347717.000000 0 0 1
-25.319743 -26.455090 2.320791 36.692605 0.807323 1.507505 0.056244 -0.019527 36072.000000 0 0 1
-24.715663 -25.887650 3.488891 35.961184 0.808554 1.473625 0.063085 -0.016756 349089.000000 0 0 1
-25.592253 -24.784990 4.172791 35.870201 0.769375 1.454202 0.069848 -0.020931 191765.000000 0 0 1
-25.619493 -23.617390 3.407591 35.010730 0.744758 1.473312 0.055049 -0.020901 -522925.000000 0 0 1
-26.519773 -22.693590 3.887691 35.119959 0.707807 1.459872 0.050956 -0.013133 -799829.000000 0 0 1
-26.682333 -21.544390 2.864191 34.413823 0.679261 1.487472 0.050448 -0.011741 -654773.000000 0 0 1
-25.518553 -20.803990 2.819291 33.044681 0.683971 1.485375 0.042009 -0.005374 -755353.000000 0 0 1
-25.536043 -19.881890 1.767991 32.411492 0.661544 1.516221 0.036578 -0.007114 -1006490.000000 0 0 1
-24.493763 -18.818390 1.724891 30.936249 0.655106 1.515011 0.048027 -0.007797 -1381680.000000 0 0 1
-23.296263 -19.481890 1.462391 30.403922 0.696467 1.522679 0.046809 -0.013997 -101013.000000 0 0 1
-22.188263 -18.583290 1.761291 28.995859 0.697209 1.510016 0.067330 -0.012771 914564.000000 0 0 1
-20.806563 -19.249890 1.557191 28.388311 0.746556 1.515916 0.059796 -0.023357 -35309.400000 0 0 1
-20.283463 -19.440290 0.256891 28.096436 0.764175 1.561653 0.034935 -0.015465 -150465.000000 0 0 1
-19.277763 -20.415390 0.287491 28.080295 0.814051 1.560558 0.067705 -0.016746 -258236.000000 0 0 1
-18.685563 -20.644990 -1.102809 27.867222 0.835176 1.610380 0.067765 -0.022689 -161857.000000 0 0 1
-18.031863 -19.595790 -1.718909 26.685159 0.826937 1.635255 0.072902 -0.030476 -157220.000000 0 0 1
-18.115963 -19.857290 -3.096609 27.057145 0.831223 1.685495 0.079381 -0.024131 -130517.000000 0 0 1
-17.451163 -18.855390 -4.028409 26.005709 0.824056 1.726327 0.099655 -0.017900 902455.000000 0 0 1
-16.021263 -18.872090 -3.863809 25.055252 0.866918 1.725626 0.130726 -0.035785 1123550.000000 0 0 1
-15.328163 -18.427690 -5.049709 24.495549 0.876963 1.778433 0.127782 -0.018570 1200120.000000 0 1 0
-13.789563 -18.102090 -4.905709 23.278825 0.919807 1.783125 0.136345 -0.029298 1117250.000000 0 1 0
-12.989263 -19.295390 -4.928009 23.776423 0.978298 1.779574 0.108414 -0.024971 40649.300000 0 1 0
-11.703763 -18.932490 -5.387009 22.900592 1.017113 1.808256 0.096647 -0.032292 637843.000000 0 1 0
-10.657663 -20.133590 -5.475709 23.429268 1.083947 1.806690 0.100546 -0.037724 756593.000000 0 1 0
-10.947563 -21.099490 -6.463609 24.633633 1.092179 1.836294 0.090930 -0.028296 -169280.000000 0 1 0
-9.802163 -21.855490 -6.767109 24.890532 1.149191 1.846137 0.093883 -0.024188 -96544.200000 0 1 0
-10.119763 -23.019090 -7.651609 26.283745 1.156604 1.866189 0.091054 -0.011359 -282746.000000 0 0 1
-10.638563 -22.679790 -8.935109 26.596768 1.132192 1.913407 0.084895 -0.011520 -18938.200000 0 0 1
-10.444363 -23.678390 -9.945209 27.724683 1.155374 1.937685 0.094981 -0.009586 -325622.000000 0 0 1
-11.165963 -23.521990 -11.274009 28.373685 1.127590 1.979413 0.119981 -0.012251 -292682.000000 0 0 1
-10.671663 -22.526390 -12.047209 27.684976 1.128376 2.021005 0.099355 -0.012073 -772335.000000 0 0 1
-11.649063 -22.270090 -12.980109 28.286760 1.088855 2.047526 0.106799 -0.026036 -896607.000000 0 0 1
-11.288563 -21.215590 -14.005009 27.814981 1.081809 2.098448 0.098677 -0.011662 -436329.000000 0 0 1
-11.023963 -20.028190 -13.349909 26.474067 1.067629 2.099325 0.102454 -0.013726 -121491.000000 0 0 1
-11.017463 -18.910290 -14.220709 26.100041 1.043256 2.147011 0.095680 -0.003366 -177753.000000 0 0 1
-10.544863 -17.644290 -13.510109 24.597523 1.032117 2.152259 0.112633 -0.000737 353761.000000 0 1 0
-11.481963 -17.043490 -12.566809 24.088186 0.977950 2.119639 0.118731 -0.010466 642666.000000 0 1 0
-10.873463 -16.175890 -11.586209 22.674476 0.978971 2.107121 0.102049 -0.015635 394766.000000 0 1 0
-10.276663 -14.831990 -12.114709 21.733935 0.964871 2.162059 0.089883 -0.013584 1303630.000000 0 1 0
-11.346663 -13.931490 -12.572409 21.929402 0.887299 2.181340 0.076683 -0.008031 1056680.000000 0 1 0
-11.620663 -14.010490 -13.944909 22.930201 0.878368 2.224519 0.095624 -0.017874 -1002940.000000 0 1 0
-12.974563 -13.486190 -14.328909 23.569774 0.804731 2.224255 0.095239 -0.022173 -942375.000000 0 1 0
-13.019563 -12.081790 -14.139009 22.702208 0.748056 2.243117 0.072783 -0.005544 163619.000000 0 1 0
-14.072763 -11.467190 -14.881909 23.473609 0.683730 2.257491 0.084757 -0.011187 257852.000000 0 1 0
-14.318463 -10.029490 -14.393109 22.644440 0.611034 2.259599 0.073165 -0.018052 60717.600000 0 1 0
-13.168963 -9.236190 -14.611309 21.730604 0.611638 2.308221 0.052241 -0.005898 230988.000000 0 1 0
-13.272963 -8.370590 -15.687109 22.188369 0.562652 2.356039 0.061666 -0.017861 144216.000000 0 1 0
-12.171563 -7.251390 -15.771809 21.200933 0.537300 2.409714 0.046392 -0.007181 311133.000000 0 1 0
-10.896563 -7.826390 -15.872209 20.782553 0.622866 2.439864 0.044645 -0.005389 -506927.000000 0 1 0
-9.866263 -6.879990 -15.765009 19.829597 0.608928 2.489844 0.028403 0.006527 84599.000000 0 1 0
11.440237 21.983710 16.052391 29.526967 1.090965 0.996014 0.093641 -0.015551 -1049830.000000 0 0 1
12.405437 22.017310 17.020991 30.469180 1.057693 0.978064 0.107570 -0.026086 -691078.000000 0 0 1
12.741237 20.743510 17.502591 29.982879 1.019981 0.947453 0.089753 -0.024185 -587371.000000 0 0 1
13.927837 20.795010 18.429891 31.081795 0.980650 0.936081 0.092880 -0.029731 86180.800000 0 0 1
15.194637 21.041010 17.815191 31.479868 0.945363 0.969244 0.082435 -0.019338 -133089.000000 0 0 1
16.249237 20.760510 18.670091 32.304934 0.906694 0.954603 0.100508 -0.030303 -723315.000000 0 0 1
17.575837 21.305910 18.141291 33.044792 0.881039 0.989640 0.083179 -0.019620 -1512420.000000 0 0 1
17.771937 22.652910 18.353291 34.144390 0.905558 1.003303 0.090680 -0.014719 -78624.900000 0 0 1
18.937137 23.113310 17.704291 34.731573 0.884387 1.035906 0.077279 -0.009361 693851.000000 0 0 1
20.312637 22.762710 18.357491 35.605360 0.842216 1.029109 0.060175 -0.011486 -279663.000000 0 0 1
20.608437 21.379310 18.372291 34.918815 0.803756 1.016738 0.061111 -0.002761 -666234.000000 0 0 1
21.910237 21.135110 18.810091 35.785065 0.767393 1.017328 0.070196 -0.008903 -348202.000000 0 0 1
22.303437 19.635710 18.645191 35.080586 0.721874 1.010431 0.056915 -0.013797 -143556.000000 0 0 1
22.235737 19.181610 17.320891 34.093627 0.711791 1.037890 0.031488 -0.006880 91982.600000 0 0 1
21.992137 17.764610 17.282091 33.134666 0.679461 1.022105 0.026956 -0.006127 -254106.000000 0 0 1
23.126937 16.796310 17.725091 33.632575 0.628138 1.015704 0.010673 -0.002005 323397.000000 0 0 1
24.249037 16.933910 16.850691 34.039960 0.609607 1.052931 0.021786 -0.015744 339829.000000 0 0 1
25.076337 15.786110 16.970091 34.146858 0.561845 1.050689 0.014015 -0.011976 -877463.000000 0 0 1
26.145637 15.639510 15.845991 34.340705 0.539072 1.091185 0.123640 -0.041357 646581.000000 0 0 1
27.259337 16.582610 16.010691 35.698692 0.546520 1.105715 0.104970 -0.036131 817072.000000 0 0 1
28.149437 16.408010 17.069691 36.782984 0.527743 1.088218 0.107136 -0.051538 -1487000.000000 0 0 1
29.185337 15.371310 16.742891 36.991694 0.484762 1.101104 0.116349 -0.058204 -1214160.000000 0 0 1
30.079237 15.756110 15.684591 37.403501 0.482522 1.138084 0.169247 -0.051562 288614.000000 0 0 1
30.191737 14.770810 14.673091 36.674479 0.454997 1.159181 0.193114 -0.061674 261617.000000 0 0 1
29.100137 14.782010 13.561291 35.344510 0.470004 1.177009 0.154446 -0.040828 -38676.900000 0 0 1
29.552737 15.664410 12.570091 35.731571 0.487397 1.211311 0.162847 -0.031429 72603.900000 0 0 1
28.772137 15.797910 11.392791 34.744863 0.502129 1.236718 0.135079 -0.028927 -601582.000000 0 0 1
27.604337 16.750510 11.500691 34.276010 0.545410 1.228627 0.118957 -0.026860 -910847.000000 0 0 1
27.876437 18.108410 11.379991 35.135658 0.576091 1.240961 0.102758 -0.014646 137254.000000 0 0 1
28.394237 18.824510 12.526891 36.297629 0.585439 1.218434 0.107429 -0.015308 -19879.200000 0 0 1
27.590737 18.676910 13.842491 36.078945 0.595072 1.177027 0.098041 -0.016574 -82999.400000 0 0 1
26.373437 19.391210 13.826891 35.535336 0.633998 1.171139 0.097290 -0.003839 127047.000000 0 0 1
25.695637 19.450110 15.080591 35.580848 0.647929 1.133115 0.079839 -0.008507 52836.100000 0 0 1
26.399937 20.222710 16.218591 36.999424 0.653671 1.117037 0.077935 -0.012054 -168822.000000 0 0 1
26.664037 21.626210 15.965991 37.862603 0.681450 1.135496 0.055104 -0.001200 327441.000000 0 0 1
25.575037 22.475610 16.296591 37.746714 0.720984 1.124381 0.070205 -0.009427 168412.000000 0 0 1
25.853637 24.006510 15.895591 38.696161 0.748369 1.147487 0.063110 0.000284 -15748.000000 0 0 1
25.804837 24.241010 14.511791 38.263667 0.754160 1.181802 0.112390 -0.013263 156465.000000 0 0 1
25.607037 25.584710 14.241691 38.898888 0.784962 1.195959 0.111692 -0.019422 -300536.000000 0 0 1
25.224737 26.053510 12.806791 38.458895 0.801559 1.231314 0.089722 -0.024117 75541.700000 0 0 1
23.998637 25.429710 12.456691 37.118376 0.814343 1.228561 0.099811 -0.012225 341471.000000 0 0 1
23.747437 25.348010 11.086391 36.460532 0.817988 1.261839 0.086554 -0.030031 -413157.000000 0 0 1
22.784137 24.238410 10.631591 34.923461 0.816315 1.261461 0.076593 -0.033121 -1199630.000000 0 0 1
21.440937 24.569110 10.854691 34.368288 0.853283 1.249460 0.074020 -0.026096 -349936.000000 0 0 1
20.637237 23.388110 11.050391 33.090941 0.847801 1.230316 0.085216 -0.020726 343518.000000 0 0 1
20.283237 22.567310 9.773091 31.877994 0.838651 1.259201 0.088783 -0.015339 -812246.000000 0 0 1
19.443537 23.245710 8.803091 31.558019 0.874230 1.288096 0.075721 -0.007116 471599.000000 0 0 1
20.073337 23.940010 7.738391 32.186109 0.873025 1.327991 0.071706 -0.010996 91336.100000 0 0 1
19.017337 24.403510 6.667891 31.648873 0.908814 1.358522 0.065284 -0.004851 -168878.000000 0 0 1
18.466237 23.226610 6.087391 30.290818 0.899083 1.368454 0.058236 0.003202 446319.000000 0 0 1
17.559137 23.406110 5.000691 29.684612 0.927171 1.401528 0.086873 -0.017359 17652.300000 0 0 1
16.215137 24.105910 5.215991 29.516642 0.978654 1.393150 0.070719 -0.008756 -760271.000000 0 0 1
16.320637 25.525510 5.299191 30.757052 1.001919 1.397640 0.072855 -0.019619 990564.000000 0 0 1
15.010137 26.010510 5.644691 30.556724 1.047401 1.385001 0.070603 -0.020340 759141.000000 0 0 1
14.578037 27.275510 4.933691 31.317949 1.079952 1.412602 0.078982 -0.021471 -443980.000000 0 0 1
14.178837 27.166610 3.599091 30.854782 1.089766 1.453884 0.078958 -0.017836 236570.000000 0 0 1
13.915137 28.426710 3.126591 31.803843 1.115577 1.472329 0.070455 -0.019840 -293130.000000 0 0 1
13.232837 28.350310 1.711291 31.333314 1.134091 1.516153 0.079330 -0.022141 -135548.000000 0 0 1
14.005337 27.906110 0.613491 31.229422 1.105651 1.551150 0.111662 -0.026990 -172034.000000 0 0 1
14.252237 26.542210 0.540491 30.131500 1.078016 1.552858 0.078864 -0.021420 315817.000000 0 0 1
15.394437 26.361710 -0.514009 30.531830 1.042247 1.587632 0.083696 -0.028246 277330.000000 0 0 1
15.053337 26.874810 -1.795309 30.855818 1.060210 1.629013 0.082911 -0.024732 10570.700000 0 0 1
16.176337 26.846010 -2.677409 31.457124 1.028496 1.656012 0.079171 -0.014790 408287.000000 0 0 1
15.867337 27.338010 -4.136609 31.878687 1.044904 1.700924 0.094270 -0.019928 -433529.000000 0 0 1
14.967037 26.559010 -4.873709 30.873067 1.057618 1.729322 0.098813 -0.022301 -575455.000000 0 0 1
14.717437 27.127410 -6.105909 31.460792 1.073706 1.766116 0.086714 -0.019622 290941.000000 0 0 1
13.403337 26.634410 -6.765309 30.574673 1.104565 1.793915 0.088311 -0.030994 304719.000000 0 0 1
13.430137 25.302010 -7.221009 29.541552 1.082819 1.817734 0.096118 -0.027603 -383630.000000 0 0 1
12.161537 24.965910 -7.721109 28.823865 1.117501 1.841980 0.075120 -0.030339 -240551.000000 0 0 1
12.026537 23.536110 -8.137709 27.655169 1.098402 1.869474 0.082866 -0.035651 -258635.000000 0 0 1
12.686637 23.155110 -9.302209 27.993588 1.069568 1.909535 0.082473 -0.034080 -157517.000000 0 0 1
12.251237 21.926410 -9.759609 26.946433 1.061265 1.941408 0.089470 -0.034049 -856890.000000 0 0 1
12.717437 21.547310 -11.104409 27.373850 1.037607 1.988494 0.086816 -0.027707 -516815.000000 0 0 1
11.993337 20.509010 -11.703709 26.484645 1.041640 2.028518 0.096346 -0.028147 -267124.000000 0 0 1
12.254037 20.213810 -13.100109 27.025403 1.025815 2.076854 0.096898 -0.031702 -187949.000000 0 0 1
13.614437 19.607810 -13.501409 27.424572 0.963881 2.085539 0.100216 -0.028136 -251890.000000 0 0 1
14.680537 20.462010 -13.254709 28.458730 0.948453 2.055280 0.086653 -0.024252 -1036720.000000 0 0 1
15.920437 19.863510 -13.502409 28.815524 0.895147 2.058480 0.091563 -0.015956 -240958.000000 0 0 1
17.107437 20.758110 -13.138009 29.936112 0.881513 2.025135 0.093420 -0.012869 -653199.000000 0 0 1
17.447437 21.789210 -14.037109 31.244570 0.895606 2.036739 0.079495 -0.013048 -77614.100000 0 0 1
16.625837 22.942310 -14.103809 31.649415 0.943698 2.032670 0.075449 -0.015724 -47317.700000 0 0 1
17.387137 24.107910 -14.761509 33.187438 0.945969 2.031738 0.059260 -0.016009 -162024.000000 0 0 1
17.431537 24.194210 -16.158409 33.916257 0.946455 2.067376 0.053467 -0.014836 450271.000000 0 0 1
16.170237 24.385510 -16.827709 33.753540 0.985261 2.092718 0.070439 -0.010721 831702.000000 0 0 1
16.238037 24.231210 -18.388109 34.481125 0.980401 2.133270 0.048274 -0.001068 -31927.800000 0 0 1
16.536637 22.945510 -18.815409 33.970228 0.946318 2.157813 0.054828 0.001738 67693.900000 0 0 1
16.606137 22.958810 -20.260409 34.833245 0.944603 2.191540 0.050465 0.007586 -220424.000000 0 0 1
16.863837 21.621410 -20.950009 34.507641 0.908395 2.223218 0.057902 0.007723 -516997.000000 0 0 1
15.829037 20.705410 -20.860109 33.382879 0.918087 2.245767 0.073108 0.003628 -485531.000000 0 0 1
16.051437 19.684710 -21.832109 33.492946 0.886719 2.280807 0.071064 0.004651 -380900.000000 0 0 1
14.955337 18.674510 -22.143709 32.599744 0.895542 2.317550 0.061873 0.000631 -933773.000000 0 0 1
14.696537 17.785810 -21.007309 31.203049 0.880219 2.309386 0.067732 -0.002976 27518.100000 0 0 1
13.704837 16.822710 -21.248109 30.369529 0.887178 2.345707 0.055313 -0.010441 1410990.000000 0 0 1
12.193037 17.334410 -21.250209 30.012053 0.957792 2.357538 0.047533 -0.010776 811368.000000 0 0 1
11.558137 17.601710 -20.002409 29.043194 0.989761 2.330508 0.039333 -0.009387 -872099.000000 0 0 1
10.201737 17.563610 -20.309109 28.723088 1.044580 2.356136 0.037459 -0.002573 -875166.000000 0 0 1
9.401737 17.463410 -18.979409 27.451436 1.076928 2.334195 0.040544 -0.012719 -525364.000000 0 0 1
9.318537 16.126010 -18.483209 26.239519 1.046817 2.352379 0.039603 -0.033114 666432.000000 0 0 1
7.965037 15.654810 -18.535909 25.536148 1.100140 2.383094 0.047968 -0.015955 514674.000000 0 0 1
7.175937 15.662710 -17.246709 24.377521 1.141182 2.356728 0.045488 -0.022693 -339410.000000 0 1 0
7.105237 16.920510 -16.603009 24.747686 1.173238 2.306206 0.059313 -0.028214 -229728.000000 0 1 0
6.454537 16.919910 -15.338009 23.731813 1.206360 2.273530 0.049969 -0.036496 -163369.000000 0 1 0
6.138837 18.382310 -14.935209 24.467430 1.248488 2.227377 0.056158 -0.035970 239316.000000 0 1 0
7.292837 19.180910 -14.637109 25.205907 1.207463 2.190386 0.056715 -0.034206 568128.000000 0 0 1
7.963637 19.731110 -15.818309 26.513301 1.187183 2.210076 0.077675 -0.024949 723271.000000 0 0 1
9.232137 20.560010 -15.449109 27.324373 1.148746 2.171710 0.071138 -0.007471 245687.000000 0 0 1
8.914237 21.763610 -14.815609 27.796054 1.182047 2.132952 0.080347 -0.017907 51158.100000 0 0 1
8.658737 21.649510 -13.411309 26.898666 1.190332 2.092764 0.062513 -0.029351 -130704.000000 0 0 1
8.367137 22.986610 -12.750909 27.585846 1.221704 2.051301 0.073721 -0.028695 -404142.000000 0 0 1
7.077637 23.483110 -13.027109 27.771478 1.278062 2.059048 0.076822 -0.028733 -72209.900000 0 0 1
6.569037 24.401410 -11.982509 27.967152 1.307824 2.013572 0.069612 -0.030876 426974.000000 0 0 1
6.062737 23.745210 -10.691209 26.737497 1.320813 1.982159 0.061952 -0.040497 -406684.000000 0 0 1
7.056737 23.638610 -9.696109 26.506527 1.280692 1.945289 0.054944 -0.035694 -40796.300000 0 0 1
6.610437 22.910410 -8.559009 25.334589 1.289892 1.915416 0.057290 -0.045938 74839.100000 0 0 1
7.599637 22.971210 -7.359109 25.290067 1.251298 1.866056 0.052676 -0.043906 146029.000000 0 0 1
7.631037 24.234610 -6.754309 26.290108 1.265743 1.830624 0.052995 -0.042946 -138013.000000 0 0 1
8.719037 24.319510 -5.880209 26.495982 1.226551 1.794588 0.051386 -0.034339 -304970.000000 0 0 1
8.902637 25.733210 -5.324609 27.745387 1.237726 1.763904 0.041006 -0.029375 -35453.600000 0 0 1
9.381537 26.634410 -6.282109 28.928704 1.232133 1.789699 0.052162 -0.034381 -133909.000000 0 0 1
9.412337 27.932510 -5.712709 30.024195 1.245779 1.762234 0.047003 -0.031148 42781.900000 0 0 1
9.795537 28.946210 -6.787209 31.303384 1.244488 1.789352 0.053639 -0.021543 -138149.000000 0 0 1
11.120537 28.747110 -7.211409 31.655444 1.201686 1.800624 0.056261 -0.024455 -422072.000000 0 0 1
11.452737 29.949110 -7.992009 33.045221 1.205548 1.815069 0.052244 -0.017881 -47375.800000 0 0 1
12.855037 29.938910 -8.607509 33.699845 1.165225 1.829075 0.064253 -0.022404 95415.800000 0 0 1
13.935637 30.082310 -7.699109 34.035623 1.136978 1.798979 0.055150 -0.012993 -665008.000000 0 0 1
15.036337 30.572710 -8.389909 35.088069 1.113712 1.812246 0.054318 -0.011444 -399208.000000 0 0 1
16.290637 30.792610 -7.521809 35.639126 1.084185 1.783450 0.056617 -0.012951 -201886.000000 0 0 1
16.902337 29.618710 -7.081309 34.829613 1.052227 1.775537 0.061066 -0.012274 -80168.600000 0 0 1
18.030737 30.044410 -6.319009 35.604830 1.030277 1.749218 0.057628 -0.006038 -169026.000000 0 0 1
19.092137 29.018210 -6.002709 35.250514 0.988862 1.741917 0.052297 -0.006289 -712669.000000 0 0 1
18.771437 28.082410 -4.948109 34.139016 0.981566 1.716249 0.070397 -0.015614 4868.930000 0 0 1
19.796737 27.140610 -4.621809 33.909949 0.940601 1.707518 0.061522 -0.017389 126174.000000 0 0 1
20.032437 25.976010 -5.630409 33.282926 0.913871 1.740782 0.063746 -0.003460 -280936.000000 0 0 1
20.615237 26.310810 -6.831709 34.116257 0.906181 1.772407 0.048601 -0.004562 43202.700000 0 0 1
20.392637 25.293710 -7.811909 33.416423 0.892266 1.806754 0.046330 -0.017640 -646225.000000 0 0 1
20.829937 25.644710 -9.242109 34.306763 0.888630 1.843562 0.043481 -0.022303 316894.000000 0 0 1
22.211737 25.787410 -9.535609 35.345150 0.859755 1.843967 0.039769 -0.016758 289070.000000 0 0 1
22.999437 24.631510 -9.540009 35.024237 0.819650 1.846665 0.041036 -0.015879 257487.000000 0 0 1
24.533437 24.913010 -9.554309 36.246826 0.793074 1.837539 0.027056 -0.014915 516237.000000 0 0 1
25.229437 25.155610 -10.734709 37.209719 0.783933 1.863448 0.031334 -0.016155 756318.000000 0 0 1
26.662537 25.192410 -10.595509 38.181320 0.757055 1.851993 0.037879 -0.008723 1169390.000000 0 0 1
27.366437 25.345110 -11.938909 39.164193 0.747070 1.880569 0.046434 -0.014887 -24681.600000 0 0 1
27.243037 26.668310 -12.462809 40.108645 0.774738 1.886753 0.057352 -0.015678 -241191.000000 0 0 1
28.006637 26.766810 -13.631209 41.068768 0.762766 1.909126 0.050018 -0.013612 -24221.800000 0 0 1
27.611237 27.897810 -14.609809 41.882153 0.790561 1.927120 0.053204 -0.022270 -102382.000000 0 0 1
28.078837 29.208310 -14.288109 42.961570 0.805112 1.909833 0.066292 -0.026040 25049.200000 0 0 1
28.155337 30.123210 -15.380309 44.007780 0.819152 1.927824 0.060263 -0.011919 -301705.000000 0 0 1
28.717237 31.480410 -14.998409 45.173534 0.831268 1.909238 0.057559 -0.015161 -512204.000000 0 0 1
30.072337 31.422710 -14.668209 45.900855 0.807354 1.896064 0.066270 -0.027682 -501620.000000 0 0 1
30.541737 32.770010 -14.525409 47.092024 0.820579 1.884357 0.073319 -0.022026 18259.700000 0 0 1
16.578537 -32.352881 -28.194671 46.005394 -1.097255 2.230466 0.094229 -0.039762 43999.400000 0 0 1
17.687337 -33.080981 -27.685711 46.622868 -1.079801 2.206598 0.074522 -0.029866 339981.000000 0 0 1
17.907737 -32.864981 -26.303161 45.745495 -1.071886 2.183387 0.086388 -0.034690 -453571.000000 0 0 1
19.084737 -33.692181 -25.752921 46.503797 -1.055416 2.157695 0.022938 -0.019259 612055.000000 0 0 1
20.414537 -33.187181 -25.901891 46.787287 -1.019324 2.157489 0.024406 -0.013075 1147450.000000 0 0 1
21.003337 -33.226481 -27.228641 47.817759 -1.007089 2.176603 0.036971 -0.014965 706430.000000 0 0 1
22.474737 -32.646381 -27.226411 48.085106 -0.967878 2.172700 0.052047 -0.007488 985180.000000 0 0 1
22.547937 -31.199981 -27.375831 47.236473 -0.945003 2.188971 0.047748 -0.016274 -28787.200000 0 0 1
23.908037 -30.834581 -27.357771 47.653051 -0.911259 2.182305 0.013681 0.002767 -448247.000000 0 0 1
24.229337 -29.625981 -28.239051 47.562627 -0.885271 2.206475 0.000211 0.007219 -192471.000000 0 0 1
24.614237 -30.016681 -29.545621 48.783250 -0.883968 2.221380 -0.001847 -0.001396 -24008.700000 0 0 1
24.885437 -28.919481 -30.403671 48.785290 -0.860234 2.243642 0.013397 -0.016720 110390.000000 0 0 1
25.240337 -29.309581 -31.876271 50.122079 -0.859857 2.260065 0.029903 -0.004877 -1220840.000000 0 0 1
26.447037 -29.914881 -31.965311 51.148089 -0.846849 2.245872 0.036475 -0.020818 -1513260.000000 0 0 1
26.706737 -30.359681 -33.276251 52.366677 -0.849323 2.259384 0.034978 -0.018946 408818.000000 0 0 1
28.017137 -31.219781 -33.387771 53.613225 -0.839411 2.243052 0.017872 -0.022958 1099610.000000 0 0 1
29.138437 -30.370981 -33.662141 53.894199 -0.806107 2.245411 0.036000 -0.027738 685721.000000 0 0 1
30.351337 -31.092281 -33.939821 55.134790 -0.797457 2.233917 0.036464 -0.020915 607868.000000 0 0 1
31.553237 -30.158381 34.026123 55.343579 -0.762799 0.908644 0.057301 -0.032300 -346264.000000 0 0 1
31.659737 -29.515481 32.767544 54.288254 -0.750361 0.922807 0.061136 -0.026113 37988.100000 0 0 1
32.734737 -28.592581 32.832563 54.470872 -0.717959 0.923848 0.078697 -0.031299 166491.000000 0 0 1
32.771137 -27.712581 31.559211 53.272116 -0.701957 0.936743 0.071129 -0.028726 -241937.000000 0 0 1
33.800037 -26.739381 31.496151 53.380188 -0.669294 0.939695 0.071168 -0.032339 255653.000000 0 0 1
33.958837 -26.082581 30.236301 52.418866 -0.654963 0.955965 0.083689 -0.029320 -387385.000000 0 0 1
34.612137 -26.878381 29.102621 52.606178 -0.660284 0.984575 0.087285 -0.028590 -265829.000000 0 0 1
33.828237 -27.898281 28.456731 52.272834 -0.689624 0.995136 0.073330 -0.034175 108085.000000 0 0 1
32.748437 -27.472281 27.696751 50.934235 -0.698008 0.995868 0.076869 -0.034822 -815210.000000 0 0 1
31.845237 -28.591581 27.211591 50.715563 -0.731614 1.004449 0.060252 -0.021778 25987.400000 0 0 1
30.711237 -28.088981 26.496151 49.337784 -0.740832 1.003877 0.038641 -0.016076 514872.000000 0 0 1
30.185437 -29.085681 25.614521 49.124750 -0.766846 1.022285 0.028099 -0.010425 -79143.600000 0 0 1
28.897237 -28.699081 24.864521 47.717208 -0.781958 1.022680 0.013723 -0.003675 -293591.000000 0 0 1
27.790937 -28.626781 25.707601 47.462717 -0.800212 0.998412 0.014086 -0.000294 -911845.000000 0 0 1
26.611137 -28.390481 24.987521 46.244440 -0.817738 0.999960 0.012198 0.012766 489141.000000 0 0 1
25.403537 -28.295781 25.999521 46.064802 -0.839206 0.971076 0.022566 0.009295 390241.000000 0 0 1
25.343637 -27.030681 26.607001 45.616775 -0.817598 0.948045 0.016126 0.005265 646317.000000 0 0 1
24.109537 -26.756481 27.302561 45.195231 -0.837389 0.922157 0.032157 -0.008320 555363.000000 0 0 1
24.025337 -25.530781 28.241741 45.018146 -0.815767 0.892662 0.035609 0.007984 103885.000000 0 0 1
22.777237 -25.412881 28.930901 44.739402 -0.840036 0.867607 0.059921 0.003713 497608.000000 0 0 1
22.648837 -24.285381 29.831481 44.639296 -0.820253 0.838904 0.061170 0.005876 -49403.600000 0 0 1
22.195837 -22.873381 29.265671 43.270385 -0.800430 0.828008 0.059802 -0.001744 88488.100000 0 0 1
23.156237 -22.275681 28.405601 42.887008 -0.766019 0.846864 0.068614 0.000296 331825.000000 0 0 1
22.830437 -20.900681 28.279001 41.925758 -0.741299 0.830507 0.089326 0.006754 32678.200000 0 0 1
23.501237 -19.834581 29.177881 42.391832 -0.700989 0.811667 0.080117 0.007331 -270291.000000 0 0 1
23.113837 -19.831181 30.525491 43.119958 -0.709108 0.784247 0.086910 0.005194 425210.000000 0 0 1
24.019237 -19.085881 31.354971 43.867172 -0.671445 0.774500 0.093961 -0.011512 43333.500000 0 0 1
23.525037 -18.912481 32.793854 44.570687 -0.677133 0.743991 0.123696 -0.016820 -151967.000000 0 0 1
23.636537 -20.046981 33.580511 45.697024 -0.703411 0.745349 0.098419 -0.011360 72698.900000 0 0 1
22.922137 -19.806381 -33.379531 45.076714 -0.712607 2.404618 0.102642 -0.018172 -280944.000000 0 0 1
22.957637 -21.007181 -32.406101 44.927832 -0.741063 2.376463 0.076651 -0.011043 -259343.000000 0 0 1
24.215837 -21.387181 -31.916161 45.414310 -0.723450 2.350091 0.064188 -0.007441 -415058.000000 0 0 1
24.106537 -22.388181 -30.891041 45.128840 -0.748457 2.324725 0.049742 -0.003979 -278965.000000 0 0 1
25.330737 -22.642981 -30.013431 45.333838 -0.729431 2.294352 0.046148 -0.007455 149646.000000 0 0 1
26.419237 -23.279381 -30.688251 46.708397 -0.722304 2.287652 0.047791 -0.007475 72224.800000 0 0 1
27.395737 -23.624181 -29.734801 46.827200 -0.711609 2.258792 0.052011 -0.017753 230113.000000 0 0 1
28.565237 -24.597981 -30.121471 48.252839 -0.710912 2.244958 0.043470 -0.016458 1524140.000000 0 0 1
29.633737 -24.015581 -30.948371 49.119326 -0.681058 2.252433 0.042504 -0.017790 1089350.000000 0 0 1
29.229737 -23.773681 -32.299371 49.626755 -0.682822 2.279494 0.044643 -0.013033 -184520.000000 0 0 1
29.434137 -25.007781 -33.197011 50.929353 -0.704272 2.280784 0.045172 -0.014766 -171409.000000 0 0 1
28.541337 -26.050981 -32.904981 50.754303 -0.739812 2.276171 0.064374 -0.018931 -137261.000000 0 0 1
28.772137 -27.285781 -33.625681 51.990731 -0.758890 2.274129 0.055919 -0.020700 87718.800000 0 0 1
28.154437 -27.354881 33.097744 51.346105 -0.770995 0.870295 0.057721 -0.016908 274523.000000 0 0 1
29.096037 -26.752881 32.211031 50.988690 -0.743468 0.887015 0.039275 -0.018864 328690.000000 0 0 1
28.643837 -26.737581 30.879641 49.889075 -0.750991 0.903371 0.043123 -0.008306 -75155.400000 0 0 1
29.521737 -25.969581 29.787631 49.328035 -0.721473 0.922451 0.048520 -0.017158 281353.000000 0 0 1
29.425237 -24.529681 29.836331 48.556734 -0.694912 0.909091 0.032323 -0.018949 181752.000000 0 0 1
29.937637 -23.985081 31.044291 49.348700 -0.675453 0.890427 0.036464 -0.014966 -1267420.000000 0 0 1
30.516137 -22.519381 30.998061 48.982006 -0.635744 0.885573 0.037218 -0.006525 30261.100000 0 0 1
31.796737 -22.216681 30.525221 49.359928 -0.609859 0.904064 0.054513 -0.010297 -559618.000000 0 0 1
32.814937 -22.844281 31.261291 50.753813 -0.608141 0.907218 0.054267 -0.017758 -935421.000000 0 0 1
34.222937 -22.284681 30.961821 51.248910 -0.577192 0.922103 0.065462 -0.029224 31028.700000 0 0 1
34.774637 -22.714081 29.707191 51.065860 -0.578607 0.949927 0.074577 -0.031642 603527.000000 0 0 1
36.093437 -22.219381 29.500871 51.640473 -0.551816 0.962739 0.069966 -0.033301 338090.000000 0 0 1
36.576837 -22.324081 28.062281 51.222272 -0.547983 0.991001 0.085426 -0.031866 -310805.000000 0 0 1
-36.595208 -23.642781 27.729641 51.644200 0.573602 1.003995 0.085529 -0.030739 276825.000000 0 0 1
-36.097608 -23.761081 26.392371 50.637768 0.582150 1.022541 0.082059 -0.021331 -32968.600000 0 0 1
-35.909408 -25.253981 25.939941 50.991467 0.612917 1.037109 0.069482 -0.034345 -438222.000000 0 0 1
36.333637 -25.890881 25.798301 51.536620 -0.619124 1.046525 0.081762 -0.035640 -271243.000000 0 0 1
36.380937 -27.219181 25.364871 52.036843 -0.642330 1.061640 0.080427 -0.024157 51996.300000 0 0 1
-36.480808 -28.185081 26.397211 53.123073 0.657809 1.050766 0.082981 -0.025588 -560024.000000 0 0 1
-36.307908 -29.560981 26.007801 53.558580 0.683325 1.063752 0.078943 -0.023229 839039.000000 0 0 1
-35.279208 -30.304281 26.709451 53.631770 0.709687 1.049488 0.083552 -0.025992 -627073.000000 0 0 1
-33.872408 -29.847981 26.821541 52.513209 0.722324 1.034730 0.096950 -0.017755 -2097030.000000 0 0 1
-33.249808 -29.829281 25.601691 51.485749 0.731225 1.050361 0.082334 -0.017570 728777.000000 0 0 1
-31.887808 -29.337581 25.719831 50.388845 0.743769 1.035115 0.063517 -0.005891 1375520.000000 0 0 1
-31.186208 -29.144681 24.327511 49.130640 0.751572 1.052778 0.061436 -0.001097 82329.700000 0 0 1
-31.035508 -30.353481 23.605301 49.414035 0.774289 1.072757 0.068796 -0.010225 250649.000000 0 0 1
-30.411408 -30.098081 22.367391 48.280932 0.780220 1.089108 0.061574 0.001194 -265814.000000 0 0 1
-30.316008 -31.357081 21.427791 48.595032 0.802277 1.114144 0.070765 -0.008226 654515.000000 0 0 1
-29.533008 -32.515881 21.888391 49.077314 0.833434 1.108507 0.070993 -0.012200 1626190.000000 0 0 1
-28.113508 -32.410081 21.622891 48.045105 0.856269 1.103971 0.091290 -0.009147 1032830.000000 0 0 1
-27.441408 -33.801081 21.511391 48.562166 0.888871 1.111892 0.079370 -0.002855 -164316.000000 0 0 1
-27.787408 33.611710 20.366891 48.132083 -0.879975 1.133882 0.069699 -0.008113 343005.000000 0 0 1
-28.953808 32.790810 20.469191 48.296460 -0.847461 1.133133 0.076757 -0.012460 463144.000000 0 0 1
-28.851908 31.623310 21.432191 47.872802 -0.831193 1.106616 0.086928 -0.012399 -59459.200000 0 0 1
-27.750808 30.803810 21.089491 46.516112 -0.837490 1.100242 0.070597 -0.011502 29229.900000 0 0 1
-27.599808 29.791010 22.059491 46.215526 -0.823560 1.073197 0.075330 -0.021097 486720.000000 0 0 1
-26.605408 28.622910 21.691691 44.695058 -0.821912 1.064060 0.074377 -0.014865 67744.200000 0 0 1
-25.244608 28.926610 21.796391 44.148858 -0.853263 1.054454 0.075446 -0.013968 -482562.000000 0 0 1
-24.509508 27.925310 21.120591 42.738955 -0.850450 1.053909 0.067713 -0.016902 -190840.000000 0 0 1
-23.006108 28.240010 21.022291 42.056104 -0.887178 1.047356 0.050999 -0.004382 -309246.000000 0 0 1
-22.482808 28.373010 22.312991 42.524980 -0.900706 1.018430 0.056339 -0.013853 316083.000000 0 0 1
-21.222008 29.028210 22.321391 42.323222 -0.939513 1.015255 0.059781 -0.005432 21326.100000 0 0 1
-20.562208 28.949910 23.700041 42.691845 -0.953212 0.982263 0.050829 -0.002224 -498106.000000 0 0 1
-20.327708 27.678110 24.320551 42.080669 -0.937333 0.954581 0.051930 -0.013988 413227.000000 0 0 1
-19.927308 27.731010 25.699191 42.738214 -0.947701 0.925649 0.054715 -0.012477 -572200.000000 0 0 1
-18.490108 28.040810 26.091951 42.531883 -0.987841 0.910352 0.056626 -0.006176 -848053.000000 0 0 1
-18.102008 29.428410 25.876251 43.165894 -1.019333 0.927969 0.035457 0.001145 -818891.000000 0 0 1
-16.847008 29.702110 26.363051 43.139860 -1.054844 0.913339 0.028125 0.003700 -1138780.000000 0 0 1
-16.685008 29.954310 27.922971 44.219255 -1.062583 0.887354 0.014780 0.008218 -355450.000000 0 0 1
-16.825108 28.780610 28.742311 44.017363 -1.041778 0.859288 0.032467 0.004311 160778.000000 0 0 1
-16.983608 29.162210 30.089441 45.213404 -1.043430 0.842635 0.028750 0.006656 -261212.000000 0 0 1
-16.890408 27.912810 30.946551 44.967765 -1.026626 0.811799 0.037641 0.007301 1236850.000000 0 0 1
-15.550308 27.345010 31.104481 44.238562 -1.053732 0.791038 0.035041 0.003845 1361380.000000 0 0 1
-15.371108 26.324410 32.013171 44.205075 -1.042291 0.760927 0.047516 0.003770 -253644.000000 0 0 1
-15.904508 26.497110 33.495603 45.574177 -1.030204 0.745176 0.037971 0.002750 -157388.000000 0 0 1
-17.280008 26.225210 33.583829 45.980799 -0.988184 0.751906 0.039843 -0.002848 -611640.000000 0 0 1
-17.820208 26.944510 -33.504861 46.541832 -0.986472 2.374436 0.042717 -0.006971 -556572.000000 0 0 1
-19.049908 26.403510 -32.798431 46.214515 -0.945792 2.359868 0.039338 -0.003856 -87262.400000 0 0 1
-20.173308 26.333310 -33.652361 47.253434 -0.917086 2.363377 0.041238 0.003126 -1656460.000000 0 0 1
-21.302308 25.923010 -33.096461 47.129253 -0.882931 2.349348 0.059697 -0.001861 -1959590.000000 0 0 1
-22.575208 25.963710 -33.944061 48.331703 -0.855095 2.349440 0.079470 -0.019072 -400588.000000 0 0 1
-22.790608 25.013010 33.149399 47.370298 -0.831855 0.795689 0.086118 -0.015207 -24841.300000 0 0 1
-22.916608 23.646410 33.546526 47.007372 -0.801070 0.776110 0.089544 -0.015919 -212091.000000 0 0 1
-23.141308 22.650410 32.404839 45.810859 -0.774678 0.785038 0.084175 -0.016565 744679.000000 0 0 1
-24.495908 22.570210 31.934531 46.144102 -0.744506 0.806456 0.106736 -0.029909 588179.000000 0 0 1
-24.520608 22.229910 30.587321 45.066765 -0.736439 0.824790 0.115250 -0.026845 649121.000000 0 0 1
-25.974108 22.048310 30.026951 45.413655 -0.703830 0.848396 0.116268 -0.024878 657439.000000 0 0 1
-26.401108 20.760310 30.407221 45.305718 -0.666357 0.835029 0.123386 -0.021763 -445520.000000 0 0 1
-27.727908 20.581410 29.969241 45.722934 -0.638531 0.856014 0.113618 -0.028385 -223755.000000 0 0 1
-28.243808 19.155410 30.200651 45.571063 -0.595956 0.846357 0.126539 -0.022600 -238499.000000 0 0 1
-28.639408 19.041710 31.568921 46.684036 -0.586763 0.828170 0.123830 -0.019353 196004.000000 0 0 1
-29.032708 17.749710 32.074771 46.762606 -0.548737 0.814948 0.101042 -0.007574 260804.000000 0 0 1
-29.957208 16.736710 31.335861 46.470291 -0.509488 0.830752 0.078178 -0.004687 369272.000000 0 0 1
-31.346208 17.019310 31.363441 47.496390 -0.497412 0.849534 0.066668 -0.000975 -144308.000000 0 0 1
-32.037508 15.962710 30.776631 47.206049 -0.462247 0.860625 0.062822 0.014308 -1567370.000000 0 0 1
-33.516508 16.145510 30.752231 48.267313 -0.448915 0.880036 0.057089 0.014238 -1369730.000000 0 0 1
-34.011008 16.107410 32.112711 49.471442 -0.442301 0.864374 0.044981 0.013359 1122360.000000 0 0 1
-35.440908 16.303610 32.131029 50.539773 -0.431157 0.881807 0.060231 0.004131 1026340.000000 0 0 1
-35.958408 16.314110 33.609150 51.852987 -0.425922 0.865628 0.061751 0.006497 932492.000000 0 0 1
36.115637 16.605010 33.734051 52.134938 0.430952 0.867084 0.044012 -0.003125 794386.000000 0 0 1
35.841637 17.057710 -33.078261 51.669718 0.444198 2.265537 0.039046 -0.005157 219617.000000 0 0 1
34.358437 17.406210 -32.801921 50.590951 0.468919 2.276245 0.035978 -0.014652 346063.000000 0 0 1
33.478637 16.300610 -32.765261 49.599308 0.453109 2.292413 0.043046 -0.011163 -38253.200000 0 0 1
32.373137 16.618110 -31.941171 48.419211 0.474255 2.291189 0.045103 -0.020921 423019.000000 0 0 1
31.244137 15.510810 -31.984091 47.326138 0.460795 2.312877 0.045279 -0.018946 624968.000000 0 0 1
30.486737 15.421410 -33.212071 47.647693 0.468309 2.342049 0.052657 -0.019551 205322.000000 0 0 1
29.864137 14.182510 -33.498571 47.065534 0.443368 2.362773 0.045020 -0.023634 -312164.000000 0 0 1
30.744837 13.005010 -33.936791 47.603372 0.400174 2.364432 0.044426 -0.017516 -130893.000000 0 0 1
31.431637 12.407610 -32.836201 47.118071 0.375972 2.341851 0.051259 -0.018126 137962.000000 0 0 1
31.996437 11.176310 -33.197641 47.442230 0.336050 2.345842 0.066083 -0.020521 -93930.100000 0 0 1
18.190837 -21.065690 9.932609 29.552099 -0.858500 1.228018 0.050654 -0.019109 164765.000000 0 0 1
17.748037 -22.250790 10.605509 30.373792 -0.897498 1.214115 0.045062 -0.023549 -347370.000000 0 0 1
18.790337 -23.089590 11.020509 31.743622 -0.887696 1.216242 0.032035 -0.025767 -553483.000000 0 0 1
18.436037 -24.419390 11.792009 32.790937 -0.924119 1.202944 0.036137 -0.026042 -81783.900000 0 0 1
17.785437 -25.470060 11.041209 32.968985 -0.961220 1.229301 0.035863 -0.017942 -160994.000000 0 0 1
16.405237 -25.484460 11.285509 32.341184 -0.998838 1.214344 0.048645 -0.019531 -393473.000000 0 0 1
15.636137 -26.342100 10.261009 32.306088 -1.035111 1.247580 0.052678 -0.021192 -93670.200000 0 0 1
15.570137 -25.826560 8.924709 31.449814 -1.028267 1.283066 0.059294 -0.026009 225588.000000 0 0 1
14.718337 -26.546390 8.037809 31.399787 -1.064552 1.311932 0.072144 -0.024263 -18051.000000 0 0 1
14.607137 -25.865620 6.645909 30.439560 -1.056713 1.350692 0.084986 -0.024598 -361855.000000 0 0 1
13.753837 -24.781090 6.854109 29.159034 -1.064112 1.333516 0.090345 -0.033283 -151479.000000 0 0 1
13.381237 -24.151590 5.643709 28.181700 -1.064847 1.369172 0.088881 -0.020868 280751.000000 0 0 1
12.589337 -22.798990 5.877009 26.698775 -1.066275 1.348856 0.099408 -0.022089 388412.000000 0 0 1
11.996237 -22.241490 4.719009 25.707248 -1.076156 1.386182 0.102738 -0.023166 -331212.000000 0 0 1
11.186437 -21.152390 4.937609 24.432354 -1.084336 1.367302 0.106173 -0.019578 -688720.000000 0 1 0
10.411937 -20.723290 3.678409 23.481777 -1.105209 1.413499 0.092626 -0.020551 443159.000000 0 1 0
11.175337 -20.056090 2.609609 23.107249 -1.062439 1.457620 0.081434 -0.018426 498664.000000 0 1 0
10.311037 -19.668490 1.575909 22.263208 -1.087944 1.499952 0.057729 -0.003680 578394.000000 0 1 0
11.238837 -19.259690 0.370109 22.302109 -1.042566 1.554200 0.053198 -0.001706 881960.000000 0 1 0
11.860437 -17.979990 0.611809 21.548185 -0.987670 1.542400 0.041676 -0.003338 -820144.000000 0 1 0
12.752737 -17.789690 -0.404291 21.892209 -0.948844 1.589265 0.054001 -0.003328 -497766.000000 0 1 0
13.878837 -16.721990 -0.169591 21.731907 -0.878043 1.578600 0.044471 -0.001606 894302.000000 0 1 0
14.881537 -17.307290 0.682209 22.835670 -0.860616 1.540917 0.049381 -0.007935 172558.000000 0 1 0
16.104637 -16.613990 0.681809 23.148409 -0.800965 1.541338 0.046969 -0.014631 248250.000000 0 1 0
17.245237 -17.233790 1.521609 24.427791 -0.785066 1.508466 0.028564 -0.002360 49970.100000 0 1 0
17.863337 -18.366290 0.875909 25.635651 -0.799280 1.536622 0.029620 -0.000457 555425.000000 0 0 1
18.907637 -18.928590 1.678209 26.806839 -0.785952 1.508152 0.018391 0.002503 523550.000000 0 0 1
19.445437 -20.208690 1.030709 28.063829 -0.804644 1.534061 -0.004016 -0.000229 -984.851000 0 0 1
18.463537 -21.203190 1.153909 28.139100 -0.854355 1.529777 0.005127 0.006653 81705.200000 0 0 1
18.947037 -22.340490 0.517209 29.297699 -0.867405 1.553142 0.014183 0.004019 -774581.000000 0 0 1
17.936637 -23.423890 0.433409 29.505752 -0.917297 1.556107 0.029343 0.002754 -885341.000000 0 0 1
17.865437 -24.055890 1.681209 30.011433 -0.932007 1.514748 0.017589 0.002874 298706.000000 0 0 1
16.763537 -24.954890 1.770809 30.114755 -0.979280 1.511960 0.035856 -0.002154 -30597.600000 0 0 1
16.775437 -25.805230 3.031609 30.927590 -0.994366 1.472616 0.040806 -0.008114 403947.000000 0 0 1
17.805937 -26.778710 2.984209 32.296380 -0.983998 1.478264 0.028162 -0.006610 11241.600000 0 0 1
18.930137 -26.431850 3.757809 32.727876 -0.949289 1.455723 0.019126 -0.001130 407560.000000 0 0 1
20.012937 -27.608060 3.866309 34.317210 -0.943557 1.457893 0.030706 -0.001726 259143.000000 0 0 1
20.612037 -27.813560 2.623809 34.717928 -0.933029 1.495149 0.025424 0.009451 -229023.000000 0 0 1
21.480337 -28.934540 2.572709 36.127985 -0.932192 1.499525 0.039913 0.015538 -803.390000 0 0 1
20.939037 -30.330720 3.025509 36.980394 -0.966571 1.488891 0.045691 0.010524 -357296.000000 0 0 1
20.827837 -30.458410 4.429909 37.163660 -0.971017 1.451312 0.074115 0.001007 -23129.100000 0 0 1
20.168537 -31.666970 4.698409 37.837044 -1.003689 1.446300 0.067039 -0.011357 -389862.000000 0 0 1
20.051637 -32.018210 6.203009 38.284608 -1.011293 1.408055 0.082371 -0.021924 181464.000000 0 0 1
21.223137 -32.615110 6.753909 39.494078 -0.993919 1.398941 0.064831 -0.034758 436277.000000 0 0 1
20.941837 -33.401700 7.930209 40.213459 -1.010782 1.372292 0.056646 -0.035409 158667.000000 0 0 1
22.107137 33.871548 8.326709 41.295779 0.992542 1.367769 0.066804 -0.039269 223495.000000 0 0 1
23.133437 -33.648730 8.976109 41.808653 -0.968510 1.354417 0.084003 -0.037931 25187.800000 0 0 1
24.151437 33.705795 9.429009 42.523861 0.949058 1.347203 0.110405 -0.040621 -123354.000000 0 0 1
25.147537 -33.843240 10.376809 43.421672 -0.931752 1.329483 0.101916 -0.034008 -46902.300000 0 0 1
25.883337 -32.803870 9.669909 42.889954 -0.902778 1.343383 0.074095 -0.023548 763562.000000 0 0 1
26.634737 -31.951480 10.565409 42.917760 -0.875901 1.322061 0.058850 -0.019929 347588.000000 0 0 1
27.266637 -30.760560 9.762909 42.249212 -0.845537 1.337610 0.052250 -0.022327 266871.000000 0 0 1
26.314637 -29.755230 9.413009 40.822035 -0.846684 1.338116 0.044356 -0.025364 499152.000000 0 0 1
26.823537 -29.024840 8.304109 40.384424 -0.824793 1.363692 0.053188 -0.023619 49796.400000 0 0 1
26.574637 -27.500320 8.361609 39.145822 -0.802515 1.355536 0.049847 -0.021583 -170925.000000 0 0 1
27.122037 -26.857830 9.480909 39.329830 -0.780504 1.327337 0.043530 -0.028973 -87714.800000 0 0 1
26.808537 -25.448280 9.493709 38.163374 -0.759374 1.319391 0.061919 -0.027205 300971.000000 0 0 1
27.685837 -24.638790 10.524009 38.527007 -0.727230 1.294121 0.082831 -0.030386 -59203.200000 0 0 1
29.023837 -24.503190 10.163709 39.320356 -0.701143 1.309343 0.058650 -0.024346 -1155320.000000 0 0 1
29.778837 -23.992490 11.222909 39.854389 -0.678200 1.285337 0.059035 -0.026383 221577.000000 0 0 1
31.168737 -23.576190 10.657109 40.508034 -0.647588 1.304577 0.064546 -0.025255 268217.000000 0 0 1
31.079737 -22.632290 9.614009 39.630793 -0.629403 1.325762 0.052976 -0.020673 257462.000000 0 0 1
32.355937 -22.469190 8.985009 40.404226 -0.606983 1.346544 0.045375 -0.027708 672244.000000 0 0 1
32.280837 -21.968190 7.509009 39.762281 -0.597541 1.380808 0.055643 -0.014819 -119643.000000 0 0 1
31.756537 -20.658890 7.366009 38.594370 -0.576755 1.378761 0.062593 -0.006850 -119330.000000 0 0 1
32.221337 -20.046390 6.192309 38.450188 -0.556545 1.409044 0.058329 -0.008207 146665.000000 0 0 1
31.691137 -18.601190 6.005209 37.234325 -0.530770 1.408807 0.065967 -0.002353 -62450.600000 0 0 1
32.312537 -17.807290 6.959709 37.545135 -0.503684 1.384349 0.058188 0.002162 -38180.300000 0 0 1
32.052337 -16.388390 6.782709 36.632455 -0.472647 1.384566 0.065192 0.005918 -82702.600000 0 0 1
32.397837 -15.466190 7.935809 36.766832 -0.445391 1.353243 0.063290 -0.034307 -324904.000000 0 0 1
33.724737 -15.612290 8.371709 38.094448 -0.433557 1.349226 0.064528 -0.024757 -424797.000000 0 0 1
33.978837 -15.034190 9.610909 38.379132 -0.416564 1.317682 0.060128 -0.035631 -308719.000000 0 0 1
35.432437 -14.941190 10.077409 39.752370 -0.399056 1.314495 0.046418 -0.037474 -16500.600000 0 0 1
36.233737 -14.055290 9.265709 39.953576 -0.370037 1.336754 0.072565 -0.026663 -285158.000000 0 0 1
-35.900908 -14.384790 9.419509 39.806087 0.381093 1.331895 0.072151 -0.036591 -32421.200000 0 0 1
-35.028008 -13.516790 8.436509 38.481680 0.368280 1.349767 0.081697 -0.033732 150323.000000 0 0 1
-35.509908 -13.698790 7.096509 38.716545 0.368183 1.386460 0.098082 -0.036555 297657.000000 0 0 1
-34.840108 -12.936190 6.082309 37.658633 0.355524 1.408574 0.106335 -0.031219 -844898.000000 0 0 1
-33.649208 -13.601990 5.432509 36.698713 0.384147 1.422220 0.098349 -0.023104 -991732.000000 0 0 1
-32.565508 -13.762990 6.271609 35.906341 0.399857 1.395230 0.090674 -0.025506 -684645.000000 0 0 1
-31.629208 -14.680390 5.780709 35.345965 0.434551 1.406512 0.080717 -0.014661 -421013.000000 0 0 1
-31.013908 -15.527090 6.861309 35.355772 0.464167 1.375492 0.066564 -0.016436 -229107.000000 0 0 1
-31.865608 -16.449190 7.501709 36.636982 0.476527 1.364580 0.048881 -0.031128 -365884.000000 0 0 1
-31.456308 -16.584290 8.831109 36.640503 0.485183 1.327379 0.042527 -0.031969 -473095.000000 0 0 1
-32.411408 -17.328890 9.724609 38.017862 0.490985 1.312131 0.019919 -0.027436 -617638.000000 0 0 1
-33.610208 -16.616090 10.046709 38.815936 0.459139 1.308986 0.045400 -0.027871 811657.000000 0 0 1
-34.570208 -17.248790 10.885909 40.138798 0.462807 1.296150 0.046942 -0.028326 247708.000000 0 0 1
-35.185008 -18.628990 10.350109 41.135737 0.486935 1.316454 0.041586 -0.032526 -724218.000000 0 0 1
-34.355208 -19.845290 10.323009 40.996102 0.523824 1.316252 0.049344 -0.027924 286087.000000 0 0 1
-33.773408 -20.266690 11.559409 41.048773 0.540477 1.285333 0.047739 -0.032571 -1109560.000000 0 0 1
-34.710808 -20.903090 12.567309 42.423067 0.542041 1.270045 0.048299 -0.027069 -112712.000000 0 0 1
-35.258608 -22.188090 12.317909 43.442050 0.561682 1.283304 0.025069 -0.023091 423219.000000 0 0 1
-36.405108 -22.185490 11.463409 44.146774 0.547307 1.308120 0.027078 -0.022716 238940.000000 0 0 1
36.449737 -23.548890 11.080109 44.787301 -0.573604 1.320807 0.024142 -0.012658 468.724000 0 0 1
35.916037 -24.221490 12.150009 44.991832 -0.593332 1.297352 0.072348 -0.001698 256816.000000 0 0 1
35.017437 -25.292530 11.837809 44.789135 -0.625526 1.303317 0.034778 0.012648 347943.000000 0 0 1
34.299437 -25.901370 13.050109 44.918122 -0.646792 1.276015 0.037785 -0.011644 -164681.000000 0 0 1
33.598437 -24.891990 13.679209 43.995305 -0.637631 1.254631 0.031929 -0.006207 -479429.000000 0 0 1
33.159537 -25.232620 14.979209 44.278851 -0.650470 1.225694 0.046024 0.004521 84780.300000 0 0 1
32.565337 -24.037390 15.807209 43.453022 -0.635860 1.198477 0.045396 -0.001099 119398.000000 0 0 1
33.444037 -22.987790 16.202809 43.697518 -0.602186 1.190932 0.062396 -0.004429 -76130.900000 0 0 1
33.939137 -22.194790 15.115209 43.277514 -0.579153 1.214012 0.051166 -0.005477 1278440.000000 0 0 1
35.384337 -21.595190 15.420809 44.229005 -0.547961 1.214657 0.052374 -0.012567 1117260.000000 0 0 1
35.467937 -20.314690 16.153709 43.950011 -0.520151 1.194426 0.068736 -0.007313 -177089.000000 0 0 1
34.795237 -20.253790 17.371409 43.848493 -0.527143 1.163456 0.057498 -0.006087 -257106.000000 0 0 1
34.809637 -18.876290 18.009309 43.501268 -0.496891 1.143958 0.063975 -0.006534 -153896.000000 0 0 1
34.114437 -17.787290 17.364009 42.210085 -0.480621 1.146838 0.071913 -0.014445 258987.000000 0 0 1
34.134437 -16.529290 18.047309 42.000983 -0.450961 1.126649 0.066877 -0.014078 1037610.000000 0 0 1
35.551437 -15.833090 18.273909 42.994501 -0.418986 1.131802 0.059469 -0.019065 1035760.000000 0 0 1
36.333237 -16.376390 19.309609 44.284887 -0.423459 1.119612 0.061475 -0.003186 -383649.000000 0 0 1
-36.183308 -15.467090 19.686109 44.000063 0.403956 1.106928 0.042425 -0.010850 -577293.000000 0 0 1
-35.848008 -15.548590 21.210109 44.460174 0.409247 1.073491 0.046410 -0.002149 -355476.000000 0 0 1
-34.948508 -16.571890 21.516009 44.260190 0.442779 1.063146 0.051661 0.004450 -23680.600000 0 0 1
-34.569108 -16.485090 22.890909 44.618103 0.444976 1.032073 0.050340 0.007838 -325677.000000 0 0 1
-33.599508 -17.632490 23.203809 44.477505 0.483278 1.021957 0.048846 0.012666 -686836.000000 0 0 1
-34.142308 -18.966590 23.253809 45.455125 0.507068 1.033777 0.046523 0.009476 447983.000000 0 0 1
-33.301708 -20.001290 23.770809 45.542362 0.540867 1.021662 0.030948 0.012880 -158630.000000 0 0 1
-32.106008 -20.506190 22.955909 44.477785 0.568392 1.028481 0.037013 0.017760 -178342.000000 0 0 1
-31.071008 -19.579790 22.739909 43.195824 0.562303 1.016391 0.044564 0.025773 -62332.200000 0 0 1
-29.876208 -20.316290 22.441209 42.531721 0.597187 1.014983 0.043495 0.024328 359862.000000 0 0 1
-28.699808 -19.310390 22.444709 41.235120 0.592265 0.995229 0.057742 0.023451 -258125.000000 0 0 1
-28.227508 -18.964390 23.681609 41.439823 0.591576 0.962500 0.045198 0.024528 -101162.000000 0 0 1
-27.219408 -18.000590 23.757309 40.364925 0.584288 0.941516 0.064433 0.013863 88804.600000 0 0 1
-26.668608 -17.523690 25.161509 40.637371 0.581344 0.903109 0.054448 -0.000818 -1057460.000000 0 0 1
-25.624808 -16.634690 25.165709 39.581013 0.575787 0.881748 0.057778 -0.004257 -539796.000000 0 0 1
-25.328208 -16.231490 26.476209 40.074544 0.569913 0.849080 0.051025 -0.011597 -71494.100000 0 0 1
-24.242208 -17.024690 27.195609 40.213504 0.612251 0.828095 0.049439 -0.004678 -452721.000000 0 0 1
-24.744908 -18.307990 27.488509 41.268767 0.636986 0.841849 0.053171 -0.004965 557273.000000 0 0 1
-23.723508 -18.913490 28.292909 41.485102 0.673060 0.820300 0.047944 -0.010265 311332.000000 0 0 1
-24.126808 -20.305990 28.890809 42.768154 0.699618 0.829125 0.041146 -0.000122 -16995.100000 0 0 1
-25.230008 -20.194790 29.767609 43.937381 0.675001 0.826437 0.040431 -0.009081 219001.000000 0 0 1
-25.641408 -21.402490 30.443009 45.192092 0.695535 0.831679 0.031155 -0.005280 170614.000000 0 0 1
-27.013708 -21.366690 31.173909 46.455231 0.669203 0.835169 0.042287 -0.009120 -119599.000000 0 0 1
-26.890408 -20.618190 32.363209 46.857029 0.654134 0.808367 0.048466 -0.019264 -67957.500000 0 0 1
-27.918408 -20.563390 33.311409 48.082642 0.634839 0.805439 0.053812 -0.026491 29442.900000 0 0 1
-29.222408 -19.777390 33.017609 48.324495 0.594977 0.818595 0.052128 -0.030859 57238.300000 0 0 1
-30.173608 -20.378890 32.196509 48.604125 0.594016 0.846747 0.064388 -0.031661 1323510.000000 0 0 1
-31.497108 -19.771190 32.357209 49.294592 0.560549 0.854753 0.070132 -0.034103 837772.000000 0 0 1
-32.475608 -20.402290 31.407309 49.571541 0.560922 0.884631 0.073133 -0.005907 -1483910.000000 0 0 1
-32.351608 -19.984290 30.078909 48.484422 0.553348 0.901565 0.063988 -0.015244 89602.500000 0 0 1
-33.374308 -20.485990 29.264909 48.887167 0.550523 0.929017 0.062834 -0.019513 -206043.000000 0 0 1
-33.639608 -19.615090 28.040309 47.985768 0.527897 0.946722 0.054621 -0.006078 112818.000000 0 0 1
-34.792608 -19.826390 27.241609 48.432599 0.517951 0.973433 0.036988 -0.012434 382572.000000 0 0 1
-35.250508 -18.649790 26.622609 47.949727 0.486628 0.982170 0.055301 -0.003444 796359.000000 0 0 1
-36.553708 -18.837590 25.738509 48.512877 0.475844 1.011547 0.041599 -0.002501 1214860.000000 0 0 1
35.730637 -19.126590 26.452109 48.396476 -0.491487 0.992532 0.063392 -0.007740 430364.000000 0 0 1
34.760737 -19.744190 25.636409 47.490708 -0.516560 1.000574 0.113715 -0.013227 318803.000000 0 0 1
33.588437 -20.378890 26.450109 47.361276 -0.545348 0.978250 0.099462 -0.019963 44106.500000 0 0 1
32.911637 -19.404090 27.177209 46.885981 -0.532724 0.952504 0.091954 -0.014733 -630318.000000 0 0 1
31.877437 -19.952090 27.896209 46.823662 -0.559246 0.932570 0.078134 -0.010892 -647703.000000 0 0 1
-30.285073 -5.783090 33.776560 45.732765 0.188684 0.739859 0.067231 -0.023224 -116993.000000 0 0 1
-31.016183 -5.834590 32.602794 45.376075 0.185941 0.769150 0.078352 -0.023160 -105722.000000 0 0 1
-30.737323 -4.677590 31.896821 44.542901 0.151021 0.772609 0.085548 -0.024524 7400.240000 0 0 1
-31.429923 -4.616490 30.500581 44.039045 0.145839 0.805736 0.084416 -0.031782 -109859.000000 0 0 1
-31.058323 -5.593190 29.562251 43.241530 0.178177 0.818038 0.072073 -0.038103 1225560.000000 0 0 1
-29.664823 -5.528590 29.124691 41.938224 0.184255 0.803118 0.052202 -0.032454 1602230.000000 0 0 1
-29.360483 -6.582190 27.976351 41.085757 0.220539 0.821770 0.046234 -0.029461 -71646.300000 0 0 1
-29.897463 -6.115590 26.778961 40.600142 0.201769 0.850539 0.062633 -0.033350 -101864.000000 0 0 1
-29.707433 -6.904390 25.625801 39.835711 0.228359 0.872012 0.072737 -0.026648 78516.500000 0 0 1
-30.491643 -6.312990 24.404041 39.561994 0.204156 0.906055 0.086683 -0.022531 416405.000000 0 0 1
-29.833173 -5.170990 23.888631 38.567137 0.171625 0.902813 0.100197 -0.025702 625247.000000 0 0 1
-30.614503 -4.678290 22.754891 38.430707 0.151640 0.937132 0.110521 -0.025195 318991.000000 0 0 1
-30.060883 -3.468990 22.116691 37.481177 0.114891 0.939645 0.122608 -0.027519 812959.000000 0 0 1
-28.744913 -3.741190 21.568491 36.131238 0.129424 0.931104 0.150028 -0.024391 715420.000000 0 0 1
-28.261853 -2.578490 21.013891 35.312385 0.090984 0.933424 0.158088 -0.026485 -678923.000000 0 0 1
-26.903883 -2.783590 20.369691 33.859882 0.103097 0.925309 0.153768 -0.023651 -532410.000000 0 0 1
-26.881643 -3.419090 19.107391 33.157281 0.126511 0.956645 0.171983 -0.026431 1140740.000000 0 0 1
-25.526323 -3.449890 18.577791 31.758924 0.134336 0.945962 0.132786 -0.016325 1182120.000000 0 0 1
-25.513793 -4.167790 17.201391 31.051763 0.161924 0.983685 0.136607 -0.018230 70258.000000 0 0 1
-26.212733 -3.425490 16.205291 31.007303 0.129944 1.020866 0.171230 -0.025906 97519.700000 0 0 1
-26.045873 -3.924590 14.929291 30.276619 0.149555 1.055151 0.163250 -0.029936 659107.000000 0 0 1
-27.360723 -4.080590 14.059091 31.030927 0.148049 1.100594 0.175722 -0.034980 738848.000000 0 0 1
-28.015933 -2.854190 13.797691 31.359451 0.101527 1.115214 0.185132 -0.034602 -181378.000000 0 0 1
-29.258503 -3.170590 13.211891 32.259366 0.107944 1.148833 0.175503 -0.031901 -247196.000000 0 0 1
-29.787253 -1.913690 12.484891 32.354523 0.064157 1.174637 0.166221 -0.017235 66787.900000 0 0 1
-28.982983 -1.438490 11.361191 31.163428 0.049592 1.197627 0.172537 -0.021349 607743.000000 0 0 1
-29.556963 -0.364090 10.659291 31.422398 0.012318 1.224702 0.173849 -0.013874 45179.500000 0 0 1
-30.790503 -0.632490 9.775991 32.311378 0.020539 1.263423 0.166453 -0.005141 65337.000000 0 0 1
-30.421803 -1.312790 8.601391 31.641641 0.043126 1.295494 0.134167 -0.011533 -46626.000000 0 0 1
-31.530863 -1.759790 7.851591 32.541353 0.055754 1.327111 0.124041 -0.011068 -81357.100000 0 0 1
-31.145063 -2.585390 6.574091 31.936153 0.082821 1.363463 0.134905 -0.017596 -250568.000000 0 0 1
-30.688993 -1.853990 5.441891 31.222841 0.060339 1.395610 0.150908 -0.033223 510937.000000 0 0 1
-31.593633 -0.847490 4.991691 31.996764 0.026818 1.414150 0.157807 -0.025773 -141014.000000 0 0 1
-31.282843 -0.351590 3.585391 31.489600 0.011239 1.456689 0.143887 -0.027153 -312456.000000 0 0 1
-31.771743 -1.164890 2.525191 31.893216 0.036648 1.491537 0.150806 -0.042852 344770.000000 0 0 1
-31.314833 -0.886690 1.188191 31.349909 0.028308 1.532886 0.157677 -0.055894 23020.100000 0 0 1
-32.279253 -1.508090 0.124891 32.314705 0.046686 1.566931 0.158264 -0.056254 -343510.000000 0 0 1
-33.559623 -0.968890 0.142691 33.573910 0.028863 1.566546 0.153498 -0.051544 -780717.000000 0 0 1
-34.261262 -1.364290 -0.974509 34.302260 0.039799 1.599210 0.150306 -0.053296 638898.000000 0 0 1
-35.767124 -0.870290 -0.963309 35.790677 0.024327 1.597715 0.136446 -0.041733 677707.000000 0 0 1
-36.593073 -1.617090 -0.116109 36.628971 0.044162 1.573966 0.134273 -0.033149 -317441.000000 0 0 1
35.595361 -1.066190 -0.133209 35.611575 -0.029944 1.574537 0.125885 -0.026287 31494.400000 0 0 1
34.545481 -2.117290 0.405491 34.612680 -0.061213 1.559081 0.124007 -0.022830 -123814.000000 0 0 1
34.699031 -2.514090 1.756191 34.834288 -0.072328 1.520359 0.125124 -0.027024 107252.000000 0 0 1
34.072621 -3.759190 2.005291 34.337971 -0.109884 1.512364 0.118400 -0.017302 -201959.000000 0 0 1
34.106031 -4.172090 3.512791 34.539360 -0.121722 1.468916 0.123776 -0.019528 93870.200000 0 0 1
33.251671 -3.411990 4.326691 33.705127 -0.102253 1.442072 0.126010 -0.027149 38510.100000 0 0 1
33.178581 -4.047190 5.626291 33.894736 -0.121382 1.404031 0.126488 -0.033911 -69881.600000 0 0 1
32.703381 -3.086990 6.736191 33.532327 -0.094115 1.368534 0.142003 -0.031030 -871767.000000 0 0 1
31.366821 -2.745590 6.661291 32.183669 -0.087309 1.362312 0.143107 -0.032221 -909279.000000 0 0 1
31.106121 -1.722490 7.568391 32.059917 -0.055318 1.332477 0.149786 -0.032966 -454920.000000 0 0 1
29.639581 -1.583090 7.994391 30.739571 -0.053361 1.307703 0.127062 -0.030833 -1017510.000000 0 0 1
28.841301 -1.042090 6.900991 29.673731 -0.036116 1.336085 0.132064 -0.034628 880676.000000 0 0 1
27.462481 -0.908190 7.262891 28.421159 -0.033058 1.312385 0.124382 -0.026641 370836.000000 0 0 1
26.776681 -2.238590 6.979791 27.761834 -0.083408 1.316653 0.142519 -0.043956 -1496070.000000 0 0 1
27.137081 -3.256090 7.880591 28.445158 -0.119416 1.290079 0.115658 -0.046625 237323.000000 0 0 1
26.661781 -4.517390 7.479491 28.057088 -0.167839 1.300952 0.129618 -0.058191 -425469.000000 0 0 1
26.990981 -5.644490 8.529091 28.863796 -0.206154 1.270823 0.110572 -0.032852 -111685.000000 0 0 1
26.169981 -5.604890 9.694491 28.465169 -0.210985 1.223269 0.109755 -0.025287 830379.000000 0 0 1
26.689381 -6.372590 10.773991 29.479007 -0.234380 1.196648 0.096349 -0.018574 -201823.000000 0 0 1
25.677381 -6.372690 11.939591 29.025729 -0.243268 1.146867 0.098453 -0.013910 -10772.500000 0 0 1
24.460381 -7.011990 11.588991 27.960382 -0.279180 1.143426 0.121681 -0.027667 369545.000000 0 0 1
23.563681 -6.689690 12.685191 27.584653 -0.276620 1.092954 0.135979 -0.027556 219535.000000 0 0 1
22.419581 -7.726790 12.754391 26.926110 -0.331896 1.077330 0.128523 -0.029603 15270.500000 0 0 1
22.809581 -9.036590 13.171391 27.846409 -0.377205 1.078102 0.105946 -0.030219 633814.000000 0 0 1
21.632481 -9.822490 13.301791 27.228353 -0.426227 1.060395 0.148440 -0.054641 230364.000000 0 0 1
22.005881 -11.098390 14.120691 28.404700 -0.467112 1.050514 0.121802 -0.048976 -160602.000000 0 0 1
22.256581 -10.731890 15.450591 29.141888 -0.449298 1.011978 0.110873 -0.044915 351282.000000 0 0 1
22.511981 -11.926990 16.214891 30.198759 -0.487207 1.003992 0.092813 -0.043576 -420897.000000 0 0 1
22.486281 -11.713090 17.758391 30.954640 -0.480227 0.959792 0.094533 -0.041636 -939385.000000 0 0 1
21.240981 -11.651990 18.333891 30.382227 -0.501738 0.922987 0.095601 -0.033015 -963100.000000 0 0 1
21.301581 -12.020890 19.742291 31.432741 -0.513770 0.891712 0.124083 -0.019858 227714.000000 0 0 1
21.722581 -10.896090 20.797291 31.986288 -0.464928 0.862957 0.081489 -0.013640 8780.440000 0 0 1
20.725481 -9.955990 21.154191 31.243673 -0.447824 0.827021 0.077740 -0.018275 101397.000000 0 0 1
20.669281 -8.863690 20.221991 30.244224 -0.405114 0.838441 0.071207 -0.013407 -377556.000000 0 0 1
21.633581 -7.704290 20.707491 30.921968 -0.342122 0.837033 0.059298 0.000057 1597000.000000 0 0 1
23.044181 -7.985490 20.708591 31.994501 -0.333580 0.866819 0.066282 -0.006189 887173.000000 0 0 1
23.637881 -8.149090 19.418291 31.657971 -0.331987 0.910466 0.073205 -0.015255 -922844.000000 0 0 1
25.038481 -8.757690 19.542691 32.947526 -0.336469 0.935836 0.074011 -0.016101 -347020.000000 0 0 1
25.019081 -10.048690 20.084991 33.620492 -0.381920 0.930537 0.059412 -0.021180 548324.000000 0 0 1
26.253781 -10.791990 19.951191 34.695505 -0.390008 0.958147 0.057898 -0.027180 825751.000000 0 0 1
26.098281 -12.227690 20.433591 35.329426 -0.438152 0.954063 0.022949 -0.026040 65964.500000 0 0 1
25.177781 -12.972090 19.622791 34.456490 -0.475749 0.964905 0.052442 -0.031566 422043.000000 0 0 1
25.259981 -14.318490 19.848191 35.171529 -0.515684 0.971180 0.027637 -0.029409 -317146.000000 0 0 1
24.241481 -15.082090 18.971891 34.279024 -0.556555 0.984290 0.069124 -0.030228 -235272.000000 0 0 1
24.419681 -14.970290 17.535291 33.584473 -0.549954 1.021456 0.047959 -0.031399 421958.000000 0 0 1
23.358781 -15.599790 16.823491 32.741655 -0.588810 1.031159 0.051742 -0.030276 -61289.100000 0 0 1
23.235581 -17.133590 16.981091 33.493426 -0.635379 1.039098 0.041663 -0.027225 -593156.000000 0 0 1
24.344181 -17.822790 16.467691 34.372603 -0.631957 1.071175 0.048627 -0.026031 -9626.460000 0 0 1
24.094981 -19.198290 16.610091 35.000537 -0.672772 1.076325 0.044827 -0.006493 138926.000000 0 0 1
25.261581 -20.150090 16.221491 36.156747 -0.673311 1.105549 0.034698 0.002446 92555.600000 0 0 1
25.409181 -20.247890 14.850991 35.723318 -0.672831 1.142059 0.048570 -0.017532 716956.000000 0 0 1
26.433381 -21.247090 14.572491 36.912328 -0.677052 1.164961 0.053014 -0.019148 632816.000000 0 0 1
26.914681 -21.210990 13.109691 36.690191 -0.667432 1.205413 0.055957 -0.031677 122304.000000 0 0 1
25.924881 -21.530390 12.145991 35.821533 -0.693059 1.224869 0.055753 -0.023582 -77651.600000 0 0 1
26.495381 -21.472490 10.879291 35.797095 -0.681065 1.261996 0.075946 -0.026785 -716600.000000 0 0 1
25.555181 -21.379390 9.653091 34.689015 -0.696661 1.288798 0.044265 -0.027510 -212762.000000 0 0 1
24.785281 -22.500490 9.448191 34.782906 -0.737117 1.295707 0.039344 -0.028460 -187132.000000 0 0 1
23.571381 -22.592390 10.193391 34.204259 -0.764194 1.268184 0.027265 -0.014340 -172413.000000 0 0 1
22.615181 -23.553790 9.476891 34.000572 -0.805725 1.288328 0.028899 -0.012859 -340978.000000 0 0 1
23.267481 -24.803190 9.335691 35.266543 -0.817334 1.302885 0.021530 -0.015123 161444.000000 0 0 1
23.111181 -25.368860 8.070091 35.253824 -0.831934 1.339835 0.029723 -0.004790 633019.000000 0 0 1
21.719381 -26.095580 7.830891 34.842986 -0.876668 1.344112 0.034983 -0.003398 894831.000000 0 0 1
20.679581 -25.157800 7.694791 33.462961 -0.882787 1.338771 0.018223 -0.000303 -519967.000000 0 0 1
19.426581 -25.807130 7.560791 33.174773 -0.925531 1.340868 0.047361 -0.020506 426011.000000 0 0 1
18.246481 -24.808790 7.458891 31.686672 -0.936650 1.333171 0.042165 -0.022083 -210443.000000 0 0 1
18.260481 -23.945890 6.347591 30.775684 -0.919297 1.363052 0.055375 -0.020311 147012.000000 0 0 1
17.197281 -22.995690 6.413491 29.422459 -0.928674 1.351053 0.076375 -0.015485 191319.000000 0 0 1
16.900381 -22.238190 5.110991 28.395109 -0.920944 1.389814 0.080755 -0.010757 -251224.000000 0 0 1
16.132281 -21.051890 5.207091 27.028621 -0.916938 1.376933 0.121004 -0.015095 187161.000000 0 0 1
15.853881 -20.445790 3.949891 26.172075 -0.911230 1.419297 0.116664 -0.013060 243906.000000 0 0 1
15.004181 -19.153290 3.953291 24.649594 -0.906276 1.409721 0.127544 -0.007771 350723.000000 0 1 0
15.793581 -18.039390 4.248291 24.349636 -0.851680 1.395428 0.082276 -0.008103 407235.000000 0 1 0
14.904781 -16.963590 4.427091 23.011193 -0.849912 1.377201 0.059051 0.000324 282464.000000 0 1 0
15.746581 -15.690990 4.554491 22.691526 -0.783630 1.368710 0.037079 -0.002934 -232225.000000 0 1 0
16.407681 -15.607990 5.776391 23.370666 -0.760425 1.321044 0.064654 -0.012407 363184.000000 0 1 0
17.349781 -14.511290 5.790091 23.347754 -0.696543 1.320188 0.056445 -0.017648 741359.000000 0 1 0
18.826081 -14.931690 5.631091 24.679665 -0.670543 1.340601 0.080289 -0.026851 -36835.800000 0 1 0
19.792881 -13.909890 5.655791 24.844137 -0.612584 1.341132 0.097459 -0.027555 1003580.000000 0 1 0
21.120481 -14.368890 5.318391 26.092624 -0.597402 1.365531 0.104688 -0.023208 606849.000000 0 0 1
22.103281 -13.214790 5.375191 26.307383 -0.538849 1.365025 0.105921 -0.025898 -578484.000000 0 0 1
22.368381 -12.758290 6.673691 26.601816 -0.518349 1.317214 0.129529 -0.034072 -14312.900000 0 0 1
23.291681 -11.720190 6.662191 26.911894 -0.466198 1.320640 0.129023 -0.039409 -389127.000000 0 0 1
23.452581 -10.920290 7.975691 27.071903 -0.435778 1.271748 0.136129 -0.039489 -267339.000000 0 0 1
24.124281 -11.633290 8.980991 28.248408 -0.449325 1.247252 0.124834 -0.037049 317117.000000 0 0 1
24.197181 -10.977790 10.186891 28.456778 -0.425910 1.204695 0.134502 -0.045658 78735.800000 0 0 1
24.698481 -11.822290 11.420291 29.668242 -0.446434 1.175661 0.111777 -0.034167 822362.000000 0 0 1
23.721781 -12.874990 11.740691 29.433520 -0.497260 1.160492 0.113494 -0.041588 1597000.000000 0 0 1
24.258381 -13.903790 12.647091 30.687674 -0.520446 1.146014 0.108259 -0.043806 200707.000000 0 0 1
23.182581 -14.961790 12.994791 30.498390 -0.573127 1.130640 0.084968 -0.044783 106055.000000 0 0 1
22.158881 -14.431390 13.812391 29.833926 -0.577267 1.089447 0.089368 -0.054285 599450.000000 0 0 1
20.968481 -15.265490 13.729191 29.346262 -0.629285 1.083957 0.082843 -0.049857 660028.000000 0 0 1
19.801281 -14.424090 14.278091 28.355052 -0.629561 1.043097 0.082622 -0.049399 -931146.000000 0 0 1
19.680181 -14.181290 15.664191 28.875342 -0.624410 0.997414 0.091564 -0.041749 -109094.000000 0 0 1
19.015481 -13.016690 16.064591 28.090814 -0.600269 0.962000 0.103872 -0.050324 416921.000000 0 0 1
17.449981 -13.098290 16.061291 27.093027 -0.643897 0.936240 0.128039 -0.044729 381543.000000 0 0 1
16.891281 -13.154390 14.768591 26.008934 -0.661660 0.966932 0.124983 -0.054279 2058030.000000 0 0 1
15.418281 -13.044190 14.818091 25.048954 -0.702179 0.937797 0.141983 -0.043979 2231970.000000 0 0 1
14.758381 -11.739990 14.385991 23.719062 -0.671978 0.919125 0.108789 -0.034311 -231513.000000 0 1 0
15.061381 -10.704190 15.269991 23.970763 -0.617874 0.880163 0.098011 -0.028298 145873.000000 0 1 0
14.841681 -9.423690 14.830991 23.000863 -0.565721 0.870033 0.082949 -0.024042 -605088.000000 0 1 0
15.231481 -8.261190 15.801091 23.450368 -0.496971 0.831443 0.089357 -0.024157 342043.000000 0 1 0
16.641181 -8.135890 15.908691 24.417372 -0.454729 0.861195 0.090126 -0.031815 325030.000000 0 1 0
17.216581 -8.932590 16.960791 25.765680 -0.478603 0.852277 0.102597 -0.029015 109972.000000 0 0 1
18.763481 -9.006590 16.788091 26.739987 -0.447525 0.892038 0.099804 -0.032598 382331.000000 0 0 1
19.395881 -7.792690 17.060291 26.981100 -0.382032 0.886271 0.082067 -0.024848 195571.000000 0 0 1
20.729081 -7.718590 16.598191 27.654500 -0.356450 0.927047 0.076146 -0.012861 -37639.400000 0 0 1
21.438481 -6.387790 16.704091 27.918435 -0.289583 0.929397 0.061159 -0.000494 -271651.000000 0 0 1
21.604081 -5.932790 18.003591 28.741322 -0.268008 0.893869 0.072160 -0.008294 211812.000000 0 0 1
22.085481 -4.636090 18.090791 28.922976 -0.206911 0.895048 0.079834 -0.008648 -146318.000000 0 0 1
-5.981863 -33.117481 -5.785991 34.147151 1.392098 1.741061 0.061144 -0.032173 253330.000000 0 0 1
-6.762663 -31.907681 -5.882791 33.142736 1.361942 1.749240 0.058810 -0.030635 354798.000000 0 0 1
-6.182263 -30.875381 -5.154691 31.907372 1.373177 1.733059 0.066053 -0.033823 -312007.000000 0 0 1
-6.891463 -29.510481 -5.496391 30.798881 1.341382 1.750218 0.067202 -0.029567 1451990.000000 0 0 1
-8.283263 -29.427081 -5.130291 30.998152 1.296412 1.737064 0.067957 -0.023619 809892.000000 0 0 1
-9.172563 -29.922981 -6.088791 31.884073 1.273351 1.762943 0.062215 -0.016162 -752805.000000 0 0 1
-10.633263 -29.899181 -5.634591 32.230047 1.229108 1.746523 0.049512 -0.002628 -310067.000000 0 0 1
-11.566663 -30.494481 -6.481391 33.252211 1.208258 1.766968 0.054444 -0.006878 543826.000000 0 0 1
-12.909263 -30.112181 -6.114191 33.328304 1.165791 1.755295 0.060803 -0.001976 959817.000000 0 0 1
-14.016763 -30.556681 -7.075991 34.354768 1.140720 1.778249 0.075619 -0.011073 -14058.400000 0 0 1
-14.072763 -29.940881 -8.355891 34.122133 1.131420 1.818194 0.090614 -0.022257 -240322.000000 0 0 1
-15.174563 -30.354081 -9.119891 35.139864 1.107214 1.833333 0.113753 -0.022196 -28536.100000 0 0 1
-15.242563 -29.656381 -10.506791 34.960397 1.096033 1.876049 0.112288 -0.020264 -117093.000000 0 0 1
-15.612363 -28.287581 -10.564091 33.993134 1.066483 1.886801 0.117274 -0.023207 206337.000000 0 0 1
-14.644563 -27.436081 -9.970791 32.659125 1.080499 1.881048 0.108999 -0.017210 -122941.000000 0 0 1
-15.135763 -26.053781 -9.576291 31.616391 1.044507 1.878520 0.103681 -0.010414 -202535.000000 0 0 1
-15.296463 -25.161081 -10.651691 31.313261 1.024558 1.917889 0.117203 -0.021005 172868.000000 0 0 1
-15.784463 -23.894281 -10.206991 30.401787 0.987008 1.913183 0.099609 -0.005829 -129892.000000 0 0 1
-16.384863 -23.060581 -11.339091 30.476698 0.953049 1.952021 0.108279 -0.004578 744905.000000 0 0 1
-17.600863 -23.675481 -11.849991 31.792155 0.931519 1.952749 0.107503 -0.017646 900667.000000 0 0 1
-18.082063 -23.148281 -13.097891 32.161447 0.907661 1.990242 0.111493 -0.024535 -253021.000000 0 0 1
-19.564063 -23.481681 -13.372991 33.361337 0.876159 1.983244 0.089882 -0.005560 -70029.000000 0 0 1
-19.922463 -24.845581 -13.568591 34.616674 0.894928 1.973565 0.108526 -0.016988 -518.939000 0 0 1
-19.788363 -25.654681 -12.433291 34.703440 0.913780 1.937213 0.113182 -0.019215 -1403380.000000 0 0 1
-19.774063 -27.217181 -12.582591 35.918103 0.942487 1.928702 0.104625 -0.029197 440311.000000 0 0 1
-18.904363 -27.905781 -13.556891 36.330385 0.975375 1.953204 0.101920 -0.029909 617818.000000 0 0 1
-17.554663 -27.498381 -13.384691 35.262971 1.002627 1.960125 0.115647 -0.031279 -445454.000000 0 0 1
-16.592063 -28.602281 -13.892191 35.866140 1.045141 1.968535 0.100454 -0.024856 -282656.000000 0 0 1
-16.594763 -28.800381 -15.303791 36.593089 1.048061 2.002276 0.097619 -0.036684 -76007.700000 0 0 1
-15.900363 -29.957681 -15.760191 37.398768 1.082844 2.005795 0.112655 -0.028350 -13906.900000 0 0 1
-16.623563 -31.293181 -15.492691 38.673370 1.082486 1.982972 0.095949 -0.029547 -87549.900000 0 0 1
-16.688863 -31.679981 -14.144991 38.499612 1.085943 1.947015 0.103387 -0.026240 -22088.900000 0 0 1
-17.193763 -32.975181 -14.029991 39.747059 1.090164 1.931553 0.072739 -0.020330 -769643.000000 0 0 1
-17.791963 -33.252581 -12.643091 39.776072 1.079499 1.894264 0.090141 -0.021761 230467.000000 0 0 1
-19.139363 -32.888381 -12.379991 40.015310 1.043755 1.885339 0.087829 -0.015082 346142.000000 0 0 1
-19.482463 -31.531581 -12.439791 39.096744 1.017340 1.894605 0.090874 -0.019249 -717585.000000 0 0 1
-18.950563 -30.598681 -11.316791 37.728940 1.016287 1.875436 0.113796 -0.024259 -320902.000000 0 0 1
-19.421463 -30.915481 -10.033291 37.863269 1.009891 1.838987 0.102287 -0.026662 160889.000000 0 0 1
-19.189163 -29.824781 -9.165791 36.629951 0.999077 1.823711 0.109960 -0.022280 -22950.300000 0 0 1
-19.499163 -30.167681 -7.697191 36.736264 0.996985 1.781886 0.097247 -0.024013 74581.600000 0 0 1
-18.448763 -30.839381 -7.030691 36.617686 1.031686 1.763999 0.102237 -0.024087 46954.700000 0 0 1
-18.790763 -31.195181 -5.707991 36.862085 1.028643 1.726269 0.108208 -0.029452 132565.000000 0 0 1
-17.831863 -32.225481 -5.054991 37.175394 1.065387 1.707196 0.102220 -0.019792 767479.000000 0 0 1
-16.556763 -31.792481 -4.574091 36.136001 1.090666 1.697717 0.084861 -0.015167 635470.000000 0 0 1
-16.355963 -31.936981 -3.173691 36.021669 1.097490 1.659016 0.084749 -0.015812 348300.000000 0 0 1
-15.032463 -31.415781 -2.555891 34.920751 1.124496 1.644053 0.080965 -0.010327 766045.000000 0 0 1
-13.788563 -32.031981 -2.889791 34.993188 1.164308 1.653472 0.056359 -0.009084 78022.500000 0 0 1
-12.761863 -31.210581 -2.370491 33.802142 1.182645 1.640982 0.059722 -0.013378 529045.000000 0 0 1
-11.377263 -31.944981 -2.417991 33.996627 1.228652 1.641981 0.055001 -0.016442 135937.000000 0 0 1
-11.259663 -33.027381 -1.451291 34.924120 1.242234 1.612364 0.060692 -0.013471 -288019.000000 0 0 1
-10.006863 -33.662581 -1.423791 35.147317 1.281846 1.611317 0.085478 -0.020433 495460.000000 0 0 1
-8.840563 -32.947681 -0.648691 34.119292 1.308650 1.589810 0.083573 -0.022557 131684.000000 0 0 1
-9.115063 -32.761881 0.698309 34.013422 1.299437 1.550264 0.085690 -0.024416 1000160.000000 0 0 1
-7.897663 -32.440081 1.432309 33.418311 1.331988 1.527923 0.087566 -0.028532 2015620.000000 0 0 1
-6.933763 -33.634781 1.818409 34.390147 1.367496 1.517896 0.096645 -0.026525 553878.000000 0 0 1
-7.630663 33.757110 2.733809 34.716613 -1.348486 1.491968 0.113057 -0.034983 559290.000000 0 0 1
-6.793363 32.715910 3.298609 33.576203 -1.366059 1.472395 0.102794 -0.030508 1666.890000 0 0 1
-6.111863 33.046610 4.596509 33.919924 -1.387916 1.434868 0.110075 -0.032023 -112491.000000 0 0 1
-4.992963 33.899110 4.415509 34.548171 -1.424559 1.442638 0.106641 -0.027485 -163779.000000 0 0 1
-4.528163 -33.914581 5.661009 34.680688 1.438065 1.406830 0.092535 -0.021793 155944.000000 0 0 1
-3.266363 -33.034681 5.495409 33.647568 1.472240 1.406739 0.094443 -0.014767 213588.000000 0 0 1
-3.596863 -31.745781 5.006009 32.338710 1.457975 1.415372 0.095260 -0.009119 142815.000000 0 0 1
-3.473363 -31.693981 3.592909 32.085537 1.461641 1.458582 0.096890 -0.024281 -53219.500000 0 0 1
-3.928563 -30.343281 2.953209 30.738734 1.442042 1.474573 0.092639 -0.028078 -154285.000000 0 0 1
-3.133863 -29.267981 3.282209 29.617710 1.464128 1.459749 0.085368 -0.018435 -129471.000000 0 0 1
-3.643663 -28.197481 2.555609 28.546548 1.442289 1.481152 0.097529 -0.024597 455959.000000 0 0 1
-2.739163 -26.954281 2.819409 27.239408 1.469521 1.467106 0.092832 -0.027532 222457.000000 0 0 1
-2.988563 -25.878481 1.913609 26.120666 1.455821 1.497470 0.106955 -0.024712 -82801.700000 0 0 1
-2.705863 -24.607781 2.519009 24.883931 1.461277 1.469392 0.072403 -0.025234 562963.000000 0 1 0
-3.905563 -24.108481 3.425409 24.661827 1.410192 1.431451 0.060822 -0.020467 495248.000000 0 1 0
-4.142763 -24.898381 4.596909 25.655866 1.405920 1.390648 0.086375 -0.025594 44388.800000 0 0 1
-5.089163 -24.178081 5.387509 25.288425 1.363338 1.356108 0.065006 -0.018036 306501.000000 0 0 1
-5.934263 -25.105181 6.295609 26.554102 1.338681 1.331431 0.075211 -0.017541 -420648.000000 0 0 1
-5.275463 -25.417881 7.483909 27.016812 1.366152 1.290116 0.087357 -0.023321 -17205.700000 0 0 1
-5.868363 -26.484481 8.258609 28.356129 1.352742 1.275267 0.079740 -0.021250 446944.000000 0 0 1
-4.921163 -26.976281 9.407809 28.990421 1.390355 1.240298 0.062217 -0.017743 399615.000000 0 0 1
-4.564363 -26.157281 10.506809 28.555732 1.398039 1.194003 0.066677 -0.017759 63896.700000 0 0 1
-5.675663 -25.774681 11.304209 28.711191 1.354052 1.166120 0.063077 -0.019637 324705.000000 0 0 1
-5.233863 -24.704381 12.331009 28.102555 1.362024 1.116549 0.074001 -0.018854 620560.000000 0 0 1
-4.454463 -25.194181 13.440909 28.900641 1.395800 1.087079 0.089330 -0.019850 -239975.000000 0 0 1
-3.822863 -24.162481 14.124009 28.247609 1.413882 1.047189 0.078195 -0.026408 208989.000000 0 0 1
-2.677163 -24.618281 15.048509 28.977312 1.462475 1.024741 0.071779 -0.028656 131284.000000 0 0 1
-3.190063 -25.183581 16.195109 30.110975 1.444795 1.002915 0.070942 -0.031363 -177596.000000 0 0 1
-2.272663 -26.134481 16.716309 31.106448 1.484054 1.003457 0.062567 -0.024909 305937.000000 0 0 1
-2.720763 -26.758681 18.048209 32.390854 1.469467 0.979785 0.065841 -0.023898 -51384.500000 0 0 1
-2.572863 -25.755081 19.000609 32.108675 1.471229 0.937557 0.069987 -0.024373 -111769.000000 0 0 1
-2.824563 -26.167881 20.351409 33.270348 1.463273 0.912591 0.074629 -0.026178 1455.010000 0 0 1
-3.141163 -24.963781 21.213509 32.910033 1.445625 0.870308 0.091924 -0.036943 -182823.000000 0 0 1
-2.967663 -25.233781 22.597409 34.002848 1.453727 0.843873 0.082969 -0.041085 -113681.000000 0 0 1
-3.182263 -24.044481 23.406509 33.706506 1.439212 0.803181 0.084480 -0.041740 347957.000000 0 0 1
-2.089863 -22.918981 23.326609 32.768551 1.479863 0.778654 0.082478 -0.035139 317218.000000 0 0 1
-2.385463 -21.905181 22.417409 31.433543 1.462324 0.776789 0.096358 -0.029875 45907.000000 0 0 1
-1.209063 -21.318881 21.882409 30.574440 1.514144 0.773157 0.085542 -0.025691 404842.000000 0 0 1
-1.599463 -19.994181 21.081309 29.098920 1.490970 0.760530 0.091622 -0.002804 298361.000000 0 0 1
-2.358963 -18.940581 21.744509 28.933268 1.446889 0.720403 0.092618 -0.015006 1363440.000000 0 0 1
-3.777663 -19.128381 21.917709 29.335161 1.375815 0.727035 0.118526 -0.020885 907676.000000 0 0 1
-4.693363 -19.122881 20.671009 28.548255 1.330122 0.761107 0.117893 -0.030074 -341914.000000 0 0 1
-4.616763 -20.202481 19.753509 28.629633 1.346130 0.809353 0.118999 -0.034733 -93755.600000 0 0 1
-5.215463 -21.399381 20.303209 29.955882 1.331737 0.826070 0.104766 -0.022113 246808.000000 0 0 1
-5.055563 -22.482081 19.219009 30.006216 1.349605 0.875646 0.106504 -0.019155 663680.000000 0 0 1
-5.994663 -23.565781 19.404009 31.109446 1.321700 0.897286 0.084652 -0.025590 353207.000000 0 0 1
-5.872063 -24.456481 18.278409 31.091813 1.335154 0.942355 0.085677 -0.020273 -189088.000000 0 0 1
-6.692363 -25.755981 18.259009 32.273050 1.316581 0.969434 0.066381 -0.027022 549504.000000 0 0 1
-8.073063 -25.446681 18.058809 32.230863 1.263586 0.976054 0.078655 -0.036253 188451.000000 0 0 1
-8.837863 -26.666381 17.934709 33.329529 1.250766 1.002612 0.065917 -0.035823 396225.000000 0 0 1
-10.335563 -26.482581 18.226109 33.768951 1.198699 1.000680 0.089973 -0.036990 -455091.000000 0 0 1
-11.048763 -25.815381 17.191909 32.925231 1.166395 1.021426 0.106463 -0.037750 1087670.000000 0 0 1
-12.487763 -25.883481 17.354409 33.571928 1.121278 1.027533 0.096971 -0.037761 1464540.000000 0 0 1
-13.061463 -24.844381 18.352509 33.535947 1.086776 0.991723 0.099105 -0.047890 -990732.000000 0 0 1
-13.120963 -23.499981 17.942909 32.347439 1.061573 0.982802 0.092139 -0.039316 -201273.000000 0 0 1
-13.166063 -22.543581 19.026509 32.304277 1.042204 0.941003 0.085649 -0.040816 19998.700000 0 0 1
-11.791663 -22.224881 19.685109 31.945144 1.083000 0.906867 0.076364 -0.035944 407904.000000 0 0 1
-11.203063 -23.335781 20.401709 32.959021 1.123211 0.903325 0.077624 -0.037939 -33471.000000 0 0 1
-9.804963 -23.195781 20.289909 32.339790 1.170872 0.892590 0.082203 -0.042428 350489.000000 0 0 1
-8.923163 -24.096381 21.233809 33.333663 1.216143 0.880186 0.069644 -0.037114 398704.000000 0 0 1
-8.876863 -23.615881 22.554009 33.840684 1.211250 0.841324 0.062128 -0.032862 29097.000000 0 0 1
-8.107463 -24.484381 23.353609 34.793778 1.251032 0.834969 0.066461 -0.037062 53256.200000 0 0 1
-7.941263 -23.914481 24.748809 35.319536 1.250184 0.794402 0.069613 -0.035284 -136712.000000 0 0 1
-7.215563 -24.780981 25.565809 36.328666 1.287457 0.790153 0.075411 -0.032711 -279727.000000 0 0 1
-6.996763 -24.154981 26.810209 36.758742 1.288851 0.753416 0.080872 -0.034771 -549200.000000 0 0 1
-5.759363 -24.613281 27.575909 37.408751 1.340938 0.741951 0.062637 -0.036953 -215718.000000 0 0 1
-4.568863 -24.196781 26.932909 36.493018 1.384172 0.740651 0.056205 -0.031062 -463741.000000 0 0 1
-3.454063 -24.347581 27.768809 37.092345 1.429872 0.724788 0.049859 -0.028835 401990.000000 0 0 1
-2.129163 -23.771081 27.182109 36.172707 1.481465 0.720534 0.050148 -0.029293 -70353.200000 0 0 1
-2.078663 -22.392481 27.132609 35.240922 1.478233 0.692084 0.060563 -0.025603 -298166.000000 0 0 1
-0.870663 -21.832681 26.668309 34.476409 1.530939 0.686414 0.065460 -0.027521 304506.000000 0 0 1
0.211537 -21.592181 27.764209 35.172693 -1.561000 0.661017 0.062479 -0.025252 -5028.250000 0 0 1
0.583137 -22.837281 28.390909 36.440708 -1.545267 0.677569 0.070888 -0.026669 370563.000000 0 0 1
1.557937 -22.679581 29.437909 37.193831 -1.502211 0.657581 0.047829 -0.029092 58652.200000 0 0 1
2.092837 -23.948381 30.059709 38.490142 -1.483628 0.674576 0.064074 -0.036214 -914996.000000 0 0 1
2.972537 -24.576681 29.174209 38.262040 -1.450432 0.703652 0.066548 -0.043090 39170.900000 0 0 1
3.742337 -25.614781 29.775109 39.454775 -1.425722 0.715654 0.060142 -0.032546 -222908.000000 0 0 1
4.958937 -25.195681 30.652209 39.987140 -1.376463 0.697342 0.057583 -0.037568 453048.000000 0 0 1
6.217137 -24.871281 30.061009 39.508198 -1.325844 0.706128 0.061088 -0.033859 658377.000000 0 0 1
6.815537 -25.842181 29.218609 39.597942 -1.312931 0.740869 0.058058 -0.032293 134686.000000 0 0 1
8.159137 -25.394281 28.523609 39.051726 -1.259916 0.751880 0.055033 -0.023576 712187.000000 0 0 1
7.911137 -24.493281 27.485509 37.655811 -1.258382 0.752600 0.060573 -0.023911 -355095.000000 0 0 1
9.066237 -24.048881 26.841809 37.162186 -1.210280 0.763691 0.046784 -0.011924 -409341.000000 0 0 1
8.817437 -22.841681 25.855009 35.608582 -1.202396 0.758179 0.051895 -0.008538 -328434.000000 0 0 1
7.926837 -23.175081 24.848209 34.890581 -1.241229 0.778204 0.054496 -0.012518 -318086.000000 0 0 1
7.617337 -22.046781 24.044609 33.499666 -1.238129 0.770221 0.047611 -0.009175 746668.000000 0 0 1
6.733737 -22.454081 22.769609 32.680026 -1.279441 0.799948 0.044489 -0.008181 694334.000000 0 0 1
7.509737 -23.346681 21.980409 32.933297 -1.259587 0.840055 0.041796 -0.016736 346315.000000 0 0 1
7.278137 -23.035881 20.605709 31.752454 -1.264773 0.864595 0.057067 -0.019560 -25520.300000 0 0 1
7.929537 -24.037981 19.636509 32.035833 -1.252161 0.911002 0.059232 -0.026326 463025.000000 0 0 1
9.302637 -23.725881 19.444209 32.055168 -1.197129 0.919037 0.050755 -0.015784 -394608.000000 0 0 1
9.911637 -24.615581 18.588809 32.399247 -1.188002 0.959729 0.056860 -0.022077 777940.000000 0 0 1
11.323237 -24.108781 18.115309 32.212008 -1.131704 0.973538 0.052604 -0.016919 770033.000000 0 0 1
11.158637 -23.008181 17.270109 30.856900 -1.119232 0.976792 0.060920 -0.014690 229494.000000 0 0 1
12.395637 -22.556981 16.701009 30.682127 -1.068317 0.995214 0.063197 -0.019977 555716.000000 0 0 1
-12.863963 22.599910 11.740009 28.531830 -1.053329 1.146729 0.024568 -0.010756 217603.000000 0 0 1
-13.836863 21.710110 11.170209 28.063522 -1.003368 1.161425 0.005255 -0.007581 296050.000000 0 0 1
-13.166363 20.560510 10.669209 26.644319 -1.001220 1.158809 0.037395 -0.013991 13327.000000 0 0 1
-13.981163 19.752210 9.672009 26.060900 -0.954836 1.190570 0.044772 -0.015302 -667873.000000 0 0 1
-14.126463 20.493710 8.450309 26.286058 -0.967283 1.243510 0.049659 -0.016617 359743.000000 0 0 1
-14.873563 19.720510 7.472709 25.806255 -0.924601 1.277019 0.048985 -0.019228 268278.000000 0 0 1
-16.405363 19.640110 7.526609 26.674327 -0.874899 1.284744 0.046228 -0.017713 -306547.000000 0 0 1
-16.852363 18.939310 8.746209 26.817826 -0.843640 1.238585 0.039524 -0.021899 -684934.000000 0 0 1
-18.239563 18.886410 8.744009 27.673740 -0.802819 1.249320 0.039984 -0.018415 -881101.000000 0 0 1
-18.777163 17.884010 9.747909 27.702733 -0.761041 1.211222 0.048386 -0.022042 -264907.000000 0 0 1
-18.850163 16.555110 9.247909 26.738066 -0.720666 1.217630 0.054379 -0.023709 252997.000000 0 0 1
-19.282963 15.686810 10.314609 26.912820 -0.682922 1.177473 0.063086 -0.027808 -1193920.000000 0 0 1
-18.192763 15.111710 11.180409 26.159931 -0.693149 1.129196 0.054631 -0.018131 -720663.000000 0 0 1
-17.442063 14.177310 10.389109 24.761973 -0.682511 1.137837 0.046927 -0.009288 328622.000000 0 1 0
-16.645163 13.328610 11.234409 24.102391 -0.675198 1.085905 0.033759 -0.011868 25389.200000 0 1 0
-17.428963 12.241910 11.949109 24.421596 -0.612327 1.059527 0.044467 -0.016083 -271203.000000 0 1 0
-18.173763 11.359610 11.123509 24.146612 -0.558639 1.092052 0.035686 -0.015724 288936.000000 0 1 0
-19.010063 10.543610 11.932609 24.797931 -0.506393 1.068780 0.049660 -0.014148 -169842.000000 0 1 0
-20.018063 9.636410 11.233609 24.895326 -0.448646 1.102649 0.049961 -0.016804 -414070.000000 0 1 0
-19.460063 8.654910 10.364709 23.686045 -0.418481 1.117883 0.040898 -0.014430 390613.000000 0 1 0
-18.917163 9.136610 9.115109 22.900261 -0.449939 1.161422 0.051443 -0.012317 -616458.000000 0 1 0
-19.928963 9.617910 8.075309 23.555857 -0.449639 1.220884 0.064049 -0.014782 -435271.000000 0 1 0
-20.598863 8.577210 7.440009 23.520958 -0.394557 1.248955 0.049160 -0.019831 136428.000000 0 1 0
-21.527963 9.126710 6.528609 24.277001 -0.400978 1.298523 0.061871 -0.009156 -45204.600000 0 1 0
-21.794263 8.130110 5.391109 23.877870 -0.357050 1.343054 0.070781 -0.013876 162114.000000 0 1 0
-22.596563 7.012410 5.804209 24.361187 -0.300907 1.330226 0.085533 -0.018775 470819.000000 0 1 0
-22.197063 5.828510 5.121809 23.514125 -0.256783 1.351218 0.073770 -0.008985 -225766.000000 0 1 0
-23.050063 4.632610 5.536809 24.154146 -0.198338 1.339512 0.077797 -0.016763 60447.700000 0 1 0
-24.300963 4.622310 4.877109 25.212869 -0.187966 1.376132 0.111984 -0.012395 296028.000000 0 0 1
-25.028163 3.399610 5.022009 25.752415 -0.135005 1.374527 0.130625 -0.020754 -145271.000000 0 0 1
-26.165683 3.378910 3.999109 26.684319 -0.128424 1.420362 0.138996 -0.020850 -619736.000000 0 0 1
-25.699193 3.101610 2.727509 26.028981 -0.120108 1.465816 0.139501 -0.021218 394574.000000 0 0 1
-26.738383 3.103810 1.769109 26.975999 -0.115563 1.505168 0.151324 -0.032452 -105001.000000 0 0 1
-26.262753 3.017110 0.295609 26.437144 -0.114380 1.559615 0.159378 -0.041773 -95086.600000 0 0 1
-25.509753 4.122710 -0.217791 25.841666 -0.160228 1.579224 0.146602 -0.041630 548239.000000 0 0 1
-25.506053 4.341910 -1.629791 25.924258 -0.168614 1.633705 0.144893 -0.040494 -251792.000000 0 0 1
-26.812583 4.911010 -2.247391 27.351114 -0.181153 1.653057 0.175652 -0.051529 959483.000000 0 0 1
-27.899453 3.954410 -2.337391 28.275082 -0.140800 1.653557 0.168625 -0.053532 739351.000000 0 0 1
-29.122013 4.583910 -1.996791 29.548115 -0.156123 1.638425 0.146051 -0.037883 288269.000000 0 0 1
-30.269323 3.570610 -1.713891 30.527342 -0.117419 1.626969 0.145594 -0.038189 -59302.000000 0 0 1
-30.578573 2.841010 -2.874791 30.844528 -0.092643 1.664134 0.140909 -0.042757 612512.000000 0 0 1
-31.666413 1.931110 -2.702791 31.840163 -0.060907 1.655785 0.153670 -0.046661 459845.000000 0 0 1
-32.162873 1.265510 -4.049291 32.441466 -0.039327 1.695941 0.147609 -0.066375 -578036.000000 0 0 1
-31.114793 0.509410 -4.533891 31.447512 -0.016371 1.715474 0.154706 -0.052647 -273427.000000 0 0 1
-31.287853 -0.134190 -5.780991 31.817725 0.004289 1.753502 0.154697 -0.045886 -574721.000000 0 0 1
-31.644773 0.574110 -7.124291 32.441899 -0.018140 1.792202 0.140624 -0.040264 -212850.000000 0 0 1
-32.974803 1.005310 -7.284291 33.784748 -0.030478 1.788112 0.138106 -0.046199 155544.000000 0 0 1
-33.297953 1.790310 -8.431891 34.395577 -0.053715 1.818465 0.121588 -0.036276 260552.000000 0 0 1
-34.824486 2.084810 -8.534191 35.915508 -0.059795 1.810710 0.132241 -0.033979 410411.000000 0 0 1
-35.312239 2.992610 -7.603891 36.245401 -0.084545 1.782156 0.111693 -0.028243 -1844100.000000 0 0 1
-36.652583 3.077610 -7.600091 37.558553 -0.083771 1.774556 0.115494 -0.023498 -1943930.000000 0 0 1
36.216291 3.872710 -6.422791 36.984725 0.106528 1.745342 0.134456 -0.031310 -409914.000000 0 0 1
34.824391 3.820610 -6.333591 35.601259 0.109274 1.749652 0.140024 -0.037371 -315926.000000 0 0 1
34.327751 4.412010 -5.100491 34.983930 0.127825 1.717113 0.141732 -0.037220 363449.000000 0 0 1
32.867761 3.977710 -4.840791 33.459605 0.120436 1.715982 0.134600 -0.042518 -66974.200000 0 0 1
32.727491 2.713310 -4.249191 33.113538 0.082717 1.699473 0.139197 -0.043413 848728.000000 0 0 1
31.449251 2.040810 -4.364091 31.816122 0.064801 1.708396 0.121361 -0.044418 539561.000000 0 0 1
31.406581 0.698210 -3.639491 31.624464 0.022228 1.686137 0.143149 -0.037147 -218371.000000 0 0 1
32.360781 -0.209290 -4.132091 32.624196 -0.006467 1.697795 0.123695 -0.041613 139175.000000 0 0 1
32.311961 -1.290390 -3.274991 32.503131 -0.039914 1.671727 0.126322 -0.028895 -54246.300000 0 0 1
33.530421 -2.195390 -3.524691 33.786570 -0.065381 1.675309 0.118906 -0.030380 -46647.200000 0 0 1
33.359991 -3.593790 -3.290091 33.713930 -0.107314 1.668540 0.106513 -0.025634 68094.300000 0 0 1
34.631701 -4.208790 -3.367491 35.048661 -0.120937 1.667025 0.126591 -0.023015 266047.000000 0 0 1
34.613791 -5.714190 -2.981891 35.208780 -0.163609 1.655590 0.119115 -0.017513 20673.400000 0 0 1
34.299041 -5.819790 -1.623391 34.827139 -0.168077 1.617426 0.116981 -0.010116 -39934.300000 0 0 1
34.581211 -7.156090 -1.189591 35.333906 -0.204056 1.604470 0.119552 -0.018990 -143664.000000 0 0 1
34.232371 -7.460790 0.232109 35.036731 -0.214590 1.564172 0.110312 -0.014194 392315.000000 0 0 1
32.827171 -7.669790 0.341809 33.712990 -0.229524 1.560657 0.084137 -0.015693 381986.000000 0 0 1
32.414411 -7.983890 1.665109 33.424679 -0.241500 1.520959 0.088284 -0.025036 -838127.000000 0 0 1
32.132791 -9.450590 2.054109 33.556658 -0.286045 1.509545 0.099297 -0.027443 -68159.500000 0 0 1
30.958981 -10.041690 1.519109 32.582231 -0.313648 1.524156 0.096925 -0.036095 -404347.000000 0 0 1
29.777701 -9.577890 2.054609 31.347550 -0.311196 1.505206 0.079846 -0.045647 -1679080.000000 0 0 1
28.563021 -10.534290 1.847809 30.499702 -0.353332 1.510175 0.099955 -0.039859 63191.700000 0 0 1
27.294481 -10.165690 2.366109 29.222054 -0.356529 1.489738 0.136261 -0.045906 915452.000000 0 0 1
26.651781 -8.985190 1.837509 28.185591 -0.325166 1.505557 0.137646 -0.039803 -798332.000000 0 0 1
26.092481 -9.012490 0.461409 27.608974 -0.332576 1.554083 0.135192 -0.029925 -518261.000000 0 0 1
27.038681 -9.215290 -0.600591 28.572234 -0.328472 1.591818 0.122338 -0.040195 706309.000000 0 0 1
26.391581 -9.211590 -1.874691 28.015771 -0.335815 1.637762 0.105280 -0.032615 -21611.700000 0 0 1
25.698481 -10.556890 -2.236691 27.872256 -0.389780 1.651131 0.090245 -0.018146 -102374.000000 0 0 1
24.472481 -10.887790 -1.643691 26.835574 -0.418604 1.632085 0.116849 -0.012641 74346.400000 0 0 1
24.034681 -12.202490 -1.998191 27.028863 -0.469791 1.644792 0.097260 -0.011048 -703944.000000 0 0 1
22.654781 -12.594090 -1.505591 25.963764 -0.507372 1.628817 0.113944 -0.004564 -1045840.000000 0 0 1
21.636881 -11.975090 -2.222991 24.829400 -0.505494 1.660447 0.097782 -0.004775 -466587.000000 0 1 0
20.410181 -12.539390 -1.825091 24.023796 -0.550918 1.646840 0.116911 -0.000972 636899.000000 0 1 0
19.128581 -12.100690 -2.648691 22.789140 -0.564044 1.687286 0.100611 0.000760 855284.000000 0 1 0
19.106181 -12.586890 -4.001791 23.226930 -0.582527 1.743951 0.085815 -0.011709 637469.000000 0 1 0
18.002881 -11.992290 -4.689891 22.133997 -0.587632 1.784301 0.079012 -0.015167 233783.000000 0 1 0
17.801981 -12.368390 -6.180991 22.540902 -0.607211 1.848567 0.071711 -0.022084 -322970.000000 0 1 0
17.205081 -13.620590 -6.473791 22.878926 -0.669635 1.857674 0.064723 -0.016417 288977.000000 0 1 0
17.300981 -13.864090 -7.876491 23.528197 -0.675562 1.912155 0.061579 -0.023191 -443074.000000 0 1 0
16.788381 -15.260190 -8.311091 24.161899 -0.737751 1.921943 0.067188 -0.018376 -1119120.000000 0 1 0
15.430581 -15.437690 -8.049791 23.264227 -0.785628 1.924118 0.069642 -0.013110 -274110.000000 0 1 0
14.824281 -16.447890 -8.833191 23.839414 -0.837270 1.950375 0.066794 -0.011717 -196752.000000 0 1 0
14.562181 -16.155990 -10.298991 24.065376 -0.837237 2.013029 0.071661 -0.019569 -474321.000000 0 1 0
13.475481 -15.328790 -10.754991 23.070115 -0.849651 2.055772 0.062873 -0.012037 604304.000000 0 1 0
13.406781 -13.985090 -10.399491 21.988041 -0.806507 2.063445 0.046638 -0.008296 -417499.000000 0 1 0
13.363181 -13.153190 -11.704891 22.103970 -0.777479 2.128852 0.051908 0.004153 -362902.000000 0 1 0
14.603481 -12.922690 -12.327091 23.069780 -0.724412 2.134522 0.069791 -0.006193 133924.000000 0 1 0
14.383981 -12.543690 -13.682191 23.482875 -0.717162 2.192776 0.086269 -0.009420 -183960.000000 0 1 0
15.637781 -11.972990 -14.374491 24.382754 -0.653439 2.201280 0.092192 -0.023147 -376863.000000 0 1 0
16.691381 -12.887890 -14.423791 25.548887 -0.657514 2.170692 0.100835 -0.022304 -258270.000000 0 0 1
17.606681 -12.421890 -15.390091 26.479303 -0.614422 2.191014 0.099729 -0.020690 -453856.000000 0 0 1
18.737881 -13.370990 -15.779191 27.908322 -0.619782 2.171707 0.082883 -0.007592 -304587.000000 0 0 1
19.569981 -13.681290 -14.654491 28.016352 -0.610119 2.121244 0.074068 -0.027161 537206.000000 0 0 1
20.593581 -14.571090 -15.089491 29.395663 -0.615778 2.109850 0.053949 -0.012279 50040.600000 0 0 1
21.838881 -14.574090 -14.168791 29.834468 -0.588473 2.065662 0.041833 -0.015836 105123.000000 0 0 1
22.544681 -13.316890 -14.209591 29.791185 -0.533545 2.068004 0.057380 -0.018797 -84193.300000 0 0 1
23.303081 -13.248790 -13.033691 29.806730 -0.516968 2.023361 0.040759 -0.015127 -227020.000000 0 0 1
24.012281 -11.899090 -12.910391 29.746532 -0.460075 2.019739 0.054464 -0.014604 -364449.000000 0 0 1
23.215681 -10.843490 -12.350291 28.444311 -0.436963 2.019937 0.061189 -0.011522 614849.000000 0 0 1
23.823881 -9.544390 -12.479891 28.538051 -0.381043 2.023398 0.074064 -0.017163 258889.000000 0 0 1
25.014481 -9.208290 -11.517591 29.037420 -0.352724 1.978657 0.076393 -0.016365 398032.000000 0 0 1
26.145581 -9.983690 -11.911491 30.416264 -0.364763 1.973183 0.069286 -0.009544 299368.000000 0 0 1
27.154881 -9.832190 -10.900591 30.868794 -0.347394 1.931707 0.077795 -0.009451 -19961.600000 0 0 1
28.443101 -10.593890 -11.237391 32.365405 -0.356541 1.925384 0.088562 -0.005146 -353284.000000 0 0 1
29.202461 -10.071190 -12.296591 33.247838 -0.332102 1.949640 0.084915 -0.006549 -98079.500000 0 0 1
30.415051 -10.776290 -12.415191 34.573700 -0.340507 1.938093 0.080200 -0.006475 96992.100000 0 0 1
31.337731 -10.117390 -13.482991 35.583789 -0.312286 1.959413 0.079275 -0.006398 341263.000000 0 0 1
30.662751 -10.286290 -14.760691 35.551232 -0.323668 1.998953 0.063870 -0.005945 861148.000000 0 0 1
31.278801 -9.529090 -15.804891 36.317510 -0.295717 2.021042 0.054043 -0.005253 -188423.000000 0 0 1
31.266721 -10.223790 -17.244091 37.141519 -0.316027 2.053619 0.016804 -0.000883 -525756.000000 0 0 1
30.078121 -10.311290 -17.962691 36.519506 -0.330261 2.085028 0.033129 -0.001844 -121193.000000 0 0 1
29.482191 -9.106890 -18.453391 35.953618 -0.299597 2.109770 0.009532 -0.000066 -94351.400000 0 0 1
27.992281 -9.148390 -18.852091 34.966587 -0.315876 2.140219 -0.008765 0.000180 -1879.510000 0 0 1
27.785581 -9.790290 -20.070591 35.647117 -0.338768 2.168851 -0.021518 0.009665 -424515.000000 0 0 1
26.410681 -9.711290 -20.277391 34.684374 -0.352358 2.195215 0.032261 0.013147 -596051.000000 0 0 1
25.903881 -10.010590 -21.716091 35.253533 -0.368772 2.234448 0.049981 -0.009947 -56395.500000 0 0 1
25.672781 -11.404090 -21.849091 35.588309 -0.418028 2.231839 0.035981 -0.005983 138673.000000 0 0 1
25.140081 -11.708890 -23.139291 36.118535 -0.435871 2.266139 0.055140 -0.018389 -1096550.000000 0 0 1
25.303281 -13.182790 -23.717991 37.102359 -0.480299 2.264330 0.038786 -0.009993 761391.000000 0 0 1
26.562781 -13.586590 -24.290391 38.473366 -0.472797 2.254097 0.035265 -0.005400 823878.000000 0 0 1
27.650081 -13.382090 -23.400791 38.616115 -0.450750 2.221800 0.012342 0.001856 -1559800.000000 0 0 1
29.031981 -13.806290 -23.817191 40.009101 -0.443901 2.208428 0.006472 0.002464 -835002.000000 0 0 1
29.477911 -13.159090 -24.952891 40.801417 -0.419860 2.228839 0.018264 -0.018218 495403.000000 0 0 1
30.690681 -13.806390 -25.395151 42.159791 -0.422734 2.217244 -0.001130 -0.008991 695707.000000 0 0 1
31.310171 -13.133390 -26.649611 43.162652 -0.397170 2.236259 0.013194 -0.008070 -37671.800000 0 0 1
31.231731 -13.827190 -27.888321 44.095018 -0.416791 2.255521 0.024016 -0.016340 402953.000000 0 0 1
32.202141 -13.432590 -28.858231 45.279243 -0.395189 2.261837 0.015641 -0.014249 290779.000000 0 0 1
32.095971 -14.368490 -30.048041 46.254617 -0.420917 2.277884 0.027330 -0.018920 20361.300000 0 0 1
32.433641 -15.667990 -29.673091 46.668183 -0.450019 2.259881 0.036432 -0.017188 -143386.000000 0 0 1
32.527261 -16.658190 -30.726351 47.745436 -0.473305 2.269918 0.007724 -0.016566 758452.000000 0 0 1
31.208471 -17.067590 -31.501811 47.514581 -0.500452 2.295605 0.012496 -0.007684 692712.000000 0 0 1
30.729101 -16.178690 -32.472341 47.544512 -0.484618 2.322642 0.014466 -0.010859 842352.000000 0 0 1
29.583621 -16.742690 -33.169691 47.494596 -0.515002 2.343940 0.025663 -0.008485 740085.000000 0 0 1
28.842921 -15.782290 34.017480 47.309446 -0.500676 0.768373 0.055586 -0.007686 106367.000000 0 0 1
28.159081 -14.695690 -33.466941 46.140365 -0.480999 2.382308 0.066024 -0.017478 881724.000000 0 0 1
28.945061 -13.475290 -33.581761 46.337184 -0.435707 2.381433 0.062622 -0.012119 60378.700000 0 0 1
28.208181 -12.155290 -33.152001 45.194112 -0.406869 2.394322 0.076929 -0.022415 1202340.000000 0 0 1
27.108781 -11.772190 -34.040357 45.080111 -0.409686 2.426615 0.089169 -0.022623 388592.000000 0 0 1
26.290281 -10.919690 -33.330771 43.833307 -0.393669 2.434722 0.065864 -0.032303 -408595.000000 0 0 1
21.061437 -29.477981 9.340409 37.413617 -0.950418 1.318475 0.057653 -0.027191 24690.200000 0 0 1
21.540837 -29.114681 8.081309 37.107679 -0.933815 1.351257 0.052093 -0.027459 310499.000000 0 0 1
22.790337 -29.702181 7.760209 38.234015 -0.916318 1.366410 0.058205 -0.026838 5288.900000 0 0 1
23.342237 -29.353181 6.403009 38.045601 -0.898977 1.401693 0.048300 -0.019029 -65621.100000 0 0 1
23.933137 -28.026981 6.360009 37.399952 -0.864024 1.399912 0.048872 -0.006964 90183.400000 0 0 1
24.386737 -27.840181 5.094609 37.359653 -0.851426 1.434003 0.038140 0.002309 -239527.000000 0 0 1
24.495737 -26.370581 4.596209 36.284622 -0.822240 1.443784 0.028977 0.000953 83133.700000 0 0 1
25.402237 -25.654881 5.408809 36.506188 -0.790346 1.422087 0.040582 -0.003032 -18046.100000 0 0 1
25.214637 -24.286281 5.293809 35.406578 -0.766646 1.420719 0.039868 0.003136 95435.200000 0 0 1
26.147737 -23.482381 6.256809 35.696975 -0.731745 1.394611 0.047755 -0.002863 1229410.000000 0 0 1
27.530437 -23.451281 5.810709 36.628566 -0.705556 1.411485 0.038085 0.006542 866131.000000 0 0 1
28.355237 -22.627881 6.585709 36.870205 -0.673529 1.391214 0.058860 -0.007577 -48249.900000 0 0 1
28.066437 -21.081681 6.524309 35.703344 -0.644227 1.387027 0.067216 -0.009012 -405368.000000 0 0 1
28.246037 -20.424781 5.264909 35.252369 -0.626063 1.420886 0.057748 0.011060 -17752.600000 0 0 1
27.817737 -19.098081 5.405909 34.172899 -0.601637 1.411936 0.080067 0.005216 -125363.000000 0 0 1
27.990637 -18.223981 4.170809 33.659841 -0.577130 1.446566 0.098329 0.004802 -187374.000000 0 0 1
29.276937 -17.817681 3.790009 34.481487 -0.546713 1.460659 0.097807 -0.000876 -120717.000000 0 0 1
29.123837 -17.061781 2.594109 33.853089 -0.529939 1.494093 0.098707 0.002130 423118.000000 0 0 1
30.160837 -15.889581 2.579209 34.187822 -0.484879 1.495282 0.102946 -0.016511 309075.000000 0 0 1
29.845237 -14.833681 3.445309 33.505916 -0.461261 1.467787 0.102809 -0.025269 89921.800000 0 0 1
30.887337 -13.888981 3.546309 34.051544 -0.422576 1.466462 0.088783 -0.033549 103147.000000 0 0 1
30.575437 -12.809181 4.585509 33.465794 -0.396724 1.433343 0.090546 -0.032236 154746.000000 0 0 1
30.397237 -13.412881 5.836709 33.733730 -0.415556 1.396898 0.079508 -0.018361 84188.000000 0 0 1
30.043137 -12.458781 6.814209 33.230178 -0.393111 1.364270 0.066812 -0.018998 -569717.000000 0 0 1
29.704337 -13.038181 8.131209 33.443360 -0.413612 1.325201 0.078857 -0.015649 210867.000000 0 0 1
28.386637 -13.606781 8.196709 32.528936 -0.446981 1.316068 0.067018 -0.009132 622695.000000 0 0 1
27.906637 -13.732681 9.598509 32.549935 -0.457303 1.271460 0.082931 -0.010164 355579.000000 0 0 1
28.601937 -14.599481 10.686909 33.844138 -0.471962 1.249530 0.074859 -0.011070 -685033.000000 0 0 1
29.796537 -14.293581 11.334909 34.937376 -0.447281 1.240382 0.055855 -0.004336 -310579.000000 0 0 1
30.218737 -15.507181 11.951309 36.006645 -0.474124 1.232459 0.060242 -0.003665 21739.000000 0 0 1
31.030937 -15.382281 13.238909 37.078327 -0.460208 1.205686 0.057042 -0.003768 425458.000000 0 0 1
32.319737 -14.798681 13.057909 37.869187 -0.429391 1.218753 0.047386 -0.008530 250938.000000 0 0 1
33.045137 -14.828581 14.249509 38.921927 -0.421803 1.195976 0.043672 -0.010632 134274.000000 0 0 1
34.586937 -14.798081 14.068309 40.164122 -0.404284 1.212936 0.058716 -0.014843 132571.000000 0 0 1
35.020937 -13.462781 13.865409 39.999526 -0.367004 1.216810 0.064988 -0.015065 95594.300000 0 0 1
36.339137 -13.417381 13.369309 40.979231 -0.353700 1.238467 0.075685 -0.019349 -187153.000000 0 0 1
-36.460308 -12.032781 13.395709 40.664320 0.318769 1.235105 0.081284 -0.021408 -428755.000000 0 0 1
-35.173808 -12.101481 12.850409 39.354487 0.331363 1.238167 0.094200 -0.026798 -267887.000000 0 0 1
-34.401508 -10.942081 12.963509 38.356818 0.307951 1.226036 0.090105 -0.033448 638517.000000 0 0 1
-33.096708 -10.903681 12.079909 36.880979 0.318251 1.237100 0.099428 -0.033810 764221.000000 0 0 1
-32.056508 -11.813081 12.372309 36.335144 0.353067 1.223342 0.093599 -0.028086 376098.000000 0 0 1
-32.341708 -13.076281 11.825409 36.834977 0.384222 1.243972 0.081397 -0.030043 -729248.000000 0 0 1
-31.293208 -14.122081 12.181509 36.429209 0.423920 1.229840 0.055358 -0.025766 -598049.000000 0 0 1
-30.048108 -13.852381 11.621109 35.068896 0.431969 1.233031 0.063409 -0.023885 -617439.000000 0 0 1
-29.173808 -14.958981 11.872009 34.868708 0.473799 1.223372 0.043439 -0.014697 -184130.000000 0 0 1
-27.876208 -14.782381 11.086409 33.444136 0.487582 1.232913 0.037394 -0.006938 -480636.000000 0 0 1
-27.961308 -15.002981 9.704309 33.182794 0.492468 1.274008 0.048635 -0.009998 462281.000000 0 0 1
-26.649308 -14.834581 9.185109 31.853048 0.507941 1.278284 0.045666 -0.004258 380023.000000 0 0 1
-26.623708 -14.795281 7.670809 31.409609 0.507223 1.324083 0.077343 0.002240 -23080.900000 0 0 1
-26.917408 -15.996681 7.045209 32.094792 0.536209 1.349482 0.081218 0.005316 203137.000000 0 0 1
-26.608808 -15.855881 5.646209 31.485192 0.537391 1.390492 0.089509 0.001651 -616521.000000 0 0 1
-27.097708 -16.960381 4.707509 32.312551 0.559244 1.424589 0.077184 0.002662 -252813.000000 0 0 1
-28.486708 -16.881981 4.490509 33.416441 0.534980 1.436008 0.061772 -0.012983 -89941.000000 0 0 1
-28.925408 -17.816981 3.504809 34.152712 0.552074 1.467994 0.051582 -0.011512 24852.200000 0 0 1
-30.366808 -18.289081 3.815709 35.653796 0.542088 1.463570 0.068380 -0.020678 152007.000000 0 0 1
-31.349508 -17.370281 3.354509 35.996820 0.505974 1.477472 0.084754 -0.021949 -1062580.000000 0 0 1
-32.575708 -17.736381 3.867909 37.292314 0.498585 1.466891 0.097299 -0.026230 -1080000.000000 0 0 1
-33.724408 -16.936981 3.238209 37.877210 0.465420 1.485200 0.109769 -0.031224 -208581.000000 0 0 1
-33.999608 -17.308881 1.892709 38.198862 0.470894 1.521227 0.116086 -0.035642 431765.000000 0 0 1
-35.063708 -16.529581 1.308509 38.786633 0.440520 1.537054 0.129996 -0.035029 534700.000000 0 0 1
-35.485908 -17.006681 -0.095691 39.350808 0.446912 1.573228 0.124452 -0.034386 338214.000000 0 0 1
-34.457608 -16.968781 -1.096191 38.424835 0.457592 1.599328 0.116099 -0.034549 461457.000000 0 0 1
-34.918008 -17.685381 -2.146991 39.200122 0.468821 1.625594 0.113856 -0.030351 -430052.000000 0 0 1
-33.820908 -18.171681 -3.072391 38.516275 0.493034 1.650650 0.098334 -0.029502 -280584.000000 0 0 1
-34.331208 -19.095881 -4.007391 39.488527 0.507610 1.672454 0.095322 -0.038648 482455.000000 0 0 1
-33.253608 -19.655981 -4.735491 38.917669 0.533845 1.692778 0.080135 -0.031650 200934.000000 0 0 1
-33.792608 -20.819781 -5.629291 40.088559 0.552177 1.711683 0.103443 -0.039556 -36473.000000 0 0 1
-34.061008 -22.053181 -4.987291 40.882370 0.574588 1.693092 0.109918 -0.043373 -221639.000000 0 0 1
-34.728908 -22.834581 -5.915791 41.982279 0.581636 1.712178 0.107031 -0.035156 -207544.000000 0 0 1
-35.290208 -24.166681 -5.261791 43.094242 0.600451 1.693201 0.111733 -0.032186 -596787.000000 0 0 1
-34.339208 -25.022781 -4.723691 42.750837 0.629725 1.681516 0.108749 -0.029896 -580791.000000 0 0 1
-34.871008 -26.322881 -4.662691 43.938844 0.646607 1.677114 0.096000 -0.023037 390890.000000 0 0 1
-33.820308 -27.408281 -4.296991 43.743471 0.681056 1.669187 0.062143 -0.019451 79551.600000 0 0 1
-32.762308 -27.708881 -5.232291 43.226471 0.702024 1.692138 0.055981 -0.018904 809120.000000 0 0 1
-32.043908 -28.864981 -4.823891 43.396649 0.733254 1.682185 0.047304 -0.014029 169165.000000 0 0 1
-31.091308 -28.779581 -3.596491 42.519037 0.746805 1.655483 0.054521 -0.023873 -472002.000000 0 0 1
-31.757608 -28.724981 -2.328991 42.884664 0.735300 1.625131 0.042610 -0.018027 138465.000000 0 0 1
-30.754108 -28.679481 -1.337891 42.072768 0.750506 1.602601 0.057161 -0.014356 39392.400000 0 0 1
-31.228508 -28.504781 0.148309 42.281962 0.739832 1.567289 0.060110 -0.013896 -247769.000000 0 0 1
-31.714208 -29.657881 0.715309 43.426865 0.751905 1.554324 0.052033 -0.008751 -409429.000000 0 0 1
-32.507708 -29.335281 1.834009 43.825488 0.734145 1.528936 0.065203 -0.007863 -549917.000000 0 0 1
-33.248808 -30.577681 2.218109 45.226075 0.743573 1.521732 0.041980 -0.009269 -900402.000000 0 0 1
-34.111508 -30.355681 3.343609 45.784737 0.727204 1.497702 0.049027 -0.008405 565870.000000 0 0 1
-34.721408 -31.497681 3.938609 47.044583 0.736754 1.486977 0.034098 0.003496 127557.000000 0 0 1
-35.765908 -32.225481 3.029609 48.237541 0.733373 1.507949 0.031030 0.003121 -524942.000000 0 0 1
-36.286408 -33.365481 3.619509 49.427317 0.743487 1.497502 0.038241 -0.001424 171387.000000 0 0 1
36.188737 -33.969781 2.813409 49.714042 -0.753781 1.514174 0.043039 -0.004972 -977124.000000 0 0 1
35.079637 33.494510 3.513009 48.629254 0.762287 1.498493 0.030049 -0.004988 -791491.000000 0 0 1
34.213837 -33.933781 4.287009 48.378369 -0.781289 1.482066 0.019836 -0.009649 825719.000000 0 0 1
33.469937 -32.777081 3.709009 46.992877 -0.774940 1.491787 0.024527 -0.002328 508537.000000 0 0 1
32.466537 -33.223881 2.592109 46.525491 -0.796927 1.515054 0.044824 -0.008580 279451.000000 0 0 1
33.184937 -33.528281 1.345909 47.193190 -0.790545 1.542273 0.039536 -0.011952 453826.000000 0 0 1
32.290037 -33.349581 0.251109 46.420945 -0.801539 1.565387 0.060591 -0.007223 -761612.000000 0 0 1
32.848437 -33.946781 -1.054391 47.249503 -0.801840 1.593114 0.053648 -0.007411 655124.000000 0 0 1
33.949837 -33.295081 -1.699091 47.581937 -0.775662 1.606513 0.041328 -0.004631 232584.000000 0 0 1
35.116937 -33.339981 -0.892891 48.430887 -0.759447 1.589234 0.049580 -0.005805 -940733.000000 0 0 1
36.425937 -33.069081 -1.692891 49.226811 -0.737132 1.605193 0.020976 0.003943 -143502.000000 0 0 1
-36.551008 34.013710 -2.281791 49.981149 -0.749457 1.616465 0.025454 -0.004324 12017.700000 0 0 1
-35.799208 -33.979581 -3.446891 49.478039 0.759327 1.640518 0.029251 0.001194 -422230.000000 0 0 1
-35.165008 32.942210 -3.976991 48.348562 -0.752773 1.653146 0.029423 -0.002041 -309411.000000 0 0 1
-33.937808 32.676910 -3.356191 47.231550 -0.766472 1.641914 0.042094 -0.003501 -506871.000000 0 0 1
-33.304108 31.621210 -4.021591 46.100301 -0.759483 1.658143 0.059808 -0.003858 470950.000000 0 0 1
-31.957708 31.221310 -3.337191 44.801810 -0.773743 1.645353 0.072947 -0.006622 426101.000000 0 0 1
-30.875908 32.161310 -3.470091 44.718152 -0.805786 1.648474 0.059942 -0.013416 1494770.000000 0 0 1
-29.584308 31.606010 -3.099091 43.402483 -0.818426 1.642261 0.060819 -0.010730 1276780.000000 0 0 1
-29.304208 31.320910 -1.618591 42.922673 -0.818651 1.608515 0.052770 -0.001216 -765768.000000 0 0 1
-30.020108 30.199310 -1.191191 42.598406 -0.788374 1.598763 0.051201 0.000868 -250669.000000 0 0 1
-29.926408 30.049410 0.235409 42.410051 -0.787449 1.565246 0.048300 -0.003766 -116426.000000 0 0 1
-31.221608 29.525310 0.883409 42.980381 -0.757481 1.550241 0.039529 -0.007496 -27814.800000 0 0 1
-31.576208 28.229510 0.601509 42.359462 -0.729497 1.556596 0.049579 -0.017884 211655.000000 0 0 1
-32.864408 28.112710 0.013809 43.248052 -0.707629 1.570477 0.058257 -0.016493 247693.000000 0 0 1
-33.133808 26.622810 -0.477591 42.507074 -0.676868 1.582032 0.071790 -0.017158 -126056.000000 0 0 1
-33.313408 25.630710 0.509309 42.035412 -0.655790 1.558680 0.086070 -0.021943 20770.500000 0 0 1
-33.790908 24.498810 -0.117191 41.737644 -0.627316 1.573604 0.073380 -0.013937 -552367.000000 0 0 1
-33.888008 23.245910 0.816509 41.102751 -0.601243 1.550930 0.084533 -0.030483 754631.000000 0 0 1
-32.634708 22.683910 1.265409 39.764120 -0.607420 1.538968 0.099955 -0.040364 1081740.000000 0 0 1
-32.005908 23.397710 2.316909 39.713966 -0.631258 1.512423 0.094442 -0.043254 -101987.000000 0 0 1
-30.465408 23.231810 2.477909 38.392684 -0.651493 1.506210 0.083363 -0.046965 1022550.000000 0 0 1
-29.616208 23.968010 1.545209 38.130998 -0.680378 1.530262 0.091941 -0.038958 607978.000000 0 0 1
-29.441308 25.343410 1.946009 38.895579 -0.710737 1.520744 0.062432 -0.030524 -288672.000000 0 0 1
-28.777408 26.273510 0.902309 38.977567 -0.739946 1.547645 0.034048 -0.017852 64333.000000 0 0 1
-27.536408 25.897910 0.361609 37.803258 -0.754744 1.561231 0.028001 -0.018524 -248608.000000 0 0 1
-27.111308 26.687510 -0.737491 38.049838 -0.777521 1.590180 0.022098 -0.015448 212109.000000 0 0 1
-25.797708 26.221210 -1.410791 36.811193 -0.793539 1.609131 0.025107 -0.013229 -178735.000000 0 0 1
-26.042308 25.111510 -2.319991 36.251512 -0.767204 1.634837 0.053497 -0.024898 740686.000000 0 0 1
-24.850408 24.494710 -2.876791 35.011563 -0.778190 1.653056 0.044426 -0.014064 997555.000000 0 0 1
-24.127008 23.585610 -1.813591 33.788795 -0.774052 1.624496 0.032640 -0.013635 147350.000000 0 0 1
-24.896208 22.427810 -1.530291 33.543549 -0.733286 1.616433 0.055120 -0.024786 -307716.000000 0 0 1
-24.069108 21.490510 -0.985291 32.282113 -0.728860 1.601322 0.038941 -0.029041 -907448.000000 0 0 1
-24.848408 20.191710 -0.673791 32.025030 -0.682374 1.591837 0.061194 -0.034152 -327078.000000 0 0 1
-25.671608 20.247310 0.500509 32.699168 -0.667815 1.555489 0.047293 -0.035483 832954.000000 0 0 1
-26.913108 20.958010 0.389309 34.113123 -0.661635 1.559384 0.048330 -0.039897 222148.000000 0 0 1
-27.939708 20.467610 -0.645991 34.640550 -0.632248 1.589446 0.049962 -0.051205 -1070300.000000 0 0 1
-28.339608 19.118810 -0.400791 34.188053 -0.593497 1.582520 0.048948 -0.048940 130226.000000 0 0 1
-29.227308 18.646110 -1.382891 34.696187 -0.567871 1.610664 0.064185 -0.045543 -184147.000000 0 0 1
-29.517008 17.132910 -1.301791 34.153844 -0.525914 1.608921 0.070297 -0.037491 133434.000000 0 0 1
-30.267608 16.604710 -0.191991 34.523635 -0.501765 1.576357 0.083679 -0.039767 619518.000000 0 0 1
-30.410608 15.190410 -0.218791 33.994140 -0.463256 1.577233 0.095357 -0.037900 -25489.500000 0 0 1
-29.106308 14.429510 0.155209 32.487106 -0.460243 1.566019 0.119169 -0.033836 -213366.000000 0 0 1
-28.792008 14.823610 1.481109 32.417786 -0.475458 1.525092 0.136345 -0.027148 855981.000000 0 0 1
-27.471908 14.572310 1.981909 31.160647 -0.487705 1.507150 0.135903 -0.025468 641839.000000 0 0 1
-26.833408 13.164310 2.020509 29.956858 -0.456095 1.503298 0.145293 -0.027921 -407357.000000 0 0 1
-26.663808 12.557910 0.726609 29.481990 -0.440157 1.546148 0.137234 -0.035214 719573.000000 0 0 1
-25.946908 11.297610 0.837409 28.312176 -0.410657 1.541214 0.135078 -0.022369 136561.000000 0 0 1
-26.006408 10.481510 -0.462691 28.042992 -0.383121 1.587296 0.133327 -0.025286 -515725.000000 0 0 1
-27.299308 10.039510 -0.739891 29.096244 -0.352406 1.596228 0.143896 -0.027604 -103089.000000 0 0 1
-27.237208 9.189910 -1.851491 28.805346 -0.325409 1.635117 0.150195 -0.033733 -21659.800000 0 0 1
-28.617308 8.650410 -2.272491 29.982397 -0.293546 1.646663 0.147890 -0.035604 -141342.000000 0 0 1
-28.558108 7.715910 -3.369991 29.773439 -0.263882 1.684227 0.139455 -0.034428 123639.000000 0 0 1
-29.826108 7.459710 -3.927691 30.994689 -0.245079 1.697859 0.137949 -0.029658 -65996.100000 0 0 1
-11.166763 17.644410 -19.763691 28.751092 -1.006552 2.328708 0.089012 -0.018483 379997.000000 0 0 1
-11.783763 16.770710 -20.697591 29.129093 -0.958301 2.361072 0.081776 -0.025990 -150633.000000 0 0 1
-11.060763 16.808210 -21.904091 29.742993 -0.988778 2.398597 0.079754 -0.029941 83259.200000 0 0 1
-11.245163 15.590510 -22.817891 29.835781 -0.945929 2.441500 0.077018 -0.024992 -229474.000000 0 0 1
-10.583263 14.424810 -22.428891 28.690343 -0.937819 2.468276 0.089122 -0.031144 -137434.000000 0 0 1
-10.459263 13.459410 -23.489391 29.022464 -0.910178 2.513844 0.082674 -0.030152 581736.000000 0 0 1
-9.530163 12.216210 -23.074991 27.794154 -0.908293 2.550281 0.074505 -0.024688 1425830.000000 0 0 1
-8.114163 12.452110 -23.083091 27.454030 -0.993276 2.569538 0.069005 -0.025138 222337.000000 0 0 1
-7.483563 11.442510 -22.426491 26.265610 -0.991604 2.594105 0.053820 -0.017463 -108897.000000 0 0 1
-5.950963 11.598310 -22.308391 25.837938 -1.096733 2.612760 0.054097 -0.013905 269023.000000 0 0 1
-5.291063 11.458510 -23.572991 26.739086 -1.138207 2.650023 0.042959 -0.019118 190364.000000 0 0 1
-3.895463 11.286410 -23.346391 26.222350 -1.238452 2.668853 0.036399 -0.016584 204658.000000 0 0 1
-3.120263 10.960510 -24.636991 27.144984 -1.293451 2.708346 0.052682 -0.029916 -377888.000000 0 0 1
-3.235163 9.653910 -25.164451 27.146157 -1.247444 2.757126 0.047404 -0.033429 -92268.100000 0 0 1
-2.589863 9.485810 -26.384801 28.157516 -1.304267 2.784860 0.050678 -0.034601 -367621.000000 0 0 1
-2.316963 8.005110 -26.889861 28.151638 -1.289060 2.841061 0.056486 -0.018094 159288.000000 0 0 1
-1.299163 7.178610 -26.317701 27.310101 -1.391757 2.871184 0.071218 -0.026089 276490.000000 0 0 1
-1.353363 6.870510 -24.993091 25.955541 -1.376305 2.868418 0.073877 -0.034970 -105034.000000 0 0 1
-0.277763 5.823910 -24.554491 25.237236 -1.523139 2.908458 0.012913 -0.020230 -72805.300000 0 0 1
1.049337 6.320410 -24.617991 25.438046 1.406274 2.886987 0.042828 -0.003561 353665.000000 0 0 1
1.893637 5.486710 -23.810691 24.507934 1.238465 2.902487 0.041348 0.019571 199584.000000 0 1 0
1.819737 5.859310 -22.243991 23.074620 1.269669 2.872462 0.030614 0.004109 -413980.000000 0 1 0
2.139637 7.221710 -22.157891 23.403061 1.282757 2.813922 0.011626 -0.005884 170863.000000 0 1 0
2.298537 7.699710 -20.867191 22.360869 1.280696 2.774017 0.030922 -0.008658 142234.000000 0 1 0
2.586737 9.261010 -20.924891 23.028430 1.298423 2.710847 0.020719 -0.017902 -87552.300000 0 1 0
2.997937 9.839210 -19.688291 22.213205 1.275040 2.660161 0.030954 -0.027748 37161.400000 0 1 0
3.215937 11.245510 -19.922791 23.102410 1.292256 2.610726 0.026153 -0.015843 -407107.000000 0 1 0
4.178537 11.734710 -18.820491 22.569326 1.228712 2.556927 0.022141 -0.015892 -146004.000000 0 1 0
5.466837 11.230410 -19.088291 22.811647 1.117774 2.562169 0.036375 -0.017453 -548176.000000 0 1 0
6.171737 11.092110 -17.857391 21.909168 1.063047 2.523637 0.032776 -0.026038 12616.800000 0 1 0
7.356137 10.112410 -18.013091 21.928179 0.941893 2.534760 0.063152 -0.047212 -334135.000000 0 1 0
7.088937 8.768010 -18.454291 21.626185 0.890894 2.593137 0.057656 -0.031422 -196103.000000 0 1 0
7.042137 8.526910 -19.859791 22.731282 0.880478 2.633505 0.064783 -0.020054 -91142.800000 0 1 0
6.641037 7.137610 -20.302091 22.521628 0.821422 2.693901 0.064284 -0.016674 -80371.700000 0 1 0
7.595437 6.127610 -20.036391 22.286660 0.678843 2.688347 0.065950 -0.028341 230290.000000 0 1 0
7.150137 4.888210 -20.478291 22.234645 0.599670 2.741457 0.060197 -0.014568 -15056.600000 0 1 0
7.503837 4.597610 -21.988491 23.684157 0.549706 2.760893 0.078155 -0.021178 93076.300000 0 1 0
6.600237 5.203210 -22.905491 24.398730 0.667589 2.789922 0.083029 -0.017495 150142.000000 0 1 0
7.002437 5.004210 -24.237791 25.720551 0.620483 2.800385 0.087778 -0.020370 -200195.000000 0 0 1
6.069437 5.724310 -25.241021 26.584110 0.756143 2.822364 0.074085 -0.025084 -25199.900000 0 0 1
6.057837 7.150110 -25.157341 26.846103 0.867909 2.785009 0.061307 -0.033401 336412.000000 0 0 1
5.304937 7.647710 -24.042791 25.781497 0.964336 2.772236 0.076498 -0.035852 -883870.000000 0 0 1
5.054737 9.201210 -24.165591 26.347455 1.068448 2.731763 0.074198 -0.045527 -235799.000000 0 0 1
4.026837 9.548310 -25.042621 27.102002 1.171696 2.749244 0.072439 -0.043079 100522.000000 0 0 1
2.737637 9.419210 -24.445591 26.340142 1.287945 2.760002 0.058846 -0.038302 452251.000000 0 0 1
1.526637 9.911010 -25.334371 27.246818 1.417963 2.764693 0.072298 -0.026748 491834.000000 0 0 1
1.365537 11.294610 -25.371641 27.805630 1.450479 2.720063 0.084309 -0.050718 378230.000000 0 0 1
0.272237 11.723810 -26.172771 28.679884 1.547580 2.720353 0.101136 -0.055353 -119565.000000 0 0 1
0.227337 13.256710 -26.328131 29.478170 1.553649 2.675075 0.096718 -0.059614 -243065.000000 0 0 1
-0.031163 13.961910 -25.163861 28.777696 -1.568564 2.635040 0.086521 -0.058969 -45422.600000 0 0 1
-0.168963 15.308810 -25.342671 29.608093 -1.559760 2.598157 0.095523 -0.064922 -293087.000000 0 0 1
-0.824163 15.901110 -24.091191 28.877500 -1.519012 2.557576 0.101364 -0.047609 -934008.000000 0 0 1
-2.064863 15.345210 -23.844691 28.430765 -1.437039 2.565676 0.091543 -0.045026 -1095680.000000 0 0 1
-2.597063 15.794110 -22.668491 27.749939 -1.407822 2.526785 0.089764 -0.047236 -553714.000000 0 0 1
-3.862963 15.068410 -22.138891 27.057531 -1.319839 2.529096 0.088790 -0.041448 908163.000000 0 0 1
-5.142763 15.496110 -22.624491 27.900628 -1.250359 2.516477 0.101902 -0.044798 393371.000000 0 0 1
-5.380063 15.140810 -23.977191 28.863383 -1.229376 2.551184 0.087142 -0.044920 -120690.000000 0 0 1
-6.865063 15.172010 -24.471691 29.600382 -1.145880 2.544077 0.065250 -0.037934 466780.000000 0 0 1
-7.394063 16.456910 -24.552291 30.468296 -1.148526 2.507873 0.068455 -0.037898 -843235.000000 0 0 1
-8.592463 16.349710 -25.252151 31.286012 -1.086924 2.510086 0.069369 -0.031753 -371438.000000 0 0 1
-9.388063 17.663810 -25.574151 32.468186 -1.082279 2.477811 0.067312 -0.031162 280877.000000 0 0 1
-9.976963 18.293810 -24.474291 32.143338 -1.071512 2.436283 0.069828 -0.036517 375432.000000 0 0 1
-11.059663 19.170710 -24.800791 33.240209 -1.047532 2.412994 0.069593 -0.025896 956671.000000 0 0 1
-11.649463 20.084810 -23.665491 33.153658 -1.045202 2.365723 0.061200 -0.023283 160878.000000 0 0 1
-10.787463 21.157210 -23.429491 33.360725 -1.099283 2.349430 0.063812 -0.022966 -27264.500000 0 0 1
-11.354763 22.410610 -23.797191 34.604514 -1.101828 2.329099 0.054925 -0.019554 -35021.100000 0 0 1
-11.029063 22.982810 -25.201711 35.846562 -1.123371 2.350465 0.056342 -0.015399 -52320.900000 0 0 1
-11.570363 22.278410 -26.318391 36.371123 -1.091786 2.379810 0.052195 -0.019568 84956.800000 0 0 1
-11.135563 22.831110 -27.514521 37.447419 -1.117008 2.396096 0.065973 -0.011318 -253752.000000 0 0 1
-11.604563 22.060010 -28.779711 38.073373 -1.086530 2.427826 0.054180 -0.007690 9876.680000 0 0 1
-10.883863 20.956510 -29.336351 37.659730 -1.091785 2.463841 0.047467 -0.005827 -111000.000000 0 0 1
-10.741563 19.868310 -28.495141 36.360748 -1.075169 2.471362 0.050067 -0.008202 -352209.000000 0 0 1
-9.895263 18.778510 -29.159471 36.066930 -1.085825 2.512365 0.054233 -0.015033 12739.900000 0 0 1
-8.542963 19.265010 -29.167071 35.983897 -1.153407 2.515902 0.056835 -0.018815 384844.000000 0 0 1
-7.532263 18.461010 -29.739801 35.805023 -1.183405 2.550988 0.056491 -0.018842 411797.000000 0 0 1
-7.224163 17.137110 -28.963161 34.419962 -1.171851 2.570784 0.063382 -0.027480 -1180440.000000 0 0 1
-8.239563 16.186410 -29.070871 34.278358 -1.099941 2.583152 0.052298 -0.021880 -318159.000000 0 0 1
-7.964963 14.933910 -28.470361 33.121349 -1.080828 2.605238 0.041349 -0.023483 386875.000000 0 0 1
-9.302963 14.118210 -28.428531 33.076432 -0.988166 2.605048 0.043918 -0.016214 822676.000000 0 0 1
-10.301063 14.660610 -27.590881 32.898360 -0.958304 2.565634 0.058998 -0.026245 -76271.500000 0 0 1
-11.514363 13.943610 -27.605781 33.001272 -0.880532 2.561673 0.084845 -0.028653 120066.000000 0 0 1
-12.527663 14.399710 -26.560891 32.707414 -0.854809 2.518496 0.085083 -0.027717 -137399.000000 0 0 1
-13.053563 15.697510 -26.827501 33.712344 -0.877100 2.491086 0.073528 -0.027335 -208135.000000 0 0 1
-14.116663 15.889610 -25.907801 33.510805 -0.844415 2.454539 0.061655 -0.025973 13452.000000 0 0 1
-15.018163 17.085210 -26.284671 34.761093 -0.849697 2.428209 0.040212 -0.020764 -42862.600000 0 0 1
-14.414963 18.370610 -26.247741 35.131387 -0.905470 2.414531 0.048525 -0.018492 208607.000000 0 0 1
-15.405363 19.339910 -26.547951 36.278796 -0.898158 2.391720 0.037595 -0.012167 149655.000000 0 0 1
-14.828363 20.786310 -26.714071 36.953926 -0.951152 2.378790 0.039408 -0.013948 209247.000000 0 0 1
-15.856663 21.767410 -26.782001 37.980646 -0.941225 2.353429 0.021881 -0.010885 299945.000000 0 0 1
-15.411763 23.130510 -26.948691 38.714014 -0.983050 2.340742 0.032632 -0.009134 -2817.220000 0 0 1
-14.912563 23.846210 -25.697771 38.097266 -1.011935 2.311125 0.006743 -0.008502 16969.400000 0 0 1
-14.584363 25.191910 -26.024011 39.045936 -1.046013 2.300297 0.031794 -0.017148 17776.900000 0 0 1
-14.053863 25.938210 -24.941091 38.631073 -1.074254 2.272635 0.039107 -0.022530 -85553.800000 0 0 1
-13.988963 27.447610 -25.252481 39.834033 -1.099450 2.257437 0.056909 -0.025996 139041.000000 0 0 1
-15.212263 28.071910 -25.621201 40.937648 -1.074191 2.247029 0.057241 -0.024801 -22474.000000 0 0 1
-15.696663 29.039510 -24.647291 41.196691 -1.075254 2.212153 0.056456 -0.022508 -85485.300000 0 0 1
-17.074563 29.514610 -25.148351 42.368532 -1.046327 2.206274 0.056289 -0.025925 -75444.400000 0 0 1
-17.994763 28.484910 -24.909491 41.900887 -1.007372 2.207423 0.050920 -0.018893 -475509.000000 0 0 1
-19.285063 28.723010 -25.433241 42.939198 -0.979514 2.204717 0.037851 -0.018233 137993.000000 0 0 1
-20.325463 27.630410 -25.191161 42.557709 -0.936563 2.204247 0.027810 -0.007837 -223757.000000 0 0 1
-20.766963 27.399510 -23.871791 41.855254 -0.922238 2.177718 0.045002 -0.018782 -175711.000000 0 0 1
-21.666063 26.313610 -23.882591 41.619737 -0.881962 2.181969 0.058563 -0.027432 -99152.200000 0 0 1
-22.262663 26.055810 -22.448691 40.969198 -0.863741 2.150697 0.055496 -0.024496 549564.000000 0 0 1
-23.269663 27.007210 -22.068591 41.927191 -0.859601 2.125104 0.055677 -0.019772 407737.000000 0 0 1
-23.785563 26.809610 -20.736491 41.406645 -0.845097 2.095320 0.035281 -0.016150 -850867.000000 0 0 1
-24.957763 27.724210 -20.456191 42.543831 -0.837862 2.072393 0.018348 -0.005197 -1319620.000000 0 0 1
-26.105163 27.236810 -21.033391 43.194061 -0.806610 2.079392 0.016531 -0.008552 -1245000.000000 0 0 1
-27.108853 28.228210 -21.094691 44.460182 -0.805623 2.065150 0.027303 -0.003947 -420384.000000 0 0 1
-28.465683 27.639010 -21.432791 45.095172 -0.770665 2.066077 0.029085 -0.007275 -729516.000000 0 0 1
-28.521613 27.159310 -22.793191 45.504287 -0.760937 2.095437 0.026108 -0.003621 135933.000000 0 0 1
-29.827003 26.792110 -23.230891 46.337259 -0.731847 2.095947 0.013296 0.000487 344377.000000 0 0 1
-30.016303 26.265510 -24.634891 46.879989 -0.718853 2.124085 0.021391 0.011177 -81961.400000 0 0 1
-29.650973 24.908810 -24.842891 46.008676 -0.698699 2.141187 0.041135 0.003748 -97846.500000 0 0 1
-29.739963 24.697510 -26.230121 46.716717 -0.693033 2.166960 0.048056 0.007094 7657.750000 0 0 1
-29.883493 23.174610 -26.517981 46.187542 -0.659622 2.182346 0.055021 -0.001974 -301028.000000 0 0 1
-28.758203 22.434110 -26.102581 44.851625 -0.662485 2.191953 0.070581 -0.009926 -152975.000000 0 0 1
-28.712003 21.174210 -26.711861 44.567363 -0.635433 2.213497 0.078138 -0.023420 240595.000000 0 0 1
-27.519633 20.195710 -26.415541 43.162226 -0.633095 2.229391 0.091828 -0.026190 341487.000000 0 0 1
-27.486223 19.738610 -25.080161 42.120300 -0.622789 2.208611 0.087346 -0.021168 254902.000000 0 0 1
-26.772123 18.504310 -24.985391 41.029573 -0.604781 2.225546 0.067087 -0.023589 -309968.000000 0 0 1
-27.628883 17.260810 -24.895591 41.000990 -0.558411 2.223322 0.068812 -0.014259 -143636.000000 0 0 1
-28.330233 16.973010 -26.133561 42.114703 -0.539767 2.240218 0.071836 -0.017010 -167037.000000 0 0 1
-29.393603 16.140510 -25.810051 42.316176 -0.502165 2.226773 0.038658 -0.012102 -824410.000000 0 0 1
-30.042303 15.593610 -27.070861 43.342037 -0.478775 2.245399 0.038399 -0.013010 -9342.900000 0 0 1
-31.175653 16.339810 -27.500461 44.667506 -0.482758 2.234033 0.023981 -0.008694 350050.000000 0 0 1
-31.908613 15.548210 -28.435101 45.480341 -0.453414 2.246206 0.022909 0.008567 269713.000000 0 0 1
-33.257833 16.116910 -28.910581 46.921849 -0.451256 2.234633 0.022045 -0.002188 -329976.000000 0 0 1
-34.301387 16.144510 -27.997831 47.128642 -0.439907 2.206908 0.007645 -0.000340 -530759.000000 0 0 1
-35.511565 16.403410 -28.663891 48.494967 -0.432720 2.203180 0.009869 -0.004301 529930.000000 0 0 1
36.678891 16.161510 -27.806951 48.782804 0.415027 2.177321 0.000434 0.006079 470785.000000 0 0 1
36.453281 17.047510 -26.745031 48.319313 0.437437 2.157364 0.000936 0.000585 23875.200000 0 0 1
35.235931 16.661710 -26.142101 46.931790 0.441702 2.161594 0.007875 -0.002970 140292.000000 0 0 1
34.587391 17.726310 -25.204431 46.322490 0.473604 2.146122 0.007758 -0.000622 18053.900000 0 0 1
34.106281 18.880510 -25.872121 46.787592 0.505587 2.156721 0.004000 -0.014058 187264.000000 0 0 1
33.541891 19.775110 -24.956991 46.248944 0.532711 2.140785 0.019546 -0.007487 -354135.000000 0 0 1
32.965241 21.053010 -25.598951 46.746579 0.568350 2.150303 0.023418 -0.008756 192030.000000 0 0 1
31.690911 20.967810 -26.188961 46.150023 0.584511 2.174232 0.026022 -0.015248 9085.360000 0 0 1
30.606571 21.510610 -25.457741 45.250029 0.612610 2.168326 0.051478 -0.004940 308700.000000 0 0 1
29.238551 21.304110 -26.152441 44.639760 0.629684 2.196731 0.036341 -0.015426 218164.000000 0 0 1
28.833621 19.988010 -26.355611 43.880708 0.606160 2.215072 0.049184 -0.030186 -1307950.000000 0 0 1
27.579981 19.869810 -26.885711 43.339430 0.624315 2.239988 0.056691 -0.034387 -1405520.000000 0 0 1
27.205681 18.344610 -26.871021 42.411385 0.593264 2.256969 0.083077 -0.035551 -14219.700000 0 0 1
28.010981 17.489210 -27.667681 43.081181 0.558146 2.268190 0.067423 -0.039622 730014.000000 0 0 1
29.249881 17.084710 -27.061371 43.356207 0.528643 2.244857 0.064357 -0.030557 592871.000000 0 0 1
30.118781 16.096210 -27.916971 44.108800 0.490806 2.256104 0.055497 -0.022310 24651.500000 0 0 1
29.602821 14.828110 -28.335591 43.578729 0.464369 2.278665 0.065102 -0.026189 293842.000000 0 0 1
28.808201 14.096710 -27.405341 42.186282 0.455075 2.277890 0.069464 -0.026205 141240.000000 0 0 1
29.660101 13.410310 -26.319051 41.859891 0.424626 2.250730 0.066601 -0.016136 212146.000000 0 0 1
30.229811 14.331410 -25.361141 41.981166 0.442699 2.219442 0.069340 -0.025121 337001.000000 0 0 1
30.949431 13.652810 -24.334991 41.670833 0.415456 2.194421 0.061050 -0.018134 42954.000000 0 0 1
-14.728963 -31.164081 -23.659091 41.807833 1.129287 2.172322 0.098627 -0.014332 -13043.900000 0 0 1
-14.178963 -30.149781 -24.496691 41.353841 1.131203 2.204791 0.089830 -0.026764 -129119.000000 0 0 1
-14.571163 -30.058481 -25.816361 42.217480 1.119415 2.228762 0.072359 -0.018354 -123759.000000 0 0 1
-13.908163 -28.838281 -26.494181 41.557491 1.121424 2.262085 0.077322 -0.020987 -85816.800000 0 0 1
-14.362663 -27.578281 -26.037741 40.556277 1.090651 2.267920 0.089186 -0.013787 271255.000000 0 0 1
-13.563063 -26.488381 -26.520331 39.861247 1.097565 2.298714 0.067456 -0.015191 211372.000000 0 0 1
-14.208763 -25.140281 -26.061321 38.898781 1.056374 2.304975 0.041118 -0.018033 58774.100000 0 0 1
-14.015863 -24.799881 -24.680491 37.690916 1.056390 2.284731 0.046485 -0.030743 91844.800000 0 0 1
-14.492363 -23.507581 -24.354391 36.820800 1.018335 2.293520 0.036830 -0.027001 -778561.000000 0 0 1
-13.930763 -22.967481 -23.107191 35.433228 1.025580 2.281191 0.056419 -0.021723 370210.000000 0 0 1
-12.551363 -22.610681 -23.253891 34.778198 1.064040 2.303167 0.059643 -0.033889 268269.000000 0 0 1
-12.054463 -22.181381 -22.027391 33.504174 1.072996 2.288229 0.052627 -0.030110 433337.000000 0 0 1
-10.500763 -22.145381 -21.898291 32.866687 1.128022 2.300000 0.068267 -0.031574 403786.000000 0 0 1
-10.118163 -20.976681 -22.565091 32.428101 1.121366 2.340399 0.082021 -0.029643 -665852.000000 0 0 1
-8.727463 -20.842081 -22.627991 31.977913 1.174238 2.356911 0.090364 -0.022925 -157984.000000 0 0 1
-8.228763 -19.634081 -23.491691 31.702827 1.173928 2.405350 0.108687 -0.016030 65008.500000 0 0 1
-8.937663 -18.472781 -23.135791 30.925560 1.120169 2.416009 0.084258 -0.016933 -202304.000000 0 0 1
-9.093063 -17.454881 -24.073091 31.094539 1.090532 2.456231 0.086994 -0.013513 354002.000000 0 0 1
-7.807263 -16.690481 -24.605791 30.740372 1.133266 2.498823 0.091955 -0.020749 737687.000000 0 0 1
-7.203663 -17.449281 -25.635171 31.836020 1.179275 2.506852 0.077717 -0.023057 -132887.000000 0 0 1
-6.165863 -16.718681 -26.239971 31.718579 1.217472 2.545035 0.066471 -0.022213 42470.700000 0 0 1
-5.419263 -17.426381 -27.395911 32.917824 1.269296 2.553953 0.063630 -0.010792 -329112.000000 0 0 1
-6.201963 -17.197381 -28.520561 33.876786 1.224679 2.571574 0.086487 -0.019534 162332.000000 0 0 1
-5.817563 -18.062781 -29.613701 35.172139 1.259213 2.571711 0.077084 -0.025171 -777494.000000 0 0 1
-6.789163 -17.864581 -30.759691 36.213182 1.207619 2.585655 0.088644 -0.027666 -268025.000000 0 0 1
-6.630463 -16.803781 -31.747751 36.527384 1.194970 2.624276 0.090208 -0.029343 -106348.000000 0 0 1
-6.591663 -15.537581 -31.192341 35.465879 1.169570 2.645613 0.077616 -0.030480 -115306.000000 0 0 1
-7.399463 -14.504381 -31.999211 35.903741 1.099059 2.670890 0.077740 -0.029429 -72535.800000 0 0 1
-6.729963 -14.134081 -33.168681 36.677323 1.126409 2.700621 0.081752 -0.038340 -48942.700000 0 0 1
-7.458863 -13.168181 -33.920261 37.143233 1.055426 2.721935 0.079549 -0.029630 -165119.000000 0 0 1
-7.579163 -11.723381 -33.316141 36.122661 0.996886 2.744801 0.064717 -0.027322 47846.100000 0 0 1
-6.461763 -10.879281 -33.505491 35.815235 1.034836 2.780495 0.061478 -0.022636 -92793.000000 0 0 1
-6.300263 -10.307481 33.336396 35.457760 1.022159 0.347661 0.038146 -0.020847 -215794.000000 0 0 1
-5.023363 -9.450181 33.292597 34.970518 1.082219 0.311030 0.045555 -0.015439 -183211.000000 0 0 1
-4.989263 -8.659681 32.087871 33.608247 1.048099 0.301939 0.035848 -0.014298 -151132.000000 0 0 1
-3.958163 -7.707681 32.140598 33.288037 1.096380 0.263325 0.039071 -0.024857 -941784.000000 0 0 1
-4.041663 -6.899981 30.837391 31.857330 1.040921 0.253725 0.034069 -0.018577 996287.000000 0 0 1
-5.152263 -5.978881 30.701991 31.700238 0.859524 0.251622 0.023851 -0.012881 847757.000000 0 0 1
-6.407463 -6.585781 30.504741 31.858552 0.799121 0.292571 0.025401 -0.009782 250249.000000 0 0 1
-7.686363 -5.750481 30.212591 31.700928 0.642310 0.307641 0.022130 -0.008013 981509.000000 0 0 1
-8.870463 -6.376881 29.765291 31.706817 0.623291 0.351764 0.019008 0.001830 474801.000000 0 0 1
-10.004663 -5.490681 29.767741 31.880390 0.501931 0.366096 0.030542 -0.005638 6912.860000 0 0 1
-11.114563 -6.099781 28.942211 31.597348 0.501929 0.412879 0.037352 -0.010558 -822241.000000 0 0 1
-10.782763 -6.163081 27.579681 30.247154 0.519251 0.423124 0.026847 -0.008314 -299996.000000 0 0 1
-11.797663 -6.612881 26.777681 29.999321 0.510888 0.467696 0.037345 -0.019317 -735252.000000 0 0 1
-11.379263 -6.415681 25.304521 28.477489 0.513380 0.476557 0.034817 -0.014904 486877.000000 0 0 1
-10.385263 -7.341581 24.815451 27.884747 0.615357 0.473606 0.028349 -0.009827 693899.000000 0 0 1
-9.573463 -6.837181 23.785611 26.535891 0.620180 0.459315 0.024835 -0.016769 -17564.800000 0 0 1
-10.247763 -6.950681 22.366391 25.565290 0.595988 0.505622 0.036854 -0.021607 689583.000000 0 0 1
-11.331163 -6.005681 22.232491 25.666069 0.487370 0.523207 0.032085 -0.019721 -3819.020000 0 0 1
-12.166363 -6.329181 21.183591 25.235361 0.479692 0.574543 0.036442 -0.018401 -629222.000000 0 0 1
-13.256663 -5.255581 21.061991 25.435560 0.377441 0.595170 0.029636 -0.012902 -139341.000000 0 0 1
-12.766463 -3.987281 20.642891 24.596950 0.302725 0.574901 0.014473 -0.008887 633321.000000 0 1 0
-13.843763 -3.034381 20.768291 25.143173 0.215775 0.598820 0.022069 -0.007707 819611.000000 0 0 1
-13.563763 -1.667381 20.059191 24.271938 0.122315 0.598049 0.019901 -0.006852 910249.000000 0 1 0
-12.487863 -0.931381 20.737891 24.225489 0.074445 0.543245 0.022957 -0.013623 951649.000000 0 1 0
-12.681163 0.477619 20.712391 24.290804 -0.037646 0.549694 0.038317 -0.014757 -584114.000000 0 1 0
-12.444563 1.299619 19.391691 23.077995 -0.104055 0.573020 0.039190 -0.020944 386424.000000 0 1 0
-13.387463 1.031619 18.362691 22.748117 -0.076907 0.631373 0.042947 -0.012854 1343360.000000 0 1 0
-14.778063 1.383619 18.597391 23.794295 -0.093354 0.673585 0.042410 -0.006104 658653.000000 0 1 0
-15.691263 0.587619 17.708791 23.667748 -0.037431 0.725414 0.052758 0.001573 -547414.000000 0 1 0
-15.860563 -0.755381 18.102491 24.079623 0.047590 0.720045 0.027533 -0.002098 -153748.000000 0 1 0
-16.726963 -1.464381 17.288791 24.100581 0.087324 0.770791 0.027460 -0.000972 -491547.000000 0 1 0
-16.850663 -2.991381 17.637691 24.576032 0.175693 0.770333 0.028104 0.001960 -260570.000000 0 1 0
-17.484963 -3.319481 18.830991 25.910405 0.187615 0.757184 0.042952 -0.000525 -167758.000000 0 0 1
-17.278663 -4.635981 19.247591 26.277638 0.262133 0.748853 0.051344 -0.003452 -564867.000000 0 0 1
-18.113163 -5.083081 20.409391 27.757299 0.273592 0.744716 0.058664 -0.000886 -1005680.000000 0 0 1
-17.814263 -4.482281 21.625491 28.374296 0.246495 0.704168 0.053789 0.001762 407055.000000 0 0 1
-18.751863 -4.732881 22.697191 29.819373 0.247232 0.705703 0.062747 -0.002185 -310281.000000 0 0 1
-18.731063 -6.180381 23.360361 30.573785 0.318706 0.701205 0.062239 0.003831 324778.000000 0 0 1
-17.529363 -6.553081 24.005051 30.437870 0.357748 0.662174 0.041991 -0.006318 896135.000000 0 0 1
-16.312863 -6.639781 23.256431 29.172895 0.386550 0.648165 0.041651 -0.011758 190277.000000 0 0 1
-15.150363 -7.338681 23.993461 29.309997 0.451082 0.611809 0.059955 -0.015422 -17650.700000 0 0 1
-15.449763 -8.701081 24.324621 30.101348 0.512910 0.629893 0.068712 -0.018156 340754.000000 0 0 1
-14.978463 -9.041281 25.639741 31.040223 0.543076 0.598793 0.070151 -0.015170 704719.000000 0 0 1
-15.975063 -10.120981 26.219621 32.328090 0.564723 0.624856 0.063873 -0.009867 63506.000000 0 0 1
-15.625563 -11.444981 25.977481 32.403323 0.632176 0.640676 0.065842 -0.018095 26461.900000 0 0 1
-14.743363 -11.932081 26.982941 32.982123 0.680397 0.612683 0.072394 -0.016059 128619.000000 0 0 1
-14.643263 -13.483981 26.881091 33.449005 0.744206 0.637403 0.073778 -0.020809 -21197.700000 0 0 1
-15.869763 -14.087581 27.235171 34.526278 0.725978 0.661902 0.063185 -0.021776 47591.500000 0 0 1
-16.051363 -15.455681 26.903901 34.933426 0.766494 0.691724 0.067066 -0.014156 91501.100000 0 0 1
-15.170263 -16.502381 27.680601 35.618550 0.827432 0.680688 0.066486 -0.012868 168341.000000 0 0 1
-13.843463 -16.492881 27.211041 34.700106 0.872512 0.669427 0.067675 -0.018034 -11510.400000 0 0 1
-13.016563 -17.428681 27.898251 35.376578 0.929316 0.662254 0.074036 -0.015767 -416804.000000 0 0 1
-11.733063 -17.704881 27.131471 34.456412 0.985543 0.664193 0.069594 -0.023919 -90712.900000 0 0 1
-10.727263 -18.175781 28.054621 35.106907 1.037617 0.644967 0.082359 -0.033692 311691.000000 0 0 1
-9.557063 -18.638981 27.432501 34.515086 1.097004 0.652123 0.081551 -0.032007 515996.000000 0 0 1
-8.474863 -19.240281 28.403791 35.338181 1.155892 0.637190 0.096360 -0.042920 434985.000000 0 0 1
-8.808063 -20.549881 28.818651 36.474570 1.165865 0.659820 0.094496 -0.039128 -94676.100000 0 0 1
-7.843563 -21.051281 29.700991 37.240123 1.214137 0.647568 0.101180 -0.041253 -231746.000000 0 0 1
-8.366263 -22.232881 30.436631 38.609375 1.210885 0.662719 0.093148 -0.029669 -51291.900000 0 0 1
-8.459463 -23.365781 29.577981 38.631324 1.223432 0.698749 0.089964 -0.036814 26885.800000 0 0 1
-8.893963 -24.525781 30.300541 39.984238 1.222908 0.710843 0.075757 -0.031907 -99261.700000 0 0 1
-8.947663 -25.764881 29.416831 40.115330 1.236545 0.747624 0.075753 -0.027452 37312.400000 0 0 1
-9.971363 -25.793081 28.423921 39.656404 1.201903 0.771659 0.064757 -0.029034 285445.000000 0 0 1
-9.789763 -26.947981 27.618221 39.809538 1.222337 0.804101 0.058430 -0.026412 -226809.000000 0 0 1
-10.993663 -27.239681 26.691881 39.690268 1.187199 0.833209 0.041837 -0.019316 -22188.200000 0 0 1
-11.204863 -26.387681 25.585101 38.424680 1.169244 0.842163 0.041999 -0.021305 -70156.500000 0 0 1
-11.765563 -25.141881 25.921171 37.979597 1.133102 0.819615 0.043499 -0.017737 -376489.000000 0 0 1
-12.130063 -24.305881 24.634551 36.671179 1.107902 0.834202 0.045024 -0.028321 526490.000000 0 0 1
-13.356563 -24.676581 23.996941 36.921330 1.074684 0.863280 0.032996 -0.021875 284699.000000 0 0 1
-13.401763 -24.070481 22.756191 35.732892 1.062769 0.880402 0.051380 -0.031711 338312.000000 0 0 1
-14.706463 -24.060081 21.882991 35.693597 1.022154 0.910844 0.053654 -0.029748 291558.000000 0 0 1
-15.000763 -25.378281 21.421691 36.441308 1.036957 0.942409 0.056115 -0.031833 -475734.000000 0 0 1
-16.066363 -25.378181 20.538091 36.386719 1.006409 0.971043 0.075006 -0.032763 -427848.000000 0 0 1
-16.559263 -26.768481 20.048091 37.318718 1.016805 1.003667 0.082469 -0.023859 -380625.000000 0 0 1
-15.582663 -27.360481 19.280091 36.920688 1.053081 1.021364 0.088024 -0.031791 -579326.000000 0 0 1
-15.831763 -28.692181 18.894991 37.827327 1.066588 1.047767 0.097123 -0.024061 319652.000000 0 0 1
-14.736463 -29.238081 17.932291 37.330896 1.103941 1.069731 0.092900 -0.033313 347585.000000 0 0 1
-14.971363 -28.678281 16.683991 36.399740 1.089668 1.094653 0.107848 -0.040737 -216102.000000 0 0 1
-13.985063 -29.056381 15.777091 35.899469 1.122214 1.115777 0.102028 -0.043091 -83086.600000 0 0 1
-14.260663 -28.508581 14.327691 34.948368 1.106970 1.148378 0.100439 -0.036052 78757.700000 0 0 1
-14.432563 -27.092481 14.274091 33.853376 1.081321 1.135538 0.096761 -0.032121 -126727.000000 0 0 1
-14.789863 -26.654381 12.983991 33.132765 1.064218 1.168125 0.092529 -0.024469 -29402.600000 0 0 1
-13.782463 -26.964281 11.864591 32.523796 1.098278 1.197381 0.072758 -0.016495 111771.000000 0 0 1
-14.133063 -26.277581 10.705891 31.699698 1.077339 1.226294 0.054287 -0.003608 -202770.000000 0 0 1
-13.246563 -26.671281 9.684791 31.314914 1.109824 1.256370 0.053886 -0.009642 36135.000000 0 0 1
-13.362363 -25.831081 8.378591 30.265464 1.093406 1.290296 0.059671 -0.007890 -518643.000000 0 0 1
-14.446963 -26.108081 7.547691 30.778471 1.065383 1.323043 0.062100 -0.019741 -613090.000000 0 0 1
-14.473463 -25.421381 6.365191 29.937325 1.053224 1.356544 0.058109 -0.022282 254198.000000 0 0 1
-15.560263 -25.847381 5.346391 30.639726 1.028904 1.395406 0.062590 -0.020068 156432.000000 0 0 1
-15.233463 -27.081481 4.816291 31.442991 1.058403 1.417016 0.061252 -0.030979 236503.000000 0 0 1
-16.140563 -27.399981 3.769291 32.023184 1.038451 1.452818 0.086124 -0.019799 144920.000000 0 0 1
-15.664963 -28.717981 3.084291 32.857669 1.071433 1.476790 0.080866 -0.018315 -418662.000000 0 0 1
-14.401963 -28.459781 2.528491 31.996390 1.102323 1.491690 0.072113 -0.012649 -433295.000000 0 0 1
-13.888763 -29.633881 1.909991 32.782812 1.132518 1.512501 0.072101 -0.016744 -452200.000000 0 0 1
-12.433363 -29.432581 1.494491 31.985917 1.171100 1.524056 0.055499 -0.015066 -672853.000000 0 0 1
-12.172063 -28.816381 0.246191 31.282640 1.171129 1.562926 0.062764 -0.014442 -126856.000000 0 0 1
-12.488763 -27.470481 0.073291 30.176182 1.144103 1.568368 0.056110 -0.016565 -369574.000000 0 0 1
-12.350363 -26.966681 -1.345709 29.690812 1.141321 1.616136 0.061982 -0.016326 1874410.000000 0 0 1
-10.968663 -27.040381 -1.862209 29.239727 1.185437 1.634527 0.072325 -0.020133 1620350.000000 0 0 1
-10.783963 -26.381181 -3.098809 28.668157 1.182748 1.679100 0.091597 -0.021163 804181.000000 0 0 1
-9.320163 -26.621181 -3.599109 28.434246 1.234029 1.697713 0.082775 -0.022917 649427.000000 0 0 1
-9.009063 -25.830481 -4.690809 27.755732 1.235212 1.740615 0.086797 -0.022229 182882.000000 0 0 1
-7.614963 -25.864981 -4.980209 27.418742 1.284474 1.753445 0.096834 -0.016823 646492.000000 0 0 1
-7.012963 -24.684981 -5.744409 26.296924 1.293991 1.791016 0.067253 -0.013996 -60005.700000 0 0 1
-7.100463 -24.809881 -7.145809 26.777031 1.292052 1.840933 0.079342 -0.007515 163603.000000 0 0 1
-6.429163 -23.743181 -7.867509 25.825772 1.306358 1.880355 0.072506 -0.004394 66441.700000 0 0 1
-6.628063 -23.627881 -9.417809 26.285036 1.297307 1.937238 0.069200 -0.006312 4845.730000 0 0 1
-5.955163 -24.708581 -10.107509 27.352143 1.334291 1.949302 0.049708 -0.005558 208440.000000 0 0 1
-6.143263 -24.701981 -11.494409 27.929358 1.327046 1.994954 0.039373 0.001431 833166.000000 0 0 1
-7.594063 -25.056181 -12.006509 28.803442 1.276515 2.000766 0.048853 -0.006333 740156.000000 0 0 1
-7.709263 -24.843981 -13.374409 29.249461 1.269911 2.045700 0.053065 -0.008186 9898.340000 0 0 1
-9.007463 -25.247681 -13.750009 30.127107 1.228108 2.044741 0.067519 -0.011666 -523256.000000 0 0 1
-9.102863 -25.378981 -15.325509 31.013321 1.226412 2.087663 0.074860 -0.017016 990163.000000 0 0 1
-8.109163 -26.233881 -15.994809 31.777492 1.271003 2.098253 0.064737 -0.022283 1721530.000000 0 0 1
-6.760863 -25.727881 -15.992209 31.038426 1.313823 2.112083 0.066596 -0.020058 844393.000000 0 0 1
-5.748763 -26.758981 -16.612209 32.016509 1.359178 2.116318 0.061198 -0.012111 72428.100000 0 0 1
-5.876063 -26.912081 -18.006209 32.909145 1.355827 2.149751 0.095266 -0.018233 -25315.800000 0 0 1
-4.829363 -27.570081 -18.681209 33.651445 1.397389 2.159326 0.076887 -0.022154 -35032.300000 0 0 1
-25.718633 14.324910 -4.247791 29.743821 -0.508191 1.714099 0.088024 -0.039322 -276423.000000 0 0 1
-25.457943 12.938610 -4.160191 28.858650 -0.470214 1.715458 0.088146 -0.031804 144729.000000 0 0 1
-24.173963 12.582610 -4.614991 27.640563 -0.479915 1.738546 0.100427 -0.027536 -475860.000000 0 0 1
-23.829963 11.070610 -4.489491 26.656727 -0.434901 1.740022 0.104941 -0.040546 -106823.000000 0 0 1
-24.380063 10.167010 -5.457791 26.973006 -0.395093 1.774546 0.091663 -0.036516 11297.500000 0 0 1
-25.784643 10.080410 -5.369891 28.201033 -0.372677 1.762381 0.115984 -0.037053 -371481.000000 0 0 1
-26.453533 9.589810 -6.677991 28.919707 -0.347781 1.803814 0.126501 -0.027094 -77450.600000 0 0 1
-26.413053 10.545510 -7.752991 29.478230 -0.379863 1.836934 0.154955 -0.015246 -49350.800000 0 0 1
-26.951033 9.992210 -8.943791 30.103054 -0.355043 1.872456 0.147399 -0.011948 -157207.000000 0 0 1
-27.155733 10.964810 -10.126891 30.987334 -0.383757 1.903720 0.114692 -0.012125 -82269.300000 0 0 1
-25.962813 11.654310 -10.406791 30.301682 -0.421926 1.921373 0.108869 -0.005721 107702.000000 0 0 1
-26.104233 12.252710 -11.677391 31.111435 -0.438850 1.955561 0.108491 -0.007364 35924.800000 0 0 1
-25.106193 13.380910 -12.063791 30.901533 -0.489676 1.971856 0.074392 -0.002023 3098.830000 0 0 1
-25.252323 14.593010 -11.326391 31.287744 -0.524002 1.941217 0.077692 0.001926 1472.960000 0 0 1
-24.758363 15.703610 -12.059691 31.701989 -0.565241 1.961034 0.057791 0.004853 24998.700000 0 0 1
-24.967863 17.084710 -11.329091 32.305260 -0.600089 1.929103 0.078488 -0.001263 69944.800000 0 0 1
-24.086363 17.166410 -10.226391 31.295648 -0.619200 1.903677 0.075202 0.004095 14.185700 0 0 1
-23.843863 18.499210 -9.899291 31.760771 -0.659840 1.887760 0.037833 0.009914 -789951.000000 0 0 1
-22.707663 18.629610 -8.915091 30.694938 -0.687063 1.865485 0.034006 0.001677 -967543.000000 0 0 1
-22.880663 18.097210 -7.602591 30.146860 -0.669192 1.825734 0.050926 -0.012293 994481.000000 0 0 1
-24.021963 18.634110 -6.874891 31.169679 -0.659754 1.793188 0.044468 -0.016985 671575.000000 0 0 1
-24.323063 17.871310 -5.586691 30.695378 -0.633668 1.753821 0.052453 -0.021010 -388251.000000 0 0 1
-23.240963 18.017910 -4.729991 29.785236 -0.659476 1.730275 0.062839 -0.031329 -248556.000000 0 0 1
-23.506263 17.513110 -3.458991 29.516403 -0.640319 1.688255 0.062236 -0.031057 -508820.000000 0 0 1
-22.312863 17.444110 -2.516991 28.434066 -0.663542 1.659433 0.066211 -0.037550 -603650.000000 0 0 1
-21.775963 18.653410 -1.940391 28.738605 -0.708316 1.638366 0.066329 -0.038516 376984.000000 0 0 1
-20.842663 18.293110 -0.933491 27.747539 -0.720344 1.604445 0.123924 -0.044556 -133197.000000 0 0 1
-20.121663 19.528410 -0.340891 28.042046 -0.770437 1.582953 0.113616 -0.041167 -176690.000000 0 0 1
-20.947463 20.449410 0.330009 29.275989 -0.773368 1.559524 0.078848 -0.028344 302155.000000 0 0 1
-20.211463 21.580910 0.775109 29.577690 -0.818154 1.544587 0.077134 -0.032429 -139466.000000 0 0 1
-21.083263 22.248610 1.758609 30.701749 -0.812285 1.513485 0.056403 -0.022718 -320046.000000 0 0 1
-20.996963 21.612410 3.027909 30.284270 -0.799841 1.470646 0.069430 -0.016507 102714.000000 0 0 1
-22.152963 21.861910 3.787309 31.353479 -0.778786 1.449707 0.052303 -0.015735 -185444.000000 0 0 1
-21.962463 21.564510 5.250009 31.224037 -0.776256 1.401854 0.059206 -0.010304 -330065.000000 0 0 1
-21.207563 22.521210 5.923209 31.496826 -0.815430 1.381613 0.056612 -0.008132 282591.000000 0 0 1
-20.570463 22.163310 7.199409 31.083561 -0.822655 1.337059 0.050520 -0.002743 357544.000000 0 0 1
-21.480663 21.960110 8.440609 31.857640 -0.796435 1.302647 0.040745 -0.012136 -17614.800000 0 0 1
-22.377263 20.830910 8.417709 31.710039 -0.749625 1.302117 0.055528 -0.014143 1043870.000000 0 0 1
-23.005663 20.318110 9.608209 32.162149 -0.723443 1.267421 0.066791 -0.014859 150956.000000 0 0 1
-23.653063 21.295010 10.583909 33.540483 -0.732984 1.249754 0.066287 -0.014913 -357594.000000 0 0 1
-24.934263 21.780110 10.162809 34.631971 -0.717981 1.272961 0.081283 -0.014091 651677.000000 0 0 1
-25.434943 22.726510 11.088609 35.866250 -0.729221 1.256481 0.089381 -0.013020 107874.000000 0 0 1
-26.939883 23.007510 10.797909 37.036437 -0.706830 1.274951 0.093397 -0.018968 -246189.000000 0 0 1
-27.543943 23.683510 11.860009 38.213051 -0.710182 1.255219 0.093831 -0.018616 -78980.100000 0 0 1
-27.380743 25.096510 11.954509 39.018588 -0.741898 1.259409 0.081197 -0.020231 -362643.000000 0 0 1
-27.703473 25.675810 13.343609 40.059725 -0.747430 1.231214 0.092968 -0.017162 -134721.000000 0 0 1
-26.772373 25.417510 14.341609 39.604186 -0.759444 1.200251 0.067764 -0.020844 -293428.000000 0 0 1
-27.249223 25.984910 15.522909 40.727097 -0.761653 1.179762 0.086289 -0.014167 -282995.000000 0 0 1
-26.165573 26.097310 16.569309 40.499986 -0.784092 1.149308 0.073078 -0.019275 -445249.000000 0 0 1
-25.804103 24.890710 17.148109 39.742381 -0.767383 1.124662 0.084143 -0.025843 -352908.000000 0 0 1
-24.870263 25.126610 18.149709 39.740263 -0.790525 1.096505 0.079582 -0.026566 -438178.000000 0 0 1
-24.307463 23.788110 18.693609 38.809509 -0.774600 1.068230 0.084008 -0.023801 49727.100000 0 0 1
-23.150463 23.927710 19.518209 38.593261 -0.801906 1.040555 0.086304 -0.032539 465268.000000 0 0 1
-22.733863 22.655110 19.846109 37.735270 -0.783663 1.016988 0.089714 -0.035938 5999.820000 0 0 1
-21.288163 22.624610 20.444809 37.189368 -0.815823 0.988733 0.067635 -0.032025 -404999.000000 0 0 1
-20.367563 22.927610 19.459809 36.320753 -0.844459 1.005369 0.055645 -0.033216 847167.000000 0 0 1
-19.008863 22.487310 19.743509 35.451688 -0.869028 0.980132 0.048537 -0.026681 1145060.000000 0 0 1
-18.588563 20.988010 19.679709 34.253791 -0.845952 0.958771 0.048308 -0.025355 -715459.000000 0 0 1
-18.997163 20.081510 20.706309 34.538537 -0.813139 0.927904 0.056416 -0.029850 365276.000000 0 0 1
-18.352363 20.260410 21.994809 35.086537 -0.834773 0.893263 0.044152 -0.029604 140221.000000 0 0 1
-19.347863 19.919610 23.126909 36.138409 -0.799957 0.876358 0.048892 -0.033189 620318.000000 0 0 1
-20.439763 20.866410 23.165909 37.280697 -0.795727 0.900279 0.065063 -0.033178 597588.000000 0 0 1
-21.178963 20.788310 24.366009 38.397978 -0.776090 0.883351 0.077643 -0.030090 -218343.000000 0 0 1
-22.323063 21.783910 24.458509 39.636809 -0.773175 0.905788 0.086895 -0.030393 -611224.000000 0 0 1
-21.807963 23.111410 24.594209 40.182082 -0.814408 0.912122 0.087051 -0.036068 863013.000000 0 0 1
-22.739363 24.211210 24.845809 41.479822 -0.816737 0.928563 0.080812 -0.030851 280206.000000 0 0 1
-23.765863 24.601810 23.776309 41.657871 -0.802680 0.963375 0.075905 -0.034390 202186.000000 0 0 1
-24.902563 23.737310 23.749009 41.804462 -0.761446 0.966604 0.085415 -0.034824 378587.000000 0 0 1
-25.460523 23.846710 22.410909 41.462666 -0.752680 0.999755 0.077842 -0.033225 859450.000000 0 0 1
-26.673713 22.866710 22.093409 41.502918 -0.708703 1.009441 0.093116 -0.023320 504012.000000 0 0 1
-27.859453 23.269510 22.703909 42.814562 -0.695866 1.011860 0.099326 -0.032433 -750645.000000 0 0 1
-28.894733 22.358310 22.470909 42.892207 -0.658551 1.019382 0.094961 -0.028873 33887.000000 0 0 1
-30.302793 22.940310 22.740309 44.290392 -0.647989 1.031612 0.111268 -0.017262 -86141.600000 0 0 1
-30.736143 23.785210 21.630209 44.478227 -0.658592 1.062934 0.103524 -0.024129 -90009.900000 0 0 1
-32.089823 24.144810 21.645409 45.620745 -0.645044 1.076441 0.093154 -0.022456 224486.000000 0 0 1
-33.097683 23.137010 20.968809 45.502405 -0.610090 1.091868 0.083152 -0.027029 -463427.000000 0 0 1
-33.182763 21.851810 21.642609 45.243783 -0.582348 1.072015 0.076722 -0.024289 347388.000000 0 0 1
-33.774753 20.814810 20.837609 44.812903 -0.552306 1.087172 0.102422 -0.029750 -290908.000000 0 0 1
-35.287884 20.933210 20.660809 45.938036 -0.535414 1.104307 0.105630 -0.033956 -685992.000000 0 0 1
-35.826735 19.938410 19.780409 45.523178 -0.507838 1.121299 0.114144 -0.025063 -309172.000000 0 0 1
36.291611 20.089810 19.526709 45.847289 0.505577 1.130832 0.114690 -0.035976 -392286.000000 0 0 1
35.821291 19.169410 18.423009 44.609847 0.491363 1.145072 0.128498 -0.045100 -66360.400000 0 0 1
36.075141 17.808410 18.624609 44.333186 0.458553 1.137235 0.156225 -0.051536 219690.000000 0 0 1
35.306091 17.068610 17.706209 43.027519 0.450317 1.146687 0.178257 -0.064501 -4073.300000 0 0 1
35.497921 15.534010 17.629709 42.570113 0.412497 1.143806 0.195619 -0.074344 -23553.400000 0 0 1
34.440641 14.970310 16.890409 41.177104 0.410033 1.148135 0.220540 -0.073058 -99394.500000 0 0 1
34.768131 13.682910 16.438409 40.819925 0.374932 1.156326 0.181145 -0.061984 -466463.000000 0 0 1
33.747851 12.977710 15.586409 39.373527 0.367116 1.163792 0.170158 -0.063357 -598132.000000 0 0 1
33.743801 13.471310 14.250409 39.028125 0.379837 1.197022 0.168375 -0.062247 154187.000000 0 0 1
32.923211 12.583810 13.516909 37.749132 0.365083 1.204594 0.170126 -0.057421 -246470.000000 0 0 1
33.020401 12.814910 11.988809 37.393855 0.370198 1.244424 0.171959 -0.057098 -242937.000000 0 0 1
34.340781 12.465410 11.656709 38.347811 0.348201 1.261936 0.156791 -0.054663 -27368.800000 0 0 1
34.478081 12.398710 10.241109 38.044007 0.345212 1.298243 0.134172 -0.039175 -586874.000000 0 0 1
35.897191 12.399910 9.664909 39.188986 0.332596 1.321602 0.120431 -0.025743 -1265130.000000 0 0 1
36.563251 11.263110 10.193209 39.593314 0.298821 1.310416 0.107056 -0.027898 -168468.000000 0 0 1
-35.549616 11.182210 9.909209 38.561762 -0.304753 1.310911 0.109758 -0.017494 -248742.000000 0 0 1
-35.114817 11.021310 8.459109 37.763424 -0.304128 1.344877 0.113827 -0.029054 -1008340.000000 0 0 1
-35.412307 12.106110 7.595109 38.187368 -0.329406 1.370571 0.107115 -0.032680 46386.500000 0 0 1
-35.023044 11.900610 6.183309 37.502953 -0.327554 1.405165 0.111771 -0.035753 68507.800000 0 0 1
-35.864940 12.752810 5.216809 38.420609 -0.341636 1.434594 0.112626 -0.034432 726852.000000 0 0 1
36.263221 12.295410 5.074009 38.625690 0.326896 1.439052 0.105020 -0.036204 848538.000000 0 0 1
35.319531 13.313510 4.842609 38.054825 0.360475 1.443197 0.087002 -0.031699 309247.000000 0 0 1
34.712021 14.041010 6.101309 37.938113 0.384380 1.409272 0.112359 -0.028515 -857719.000000 0 0 1
33.775101 15.038910 5.791109 37.422764 0.418910 1.415424 0.098740 -0.019629 386593.000000 0 0 1
32.924191 15.457010 6.865209 37.014222 0.438929 1.384241 0.105735 -0.019989 643152.000000 0 0 1
31.770581 14.490110 7.266009 35.666904 0.427903 1.365642 0.122067 -0.033780 -532172.000000 0 0 1
32.154281 13.327610 8.030009 35.721199 0.392935 1.344062 0.125732 -0.026482 224912.000000 0 0 1
31.273011 12.215610 7.902809 34.491691 0.372387 1.339621 0.144793 -0.021299 -106487.000000 0 0 1
31.519191 11.288810 6.685709 34.140817 0.343923 1.373695 0.140907 -0.025840 -281986.000000 0 0 1
31.164251 11.853610 5.435109 33.782526 0.363461 1.409209 0.132059 -0.033971 265089.000000 0 0 1
31.484551 10.926610 4.385709 33.614019 0.334041 1.439951 0.138528 -0.042917 77385.100000 0 0 1
30.718731 11.160910 3.006509 32.821418 0.348497 1.479066 0.114245 -0.046259 588888.000000 0 0 1
29.324981 10.901310 3.098709 31.438752 0.355911 1.472073 0.111118 -0.046621 961.592000 0 0 1
28.681271 11.313210 1.974109 30.895002 0.375709 1.506855 0.121111 -0.045221 560779.000000 0 0 1
27.117481 11.111510 1.983609 29.372745 0.388887 1.503213 0.147495 -0.038992 898901.000000 0 0 1
26.739081 9.781410 1.859709 28.532665 0.350689 1.505572 0.123987 -0.039073 -460653.000000 0 0 1
25.360881 9.534810 1.899409 27.160535 0.359617 1.500807 0.127738 -0.036684 -453570.000000 0 0 1
25.088181 8.024010 2.251109 26.436132 0.309551 1.485540 0.132802 -0.033103 25197.700000 0 0 1
25.731081 7.394010 3.348609 26.980977 0.279818 1.446365 0.149603 -0.027198 564405.000000 0 0 1
27.078181 7.003810 3.084409 28.138850 0.253104 1.460962 0.179071 -0.038387 142672.000000 0 0 1
27.813081 6.701710 4.387709 28.943607 0.236448 1.418614 0.182423 -0.034685 -215718.000000 0 0 1
29.176821 6.345310 4.314609 30.168953 0.214143 1.427289 0.196588 -0.039458 391668.000000 0 0 1
29.669271 5.911910 5.579309 30.762722 0.196684 1.388421 0.184864 -0.024350 404995.000000 0 0 1
31.220171 5.823410 5.658409 32.258779 0.184408 1.394477 0.168491 -0.034436 232657.000000 0 0 1
31.917181 7.023010 5.853109 33.200723 0.216587 1.393575 0.153735 -0.039805 -448724.000000 0 0 1
33.227581 6.719510 6.261709 34.473656 0.199536 1.388145 0.098932 -0.031976 -282368.000000 0 0 1
33.717131 7.849010 7.228509 35.365283 0.228717 1.364950 0.099964 -0.038288 494891.000000 0 0 1
32.972531 7.831410 8.485009 34.935858 0.233192 1.325469 0.113427 -0.038028 977562.000000 0 0 1
33.520111 8.894710 9.264909 35.896411 0.259377 1.309740 0.106732 -0.037618 419472.000000 0 0 1
32.883081 8.864010 10.727609 35.706433 0.263303 1.265643 0.126686 -0.045184 314265.000000 0 0 1
31.537751 9.299710 10.783409 34.603415 0.286749 1.253890 0.129561 -0.045860 192985.000000 0 0 1
30.854751 8.845110 11.909709 34.235841 0.279182 1.215495 0.112865 -0.052453 76757.300000 0 0 1
29.373901 9.278710 12.099209 33.095489 0.305964 1.196535 0.103106 -0.054882 76936.600000 0 0 1
29.133921 10.653310 12.426109 33.416861 0.350563 1.189794 0.125892 -0.052060 180714.000000 0 0 1
29.180451 11.592710 11.355109 33.389043 0.378156 1.223789 0.129999 -0.055054 -243466.000000 0 0 1
27.916881 11.679110 10.464009 32.019516 0.396227 1.237880 0.099972 -0.040432 -169004.000000 0 0 1
27.880581 12.777310 9.596909 32.135450 0.429724 1.267530 0.092212 -0.017117 879847.000000 0 0 1
26.733381 12.774910 8.707709 30.881972 0.445782 1.284952 0.084144 -0.019568 657987.000000 0 0 1
26.779881 13.948410 7.699109 31.160817 0.480191 1.321134 0.084887 -0.016480 53774.600000 0 0 1
26.311581 15.156510 8.289709 31.475997 0.522615 1.304287 0.075112 -0.006483 402301.000000 0 0 1
26.690081 16.200310 7.415509 32.090501 0.545535 1.337608 0.071942 -0.002370 -632982.000000 0 0 1
26.303781 17.569110 8.062009 32.642894 0.588877 1.321238 0.086228 -0.009355 1241180.000000 0 0 1
24.921581 17.973210 7.958309 31.740451 0.624807 1.317361 0.090758 -0.006158 1579610.000000 0 0 1
23.959581 17.165210 8.704009 30.732162 0.621664 1.283645 0.089132 -0.003269 404333.000000 0 0 1
22.591681 17.883210 8.839309 30.138458 0.669588 1.273130 0.087075 -0.009258 112878.000000 0 0 1
21.976881 18.312210 7.639509 29.608824 0.694688 1.309830 0.095771 -0.013593 357993.000000 0 0 1
20.818781 19.100410 7.881609 29.332015 0.742378 1.298750 0.114570 -0.022023 167581.000000 0 0 1
20.247681 19.701810 6.588709 29.009327 0.771735 1.341673 0.103493 -0.015106 -90203.500000 0 0 1
21.145081 20.606810 5.981509 30.125298 0.772507 1.370914 0.076250 -0.002111 88985.800000 0 0 1
20.858181 20.844010 4.650509 29.852366 0.785058 1.414376 0.081596 -0.015934 -138494.000000 0 0 1
17.327537 16.497210 33.003741 40.763321 0.760855 0.627253 0.106575 -0.009737 24499.900000 0 0 1
16.923737 17.466310 32.061571 40.242132 0.801174 0.648954 0.087080 -0.007436 451992.000000 0 0 1
16.347937 16.920310 30.860961 38.806582 0.802601 0.651375 0.092022 -0.014297 95522.500000 0 0 1
16.051437 17.889210 29.740641 38.238438 0.839492 0.679689 0.105769 -0.017137 -284651.000000 0 0 1
17.164837 18.254710 28.975361 38.307148 0.816159 0.713011 0.113410 -0.012349 -92817.400000 0 0 1
16.789837 18.607810 27.598201 37.280154 0.836712 0.737292 0.114005 -0.022593 244188.000000 0 0 1
18.004737 18.986810 26.720751 37.398770 0.811941 0.774913 0.106015 -0.017813 -11077.500000 0 0 1
18.639237 20.208010 26.899851 38.462797 0.825759 0.796276 0.111471 -0.021141 -11517.300000 0 0 1
19.681837 20.439710 25.976651 38.470025 0.804285 0.829501 0.082961 -0.014826 88651.600000 0 0 1
20.435037 21.793910 26.164841 39.713526 0.817566 0.851521 0.084937 -0.018233 -281076.000000 0 0 1
19.719737 22.932410 25.769001 39.734177 0.860579 0.865138 0.091071 -0.031547 -143021.000000 0 0 1
20.189337 24.081510 26.365691 41.020459 0.873090 0.872720 0.079031 -0.026314 -200254.000000 0 0 1
19.260237 25.297210 26.167331 41.178086 0.920066 0.882183 0.096675 -0.031986 -3933.170000 0 0 1
19.303837 25.919010 24.918541 40.808907 0.930647 0.913959 0.099541 -0.029528 858366.000000 0 0 1
18.357837 27.025810 24.828341 41.034755 0.974119 0.920960 0.104977 -0.044939 177634.000000 0 0 1
18.616137 27.773410 23.453401 40.840970 0.980292 0.959094 0.093196 -0.045036 922771.000000 0 0 1
19.843037 28.541710 23.426011 41.918412 0.963279 0.977801 0.097302 -0.039536 789804.000000 0 0 1
19.822837 29.254010 22.191891 41.727952 0.975255 1.010044 0.084031 -0.039010 -334042.000000 0 0 1
21.135437 29.981410 21.920591 42.732937 0.956755 1.032159 0.090537 -0.031307 -547340.000000 0 0 1
22.145537 29.095410 21.462391 42.398136 0.920207 1.040011 0.099607 -0.033883 20607.700000 0 0 1
23.348237 29.767110 21.109491 43.322415 0.905663 1.061841 0.099753 -0.038534 289769.000000 0 0 1
23.498737 30.213210 19.641591 43.021167 0.909762 1.096675 0.100294 -0.032381 -1538.170000 0 0 1
22.586637 31.244510 19.217691 43.077781 0.944866 1.108375 0.078994 -0.026691 606570.000000 0 0 1
22.530437 31.210810 17.835491 42.424521 0.945537 1.136904 0.086592 -0.014611 -272707.000000 0 0 1
22.193037 32.559610 17.235991 43.008586 0.972518 1.158453 0.092384 -0.020559 -202314.000000 0 0 1
23.182537 33.580310 17.272491 44.310339 0.966569 1.170374 0.088160 -0.022762 230797.000000 0 0 1
23.126237 -33.864781 16.061391 44.041055 -0.971640 1.197495 0.084670 -0.023831 -195227.000000 0 0 1
24.014537 33.856810 14.906891 44.104387 0.953858 1.226015 0.067994 -0.021643 -249654.000000 0 0 1
23.564337 32.705910 14.181791 42.732631 0.946450 1.232508 0.088093 -0.025325 -13541.000000 0 0 1
22.663337 33.063910 13.156791 42.189455 0.969909 1.253657 0.073530 -0.025797 -281778.000000 0 0 1
22.181937 31.879210 12.314991 40.742869 0.962887 1.263732 0.077705 -0.036721 169642.000000 0 0 1
23.212337 31.343710 11.482991 40.658330 0.933355 1.284474 0.088987 -0.052274 403854.000000 0 0 1
22.733537 30.147510 10.854691 39.287535 0.924691 1.290866 0.076230 -0.048243 -675643.000000 0 0 1
23.778837 29.514510 9.923291 39.179218 0.892610 1.314728 0.072702 -0.044651 233649.000000 0 0 1
24.980837 28.972610 10.432691 39.652180 0.859249 1.304557 0.083014 -0.039733 406035.000000 0 0 1
25.929337 30.002610 10.712591 41.076109 0.858095 1.306947 0.074535 -0.043215 -800095.000000 0 0 1
27.344737 29.544010 11.073891 41.751817 0.824038 1.302352 0.084899 -0.043141 -156485.000000 0 0 1
27.314537 28.766110 12.241691 41.514239 0.811276 1.271467 0.091096 -0.029145 653829.000000 0 0 1
28.606337 28.634310 12.873291 42.473142 0.785887 1.262860 0.071995 -0.013024 698240.000000 0 0 1
28.684137 27.636310 14.020491 42.227000 0.766796 1.232345 0.049470 -0.018013 -365770.000000 0 0 1
29.944337 27.665010 14.641591 43.317344 0.745854 1.225997 0.028998 -0.028156 -10385.700000 0 0 1
30.198837 26.462310 15.346991 42.985506 0.719548 1.205713 0.045467 -0.021365 35552.200000 0 0 1
31.316837 26.529410 16.407391 44.201316 0.702825 1.190499 0.049612 -0.027610 736914.000000 0 0 1
32.638537 26.733810 15.893091 45.083933 0.686272 1.210531 0.077146 -0.021036 168638.000000 0 0 1
33.586937 26.660110 16.911591 46.096049 0.670927 1.195146 0.055266 -0.022053 54863.000000 0 0 1
35.043637 26.789310 16.408791 47.063489 0.652689 1.214664 0.068034 -0.031257 177947.000000 0 0 1
35.367637 28.086610 15.950091 47.897106 0.671153 1.231305 0.077313 -0.030834 -1333250.000000 0 0 1
36.696837 28.255910 15.652891 48.888314 0.656168 1.244881 0.095108 -0.032766 -824617.000000 0 0 1
-36.575208 29.426210 14.761391 49.209210 -0.677503 1.266133 0.075771 -0.030998 173625.000000 0 0 1
36.551037 30.712810 15.330291 50.142525 0.698819 1.260087 0.067577 -0.029145 -25288.500000 0 0 1
36.532037 31.734610 14.371791 50.479932 0.715239 1.282100 0.041778 -0.009719 -103341.000000 0 0 1
35.347337 32.689810 14.559791 50.299557 0.746358 1.277132 0.010322 -0.004475 -1901360.000000 0 0 1
35.257937 33.746210 13.673591 50.684277 0.763494 1.297632 -0.019899 -0.001569 475946.000000 0 0 1
34.062337 -33.696581 13.821791 49.867266 -0.780000 1.289947 -0.027972 0.010598 1568080.000000 0 0 1
32.748237 33.765410 13.381191 48.904051 0.800690 1.293640 0.010600 0.004558 -210791.000000 0 0 1
32.488837 32.657810 14.216391 48.209572 0.787992 1.271459 0.005172 -0.016409 -269972.000000 0 0 1
31.442337 31.808310 13.696391 46.775851 0.791184 1.273633 0.038102 -0.019615 -68864.000000 0 0 1
30.994537 30.727710 14.717091 46.059160 0.781075 1.245567 0.062327 -0.024833 -98839.700000 0 0 1
30.061837 31.292610 15.622191 46.119349 0.805456 1.225225 0.055586 -0.022175 -10408.200000 0 0 1
29.682237 30.402310 16.576991 45.608467 0.797382 1.198814 0.054174 -0.022556 -104850.000000 0 0 1
28.800437 30.937710 17.724291 45.834022 0.821160 1.173739 0.049945 -0.020235 -43608.600000 0 0 1
28.479337 30.009410 18.752491 45.423488 0.811552 1.145230 0.041217 -0.015062 247906.000000 0 0 1
29.419837 30.040110 19.820291 46.484179 0.795830 1.130301 0.047992 -0.023514 232797.000000 0 0 1
29.140937 28.892310 20.846791 46.027692 0.781114 1.100760 0.051713 -0.021107 -269587.000000 0 0 1
27.871237 28.909110 21.435091 45.519288 0.803675 1.080484 0.065815 -0.027871 -318801.000000 0 0 1
27.867337 28.048210 22.544691 45.514323 0.788633 1.052580 0.055123 -0.022605 469386.000000 0 0 1
26.534737 27.951910 23.378011 45.076967 0.811402 1.025555 0.071858 -0.026302 895390.000000 0 0 1
25.468037 27.337710 22.630791 43.682078 0.820790 1.026192 0.105660 -0.028871 1000110.000000 0 0 1
24.231137 27.256710 23.365021 43.312821 0.844094 1.001015 0.103755 -0.036497 848980.000000 0 0 1
24.001037 26.025010 24.253911 42.913903 0.825835 0.970150 0.092709 -0.035630 -46625.300000 0 0 1
24.982437 25.961610 25.297221 44.023593 0.804616 0.958646 0.065844 -0.027891 467668.000000 0 0 1
24.677937 24.940110 26.233761 43.808902 0.790682 0.928766 0.077630 -0.034573 -44855.500000 0 0 1
25.861537 24.681310 27.217771 44.930983 0.762051 0.920065 0.079318 -0.033994 324036.000000 0 0 1
26.255437 25.715810 28.064771 46.241564 0.775015 0.918621 0.097442 -0.042986 476286.000000 0 0 1
27.142737 26.659310 27.421941 46.897866 0.776413 0.946266 0.069002 -0.025496 -179379.000000 0 0 1
27.567637 27.923310 28.178371 48.308451 0.791808 0.948009 0.033280 -0.019173 242459.000000 0 0 1
28.438437 27.656110 29.322441 49.329612 0.771453 0.934254 0.045444 -0.018346 663986.000000 0 0 1
28.428137 28.875110 30.088121 50.470050 0.793198 0.932089 0.050354 -0.023676 -187341.000000 0 0 1
29.890637 29.280710 30.251371 51.632892 0.775091 0.944814 0.046895 -0.016877 -248078.000000 0 0 1
30.611137 29.453210 29.051851 51.464000 0.766122 0.970959 0.020351 -0.014885 578519.000000 0 0 1
31.959937 29.870510 29.305711 52.654626 0.751618 0.980551 0.050916 -0.023410 1208420.000000 0 0 1
32.848737 30.306910 28.106301 52.796898 0.745173 1.009425 0.041236 -0.014023 98771.200000 0 0 1
32.474737 31.598310 27.731441 53.123390 0.771720 1.021579 0.036774 -0.019162 366513.000000 0 0 1
33.173137 31.905210 26.535961 53.127739 0.765918 1.047804 0.031745 -0.017234 8464.310000 0 0 1
32.873137 33.341710 26.092151 53.601428 0.792475 1.062396 0.029674 -0.022706 -130749.000000 0 0 1
33.710037 -33.970181 26.777341 54.839454 -0.789242 1.060672 0.048903 -0.023863 350361.000000 0 0 1
33.553337 -32.667381 26.283521 53.701096 -0.772020 1.059348 0.043853 -0.020125 -170281.000000 0 0 1
34.488137 -31.654781 26.999411 54.040956 -0.742587 1.047648 0.053688 -0.022862 44397.500000 0 0 1
34.215037 -31.490181 28.370021 54.471629 -0.743951 1.022983 0.062174 -0.022793 328001.000000 0 0 1
35.342837 -30.907081 28.978461 55.173499 -0.718543 1.017818 0.068893 -0.033209 -287147.000000 0 0 1
35.097637 -30.573981 30.501371 55.650212 -0.716624 0.990716 0.070853 -0.028602 -96511.300000 0 0 1
35.007537 -31.712781 31.372441 56.705010 -0.736057 0.984527 0.076152 -0.020809 -389418.000000 0 0 1
33.738937 -32.275481 31.404641 56.269654 -0.763233 0.978690 0.066783 -0.025883 -1090330.000000 0 0 1
33.666637 -33.338681 32.543734 57.480472 -0.780504 0.968944 0.079728 -0.024606 -247077.000000 0 0 1
33.589237 -32.733581 33.848780 57.839987 -0.772498 0.945652 0.072813 -0.021253 141751.000000 0 0 1
33.973437 -33.559781 -33.168001 58.142666 -0.779273 2.177861 0.066868 -0.023895 54859.200000 0 0 1
33.102437 33.419710 -32.899691 57.402422 0.790168 2.181130 0.055621 -0.021352 -36333.900000 0 0 1
33.368937 32.367510 -33.800871 57.477304 0.770165 2.199471 0.068808 -0.030147 325070.000000 0 0 1
32.372337 31.352910 -33.747281 56.301440 0.769402 2.213552 0.073619 -0.028126 132904.000000 0 0 1
32.650237 30.323710 33.259111 55.603361 0.748471 0.929607 0.064514 -0.022068 -365123.000000 0 0 1
33.821337 29.615010 33.478971 56.051522 0.719187 0.930679 0.077469 -0.032612 -602183.000000 0 0 1
33.960237 28.634510 32.480762 55.029381 0.700520 0.939435 0.068961 -0.025080 -59649.100000 0 0 1
35.390137 28.062710 32.381513 55.574633 0.670429 0.948790 0.064684 -0.018591 -37067.800000 0 0 1
35.655737 27.038510 33.331546 55.797890 0.648806 0.930589 0.054623 -0.016473 133182.000000 0 0 1
-36.453408 26.730810 33.321283 56.157770 -0.632719 0.935581 0.030583 -0.010828 152708.000000 0 0 1
-36.183508 25.308310 33.919372 55.680164 -0.610352 0.915767 0.001173 -0.003265 75754.100000 0 0 1
36.732937 24.270610 33.152910 55.113398 0.583882 0.925369 0.008786 -0.000711 108434.000000 0 0 1
-36.693608 23.053810 33.905048 55.022280 -0.560954 0.906880 -0.001084 -0.003632 333704.000000 0 0 1
36.065437 21.880410 33.159808 53.656695 0.545321 0.904601 0.001735 -0.011395 53414.400000 0 0 1
-36.589608 21.501510 32.081791 53.201087 -0.531282 0.923504 0.009987 -0.000665 68186.100000 0 0 1
36.406437 20.384510 31.377291 52.206238 0.510424 0.926012 0.015422 -0.001285 185500.000000 0 0 1
-35.983008 19.607510 30.577741 51.129537 -0.498927 0.929737 0.014141 -0.005726 278252.000000 0 0 1
-35.633608 20.313210 29.384001 50.455922 -0.518112 0.949156 0.021876 -0.004553 -210410.000000 0 0 1
-34.563808 19.672210 28.722021 49.057183 -0.517432 0.945324 0.036115 -0.004511 -205228.000000 0 0 1
-34.943108 18.695110 27.626461 48.308895 -0.491266 0.962011 0.053865 -0.002329 -611251.000000 0 0 1
-35.610508 17.579510 28.158691 48.683255 -0.458563 0.954023 0.046394 0.002717 133213.000000 0 0 1
-35.991308 16.684110 27.105611 48.046310 -0.434073 0.971386 0.050316 -0.004307 -210548.000000 0 0 1
-36.567008 15.353410 27.543271 48.285661 -0.397518 0.963775 0.048351 -0.017494 -171055.000000 0 0 1
-35.651708 14.399210 28.053471 47.595995 -0.383852 0.940470 0.062046 -0.009644 145861.000000 0 0 1
-36.268808 13.530610 28.988121 48.361297 -0.357073 0.928036 0.090277 -0.014810 146137.000000 0 0 1
-35.379908 12.298810 29.324601 47.570273 -0.334554 0.906573 0.096201 -0.012231 642886.000000 0 0 1
-34.182208 12.670210 30.005581 47.215384 -0.354966 0.882135 0.095701 -0.004939 381755.000000 0 0 1
-33.378008 11.569110 30.350861 46.573710 -0.333650 0.861007 0.084798 -0.011754 1127490.000000 0 0 1
-31.824008 11.850610 30.399661 45.577888 -0.356471 0.840645 0.088849 -0.007389 719805.000000 0 0 1
-31.226308 12.095510 29.122311 44.378967 -0.369554 0.855000 0.085129 -0.005819 248430.000000 0 0 1
-29.883508 12.508410 29.043241 43.508553 -0.396414 0.839911 0.070176 -0.004405 639414.000000 0 0 1
-28.692108 11.694010 29.633451 42.873399 -0.387014 0.807669 0.072958 -0.010858 -9757.310000 0 0 1
-28.427708 10.448910 29.013631 41.941687 -0.352233 0.806871 0.074279 -0.016144 -126152.000000 0 0 1
-27.579308 9.583510 29.731001 41.670065 -0.334436 0.776336 0.068011 -0.017978 -338244.000000 0 0 1
-27.211108 8.315010 28.947131 40.589656 -0.296563 0.776793 0.060135 -0.025864 -536801.000000 0 0 1
-28.141008 7.307810 28.785171 40.913402 -0.254073 0.790397 0.074115 -0.028367 79553.100000 0 0 1
-29.269508 7.583710 27.919721 41.154922 -0.253524 0.825206 0.076429 -0.025991 309438.000000 0 0 1
-30.173008 6.349210 27.893511 41.578490 -0.207401 0.835423 0.077029 -0.024526 -587439.000000 0 0 1
-30.722908 6.076310 29.125831 42.768360 -0.195258 0.821651 0.087062 -0.024726 -158593.000000 0 0 1
-31.624308 5.002010 29.040911 43.226051 -0.156870 0.834109 0.109110 -0.023797 -446950.000000 0 0 1
-32.117908 4.543110 30.427161 44.474847 -0.140519 0.817368 0.089806 -0.026035 495948.000000 0 0 1
-33.231308 5.365210 30.813871 45.635512 -0.160069 0.829538 0.101618 -0.031344 35548.400000 0 0 1
-34.129808 4.750910 31.667211 46.799863 -0.138312 0.827591 0.118427 -0.030419 -759818.000000 0 0 1
-35.516408 5.361610 31.639371 47.866605 -0.149830 0.848658 0.111150 -0.027584 -600974.000000 0 0 1
-35.622108 6.616510 32.231559 48.493156 -0.183649 0.843755 0.112731 -0.033956 1407650.000000 0 0 1
36.441937 6.940210 32.153141 49.091809 0.188192 0.856667 0.114322 -0.033003 1615550.000000 0 0 1
36.051537 8.296310 32.706499 49.378711 0.226186 0.846831 0.092934 -0.023625 -177055.000000 0 0 1
36.140137 8.363310 -34.057901 50.358664 0.227410 2.313533 0.104438 -0.028521 103754.000000 0 0 1
35.945137 9.714710 -33.605451 50.157300 0.263959 2.305007 0.101280 -0.025028 20172.600000 0 0 1
35.894837 9.854910 -32.053801 49.122344 0.267947 2.281715 0.091312 -0.021968 302070.000000 0 0 1
34.716837 9.238010 -31.543171 47.807648 0.260070 2.291340 0.091286 -0.018106 475206.000000 0 0 1
34.781837 9.390310 -30.152391 46.980004 0.263691 2.267657 0.063719 -0.007633 723972.000000 0 0 1
33.448837 8.872210 -29.496141 45.470464 0.259277 2.276655 0.056804 -0.001191 554168.000000 0 0 1
33.336237 7.532310 -29.536971 45.171595 0.222218 2.283503 0.066311 -0.008185 461110.000000 0 0 1
32.026437 7.067110 -29.240861 43.939329 0.217184 2.298937 0.064905 -0.003115 115835.000000 0 0 1
35.777791 5.892910 -19.337691 41.094075 0.163243 2.060734 0.074790 -0.022625 -1051610.000000 0 0 1
35.063791 6.934910 -18.803991 40.387529 0.195260 2.055096 0.066820 -0.020872 -149389.000000 0 0 1
35.694971 8.194110 -18.797191 41.165627 0.225650 2.044992 0.040968 -0.016226 233247.000000 0 0 1
-36.316283 8.398710 -18.266691 41.510032 -0.227270 2.026456 0.048756 -0.021122 1941370.000000 0 0 1
-35.178818 7.900510 -19.024891 40.766577 -0.220916 2.056328 0.060112 -0.029588 1039160.000000 0 0 1
-35.030943 8.563310 -20.300591 41.383707 -0.239748 2.083512 0.040657 -0.021815 -594437.000000 0 0 1
-34.087337 7.738710 -21.269591 40.917352 -0.223242 2.117435 0.029992 -0.008621 115712.000000 0 0 1
-34.527676 6.478610 -21.722991 41.304009 -0.185479 2.124604 0.034167 -0.006187 -28330.500000 0 0 1
-35.529961 6.623210 -22.704691 42.681941 -0.184297 2.131699 0.031167 0.002524 62626.900000 0 0 1
-35.603311 5.409510 -23.606791 43.059716 -0.150785 2.151047 0.063892 0.001222 -499744.000000 0 0 1
-34.487345 5.399610 -24.426491 42.605002 -0.155307 2.181354 0.076804 -0.006373 -509505.000000 0 0 1
-34.335009 4.124910 -25.051791 42.702459 -0.119564 2.197724 0.104535 -0.008432 -678415.000000 0 0 1
-33.129133 4.023110 -25.958351 42.279556 -0.120846 2.231876 0.112361 -0.011151 60937.800000 0 0 1
-31.899993 4.017510 -25.220541 40.863500 -0.125281 2.235963 0.091028 -0.011768 1046200.000000 0 0 1
-30.809633 3.489210 -26.027821 40.482781 -0.112770 2.269121 0.102129 -0.011245 612463.000000 0 0 1
-29.425773 3.790210 -25.454171 39.091644 -0.128100 2.279883 0.099127 -0.018007 -484897.000000 0 0 1
-28.975813 5.123210 -25.589271 38.995587 -0.175001 2.286581 0.075202 -0.007341 520398.000000 0 0 1
-27.672173 5.312310 -25.045501 37.699429 -0.189666 2.297416 0.063569 -0.006894 461359.000000 0 0 1
-27.114573 6.727710 -25.166641 37.600824 -0.243210 2.304077 0.046834 -0.007506 146590.000000 0 0 1
-27.846053 7.646310 -24.344491 37.769339 -0.267987 2.271240 0.049456 -0.013857 337263.000000 0 0 1
-27.381553 8.992510 -24.521191 37.840501 -0.317317 2.275771 0.031419 -0.013649 1083720.000000 0 0 1
-26.033443 9.455410 -23.819291 36.530858 -0.348388 2.281058 0.075539 -0.015885 679979.000000 0 0 1
-26.175093 9.698410 -22.468491 35.833333 -0.354838 2.248528 0.043161 -0.013721 -42644.000000 0 0 1
-24.924963 9.859410 -21.848791 34.580796 -0.376676 2.254694 0.084527 -0.029808 -439105.000000 0 0 1
-25.043363 10.380910 -20.377691 33.914357 -0.392958 2.215370 0.104988 -0.039527 -1124600.000000 0 0 1
-25.284433 11.766010 -20.313091 34.501641 -0.435542 2.200317 0.080542 -0.035852 368220.000000 0 0 1
-26.622733 12.193510 -20.198691 35.573006 -0.429496 2.174639 0.072405 -0.019470 10752.300000 0 0 1
-27.627273 11.615910 -19.162891 35.572630 -0.398011 2.139687 0.053599 -0.017869 -753839.000000 0 0 1
-27.153123 11.868110 -17.865391 34.602259 -0.412059 2.113329 0.053927 -0.023483 106168.000000 0 0 1
-28.011753 11.378110 -16.858391 34.616832 -0.385832 2.079448 0.035343 -0.026616 -734119.000000 0 0 1
-27.326373 10.919410 -15.560191 33.287892 -0.380155 2.057192 0.059562 -0.026845 -84377.000000 0 0 1
-26.605823 9.687810 -15.637991 32.346101 -0.349201 2.075397 0.076264 -0.029666 1191990.000000 0 0 1
-25.260033 9.915110 -16.107191 31.556620 -0.374043 2.106472 0.080985 -0.025556 125238.000000 0 0 1
-24.290563 8.809810 -15.650791 30.209129 -0.347930 2.115403 0.066471 -0.028760 -619349.000000 0 0 1
-22.931063 9.034410 -15.902991 29.331883 -0.375307 2.143819 0.086950 -0.029066 58895.800000 0 0 1
-22.169963 7.909710 -15.437291 28.149258 -0.342699 2.151256 0.096315 -0.029133 84046.900000 0 0 1
-20.672563 8.254210 -15.322991 27.023710 -0.379888 2.173680 0.127893 -0.036075 -58553.000000 0 0 1
-19.997763 8.469110 -16.568791 27.315951 -0.400602 2.222524 0.136953 -0.049405 -29622.900000 0 0 1
-18.669263 8.821410 -16.307091 26.311212 -0.441415 2.239255 0.145809 -0.049276 -914821.000000 0 0 1
-17.848563 9.425610 -17.467391 26.693128 -0.485865 2.284156 0.111155 -0.038207 7815.520000 0 0 1
-17.537363 8.614210 -18.588491 26.968421 -0.456576 2.331276 0.145637 -0.058878 537346.000000 0 0 1
-16.736563 7.460110 -18.245191 25.858321 -0.419303 2.354042 0.152807 -0.054012 -453854.000000 0 0 1
-16.305563 6.686010 -19.557391 26.326140 -0.389136 2.408172 0.123909 -0.047896 670358.000000 0 0 1
-17.329163 5.911910 -20.207091 27.268610 -0.328772 2.405412 0.118030 -0.042369 893424.000000 0 0 1
-18.396163 6.636010 -20.826391 28.569109 -0.346200 2.387631 0.110355 -0.045110 336836.000000 0 0 1
-19.371063 5.718610 -21.633791 29.596647 -0.287060 2.390515 0.083869 -0.028457 57874.500000 0 0 1
-20.070763 4.835310 -20.783291 29.294384 -0.236408 2.359533 0.096536 -0.036743 445505.000000 0 0 1
-20.714163 3.768010 -21.476591 30.075213 -0.179938 2.366128 0.052118 -0.009040 -59638.700000 0 0 1
-21.417763 2.764210 -20.512191 29.784416 -0.128352 2.330475 0.071907 -0.012330 -224135.000000 0 0 1
-22.241963 1.742910 -21.017391 30.650830 -0.078202 2.326367 0.076115 -0.012454 232915.000000 0 0 1
-23.035763 1.315310 -19.940091 30.495633 -0.057037 2.283481 0.071242 -0.017262 -637191.000000 0 0 1
-23.770263 0.027310 -20.271291 31.240221 -0.001149 2.276914 0.069194 -0.008521 -319714.000000 0 0 1
-22.900963 -1.079190 -20.436091 30.712417 0.047089 2.298828 0.065716 -0.021067 208293.000000 0 0 1
-23.594763 -2.262990 -20.777091 31.520176 0.095618 2.290508 0.068918 -0.022493 -291662.000000 0 0 1
-24.069763 -2.488090 -22.255091 32.876027 0.103004 2.314393 0.075120 -0.021693 234753.000000 0 0 1
-23.131063 -2.526590 -23.322291 32.944787 0.108798 2.357346 0.048079 -0.016152 542078.000000 0 0 1
-22.120363 -3.557890 -23.309291 32.330977 0.159476 2.375981 0.043101 -0.028022 327234.000000 0 0 1
-21.136863 -3.504990 -24.459291 32.516286 0.164328 2.422216 0.054224 -0.023891 -551758.000000 0 0 1
-21.770363 -3.858990 -25.654561 33.867344 0.175437 2.430274 0.048063 -0.022950 244883.000000 0 0 1
-21.017463 -3.535890 -26.821741 34.258460 0.166675 2.470147 0.050181 -0.032134 -462745.000000 0 0 1
-21.728963 -3.792990 -28.140871 35.755324 0.172818 2.476792 0.035822 -0.028036 -293449.000000 0 0 1
-22.185363 -5.116090 -28.125191 36.185509 0.226644 2.461080 0.045117 -0.032013 15570.000000 0 0 1
-22.930463 -5.374890 -29.279731 37.576565 0.230243 2.464188 0.028013 -0.027609 -778254.000000 0 0 1
-22.541363 -6.640790 -30.067911 38.161399 0.286500 2.478211 0.051350 -0.031630 -1564110.000000 0 0 1
-21.285363 -6.508390 -30.575201 37.818894 0.296740 2.512333 0.037442 -0.033832 -1200850.000000 0 0 1
-20.735663 -7.760590 -31.008211 38.101229 0.358124 2.521522 0.033406 -0.033004 -274165.000000 0 0 1
-19.247263 -7.576790 -31.390251 37.592722 0.375025 2.558945 0.040687 -0.029352 -416927.000000 0 0 1
-19.039463 -7.100390 -32.701391 38.500619 0.356955 2.585593 0.042399 -0.029310 286523.000000 0 0 1
-19.215763 -8.128890 -33.674011 39.613929 0.400203 2.586886 0.038906 -0.028243 -627716.000000 0 0 1
-19.143463 -7.668090 32.997399 38.911439 0.380988 0.558572 0.034299 -0.021764 406937.000000 0 0 1
-17.892963 -7.330890 32.386192 37.719564 0.388847 0.538255 0.044099 -0.020618 353863.000000 0 0 1
-17.578263 -5.971190 32.664555 37.571579 0.327462 0.516819 0.034308 -0.021112 989574.000000 0 0 1
-16.180663 -5.555890 32.037461 36.319150 0.330753 0.490475 0.034338 -0.021015 1038020.000000 0 0 1
-16.363263 -5.419390 30.624451 35.142327 0.319823 0.512665 0.035732 -0.019744 720891.000000 0 0 1
-15.155763 -5.055190 29.957771 33.951732 0.321945 0.489935 0.038734 -0.018090 375066.000000 0 0 1
-15.447763 -5.071790 28.448761 32.767185 0.317231 0.519215 0.042677 -0.012817 -34930.300000 0 0 1
-16.274363 -3.985390 28.164351 32.771464 0.240161 0.536668 0.036176 -0.017400 140844.000000 0 0 1
-16.927863 -3.924290 26.884171 32.011111 0.227800 0.573810 0.052505 -0.014583 426689.000000 0 0 1
-15.946763 -3.713890 25.675201 30.451735 0.228814 0.567692 0.050330 -0.012603 279785.000000 0 0 1
-15.374263 -2.437490 25.609551 29.969291 0.157235 0.546158 0.047001 -0.002591 -161644.000000 0 0 1
-14.650963 -2.299290 24.408521 28.560696 0.155668 0.545979 0.039855 -0.005679 3912.020000 0 0 1
-14.219363 -0.827890 24.302101 28.168560 0.058157 0.530136 0.046227 -0.008920 653944.000000 0 0 1
-15.288363 0.046210 23.886851 28.360498 -0.003023 0.569338 0.051136 -0.011600 422851.000000 0 0 1
-14.880963 1.322010 24.165961 28.410992 -0.088606 0.553700 0.047281 -0.006355 -471269.000000 0 0 1
-15.758663 2.437310 23.602891 28.484599 -0.153449 0.594159 0.036081 -0.004747 -457564.000000 0 0 1
-15.777263 2.502210 22.214591 27.361855 -0.157286 0.623428 0.051377 -0.005731 290898.000000 0 0 1
-16.500563 3.647010 21.794591 27.578496 -0.217526 0.659539 0.040691 -0.002767 -46526.100000 0 0 1
-15.662463 4.497610 20.844191 26.457920 -0.279634 0.663528 0.032822 0.001162 327415.000000 0 0 1
-14.545063 5.199910 21.385791 26.380864 -0.343344 0.625526 0.050275 -0.002751 275794.000000 0 0 1
-13.575963 5.365210 20.389191 25.076111 -0.376361 0.621352 0.046673 -0.004263 569841.000000 0 0 1
-12.408463 6.365710 20.720191 24.976359 -0.474004 0.592420 0.039642 -0.006501 757629.000000 0 1 0
-12.858063 7.683510 20.676891 25.532331 -0.538626 0.626931 0.045065 -0.010272 414619.000000 0 0 1
-11.766663 8.543710 20.943991 25.497061 -0.628025 0.606887 0.047152 -0.002773 424113.000000 0 0 1
-12.283263 10.006310 20.793491 26.141424 -0.683598 0.651091 0.043572 0.004131 -31854.100000 0 0 1
-12.653463 10.511310 19.575091 25.569160 -0.693186 0.698863 0.043802 -0.001109 248974.000000 0 0 1
-13.143463 11.835510 19.783191 26.536853 -0.733084 0.729514 0.030379 0.002359 -435478.000000 0 0 1
-13.495763 12.584110 18.446791 26.091753 -0.750456 0.785553 0.029223 -0.000585 549700.000000 0 0 1
-12.313263 13.073810 17.788591 25.277953 -0.815347 0.790177 0.024052 -0.005606 562486.000000 0 0 1
-11.962763 14.429710 18.142991 26.086248 -0.878599 0.801681 0.028017 -0.010590 -722354.000000 0 0 1
-12.834763 15.662610 17.816391 26.971694 -0.884306 0.849233 0.020543 -0.011171 -205059.000000 0 0 1
-13.040863 15.998710 16.450191 26.393780 -0.886904 0.897892 0.016079 -0.006403 232356.000000 0 0 1
-13.718663 15.026210 15.627191 25.655366 -0.830855 0.915846 0.032388 -0.010333 -375023.000000 0 0 1
-14.169163 15.545810 14.193791 25.375206 -0.831693 0.977187 0.020427 -0.006603 409160.000000 0 0 1
-15.186663 16.553810 14.252391 26.604399 -0.828444 1.005441 0.018331 -0.012546 187171.000000 0 0 1
-15.399263 17.034410 12.904291 26.340637 -0.835771 1.058821 -0.004543 -0.015644 -480071.000000 0 0 1
-16.540363 18.018910 12.885691 27.646081 -0.828155 1.085925 0.019724 -0.021596 -322053.000000 0 0 1
-17.810663 17.519010 13.287291 28.296423 -0.777143 1.081987 0.031127 -0.023635 444596.000000 0 0 1
-18.752063 18.566010 13.466491 29.625715 -0.780413 1.098925 0.042436 -0.022036 431420.000000 0 0 1
-20.218563 18.146410 13.729791 30.439935 -0.731439 1.102860 0.050130 -0.021246 411755.000000 0 0 1
-20.770063 17.496110 12.612891 29.943187 -0.700049 1.135998 0.052396 -0.022572 -217572.000000 0 0 1
-22.128763 17.142610 12.768091 30.766466 -0.659107 1.142853 0.094546 -0.030264 397990.000000 0 0 1
-22.804463 16.534810 11.469391 30.413655 -0.627353 1.184119 0.092303 -0.026115 273217.000000 0 0 1
-22.328263 15.209010 11.272991 29.273634 -0.597966 1.175491 0.086995 -0.026028 -90056.400000 0 0 1
-23.017163 14.552810 10.245991 29.095608 -0.563802 1.210930 0.093885 -0.022629 -400183.000000 0 0 1
-22.396463 13.221110 9.744991 27.773444 -0.533272 1.212292 0.099072 -0.029533 -322989.000000 0 0 1
-22.755063 12.033710 10.412191 27.767189 -0.486450 1.186419 0.100586 -0.034165 1735090.000000 0 0 1
-24.165663 11.656410 10.539791 28.826002 -0.449432 1.196482 0.114016 -0.037125 1599770.000000 0 0 1
-24.952063 11.171610 9.330991 28.887328 -0.420959 1.241885 0.128465 -0.021753 -438909.000000 0 0 1
-25.146553 12.163010 8.392691 29.167194 -0.450511 1.278926 0.130502 -0.021690 991957.000000 0 0 1
-26.237833 11.749210 7.523391 29.716481 -0.421020 1.314838 0.156118 -0.021201 426991.000000 0 0 1
-26.691663 12.803110 6.453491 30.298714 -0.447249 1.356157 0.134498 -0.012718 -259698.000000 0 0 1
-25.826643 12.938010 5.319191 29.371779 -0.464412 1.388693 0.139336 -0.014920 1660250.000000 0 0 1
-24.526263 13.532010 5.579291 28.561887 -0.504175 1.374192 0.128227 -0.015222 519734.000000 0 0 1
-24.552663 15.028010 6.062791 29.418222 -0.549249 1.363219 0.116129 -0.013245 62837.900000 0 0 1
-23.234863 15.604010 5.940391 28.611750 -0.591395 1.361654 0.095572 -0.018199 1166950.000000 0 0 1
-23.185863 16.918910 6.578791 29.446804 -0.630387 1.345482 0.090120 -0.016606 602280.000000 0 0 1
-21.757963 17.562810 6.672391 28.746862 -0.679110 1.336552 0.078800 -0.014637 723016.000000 0 0 1
-21.185363 17.895010 5.415591 28.255613 -0.701402 1.377939 0.082404 -0.022106 1344340.000000 0 0 1
-19.750463 18.035410 5.439491 27.293679 -0.740041 1.370158 0.084748 -0.020794 909874.000000 0 0 1
-19.275663 18.989410 4.300591 27.397883 -0.777918 1.413176 0.085504 -0.014162 589416.000000 0 0 1
-17.878263 19.334010 4.363391 26.692236 -0.824498 1.406589 0.072017 -0.017006 990626.000000 0 0 1
-17.519663 20.505710 3.608991 27.211166 -0.863765 1.437775 0.086760 -0.010457 -16684.400000 0 0 1
-17.732463 21.840310 4.301991 28.459560 -0.888833 1.419053 0.075779 -0.020003 -301290.000000 0 0 1
-16.925063 22.153410 5.410591 28.399047 -0.918399 1.379104 0.072644 -0.021850 -117188.000000 0 0 1
-17.171063 23.406310 5.973591 29.637553 -0.937869 1.367851 0.053692 -0.013087 -58935.300000 0 0 1
-16.389663 23.596610 7.309691 29.645449 -0.963719 1.321657 0.039372 0.001406 41979.700000 0 0 1
-17.032563 22.913810 8.366691 29.751511 -0.931577 1.285732 0.038949 -0.002174 106782.000000 0 0 1
-16.270663 22.850610 9.535791 29.627963 -0.952032 1.243112 0.029103 0.002392 -390756.000000 0 0 1
-17.063163 22.154610 10.648591 29.922747 -0.914501 1.206952 0.017880 -0.007089 307013.000000 0 0 1
-18.185763 22.911510 11.094191 31.284826 -0.899885 1.208290 0.020004 0.004120 615788.000000 0 0 1
-19.234963 22.020810 11.537291 31.432610 -0.852822 1.194962 0.021642 -0.008013 511249.000000 0 0 1
-20.492763 22.721410 12.092091 32.900372 -0.836925 1.194437 0.022466 -0.017959 108582.000000 0 0 1
-21.293063 23.498810 11.175791 33.622715 -0.834603 1.231962 0.032190 -0.012690 463596.000000 0 0 1
-20.652763 24.637310 10.690791 33.879591 -0.873151 1.249757 0.032712 -0.001368 -521135.000000 0 0 1
-21.693963 25.490810 9.934991 34.915806 -0.865693 1.282268 0.046264 0.004500 454898.000000 0 0 1
-22.501963 26.240010 10.858091 36.232232 -0.861939 1.266439 0.051986 -0.011324 390297.000000 0 0 1
-23.329563 27.232810 10.236991 37.291962 -0.862442 1.292717 0.052873 -0.010034 113474.000000 0 0 1
-24.168863 27.958610 11.279491 38.639937 -0.857972 1.274570 0.050142 -0.006755 -381617.000000 0 0 1
-23.312163 28.524510 12.241091 38.819440 -0.885615 1.249988 0.069108 -0.014136 271608.000000 0 0 1
-23.980263 29.498310 13.019991 40.183622 -0.888217 1.240829 0.071949 -0.015422 -51007.100000 0 0 1
8.916537 -32.994881 28.260421 44.348824 -1.306861 0.879897 0.059823 -0.027938 -866256.000000 0 0 1
10.215337 -33.113181 27.765491 44.404486 -1.271562 0.895299 0.058945 -0.040974 -242554.000000 0 0 1
10.486237 -32.426781 26.552071 43.202659 -1.258029 0.908926 0.063035 -0.035403 997443.000000 0 0 1
12.007137 -32.528681 26.124651 43.414097 -1.217187 0.925100 0.050577 -0.025285 1041250.000000 0 0 1
12.528937 -33.825781 25.798881 44.347942 -1.216068 0.949933 0.067759 -0.035565 -675488.000000 0 0 1
13.885937 -33.685981 25.549411 44.500977 -1.179803 0.959253 0.074848 -0.027942 -858870.000000 0 0 1
14.591137 33.220510 25.388961 44.284341 1.156943 0.960248 0.092750 -0.022964 -398533.000000 0 0 1
14.635437 32.802010 24.035781 43.219054 1.151128 0.981064 0.086712 -0.039256 280266.000000 0 0 1
15.465737 31.658110 23.982941 42.621666 1.116372 0.973156 0.083840 -0.032516 -181859.000000 0 0 1
15.760637 31.021510 22.612191 41.497505 1.100725 0.994521 0.082149 -0.042472 175376.000000 0 0 1
14.733037 30.160010 22.112191 40.194994 1.116394 0.988285 0.082602 -0.035667 68641.600000 0 0 1
14.948537 28.767110 22.247491 39.318650 1.091561 0.969362 0.083296 -0.034411 -73428.000000 0 0 1
14.724737 28.117510 23.657161 39.586279 1.088380 0.930279 0.087839 -0.045173 -401332.000000 0 0 1
15.531337 28.632410 24.672031 40.862531 1.073777 0.922560 0.082667 -0.042214 -138805.000000 0 0 1
15.075137 28.181810 25.967281 41.179775 1.079601 0.888492 0.086519 -0.045781 119096.000000 0 0 1
16.039337 28.594210 27.151641 42.568777 1.059601 0.879119 0.097030 -0.048837 353834.000000 0 0 1
16.065237 30.001210 27.387851 43.683622 1.079164 0.893152 0.098366 -0.043481 159114.000000 0 0 1
16.818937 30.195210 28.575421 44.846204 1.062590 0.879953 0.100005 -0.043355 101039.000000 0 0 1
16.527837 31.626210 29.121681 46.059297 1.089233 0.886323 0.099504 -0.046687 12722.700000 0 0 1
17.150637 32.660810 28.447971 46.584975 1.087260 0.913892 0.094631 -0.035754 -72198.900000 0 0 1
16.551637 33.854710 28.839201 47.453109 1.116066 0.917583 0.094868 -0.020202 197175.000000 0 0 1
17.222937 -33.181381 28.088161 46.760864 -1.092022 0.926449 0.084628 -0.027288 -459648.000000 0 0 1
17.223137 -33.290881 26.686501 46.011830 -1.093363 0.952077 0.096822 -0.025123 197775.000000 0 0 1
17.691337 -32.094781 26.060151 44.968765 -1.067016 0.952661 0.102485 -0.030713 133365.000000 0 0 1
19.231837 -31.830981 26.059741 45.411287 -1.027304 0.959584 0.100288 -0.025725 32217.600000 0 0 1
19.654237 -31.094681 27.155711 45.723089 -1.007124 0.934878 0.085790 -0.024396 64798.100000 0 0 1
20.843637 -30.377081 26.879091 45.603835 -0.969417 0.940475 0.095038 -0.022320 -2091.010000 0 0 1
21.247037 -29.389581 27.915621 45.765335 -0.944837 0.914770 0.099896 -0.017983 -27159.300000 0 0 1
20.239837 -28.396281 28.075211 44.768485 -0.951555 0.892946 0.099971 -0.021315 391220.000000 0 0 1
20.450837 -27.751681 29.329401 45.261532 -0.935718 0.865843 0.109883 -0.010293 -164675.000000 0 0 1
19.105037 -27.479581 30.006581 44.950247 -0.963269 0.839882 0.086686 -0.013449 -297746.000000 0 0 1
18.234237 -26.696181 29.237321 43.588925 -0.971552 0.835575 0.121394 -0.016551 286204.000000 0 0 1
17.040737 -26.355981 29.932081 43.369966 -0.996843 0.809090 0.091000 -0.015903 36324.700000 0 0 1
15.993837 -25.561881 29.157811 41.945089 -1.011700 0.802178 0.087475 -0.008530 -630229.000000 0 0 1
15.549237 -26.333781 28.037081 41.488850 -1.037416 0.828782 0.086973 -0.015160 284963.000000 0 0 1
14.802237 -25.714081 26.975111 40.099586 -1.048476 0.832940 0.084655 -0.035285 985133.000000 0 0 1
13.298437 -25.369981 27.332591 39.592359 -1.087992 0.808823 0.058519 -0.021068 1240460.000000 0 0 1
12.313137 -26.387281 27.528601 40.071509 -1.134198 0.813462 0.057386 -0.017207 435680.000000 0 0 1
12.007537 -27.047681 26.314831 39.600863 -1.152994 0.843970 0.055115 -0.020990 -546345.000000 0 0 1
11.031837 -28.263081 26.493691 40.279261 -1.198657 0.852968 0.065964 -0.026122 605059.000000 0 0 1
9.702537 -27.769981 26.696181 39.724012 -1.234666 0.833834 0.058630 -0.034969 404105.000000 0 0 1
8.831037 -28.912581 26.637451 40.292411 -1.274357 0.848508 0.057726 -0.035063 972658.000000 0 0 1
7.309337 -28.589581 26.929451 39.949792 -1.320494 0.831075 0.051331 -0.038598 926162.000000 0 0 1
6.455537 -28.192081 25.869071 38.803044 -1.345693 0.841056 0.066449 -0.044871 192617.000000 0 0 1
6.887637 -27.092181 25.063541 37.544732 -1.321841 0.839863 0.085720 -0.043655 -1152360.000000 0 0 1
5.793137 -26.682881 24.084631 36.408873 -1.357004 0.847973 0.078741 -0.038041 -867505.000000 0 0 1
5.442037 -27.544781 23.056591 36.330939 -1.375738 0.883271 0.060931 -0.035074 342109.000000 0 0 1
4.577037 -28.649981 23.420231 37.286431 -1.412378 0.891666 0.056786 -0.036501 -715773.000000 0 0 1
3.155637 -28.365981 23.833501 37.183635 -1.460005 0.875038 0.051527 -0.041674 -1828540.000000 0 0 1
2.149137 -28.592881 22.842191 36.659751 -1.495774 0.898114 0.047902 -0.032529 1409610.000000 0 0 1
0.805137 -28.170381 23.136611 36.462603 -1.542223 0.883396 0.055161 -0.034241 1088690.000000 0 0 1
0.625337 -26.658681 23.413881 35.486422 -1.547343 0.850246 0.057566 -0.037867 -764050.000000 0 0 1
1.141637 -26.392481 24.716351 36.176849 -1.527567 0.818648 0.055107 -0.041587 -108449.000000 0 0 1
0.966937 -25.084181 25.140371 35.527304 -1.532268 0.784651 0.069139 -0.036173 -272404.000000 0 0 1
2.103637 -24.540581 26.042971 35.845526 -1.485285 0.757533 0.070384 -0.033471 566872.000000 0 0 1
3.283237 -24.305181 25.239961 35.193424 -1.436525 0.771051 0.080587 -0.036201 309325.000000 0 0 1
4.384537 -23.701981 25.827781 35.328209 -1.387878 0.750891 0.074772 -0.027577 -83749.000000 0 0 1
4.199537 -22.153581 25.978371 34.399026 -1.383455 0.714827 0.065622 -0.018693 -431367.000000 0 0 1
4.215437 -21.424681 24.793641 33.038031 -1.376522 0.722042 0.067418 -0.021372 -76388.000000 0 0 1
3.739237 -20.192781 25.149981 32.469244 -1.387694 0.684748 0.074845 -0.014458 -279189.000000 0 0 1
3.895537 -19.092281 24.028121 30.936079 -1.369522 0.681383 0.072363 -0.012467 -488721.000000 0 0 1
5.233437 -18.792781 23.793741 30.768484 -1.299197 0.686743 0.059697 -0.004965 -728114.000000 0 0 1
5.302637 -17.770281 22.849091 29.427569 -1.280809 0.681781 0.040451 0.002525 539577.000000 0 0 1
6.743137 -17.371181 22.401691 29.138696 -1.200521 0.693841 0.035393 0.002020 -263658.000000 0 0 1
7.389337 -18.364181 21.664891 29.346430 -1.188242 0.740330 0.029615 0.002988 -873454.000000 0 0 1
8.611137 -17.880981 21.229291 29.061382 -1.121992 0.751745 0.023521 -0.001839 84606.600000 0 0 1
9.896637 -17.935381 22.132091 30.157101 -1.066577 0.746761 0.037892 0.005353 116316.000000 0 0 1
9.919837 -16.940181 23.199251 30.390428 -1.041047 0.702277 0.051851 0.018607 571369.000000 0 0 1
11.019737 -17.228181 24.084561 31.596058 -1.001743 0.703991 0.059993 0.018443 293534.000000 0 0 1
10.887937 -16.529281 25.464921 32.252542 -0.988325 0.660725 0.063786 -0.004245 -49451.000000 0 0 1
11.078037 -15.143281 25.349481 31.537883 -0.939209 0.637176 0.072359 0.000502 110007.000000 0 0 1
10.772637 -14.507881 26.569731 32.132210 -0.932089 0.597246 0.072426 -0.003210 -137847.000000 0 0 1
11.200437 -13.005581 26.539041 31.605626 -0.859835 0.574078 0.082988 -0.002814 126819.000000 0 0 1
10.282237 -12.169381 25.844241 30.360221 -0.869255 0.552427 0.088035 -0.009603 82864.600000 0 0 1
10.601037 -10.794981 25.877601 29.976054 -0.794462 0.529072 0.093669 -0.006596 -629561.000000 0 0 1
9.700037 -9.868081 25.107811 28.668308 -0.793986 0.503698 0.086185 -0.009424 8359.110000 0 0 1
8.347737 -9.955281 25.537241 28.652103 -0.873003 0.470621 0.082600 -0.004320 250170.000000 0 0 1
7.473637 -9.168581 24.725301 27.409097 -0.886894 0.446223 0.076151 -0.005772 845627.000000 0 0 1
5.977337 -9.359681 25.141451 27.484991 -1.002458 0.415948 0.077578 -0.012879 -348965.000000 0 0 1
5.541937 -8.354881 25.999961 27.866020 -0.985116 0.368039 0.080459 -0.014462 -297723.000000 0 0 1
4.228737 -8.475181 26.472621 28.116020 -1.107985 0.343596 0.069806 -0.016313 315911.000000 0 0 1
3.009437 -8.489081 25.519121 27.061906 -1.230112 0.339292 0.052346 -0.024776 -421607.000000 0 0 1
2.768737 -7.217581 24.958241 26.128015 -1.204499 0.300363 0.068886 -0.025805 -311709.000000 0 0 1
1.606537 -7.205081 24.174961 25.276924 -1.351412 0.296365 0.050427 -0.027352 29512.800000 0 0 1
1.615537 -5.882881 23.349461 24.133287 -1.302787 0.255564 0.044178 -0.032206 -37900.800000 0 1 0
1.475337 -4.677081 24.103281 24.597151 -1.265236 0.200728 0.054988 -0.030138 -18998.100000 0 1 0
1.846337 -3.566981 23.309941 23.653449 -1.093153 0.170633 0.052276 -0.034892 -574633.000000 0 1 0
0.788137 -2.923381 22.393191 22.596953 -1.307460 0.134394 0.029204 -0.032244 865753.000000 0 1 0
-0.241763 -2.046381 22.927591 23.020003 1.453200 0.089634 0.031709 -0.028309 1022100.000000 0 1 0
-1.334263 -2.631381 23.621111 23.804649 1.101518 0.124259 0.029814 -0.020558 427078.000000 0 1 0
-2.292963 -1.479381 24.113851 24.267757 0.572982 0.112683 0.028021 -0.020300 239881.000000 0 1 0
-1.658963 -0.585381 25.011381 25.073173 0.339220 0.070221 0.037074 -0.024650 -32966.700000 0 0 1
-2.481163 0.473619 25.403611 25.528884 -0.188617 0.099107 0.039081 -0.024069 -648248.000000 0 0 1
-1.866863 1.268619 26.516941 26.612830 -0.596866 0.084915 0.060173 -0.027981 -428672.000000 0 0 1
-1.964363 0.692619 27.861491 27.939240 -0.338982 0.074620 0.071995 -0.025922 67503.800000 0 0 1
-1.237963 -0.505381 28.112771 28.144553 0.387586 0.047528 0.075283 -0.026603 -776457.000000 0 0 1
0.212137 -0.263381 28.613481 28.615479 -0.892750 0.011819 0.091627 -0.029458 416612.000000 0 0 1
1.130437 0.209619 27.590741 27.614684 0.183349 0.041646 0.083192 -0.031802 377465.000000 0 0 1
1.476337 -0.796381 26.670761 26.723459 -0.494692 0.062811 0.073384 -0.029948 -894736.000000 0 0 1
2.684237 -1.672381 27.014931 27.199420 -0.557187 0.116538 0.082981 -0.029856 -719147.000000 0 0 1
2.253937 -2.605381 27.980601 28.191883 -0.857596 0.122506 0.088522 -0.027621 728193.000000 0 0 1
3.315937 -3.423681 28.531801 28.927162 -0.801384 0.165522 0.096440 -0.014609 833645.000000 0 0 1
3.977437 -4.406381 27.482271 28.116035 -0.836517 0.212726 0.089222 -0.019868 -356858.000000 0 0 1
4.775837 -3.762581 26.584411 27.270800 -0.667280 0.224836 0.090430 -0.019054 -858162.000000 0 0 1
5.210537 -4.592881 25.534101 26.461945 -0.722477 0.265594 0.085587 -0.021289 -715455.000000 0 0 1
6.382837 -4.019481 24.690301 25.816812 -0.561995 0.296499 0.084080 -0.022557 743681.000000 0 0 1
7.555137 -3.813481 25.534471 26.900407 -0.467443 0.320041 0.065081 -0.013629 1187460.000000 0 0 1
8.301037 -4.997081 25.943151 27.693413 -0.541876 0.357431 0.074159 -0.004417 405721.000000 0 0 1
9.355637 -5.465181 24.848071 27.107614 -0.528690 0.411191 0.072834 -0.020841 215954.000000 0 0 1
8.709937 -6.061881 23.753831 26.016415 -0.608018 0.420139 0.081204 -0.025516 -148474.000000 0 0 1
9.394537 -5.887681 22.536791 25.116310 -0.559830 0.457189 0.087628 -0.029812 -171840.000000 0 0 1
9.403937 -4.525181 21.750591 24.124665 -0.448495 0.447362 0.086431 -0.020445 -894771.000000 0 1 0
8.245937 -4.089781 21.162391 23.077447 -0.460423 0.410263 0.074793 -0.025705 -1253740.000000 0 1 0
8.381337 -2.947381 20.388291 22.239970 -0.338153 0.410952 0.059320 -0.024958 -233763.000000 0 1 0
7.001637 -2.310381 20.185291 21.489689 -0.318727 0.350209 0.053362 -0.015093 -24683.000000 0 1 0
6.512737 -1.685381 21.372891 22.406622 -0.253227 0.304940 0.058458 -0.016150 -233542.000000 0 1 0
5.168637 -1.315381 21.207891 21.868234 -0.249203 0.246372 0.033066 -0.013582 -275369.000000 0 1 0
4.605237 -0.593381 22.452391 22.927498 -0.128143 0.203932 0.036822 -0.022718 419816.000000 0 1 0
3.418837 0.184619 22.205791 22.468192 0.053948 0.152981 0.036012 -0.026872 254881.000000 0 1 0
2.756837 0.369619 23.419811 23.584408 0.133279 0.118213 0.042932 -0.027885 -451348.000000 0 1 0
1.332237 0.852619 23.129561 23.183580 0.569306 0.068279 0.043376 -0.037569 -316343.000000 0 1 0
1.335237 2.183619 22.749691 22.893219 1.021979 0.112036 0.037899 -0.029820 445324.000000 0 1 0
-0.041563 2.525619 22.670491 22.810779 -1.554341 0.110963 0.032081 -0.029658 388051.000000 0 1 0
-0.405363 3.997619 22.255191 22.615012 -1.469741 0.178623 0.035774 -0.021240 -440866.000000 0 1 0
-0.241863 4.919619 23.269401 23.784998 -1.521673 0.208596 0.046740 -0.015429 -722238.000000 0 1 0
-1.223463 5.884619 23.210631 23.976217 -1.365808 0.253387 0.029687 -0.015801 -797530.000000 0 1 0
-1.129163 7.109619 24.204421 25.252241 -1.413290 0.289082 0.039305 -0.004974 -92775.200000 0 0 1
-0.222563 8.053619 23.672471 25.005923 -1.543168 0.328043 0.035430 -0.007636 23748.200000 0 0 1
-0.402063 9.335619 24.198431 25.939921 -1.527755 0.368512 0.044504 0.001775 -685945.000000 0 0 1
0.319037 10.412619 23.320261 25.541319 1.540166 0.420119 0.035410 -0.004345 813663.000000 0 0 1
1.740537 10.374619 23.230651 25.501477 1.404576 0.425207 0.024931 -0.006559 303701.000000 0 0 1
2.426937 10.633619 24.454251 26.776375 1.346407 0.419538 0.043854 -0.003065 -1582490.000000 0 0 1
3.750337 11.372619 24.304991 27.094908 1.252257 0.457789 0.027488 -0.008656 -698045.000000 0 0 1
4.804937 10.583619 23.807311 26.493177 1.144623 0.454181 0.023730 -0.011247 -241383.000000 0 0 1
4.730237 10.081619 22.494691 25.100304 1.132096 0.459686 0.022748 -0.020280 -930460.000000 0 0 1
6.109737 9.861619 21.809091 24.702567 1.016128 0.488863 0.021021 -0.022522 159083.000000 0 1 0
6.840137 11.014619 21.560091 25.158434 1.015075 0.541430 0.019948 -0.029805 238200.000000 0 0 1
8.140537 10.664619 21.084491 24.991162 0.918824 0.566699 0.039070 -0.031710 700864.000000 0 1 0
9.096237 11.825619 20.703891 25.519363 0.915122 0.624422 0.043719 -0.039040 -478870.000000 0 0 1
8.684637 12.525619 19.599891 24.828809 0.964547 0.660963 0.038038 -0.038113 302294.000000 0 1 0
9.601237 13.550619 19.170891 25.363873 0.954358 0.713869 0.051284 -0.034624 -295528.000000 0 0 1
10.968837 13.210619 18.611091 25.322095 0.877848 0.745167 0.063881 -0.034932 -420679.000000 0 0 1
11.952037 12.935619 19.595791 26.347228 0.824898 0.732131 0.073955 -0.039774 -249908.000000 0 0 1
13.159137 12.491619 19.046691 26.305510 0.759381 0.761130 0.069973 -0.037410 166266.000000 0 0 1
14.376937 12.505619 20.016791 27.636185 0.715899 0.760783 0.087969 -0.027467 246447.000000 0 0 1
14.941537 13.743619 20.353491 28.747194 0.743662 0.784111 0.089202 -0.026782 -583096.000000 0 0 1
15.986537 13.496619 21.235791 29.810852 0.701146 0.777954 0.092259 -0.025333 -391067.000000 0 0 1
16.658137 14.789619 21.642691 31.058532 0.726051 0.799820 0.096546 -0.018783 -74686.300000 0 0 1
15.924637 15.498619 22.634891 31.719702 0.771842 0.776186 0.103927 -0.018270 727224.000000 0 0 1
16.717137 16.621619 23.101791 33.006569 0.782533 0.795518 0.102170 -0.009111 116032.000000 0 0 1
-20.962163 12.731010 -24.809191 34.885339 -0.545794 2.361949 0.052246 -0.012893 -136973.000000 0 0 1
-21.136163 12.527810 -26.157111 35.887015 -0.535049 2.387472 0.063056 -0.022252 364117.000000 0 0 1
-22.030963 13.476210 -26.789781 37.211073 -0.548974 2.374514 0.074413 -0.021209 439077.000000 0 0 1
-21.821463 13.507610 -28.331701 38.227177 -0.554277 2.405564 0.074490 -0.018359 75076.100000 0 0 1
-20.505863 13.760410 -28.774051 37.918140 -0.591029 2.432337 0.069729 -0.021532 -159427.000000 0 0 1
-20.432563 14.568210 -29.948431 39.072124 -0.619391 2.444156 0.073285 -0.026460 -301422.000000 0 0 1
-18.985163 15.014110 -30.195981 38.699576 -0.669127 2.465888 0.055192 -0.022747 10811.000000 0 0 1
-18.065363 14.012510 -30.594321 38.193197 -0.659720 2.499829 0.051414 -0.018398 623395.000000 0 0 1
-16.709563 14.476810 -30.676291 37.812992 -0.713926 2.517106 0.054189 -0.017840 1413340.000000 0 0 1
-15.715463 14.124410 -29.503821 36.289808 -0.732129 2.520092 0.073586 -0.011184 -91342.300000 0 0 1
-16.076163 14.402810 -28.198891 35.511427 -0.730551 2.488288 0.080422 -0.019872 -337679.000000 0 0 1
-16.899063 13.430310 -27.591531 35.032045 -0.671524 2.477714 0.086500 -0.019168 -120982.000000 0 0 1
-17.664263 13.941210 -26.356311 34.656005 -0.668141 2.434898 0.078084 -0.032821 -510433.000000 0 0 1
-16.881863 14.166410 -25.232331 33.501567 -0.698161 2.423662 0.097118 -0.032962 379622.000000 0 0 1
-17.704963 14.379210 -24.072691 33.162054 -0.682110 2.383154 0.098833 -0.026778 257494.000000 0 0 1
-16.800363 14.929810 -22.967691 32.135125 -0.726514 2.367023 0.089760 -0.026790 245299.000000 0 0 1
-16.321563 16.236010 -23.168191 32.661392 -0.782770 2.359365 0.061410 -0.026375 226229.000000 0 0 1
-15.423463 16.736310 -22.175591 31.776471 -0.826198 2.343204 0.062506 -0.017855 -26151.000000 0 0 1
-15.231763 18.271010 -22.403091 32.676213 -0.875867 2.326236 0.056279 -0.017858 222496.000000 0 0 1
-16.362263 19.093010 -22.122191 33.491163 -0.862266 2.292332 0.038009 -0.015542 795182.000000 0 0 1
-17.309863 19.047610 -23.200791 34.651400 -0.833158 2.304397 0.025713 -0.014175 651051.000000 0 0 1
-18.565863 19.981310 -23.156591 35.779488 -0.822102 2.274706 0.026501 -0.017037 609488.000000 0 0 1
-18.220563 21.278610 -23.521291 36.578946 -0.862665 2.269242 0.019197 -0.014453 644208.000000 0 0 1
-19.414263 22.060410 -23.645091 37.718240 -0.849113 2.248348 0.058458 -0.030675 595444.000000 0 0 1
-19.118063 23.515710 -24.065191 38.699126 -0.888184 2.241904 0.042746 -0.024508 -199276.000000 0 0 1
-18.486063 24.092110 -22.967391 38.074471 -0.916310 2.218332 0.050489 -0.020590 108847.000000 0 0 1
-17.554863 25.134410 -23.309991 38.513212 -0.961118 2.220872 0.037951 -0.010435 -350762.000000 0 0 1
-16.583363 25.373110 -22.169291 37.553697 -0.991908 2.202271 0.023170 -0.018917 -106011.000000 0 0 1
-15.541963 24.387210 -21.995091 36.332804 -1.003401 2.221037 0.033329 -0.026023 353623.000000 0 0 1
-15.905163 23.088510 -21.601791 35.393374 -0.967574 2.227279 0.045223 -0.013123 -1101580.000000 0 0 1
-14.665563 22.211710 -21.480291 34.202949 -0.987240 2.249808 0.061602 -0.013755 -376454.000000 0 0 1
-13.845963 22.550210 -20.407091 33.416643 -1.020142 2.227723 0.067967 -0.021948 -600598.000000 0 0 1
-13.035963 21.474510 -20.057291 32.146319 -1.025214 2.244567 0.068192 -0.019445 -445781.000000 0 0 1
-12.191063 21.764810 -18.787591 31.229834 -1.060211 2.216288 0.060897 -0.022199 8209.890000 0 0 1
-12.813563 21.779810 -17.476291 30.724067 -1.039007 2.175860 0.075680 -0.021245 419044.000000 0 0 1
-13.831263 22.778110 -17.272691 31.756763 -1.025087 2.145881 0.067642 -0.030440 293554.000000 0 0 1
-14.542863 22.674310 -15.942791 31.301626 -1.000504 2.105200 0.082636 -0.032404 -7688.520000 0 0 1
-13.700763 23.166310 -14.920491 30.773526 -1.036718 2.076986 0.085991 -0.049556 242466.000000 0 0 1
-14.396263 23.260610 -13.662191 30.577179 -1.016587 2.033993 0.093137 -0.045491 -172780.000000 0 0 1
-13.482763 23.567710 -12.505091 29.893129 -1.051155 2.002398 0.114034 -0.043904 -566867.000000 0 0 1
-13.183463 24.918010 -12.472391 30.826474 -1.084161 1.987338 0.097680 -0.044818 435139.000000 0 0 1
-12.191263 25.265510 -11.487691 30.314022 -1.121225 1.959465 0.072126 -0.038504 328229.000000 0 0 1
-11.819563 26.772710 -11.596391 31.479460 -1.155052 1.948062 0.083798 -0.039038 -90416.600000 0 0 1
-10.854063 27.037910 -12.598391 31.742381 -1.189050 1.978928 0.079884 -0.042243 71142.900000 0 0 1
-10.693463 28.449410 -12.722091 32.948000 -1.211257 1.967225 0.060750 -0.034763 -679631.000000 0 0 1
-10.238863 28.977310 -14.121291 33.822030 -1.231148 2.001508 0.088708 -0.050044 1120440.000000 0 0 1
-8.834363 28.927110 -14.458691 33.524281 -1.274392 2.016719 0.078734 -0.048242 851178.000000 0 0 1
-8.315163 27.608310 -14.476891 32.263619 -1.278254 2.036114 0.083812 -0.045912 -1036090.000000 0 0 1
-6.908163 27.582710 -15.077591 32.184816 -1.325392 2.058353 0.092262 -0.046783 -413450.000000 0 0 1
-5.940063 28.129610 -14.259291 32.091848 -1.362686 2.031220 0.080725 -0.046508 -380348.000000 0 0 1
-4.626863 28.043510 -14.819291 32.053981 -1.407281 2.051409 0.097832 -0.046574 1051600.000000 0 0 1
-3.553763 28.952810 -14.147691 32.419926 -1.448664 2.022377 0.067852 -0.035190 45418.200000 0 0 1
-3.649463 30.369410 -14.371291 33.795764 -1.451201 2.010023 0.057705 -0.022289 -288617.000000 0 0 1
-4.743863 31.040810 -13.800691 34.300076 -1.419143 1.984880 0.051608 -0.020449 -88760.600000 0 0 1
-4.885963 32.593410 -14.148091 35.866022 -1.421998 1.976288 0.048343 -0.017253 206538.000000 0 0 1
-3.868663 33.384510 -13.546391 36.235298 -1.455429 1.953948 0.028060 -0.018671 16418.000000 0 0 1
-4.050463 -33.467081 -13.658691 36.373227 1.450354 1.955749 0.044258 -0.013022 813396.000000 0 0 1
-3.077863 -32.665881 -12.683891 35.176898 1.476851 1.939680 0.045493 -0.013273 705324.000000 0 0 1
-3.481763 -32.751781 -11.339591 34.833722 1.464886 1.902374 0.046588 -0.017970 827979.000000 0 0 1
-2.474763 -32.080981 -10.512391 33.850025 1.493808 1.886576 0.042838 -0.019821 770608.000000 0 0 1
-2.770063 -32.286981 -9.044491 33.644096 1.485211 1.842973 0.042334 -0.028191 -250208.000000 0 0 1
-1.976763 -31.394481 -8.290491 32.530805 1.507914 1.828489 0.058392 -0.027482 195309.000000 0 0 1
-2.291263 -31.524181 -6.913391 32.354580 1.498241 1.786132 0.070213 -0.036085 708506.000000 0 0 1
-0.983263 -31.012681 -6.225591 31.646662 1.539102 1.768810 0.076801 -0.036132 557038.000000 0 0 1
-1.028463 -30.925881 -4.863591 31.322873 1.537553 1.726700 0.089710 -0.035202 -368695.000000 0 0 1
0.089037 -30.268681 -4.337891 30.578069 -1.567855 1.713139 0.085444 -0.030032 -357350.000000 0 0 1
0.105637 -30.362181 -2.772791 30.488712 -1.567317 1.661867 0.091975 -0.027396 -300918.000000 0 0 1
0.243437 -31.676581 -2.237991 31.756474 -1.563111 1.641328 0.083546 -0.028112 644360.000000 0 0 1
1.514637 -32.310981 -2.392691 32.434836 -1.523954 1.644633 0.069174 -0.022721 -68258.500000 0 0 1
2.768137 -31.818781 -1.728191 31.985685 -1.484018 1.624853 0.062601 -0.025893 -1553220.000000 0 0 1
2.644237 -32.049881 -0.334291 32.160514 -1.488479 1.581191 0.065039 -0.015488 -80543.800000 0 0 1
3.809437 -31.864981 0.435909 32.094842 -1.451812 1.557214 0.062120 -0.018549 -183706.000000 0 0 1
4.321037 -30.419081 0.543309 30.729254 -1.429690 1.553115 0.057514 -0.019142 -1090030.000000 0 0 1
4.787537 -29.963081 -0.648291 30.350075 -1.412354 1.592158 0.053175 -0.025233 -255990.000000 0 0 1
4.925237 -28.575381 -0.570891 29.002350 -1.400114 1.590482 0.063335 -0.020211 -397751.000000 0 0 1
4.465537 -27.844881 -1.832191 28.260137 -1.411778 1.635675 0.051552 -0.017333 -32586.000000 0 0 1
3.093437 -27.954681 -2.150991 28.207452 -1.460586 1.647127 0.074715 -0.020001 207094.000000 0 0 1
2.552837 -26.994981 -3.092091 27.291153 -1.476510 1.684340 0.072705 -0.021731 239363.000000 0 0 1
3.045737 -27.085381 -4.552391 27.633651 -1.458817 1.736292 0.055357 -0.019027 -131952.000000 0 0 1
2.598737 -28.248081 -5.228591 28.845202 -1.479058 1.753068 0.056135 -0.020847 -56601.500000 0 0 1
2.865437 -28.139981 -6.600191 29.045340 -1.469318 1.800036 0.068704 -0.018799 -257943.000000 0 0 1
2.176137 -29.122081 -7.547791 30.162897 -1.496210 1.823719 0.059910 -0.015932 451619.000000 0 0 1
0.791737 -28.822681 -7.777491 29.864078 -1.543334 1.834263 0.067440 -0.013788 379442.000000 0 0 1
0.491837 -28.930781 -9.175191 30.354837 -1.553798 1.877864 0.067016 -0.003754 141826.000000 0 0 1
-0.953063 -28.469781 -9.453391 30.013387 1.537333 1.891224 0.049058 -0.004562 -291532.000000 0 0 1
-1.125763 -27.052381 -9.327091 28.637271 1.529206 1.902546 0.049247 -0.005248 -346695.000000 0 0 1
-2.457063 -26.601881 -9.380391 28.314113 1.478693 1.908475 0.055838 -0.007346 360650.000000 0 0 1
-3.330163 -26.850881 -8.079191 28.237088 1.447402 1.860971 0.059454 -0.003473 -137236.000000 0 0 1
-2.937163 -26.347281 -6.812091 27.371714 1.459776 1.822313 0.072357 -0.018017 -62653.400000 0 0 1
-1.843363 -27.033581 -6.203091 27.797317 1.502714 1.795845 0.076250 -0.025096 512687.000000 0 0 1
-1.469463 -26.690481 -4.729491 27.146072 1.515796 1.745914 0.093189 -0.024702 -120366.000000 0 0 1
-2.435763 -27.121381 -3.821791 27.497425 1.481227 1.710235 0.113473 -0.030418 -152572.000000 0 0 1
-2.034763 -26.867281 -2.472091 27.057389 1.495207 1.662289 0.114462 -0.025229 -347066.000000 0 0 1
-3.157363 -27.219681 -1.491391 27.442745 1.455317 1.625169 0.110732 -0.018951 -679422.000000 0 0 1
-4.212663 -26.374681 -1.794891 26.769236 1.412410 1.637897 0.098492 -0.010950 -593070.000000 0 0 1
-5.169763 -26.259381 -0.728691 26.773355 1.376409 1.598017 0.103938 -0.017636 350346.000000 0 0 1
-6.260163 -25.215481 -1.015491 26.000796 1.327450 1.609862 0.084729 -0.017638 9905.140000 0 0 1
-5.862663 -23.829381 -0.755591 24.551602 1.329561 1.601577 0.070424 -0.020022 -9616.980000 0 1 0
-6.503763 -23.400481 0.410309 24.290941 1.299705 1.553904 0.077595 -0.011880 -100380.000000 0 1 0
-6.070463 -21.994981 0.864209 22.833672 1.301507 1.532939 0.055575 -0.008795 236690.000000 0 1 0
-4.842063 -21.931481 1.561809 22.513878 1.353501 1.501370 0.049775 -0.011027 -32413.900000 0 1 0
-4.505063 -20.565481 1.749809 21.125730 1.355143 1.487873 0.021424 -0.006534 477942.000000 0 1 0
-3.440663 -20.293381 2.897209 20.785892 1.402847 1.430958 0.022663 -0.005468 688860.000000 0 1 0
-3.848963 -20.496181 4.271209 21.287348 1.385169 1.368780 0.019124 0.012757 -364691.000000 0 1 0
-2.866063 -20.018781 5.150009 20.868362 1.428594 1.321435 0.029154 -0.004191 -23117.900000 0 1 0
-1.878163 -21.099581 5.692509 21.934550 1.482016 1.308269 0.035140 -0.017559 533435.000000 0 1 0
-0.856863 -21.332581 4.719109 21.865115 1.530651 1.353256 0.054675 -0.024217 -228895.000000 0 1 0
-0.399763 -22.629281 4.858109 23.148335 1.553132 1.359356 0.061653 -0.028180 -1003310.000000 0 1 0
0.451737 -23.100781 3.651409 23.391942 -1.551244 1.414058 0.065619 -0.034364 760379.000000 0 1 0
1.655137 -22.327281 3.515609 22.662888 -1.496801 1.415041 0.041802 -0.033386 613418.000000 0 1 0
2.714837 -22.780781 4.344509 23.349713 -1.452183 1.383643 0.052845 -0.032923 -945808.000000 0 1 0
3.916237 -21.858381 4.454309 22.648766 -1.393513 1.372837 0.055194 -0.030906 -676792.000000 0 1 0
4.586537 -21.664281 3.257309 22.382749 -1.362167 1.424750 0.045572 -0.024231 -552943.000000 0 1 0
5.803637 -21.026481 3.594909 22.106978 -1.301486 1.407457 0.050746 -0.018427 348702.000000 0 1 0
6.642437 -20.621181 2.355509 21.792281 -1.259174 1.462496 0.055977 -0.014571 -115637.000000 0 1 0
7.237637 -21.696181 1.705309 22.935033 -1.248814 1.496374 0.063542 -0.010613 -240208.000000 0 1 0
7.027337 -21.580281 0.278309 22.697345 -1.255988 1.558534 0.051670 -0.020136 -118101.000000 0 1 0
7.980137 -22.440781 -0.549691 23.823799 -1.229134 1.593872 0.058848 -0.012019 -641225.000000 0 1 0
9.240037 -21.893581 -0.779891 23.776362 -1.171433 1.603603 0.061837 -0.006064 -1183720.000000 0 1 0
9.916237 -22.834981 -1.568191 24.944485 -1.161112 1.633705 0.060708 -0.004466 579452.000000 0 1 0
11.339037 -22.265181 -1.918491 25.059782 -1.099759 1.647428 0.055411 -0.000841 822593.000000 0 0 1
11.186737 -21.340181 -2.970291 24.276924 -1.087969 1.693454 0.053081 0.009447 201286.000000 0 1 0
12.421537 -21.141681 -3.646091 24.790305 -1.039591 1.718409 0.049569 0.008439 256978.000000 0 1 0
12.501037 -19.796781 -4.491491 23.840343 -1.007559 1.760328 0.046057 -0.005348 -456074.000000 0 1 0
12.724337 -18.730781 -3.625491 22.932403 -0.974080 1.729557 0.063883 -0.005386 175661.000000 0 1 0
12.898937 -17.547381 -4.417891 22.221857 -0.936905 1.770938 0.067222 -0.013480 -645638.000000 0 1 0
13.280837 -16.238181 -3.709891 21.303109 -0.885249 1.745837 0.067993 -0.011044 -164003.000000 0 1 0
14.552237 -15.987281 -3.165691 21.849081 -0.832353 1.716197 0.053552 -0.011031 -240549.000000 0 1 0
15.474637 -15.711281 -4.190391 22.447007 -0.792986 1.758577 0.050929 -0.013714 682934.000000 0 1 0
16.958237 -15.379281 -3.703991 23.191025 -0.736610 1.731200 0.053285 -0.013179 1114760.000000 0 1 0
17.667937 -16.517481 -3.268791 24.406314 -0.751757 1.705132 0.052860 -0.008457 670629.000000 0 1 0
19.013237 -16.070181 -3.034791 25.079152 -0.701707 1.692102 0.038322 -0.001766 690740.000000 0 0 1
19.792337 -17.120981 -2.177191 26.260327 -0.713156 1.653800 0.027287 -0.004951 52381.300000 0 0 1
21.175037 -16.913881 -2.036091 27.177329 -0.673988 1.645785 0.032967 -0.002223 148989.000000 0 0 1
21.868137 -17.834781 -1.170691 28.242970 -0.684157 1.612259 0.032801 0.000324 250086.000000 0 0 1
23.390537 -17.727481 -1.389591 29.382167 -0.648532 1.618108 0.052197 -0.007955 -116749.000000 0 0 1
23.909537 -16.407181 -1.240591 29.024138 -0.601417 1.613553 0.061470 -0.015226 -283222.000000 0 0 1
25.156837 -16.490281 -0.619491 30.086202 -0.580231 1.591388 0.086462 -0.014225 -267154.000000 0 0 1
25.877137 -15.123481 -0.357291 29.974548 -0.528895 1.582716 0.073818 -0.018979 134430.000000 0 0 1
25.211437 -14.262481 0.554009 28.971397 -0.514828 1.551673 0.066251 -0.015432 -113262.000000 0 0 1
26.067137 -13.349781 1.120409 29.308149 -0.473305 1.532558 0.058853 -0.018042 -429813.000000 0 0 1
25.429037 -12.672481 2.343509 28.508240 -0.462324 1.488499 0.083361 -0.027656 -29621.500000 0 0 1
25.028637 -13.536381 3.439709 28.661784 -0.495780 1.450496 0.102144 -0.021305 990149.000000 0 0 1
26.142837 -14.147781 4.129609 30.011020 -0.496041 1.432755 0.114247 -0.011363 699214.000000 0 0 1
25.772537 -14.680581 5.535509 30.172586 -0.517783 1.386290 0.107610 -0.002323 -172532.000000 0 0 1
24.862537 -15.727981 5.417709 29.914323 -0.564044 1.388684 0.112794 -0.004426 -293723.000000 0 0 1
24.448137 -16.040381 6.714209 30.001430 -0.580650 1.345088 0.078924 0.000019 -39246.900000 0 0 1
23.756137 -17.411481 6.807009 30.229937 -0.632484 1.343674 0.070556 -0.008200 179379.000000 0 0 1
24.680837 -18.438181 6.513309 31.488624 -0.641620 1.362446 0.077603 -0.008544 199518.000000 0 0 1
24.026537 -19.706181 6.535409 31.754049 -0.686928 1.363501 0.050013 0.003636 243288.000000 0 0 1
1.629037 23.238210 -3.006291 23.488422 1.500809 1.699139 0.070853 -0.017730 167366.000000 0 1 0
2.354737 24.359810 -2.570191 24.607946 1.474431 1.675433 0.076021 -0.015207 -107006.000000 0 1 0
3.176137 24.825310 -3.626691 25.289064 1.443548 1.714702 0.081163 -0.020460 77055.700000 0 0 1
4.166737 25.958210 -3.223791 26.487416 1.411637 1.692809 0.062975 -0.007690 559557.000000 0 0 1
5.293437 25.384210 -2.538491 26.054223 1.365210 1.668382 0.061862 -0.015294 471058.000000 0 0 1
5.968537 26.247110 -1.629791 26.966469 1.347201 1.631271 0.049214 -0.010613 88113.500000 0 0 1
7.179837 25.612010 -0.936891 26.615839 1.297481 1.606004 0.026821 -0.023256 456265.000000 0 0 1
8.348437 25.466310 -1.740891 26.856285 1.254013 1.635664 0.027591 -0.030179 796677.000000 0 0 1
9.389337 24.640010 -1.202391 26.395748 1.206723 1.616365 0.024201 -0.020216 562576.000000 0 0 1
10.551637 24.340410 -2.159791 26.616861 1.161746 1.652029 0.038704 -0.020985 -731062.000000 0 0 1
11.568437 25.351910 -2.103091 27.945860 1.142704 1.646123 0.049072 -0.019780 341146.000000 0 0 1
12.571037 25.194710 -3.099991 28.326919 1.107985 1.680452 0.067120 -0.025201 321478.000000 0 0 1
13.531137 23.972710 -3.011991 27.692139 1.056935 1.679779 0.072474 -0.025915 -1146090.000000 0 0 1
12.960837 22.706110 -3.236491 26.344366 1.052118 1.693961 0.067437 -0.024423 -265623.000000 0 0 1
12.712337 22.469610 -4.604391 26.223793 1.055936 1.747292 0.085230 -0.033281 14488.900000 0 0 1
11.811137 21.270210 -5.009291 24.839843 1.063901 1.773852 0.078219 -0.034503 -1121800.000000 0 1 0
10.477437 21.472610 -4.831091 24.375995 1.116840 1.770308 0.072710 -0.033825 -1563420.000000 0 1 0
9.671537 20.347810 -5.117691 23.103306 1.127094 1.794162 0.049730 -0.021502 -45918.300000 0 1 0
8.180737 20.640910 -4.902491 22.737767 1.193453 1.788113 0.036622 -0.020410 -392792.000000 0 1 0
7.878237 21.173810 -3.658791 22.886319 1.214593 1.731353 0.044663 -0.023409 880962.000000 0 1 0
6.469837 21.464810 -3.558991 22.699412 1.278041 1.728234 0.044887 -0.017679 1130420.000000 0 1 0
5.945837 22.221910 -2.313491 23.119656 1.309354 1.671030 0.044688 -0.016846 103821.000000 0 1 0
5.710237 21.443210 -1.152591 22.220408 1.310540 1.622690 0.040123 -0.012457 492195.000000 0 1 0
4.889037 22.174310 -0.207491 22.707835 1.353786 1.579934 0.053263 -0.008257 683261.000000 0 1 0
4.553437 21.314510 1.097009 21.823051 1.360329 1.520507 0.030018 -0.005461 69498.900000 0 1 0
3.489637 21.837410 1.881109 22.194338 1.412335 1.485938 0.033930 -0.007971 477022.000000 0 1 0
3.188337 20.946910 2.988709 21.397919 1.419745 1.430665 0.029817 -0.012874 -217755.000000 0 1 0
2.212537 21.535910 3.987909 22.013500 1.468418 1.388633 0.029250 -0.017163 -389994.000000 0 1 0
0.879637 21.556410 3.550809 21.864602 1.530013 1.407674 0.035017 -0.023071 -248706.000000 0 1 0
-0.011663 22.092810 4.511409 22.548730 -1.570268 1.369363 0.041101 -0.030312 727962.000000 0 1 0
-1.490763 22.179010 4.032509 22.591857 -1.503682 1.391341 0.040769 -0.030462 441864.000000 0 1 0
-2.391463 22.841610 4.898909 23.483134 -1.466479 1.360639 0.052411 -0.031762 -79231.900000 0 1 0
-3.689563 22.788610 4.346109 23.490898 -1.410285 1.384712 0.048592 -0.030216 -440664.000000 0 1 0
-4.853163 22.947810 5.284309 24.043276 -1.362380 1.349204 0.059032 -0.041862 -547253.000000 0 1 0
-4.970863 24.168410 5.929609 25.376797 -1.367949 1.334953 0.069437 -0.029810 -164926.000000 0 0 1
-6.299663 24.333010 6.368309 25.929453 -1.317465 1.322656 0.074783 -0.026538 121741.000000 0 0 1
-6.669563 25.774210 6.764909 27.469201 -1.317582 1.321964 0.080811 -0.029427 -282058.000000 0 0 1
-6.049163 26.213810 7.963509 28.056616 -1.344004 1.283003 0.060538 -0.037811 -143606.000000 0 0 1
-6.484363 27.473710 8.569209 29.500561 -1.339017 1.276072 0.096374 -0.029719 114631.000000 0 0 1
-6.363763 28.786910 7.759509 30.485959 -1.353231 1.313437 0.102697 -0.029568 801626.000000 0 0 1
-7.443263 28.786610 6.803509 30.501784 -1.317771 1.345851 0.086124 -0.035889 212672.000000 0 0 1
-7.473063 30.005310 6.101009 31.518053 -1.326704 1.375995 0.106017 -0.036762 -1492980.000000 0 0 1
-8.756663 30.361010 5.374509 32.052386 -1.289999 1.402322 0.101780 -0.038486 -202969.000000 0 0 1
-9.802963 30.856610 6.202909 32.965203 -1.263186 1.381503 0.103849 -0.031922 -106838.000000 0 0 1
-10.525563 29.866910 6.853909 32.400554 -1.231971 1.357649 0.087996 -0.026284 -1349470.000000 0 0 1
-11.495263 30.463310 7.860309 33.495355 -1.209969 1.333919 0.069696 -0.023951 -1169040.000000 0 0 1
-10.834563 31.097610 8.936809 34.122070 -1.235543 1.305799 0.071541 -0.020209 386740.000000 0 0 1
-11.762963 31.440810 9.974309 35.019690 -1.212788 1.281978 0.074066 -0.011257 -297674.000000 0 0 1
-11.110563 31.720610 11.276209 35.451300 -1.233887 1.247097 0.064208 -0.017156 -399909.000000 0 0 1
-10.386263 32.926010 11.357009 36.345265 -1.265233 1.252998 0.055297 -0.016972 166462.000000 0 0 1
-9.695763 33.076110 12.575109 36.690193 -1.285650 1.220967 0.054417 -0.022782 115613.000000 0 0 1
-9.149563 -33.776881 12.776509 37.253609 1.306262 1.220730 0.059218 -0.028866 -72363.400000 0 0 1
-10.182563 -32.936481 13.229409 36.925786 1.270959 1.204382 0.063333 -0.015554 198846.000000 0 0 1
-9.710563 -31.573581 13.340809 35.625318 1.272424 1.186965 0.069082 -0.017058 70765.400000 0 0 1
-10.754163 -30.621681 13.948009 35.325435 1.233058 1.164899 0.072055 -0.023526 -130521.000000 0 0 1
-10.860963 -30.642681 15.377509 35.963902 1.230172 1.128980 0.062874 -0.025809 283910.000000 0 0 1
-9.788463 -30.052581 16.108809 35.474856 1.255921 1.099445 0.057851 -0.022640 379508.000000 0 0 1
-9.929863 -30.392381 17.596809 36.495845 1.255008 1.067679 0.046247 -0.032082 -274015.000000 0 0 1
-10.893763 -29.649381 18.267209 36.489051 1.218688 1.046480 0.070355 -0.033657 -147249.000000 0 0 1
-11.386163 -30.486581 19.323609 37.848094 1.213358 1.034964 0.054695 -0.033720 20501.600000 0 0 1
-11.718963 -29.622381 20.576809 37.923933 1.194079 0.997290 0.052305 -0.037182 214490.000000 0 0 1
-10.530163 -29.205881 21.226109 37.608717 1.224754 0.971098 0.048542 -0.036200 414753.000000 0 0 1
-10.847863 -28.404481 22.342909 37.731900 1.205984 0.937073 0.032052 -0.032529 650011.000000 0 0 1
-9.626163 -28.247581 23.318909 37.872951 1.242360 0.907504 0.050507 -0.032700 558574.000000 0 0 1
-9.395363 -29.439981 24.015909 39.137568 1.261877 0.910149 0.051298 -0.014328 -309573.000000 0 0 1
-8.228763 -29.411581 24.786909 39.333758 1.297992 0.889026 0.059660 -0.019750 -181581.000000 0 0 1
-8.193663 -30.637881 25.767409 40.862884 1.309476 0.888493 0.061418 -0.021548 -18741.500000 0 0 1
-7.977863 -31.907581 25.208309 41.439099 1.325789 0.916852 0.081447 -0.012149 142199.000000 0 0 1
-8.098863 -32.830381 26.263109 42.815610 1.328937 0.910437 0.088366 -0.009261 -130271.000000 0 0 1
-8.057663 33.904110 25.785909 43.351214 -1.337465 0.933762 0.087346 -0.013672 48459.300000 0 0 1
-6.730563 33.530810 25.455409 42.633245 -1.372701 0.930942 0.082072 -0.012249 273217.000000 0 0 1
-6.621463 32.182710 24.979309 41.273921 -1.367882 0.920769 0.069456 -0.008959 -85528.600000 0 0 1
-7.220463 31.825010 23.582309 40.262783 -1.347693 0.945041 0.066836 -0.012830 401984.000000 0 0 1
-8.464063 31.162210 23.743109 40.080656 -1.305582 0.936783 0.063157 -0.008199 612692.000000 0 0 1
-9.201863 30.909010 22.520709 39.334763 -1.281443 0.961196 0.053606 -0.007161 1451770.000000 0 0 1
-10.160563 29.626710 22.554709 38.596553 -1.240413 0.946692 0.057370 -0.016169 1059990.000000 0 0 1
-9.303863 28.496810 22.596109 37.539502 -1.255219 0.924882 0.060277 -0.015328 747603.000000 0 0 1
-10.062963 27.289210 22.682309 36.884297 -1.217514 0.908463 0.046460 -0.012806 89316.200000 0 0 1
-9.168863 26.047410 22.431709 35.576920 -1.232335 0.888582 0.049836 -0.016434 154487.000000 0 0 1
-8.210763 25.846910 23.455409 35.855762 -1.263209 0.857725 0.036206 -0.024498 -66606.800000 0 0 1
-7.666463 24.583110 23.365609 34.771478 -1.268496 0.833922 0.035218 -0.027995 -500062.000000 0 0 1
-6.241663 24.315310 23.867709 34.638999 -1.319525 0.810631 0.030791 -0.026929 -334008.000000 0 0 1
-5.286163 24.794810 22.955109 34.200339 -1.360745 0.834976 0.020076 -0.024872 -935279.000000 0 0 1
-4.121063 25.091910 23.668209 34.738613 -1.408011 0.821228 0.026167 -0.025251 -698200.000000 0 0 1
-3.034763 25.661110 22.762209 34.435745 -1.453080 0.848639 0.014856 -0.015728 -449033.000000 0 0 1
-2.509763 24.699110 21.881309 33.092849 -1.469530 0.848366 0.012089 -0.011771 73631.700000 0 0 1
-1.833063 25.337710 20.802809 32.834685 -1.498577 0.884648 0.010068 -0.007182 99417.800000 0 0 1
-1.410663 24.417410 19.615309 31.352197 -1.513088 0.894840 0.000579 -0.006247 -434805.000000 0 0 1
-0.538963 23.362910 20.012209 30.766940 -1.547731 0.862626 0.006898 -0.010363 69095.300000 0 0 1
-0.023863 22.656010 18.913209 29.512791 -1.569743 0.875194 0.000458 -0.005151 -467550.000000 0 0 1
1.167337 21.726310 19.254409 29.053873 1.517119 0.846359 -0.000679 0.007523 -478511.000000 0 0 1
2.384837 22.365410 19.357209 29.674915 1.464567 0.860170 -0.001223 -0.008712 -399874.000000 0 0 1
3.455737 21.405310 19.391209 29.088631 1.410734 0.841125 0.008975 0.001747 557033.000000 0 0 1
4.884437 21.938710 19.247309 29.590939 1.351729 0.862625 0.024830 -0.006912 511596.000000 0 0 1
5.903337 20.919610 19.239709 29.028364 1.295757 0.846258 0.040804 -0.009848 935378.000000 0 0 1
7.162237 21.396410 18.741809 29.331884 1.247780 0.877655 0.059423 -0.016125 456767.000000 0 0 1
8.142737 20.201810 18.522009 28.591644 1.187647 0.866088 0.067293 -0.013787 30527.100000 0 0 1
8.665637 19.703710 19.743309 29.208350 1.156459 0.828547 0.060693 -0.016315 -92135.200000 0 0 1
9.674837 18.758910 19.468409 28.714424 1.094631 0.825757 0.066537 -0.019011 132040.000000 0 0 1
10.128937 17.908610 20.696009 29.182846 1.056062 0.782456 0.077032 -0.022302 -527080.000000 0 0 1
9.233537 16.876510 21.003809 28.482184 1.070164 0.741529 0.054596 -0.017169 -433632.000000 0 0 1
9.599837 16.178310 22.140009 29.052962 1.035261 0.704313 0.053552 -0.022243 407580.000000 0 0 1
8.509337 15.212410 22.737109 28.649649 1.060789 0.654050 0.038004 -0.018232 477677.000000 0 0 1
7.408937 15.804310 23.417009 29.206590 1.132425 0.640543 0.021042 -0.004008 56605.700000 0 0 1
6.264537 15.046010 23.676709 28.743928 1.176268 0.602870 0.025313 -0.006985 135117.000000 0 0 1
6.488637 13.809410 24.578909 28.929656 1.131541 0.555552 0.029567 -0.004757 -884706.000000 0 0 1
6.878237 14.222410 25.828809 30.277293 1.120339 0.548945 0.039519 -0.009856 -294424.000000 0 0 1
7.144437 13.082510 26.609709 30.500355 1.070948 0.510625 0.046240 -0.017523 -562250.000000 0 0 1
8.116737 13.464010 27.754109 31.897517 1.028286 0.515386 0.039334 -0.004756 -439203.000000 0 0 1
9.433937 13.791610 27.424009 32.113610 0.970866 0.547231 0.080032 -0.003501 -315579.000000 0 0 1
9.671437 14.992210 26.778409 32.177419 0.997875 0.587712 0.064301 -0.003100 -464668.000000 0 0 1
11.119337 14.927710 26.206609 32.144402 0.930581 0.617588 0.098177 -0.016830 294062.000000 0 0 1
11.131637 14.096210 25.083809 30.851482 0.902374 0.621424 0.086936 -0.025224 46852.700000 0 0 1
12.375737 13.810110 24.474109 30.706026 0.840120 0.648409 0.119801 -0.032568 -351741.000000 0 0 1
12.199437 12.776610 23.303609 29.242541 0.808503 0.648637 0.099649 -0.032868 89366.400000 0 0 1
11.784337 11.500310 23.696309 28.855551 0.773201 0.607278 0.102174 -0.027879 681610.000000 0 0 1
10.445437 11.364710 24.185109 28.691171 0.827522 0.568060 0.090078 -0.020811 228895.000000 0 0 1
10.146937 9.917510 24.676709 28.465019 0.773964 0.521820 0.093174 -0.018562 15722.400000 0 0 1
10.185437 9.047610 23.581509 27.233985 0.726307 0.523879 0.091602 -0.017208 98328.300000 0 0 1
9.969537 7.735110 24.108209 27.210831 0.659856 0.482197 0.081554 -0.023492 -55107.500000 0 0 1
10.528337 6.585310 23.246909 26.355853 0.558948 0.490622 0.074475 -0.024585 1840740.000000 0 0 1
11.997837 6.519610 23.157009 26.883089 0.497761 0.532783 0.086322 -0.019587 2291600.000000 0 0 1
12.487237 5.400510 22.416209 26.221804 0.408191 0.545498 0.087878 -0.027399 -48990.000000 0 0 1
12.198637 3.937310 22.924809 26.265110 0.312210 0.509838 0.069966 -0.026258 -822266.000000 0 0 1
13.036237 3.456310 23.898809 27.441622 0.259168 0.513773 0.076729 -0.018495 -225626.000000 0 0 1
12.582037 2.134110 24.347509 27.489330 0.168017 0.482780 0.066550 -0.020396 -1280600.000000 0 0 1
13.493237 1.403010 25.288709 28.697643 0.103606 0.492376 0.056454 -0.017061 -135443.000000 0 0 1
14.564237 0.776910 24.571509 28.574108 0.053293 0.535679 0.076439 -0.019632 480733.000000 0 0 1
15.763337 1.536010 24.531409 29.199866 0.097135 0.573291 0.064909 -0.020963 -696853.000000 0 0 1
16.852237 0.895710 23.684209 29.081643 0.053101 0.619095 0.065853 -0.033229 -648649.000000 0 0 1
17.323437 -0.303090 24.278909 29.827148 -0.017494 0.619813 0.060263 -0.036271 490134.000000 0 0 1
18.318137 -0.933690 23.457909 29.777498 -0.050927 0.663611 0.058150 -0.020595 354456.000000 0 0 1
18.668337 -2.374990 23.892909 30.414116 -0.126540 0.667153 0.044787 -0.014694 75720.300000 0 0 1
17.750537 -3.314690 23.335409 29.506102 -0.184611 0.658572 0.042919 -0.007548 439574.000000 0 0 1
18.139537 -4.627390 23.706909 30.207169 -0.249773 0.668406 0.038138 -0.004416 -26214.900000 0 0 1
17.208437 -5.700890 23.146609 29.400611 -0.319906 0.664406 0.046722 -0.008246 -134901.000000 0 0 1
17.316937 -5.846190 21.764209 28.420680 -0.325585 0.698531 0.054586 -0.008718 -267041.000000 0 0 1
16.325737 -6.696990 21.269109 27.636106 -0.389277 0.692561 0.067643 -0.014267 -387270.000000 0 0 1
16.634537 -8.276190 21.171509 28.167995 -0.461670 0.720288 0.074774 -0.016997 -31555.400000 0 0 1
16.833637 -8.969590 22.375209 29.401953 -0.489571 0.705926 0.062736 -0.013266 -23491.900000 0 0 1
17.217237 -10.264390 21.984709 29.750939 -0.537598 0.739273 0.058365 -0.014746 46534.000000 0 0 1
17.307637 -11.217390 23.126709 30.987559 -0.575051 0.728277 0.056333 0.002154 1039210.000000 0 0 1
16.008537 -11.728890 23.527409 30.779524 -0.632314 0.700709 0.084319 -0.013838 957408.000000 0 0 1
16.053237 -12.748590 24.520209 31.960501 -0.671160 0.696327 0.074187 -0.001715 -257482.000000 0 0 1
14.865137 -13.714090 24.572009 31.825024 -0.745144 0.688662 0.087171 0.000013 -132110.000000 0 0 1
14.893837 -14.498590 23.387009 31.288779 -0.771952 0.726571 0.095385 -0.014786 1035570.000000 0 0 1
13.617337 -15.097290 23.062309 30.744595 -0.836893 0.722544 0.083271 -0.016055 506198.000000 0 0 1
13.605437 -15.853790 21.756909 30.163117 -0.861571 0.765107 0.079941 -0.025564 -375516.000000 0 0 1
14.277937 -17.090390 21.921609 31.248966 -0.874818 0.793276 0.097111 -0.021696 270633.000000 0 0 1
13.891837 -18.075490 20.965909 30.972178 -0.915531 0.827216 0.089969 -0.015130 18837.400000 0 0 1
-24.340363 -32.580581 26.752241 48.678845 0.929165 0.988952 0.064021 -0.012677 -479136.000000 0 0 1
-24.371763 -33.985981 26.386071 49.449515 0.948678 1.007949 0.073426 -0.009382 116263.000000 0 0 1
-25.439903 33.423410 26.811141 49.831218 -0.920203 1.002687 0.090695 -0.024111 -172420.000000 0 0 1
-25.741603 33.431910 28.284281 50.796883 -0.914636 0.980254 0.083209 -0.017350 -284193.000000 0 0 1
-26.538953 -33.692081 28.706441 51.609419 0.903606 0.980960 0.117761 -0.028337 249394.000000 0 0 1
-26.621303 -33.695881 30.137621 52.463153 0.902154 0.958860 0.081260 -0.025404 -655959.000000 0 0 1
-27.819823 -32.959481 30.698191 52.940050 0.869760 0.952231 0.073895 -0.033202 -607652.000000 0 0 1
-27.697253 -31.509781 30.671151 51.968487 0.849703 0.939505 0.073746 -0.025396 229795.000000 0 0 1
-28.687013 -30.900581 31.485211 52.622326 0.822529 0.929388 0.060568 -0.013385 -165.205000 0 0 1
-28.857753 -29.411581 31.218981 51.695607 0.794902 0.922411 0.059532 -0.020934 -82327.400000 0 0 1
-29.493743 -29.122481 29.994271 51.163034 0.779064 0.944376 0.064462 -0.010431 225895.000000 0 0 1
-30.006993 -27.798481 29.936131 50.688728 0.747211 0.939010 0.070413 -0.008482 128717.000000 0 0 1
-30.706403 -27.462981 28.590951 50.145199 0.729698 0.964092 0.059662 -0.017670 701186.000000 0 0 1
-29.798343 -27.387381 27.439721 48.897323 0.743263 0.974997 0.064286 -0.009040 864722.000000 0 0 1
-29.287543 -26.047181 27.290081 47.759443 0.726906 0.962577 0.060923 -0.012487 -229847.000000 0 0 1
-28.447903 -25.831281 26.042511 46.419292 0.737229 0.975170 0.048278 0.002502 -381907.000000 0 0 1
-29.114713 -26.081981 24.814481 46.300051 0.730509 1.005165 0.039494 -0.001906 -83967.900000 0 0 1
-28.264933 -25.969781 23.690801 45.106430 0.743105 1.017823 0.056406 0.006045 24330.400000 0 0 1
-28.908203 -26.421581 22.339891 45.087192 0.740487 1.052407 0.027523 0.010171 513515.000000 0 0 1
-29.693633 -25.412981 21.646491 44.677758 0.707874 1.065002 0.033075 -0.000390 286094.000000 0 0 1
-30.149083 -25.909781 20.383591 44.674095 0.709919 1.096994 0.024935 0.020678 437772.000000 0 0 1
-30.924913 -24.812181 19.535391 44.199843 0.676164 1.112993 0.034980 0.022897 213654.000000 0 0 1
-32.188113 -24.446181 20.025491 45.107768 0.649540 1.110797 0.042094 0.008689 -369624.000000 0 0 1
-32.695093 -23.265781 19.468791 44.601564 0.618468 1.119086 0.038759 0.016502 116912.000000 0 0 1
-34.168022 -22.961781 19.878591 45.714938 0.591703 1.120938 0.048299 0.009653 -103323.000000 0 0 1
-34.934196 -23.975181 19.316591 46.565417 0.601469 1.143044 0.037861 0.008003 63924.800000 0 0 1
-36.317443 -23.592281 19.369691 47.441937 0.576103 1.150225 0.051810 0.001785 451823.000000 0 0 1
36.250221 -24.530081 18.609591 47.561753 -0.594908 1.168783 0.057321 -0.005645 -275522.000000 0 0 1
35.860651 -25.579381 19.482191 48.164788 -0.619596 1.154375 0.048749 -0.003404 -394053.000000 0 0 1
35.258931 -26.589081 18.738391 47.971854 -0.646126 1.169500 0.044742 -0.000615 -69250.100000 0 0 1
34.725551 -27.727581 19.606691 48.570619 -0.673812 1.155267 0.040399 -0.006595 -21439.100000 0 0 1
33.631771 -27.579481 20.480191 48.074547 -0.686843 1.130719 0.037641 -0.007593 -252586.000000 0 0 1
33.778521 -26.659181 21.577391 48.138179 -0.668142 1.106002 0.055987 -0.015697 213838.000000 0 0 1
32.479191 -26.528081 22.439791 47.562393 -0.684884 1.079469 0.054029 -0.016208 302496.000000 0 0 1
31.332491 -26.236981 21.690491 46.266420 -0.697118 1.082845 0.057712 -0.007973 -1004100.000000 0 0 1
30.289721 -25.843081 22.514791 45.741096 -0.706347 1.056155 0.049823 -0.005910 -334969.000000 0 0 1
29.348271 -24.888381 21.744291 44.199171 -0.703353 1.056455 0.045003 0.003246 449048.000000 0 0 1
30.115691 -23.775481 21.184891 43.829533 -0.668288 1.066322 0.045845 0.007510 579283.000000 0 0 1
30.772641 -22.873081 22.060291 44.235616 -0.639195 1.048698 0.068051 -0.003012 110233.000000 0 0 1
31.568041 -21.809381 21.293891 43.881888 -0.604571 1.064142 0.069668 -0.003294 8809.050000 0 0 1
30.771241 -20.758081 20.836491 42.566731 -0.593470 1.059278 0.061567 -0.008671 103454.000000 0 0 1
31.604371 -19.716581 20.362491 42.452455 -0.557776 1.070536 0.071465 -0.012087 243064.000000 0 0 1
30.830081 -18.327081 20.360791 41.242425 -0.536332 1.054474 0.045724 -0.003596 330772.000000 0 0 1
30.631091 -17.754081 21.620791 41.484090 -0.525292 1.022560 0.077019 -0.006015 1103960.000000 0 0 1
29.447011 -18.249281 22.317991 41.209895 -0.554803 0.998494 0.079193 -0.015142 663481.000000 0 0 1
29.462321 -18.148381 23.855811 42.029654 -0.552091 0.967215 0.071661 -0.010668 -134840.000000 0 0 1
29.381161 -16.780081 24.256851 41.631942 -0.518911 0.948811 0.071204 -0.009238 83774.500000 0 0 1
29.505501 -16.646081 25.648491 42.491313 -0.513656 0.922766 0.071372 -0.010656 -177808.000000 0 0 1
29.247431 -15.195181 26.117771 42.052868 -0.479156 0.900689 0.065245 -0.010727 208673.000000 0 0 1
27.902381 -14.742281 25.965571 40.866718 -0.486071 0.882306 0.073420 -0.012365 488976.000000 0 0 1
27.650181 -13.458381 26.554891 40.630318 -0.452981 0.858500 0.062777 -0.016502 37500.000000 0 0 1
28.264481 -12.255881 25.802011 40.184964 -0.409144 0.873586 0.075862 -0.027475 -196468.000000 0 0 1
27.605881 -12.019081 24.579811 38.867854 -0.410631 0.886156 0.065217 -0.018462 153160.000000 0 0 1
28.318181 -11.143881 23.735351 38.593683 -0.374911 0.908403 0.079125 -0.012742 404075.000000 0 0 1
29.434651 -11.713781 22.805791 39.034798 -0.378746 0.946850 0.077606 -0.019107 572330.000000 0 0 1
28.870171 -12.576881 21.798191 38.299163 -0.410845 0.965318 0.069265 -0.020749 196864.000000 0 0 1
29.247531 -13.935981 22.087891 39.211026 -0.444658 0.972412 0.070093 -0.023785 -88880.600000 0 0 1
28.682451 -14.870581 20.992291 38.529125 -0.478303 0.994595 0.061063 -0.024753 5669.160000 0 0 1
29.334711 -14.741781 19.711091 38.293244 -0.465675 1.030091 0.053508 -0.017663 -44392.000000 0 0 1
28.828911 -15.691381 18.867491 37.859052 -0.498451 1.049089 0.054740 -0.025476 -427313.000000 0 0 1
29.272591 -15.455981 17.401491 37.397645 -0.485797 1.086812 0.059720 -0.029496 -67662.900000 0 0 1
28.902001 -16.402781 16.394791 37.056256 -0.516203 1.112490 0.054483 -0.035669 -574752.000000 0 0 1
27.513681 -16.569481 16.297891 36.016269 -0.542055 1.101213 0.055507 -0.033255 -467057.000000 0 0 1
26.867281 -15.755881 15.135791 34.629334 -0.530385 1.118447 0.059369 -0.027878 -351343.000000 0 0 1
27.066081 -16.205981 13.803791 34.434739 -0.539504 1.158332 0.065047 -0.029300 121296.000000 0 0 1
26.271281 -17.307881 13.431491 34.207425 -0.582546 1.167287 0.068819 -0.033153 -190070.000000 0 0 1
26.617881 -17.687581 12.043691 34.152784 -0.586501 1.210404 0.071377 -0.023225 -281199.000000 0 0 1
26.272181 -16.753881 11.051491 33.061390 -0.567683 1.229964 0.073680 -0.019656 -197570.000000 0 0 1
26.202981 -17.313981 9.747291 32.884341 -0.583905 1.269863 0.072329 -0.024105 461389.000000 0 0 1
27.613081 -17.453281 9.082991 33.905752 -0.563664 1.299595 0.075607 -0.012765 498902.000000 0 0 1
28.424551 -18.393381 9.707191 35.220749 -0.574330 1.291572 0.070165 -0.012615 -391000.000000 0 0 1
29.805181 -18.207881 9.425391 36.176149 -0.548393 1.307213 0.071846 -0.002969 449359.000000 0 0 1
30.726121 -19.131281 10.260491 37.621512 -0.556900 1.294568 0.074179 -0.018909 -275884.000000 0 0 1
30.773851 -18.682581 11.588091 37.820003 -0.545618 1.259386 0.064892 -0.020639 137172.000000 0 0 1
30.793501 -19.774381 12.474091 38.663534 -0.570845 1.242288 0.040890 -0.018721 -26725.600000 0 0 1
30.676431 -19.271481 13.931691 38.813985 -0.560910 1.203670 0.060158 -0.017594 56267.000000 0 0 1
30.430581 -20.368181 14.801491 39.496420 -0.589846 1.186664 0.064623 -0.016400 43923.500000 0 0 1
30.178961 -19.903281 16.086991 39.568947 -0.583031 1.152115 0.072449 -0.017393 -63093.300000 0 0 1
29.749621 -20.906381 17.184791 40.217332 -0.612566 1.129294 0.059127 -0.008987 -127333.000000 0 0 1
28.549641 -21.605981 17.040691 39.652057 -0.647830 1.126574 0.026557 0.000980 -496031.000000 0 0 1
28.371481 -22.374881 18.223391 40.468114 -0.667776 1.103678 0.041050 -0.000459 152330.000000 0 0 1
27.129281 -23.295181 18.207991 40.127227 -0.709508 1.099820 0.036738 0.003212 1016440.000000 0 0 1
25.927381 -22.621981 18.636691 39.131948 -0.717420 1.074408 0.041391 0.001099 1309880.000000 0 0 1
24.771281 -23.491581 18.660491 38.906101 -0.758889 1.070565 0.035630 -0.003230 1001410.000000 0 0 1
23.510781 -22.862981 19.293691 38.048906 -0.771430 1.039007 0.035582 0.003120 -156597.000000 0 0 1
22.953181 -21.723781 18.597491 36.669304 -0.757888 1.038901 0.040048 0.001167 326773.000000 0 0 1
21.759781 -21.181281 19.136091 35.893241 -0.771927 1.008490 0.053972 -0.003141 306791.000000 0 0 1
21.823081 -20.559281 20.498691 36.319791 -0.755588 0.971097 0.055658 -0.001085 -405201.000000 0 0 1
22.088281 -21.444981 21.554091 37.581355 -0.770622 0.959986 0.054762 0.001384 -169973.000000 0 0 1
22.328581 -20.806181 22.790391 38.090217 -0.750119 0.929385 0.042000 0.000940 65355.800000 0 0 1
22.760981 -21.839981 23.842621 39.541341 -0.764751 0.923566 0.040033 0.003236 495296.000000 0 0 1
21.706681 -22.738381 24.224031 39.686492 -0.808607 0.914250 0.057138 0.009189 768424.000000 0 0 1
22.270481 -23.804881 25.043331 41.107361 -0.818688 0.915723 0.059981 0.009444 684359.000000 0 0 1
21.169981 -24.665681 25.796361 41.497183 -0.861517 0.899960 0.073179 0.004411 557789.000000 0 0 1
20.421581 -25.620681 25.067091 41.253113 -0.897842 0.917709 0.087147 -0.007058 -40581.100000 0 0 1
19.593581 -26.357581 25.927141 41.843126 -0.931548 0.902529 0.101566 -0.016788 -645639.000000 0 0 1
18.690981 -27.261881 25.153961 41.536547 -0.969794 0.920294 0.109488 -0.021511 -576674.000000 0 0 1
17.715781 -26.628681 24.356691 40.201791 -0.983748 0.919949 0.109725 -0.021567 69727.300000 0 0 1
17.251781 -27.607781 23.442901 40.117118 -1.012277 0.946703 0.104202 -0.027880 -7115.440000 0 0 1
16.262681 -26.991881 22.373891 38.647477 -1.028539 0.953390 0.100167 -0.028801 293308.000000 0 0 1
15.067381 -26.579081 23.005591 38.245663 -1.055079 0.925392 0.085876 -0.033267 -103443.000000 0 0 1
14.440481 -25.558081 22.217191 36.815032 -1.056505 0.922936 0.062699 -0.023169 -380368.000000 0 0 1
12.987981 -25.279581 22.537891 36.272599 -1.096191 0.900335 0.045656 -0.020626 -198426.000000 0 0 1
11.979981 -26.216881 22.126991 36.337977 -1.142172 0.916096 0.046921 -0.030149 -15705.600000 0 0 1
10.741281 -25.587681 22.358991 35.637467 -1.173353 0.892585 0.042800 -0.022651 73054.400000 0 0 1
9.524681 -26.536581 22.393791 36.005438 -1.226191 0.899558 0.053893 -0.029583 78758.400000 0 0 1
9.221081 -27.166381 21.135091 35.633309 -1.243569 0.935859 0.061590 -0.028038 248712.000000 0 0 1
7.939781 -27.772381 21.253691 35.861744 -1.292336 0.936444 0.061972 -0.027939 240711.000000 0 0 1
7.500781 -28.611381 19.990691 35.700148 -1.314405 0.976458 0.072413 -0.022464 48170.600000 0 0 1
7.993181 -29.918081 20.062191 36.898158 -1.309725 0.995936 0.080393 -0.025227 -62059.700000 0 0 1
8.003581 -30.634881 18.828091 36.838163 -1.315251 1.034329 0.065128 -0.022696 -240018.000000 0 0 1
8.546081 -32.026781 18.925391 38.169630 -1.310031 1.052014 0.073296 -0.024357 -324844.000000 0 0 1
7.766481 -32.937881 19.643591 39.129182 -1.339234 1.044865 0.079019 -0.030938 -238504.000000 0 0 1
8.557481 -34.067281 19.886091 40.364177 -1.324695 1.055645 0.099203 -0.037725 -28748.300000 0 0 1
8.058381 33.066110 20.865891 39.921054 1.331751 1.020806 0.105725 -0.043206 23532.000000 0 0 1
7.014681 32.245510 20.372991 38.781922 1.356594 1.017703 0.096967 -0.044872 -66915.100000 0 0 1
6.980581 31.040510 21.076091 38.163378 1.349590 0.985724 0.101603 -0.051462 47349.200000 0 0 1
5.862381 30.049010 20.730891 36.974050 1.378122 0.975580 0.075504 -0.044133 867903.000000 0 0 1
4.505381 30.382610 21.080291 37.252921 1.423581 0.969309 0.074364 -0.042297 737048.000000 0 0 1
3.644281 29.340110 20.579491 36.022747 1.447221 0.962718 0.070911 -0.034008 -289715.000000 0 0 1
2.254681 29.384110 21.164291 36.282733 1.494215 0.947991 0.038714 -0.026079 -932445.000000 0 0 1
2.296681 29.115010 22.554191 36.900543 1.492076 0.913201 0.040166 -0.031496 -36756.800000 0 0 1
1.089181 28.590210 23.055491 36.744280 1.532718 0.892512 0.017129 -0.022566 -151586.000000 0 0 1
1.265581 28.103910 24.487361 37.296948 1.525795 0.854559 0.034485 -0.020536 -400268.000000 0 0 1
1.304681 29.228610 25.355471 38.715807 1.526189 0.856729 0.047498 -0.026045 77809.000000 0 0 1
1.137081 28.846510 26.704451 39.326096 1.531398 0.824326 0.041502 -0.019413 57499.700000 0 0 1
2.259781 28.037510 27.445421 39.299615 1.490372 0.797688 0.036319 -0.023505 45589.400000 0 0 1
2.549481 26.759310 26.817951 37.970555 1.475808 0.786563 0.039351 -0.025045 -248997.000000 0 0 1
3.382181 26.036210 27.643051 38.124292 1.441617 0.759650 0.019940 -0.013120 -538573.000000 0 0 1
4.028581 24.837710 26.934021 36.858958 1.410000 0.751403 0.022929 -0.000966 -381130.000000 0 0 1
3.101781 23.878910 26.463861 35.779314 1.441623 0.738259 0.042508 -0.004556 -446483.000000 0 0 1
3.464681 22.557110 26.698971 35.123529 1.418391 0.707260 0.032770 0.003328 376173.000000 0 0 1
2.380481 21.474410 26.362871 34.085451 1.460395 0.686554 0.043134 0.005321 262206.000000 0 0 1
2.904681 20.217810 26.594311 33.532885 1.428103 0.654945 0.043271 0.006663 226263.000000 0 0 1
3.654981 19.646110 25.515261 32.409213 1.386858 0.664404 0.043857 0.009681 6489.630000 0 0 1
4.195381 18.204210 25.806101 31.858269 1.344289 0.626596 0.038258 0.005592 -29585.100000 0 0 1
5.374481 18.199510 26.577441 32.656815 1.283649 0.620065 0.021241 0.001628 -846212.000000 0 0 1
6.510481 18.037710 25.821981 32.163956 1.224411 0.638780 0.014154 0.005867 -952533.000000 0 0 1
7.824081 18.016310 26.676531 33.127647 1.161094 0.634674 0.017044 -0.003822 380743.000000 0 0 1
8.194781 19.269410 27.282581 34.391915 1.168694 0.654611 0.014551 -0.007946 156862.000000 0 0 1
8.492581 20.354310 26.418441 34.414472 1.175519 0.695622 0.016476 -0.007052 -426865.000000 0 0 1
8.883781 21.641810 27.238961 35.906135 1.181278 0.709610 0.012489 -0.002662 -376210.000000 0 0 1
10.132881 21.462210 27.837911 36.582114 1.129695 0.705989 0.035753 -0.021880 -337628.000000 0 0 1
10.303381 22.310810 28.952261 37.975852 1.138164 0.703804 0.055606 -0.031857 321549.000000 0 0 1
11.535481 21.883710 29.803281 38.732411 1.085684 0.692791 0.074588 -0.031511 1159620.000000 0 0 1
12.857981 22.077110 29.274081 38.854836 1.043409 0.717546 0.086583 -0.034479 -169973.000000 0 0 1
13.768281 21.858810 30.272901 39.797257 1.008700 0.706439 0.095170 -0.028994 -950174.000000 0 0 1
15.155581 21.633510 29.680921 39.732323 0.959694 0.727225 0.084107 -0.026399 -524374.000000 0 0 1
15.682381 22.724210 29.030251 40.063478 0.966734 0.760333 0.076799 -0.029967 256246.000000 0 0 1
17.033081 22.501210 28.612181 40.188148 0.922840 0.778517 0.111395 -0.024576 717646.000000 0 0 1
-8.707863 16.818010 4.404609 19.444098 -1.093034 1.342286 0.020175 -0.018770 -168721.000000 0 1 0
-8.565163 18.101010 5.049609 20.652050 -1.128828 1.323783 0.028705 -0.019372 -384842.000000 0 1 0
-7.262463 18.335210 5.479609 20.468254 -1.193662 1.299778 0.030936 -0.015520 -733460.000000 0 1 0
-7.142263 19.771810 6.074309 21.882268 -1.224148 1.289511 0.037615 -0.015880 -246492.000000 0 1 0
-7.306363 20.864310 5.134109 22.694966 -1.233957 1.342599 0.040614 -0.024694 853281.000000 0 1 0
-8.674763 21.048910 4.720509 23.250621 -1.179882 1.366348 0.036584 -0.031739 884554.000000 0 1 0
-8.744163 22.222610 3.692209 24.164793 -1.195923 1.417403 0.056114 -0.028530 -76539.400000 0 1 0
-8.099763 22.037710 2.499509 23.611743 -1.218581 1.464739 0.037134 -0.026932 -617693.000000 0 1 0
-8.668863 20.965210 1.793109 22.757515 -1.178717 1.491923 0.053348 -0.026155 -1189810.000000 0 1 0
-8.141163 20.842110 0.318209 22.377966 -1.198410 1.556576 0.041393 -0.018422 -378844.000000 0 1 0
-6.830963 20.381510 0.138009 21.496211 -1.247407 1.564376 0.040821 -0.012071 -613105.000000 0 1 0
-5.943963 21.431010 0.519109 22.246087 -1.300244 1.547459 0.045300 -0.015046 -1559530.000000 0 1 0
-4.528863 21.202010 -0.010791 21.680313 -1.360354 1.571294 0.040299 -0.009107 -285745.000000 0 1 0
-4.483563 21.353310 -1.434091 21.866020 -1.363832 1.636429 0.031791 -0.012861 600839.000000 0 1 0
-3.137463 21.509210 -1.902391 21.819920 -1.425952 1.658093 0.043941 -0.006832 514986.000000 0 1 0
-3.142063 21.589510 -3.472891 22.091638 -1.426274 1.728655 0.041276 -0.001837 392206.000000 0 1 0
-2.011463 22.254010 -4.048391 22.708510 -1.480655 1.750031 0.058743 0.003943 438108.000000 0 1 0
-2.151063 22.394210 -5.457491 23.149772 -1.475036 1.808784 0.059183 -0.009091 539074.000000 0 1 0
-0.872663 23.023210 -6.114591 23.837323 -1.532911 1.830209 0.077476 -0.022115 -40821.400000 0 1 0
0.285437 22.298610 -5.877891 23.062071 1.557996 1.828512 0.084849 -0.007233 -986439.000000 0 1 0
1.320837 22.885510 -6.632691 23.863859 1.513145 1.852444 0.105941 -0.017149 348362.000000 0 1 0
2.616237 22.001510 -6.683591 23.142635 1.452440 1.863769 0.068608 -0.007131 332074.000000 0 1 0
2.622237 20.879510 -7.550691 22.357169 1.445861 1.915301 0.072531 -0.020117 -645923.000000 0 1 0
3.749137 20.085210 -7.397291 21.729970 1.386258 1.918159 0.055115 -0.015739 -417476.000000 0 1 0
3.915837 18.909210 -8.416391 21.064844 1.366596 1.981819 0.044003 -0.018177 67168.500000 0 1 0
4.297637 19.234510 -9.728991 21.979293 1.350973 2.029341 0.048546 -0.023580 605987.000000 0 1 0
3.217937 18.989510 -10.650491 22.008852 1.402932 2.075923 0.048994 -0.020179 465630.000000 0 1 0
3.558937 19.306810 -12.099391 23.061097 1.388507 2.123120 0.046057 -0.022074 83926.700000 0 1 0
3.743437 20.703410 -12.327291 24.384557 1.391916 2.100800 0.091723 -0.028059 -41320.400000 0 1 0
3.878137 20.942910 -13.732591 25.342247 1.387694 2.143475 0.090266 -0.021745 -113982.000000 0 0 1
4.099637 22.436010 -14.161191 26.846246 1.390064 2.126443 0.093819 -0.028255 -308792.000000 0 0 1
3.029037 23.327010 -14.309491 27.533362 1.441668 2.117313 0.105766 -0.033159 -691672.000000 0 0 1
3.432737 24.547610 -14.874891 28.907287 1.431857 2.111305 0.103581 -0.034252 -379487.000000 0 0 1
2.300237 25.501110 -15.264891 29.809639 1.480838 2.108400 0.092984 -0.029508 -366822.000000 0 0 1
1.590737 25.939110 -14.131591 29.581578 1.509547 2.068849 0.103739 -0.037102 -448205.000000 0 0 1
1.451237 27.380810 -14.098791 30.831652 1.517844 2.045734 0.081349 -0.033033 -1260860.000000 0 0 1
0.508137 27.739710 -12.931491 30.610018 1.552480 2.006953 0.087406 -0.036571 279107.000000 0 0 1
-0.868563 27.454510 -13.138391 30.448676 -1.539170 2.016943 0.068275 -0.038894 109254.000000 0 0 1
-1.260063 26.079610 -13.124491 29.223040 -1.522518 2.036570 0.062144 -0.041936 -775766.000000 0 0 1
-1.288463 25.352010 -11.796691 27.991900 -1.520017 2.005820 0.096701 -0.038517 -684167.000000 0 0 1
-2.446763 25.621510 -11.056391 28.012358 -1.475589 1.976534 0.091715 -0.031937 -214116.000000 0 0 1
-2.906063 24.332910 -10.555991 26.682666 -1.451930 1.977531 0.123837 -0.026427 339532.000000 0 0 1
-3.793063 24.328910 -9.274491 26.311583 -1.416134 1.931024 0.086296 -0.021013 52087.600000 0 0 1
-3.185163 24.638010 -8.013191 26.103411 -1.442231 1.882813 0.082001 -0.026206 -151685.000000 0 0 1
-2.852063 26.010510 -7.879191 27.326957 -1.461582 1.863279 0.091372 -0.029553 39807.200000 0 0 1
-2.775763 26.476410 -6.372891 27.373690 -1.466339 1.805763 0.080979 -0.021993 107403.000000 0 0 1
-1.681063 25.860910 -5.722191 26.539708 -1.505884 1.788111 0.086987 -0.022985 -113656.000000 0 0 1
-1.523763 26.195610 -4.337891 26.596036 -1.512693 1.734631 0.087408 -0.019996 -757879.000000 0 0 1
-2.446763 25.569210 -3.309591 25.898351 -1.475395 1.698938 0.079332 -0.014273 -1352770.000000 0 0 1
-3.776063 25.870310 -3.480191 26.375051 -1.425859 1.703132 0.054997 -0.009881 -1260850.000000 0 0 1
-4.553163 25.281410 -2.454091 25.805107 -1.392607 1.666041 0.053985 -0.003403 424296.000000 0 0 1
-5.753063 24.455410 -3.046691 25.307057 -1.339750 1.691478 0.035849 -0.001963 639305.000000 0 0 1
-6.830463 25.285510 -3.502891 26.425036 -1.306960 1.703747 0.025479 0.000345 -277772.000000 0 0 1
-7.894663 24.469410 -3.893291 26.004528 -1.258706 1.721077 0.033277 -0.001996 -335893.000000 0 0 1
-9.178663 25.254910 -4.220691 27.200599 -1.222198 1.726595 0.031073 -0.005940 -289734.000000 0 0 1
-9.841063 25.600010 -3.013891 27.591495 -1.203796 1.680247 0.043922 -0.007564 157688.000000 0 0 1
-11.178363 26.049810 -3.202691 28.527279 -1.165445 1.683301 0.055099 -0.012094 768665.000000 0 0 1
-11.979063 26.375210 -1.895591 29.030035 -1.144473 1.636140 0.061611 -0.016772 206379.000000 0 0 1
-12.312263 25.258810 -1.069991 28.120174 -1.117244 1.608856 0.061681 -0.018230 -221801.000000 0 0 1
-11.208663 24.734010 -0.399591 27.158149 -1.145311 1.585510 0.060075 -0.024439 -486724.000000 0 0 1
-11.424263 23.275510 -0.003791 25.928039 -1.114514 1.570943 0.056247 -0.019311 -137794.000000 0 0 1
-12.318063 23.197110 1.068109 26.286526 -1.082644 1.530152 0.065244 -0.018969 -312911.000000 0 0 1
-12.716363 21.882610 1.271109 25.341078 -1.044377 1.520615 0.078583 -0.025209 420685.000000 0 0 1
-13.764163 21.705810 2.428809 25.816536 -1.005663 1.476577 0.081199 -0.025334 331247.000000 0 0 1
-13.176363 21.913810 3.663009 25.831169 -1.029435 1.428511 0.086678 -0.029735 2859.050000 0 0 1
-13.110063 23.247810 4.170009 27.013393 -1.057324 1.415808 0.071023 -0.027037 -53536.000000 0 0 1
-12.981863 23.304710 5.693809 27.277422 -1.062557 1.360513 0.068368 -0.025995 481157.000000 0 0 1
-11.702263 22.844310 6.162809 26.396699 -1.097388 1.335153 0.062452 -0.024426 784723.000000 0 0 1
-11.772263 22.349510 7.493009 26.348282 -1.085990 1.282433 0.053792 -0.022381 85880.700000 0 0 1
-10.364463 22.019910 8.056009 25.635870 -1.130874 1.251132 0.044605 -0.023302 -23597.200000 0 0 1
-9.585963 23.130210 8.356509 26.395617 -1.177908 1.248667 0.050864 -0.023288 -960163.000000 0 0 1
-8.539063 22.902710 9.217009 26.122845 -1.213920 1.210199 0.058429 -0.025046 -642310.000000 0 0 1
-8.892163 22.684210 10.732209 26.623754 -1.197207 1.155887 0.049243 -0.025085 8233.730000 0 0 1
-9.656163 21.530110 11.104309 26.078589 -1.149194 1.130949 0.051549 -0.024002 241575.000000 0 0 1
-9.206363 21.077010 12.361009 26.111148 -1.158977 1.077650 0.055760 -0.019405 -26310.100000 0 0 1
-9.982363 19.907510 12.991009 25.782220 -1.106000 1.042718 0.052019 -0.013765 -133418.000000 0 0 1
-10.002963 18.784210 12.169909 24.515557 -1.081473 1.051331 0.050177 -0.022673 150442.000000 0 1 0
-10.713663 17.682210 12.722009 24.275351 -1.026049 1.019172 0.041637 -0.017817 78913.100000 0 1 0
-10.623463 16.380710 11.788709 22.807001 -0.995452 1.027582 0.034112 -0.023448 -167284.000000 0 1 0
-11.003263 15.206210 12.552709 22.580327 -0.944404 0.981335 0.036115 -0.016831 155758.000000 0 1 0
-11.303563 14.081510 11.738609 21.537280 -0.894397 0.994363 0.030210 -0.009815 -22483.700000 0 1 0
-11.699063 12.862710 12.550709 21.443827 -0.832739 0.945567 0.016012 -0.013259 100078.000000 0 1 0
-12.938163 12.966210 13.255809 22.610510 -0.786481 0.944352 0.029411 -0.003052 395423.000000 0 1 0
-13.544563 11.661510 13.314609 22.287325 -0.710830 0.930532 0.034621 -0.005058 71195.300000 0 1 0
-14.374963 11.529910 14.604709 23.513314 -0.676010 0.900619 0.036542 -0.011134 275792.000000 0 1 0
-15.539463 12.338810 14.575609 24.620511 -0.671090 0.937245 0.046482 -0.014116 123565.000000 0 1 0
-16.164663 12.545210 15.848609 25.881597 -0.659990 0.911766 0.041910 -0.006828 8256.840000 0 0 1
-17.273763 13.627810 15.853709 27.119001 -0.667955 0.946412 0.050930 -0.011613 -100628.000000 0 0 1
-18.278163 13.318710 14.932609 27.100962 -0.629708 0.987235 0.052786 -0.015216 -373595.000000 0 0 1
-19.254863 14.330310 14.813609 28.205506 -0.639807 1.017843 0.066328 -0.018838 479164.000000 0 0 1
-20.430163 13.887410 13.860009 28.325812 -0.597006 1.059502 0.077715 -0.026542 228278.000000 0 0 1
-21.326363 13.000610 14.472309 28.866544 -0.547450 1.045635 0.080669 -0.021902 -303884.000000 0 0 1
-22.505763 12.935810 13.714009 29.358451 -0.521667 1.084762 0.068447 -0.023093 -357791.000000 0 0 1
-23.519663 11.879510 14.170609 29.918280 -0.467710 1.077373 0.063551 -0.017580 84429.600000 0 0 1
-24.332263 12.407510 15.235509 31.275008 -0.471552 1.061977 0.067614 -0.017273 422366.000000 0 0 1
-25.231853 11.477510 15.816309 31.914500 -0.426906 1.052289 0.060809 -0.017731 66727.400000 0 0 1
-26.003693 12.051610 17.006709 33.326589 -0.433989 1.035257 0.057947 -0.012638 -675246.000000 0 0 1
-27.033503 12.929110 16.711509 34.311030 -0.446107 1.062077 0.076535 -0.013959 -324243.000000 0 0 1
-27.662233 13.371510 17.903309 35.560159 -0.450268 1.043191 0.072639 -0.000403 -310777.000000 0 0 1
-28.773553 14.305810 17.456509 36.569158 -0.461394 1.073153 0.076274 -0.008860 -375006.000000 0 0 1
-28.222473 15.567710 17.183809 36.525949 -0.504076 1.080990 0.084705 -0.013926 386338.000000 0 0 1
-29.229353 16.537610 16.862009 37.578917 -0.514883 1.105476 0.086992 -0.014382 242387.000000 0 0 1
-28.782743 17.994710 16.886709 37.913281 -0.558737 1.109171 0.089205 -0.011309 -270795.000000 0 0 1
-28.216093 18.468710 18.068709 38.258587 -0.579564 1.078922 0.085675 -0.015602 34930.500000 0 0 1
-29.118423 18.711110 19.134209 39.548783 -0.571146 1.065790 0.093704 -0.024427 -368552.000000 0 0 1
-28.351723 18.859410 20.489609 39.740680 -0.586983 1.029109 0.099385 -0.031207 608824.000000 0 0 1
-27.783803 17.664310 21.091209 39.099958 -0.566312 1.001051 0.091953 -0.022819 1067180.000000 0 0 1
-26.771133 16.959810 20.310509 37.641009 -0.564696 1.000853 0.087828 -0.010200 293443.000000 0 0 1
-26.299993 15.708110 21.065309 37.177704 -0.538407 0.968409 0.078169 -0.013221 343126.000000 0 0 1
-27.438453 14.898910 21.402609 37.853903 -0.497448 0.969878 0.082510 -0.005670 701603.000000 0 0 1
-27.129583 13.598110 21.783009 37.355353 -0.464630 0.948221 0.064604 -0.001720 -494806.000000 0 0 1
-28.370423 12.701910 21.852509 37.996732 -0.420953 0.958051 0.062472 -0.009694 -314373.000000 0 0 1
-28.994183 12.495110 20.611709 37.704549 -0.406901 0.992422 0.063681 -0.013442 42120.200000 0 0 1
-30.177143 11.756810 20.825909 38.504559 -0.371503 0.999327 0.085575 -0.018468 -414235.000000 0 0 1
-30.941333 11.376010 19.543909 38.324198 -0.352324 1.035655 0.100873 -0.019890 -445418.000000 0 0 1
-30.316243 10.625810 18.505109 37.073192 -0.337119 1.048178 0.125825 -0.026382 171765.000000 0 0 1
-29.671943 9.399910 18.839409 36.382769 -0.306793 1.026506 0.145319 -0.027746 -217247.000000 0 0 1
-28.810683 8.929810 17.649009 34.946881 -0.300558 1.041387 0.159444 -0.034138 -287934.000000 0 0 1
-29.515363 8.502710 16.499409 34.866650 -0.280483 1.077860 0.162622 -0.031000 432298.000000 0 0 1
-30.338553 9.431510 15.782409 35.474859 -0.301404 1.109745 0.156163 -0.034338 -201385.000000 0 0 1
-29.607483 10.575610 15.046409 34.854570 -0.343069 1.124430 0.136185 -0.024107 -279338.000000 0 0 1
-29.084593 10.152610 13.820409 33.763779 -0.335848 1.149081 0.120604 -0.037935 220504.000000 0 0 1
-28.254293 11.161010 13.268109 33.149902 -0.376206 1.159011 0.101552 -0.029110 -126758.000000 0 0 1
-28.038223 10.998310 11.745509 32.327415 -0.373817 1.198957 0.113906 -0.018887 20509.600000 0 0 1
-27.182193 9.918110 11.299709 31.063226 -0.349865 1.198490 0.130958 -0.022525 727690.000000 0 0 1
-27.741963 8.642510 11.333909 31.189213 -0.302003 1.198890 0.131653 -0.023666 -211375.000000 0 0 1
-26.845473 7.641910 10.557909 29.842046 -0.277327 1.209173 0.135499 -0.022279 -161671.000000 0 0 1
-26.754893 8.011610 9.178409 29.398187 -0.290947 1.253278 0.138526 -0.020819 300221.000000 0 0 1
-26.028333 7.042410 8.457409 28.259467 -0.264240 1.266861 0.152650 -0.019247 -312495.000000 0 0 1
-25.447363 7.480410 7.101409 27.458238 -0.285903 1.309197 0.139050 -0.010734 -188224.000000 0 0 1
-26.459303 7.831710 6.195409 28.280975 -0.287775 1.349939 0.156429 -0.012027 114940.000000 0 0 1
-25.805033 8.309910 5.054009 27.577117 -0.311540 1.386486 0.146038 -0.017333 523717.000000 0 0 1
-26.766883 8.630910 3.834409 28.384174 -0.311921 1.435292 0.148993 -0.018587 596393.000000 0 0 1
-27.476613 7.610910 3.111909 28.680555 -0.270221 1.462080 0.166819 -0.023483 861286.000000 0 0 1
-26.616013 6.584710 2.626509 27.543949 -0.242527 1.475294 0.159639 -0.021524 161589.000000 0 0 1
-25.681223 6.847810 1.427109 26.616806 -0.260584 1.517154 0.159987 -0.020711 -492018.000000 0 0 1
-24.687163 7.757110 1.695709 25.932687 -0.304448 1.505361 0.137821 -0.012628 -538264.000000 0 0 1
-23.566563 7.582310 0.872209 24.771659 -0.311281 1.535579 0.127635 -0.008262 -1068020.000000 0 1 0
-22.337763 8.335110 1.258009 23.875350 -0.357139 1.518081 0.097146 -0.008672 -1026020.000000 0 1 0
-22.479663 9.686210 1.100309 24.502421 -0.406847 1.525875 0.087280 -0.012567 1115320.000000 0 1 0
-21.414763 10.317410 1.845309 23.842110 -0.448973 1.493322 0.088825 -0.014960 563326.000000 0 1 0
-21.908763 11.575410 2.491309 24.903627 -0.486067 1.470591 0.095450 -0.020121 -470852.000000 0 1 0
-20.849863 12.368110 2.879909 24.412719 -0.535403 1.452553 0.098407 -0.021909 -477673.000000 0 1 0
-21.338763 13.340110 3.744309 25.442508 -0.558713 1.423092 0.103173 -0.029371 -87779.800000 0 0 1
-20.244663 14.126010 4.532109 25.098418 -0.609224 1.389227 0.078827 -0.017032 69288.300000 0 0 1
-19.590363 13.437210 5.552709 24.396179 -0.601206 1.341178 0.065096 -0.023540 190915.000000 0 1 0
-18.805363 14.245910 6.412109 24.447961 -0.648312 1.305416 0.071963 -0.021287 256823.000000 0 1 0
-17.919463 13.356910 7.361109 23.530834 -0.640541 1.252627 0.031855 -0.022851 -388950.000000 0 1 0
-16.969763 12.548510 6.770709 22.164848 -0.636723 1.260364 0.047747 -0.017960 -221654.000000 0 1 0
-16.448663 11.710110 7.762709 21.632033 -0.618680 1.203758 0.035735 -0.017748 -383863.000000 0 1 0
10.248937 -33.201181 -14.413591 37.617958 -1.271384 1.964008 0.029539 0.001947 -509591.000000 0 0 1
11.551437 -33.260881 -13.915491 37.859778 -1.236531 1.947173 0.028326 -0.003731 -293334.000000 0 0 1
12.146237 -31.972681 -13.866891 36.906288 -1.207742 1.955983 0.035084 -0.013047 844727.000000 0 0 1
13.554737 -31.983481 -13.158691 37.145997 -1.169939 1.932900 0.037395 -0.015015 715754.000000 0 0 1
14.644337 -32.260581 -13.982791 38.088320 -1.144672 1.946702 0.041985 -0.016042 -271345.000000 0 0 1
15.897937 -31.871081 -13.477891 38.081016 -1.108093 1.932563 0.052329 -0.017201 761828.000000 0 0 1
17.119537 -32.767281 -13.901591 39.497183 -1.089344 1.930465 0.068010 -0.025020 660825.000000 0 0 1
17.177437 -34.019981 -13.211791 40.335777 -1.103219 1.904501 0.061377 -0.028284 -259604.000000 0 0 1
18.177737 33.420710 -13.814491 40.474858 1.072644 1.919107 0.067602 -0.012428 133973.000000 0 0 1
18.188837 31.979310 -13.233091 39.097631 1.053658 1.916079 0.047821 -0.017470 -266799.000000 0 0 1
18.803037 31.957110 -11.988691 38.968446 1.038962 1.883520 0.042551 -0.019154 -301359.000000 0 0 1
18.595537 30.776110 -11.266591 37.681547 1.027280 1.874436 0.031721 -0.015066 -376300.000000 0 0 1
19.571137 30.566910 -10.131191 37.682973 1.001290 1.842999 0.034210 -0.017072 157578.000000 0 0 1
20.782037 29.891810 -10.484691 37.885909 0.963271 1.851200 0.033729 -0.018777 523418.000000 0 0 1
21.660537 29.863210 -9.377591 38.064805 0.943275 1.819718 0.033076 -0.021472 652662.000000 0 0 1
22.971837 29.009010 -9.432091 38.186284 0.901022 1.820382 0.045395 -0.017128 179912.000000 0 0 1
23.961137 29.564910 -10.215291 39.402692 0.889711 1.833046 0.066625 -0.023792 -735276.000000 0 0 1
25.162737 28.859010 -10.093191 39.596443 0.853714 1.828542 0.068449 -0.020855 -204032.000000 0 0 1
26.359437 29.283910 -10.965491 40.897546 0.837907 1.842238 0.061643 -0.026822 -220356.000000 0 0 1
26.901737 30.519710 -10.584591 42.037956 0.848322 1.825322 0.078139 -0.037523 343784.000000 0 0 1
28.078837 30.770210 -11.360191 43.177319 0.831100 1.837036 0.082495 -0.030538 680209.000000 0 0 1
28.727537 32.129410 -10.950691 44.468955 0.841240 1.819610 0.079880 -0.029537 272822.000000 0 0 1
27.956737 33.211710 -11.528791 44.916699 0.871098 1.830372 0.081021 -0.021249 353703.000000 0 0 1
28.489237 -33.727581 -11.233291 45.556264 -0.869395 1.819947 0.089253 -0.022261 20327.500000 0 0 1
27.531437 -32.531381 -11.518891 44.146977 -0.868452 1.834773 0.080104 -0.019947 281849.000000 0 0 1
26.500037 -32.516981 -10.518391 43.246301 -0.887000 1.816481 0.094491 -0.025958 455704.000000 0 0 1
25.366237 -31.724181 -10.938691 42.065718 -0.896307 1.833858 0.087810 -0.025894 639241.000000 0 0 1
25.412237 -30.169081 -11.012791 40.954082 -0.870774 1.843053 0.061347 -0.019880 -414989.000000 0 0 1
26.255037 -29.528481 -11.979791 41.288903 -0.844012 1.865175 0.055996 -0.012985 90930.600000 0 0 1
26.751337 -28.367281 -11.360491 40.612774 -0.814707 1.854306 0.046435 -0.003118 242817.000000 0 0 1
27.648937 -27.447781 -12.296891 40.854105 -0.781747 1.876532 0.051188 -0.008355 1045360.000000 0 0 1
28.963437 -27.938881 -12.585091 42.164514 -0.767395 1.873892 0.043597 0.000602 557875.000000 0 0 1
29.106937 -28.865481 -13.653391 43.207000 -0.781233 1.892306 0.058827 -0.006114 -422879.000000 0 0 1
30.499037 -29.496981 -13.731491 44.596154 -0.768698 1.883789 0.067545 0.000285 -162789.000000 0 0 1
30.684737 -30.657581 -12.906991 45.255174 -0.784955 1.860016 0.057503 -0.002182 -964080.000000 0 0 1
31.887937 -31.242981 -13.204091 46.554403 -0.775182 1.858371 0.060584 -0.007628 -1093190.000000 0 0 1
32.256537 -32.470781 -12.415191 47.423336 -0.788708 1.835678 0.064704 -0.002847 -54050.200000 0 0 1
33.372837 -33.099281 -13.030291 48.775989 -0.781283 1.841226 0.055122 -0.011355 -127636.000000 0 0 1
34.181037 -33.839481 -12.150691 49.609405 -0.780377 1.818241 0.055867 -0.008057 -258454.000000 0 0 1
33.666237 33.170710 -11.370291 48.610647 0.777984 1.806889 0.055243 -0.020003 -717084.000000 0 0 1
32.714437 33.454410 -10.408291 47.935002 0.796581 1.789673 0.051366 -0.025563 -413956.000000 0 0 1
32.375937 32.290610 -9.615791 46.726312 0.784079 1.778067 0.074139 -0.028926 66042.900000 0 0 1
31.687837 32.611410 -8.217791 46.207739 0.799761 1.749592 0.054553 -0.024550 1513110.000000 0 0 1
30.380837 33.208410 -8.429991 45.791467 0.829835 1.755948 0.052999 -0.022842 782359.000000 0 0 1
29.747937 33.687710 -7.250091 45.523240 0.847425 1.730739 0.047494 -0.015311 515966.000000 0 0 1
28.721337 -33.406281 -7.455691 44.682011 -0.860664 1.738442 0.051326 -0.014454 -98872.200000 0 0 1
29.288237 -32.125981 -7.666091 44.143498 -0.831572 1.745344 0.026118 -0.014817 353214.000000 0 0 1
28.373137 -31.059481 -7.981291 42.818539 -0.830567 1.758291 0.034772 -0.004385 530085.000000 0 0 1
27.226737 -30.572181 -7.039491 41.539233 -0.843214 1.741084 0.039401 0.000001 563027.000000 0 0 1
26.511037 -29.542181 -7.692191 40.431984 -0.839422 1.762213 0.035996 -0.008274 -91964.300000 0 0 1
25.557437 -28.828681 -6.929291 39.144482 -0.845474 1.748752 0.041988 -0.010255 231979.000000 0 0 1
24.590537 -28.041581 -7.861991 38.116082 -0.850874 1.778552 0.068394 -0.021255 -325746.000000 0 0 1
23.679837 -28.815781 -8.563991 38.267817 -0.882923 1.796499 0.090321 -0.028213 -230899.000000 0 0 1
22.778237 -28.071581 -9.321791 37.333062 -0.889122 1.823159 0.097742 -0.039775 -130344.000000 0 0 1
21.501237 -28.824981 -9.769091 37.264163 -0.929909 1.836054 0.094438 -0.035200 -126670.000000 0 0 1
21.676037 -29.541481 -10.953991 38.243164 -0.937777 1.861295 0.102886 -0.033476 1163040.000000 0 0 1
20.441337 -30.187281 -11.367691 38.188278 -0.975571 1.873053 0.098407 -0.033886 1408850.000000 0 0 1
19.989837 -31.531581 -10.612791 38.813213 -1.005778 1.847756 0.094982 -0.044309 292994.000000 0 0 1
20.783437 -32.636481 -11.035891 40.235333 -1.003745 1.848641 0.095457 -0.037890 -28378.100000 0 0 1
20.527037 -33.833381 -10.346991 40.903755 -1.025458 1.826534 0.087764 -0.033592 954887.000000 0 0 1
21.800837 33.433410 -10.377091 41.240192 0.992969 1.825156 0.075135 -0.030019 1466360.000000 0 0 1
22.932637 33.896210 -9.620791 42.040677 0.975979 1.801687 0.074162 -0.026275 305012.000000 0 0 1
24.003437 33.047010 -9.978891 42.045786 0.942609 1.810417 0.078526 -0.029169 349407.000000 0 0 1
25.302037 33.185010 -9.117091 42.714861 0.919372 1.785892 0.080561 -0.029489 260335.000000 0 0 1
25.268737 32.793010 -7.787091 42.125163 0.914271 1.756722 0.077654 -0.027811 172629.000000 0 0 1
25.923037 31.539310 -7.608691 41.528594 0.882827 1.755053 0.073867 -0.022335 -34049.800000 0 0 1
26.073837 31.147810 -6.086191 41.073991 0.873839 1.719520 0.066469 -0.024475 -578957.000000 0 0 1
27.122637 31.746810 -5.349391 42.096477 0.863787 1.698215 0.068801 -0.023811 -111004.000000 0 0 1
27.951737 30.696810 -4.817191 41.794725 0.832170 1.686311 0.079338 -0.019422 72613.900000 0 0 1
27.343737 29.590910 -3.897291 40.478275 0.824847 1.667227 0.073971 -0.016984 -652821.000000 0 0 1
26.959037 30.090010 -2.606491 40.484468 0.840225 1.635223 0.073279 -0.012657 -27777.500000 0 0 1
26.788237 29.103110 -1.588291 39.586908 0.826792 1.610929 0.056635 -0.006077 -442360.000000 0 0 1
25.584837 28.167310 -1.679791 38.089407 0.833405 1.614912 0.038960 0.000968 288762.000000 0 0 1
24.374537 28.905610 -1.424791 37.837579 0.870236 1.608461 0.024274 -0.008524 -129139.000000 0 0 1
23.204837 28.168110 -1.577991 36.529398 0.881712 1.614008 0.038249 -0.006635 -755753.000000 0 0 1
22.020737 28.785710 -0.862491 36.252915 0.917771 1.594590 0.057866 -0.017008 -551437.000000 0 0 1
22.268337 29.110910 0.524509 36.655136 0.917797 1.556487 0.069017 -0.021532 691882.000000 0 0 1
21.219137 29.943510 1.098209 36.716095 0.954296 1.540881 0.046047 -0.019112 772108.000000 0 0 1
20.464237 29.267310 2.285109 35.785223 0.960595 1.506897 0.047043 -0.031831 -20711.000000 0 0 1
19.680337 28.209310 1.760809 34.440983 0.961647 1.519649 0.070163 -0.028492 237564.000000 0 0 1
19.053637 27.374110 2.700109 33.461524 0.962729 1.490016 0.082565 -0.024271 -190888.000000 0 0 1
18.597337 26.076510 1.999709 32.091185 0.951277 1.508443 0.098559 -0.012676 -31458.400000 0 0 1
19.566637 25.103410 1.645109 31.870690 0.908717 1.519155 0.098476 -0.022585 191583.000000 0 0 1
20.146537 24.383110 2.715409 31.745747 0.880253 1.485156 0.085220 -0.008840 374978.000000 0 0 1
21.315537 23.379810 2.310409 31.722321 0.831551 1.497899 0.072683 -0.004849 528293.000000 0 0 1
20.971237 22.277510 1.469609 30.630703 0.815593 1.522800 0.079920 -0.001912 466265.000000 0 0 1
22.133637 21.559110 1.068909 30.916592 0.772250 1.536215 0.054961 -0.009236 119562.000000 0 0 1
21.972637 20.625410 -0.105091 30.136612 0.753782 1.574283 0.080267 -0.016614 -190867.000000 0 0 1
21.653637 21.242110 -1.349391 30.363269 0.775805 1.615253 0.065599 -0.012412 466189.000000 0 0 1
21.850337 20.256710 -2.422991 29.893852 0.747569 1.651938 0.101195 -0.022733 2528.980000 0 0 1
21.632637 20.760610 -3.822591 30.225587 0.764831 1.697605 0.077014 -0.022240 -613069.000000 0 0 1
22.532837 21.766010 -4.133591 31.600229 0.768090 1.701981 0.068940 -0.018538 -140643.000000 0 0 1
22.282337 22.469910 -5.319491 32.088882 0.789590 1.737339 0.063018 -0.017654 -395725.000000 0 0 1
23.305637 23.601110 -5.623791 33.642118 0.791697 1.738750 0.056194 -0.005318 -97619.400000 0 0 1
23.263137 24.804510 -4.832691 34.348103 0.817454 1.711962 0.044128 -0.007897 67451.200000 0 0 1
23.698637 24.720710 -3.471791 34.420811 0.806504 1.671831 0.042581 -0.009023 -194035.000000 0 0 1
22.620637 24.382810 -2.413891 33.347286 0.822871 1.643246 0.041758 -0.013581 -914636.000000 0 0 1
21.569837 25.336110 -2.333491 33.355982 0.865520 1.640811 0.058062 -0.015986 632619.000000 0 0 1
20.554237 24.978210 -1.406291 32.378469 0.882255 1.614243 0.079430 -0.012071 46366.800000 0 0 1
19.619937 23.842210 -1.862491 30.933182 0.882243 1.631043 0.103907 -0.022286 -1322160.000000 0 0 1
18.694637 24.192810 -2.858991 30.707578 0.912903 1.664035 0.090179 -0.018925 -41050.800000 0 0 1
18.195137 23.062310 -3.513591 29.585106 0.902826 1.689839 0.099305 -0.026959 149050.000000 0 0 1
17.244137 23.495010 -4.679291 29.517309 0.937647 1.729995 0.089084 -0.027981 192227.000000 0 0 1
16.765637 22.440410 -5.492991 28.545254 0.929142 1.764435 0.096921 -0.033120 149050.000000 0 0 1
16.233737 22.820810 -6.728991 28.802828 0.952489 1.806598 0.089437 -0.032840 -167585.000000 0 0 1
15.502737 21.667710 -7.399891 27.651092 0.949759 1.841715 0.093586 -0.038085 -689869.000000 0 0 1
16.363237 20.690010 -7.879891 27.530433 0.901643 1.861081 0.098873 -0.034738 -39023.700000 0 0 1
15.910437 20.017910 -9.041191 27.121981 0.899228 1.910654 0.136720 -0.042225 -305747.000000 0 0 1
16.616537 18.652310 -9.207291 26.623151 0.843056 1.923928 0.132023 -0.039840 982790.000000 0 0 1
17.964237 18.842710 -9.691991 27.779421 0.809261 1.927184 0.115442 -0.036242 1015850.000000 0 0 1
18.607237 17.622810 -9.952391 27.492595 0.758233 1.941212 0.122397 -0.037082 -269596.000000 0 0 1
20.073437 17.799910 -10.371991 28.763829 0.725440 1.939698 0.098927 -0.033217 -403997.000000 0 0 1
20.150737 18.175410 -11.737691 29.566385 0.733904 1.979036 0.095553 -0.030634 -319865.000000 0 0 1
21.460237 18.434810 -12.119091 30.777530 0.709708 1.975519 0.078359 -0.018076 -713778.000000 0 0 1
21.641737 18.747810 -13.584191 31.691882 0.713870 2.013776 0.064459 -0.016986 -164182.000000 0 0 1
21.422537 17.693110 -14.456691 31.320395 0.690342 2.050565 0.063277 -0.009996 317012.000000 0 0 1
21.479137 18.081010 -15.808891 32.221069 0.699711 2.083618 0.058815 -0.007037 -17306.600000 0 0 1
21.503837 16.933810 -16.809191 32.120364 0.667059 2.121537 0.062453 -0.001017 -43236.900000 0 0 1
22.710637 16.201110 -16.837391 32.584455 0.619644 2.113824 0.072958 0.001777 131768.000000 0 0 1
22.702037 15.378910 -17.986791 32.793566 0.595413 2.151348 0.089259 -0.014990 -175856.000000 0 0 1
23.426937 15.979910 -19.214091 34.254345 0.598623 2.166298 0.096491 -0.008876 -879090.000000 0 0 1
24.783037 16.159910 -18.961491 35.140856 0.577819 2.140741 0.121555 -0.002034 -685046.000000 0 0 1
25.457637 16.810410 -20.009591 36.483762 0.583602 2.151308 0.143829 -0.013442 352082.000000 0 0 1
26.928937 17.077310 -19.565991 37.411631 0.565161 2.121154 0.113451 -0.010204 438807.000000 0 0 1
27.011337 18.298810 -18.852091 37.681031 0.595430 2.094750 0.083525 -0.000691 737648.000000 0 0 1
28.377437 18.411310 -18.407291 38.510825 0.575532 2.069147 0.061352 -0.003657 668959.000000 0 0 1
28.614237 19.403510 -17.284591 38.652656 0.595881 2.034403 0.056237 -0.003400 -83378.000000 0 0 1
28.135937 19.058510 -16.018491 37.569267 0.595378 2.011275 0.057829 -0.003788 373273.000000 0 0 1
26.754837 19.359610 -15.842291 36.627776 0.626385 2.018084 0.058548 0.003695 416977.000000 0 0 1
26.057737 18.696010 -14.625091 35.248258 0.622364 1.998648 0.051940 0.001021 106966.000000 0 0 1
26.571337 19.217310 -13.417891 35.431352 0.626150 1.959189 0.044123 -0.005932 174133.000000 0 0 1
25.752237 18.844210 -12.347291 34.216042 0.631719 1.939989 0.053360 -0.011949 -188830.000000 0 0 1
26.224837 19.473710 -11.064691 34.487604 0.638727 1.897403 0.049575 -0.016445 -310305.000000 0 0 1
26.074837 20.897310 -11.064191 35.199588 0.675616 1.890544 0.044011 -0.021578 157979.000000 0 0 1
26.620137 21.521210 -9.892691 35.632282 0.679876 1.852126 0.052384 -0.020797 -62907.100000 0 0 1
25.805037 21.351510 -8.627291 34.586371 0.691236 1.822900 0.054685 -0.024233 -776870.000000 0 0 1
26.165237 20.168610 -7.897091 33.966991 0.656691 1.805437 0.066436 -0.029420 471033.000000 0 0 1
25.256737 19.809310 -6.866791 32.824752 0.665105 1.781549 0.075011 -0.034853 305447.000000 0 0 1
23.788737 19.392610 -7.175291 31.519234 0.683942 1.800458 0.107132 -0.038738 12928.600000 0 0 1
22.991437 20.483310 -7.596391 31.715569 0.727770 1.812664 0.073965 -0.034638 -461220.000000 0 0 1
21.777037 19.929210 -8.023691 30.590723 0.741121 1.836193 0.049864 -0.038367 -698802.000000 0 0 1
20.584237 20.889110 -7.985091 30.394529 0.792749 1.836631 0.086596 -0.032343 -526472.000000 0 0 1
20.830937 21.935010 -8.912791 31.535860 0.811209 1.857325 0.075561 -0.027428 224038.000000 0 0 1
20.376437 21.701110 -10.237091 31.479126 0.816869 1.902022 0.088122 -0.030875 24589.000000 0 0 1
18.865637 21.972310 -10.472091 30.795444 0.861325 1.917770 0.091153 -0.027628 -241662.000000 0 0 1
18.528237 23.320410 -10.277191 31.508058 0.899414 1.903052 0.080645 -0.027377 -804718.000000 0 0 1
17.166237 23.522210 -10.406591 30.923635 0.940357 1.914021 0.081274 -0.023097 -675026.000000 0 0 1
16.764537 24.969110 -9.923591 31.669920 0.979516 1.889509 0.067507 -0.025146 17860.900000 0 0 1
17.293437 25.942410 -10.766091 32.984547 0.982834 1.903287 0.081316 -0.020675 -11380.700000 0 0 1
16.993737 27.258110 -10.320191 33.738672 1.013321 1.881665 0.074024 -0.019206 -133051.000000 0 0 1
20.222537 28.982310 33.302561 48.559096 0.961579 0.815073 0.054262 -0.010310 307915.000000 0 0 1
18.872137 29.387910 33.259327 48.228515 0.999943 0.809833 0.067481 -0.025790 114196.000000 0 0 1
17.984037 28.296310 33.602977 47.468587 1.004638 0.784277 0.071579 -0.023761 792379.000000 0 0 1
16.499237 28.738610 33.713871 47.273223 1.049628 0.776785 0.106463 -0.035039 379254.000000 0 0 1
15.960537 29.065610 32.430646 46.382057 1.068628 0.796509 0.100635 -0.039176 -1340640.000000 0 0 1
14.720637 29.629910 32.519053 46.390921 1.109699 0.794027 0.112595 -0.037469 -1258570.000000 0 0 1
13.882637 29.612610 31.271391 45.249687 1.132412 0.807807 0.107452 -0.040910 -203384.000000 0 0 1
13.544037 28.284610 30.876811 44.009517 1.124213 0.793164 0.105622 -0.048202 -957534.000000 0 0 1
12.191937 28.270310 30.605011 43.411064 1.163633 0.788366 0.109221 -0.028751 -1165080.000000 0 0 1
11.444837 26.951810 30.397931 42.206854 1.169230 0.766687 0.083449 -0.035457 -164327.000000 0 0 1
11.771137 26.125310 29.306691 40.987481 1.147473 0.774150 0.080027 -0.029171 -147249.000000 0 0 1
13.101937 25.679410 29.228111 41.053323 1.099013 0.778518 0.072870 -0.033763 -255654.000000 0 0 1
13.226137 24.850910 27.972301 39.685615 1.081707 0.788588 0.088208 -0.036264 -552349.000000 0 0 1
12.885037 25.616010 26.842521 39.277539 1.104746 0.818378 0.079411 -0.039940 64302.100000 0 0 1
12.835337 24.848510 25.675151 37.965875 1.094002 0.828110 0.099519 -0.040919 -104662.000000 0 0 1
11.632437 23.884110 25.594591 36.889665 1.117573 0.804024 0.086059 -0.035857 -634494.000000 0 0 1
11.398037 23.616010 24.210431 35.690000 1.121133 0.825277 0.104404 -0.035020 471216.000000 0 0 1
10.346237 22.697710 23.867861 34.523984 1.143107 0.807452 0.084335 -0.033018 316700.000000 0 0 1
10.319437 22.289810 22.435891 33.267035 1.137212 0.830620 0.089105 -0.036306 -196015.000000 0 0 1
9.999337 23.328410 21.562591 33.303855 1.165852 0.866562 0.098594 -0.035975 -97681.300000 0 0 1
10.129337 22.928710 20.185891 32.183838 1.154803 0.892836 0.098924 -0.024632 -780930.000000 0 0 1
9.813537 24.023110 19.143691 32.247422 1.182980 0.935209 0.091787 -0.032562 42675.100000 0 0 1
8.429437 24.259610 19.040591 31.970740 1.236379 0.932830 0.093305 -0.033942 -262092.000000 0 0 1
7.860637 25.073110 20.060091 33.058398 1.266993 0.918758 0.108131 -0.044239 -259750.000000 0 0 1
6.387837 25.421410 19.758891 32.824782 1.324615 0.924855 0.097513 -0.038106 10628.400000 0 0 1
6.341037 26.294710 18.593991 32.823117 1.334162 0.968555 0.097152 -0.043794 609388.000000 0 0 1
4.999637 26.721110 18.316691 32.779800 1.385831 0.977883 0.065006 -0.040255 175322.000000 0 0 1
4.974237 27.834710 17.219091 33.106060 1.393957 1.023806 0.075190 -0.035264 -15185.200000 0 0 1
5.596537 27.436610 16.016191 32.258443 1.369576 1.051239 0.075278 -0.030719 918424.000000 0 0 1
6.784737 28.231210 15.753191 33.033270 1.334942 1.073685 0.084311 -0.022562 937071.000000 0 0 1
7.683237 27.911510 14.560391 32.405085 1.302178 1.104788 0.081895 -0.024490 -82891.700000 0 0 1
7.042137 28.179510 13.358491 31.970702 1.325909 1.139735 0.081464 -0.027732 -95433.800000 0 0 1
6.778137 27.020810 12.596491 30.573500 1.325019 1.146141 0.059696 -0.028443 -138093.000000 0 0 1
6.021637 27.273910 11.303591 30.131337 1.353499 1.186244 0.055536 -0.029389 -156021.000000 0 0 1
6.847137 27.814510 10.219991 30.413459 1.329424 1.228092 0.049217 -0.020891 755350.000000 0 0 1
7.110837 29.228610 10.340291 31.808761 1.332149 1.239703 0.044298 -0.020603 -269204.000000 0 0 1
7.422737 29.781910 8.950591 31.971429 1.326536 1.287048 0.040502 -0.015165 -1046590.000000 0 0 1
6.443437 29.773710 7.976791 31.490013 1.357669 1.314694 0.049477 -0.024297 -733709.000000 0 0 1
6.436537 28.694710 7.120991 30.257626 1.350138 1.333222 0.051981 -0.019528 350583.000000 0 0 1
5.010737 28.099010 6.839191 29.350237 1.394327 1.335614 0.045997 -0.022097 411237.000000 0 0 1
4.337537 28.968710 5.984791 29.896791 1.422169 1.369253 0.032639 -0.016405 -1375670.000000 0 0 1
2.974837 28.786610 6.037791 29.563043 1.467821 1.365115 0.074832 -0.021391 -769624.000000 0 0 1
2.114837 29.927610 5.429991 30.489657 1.500249 1.391748 0.085547 -0.025273 -171367.000000 0 0 1
2.217737 30.028910 4.013791 30.377036 1.497077 1.438276 0.067620 -0.025858 436278.000000 0 0 1
1.058337 30.636010 3.464891 30.849484 1.536265 1.458243 0.067985 -0.027423 1503270.000000 0 0 1
-0.182563 29.700610 3.104191 29.862947 -1.564650 1.466660 0.080254 -0.018565 950178.000000 0 0 1
-0.184463 29.255710 1.759491 29.309153 -1.564491 1.510728 0.072102 -0.010824 -342143.000000 0 0 1
-1.305963 28.435910 1.595791 28.510578 -1.524902 1.514795 0.075994 -0.011301 -218748.000000 0 0 1
-1.534063 28.114310 0.135591 28.156459 -1.516285 1.565981 0.070233 -0.012280 -44332.800000 0 0 1
-2.288863 29.042210 -0.613309 29.138720 -1.492147 1.591846 0.080359 -0.017835 70089.900000 0 0 1
-1.519863 29.623910 -1.639209 29.708131 -1.519536 1.626001 0.066775 -0.011614 196146.000000 0 0 1
-2.404063 30.731810 -2.386209 30.917918 -1.492728 1.648052 0.072412 -0.016047 785605.000000 0 0 1
-3.607663 30.355010 -3.032309 30.718672 -1.452502 1.669670 0.071712 -0.020598 346087.000000 0 0 1
-3.408263 29.431210 -4.072609 29.906497 -1.455505 1.707399 0.062111 -0.018681 -1313090.000000 0 0 1
-4.702963 29.029510 -4.705409 29.782062 -1.410185 1.729456 0.051603 -0.014705 -832365.000000 0 0 1
-5.320663 30.028310 -5.503109 30.988596 -1.395428 1.749328 0.048583 -0.020778 -140949.000000 0 0 1
-6.525063 29.530010 -6.032409 30.838092 -1.353327 1.767681 0.036464 -0.020297 -177243.000000 0 0 1
-7.238363 30.523310 -6.984509 32.137980 -1.337955 1.789873 0.046673 -0.017959 -188574.000000 0 0 1
-8.216163 31.188110 -6.223109 32.847080 -1.313210 1.761405 0.044507 -0.013251 -165582.000000 0 0 1
-8.423263 32.536410 -6.734609 34.277169 -1.317471 1.768558 0.042639 -0.016876 30920.600000 0 0 1
-9.519463 33.334210 -5.968609 35.176897 -1.292624 1.741295 0.056992 -0.018749 692643.000000 0 0 1
-10.853463 33.046710 -6.398409 35.366967 -1.253467 1.752713 0.066916 -0.012142 749130.000000 0 0 1
-11.771263 34.017410 -5.826309 36.464952 -1.237657 1.731262 0.062425 -0.011342 406318.000000 0 0 1
-13.251463 33.681010 -6.026509 36.692377 -1.195958 1.735788 0.084612 -0.014667 -189609.000000 0 0 1
-13.694763 33.745410 -7.339309 37.150568 -1.185278 1.769660 0.088156 -0.015722 233951.000000 0 0 1
-15.096263 33.525910 -7.464309 37.517992 -1.147704 1.771086 0.080788 -0.019238 -220288.000000 0 0 1
-15.577563 33.442410 -8.972109 37.967803 -1.134879 1.809361 0.102302 -0.018508 -201428.000000 0 0 1
-16.955863 33.398110 -9.181709 38.564736 -1.101016 1.811191 0.104912 -0.021773 -380778.000000 0 0 1
-17.713963 -33.689981 -8.775809 39.061671 1.086728 1.797396 0.099536 -0.021103 347835.000000 0 0 1
-19.245863 -34.030481 -9.056709 40.131047 1.056095 1.798436 0.082044 -0.014307 1221180.000000 0 0 1
-19.883563 33.205710 -8.274609 39.578333 -1.031260 1.781419 0.072475 -0.017579 248823.000000 0 0 1
-20.270463 33.725910 -7.012209 39.968735 -1.029616 1.747151 0.078600 -0.017891 -588095.000000 0 0 1
-20.474063 32.566510 -6.018609 38.935697 -1.009552 1.725997 0.061801 -0.024581 -233316.000000 0 0 1
-20.214063 33.064910 -4.697109 39.037924 -1.022077 1.691410 0.061407 -0.026970 334979.000000 0 0 1
-21.372163 33.247710 -3.881909 39.714592 -0.999488 1.668698 0.052455 -0.029095 418028.000000 0 0 1
-22.087963 -33.596181 -4.033909 40.408588 0.989198 1.670791 0.087823 -0.036837 141718.000000 0 0 1
-22.773863 -33.498381 -5.282409 40.849654 0.973722 1.700473 0.091496 -0.034923 39428.200000 0 0 1
-23.703863 -32.440781 -5.247609 40.519314 0.939774 1.700670 0.091988 -0.041439 106630.000000 0 0 1
-24.447763 -32.266381 -6.611809 41.018636 0.922395 1.732693 0.092930 -0.034911 85861.900000 0 0 1
-23.646763 -31.610481 -7.583209 40.198222 0.928533 1.760579 0.107914 -0.028985 64756.400000 0 0 1
-23.844563 -32.058581 -8.927309 40.939134 0.931287 1.790626 0.087263 -0.021532 342596.000000 0 0 1
-25.160853 -31.672281 -9.646609 41.584360 0.899472 1.804906 0.071226 -0.021431 291449.000000 0 0 1
-26.407733 -32.109181 -9.095909 42.557061 0.882524 1.786192 0.069931 -0.014687 1313830.000000 0 0 1
-27.544703 -31.779181 -9.934209 43.212447 0.856656 1.802763 0.031450 -0.010500 1104270.000000 0 0 1
-28.051853 -30.290381 -9.936909 42.463583 0.823748 1.806997 0.013747 -0.002691 -138218.000000 0 0 1
-27.109043 -29.386481 -10.541409 41.347150 0.825688 1.828591 0.015300 0.004329 253932.000000 0 0 1
-27.310713 -29.294781 -11.960909 41.798596 0.820435 1.861009 0.012262 0.005823 -951799.000000 0 0 1
-26.278413 -28.551581 -12.719709 40.835509 0.826833 1.887553 0.033640 0.004336 -1150380.000000 0 0 1
-25.018163 -29.165081 -12.665009 40.458781 0.861784 1.889183 0.042352 -0.009740 -158737.000000 0 0 1
-24.015563 -28.404681 -13.339109 39.515883 0.868933 1.915123 0.048505 -0.013053 330168.000000 0 0 1
-22.660363 -29.147981 -13.380509 39.270026 0.909973 1.918490 0.065442 -0.023321 -274197.000000 0 0 1
-22.554463 -30.302381 -14.249709 40.373164 0.930945 1.931519 0.063484 -0.024835 65581.900000 0 0 1
-23.093663 -31.513481 -13.691109 41.398832 0.938382 1.907855 0.057980 -0.019888 -61654.200000 0 0 1
-23.532963 -32.606581 -14.631709 42.791079 0.945639 1.919770 0.048169 -0.014592 -201196.000000 0 0 1
-24.098363 -33.633081 -13.888809 43.644178 0.949077 1.894656 0.043492 -0.023341 -270875.000000 0 0 1
-24.220163 33.402010 -14.635409 43.777915 -0.943415 1.911670 0.049756 -0.022219 -246937.000000 0 0 1
-24.717663 32.212010 -13.819409 42.890005 -0.916288 1.898855 0.043614 -0.022362 190903.000000 0 0 1
-23.817363 31.718010 -12.795509 41.677620 -0.926713 1.882848 0.036149 -0.019988 610661.000000 0 0 1
-23.538763 32.592210 -11.676209 41.864775 -0.945312 1.853448 0.057772 -0.014771 -118507.000000 0 0 1
-22.667263 32.006110 -10.560609 40.616775 -0.954577 1.833825 0.051472 -0.008248 253608.000000 0 0 1
-23.396563 31.137110 -9.689309 40.134792 -0.926397 1.814624 0.051101 -0.008396 405030.000000 0 0 1
-22.588563 30.800710 -8.611609 39.154652 -0.938018 1.792548 0.058060 -0.005328 -289436.000000 0 0 1
-23.367663 29.806210 -7.783609 38.665779 -0.905896 1.773486 0.054118 -0.001243 -12955.600000 0 0 1
-23.483863 28.531010 -8.397809 37.895034 -0.882128 1.794259 0.060282 0.001469 276163.000000 0 0 1
-24.330863 27.582010 -7.718809 37.581089 -0.847943 1.777659 0.048441 0.007171 60051.400000 0 0 1
-23.741763 26.765710 -6.571209 36.376577 -0.845198 1.752437 0.045685 0.003990 -158126.000000 0 0 1
-23.534163 27.460010 -5.411909 36.567715 -0.862233 1.719339 0.050897 0.008680 205156.000000 0 0 1
-22.660663 26.815110 -4.464509 35.390502 -0.869171 1.697283 0.039245 0.007047 686595.000000 0 0 1
-21.338463 27.643410 -4.312709 35.186469 -0.913414 1.693673 0.029127 0.006434 269029.000000 0 0 1
-20.632563 27.789210 -5.508609 35.046935 -0.932134 1.728629 0.026864 -0.001612 -235061.000000 0 0 1
-19.324563 28.288710 -5.328509 34.671067 -0.971490 1.725095 0.055330 -0.005102 617418.000000 0 0 1
-18.380263 27.972310 -6.579909 34.111280 -0.989455 1.764908 0.062309 -0.010717 167586.000000 0 0 1
-18.564963 28.458310 -7.890609 34.882589 -0.992766 1.798976 0.074781 -0.013409 -30390.900000 0 0 1
-18.569863 29.853710 -8.029509 36.063234 -1.014337 1.795329 0.086498 -0.016499 -151084.000000 0 0 1
-18.618063 30.385610 -9.478209 36.874843 -1.021072 1.830752 0.089153 -0.015845 -191290.000000 0 0 1
-17.372463 30.280110 -10.128409 36.349309 -1.049921 1.853175 0.090641 -0.026635 98016.500000 0 0 1
-17.340263 31.044810 -11.246509 37.295428 -1.061408 1.877116 0.088954 -0.025533 -184660.000000 0 0 1
-15.917463 31.099410 -11.844209 36.889352 -1.097733 1.897660 0.090738 -0.029146 2813.150000 0 0 1
-15.734763 31.726110 -13.054409 37.743164 -1.110389 1.923967 0.100213 -0.029666 -265167.000000 0 0 1
-16.126863 30.920010 -14.097609 37.614696 -1.090044 1.954967 0.087904 -0.037843 -213507.000000 0 0 1
-15.816963 31.591810 -15.441909 38.557378 -1.106616 1.982850 0.128191 -0.033883 990865.000000 0 0 1
-14.403763 31.534910 -15.684309 38.051498 -1.142338 1.995649 0.115073 -0.043632 537081.000000 0 0 1
-14.021263 31.992510 -17.003109 38.848710 -1.157742 2.023808 0.081688 -0.046342 1318350.000000 0 0 1
-12.441963 31.913810 -17.154509 38.308888 -1.199061 2.035094 0.104553 -0.050828 1081200.000000 0 0 1
-11.935963 30.637910 -17.317009 37.162180 -1.199304 2.055544 0.107596 -0.057377 -361643.000000 0 0 1
-10.614163 30.475010 -17.770309 36.839797 -1.235645 2.074151 0.102148 -0.053901 24761.100000 0 0 1
-10.439163 30.679110 -19.283309 37.709813 -1.242816 2.107564 0.110433 -0.063590 -598376.000000 0 0 1
-11.317063 29.886210 -20.031109 37.716135 -1.208810 2.130697 0.089858 -0.060647 -123299.000000 0 0 1
-10.779163 29.396110 -21.254609 37.842834 -1.219334 2.167181 0.093688 -0.068306 303883.000000 0 0 1
-11.986663 28.908110 -22.145609 38.337801 -1.177727 2.186636 0.089045 -0.052266 1133530.000000 0 0 1
-13.001063 29.801710 -22.541509 39.563736 -1.159434 2.177000 0.089213 -0.053786 368229.000000 0 0 1
-13.909963 30.226110 -21.523209 39.627684 -1.139495 2.144963 0.089916 -0.050010 -336065.000000 0 0 1
-14.340763 31.721210 -21.692309 41.017667 -1.146208 2.128045 0.109651 -0.046431 91386.800000 0 0 1
-15.037663 31.832010 -22.910009 42.003294 -1.129466 2.147703 0.082515 -0.033968 -112017.000000 0 0 1
-15.730563 33.051910 -23.032509 43.247843 -1.126585 2.132431 0.080997 -0.039944 310391.000000 0 0 1
-16.133563 33.283110 -24.527209 44.380641 -1.119433 2.156344 0.077502 -0.030210 5694.400000 0 0 1
-15.001263 33.645310 -25.259209 44.666234 -1.151386 2.171848 0.086585 -0.025347 -131345.000000 0 0 1
-15.318863 33.744910 -26.628109 45.633790 -1.144654 2.193850 0.091059 -0.019108 469371.000000 0 0 1
-16.085863 -33.222581 -27.186409 45.843165 1.119881 2.205614 0.073610 -0.011118 243767.000000 0 0 1
-17.438563 -33.128481 -26.824509 46.055988 1.086259 2.192514 0.067249 -0.014308 -602271.000000 0 0 1
-18.077363 -32.199081 -27.646709 46.129301 1.059224 2.213461 0.044446 -0.002074 74652.600000 0 0 1
-19.568263 -32.051381 -27.281209 46.416294 1.022672 2.199072 0.044136 -0.016148 416176.000000 0 0 1
-20.441463 -33.118481 -27.584809 47.703343 1.017810 2.187387 0.044231 -0.015981 -520709.000000 0 0 1
-21.801963 -32.765181 -27.572709 48.053481 0.983671 2.181925 0.043925 -0.012714 -156865.000000 0 0 1
-22.721763 -33.957181 -27.674209 49.348055 0.981090 2.166144 0.028664 -0.007395 -452095.000000 0 0 1
-22.665463 33.517110 -26.449409 48.339334 -0.976198 2.149765 0.054450 -0.013951 63491.100000 0 0 1
-23.809863 32.677510 -26.373209 48.272927 -0.941112 2.148779 0.026890 -0.006061 578061.000000 0 0 1
-23.542763 31.264310 -27.017309 47.556848 -0.925363 2.174998 0.040819 -0.008172 375030.000000 0 0 1
-22.645563 30.339710 -26.425109 46.169319 -0.929603 2.180168 0.040186 -0.025868 81670.400000 0 0 1
-23.340563 29.646810 -25.406909 45.488749 -0.903855 2.163411 0.039980 -0.018931 48601.600000 0 0 1
31.666641 10.022410 -26.162301 42.281094 0.306522 2.237973 0.040454 0.002064 -26848.600000 0 0 1
31.352921 8.711710 -26.527971 41.983721 0.271023 2.254751 0.028301 0.006719 185511.000000 0 0 1
29.967051 8.457510 -26.373901 40.806082 0.275073 2.273552 0.036220 0.001708 221989.000000 0 0 1
29.619521 7.003610 -26.019101 40.041981 0.232188 2.278112 0.026650 0.003419 -97898.800000 0 0 1
29.843881 6.699710 -24.652291 39.284588 0.220831 2.249174 0.023529 0.009932 197521.000000 0 0 1
29.276601 5.441510 -24.323791 38.449658 0.183769 2.255720 0.026837 0.010959 20756.000000 0 0 1
29.234511 5.295010 -22.816991 37.460764 0.179179 2.225709 0.032008 0.008704 490245.000000 0 0 1
30.477531 4.929910 -22.195691 38.024106 0.160367 2.194107 0.044918 0.000453 633444.000000 0 0 1
30.371351 4.979610 -20.795791 37.144050 0.162512 2.165024 0.055096 -0.002910 -195587.000000 0 0 1
31.684901 4.823610 -19.995991 37.776181 0.151077 2.128605 0.060296 -0.010432 -227872.000000 0 0 1
32.158871 3.513610 -19.983491 38.024707 0.108826 2.124146 0.077536 -0.007050 550286.000000 0 0 1
33.221551 3.445410 -19.015991 38.433712 0.103341 2.088371 0.088830 -0.014028 41999.600000 0 0 1
33.824531 2.011910 -18.807591 38.753996 0.059411 2.077511 0.096222 -0.022092 -562164.000000 0 0 1
32.989831 1.009710 -18.374091 37.775067 0.030597 2.078770 0.111000 -0.012867 -751284.000000 0 0 1
33.555001 -0.229090 -18.579191 38.355924 -0.006827 2.076461 0.122363 -0.017956 -419749.000000 0 0 1
32.738541 -1.524390 -18.257991 37.516531 -0.046529 2.079065 0.100453 -0.013601 -93333.800000 0 0 1
32.407511 -1.888390 -16.939291 36.616286 -0.058204 2.051740 0.109117 -0.014305 834820.000000 0 0 1
31.179711 -1.362690 -16.405191 35.258497 -0.043677 2.054751 0.093425 -0.020067 367257.000000 0 0 1
30.869951 -1.739690 -14.955491 34.345991 -0.056296 2.021319 0.103025 -0.030187 -66083.600000 0 0 1
30.498161 -3.100190 -14.723991 34.008013 -0.101304 2.018566 0.100223 -0.027273 717882.000000 0 0 1
29.406741 -3.195090 -13.814791 32.646799 -0.108227 2.007725 0.091533 -0.024379 14947.300000 0 0 1
29.057551 -4.571590 -13.132491 32.213398 -0.156050 1.990699 0.089085 -0.025666 -369330.000000 0 0 1
28.559701 -5.501190 -14.047291 32.299319 -0.190290 2.020734 0.074433 -0.024996 430203.000000 0 0 1
28.073181 -6.638490 -13.347791 31.785792 -0.232205 2.004164 0.076985 -0.015957 -213362.000000 0 0 1
27.612381 -7.769790 -14.314591 32.058084 -0.274295 2.033669 0.052138 -0.012904 -223493.000000 0 0 1
26.411981 -7.474090 -14.979991 31.270672 -0.275771 2.070360 0.051220 -0.014506 -170017.000000 0 0 1
25.860381 -8.592190 -15.649491 31.424379 -0.320778 2.092093 0.040277 -0.010130 367598.000000 0 0 1
24.424881 -8.231890 -16.127491 30.404519 -0.325073 2.129905 0.055345 -0.014337 66739.000000 0 0 1
24.391581 -7.520090 -17.351391 30.863761 -0.299060 2.167831 0.048166 -0.016758 305173.000000 0 0 1
23.034281 -7.205690 -17.642491 29.895778 -0.303181 2.202020 0.079187 -0.015575 489013.000000 0 0 1
22.728381 -7.571490 -19.095191 30.635487 -0.321567 2.243756 0.065719 -0.010751 102206.000000 0 0 1
23.500181 -6.699690 -19.909891 31.520598 -0.277723 2.254472 0.055922 -0.016442 460748.000000 0 0 1
23.524281 -7.219790 -21.270091 32.525896 -0.297782 2.283581 0.065981 -0.020608 -112859.000000 0 0 1
23.890681 -6.124790 -22.269791 33.229825 -0.250962 2.305241 0.068003 -0.018110 -144647.000000 0 0 1
23.766481 -6.540190 -23.565891 34.102360 -0.268539 2.333715 0.073255 -0.023081 226513.000000 0 0 1
23.705581 -5.455190 -24.443091 34.484466 -0.226185 2.358613 0.063450 -0.024774 -184888.000000 0 0 1
23.580181 -5.875190 -25.938671 35.543740 -0.244186 2.388778 0.071726 -0.024047 -71866.300000 0 0 1
22.362581 -6.529390 -26.214771 35.070389 -0.284081 2.415072 0.084463 -0.021649 -114255.000000 0 0 1
22.297081 -6.721490 -27.592531 36.106592 -0.292788 2.440591 0.068671 -0.022585 -436982.000000 0 0 1
21.050781 -7.462390 -28.031341 35.841020 -0.340673 2.468829 0.067645 -0.026044 -532856.000000 0 0 1
21.040081 -8.787790 -27.618531 35.814711 -0.395645 2.451443 0.073136 -0.031327 134697.000000 0 0 1
20.261781 -9.499090 -28.546561 36.272284 -0.438392 2.476740 0.054947 -0.027121 -231755.000000 0 0 1
20.179181 -10.944890 -28.154471 36.327183 -0.496978 2.457551 0.077054 -0.030261 -741760.000000 0 0 1
19.176181 -11.246890 -27.243591 35.162931 -0.530436 2.457166 0.079994 -0.024501 -165239.000000 0 0 1
19.150281 -12.614090 -26.740901 35.226756 -0.582460 2.432738 0.085050 -0.026899 -334135.000000 0 0 1
19.041581 -13.774390 -27.783051 36.389745 -0.626249 2.439490 0.082727 -0.027241 -209870.000000 0 0 1
17.803481 -13.797290 -28.465031 36.298583 -0.659296 2.472188 0.077786 -0.026299 260850.000000 0 0 1
17.782981 -14.895590 -29.335891 37.399298 -0.697270 2.472519 0.067783 -0.024073 -724717.000000 0 0 1
16.663781 -14.800690 -30.342981 37.648884 -0.726255 2.508069 0.058402 -0.028063 -326080.000000 0 0 1
15.468081 -15.415790 -29.866201 36.998622 -0.783705 2.510231 0.058574 -0.031942 282169.000000 0 0 1
14.653881 -15.828990 -30.970901 37.742414 -0.823929 2.533232 0.049941 -0.030916 -41720.500000 0 0 1
13.441281 -16.528990 -30.315411 37.052661 -0.888062 2.529019 0.057503 -0.033438 -89532.000000 0 0 1
13.849581 -17.789590 -29.744131 37.322831 -0.909290 2.493012 0.045692 -0.035590 535777.000000 0 0 1
12.914881 -18.210990 -28.756301 36.405482 -0.953935 2.481425 0.052257 -0.034658 182640.000000 0 0 1
13.312581 -19.594090 -28.185341 36.818020 -0.974018 2.442663 0.057148 -0.032871 312197.000000 0 0 1
14.190581 -19.489890 -27.059371 36.241384 -0.941459 2.413797 0.052130 -0.032336 73707.300000 0 0 1
14.131481 -20.677290 -26.344561 36.349484 -0.971278 2.381479 0.046704 -0.027269 -51236.200000 0 0 1
15.042281 -20.696990 -25.104831 35.845336 -0.942318 2.346706 0.044794 -0.023400 870283.000000 0 0 1
16.454181 -20.769190 -25.422061 36.720301 -0.900805 2.335490 0.058523 -0.021543 1144070.000000 0 0 1
17.120381 -20.721790 -24.155191 36.138252 -0.880282 2.302866 0.064259 -0.014259 638871.000000 0 0 1
18.684281 -20.864490 -24.200591 37.014833 -0.840469 2.283402 0.049194 -0.019981 933640.000000 0 0 1
19.280781 -22.125490 -24.539391 38.255294 -0.853993 2.267201 0.046275 -0.018319 466996.000000 0 0 1
18.928581 -23.232290 -23.686091 38.197662 -0.887124 2.239657 0.045562 -0.028561 -948682.000000 0 0 1
19.544381 -24.524290 -24.133691 39.570932 -0.897924 2.226711 0.033823 -0.023801 490960.000000 0 0 1
20.957281 -24.447590 -23.850391 40.071604 -0.862118 2.208304 0.047673 -0.021063 801391.000000 0 0 1
21.517381 -25.550540 -23.210091 40.675989 -0.870877 2.178044 0.059920 -0.030890 -440007.000000 0 0 1
21.308981 -25.688760 -21.669291 39.793759 -0.878321 2.146637 0.069149 -0.019469 -762039.000000 0 0 1
20.005881 -26.000660 -21.292691 39.110718 -0.914971 2.146495 0.048046 -0.017063 -414366.000000 0 0 1
20.050581 -26.237780 -19.896491 38.552785 -0.918277 2.113070 0.046519 -0.022819 132603.000000 0 0 1
18.717981 -26.781090 -19.338191 37.967818 -0.960792 2.105204 0.046990 -0.016460 -399879.000000 0 0 1
18.641081 -28.164080 -19.672191 39.085808 -0.986119 2.098219 0.054815 -0.014803 63153.300000 0 0 1
17.640881 -28.921120 -19.025791 38.853733 -1.023082 2.082516 0.047732 -0.001707 318453.000000 0 0 1
16.139281 -28.715780 -19.327591 38.191991 -1.058760 2.101411 0.059690 -0.010811 -131525.000000 0 0 1
15.582881 -27.500540 -18.933891 36.845598 -1.055268 2.110488 0.060222 -0.008928 -244154.000000 0 0 1
14.282381 -27.394680 -19.491091 36.528859 -1.090210 2.133625 0.048632 -0.000768 706771.000000 0 0 1
13.285181 -26.443420 -18.711991 35.012699 -1.105230 2.134635 0.051139 -0.009663 -98318.300000 0 0 1
12.626381 -27.039560 -17.612391 34.651978 -1.133929 2.103965 0.042516 -0.002953 -121865.000000 0 0 1
11.704981 -26.108390 -17.057191 33.310694 -1.149338 2.108382 0.055657 -0.015562 1069620.000000 0 0 1
10.244581 -26.357440 -17.612891 33.314861 -1.200087 2.127841 0.061911 -0.014509 14783.700000 0 0 1
9.613681 -27.487260 -17.034191 33.736271 -1.234344 2.100088 0.065614 0.004914 -64461.300000 0 0 1
8.209181 -27.312550 -17.017991 33.211113 -1.278822 2.108795 0.067303 0.010631 531352.000000 0 0 1
7.362681 -27.821010 -18.215991 34.059360 -1.312083 2.135104 0.084392 0.004889 -176852.000000 0 0 1
7.505281 -27.052950 -19.415491 34.134332 -1.300173 2.175838 0.100271 -0.007551 -224798.000000 0 0 1
7.090781 -27.774320 -20.533491 35.260690 -1.320836 2.192393 0.091712 -0.004323 -72782.100000 0 0 1
6.974181 -26.918960 -21.810491 35.340729 -1.317290 2.235910 0.090773 -0.010468 187896.000000 0 0 1
5.819081 -26.086160 -21.742091 34.453852 -1.351318 2.253702 0.109366 -0.019368 329715.000000 0 0 1
5.574381 -25.297210 -22.922391 34.589862 -1.353907 2.295203 0.103808 -0.024123 806228.000000 0 0 1
4.046181 -24.943290 -23.063391 34.211976 -1.409982 2.310585 0.068198 -0.017278 1579680.000000 0 0 1
3.227981 -26.084960 -23.472991 35.239556 -1.447674 2.299761 0.048535 -0.012300 924196.000000 0 0 1
1.887481 -25.745360 -23.843491 35.141118 -1.497614 2.316524 0.048473 -0.014147 1075260.000000 0 0 1
1.137381 -26.949180 -24.489491 36.431951 -1.528617 2.307970 0.045508 -0.016909 229569.000000 0 0 1
1.659581 -27.153650 -25.743771 37.454194 -1.509754 2.328617 0.026529 -0.013367 234656.000000 0 0 1
0.770281 -28.061810 -26.296981 38.465435 -1.543354 2.323552 0.036496 -0.015361 -209382.000000 0 0 1
1.512681 -28.783740 -27.391561 39.762916 -1.518291 2.330728 0.022615 -0.012973 -763597.000000 0 0 1
1.959581 -28.029960 -28.482651 40.009749 -1.501000 2.362986 0.026579 -0.015094 133225.000000 0 0 1
2.642481 -28.840380 -29.431251 41.291025 -1.479427 2.364244 0.036563 -0.019172 339337.000000 0 0 1
4.142181 -29.115300 -29.146161 41.404795 -1.429476 2.351715 0.040169 -0.024003 -285827.000000 0 0 1
4.391881 -30.075100 -28.146621 41.425023 -1.425791 2.317822 0.038718 -0.031668 -295792.000000 0 0 1
5.538381 -30.860260 -28.371311 42.284283 -1.393220 2.306307 0.073238 -0.041143 -90607.900000 0 0 1
5.808981 -31.948410 -27.345381 42.452503 -1.390937 2.270696 0.091041 -0.052390 -383649.000000 0 0 1
4.892181 -33.016980 -27.290891 43.114349 -1.423695 2.256204 0.068219 -0.059436 -300118.000000 0 0 1
5.409381 34.021570 -26.768451 43.626581 1.413118 2.231384 0.084335 -0.064178 -335359.000000 0 0 1
4.284081 33.016681 -26.531181 42.571800 1.441762 2.243637 0.091268 -0.063362 -303325.000000 0 0 1
3.651781 32.504090 -27.688451 42.854424 1.458917 2.273266 0.074629 -0.060550 -186505.000000 0 0 1
2.354881 32.104422 -27.321591 42.222135 1.497577 2.274560 0.064053 -0.062736 -618295.000000 0 0 1
1.399781 32.316851 -28.477931 43.096761 1.527509 2.292668 0.063923 -0.044571 -834306.000000 0 0 1
1.217881 31.235922 -29.335691 42.868973 1.531826 2.324454 0.065955 -0.040274 504596.000000 0 0 1
0.253581 31.517412 -30.367001 43.767183 1.562751 2.337591 0.062301 -0.030263 465960.000000 0 0 1
0.104381 30.373252 -31.422921 43.702921 1.567360 2.373176 0.047525 -0.030031 -555854.000000 0 0 1
1.132081 30.334172 -32.348891 44.360955 1.533493 2.387978 0.060560 -0.029449 -252899.000000 0 0 1
0.790481 29.418612 -33.360751 44.486170 1.543933 2.418727 0.066864 -0.031732 -688810.000000 0 0 1
1.972281 29.202262 33.867867 44.762645 1.503360 0.712683 0.056085 -0.024424 -624146.000000 0 0 1
2.254681 30.320492 33.069254 44.922059 1.496571 0.743436 0.049897 -0.022241 9029.120000 0 0 1
3.197981 30.041402 32.029321 44.029425 1.464743 0.756194 0.032266 -0.015487 877.625000 0 0 1
2.747681 29.130832 30.869911 42.533593 1.476752 0.758633 0.035717 -0.013562 -381343.000000 0 0 1
2.475381 27.777812 31.225581 41.866111 1.481917 0.728996 0.048416 -0.020138 -125642.000000 0 0 1
3.567581 26.866332 31.244421 41.361108 1.438779 0.714523 0.036042 -0.015439 -125418.000000 0 0 1
3.208281 25.450102 31.723421 40.796767 1.445396 0.679962 0.045345 -0.018412 -282944.000000 0 0 1
2.457781 24.698932 30.807701 39.562512 1.471613 0.678190 0.044736 -0.003872 -225813.000000 0 0 1
2.633881 23.300362 30.963371 38.840372 1.458234 0.648161 0.050281 -0.007849 7813.050000 0 0 1
1.847581 22.338602 30.015651 37.461527 1.488276 0.641433 0.048029 0.002544 439911.000000 0 0 1
0.485281 22.194302 30.384821 37.630571 1.548935 0.630979 0.058479 -0.008248 215205.000000 0 0 1
-0.273319 21.686902 29.268481 36.428565 -1.558194 0.637731 0.078426 -0.006798 774476.000000 0 0 1
-1.726919 21.252902 29.646071 36.517908 -1.489719 0.623529 0.069857 -0.002841 658422.000000 0 0 1
-2.533319 22.393502 30.049511 37.561413 -1.458148 0.643484 0.068951 -0.006360 271167.000000 0 0 1
-3.845919 21.963402 30.317051 37.633837 -1.397448 0.634143 0.049692 -0.004538 -577257.000000 0 0 1
-4.787319 23.049702 30.738981 38.718111 -1.366012 0.653571 0.029360 -0.012505 -498933.000000 0 0 1
-4.599419 23.576602 32.031741 40.038022 -1.378132 0.643446 0.038466 -0.005642 -110397.000000 0 0 1
-5.564619 24.552722 32.334575 40.979579 -1.347922 0.661550 0.021348 -0.016352 12400.000000 0 0 1
-5.627119 25.019892 33.842514 42.461455 -1.349572 0.648456 0.055193 -0.012601 -156227.000000 0 0 1
-6.780119 25.798062 34.024853 43.234253 -1.313793 0.664884 0.050427 -0.008306 -314642.000000 0 0 1
-6.931219 26.144042 -32.759571 42.482257 -1.311642 2.451419 0.048063 -0.005817 368817.000000 0 0 1
-8.355919 26.701972 -32.475171 42.865527 -1.267517 2.430433 0.077338 -0.005074 157781.000000 0 0 1
-8.569919 27.982852 -33.065191 44.156430 -1.273610 2.417075 0.067910 -0.012284 1526850.000000 0 0 1
-9.883819 28.533782 -32.673521 44.490735 -1.237341 2.395563 0.069810 -0.015849 1686870.000000 0 0 1
-10.182219 28.913812 -31.178301 43.723821 -1.232201 2.364669 0.069831 -0.018229 -577528.000000 0 0 1
-9.432419 30.029652 -30.815581 44.049410 -1.266451 2.345590 0.076215 -0.016307 5923.600000 0 0 1
-9.458119 30.200612 -29.381741 43.183558 -1.267295 2.319094 0.089374 -0.021403 -523272.000000 0 0 1
-8.747219 31.414792 -28.812311 43.514966 -1.299232 2.294446 0.069287 -0.018082 -349253.000000 0 0 1
-7.347219 31.355682 -28.875011 43.254210 -1.340630 2.301730 0.059411 -0.019246 -597064.000000 0 0 1
-6.812719 32.598104 -28.487421 43.824453 -1.364770 2.278427 0.061755 -0.014859 1527230.000000 0 0 1
-5.210919 32.441343 -28.382161 43.418216 -1.411531 2.283250 0.074874 -0.017302 1889470.000000 0 0 1
-4.523619 33.611505 -27.912841 43.924060 -1.437015 2.259426 0.075363 -0.025125 43146.300000 0 0 1
-4.472019 -33.522550 -28.811361 44.428086 1.438176 2.276401 0.073803 -0.029348 -987314.000000 0 0 1
-3.394319 -33.571790 -29.862551 45.059498 1.470032 2.295263 0.071726 -0.027185 -770502.000000 0 0 1
-3.612519 33.740945 -30.942551 45.923231 -1.464136 2.310120 0.071263 -0.023649 201568.000000 0 0 1
-4.542419 34.021372 -31.991241 46.920431 -1.438065 2.321043 0.082448 -0.017789 139789.000000 0 0 1
-3.996919 -33.407560 -33.195071 47.264713 1.451721 2.349451 0.050341 -0.020763 -429379.000000 0 0 1
-3.837219 -32.049310 -32.848571 46.053350 1.451635 2.364952 0.050418 -0.020762 -105602.000000 0 0 1
-3.184819 -31.272130 -33.768801 46.134814 1.469304 2.391989 0.024748 -0.029820 -264853.000000 0 0 1
32.384921 17.453910 12.607791 38.889311 0.494321 1.240634 0.155422 -0.037791 550574.000000 0 0 1
33.782161 17.569610 12.869191 40.193802 0.479587 1.244878 0.141340 -0.052299 501681.000000 0 0 1
34.171501 16.805210 14.027691 40.581803 0.457058 1.217849 0.143817 -0.025769 1047860.000000 0 0 1
35.740651 16.706510 14.236991 41.942741 0.437260 1.224476 0.140658 -0.055668 1585060.000000 0 0 1
36.629601 16.239610 13.217291 42.191817 0.417307 1.252165 0.128849 -0.027751 373539.000000 0 0 1
36.323981 14.923110 12.827591 41.311959 0.389811 1.255072 0.162224 -0.048603 -365886.000000 0 0 1
-35.828736 14.286410 12.316891 40.490810 -0.379421 1.261709 0.153404 -0.039871 590657.000000 0 0 1
-35.069683 13.684810 13.374491 39.950390 -0.372045 1.229427 0.138572 -0.042709 -169799.000000 0 0 1
-35.475509 12.428110 13.837191 40.055431 -0.336968 1.218077 0.133563 -0.043267 -21130.400000 0 0 1
-34.634420 11.899110 15.060591 39.597390 -0.330929 1.180629 0.142755 -0.045351 297003.000000 0 0 1
-34.847541 12.659510 16.225291 40.470661 -0.348459 1.158281 0.150936 -0.048677 -196443.000000 0 0 1
-34.201870 12.124810 17.318991 40.208536 -0.340685 1.125496 0.153898 -0.030882 -248580.000000 0 0 1
-34.360489 12.855810 18.653091 41.156444 -0.358021 1.100417 0.144504 -0.036813 -142615.000000 0 0 1
-35.686173 12.819310 19.118391 42.465875 -0.344868 1.103800 0.169121 -0.045854 -181698.000000 0 0 1
-35.758481 13.596510 20.321591 43.318600 -0.363350 1.082503 0.175840 -0.036076 -498152.000000 0 0 1
36.416781 13.426310 21.068991 44.162769 0.353223 1.073472 0.182000 -0.049085 -475479.000000 0 0 1
36.123081 12.050810 21.379091 43.671095 0.321994 1.059225 0.154975 -0.031285 234272.000000 0 0 1
35.129461 11.804310 22.367791 43.286705 0.324169 1.027762 0.159994 -0.040072 29269.400000 0 0 1
35.096911 10.365210 22.831191 43.133445 0.287168 1.013003 0.130598 -0.027539 -560244.000000 0 0 1
36.206091 9.839010 23.478451 44.259743 0.265342 1.011642 0.122513 -0.016208 -549269.000000 0 0 1
36.372971 10.161410 24.899061 45.235059 0.272422 0.987908 0.124314 -0.008028 707742.000000 0 0 1
-35.577966 10.398810 25.148201 44.792398 -0.284361 0.974673 0.110234 -0.008699 530029.000000 0 0 1
-35.078954 11.573410 24.593901 44.377210 -0.318680 0.983393 0.086680 -0.012369 -302997.000000 0 0 1
-33.948093 11.304110 23.809361 42.978385 -0.321434 0.983654 0.101605 -0.026614 -102028.000000 0 0 1
-33.091473 12.569910 23.487881 42.482100 -0.363019 0.984969 0.106319 -0.027883 -145022.000000 0 0 1
-32.487493 13.201210 24.588531 42.828787 -0.385966 0.959277 0.093069 -0.027046 57808.300000 0 0 1
-33.283243 13.850710 25.630641 44.232863 -0.394348 0.952745 0.087534 -0.027821 -155851.000000 0 0 1
-32.463313 14.542910 26.724771 44.492430 -0.421173 0.926471 0.091751 -0.020766 -238257.000000 0 0 1
-31.728813 15.676010 26.290181 44.086602 -0.458886 0.931874 0.100587 -0.026342 -252258.000000 0 0 1
-31.384423 16.441510 27.432671 44.809114 -0.482565 0.911941 0.096634 -0.014431 85461.100000 0 0 1
-30.789013 17.863110 27.143161 44.763883 -0.525717 0.919318 0.089624 -0.013208 760347.000000 0 0 1
-31.743003 18.739610 26.484121 45.389425 -0.533297 0.947781 0.075924 -0.036274 702145.000000 0 0 1
-31.274943 20.025210 26.442021 45.588503 -0.569523 0.952049 0.078710 -0.040741 -64766.600000 0 0 1
-32.088723 20.702410 25.329261 45.824092 -0.572966 0.985136 0.086642 -0.024168 49233.500000 0 0 1
-33.463903 20.874010 25.612081 47.026969 -0.557719 0.994854 0.064021 -0.026716 364492.000000 0 0 1
-34.122709 21.784410 24.758651 47.454300 -0.568187 1.021911 0.060124 -0.016147 -446009.000000 0 0 1
-34.048303 23.271810 25.281131 48.373543 -0.599562 1.020872 0.064095 -0.014263 -508723.000000 0 0 1
-34.741185 24.226010 24.511481 48.935286 -0.608931 1.046163 0.061864 -0.020004 23806.300000 0 0 1
-34.342946 25.514010 24.761341 49.432041 -0.638954 1.046139 0.069112 -0.011006 114238.000000 0 0 1
-35.274373 26.401310 23.926421 50.137653 -0.642512 1.073314 0.082715 -0.013397 224009.000000 0 0 1
-34.955005 26.311810 22.567491 49.228604 -0.645248 1.094577 0.087810 -0.026171 -368897.000000 0 0 1
-36.046786 26.684210 21.785191 49.859928 -0.637242 1.118616 0.084726 -0.034399 -249578.000000 0 0 1
-35.855497 26.609310 20.273191 49.037479 -0.638443 1.144587 0.114328 -0.047771 101761.000000 0 0 1
-36.053974 25.310910 19.744191 48.273847 -0.612086 1.149434 0.100262 -0.042337 -215256.000000 0 0 1
-35.332638 25.198810 18.585591 47.210164 -0.619522 1.166167 0.109988 -0.043523 -435386.000000 0 0 1
-35.578718 23.892910 17.802791 46.407496 -0.591376 1.177085 0.110884 -0.030772 386556.000000 0 0 1
36.633611 23.778210 17.185191 46.933523 0.575729 1.195917 0.104906 -0.029266 216609.000000 0 0 1
36.725151 22.873610 16.081791 46.158020 0.557039 1.214925 0.104965 -0.028910 375694.000000 0 0 1
35.356431 22.660910 15.384591 44.724487 0.569971 1.219638 0.090786 -0.014419 408312.000000 0 0 1
34.534511 21.612710 15.859391 43.717983 0.559195 1.199562 0.110268 -0.026748 273018.000000 0 0 1
33.428611 21.426010 14.980091 42.437591 0.569986 1.210030 0.114714 -0.020997 357981.000000 0 0 1
32.191271 20.564410 15.497591 41.223152 0.568475 1.185381 0.110614 -0.028320 1170170.000000 0 0 1
31.323451 21.177910 16.431191 41.226770 0.594508 1.160854 0.092671 -0.023966 -9373.670000 0 0 1
30.579411 22.238910 15.906691 41.020633 0.628782 1.172582 0.085649 -0.005460 -363496.000000 0 0 1
29.639431 22.920810 17.010491 41.148709 0.658261 1.144622 0.066091 -0.007361 305672.000000 0 0 1
30.335551 23.653310 17.995191 42.468243 0.662254 1.133234 0.022466 0.002156 -459197.000000 0 0 1
29.585731 24.064910 19.090891 42.648535 0.682856 1.106680 0.027434 0.010309 -293367.000000 0 0 1
30.463081 24.751910 20.143691 44.118303 0.682330 1.096645 0.026631 -0.004676 304732.000000 0 0 1
30.955041 26.104310 20.019091 45.170938 0.700590 1.111648 0.036363 -0.011314 -218022.000000 0 0 1
31.843241 26.358210 21.061191 46.393114 0.691434 1.099578 0.040828 -0.015423 574140.000000 0 0 1
33.050021 27.323710 20.572091 47.561539 0.690833 1.123492 0.057535 -0.023895 1148680.000000 0 0 1
34.029441 27.634310 21.543691 48.844535 0.682058 1.114010 0.053134 -0.020110 267265.000000 0 0 1
33.558841 28.489910 22.595091 49.481400 0.703886 1.096584 0.032178 -0.012405 -1047160.000000 0 0 1
34.534291 28.680810 23.700731 50.763479 0.693065 1.085031 0.023927 -0.014216 -55162.500000 0 0 1
35.673681 29.490810 23.364351 51.847973 0.690800 1.103323 0.053025 -0.021042 34292.400000 0 0 1
36.393301 29.674210 24.549291 52.987723 0.684046 1.089079 0.070543 -0.010174 60544.400000 0 0 1
-35.954571 30.715610 24.320691 53.175896 -0.706979 1.095769 0.085937 -0.016916 13357.400000 0 0 1
-34.709380 30.191310 23.971921 51.873975 -0.715895 1.090414 0.086515 -0.024464 -199182.000000 0 0 1
-33.738953 31.224010 23.807421 51.769190 -0.746704 1.092941 0.092183 -0.025108 1266650.000000 0 0 1
-32.262363 30.761410 23.488231 50.386719 -0.761587 1.085852 0.123402 -0.027370 866907.000000 0 0 1
-31.932563 30.334210 22.145591 49.297871 -0.759734 1.104904 0.104490 -0.018073 266684.000000 0 0 1
-32.360943 28.995710 21.705691 48.570762 -0.730606 1.107513 0.103355 -0.022753 -70148.300000 0 0 1
-31.760293 27.893710 22.561591 47.914514 -0.720672 1.080518 0.093558 -0.018665 -189535.000000 0 0 1
-30.398113 27.647510 22.260391 46.732806 -0.738047 1.074317 0.074741 -0.021083 422181.000000 0 0 1
-29.704093 26.718910 23.126491 46.163491 -0.732540 1.046078 0.075999 -0.024606 158875.000000 0 0 1
-29.598623 26.987710 24.693541 47.055138 -0.739291 1.018341 0.096468 -0.016995 -547195.000000 0 0 1
-30.804973 27.124610 25.405941 48.271655 -0.721952 1.016539 0.087836 -0.010100 -242067.000000 0 0 1
-30.532563 27.423410 26.748441 48.987345 -0.731803 0.993181 0.100198 -0.016666 -1181700.000000 0 0 1
-31.687983 27.405910 27.667261 50.206469 -0.713062 0.987151 0.100737 -0.017929 -1039980.000000 0 0 1
-32.231913 26.121110 27.859181 49.973419 -0.681057 0.979449 0.079526 -0.013815 580368.000000 0 0 1
-33.458283 26.220410 28.606081 51.237433 -0.664707 0.978456 0.076902 -0.006831 808733.000000 0 0 1
-34.104882 24.913410 29.058481 51.266132 -0.630900 0.968160 0.061761 -0.006220 -405008.000000 0 0 1
-33.329833 24.232610 29.976031 50.957429 -0.628654 0.941895 0.060400 -0.004377 129643.000000 0 0 1
-34.107043 23.150810 30.584441 51.328924 -0.596335 0.932470 0.035623 -0.014893 409737.000000 0 0 1
-33.413263 22.436310 31.764801 51.272183 -0.591327 0.902649 0.046677 -0.018419 787885.000000 0 0 1
-32.231273 21.679210 31.320341 49.897965 -0.592109 0.892217 0.053137 -0.017454 1033540.000000 0 0 1
-31.686803 20.778210 32.258202 49.763231 -0.580398 0.865534 0.059912 -0.016436 258034.000000 0 0 1
-30.676423 21.522810 33.186582 50.056204 -0.611804 0.845995 0.062514 -0.023182 -236795.000000 0 0 1
-31.265523 22.415810 -33.976471 51.326427 -0.622011 2.294238 0.078670 -0.022988 208079.000000 0 0 1
-31.370423 21.853910 -32.674551 50.292376 -0.608468 2.277975 0.066213 -0.011266 444739.000000 0 0 1
-30.132323 22.202010 -31.772951 49.095892 -0.635011 2.274651 0.083339 -0.014816 551388.000000 0 0 1
-30.104043 23.528210 -31.253501 49.362044 -0.663397 2.256410 0.060133 -0.010379 -421503.000000 0 0 1
-28.837363 23.823210 -30.745441 48.419221 -0.690468 2.258784 0.102297 -0.010474 -385993.000000 0 0 1
-28.861713 25.081910 -29.826111 48.494305 -0.715443 2.233238 0.067468 -0.003747 -37386.700000 0 0 1
-28.898463 26.373910 -30.410871 49.553258 -0.739755 2.231536 0.075778 -0.012173 494663.000000 0 0 1
-30.006023 26.693410 -31.265801 50.896462 -0.727040 2.232297 0.039573 -0.003117 158128.000000 0 0 1
-29.825813 28.110110 -31.843231 51.901337 -0.755793 2.231324 0.063819 -0.004812 74817.300000 0 0 1
-29.954213 29.169810 -30.950771 52.020024 -0.772132 2.208035 0.054626 -0.017649 -143616.000000 0 0 1
-29.232573 30.241110 -31.478411 52.535307 -0.802354 2.213280 0.070776 -0.029512 -267673.000000 0 0 1
-29.371673 31.635510 -30.830211 53.047173 -0.822489 2.190980 0.057753 -0.022634 -158191.000000 0 0 1
-28.793813 31.744810 -29.502131 52.030687 -0.834105 2.173673 0.042596 -0.018524 215992.000000 0 0 1
-29.112363 32.913710 -28.751251 52.511679 -0.846608 2.150195 0.037246 -0.022911 -658036.000000 0 0 1
-28.453963 33.031410 -27.386171 51.484992 -0.859709 2.131669 0.022918 -0.022877 1106140.000000 0 0 1
-27.039823 33.363910 -27.414181 50.949385 -0.889715 2.138938 0.018865 -0.014338 1208160.000000 0 0 1
-26.706163 -33.474481 -27.621101 50.957681 0.897394 2.143659 0.019761 0.001394 -463177.000000 0 0 1
-27.025253 -32.452781 -26.515531 49.866028 0.876399 2.131445 0.017546 0.005385 837800.000000 0 0 1
-28.426303 -32.170181 -26.324751 50.358393 0.847103 2.120868 0.013833 -0.004793 524402.000000 0 0 1
-28.599983 -31.141781 -25.372031 49.310339 0.827919 2.111265 0.010864 -0.003485 -860073.000000 0 0 1
-30.049413 -30.845381 -25.073981 49.830807 0.798469 2.098074 -0.002761 -0.003386 -837859.000000 0 0 1
-30.635353 -30.195581 -26.178341 50.354777 0.778169 2.117504 0.010300 -0.001876 -65578.800000 0 0 1
-31.974643 -29.826881 -25.928581 50.836129 0.750660 2.106030 0.015472 -0.005383 78943.000000 0 0 1
-32.580273 -29.064081 -27.154791 51.415734 0.728420 2.127207 0.031242 -0.009798 313750.000000 0 0 1
-33.968703 -28.824981 -26.977611 52.082088 0.703666 2.115287 0.044803 -0.017241 145478.000000 0 0 1
-34.495959 -28.100281 -28.066411 52.605327 0.683578 2.133563 0.050379 -0.025587 615571.000000 0 0 1
-36.036223 -28.210481 -28.268571 53.791754 0.664188 2.124121 0.046571 -0.026663 633660.000000 0 0 1
36.649831 -27.692381 -27.255191 53.412766 -0.647071 2.106301 0.045367 -0.016910 -631200.000000 0 0 1
35.279681 -27.820881 -27.526431 52.691192 -0.667739 2.120472 0.049013 -0.023028 266826.000000 0 0 1
34.294401 -27.173481 -26.502201 51.155358 -0.670064 2.115393 0.037843 -0.016258 171231.000000 0 0 1
34.067631 -28.010481 -25.361101 50.876085 -0.688133 2.092650 0.031654 -0.014814 -18670.900000 0 0 1
33.211481 -27.449681 -24.409391 49.520762 -0.690699 2.086230 0.045716 -0.008605 -73607.600000 0 0 1
33.027161 -28.283081 -23.134591 49.253785 -0.708174 2.059749 0.042240 -0.005843 151066.000000 0 0 1
32.320491 -29.513281 -23.274791 49.571805 -0.740030 2.059540 0.056377 -0.009062 95193.200000 0 0 1
31.708491 -30.053781 -22.089591 48.955165 -0.758613 2.038929 0.051629 -0.015175 655632.000000 0 0 1
32.615561 -30.411381 -20.792191 49.203071 -0.750440 2.007085 0.042144 -0.005595 224024.000000 0 0 1
33.664261 -31.354381 -21.076291 50.602270 -0.749887 2.000398 0.032469 -0.004735 602522.000000 0 0 1
34.775171 -31.294281 -20.202391 50.958622 -0.732762 1.978440 0.014722 0.003332 307938.000000 0 0 1
35.734091 -30.104981 -20.313891 50.949871 -0.700108 1.980899 0.011125 -0.002115 -940611.000000 0 0 1
35.135161 -28.808981 -20.071391 49.671901 -0.686786 1.986768 0.008444 0.003383 -55083.500000 0 0 1
35.921161 -27.637581 -20.300391 49.661571 -0.655799 1.991907 -0.005753 0.005690 118032.000000 0 0 1
35.044761 -26.436681 -19.913391 48.203491 -0.646291 1.996664 -0.004074 0.006859 1514200.000000 0 0 1
33.876691 -26.197981 -20.751391 47.587652 -0.658268 2.022020 0.019492 -0.001850 664075.000000 0 0 1
32.895901 -25.399681 -20.141891 46.184195 -0.657510 2.022080 0.046010 -0.007126 142346.000000 0 0 1
31.690381 -25.166081 -21.105591 45.640529 -0.671148 2.051531 0.059514 -0.016163 215887.000000 0 0 1
31.003651 -26.381581 -21.277191 45.934008 -0.705027 2.052413 0.073318 -0.015503 -694214.000000 0 0 1
29.802381 -26.195781 -21.966291 45.353267 -0.721081 2.076402 0.066104 -0.015843 -15609.900000 0 0 1
29.075771 -27.529081 -22.323191 45.842945 -0.758081 2.079390 0.073177 -0.017069 -52746.600000 0 0 1
28.539921 -28.231381 -21.218191 45.406493 -0.779963 2.057024 0.071719 -0.015087 -245909.000000 0 0 1
27.786981 -29.334481 -21.619391 45.826043 -0.812483 2.062094 0.059633 -0.017072 -254568.000000 0 0 1
26.976381 -29.889181 -20.411691 45.141172 -0.836576 2.039998 0.058442 -0.012256 -378506.000000 0 0 1
27.693081 -30.524181 -19.348191 45.530044 -0.833990 2.009708 0.074229 -0.019359 -121486.000000 0 0 1
28.468741 -31.610881 -19.805491 46.925201 -0.837650 2.006518 0.073846 -0.016443 -13341.500000 0 0 1
29.381761 -32.196581 -18.702591 47.430946 -0.831078 1.976115 0.051869 -0.016685 104995.000000 0 0 1
28.701901 -32.835881 -17.571291 47.018555 -0.852475 1.953802 0.057228 -0.017572 335800.000000 0 0 1
28.340881 -31.968781 -16.497291 45.797043 -0.845480 1.939307 0.045657 -0.020652 7778.970000 0 0 1
27.668281 -32.682181 -15.287791 45.468399 -0.868288 1.913706 0.057327 -0.015316 249639.000000 0 0 1
26.324481 -33.042481 -15.543191 45.015272 -0.898079 1.923341 0.067349 -0.016817 243710.000000 0 0 1
25.711581 -33.831181 -14.497391 44.897757 -0.920928 1.899586 0.075412 -0.019947 -99974.300000 0 0 1
24.188281 -33.956581 -14.603191 44.174377 -0.951843 1.907715 0.085450 -0.018527 -13595.900000 0 0 1
23.548981 -32.755281 -14.152991 42.752428 -0.947474 1.908207 0.093421 -0.014217 268651.000000 0 0 1
22.139981 -32.870881 -14.091191 42.062279 -0.978048 1.912410 0.087212 -0.021306 -5574.880000 0 0 1
-0.283163 -7.175990 -28.956501 29.833772 1.531357 2.898485 0.082518 -0.022735 157451.000000 0 0 1
0.056437 -8.547190 -28.954711 30.189947 -1.564193 2.854547 0.078173 -0.018181 -53772.600000 0 0 1
0.034637 -9.114890 -30.255141 31.598354 -1.566996 2.848971 0.074496 -0.018843 -63172.900000 0 0 1
0.332137 -10.608390 -30.233921 32.042756 -1.539498 2.803984 0.091336 -0.009463 102412.000000 0 0 1
1.625337 -10.900990 -29.752441 31.728237 -1.422787 2.786826 0.024826 -0.002550 -86862.100000 0 0 1
1.682537 -12.259390 -29.370371 31.870711 -1.434404 2.742844 0.034821 -0.005022 -445890.000000 0 0 1
3.036237 -12.532990 -28.729071 31.490539 -1.333116 2.719682 0.046211 -0.000966 -67035.600000 0 0 1
4.052437 -12.677390 -29.745821 32.587610 -1.261403 2.720873 0.061238 -0.007574 1078700.000000 0 0 1
5.359237 -13.122990 -29.348151 32.592150 -1.183082 2.691638 0.074052 -0.010092 1010690.000000 0 0 1
5.405037 -14.676890 -29.027431 32.972977 -1.217940 2.647375 0.082536 -0.011569 -842223.000000 0 0 1
4.695137 -15.041790 -27.881951 32.026597 -1.268240 2.627191 0.085248 -0.013982 -320287.000000 0 0 1
5.362637 -15.977490 -27.064771 31.883222 -1.246974 2.584644 0.108125 -0.012929 -34667.700000 0 0 1
5.259737 -17.507390 -27.473091 32.999155 -1.278946 2.554472 0.098619 -0.023911 101463.000000 0 0 1
5.893037 -17.877490 -28.690551 34.314432 -1.252378 2.560945 0.105526 -0.042160 16104.900000 0 0 1
5.655637 -19.251190 -28.975421 35.244426 -1.285055 2.535935 0.107880 -0.040306 -191319.000000 0 0 1
6.062737 -19.652190 -30.399841 36.703074 -1.271558 2.546799 0.092343 -0.049297 -276181.000000 0 0 1
7.454037 -19.816090 -30.478461 37.110331 -1.211008 2.534470 0.094075 -0.041824 -507795.000000 0 0 1
7.820937 -20.308790 -31.737281 38.482060 -1.203199 2.540520 0.096218 -0.044673 -266033.000000 0 0 1
9.329037 -20.230690 -32.012071 39.001082 -1.138723 2.533606 0.077084 -0.038316 -432701.000000 0 0 1
9.573337 -18.899790 -32.401621 38.713252 -1.101937 2.562509 0.074856 -0.036685 -181617.000000 0 0 1
10.592937 -18.952190 -33.359441 39.802614 -1.061123 2.564627 0.060961 -0.031475 -723246.000000 0 0 1
10.786337 -17.548790 -33.966811 39.724669 -1.019675 2.596455 0.051009 -0.022165 -304151.000000 0 0 1
9.776537 -17.285590 33.240304 38.720667 -1.056064 0.538529 0.063630 -0.020793 -134349.000000 0 0 1
9.850737 -15.930490 32.827376 37.794895 -1.016988 0.518494 0.056324 -0.015010 6754.000000 0 0 1
8.839037 -15.459490 31.759701 36.411577 -1.051404 0.511029 0.073469 -0.020863 16900.200000 0 0 1
9.087437 -16.080790 30.526981 35.680104 -1.056425 0.544137 0.067457 -0.017215 -241042.000000 0 0 1
8.154037 -15.640890 29.596361 34.453887 -1.090232 0.537456 0.076024 -0.016081 -429306.000000 0 0 1
8.248437 -16.405790 28.271881 33.711806 -1.104930 0.576025 0.065269 -0.005353 -575924.000000 0 0 1
7.696437 -17.653290 28.440261 34.347084 -1.159665 0.595219 0.062278 -0.010316 105394.000000 0 0 1
7.760837 -18.554090 27.317071 33.922075 -1.174630 0.634634 0.049841 -0.008653 -7442.370000 0 0 1
7.214337 -19.975590 27.590871 34.818486 -1.224216 0.656030 0.053621 -0.012993 -3398.830000 0 0 1
7.992237 -20.645790 28.559061 36.135086 -1.201449 0.659430 0.064267 -0.009921 455055.000000 0 0 1
7.205537 -21.709290 29.070681 36.990776 -1.250327 0.666662 0.054950 -0.011315 164410.000000 0 0 1
7.625837 -22.081190 30.541871 38.451764 -1.238266 0.652957 0.056881 -0.017334 50310.200000 0 0 1
7.172137 -21.222890 31.633641 38.762583 -1.244902 0.616189 0.067962 -0.029107 179204.000000 0 0 1
7.368237 -19.762590 31.534291 37.937611 -1.213923 0.589508 0.065631 -0.029616 41349.300000 0 0 1
6.718437 -18.959190 32.728159 38.415109 -1.230240 0.551078 0.073424 -0.034295 656076.000000 0 0 1
5.316237 -19.147790 32.898079 38.434149 -1.299975 0.543392 0.077507 -0.042089 -130349.000000 0 0 1
4.834737 -18.055890 33.640165 38.484419 -1.309169 0.507166 0.086995 -0.036362 -289245.000000 0 0 1
3.301037 -18.173390 33.674352 38.407433 -1.391114 0.501699 0.086464 -0.033939 31324.700000 0 0 1
2.710337 -19.279390 -33.741111 38.955145 -1.431130 2.618249 0.070731 -0.045169 129041.000000 0 0 1
2.485737 -18.992990 -32.360701 37.604887 -1.440659 2.607135 0.073740 -0.049252 -198724.000000 0 0 1
1.970937 -20.220290 -31.554381 37.528971 -1.473630 2.569557 0.083314 -0.034706 -96868.600000 0 0 1
0.729837 -20.753290 -31.989151 38.138399 -1.535644 2.565807 0.052571 -0.025034 509751.000000 0 0 1
-0.011463 -21.515190 -31.011901 37.744423 1.570264 2.535059 0.047663 -0.024620 910019.000000 0 0 1
-0.757463 -20.651990 -29.907591 36.353025 1.534135 2.536939 0.053892 -0.024542 42475.400000 0 0 1
-1.971763 -19.964690 -30.158291 36.221529 1.472353 2.554594 0.051568 -0.024897 187548.000000 0 0 1
-2.250863 -18.950290 -29.139061 34.831950 1.452573 2.561773 0.064201 -0.017817 -3898.680000 0 0 1
-2.070063 -17.506390 -29.720521 34.555292 1.453097 2.606234 0.055873 -0.015071 -384770.000000 0 0 1
-2.950163 -16.582090 -29.136811 33.654463 1.394726 2.617471 0.064335 -0.014029 -499106.000000 0 0 1
-2.617363 -15.322790 -29.656531 33.483552 1.401614 2.658805 0.067731 -0.016838 229857.000000 0 0 1
-3.547163 -14.212190 -29.132011 32.607403 1.326207 2.675691 0.072978 -0.019501 129649.000000 0 0 1
-3.434563 -13.950990 -27.729511 31.230628 1.329409 2.663545 0.061557 -0.023362 59278.300000 0 0 1
-4.394563 -12.987390 -27.300251 30.549765 1.244518 2.676170 0.072075 -0.027821 143765.000000 0 0 1
-4.497063 -12.830490 -25.754051 29.122434 1.233678 2.655869 0.070296 -0.031902 -533332.000000 0 0 1
-4.987563 -13.950290 -25.104481 29.149980 1.227434 2.608457 0.067922 -0.026372 139833.000000 0 0 1
-5.156063 -13.790490 -23.694991 27.896508 1.213003 2.585623 0.061131 -0.025120 -166272.000000 0 0 1
-6.178963 -12.756890 -23.148791 27.143772 1.119737 2.592161 0.063844 -0.029609 671003.000000 0 0 1
-7.509163 -13.158890 -23.552491 28.004709 1.052235 2.569960 0.058492 -0.026345 1838820.000000 0 0 1
-8.526263 -12.214790 -23.002191 27.404362 0.961395 2.566906 0.070551 -0.028730 991443.000000 0 0 1
-9.944563 -12.699190 -23.337391 28.368954 0.906454 2.536832 0.071922 -0.032582 -218442.000000 0 0 1
-10.309563 -13.788090 -22.518191 28.345501 0.928759 2.488846 0.073607 -0.033150 -1563660.000000 0 0 1
-11.594763 -14.178690 -22.733991 29.194316 0.885320 2.463408 0.062683 -0.025705 -1454270.000000 0 0 1
-11.961963 -15.208190 -21.672791 29.053183 0.904312 2.412786 0.068028 -0.018372 133569.000000 0 0 1
-11.210363 -16.409690 -21.941591 29.603776 0.971465 2.405616 0.084842 -0.025590 -59246.300000 0 0 1
-11.841463 -17.617090 -21.614291 30.294548 0.979002 2.365236 0.075520 -0.024945 260453.000000 0 0 1
-12.736563 -18.283390 -22.723691 31.825595 0.962343 2.366001 0.051714 -0.020920 1168530.000000 0 0 1
-13.943263 -17.607790 -23.100091 32.218986 0.901026 2.370244 0.050594 -0.025191 229883.000000 0 0 1
-14.471363 -18.153690 -24.295891 33.604570 0.897791 2.378922 0.019496 -0.027521 383619.000000 0 0 1
-15.720663 -17.476490 -24.920491 34.257814 0.838240 2.385379 0.039506 -0.025855 353333.000000 0 0 1
-16.953863 -17.840790 -24.306191 34.590724 0.810883 2.349953 0.054373 -0.024302 828344.000000 0 0 1
-18.064763 -17.142290 -24.924591 35.233918 0.759203 2.356614 0.059823 -0.024221 793734.000000 0 0 1
-18.518463 -15.795690 -24.268091 34.371173 0.706216 2.354714 0.071648 -0.020013 -411277.000000 0 0 1
-19.295863 -15.910790 -23.098091 34.044168 0.689544 2.316480 0.064631 -0.018822 348035.000000 0 0 1
-19.979563 -14.694890 -22.799091 33.688593 0.634154 2.314149 0.060346 -0.017666 385053.000000 0 0 1
-20.775863 -14.647090 -21.488091 33.285309 0.614077 2.272569 0.048718 -0.014296 -168810.000000 0 0 1
-19.856363 -14.478890 -20.434791 31.960821 0.630043 2.264475 0.057606 -0.011054 205010.000000 0 0 1
-20.323763 -14.423690 -19.086591 31.391020 0.617204 2.224370 0.044186 -0.008079 -299030.000000 0 0 1
-20.982063 -13.116090 -18.584791 30.946296 0.558678 2.214985 0.034179 -0.009969 -609449.000000 0 0 1
-22.193963 -12.828990 -19.185391 32.019279 0.524116 2.213276 0.042680 -0.014208 -718580.000000 0 0 1
-22.739163 -11.657090 -18.649391 31.634745 0.473711 2.201264 0.050101 -0.013939 -412283.000000 0 0 1
-24.193463 -11.424390 -19.054591 32.846884 0.441169 2.189652 0.063157 -0.015593 -433477.000000 0 0 1
-24.372663 -10.960190 -20.361591 33.596828 0.422598 2.221890 0.062405 -0.022077 508037.000000 0 0 1
-25.702923 -10.426990 -20.413191 34.439233 0.385388 2.205241 0.063878 -0.023381 470203.000000 0 0 1
-26.014113 -9.663490 -21.738391 35.251592 0.355673 2.235294 0.073559 -0.023796 -59011.100000 0 0 1
-25.834813 -10.446490 -22.910991 36.076034 0.384257 2.258902 0.057901 -0.020257 346970.000000 0 0 1
-26.624533 -9.919690 -23.961791 37.167640 0.356645 2.271421 0.052559 -0.008456 -231541.000000 0 0 1
-26.463033 -10.634990 -25.304441 38.127547 0.382127 2.296522 0.042569 -0.010409 -142898.000000 0 0 1
-25.443413 -10.110990 -26.129711 37.846548 0.378255 2.332855 0.025925 -0.004053 860403.000000 0 0 1
-24.196363 -10.840090 -26.051671 37.170702 0.421194 2.347407 0.032364 -0.007626 873812.000000 0 0 1
-23.232763 -10.378190 -27.178781 37.231092 0.420110 2.389122 0.047340 -0.017070 -101242.000000 0 0 1
-23.747063 -10.899090 -28.365831 38.565963 0.430285 2.397222 0.053650 -0.005905 -224527.000000 0 0 1
-22.909763 -10.746890 -29.472201 38.845380 0.438621 2.432120 0.060240 -0.004027 -267140.000000 0 0 1
-23.514863 -11.135790 -30.847461 40.354931 0.442276 2.440912 0.043051 -0.008153 -114303.000000 0 0 1
-24.552163 -10.271890 -31.237951 41.038153 0.396242 2.435947 0.039361 -0.011483 31008.200000 0 0 1
-24.099063 -9.270090 -32.173071 41.252950 0.367218 2.465298 0.035466 -0.013392 -703478.000000 0 0 1
-25.191413 -8.328090 -32.692561 42.104251 0.319282 2.459836 0.039620 -0.018710 -786006.000000 0 0 1
-26.056553 -8.881090 -33.701491 43.515609 0.328490 2.456672 0.058486 -0.031916 1225190.000000 0 0 1
-27.235433 -9.529390 -33.223381 44.004217 0.336576 2.426457 0.059437 -0.022093 318661.000000 0 0 1
-28.289013 -8.721490 -32.402031 43.888771 0.299054 2.401307 0.054308 -0.007218 -1502470.000000 0 0 1
-29.566343 -9.241390 -32.450081 44.861784 0.302944 2.379416 0.063000 -0.004979 -776549.000000 0 0 1
-30.253273 -8.901190 -31.287851 44.423207 0.286148 2.352252 0.072139 -0.000105 -697117.000000 0 0 1
-31.720023 -9.284990 -31.180781 45.438002 0.284762 2.327085 0.064784 0.001708 -480591.000000 0 0 1
-31.931103 -10.703190 -31.104841 45.843917 0.323426 2.316507 0.051207 -0.002936 591773.000000 0 0 1
-33.272333 -10.958790 -30.679321 46.565695 0.318176 2.290071 0.032208 -0.007382 389699.000000 0 0 1
-33.655293 -12.427590 -30.835181 47.306787 0.353730 2.280769 0.038028 -0.012583 -435388.000000 0 0 1
-35.032967 -12.680990 -30.780201 48.327394 0.347301 2.261280 0.025025 -0.010269 -392113.000000 0 0 1
-35.305424 -14.050490 -31.045821 49.068648 0.378755 2.255833 0.021610 -0.018405 -216939.000000 0 0 1
36.681071 -14.337590 -30.867881 50.038920 -0.372612 2.235565 0.028661 -0.028861 -184999.000000 0 0 1
36.311051 -14.788390 -29.632711 49.145564 -0.386758 2.218000 0.019118 -0.024836 -176992.000000 0 0 1
36.721491 -16.114090 -29.385581 49.715633 -0.413517 2.203185 0.010595 -0.026717 -484929.000000 0 0 1
-36.742043 -16.474190 -27.903141 48.989406 0.421501 2.176785 0.033738 -0.014707 991152.000000 0 0 1
-35.555190 -15.962790 -27.228951 47.543643 0.421987 2.180610 0.030038 -0.028094 708585.000000 0 0 1
-35.580563 -16.210990 -25.858921 46.877036 0.427512 2.155117 0.049725 -0.030293 -600781.000000 0 0 1
-34.378269 -15.707190 -25.077271 45.359131 0.428571 2.156589 0.066817 -0.028030 298823.000000 0 0 1
-33.254913 -16.625890 -25.183671 44.905754 0.463610 2.166162 0.062914 -0.020100 771687.000000 0 0 1
-32.235173 -16.261090 -24.267991 43.502469 0.467203 2.162593 0.080540 -0.003316 223817.000000 0 0 1
-30.999173 -17.193590 -24.245891 42.946845 0.506404 2.170691 0.057991 -0.008512 -110639.000000 0 0 1
-31.081843 -18.426390 -23.596391 43.155561 0.535134 2.149304 0.061289 -0.015201 273572.000000 0 0 1
-31.847973 -19.414990 -24.321791 44.528471 0.547459 2.148626 0.046236 -0.020129 46689.300000 0 0 1
-31.466513 -20.819490 -23.793491 44.606309 0.584514 2.133424 0.047680 -0.023963 -142034.000000 0 0 1
-30.142813 -21.273290 -23.894691 43.955640 0.614575 2.145528 0.046819 -0.008161 -294630.000000 0 0 1
-29.965393 -22.437790 -23.115491 43.996649 0.642726 2.123972 0.041972 -0.004263 -982678.000000 0 0 1
-28.588803 -23.074590 -23.324391 43.517624 0.679067 2.136459 0.051787 -0.003653 -77241.600000 0 0 1
-27.496933 -22.437490 -22.673391 42.114189 0.684421 2.139309 0.063776 -0.007735 -96729.900000 0 0 1
-27.456863 -22.189490 -21.272491 41.216158 0.679696 2.113111 0.069526 -0.019556 -691631.000000 0 0 1
-27.281943 -23.391190 -20.330791 41.289142 0.708767 2.085642 0.063810 -0.012028 58342.200000 0 0 1
-27.231033 -22.843990 -19.012391 40.309404 0.698012 2.061970 0.060648 -0.011637 -3471.500000 0 0 1
-27.288813 -23.824590 -17.972491 40.438853 0.717726 2.031341 0.057086 0.008971 79436.900000 0 0 1
-27.256583 -23.184790 -16.563891 39.431184 0.704850 2.004320 0.048790 0.008037 -19034.100000 0 0 1
-28.463303 -22.518290 -16.251391 39.766075 0.669311 1.991798 0.040298 0.001844 48103.300000 0 0 1
-28.289703 -21.649790 -15.170191 38.718928 0.653214 1.973387 0.041548 0.005990 1073310.000000 0 0 1
-29.663023 -21.059390 -14.644491 39.215481 0.617375 1.953507 0.038447 0.008704 1266910.000000 0 0 1
-30.381803 -20.145590 -15.486091 39.607042 0.585516 1.972507 0.037823 0.013524 -358280.000000 0 0 1
-31.576663 -19.705890 -14.964791 40.116739 0.557927 1.953070 0.048355 0.013345 -352046.000000 0 0 1
-32.618093 -19.049990 -15.933591 40.996603 0.528595 1.969969 0.053884 -0.008588 475571.000000 0 0 1
-33.393773 -19.968290 -16.710591 42.345254 0.538921 1.976458 0.035295 0.008790 -96332.200000 0 0 1
-34.191135 -19.285990 -17.630691 43.032829 0.513577 1.992925 0.038801 0.000936 -153004.000000 0 0 1
-34.815435 -20.175190 -18.757491 44.395904 0.525202 2.007004 0.019259 0.010064 579063.000000 0 0 1
-35.900476 -21.039690 -18.451191 45.518778 0.530103 1.988162 0.010887 0.006342 -225654.000000 0 0 1
-35.655328 -21.970590 -17.395691 45.349965 0.552242 1.964474 0.024844 0.008442 -191589.000000 0 0 1
-36.619493 -23.187890 -17.211991 46.636018 0.564483 1.948805 0.022479 0.019580 -346946.000000 0 0 1
35.525281 -22.970390 -16.934191 45.568095 -0.573976 1.951554 0.030586 0.001081 -842599.000000 0 0 1
34.843811 -24.169490 -16.808591 45.615613 -0.606453 1.948173 0.028240 0.001160 547336.000000 0 0 1
33.393901 -24.031190 -16.237991 44.230341 -0.623778 1.946711 0.035767 -0.007606 790125.000000 0 0 1
32.330421 -23.731990 -17.153191 43.619897 -0.633212 1.974952 0.026035 -0.015931 105529.000000 0 0 1
31.185731 -24.270390 -16.488291 42.818984 -0.661339 1.966080 0.043386 -0.020391 496493.000000 0 0 1
29.925401 -24.225190 -17.418591 42.258689 -0.680518 1.995652 0.060274 -0.027576 304271.000000 0 0 1
29.632261 -22.851290 -17.732291 41.408773 -0.656908 2.013324 0.040995 -0.027796 642036.000000 0 0 1
28.406581 -22.739990 -18.477191 40.809896 -0.675057 2.040658 0.056807 -0.035771 274061.000000 0 0 1
34.939321 29.024910 -18.117091 48.902255 0.693196 1.950317 0.059167 -0.026619 -663047.000000 0 0 1
34.089221 29.470310 -19.134991 48.956328 0.712855 1.972360 0.057092 -0.033336 -502283.000000 0 0 1
34.641801 29.411510 -20.409591 49.816089 0.703924 1.992920 0.053887 -0.019299 -627207.000000 0 0 1
33.647081 29.769110 -21.512791 49.810904 0.724323 2.017383 0.051028 -0.005884 -455857.000000 0 0 1
32.749741 28.683010 -21.752591 48.666578 0.719297 2.034174 0.046960 -0.013862 359107.000000 0 0 1
31.929781 28.794710 -22.918291 48.722627 0.733816 2.060521 0.061618 -0.002402 552932.000000 0 0 1
30.663271 29.666610 -22.730091 48.342538 0.768879 2.060300 0.057834 -0.001725 -625178.000000 0 0 1
30.936791 31.031210 -22.817191 49.402887 0.786922 2.050887 0.067082 -0.007999 651494.000000 0 0 1
29.766991 31.870710 -22.759891 49.191753 0.819515 2.051809 0.063536 0.002869 271947.000000 0 0 1
30.185831 33.375610 -22.530791 50.326457 0.835540 2.034980 0.058344 0.004549 306319.000000 0 0 1
30.684161 33.691710 -21.236191 50.275490 0.832083 2.006884 0.054099 -0.005638 19889.900000 0 0 1
32.090781 33.557410 -21.175891 51.032699 0.807735 1.998681 0.044902 -0.008681 -240434.000000 0 0 1
32.598471 33.393610 -19.705391 50.656648 0.797447 1.970341 0.053287 -0.019722 -396324.000000 0 0 1
32.449241 -33.641881 -18.963291 50.441410 -0.803442 1.956215 0.050814 -0.017140 102650.000000 0 0 1
32.538201 -33.868581 -17.581891 50.149160 -0.805429 1.928999 0.056231 -0.029186 -888143.000000 0 0 1
32.643851 -32.587381 -16.757091 49.075030 -0.784532 1.919265 0.055348 -0.015932 -550478.000000 0 0 1
33.840231 -31.902281 -16.855891 49.467544 -0.755929 1.918507 0.058686 -0.012683 -592284.000000 0 0 1
34.932571 -32.499281 -16.188291 50.384011 -0.749329 1.897896 0.058350 -0.018768 334634.000000 0 0 1
36.324321 -31.797781 -16.354191 50.970725 -0.719048 1.897428 0.051733 0.000041 760902.000000 0 0 1
-36.495123 -31.981781 -17.582791 51.612817 0.719583 1.918423 0.042143 -0.004980 -429384.000000 0 0 1
-35.297267 -31.260681 -17.691491 50.359866 0.724825 1.929757 0.032042 -0.001273 -199289.000000 0 0 1
-34.231076 -31.891081 -18.599691 50.346362 0.750024 1.949197 0.046658 -0.016519 -1465230.000000 0 0 1
-33.661323 -32.953281 -17.940391 50.406955 0.774770 1.934685 0.053563 -0.021833 446482.000000 0 0 1
-32.527053 -33.518681 -18.615091 50.279547 0.800411 1.950055 0.060107 -0.026041 1174740.000000 0 0 1
-31.240533 -32.699581 -18.933991 49.027845 0.808213 1.967292 0.043110 -0.023462 -880925.000000 0 0 1
-31.418413 -31.827381 -20.079791 49.023432 0.791864 1.992807 0.033407 -0.017699 1231590.000000 0 0 1
-30.185183 -31.225681 -20.607691 48.071461 0.802340 2.013837 0.046071 -0.015459 887083.000000 0 0 1
-29.186313 -32.160081 -21.231791 48.341500 0.833835 2.025509 0.040073 -0.009466 -766639.000000 0 0 1
-29.736163 -32.868481 -22.353891 49.641443 0.835390 2.037905 0.035896 -0.004839 -47121.400000 0 0 1
-28.870023 -33.850181 -22.935191 50.053332 0.864635 2.046782 0.030031 -0.008487 -642797.000000 0 0 1
-29.458783 33.489110 -24.023791 50.660467 -0.849337 2.064865 0.037105 -0.017050 -1275560.000000 0 0 1
-30.551853 32.760210 -23.545391 50.606645 -0.820265 2.054728 0.032833 -0.026519 -511039.000000 0 0 1
-31.177213 32.032410 -24.567291 51.006330 -0.798927 2.073335 0.022774 -0.022401 -365931.000000 0 0 1
-32.130513 32.812110 -25.425191 52.492331 -0.795893 2.076428 0.038380 -0.032116 -1341120.000000 0 0 1
-31.537013 33.741710 -26.289821 53.143588 -0.819159 2.088279 0.030523 -0.029002 -862919.000000 0 0 1
-32.521033 -33.827981 -27.025621 54.151031 0.805094 2.093331 0.037297 -0.024682 -24574.000000 0 0 1
-32.029013 -32.794681 -28.090741 53.762799 0.797209 2.120570 0.039525 -0.018674 126840.000000 0 0 1
-31.666473 -33.351781 -29.357761 54.561754 0.811313 2.138936 0.045236 -0.026099 400939.000000 0 0 1
-32.789143 -33.867381 -30.099981 55.929744 0.801573 2.139066 0.045861 -0.021711 455450.000000 0 0 1
-32.462683 33.464610 -31.311301 56.161406 -0.800594 2.162196 0.055170 -0.027502 -300243.000000 0 0 1
-31.975993 -34.087781 -32.440711 56.893240 0.817353 2.177550 0.069321 -0.036182 -202823.000000 0 0 1
-32.068553 33.319310 -33.611031 57.168785 -0.804524 2.199289 0.071065 -0.041077 -336610.000000 0 0 1
-31.386453 33.892510 33.238758 56.908934 -0.823769 0.947063 0.089098 -0.046630 1016540.000000 0 0 1
-29.987173 33.636410 33.048654 55.882485 -0.842692 0.938008 0.078796 -0.048196 620071.000000 0 0 1
-29.688513 32.277410 32.768894 54.745223 -0.827153 0.929080 0.086798 -0.051847 -97980.700000 0 0 1
-28.186633 31.897210 32.894980 53.795892 -0.847076 0.912870 0.080633 -0.046619 329352.000000 0 0 1
-27.786773 31.775910 -33.857821 54.112524 -0.852272 2.246816 0.075791 -0.049689 802927.000000 0 0 1
-26.430433 31.344710 -33.641711 53.036057 -0.870253 2.257922 0.075180 -0.045888 665534.000000 0 0 1
-25.901333 29.944410 -33.931121 52.142763 -0.857669 2.279348 0.080501 -0.033395 -269691.000000 0 0 1
-26.338523 29.004510 -32.957411 51.197367 -0.833533 2.270162 0.079305 -0.026748 171037.000000 0 0 1
-25.971193 27.698910 -33.338071 50.528799 -0.817578 2.291327 0.085365 -0.019881 -228648.000000 0 0 1
-25.885683 26.701910 -32.147001 49.157810 -0.800918 2.283597 0.105366 -0.028829 1446130.000000 0 0 1
-24.639363 26.763810 -31.361751 48.030815 -0.826704 2.282270 0.085800 -0.024639 1416910.000000 0 0 1
-24.648763 27.853610 -30.446021 48.066052 -0.846364 2.256762 0.062798 -0.026142 -732766.000000 0 0 1
-23.373463 27.940610 -29.617871 46.949066 -0.874168 2.253446 0.084773 -0.022009 -1336020.000000 0 0 1
-22.301163 28.191710 -30.480621 47.129425 -0.901534 2.274103 0.078487 -0.022600 -196613.000000 0 0 1
-21.063863 28.091210 -29.763641 46.029086 -0.927399 2.273950 0.044649 -0.017523 545184.000000 0 0 1
-20.631263 29.256310 -28.819881 45.958310 -0.956595 2.248605 0.035593 -0.009105 -922239.000000 0 0 1
-20.234763 30.408410 -29.519061 46.962666 -0.983648 2.250502 0.034228 -0.008175 174995.000000 0 0 1
-19.823963 31.505710 -28.614031 46.950634 -1.009170 2.226162 0.042367 -0.009308 47467.200000 0 0 1
-19.384963 32.777210 -29.322091 48.061495 -1.036713 2.226977 0.038159 -0.005041 -411578.000000 0 0 1
-18.159463 32.641610 -29.975241 47.893172 -1.063107 2.247052 0.041673 -0.005613 -631109.000000 0 0 1
-17.870463 33.856910 -30.757331 49.108627 -1.085139 2.247610 0.040937 0.000285 -323095.000000 0 0 1
-16.429463 33.977010 -31.247821 48.997865 -1.120398 2.262355 0.037215 0.001422 -956148.000000 0 0 1
-15.468063 -33.971981 -30.263991 48.054819 1.143529 2.252067 0.043226 -0.007912 400298.000000 0 0 1
-14.134563 -34.012781 -30.809871 48.019822 1.176943 2.267388 0.064715 -0.007690 916153.000000 0 0 1
-13.538863 32.841910 -30.690281 46.944491 -1.179780 2.283335 0.071604 -0.014513 -850328.000000 0 0 1
-13.543763 32.504410 -29.333681 45.830503 -1.175998 2.265356 0.080483 -0.023973 -48548.100000 0 0 1
-13.087763 31.169710 -29.202061 44.672147 -1.173264 2.283256 0.075186 -0.022731 -94497.900000 0 0 1
-12.898163 30.770310 -27.707721 43.369256 -1.173869 2.263837 0.060677 -0.029208 455906.000000 0 0 1
-11.703763 31.189210 -27.039771 42.905642 -1.211806 2.252626 0.065525 -0.025203 281037.000000 0 0 1
-11.805963 30.811310 -25.676011 41.808793 -1.204882 2.232079 0.046601 -0.022549 -66064.200000 0 0 1
-10.500163 31.069710 -24.934591 41.198473 -1.244892 2.220852 0.064056 -0.026052 763660.000000 0 0 1
-9.350363 30.333310 -25.397171 40.651633 -1.271784 2.245610 0.086717 -0.021827 1180720.000000 0 0 1
-8.117563 30.997210 -25.032431 40.661339 -1.314668 2.233984 0.101302 -0.033046 1285800.000000 0 0 1
-6.828463 30.341810 -25.594691 40.278301 -1.349433 2.259382 0.090356 -0.031762 200911.000000 0 0 1
-6.695063 28.982210 -25.187741 38.977104 -1.343773 2.273416 0.094044 -0.047348 -487439.000000 0 0 1
-5.577163 28.351110 -25.730021 38.690104 -1.376559 2.298328 0.090229 -0.056436 -449222.000000 0 0 1
-5.129763 27.024510 -25.004291 37.173286 -1.383209 2.308569 0.100467 -0.038159 -162076.000000 0 0 1
-5.906863 25.832010 -25.075601 36.482455 -1.345997 2.328607 0.110824 -0.033831 -186752.000000 0 0 1
-5.365963 24.833110 -24.287191 35.147469 -1.357987 2.333679 0.109977 -0.044756 -741349.000000 0 0 1
-6.258363 23.633610 -24.150991 34.365462 -1.311930 2.350079 0.090936 -0.038071 -417691.000000 0 0 1
-6.255763 22.887910 -25.416961 34.770863 -1.303991 2.390560 0.089582 -0.032612 205621.000000 0 0 1
-7.147463 21.776910 -25.376991 34.195200 -1.253661 2.407026 0.082898 -0.038368 -162588.000000 0 0 1
-7.057163 20.874210 -26.631821 34.565736 -1.244779 2.450373 0.072995 -0.031474 48958.000000 0 0 1
-5.897763 20.083210 -26.811341 34.014217 -1.285160 2.478739 0.083277 -0.038629 -210788.000000 0 0 1
-5.792963 19.063010 -25.804411 32.600988 -1.275779 2.484092 0.089642 -0.044248 -416202.000000 0 0 1
-4.561963 18.189810 -26.114381 32.150297 -1.325067 2.518812 0.093103 -0.051608 -56505.300000 0 0 1
-4.466663 17.551210 -27.403591 32.847418 -1.321593 2.557602 0.077629 -0.045133 -21866.000000 0 0 1
-3.459763 16.539510 -27.262021 32.074026 -1.364588 2.586728 0.080076 -0.048057 299828.000000 0 0 1
-2.855263 16.192510 -28.643881 33.027592 -1.396258 2.620491 0.075354 -0.038290 170789.000000 0 0 1
-1.975263 17.158510 -29.209341 33.933784 -1.456182 2.607586 0.082866 -0.044701 98300.500000 0 0 1
-2.231163 17.101410 -30.575671 35.104244 -1.441062 2.628023 0.081704 -0.046533 -201689.000000 0 0 1
-1.564863 18.171510 -31.403621 36.315836 -1.484892 2.615421 0.090670 -0.028432 593637.000000 0 0 1
-0.122763 18.049410 -31.393151 36.212238 -1.563995 2.619788 0.101458 -0.038230 994191.000000 0 0 1
0.564037 19.185810 -31.909651 37.237605 1.541406 2.600061 0.108654 -0.024476 237853.000000 0 0 1
0.363537 20.575010 -31.363781 37.511997 1.553129 2.560931 0.086644 -0.025973 -701445.000000 0 0 1
1.060737 20.819010 -30.176141 36.676366 1.519890 2.537060 0.103235 -0.036916 -343408.000000 0 0 1
0.981637 22.153410 -29.703391 37.067892 1.526514 2.500301 0.095883 -0.038674 544129.000000 0 0 1
1.895137 22.429710 -28.435811 36.266772 1.486504 2.471998 0.103490 -0.047404 1921940.000000 0 0 1
3.320437 22.385610 -28.681161 36.534228 1.423541 2.473572 0.084883 -0.041283 1071010.000000 0 0 1
4.174537 22.771710 -27.610001 36.031787 1.389488 2.443809 0.094846 -0.043592 423285.000000 0 0 1
4.556137 24.286210 -27.453521 36.936083 1.385350 2.408743 0.092657 -0.040938 -318769.000000 0 0 1
5.456837 24.721710 -28.441911 38.077320 1.353549 2.414261 0.085014 -0.045509 -65297.600000 0 0 1
5.683637 26.089110 -28.333321 38.932280 1.356293 2.385845 0.088726 -0.048522 -250826.000000 0 0 1
6.730637 26.727810 -29.268691 40.203651 1.324104 2.386212 0.099736 -0.041583 1234060.000000 0 0 1
8.108337 26.318010 -29.039301 40.020792 1.271933 2.382710 0.097737 -0.038996 1398850.000000 0 0 1
8.994537 27.097610 -29.832761 41.293774 1.250308 2.378138 0.098916 -0.041453 734754.000000 0 0 1
10.473237 27.093210 -29.322341 41.273846 1.201927 2.360911 0.097049 -0.038170 292008.000000 0 0 1
11.365137 27.614910 -30.257651 42.512057 1.180366 2.362772 0.092939 -0.031400 -370020.000000 0 0 1
12.550137 28.019610 -29.594181 42.642936 1.149686 2.337826 0.091846 -0.034400 -9733.050000 0 0 1
13.320537 29.047110 -30.424771 44.122987 1.140827 2.331656 0.095915 -0.036907 -388644.000000 0 0 1
12.898537 30.355710 -30.280171 44.774213 1.168999 2.313505 0.109856 -0.038177 336033.000000 0 0 1
13.684537 31.208710 -31.118381 46.147630 1.157560 2.310843 0.142328 -0.050106 325666.000000 0 0 1
13.202137 32.684310 -31.019151 46.954747 1.186908 2.292438 0.151106 -0.055682 18390.500000 0 0 1
12.107037 33.016610 -31.838291 47.437893 1.219326 2.306565 0.131947 -0.051844 -145765.000000 0 0 1
11.773837 -33.876181 -31.710791 47.872676 -1.236301 2.294812 0.122176 -0.048333 -597561.000000 0 0 1
10.431837 -33.610881 -32.390871 47.829730 -1.269852 2.314763 0.079483 -0.039897 -472951.000000 0 0 1
10.537637 -33.485681 -33.793581 48.727187 -1.265917 2.337168 0.075900 -0.023147 553929.000000 0 0 1
9.278837 -33.183981 33.716566 48.208715 -1.298142 0.796256 0.075911 -0.026784 602958.000000 0 0 1
9.392237 -32.542081 32.261583 46.776179 -1.289814 0.809720 0.074502 -0.023478 -25527.700000 0 0 1
9.447337 -31.110381 32.271209 45.809812 -1.275975 0.789133 0.060381 -0.028088 46786.500000 0 0 1
9.572037 -30.642081 30.964431 44.602208 -1.268019 0.803439 0.087006 -0.031758 -134077.000000 0 0 1
8.938337 -29.202481 30.908081 43.450987 -1.273770 0.779405 0.082211 -0.045367 1897080.000000 0 0 1
7.486337 -29.079681 30.873161 43.067681 -1.318826 0.771519 0.059442 -0.033826 1412420.000000 0 0 1
6.796137 -29.121681 32.135579 43.897098 -1.341529 0.749446 0.058143 -0.019595 -78699.400000 0 0 1
5.263937 -29.042081 32.000331 43.533581 -1.391491 0.745023 0.066980 -0.023125 -341113.000000 0 0 1
4.611037 -30.059081 31.269461 43.618679 -1.418584 0.771476 0.067942 -0.027463 -184379.000000 0 0 1
4.875837 -30.236381 29.859721 42.774004 -1.410915 0.798082 0.070490 -0.032530 -616068.000000 0 0 1
4.296137 -29.086481 28.965421 41.273185 -1.424154 0.792879 0.051492 -0.036412 70958.800000 0 0 1
2.896837 -29.206681 28.775441 41.102894 -1.471936 0.795282 0.057692 -0.040654 35359.100000 0 0 1
2.496137 -28.342681 27.726461 39.727760 -1.482953 0.798319 0.063690 -0.048309 732011.000000 0 0 1
0.965337 -28.579581 27.409191 39.610454 -1.537032 0.806584 0.059823 -0.047725 974577.000000 0 0 1
0.699237 -29.820081 26.788851 40.092003 -1.547352 0.839031 0.069112 -0.047444 73299.000000 0 0 1
0.533137 -30.877981 27.678991 41.471201 -1.553532 0.840048 0.088658 -0.050253 -919057.000000 0 0 1
0.679437 -32.274381 26.976471 42.069315 -1.549748 0.874685 0.083176 -0.049811 81131.700000 0 0 1
1.986137 -32.717981 26.672011 42.258812 -1.510166 0.887750 0.073182 -0.048108 285128.000000 0 0 1
2.665337 -32.006981 25.613261 41.080287 -1.487714 0.897594 0.064524 -0.046964 -388020.000000 0 0 1
4.179437 -32.210481 25.771391 41.462602 -1.441763 0.900067 0.080049 -0.039044 -335402.000000 0 0 1
4.923037 -31.892381 24.615931 40.586997 -1.417641 0.919148 0.095103 -0.055583 56596.200000 0 0 1
6.290937 -31.767681 24.965171 40.890356 -1.375296 0.914055 0.081085 -0.052391 261596.000000 0 0 1
7.228037 -31.524381 23.740581 40.120398 -1.345408 0.937589 0.084252 -0.047227 68124.700000 0 0 1
8.602037 -31.416381 24.040791 40.483869 -1.303539 0.934978 0.083617 -0.033605 89668.100000 0 0 1
9.360837 -31.404081 22.840591 39.944138 -1.281105 0.962082 0.078187 -0.034203 61422.100000 0 0 1
10.461337 -30.346381 22.787291 39.364998 -1.238823 0.953452 0.069660 -0.030985 526731.000000 0 0 1
11.670837 -30.604181 23.527471 40.328231 -1.206472 0.947888 0.070640 -0.023369 947846.000000 0 0 1
12.624137 -29.554181 23.320091 39.706990 -1.167104 0.943072 0.074127 -0.018408 746226.000000 0 0 1
13.983237 -29.772781 24.039671 40.741320 -1.131710 0.939668 0.099257 -0.023470 108309.000000 0 0 1
13.848037 -29.647781 25.454971 41.457383 -1.133826 0.909674 0.081763 -0.024663 533207.000000 0 0 1
15.055137 -29.849781 26.200221 42.474912 -1.103664 0.906075 0.092385 -0.030502 104016.000000 0 0 1
-10.362863 -13.827090 26.171381 31.361099 0.927640 0.583540 0.092168 -0.030268 1214190.000000 0 0 1
-8.992763 -14.194190 25.881701 30.857855 1.006071 0.575832 0.087945 -0.023417 824717.000000 0 0 1
-8.368763 -14.783990 27.035421 31.929869 1.055700 0.561021 0.100319 -0.028942 857072.000000 0 0 1
-6.820563 -15.002090 26.865391 31.517170 1.144090 0.550229 0.090802 -0.014274 702472.000000 0 0 1
-6.445363 -15.933390 25.917821 31.099020 1.186400 0.585571 0.095371 -0.006480 -195046.000000 0 0 1
-6.568563 -15.478890 24.545781 29.752939 1.169471 0.600618 0.109447 -0.011540 -476955.000000 0 0 1
-6.140963 -16.539590 23.421951 29.323322 1.215283 0.645585 0.116436 -0.010435 16991.900000 0 0 1
-7.021563 -17.584990 23.112291 29.878290 1.190900 0.686376 0.118182 -0.017832 -291652.000000 0 0 1
-7.255563 -18.519290 24.141041 31.279340 1.197393 0.689147 0.115140 -0.019862 -416371.000000 0 0 1
-8.117163 -19.707490 23.803791 31.951431 1.180089 0.730263 0.091908 -0.024642 -747088.000000 0 0 1
-9.495163 -19.550490 23.675211 32.138690 1.118675 0.742682 0.069124 -0.026298 -751935.000000 0 0 1
-10.110563 -20.768890 23.345021 32.841441 1.117754 0.780104 0.052046 -0.024006 696760.000000 0 0 1
-11.655763 -20.669390 23.610681 33.474539 1.057333 0.787904 0.058671 -0.027035 589714.000000 0 0 1
-12.035163 -20.714190 24.964991 34.600196 1.044457 0.764790 0.056861 -0.031017 175614.000000 0 0 1
-13.448663 -20.602890 25.065531 35.123019 0.992486 0.776102 0.045858 -0.024041 45703.400000 0 0 1
-13.946263 -20.581890 26.499381 36.336340 0.975263 0.753527 0.046795 -0.022192 -879196.000000 0 0 1
-13.719763 -21.786290 27.241091 37.482681 1.008794 0.757196 0.042849 -0.018980 269158.000000 0 0 1
-12.686163 -21.633190 28.220891 37.753838 1.040421 0.726510 0.051243 -0.027004 532564.000000 0 0 1
-12.221463 -22.992690 28.859551 38.870318 1.082239 0.734065 0.056970 -0.026393 252540.000000 0 0 1
-13.194363 -23.558990 29.743251 40.171858 1.060265 0.737131 0.051131 -0.017815 -33556.800000 0 0 1
-12.805563 -24.816690 30.261671 41.177898 1.094426 0.745276 0.051986 -0.016745 -835754.000000 0 0 1
-13.721763 -25.572060 31.154711 42.577377 1.078305 0.749955 0.063288 -0.026156 -552348.000000 0 0 1
-13.831763 -24.937590 32.387607 43.152730 1.064386 0.721926 0.085889 -0.028196 -222525.000000 0 0 1
-14.995563 -25.295260 33.079874 44.260537 1.035672 0.726672 0.071241 -0.029410 -268737.000000 0 0 1
-15.015463 -24.726290 -33.599171 44.336867 1.025050 2.430755 0.069750 -0.030782 60240.800000 0 0 1
-14.951763 -23.303190 -33.485921 43.449980 1.000336 2.450700 0.074640 -0.030991 446407.000000 0 0 1
-16.193363 -22.637690 -33.761451 43.755292 0.949857 2.452144 0.059533 -0.029840 328610.000000 0 0 1
-16.150263 -21.150190 -33.353971 42.669062 0.918649 2.468167 0.056618 -0.033617 -81330.800000 0 0 1
-16.131363 -20.943090 -31.963701 41.479056 0.914462 2.450576 0.063609 -0.034948 57259.100000 0 0 1
-16.151763 -19.570290 -31.686121 40.594161 0.880806 2.466355 0.063646 -0.034826 -406068.000000 0 0 1
-16.313963 -19.373990 -30.178771 39.398668 0.870933 2.443368 0.083070 -0.031121 699276.000000 0 0 1
-17.627463 -19.705890 -29.681451 39.749693 0.841013 2.413897 0.068589 -0.028376 802732.000000 0 0 1
-17.741663 -19.421190 -28.289541 38.629617 0.830561 2.392530 0.058171 -0.025292 8642.730000 0 0 1
-16.931163 -20.267990 -27.268511 37.960866 0.874860 2.372198 0.053769 -0.023695 201568.000000 0 0 1
-15.540963 -20.015890 -27.324871 37.266687 0.910593 2.393849 0.056444 -0.032820 -255500.000000 0 0 1
-14.779163 -21.082390 -26.880881 37.221937 0.959387 2.377743 0.045489 -0.026400 551856.000000 0 0 1
-13.279163 -21.149590 -27.298351 36.997855 1.010137 2.400655 0.062796 -0.030556 110825.000000 0 0 1
-12.458263 -20.188490 -26.682731 35.703663 1.017900 2.414844 0.058081 -0.034920 -366379.000000 0 0 1
-11.093463 -20.309090 -26.981811 35.546338 1.070851 2.432665 0.056422 -0.045074 -47767.100000 0 0 1
-10.323963 -21.293790 -26.080721 35.216668 1.119355 2.404728 0.073865 -0.036636 -740278.000000 0 0 1
-10.478763 -22.683490 -26.390391 36.342783 1.138045 2.383505 0.078081 -0.043611 -78953.300000 0 0 1
-10.119963 -23.478890 -25.316791 35.980714 1.163834 2.351277 0.099465 -0.039825 -17813.000000 0 0 1
-10.113163 -24.982890 -25.517281 37.115394 1.186156 2.328854 0.095930 -0.042560 475446.000000 0 0 1
-8.909263 -25.465090 -26.133061 37.560386 1.234245 2.340275 0.091021 -0.046947 477909.000000 0 0 1
-9.090663 -26.601310 -26.966321 38.954490 1.241501 2.335401 0.085879 -0.042074 -45886.200000 0 0 1
-9.137763 -27.989500 -26.349491 39.512105 1.255234 2.300799 0.097101 -0.039873 87964.800000 0 0 1
-10.294963 -28.220890 -25.562761 39.444386 1.220999 2.275845 0.087069 -0.040785 143865.000000 0 0 1
-10.099063 -29.402310 -24.857891 39.804543 1.239943 2.245286 0.103507 -0.038117 -434703.000000 0 0 1
-11.043363 -29.592800 -23.697091 39.487236 1.213625 2.214448 0.100634 -0.040066 -492799.000000 0 0 1
-10.931963 -28.580910 -22.704491 38.103413 1.205474 2.209139 0.100301 -0.039875 -401255.000000 0 0 1
-11.664163 -27.377390 -22.932291 37.569457 1.168036 2.227358 0.087319 -0.041529 -223700.000000 0 0 1
-11.463063 -26.189500 -21.925891 36.028272 1.158221 2.225059 0.102105 -0.035097 8892.310000 0 0 1
-12.014663 -26.422100 -20.639391 35.615501 1.144024 2.188919 0.080151 -0.030606 69618.100000 0 0 1
-12.140263 -25.318190 -19.743091 34.324719 1.123677 2.183628 0.072677 -0.025981 -159103.000000 0 0 1
-12.902563 -25.670330 -18.474791 34.157867 1.105050 2.142261 0.086306 -0.027161 546217.000000 0 0 1
-14.325163 -25.779120 -18.483691 34.805461 1.063596 2.130644 0.098841 -0.029254 372225.000000 0 0 1
-14.763963 -26.180710 -17.224291 34.642176 1.057325 2.091172 0.090729 -0.030514 736755.000000 0 0 1
-16.324563 -26.266700 -17.096591 35.337293 1.014723 2.075801 0.093246 -0.035418 -71052.000000 0 0 1
-17.050663 -25.013890 -17.150291 34.792992 0.972494 2.086243 0.080900 -0.029084 -657778.000000 0 0 1
-18.352263 -25.101480 -16.695891 35.293663 0.939487 2.063553 0.085822 -0.032159 -542783.000000 0 0 1
-19.358763 -25.699430 -17.716991 36.730289 0.925202 2.074136 0.080803 -0.030313 -1062640.000000 0 0 1
-19.107363 -27.125710 -17.919391 37.709416 0.957123 2.065984 0.075368 -0.023126 -104799.000000 0 0 1
-19.485363 -28.037520 -16.872191 38.084810 0.963451 2.029757 0.073138 -0.034063 -387661.000000 0 0 1
-20.969463 -28.465340 -16.806491 39.146546 0.935883 2.014539 0.063012 -0.024454 94631.000000 0 0 1
-21.324963 -29.387400 -17.824391 40.448513 0.943062 2.027140 0.055585 -0.026525 273300.000000 0 0 1
-22.615663 -29.891580 -17.477991 41.357647 0.923091 2.007115 0.057775 -0.021748 357968.000000 0 0 1
-23.075363 -30.899330 -18.514891 42.778992 0.929352 2.018396 0.040780 -0.028469 35621.900000 0 0 1
-22.420363 -32.184780 -18.460891 43.351323 0.962347 2.010691 0.030917 -0.025881 322457.000000 0 0 1
-22.720363 -32.830670 -19.675791 44.510724 0.965428 2.028675 0.029888 -0.002816 7515.910000 0 0 1
-22.319263 33.890433 -19.725991 45.120125 -0.988419 2.023266 0.017176 -0.004299 70922.200000 0 0 1
-23.039663 32.981565 -18.910191 44.454528 -0.961036 2.010181 0.023029 -0.007203 89091.800000 0 0 1
-22.333163 31.736022 -18.942691 43.182992 -0.957580 2.024904 0.017907 -0.013857 189682.000000 0 0 1
-23.138563 30.536982 -18.409591 42.506628 -0.922371 2.018725 0.034618 -0.024799 -171863.000000 0 0 1
-23.358763 30.527662 -16.993791 42.028073 -0.917659 1.987058 0.031089 -0.032359 -503494.000000 0 0 1
-24.137963 29.450672 -16.583591 41.533105 -0.884214 1.981534 0.035432 -0.026508 -430552.000000 0 0 1
-23.481063 28.099922 -16.295591 40.081320 -0.874706 1.989486 0.046315 -0.032086 -414291.000000 0 0 1
-22.850563 27.549222 -17.411591 39.802907 -0.878357 2.023552 0.050567 -0.035463 -118894.000000 0 0 1
-22.091763 26.421662 -16.992691 38.404450 -0.874414 2.029144 0.064126 -0.035188 -41593.700000 0 0 1
-21.475563 25.839012 -18.269891 38.244520 -0.877360 2.068846 0.074233 -0.033227 -1077070.000000 0 0 1
-21.300663 24.415702 -18.177591 37.151979 -0.853431 2.082056 0.081303 -0.039185 205226.000000 0 0 1
-20.654463 23.814742 -19.315291 36.970654 -0.856346 2.120517 0.079284 -0.030022 -355362.000000 0 0 1
-19.165263 24.093552 -19.346891 36.360813 -0.898835 2.131853 0.070604 -0.025951 -1064890.000000 0 0 1
-18.343963 23.725622 -18.231491 35.096914 -0.912630 2.117017 0.086306 -0.036410 850796.000000 0 0 1
-17.069163 24.353152 -18.138491 34.834426 -0.959466 2.118474 0.090483 -0.040375 194078.000000 0 0 1
-16.965563 25.666752 -17.314791 35.304596 -0.986731 2.083391 0.073865 -0.038605 -269360.000000 0 0 1
-17.760963 26.695412 -17.858791 36.701952 -0.983727 2.078978 0.064938 -0.032982 -24220.700000 0 0 1
-17.620963 27.855682 -17.133091 37.148084 -1.006764 2.050155 0.057565 -0.041114 -263389.000000 0 0 1
-18.707463 28.948852 -17.364491 38.594440 -0.997080 2.037474 0.061618 -0.029794 67258.500000 0 0 1
-18.924963 29.540792 -18.601091 39.709107 -1.001030 2.058314 0.036531 -0.025191 166272.000000 0 0 1
-19.736263 28.695462 -19.421091 39.876414 -0.968317 2.079485 0.045388 -0.023801 -227132.000000 0 0 1
-19.661763 29.171282 -20.907991 40.923010 -0.977726 2.107040 0.046101 -0.025872 202553.000000 0 0 1
-20.483963 30.299442 -21.125791 42.236808 -0.976325 2.094597 0.041361 -0.021458 103216.000000 0 0 1
-20.881063 30.536882 -22.457991 43.276799 -0.971027 2.116405 0.041738 -0.015552 -3619.350000 0 0 1
-21.462063 31.924562 -22.826591 44.730874 -0.978922 2.106341 0.037909 -0.015466 -588805.000000 0 0 1
-20.629663 33.006837 -22.653491 45.035707 -1.012189 2.097876 0.021924 -0.014409 -384302.000000 0 0 1
-20.945763 34.074918 -23.583891 46.433016 -1.019640 2.103556 0.035999 -0.008027 -748336.000000 0 0 1
-19.767463 -33.236930 -23.717891 45.365013 1.034251 2.120956 0.055195 -0.010530 -541254.000000 0 0 1
-19.668363 -32.253310 -22.700191 44.072885 1.023195 2.111874 0.055613 -0.016697 331567.000000 0 0 1
-18.884763 -32.654350 -21.563591 43.450308 1.046468 2.090107 0.054799 -0.022698 -8226.250000 0 0 1
-18.951463 -31.637380 -20.414591 42.152548 1.031097 2.076362 0.073576 -0.029793 111984.000000 0 0 1
-18.067363 -30.535280 -20.666991 41.060412 1.036511 2.098246 0.088276 -0.030986 402168.000000 0 0 1
-17.611063 -30.018160 -19.409491 39.849314 1.040228 2.079531 0.075835 -0.028595 233884.000000 0 0 1
-16.298863 -29.215280 -19.603491 38.774764 1.061917 2.100843 0.089789 -0.025800 288552.000000 0 0 1
-15.132463 -29.954470 -19.900291 39.016449 1.103012 2.106038 0.101007 -0.034240 -878552.000000 0 0 1
-14.089963 -29.077990 -20.073991 38.039738 1.119579 2.126700 0.088966 -0.032680 -1742940.000000 0 0 1
-12.758363 -29.782310 -20.350791 38.261162 1.166060 2.131629 0.114537 -0.037103 -142667.000000 0 0 1
-12.118863 -30.469900 -19.245891 38.022177 1.192246 2.101541 0.108939 -0.031035 211622.000000 0 0 1
-11.522363 -29.513510 -18.420991 36.648943 1.198585 2.097439 0.090209 -0.021604 -1189800.000000 0 0 1
-10.720463 -30.129760 -17.265091 36.343006 1.228955 2.065828 0.084410 -0.004924 -136298.000000 0 0 1
-11.442163 -30.637530 -16.127991 36.464961 1.213369 2.028944 0.108539 -0.016456 254111.000000 0 0 1
-11.988763 -31.931370 -16.449691 37.867336 1.211628 2.020172 0.112156 -0.019204 -209809.000000 0 0 1
-12.880163 -32.539870 -15.351991 38.215512 1.193892 1.984192 0.120553 -0.024863 -253955.000000 0 0 1
-12.273363 -33.079820 -14.198891 38.033123 1.215517 1.953392 0.115890 -0.021071 -269208.000000 0 0 1
-13.273863 -33.452270 -13.295491 38.366911 1.193052 1.924671 0.121401 -0.023953 -8526.660000 0 0 1
-12.615563 -34.036320 -12.034491 38.242025 1.215845 1.890929 0.106835 -0.019624 42888.000000 0 0 1
-11.916063 -33.075150 -11.302791 36.928460 1.225000 1.881861 0.106359 -0.013038 -118086.000000 0 0 1
-11.812663 -33.493350 -9.949991 36.882866 1.231730 1.843953 0.103704 -0.013851 96968.500000 0 0 1
-10.621763 -32.743190 -9.260791 35.646887 1.257111 1.833604 0.081722 -0.016421 219795.000000 0 0 1
-9.389463 -33.218470 -9.759091 35.872951 1.295325 1.846315 0.047799 -0.012930 -1214350.000000 0 0 1
-8.381563 -32.680430 -8.987391 34.914671 1.319737 1.831137 0.038593 -0.014381 -683805.000000 0 0 1
-7.013563 -33.050180 -9.596391 35.122573 1.361689 1.847541 0.042897 -0.018762 -36110.600000 0 0 1
-6.660163 33.761493 -9.376791 35.666797 -1.376026 1.836823 0.030888 -0.013280 -137626.000000 0 0 1
-5.413463 33.472778 -9.968891 35.342768 -1.410457 1.856740 0.039875 -0.014081 -47281.800000 0 0 1
-4.581963 32.363675 -9.219391 33.961729 -1.430154 1.845710 0.048808 -0.024235 102932.000000 0 0 1
-4.005163 32.949262 -8.086091 34.162554 -1.449834 1.809759 0.061191 -0.027013 325971.000000 0 0 1
-3.236663 31.972762 -7.298391 32.954514 -1.469908 1.794117 0.055138 -0.031584 715149.000000 0 0 1
-2.780963 32.562641 -5.919691 33.212981 -1.485600 1.749988 0.062399 -0.028703 -284689.000000 0 0 1
-1.808063 33.580586 -5.993991 34.159227 -1.517006 1.747182 0.054881 -0.025001 -69421.000000 0 0 1
-1.392363 34.017577 -4.703791 34.369461 -1.529888 1.708087 0.059120 -0.028845 -87782.600000 0 0 1
-0.317163 33.186626 -3.991691 33.427329 -1.561240 1.690496 0.060729 -0.026657 -1048530.000000 0 0 1
0.961737 33.323894 -4.546291 33.646331 1.541944 1.706331 0.067825 -0.024057 -992870.000000 0 0 1
1.785337 32.365421 -3.952391 32.654698 1.515690 1.692130 0.059702 -0.022884 -1085740.000000 0 0 1
3.210037 32.601686 -4.398591 33.053319 1.472650 1.704268 0.053032 -0.006974 -972387.000000 0 0 1
3.785137 33.764171 -3.859291 34.194161 1.459157 1.683901 0.048420 -0.007251 -231005.000000 0 0 1
5.186237 33.648384 -4.016091 34.281770 1.417869 1.688215 0.046682 -0.002501 454275.000000 0 0 1
6.044337 -33.326930 -3.623891 34.063923 -1.391382 1.677383 0.052651 -0.005886 333713.000000 0 0 1
6.133037 -32.273050 -4.563491 33.166087 -1.383000 1.708829 0.054131 -0.012029 -192865.000000 0 0 1
6.477937 -31.127500 -3.854891 32.027255 -1.365615 1.691452 0.043669 -0.015613 -45507.500000 0 0 1
6.239537 -29.833180 -4.639591 30.829794 -1.364621 1.721861 0.051358 -0.014159 299594.000000 0 0 1
7.310937 -29.633120 -5.555391 31.023119 -1.328912 1.750840 0.065815 -0.016020 103951.000000 0 0 1
7.009937 -28.613750 -6.495491 30.167487 -1.330543 1.787810 0.052566 -0.010215 68636.400000 0 0 1
7.332037 -27.214730 -5.972991 28.811055 -1.307631 1.779627 0.056582 -0.012332 27308.200000 0 0 1
6.644937 -26.785020 -4.836091 28.017499 -1.327622 1.744275 0.051033 -0.019067 -474660.000000 0 0 1
7.290437 -25.662990 -4.291391 27.021390 -1.294005 1.730286 0.045622 -0.020088 447465.000000 0 0 1
6.417537 -24.812690 -3.294491 25.840047 -1.317703 1.698640 0.037617 -0.021685 1027310.000000 0 0 1
5.249437 -24.141090 -3.790691 24.994362 -1.356681 1.723046 0.047612 -0.029502 328578.000000 0 1 0
4.380237 -23.785690 -2.755791 24.342142 -1.388682 1.684250 0.049703 -0.029809 -63388.400000 0 1 0
3.123337 -23.011090 -3.217791 23.443968 -1.435889 1.708485 0.049579 -0.032122 215793.000000 0 1 0
2.296237 -23.793190 -4.050591 24.244502 -1.474586 1.738656 0.053993 -0.024270 -124736.000000 0 1 0
1.045837 -23.156890 -4.267391 23.570022 -1.525664 1.752852 0.055987 -0.021748 459359.000000 0 1 0
-15.441963 22.838210 18.067391 32.961625 -0.976260 0.990665 0.005701 -0.009185 -113738.000000 0 0 1
-15.487863 22.408910 19.413691 33.450330 -0.966036 0.951609 0.008605 -0.009368 277467.000000 0 0 1
-15.248163 23.470010 20.368191 34.615185 -0.994641 0.941696 0.021967 -0.011066 -949399.000000 0 0 1
-15.340263 22.822610 21.812091 35.099324 -0.979006 0.900218 0.034196 -0.018934 -531071.000000 0 0 1
-14.329663 21.977210 22.318891 34.445173 -0.993000 0.865901 0.032267 -0.018628 548703.000000 0 0 1
-13.012463 22.550310 22.368091 34.324513 -1.047429 0.861019 0.036157 -0.019360 404949.000000 0 0 1
-12.746463 23.605410 23.487541 35.656027 -1.075678 0.851673 0.033147 -0.019803 -518514.000000 0 0 1
-12.356863 23.051010 24.734711 35.997876 -1.078714 0.813284 0.030202 -0.014045 21265.500000 0 0 1
-12.199163 24.049010 25.737641 37.277347 -1.101356 0.808704 0.043739 -0.013052 -149283.000000 0 0 1
-11.707363 23.314010 27.009031 37.551207 -1.105422 0.768062 0.046573 -0.011308 -34573.100000 0 0 1
-10.330763 23.047410 26.872071 36.878394 -1.149407 0.754423 0.027141 -0.007464 -690870.000000 0 0 1
-9.859063 22.299910 27.927371 37.073241 -1.154521 0.717727 0.020676 -0.007741 -970825.000000 0 0 1
-8.336763 22.065810 27.945021 36.569465 -1.209561 0.701054 0.018708 -0.008979 -127535.000000 0 0 1
-7.631763 23.174810 28.442611 37.473961 -1.252669 0.709026 0.024498 -0.009679 -216815.000000 0 0 1
-7.525463 24.229110 27.487191 37.406257 -1.269647 0.745382 0.023323 -0.009788 -1064250.000000 0 0 1
-6.422163 25.246310 27.841341 38.128213 -1.321699 0.752177 0.029901 -0.014170 504553.000000 0 0 1
-5.098163 24.703010 27.892571 37.606189 -1.367275 0.735193 0.033789 -0.015227 -251197.000000 0 0 1
-4.250063 25.719710 28.322491 38.493246 -1.407031 0.743981 0.040322 -0.011639 1400120.000000 0 0 1
-2.705063 25.292010 28.197821 37.975258 -1.464248 0.733955 0.035592 -0.015333 1233890.000000 0 0 1
-2.248163 25.158010 26.882941 36.887291 -1.481671 0.754249 0.029799 -0.023437 3518.230000 0 0 1
-0.879063 24.794710 26.999501 36.667744 -1.535358 0.743168 0.045894 -0.015136 518734.000000 0 0 1
-0.199763 24.656710 25.600321 35.543912 -1.562695 0.766641 0.035699 -0.022462 93985.300000 0 0 1
-0.393663 23.349410 24.995071 34.206776 -1.553938 0.751442 0.029915 -0.018371 -205869.000000 0 0 1
0.180737 23.301510 23.730681 33.258657 1.563040 0.776288 0.022613 -0.010173 23055.200000 0 0 1
-0.233463 22.044110 22.864891 31.761620 -1.560206 0.767152 0.008973 -0.005373 244794.000000 0 0 1
0.291937 20.835110 23.408341 31.339072 1.556785 0.727352 0.027236 -0.004862 -280713.000000 0 0 1
0.043837 19.752610 22.625791 30.034879 1.568577 0.717705 0.023901 0.001822 -98664.300000 0 0 1
0.900237 18.475310 22.869891 29.413932 1.522108 0.680085 0.030358 0.011455 -460183.000000 0 0 1
2.212637 18.674610 22.457391 29.291146 1.452862 0.697118 0.026294 0.003933 -1056370.000000 0 0 1
2.977537 17.483110 22.508091 28.655523 1.402106 0.667339 0.023083 0.007970 -148921.000000 0 0 1
4.273837 17.802210 21.730891 28.415066 1.335182 0.700117 0.016252 0.006097 -370337.000000 0 0 1
5.235037 18.393010 22.563791 29.577577 1.293508 0.703059 0.011438 0.010322 -829666.000000 0 0 1
6.366837 18.738710 21.794691 29.439504 1.243265 0.737248 0.028185 -0.005343 -364542.000000 0 0 1
7.409037 19.456210 22.671091 30.780128 1.206945 0.742842 0.038420 -0.012817 -550344.000000 0 0 1
7.067937 20.710210 23.292551 31.959528 1.241913 0.754208 0.021675 -0.005292 -104154.000000 0 0 1
6.623137 21.762410 22.465491 31.971342 1.275364 0.791645 0.042246 -0.015261 90544.100000 0 0 1
5.549337 22.636910 23.204611 32.888886 1.330392 0.787603 0.024823 -0.011602 348360.000000 0 0 1
5.301137 23.835510 22.518691 33.216337 1.351953 0.825839 0.023663 -0.018374 82717.700000 0 0 1
4.370637 24.620810 23.242061 34.139129 1.395109 0.821936 0.001677 -0.007918 -361162.000000 0 0 1
4.096837 26.016810 22.679891 34.756811 1.414610 0.859877 0.014103 -0.005600 36797.900000 0 0 1
3.524937 26.063210 21.387891 33.899233 1.436366 0.888051 0.019883 -0.015419 1234120.000000 0 0 1
2.324837 25.345310 20.970191 32.977849 1.479326 0.881639 0.003384 -0.015770 715179.000000 0 0 1
1.952037 25.636810 19.497791 32.267946 1.494801 0.921977 0.002353 -0.016482 -943507.000000 0 0 1
1.180137 26.806210 19.318191 33.062942 1.526800 0.946797 0.003546 -0.025174 379995.000000 0 0 1
0.743437 27.134110 18.008091 32.574591 1.543405 0.985044 0.013543 -0.020875 -86093.800000 0 0 1
-0.135463 28.431710 18.022091 33.662683 -1.566032 1.005847 -0.000511 -0.007384 -119224.000000 0 0 1
0.409737 29.722410 18.367991 34.942419 1.557012 1.017300 0.015583 -0.006305 -174732.000000 0 0 1
-0.588863 30.706510 18.476391 35.841506 -1.551622 1.029202 -0.002138 -0.003602 -15275.500000 0 0 1
-0.031263 32.056010 19.029191 37.278665 -1.569821 1.035079 -0.000338 0.006189 -130310.000000 0 0 1
0.565437 31.897010 20.281991 37.803414 1.553071 1.004498 0.007416 -0.005754 -143161.000000 0 0 1
0.805637 33.149410 20.956091 39.226142 1.546498 1.007190 0.019182 -0.007966 -537256.000000 0 0 1
1.248337 32.937610 22.397691 39.850986 1.532914 0.973951 0.031274 -0.030518 -304572.000000 0 0 1
0.336737 32.335510 23.284831 39.848237 1.560383 0.946733 0.027135 -0.019249 -60239.900000 0 0 1
0.772937 32.445710 24.634711 40.745436 1.546978 0.921532 0.038629 -0.021332 747106.000000 0 0 1
-0.429063 32.100810 25.609661 41.067029 -1.557431 0.897449 0.036976 -0.022191 431135.000000 0 0 1
-1.482863 33.028810 25.660981 41.851967 -1.525930 0.910771 0.042961 -0.019741 -458938.000000 0 0 1
-2.263463 32.811910 26.810731 42.433006 -1.501922 0.886876 0.058745 -0.018481 -574751.000000 0 0 1
-1.843663 33.306410 28.214491 43.689513 -1.515498 0.868732 0.078202 -0.030311 -960000.000000 0 0 1
-0.685063 32.646210 28.611151 43.414771 -1.549815 0.851283 0.070352 -0.029004 -427552.000000 0 0 1
-0.109163 33.163710 29.747571 44.550663 -1.567505 0.839648 0.060529 -0.029839 523588.000000 0 0 1
1.153937 32.319010 30.208741 44.254017 1.535107 0.819452 0.044514 -0.019493 1765720.000000 0 0 1
2.458037 32.523710 29.619481 44.058453 1.495363 0.833516 0.032970 -0.026140 1168440.000000 0 0 1
2.681137 32.144310 28.260651 42.884841 1.487580 0.851322 0.041437 -0.025841 -350303.000000 0 0 1
4.163837 31.885310 27.925301 42.589118 1.440943 0.855699 0.031159 -0.019779 -100468.000000 0 0 1
4.667537 30.772410 28.640141 42.296392 1.420264 0.826941 0.040004 -0.024217 567708.000000 0 0 1
6.093437 30.730510 28.648481 42.452676 1.375049 0.830057 0.048489 -0.034711 503203.000000 0 0 1
6.765437 29.472310 29.194341 42.032104 1.345153 0.802971 0.043264 -0.017645 -6087.270000 0 0 1
6.745337 29.580210 30.580501 43.077319 1.346595 0.781443 0.050188 -0.027862 -111329.000000 0 0 1
7.509237 28.634010 31.257341 43.050163 1.314323 0.758210 0.047574 -0.016638 -243794.000000 0 0 1
7.251637 28.552910 32.767276 44.063015 1.322083 0.732289 0.070055 -0.029836 -500297.000000 0 0 1
5.944337 28.207510 33.114690 43.904231 1.363099 0.716288 0.060543 -0.033899 -565051.000000 0 0 1
5.661237 27.964110 -33.644201 44.113187 1.371049 2.438241 0.079412 -0.030908 -40832.100000 0 0 1
5.737537 26.555910 -33.129411 42.844994 1.358012 2.454729 0.074809 -0.031560 90812.500000 0 0 1
7.106037 26.180010 -33.116811 42.809016 1.305752 2.455290 0.065895 -0.027638 224659.000000 0 0 1
7.308237 24.875910 -32.641861 41.685877 1.285049 2.470341 0.072242 -0.032747 30705.700000 0 0 1
8.751637 24.408210 -32.927221 41.911260 1.226522 2.474528 0.074723 -0.027288 -174324.000000 0 0 1
9.045237 24.235210 33.776422 42.544193 1.213581 0.653577 0.046056 -0.013097 -442338.000000 0 0 1
10.327537 23.789510 33.483096 42.352290 1.161225 0.659032 0.057320 -0.029938 -812544.000000 0 0 1
10.403237 22.236310 33.721631 41.711260 1.133199 0.629276 0.047242 -0.026230 -785717.000000 0 0 1
9.825037 21.419310 32.695618 40.302874 1.140731 0.624513 0.026867 -0.019539 168191.000000 0 0 1
9.534437 20.118310 33.128459 39.914242 1.128231 0.591705 0.017143 -0.015845 24387.800000 0 0 1
8.263037 19.956510 34.003068 40.283355 1.178235 0.565917 0.050148 -0.032529 -403651.000000 0 0 1
8.335337 20.432410 -32.813421 39.543417 1.183458 2.549559 0.063380 -0.032137 -617862.000000 0 0 1
7.103037 20.770010 -32.260291 39.020159 1.241279 2.544119 0.073873 -0.038969 -617407.000000 0 0 1
7.156437 21.091210 -30.761781 37.978163 1.243677 2.514925 0.089418 -0.045835 -74759.000000 0 0 1
7.976037 22.192710 -30.446311 38.511185 1.225773 2.482558 0.095935 -0.040551 -38894.100000 0 0 1
7.842437 22.604810 -29.091281 37.666748 1.236853 2.453302 0.077814 -0.034201 811481.000000 0 0 1
9.237537 23.123910 -28.517941 37.859216 1.190738 2.423805 0.085712 -0.046806 1221000.000000 0 0 1
10.067037 21.980710 -28.412531 37.306417 1.141314 2.436573 0.080359 -0.039441 -887593.000000 0 0 1
11.424837 22.292810 -28.560311 37.989309 1.097207 2.421582 0.088319 -0.046612 548734.000000 0 0 1
12.291237 20.904010 -28.543241 37.453554 1.039259 2.437342 0.081341 -0.055051 550983.000000 0 0 1
12.142937 20.000210 -29.656151 37.774947 1.025143 2.473613 0.065364 -0.049605 1187990.000000 0 0 1
10.845737 19.386510 -29.964781 37.300870 1.060729 2.503657 0.068583 -0.040622 1241810.000000 0 0 1
10.894637 18.534810 -31.284121 37.959564 1.039401 2.539484 0.061322 -0.037942 -98303.400000 0 0 1
11.500937 17.230210 -31.013181 37.295698 0.982226 2.552686 0.074083 -0.037023 317955.000000 0 0 1
11.573337 16.363810 -32.175471 37.907484 0.955220 2.584488 0.049832 -0.022318 -127660.000000 0 0 1
12.773337 16.563810 -33.126971 39.177980 0.913890 2.578392 0.041286 -0.005807 -208982.000000 0 0 1
12.676737 17.887110 -33.570271 40.095030 0.954250 2.563063 0.043706 -0.004957 -275270.000000 0 0 1
13.090337 18.090710 33.231752 40.037233 0.944410 0.591651 0.054379 -0.007206 -473118.000000 0 0 1
12.280737 17.627910 32.024071 38.562946 0.962313 0.590906 0.071425 -0.018764 -820018.000000 0 0 1
12.671037 18.321510 30.854931 38.056007 0.965735 0.625318 0.060580 -0.010423 235287.000000 0 0 1
11.989637 17.985210 29.620971 36.669075 0.982813 0.630400 0.046830 -0.017890 783549.000000 0 0 1
10.450937 18.224910 29.541291 36.249928 1.050133 0.618181 0.024175 -0.011842 307602.000000 0 0 1
9.644637 17.307110 30.227471 36.142151 1.062393 0.580206 0.032912 -0.015397 442696.000000 0 0 1
8.238837 17.601010 30.182921 35.898227 1.133002 0.572053 0.031616 -0.011499 542817.000000 0 0 1
7.638037 16.656310 31.183111 36.168476 1.140841 0.531273 0.036137 -0.014424 -620379.000000 0 0 1
8.016537 16.875410 32.560845 37.540018 1.127313 0.520916 0.052706 -0.018430 327367.000000 0 0 1
7.573037 15.787610 33.385577 37.698757 1.123535 0.483037 0.082589 -0.027080 -144601.000000 0 0 1
7.718037 15.911910 -33.221321 37.635264 1.119182 2.652411 0.092761 -0.036389 -153368.000000 0 0 1
6.867137 16.878810 -32.613521 37.358982 1.184399 2.632068 0.089401 -0.039486 211054.000000 0 0 1
6.847237 16.874410 -31.210661 36.134965 1.185320 2.613411 0.097585 -0.048664 -217274.000000 0 0 1
5.759937 17.802010 -30.649341 35.909198 1.257872 2.593507 0.095566 -0.049099 -620590.000000 0 0 1
5.850237 17.942810 -29.221561 34.786051 1.255616 2.568147 0.088151 -0.059812 980724.000000 0 0 1
4.822937 18.824210 -28.677311 34.641013 1.319982 2.546047 0.095290 -0.058089 827875.000000 0 0 1
3.326937 18.514410 -28.763011 34.368047 1.392999 2.562412 0.109775 -0.059402 -1731940.000000 0 0 1
2.858637 17.496110 -27.902411 33.057982 1.408840 2.575577 0.127304 -0.057572 773682.000000 0 0 1
1.473137 17.207510 -28.181101 33.052125 1.485394 2.591787 0.123003 -0.054699 1217690.000000 0 0 1
0.426537 18.323910 -27.868221 33.355440 1.547523 2.559825 0.113942 -0.056897 -1395070.000000 0 0 1
0.049037 18.434410 -26.503331 32.283996 1.568136 2.533857 0.124332 -0.061678 350925.000000 0 0 1
-0.749763 19.598110 -26.226171 32.748437 -1.532558 2.499488 0.126633 -0.057047 60390.800000 0 0 1
-1.023763 20.054310 -24.803991 31.913342 -1.519791 2.461047 0.121482 -0.053794 -744278.000000 0 0 1
-2.032463 19.347210 -24.223991 31.068427 -1.466128 2.464980 0.127118 -0.050976 -548429.000000 0 0 1
-2.602763 19.944910 -23.037291 30.582521 -1.441032 2.423836 0.132579 -0.049674 461128.000000 0 0 1
-3.712863 19.150410 -22.302591 29.629869 -1.379293 2.422960 0.112782 -0.046304 668715.000000 0 0 1
-5.044963 19.389110 -22.746991 30.311959 -1.316245 2.419508 0.099054 -0.038118 445693.000000 0 0 1
-5.934263 18.375010 -22.234291 29.448602 -1.258417 2.426481 0.094313 -0.047070 733679.000000 0 0 1
-7.446463 18.735010 -22.336891 30.089651 -1.192479 2.407359 0.094608 -0.036202 413144.000000 0 0 1
-7.892963 19.580510 -21.309191 29.996281 -1.187618 2.360855 0.066289 -0.019219 -173467.000000 0 0 1
-7.849763 20.936510 -21.662091 31.132016 -1.212085 2.340349 0.075607 -0.027710 -3142.350000 0 0 1
-8.299963 21.927410 -20.532591 31.165494 -1.208943 2.290051 0.069566 -0.035024 453206.000000 0 0 1
-7.385563 21.943610 -19.429191 30.225189 -1.246136 2.268963 0.085427 -0.036127 319259.000000 0 0 1
-7.756463 22.963710 -18.506991 30.495957 -1.245058 2.222909 0.099129 -0.030895 409407.000000 0 0 1
-6.782863 23.086210 -17.281191 29.624650 -1.285032 2.193629 0.108434 -0.036291 1100250.000000 0 0 1
-5.427463 23.479510 -17.518791 29.793503 -1.343629 2.199389 0.102168 -0.037633 517938.000000 0 0 1
-4.768063 23.811410 -16.258891 29.224463 -1.373167 2.160777 0.095792 -0.035848 690488.000000 0 0 1
-3.253563 24.123210 -16.407691 29.355191 -1.436733 2.163899 0.091029 -0.035033 483709.000000 0 0 1
-2.958963 25.467110 -16.763591 30.632453 -1.455127 2.149871 0.064584 -0.038244 4977.850000 0 0 1
-1.571263 25.619710 -17.000291 30.787145 -1.509543 2.155783 0.065311 -0.049711 305161.000000 0 0 1
-1.233563 27.160010 -17.024991 32.078624 -1.525409 2.130254 0.058129 -0.063586 -273375.000000 0 0 1
-2.030663 27.874910 -17.923791 33.202357 -1.498076 2.141037 0.070817 -0.063401 24979.500000 0 0 1
-1.398263 29.087810 -18.288491 34.387857 -1.522763 2.131556 0.078936 -0.064882 -481547.000000 0 0 1
-2.318663 29.868210 -19.283091 35.627570 -1.493322 2.142708 0.119656 -0.065319 661767.000000 0 0 1
-3.476663 30.477710 -18.748291 35.951028 -1.457215 2.119399 0.103103 -0.056781 75957.800000 0 0 1
-4.506863 29.595510 -18.338391 35.107017 -1.419675 2.120409 0.069859 -0.051434 -431038.000000 0 0 1
-5.725763 30.235610 -17.614891 35.457875 -1.383641 2.090685 0.093768 -0.038795 432318.000000 0 0 1
-6.253963 31.347110 -18.290591 36.827966 -1.373875 2.090531 0.113296 -0.040377 -84800.800000 0 0 1
-6.095763 32.524710 -17.508691 37.437540 -1.385526 2.057458 0.106300 -0.060257 11243.700000 0 0 1
-6.786363 33.825610 -18.039191 38.931209 -1.372797 2.052580 0.094778 -0.034494 254707.000000 0 0 1
-8.196563 33.679110 -18.048291 39.079495 -1.332065 2.050860 0.098048 -0.050563 -11076.300000 0 0 1
-8.732063 -33.248981 -17.952991 38.782129 1.313970 2.052082 0.131956 -0.041251 -146340.000000 0 0 1
29.564537 -20.395790 -26.291181 44.511529 -0.603897 2.202673 0.057962 -0.016342 166938.000000 0 0 1
29.020637 -21.643490 -25.901891 44.514559 -0.640805 2.191828 0.063976 -0.027672 533627.000000 0 0 1
27.596737 -21.716290 -26.075931 43.739356 -0.666711 2.209514 0.053847 -0.023840 835835.000000 0 0 1
27.072237 -23.084690 -25.449771 43.743568 -0.706064 2.191730 0.066049 -0.023143 58232.500000 0 0 1
27.581237 -24.267690 -26.039541 45.030024 -0.721577 2.187404 0.071574 -0.011503 1684230.000000 0 0 1
28.963837 -24.706490 -25.758571 45.965405 -0.706240 2.165653 0.066414 -0.009934 1981920.000000 0 0 1
29.356137 -26.043650 -26.387781 47.290268 -0.725677 2.162765 0.068155 -0.013015 101086.000000 0 0 1
28.714037 -27.122740 -25.726341 47.137920 -0.756907 2.148101 0.070376 -0.015526 -347722.000000 0 0 1
28.874337 -28.397270 -26.313841 48.296485 -0.777068 2.146994 0.057578 -0.008257 506340.000000 0 0 1
27.863037 -28.828710 -27.461521 48.596074 -0.802430 2.171348 0.066834 -0.011980 -248637.000000 0 0 1
27.926137 -28.193000 -28.750731 49.003253 -0.790153 2.197787 0.043597 -0.008285 296170.000000 0 0 1
29.069737 -28.351770 -29.613511 50.257661 -0.772895 2.200906 0.028755 -0.006480 286489.000000 0 0 1
29.360237 -29.819620 -30.015791 51.499329 -0.793160 2.193014 0.031313 -0.002514 -843625.000000 0 0 1
29.827537 -30.657330 -28.956491 51.652998 -0.799116 2.165902 0.040610 -0.002641 1890060.000000 0 0 1
31.182737 -30.402180 -28.408001 51.996828 -0.772724 2.148786 0.046770 -0.001300 1842830.000000 0 0 1
32.391037 -30.375530 -29.361231 53.234706 -0.753298 2.155009 0.047849 -0.013389 -741591.000000 0 0 1
32.477737 -29.110110 -29.998391 52.934916 -0.730773 2.173295 0.057406 -0.020243 46945.600000 0 0 1
33.622937 -28.976650 -30.830811 54.043381 -0.711312 2.177890 0.057117 -0.019695 210173.000000 0 0 1
33.618937 -27.769420 -31.725881 53.924995 -0.690398 2.199793 0.054132 -0.015162 120187.000000 0 0 1
33.624237 -26.436360 -31.090241 52.877911 -0.666288 2.199334 0.050207 -0.006776 -486270.000000 0 0 1
32.429137 -26.121450 -30.424861 51.571806 -0.678082 2.201795 0.060908 -0.011950 -404662.000000 0 0 1
32.333237 -24.912490 -29.515701 50.371092 -0.656487 2.196867 0.058600 -0.017022 -634269.000000 0 0 1
32.941537 -25.032590 -28.296201 50.124349 -0.649813 2.170648 0.051594 -0.014109 -286630.000000 0 0 1
33.035237 -23.716790 -27.825731 49.275595 -0.622654 2.170861 0.044626 -0.013881 100244.000000 0 0 1
33.973637 -23.505390 -26.579721 49.124260 -0.605250 2.142507 0.045936 -0.014086 -334397.000000 0 0 1
33.721237 -24.165690 -25.342481 48.614233 -0.621801 2.119167 0.046046 -0.016600 446259.000000 0 0 1
32.567137 -23.695790 -24.615891 47.202234 -0.629009 2.119402 0.057498 -0.010346 543265.000000 0 0 1
32.813237 -22.487290 -23.704791 46.306628 -0.600800 2.108202 0.043871 -0.010524 -47373.800000 0 0 1
33.278537 -21.353690 -24.425491 46.476291 -0.570494 2.124155 0.050095 -0.017350 96354.800000 0 0 1
33.361737 -20.212290 -23.567791 45.573928 -0.544712 2.114294 0.025125 -0.023732 86507.800000 0 0 1
33.555537 -18.886190 -24.387291 45.578527 -0.512643 2.135376 0.011216 -0.017442 -98938.800000 0 0 1
32.397737 -18.629490 -25.124171 45.032157 -0.521853 2.162669 0.023287 -0.020332 169063.000000 0 0 1
32.545037 -17.306790 -25.528091 44.837348 -0.488747 2.176510 0.020365 -0.023213 519664.000000 0 0 1
31.580837 -17.144090 -26.762821 44.805330 -0.497348 2.210943 0.026834 -0.016712 118479.000000 0 0 1
30.222537 -16.937090 -26.499211 43.617369 -0.510802 2.223754 0.030982 -0.010709 -128533.000000 0 0 1
29.489437 -16.766490 -27.723031 43.809913 -0.516980 2.255964 0.029204 -0.010784 -619207.000000 0 0 1
28.011737 -16.480490 -27.570781 42.619384 -0.531804 2.274318 0.024640 -0.006864 97321.000000 0 0 1
27.161437 -17.502790 -26.960971 42.083075 -0.572427 2.266155 0.030181 -0.007055 751951.000000 0 0 1
27.037237 -17.223790 -25.553671 40.995868 -0.567210 2.243782 0.027229 -0.007212 -217972.000000 0 0 1
26.436437 -18.367990 -24.728891 40.592934 -0.607226 2.225838 0.037997 -0.012388 -320219.000000 0 0 1
26.237037 -17.896990 -23.430891 39.467594 -0.598630 2.206413 0.032040 0.000149 -29586.900000 0 0 1
25.732637 -18.977790 -22.672791 39.196690 -0.635452 2.187607 0.041764 -0.007551 -278377.000000 0 0 1
25.702537 -18.601890 -21.188691 38.152474 -0.626480 2.159603 0.035924 -0.015989 -204564.000000 0 0 1
24.700737 -17.745190 -20.712491 36.797084 -0.622973 2.168667 0.027592 -0.014420 -167811.000000 0 0 1
24.711637 -16.383990 -21.160891 36.426411 -0.585465 2.190657 0.028917 -0.013687 -149020.000000 0 0 1
25.967237 -15.565490 -20.768591 36.713978 -0.539999 2.172061 0.019759 -0.007628 53468.400000 0 0 1
25.961937 -14.981390 -19.494191 35.755946 -0.523375 2.147426 0.018546 -0.003687 -212619.000000 0 0 1
26.949437 -14.007590 -19.383591 36.030658 -0.479341 2.138829 0.003712 0.002578 -571537.000000 0 0 1
26.864937 -12.954190 -18.242691 34.961859 -0.449304 2.119742 0.017062 -0.002059 -241450.000000 0 0 1
27.192137 -13.511490 -16.949191 34.774239 -0.461156 2.079913 0.021635 -0.000481 250638.000000 0 0 1
26.803537 -12.639090 -15.942991 33.650485 -0.440626 2.064377 0.021574 -0.002799 -72212.600000 0 0 1
27.574037 -12.740590 -14.615291 33.708409 -0.432830 2.019258 0.031563 -0.010705 -384773.000000 0 0 1
27.182037 -13.843490 -13.851991 33.501984 -0.471051 1.997056 0.055864 -0.013177 -171922.000000 0 0 1
27.801437 -14.037990 -12.629091 33.607722 -0.467590 1.956034 0.071138 -0.016303 -616233.000000 0 0 1
27.391237 -15.238990 -11.772191 33.482699 -0.507702 1.930066 0.067765 -0.028862 887348.000000 0 0 1
26.020637 -15.135690 -11.309491 32.156915 -0.526840 1.930180 0.064549 -0.039362 1318840.000000 0 0 1
25.536337 -16.377190 -10.826991 32.210876 -0.570255 1.913599 0.052921 -0.035817 -246344.000000 0 0 1
24.049937 -16.511690 -10.486791 31.000131 -0.601648 1.915887 0.049855 -0.032535 -421526.000000 0 0 1
23.644937 -15.916590 -9.227091 29.959307 -0.592478 1.883873 0.042193 -0.023001 430201.000000 0 0 1
22.255937 -15.946090 -8.966991 28.809919 -0.621706 1.887301 0.043155 -0.018491 -185906.000000 0 0 1
21.902937 -15.532490 -7.539091 27.889689 -0.616841 1.844520 0.040603 -0.014659 -402085.000000 0 0 1
22.145137 -14.165090 -7.257191 27.271297 -0.569063 1.840153 0.057626 -0.010531 424480.000000 0 0 1
21.833837 -13.799890 -5.888891 26.492120 -0.563647 1.794957 0.055203 -0.010369 239133.000000 0 0 1
22.757637 -14.468990 -4.778491 27.387874 -0.566318 1.746169 0.051195 -0.009709 1508260.000000 0 0 1
24.172237 -14.172990 -4.868191 28.440639 -0.530310 1.742814 0.056341 -0.013670 1041970.000000 0 0 1
24.949837 -15.048890 -4.110791 29.425534 -0.542744 1.710956 0.052439 -0.021150 -451211.000000 0 0 1
26.427237 -14.809390 -4.464491 30.621047 -0.510780 1.717116 0.060801 -0.024961 -471931.000000 0 0 1
26.912537 -13.574490 -3.947991 30.399639 -0.467156 1.701034 0.063951 -0.019322 237058.000000 0 0 1
28.281037 -13.479990 -4.316091 31.625240 -0.444789 1.707700 0.070031 -0.032198 27512.700000 0 0 1
29.041137 -12.370890 -3.594491 31.770220 -0.402699 1.684179 0.083451 -0.036624 -1266600.000000 0 0 1
29.250837 -12.518890 -2.197691 31.893007 -0.404395 1.639759 0.085900 -0.042465 476388.000000 0 0 1
29.848037 -11.378590 -1.544691 31.980676 -0.364210 1.619116 0.087497 -0.042015 578500.000000 0 0 1
31.340637 -11.087990 -1.891491 33.297999 -0.340047 1.627632 0.090378 -0.029857 -148041.000000 0 0 1
31.418537 -10.489890 -3.161191 33.273944 -0.322239 1.665945 0.085821 -0.022383 47995.100000 0 0 1
32.561537 -10.915990 -3.862991 34.559155 -0.323467 1.682810 0.112781 -0.025370 -244593.000000 0 0 1
32.343637 -10.718890 -5.347191 34.490548 -0.320015 1.726458 0.110273 -0.017942 -581229.000000 0 0 1
31.304337 -11.453690 -5.872091 33.847156 -0.350753 1.745167 0.094929 -0.024593 -388763.000000 0 0 1
31.082237 -11.331990 -7.313691 33.882289 -0.349605 1.788365 0.096693 -0.017987 672348.000000 0 0 1
29.784337 -12.069290 -7.820291 33.074634 -0.385001 1.809501 0.073759 -0.021834 600644.000000 0 0 1
29.869337 -13.491090 -7.877391 33.708160 -0.424242 1.806671 0.079222 -0.022895 254732.000000 0 0 1
28.634537 -14.087590 -8.245791 32.960430 -0.457210 1.823655 0.078983 -0.026639 237742.000000 0 0 1
28.582737 -15.653290 -8.181991 33.599751 -0.501036 1.816783 0.081394 -0.040612 -523869.000000 0 0 1
29.383937 -16.079490 -9.220491 34.741663 -0.500707 1.839417 0.086133 -0.045520 -73321.300000 0 0 1
29.588637 -17.428690 -9.175791 35.544926 -0.532317 1.831899 0.087186 -0.046416 -88526.500000 0 0 1
30.052337 -17.933690 -10.563391 36.556058 -0.538025 1.863941 0.074285 -0.047318 -227253.000000 0 0 1
31.285037 -17.395690 -10.980391 37.442389 -0.507468 1.868432 0.075517 -0.040042 192559.000000 0 0 1
31.707337 -17.833690 -12.272691 38.392898 -0.512349 1.896167 0.076204 -0.026833 96862.300000 0 0 1
31.004737 -17.102690 -13.501891 37.895867 -0.504083 1.935090 0.060700 -0.022891 -156417.000000 0 0 1
31.469237 -15.851290 -13.867991 37.866838 -0.466609 1.945751 0.060258 -0.019083 100247.000000 0 0 1
30.661737 -15.160790 -14.810891 37.274041 -0.459200 1.979425 0.053718 -0.015842 -362727.000000 0 0 1
31.428737 -14.006990 -15.578991 37.771235 -0.419251 1.995945 0.047428 -0.002947 1031170.000000 0 0 1
32.429637 -14.430090 -16.548491 39.163265 -0.418660 2.007055 0.027822 -0.002495 1210660.000000 0 0 1
33.737037 -14.585290 -16.012591 40.091413 -0.408057 1.981661 0.040246 -0.004169 -231434.000000 0 0 1
34.769437 -15.008390 -17.056091 41.534031 -0.407494 1.993967 0.040806 -0.005673 520917.000000 0 0 1
36.107737 -15.137490 -16.527791 42.498001 -0.396974 1.970242 0.051438 -0.003895 638245.000000 0 0 1
-36.499608 -15.791490 -17.415291 43.415261 0.408331 1.983550 0.062039 -0.014281 -643553.000000 0 0 1
-35.051708 -15.560690 -17.004791 41.951403 0.417799 1.988152 0.082470 -0.013825 -581048.000000 0 0 1
-34.553708 -16.375190 -15.883691 41.405280 0.442555 1.964504 0.065948 -0.013980 71684.200000 0 0 1
-35.190808 -16.242790 -14.652391 41.435658 0.432428 1.932232 0.052593 -0.012663 -644095.000000 0 0 1
-34.578008 -17.081590 -13.454791 40.846674 0.458837 1.906462 0.040216 -0.013193 1118540.000000 0 0 1
-33.241008 -16.611390 -13.102991 39.402935 0.463428 1.909790 0.071950 -0.015764 1467470.000000 0 0 1
-32.781008 -17.212790 -11.907791 38.893060 0.483513 1.881961 0.074310 -0.012054 88514.200000 0 0 1
-31.314608 -16.921190 -11.504591 37.407044 0.495413 1.883415 0.089537 -0.017377 -35970.900000 0 0 1
-30.947008 -15.594090 -11.147491 36.402740 0.466760 1.882023 0.077328 -0.030280 889410.000000 0 0 1
-29.595608 -15.543990 -10.666591 35.089768 0.483614 1.879664 0.097735 -0.033418 693500.000000 0 0 1
-29.505708 -15.583190 -9.154891 34.601079 0.485907 1.838569 0.094210 -0.030276 -174418.000000 0 0 1
-29.790408 -16.890290 -8.703291 35.334085 0.515779 1.819672 0.071005 -0.026553 -39144.800000 0 0 1
-29.772908 -16.965490 -7.325291 35.041601 0.517940 1.781395 0.090722 -0.027859 -203753.000000 0 0 1
-29.940808 -18.346890 -6.705391 35.749442 0.549758 1.759480 0.075493 -0.031739 -168036.000000 0 0 1
-31.123008 -18.966690 -7.132791 37.138305 0.547310 1.764057 0.070947 -0.029828 -194252.000000 0 0 1
-31.013208 -19.564990 -8.443791 37.628520 0.562802 1.797122 0.061187 -0.022250 -257912.000000 0 0 1
-32.292908 -20.289190 -8.901591 39.162756 0.560959 1.800098 0.060889 -0.025900 328501.000000 0 0 1
-33.406608 -19.460090 -9.206691 39.742417 0.527469 1.804579 0.056590 -0.029061 481190.000000 0 0 1
-34.590408 -20.182690 -9.439691 41.145414 0.528181 1.802281 0.050459 -0.029659 789864.000000 0 0 1
-35.945708 -19.444190 -9.680491 41.998599 0.495855 1.803383 0.056902 -0.038332 497155.000000 0 0 1
-36.198508 -19.061090 -11.034191 42.372285 0.484678 1.834244 0.049333 -0.031743 960461.000000 0 0 1
35.894037 -18.728090 -11.189591 42.003930 -0.480904 1.840446 0.078090 -0.041775 789528.000000 0 0 1
35.513137 -18.594690 -12.686991 42.046463 -0.482349 1.877311 0.059720 -0.029941 -247717.000000 0 0 1
35.216737 -19.804690 -13.357191 42.554187 -0.512288 1.890080 0.052339 -0.020487 -27719.000000 0 0 1
34.828337 -19.584190 -14.681591 42.568799 -0.512242 1.922919 0.043520 -0.018519 165934.000000 0 0 1
33.563937 -20.433490 -15.018191 42.066749 -0.546860 1.935860 0.058878 -0.029697 -490419.000000 0 0 1
32.459237 -20.080090 -14.165591 40.712111 -0.554002 1.926175 0.071045 -0.030583 118226.000000 0 0 1
31.397237 -20.988690 -14.411891 40.422941 -0.589263 1.935345 0.074908 -0.028511 398133.000000 0 0 1
30.611837 -20.744190 -15.774591 40.202533 -0.595570 1.974012 0.060837 -0.032667 -809124.000000 0 0 1
29.900237 -19.485990 -15.709191 38.993674 -0.577570 1.985441 0.054347 -0.025810 453266.000000 0 0 1
29.194137 -19.311490 -16.925191 38.880501 -0.584407 2.021182 0.035815 -0.025255 -256098.000000 0 0 1
28.434537 -17.999490 -16.987191 37.697071 -0.564342 2.038260 0.026341 -0.023425 -357640.000000 0 0 1
27.388337 -17.946890 -16.057191 36.469785 -0.580074 2.026715 0.038387 -0.024865 64819.400000 0 0 1
26.848937 -16.643390 -15.828191 35.332696 -0.554916 2.035296 0.031526 -0.006580 -1489640.000000 0 0 1
25.498537 -16.614290 -15.143791 33.993299 -0.577484 2.032522 0.037961 -0.014162 -1154340.000000 0 0 1
24.493237 -17.090990 -15.951291 33.859478 -0.609237 2.061337 0.048155 -0.019503 -344285.000000 0 0 1
23.929337 -16.197190 -16.903291 33.476609 -0.595037 2.100095 0.031135 -0.012339 -547201.000000 0 0 1
22.872737 -16.869390 -17.825091 33.548059 -0.635474 2.130966 0.022300 -0.014806 1265730.000000 0 0 1
21.582337 -17.088090 -17.185791 32.452295 -0.669698 2.128891 0.035210 -0.004969 763299.000000 0 0 1
20.742337 -17.624590 -18.175191 32.729318 -0.704315 2.159542 0.042017 -0.014225 -547248.000000 0 0 1
19.265037 -17.763890 -17.841391 31.701934 -0.744881 2.168548 0.054484 -0.010341 -762142.000000 0 0 1
18.555037 -16.584090 -17.821091 30.609029 -0.729367 2.192249 0.069970 -0.009738 -56461.600000 0 0 1
17.187737 -16.933890 -17.643591 29.890989 -0.777959 2.202183 0.078887 -0.010961 887163.000000 0 0 1
16.229237 -15.668290 -17.385391 28.480436 -0.767814 2.227403 0.084678 -0.009520 314444.000000 0 0 1
15.478437 -15.127990 -18.435691 28.430842 -0.773949 2.276330 0.085794 -0.007541 40852.700000 0 0 1
14.235337 -14.754590 -17.892491 27.211835 -0.803308 2.288327 0.082124 -0.003011 123638.000000 0 0 1
13.140837 -14.287390 -18.898391 27.091701 -0.827176 2.342798 0.064857 -0.003205 253728.000000 0 0 1
13.476337 -13.115090 -19.589891 27.154761 -0.771814 2.376642 0.075926 -0.014227 289390.000000 0 0 1
12.568237 -12.923590 -20.663291 27.421731 -0.799337 2.424222 0.060957 -0.003204 165050.000000 0 0 1
12.808637 -11.454490 -21.158691 27.257232 -0.729645 2.459507 0.067806 0.004329 780998.000000 0 0 1
14.145937 -11.248090 -21.665791 28.214066 -0.671774 2.446364 0.074497 0.003221 814448.000000 0 0 1
14.354937 -9.919190 -22.062891 28.128734 -0.604657 2.472451 0.065244 0.002926 207774.000000 0 0 1
15.611037 -9.673190 -22.948291 29.392161 -0.554734 2.466681 0.061494 0.001915 222372.000000 0 0 1
15.673837 -10.346990 -24.226291 30.653589 -0.583473 2.482135 0.073558 0.003430 166930.000000 0 0 1
16.853537 -9.902090 -24.870991 31.633199 -0.531206 2.475482 0.074865 -0.008637 181754.000000 0 0 1
22.352337 5.221010 -7.101691 24.027482 0.229464 1.870844 0.137930 0.011037 -165591.000000 0 1 0
22.230437 6.570210 -7.065991 24.234030 0.287369 1.866667 0.121328 0.000389 626644.000000 0 1 0
21.801137 6.986710 -5.780791 23.611887 0.310133 1.818136 0.114960 -0.004248 -334184.000000 0 1 0
21.434937 8.446010 -5.750991 23.745852 0.375349 1.815418 0.098972 -0.005964 -657417.000000 0 1 0
20.254237 8.772210 -6.446691 22.994469 0.408716 1.854964 0.067355 -0.020861 336868.000000 0 1 0
20.082837 10.141910 -6.667391 23.465566 0.467643 1.858901 0.084732 -0.013333 -303346.000000 0 1 0
19.751837 11.051310 -5.479391 23.287126 0.510114 1.808320 0.105523 -0.013834 -354679.000000 0 1 0
20.729637 11.197610 -4.437691 23.974933 0.495268 1.756967 0.113659 -0.012446 467917.000000 0 1 0
20.412637 12.247110 -3.551691 24.068277 0.540403 1.718905 0.137288 -0.031709 185491.000000 0 1 0
21.452137 12.400210 -2.387591 24.892970 0.524117 1.666858 0.123617 -0.042388 -398389.000000 0 1 0
22.720437 12.840510 -2.872191 26.255408 0.514402 1.680410 0.117572 -0.050728 99636.800000 0 0 1
23.615237 13.014410 -1.843491 27.026889 0.503689 1.639059 0.120604 -0.055132 -652883.000000 0 0 1
24.259437 11.686010 -1.344891 26.960932 0.448909 1.620700 0.106040 -0.054522 -1607730.000000 0 0 1
25.342837 11.318110 -2.147691 27.838311 0.420023 1.648022 0.092729 -0.040636 -297621.000000 0 0 1
26.073337 10.279910 -1.580291 28.071209 0.375556 1.627122 0.109166 -0.046471 -56519.300000 0 0 1
27.555637 10.201710 -2.028491 29.453400 0.354575 1.639722 0.107501 -0.040692 347106.000000 0 0 1
28.341437 11.369110 -1.740991 30.586349 0.381496 1.627748 0.097904 -0.047416 1706630.000000 0 0 1
29.735237 11.009810 -1.973691 31.769414 0.354610 1.632962 0.096060 -0.043629 1610370.000000 0 0 1
30.804637 12.081510 -1.593691 33.127457 0.373762 1.618923 0.084558 -0.039895 -168382.000000 0 0 1
30.871837 12.466810 -0.243391 33.294908 0.383799 1.578107 0.102087 -0.038340 129846.000000 0 0 1
31.851137 13.424810 0.041009 34.564753 0.398891 1.569610 0.097398 -0.037445 -1157510.000000 0 0 1
33.265137 12.939410 0.299809 35.694363 0.370969 1.562397 0.104425 -0.033141 -511455.000000 0 0 1
34.290137 13.882710 0.573809 36.998275 0.384689 1.555287 0.094529 -0.036417 379321.000000 0 0 1
34.969637 14.441810 -0.560991 37.838553 0.391647 1.585623 0.097758 -0.026589 -539884.000000 0 0 1
34.321737 15.458910 -1.520991 37.673239 0.423196 1.611181 0.045660 -0.003921 -195713.000000 0 0 1
33.331837 14.866010 -2.373491 36.573803 0.419523 1.635738 0.075247 -0.013213 99687.900000 0 0 1
32.888837 15.870210 -3.236691 36.660814 0.449583 1.659199 0.051482 -0.005276 405908.000000 0 0 1
31.476337 15.663910 -3.873091 35.371156 0.461758 1.680515 0.075512 -0.020765 -182887.000000 0 0 1
31.420437 14.654510 -4.882491 35.011958 0.436409 1.710704 0.060714 -0.023368 812919.000000 0 0 1
30.145037 14.481010 -5.524491 33.896060 0.447827 1.734510 0.050153 -0.029942 812238.000000 0 0 1
28.993837 13.888910 -4.651491 32.483546 0.446731 1.714486 0.068130 -0.036850 -496681.000000 0 0 1
27.895237 13.615810 -5.480491 31.520950 0.454087 1.745553 0.078670 -0.040766 95164.200000 0 0 1
26.886437 12.823310 -4.857991 30.181415 0.445033 1.732459 0.082474 -0.025322 985049.000000 0 0 1
25.664637 12.573310 -5.827691 29.167168 0.455541 1.771953 0.083200 -0.018660 158753.000000 0 0 1
26.067937 11.681510 -6.842391 29.373684 0.421288 1.805899 0.080009 -0.010059 331075.000000 0 0 1
25.231037 11.399310 -7.977191 28.812932 0.424347 1.851323 0.084112 -0.010873 -228728.000000 0 0 1
24.887237 12.595510 -8.883191 29.273409 0.468518 1.879114 0.095640 -0.003744 -498695.000000 0 0 1
24.085137 13.531010 -8.274591 28.838358 0.511857 1.861817 0.098628 -0.014628 -282107.000000 0 0 1
24.118237 14.788210 -8.949391 29.672750 0.550036 1.877170 0.096117 -0.017425 -917126.000000 0 0 1
22.999537 15.730110 -8.480691 29.126228 0.599860 1.866246 0.089497 -0.014695 1036170.000000 0 0 1
21.623937 15.465810 -8.817291 28.009472 0.620866 1.891039 0.124778 -0.025964 1318990.000000 0 0 1
21.048537 14.357410 -8.128191 26.744039 0.598618 1.879607 0.129886 -0.035211 -1522680.000000 0 0 1
19.549237 14.202810 -8.240691 25.530403 0.628300 1.899461 0.133163 -0.028079 -801269.000000 0 0 1
18.781337 14.950210 -7.306291 25.092415 0.672306 1.866251 0.181802 -0.054843 982175.000000 0 0 1
17.387937 14.714210 -7.582391 24.007103 0.702302 1.892138 0.182079 -0.051552 712437.000000 0 1 0
16.447337 15.082710 -6.414091 23.219466 0.742145 1.850674 0.155109 -0.032393 -113216.000000 0 1 0
16.439837 14.059410 -5.430091 22.302940 0.707507 1.816738 0.117918 -0.038634 532339.000000 0 1 0
15.799037 14.660510 -4.290791 21.976146 0.748037 1.767306 0.087070 -0.028346 -7969.170000 0 1 0
15.557437 13.609210 -3.209291 20.917552 0.718701 1.724830 0.066472 -0.019020 -1055160.000000 0 1 0
16.768437 13.265410 -2.605991 21.539331 0.669287 1.692081 0.060565 -0.017558 127384.000000 0 1 0
16.661837 12.404810 -1.533391 20.829004 0.639975 1.644481 0.055393 -0.020911 -173384.000000 0 1 0
16.752437 13.069610 -0.155891 21.248133 0.662527 1.578133 0.067623 -0.024657 -1209410.000000 0 1 0
15.763537 13.983210 0.044509 21.071811 0.725620 1.568684 0.062179 -0.027307 -407293.000000 0 1 0
15.972037 14.795810 1.159309 21.802889 0.747188 1.517599 0.065158 -0.020836 -556444.000000 0 1 0
14.761537 15.695110 1.435909 21.594010 0.816041 1.504252 0.053629 -0.007541 -383210.000000 0 1 0
14.510937 16.672010 0.503109 22.108286 0.854591 1.548038 0.051394 -0.011255 518451.000000 0 1 0
13.537237 17.550310 1.080709 22.190946 0.913778 1.522077 0.036519 -0.009839 162333.000000 0 1 0
13.520837 18.912110 0.379109 23.251337 0.950120 1.554491 0.038209 -0.012101 -255138.000000 0 1 0
13.138137 18.823110 -0.976591 22.975505 0.961428 1.613315 0.044930 -0.026541 72625.300000 0 1 0
12.739537 20.126410 -1.469091 23.864753 1.006482 1.632394 0.055921 -0.022285 628221.000000 0 1 0
11.202037 20.399010 -1.377591 23.313151 1.068609 1.629921 0.047017 -0.024674 518227.000000 0 1 0
10.722637 20.387210 -0.052091 23.035104 1.086606 1.573058 0.035517 -0.024263 -889629.000000 0 1 0
9.343637 20.516110 0.009809 22.543612 1.143437 1.570361 0.035407 -0.017654 -237410.000000 0 1 0
8.614337 20.347010 1.383309 22.138680 1.170306 1.508272 0.028188 -0.018184 219288.000000 0 1 0
8.414637 21.558010 2.039709 23.231753 1.198658 1.482885 0.031889 -0.015466 86410.400000 0 1 0
7.453537 21.431210 3.054509 22.895022 1.236093 1.436984 0.028028 -0.020842 -271735.000000 0 1 0
6.926037 22.768910 3.602309 24.070104 1.275501 1.420573 0.027493 -0.013860 114698.000000 0 1 0
7.629137 23.172010 4.770409 24.857647 1.252735 1.377689 0.030016 -0.013873 183370.000000 0 1 0
7.204937 24.447310 5.183909 26.008749 1.284197 1.370138 0.026457 -0.013315 -78399.400000 0 0 1
7.759437 24.904810 6.557009 26.897078 1.268765 1.324533 0.032276 -0.013725 33225.500000 0 0 1
7.247837 24.198810 7.663409 26.397754 1.279787 1.276250 0.038589 -0.024117 185259.000000 0 0 1
8.014437 24.508910 8.796109 27.244989 1.254756 1.242055 0.046754 -0.017564 -41968.200000 0 0 1
7.447437 23.687310 9.936109 26.744705 1.266176 1.190154 0.050392 -0.021277 -574034.000000 0 0 1
6.161237 24.027110 10.339909 26.873344 1.319776 1.175844 0.050804 -0.022348 -605437.000000 0 0 1
5.658337 23.061910 11.185609 26.248549 1.330195 1.130572 0.048092 -0.026240 -748850.000000 0 0 1
4.345637 23.413810 11.870309 26.608181 1.387283 1.108377 0.042050 -0.030616 -677013.000000 0 0 1
3.311937 23.488510 10.927109 26.116676 1.430717 1.139118 0.031855 -0.026364 -790492.000000 0 0 1
2.094437 23.629510 11.583609 26.399251 1.482391 1.116550 0.029349 -0.025879 100882.000000 0 0 1
0.779537 23.724410 10.736309 26.052325 1.537950 1.146033 0.053295 -0.024374 456050.000000 0 0 1
0.719637 24.947710 9.992709 26.884203 1.541959 1.189963 0.055647 -0.026549 118021.000000 0 0 1
-0.212063 24.823410 8.935109 26.383382 -1.562254 1.225299 0.062892 -0.030436 654399.000000 0 0 1
-1.647963 25.352510 9.223309 27.028411 -1.505886 1.222555 0.072031 -0.034025 551826.000000 0 0 1
-2.522863 24.546810 10.022209 26.633727 -1.468378 1.184999 0.067016 -0.031912 1155350.000000 0 0 1
-3.824563 25.192210 10.046909 27.390055 -1.420131 1.195220 0.075259 -0.034193 927740.000000 0 0 1
-4.936063 24.263410 10.624209 26.943490 -1.370099 1.165475 0.072010 -0.034330 40485.900000 0 0 1
-5.099663 24.194610 12.049909 27.506109 -1.363060 1.117333 0.067103 -0.024742 -85585.200000 0 0 1
-5.705363 25.292510 12.653609 28.850929 -1.348934 1.116772 0.065366 -0.021964 -299250.000000 0 0 1
-6.201263 25.145210 14.097709 29.486992 -1.329003 1.072307 0.047872 -0.022689 423951.000000 0 0 1
-7.448463 24.473410 14.260109 29.287850 -1.275354 1.062265 0.056952 -0.023509 331919.000000 0 0 1
-7.828363 24.422510 15.638309 30.038292 -1.260605 1.023228 0.049575 -0.012334 626573.000000 0 0 1
-9.165563 23.648610 15.889509 29.928930 -1.201049 1.011125 0.045731 -0.013240 1441090.000000 0 0 1
-10.368063 24.280710 15.411409 30.570593 -1.167226 1.042427 0.037144 -0.003231 853416.000000 0 0 1
-11.534463 23.471810 15.507109 30.404608 -1.114038 1.035582 0.025541 -0.004665 1165130.000000 0 0 1
-12.857963 24.269510 15.191109 31.386401 -1.083595 1.065573 0.017126 -0.001862 521686.000000 0 0 1
-13.150063 25.256810 16.191909 32.756809 -1.090762 1.053759 0.021079 -0.005233 223292.000000 0 0 1
-14.091963 26.170910 15.619509 33.577806 -1.076857 1.086966 0.023035 0.001202 -20043.500000 0 0 1
-14.690163 27.171010 16.672809 35.100531 -1.075155 1.075830 0.037236 -0.000662 -64098.600000 0 0 1
-15.812463 26.555010 17.256209 35.397448 -1.033721 1.061574 0.028819 -0.007554 -281450.000000 0 0 1
-16.215063 27.258010 18.442509 36.688603 -1.034155 1.044104 0.048002 -0.014115 -324155.000000 0 0 1
-17.413763 26.577610 19.109309 37.077948 -0.990771 1.029343 0.040558 -0.025461 96233.900000 0 0 1
-18.603563 26.814410 18.362809 37.447269 -0.964250 1.058288 0.041216 -0.015427 -35274.800000 0 0 1
-19.700363 26.111110 18.900609 37.777340 -0.924433 1.046833 0.044217 -0.018213 558241.000000 0 0 1
-21.039563 26.377910 18.137009 38.306768 -0.897508 1.077573 0.045404 -0.018155 163039.000000 0 0 1
-21.527963 27.685610 18.122309 39.476123 -0.909872 1.093848 0.042891 -0.020474 -23398.400000 0 0 1
-22.469563 27.831610 17.089509 39.642542 -0.891596 1.125096 0.048312 -0.022988 -578448.000000 0 0 1
-23.349463 29.050410 17.140109 41.023251 -0.893769 1.139758 0.057957 -0.022685 -538134.000000 0 0 1
-24.488763 28.973010 17.962109 41.973471 -0.869080 1.128584 0.061687 -0.021675 23528.800000 0 0 1
-25.392373 29.980810 17.547109 43.029323 -0.868073 1.150759 0.052368 -0.021700 -394146.000000 0 0 1
-26.824913 29.872710 18.043709 44.017386 -0.839102 1.148427 0.056249 -0.017447 -484722.000000 0 0 1
-27.625293 28.819910 17.525809 43.599290 -0.806559 1.157124 0.073005 -0.014539 443158.000000 0 0 1
-28.957903 28.978010 18.024709 44.756848 -0.785745 1.156304 0.109395 -0.026125 457259.000000 0 0 1
-29.350653 27.800010 18.943009 44.644586 -0.758272 1.132600 0.102224 -0.029434 -480219.000000 0 0 1
-29.684823 26.629910 18.194609 43.833602 -0.731204 1.142762 0.100463 -0.025271 160502.000000 0 0 1
-29.855043 25.476310 19.044709 43.624156 -0.706426 1.119021 0.097898 -0.024032 -147528.000000 0 0 1
-29.871243 24.196210 18.182309 42.524630 -0.680819 1.128992 0.102749 -0.023387 2158080.000000 0 0 1
-31.183743 24.089510 17.468209 43.103001 -0.657748 1.153526 0.110954 -0.022283 2362420.000000 0 0 1
-31.143793 23.158310 16.405909 42.135461 -0.639388 1.170858 0.100575 -0.020805 -114522.000000 0 0 1
-31.258713 21.651710 16.644009 41.508153 -0.605784 1.158208 0.099110 -0.023496 -482601.000000 0 0 1
-32.490863 21.241810 17.160309 42.442278 -0.579026 1.154560 0.110234 -0.016207 -304990.000000 0 0 1
-32.666013 19.856610 16.982509 41.830121 -0.546184 1.152737 0.092157 -0.011398 -118999.000000 0 0 1
-33.988193 19.436510 16.335109 42.424180 -0.519472 1.175543 0.104234 -0.028508 -309268.000000 0 0 1
-34.022443 19.640810 14.909609 42.018859 -0.523553 1.208063 0.080316 -0.021059 -252395.000000 0 0 1
-35.269002 19.311710 14.363609 42.698454 -0.500964 1.227709 0.111608 -0.026024 -333636.000000 0 0 1
-35.448381 19.864710 12.896609 42.632347 -0.510781 1.263474 0.107123 -0.017369 -136124.000000 0 0 1
-35.495216 21.304310 12.858509 43.348879 -0.540568 1.269636 0.097507 -0.024734 2655.390000 0 0 1
-35.611540 21.874010 11.571709 43.365408 -0.550824 1.300682 0.062877 -0.021965 655908.000000 0 0 1
-34.434137 21.566910 10.550109 41.977926 -0.559550 1.316747 0.076215 -0.025603 415501.000000 0 0 1
-34.695576 20.292010 9.954009 41.408103 -0.529212 1.328031 0.103859 -0.025926 -193767.000000 0 0 1
-33.616603 19.754410 9.256209 40.074807 -0.531281 1.337718 0.115495 -0.019852 -48906.400000 0 0 1
-32.774893 18.692010 10.080609 39.053855 -0.518306 1.309720 0.091570 -0.024645 119101.000000 0 0 1
-32.205913 19.220310 11.232909 39.151238 -0.538059 1.279796 0.092909 -0.025424 1101.800000 0 0 1
-31.734853 18.109610 11.989409 38.455232 -0.518562 1.253735 0.084280 -0.030607 36788.600000 0 0 1
-31.245953 18.523110 13.442109 38.731196 -0.535121 1.216360 0.070791 -0.018570 1499000.000000 0 0 1
-29.943693 19.171110 13.565909 38.055094 -0.569482 1.206298 0.079967 -0.015102 1157460.000000 0 0 1
-30.046413 20.527210 13.305309 38.745123 -0.599350 1.220255 0.074794 -0.008497 412597.000000 0 0 1
-28.771943 21.379210 13.632309 38.350166 -0.639043 1.207380 0.086271 -0.014656 270248.000000 0 0 1
-28.420023 21.306310 14.968509 38.544946 -0.643305 1.171968 0.087968 -0.013860 -255614.000000 0 0 1
-27.299793 22.106910 15.231609 38.288329 -0.680678 1.161664 0.094996 -0.017461 -372771.000000 0 0 1
-26.763313 21.885110 16.662809 38.378148 -0.685458 1.121675 0.092959 -0.020612 159825.000000 0 0 1
-25.834973 20.793110 16.812709 37.181534 -0.677687 1.101589 0.101212 -0.023160 418124.000000 0 0 1
-25.442783 20.554610 18.168409 37.415483 -0.679525 1.063764 0.099709 -0.018289 193588.000000 0 0 1
-24.299363 19.481710 18.180209 36.062669 -0.675799 1.042424 0.107866 -0.021494 306034.000000 0 0 1
-23.851663 19.330110 19.494609 36.367497 -0.681069 1.005051 0.103655 -0.030762 -786668.000000 0 0 1
-22.717363 18.551210 19.581009 35.265308 -0.684787 0.982135 0.090791 -0.023156 -691789.000000 0 0 1
-22.038863 18.616310 20.967509 35.663917 -0.701411 0.942312 0.091186 -0.033720 -368254.000000 0 0 1
-22.549163 17.817010 22.007309 36.197131 -0.668700 0.917276 0.122906 -0.016713 62844.500000 0 0 1
-23.607363 18.404710 22.759309 37.603552 -0.662188 0.920724 0.103691 -0.032095 -80141.900000 0 0 1
-24.400963 17.348010 23.486909 38.052535 -0.618041 0.905588 0.106570 -0.035817 -562278.000000 0 0 1
-23.803263 16.846110 24.653809 38.186347 -0.615890 0.868963 0.098076 -0.026304 -178162.000000 0 0 1
-24.483063 15.741710 25.191209 38.494400 -0.571413 0.857391 0.097609 -0.023832 97424.300000 0 0 1
20.735437 25.072410 33.692204 46.837471 0.879794 0.767940 0.093305 -0.025088 -277153.000000 0 0 1
21.735037 24.419510 32.972106 46.431498 0.843495 0.781122 0.097008 -0.031113 -375010.000000 0 0 1
21.935237 23.088910 33.387587 46.140907 0.811016 0.761792 0.100548 -0.028097 176909.000000 0 0 1
20.873537 22.073510 32.855869 44.748771 0.813332 0.746265 0.077072 -0.026862 150324.000000 0 0 1
21.024537 21.585910 31.528171 43.612019 0.798572 0.762771 0.089643 -0.020879 -618867.000000 0 0 1
20.116337 20.581010 31.259741 42.490191 0.796815 0.744107 0.106695 -0.015147 -737267.000000 0 0 1
20.215337 19.869510 29.901431 41.201369 0.776771 0.758689 0.105082 -0.004432 448949.000000 0 0 1
21.462937 19.176910 29.717341 41.370664 0.729207 0.769413 0.088151 -0.002795 413928.000000 0 0 1
21.503737 18.383610 28.544581 40.189064 0.707334 0.780933 0.081172 -0.001339 -61542.500000 0 0 1
22.638837 17.334210 28.646941 40.418300 0.653464 0.783055 0.081633 -0.001182 580778.000000 0 0 1
23.963237 17.873410 28.576981 41.356249 0.640851 0.807931 0.087066 -0.008371 274453.000000 0 0 1
24.873137 16.787910 28.559631 41.426554 0.593709 0.810130 0.071613 -0.000782 868923.000000 0 0 1
26.333937 17.288610 28.904861 42.753517 0.580941 0.828365 0.058028 -0.017177 748696.000000 0 0 1
27.269937 17.134410 27.851191 42.578472 0.560987 0.857785 0.054389 -0.011214 488484.000000 0 0 1
28.499437 17.718210 28.320011 43.910999 0.556226 0.869850 0.059762 -0.010898 732730.000000 0 0 1
29.702637 17.441710 27.381681 44.002458 0.530963 0.899149 0.057087 0.013282 7128.260000 0 0 1
29.741837 18.399910 26.336211 43.780470 0.554023 0.925354 0.061056 0.003653 3572.530000 0 0 1
30.631437 18.068810 25.306381 43.648364 0.532944 0.952340 0.058258 0.004624 -316822.000000 0 0 1
31.169837 19.271410 24.470201 44.065141 0.553746 0.982050 0.069809 -0.004542 -386192.000000 0 0 1
30.155837 19.934510 23.788531 43.274165 0.584104 0.988771 0.062067 -0.011349 -24634.500000 0 0 1
30.661437 20.924010 22.919791 43.626307 0.598830 1.017651 0.048850 -0.013181 -165386.000000 0 0 1
31.088337 20.394210 21.498891 42.948932 0.580587 1.046541 0.063617 -0.011536 551226.000000 0 0 1
30.006537 20.056510 20.593591 41.554203 0.589205 1.052289 0.074351 -0.017566 741538.000000 0 0 1
30.383337 19.774010 19.254691 41.047555 0.576950 1.082545 0.080303 -0.026453 -480156.000000 0 0 1
31.252337 18.536710 18.997391 41.002671 0.535353 1.089057 0.109382 -0.048860 -200218.000000 0 0 1
30.785437 17.278910 19.378091 40.271755 0.511454 1.068792 0.104012 -0.040735 1084120.000000 0 0 1
31.956237 16.441110 19.578991 40.924907 0.475171 1.071950 0.121707 -0.031458 131814.000000 0 0 1
31.625037 14.923210 19.670591 40.122030 0.440899 1.058398 0.124888 -0.027734 -131112.000000 0 0 1
30.997137 14.455610 20.809991 40.035520 0.436370 1.024193 0.098918 -0.031915 1393300.000000 0 0 1
29.670837 14.997510 21.065091 39.357616 0.468008 1.006025 0.089098 -0.014145 388712.000000 0 0 1
28.885937 14.610210 22.294491 39.305215 0.468269 0.967677 0.056382 -0.013703 -99821.900000 0 0 1
28.500137 13.207010 22.322891 38.535624 0.433943 0.952952 0.056579 -0.010478 245829.000000 0 0 1
27.854837 12.962510 23.575831 38.726456 0.435553 0.916276 0.046802 0.002928 -89722.400000 0 0 1
27.338637 11.527510 23.820761 38.048826 0.399035 0.894309 0.058666 -0.003635 366553.000000 0 0 1
26.353737 11.170610 22.835391 36.616349 0.400915 0.897407 0.050998 -0.004042 426823.000000 0 0 1
26.274937 9.739910 22.697191 36.061068 0.354989 0.890003 0.042092 0.002208 -35042.800000 0 0 1
25.119537 9.267710 21.752791 34.497326 0.353451 0.888516 0.032523 -0.012724 291072.000000 0 0 1
23.830837 9.537010 22.306391 34.006446 0.380676 0.855361 0.041618 -0.011275 320369.000000 0 0 1
22.930937 8.848810 21.446391 32.620193 0.368283 0.853357 0.038037 -0.000586 -367403.000000 0 0 1
21.453537 9.019910 21.831991 31.910011 0.398001 0.817326 0.033973 -0.001340 -269687.000000 0 0 1
21.030137 8.139310 22.869391 32.117348 0.369276 0.778372 0.041129 -0.001005 1546750.000000 0 0 1
19.599437 8.152410 23.131781 31.395525 0.394181 0.742492 0.076986 -0.005445 1252480.000000 0 0 1
19.190437 7.425510 24.420461 31.933837 0.369196 0.700189 0.081839 -0.006172 -178348.000000 0 0 1
19.442637 6.042910 24.370971 31.756528 0.301342 0.695971 0.069421 -0.018554 413524.000000 0 0 1
18.967537 5.507810 25.602741 32.335797 0.282609 0.657084 0.083440 -0.022122 21430.400000 0 0 1
18.872137 3.946310 25.551681 32.009675 0.206137 0.646414 0.076102 -0.025884 1311320.000000 0 0 1
20.208037 3.442310 25.244231 32.519001 0.168724 0.682035 0.077358 -0.023792 1427730.000000 0 0 1
20.488437 2.165110 25.625391 32.880456 0.105284 0.677168 0.074113 -0.023502 1380020.000000 0 0 1
22.011937 1.736810 25.412521 33.665087 0.078740 0.715351 0.070980 -0.024853 2136090.000000 0 0 1
22.967037 2.263610 26.357531 35.033243 0.098242 0.719162 0.073194 -0.031956 1209590.000000 0 0 1
24.306337 2.403010 25.872021 35.579965 0.098543 0.756633 0.068529 -0.026273 1092060.000000 0 0 1
25.266137 2.921010 27.003981 37.096158 0.115099 0.755476 0.047491 -0.019486 -339580.000000 0 0 1
25.450637 1.965410 28.008371 37.895469 0.077071 0.739070 0.043717 -0.019949 349563.000000 0 0 1
26.389637 2.339110 29.000551 39.279973 0.088406 0.740244 0.046906 -0.009639 513251.000000 0 0 1
27.901037 2.493710 28.718751 40.117989 0.089140 0.772945 0.061356 -0.013176 -657907.000000 0 0 1
28.254237 3.759610 28.156271 40.065099 0.132286 0.791522 0.058471 -0.002399 907480.000000 0 0 1
29.647037 3.846510 27.830961 40.844887 0.129023 0.821148 0.060350 0.001969 881892.000000 0 0 1
30.354637 2.927510 26.771731 40.579550 0.096146 0.850331 0.067553 -0.002020 -341173.000000 0 0 1
29.768937 3.041110 25.487161 39.306912 0.101804 0.865297 0.050144 0.009869 121669.000000 0 0 1
29.987137 1.875010 24.672301 38.877583 0.062446 0.883286 0.061250 0.011168 208160.000000 0 0 1
29.367937 2.145910 23.244091 37.514909 0.072940 0.902568 0.062037 -0.001079 528037.000000 0 0 1
30.035137 3.183710 22.537891 37.685567 0.105605 0.929729 0.054726 0.003485 -184452.000000 0 0 1
31.344837 3.054810 22.052491 38.446625 0.097151 0.959918 0.044811 0.003221 116853.000000 0 0 1
32.037737 4.341110 21.575291 38.868432 0.134680 0.982331 0.075616 -0.003654 -225964.000000 0 0 1
31.514437 4.742710 20.297291 37.784031 0.149372 1.003692 0.061121 -0.001516 381038.000000 0 0 1
32.171937 5.913410 19.811391 38.242556 0.181777 1.026232 0.095537 -0.003246 -525277.000000 0 0 1
33.642337 5.894210 19.361891 39.261066 0.173442 1.055081 0.087829 -0.008366 -629399.000000 0 0 1
34.551837 5.622410 20.382091 40.507660 0.161310 1.043538 0.097228 -0.014826 -57774.800000 0 0 1
34.879737 6.759010 21.154891 41.349845 0.191408 1.033742 0.110934 -0.015871 -865892.000000 0 0 1
35.672637 6.460210 22.447291 42.639796 0.179155 1.016388 0.109161 -0.020904 121756.000000 0 0 1
34.943537 5.699710 23.416561 42.448472 0.161688 0.986459 0.106293 -0.010493 652080.000000 0 0 1
35.605337 5.771310 24.688551 43.710097 0.160694 0.970575 0.103050 -0.011681 93100.300000 0 0 1
34.960237 4.834210 25.701381 43.659463 0.137406 0.941373 0.101576 -0.002771 23456.900000 0 0 1
35.127937 3.473210 25.355461 43.461874 0.098553 0.947893 0.085020 -0.003361 21683.000000 0 0 1
34.455937 2.618210 26.263451 43.403173 0.075841 0.920899 0.084223 0.001312 -54493.100000 0 0 1
34.536637 1.103810 25.958651 43.218621 0.031950 0.926500 0.073312 -0.000741 -34025.000000 0 0 1
33.526937 0.707710 25.037991 41.850416 0.021106 0.929452 0.069195 -0.004002 138415.000000 0 0 1
33.715237 -0.560490 24.508251 41.685557 -0.016623 0.942297 0.077920 -0.014481 185574.000000 0 0 1
32.613037 -0.954290 23.470871 40.192071 -0.029253 0.947189 0.082771 -0.005220 346622.000000 0 0 1
31.376837 -1.275190 24.082831 39.574167 -0.040619 0.916565 0.071119 -0.008226 -258011.000000 0 0 1
30.603437 -1.959290 23.110191 38.399089 -0.063935 0.924991 0.079647 -0.011473 22343.400000 0 0 1
29.129237 -2.193690 23.473091 37.474134 -0.075167 0.893894 0.081650 -0.002358 52582.700000 0 0 1
28.359637 -1.010690 23.600761 36.909164 -0.035623 0.877042 0.058683 -0.001553 1135660.000000 0 0 1
26.945837 -1.301490 23.440871 35.738584 -0.048263 0.855425 0.055668 -0.000418 1081810.000000 0 0 1
26.019537 -0.116590 23.473861 35.043573 -0.004481 0.836793 0.062354 -0.006142 -371168.000000 0 0 1
26.178837 0.718210 22.287091 34.388395 0.027428 0.865711 0.044500 -0.009317 215702.000000 0 0 1
25.240237 1.782210 22.279191 33.713620 0.070493 0.848864 0.051672 -0.007731 87071.500000 0 0 1
25.274937 2.850410 21.101591 33.048818 0.112302 0.878252 0.038610 -0.007609 -429682.000000 0 0 1
24.967537 2.369510 19.824091 31.968532 0.094620 0.901910 0.041592 -0.009701 315934.000000 0 0 1
24.255837 3.415610 19.180691 31.111266 0.139896 0.906482 0.043428 -0.009949 98210.400000 0 0 1
23.913637 3.106210 17.714691 29.921912 0.129170 0.937220 0.048150 -0.011895 -597013.000000 0 0 1
24.959237 3.498110 16.887991 30.338169 0.139246 0.980439 0.039965 -0.008101 -302730.000000 0 0 1
24.732537 3.584910 15.487691 29.400995 0.143945 1.015995 0.042795 -0.006711 -493956.000000 0 0 1
24.227337 2.315010 14.669991 28.417103 0.095264 1.028344 0.042025 0.001721 932879.000000 0 0 1
22.845537 2.004410 14.911691 27.354976 0.087513 0.994266 0.061872 0.003881 946166.000000 0 0 1
22.441537 0.942810 14.024191 26.479981 0.041987 1.012650 0.074398 -0.002949 68929.000000 0 0 1
20.936637 0.593110 14.019791 25.204148 0.028321 0.980931 0.102616 -0.016812 168952.000000 0 0 1
19.980637 1.337610 13.255191 24.014894 0.066846 0.986087 0.116265 -0.018103 927535.000000 0 1 0
19.796337 1.019510 11.862991 23.101188 0.051454 1.031511 0.111323 -0.011237 -452223.000000 0 1 0
19.471737 -0.465790 11.440691 22.588822 -0.023917 1.039704 0.106648 -0.002730 61426.600000 0 1 0
20.577237 -1.343990 11.398691 23.561815 -0.065222 1.065830 0.119766 -0.020373 438794.000000 0 1 0
21.561937 -1.182690 10.381691 23.960287 -0.054796 1.122659 0.114180 -0.024273 7644.040000 0 1 0
22.771237 -2.121990 10.606291 25.209630 -0.092919 1.136553 0.125781 -0.032255 -251542.000000 0 0 1
23.422537 -1.779790 11.786191 26.281118 -0.075840 1.105748 0.122991 -0.032349 -51011.800000 0 0 1
24.429137 -2.719590 12.148591 27.418372 -0.110869 1.111763 0.087155 -0.023443 219398.000000 0 0 1
24.802437 -2.545290 13.674791 28.436583 -0.102265 1.069130 0.088569 -0.011911 -5869.520000 0 0 1
25.493737 -1.384090 14.049791 29.141773 -0.054238 1.067725 0.065267 -0.010252 21419.100000 0 0 1
25.753237 -1.402690 15.451091 30.065477 -0.054413 1.031054 0.042015 -0.005426 -1459.710000 0 0 1
26.852537 -0.464590 15.961091 31.241494 -0.017300 1.034572 0.059163 -0.003819 -237071.000000 0 0 1
28.184237 -0.796890 15.683291 32.263785 -0.028267 1.063180 0.066319 -0.008177 -412320.000000 0 0 1
29.045937 0.245810 16.036691 33.179848 0.008463 1.066346 0.049361 -0.008241 477391.000000 0 0 1
30.541637 -0.248690 15.968891 34.465329 -0.008142 1.089045 0.059564 -0.006762 644656.000000 0 0 1
30.973937 -0.565790 14.670791 34.277353 -0.018265 1.128515 0.085997 -0.007928 672714.000000 0 0 1
32.315337 -1.071790 14.697491 35.516840 -0.033154 1.144153 0.090529 -0.013530 454659.000000 0 0 1
32.733837 -1.991190 13.525291 35.473968 -0.060755 1.179623 0.092782 -0.014843 -181232.000000 0 0 1
32.988937 -1.368190 12.273591 35.224748 -0.041450 1.214894 0.099965 -0.013940 97345.900000 0 0 1
33.783737 -2.156890 11.441991 35.733908 -0.063757 1.244856 0.092823 -0.017156 -147355.000000 0 0 1
33.964337 -1.709890 10.014891 35.451346 -0.050301 1.284400 0.134380 -0.024304 -189405.000000 0 0 1
34.515637 -0.427090 9.789591 35.879627 -0.012373 1.294447 0.100475 -0.017639 459897.000000 0 0 1
33.501137 0.556610 9.651591 34.868168 0.016613 1.290332 0.110636 -0.025551 -106475.000000 0 0 1
33.997937 1.977410 9.296991 35.301613 0.058097 1.304294 0.105388 -0.026582 -106043.000000 0 0 1
34.365237 2.026710 7.925991 35.325605 0.058907 1.344500 0.105481 -0.023105 375593.000000 0 0 1
34.978337 3.287910 7.625791 35.950620 0.093723 1.357054 0.095578 -0.021627 112225.000000 0 0 1
35.521237 3.486910 6.189191 36.224617 0.097851 1.399098 0.093199 -0.016984 -105388.000000 0 0 1
35.786837 4.844110 5.902291 36.592350 0.134542 1.408790 0.070952 -0.008675 11757.400000 0 0 1
36.307537 4.830310 4.590991 36.914039 0.132262 1.446104 0.074977 -0.009090 -396395.000000 0 0 1
36.699237 6.208510 3.969191 37.431725 0.167586 1.464558 0.077301 -0.013421 438879.000000 0 0 1
35.622737 7.170410 3.915591 36.547585 0.198633 1.463454 0.087946 -0.019694 174822.000000 0 0 1
36.007437 8.419510 3.446491 37.138954 0.229700 1.477863 0.078814 -0.021343 -1035550.000000 0 0 1
34.796237 9.373210 3.465291 36.202809 0.263129 1.474931 0.110019 -0.034736 155626.000000 0 0 1
33.726837 9.167710 2.572491 35.045173 0.265410 1.497325 0.122703 -0.042221 161055.000000 0 0 1
33.014037 7.964410 2.779891 34.074715 0.236720 1.489123 0.140323 -0.036026 -1036070.000000 0 0 1
31.761137 7.823610 1.860691 32.763407 0.241518 1.513974 0.165707 -0.050018 399072.000000 0 0 1
32.119737 7.620410 0.513291 33.015324 0.232943 1.555249 0.171103 -0.054959 969642.000000 0 0 1
30.933137 7.513810 -0.301309 31.834055 0.238290 1.580261 0.188863 -0.052923 648322.000000 0 0 1
31.281237 7.314510 -1.748709 32.172594 0.229703 1.625177 0.155169 -0.045252 81824.700000 0 0 1
30.112337 6.945910 -2.456409 31.000523 0.226701 1.650117 0.162224 -0.039014 970823.000000 0 0 1
30.488437 6.783510 -3.851809 31.470577 0.218928 1.693498 0.138524 -0.032838 -250900.000000 0 0 1
29.373237 6.129210 -4.662709 30.366019 0.205715 1.724956 0.143467 -0.027050 -534616.000000 0 0 1
29.260937 4.695910 -4.497209 29.974637 0.159127 1.721399 0.146998 -0.030092 796219.000000 0 0 1
28.017037 4.221010 -4.998009 28.770668 0.149534 1.745401 0.126033 -0.032435 30369.200000 0 0 1
27.895337 2.670510 -5.031509 28.470994 0.095442 1.748453 0.143750 -0.027235 -601057.000000 0 0 1
27.499437 2.131410 -3.802409 27.842777 0.077353 1.707792 0.141528 -0.036514 500517.000000 0 0 1
27.312537 0.679110 -3.905909 27.598768 0.024859 1.712798 0.125696 -0.032898 -162473.000000 0 0 1
27.326937 0.011410 -2.495409 27.440639 0.000418 1.661861 0.133382 -0.034991 -261424.000000 0 0 1
28.570737 0.266710 -1.908209 28.635631 0.009335 1.637483 0.139846 -0.039400 -13200.500000 0 0 1
28.558937 -0.008190 -0.523609 28.563737 -0.000287 1.589129 0.145936 -0.034109 -260623.000000 0 0 1
29.853537 0.483710 0.139991 29.857783 0.016201 1.566108 0.159225 -0.030127 526688.000000 0 0 1
31.046837 -0.182990 -0.323209 31.049058 -0.005894 1.581206 0.141521 -0.028329 293834.000000 0 0 1
32.131237 0.390910 0.327391 32.135282 0.012165 1.560608 0.112563 -0.022978 -977142.000000 0 0 1
-2.304963 -21.182290 -8.145591 22.811245 1.462407 1.935943 0.031215 -0.001614 296172.000000 0 1 0
-2.976163 -21.593490 -6.966091 22.883679 1.433832 1.880119 0.040316 -0.009056 39622.900000 0 1 0
-2.581463 -22.910590 -6.762791 24.026952 1.458594 1.856119 0.046048 -0.004431 95019.100000 0 1 0
-3.267263 -23.465590 -5.488291 24.319339 1.432449 1.798433 0.050575 -0.003177 -186518.000000 0 1 0
-2.958663 -22.713290 -4.324691 23.309873 1.441264 1.757408 0.053742 -0.009349 -71514.000000 0 1 0
-3.364463 -23.410290 -3.185591 23.864393 1.428056 1.704683 0.062719 -0.016455 -184508.000000 0 1 0
-2.886063 -22.697890 -1.884691 22.958127 1.444324 1.652981 0.063548 -0.027066 -22871.100000 0 1 0
-1.490463 -22.610390 -1.747391 22.726737 1.504972 1.647759 0.072884 -0.028140 -626574.000000 0 1 0
-1.144963 -22.461590 -0.409091 22.494473 1.519866 1.588984 0.069074 -0.030622 135134.000000 0 1 0
0.373237 -22.435590 -0.146691 22.439173 -1.554162 1.577334 0.057756 -0.032708 428814.000000 0 1 0
1.122137 -21.376290 -0.786291 21.420159 -1.518350 1.607513 0.030235 -0.028374 494248.000000 0 1 0
2.295237 -21.037990 -0.038991 21.162860 -1.462127 1.572639 0.024101 -0.026691 349389.000000 0 1 0
3.047637 -19.803990 -0.540191 20.044398 -1.418104 1.597749 0.024683 -0.032030 -117708.000000 0 1 0
3.702637 -20.270590 -1.675891 20.674016 -1.390128 1.651948 0.025383 -0.026565 35704.000000 0 1 0
4.770037 -19.372390 -2.076891 20.058819 -1.329370 1.674522 0.031605 -0.024762 550489.000000 0 1 0
5.525337 -19.992090 -3.287091 21.000428 -1.301151 1.727968 0.033356 -0.015127 -1003150.000000 0 1 0
6.352437 -21.044690 -2.935191 22.177641 -1.277639 1.703535 0.036694 -0.017576 -70951.700000 0 1 0
7.162537 -21.568890 -3.993791 23.075296 -1.250177 1.744749 0.041200 -0.019526 437542.000000 0 1 0
8.415537 -20.859990 -4.570391 22.953189 -1.187337 1.771254 0.061677 -0.014207 -282239.000000 0 1 0
8.256637 -19.761290 -5.427691 22.093901 -1.175024 1.819002 0.048796 -0.015677 -73158.100000 0 1 0
9.454037 -19.462690 -6.121191 22.486531 -1.118612 1.846491 0.064457 -0.009715 -475870.000000 0 1 0
9.267637 -18.268690 -7.056591 21.666324 -1.101329 1.902542 0.056265 -0.000969 -284593.000000 0 1 0
10.461737 -17.902890 -7.694891 22.117250 -1.041956 1.926141 0.066954 0.000849 72860.400000 0 1 0
10.295737 -16.660490 -8.364891 21.296608 -1.017266 1.974449 0.062094 0.001106 67873.000000 0 1 0
10.821337 -16.748190 -9.816291 22.225273 -0.997154 2.028258 0.058171 0.003431 -75863.600000 0 1 0
10.033737 -17.502890 -10.754091 22.862141 -1.050269 2.060527 0.059221 -0.001645 391626.000000 0 1 0
9.054137 -16.673390 -11.376191 22.122320 -1.073321 2.110918 0.038036 -0.015967 128773.000000 0 1 0
8.306937 -17.258590 -12.560991 22.905078 -1.122203 2.151238 0.050011 -0.022561 -38337.800000 0 1 0
7.359737 -18.283990 -12.263791 23.213586 -1.188116 2.127396 0.046921 -0.016158 111616.000000 0 1 0
6.673037 -18.553790 -13.450391 23.868086 -1.225543 2.169449 0.050229 -0.018855 -203829.000000 0 1 0
5.620637 -19.683990 -13.316491 24.420891 -1.292655 2.147532 0.049717 -0.007227 -20679.100000 0 1 0
6.079037 -21.003890 -13.310991 25.598839 -1.289070 2.117629 0.064733 -0.008213 217611.000000 0 0 1
5.013337 -21.895890 -12.947191 25.926690 -1.345714 2.093676 0.074830 -0.009777 842802.000000 0 0 1
5.604637 -23.280290 -12.653291 27.083013 -1.334546 2.056922 0.055102 -0.019108 -91196.100000 0 0 1
5.968637 -24.203490 -13.664991 28.428252 -1.329018 2.072230 0.073596 -0.016826 235489.000000 0 0 1
5.165437 -25.398750 -13.779291 29.353825 -1.370159 2.059431 0.062836 -0.004430 392016.000000 0 0 1
3.695137 -25.286080 -14.205991 29.237818 -1.425690 2.078163 0.075314 -0.004746 56344.300000 0 0 1
2.738237 -25.046890 -13.182891 28.436477 -1.461904 2.052840 0.071612 -0.005458 524225.000000 0 0 1
1.371737 -25.148120 -13.587191 28.616802 -1.516304 2.065530 0.058103 -0.011398 936593.000000 0 0 1
0.681137 -26.302420 -12.814691 29.265979 -1.544906 2.024024 0.054328 -0.004991 -463715.000000 0 0 1
1.145737 -27.477970 -13.404291 30.594551 -1.529124 2.024310 0.064808 -0.001495 168931.000000 0 0 1
0.518537 -28.681640 -12.964591 31.479929 -1.552719 1.995265 0.052810 -0.003171 2115350.000000 0 0 1
-0.985763 -28.958190 -13.466591 31.951487 1.536769 2.005862 0.030426 -0.002817 2648730.000000 0 0 1
-2.093563 -28.242980 -12.872091 31.108514 1.496805 1.997399 0.041797 -0.001233 643038.000000 0 0 1
-3.324463 -28.815270 -13.263891 31.895182 1.455933 1.999683 0.041879 -0.000034 90644.600000 0 0 1
-4.565363 -28.133480 -12.628191 31.173810 1.409924 1.987873 0.036385 -0.006267 140450.000000 0 0 1
-4.862863 -28.294200 -11.254791 30.836334 1.400591 1.944413 0.034434 -0.009194 -133673.000000 0 0 1
-5.145063 -29.621060 -10.785691 31.940726 1.398816 1.915246 0.037988 -0.007881 -772536.000000 0 0 1
-5.524163 -29.697010 -9.311991 31.609206 1.386881 1.869831 0.039413 -0.008407 987336.000000 0 0 1
-6.812963 -29.098850 -8.986491 31.207636 1.340807 1.862890 0.047685 -0.003827 1045850.000000 0 0 1
-6.957463 -27.697680 -9.143891 29.986305 1.324695 1.880667 0.055610 -0.004854 -613701.000000 0 0 1
-8.420463 -27.227020 -8.934991 29.867187 1.270858 1.874606 0.046969 -0.005387 1170620.000000 0 0 1
-9.479363 -27.439630 -9.894891 30.670841 1.238170 1.899288 0.063113 -0.009906 564603.000000 0 0 1
-9.695563 -28.678600 -10.487791 32.038411 1.244783 1.904295 0.056287 -0.014953 -1205130.000000 0 0 1
-11.019463 -28.915150 -11.178991 32.901129 1.206691 1.917474 0.081992 -0.018320 -641457.000000 0 0 1
-11.201463 -28.167010 -12.369291 32.739160 1.192291 1.958230 0.092191 -0.021320 291376.000000 0 0 1
-12.200463 -28.834310 -13.152491 33.959634 1.170516 1.968495 0.097742 -0.022335 393151.000000 0 0 1
-12.676363 -28.062660 -14.401991 33.994417 1.146516 2.008276 0.099920 -0.025012 148488.000000 0 0 1
-13.619263 -26.984360 -14.274591 33.427593 1.103388 2.012002 0.100773 -0.031637 217516.000000 0 0 1
-13.229763 -25.780520 -13.578191 32.000455 1.096669 2.008999 0.097704 -0.024898 -237593.000000 0 0 1
-14.191063 -24.599890 -13.761091 31.558018 1.047554 2.022009 0.112266 -0.022668 -388036.000000 0 0 1
-13.931263 -23.934890 -14.975991 31.483954 1.043681 2.066523 0.105766 -0.025759 351118.000000 0 0 1
-14.765063 -22.794390 -15.112091 31.080003 0.996005 2.078569 0.110537 -0.026902 -151145.000000 0 0 1
-14.541263 -22.157590 -16.517191 31.228588 0.990029 2.128115 0.108089 -0.022508 -559105.000000 0 0 1
-13.408463 -21.369390 -16.554591 30.174363 1.010429 2.151522 0.105035 -0.022115 -509368.000000 0 0 1
-13.235463 -20.802290 -17.859791 30.444784 1.004148 2.197686 0.081610 -0.024113 -196001.000000 0 0 1
-13.337563 -19.286190 -17.889691 29.493876 0.965757 2.222518 0.090264 -0.013668 -303525.000000 0 0 1
-12.154563 -18.530690 -17.838891 28.449005 0.990274 2.248554 0.085790 -0.006256 -374500.000000 0 0 1
-12.373863 -17.110290 -17.771591 27.598984 0.944680 2.270410 0.087973 -0.004211 -387259.000000 0 0 1
-11.120963 -16.262090 -17.893091 26.613795 0.970986 2.308140 0.097411 -0.008208 -154003.000000 0 0 1
-10.370263 -16.175190 -16.684791 25.447227 1.000688 2.285856 0.105684 -0.010420 459419.000000 0 0 1
-9.116863 -15.530690 -16.848491 24.661532 1.039974 2.322917 0.089789 -0.011500 -26471.700000 0 1 0
-8.418563 -14.898890 -15.625991 23.173707 1.056475 2.310810 0.073588 -0.013578 90434.400000 0 1 0
-7.981863 -15.749590 -14.545291 22.876302 1.101725 2.259871 0.063804 -0.005611 262503.000000 0 1 0
-6.842863 -16.530890 -14.843991 23.247347 1.178327 2.263375 0.063036 -0.000829 -267005.000000 0 1 0
-6.338363 -17.365990 -13.599291 22.949796 1.220833 2.205038 0.052347 0.001287 -439404.000000 0 1 0
-5.717163 -16.590390 -12.611691 21.609760 1.238934 2.193965 0.045369 -0.005356 43879.100000 0 1 0
-5.426063 -17.285290 -11.425691 21.418912 1.266625 2.133458 0.037694 -0.011578 53545.200000 0 1 0
-4.435863 -18.505190 -11.384091 22.174680 1.335526 2.109918 0.050398 -0.009837 1376100.000000 0 1 0
-3.095763 -18.064290 -11.748091 21.769702 1.401070 2.140822 0.043055 0.000426 1425190.000000 0 1 0
-2.048363 -18.963990 -11.282491 22.161302 1.463200 2.104944 0.031039 0.002000 1216640.000000 0 1 0
-0.670063 -18.528390 -11.836591 21.996706 1.534648 2.138986 0.022980 0.007584 -428166.000000 0 1 0
-0.598763 -18.585990 -13.235691 22.825009 1.538592 2.189374 0.032940 0.012488 30268.500000 0 1 0
0.589937 -18.061990 -13.834491 22.759100 -1.538146 2.224167 0.027094 0.010162 1263990.000000 0 1 0
1.848337 -19.015690 -13.763891 23.546921 -1.473900 2.195097 0.029123 0.000307 7761.540000 0 1 0
1.922737 -19.998890 -14.765391 24.933296 -1.474949 2.204577 0.041575 0.002425 298181.000000 0 1 0
1.116037 -21.181990 -14.580391 25.739270 -1.518157 2.173006 0.032754 0.005137 -140173.000000 0 0 1
0.990837 -22.084690 -15.838891 27.195326 -1.525961 2.192489 0.042807 -0.009286 -287232.000000 0 0 1
2.099837 -22.836190 -16.245791 28.103854 -1.479102 2.187149 0.077048 -0.016427 -633700.000000 0 0 1
3.074737 -22.072690 -16.931391 27.988026 -1.432387 2.220501 0.079700 -0.018626 -861452.000000 0 0 1
4.388037 -22.821990 -16.833491 28.696071 -1.380842 2.197667 0.083958 -0.024461 -900416.000000 0 0 1
4.431437 -23.927390 -17.726691 30.106364 -1.387668 2.200372 0.095722 -0.021745 -120340.000000 0 0 1
5.774937 -24.316790 -17.906091 30.745475 -1.337628 2.192471 0.110761 -0.025231 64088.300000 0 0 1
6.288437 -23.979390 -19.338091 31.440695 -1.314328 2.233266 0.119415 -0.024963 -77493.200000 0 0 1
6.361737 -22.572490 -19.557491 30.536608 -1.296086 2.265894 0.130595 -0.037229 148409.000000 0 0 1
6.921237 -22.264790 -20.839391 31.271466 -1.269406 2.300170 0.141321 -0.032040 220329.000000 0 0 1
7.013537 -20.759190 -21.125591 30.437218 -1.244984 2.337925 0.129002 -0.022871 -453223.000000 0 0 1
5.748437 -20.209690 -21.232391 29.871232 -1.293676 2.361427 0.110691 -0.022221 -813703.000000 0 0 1
5.835337 -18.860290 -21.474091 29.170160 -1.270740 2.398185 0.109205 -0.015647 -119441.000000 0 0 1
4.597337 -18.173790 -22.049691 28.941510 -1.323029 2.436993 0.102523 -0.012110 -1218990.000000 0 0 1
4.165337 -18.500090 -23.359891 30.088002 -1.349337 2.459707 0.101822 -0.014927 313694.000000 0 0 1
3.275137 -17.508290 -23.913391 29.818065 -1.385871 2.501393 0.086084 -0.009506 1095010.000000 0 0 1
1.850237 -17.290790 -23.321691 29.091168 -1.464195 2.500890 0.083358 0.000481 91905.000000 0 0 1
1.999137 -16.736590 -22.055891 27.759184 -1.451913 2.489052 0.078724 0.002302 -627088.000000 0 0 1
1.009737 -15.772690 -21.805091 26.930638 -1.506866 2.514396 0.064702 -0.009635 -296833.000000 0 0 1
1.225837 -14.958390 -20.540191 25.439252 -1.489029 2.510564 0.060536 -0.014711 703836.000000 0 0 1
2.290237 -13.974290 -20.650091 25.039014 -1.408351 2.540497 0.055538 -0.009699 576359.000000 0 0 1
2.358337 -13.215090 -19.424291 23.611510 -1.394198 2.536874 0.048935 -0.018085 -68843.300000 0 1 0
3.573937 -12.296290 -19.347191 23.200982 -1.287938 2.556925 0.048584 -0.022167 -827710.000000 0 1 0
4.735737 -12.803090 -18.765191 23.205144 -1.216513 2.512676 0.044748 -0.031726 -619421.000000 0 1 0
5.886337 -12.051790 -19.041791 23.291294 -1.116455 2.527939 0.042623 -0.015881 -2738.680000 0 1 0
6.146237 -10.902690 -18.033191 21.950873 -1.057469 2.534877 0.034782 -0.023390 -900325.000000 0 1 0
5.267937 -9.804090 -18.018291 21.178530 -1.077740 2.588266 0.020718 -0.015481 -100436.000000 0 1 0
5.433637 -8.786490 -18.990991 21.619078 -1.016951 2.643377 0.032188 -0.016704 -467916.000000 0 1 0
4.847337 -8.965990 -20.410791 22.814163 -1.075171 2.678453 0.052226 -0.020170 -1356000.000000 0 1 0
3.480137 -8.883090 -20.390691 22.512239 -1.197404 2.703967 0.048136 -0.030034 -1575150.000000 0 1 0
2.918237 -9.216190 -21.643491 23.704323 -1.264142 2.721524 0.059043 -0.029990 -519310.000000 0 1 0
1.403137 -9.087590 -21.633191 23.506340 -1.417605 2.739676 0.054057 -0.031587 -729367.000000 0 1 0
0.910937 -7.803890 -21.600391 22.984938 -1.454594 2.792732 0.046415 -0.025734 -373126.000000 0 1 0
-0.462163 -7.830590 -21.931191 23.291819 1.511844 2.798098 0.041304 -0.020796 127619.000000 0 1 0
-0.861963 -6.723290 -22.962391 23.941950 1.443286 2.854552 0.054265 -0.015009 57846.700000 0 1 0
-0.549863 -7.164090 -24.272991 25.314119 1.494194 2.853796 0.067300 -0.018114 -94220.000000 0 0 1
-1.235063 -6.384990 -25.258611 26.082387 1.379724 2.889596 0.068545 -0.024958 102168.000000 0 0 1
-0.555463 -5.001190 -25.568161 26.058612 1.460183 2.947271 0.080782 -0.026371 43816.400000 0 0 1
-0.979363 -4.441290 -26.789611 27.172918 1.353756 2.973429 0.071684 -0.020359 -122962.000000 0 0 1
-0.549763 -3.108890 -27.078251 27.261678 1.395770 3.025524 0.060331 -0.016773 -424352.000000 0 0 1
-1.150863 -1.992090 -26.141681 26.242720 1.046923 3.053813 0.058944 -0.022445 1218750.000000 0 0 1
-2.583663 -1.814190 -26.145081 26.334993 0.612186 3.021425 0.048958 -0.019738 1056690.000000 0 0 1
-3.119663 -1.267490 -27.365791 27.572184 0.385917 3.019160 0.067048 -0.015176 1453220.000000 0 0 1
-4.718263 -1.215090 -27.241381 27.673657 0.252052 2.964611 0.064451 -0.017929 1772280.000000 0 0 1
-5.161163 -0.286790 -26.241261 26.745535 0.055510 2.947098 0.060741 -0.025227 181314.000000 0 0 1
-6.578963 -0.238790 -26.230101 27.043631 0.036280 2.895690 0.082735 -0.035874 189574.000000 0 0 1
-7.209963 1.020710 -25.479501 26.499630 -0.140635 2.863220 0.065871 -0.034616 -624979.000000 0 0 1
-7.520563 2.179910 -26.269761 27.411881 -0.282128 2.851911 0.072869 -0.033614 764887.000000 0 0 1
-8.545963 2.034910 -27.273061 28.652996 -0.233761 2.829978 0.107000 -0.041422 246118.000000 0 0 1
-9.979763 1.728810 -26.843131 28.690384 -0.171529 2.780791 0.117997 -0.035389 -75845.200000 0 0 1
-11.094363 1.984710 -27.729101 29.932040 -0.177021 2.755538 0.119215 -0.048162 857168.000000 0 0 1
-12.277563 1.369510 -27.255591 29.924594 -0.111087 2.716036 0.080505 -0.028097 -251489.000000 0 0 1
-13.486463 2.099410 -27.843741 31.009130 -0.154429 2.685819 0.051392 -0.023244 -1553790.000000 0 0 1
-14.672663 1.417210 -27.623151 31.310286 -0.096290 2.651393 0.033119 -0.015243 421785.000000 0 0 1
-15.815663 1.967910 -28.346311 32.519551 -0.123792 2.629395 0.019660 -0.004941 1442850.000000 0 0 1
-16.505763 3.240610 -27.731731 32.434406 -0.193866 2.596366 0.018363 0.003195 -392180.000000 0 0 1
-15.731163 4.428210 -27.890561 32.325871 -0.274393 2.611566 0.040708 -0.004496 93936.300000 0 0 1
-15.694863 5.076010 -29.164911 33.506516 -0.312801 2.626861 0.027083 -0.005226 -23765.000000 0 0 1
-17.046263 5.492410 -29.824951 34.788926 -0.311703 2.600821 0.002760 0.010398 22310.200000 0 0 1
-17.594263 6.540110 -29.085981 34.616837 -0.355890 2.568497 0.016243 0.012834 379115.000000 0 0 1
-18.443863 7.353010 -29.936441 35.922602 -0.379359 2.555954 0.014899 0.010566 -170825.000000 0 0 1
-19.174663 8.365210 -29.093331 35.833872 -0.411372 2.518187 0.015978 0.000538 -432445.000000 0 0 1
-18.373263 9.468310 -28.652891 35.330070 -0.475837 2.516666 0.023943 -0.001448 434140.000000 0 0 1
-19.148463 10.444710 -28.016841 35.506323 -0.499351 2.480084 0.046977 -0.001669 -127316.000000 0 0 1
-9.084063 25.187510 30.845421 40.845696 -1.224659 0.714884 0.033663 -0.010040 -1079080.000000 0 0 1
-9.685363 26.344610 31.294081 42.037653 -1.218493 0.731116 0.035283 -0.006747 -95872.600000 0 0 1
-8.926363 27.269710 32.094941 43.051159 -1.254453 0.729501 0.049129 -0.014024 -209870.000000 0 0 1
-7.623663 27.830310 31.500201 42.718954 -1.303422 0.741610 0.051388 -0.011639 -210777.000000 0 0 1
-7.786763 28.815810 30.462121 42.648862 -1.306874 0.775239 0.054475 -0.012650 -306445.000000 0 0 1
-6.522663 28.977710 29.876251 42.128888 -1.349394 0.782486 0.056706 -0.007446 -82244.100000 0 0 1
-6.377963 30.161210 28.859171 42.228293 -1.362404 0.818375 0.069927 -0.006646 -145193.000000 0 0 1
-6.372963 31.379310 29.548141 43.570270 -1.370427 0.825524 0.077595 -0.015443 445875.000000 0 0 1
-5.835363 32.434810 28.725011 43.717212 -1.392790 0.853879 0.097712 -0.013631 50863.100000 0 0 1
-6.151363 33.789510 29.411351 45.217229 -1.390719 0.862625 0.078424 -0.016071 190771.000000 0 0 1
-5.490163 34.004710 30.708911 46.146499 -1.410725 0.842679 0.086703 -0.018299 532037.000000 0 0 1
-6.318663 -33.663681 31.729651 46.689824 1.385255 0.823601 0.087932 -0.024028 482506.000000 0 0 1
-7.256563 33.672810 32.563210 47.401250 -1.358540 0.813486 0.073009 -0.030299 318817.000000 0 0 1
-6.531763 32.901410 33.505252 47.410638 -1.374819 0.785969 0.093843 -0.026690 170220.000000 0 0 1
-6.865363 31.539110 33.470566 46.498682 -1.356462 0.767257 0.076476 -0.015163 -159052.000000 0 0 1
-6.785563 30.770710 -33.319161 45.858990 -1.353750 2.384094 0.077792 -0.019323 -181442.000000 0 0 1
-5.469563 30.456310 -32.931181 45.188114 -1.393103 2.387302 0.070465 -0.008625 -160212.000000 0 0 1
-5.532463 29.834110 -31.677591 43.865158 -1.387438 2.377714 0.080399 -0.011047 181028.000000 0 0 1
-4.137563 29.457810 -31.110271 43.043361 -1.431252 2.378592 0.074844 -0.020822 714213.000000 0 0 1
-3.352563 28.384510 -31.635341 42.634668 -1.453229 2.406860 0.070261 -0.009009 596357.000000 0 0 1
-2.935563 28.433510 -33.015741 43.670599 -1.467918 2.428004 0.069815 -0.007947 -704419.000000 0 0 1
-2.373463 27.103310 -33.428461 43.100867 -1.483448 2.458440 0.058929 -0.019876 -244514.000000 0 0 1
-1.167363 26.828210 -32.683341 42.300312 -1.527311 2.453801 0.067707 -0.017741 1039650.000000 0 0 1
-0.535563 25.535810 -32.868911 41.626070 -1.549826 2.480991 0.069092 -0.017989 410295.000000 0 0 1
-0.047063 25.280610 33.820439 42.224798 -1.568935 0.641897 0.059411 -0.015695 -324006.000000 0 0 1
-1.115463 24.950510 32.909281 41.313351 -1.526119 0.649184 0.063503 -0.009569 491661.000000 0 0 1
-0.793263 25.014410 31.525631 40.251899 -1.539095 0.670987 0.082971 -0.010621 -154349.000000 0 0 1
-0.439963 26.369610 30.910121 40.632321 -1.554113 0.706363 0.060698 -0.010826 -168808.000000 0 0 1
-1.567463 27.187310 30.747491 41.073288 -1.513206 0.724847 0.055367 -0.012851 96323.300000 0 0 1
-1.073663 28.455310 30.378211 41.637641 -1.533083 0.753081 0.055323 -0.012254 168495.000000 0 0 1
-2.142463 29.565610 30.451731 42.497334 -1.498458 0.771944 0.064791 -0.016539 -35177.700000 0 0 1
-2.371163 29.999910 31.765051 43.756548 -1.491921 0.758382 0.068484 -0.017432 -282537.000000 0 0 1
-3.204963 31.111310 31.750871 44.567962 -1.468142 0.777863 0.080595 -0.020326 -239613.000000 0 0 1
-2.848263 32.093810 32.915138 46.060086 -1.482280 0.774726 0.083250 -0.009588 1962600.000000 0 0 1
-1.475363 32.607610 32.775739 46.256697 -1.525581 0.783338 0.077732 -0.015848 1460950.000000 0 0 1
-0.830863 32.784010 33.991253 47.232266 -1.545458 0.767481 0.060563 -0.014743 16942.000000 0 0 1
0.629537 33.285510 33.963669 47.558935 1.551885 0.775404 0.059203 -0.023812 60903.600000 0 0 1
0.790137 -33.620481 33.436750 47.423384 -1.547299 0.788276 0.077436 -0.022147 428419.000000 0 0 1
2.151237 -33.235981 33.267824 47.074477 -1.506160 0.785965 0.064214 -0.027348 400045.000000 0 0 1
2.180237 -31.842181 32.678639 45.679004 -1.502433 0.773604 0.067249 -0.033777 -80718.800000 0 0 1
1.661437 -30.830381 33.551692 45.595930 -1.516959 0.743878 0.062688 -0.027071 304695.000000 0 0 1
1.780337 -29.509781 33.045362 44.339517 -1.510539 0.729841 0.057464 -0.028781 -399358.000000 0 0 1
1.404737 -28.541281 -33.993631 44.408839 -1.521618 2.442568 0.057826 -0.025248 -117567.000000 0 0 1
0.015037 -28.576681 -33.783431 44.248696 -1.570270 2.439496 0.042199 -0.019316 36941.200000 0 0 1
-0.443363 -28.048781 -32.535241 42.958964 1.554991 2.430051 0.048674 -0.018083 191779.000000 0 0 1
-1.876063 -27.479581 -32.465631 42.575394 1.502631 2.438033 0.062532 -0.015649 47290.100000 0 0 1
-2.294463 -27.151681 -31.170061 41.401100 1.486491 2.423223 0.063090 -0.014768 64584.600000 0 0 1
-3.588063 -26.591281 -31.186571 41.140888 1.436673 2.431104 0.070401 -0.022954 -68795.200000 0 0 1
-4.038663 -26.089181 -29.785321 39.801024 1.417213 2.416376 0.076357 -0.032038 -419098.000000 0 0 1
-4.445663 -26.998181 -28.807031 39.730476 1.407596 2.381920 0.085802 -0.029516 -38908.200000 0 0 1
-4.582263 -26.430681 -27.508811 38.422815 1.399134 2.368780 0.081188 -0.029567 820075.000000 0 0 1
-3.269863 -25.950681 -26.739941 37.405271 1.445454 2.367236 0.079428 -0.032448 676952.000000 0 0 1
-2.805863 -24.748881 -27.242891 36.912804 1.457905 2.400948 0.082253 -0.027961 668929.000000 0 0 1
-1.670563 -24.289281 -26.469511 35.963801 1.502127 2.397945 0.074105 -0.025879 74286.000000 0 0 1
-0.825363 -23.106581 -27.106111 35.627750 1.535092 2.435364 0.062318 -0.018134 515266.000000 0 0 1
-0.044063 -23.559381 -28.199911 36.746175 1.568926 2.445611 0.052004 -0.027965 549284.000000 0 0 1
1.069537 -24.430681 -27.877231 37.082908 -1.527046 2.421514 0.057757 -0.028951 -228041.000000 0 0 1
1.879037 -24.640481 -29.154701 38.218852 -1.494686 2.438484 0.040355 -0.029700 -284647.000000 0 0 1
2.795737 -23.612481 -29.478571 37.872834 -1.452944 2.462840 0.063538 -0.032236 -83099.200000 0 0 1
3.485437 -24.095781 -30.607691 39.109918 -1.427143 2.469639 0.069266 -0.026500 -1137460.000000 0 0 1
4.429037 -23.020381 -31.169721 39.001357 -1.380723 2.496752 0.084090 -0.037891 -65231.900000 0 0 1
5.620837 -22.813181 -30.416041 38.433977 -1.329222 2.483866 0.087118 -0.038393 834878.000000 0 0 1
6.599737 -23.833681 -30.226561 39.054396 -1.300657 2.455868 0.073925 -0.030566 251847.000000 0 0 1
7.466737 -24.205581 -31.496821 40.419204 -1.271586 2.464271 0.075062 -0.024903 204935.000000 0 0 1
6.717137 -25.104281 -32.345551 41.491921 -1.309351 2.464764 0.057266 -0.025993 390104.000000 0 0 1
7.027937 -25.010581 -33.737731 42.581164 -1.296862 2.485392 0.073507 -0.025856 45657.000000 0 0 1
6.458637 -23.728981 33.705764 41.723579 -1.305050 0.630327 0.065748 -0.023166 567822.000000 0 0 1
5.037137 -23.650081 33.807792 41.565200 -1.360946 0.620878 0.071331 -0.027228 432750.000000 0 0 1
4.518137 -22.472081 33.176797 40.325028 -1.372386 0.604591 0.074501 -0.028872 325284.000000 0 0 1
3.055337 -22.140981 33.564797 40.325596 -1.433668 0.587472 0.054409 -0.026870 360671.000000 0 0 1
1.963637 -22.890281 33.118224 40.306794 -1.485221 0.606490 0.050365 -0.027682 -209620.000000 0 0 1
1.722337 -24.083181 33.851301 41.579762 -1.499402 0.619568 0.051544 -0.021795 -922716.000000 0 0 1
0.376637 -24.692081 33.539443 41.650149 -1.555544 0.634673 0.039564 -0.018582 -617925.000000 0 0 1
0.168737 -25.163681 32.242313 40.899952 -1.564091 0.662720 0.050048 -0.024043 257853.000000 0 0 1
-1.153463 -25.675081 32.073341 41.100358 1.525901 0.675545 0.045100 -0.029470 407074.000000 0 0 1
-1.253863 -26.570181 30.792091 40.690288 1.523641 0.712480 0.039960 -0.041118 581977.000000 0 0 1
-2.614763 -26.807281 30.414021 40.626100 1.473565 0.724799 0.046332 -0.039900 597264.000000 0 0 1
-2.793763 -27.637181 29.288491 40.366256 1.470051 0.758936 0.052805 -0.052069 -599058.000000 0 0 1
-4.210063 -27.867681 28.785041 40.285368 1.420857 0.774847 0.055277 -0.037060 -460745.000000 0 0 1
-5.009263 -28.720381 29.606701 41.551291 1.398118 0.777693 0.060356 -0.033210 1264460.000000 0 0 1
-6.237063 -29.017281 28.859991 41.398099 1.359075 0.799405 0.043061 -0.028451 261998.000000 0 0 1
-7.266763 -29.760281 29.624191 42.615406 1.331306 0.802165 0.053293 -0.026094 -683449.000000 0 0 1
-8.387363 -30.189181 28.803371 42.560177 1.299804 0.827433 0.072585 -0.023259 1140090.000000 0 0 1
-9.631663 -30.206281 29.499571 43.306039 1.262125 0.821412 0.069281 -0.022105 352992.000000 0 0 1
-9.763663 -31.226781 30.682011 44.853392 1.267757 0.817494 0.058188 -0.012087 -986928.000000 0 0 1
-9.701563 -32.630781 30.383931 45.629721 1.281806 0.842123 0.069360 -0.015391 316568.000000 0 0 1
-10.718663 -33.076181 29.504181 45.600660 1.257415 0.867137 0.061731 -0.011679 -87745.900000 0 0 1
-10.535263 33.699810 29.002841 45.692820 -1.267801 0.883131 0.072461 -0.009641 -438377.000000 0 0 1
-10.652763 32.756010 30.066671 45.721355 -1.256369 0.853159 0.061770 -0.011156 21518.700000 0 0 1
-10.071563 31.522610 29.767121 44.510592 -1.261544 0.838250 0.069040 -0.011658 -97031.700000 0 0 1
-10.466763 30.429210 30.778791 44.528911 -1.239503 0.807635 0.051471 -0.007488 -456474.000000 0 0 1
-11.832763 30.142310 30.626551 44.570829 -1.196717 0.813247 0.050229 0.001347 -218631.000000 0 0 1
-12.360263 29.042910 31.379411 44.507687 -1.168429 0.788326 0.038734 -0.002153 186936.000000 0 0 1
-12.615463 29.199510 32.885644 45.751796 -1.162975 0.768745 0.052150 -0.014164 -1212650.000000 0 0 1
-13.695163 29.998310 33.154311 46.761784 -1.142524 0.782711 0.047931 -0.006931 -629687.000000 0 0 1
-13.881463 29.915110 -33.552981 47.046906 -1.136338 2.364823 0.051450 -0.014968 -997978.000000 0 0 1
-15.288463 30.138310 -33.065381 47.279745 -1.101344 2.345293 0.038771 -0.010254 -1034020.000000 0 0 1
-15.445963 29.784110 -31.715221 46.168455 -1.092382 2.328074 0.026059 -0.009361 -895801.000000 0 0 1
-16.699763 30.066110 -31.214251 46.445479 -1.063790 2.307786 0.041306 -0.012393 -767957.000000 0 0 1
-16.903663 29.551110 -29.775751 45.228280 -1.051209 2.289412 0.049480 -0.015434 -273860.000000 0 0 1
-17.091363 28.156310 -29.681071 44.338003 -1.025233 2.304234 0.041883 -0.019102 139088.000000 0 0 1
-16.967563 27.798410 -28.309731 43.151949 -1.022780 2.286366 0.041790 -0.014173 -283140.000000 0 0 1
-17.460063 26.388910 -27.847041 42.150754 -0.986279 2.292485 0.026533 -0.016524 261229.000000 0 0 1
-18.870563 26.260710 -27.936081 42.733449 -0.947706 2.283298 0.035571 -0.017058 32367.700000 0 0 1
-19.192663 24.924710 -27.656131 41.886287 -0.914602 2.291970 0.031047 -0.016186 127599.000000 0 0 1
-20.667263 24.575510 -27.926561 42.555661 -0.871568 2.286616 0.037355 -0.014583 708198.000000 0 0 1
-21.696763 24.925710 -26.980671 42.661425 -0.854545 2.255492 0.038681 -0.016496 1467230.000000 0 0 1
-22.975963 24.369410 -27.319501 43.221733 -0.814821 2.255028 0.068584 -0.023919 1458390.000000 0 0 1
-24.145863 24.555410 -26.290021 43.326159 -0.793807 2.222816 0.093160 -0.033662 670343.000000 0 0 1
-24.852763 25.807510 -26.238561 44.408890 -0.804242 2.202896 0.060126 -0.016067 1195150.000000 0 0 1
-25.990923 25.804110 -25.306321 44.517301 -0.781791 2.175430 0.072977 -0.014266 1181310.000000 0 0 1
-25.810103 25.436610 -23.787091 43.347529 -0.778110 2.151668 0.057481 -0.011447 -828315.000000 0 0 1
-25.600213 24.040910 -23.587291 42.304806 -0.753997 2.162235 0.062898 -0.017226 -30170.900000 0 0 1
-26.770913 23.240910 -23.409991 42.483519 -0.714932 2.154403 0.060311 -0.010905 191760.000000 0 0 1
-27.595353 23.450410 -22.073791 42.410818 -0.704375 2.118204 0.047527 -0.009692 28965.200000 0 0 1
-27.025583 23.064710 -20.814991 41.177990 -0.706488 2.100744 0.047612 -0.012247 455239.000000 0 0 1
-25.976283 23.972910 -20.434891 40.829554 -0.745311 2.094964 0.049464 -0.008407 78589.800000 0 0 1
-25.179983 23.646610 -19.159691 39.500475 -0.754004 2.077216 0.055650 -0.016895 -110359.000000 0 0 1
-25.845763 23.634010 -17.924991 39.343045 -0.740728 2.043851 0.039694 -0.015407 381544.000000 0 0 1
-24.822663 23.454410 -16.935291 38.119261 -0.757064 2.031157 0.054586 -0.024722 740883.000000 0 0 1
-25.374993 23.661410 -15.511591 38.004764 -0.750467 1.991221 0.052679 -0.022302 -78276.300000 0 0 1
-25.507793 25.027210 -15.179391 38.825542 -0.775889 1.972475 0.057069 -0.029112 -168336.000000 0 0 1
-25.977813 25.153810 -13.854491 38.723480 -0.769284 1.936686 0.032157 -0.023652 51914.000000 0 0 1
-25.868683 26.608410 -13.356691 39.441063 -0.799493 1.916277 0.033821 -0.016480 -667115.000000 0 0 1
-24.605863 27.145710 -13.170391 38.933242 -0.834436 1.915886 0.045247 -0.023322 -892821.000000 0 0 1
-24.494863 28.101310 -12.159591 39.211448 -0.853860 1.886098 0.037088 -0.007640 -44418.400000 0 0 1
-23.004763 28.477410 -11.973391 38.516803 -0.891302 1.886896 0.045974 -0.015011 -224411.000000 0 0 1
-22.260363 27.355710 -11.581391 37.121251 -0.887735 1.888081 0.046880 -0.018314 -423953.000000 0 0 1
-21.231563 27.816410 -10.738091 36.603805 -0.918853 1.868536 0.043753 -0.015515 -550285.000000 0 0 1
-20.542763 26.671810 -10.025691 35.126985 -0.914489 1.860233 0.066469 -0.016853 46039.500000 0 0 1
-19.935563 25.779010 -11.021491 34.401415 -0.912533 1.896926 0.066199 -0.027128 103351.000000 0 0 1
-19.392163 24.697610 -10.369991 33.069089 -0.905155 1.889763 0.069132 -0.015076 -713091.000000 0 0 1
-18.623363 23.789710 -11.286791 32.251692 -0.906611 1.928324 0.072046 -0.021591 -311583.000000 0 0 1
-18.108863 22.598110 -10.715891 30.877756 -0.895236 1.925212 0.058963 -0.022416 80870.500000 0 0 1
-17.526563 21.757410 -11.670691 30.278216 -0.892684 1.966490 0.075882 -0.022757 -66998.300000 0 0 1
-17.490963 20.356410 -11.138391 29.058234 -0.860965 1.964177 0.067256 -0.010791 -420409.000000 0 0 1
-18.671063 19.624310 -11.035291 29.248928 -0.810285 1.957663 0.052254 -0.002747 -483068.000000 0 0 1
-18.383463 18.349910 -10.546191 28.033785 -0.784485 1.956483 0.080341 -0.015895 35328.300000 0 0 1
-19.619263 17.391310 -10.413191 28.210064 -0.725273 1.948869 0.076123 0.000699 445949.000000 0 0 1
-20.187463 16.783210 -11.573791 28.690808 -0.693577 1.986023 0.057469 0.006314 61837.000000 0 0 1
-20.986763 17.636710 -12.339591 30.062656 -0.698879 1.993757 0.057685 0.006973 -712968.000000 0 0 1
-21.524863 16.950910 -13.633591 30.602743 -0.667075 2.032531 0.062123 0.000147 -281037.000000 0 0 1
-20.602963 16.694510 -14.667191 30.303717 -0.680988 2.076024 0.079280 -0.003810 -145994.000000 0 0 1
-21.212663 16.369210 -15.933391 31.173724 -0.657227 2.107279 0.065518 -0.000223 343298.000000 0 0 1
-20.237463 16.137610 -17.139391 31.044099 -0.673161 2.155675 0.096351 -0.011616 354206.000000 0 0 1
-19.513363 17.313610 -17.530491 31.430090 -0.725737 2.162483 0.075636 -0.015699 275562.000000 0 0 1
-18.650163 17.020510 -18.618191 31.371379 -0.739744 2.206168 0.072951 -0.012508 -285744.000000 0 0 1
-17.718063 18.179610 -19.064691 31.747290 -0.798255 2.214940 0.060347 -0.005585 24020.800000 0 0 1
-16.707063 18.272510 -18.070091 30.651897 -0.830121 2.201268 0.073875 -0.010968 232226.000000 0 0 1
-15.794763 19.338610 -18.316991 30.967217 -0.885927 2.203709 0.070893 -0.009125 292112.000000 0 0 1
33.859131 30.066210 2.537409 45.352577 0.726134 1.514819 0.079623 -0.014103 305381.000000 0 0 1
35.055951 30.352310 1.814009 46.405529 0.713610 1.531696 0.092665 -0.019546 451449.000000 0 0 1
34.797761 31.018210 0.593509 46.619372 0.728035 1.558065 0.081398 -0.011663 -733604.000000 0 0 1
36.026371 31.039410 -0.301591 47.554552 0.711176 1.577138 0.062008 -0.007554 -345998.000000 0 0 1
-36.425603 31.669610 0.427809 48.269782 -0.715668 1.561933 0.043471 -0.004008 -1074670.000000 0 0 1
-35.252917 31.724010 -0.279591 47.426355 -0.732758 1.576692 0.035938 0.002182 -883519.000000 0 0 1
-34.341882 32.879910 0.212609 47.544701 -0.763653 1.566325 0.005288 -0.004052 -207640.000000 0 0 1
-33.581313 32.509010 1.319909 46.757700 -0.769175 1.542564 0.009569 -0.004647 -117521.000000 0 0 1
-32.947093 33.648610 1.870209 47.130008 -0.795932 1.531104 0.001699 -0.003633 118570.000000 0 0 1
-32.269913 33.509810 3.272809 46.636531 -0.804245 1.500562 0.028394 -0.003312 -191210.000000 0 0 1
-31.811653 -33.463781 3.715009 46.320700 0.810703 1.490508 0.028686 0.004188 143903.000000 0 0 1
-31.180573 -33.540481 4.971409 46.064161 0.821845 1.462662 0.050835 -0.006736 -416293.000000 0 0 1
-31.253653 -32.112881 5.655209 45.166463 0.798957 1.445259 0.054410 -0.001042 412055.000000 0 0 1
-32.411853 -31.649381 6.353309 45.744684 0.773496 1.431460 0.058712 -0.001327 563722.000000 0 0 1
-32.917453 -32.425981 7.449409 46.802743 0.777877 1.410950 0.052021 -0.011990 -606241.000000 0 0 1
-34.105919 -31.869981 8.310909 47.412874 0.751521 1.394598 0.057647 -0.010201 938374.000000 0 0 1
-35.405632 -31.862581 7.726609 48.254361 0.732776 1.409982 0.028432 -0.000510 519225.000000 0 0 1
-35.963301 -33.062481 7.134909 49.369967 0.743398 1.425769 0.023400 -0.010360 -1733050.000000 0 0 1
36.033891 -32.906781 6.928609 49.287962 -0.740070 1.429755 0.016567 -0.002677 -924704.000000 0 0 1
35.298651 -32.781481 8.096909 48.848544 -0.748441 1.404272 0.007130 0.006135 -263887.000000 0 0 1
33.954831 -32.411181 7.911009 47.602514 -0.762143 1.403833 -0.006175 0.018662 -279119.000000 0 0 1
33.122061 -32.601481 9.160309 47.369176 -0.777478 1.376189 -0.011617 0.009594 612472.000000 0 0 1
31.716841 -32.320181 8.966209 46.162161 -0.794820 1.375321 0.002721 0.004992 1906870.000000 0 0 1
30.879511 -32.391581 10.161709 45.891384 -0.809292 1.347516 0.013376 -0.001924 462529.000000 0 0 1
31.052171 -31.100181 11.090509 45.326130 -0.786171 1.323604 0.004538 0.005803 -469116.000000 0 0 1
30.540011 -29.833381 10.585809 43.986160 -0.773694 1.327748 0.009322 -0.003447 252656.000000 0 0 1
31.155931 -29.240881 9.476509 43.766716 -0.753701 1.352545 0.016340 -0.003073 -357686.000000 0 0 1
30.456131 -27.920481 9.072509 42.301769 -0.741989 1.354646 0.025100 -0.006489 -314894.000000 0 0 1
30.993151 -27.218281 7.987409 42.014390 -0.720641 1.379521 0.028320 -0.016818 -281456.000000 0 0 1
30.362291 -25.992881 7.747009 40.712587 -0.708020 1.379344 0.033216 -0.011981 -243529.000000 0 0 1
30.529521 -25.476681 6.294109 40.258276 -0.695422 1.413809 0.020555 -0.000417 16472.900000 0 0 1
31.864031 -25.230381 5.919609 41.072259 -0.669729 1.426166 0.027786 -0.005459 -399455.000000 0 0 1
31.883961 -24.594081 4.684009 40.538818 -0.657033 1.454994 0.038500 -0.003541 -761877.000000 0 0 1
33.260171 -24.234681 4.161909 41.362789 -0.629690 1.470006 0.047812 -0.016293 -911714.000000 0 0 1
33.904361 -25.422781 3.934709 42.559435 -0.643397 1.478212 0.041583 -0.003659 -1355410.000000 0 0 1
35.225791 -25.216981 3.569709 43.468326 -0.621296 1.488582 0.063117 -0.016071 -498732.000000 0 0 1
36.042791 -26.539881 3.475609 44.894632 -0.634704 1.493302 0.065559 -0.012550 23541.200000 0 0 1
36.069431 -27.308681 4.724209 45.487208 -0.648039 1.466751 0.040453 -0.009441 -318969.000000 0 0 1
36.496831 -28.622481 4.499509 46.599471 -0.665061 1.474089 0.034513 -0.007242 -1568460.000000 0 0 1
35.726141 -29.744881 5.186309 46.776201 -0.694294 1.459693 0.033536 -0.004474 -182924.000000 0 0 1
34.415121 -29.912981 4.697509 45.839433 -0.715525 1.468139 0.027994 0.000474 117556.000000 0 0 1
33.454491 -28.916781 4.999709 44.501464 -0.712773 1.458209 0.017890 0.003498 -1459670.000000 0 0 1
32.231861 -29.376981 5.838509 43.999865 -0.739092 1.437710 0.013286 0.006555 645398.000000 0 0 1
31.232581 -30.133581 5.136709 43.702319 -0.767491 1.452985 -0.004139 0.003238 199828.000000 0 0 1
30.400851 -29.395881 4.279409 42.504623 -0.768593 1.469944 0.025085 0.001726 -943924.000000 0 0 1
29.150911 -30.208181 3.924809 42.162946 -0.803208 1.477575 0.036034 0.005293 -101155.000000 0 0 1
29.434071 -31.476581 3.332709 43.223219 -0.818918 1.493615 0.041996 0.011675 -727579.000000 0 0 1
28.238881 -32.165181 3.191409 42.921072 -0.850307 1.496372 0.059136 0.007318 -633454.000000 0 0 1
28.358581 -33.636881 2.705109 44.079094 -0.870333 1.509388 0.056271 -0.005414 -152438.000000 0 0 1
28.665371 -33.727181 1.352009 44.283792 -0.866349 1.540261 0.065927 -0.006729 186742.000000 0 0 1
28.541191 33.226610 0.804609 43.809299 0.861109 1.552429 0.065243 -0.006150 -443269.000000 0 0 1
28.240481 33.332010 -0.731291 43.693049 0.867902 1.587534 0.068809 -0.010399 -261372.000000 0 0 1
29.278421 33.811510 -1.544291 44.752978 0.857126 1.605310 0.057357 -0.010085 315644.000000 0 0 1
28.789921 33.938110 -2.888291 44.598174 0.867286 1.635604 0.075312 -0.011408 353541.000000 0 0 1
29.878521 -33.603181 -3.741691 45.120950 -0.844004 1.653817 0.049841 -0.003464 206068.000000 0 0 1
29.910901 -32.197081 -3.560591 44.090723 -0.822191 1.651640 0.039788 0.000651 168658.000000 0 0 1
30.734601 -31.638581 -4.567091 44.344942 -0.799890 1.673969 0.039509 0.000583 -25144.200000 0 0 1
31.024361 -30.112681 -4.657391 43.485352 -0.770487 1.678105 0.035317 0.006727 345869.000000 0 0 1
29.866931 -29.372781 -5.102591 42.199885 -0.777057 1.692008 0.030067 0.003362 742877.000000 0 0 1
29.962331 -27.951581 -4.865691 41.263872 -0.750692 1.688988 0.031650 -0.004492 8267.310000 0 0 1
30.890611 -27.185581 -5.849791 41.563274 -0.721688 1.712009 0.058765 -0.004366 942547.000000 0 0 1
32.277491 -27.458481 -5.576691 42.742299 -0.704901 1.701642 0.069081 -0.003559 371902.000000 0 0 1
33.193601 -27.027581 -6.531391 43.300859 -0.683364 1.722212 0.076159 -0.014037 34157.200000 0 0 1
33.632101 -28.013681 -7.618591 44.428904 -0.694509 1.743126 0.083578 -0.004659 183673.000000 0 0 1
32.578491 -28.097381 -8.598091 43.871951 -0.711679 1.768055 0.077352 -0.005146 521305.000000 0 0 1
32.435121 -29.304681 -9.379291 44.707634 -0.734738 1.782158 0.068981 0.000357 136148.000000 0 0 1
32.304451 -30.736581 -8.720891 45.435327 -0.760533 1.763936 0.060273 0.007780 -181632.000000 0 0 1
33.517831 -31.158181 -8.161191 46.485291 -0.748930 1.747276 0.071693 -0.003230 -716937.000000 0 0 1
33.448001 -32.454781 -7.690491 47.235847 -0.770328 1.734335 0.072648 -0.013826 -415190.000000 0 0 1
34.742241 -33.016081 -7.136091 48.456256 -0.759928 1.718603 0.064660 -0.016129 -513867.000000 0 0 1
34.649401 33.951310 -6.473991 48.940628 0.775222 1.703468 0.052855 -0.012361 -123765.000000 0 0 1
34.252051 33.958710 -5.125491 48.504306 0.781098 1.676665 0.052853 -0.011098 -137184.000000 0 0 1
34.152281 32.517210 -4.646491 47.384989 0.760878 1.669012 0.036506 -0.006498 -232509.000000 0 0 1
33.222481 31.736210 -5.346891 46.254833 0.762522 1.686652 0.063057 -0.019730 -122971.000000 0 0 1
32.989761 30.461910 -4.821391 45.160803 0.745580 1.677761 0.072313 -0.009116 368910.000000 0 0 1
31.787671 29.770710 -5.543891 43.903143 0.752645 1.697410 0.088160 -0.017763 277110.000000 0 0 1
31.992811 29.321910 -6.840691 43.933011 0.741865 1.727140 0.080370 -0.017644 -663286.000000 0 0 1
30.800701 28.923210 -7.448991 42.903645 0.753972 1.745302 0.074208 -0.021135 -207648.000000 0 0 1
30.886031 28.659910 -8.955391 43.075938 0.748031 1.780222 0.074281 -0.016385 -181476.000000 0 0 1
31.501061 27.380310 -9.226191 42.744834 0.715528 1.788352 0.069468 -0.013150 106785.000000 0 0 1
31.918121 27.202910 -10.584591 43.252727 0.705811 1.818022 0.066162 -0.011773 49662.300000 0 0 1
33.025341 28.100710 -11.159991 44.775758 0.705007 1.822694 0.059891 -0.018777 -361817.000000 0 0 1
34.300201 27.990110 -10.534491 45.507423 0.684441 1.804405 0.060083 -0.018398 -134579.000000 0 0 1
35.186941 28.904710 -11.038291 46.855597 0.687691 1.808613 0.054342 -0.013453 -586114.000000 0 0 1
35.360041 30.188510 -10.241191 47.608410 0.706665 1.787604 0.047988 -0.016736 -593469.000000 0 0 1
36.210151 30.052710 -9.118791 47.932169 0.692740 1.762207 0.048348 -0.011326 245586.000000 0 0 1
35.951161 31.163810 -8.242091 48.286656 0.714188 1.742327 0.044530 -0.010965 -56754.900000 0 0 1
-36.352823 31.354710 -7.256491 48.552058 -0.711713 1.720816 0.022431 0.003717 719094.000000 0 0 1
-35.065967 31.504810 -7.828991 47.785649 -0.731955 1.735374 0.040992 0.002152 691918.000000 0 0 1
-34.280100 30.276810 -8.066991 46.442296 -0.723466 1.745381 0.050033 0.000398 1665930.000000 0 0 1
-32.781893 30.662610 -8.453491 45.676139 -0.752007 1.756944 0.069886 -0.008580 1008000.000000 0 0 1
-31.970973 31.194210 -7.430491 45.281719 -0.773101 1.735637 0.072900 -0.005101 -407597.000000 0 0 1
-30.735393 31.693710 -7.838591 44.839705 -0.800747 1.746513 0.073888 -0.014816 -361579.000000 0 0 1
-30.688223 32.997010 -8.656191 45.885721 -0.821635 1.760580 0.049881 -0.007235 -521772.000000 0 0 1
-30.863033 -33.942181 -8.091691 46.584053 0.832876 1.745383 0.040625 -0.011125 -15595.400000 0 0 1
-29.823213 -33.609581 -7.214791 45.509133 0.845018 1.730003 0.065545 -0.023576 -84135.100000 0 0 1
-30.137063 -32.254881 -6.556691 44.627460 0.819329 1.718251 0.036211 -0.019208 -90656.100000 0 0 1
-31.165673 -32.170681 -5.597591 45.139616 0.801265 1.695123 0.034760 -0.021003 -235000.000000 0 0 1
-30.912093 -32.637081 -4.292491 45.157082 0.812536 1.665997 0.048581 -0.027309 -262046.000000 0 0 1
-32.127663 -32.665081 -3.342391 45.938719 0.793692 1.643618 0.035647 -0.023569 -330471.000000 0 0 1
-32.650763 -31.438481 -2.908791 45.419286 0.766485 1.634883 0.015256 -0.013341 72390.000000 0 0 1
-33.569853 -31.577081 -1.836691 46.123969 0.754819 1.610628 0.027702 -0.011048 -122062.000000 0 0 1
-34.447385 -30.332581 -1.598891 45.926510 0.721964 1.605617 0.051994 -0.007121 -264464.000000 0 0 1
-35.269837 -30.390081 -0.467891 46.558967 0.711216 1.580846 0.044511 -0.008777 -455358.000000 0 0 1
-35.923158 -29.123681 -0.406891 46.247461 0.681244 1.579595 0.070191 -0.011379 -755542.000000 0 0 1
36.494681 -29.079781 0.649809 46.668166 -0.672800 1.556872 0.072030 -0.003145 -1973820.000000 0 0 1
35.400071 -29.822681 0.244909 46.288415 -0.700093 1.565505 0.037460 0.006110 -445173.000000 0 0 1
34.401001 -29.856181 1.267009 45.567815 -0.714787 1.542988 0.035090 0.004283 450538.000000 0 0 1
33.416581 -28.663081 1.361509 44.046497 -0.708976 1.539881 0.029997 0.017478 -452559.000000 0 0 1
32.457141 -28.568981 0.302709 43.240541 -0.721771 1.563796 0.027778 0.008961 274959.000000 0 0 1
31.732311 -27.346981 0.470509 41.892939 -0.711306 1.559565 0.033045 0.004307 751821.000000 0 0 1
30.325121 -27.453981 -0.234991 40.907081 -0.735747 1.576541 0.031706 -0.002584 1079490.000000 0 0 1
29.268461 -28.186181 0.394309 40.635688 -0.766563 1.561093 0.031997 0.013766 622570.000000 0 0 1
29.346571 -29.611181 0.262309 41.690672 -0.789886 1.564504 0.034062 0.013671 -403571.000000 0 0 1
28.892341 -30.178681 -1.132791 41.794777 -0.807171 1.597903 0.033080 0.013033 -7060.450000 0 0 1
27.556781 -29.808981 -1.410291 40.619460 -0.824638 1.605523 0.036571 0.016897 -48296.900000 0 0 1
27.144081 -30.324681 -2.641691 40.784384 -0.840687 1.635614 0.033110 0.013230 1283620.000000 0 0 1
25.604981 -30.522081 -2.962691 39.949844 -0.872782 1.645025 0.030441 0.008324 1715240.000000 0 0 1
24.786281 -29.345181 -3.045991 38.532810 -0.869419 1.649928 0.046098 0.012095 102914.000000 0 0 1
23.429081 -29.674981 -3.219991 37.945945 -0.902477 1.655756 0.044097 0.007504 408155.000000 0 0 1
22.516081 -28.383581 -3.381791 36.387335 -0.900167 1.663869 0.032952 0.007069 318676.000000 0 0 1
22.393281 -27.832781 -4.715391 36.032731 -0.893278 1.702037 0.034759 0.009337 104192.000000 0 0 1
21.949881 -26.510281 -4.697691 34.737021 -0.879228 1.706448 0.028949 -0.000932 -498005.000000 0 0 1
21.532981 -26.097981 -6.119191 34.383403 -0.880947 1.749719 0.032983 -0.021813 829685.000000 0 0 1
20.271781 -26.701781 -6.492291 34.147915 -0.921438 1.762083 0.037938 -0.016082 851085.000000 0 0 1
19.634581 -26.058881 -7.607691 33.503120 -0.925078 1.799869 0.053333 -0.021434 767707.000000 0 0 1
18.077681 -26.100681 -7.574691 32.640834 -0.965045 1.804993 0.054283 -0.018927 354963.000000 0 0 1
17.474781 -25.300781 -6.586291 31.446411 -0.966352 1.781804 0.042030 -0.016554 -1195830.000000 0 0 1
16.124581 -25.595781 -6.641091 30.971765 -1.008631 1.786898 0.049797 -0.021105 -920272.000000 0 0 1
15.413381 -24.709081 -5.563591 29.649023 -1.013065 1.759564 0.037464 -0.011597 -255151.000000 0 0 1
15.708381 -25.038581 -4.234791 29.859961 -1.010497 1.713098 0.027117 -0.004293 162641.000000 0 0 1
15.115681 -24.119281 -3.342091 28.659957 -1.010972 1.687674 0.038067 -0.001843 -33093.900000 0 0 1
15.053481 -24.690481 -1.935191 28.982273 -1.023284 1.637618 0.027445 -0.003203 -130554.000000 0 0 1
14.361181 -25.911581 -1.929791 29.688006 -1.064705 1.635845 0.035544 -0.003615 -40123.600000 0 0 1
14.876981 -26.856781 -1.038091 30.719520 -1.064935 1.604595 0.036370 -0.003243 -656193.000000 0 0 1
14.370481 -28.283881 -1.260991 31.750256 -1.100705 1.610523 0.043289 -0.007942 627720.000000 0 0 1
13.094381 -28.521481 -0.616491 31.389772 -1.140396 1.590437 0.049756 -0.015043 705362.000000 0 0 1
12.506481 -29.680181 -1.178891 32.229102 -1.172000 1.607383 0.055200 -0.017109 -382652.000000 0 0 1
13.049681 -31.094481 -0.864991 33.732909 -1.173442 1.596441 0.046922 -0.012211 -574288.000000 0 0 1
14.338381 -31.273181 -1.383491 34.431310 -1.140906 1.610988 0.045454 -0.006863 -445366.000000 0 0 1
14.895481 -32.527781 -1.063391 35.791937 -1.141367 1.600511 0.051342 -0.009625 -193410.000000 0 0 1
16.285481 -32.715281 -1.699691 36.584088 -1.108915 1.617273 0.041052 -0.003983 -713156.000000 0 0 1
17.221081 -31.971181 -1.034691 36.328951 -1.076714 1.599281 0.037800 0.006794 -90975.200000 0 0 1
18.399981 -31.764881 -1.838791 36.755247 -1.045770 1.620845 0.028289 0.007202 711915.000000 0 0 1
19.378381 -30.726081 -1.258591 36.348285 -1.008122 1.605429 0.023844 0.005733 41291.600000 0 0 1
18.944181 -29.437881 -1.683491 35.047183 -0.998982 1.618850 0.018422 0.002234 401457.000000 0 0 1
19.064681 -28.574681 -0.597691 34.355956 -0.982433 1.588194 0.019338 0.006948 -239799.000000 0 0 1
18.529481 -27.149181 -0.792991 32.879303 -0.971908 1.594917 0.007656 0.009617 -598848.000000 0 0 1
19.106481 -26.325881 -1.785291 32.577552 -0.942985 1.625625 0.013351 0.004882 101817.000000 0 0 1
18.759381 -26.628181 -3.111691 32.720896 -0.957061 1.666038 0.022022 0.003716 -379816.000000 0 0 1
32.918171 -29.610381 13.875509 46.399466 -0.732547 1.267105 -0.011072 0.002409 232870.000000 0 0 1
33.665111 -29.793981 15.042409 47.405645 -0.724472 1.247902 0.008726 0.010602 153828.000000 0 0 1
32.774951 -30.208581 16.085309 47.386633 -0.744674 1.224466 -0.000944 0.015366 140078.000000 0 0 1
33.584241 -30.721881 17.300409 48.693320 -0.740916 1.207569 0.012941 0.004499 -236230.000000 0 0 1
32.880451 -31.137281 18.484809 48.911579 -0.758175 1.183244 0.008707 -0.008910 363359.000000 0 0 1
33.711601 -31.410681 19.629209 50.084018 -0.750081 1.168073 0.004304 -0.011716 122120.000000 0 0 1
34.529171 -32.719881 19.651809 51.468903 -0.758500 1.179033 -0.002703 -0.013109 -987757.000000 0 0 1
35.419991 -32.778581 18.632709 51.731896 -0.746686 1.202337 0.004336 0.001990 -943576.000000 0 0 1
36.100591 -34.022781 18.753009 53.032798 -0.755776 1.209367 0.017122 -0.016315 -117387.000000 0 0 1
-36.350043 -34.104381 17.571309 52.850595 0.753535 1.231874 0.025817 -0.011870 -205061.000000 0 0 1
-35.228993 -33.341681 17.961609 51.723970 0.757882 1.216150 0.042340 -0.013710 -599816.000000 0 0 1
-34.359796 -33.311181 16.853409 50.737243 0.769904 1.232193 0.050258 -0.003211 -213028.000000 0 0 1
-33.073163 -32.530181 17.278109 49.503332 0.777122 1.214261 0.038238 -0.006311 326182.000000 0 0 1
-32.091463 -32.423181 16.250009 48.427136 0.790540 1.228601 0.062009 -0.009899 44184.000000 0 0 1
-32.298483 -31.424181 15.278709 47.582667 0.771679 1.243907 0.072663 -0.012093 -320909.000000 0 0 1
-31.215603 -31.391681 14.174309 46.484004 0.788211 1.260933 0.072730 -0.019250 312509.000000 0 0 1
-29.921573 -31.241781 14.720009 45.694946 0.806980 1.242811 0.066566 -0.019751 -115210.000000 0 0 1
-28.899763 -31.010881 13.757109 44.566009 0.820621 1.256980 0.075367 -0.013159 850921.000000 0 0 1
-27.592083 -30.499481 14.442709 43.590518 0.835405 1.233087 0.073563 -0.025222 319243.000000 0 0 1
-26.515253 -30.477581 13.561709 42.612927 0.854810 1.246910 0.074551 -0.031061 276054.000000 0 0 1
-25.343063 -29.830681 14.142009 41.618948 0.866556 1.224095 0.071786 -0.026114 496121.000000 0 0 1
-24.049163 -29.822581 13.378209 40.579861 0.892160 1.234836 0.092069 -0.030009 -389442.000000 0 0 1
-23.360863 -31.068381 13.287209 41.079486 0.926069 1.241422 0.097786 -0.044781 610443.000000 0 0 1
-22.111363 -30.890481 12.598209 40.023107 0.949546 1.250578 0.099105 -0.044444 824341.000000 0 0 1
-21.501963 -32.243781 12.148709 40.615108 0.982663 1.267028 0.093181 -0.040137 -46693.800000 0 0 1
-22.209163 -32.855281 11.091109 41.179232 0.976381 1.298091 0.073372 -0.032993 23128.700000 0 0 1
-21.986063 34.034710 11.055609 41.999702 -0.997246 1.304427 0.081250 -0.029160 -187839.000000 0 0 1
-22.993763 33.331910 10.137909 41.743342 -0.966920 1.325480 0.057459 -0.015963 -177342.000000 0 0 1
-22.823263 33.647410 8.776609 41.594212 -0.974778 1.358193 0.055017 -0.014217 53820.300000 0 0 1
-23.871763 33.151410 7.958209 41.619829 -0.946719 1.378400 0.051768 -0.012528 -502626.000000 0 0 1
-23.704163 33.423410 6.421409 41.475851 -0.953917 1.415348 0.048958 -0.005920 69581.200000 0 0 1
-22.805863 32.512710 5.775109 40.131479 -0.959102 1.426390 0.041340 -0.006358 1234930.000000 0 0 1
-21.404863 32.464610 6.079709 39.358379 -0.987891 1.415705 0.050093 -0.015093 622929.000000 0 0 1
-20.527463 33.671510 5.604309 39.831591 -1.023320 1.429628 0.059706 -0.019934 -340003.000000 0 0 1
-20.591963 -33.419881 6.441109 39.779458 1.018580 1.408160 0.063130 -0.020238 249285.000000 0 0 1
-19.946063 -33.511481 7.722209 39.755469 1.033913 1.375311 0.067341 -0.025057 -241169.000000 0 0 1
-20.033363 -32.243381 8.621609 38.926899 1.014850 1.347462 0.064791 -0.029602 -788351.000000 0 0 1
-19.085763 -31.283681 8.284709 37.570886 1.022993 1.348460 0.075654 -0.041135 -544706.000000 0 0 1
-19.143063 -30.105481 9.083909 36.814593 1.004421 1.321474 0.078250 -0.040537 346635.000000 0 0 1
-18.353063 -30.133081 10.432809 36.792405 1.023737 1.283293 0.078119 -0.034464 228812.000000 0 0 1
-16.949663 -30.152881 10.256509 36.078849 1.058692 1.282541 0.083242 -0.042207 -487994.000000 0 0 1
-16.377863 -30.169481 11.529009 36.212568 1.073450 1.246786 0.100136 -0.038542 971863.000000 0 0 1
-14.941463 -30.836381 11.497509 36.143083 1.119593 1.247060 0.102948 -0.041043 1453550.000000 0 0 1
-13.930763 -30.181081 10.731109 34.930224 1.138360 1.258531 0.088867 -0.035892 -473059.000000 0 0 1
-12.997963 -31.067481 10.218409 35.193058 1.174548 1.276201 0.092742 -0.027238 -23213.500000 0 0 1
-11.774963 -30.268281 9.679609 33.889725 1.199791 1.281142 0.087439 -0.019498 476048.000000 0 0 1
-10.899563 -29.788481 10.686509 33.471713 1.220029 1.245837 0.079278 -0.021548 654765.000000 0 0 1
-9.713063 -29.139181 10.170609 32.355475 1.249046 1.251035 0.075922 -0.020723 1213960.000000 0 0 1
-8.856763 -28.448681 11.277609 31.858346 1.268983 1.208960 0.077144 -0.011456 103719.000000 0 0 1
-9.469163 -27.356781 11.921709 31.307917 1.237568 1.180147 0.060883 -0.018572 -634453.000000 0 0 1
-8.879563 -27.083381 13.148109 31.388357 1.253980 1.138579 0.067844 -0.007366 62931.800000 0 0 1
-9.422763 -25.765281 13.796309 30.707920 1.220190 1.104842 0.066812 -0.016615 445513.000000 0 0 1
-8.959063 -24.571881 13.173009 29.284302 1.221169 1.104219 0.061148 -0.012881 121970.000000 0 0 1
-9.595563 -24.361681 11.887309 28.755425 1.195577 1.144618 0.051211 -0.012552 291326.000000 0 0 1
-9.161763 -23.006581 11.319709 27.228230 1.191822 1.142046 0.052800 -0.012813 -2591.070000 0 0 1
-7.900763 -23.122681 10.724009 26.684918 1.241545 1.157232 0.047383 -0.015204 -655428.000000 0 0 1
-7.324063 -21.900081 10.401509 25.326801 1.248058 1.147584 0.049087 -0.010646 521760.000000 0 0 1
-6.107063 -21.973181 9.396009 24.665805 1.299706 1.179992 0.050291 -0.010481 220405.000000 0 1 0
-5.042663 -22.619481 9.991309 25.236792 1.351449 1.163746 0.049574 -0.019649 -944962.000000 0 0 1
-4.008863 -22.835081 9.030509 24.880957 1.397010 1.199366 0.052532 -0.014205 394538.000000 0 1 0
-2.772263 -23.628181 9.480109 25.609546 1.454002 1.191595 0.067807 -0.019524 93057.600000 0 0 1
-1.915363 -22.925181 10.320909 25.214157 1.487441 1.149077 0.058171 -0.017060 -614262.000000 0 0 1
-0.835963 -23.655781 10.846209 26.037187 1.535472 1.141132 0.065724 -0.023544 594143.000000 0 0 1
0.099137 -22.924481 11.851909 25.807158 -1.566472 1.093647 0.065638 -0.022717 316412.000000 0 0 1
-0.460663 -22.801481 13.188409 26.344903 1.550596 1.046498 0.072883 -0.018324 -348130.000000 0 0 1
0.450337 -22.521781 14.205909 26.631585 -1.550803 1.008154 0.089391 -0.016440 -14378.900000 0 0 1
1.316937 -21.225981 14.260309 25.605332 -1.508832 0.980115 0.064065 -0.018732 1309.570000 0 0 1
2.285437 -21.152981 13.259509 25.069632 -1.463171 1.013484 0.055510 -0.021501 -603358.000000 0 0 1
2.420437 -19.805781 12.896409 23.758048 -1.449191 0.997002 0.039654 -0.018867 153221.000000 0 1 0
3.867837 -19.500281 12.426509 23.444387 -1.374990 1.012146 0.034935 -0.016580 309089.000000 0 1 0
4.188737 -20.197781 11.238809 23.490567 -1.366309 1.071920 0.039300 -0.007193 -1459000.000000 0 1 0
5.535437 -20.214081 10.951609 23.647154 -1.303508 1.089277 0.053209 -0.015675 -730153.000000 0 1 0
5.911237 -21.024281 9.723609 23.906311 -1.296710 1.151916 0.063190 -0.023958 -190856.000000 0 1 0
5.696837 -20.393781 8.465909 22.804208 -1.298398 1.190449 0.063260 -0.025243 -437726.000000 0 1 0
5.945437 -21.252081 7.349309 23.259654 -1.298012 1.249319 0.065454 -0.030960 666779.000000 0 1 0
7.383337 -21.895981 7.113109 24.177344 -1.245569 1.272172 0.068089 -0.018823 929619.000000 0 1 0
8.406837 -21.118281 6.548709 23.654647 -1.191943 1.290285 0.079831 -0.030567 -171149.000000 0 1 0
8.853537 -19.976981 7.287709 23.034227 -1.153623 1.248879 0.082679 -0.022830 -216639.000000 0 1 0
9.829337 -20.100781 8.521609 23.943164 -1.115985 1.206909 0.080986 -0.015417 226769.000000 0 1 0
9.263037 -20.422481 9.733309 24.446245 -1.144977 1.161295 0.081909 -0.015397 -635674.000000 0 1 0
10.011237 -19.817281 10.777409 24.679993 -1.103016 1.118885 0.074009 -0.009029 468232.000000 0 1 0
9.313237 -19.961781 12.175509 25.168475 -1.134262 1.065850 0.071723 -0.007534 87380.500000 0 0 1
9.427937 -21.252781 12.764609 26.523611 -1.153269 1.068711 0.051032 -0.012843 -381783.000000 0 0 1
8.638737 -21.410681 13.929109 26.964145 -1.187295 1.027946 0.053418 -0.015876 249662.000000 0 0 1
9.009637 -22.726281 14.704209 28.528428 -1.193362 1.029295 0.038861 -0.016249 143222.000000 0 0 1
8.470837 -23.848081 14.041009 28.941942 -1.229497 1.064268 0.056064 -0.013271 -270521.000000 0 0 1
8.473637 -25.082981 14.794009 30.328554 -1.245010 1.061238 0.060484 -0.018798 383969.000000 0 0 1
8.077937 -26.257681 13.929209 30.801652 -1.272344 1.101540 0.070154 -0.024846 -50923.800000 0 0 1
9.165837 -26.439381 13.076309 30.887592 -1.237088 1.133655 0.057991 -0.018042 -408088.000000 0 0 1
9.046037 -27.581081 12.239709 31.501703 -1.253872 1.171748 0.062070 -0.017733 155210.000000 0 0 1
10.373137 -27.898681 11.483409 31.903089 -1.214821 1.202586 0.039131 -0.019169 656000.000000 0 0 1
11.283637 -28.675081 12.263809 33.165973 -1.195906 1.192034 0.034772 -0.018679 228338.000000 0 0 1
12.392337 -29.143981 11.548209 33.709091 -1.168747 1.221130 0.043690 -0.020791 669503.000000 0 0 1
13.510637 -30.015881 12.260409 35.125604 -1.147846 1.214245 0.053020 -0.022362 520431.000000 0 0 1
14.177837 -29.272181 13.310409 35.143117 -1.119751 1.182352 0.047621 -0.012938 117493.000000 0 0 1
14.922637 -30.068181 14.184509 36.441472 -1.110118 1.170989 0.062965 -0.015855 -164331.000000 0 0 1
16.394237 -30.305481 13.812409 37.121097 -1.074915 1.189536 0.064341 -0.015691 -278634.000000 0 0 1
17.124337 -29.053981 13.903009 36.478355 -1.038209 1.179778 0.058006 -0.019340 -76525.000000 0 0 1
18.346737 -29.239181 13.236509 36.969415 -1.010422 1.204629 0.054613 -0.021810 -334372.000000 0 0 1
19.185737 -27.928581 13.185309 36.358638 -0.968878 1.199691 0.047843 -0.025538 -603647.000000 0 0 1
20.432237 -28.070581 12.604809 36.936636 -0.941598 1.222545 0.031860 -0.025411 -938397.000000 0 0 1
21.096437 -26.873281 12.598909 36.413808 -0.905248 1.217500 0.030734 -0.026000 -89843.800000 0 0 1
22.441437 -26.841181 11.812009 36.926828 -0.874438 1.245198 0.035993 -0.018694 404645.000000 0 0 1
23.467437 -27.510481 12.512809 38.263789 -0.864542 1.237654 0.057556 -0.026498 -197571.000000 0 0 1
24.598537 -27.764181 11.708509 38.897647 -0.845781 1.265047 0.044844 -0.032795 -541476.000000 0 0 1
25.549037 -28.741081 12.421809 40.411686 -0.844127 1.258356 0.048560 -0.026322 41145.500000 0 0 1
26.666737 -28.179981 13.113109 40.953386 -0.812982 1.244860 0.035656 -0.020694 903558.000000 0 0 1
27.831537 -28.100281 12.257509 41.406120 -0.790203 1.270261 0.008920 -0.011833 698164.000000 0 0 1
29.131337 -27.808781 13.074509 42.342719 -0.762175 1.256888 0.029667 -0.011862 -54587.500000 0 0 1
29.219137 -26.476781 13.605809 41.712060 -0.736200 1.238532 0.051977 -0.008877 -111756.000000 0 0 1
28.341637 -25.962081 14.606309 41.117178 -0.741607 1.207630 0.054743 -0.014372 -590989.000000 0 0 1
28.910037 -25.656681 15.984009 41.827552 -0.725847 1.178685 0.030411 -0.006067 -277532.000000 0 0 1
29.354937 -26.803381 16.773209 43.144804 -0.739994 1.171505 0.019142 -0.003229 560245.000000 0 0 1
30.116137 -26.403481 17.939809 43.885787 -0.719804 1.149675 0.037804 0.001972 207754.000000 0 0 1
30.593737 -27.563381 18.816309 45.274388 -0.733339 1.142187 0.034294 -0.001123 597326.000000 0 0 1
29.519337 -28.479481 19.127509 45.258521 -0.767471 1.134453 0.022066 -0.001994 224750.000000 0 0 1
30.032537 -29.526881 19.868309 46.567582 -0.776908 1.130005 0.043686 -0.015359 -445399.000000 0 0 1
28.996137 -30.489781 20.409309 46.764758 -0.810502 1.119175 0.030838 -0.011412 -1334130.000000 0 0 1
28.013037 -29.776381 21.139409 46.024317 -0.815902 1.093579 0.018339 0.001564 -105814.000000 0 0 1
26.947037 -30.511181 21.693009 46.126583 -0.847349 1.081174 0.011122 -0.000620 -177334.000000 0 0 1
25.898037 -30.879081 20.675709 45.295816 -0.872904 1.096784 0.045490 -0.006886 -1430500.000000 0 0 1
26.344737 -31.960181 19.873809 45.939815 -0.881414 1.123416 0.048756 -0.012281 -446983.000000 0 0 1
25.602737 -32.177381 18.739309 45.189000 -0.898698 1.143197 0.059034 -0.008513 -625692.000000 0 0 1
25.860037 -31.185681 17.582309 44.163625 -0.878486 1.161333 0.053088 -0.013956 1334510.000000 0 0 1
27.200737 -31.369881 17.027009 44.876147 -0.856460 1.181625 0.051641 -0.016105 1375370.000000 0 0 1
27.586437 -30.276581 16.211409 44.051023 -0.831856 1.193924 0.048848 -0.024816 -303763.000000 0 0 1
29.104237 -30.269081 15.913109 44.905466 -0.805015 1.208557 0.043493 -0.011221 -205153.000000 0 0 1
29.558737 -31.235181 14.985409 45.540289 -0.812967 1.235490 0.082357 -0.017370 255172.000000 0 0 1
29.814137 -32.527181 15.521209 46.774012 -0.828890 1.232549 0.098185 -0.022422 -509857.000000 0 0 1
29.021537 -33.627881 14.791009 46.817283 -0.858792 1.249359 0.095415 -0.024676 -104886.000000 0 0 1
29.254737 -33.748881 13.394109 46.628626 -0.856609 1.279441 0.086345 -0.015973 40665.400000 0 0 1
28.421037 33.484710 12.871809 45.767506 0.867013 1.285707 0.064887 -0.030994 -511750.000000 0 0 1
28.667137 33.116210 11.374509 45.253371 0.857285 1.316720 0.073940 -0.037049 -917115.000000 0 0 1
29.819237 32.375110 11.158409 45.407541 0.826470 1.322514 0.054645 -0.025566 -360680.000000 0 0 1
30.022137 31.981010 9.828609 44.952367 0.816981 1.350371 0.057229 -0.028762 43660.500000 0 0 1
31.435337 31.363110 9.652009 45.442121 0.784248 1.356764 0.039770 -0.021006 175771.000000 0 0 1
31.662537 30.173710 10.394409 44.955676 0.761326 1.337470 0.036159 -0.018668 -134706.000000 0 0 1
33.011937 29.791710 10.309009 45.646573 0.734169 1.342987 0.046266 -0.013984 -321823.000000 0 0 1
33.442037 28.808810 11.370209 45.580687 0.711107 1.318682 0.034535 -0.023183 27526.300000 0 0 1
32.756537 27.558910 11.297309 44.273168 0.699436 1.312770 0.045198 -0.022220 325597.000000 0 0 1
32.939437 26.853810 12.498909 44.298491 0.683970 1.284760 0.064393 -0.027718 -16229.800000 0 0 1
32.996337 25.352210 12.332209 43.400186 0.655132 1.282675 0.059272 -0.031896 -343482.000000 0 0 1
34.232937 24.935610 11.824409 43.971528 0.629540 1.298535 0.062642 -0.019039 -334611.000000 0 0 1
34.483437 23.559910 11.954009 43.440478 0.599378 1.292018 0.082926 -0.022181 -732821.000000 0 0 1
33.650937 22.482210 11.290609 42.015630 0.588995 1.298728 0.063476 -0.026502 116110.000000 0 0 1
32.356237 22.186410 11.800709 40.968519 0.601059 1.278613 0.089959 -0.037059 513050.000000 0 0 1
31.310537 22.509610 10.905909 40.074569 0.623308 1.295180 0.088618 -0.032219 650659.000000 0 0 1
29.874637 22.168810 11.437209 38.919915 0.638401 1.272528 0.075148 -0.021070 739709.000000 0 0 1
29.306137 22.929110 12.475509 39.245791 0.663916 1.247302 0.073071 -0.013706 -269534.000000 0 0 1
28.102637 22.436510 12.983609 38.232568 0.673751 1.224309 0.110939 -0.008039 -197006.000000 0 0 1
24.233237 9.347110 25.431751 36.350958 0.368131 0.795935 0.028883 -0.003560 -422268.000000 0 0 1
23.974337 8.269410 26.246821 36.497227 0.332149 0.768224 0.033121 -0.000278 -23859.300000 0 0 1
22.592037 8.066010 26.387101 35.661460 0.342923 0.737825 0.040651 -0.007915 -493765.000000 0 0 1
22.287437 6.653010 26.984681 35.625347 0.290089 0.711387 0.049336 -0.009926 -446092.000000 0 0 1
22.642137 6.519510 28.322591 36.842089 0.280353 0.693902 0.054571 -0.010785 -1231940.000000 0 0 1
23.965937 6.256810 28.514821 37.770475 0.255371 0.715218 0.052919 -0.008778 -1599630.000000 0 0 1
24.229637 6.065410 30.043861 39.070424 0.245289 0.693573 0.054159 -0.014379 -231767.000000 0 0 1
24.291437 7.201310 30.870061 39.936117 0.288201 0.687262 0.058967 -0.015118 320339.000000 0 0 1
24.308337 6.828110 32.252604 40.960332 0.273839 0.664199 0.049611 -0.011263 -67724.900000 0 0 1
24.136937 8.080810 33.161943 41.804374 0.323061 0.654644 0.073284 -0.009743 477864.000000 0 0 1
25.296537 8.917810 33.085618 42.592255 0.338928 0.681230 0.048698 -0.009305 514919.000000 0 0 1
25.431637 9.727310 -33.866871 43.455191 0.365320 2.464427 0.053799 -0.006054 474957.000000 0 0 1
26.619337 10.742010 -34.014424 44.507987 0.383556 2.440646 0.038491 -0.004224 297921.000000 0 0 1
26.266137 11.984010 33.543785 44.257338 0.428042 0.710669 0.041609 -0.005300 374075.000000 0 0 1
26.076737 12.955510 -33.576911 44.443789 0.461102 2.427201 0.044007 -0.012239 -298202.000000 0 0 1
25.635637 14.367510 -34.007790 44.945978 0.510831 2.428951 0.050054 -0.014129 -822419.000000 0 0 1
26.624137 14.964510 33.364522 45.232428 0.512059 0.741252 0.045312 -0.019394 -234424.000000 0 0 1
26.451537 16.390610 33.219654 45.517923 0.554741 0.752745 0.053799 -0.020499 -195656.000000 0 0 1
27.144237 17.299210 -33.893401 46.742217 0.567400 2.381995 0.037654 -0.030074 -420392.000000 0 0 1
26.597437 17.152710 -32.574791 45.417575 0.572782 2.370614 0.044207 -0.032352 26065.800000 0 0 1
27.528637 16.611110 -31.678731 45.136424 0.542925 2.348779 0.038195 -0.034296 -316651.000000 0 0 1
26.812237 16.123610 -30.383721 43.612353 0.541414 2.341551 0.041368 -0.028360 378156.000000 0 0 1
26.000937 14.976610 -30.605371 42.860661 0.522588 2.366086 0.048242 -0.021688 -109046.000000 0 0 1
25.012537 14.811010 -29.629001 41.507478 0.534623 2.365739 0.066770 -0.029160 -291677.000000 0 0 1
24.393537 13.428110 -29.840731 40.814556 0.503210 2.390773 0.061411 -0.023603 -553053.000000 0 0 1
23.598437 13.377010 -31.036101 41.219779 0.515695 2.423318 0.071625 -0.028450 659677.000000 0 0 1
23.088537 12.045410 -31.420231 40.809353 0.480861 2.449523 0.069537 -0.014473 608000.000000 0 0 1
22.088737 11.424410 -30.369451 39.252172 0.477317 2.455459 0.061363 -0.014353 51102.100000 0 0 1
20.861937 12.072510 -30.087301 38.551415 0.524600 2.466175 0.060392 -0.013384 317433.000000 0 0 1
20.069537 11.286610 -29.231171 37.210687 0.512295 2.474394 0.049672 -0.012618 -153189.000000 0 0 1
18.794637 11.989810 -28.728041 36.363364 0.567849 2.481649 0.055273 -0.019480 710910.000000 0 0 1
17.681237 11.978310 -29.651421 36.541932 0.595437 2.517400 0.038646 -0.009781 1229800.000000 0 0 1
16.552737 12.671310 -29.100341 35.796439 0.653355 2.519979 0.041535 -0.025716 -347215.000000 0 0 1
15.612537 13.264010 -30.158051 36.458103 0.704247 2.544898 0.037060 -0.021664 -219944.000000 0 0 1
14.887637 12.272810 -30.835811 36.374590 0.689421 2.582486 0.030174 -0.014334 1109110.000000 0 0 1
13.632137 11.895110 -30.166361 35.175817 0.717457 2.601358 0.043770 -0.019866 962931.000000 0 0 1
12.599137 11.262010 -31.132951 35.423604 0.729419 2.644297 0.049830 -0.013473 218148.000000 0 0 1
12.046037 12.193510 -32.038051 36.334906 0.791482 2.650341 0.060063 -0.008338 -344920.000000 0 0 1
11.005937 11.714510 -32.826281 36.550309 0.816575 2.686254 0.071327 0.002150 -15743.600000 0 0 1
10.455837 12.680010 -33.922301 37.693894 0.881239 2.690432 0.081820 -0.005177 322511.000000 0 0 1
11.426537 12.920810 33.213524 37.425276 0.846694 0.478987 0.064309 -0.000673 249409.000000 0 0 1
10.818737 13.644610 32.211669 36.617101 0.900403 0.495588 0.075303 -0.001463 -112288.000000 0 0 1
11.705337 13.768210 30.961221 35.849347 0.866203 0.528334 0.064826 0.001166 -17308.300000 0 0 1
12.181637 12.548610 30.372211 35.047554 0.800236 0.522448 0.055050 -0.000551 148705.000000 0 0 1
11.815137 12.370510 28.975291 33.648097 0.808357 0.533314 0.081093 -0.002524 12790.800000 0 0 1
12.374937 11.084710 28.289821 32.807374 0.730456 0.531001 0.091250 0.005543 220713.000000 0 0 1
11.577037 9.972110 28.597661 32.423710 0.711058 0.490710 0.082932 -0.009644 183742.000000 0 0 1
12.246337 8.800810 28.149501 31.934643 0.623132 0.491826 0.074553 -0.019534 -108633.000000 0 0 1
11.545137 7.414910 28.322651 31.471314 0.570911 0.451138 0.066079 -0.010909 -128461.000000 0 0 1
10.595837 7.236010 27.287101 30.153233 0.599164 0.439539 0.067302 -0.015177 357638.000000 0 0 1
9.683637 6.137710 27.613861 29.899325 0.564919 0.393530 0.051777 -0.026600 484706.000000 0 0 1
9.998237 4.708110 27.144911 29.308313 0.440093 0.386631 0.039048 -0.019698 224724.000000 0 0 1
11.059637 4.088810 27.890841 30.280900 0.354121 0.399976 0.042183 -0.015456 606613.000000 0 0 1
11.083237 2.692710 27.653441 29.913235 0.238336 0.391192 0.027306 -0.007318 -576392.000000 0 0 1
11.598537 1.863010 28.787551 31.092120 0.159264 0.387440 0.020752 -0.000626 -20721.100000 0 0 1
10.757437 1.689010 29.925591 31.845191 0.155737 0.348983 0.023478 -0.007800 -120800.000000 0 0 1
10.757537 0.362610 30.319281 32.173201 0.033695 0.341131 0.034728 -0.001390 348156.000000 0 0 1
9.786137 0.157510 31.522451 33.006941 0.016094 0.301053 0.053570 0.005094 368893.000000 0 0 1
10.154237 0.864510 32.688450 34.240190 0.084933 0.302211 0.034694 -0.004150 447767.000000 0 0 1
8.947837 1.303410 33.322656 34.527700 0.144650 0.264974 0.050676 -0.007805 339717.000000 0 0 1
9.169437 2.496410 -33.904261 35.210929 0.265811 2.868311 0.052013 -0.014578 -275492.000000 0 0 1
9.237437 3.768310 33.589107 35.039385 0.387332 0.288717 0.042044 -0.014728 151634.000000 0 0 1
10.299637 3.999710 32.673676 34.491293 0.370410 0.326090 0.033929 -0.012639 -257706.000000 0 0 1
10.159837 5.341710 31.936381 33.936537 0.484048 0.345040 0.041345 -0.015140 42830.900000 0 0 1
10.421337 6.505810 32.657873 34.892212 0.558080 0.359808 0.041057 -0.014309 -60721.800000 0 0 1
10.387637 7.605410 31.751201 34.261991 0.631985 0.385214 0.049488 -0.013154 -232132.000000 0 0 1
10.363537 8.956910 32.438304 35.211826 0.712721 0.399558 0.076419 -0.020144 816150.000000 0 0 1
9.087937 9.317610 32.999808 35.473874 0.797876 0.375685 0.078882 -0.019397 594273.000000 0 0 1
8.640137 8.684610 -33.959071 36.101148 0.787965 2.795380 0.078202 -0.022756 -470156.000000 0 0 1
7.220037 9.042710 -33.515901 35.457230 0.897009 2.809152 0.077799 -0.016996 -193986.000000 0 0 1
6.784037 8.268410 -32.446571 34.163866 0.883694 2.823180 0.074784 -0.017979 139021.000000 0 0 1
5.398837 8.339510 -32.124171 33.625247 0.996265 2.841668 0.082556 -0.021420 527475.000000 0 0 1
5.096137 7.644010 -30.795921 32.137054 0.982782 2.851678 0.073843 -0.015652 -178693.000000 0 0 1
5.561637 8.379010 -29.687311 31.344474 0.984810 2.814968 0.077602 -0.023064 108549.000000 0 0 1
5.209037 7.799210 -28.395971 29.904730 0.981945 2.822587 0.068374 -0.021675 302365.000000 0 0 1
3.762337 7.978110 -27.853181 29.216521 1.130140 2.834898 0.066212 -0.023111 701217.000000 0 0 1
2.833237 7.113810 -28.519841 29.529897 1.191780 2.879290 0.061943 -0.017005 129981.000000 0 0 1
1.526937 7.060110 -27.981601 28.898904 1.357800 2.888962 0.070435 -0.011504 69757.100000 0 0 1
0.629137 6.290810 -28.977201 29.658865 1.471119 2.926781 0.071730 -0.020582 -498979.000000 0 0 1
0.419337 7.051410 -30.197091 31.012296 1.511398 2.911799 0.067280 -0.017395 171202.000000 0 0 1
-0.117063 6.323210 -31.301401 31.933906 -1.552285 2.942231 0.080531 -0.018463 -461358.000000 0 0 1
-0.342163 7.169810 -32.592971 33.374017 -1.523110 2.924822 0.090067 -0.023958 151707.000000 0 0 1
0.860637 7.728110 -33.098851 33.999975 1.459889 2.910848 0.057549 -0.012241 461391.000000 0 0 1
1.860237 6.906110 -33.686691 34.437595 1.307680 2.932382 0.070507 -0.018958 -41013.500000 0 0 1
1.700437 6.464210 32.961649 33.632541 1.313570 0.200072 0.082090 -0.029250 -910992.000000 0 0 1
0.540337 5.714210 32.817164 33.315318 1.476517 0.173148 0.084509 -0.032519 -902485.000000 0 0 1
0.194137 5.621510 31.459481 31.958379 1.536275 0.176927 0.104474 -0.031812 -7227.630000 0 0 1
0.790537 4.462110 30.582081 30.916000 1.395449 0.147108 0.102397 -0.025226 117916.000000 0 0 1
0.482937 4.520610 29.200541 29.552339 1.464370 0.154453 0.089640 -0.028397 14902.200000 0 0 1
1.205637 3.494310 28.556331 28.794579 1.238557 0.128728 0.088481 -0.027151 126325.000000 0 0 1
1.258037 3.687310 26.993761 27.273467 1.242000 0.143340 0.072433 -0.022410 -468408.000000 0 0 1
2.038437 4.749410 26.674591 27.170681 1.165375 0.191385 0.077551 -0.016993 -361373.000000 0 0 1
2.053937 4.987510 25.294541 25.863250 1.180145 0.210096 0.058514 -0.016127 -582506.000000 0 0 1
2.536537 6.402310 24.897131 25.831971 1.193578 0.269851 0.048700 -0.008432 -327483.000000 0 0 1
3.886737 6.716210 25.109961 26.281635 1.046179 0.299722 0.044391 0.000114 -429802.000000 0 0 1
4.634537 6.523210 23.953781 25.254996 0.953079 0.322403 0.045072 -0.014930 -585131.000000 0 0 1
6.161737 6.789210 23.941091 25.636618 0.833810 0.365730 0.041121 -0.012956 345503.000000 0 0 1
7.001137 5.934610 24.702411 26.352317 0.703136 0.355736 0.048729 -0.012906 139912.000000 0 0 1
7.038437 4.552310 24.446101 25.843277 0.574107 0.330326 0.060655 -0.016230 -974935.000000 0 0 1
7.336937 4.026810 22.997991 24.473525 0.501953 0.349018 0.050252 -0.019712 89247.300000 0 1 0
6.314137 4.185210 22.028991 23.295080 0.585343 0.331209 0.046504 -0.020957 182992.000000 0 1 0
5.161537 3.354510 22.145791 22.985435 0.576309 0.271124 0.042965 -0.016060 654269.000000 0 1 0
4.018537 3.637910 21.125391 21.809749 0.735726 0.251173 0.033240 -0.012928 232126.000000 0 1 0
3.454137 4.917710 21.351291 22.180905 0.958470 0.274364 0.020341 -0.013047 -390531.000000 0 1 0
2.375237 5.188710 20.521691 21.300335 1.141500 0.271221 0.018281 -0.017571 -608871.000000 0 1 0
1.751437 6.586410 20.646091 21.741881 1.310894 0.318839 0.013488 -0.017314 -148076.000000 0 1 0
2.522637 7.588110 20.079791 21.613447 1.249845 0.378983 0.011153 -0.012547 22384.200000 0 1 0
1.755437 8.782410 20.013191 21.925786 1.373515 0.420782 0.014685 -0.021769 526470.000000 0 1 0
2.732637 9.913510 19.653991 22.181622 1.301828 0.482046 0.012236 -0.022000 -383376.000000 0 1 0
2.891237 9.971010 18.237591 20.985471 1.288572 0.517501 0.003465 -0.023533 -239609.000000 0 1 0
3.620437 11.106910 17.841591 21.325885 1.255694 0.579719 0.002891 -0.024114 -431492.000000 0 1 0
5.139537 11.121010 17.999291 21.773061 1.137887 0.597620 0.017428 -0.021716 -841231.000000 0 1 0
5.749937 10.174610 17.154091 20.756861 1.056414 0.598059 0.022545 -0.018790 -673070.000000 0 1 0
7.025037 9.878410 17.645091 21.407554 0.952626 0.601927 0.020815 -0.003663 -418091.000000 0 1 0
7.188237 8.392410 18.002991 21.123706 0.862531 0.550497 0.028965 -0.013124 -335100.000000 0 1 0
6.489137 8.064710 19.179291 21.794349 0.893236 0.494909 0.031100 -0.021051 -130020.000000 0 1 0
6.706037 6.689810 19.629791 21.795714 0.784187 0.449588 0.022820 -0.023435 62396.900000 0 1 0
8.109437 6.189210 20.054891 22.500398 0.651903 0.470564 0.045860 -0.018367 -50420.700000 0 1 0
9.000437 6.035910 18.969891 21.847124 0.590737 0.519028 0.049527 -0.016785 -184676.000000 0 1 0
10.268837 5.563810 19.396891 22.641651 0.496537 0.541977 0.053781 -0.010515 215525.000000 0 1 0
10.502437 4.075610 19.348291 22.389018 0.370174 0.527265 0.058892 -0.003843 -456913.000000 0 1 0
9.778237 3.306110 20.286891 22.761859 0.326043 0.470665 0.054290 -0.009182 24275.100000 0 1 0
10.195237 1.924410 20.347891 22.840378 0.186561 0.471532 0.061544 -0.015741 -111189.000000 0 1 0
9.252837 0.937010 21.035691 22.999853 0.100923 0.416276 0.062832 -0.025578 -173922.000000 0 1 0
9.351437 1.114410 22.395591 24.295139 0.118611 0.398063 0.062316 -0.022587 -61806.000000 0 1 0
8.650837 0.156810 23.126891 24.692400 0.018125 0.358000 0.067651 -0.026235 -518880.000000 0 1 0
9.178737 0.191410 24.552331 26.212645 0.020851 0.357828 0.061003 -0.013272 1505560.000000 0 0 1
10.557437 -0.264090 24.748171 26.907270 -0.025009 0.403333 0.055785 -0.018287 1401530.000000 0 0 1
10.695837 -1.707290 24.704101 26.974216 -0.158287 0.413198 0.055223 -0.017347 -866458.000000 0 0 1
12.116237 -2.179490 24.928981 27.803011 -0.177978 0.458700 0.058799 -0.015727 -550468.000000 0 0 1
12.276337 -3.533790 24.523291 27.651182 -0.280277 0.480248 0.061600 -0.004805 21049.300000 0 0 1
13.569537 -3.978790 24.877571 28.615671 -0.285220 0.516873 0.063937 0.000661 -5276.010000 0 0 1
13.724337 -5.484590 25.031511 29.069136 -0.380183 0.533362 0.062940 -0.005441 -181601.000000 0 0 1
13.741737 -6.218190 23.848901 28.218279 -0.424934 0.563936 0.076786 -0.016795 293997.000000 0 0 1
13.052337 -7.436390 24.116851 28.412776 -0.517869 0.557079 0.082845 -0.017691 97324.900000 0 0 1
13.184437 -8.544790 23.046891 27.892687 -0.575036 0.598343 0.109337 -0.024379 -58238.700000 0 0 1
12.617237 -9.796490 23.299171 28.249199 -0.660207 0.600996 0.105963 -0.016330 -390398.000000 0 0 1
12.948237 -10.647490 22.238491 27.849171 -0.688198 0.645942 0.104166 -0.019846 -22602.000000 0 0 1
12.167137 -11.974390 22.180791 27.989510 -0.777414 0.655951 0.115598 -0.016339 1119670.000000 0 0 1
10.778837 -11.776590 21.841391 27.053978 -0.829605 0.631189 0.107758 -0.016864 897772.000000 0 0 1
9.908537 -12.833390 22.161791 27.459424 -0.913307 0.631616 0.084239 -0.016306 -550356.000000 0 0 1
8.500037 -12.510490 22.572891 27.171646 -0.974008 0.590340 0.066815 -0.015999 -563212.000000 0 0 1
7.638537 -11.952590 21.558191 25.806341 -1.002143 0.581966 0.061325 -0.015339 214923.000000 0 0 1
6.299537 -11.941990 22.022691 25.832038 -1.085383 0.549982 0.039992 -0.017043 110166.000000 0 0 1
5.516237 -10.828690 21.283091 24.508352 -1.099650 0.518827 0.031527 -0.016257 -147592.000000 0 1 0
5.529037 -9.623990 21.999391 24.640710 -1.049334 0.467258 0.042657 -0.012692 -79564.900000 0 1 0
4.923737 -8.617990 21.238491 23.443259 -1.051723 0.437171 0.036619 -0.011396 165981.000000 0 1 0
5.341337 -7.256390 21.871191 23.654472 -0.936259 0.390783 0.049473 -0.016817 365020.000000 0 1 0
4.524237 -6.204890 21.392491 22.729013 -0.940779 0.344639 0.028432 -0.018013 -165009.000000 0 1 0
5.100337 -5.005390 21.686791 22.833840 -0.776003 0.318311 0.063259 -0.039580 -302161.000000 0 1 0
-8.270863 -15.611390 -20.541291 27.093676 1.083596 2.431280 0.079472 -0.005656 181882.000000 0 0 1
-7.554663 -15.026690 -19.450291 25.713579 1.104951 2.428620 0.075773 -0.007927 193222.000000 0 0 1
-6.802563 -13.877690 -19.789391 25.109463 1.115036 2.478553 0.068675 -0.016627 444279.000000 0 0 1
-5.967663 -13.337990 -18.546091 23.610855 1.150091 2.474284 0.062491 -0.022869 458730.000000 0 1 0
-5.069263 -14.341390 -18.069491 23.619470 1.231033 2.441877 0.058784 -0.013400 62105.800000 0 1 0
-4.200163 -13.744690 -17.142991 22.370516 1.274224 2.443891 0.046128 -0.008269 -792980.000000 0 1 0
-3.310163 -14.666490 -16.401391 22.250140 1.348820 2.399619 0.044533 -0.004573 -81555.400000 0 1 0
-2.018263 -14.764790 -17.006791 22.612017 1.434944 2.422059 0.031711 -0.013839 -86379.700000 0 1 0
-1.239063 -15.655690 -16.291491 22.628490 1.491816 2.374534 0.028864 -0.005486 311377.000000 0 1 0
0.232637 -15.850390 -16.818391 23.111626 -1.556120 2.385763 0.025782 -0.007932 947051.000000 0 1 0
0.401337 -16.773690 -17.912991 24.543695 -1.546874 2.388885 0.049489 -0.004723 -16193.100000 0 1 0
0.038537 -18.123090 -17.554091 25.230814 -1.568670 2.340246 0.034851 -0.002606 -308702.000000 0 0 1
-0.226163 -18.875890 -18.831891 26.664404 1.558815 2.354992 0.048809 0.001274 -161435.000000 0 0 1
-1.472163 -18.546990 -19.396191 26.876947 1.491588 2.377003 0.063264 -0.001753 -338468.000000 0 0 1
-1.562363 -18.658890 -20.775391 27.968053 1.487258 2.408078 0.086676 -0.005645 180977.000000 0 0 1
-2.567963 -17.617290 -21.342191 27.793029 1.426052 2.446348 0.083984 -0.003410 188221.000000 0 0 1
-2.089263 -16.324890 -21.164991 26.810891 1.443508 2.480656 0.083095 0.009458 -251187.000000 0 0 1
-3.017863 -15.517590 -20.504491 25.890871 1.378714 2.484806 0.074216 -0.002953 -137476.000000 0 0 1
-2.467463 -14.100090 -20.414491 24.932957 1.397554 2.530071 0.066548 -0.022536 -123356.000000 0 1 0
-2.494463 -13.329390 -21.610791 25.513158 1.385796 2.581197 0.068760 -0.026714 188110.000000 0 0 1
-1.584363 -12.268890 -21.528291 24.829482 1.442370 2.620038 0.047120 -0.012772 -56591.900000 0 1 0
-1.824163 -11.400490 -22.788591 25.546401 1.412134 2.672651 0.059331 -0.007654 244861.000000 0 0 1
-3.074463 -10.733790 -22.825191 25.409760 1.291836 2.686646 0.060482 -0.017482 367397.000000 0 0 1
-3.100763 -9.802790 -23.920191 26.036224 1.264440 2.735642 0.066481 -0.027534 -140303.000000 0 0 1
-4.304063 -8.840790 -23.890691 25.835046 1.117731 2.751147 0.072456 -0.026763 -1128950.000000 0 0 1
-5.527363 -9.404590 -24.211791 26.555769 1.039447 2.718281 0.063237 -0.024696 -1193020.000000 0 0 1
-6.379663 -8.337390 -24.117391 26.303245 0.917646 2.731034 0.080255 -0.024704 -2018830.000000 0 0 1
-7.842363 -8.760890 -24.082391 26.799578 0.840664 2.687389 0.060880 -0.025729 -691428.000000 0 0 1
-8.449763 -9.058390 -25.315541 28.183852 0.820147 2.686519 0.058365 -0.035465 -113623.000000 0 0 1
-9.025063 -7.890290 -25.818501 28.465829 0.718413 2.706901 0.054358 -0.026472 -729305.000000 0 0 1
-9.918563 -8.175490 -27.024731 29.925785 0.689360 2.697634 0.049731 -0.027544 -194348.000000 0 0 1
-10.567663 -7.031590 -27.532581 30.317681 0.587116 2.709607 0.069620 -0.034203 66920.600000 0 0 1
-11.152963 -7.363190 -28.779081 31.730752 0.583513 2.706848 0.076681 -0.029022 53523.000000 0 0 1
-11.964163 -6.243690 -29.467891 32.411132 0.480987 2.712132 0.078350 -0.033284 395058.000000 0 0 1
-11.104963 -5.297190 -30.145141 32.559330 0.445088 2.754082 0.062269 -0.020231 545066.000000 0 0 1
-11.848063 -4.557390 -31.097221 33.588444 0.367206 2.754025 0.061990 -0.031064 86804.400000 0 0 1
-11.005463 -3.546490 -31.900711 33.931595 0.311741 2.793860 0.045527 -0.028449 -210954.000000 0 0 1
-9.949363 -4.095190 -32.663351 34.389750 0.390469 2.823389 0.054399 -0.009968 244244.000000 0 0 1
-9.241763 -3.092890 -33.371171 34.765086 0.322948 2.857459 0.050707 -0.007781 -418348.000000 0 0 1
-8.162363 -3.660390 33.860992 35.022698 0.421562 0.258283 0.048810 -0.009217 -477216.000000 0 0 1
-6.867363 -3.743990 -33.731941 34.626897 0.499140 2.913743 0.045950 -0.012635 -616612.000000 0 0 1
-5.974263 -4.267590 33.454337 34.250501 0.620278 0.216037 0.035676 -0.008051 -451224.000000 0 0 1
-4.535063 -3.984090 33.891632 34.425027 0.720813 0.176264 0.047172 -0.016127 -353529.000000 0 0 1
-4.228463 -2.582390 33.807103 34.168243 0.548262 0.145521 0.078487 -0.029115 470744.000000 0 0 1
-2.878063 -2.246890 -33.988571 34.184129 0.662858 3.034577 0.077532 -0.029030 684171.000000 0 0 1
-2.614463 -0.772990 -33.648041 33.758311 0.287469 3.060744 0.094472 -0.032788 72264.400000 0 0 1
-3.187563 -0.566190 -32.364581 32.526101 0.175791 3.041893 0.085128 -0.032667 304144.000000 0 0 1
-3.452563 0.760210 -31.969221 32.164098 -0.216729 3.031457 0.111255 -0.040619 -621173.000000 0 0 1
-3.875263 0.766810 -30.478871 30.733812 -0.195350 3.012700 0.140389 -0.047143 1106490.000000 0 0 1
-5.141063 0.112810 -30.271921 30.705577 -0.021939 2.973329 0.115097 -0.043502 176144.000000 0 0 1
-6.296863 0.866610 -30.449701 31.106041 -0.136767 2.935803 0.116608 -0.045542 -960021.000000 0 0 1
-7.506663 -0.064590 -30.410821 31.323668 0.008604 2.899580 0.101700 -0.042308 -421261.000000 0 0 1
-7.766263 -0.720790 -29.176781 30.201307 0.092545 2.880377 0.082194 -0.033413 -187547.000000 0 0 1
-8.766663 -1.700090 -29.269711 30.601645 0.191549 2.845470 0.070106 -0.024232 -79675.700000 0 0 1
-9.078463 -2.430990 -27.902261 29.442560 0.261637 2.816699 0.072311 -0.026191 52289.900000 0 0 1
-9.966263 -1.671790 -27.092651 28.915965 0.166198 2.784578 0.075619 -0.024819 271909.000000 0 0 1
-10.197463 -2.445590 -25.909421 27.951158 0.235378 2.757005 0.062102 -0.024562 264879.000000 0 0 1
-11.251463 -1.714390 -25.031711 27.497656 0.151207 2.714857 0.076534 -0.020789 389863.000000 0 0 1
-10.679563 -0.536090 -24.468391 26.702858 0.050156 2.729591 0.077375 -0.028612 99223.500000 0 0 1
-11.597463 0.116310 -23.648391 26.339344 -0.010029 2.685625 0.094329 -0.037238 -13330.800000 0 0 1
-11.004463 1.432910 -23.086991 25.615632 -0.129483 2.693523 0.096602 -0.036558 327139.000000 0 0 1
-10.685663 2.447610 -24.041091 26.422495 -0.225171 2.713772 0.082143 -0.037919 -5578.600000 0 0 1
-9.947663 3.528710 -23.533491 25.792111 -0.340880 2.719979 0.075273 -0.030630 -392711.000000 0 0 1
-9.916163 4.772710 -24.452191 26.814524 -0.448581 2.718689 0.085718 -0.032821 1365250.000000 0 0 1
-11.169563 5.536610 -24.536991 27.522302 -0.460191 2.671511 0.105509 -0.034084 1082770.000000 0 0 1
-11.992363 5.005510 -25.530411 28.647404 -0.395409 2.670768 0.087042 -0.032732 -53933.600000 0 0 1
-13.384563 5.684310 -25.712261 29.539436 -0.401609 2.626889 0.076544 -0.022955 507451.000000 0 0 1
-13.338563 7.007410 -26.198591 30.222297 -0.483721 2.619671 0.071707 -0.022525 -535087.000000 0 0 1
-14.659763 7.370010 -26.442441 31.119582 -0.465835 2.586220 0.069483 -0.018097 -445283.000000 0 0 1
-14.959163 8.916210 -26.628101 31.817151 -0.537500 2.562410 0.076165 -0.014976 -93923.800000 0 0 1
-14.860463 9.596410 -25.376461 30.933626 -0.573394 2.532823 0.107376 -0.029003 269657.000000 0 0 1
-15.091163 10.975510 -25.502861 31.600648 -0.628801 2.509912 0.088088 -0.025783 -72938.400000 0 0 1
-14.647063 11.716010 -24.260591 30.665577 -0.674673 2.483458 0.094015 -0.026505 -278827.000000 0 0 1
-15.550663 11.431810 -23.230991 30.202456 -0.633918 2.448346 0.116385 -0.028544 59931.600000 0 0 1
-15.014663 11.636410 -21.935991 29.017820 -0.659312 2.427899 0.111673 -0.026434 -644623.000000 0 0 1
-16.023463 11.254810 -20.877591 28.623346 -0.612332 2.388227 0.121145 -0.027855 -889845.000000 0 0 1
-17.186463 11.998210 -20.980091 29.656294 -0.609463 2.356668 0.098319 -0.028187 -626128.000000 0 0 1
-17.479163 12.616810 -19.752991 29.238428 -0.625221 2.312552 0.092795 -0.026473 -488073.000000 0 0 1
-18.918763 13.094310 -19.565591 30.202532 -0.605427 2.275506 0.089534 -0.026579 -434924.000000 0 0 1
-19.317963 14.230310 -20.278191 31.414813 -0.634893 2.272471 0.082746 -0.025106 214943.000000 0 0 1
-20.709663 14.293410 -20.536991 32.480144 -0.604105 2.255307 0.057659 -0.023402 118659.000000 0 0 1
-21.214063 15.597310 -21.151391 33.774160 -0.633984 2.247542 0.062141 -0.018542 -128297.000000 0 0 1
-20.985363 15.795610 -22.511491 34.592687 -0.645225 2.279380 0.076871 -0.024334 44797.800000 0 0 1
-21.508463 17.039210 -22.851091 35.708837 -0.669973 2.265201 0.062097 -0.010716 -16747.000000 0 0 1
-21.677163 17.224710 -24.352691 36.873345 -0.671441 2.292203 0.052241 -0.006241 -686682.000000 0 0 1
-20.456363 17.406210 -24.979191 36.679680 -0.705013 2.319936 0.058939 -0.015608 -509824.000000 0 0 1
-20.330863 16.828810 -26.242051 37.218249 -0.691432 2.353340 0.055483 -0.022973 238784.000000 0 0 1
-19.120363 17.373810 -27.066961 37.417348 -0.737576 2.379482 0.038255 -0.015765 334971.000000 0 0 1
-19.387063 18.689210 -27.634511 38.585114 -0.767072 2.369133 0.022393 -0.023392 433890.000000 0 0 1
-19.081863 19.789210 -26.800551 38.392706 -0.803593 2.343486 0.025584 -0.036249 -1032510.000000 0 0 1
-19.927663 21.076810 -27.214851 39.774261 -0.813416 2.324347 0.048340 -0.019361 988723.000000 0 0 1
-21.016963 21.368910 -26.322271 39.889911 -0.793701 2.291446 0.060505 -0.015497 414432.000000 0 0 1
-22.110363 20.490710 -26.501751 40.138263 -0.747397 2.291963 0.096533 -0.025499 -1354080.000000 0 0 1
-23.211263 20.832110 -25.502041 40.287636 -0.731432 2.256218 0.094117 -0.020767 -439074.000000 0 0 1
-22.863563 20.710610 -24.135691 39.168910 -0.736029 2.234699 0.063281 -0.020972 224963.000000 0 0 1
-23.897963 21.231310 -23.306591 39.561071 -0.726378 2.200777 0.063598 -0.034522 -277351.000000 0 0 1
-23.844463 20.717210 -21.820291 38.391227 -0.715335 2.175316 0.064962 -0.025953 177271.000000 0 0 1
-22.740763 21.251010 -21.091491 37.597856 -0.751547 2.166361 0.069342 -0.025877 776712.000000 0 0 1
-21.610563 20.372810 -20.997391 36.372493 -0.755925 2.186199 0.060350 -0.019520 68880.600000 0 0 1
-21.506963 19.503810 -19.733691 35.105080 -0.736592 2.167758 0.065697 -0.022973 -314741.000000 0 0 1
-22.457363 18.419610 -19.600791 35.040066 -0.686939 2.164437 0.072319 -0.023061 1064670.000000 0 0 1
-23.333363 18.437710 -18.457991 35.001320 -0.668728 2.126276 0.062052 -0.013353 422115.000000 0 0 1
-24.385163 19.564710 -18.311291 36.231443 -0.676154 2.100639 0.045521 -0.008302 -1204930.000000 0 0 1
-25.564213 19.249210 -18.976691 37.204514 -0.645402 2.106056 0.043660 -0.008799 -358784.000000 0 0 1
-26.539043 20.211810 -18.555391 38.172511 -0.650876 2.078410 0.043167 -0.013744 -149222.000000 0 0 1
-28.004933 19.998010 -19.022391 39.319818 -0.620119 2.075772 0.032195 -0.004307 291956.000000 0 0 1
-28.657233 18.851110 -18.478691 38.962333 -0.581848 2.064932 0.028547 -0.007677 250996.000000 0 0 1
-28.999523 18.970010 -17.104991 38.644720 -0.579286 2.029317 0.016710 -0.006294 -665063.000000 0 0 1
-29.851443 17.774010 -16.587791 38.499077 -0.537042 2.016244 0.011350 -0.003970 -2666.260000 0 0 1
-29.166983 16.542510 -16.495391 37.369312 -0.515927 2.027972 0.020149 -0.010316 -263223.000000 0 0 1
-29.994863 15.522110 -16.013991 37.377475 -0.477543 2.013561 0.019454 -0.005010 -426849.000000 0 0 1
-29.357433 14.443610 -15.169891 36.063865 -0.457220 2.004947 0.046661 -0.003417 -493026.000000 0 0 1
-28.768653 14.989910 -13.998691 35.331235 -0.480346 1.978185 0.058227 0.002041 161864.000000 0 0 1
-29.601773 15.025010 -12.863691 35.601832 -0.469686 1.940481 0.027540 0.011606 12289.600000 0 0 1
-28.869963 15.824310 -11.784491 34.967954 -0.501402 1.914534 0.045279 -0.000347 196294.000000 0 0 1
-28.646773 17.166010 -12.015691 35.492061 -0.539853 1.916167 0.038913 0.007580 791334.000000 0 0 1
-29.804833 17.968410 -11.700591 36.716423 -0.542526 1.895127 0.014584 0.009015 823512.000000 0 0 1
-29.487303 19.471510 -12.021391 37.324986 -0.583607 1.898715 0.061845 -0.006895 435647.000000 0 0 1
-28.554243 20.036010 -11.109091 36.608721 -0.611854 1.879113 0.019496 -0.016648 100708.000000 0 0 1
-27.584313 20.834410 -11.735091 36.505881 -0.646884 1.898065 0.021361 -0.017605 278099.000000 0 0 1
-26.787463 21.831410 -10.848791 36.219814 -0.683812 1.874993 0.035793 -0.014217 252487.000000 0 0 1
-27.533553 22.949210 -10.425791 37.329076 -0.694836 1.853855 0.038742 -0.021190 -507101.000000 0 0 1
-26.734853 23.990710 -9.978591 37.281079 -0.731353 1.841758 0.047809 -0.016796 -466467.000000 0 0 1
-27.348463 24.964310 -8.949891 38.095351 -0.739855 1.807947 0.071452 0.001277 -350324.000000 0 0 1
-27.156833 24.540810 -7.613091 37.385881 -0.734839 1.775866 0.068155 0.001035 -132942.000000 0 0 1
-28.127683 25.032010 -6.739491 38.251652 -0.727230 1.747909 0.070965 -0.004196 -164451.000000 0 0 1
-27.902423 24.453910 -5.343291 37.484526 -0.719627 1.713830 0.070333 -0.008151 50583.200000 0 0 1
-28.016463 23.048410 -5.476991 36.689901 -0.688414 1.720634 0.079688 -0.020375 74537.300000 0 0 1
-27.526153 22.414410 -4.287691 35.755828 -0.683397 1.691001 0.066292 -0.018107 86152.300000 0 0 1
-27.586173 20.877610 -4.411791 34.876001 -0.647848 1.697635 0.077754 -0.021344 -112706.000000 0 0 1
-26.698673 20.343210 -5.349891 33.989509 -0.651109 1.728852 0.069549 -0.032124 -327200.000000 0 0 1
-27.095223 20.498910 -6.706591 34.631414 -0.647680 1.765684 0.057816 -0.022148 116418.000000 0 0 1
-28.329043 19.605310 -7.093791 35.174206 -0.605375 1.773865 0.042571 -0.017891 241524.000000 0 0 1
-28.069823 18.211810 -7.076391 34.200297 -0.575534 1.779212 0.045292 -0.008796 221367.000000 0 0 1
-27.578503 17.712710 -8.317791 33.815671 -0.570918 1.819321 0.036495 -0.005245 -116321.000000 0 0 1
-27.211843 16.236310 -8.280991 32.751748 -0.537962 1.826412 0.073525 0.002108 354945.000000 0 0 1
-28.320243 15.403510 -7.933791 33.200141 -0.498151 1.812100 0.047429 -0.003965 276212.000000 0 0 1
-28.085473 14.054610 -8.215991 32.462723 -0.463986 1.826669 0.063111 -0.010201 193212.000000 0 0 1
-28.912693 13.127510 -7.292191 32.579923 -0.426208 1.796533 0.043916 -0.014557 -11820.000000 0 0 1
-30.286993 13.080310 -7.586291 33.851858 -0.407683 1.796818 0.062211 -0.004011 -110491.000000 0 0 1
-30.929113 12.079410 -6.786691 33.890727 -0.372335 1.772412 0.086491 -0.017313 77818.300000 0 0 1
-31.451383 10.794910 -7.538891 34.096253 -0.330627 1.793745 0.079673 -0.015442 105788.000000 0 0 1
-30.405133 9.928210 -7.942891 32.956502 -0.315616 1.814204 0.092728 -0.008823 319482.000000 0 0 1
-30.919963 8.622010 -8.179491 33.125327 -0.271941 1.820303 0.085550 -0.009759 -313063.000000 0 0 1
-29.818423 7.602710 -8.520591 31.930237 -0.249648 1.840920 0.124278 -0.016676 -134500.000000 0 0 1
-29.288673 7.703710 -9.832391 31.841003 -0.257201 1.884724 0.114505 -0.017175 494973.000000 0 0 1
-28.358473 6.619710 -10.052591 30.807112 -0.229323 1.903191 0.134245 -0.031099 -119557.000000 0 0 1
-27.590303 6.773010 -11.359491 30.596348 -0.240725 1.951172 0.110027 -0.027138 -690175.000000 0 0 1
-26.739693 7.878210 -11.280591 30.072066 -0.286519 1.955321 0.129310 -0.031409 -386987.000000 0 0 1
-25.917283 7.777810 -12.390091 29.760952 -0.291550 2.000191 0.101210 -0.019766 -640297.000000 0 0 1
-31.785453 25.609810 33.793494 52.992241 -0.678212 0.879279 0.018377 0.006992 -99013.600000 0 0 1
-31.397763 26.835810 33.289536 53.048784 -0.707219 0.892424 0.007943 0.000053 -185655.000000 0 0 1
-32.392823 27.434810 32.504868 53.465225 -0.702715 0.917304 0.037258 -0.016024 -152069.000000 0 0 1
-32.131243 28.895910 32.059891 53.807314 -0.732433 0.932500 0.059128 -0.021189 -514173.000000 0 0 1
-33.342043 29.444510 31.653801 54.595184 -0.723402 0.952324 0.095482 -0.022792 -468039.000000 0 0 1
-33.399673 30.854910 31.421241 55.270770 -0.745814 0.966119 0.115952 -0.025155 -26508.100000 0 0 1
-32.812613 31.216710 30.005771 54.327681 -0.760479 0.985663 0.126020 -0.027506 805640.000000 0 0 1
-31.412063 31.034910 29.772281 53.256662 -0.779359 0.977576 0.104473 -0.028294 591209.000000 0 0 1
-31.017403 31.759010 28.595291 52.805347 -0.797211 0.998549 0.103617 -0.019691 -70454.500000 0 0 1
-29.576613 31.520410 28.129181 51.570952 -0.817202 0.993875 0.122912 -0.022805 -376635.000000 0 0 1
-29.346553 30.304410 27.471691 50.341546 -0.801454 0.993565 0.144606 -0.025606 846603.000000 0 0 1
-28.209823 30.276210 26.566601 49.175475 -0.820715 1.000073 0.109841 -0.014279 516816.000000 0 0 1
-28.458203 31.067010 25.212071 49.098645 -0.829197 1.031540 0.112474 -0.010941 -97527.300000 0 0 1
-28.381403 32.462110 25.455501 50.072699 -0.852367 1.037504 0.105514 -0.014998 302616.000000 0 0 1
-29.307823 33.127210 24.601281 50.612089 -0.846496 1.063203 0.107564 -0.015889 42098.700000 0 0 1
-29.515303 -33.673381 25.049271 51.308047 0.851108 1.060755 0.111566 -0.009471 35625.900000 0 0 1
-30.056933 -33.687881 26.354691 52.276786 0.842297 1.042413 0.117777 -0.027732 29.563000 0 0 1
-30.258603 -32.387481 26.838481 51.815404 0.819368 1.026328 0.107457 -0.026860 -50527.700000 0 0 1
-30.715853 -32.421581 28.291831 52.868235 0.812408 1.006125 0.125425 -0.033813 375435.000000 0 0 1
-32.057483 -32.878881 28.464691 54.027231 0.798047 1.015896 0.103763 -0.033794 430600.000000 0 0 1
-32.361443 -33.100681 29.831011 55.070930 0.796690 0.998358 0.100279 -0.033962 -443028.000000 0 0 1
-33.824513 -33.414781 30.112801 56.279891 0.779305 1.006224 0.104757 -0.038183 -470540.000000 0 0 1
-34.169728 -33.544281 31.453151 57.289526 0.776162 0.989604 0.098238 -0.042168 -278282.000000 0 0 1
-35.518661 -33.938081 31.535391 58.376789 0.762646 1.000117 0.086778 -0.043663 -187960.000000 0 0 1
-36.053830 33.762310 32.869621 59.331141 -0.752588 0.983632 0.077137 -0.043698 81375.800000 0 0 1
-35.522868 32.484210 33.219813 58.486358 -0.740746 0.966732 0.053557 -0.032624 -26511.400000 0 0 1
-36.316273 31.884510 -33.921661 59.043821 -0.720508 2.182810 0.058711 -0.035207 450726.000000 0 0 1
-35.640200 30.546010 -33.369891 57.591946 -0.708582 2.188812 0.036795 -0.024642 813836.000000 0 0 1
-34.480735 30.844710 -32.607141 56.599849 -0.729795 2.184745 0.034239 -0.022089 331838.000000 0 0 1
-33.807993 29.701710 -31.996101 55.217049 -0.720832 2.188863 0.010443 -0.012392 805217.000000 0 0 1
-33.236033 29.962210 -30.553571 54.183841 -0.733642 2.169881 0.006396 -0.016291 439391.000000 0 0 1
-34.294885 30.103010 -29.629481 54.408056 -0.720397 2.146683 0.012803 -0.019124 -111693.000000 0 0 1
-34.954514 31.341910 -29.501501 55.447921 -0.730960 2.131825 0.017844 -0.008080 281556.000000 0 0 1
-35.949756 31.358310 -28.319571 55.477263 -0.717288 2.106530 0.026136 -0.003553 197418.000000 0 0 1
-35.254599 31.216910 -27.112601 54.336685 -0.724730 2.093211 0.019813 -0.014756 16007.600000 0 0 1
-36.064673 30.680710 -26.066871 54.050425 -0.704908 2.074040 0.055266 -0.019228 -79473.900000 0 0 1
-35.306998 30.576410 -24.729791 52.849442 -0.713719 2.057742 0.068641 -0.017253 -117811.000000 0 0 1
-35.083251 31.822210 -24.056991 53.124630 -0.736696 2.040745 0.077079 -0.030865 14944.600000 0 0 1
-34.794148 31.721610 -22.663291 52.254359 -0.739238 2.019404 0.065524 -0.034658 -105666.000000 0 0 1
-35.972769 31.211310 -21.798991 52.377305 -0.714645 2.000049 0.062925 -0.034409 31795.400000 0 0 1
36.356941 32.014110 -21.603991 53.042086 0.721965 1.990291 0.065054 -0.038797 164141.000000 0 0 1
36.420061 33.361310 -20.947191 53.648697 0.741593 1.971918 0.073813 -0.044256 -461750.000000 0 0 1
36.585441 33.247210 -19.441391 53.120986 0.737631 1.945485 0.078383 -0.040260 290201.000000 0 0 1
-35.677283 32.563310 -19.196391 51.978257 -0.739798 1.949069 0.066800 -0.044098 216974.000000 0 0 1
-35.415500 32.299810 -17.837991 51.144201 -0.739419 1.927064 0.068415 -0.031169 404686.000000 0 0 1
-34.103120 31.480610 -17.611191 49.640766 -0.745432 1.933467 0.065538 -0.022603 290462.000000 0 0 1
-33.856263 31.247810 -16.284191 48.865602 -0.745354 1.910539 0.061360 -0.013103 612951.000000 0 0 1
-32.649543 30.501110 -16.040191 47.472077 -0.751391 1.915467 0.054894 -0.012452 521249.000000 0 0 1
-32.378643 30.352510 -14.531491 46.699204 -0.753111 1.887222 0.052952 -0.009810 474509.000000 0 0 1
-33.381533 29.520510 -13.905791 46.681456 -0.724094 1.873275 0.045416 -0.000368 815828.000000 0 0 1
-32.960313 29.215410 -12.587591 45.807968 -0.725240 1.849168 0.051904 0.005148 -323845.000000 0 0 1
-33.954353 28.372010 -11.824091 45.800417 -0.696070 1.831919 0.050709 0.001103 -306324.000000 0 0 1
-33.441933 27.901210 -10.597391 44.823489 -0.695319 1.809481 0.054767 0.007365 478022.000000 0 0 1
-34.400098 27.040410 -10.027791 44.889945 -0.666181 1.796083 0.053260 -0.002967 341569.000000 0 0 1
-33.661043 26.261010 -8.944491 43.620069 -0.662526 1.777316 0.050382 0.005887 357734.000000 0 0 1
-33.306193 27.084310 -7.784591 43.628686 -0.682733 1.750185 0.055676 -0.001929 -683775.000000 0 0 1
-32.147753 26.668910 -7.193891 42.384678 -0.692515 1.741351 0.060343 -0.011363 -1095590.000000 0 0 1
-31.857963 27.462810 -5.919791 42.475637 -0.711442 1.710621 0.075051 -0.017149 -33774.300000 0 0 1
-30.684003 27.141810 -5.201091 41.294519 -0.724218 1.697083 0.081101 -0.007253 407461.000000 0 0 1
-30.835853 27.563710 -3.811891 41.534787 -0.729426 1.662702 0.070217 -0.007845 -91315.600000 0 0 1
-30.128203 26.651310 -2.799091 40.321655 -0.724240 1.640271 0.076774 -0.008304 -600283.000000 0 0 1
-30.596613 25.309910 -2.692991 39.799454 -0.691115 1.638512 0.071327 -0.008113 128422.000000 0 0 1
-29.777533 24.355710 -2.008391 38.521887 -0.685574 1.622956 0.074786 -0.018276 111904.000000 0 0 1
-30.599263 23.151710 -1.426791 38.397296 -0.647718 1.607964 0.075911 -0.027286 -52323.000000 0 0 1
-31.132123 22.305310 -2.424991 38.374686 -0.621696 1.634031 0.066336 -0.026155 15380.200000 0 0 1
-31.984863 21.345610 -1.834091 38.497149 -0.588487 1.618457 0.070062 -0.028278 69770.300000 0 0 1
-32.630203 20.378610 -2.868891 38.577824 -0.558263 1.645231 0.050532 -0.016341 437896.000000 0 0 1
-31.680183 19.417310 -3.386891 37.311352 -0.549863 1.661695 0.041519 -0.020570 581227.000000 0 0 1
-32.121003 18.793810 -4.575191 37.495314 -0.529387 1.693122 0.031446 -0.011642 -546324.000000 0 0 1
-31.131013 17.798210 -5.156491 36.228520 -0.519365 1.713614 0.019386 -0.011180 -419149.000000 0 0 1
-30.883123 16.707410 -4.336191 35.379477 -0.495898 1.693668 0.062623 -0.023032 517668.000000 0 0 1
-29.774843 15.963310 -4.851191 34.130670 -0.492135 1.713415 0.071589 -0.021616 152303.000000 0 0 1
-29.318153 14.735510 -4.075291 33.065048 -0.465731 1.694361 0.091951 -0.028449 -391537.000000 0 0 1
-30.394273 13.862810 -3.804591 33.622378 -0.427915 1.684196 0.113596 -0.027451 533078.000000 0 0 1
-29.909873 12.605510 -3.318491 32.626857 -0.398860 1.672683 0.120826 -0.034618 75477.400000 0 0 1
-31.016833 11.764510 -2.639591 33.277847 -0.362530 1.650199 0.119888 -0.040703 -244509.000000 0 0 1
-31.978623 11.282510 -3.546291 34.095507 -0.339180 1.674995 0.102796 -0.029236 932.077000 0 0 1
-32.670293 10.261810 -2.853891 34.362734 -0.304344 1.653944 0.109060 -0.028629 -319655.000000 0 0 1
-33.777633 9.558010 -3.673991 35.295641 -0.275759 1.675077 0.081850 -0.021492 -148298.000000 0 0 1
-33.369793 9.004910 -4.876691 34.905782 -0.263574 1.710965 0.090362 -0.027788 386359.000000 0 0 1
-34.489953 8.554610 -5.613691 35.975711 -0.243126 1.727478 0.087962 -0.022101 91822.500000 0 0 1
-33.995543 7.666610 -6.751991 35.497370 -0.221808 1.762173 0.083581 -0.018438 -503082.000000 0 0 1
-33.652563 6.400810 -6.196291 34.811771 -0.187958 1.749744 0.100984 -0.027346 611283.000000 0 0 1
-33.046053 5.515510 -7.155591 34.258794 -0.165379 1.781214 0.095508 -0.023642 81684.000000 0 0 1
-32.037843 4.472610 -6.650291 33.025051 -0.138708 1.773554 0.115163 -0.033207 16878.800000 0 0 1
-30.776153 4.884110 -6.189791 31.770106 -0.157385 1.766881 0.128289 -0.032162 882018.000000 0 0 1
-29.800013 3.807210 -6.025991 30.640630 -0.127070 1.768753 0.113246 -0.033544 743622.000000 0 0 1
-28.382213 4.344910 -5.745091 29.281980 -0.151906 1.768276 0.137492 -0.033694 -136791.000000 0 0 1
-27.776913 4.795410 -6.936591 29.028765 -0.170955 1.812087 0.136306 -0.031338 333996.000000 0 0 1
-26.370203 4.929210 -6.777691 27.669872 -0.184791 1.818263 0.167946 -0.047576 415800.000000 0 0 1
-25.647973 5.276310 -8.083291 27.404335 -0.202890 1.870214 0.150542 -0.035997 -342564.000000 0 0 1
-25.771813 4.277910 -9.090291 27.660807 -0.164492 1.905654 0.151767 -0.047041 223352.000000 0 0 1
-24.692063 4.307610 -9.995691 26.984576 -0.172715 1.950260 0.150705 -0.053516 -204619.000000 0 0 1
-24.980063 3.546010 -11.298891 27.644940 -0.141011 1.991842 0.141382 -0.060170 152889.000000 0 0 1
-25.875463 4.163110 -12.225691 28.919520 -0.159523 2.007273 0.118207 -0.030334 339019.000000 0 0 1
-26.195403 3.529610 -13.362791 29.617925 -0.133935 2.038875 0.119085 -0.029986 -48345.100000 0 0 1
-27.170873 4.321910 -14.241291 30.979826 -0.157743 2.048449 0.092781 -0.021724 -280446.000000 0 0 1
-26.504533 5.439610 -14.795591 30.838112 -0.202422 2.071203 0.067558 -0.019055 1019310.000000 0 0 1
-27.370073 6.354510 -15.558091 32.117828 -0.228128 2.076481 0.094346 -0.023635 262789.000000 0 0 1
-27.997603 5.887510 -16.876291 33.216528 -0.207266 2.103738 0.043271 0.001378 -351159.000000 0 0 1
-29.020873 4.975810 -16.591391 33.797101 -0.169805 2.083932 0.061229 -0.009387 -372206.000000 0 0 1
-29.658203 4.524210 -17.792691 34.880616 -0.151378 2.106100 0.067005 0.002594 424527.000000 0 0 1
-31.084513 3.962910 -17.502791 35.892887 -0.126804 2.080180 0.070634 -0.008035 144806.000000 0 0 1
-31.167233 2.748810 -16.761691 35.495164 -0.087968 2.062609 0.072302 -0.013368 135541.000000 0 0 1
-30.817003 1.566410 -17.419891 35.434361 -0.050786 2.084734 0.093641 -0.014410 -121108.000000 0 0 1
-31.055893 0.368310 -16.514391 35.175691 -0.011859 2.059502 0.085936 -0.012563 -298981.000000 0 0 1
-30.674433 -0.921690 -17.005391 35.084950 0.030038 2.076807 0.089562 -0.009312 418655.000000 0 0 1
-31.029163 -1.925490 -16.044191 34.984747 0.061975 2.047221 0.093138 -0.019125 -192802.000000 0 0 1
-31.008343 -3.350890 -16.667191 35.362990 0.107646 2.061580 0.082421 -0.011553 -174627.000000 0 0 1
-31.996863 -3.487690 -17.649891 36.708063 0.108572 2.072384 0.083955 -0.011108 12208.200000 0 0 1
-31.923863 -4.749190 -18.269291 37.087125 0.147683 2.085877 0.079051 -0.014201 -233673.000000 0 0 1
-32.883493 -4.893990 -19.438991 38.511682 0.147744 2.099895 0.088142 -0.015911 -290359.000000 0 0 1
-32.928143 -6.203490 -19.896691 38.969529 0.186212 2.106644 0.109886 -0.014093 724594.000000 0 0 1
-33.864653 -6.439790 -20.980591 40.354316 0.187919 2.117541 0.122121 -0.017430 403041.000000 0 0 1
-33.554513 -7.798290 -21.686391 40.706489 0.228353 2.132643 0.127648 -0.017019 -529424.000000 0 0 1
-32.380763 -7.652690 -22.412591 40.117349 0.232076 2.163585 0.115982 -0.008960 -666020.000000 0 0 1
-32.242923 -8.529690 -23.511791 40.806446 0.258620 2.184841 0.111995 -0.002327 -389629.000000 0 0 1
-30.836813 -8.404090 -24.105291 40.032522 0.266072 2.216979 0.097429 0.001531 -608506.000000 0 0 1
-30.539543 -7.186390 -24.699291 39.929474 0.231110 2.237721 0.103979 -0.003795 11527.700000 0 0 1
-30.480723 -7.153190 -26.130611 40.780528 0.230508 2.266287 0.085501 0.003044 301108.000000 0 0 1
-31.848143 -7.233090 -26.885051 42.301629 0.223324 2.259525 0.095909 0.003009 147782.000000 0 0 1
-32.536163 -8.430990 -26.705521 42.928643 0.253550 2.242207 0.090471 -0.000832 -510672.000000 0 0 1
-33.801413 -8.473990 -27.320551 44.280431 0.245637 2.235708 0.083291 -0.002904 109126.000000 0 0 1
-34.609444 -9.672490 -26.776051 44.814368 0.272522 2.211161 0.071912 -0.006946 -528770.000000 0 0 1
-34.058763 -10.939890 -27.129591 44.896495 0.310797 2.219645 0.070745 0.002443 -65006.300000 0 0 1
-34.891433 -12.058290 -26.840951 45.642646 0.332745 2.199464 0.042581 0.003476 281792.000000 0 0 1
-36.141503 -12.236890 -27.763451 47.188547 0.326468 2.199815 0.023548 0.009328 230591.000000 0 0 1
36.256871 -11.415290 -27.377251 46.844246 -0.305020 2.194976 0.027004 0.000158 -389153.000000 0 0 1
35.416921 -11.283990 -28.472781 46.822922 -0.308437 2.224455 0.028827 -0.004768 -203645.000000 0 0 1
34.416201 -10.081590 -28.358551 45.720026 -0.284959 2.239877 0.031720 -0.004895 -65359.600000 0 0 1
33.360151 -10.337690 -27.487281 44.444551 -0.300497 2.237581 0.008305 -0.004076 -223582.000000 0 0 1
32.589851 -9.175190 -27.176001 43.414485 -0.274432 2.247166 -0.010997 0.002129 215914.000000 0 0 1
31.267381 -9.469790 -26.442991 42.030439 -0.294083 2.251241 -0.007287 0.009486 -65652.600000 0 0 1
31.411891 -9.579290 -25.067031 41.313748 -0.295999 2.222759 -0.022891 0.021095 -206848.000000 0 0 1
30.206981 -9.915890 -24.446891 40.105325 -0.317182 2.226311 -0.031249 0.019760 -530350.000000 0 0 1
30.302821 -10.052190 -22.881191 39.279211 -0.320302 2.192630 -0.039934 0.014314 -326328.000000 0 0 1
31.120021 -11.111090 -22.510291 39.982812 -0.342933 2.168807 -0.045873 0.015421 -35503.500000 0 0 1
31.186591 -11.194990 -21.080591 39.272415 -0.344642 2.137411 -0.027684 0.006467 203514.000000 0 0 1
32.189391 -12.188790 -20.392091 40.007010 -0.361974 2.105647 0.019997 0.003858 -742616.000000 0 0 1
33.505631 -11.927690 -20.666391 41.133889 -0.342002 2.097189 0.026852 0.002216 -1021800.000000 0 0 1
34.422171 -12.590090 -19.816491 41.666408 -0.350641 2.066441 0.057382 0.000391 1022030.000000 0 0 1
35.891321 -12.583490 -20.395691 43.156869 -0.337209 2.063029 0.084092 -0.014702 497529.000000 0 0 1
36.599301 -11.383390 -20.456291 43.445946 -0.301543 2.061044 0.104977 -0.010479 110336.000000 0 0 1
36.356761 -10.631090 -21.620091 43.614934 -0.284479 2.089441 0.101519 -0.007976 -563738.000000 0 0 1
-36.483183 -11.110090 -22.932491 44.501190 0.295604 2.112181 0.072897 -0.005341 -37195.600000 0 0 1
36.430911 -12.222490 -23.620691 45.105849 -0.323697 2.121952 0.062885 -0.003137 147388.000000 0 0 1
35.120361 -12.087190 -24.130491 44.292443 -0.331467 2.146946 0.072673 0.005374 -31302.800000 0 0 1
34.694451 -13.464290 -24.704591 44.668880 -0.370190 2.156829 0.032597 -0.011772 -193933.000000 0 0 1
34.736771 -14.621090 -23.855191 44.603696 -0.398402 2.135097 0.035639 -0.021478 818765.000000 0 0 1
33.721281 -14.654290 -22.836291 43.282435 -0.409949 2.126582 0.008568 -0.009511 212064.000000 0 0 1
-29.976913 8.957310 -19.198191 36.707210 -0.290362 2.121173 0.029354 -0.004381 -697762.000000 0 0 1
-29.000363 8.009510 -19.299291 35.744034 -0.269469 2.141151 0.031953 -0.004573 -807568.000000 0 0 1
-28.383573 7.960610 -20.565491 35.943539 -0.273440 2.179935 0.041736 -0.023671 373154.000000 0 0 1
-27.260033 6.863010 -20.641591 34.875286 -0.246635 2.204172 0.049229 -0.026585 -278695.000000 0 0 1
-26.140953 7.214510 -19.896091 33.634105 -0.269282 2.203770 0.041798 -0.021654 -922619.000000 0 0 1
-25.148873 6.266310 -20.179791 32.847472 -0.244196 2.232356 0.070892 -0.031187 -906603.000000 0 0 1
-23.845663 6.604210 -19.497491 31.502117 -0.270184 2.238171 0.053311 -0.039795 -651319.000000 0 0 1
-23.286263 7.867410 -19.840091 31.587583 -0.325816 2.249903 0.062790 -0.034180 413228.000000 0 0 1
-22.000263 8.103810 -19.250291 30.335738 -0.352928 2.258254 0.056502 -0.030615 825129.000000 0 0 1
-21.320563 9.367310 -19.934291 30.654345 -0.413967 2.278766 0.069128 -0.023863 -60342.700000 0 0 1
-20.941863 9.109210 -21.256991 31.199343 -0.410290 2.320372 0.090973 -0.036722 35673.600000 0 0 1
-20.266063 10.185110 -21.861991 31.502324 -0.465701 2.337799 0.069144 -0.027467 658891.000000 0 0 1
-19.088763 9.762110 -22.838191 31.325112 -0.472731 2.387758 0.096822 -0.018249 634934.000000 0 0 1
-19.471363 9.011710 -23.919491 32.132335 -0.433463 2.410441 0.085935 -0.020112 22887.500000 0 0 1
-18.290363 8.467310 -24.475891 31.706497 -0.433561 2.452702 0.067064 -0.012929 362202.000000 0 0 1
-18.653663 7.324110 -25.523751 32.450941 -0.374143 2.475972 0.052207 0.000870 43609.300000 0 0 1
-19.070163 6.079010 -24.977591 32.007898 -0.308587 2.466033 0.066944 -0.002147 268958.000000 0 0 1
-19.590063 5.213810 -25.949511 32.929189 -0.260116 2.478415 0.063300 -0.002461 -517791.000000 0 0 1
-19.949863 3.801710 -25.494361 32.594669 -0.188305 2.468927 0.057877 0.004800 104170.000000 0 0 1
-18.921063 2.862210 -25.174521 31.622071 -0.150133 2.491629 0.049339 0.001709 563719.000000 0 0 1
-18.052663 3.220110 -24.098691 30.282250 -0.176517 2.491128 0.050306 -0.009463 -308469.000000 0 0 1
-17.373563 1.984410 -23.444291 29.247450 -0.113727 2.500736 0.058827 -0.013637 -290861.000000 0 0 1
-18.105863 1.280710 -22.490691 28.901448 -0.070617 2.462568 0.065319 -0.013000 246370.000000 0 0 1
-19.241763 0.553910 -22.960091 29.961943 -0.028779 2.443872 0.052020 -0.006675 273930.000000 0 0 1
-19.814663 -0.362790 -21.854491 29.502055 0.018307 2.405025 0.055078 -0.010902 -180851.000000 0 0 1
-19.046763 -1.516890 -21.692791 28.907738 0.079473 2.419486 0.069761 -0.018922 281810.000000 0 0 1
-19.542863 -2.224790 -20.543291 28.441167 0.113354 2.377931 0.065059 -0.016201 11768.800000 0 0 1
-18.976863 -3.648890 -20.321891 28.043092 0.189963 2.381347 0.056408 -0.033871 -76697.700000 0 0 1
-19.368863 -4.572390 -21.312691 29.159739 0.231825 2.390428 0.059835 -0.035352 324081.000000 0 0 1
-19.211063 -5.855790 -20.809591 28.920482 0.295867 2.373943 0.062490 -0.028371 -402454.000000 0 0 1
-19.139063 -6.869090 -21.918091 29.898007 0.344585 2.393658 0.045839 -0.033142 -61050.300000 0 0 1
-18.000063 -6.786290 -22.756891 29.798189 0.360536 2.439822 0.050987 -0.026454 11660.100000 0 0 1
-18.028163 -7.802790 -23.725691 30.802704 0.408468 2.450025 0.058059 -0.032907 640884.000000 0 0 1
-16.682763 -8.024690 -24.508491 30.714432 0.448346 2.494678 0.056283 -0.031600 -326206.000000 0 0 1
-16.750563 -8.826290 -25.675821 31.901921 0.484955 2.506196 0.069978 -0.057355 166778.000000 0 0 1
-15.515163 -8.991290 -26.355361 31.877400 0.525222 2.544142 0.078714 -0.052207 704051.000000 0 0 1
-14.320663 -9.667890 -25.609461 30.893267 0.593819 2.548052 0.075060 -0.048727 -217006.000000 0 0 1
-13.645163 -9.046690 -24.538291 29.498488 0.585457 2.553227 0.070166 -0.039768 175702.000000 0 0 1
-12.643963 -9.854590 -23.979191 28.844139 0.662047 2.552305 0.051154 -0.029713 -412911.000000 0 0 1
-11.899663 -9.145890 -22.884891 27.367271 0.655289 2.561139 0.071722 -0.027378 -632949.000000 0 0 1
-12.681263 -8.872290 -21.773491 26.713608 0.610483 2.523648 0.067359 -0.022196 -80867.900000 0 0 1
-11.951363 -8.117390 -20.849091 25.365561 0.596631 2.535613 0.078372 -0.018242 -829056.000000 0 0 1
-12.574863 -7.917890 -19.467791 24.491122 0.561943 2.489625 0.064585 -0.019675 9084.520000 0 1 0
-13.565963 -6.894390 -19.478491 24.718001 0.470196 2.478396 0.061428 -0.012024 1482120.000000 0 1 0
-14.933763 -7.346990 -19.663391 25.761298 0.457204 2.439190 0.062983 -0.029158 900409.000000 0 0 1
-15.938863 -6.238990 -19.245791 25.756025 0.373099 2.414687 0.066230 -0.025437 -390440.000000 0 0 1
-15.755263 -5.740990 -17.937691 24.555000 0.349432 2.389866 0.053539 -0.022631 377443.000000 0 1 0
-15.295863 -4.404490 -17.937091 23.981288 0.280368 2.415782 0.059166 -0.018016 -574035.000000 0 1 0
-14.880463 -3.956290 -16.542291 22.599288 0.259860 2.392024 0.069405 -0.019660 604244.000000 0 1 0
-16.008063 -3.899490 -15.637491 22.715528 0.238942 2.330085 0.092832 -0.031181 1045270.000000 0 1 0
-16.781963 -2.719490 -15.856191 23.247553 0.160652 2.321370 0.058662 -0.033005 995.939000 0 1 0
-17.861863 -2.435990 -14.774591 23.308126 0.135543 2.257358 0.058848 -0.040279 135991.000000 0 1 0
-17.395863 -2.208490 -13.479291 22.117522 0.126279 2.226150 0.073798 -0.044708 145341.000000 0 1 0
-18.474163 -1.659390 -12.789491 22.530410 0.089582 2.174450 0.076903 -0.041991 -384291.000000 0 1 0
-18.154263 -0.375890 -12.093391 21.816706 0.020702 2.158340 0.077744 -0.038291 -247796.000000 0 1 0
-17.925563 0.638210 -13.049291 22.181459 -0.035588 2.199748 0.100537 -0.038525 140986.000000 0 1 0
-16.782263 1.341110 -12.650291 21.058794 -0.079743 2.215189 0.079435 -0.027066 -843780.000000 0 1 0
-16.289463 2.263110 -13.807491 21.473590 -0.138047 2.269204 0.083069 -0.017089 -83678.900000 0 1 0
-15.552463 1.671310 -14.857691 21.573673 -0.107052 2.330485 0.077375 -0.032459 -829205.000000 0 1 0
-14.241663 1.388610 -14.534491 20.396192 -0.097196 2.364005 0.067994 -0.026350 -1594390.000000 0 1 0
-13.758563 0.321510 -15.513891 20.738424 -0.023364 2.415952 0.069104 -0.024103 -174437.000000 0 1 0
-13.447063 0.885410 -16.766891 21.511301 -0.065749 2.464577 0.073589 -0.029797 264687.000000 0 1 0
-12.777563 -0.081290 -17.567991 21.723421 0.006362 2.512755 0.046125 -0.022920 122190.000000 0 1 0
-12.029963 0.548910 -18.784291 22.313021 -0.045597 2.571504 0.058293 -0.029021 -159243.000000 0 1 0
-10.765063 1.064010 -18.467991 21.402929 -0.098519 2.611721 0.023568 -0.019961 -723500.000000 0 1 0
-10.448063 2.001910 -19.463691 22.181184 -0.189311 2.641392 0.035842 -0.021389 -572439.000000 0 1 0
-9.035463 2.480010 -19.195591 21.360261 -0.267878 2.687499 0.019610 -0.020456 -1660160.000000 0 1 0
-8.080263 1.521310 -19.559291 21.217231 -0.186096 2.743646 0.026426 -0.010951 995261.000000 0 1 0
-6.716363 2.055410 -19.577191 20.799054 -0.296980 2.797121 0.022325 0.000276 1539230.000000 0 1 0
-6.366463 3.221410 -20.492291 21.698924 -0.468434 2.806537 0.020538 0.003623 -1135270.000000 0 1 0
-6.266663 2.872810 -21.836791 22.899117 -0.429840 2.835799 0.017634 0.008300 74850.300000 0 1 0
-5.802963 3.898410 -22.650891 23.705165 -0.591546 2.842233 0.018561 0.003285 -672401.000000 0 1 0
-5.246463 3.368810 -23.970891 24.768485 -0.570809 2.887127 0.039240 -0.012056 -728101.000000 0 1 0
-4.030763 2.694510 -23.816391 24.304895 -0.589261 2.940761 0.047177 -0.018621 -663660.000000 0 1 0
-3.564363 2.378410 -25.092221 25.455472 -0.588424 2.972453 0.070915 -0.024217 -203765.000000 0 0 1
-2.236263 1.601410 -25.007351 25.158159 -0.621456 3.032044 0.058957 -0.025633 -142889.000000 0 0 1
-1.173363 2.369410 -24.485991 24.628330 -1.110985 3.034028 0.064322 -0.028002 1014660.000000 0 1 0
0.144337 1.786110 -24.645391 24.710449 1.490161 3.069012 0.064063 -0.025031 1389430.000000 0 1 0
0.676837 0.811010 -23.525991 23.549694 0.875335 3.096722 0.059713 -0.028268 -586480.000000 0 1 0
0.181337 -0.471790 -23.646991 23.652392 -1.203846 3.120222 0.056131 -0.027150 -79277.100000 0 1 0
0.649637 -1.249990 -22.583891 22.627784 -1.091503 3.079296 0.055995 -0.021717 -321675.000000 0 1 0
0.117437 -2.747690 -22.621691 22.788253 -1.528082 3.020613 0.063569 -0.028995 966883.000000 0 1 0
-1.152963 -3.074790 -22.024591 22.268054 1.212049 2.993584 0.049564 -0.021796 1334500.000000 0 1 0
-2.361863 -2.931790 -22.779791 23.088799 0.892647 2.977803 0.066436 -0.022985 311706.000000 0 1 0
-3.000363 -1.554690 -22.885991 23.134127 0.478075 2.994997 0.061965 -0.019255 -1361490.000000 0 1 0
-3.516663 -1.137890 -21.619291 21.932976 0.312939 2.972263 0.040505 -0.013248 538084.000000 0 1 0
-4.448663 -0.053690 -21.667591 22.119629 0.012068 2.939078 0.028021 -0.010703 1170930.000000 0 1 0
-5.844963 -0.344990 -22.339091 23.093670 0.058955 2.885256 0.038520 -0.011613 -156885.000000 0 1 0
-6.575163 -1.282490 -21.608791 22.623381 0.192632 2.840972 0.052969 -0.007544 -557588.000000 0 1 0
-7.942263 -1.094290 -21.872291 23.295367 0.136919 2.790250 0.045097 -0.001635 101916.000000 0 1 0
-8.792963 -2.366190 -21.504891 23.353273 0.262873 2.741054 0.053193 -0.001105 93483.200000 0 1 0
-8.935063 -3.309690 -22.484591 24.420201 0.354746 2.740762 0.090085 -0.007711 69940.200000 0 1 0
-9.365963 -4.595690 -22.044291 24.388366 0.456164 2.699564 0.070581 -0.004323 496556.000000 0 1 0
-10.350563 -5.276490 -23.108191 25.864338 0.471439 2.675739 0.073832 -0.011814 2023540.000000 0 0 1
-11.704963 -4.750790 -23.133791 26.358081 0.385564 2.641782 0.065618 -0.015677 1372460.000000 0 0 1
-12.625963 -5.595990 -23.813291 27.528219 0.417195 2.616047 0.059331 -0.024182 429145.000000 0 0 1
-14.117563 -5.421290 -23.448191 27.901857 0.366647 2.568782 0.059492 -0.030317 91125.700000 0 0 1
-14.639163 -4.192990 -23.869691 28.313396 0.278955 2.573731 0.068327 -0.032873 109164.000000 0 0 1
-16.053163 -4.150190 -23.923791 29.108004 0.252989 2.535530 0.078719 -0.035421 580764.000000 0 0 1
-16.718463 -2.768890 -24.235591 29.572582 0.164129 2.531385 0.068097 -0.031339 -87307.700000 0 0 1
-16.299463 -2.306890 -25.544501 30.389402 0.140598 2.569136 0.057768 -0.028735 138687.000000 0 0 1
-16.777263 -1.051190 -25.943111 30.913210 0.062574 2.566651 0.049947 -0.022784 415301.000000 0 0 1
-18.274663 -1.067690 -26.403281 32.128438 0.058358 2.535366 0.053028 -0.013150 -28810.700000 0 0 1
-18.672963 -1.700590 -27.625071 33.387364 0.090822 2.545278 0.068246 -0.027164 23716.800000 0 0 1
-17.927963 -1.340090 -28.791781 33.943694 0.074610 2.583415 0.048163 -0.023201 -165473.000000 0 0 1
-17.925563 -2.214690 -30.038781 35.050806 0.122926 2.600229 0.037527 -0.015315 1068220.000000 0 0 1
-19.227463 -2.219790 -30.681931 36.276765 0.114940 2.578810 0.037738 -0.017846 983896.000000 0 0 1
-19.215063 -3.024890 -31.813841 37.289262 0.156141 2.592817 0.044636 -0.024257 -281367.000000 0 0 1
-20.623563 -3.566290 -32.192841 38.398291 0.171230 2.565124 0.017139 -0.019537 279443.000000 0 0 1
-21.680363 -2.684890 -32.468521 39.133766 0.123212 2.549331 0.010584 -0.016988 262174.000000 0 0 1
-22.212663 -2.061490 -31.313301 38.447041 0.092542 2.522582 0.005283 -0.002617 -1097580.000000 0 0 1
-23.331663 -1.058490 -31.551161 39.255097 0.045336 2.504363 0.011320 -0.005882 -431452.000000 0 0 1
-22.901463 0.087710 -32.218401 39.528598 -0.003830 2.523639 0.002131 -0.004844 235191.000000 0 0 1
-23.982863 0.933310 -32.585101 40.470206 -0.038896 2.506746 0.007267 -0.010523 52270.300000 0 0 1
-23.606763 2.236810 -33.388181 40.951840 -0.094471 2.524050 0.010149 -0.006021 -225329.000000 0 0 1
-22.857463 3.232310 -32.674861 40.006974 -0.140480 2.526516 0.006896 0.006707 917138.000000 0 0 1
-23.608163 4.078510 -31.745701 39.771461 -0.171070 2.495103 0.016540 -0.001128 589364.000000 0 0 1
-24.797763 4.932810 -32.332291 41.044351 -0.196358 2.477928 0.019017 -0.007543 396117.000000 0 0 1
-25.933163 4.211910 -32.745951 41.982930 -0.161008 2.465434 0.041664 -0.019377 -34043.100000 0 0 1
-26.563093 4.782010 -33.906751 43.337435 -0.178117 2.469290 0.052410 -0.029573 451192.000000 0 0 1
-27.964163 4.174310 33.883857 44.130885 -0.148179 0.695390 0.075341 -0.027246 206409.000000 0 0 1
-27.970063 2.808610 33.639539 43.838696 -0.100079 0.696101 0.086288 -0.029102 -118650.000000 0 0 1
-29.247633 2.475110 33.182097 44.301262 -0.084425 0.724229 0.084850 -0.029090 -409884.000000 0 0 1
-29.478153 0.986110 32.773720 44.091390 -0.033440 0.732786 0.097266 -0.014097 -137602.000000 0 0 1
-29.500673 0.181210 33.924748 44.957881 -0.006143 0.715768 0.100977 -0.010063 49850.800000 0 0 1
-29.643053 -1.191090 33.552971 44.787623 0.040159 0.724008 0.086265 -0.009119 -979654.000000 0 0 1
-29.126733 -2.232690 -33.546531 44.482819 0.076505 2.425149 0.041949 -0.007133 -369138.000000 0 0 1
-27.752163 -2.238590 -33.261851 43.376775 0.080489 2.444657 0.058074 -0.013375 161583.000000 0 0 1
-27.228613 -1.051790 -32.664431 42.537850 0.038609 2.446339 0.061143 -0.007807 -1196490.000000 0 0 1
-27.611623 -0.708590 -31.231981 41.693410 0.025657 2.417479 0.093632 -0.008390 -460901.000000 0 0 1
-26.942813 -1.525290 -30.277751 40.558401 0.056552 2.413616 0.068122 -0.014946 336086.000000 0 0 1
-27.212503 -1.174490 -28.937411 39.740074 0.043133 2.386440 0.077931 -0.016208 -220343.000000 0 0 1
-26.198933 -1.544890 -27.789101 38.223094 0.058899 2.384774 0.072410 -0.012908 141361.000000 0 0 1
-26.277423 -2.880990 -27.282551 37.988691 0.109201 2.371973 0.056267 -0.005505 512580.000000 0 0 1
-25.236943 -3.081790 -26.333031 36.603678 0.121513 2.373748 0.068142 -0.010429 182265.000000 0 0 1
-25.357093 -4.464090 -25.636791 36.333942 0.174263 2.354049 0.057301 -0.015447 -224661.000000 0 0 1
-26.412953 -4.326990 -24.737791 36.446196 0.162378 2.316853 0.082122 -0.012034 -343253.000000 0 0 1
-26.696113 -5.572790 -24.136991 36.418852 0.205794 2.295296 0.064266 -0.012981 584328.000000 0 0 1
-27.885513 -5.423090 -23.113091 36.622762 0.192079 2.253783 0.082579 -0.017172 524869.000000 0 0 1
-27.972433 -6.461490 -22.184091 36.281424 0.227013 2.228682 0.072480 -0.020142 348564.000000 0 0 1
-28.991313 -6.051790 -21.261391 36.457745 0.205790 2.193433 0.100826 -0.014827 569391.000000 0 0 1
-29.582803 -7.293490 -20.439791 36.689539 0.241724 2.161688 0.103593 -0.029917 450635.000000 0 0 1
-28.621773 -7.918790 -19.567391 35.563969 0.269918 2.153403 0.081378 -0.026412 589833.000000 0 0 1
-29.183463 -8.812890 -18.617391 35.720425 0.293274 2.119050 0.094095 -0.017199 -69024.400000 0 0 1
-29.801013 -8.125090 -17.374491 35.439955 0.266175 2.083175 0.091153 -0.025329 182021.000000 0 0 1
-28.858183 -7.496990 -16.484591 34.069654 0.254169 2.075845 0.075509 -0.027594 274656.000000 0 0 1
-29.439213 -6.791890 -15.470591 33.943132 0.226742 2.044044 0.078227 -0.027832 -435976.000000 0 0 1
-28.397173 -6.022090 -14.643391 32.512981 0.208971 2.037994 0.082557 -0.032199 102635.000000 0 0 1
-27.761573 -4.910590 -15.293491 32.073505 0.175073 2.067837 0.079052 -0.023834 241860.000000 0 0 1
-26.885013 -4.319990 -14.379891 30.793628 0.159322 2.056664 0.084599 -0.032914 -315884.000000 0 0 1
-14.750163 20.935010 -5.012891 26.095422 -0.957010 1.764096 0.076628 -0.018001 201835.000000 0 0 1
-14.851563 20.571510 -6.359291 26.157151 -0.945491 1.816376 0.111140 -0.024438 62088.600000 0 0 1
-15.750663 19.477410 -6.476291 25.872674 -0.890795 1.823801 0.107854 -0.029764 -18271.600000 0 0 1
-15.761963 18.807110 -7.865491 25.768446 -0.873260 1.880984 0.134893 -0.039949 -48742.800000 0 0 1
-14.520463 18.160710 -8.102591 24.623307 -0.896328 1.906106 0.119331 -0.033372 238495.000000 0 1 0
-14.661563 17.115510 -9.047591 24.284996 -0.862469 1.952561 0.099072 -0.035215 -223097.000000 0 1 0
-15.091463 15.800910 -8.421991 23.416895 -0.808359 1.938694 0.095697 -0.030506 1383580.000000 0 1 0
-16.528463 15.787110 -8.182291 24.277002 -0.762461 1.914566 0.096022 -0.023099 1358090.000000 0 1 0
-16.925663 14.922210 -7.168291 23.675617 -0.722574 1.878395 0.103315 -0.012905 184007.000000 0 1 0
-18.435963 15.182110 -6.892091 24.857235 -0.688910 1.851745 0.121700 -0.015313 296874.000000 0 1 0
-19.269063 14.700410 -7.938591 25.503335 -0.651707 1.887332 0.112382 -0.021609 -381189.000000 0 0 1
-20.551063 15.233910 -7.722091 26.721694 -0.637891 1.863960 0.083360 -0.021368 -264705.000000 0 0 1
-21.648663 14.560210 -8.566791 27.460048 -0.592077 1.888065 0.087797 -0.010412 -73360.600000 0 0 1
-21.879063 13.238310 -8.162691 26.843543 -0.544137 1.879773 0.118927 -0.018820 -14217.400000 0 0 1
-22.891063 12.588210 -8.899091 27.598146 -0.502780 1.899116 0.133557 -0.020755 92777.300000 0 0 1
-23.153763 11.219310 -8.331691 27.044163 -0.451217 1.883968 0.132072 -0.024101 -191390.000000 0 0 1
-22.053063 10.344210 -8.386991 25.762025 -0.438591 1.902396 0.131616 -0.025777 -252961.000000 0 0 1
-22.326563 9.183310 -7.706491 25.341638 -0.390225 1.879794 0.130794 -0.034617 120908.000000 0 0 1
-21.058863 8.350110 -7.360891 23.819798 -0.377497 1.884963 0.094897 -0.018677 -26697.600000 0 1 0
-20.791463 7.294810 -8.276291 23.537124 -0.337437 1.930105 0.098454 -0.024900 480183.000000 0 1 0
-19.960663 6.333210 -7.610691 22.281388 -0.307238 1.919385 0.086361 -0.011693 -127954.000000 0 1 0
-19.709463 5.079410 -8.545391 22.074580 -0.252226 1.968296 0.072302 -0.027395 -767173.000000 0 1 0
-20.785063 4.220910 -8.642191 22.902454 -0.200350 1.957727 0.100757 -0.027665 10291.100000 0 1 0
-20.440163 3.201010 -9.608491 22.811616 -0.155342 2.005576 0.089477 -0.029295 -128545.000000 0 1 0
-21.499563 2.116710 -9.600291 23.640585 -0.098137 1.988972 0.098415 -0.030894 -267885.000000 0 1 0
-21.275763 1.331210 -8.416491 22.918716 -0.062488 1.946828 0.096675 -0.033222 271890.000000 0 1 0
-22.072763 0.166910 -8.338491 23.595872 -0.007562 1.931986 0.096727 -0.031920 -349383.000000 0 1 0
-21.771463 -0.997590 -9.273891 23.685372 0.045789 1.973106 0.075635 -0.046322 -122755.000000 0 1 0
-20.538563 -1.617590 -8.919491 22.450089 0.078596 1.979373 0.052055 -0.028460 547001.000000 0 1 0
-20.524663 -2.982490 -9.205391 22.691326 0.144302 1.988518 0.041506 -0.027160 286240.000000 0 1 0
-21.536463 -3.886090 -8.401691 23.441616 0.178521 1.937360 0.048931 -0.025391 406143.000000 0 1 0
-21.071763 -4.049990 -7.098091 22.600985 0.189884 1.890264 0.037125 -0.023821 419833.000000 0 1 0
-22.018663 -4.655890 -6.219791 23.349189 0.208382 1.840433 0.056701 -0.032521 -292561.000000 0 1 0
-22.222263 -6.184090 -6.399891 23.938057 0.271416 1.841440 0.067359 -0.035143 -1567970.000000 0 1 0
-21.128363 -6.933990 -6.195991 23.084156 0.317109 1.842537 0.057177 -0.036335 -1195080.000000 0 1 0
-21.523763 -8.272990 -6.354291 23.918440 0.366956 1.839690 0.081674 -0.035872 -162764.000000 0 1 0
-20.572563 -9.356990 -5.817291 23.337191 0.426862 1.822724 0.088131 -0.036378 -286729.000000 0 1 0
-19.477463 -9.623290 -6.659291 22.722796 0.458895 1.868229 0.092973 -0.026014 63007.800000 0 1 0
-18.649063 -10.568290 -6.015291 22.263424 0.515569 1.844384 0.107562 -0.014266 481022.000000 0 1 0
-17.642663 -11.348690 -6.974091 22.106431 0.571617 1.891757 0.082068 -0.010811 854165.000000 0 1 0
-16.495463 -10.595490 -7.390991 20.952123 0.570963 1.931311 0.081306 -0.037450 900068.000000 0 1 0
-16.548463 -10.137390 -8.731591 21.280484 0.549624 1.993590 0.059448 -0.041993 -670038.000000 0 1 0
-15.560663 -10.878490 -9.630291 21.288924 0.610123 2.040208 0.061844 -0.027167 148517.000000 0 1 0
-16.032863 -12.195890 -9.969491 22.476280 0.650302 2.030359 0.099071 -0.028343 231932.000000 0 1 0
-15.119863 -12.711890 -10.902191 22.562362 0.699094 2.075105 0.090761 -0.015144 18982.800000 0 1 0
-15.538563 -14.047390 -11.559491 23.924839 0.735039 2.075055 0.109638 -0.010455 -137594.000000 0 1 0
-16.544563 -13.928590 -12.520991 24.990066 0.699763 2.095595 0.111867 -0.012508 -67174.300000 0 1 0
-16.776463 -15.171590 -13.209391 26.193794 0.735207 2.099361 0.104075 -0.005134 -239615.000000 0 0 1
-17.578063 -15.176590 -14.489091 27.372448 0.712212 2.128608 0.135027 -0.005412 -365822.000000 0 0 1
-17.593063 -16.427290 -15.121091 28.425677 0.751145 2.131700 0.111289 0.001652 323104.000000 0 0 1
-17.785663 -16.375390 -16.538491 29.291720 0.744139 2.170761 0.093685 -0.001133 -623400.000000 0 0 1
-17.882463 -17.795890 -17.235491 30.553859 0.782972 2.170142 0.089478 -0.009562 -690218.000000 0 0 1
-19.153263 -18.347090 -17.187191 31.604790 0.763904 2.145774 0.060188 -0.003057 -451172.000000 0 0 1
-19.983663 -17.888490 -18.269091 32.451572 0.730132 2.168765 0.057050 -0.006778 788228.000000 0 0 1
-21.498363 -17.624990 -17.959591 33.096326 0.686716 2.144380 0.057140 -0.002764 571978.000000 0 0 1
-21.866863 -16.470190 -17.210791 32.336329 0.645548 2.132044 0.034245 0.005059 304755.000000 0 0 1
-21.685763 -16.631690 -15.812691 31.574145 0.654255 2.095332 0.037942 0.003741 -342821.000000 0 0 1
-21.543263 -15.303690 -15.105691 30.438413 0.617652 2.090094 0.042982 -0.003608 -352007.000000 0 0 1
-22.732763 -14.578290 -14.951291 30.868206 0.570228 2.076427 0.044639 -0.000795 288102.000000 0 0 1
-22.483263 -13.297690 -14.307191 29.782904 0.534108 2.071887 0.043282 -0.004567 363821.000000 0 0 1
-23.873863 -12.635490 -14.056291 30.449898 0.486781 2.050617 0.061636 -0.014393 387591.000000 0 0 1
-24.581563 -13.178190 -12.958891 30.754687 0.492109 2.005744 0.078277 -0.013683 -778257.000000 0 0 1
-25.728163 -12.455590 -12.810891 31.324097 0.450865 1.992131 0.104538 -0.023306 -1316800.000000 0 0 1
-26.388663 -12.727990 -11.422291 31.445699 0.449410 1.942538 0.111487 -0.028912 -356105.000000 0 0 1
-27.475563 -11.855290 -11.232491 31.962843 0.407351 1.929887 0.104481 -0.037964 -253416.000000 0 0 1
-28.140453 -12.256990 -10.097391 32.312168 0.410785 1.888615 0.099087 -0.034585 -538082.000000 0 0 1
-29.038453 -11.197490 -9.460991 32.528847 0.368039 1.865911 0.123743 -0.041631 -407768.000000 0 0 1
-28.348283 -10.109990 -8.904491 31.386733 0.342573 1.858449 0.119617 -0.039435 301339.000000 0 0 1
-29.112733 -9.316690 -7.970591 31.589275 0.309722 1.825873 0.137949 -0.046564 389072.000000 0 0 1
-28.270653 -8.093390 -7.460691 30.338008 0.278825 1.819264 0.127911 -0.039608 525977.000000 0 0 1
-27.202493 -8.513490 -6.596091 29.256855 0.303310 1.798206 0.108572 -0.042568 325575.000000 0 0 1
-26.453963 -7.485990 -5.998791 28.139611 0.275772 1.785625 0.104567 -0.033870 137957.000000 0 0 1
-27.262013 -6.480790 -5.107691 28.483443 0.233390 1.751093 0.117873 -0.039074 -262716.000000 0 0 1
-27.926163 -7.020090 -3.934591 29.062575 0.246277 1.706597 0.123175 -0.040422 387767.000000 0 0 1
-27.226943 -7.290290 -2.698991 28.315002 0.261623 1.666261 0.142493 -0.032593 -336756.000000 0 0 1
-26.576763 -6.032490 -2.114191 27.334687 0.223202 1.648218 0.138661 -0.031795 718556.000000 0 0 1
-27.535683 -5.060790 -1.609391 28.043102 0.181762 1.628218 0.147849 -0.039184 732591.000000 0 0 1
-26.854023 -4.209190 -0.745791 27.192132 0.155478 1.598226 0.127161 -0.038745 -359977.000000 0 0 1
-27.632303 -2.964390 -0.150491 27.791266 0.106871 1.576211 0.144008 -0.047779 515559.000000 0 0 1
-28.697883 -3.337490 0.752709 28.901106 0.115777 1.544749 0.143127 -0.038658 791816.000000 0 0 1
-28.303833 -3.645190 2.093209 28.614261 0.128083 1.497578 0.130234 -0.028324 -593581.000000 0 0 1
-29.555333 -3.811290 2.939109 29.944649 0.128247 1.472487 0.129307 -0.025622 -108789.000000 0 0 1
-30.186873 -5.121390 2.803709 30.746329 0.168056 1.479481 0.131795 -0.022406 -86500.100000 0 0 1
-30.994203 -5.331390 3.898609 31.690117 0.170345 1.447461 0.152646 -0.026876 -598983.000000 0 0 1
-31.833443 -6.617090 3.771909 32.731961 0.204947 1.455303 0.134820 -0.019045 -172355.000000 0 0 1
-31.142003 -7.789590 4.175309 32.371829 0.245102 1.441456 0.122705 -0.013134 134742.000000 0 0 1
-31.862173 -8.997090 3.980009 33.346457 0.275210 1.451158 0.131188 -0.016343 -127354.000000 0 0 1
-31.150413 -10.282090 4.455809 33.104741 0.318819 1.435789 0.115573 -0.006822 -37060.600000 0 0 1
-31.015043 -10.361990 5.832709 33.216325 0.322436 1.394283 0.102105 -0.006586 253234.000000 0 0 1
-30.228183 -11.440590 6.278709 32.924950 0.361813 1.378924 0.112941 -0.012419 -244294.000000 0 0 1
-30.276473 -11.653490 7.831009 33.373543 0.367424 1.333941 0.104304 -0.017921 55942.900000 0 0 1
-29.873843 -10.541590 8.662909 32.842315 0.339230 1.303865 0.109363 -0.008182 561782.000000 0 0 1
-29.520373 -11.006690 9.966709 33.044439 0.356885 1.264410 0.095939 -0.015218 -292523.000000 0 0 1
-29.514653 -9.857590 11.002509 33.005182 0.322341 1.230934 0.100191 -0.017549 -4607.560000 0 0 1
-28.370153 -9.020590 10.849409 31.685112 0.307852 1.221312 0.077655 -0.011889 661656.000000 0 0 1
-28.546703 -7.895890 11.675809 31.836832 0.269849 1.195295 0.094353 -0.015702 -280297.000000 0 0 1
-27.501743 -6.829690 11.369709 30.532947 0.243413 1.189229 0.114270 -0.020670 -634593.000000 0 0 1
-27.791153 -6.052290 10.292909 30.247684 0.214429 1.223574 0.142649 -0.016481 441831.000000 0 0 1
-27.090693 -4.809290 10.393409 29.411867 0.175695 1.209620 0.141116 -0.024894 -138788.000000 0 0 1
-27.431953 -3.798090 9.272509 29.204742 0.137580 1.247704 0.133696 -0.025978 33961.100000 0 0 1
-26.934613 -4.273590 7.997309 28.419956 0.157354 1.285546 0.115435 -0.024506 507798.000000 0 0 1
-27.231463 -3.403490 6.917409 28.301712 0.124339 1.323878 0.103819 -0.033420 -340500.000000 0 0 1
-26.471783 -3.841790 5.665009 27.342403 0.144122 1.362097 0.106060 -0.015167 -1601200.000000 0 0 1
-25.127923 -3.674690 5.808109 26.050912 0.145210 1.345954 0.123583 -0.037227 -1098910.000000 0 0 1
-24.401163 -4.238190 4.707309 25.209875 0.171972 1.382969 0.129148 -0.026420 -318034.000000 0 0 1
-22.907263 -3.919490 4.835909 23.737968 0.169461 1.365640 0.135301 -0.027853 -286583.000000 0 1 0
-22.548363 -2.583390 4.632909 23.163904 0.114074 1.369433 0.100099 -0.022916 968317.000000 0 1 0
-21.120263 -2.404790 4.540309 21.736213 0.113373 1.360364 0.078004 -0.017287 853531.000000 0 1 0
-20.697563 -0.917590 4.768309 21.259536 0.044304 1.344582 0.057100 -0.022911 -317598.000000 0 1 0
-20.955163 -0.086990 3.618709 21.265500 0.004151 1.399796 0.065727 -0.011740 878621.000000 0 1 0
-22.005063 0.795310 4.020009 22.383382 -0.036126 1.390219 0.054516 -0.038288 53806.100000 0 1 0
-22.351363 1.806710 2.974409 22.620671 -0.080657 1.438924 0.089422 -0.024692 164292.000000 0 1 0
-21.317463 2.778610 2.988809 21.704560 -0.129614 1.432653 0.041337 -0.020456 724830.000000 0 1 0
-21.752963 3.762210 2.066609 22.172427 -0.171257 1.477455 0.072951 -0.016456 30906.100000 0 1 0
-20.601663 4.285810 1.216109 21.077847 -0.205107 1.513068 0.049331 -0.004783 -499541.000000 0 1 0
-20.975463 5.066610 0.047409 21.578759 -0.237009 1.568599 0.070805 -0.002489 785797.000000 0 1 0
-21.854863 4.494910 -0.943891 22.332268 -0.202842 1.613075 0.086790 -0.018712 409676.000000 0 1 0
-21.194463 3.301510 -1.761591 21.522278 -0.154530 1.652738 0.068296 -0.012368 -50215.200000 0 1 0
-20.928663 2.156810 -0.985591 21.062578 -0.102693 1.617607 0.029005 -0.009951 413126.000000 0 1 0
-20.535263 1.050410 -1.785191 20.639460 -0.051107 1.657399 0.028402 -0.005872 -489955.000000 0 1 0
-19.746863 0.017510 -1.042591 19.774375 -0.000887 1.623545 0.032622 -0.008959 -555970.000000 0 1 0
-20.561163 -0.825290 -0.280291 20.579628 0.040117 1.584417 0.043256 -0.011754 603341.000000 0 1 0
-19.825063 -1.470690 0.784409 19.895009 0.074048 1.531359 0.040055 -0.014320 -224131.000000 0 1 0
-19.023763 -2.669290 0.312209 19.212656 0.139403 1.554545 0.030558 -0.013387 -84008.400000 0 1 0
-18.348563 -3.422990 1.327609 18.712274 0.184433 1.499788 0.039701 -0.010945 652932.000000 0 1 0
-17.762763 -4.667690 0.923109 18.388997 0.256970 1.520576 0.041439 -0.005604 -529172.000000 0 1 0
-18.768063 -5.707090 0.433309 19.621387 0.295200 1.548711 0.050355 -0.011045 -404164.000000 0 1 0
-19.670463 -5.976390 1.482309 20.611686 0.294963 1.498818 0.107961 -0.017886 207922.000000 0 1 0
-20.446763 -7.136790 1.242409 21.692106 0.335822 1.513490 0.080111 -0.026677 -65706.100000 0 1 0
-21.350663 -7.468090 2.443309 22.750669 0.336481 1.463194 0.106450 -0.021200 122532.000000 0 1 0
-20.530863 -7.822390 3.571009 22.258891 0.364026 1.409669 0.104410 -0.019983 1145970.000000 0 1 0
-21.311863 -8.560890 4.494509 23.402670 0.381968 1.377545 0.113196 -0.025238 274967.000000 0 1 0
-20.413463 -9.285190 5.528209 23.097301 0.426885 1.329106 0.093870 -0.019130 2925.410000 0 1 0
-19.748063 -10.378290 4.955009 22.852725 0.483866 1.352237 0.085928 -0.009042 -45706.300000 0 1 0
-18.632163 -10.689290 5.747509 22.236283 0.520857 1.309354 0.092157 -0.016702 -171818.000000 0 1 0
-18.029363 -12.075090 5.342609 22.347465 0.590131 1.329388 0.078584 -0.015660 46897.300000 0 1 0
-18.914463 -13.193090 5.527409 23.714274 0.609055 1.335549 0.085230 -0.017362 457566.000000 0 1 0
-18.300563 -14.382590 5.088709 23.825710 0.666090 1.355558 0.082990 -0.020675 82846.200000 0 1 0
-19.279763 -15.639290 5.078909 25.339534 0.681519 1.368995 0.095450 -0.020964 -79227.000000 0 0 1
-18.655663 -16.855990 4.923909 25.620364 0.734763 1.377406 0.093653 -0.029580 -227621.000000 0 0 1
-19.479263 -17.998190 5.097609 27.006706 0.745900 1.380904 0.092109 -0.024278 -273979.000000 0 0 1
-18.700863 -19.304990 5.016009 27.341640 0.801292 1.386295 0.094803 -0.027393 -248329.000000 0 0 1
-18.286863 -19.569790 3.677609 27.035363 0.819274 1.434344 0.089012 -0.033103 269562.000000 0 0 1
-17.561163 -20.776190 3.531609 27.432039 0.869064 1.441698 0.078866 -0.032940 606667.000000 0 0 1
-16.000863 -20.691590 3.535009 26.394428 0.912547 1.436463 0.078061 -0.026867 390731.000000 0 0 1
-15.430563 -21.961090 3.479309 27.064688 0.958306 1.441884 0.064214 -0.028683 -914417.000000 0 0 1
-14.054463 -21.801690 3.601009 26.187953 0.998191 1.432853 0.063286 -0.023319 -837573.000000 0 0 1
-13.192963 -23.025090 3.831209 26.812072 1.050480 1.427414 0.080024 -0.021780 -356009.000000 0 0 1
-13.189363 -23.932390 2.765709 27.465756 1.067102 1.469929 0.080335 -0.023746 120667.000000 0 0 1
-12.537463 -25.169060 2.990609 28.277434 1.108646 1.464839 0.068982 -0.029625 57183.100000 0 0 1
19.063537 18.994410 -24.224091 36.207908 0.783582 2.303696 0.091467 -0.012887 487635.000000 0 0 1
18.137837 19.326410 -25.286931 36.632228 0.817113 2.332689 0.068400 -0.021385 935146.000000 0 0 1
18.796537 19.134610 -26.562831 37.749531 0.794311 2.351332 0.079295 -0.028541 -50510.500000 0 0 1
17.925637 19.407510 -27.758671 38.321322 0.825071 2.380911 0.066899 -0.024991 -317915.000000 0 0 1
17.691937 20.751110 -28.068581 39.133853 0.864808 2.370638 0.060917 -0.016617 486615.000000 0 0 1
16.562337 20.835410 -28.936731 39.316151 0.899165 2.397941 0.043015 -0.017712 222318.000000 0 0 1
16.135337 22.269010 -29.405601 40.260989 0.943774 2.389666 0.059758 -0.013509 -668533.000000 0 0 1
15.508337 22.967910 -28.429071 39.701958 0.976897 2.368941 0.056559 -0.022646 -23909.700000 0 0 1
15.224937 24.317410 -28.700551 40.581483 1.011412 2.356373 0.058700 -0.018574 -203242.000000 0 0 1
14.491737 25.100010 -27.607351 40.027325 1.047190 2.331888 0.057492 -0.024133 -261036.000000 0 0 1
13.126637 24.786810 -27.500261 39.280515 1.083765 2.346333 0.067960 -0.032946 -492747.000000 0 0 1
12.505837 25.652410 -26.588801 39.005210 1.117190 2.320843 0.067173 -0.030724 -246461.000000 0 0 1
11.090037 25.142710 -26.177421 37.952630 1.155382 2.331925 0.083765 -0.032371 260018.000000 0 0 1
10.443737 25.983410 -25.278861 37.725721 1.188620 2.305099 0.074786 -0.036563 12318.800000 0 0 1
9.753437 27.115710 -25.806911 38.683173 1.225509 2.301153 0.087624 -0.043369 -330646.000000 0 0 1
9.233937 28.079310 -24.756891 38.556671 1.253084 2.268019 0.101635 -0.045403 67598.200000 0 0 1
10.273237 28.815410 -24.107191 38.948991 1.228326 2.238192 0.092269 -0.033389 466595.000000 0 0 1
9.824737 29.333510 -22.899791 38.488709 1.247608 2.208030 0.126417 -0.044094 -450278.000000 0 0 1
10.989237 29.655710 -21.988891 38.519291 1.215923 2.178342 0.091440 -0.035819 -351544.000000 0 0 1
11.923237 30.607410 -22.450991 39.787236 1.199328 2.170353 0.068160 -0.042205 -159537.000000 0 0 1
12.771037 30.986310 -21.407691 39.768581 1.179859 2.139223 0.056085 -0.029317 -730005.000000 0 0 1
13.902237 31.888210 -21.841691 41.075413 1.159673 2.131457 0.062366 -0.016848 -805021.000000 0 0 1
14.979237 31.205810 -22.415391 41.238694 1.123265 2.145460 0.054575 -0.013802 -277923.000000 0 0 1
15.979137 32.187410 -22.761691 42.537710 1.110000 2.135416 0.051732 -0.008312 -337241.000000 0 0 1
17.245437 31.495610 -23.220891 42.761996 1.069836 2.144833 0.007058 0.009787 -493429.000000 0 0 1
17.922437 30.795110 -22.185991 41.973453 1.043725 2.127714 0.013891 0.009091 -130954.000000 0 0 1
19.143437 30.291410 -22.657591 42.395838 1.007196 2.134629 0.012006 0.011721 -155861.000000 0 0 1
20.018737 29.378510 -21.733391 41.667577 0.972658 2.119510 0.013215 0.011498 242074.000000 0 0 1
20.769937 30.079010 -20.767291 42.040665 0.966466 2.087459 0.022078 0.017730 80245.700000 0 0 1
21.714137 29.206110 -20.183191 41.615644 0.931482 2.077149 0.029781 0.015368 103846.000000 0 0 1
22.561037 29.809910 -19.048591 41.958074 0.922938 2.042036 0.040616 0.008095 16763.600000 0 0 1
23.546737 30.757610 -19.403391 43.324023 0.917412 2.035174 0.031496 0.008675 220498.000000 0 0 1
24.190337 31.211410 -18.229291 43.492891 0.911456 2.003286 0.049705 -0.001912 -170561.000000 0 0 1
25.366237 32.183410 -18.316191 44.885417 0.903306 1.991130 0.043231 -0.003450 172454.000000 0 0 1
26.507137 31.690410 -19.007491 45.477413 0.874227 2.001989 0.056730 0.004483 414713.000000 0 0 1
27.621137 32.568910 -18.752691 46.640374 0.867416 1.984573 0.060135 -0.003660 653519.000000 0 0 1
28.926337 31.948410 -19.304791 47.224028 0.835002 1.991926 0.058452 -0.006368 -150322.000000 0 0 1
29.316237 30.706010 -18.780691 46.422141 0.808548 1.987297 0.060856 0.001207 -886770.000000 0 0 1
30.682237 30.510310 -18.885391 47.211616 0.782589 1.982330 0.053373 -0.004936 -721380.000000 0 0 1
31.193337 29.311510 -18.004091 46.436367 0.754306 1.968948 0.049327 -0.017312 -384260.000000 0 0 1
31.239937 29.607610 -16.632191 46.142973 0.758578 1.939546 0.052028 -0.015895 45602.200000 0 0 1
31.578137 28.504410 -15.832991 45.391229 0.734284 1.927099 0.054194 -0.017714 -469648.000000 0 0 1
32.020737 28.853310 -14.360391 45.431948 0.733413 1.892397 0.063854 -0.021192 266711.000000 0 0 1
33.381237 29.219010 -14.212591 46.583852 0.719007 1.880837 0.040981 -0.017202 -79119.900000 0 0 1
33.641737 30.540610 -14.536391 47.705366 0.737118 1.880432 0.050492 -0.023201 -450806.000000 0 0 1
35.135637 30.818310 -14.767091 49.013755 0.720032 1.876836 0.054047 -0.026520 -107386.000000 0 0 1
35.827337 31.119510 -13.592891 49.363839 0.715192 1.849762 0.052334 -0.018539 -573557.000000 0 0 1
-36.395808 31.667510 -13.854491 50.193954 -0.716040 1.850446 0.053135 -0.024987 -27553.500000 0 0 1
-35.582308 32.067610 -12.580091 49.524650 -0.733491 1.827627 0.051899 -0.014229 -100661.000000 0 0 1
-36.189308 33.009710 -11.783291 50.380085 -0.739482 1.806871 0.056746 -0.016561 283818.000000 0 0 1
-35.298908 33.211910 -10.704091 49.634882 -0.754945 1.788161 0.057728 -0.011872 49392.800000 0 0 1
-35.725908 -33.774481 -9.866491 50.143831 0.757328 1.768852 0.063139 -0.008108 779070.000000 0 0 1
-34.702808 -33.018181 -9.139691 48.764938 0.760527 1.759335 0.062582 -0.005992 668856.000000 0 0 1
-34.331708 -33.720081 -7.910591 48.767689 0.776411 1.733726 0.056874 -0.010516 47703.100000 0 0 1
-34.216708 -32.736681 -6.697291 47.826009 0.763296 1.711293 0.050956 -0.009258 285947.000000 0 0 1
-35.463108 -32.079981 -6.471691 48.255984 0.735352 1.705313 0.048321 -0.006611 86905.400000 0 0 1
-35.413208 -30.902681 -5.644491 47.338476 0.717487 1.690318 0.069945 -0.014882 47323.200000 0 0 1
36.690137 -30.244381 -5.396691 47.854080 -0.689395 1.683811 0.076368 -0.012704 -270553.000000 0 0 1
35.966837 -31.044281 -4.543791 47.728469 -0.712071 1.666142 0.052164 -0.011299 -473565.000000 0 0 1
34.658937 -30.603481 -4.277391 46.433943 -0.723337 1.663045 0.047280 -0.002398 -348226.000000 0 0 1
34.582537 -29.784381 -2.972591 45.737266 -0.710992 1.635835 0.044784 -0.001550 -547592.000000 0 0 1
35.253237 -28.564581 -2.956891 45.469431 -0.680971 1.635873 0.067381 -0.014528 258983.000000 0 0 1
34.482937 -27.549381 -2.330691 44.198116 -0.674087 1.623554 0.066192 -0.010234 45379.800000 0 0 1
35.099537 -26.173381 -2.667991 43.865038 -0.640737 1.631657 0.080831 -0.020873 -6370.130000 0 0 1
34.937137 -25.737381 -3.983891 43.576229 -0.634920 1.662348 0.081332 -0.025694 180342.000000 0 0 1
34.698537 -24.349981 -3.950691 42.573677 -0.611905 1.663727 0.089621 -0.032541 -263943.000000 0 0 1
34.218737 -23.789081 -5.298291 42.010882 -0.607501 1.697250 0.095078 -0.036370 -156973.000000 0 0 1
35.274137 -23.692381 -6.232791 42.946959 -0.591455 1.716438 0.106827 -0.041909 502804.000000 0 0 1
34.734537 -23.456081 -7.545791 42.586556 -0.593953 1.748924 0.098557 -0.043293 120803.000000 0 0 1
35.906837 -23.196781 -8.498291 43.584545 -0.573577 1.767038 0.104418 -0.049214 379006.000000 0 0 1
36.715237 -24.361881 -8.753991 44.923738 -0.585832 1.766914 0.100049 -0.030729 -102672.000000 0 0 1
-35.707908 -24.049981 -9.593091 44.107638 0.592732 1.790041 0.103604 -0.026264 343532.000000 0 0 1
-34.895008 -25.230681 -10.314091 44.278995 0.626026 1.805890 0.106333 -0.024600 877385.000000 0 0 1
-34.158308 -26.098881 -9.455791 44.015379 0.652437 1.787313 0.087388 -0.013390 317205.000000 0 0 1
-35.030408 -27.106481 -8.999391 45.198229 0.658559 1.771245 0.087989 -0.010790 117834.000000 0 0 1
-34.241608 -28.263481 -8.341591 45.176258 0.690046 1.756507 0.071823 -0.007333 -220364.000000 0 0 1
-33.570308 -28.931181 -9.371791 45.296902 0.711310 1.779199 0.060411 -0.008127 -89290.000000 0 0 1
-32.859608 -30.008281 -8.814391 45.364571 0.740075 1.766341 0.052352 -0.014765 -320000.000000 0 0 1
-32.392308 -31.056481 -9.821291 45.937179 0.764348 1.786258 0.045287 -0.009488 -80066.700000 0 0 1
-31.309208 -30.687281 -10.663591 45.118598 0.775367 1.809400 0.025228 0.011005 348678.000000 0 0 1
-31.169608 -31.632281 -11.705591 45.925663 0.792765 1.828521 0.025302 0.009083 -192549.000000 0 0 1
-31.251408 -30.979381 -13.102691 45.913539 0.781027 1.860197 0.014481 0.016374 210951.000000 0 0 1
-30.216908 -30.005781 -13.364591 44.632060 0.781892 1.874901 0.004206 0.015084 542636.000000 0 0 1
-30.569808 -29.252681 -14.497791 44.726038 0.763384 1.900906 0.000543 0.026541 -435983.000000 0 0 1
-29.527908 -28.213881 -14.803491 43.440348 0.762645 1.918540 0.007476 0.009117 -1075150.000000 0 0 1
-28.397008 -28.732781 -15.411791 43.237554 0.791275 1.935256 0.026293 -0.000924 -1072370.000000 0 0 1
-27.579408 -27.690681 -15.857491 42.176505 0.787411 1.956250 0.046494 0.002695 -97177.000000 0 0 1
-26.265008 -28.228381 -16.496091 41.938207 0.821412 1.975061 0.061315 -0.010339 -107192.000000 0 0 1
-26.290708 -29.043981 -17.665891 42.974852 0.835114 1.994429 0.045841 -0.008083 -244395.000000 0 0 1
-26.647608 -28.470981 -18.873991 43.323427 0.818467 2.021560 0.049869 -0.004866 75356.300000 0 0 1
-25.502108 -27.633081 -19.495291 42.355768 0.825481 2.049101 0.062940 -0.010984 288897.000000 0 0 1
-25.089208 -26.477181 -18.793291 41.032881 0.812308 2.046547 0.062978 -0.008946 441313.000000 0 0 1
-23.677808 -26.282981 -18.934691 40.124260 0.837495 2.062242 0.066884 -0.021556 793936.000000 0 0 1
-23.054108 -25.169781 -18.056991 38.614307 0.829242 2.057398 0.069210 -0.018128 -182884.000000 0 0 1
-23.085108 -25.545981 -16.662591 38.251292 0.835958 2.021511 0.075907 -0.020542 50873.500000 0 0 1
-22.775008 -24.480381 -15.810191 36.985838 0.821471 2.012484 0.075382 -0.020097 -23921.400000 0 0 1
-23.315508 -24.660481 -14.354991 36.848582 0.813425 1.970958 0.072443 -0.013755 -864835.000000 0 0 1
-24.684708 -24.605481 -14.215091 37.640847 0.783791 1.958054 0.044373 0.000654 -1047840.000000 0 0 1
-24.948008 -24.437181 -12.848891 37.211194 0.775055 1.923351 0.032128 0.004876 264815.000000 0 0 1
-26.442608 -24.266281 -12.438391 37.983911 0.742506 1.904415 0.015277 0.017072 -138207.000000 0 0 1
-27.170808 -25.431981 -12.786791 39.351500 0.752354 1.901742 0.020713 0.014548 479491.000000 0 0 1
-28.423008 -25.582781 -12.115991 40.114129 0.732855 1.877626 0.003504 0.019051 483761.000000 0 0 1
-29.633508 -24.751581 -12.618091 40.620214 0.695872 1.886658 0.007927 0.019315 -1099010.000000 0 0 1
-29.631208 -23.347881 -12.375991 39.702610 0.667349 1.887796 0.017293 0.022729 -88169.300000 0 0 1
-29.980008 -22.949681 -11.081391 39.348265 0.653347 1.856282 0.030635 0.017219 -368573.000000 0 0 1
-31.455708 -23.259581 -10.714991 40.562060 0.636708 1.838132 0.014991 0.009748 377156.000000 0 0 1
-32.470208 -22.434281 -11.362891 41.069778 0.604605 1.851126 0.056484 -0.003558 870533.000000 0 0 1
-32.718208 -22.464181 -12.757091 41.687696 0.601673 1.881801 0.051659 0.010942 -584113.000000 0 0 1
-34.147408 -21.959481 -13.101191 42.660351 0.571494 1.882945 0.033870 -0.004634 731576.000000 0 0 1
-35.142408 -22.989381 -12.926091 43.938415 0.579307 1.869401 0.059388 -0.002782 -447250.000000 0 0 1
-36.401508 -22.530781 -13.282191 44.823236 0.554238 1.871638 0.083193 -0.021869 -158200.000000 0 0 1
35.960237 -23.541581 -12.828991 44.854517 -0.579641 1.860860 0.085066 -0.005691 249588.000000 0 0 1
35.943237 -24.790181 -13.549291 45.717093 -0.603782 1.871689 0.068901 0.007903 258650.000000 0 0 1
34.907037 -25.669581 -13.119891 45.272068 -0.634072 1.864815 0.067621 -0.007193 343132.000000 0 0 1
34.861637 -26.953581 -13.923791 46.213647 -0.658159 1.876843 0.057201 -0.010258 290528.000000 0 0 1
34.182237 -26.919481 -15.174791 46.079909 -0.667090 1.906374 0.058448 -0.023141 -70356.800000 0 0 1
33.996337 -28.193281 -15.770991 46.897081 -0.692355 1.913770 0.039730 0.004038 80456.200000 0 0 1
33.135537 -28.197981 -17.055591 46.733105 -0.705068 1.944383 0.032918 -0.008681 -352876.000000 0 0 1
31.763637 -28.071181 -16.828091 45.608162 -0.723766 1.948698 0.067489 -0.010940 -533088.000000 0 0 1
31.065837 -28.096681 -18.061891 45.615147 -0.735254 1.977912 0.055033 -0.013988 222910.000000 0 0 1
29.534837 -28.201081 -17.915491 44.593412 -0.762301 1.984226 0.070784 -0.024812 515002.000000 0 0 1
28.829537 -27.096981 -17.295691 43.180198 -0.754429 1.982910 0.077062 -0.026140 389704.000000 0 0 1
27.481237 -27.384481 -16.969291 42.344835 -0.783635 1.983121 0.088920 -0.024672 305037.000000 0 0 1
26.875037 -26.415481 -15.948191 40.919311 -0.776775 1.971153 0.075910 -0.033535 -62838.200000 0 0 1
26.745637 -25.086781 -16.463191 40.195924 -0.753405 1.992783 0.075315 -0.042646 -107881.000000 0 0 1
26.294637 -24.324681 -15.378491 38.981996 -0.746501 1.976323 0.059227 -0.039927 -239845.000000 0 0 1
26.186437 -22.806181 -15.579891 38.060273 -0.716512 1.992535 0.042738 -0.040780 -102441.000000 0 0 1
25.032037 -22.375281 -16.252791 37.301599 -0.729416 2.021627 0.052176 -0.043322 -205155.000000 0 0 1
24.890337 -20.961881 -16.259491 36.377196 -0.699930 2.034171 0.044772 -0.040211 178993.000000 0 0 1
23.413637 -20.494781 -16.340691 35.146161 -0.719020 2.054358 0.042394 -0.032239 341742.000000 0 0 1
22.665337 -20.862481 -15.168891 34.337383 -0.744003 2.028356 0.052674 -0.035093 1076570.000000 0 0 1
21.419437 -20.156881 -14.988091 33.011134 -0.755040 2.042081 0.048535 -0.031653 881839.000000 0 0 1
21.590337 -18.857681 -14.174991 31.979449 -0.717941 2.030021 0.043843 -0.017932 -386704.000000 0 0 1
21.168937 -19.056881 -12.840391 31.243627 -0.732941 1.994321 0.035496 -0.024083 107391.000000 0 0 1
20.909637 -17.809781 -12.244391 30.072019 -0.705509 1.990149 0.038538 -0.027506 -879222.000000 0 0 1
19.908737 -18.022481 -11.161791 29.081836 -0.735711 1.964711 0.044792 -0.018159 -780258.000000 0 0 1
20.423337 -18.532581 -9.931691 29.312245 -0.736900 1.916463 0.040429 -0.025736 -447851.000000 0 0 1
19.386937 -18.610781 -9.024891 28.348953 -0.764975 1.894785 0.036866 -0.019513 -610386.000000 0 0 1
19.753037 -19.219981 -7.657591 28.604699 -0.771721 1.841806 0.030302 -0.018717 -374403.000000 0 0 1
20.643437 -18.501881 -6.860691 28.557664 -0.730745 1.813409 0.026481 -0.016169 -364124.000000 0 0 1
21.221937 -19.373781 -5.943691 29.343508 -0.739904 1.774763 0.023742 -0.010163 95888.200000 0 0 1
22.594837 -18.791981 -5.461591 29.891373 -0.693770 1.754543 0.029667 -0.012288 624218.000000 0 0 1
23.528137 -18.748881 -6.558491 30.791355 -0.672830 1.785438 0.029755 -0.026883 460648.000000 0 0 1
24.572337 -17.838881 -6.328891 31.017419 -0.627946 1.776282 0.044942 -0.025824 -217953.000000 0 0 1
25.713737 -17.668481 -7.363591 32.056106 -0.602031 1.802575 0.063383 -0.044589 -87022.600000 0 0 1
26.724037 -18.651981 -7.397591 33.418481 -0.609347 1.794007 0.077025 -0.051906 161199.000000 0 0 1
26.352837 -19.969281 -7.840491 33.981134 -0.648453 1.803625 0.074057 -0.056215 -383287.000000 0 0 1
27.461037 -21.020481 -7.624191 35.413238 -0.653326 1.787787 0.089464 -0.059903 -71716.500000 0 0 1
28.596937 -20.919781 -8.425891 36.420017 -0.631581 1.804265 0.091561 -0.052961 -199167.000000 0 0 1
29.627837 -21.781581 -7.990091 37.630939 -0.633944 1.784753 0.090809 -0.055828 198792.000000 0 0 1
-30.100433 29.541910 4.540909 42.419104 -0.776034 1.463542 0.045386 -0.009047 38806.200000 0 0 1
-29.648953 30.507710 3.610909 42.694490 -0.799673 1.486120 0.038371 -0.006249 -62018.400000 0 0 1
-28.458173 31.126210 4.062409 42.369940 -0.830146 1.474769 0.028747 0.006445 160114.000000 0 0 1
-28.118213 32.419310 3.283109 43.039800 -0.856327 1.494441 0.027884 0.003486 -265405.000000 0 0 1
-27.534213 32.205610 2.005409 42.418816 -0.863435 1.523502 0.037072 0.004390 183226.000000 0 0 1
-27.181893 33.323410 1.206009 43.020454 -0.886555 1.542759 0.045234 -0.015802 -16662.200000 0 0 1
-25.996493 -34.060481 1.752309 42.883617 0.918872 1.529923 0.071541 -0.007465 41.169500 0 0 1
-24.716763 33.603610 1.536609 41.743050 -0.936615 1.533977 0.050091 -0.010321 -447285.000000 0 0 1
-23.792463 -34.077681 2.405809 41.631209 0.961291 1.512976 0.068237 -0.012773 160342.000000 0 0 1
-22.301163 33.777010 2.186609 40.534055 -0.987251 1.516825 0.065814 -0.025411 542813.000000 0 0 1
-21.740763 -33.917381 1.001009 40.299523 1.000780 1.545955 0.091752 -0.032915 -799986.000000 0 0 1
-20.382163 34.053110 0.994409 39.699317 -1.031451 1.545745 0.084553 -0.036019 -1063040.000000 0 0 1
-19.486063 -33.671081 -0.218891 38.903680 1.046172 1.576423 0.089519 -0.034390 426033.000000 0 0 1
-19.257063 -32.285981 -0.340591 37.594349 1.032989 1.579856 0.091974 -0.029077 356556.000000 0 0 1
-18.293363 -31.849181 0.607509 36.733997 1.049432 1.554258 0.100239 -0.023318 -299690.000000 0 0 1
-17.971763 -30.345281 0.614609 35.273193 1.036100 1.553371 0.104449 -0.026404 -356713.000000 0 0 1
-17.217563 -29.993081 -0.510191 34.587421 1.049675 1.585548 0.097788 -0.021190 -57760.000000 0 0 1
-17.248663 -28.591181 -0.581191 33.396255 1.027964 1.588200 0.079192 -0.019959 -674825.000000 0 0 1
-16.258963 -28.005581 -1.520491 32.418797 1.044792 1.617715 0.069991 -0.012540 -746473.000000 0 0 1
-16.589263 -28.313981 -2.877891 32.941880 1.040806 1.658271 0.062148 -0.009731 161352.000000 0 0 1
-15.695563 -27.662781 -3.763291 32.027216 1.054701 1.688571 0.061771 -0.001465 61799.900000 0 0 1
-16.164863 -27.657681 -5.270091 32.465736 1.041880 1.733846 0.074019 -0.011050 -529094.000000 0 0 1
-17.195663 -26.768981 -5.463491 32.281867 0.999802 1.740858 0.070260 -0.010781 -913682.000000 0 0 1
-17.705863 -26.789181 -6.789991 32.821667 0.986773 1.779176 0.079625 -0.015947 778460.000000 0 0 1
-18.565763 -25.465781 -7.077691 32.299958 0.940840 1.791713 0.065800 -0.008256 970812.000000 0 0 1
-17.718663 -24.285181 -6.991491 30.864251 0.940474 1.799304 0.073046 -0.004704 415542.000000 0 0 1
-18.326763 -23.016781 -7.201091 30.290233 0.898355 1.810831 0.060398 -0.002743 137524.000000 0 0 1
-17.314063 -21.877381 -6.875191 28.734385 0.901313 1.812407 0.071924 0.000887 1002050.000000 0 0 1
-16.246363 -21.743381 -7.843691 28.253185 0.929098 1.852114 0.087510 -0.001643 427396.000000 0 0 1
-15.195963 -20.991281 -7.224691 26.902553 0.944198 1.842684 0.124920 -0.022290 331783.000000 0 0 1
-14.033763 -20.713581 -8.186991 26.325383 0.975321 1.887033 0.107056 -0.017994 54675.900000 0 0 1
-14.372963 -19.833581 -9.271191 26.189845 0.943699 1.932640 0.124165 -0.015809 -1160540.000000 0 0 1
-13.418963 -19.911781 -10.217691 26.094996 0.977788 1.973120 0.111769 -0.008599 -717850.000000 0 0 1
-13.759163 -19.095381 -11.484091 26.188404 0.946412 2.024746 0.125701 -0.012099 200502.000000 0 0 1
-14.838663 -19.643181 -12.229791 27.488330 0.923842 2.031868 0.113046 0.002417 16673.300000 0 0 1
-15.186363 -18.871881 -13.351791 27.659426 0.893191 2.074556 0.113510 -0.010259 -25313.400000 0 0 1
-16.467363 -19.223881 -14.107591 28.978540 0.862477 2.079252 0.118939 -0.010693 86355.000000 0 0 1
-17.700963 -19.198681 -13.387191 29.345023 0.825965 2.044516 0.114765 -0.009617 43139.400000 0 0 1
-18.649063 -19.718581 -14.273291 30.664912 0.813266 2.054951 0.081776 -0.004317 -1476220.000000 0 0 1
-20.040663 -19.605281 -13.720691 31.213020 0.774417 2.025930 0.060177 0.002897 -951715.000000 0 0 1
-21.029663 -20.258781 -14.491691 32.598682 0.766730 2.031466 0.064418 -0.012272 498386.000000 0 0 1
-22.350563 -20.012481 -14.019391 33.114807 0.730263 2.007944 0.045363 -0.005916 744387.000000 0 0 1
-23.483663 -20.683981 -14.849891 34.638545 0.722095 2.013861 0.055196 -0.011573 141188.000000 0 0 1
-23.612363 -20.165481 -16.185291 35.016482 0.706824 2.051292 0.051380 -0.019871 264587.000000 0 0 1
-24.344663 -21.063081 -17.027491 36.417736 0.713254 2.057325 0.071471 -0.025688 -92233.800000 0 0 1
-24.825563 -20.349981 -18.343091 36.971601 0.686649 2.089944 0.070605 -0.019673 108118.000000 0 0 1
-23.776863 -19.987081 -19.218991 36.526597 0.699018 2.124880 0.055778 -0.019785 94931.200000 0 0 1
-24.190363 -19.903681 -20.576391 37.479569 0.688486 2.151967 0.060211 -0.019617 152198.000000 0 0 1
-23.215163 -18.973081 -21.366091 36.816185 0.685184 2.189949 0.047327 -0.015241 1020110.000000 0 0 1
-21.929763 -19.570481 -21.566691 36.456007 0.728609 2.203815 0.037387 -0.013982 323319.000000 0 0 1
-21.118563 -18.863881 -22.487491 36.159743 0.729066 2.241954 0.042620 -0.021390 999410.000000 0 0 1
-19.635063 -19.371981 -22.578691 35.645570 0.778654 2.256764 0.050735 -0.020025 585069.000000 0 0 1
-19.466263 -20.732981 -23.047991 36.606035 0.816899 2.251864 0.036131 -0.011057 -234789.000000 0 0 1
-18.119163 -21.132081 -23.183091 36.226022 0.862008 2.265238 0.044207 -0.012061 -149816.000000 0 0 1
-17.886963 -22.555281 -23.740091 37.313216 0.900321 2.260409 0.049115 -0.012759 -565430.000000 0 0 1
-18.007163 -22.508881 -25.161341 38.262263 0.896054 2.288428 0.048279 -0.013646 109753.000000 0 0 1
-18.175663 -23.839581 -25.651501 39.454783 0.919397 2.278577 0.047600 -0.019993 -174915.000000 0 0 1
-18.129963 -23.933481 -27.234491 40.536707 0.922503 2.307497 0.053577 -0.008477 495903.000000 0 0 1
-16.844663 -23.626181 -27.787761 40.175848 0.951421 2.334572 0.048416 -0.015371 405242.000000 0 0 1
-16.841563 -23.705081 -29.214131 41.219347 0.953083 2.358518 0.057485 -0.016458 784778.000000 0 0 1
-15.422963 -23.476381 -29.872941 41.004888 0.989546 2.386957 0.037489 -0.019422 889243.000000 0 0 1
-14.563063 -24.559881 -29.607981 41.132750 1.035568 2.374332 0.053547 -0.022587 -472428.000000 0 0 1
-13.377063 -24.510381 -30.351241 41.241998 1.071205 2.397836 0.076028 -0.024158 263392.000000 0 0 1
-12.349363 -25.586681 -29.846581 41.206837 1.121126 2.380831 0.081541 -0.019628 -306662.000000 0 0 1
-12.783463 -26.934081 -30.193911 42.432699 1.127658 2.362529 0.076627 -0.019915 1333580.000000 0 0 1
-11.804663 -27.971781 -29.824761 42.559217 1.171452 2.347290 0.077817 -0.018603 1463620.000000 0 0 1
-10.438063 -28.045281 -30.592851 42.795017 1.214495 2.367234 0.073259 -0.018042 317782.000000 0 0 1
-9.656863 -26.944781 -30.223461 41.626120 1.226663 2.383385 0.092815 -0.028632 -629186.000000 0 0 1
-8.481963 -26.805281 -30.995261 41.847019 1.264336 2.404879 0.078449 -0.022376 -160179.000000 0 0 1
-7.629963 -25.646281 -30.466661 40.548311 1.281628 2.420927 0.100887 -0.029769 -495520.000000 0 0 1
-8.164363 -24.350981 -30.630811 39.973412 1.247296 2.443827 0.112663 -0.026064 240730.000000 0 0 1
-9.065363 -23.923481 -29.593711 39.119068 1.208583 2.428746 0.100737 -0.019875 223194.000000 0 0 1
-9.386563 -22.417481 -29.674491 38.356570 1.174260 2.455375 0.100493 -0.035434 -357766.000000 0 0 1
-10.113663 -21.993681 -30.766521 39.148269 1.139786 2.474942 0.090087 -0.034320 -437769.000000 0 0 1
-10.768863 -20.795581 -30.471081 38.430605 1.092976 2.486327 0.089780 -0.038195 462364.000000 0 0 1
-11.541363 -20.090981 -31.662541 39.234769 1.049372 2.509854 0.077760 -0.034690 331918.000000 0 0 1
-12.154363 -18.876381 -31.410271 38.608955 0.998726 2.521026 0.078346 -0.035044 -226626.000000 0 0 1
-12.806563 -18.452481 -32.595781 39.585187 0.964089 2.538233 0.073054 -0.026586 -695625.000000 0 0 1
-13.532563 -17.146981 -32.516511 39.172346 0.902670 2.550063 0.089891 -0.030207 -492447.000000 0 0 1
-12.822163 -15.940881 -32.569361 38.461446 0.893404 2.580747 0.091503 -0.028150 -319651.000000 0 0 1
-12.019363 -15.516881 -31.488631 37.104886 0.911737 2.584202 0.081782 -0.021305 272601.000000 0 0 1
-11.459863 -14.065381 -31.594521 36.433188 0.887122 2.620329 0.072357 -0.017503 223899.000000 0 0 1
-10.585863 -13.742381 -32.668461 36.988402 0.914424 2.653456 0.080249 -0.023309 406907.000000 0 0 1
-11.189163 -13.742581 -33.998071 38.339597 0.887459 2.661087 0.088817 -0.022334 78241.600000 0 0 1
-11.911163 -12.457681 33.646286 37.803997 0.807821 0.473409 0.074813 -0.011719 75894.100000 0 0 1
-13.084763 -12.034881 -33.842661 38.227936 0.743627 2.657905 0.058056 -0.008634 -98991.400000 0 0 1
-13.859863 -11.270781 33.334689 37.819675 0.682735 0.491955 0.039874 -0.013670 785378.000000 0 0 1
-14.912163 -10.396481 -34.026951 38.578398 0.608832 2.650930 0.059516 -0.012530 521766.000000 0 0 1
-14.347563 -9.310281 -33.321331 37.454572 0.575609 2.667367 0.058370 -0.010332 380502.000000 0 0 1
-15.169763 -9.075081 -32.144821 36.684715 0.539121 2.638811 0.063022 -0.022417 503836.000000 0 0 1
-14.687463 -8.005181 -31.148501 35.355814 0.499023 2.648770 0.064202 -0.029743 -438326.000000 0 0 1
-14.674563 -6.645081 -31.545351 35.420461 0.425205 2.669452 0.057312 -0.030803 669357.000000 0 0 1
-15.933463 -5.944481 -31.598501 35.884222 0.357088 2.647856 0.062313 -0.028181 587484.000000 0 0 1
-16.427263 -5.355581 -30.283731 34.866052 0.315152 2.623113 0.075094 -0.042038 -471288.000000 0 0 1
-16.502763 -6.288181 -29.255051 34.172217 0.364054 2.598484 0.064377 -0.045948 -48531.400000 0 0 1
-16.550663 -5.750881 -27.945271 32.983863 0.334420 2.581565 0.072319 -0.046471 79929.800000 0 0 1
-15.298563 -4.985781 -27.440181 31.809866 0.315044 2.611245 0.076722 -0.046590 48194.800000 0 0 1
-15.103963 -3.688181 -28.000491 32.027486 0.239500 2.634715 0.076511 -0.038956 880086.000000 0 0 1
-13.745963 -3.245381 -27.778151 31.162633 0.231851 2.671206 0.071997 -0.032312 1034760.000000 0 0 1
-13.462063 -1.937381 -28.513311 31.590972 0.142933 2.696516 0.052519 -0.017916 -12016.000000 0 0 1
-13.375163 -2.114381 -29.877721 32.803107 0.156785 2.716062 0.054349 -0.024693 93187.900000 0 0 1
-13.394463 -0.882381 -30.602861 33.417441 0.065782 2.728230 0.052613 -0.027257 -140580.000000 0 0 1
-13.713263 -1.135381 -32.082461 34.908838 0.082606 2.736423 0.047674 -0.023523 970948.000000 0 0 1
-15.098163 -1.364381 -32.473321 35.837587 0.090123 2.704827 0.023241 -0.022162 1425200.000000 0 0 1
-15.159263 -1.634381 -33.888521 37.160548 0.107399 2.718805 0.012945 -0.013905 -268829.000000 0 0 1
-16.577463 -1.803381 33.677598 37.579849 0.108359 0.459755 0.004010 -0.012536 -236131.000000 0 0 1
-16.623363 -2.276381 32.319515 36.415232 0.136092 0.478846 0.017550 -0.028510 -203843.000000 0 0 1
-17.888463 -2.039381 31.773711 36.520198 0.113515 0.515531 0.014955 -0.015897 -599023.000000 0 0 1
-17.858563 -1.988381 30.288431 35.217481 0.110884 0.535449 0.032055 -0.016387 -351693.000000 0 0 1
-17.323563 -0.846381 29.739961 34.428004 0.048818 0.527972 0.030149 -0.004650 -188489.000000 0 0 1
-17.249263 -0.825381 28.349521 33.195085 0.047814 0.547117 0.034726 -0.012749 -174437.000000 0 0 1
-16.434363 0.358619 27.765651 32.266829 -0.021818 0.534543 0.033505 -0.014424 75556.800000 0 0 1
-16.900563 1.673619 28.170061 32.893500 -0.098706 0.542536 0.030496 -0.012471 1062590.000000 0 0 1
-18.231363 2.063619 27.755681 33.271894 -0.112711 0.584101 0.041000 -0.023207 898411.000000 0 0 1
-18.324763 2.744619 26.366261 32.225915 -0.148671 0.612576 0.050095 -0.028323 -352040.000000 0 0 1
-18.024663 4.110619 26.487421 32.301225 -0.224221 0.609363 0.040086 -0.016808 210046.000000 0 0 1
-18.517163 4.760619 25.329041 31.734983 -0.251642 0.646590 0.043500 -0.012374 -665816.000000 0 0 1
-18.544163 6.282619 25.504961 32.153698 -0.326655 0.654717 0.042354 -0.013541 -373857.000000 0 0 1
-17.401163 7.096619 25.522861 31.695093 -0.387233 0.634679 0.044840 -0.014006 -492222.000000 0 0 1
-16.718763 6.998619 24.285831 30.303453 -0.396445 0.641129 0.046632 -0.009745 -187513.000000 0 0 1
-15.549663 8.021619 24.183421 29.849225 -0.476264 0.626327 0.053061 -0.012805 17883.100000 0 0 1
-14.420163 7.743619 24.967501 29.854327 -0.492807 0.580277 0.039584 -0.013033 -561433.000000 0 0 1
-13.306663 8.070619 24.185791 28.760296 -0.545192 0.571771 0.053852 -0.006632 -905425.000000 0 0 1
-11.964263 8.086619 24.888021 28.774130 -0.594366 0.525757 0.042525 0.005507 -545130.000000 0 0 1
-10.865363 8.545619 24.099651 27.782672 -0.666455 0.520774 0.043274 -0.006386 -261604.000000 0 0 1
-9.700663 8.593619 24.856251 28.031881 -0.724959 0.480609 0.036024 -0.011773 -654246.000000 0 0 1
-9.404063 9.925619 25.550941 28.979387 -0.812374 0.491357 0.036709 -0.018667 -727306.000000 0 0 1
-10.350163 10.306619 26.560501 30.311920 -0.783290 0.502794 0.034628 -0.019285 375500.000000 0 0 1
-10.309163 11.620619 27.065321 31.206557 -0.845129 0.521052 0.040553 -0.022792 -831074.000000 0 0 1
-10.894663 12.663619 26.077741 30.969493 -0.860346 0.569731 0.038565 -0.031757 1347010.000000 0 0 1
-12.349263 12.726619 26.001941 31.473355 -0.800446 0.598543 0.041920 -0.028180 1290410.000000 0 0 1
-12.796063 11.731619 25.147071 30.557246 -0.742028 0.604213 0.044457 -0.020077 -425836.000000 0 0 1
-14.346063 11.707619 25.007551 31.116803 -0.684473 0.637364 0.031281 -0.014647 440504.000000 0 0 1
-14.810463 12.680619 24.081731 30.985120 -0.708079 0.680588 0.034480 -0.030356 46981.300000 0 0 1
-16.195963 12.580619 23.796091 31.413932 -0.660418 0.711319 0.039712 -0.017338 396938.000000 0 0 1
-16.357663 11.999619 22.351391 30.185239 -0.632908 0.737021 0.036180 -0.006766 -56751.200000 0 0 1
-16.356263 10.616619 22.230591 29.570917 -0.575732 0.720051 0.035093 -0.003947 3393.520000 0 0 1
-15.997063 10.305619 20.928491 28.286278 -0.572301 0.737902 0.035930 0.000156 -629170.000000 0 0 1
-16.460563 8.850619 20.650591 27.851939 -0.493340 0.735580 0.038665 -0.000537 120197.000000 0 0 1
-17.836363 8.673619 20.872991 28.793216 -0.452618 0.759867 0.036302 0.008773 -469358.000000 0 0 1
-18.267763 7.345619 20.737291 28.595533 -0.382323 0.759481 0.033079 0.006679 1018060.000000 0 0 1
-19.821663 7.151619 20.934991 29.703835 -0.346262 0.788668 0.041261 0.003128 980693.000000 0 0 1
-20.223763 7.431619 22.264491 30.982852 -0.352152 0.768999 0.039006 -0.002680 891809.000000 0 0 1
-21.656163 7.544619 22.337291 32.013516 -0.335233 0.798551 0.035610 -0.003018 709012.000000 0 0 1
-22.180463 8.360619 23.553771 33.416358 -0.360467 0.788574 0.049340 -0.008188 -795815.000000 0 0 1
-21.986263 9.784619 23.499831 33.635942 -0.418716 0.797284 0.050602 0.000078 830159.000000 0 0 1
-20.654963 10.309619 23.362591 32.843970 -0.462956 0.779421 0.046546 0.001776 904916.000000 0 0 1
-19.660963 10.014619 24.542521 33.002748 -0.471112 0.732282 0.037901 -0.009390 -245317.000000 0 0 1
-20.049863 10.503619 25.812051 34.330526 -0.482565 0.719904 0.039456 -0.010168 339812.000000 0 0 1
-19.283763 9.803619 26.777981 34.424333 -0.470335 0.679512 0.034124 -0.012715 169947.000000 0 0 1
-31.637263 -13.923090 20.723591 40.301812 0.414578 1.030710 0.082807 -0.005285 -78659.700000 0 0 1
-30.633253 -14.917290 20.683991 39.859117 0.453164 1.025201 0.077108 -0.007599 182326.000000 0 0 1
-30.972223 -15.962090 19.762591 40.057795 0.475866 1.054857 0.068299 0.004337 122629.000000 0 0 1
-30.546933 -15.652290 18.315491 38.904582 0.473519 1.080622 0.062688 0.009137 252222.000000 0 0 1
-31.370053 -14.682990 17.648191 38.873244 0.437769 1.099554 0.073330 -0.011561 149609.000000 0 0 1
-30.960423 -14.595590 16.338191 37.927767 0.440529 1.125449 0.060054 -0.012598 -172808.000000 0 0 1
-31.973993 -13.620190 15.606391 38.097313 0.402698 1.148731 0.064318 -0.015716 763024.000000 0 0 1
-33.253993 -14.189890 15.325091 39.268810 0.403320 1.169881 0.078455 -0.019358 1199720.000000 0 0 1
-34.247536 -14.125890 16.379691 40.505910 0.391205 1.154498 0.079593 -0.019712 139462.000000 0 0 1
-34.859224 -12.769290 16.675091 40.697407 0.351131 1.148634 0.075947 -0.015775 310734.000000 0 0 1
-35.909013 -12.868090 17.697891 42.050687 0.344096 1.136392 0.050799 -0.013461 876919.000000 0 0 1
-36.543213 -11.628790 17.948691 42.341359 0.308088 1.133044 0.042482 -0.006307 -107141.000000 0 0 1
35.913121 -11.703790 19.091391 42.322715 -0.315038 1.102809 0.048315 0.008636 -393512.000000 0 0 1
36.486421 -12.152390 20.292891 43.482651 -0.321510 1.085253 0.048569 0.003263 153534.000000 0 0 1
35.648741 -11.959190 21.441791 43.285163 -0.323675 1.052546 0.048237 -0.002361 -550511.000000 0 0 1
36.329081 -12.477490 22.760791 44.649115 -0.330834 1.035879 0.045045 -0.010826 1189270.000000 0 0 1
-35.893560 -11.895490 23.166071 44.345430 0.320019 1.021133 0.040015 -0.005412 952558.000000 0 0 1
-34.800547 -12.370590 22.419391 43.205771 0.341541 1.025235 0.041110 -0.008399 -557778.000000 0 0 1
-33.493283 -11.549490 22.560191 42.001821 0.332062 1.003772 0.063661 -0.008801 89081.600000 0 0 1
-33.489143 -10.303690 21.896491 41.317612 0.298481 1.012248 0.079956 -0.011388 -968544.000000 0 0 1
-32.258053 -9.688290 21.908391 40.179877 0.291766 0.994100 0.102731 -0.019337 -946331.000000 0 0 1
-32.199603 -8.374090 21.091191 39.392616 0.254432 1.005804 0.115299 -0.014214 61262.800000 0 0 1
-32.417653 -8.400690 19.653891 38.829773 0.253562 1.040075 0.118409 -0.008520 8578.560000 0 0 1
-33.753083 -8.687790 19.318991 39.849363 0.251924 1.064661 0.106863 -0.015156 -441564.000000 0 0 1
-34.057093 -8.658590 17.844591 39.411752 0.248963 1.100923 0.106575 -0.013199 1326320.000000 0 0 1
-35.482868 -8.761390 17.559691 40.547979 0.242077 1.122912 0.030676 -0.005493 1510600.000000 0 0 1
-35.800980 -8.525790 16.176691 40.200555 0.233789 1.156660 0.048315 -0.002638 -379131.000000 0 0 1
36.196111 -8.508890 15.854691 40.421911 -0.230885 1.167742 0.048347 -0.002802 -334598.000000 0 0 1
35.538531 -9.760390 16.048291 40.197016 -0.268034 1.160108 0.046570 0.012325 205677.000000 0 0 1
34.139801 -9.527690 15.923491 38.856923 -0.272154 1.148564 0.046897 0.010337 438272.000000 0 0 1
33.354611 -10.909790 16.044991 38.587502 -0.316116 1.141965 0.040780 0.005555 297462.000000 0 0 1
33.420521 -11.533090 17.285991 39.354147 -0.332294 1.116042 0.030319 -0.003995 176840.000000 0 0 1
32.233831 -12.320390 17.364891 38.630963 -0.365085 1.104583 0.043849 -0.007363 425310.000000 0 0 1
31.952291 -12.829590 18.793291 39.226714 -0.381819 1.071174 0.037409 -0.011355 211048.000000 0 0 1
32.718011 -13.929190 19.331991 40.474887 -0.402493 1.072842 0.038371 -0.008443 49988.800000 0 0 1
32.592351 -13.917290 20.737091 41.060678 -0.403573 1.041373 0.041130 -0.007035 -17521.200000 0 0 1
33.364521 -15.173490 21.293891 42.389337 -0.426821 1.044493 0.043804 -0.000774 335302.000000 0 0 1
33.470251 -15.207990 22.686891 43.199950 -0.426485 1.017893 0.043639 -0.005439 -290349.000000 0 0 1
34.056031 -16.397790 23.098391 44.297138 -0.448734 1.022256 0.049454 0.002720 -14094.400000 0 0 1
34.419451 -16.285890 24.593031 45.329306 -0.441946 0.997337 0.062562 -0.001447 461536.000000 0 0 1
35.558001 -15.450190 24.831891 46.040228 -0.409895 1.001129 0.059906 0.004064 406474.000000 0 0 1
35.938401 -15.328990 26.199931 47.042353 -0.403170 0.980095 0.054962 0.006647 -524092.000000 0 0 1
-36.529013 -14.214790 26.326051 47.217476 0.371107 0.979366 0.051011 -0.002110 -1370810.000000 0 0 1
-35.278686 -14.658190 25.956471 46.186433 0.393794 0.974003 0.026805 0.001041 -1031940.000000 0 0 1
-34.293533 -13.664290 26.185751 45.259836 0.379170 0.953828 0.034717 -0.004057 341929.000000 0 0 1
-32.851013 -14.208690 26.049811 44.268144 0.408222 0.941650 0.042344 0.001987 -882690.000000 0 0 1
-32.569213 -14.418190 24.675051 43.330082 0.416762 0.964939 0.040352 0.002202 254247.000000 0 0 1
-31.180413 -14.628590 24.445921 42.235256 0.438672 0.953535 0.055948 -0.005510 463863.000000 0 0 1
-30.665483 -16.022890 24.928991 42.644571 0.481490 0.946439 0.061894 -0.005727 -796704.000000 0 0 1
-30.776113 -16.301990 26.310671 43.648315 0.487121 0.923806 0.058563 -0.003953 -6139.060000 0 0 1
-30.304253 -17.628290 26.471641 43.930082 0.526862 0.924059 0.063022 -0.013159 -118259.000000 0 0 1
-29.964353 -18.045090 27.931051 44.761941 0.542049 0.896957 0.061482 -0.016187 -43792.000000 0 0 1
-28.823133 -17.315190 28.329211 43.967408 0.540963 0.870659 0.059890 -0.014952 -69678.200000 0 0 1
-28.300223 -17.825490 29.538641 44.622663 0.562094 0.847359 0.071000 -0.023272 -40687.600000 0 0 1
-26.997173 -17.139490 29.973611 43.829520 0.565660 0.817745 0.064669 -0.025918 -217230.000000 0 0 1
-27.119653 -15.827890 30.547521 43.808090 0.528297 0.799168 0.082402 -0.033344 466200.000000 0 0 1
-25.867083 -15.157390 30.351481 42.662218 0.530041 0.779255 0.073368 -0.031398 119132.000000 0 0 1
-25.718183 -13.755090 30.952751 42.528816 0.491129 0.755678 0.072184 -0.032387 -382053.000000 0 0 1
-25.583463 -13.772790 32.373398 43.499887 0.493853 0.731433 0.074513 -0.034810 124087.000000 0 0 1
-25.359203 -12.526490 32.918408 43.400734 0.458806 0.709825 0.067743 -0.025831 -508525.000000 0 0 1
-24.801463 -12.648890 -33.806021 43.794452 0.471620 2.452660 0.064152 -0.027575 369744.000000 0 0 1
-23.377463 -12.789190 -33.709421 42.969689 0.500594 2.472674 0.046228 -0.018479 796693.000000 0 0 1
-22.931163 -14.141490 -33.746271 43.181371 0.552603 2.467864 0.049003 -0.025451 -266641.000000 0 0 1
-23.062463 -15.027990 -32.488441 42.581880 0.577514 2.438682 0.056213 -0.023377 -527548.000000 0 0 1
-22.091263 -14.605890 -31.552591 41.193712 0.584182 2.443324 0.047377 -0.014528 58669.400000 0 0 1
-22.100463 -15.373790 -30.389221 40.599121 0.607788 2.416622 0.052500 -0.018029 383989.000000 0 0 1
-20.737063 -15.377390 -29.618731 39.290700 0.638066 2.424677 0.042792 -0.012207 649882.000000 0 0 1
-20.345663 -14.237290 -28.803961 38.030443 0.610572 2.430106 0.055768 -0.016072 393927.000000 0 0 1
-21.064963 -14.096690 -27.556481 37.440739 0.589755 2.397943 0.055848 -0.011797 106146.000000 0 0 1
-20.537963 -12.961990 -26.698621 36.092069 0.562991 2.403475 0.051663 -0.011438 493631.000000 0 0 1
-19.192963 -13.118590 -26.228881 35.048843 0.599573 2.416371 0.055867 -0.019119 579210.000000 0 0 1
-18.730663 -11.961790 -25.572461 33.880273 0.568334 2.426129 0.046859 -0.026082 473501.000000 0 0 1
-17.310663 -12.099190 -24.955291 32.692751 0.610017 2.439245 0.065835 -0.032002 -516770.000000 0 0 1
-17.406663 -12.809190 -23.698591 32.073205 0.634402 2.402219 0.073482 -0.024026 615883.000000 0 0 1
-16.164263 -12.968490 -22.994191 30.954773 0.676138 2.408087 0.087530 -0.027419 1304460.000000 0 0 1
-15.107963 -13.876890 -23.792491 31.414984 0.742951 2.430059 0.054979 -0.024799 -336677.000000 0 0 1
-14.318863 -13.219590 -24.755591 31.505978 0.745502 2.474692 0.058899 -0.028296 -108492.000000 0 0 1
-13.811063 -14.144190 -25.660681 32.392501 0.797314 2.485169 0.059903 -0.033905 -142583.000000 0 0 1
-12.709463 -13.614490 -26.609241 32.479786 0.819765 2.530908 0.071328 -0.035454 -2778.950000 0 0 1
-13.226563 -12.597590 -27.437711 32.961632 0.761047 2.554245 0.094457 -0.037647 447566.000000 0 0 1
-12.262763 -12.145890 -28.389121 33.224090 0.780610 2.595334 0.087139 -0.037569 314882.000000 0 0 1
-12.874663 -10.921090 -29.149271 33.685414 0.703484 2.616621 0.067874 -0.031775 581062.000000 0 0 1
-11.989863 -10.098590 -29.929601 33.786378 0.699984 2.659115 0.063176 -0.026976 263326.000000 0 0 1
-11.428963 -10.644690 -31.111011 34.811286 0.749883 2.676332 0.070346 -0.020763 132737.000000 0 0 1
-10.821563 -9.493990 -31.974531 35.065834 0.720143 2.718547 0.051845 -0.011597 -260716.000000 0 0 1
-9.558163 -9.141390 -31.486361 34.151346 0.763114 2.743922 0.055776 -0.013450 -561985.000000 0 0 1
-9.258263 -7.841190 -31.997441 34.220402 0.702715 2.779168 0.048991 -0.006381 -1078970.000000 0 0 1
-7.819963 -7.439690 -31.825811 33.606295 0.760483 2.814621 0.068680 -0.007141 -1089170.000000 0 0 1
-7.432363 -7.260790 -30.461891 32.185181 0.773722 2.812875 0.056026 -0.007014 -66333.600000 0 0 1
-7.577563 -5.959790 -29.805721 31.326020 0.666458 2.828769 0.060853 -0.012434 -167017.000000 0 0 1
-6.869863 -4.746290 -30.446341 31.570587 0.604583 2.873921 0.062048 -0.016319 1861650.000000 0 0 1
-5.429663 -4.657490 -30.160891 30.997625 0.708997 2.908716 0.088750 -0.020695 1915650.000000 0 0 1
-4.882963 -3.445090 -30.676571 31.253223 0.614429 2.949197 0.084512 -0.022459 -282176.000000 0 0 1
-3.419563 -3.268290 -30.296691 30.663734 0.762783 2.986713 0.059311 -0.010514 -248107.000000 0 0 1
-2.411363 -4.031790 -30.990681 31.344733 1.031784 2.991148 0.061617 -0.016103 768271.000000 0 0 1
-1.062763 -3.823190 -30.639281 30.895174 1.299663 3.012798 0.068069 -0.012238 338801.000000 0 0 1
-0.446263 -2.386290 -30.988841 31.083786 1.385920 3.063413 0.067299 -0.014734 388212.000000 0 0 1
0.926937 -2.419590 -30.511141 30.620962 -1.204946 3.056874 0.081759 -0.015264 1255630.000000 0 0 1
1.567737 -1.132490 -30.689381 30.750259 -0.625584 3.078658 0.050395 -0.006072 174752.000000 0 0 1
1.623837 -0.090990 -29.515971 29.560745 -0.055975 3.086546 0.062877 -0.014712 -518252.000000 0 0 1
0.415237 0.565310 -29.279721 29.288121 0.937271 3.117641 0.068255 -0.021669 -570804.000000 0 0 1
0.643537 1.840010 -28.725431 28.791494 1.234348 3.073837 0.092592 -0.030771 -401478.000000 0 0 1
-0.602563 2.496310 -28.157041 28.273903 -1.333945 3.050641 0.076640 -0.034026 -12189.500000 0 0 1
-1.554063 3.032310 -29.091911 29.290771 -1.097198 3.025000 0.065107 -0.043397 96715.500000 0 0 1
-2.216963 4.133610 -28.566721 28.949252 -1.078512 2.978847 0.100125 -0.045285 -726786.000000 0 0 1
-3.429963 4.488410 -29.436761 29.973878 -0.918280 2.951997 0.120455 -0.047590 -538890.000000 0 0 1
-3.180763 5.003110 -30.736031 31.302587 -1.004499 2.951045 0.117970 -0.046683 -375810.000000 0 0 1
-4.343963 5.459110 -31.361561 32.128171 -0.898666 2.922702 0.132776 -0.049709 -417617.000000 0 0 1
-3.962663 5.959710 -32.779271 33.551474 -0.984012 2.926631 0.137445 -0.041645 -54.045900 0 0 1
-3.728063 4.991910 -33.828641 34.397595 -0.929333 2.959459 0.155090 -0.040632 1308360.000000 0 0 1
-2.541563 4.144210 -33.664521 34.013732 -1.020669 2.998174 0.140760 -0.037675 1041740.000000 0 0 1
-2.106663 3.385210 33.190309 33.428944 -1.014131 0.119558 0.107351 -0.033857 269215.000000 0 0 1
-3.056463 2.344110 32.874789 33.099676 -0.654252 0.116636 0.105327 -0.041134 551813.000000 0 0 1
-2.826863 1.617810 31.647501 31.814663 -0.519802 0.102556 0.092017 -0.031519 -122767.000000 0 0 1
-2.848363 2.441310 30.388091 30.618772 -0.708597 0.122829 0.086240 -0.026119 99079.600000 0 0 1
-4.046263 3.189410 30.267861 30.703224 -0.667526 0.168602 0.072985 -0.027869 112201.000000 0 0 1
-3.988963 4.079910 29.177591 29.730276 -0.796669 0.193121 0.067301 -0.033131 614777.000000 0 0 1
-5.171363 5.129210 29.105831 30.003353 -0.781306 0.245212 0.076329 -0.023579 667471.000000 0 0 1
-5.150663 5.774610 27.858311 28.912989 -0.842447 0.270930 0.072291 -0.008689 -301656.000000 0 0 1
-6.138263 6.760210 27.900441 29.356657 -0.833579 0.316291 0.053438 -0.007837 -576483.000000 0 0 1
-6.286563 7.515810 26.562751 28.312330 -0.874224 0.353392 0.053779 -0.007014 -1338610.000000 0 0 1
-5.247263 8.321210 26.242141 28.025457 -1.008188 0.358660 0.046489 -0.001100 -1131640.000000 0 0 1
-5.521963 9.289910 25.201311 27.420805 -1.034501 0.405113 0.049505 -0.003305 -444134.000000 0 0 1
-4.417763 10.322510 25.040291 27.442431 -1.166410 0.421525 0.044841 -0.011349 -864870.000000 0 0 1
-4.724363 11.294310 24.026751 26.966012 -1.174618 0.471250 0.053682 -0.007495 143301.000000 0 0 1
-4.201563 12.629310 24.081081 27.514561 -1.249631 0.504922 0.042933 -0.000543 -336034.000000 0 0 1
-2.668463 12.812210 24.180561 27.494962 -1.365457 0.496082 0.033182 0.002997 315477.000000 0 0 1
-1.876863 12.277810 25.255571 28.144468 -1.419104 0.457058 0.051126 0.002978 301573.000000 0 0 1
-2.185363 12.926510 26.482341 29.549701 -1.403319 0.459675 0.066527 -0.004261 -758046.000000 0 0 1
-1.320463 12.533810 27.661841 30.397655 -1.465831 0.427514 0.071666 -0.004000 -100971.000000 0 0 1
-0.020363 13.093910 27.602761 30.550995 -1.569241 0.442934 0.061396 -0.010455 -6120.480000 0 0 1
0.689437 12.799910 28.808111 31.531259 1.516986 0.418655 0.065645 -0.012116 77748.300000 0 0 1
2.221037 12.873710 28.726611 31.557623 1.399953 0.426811 0.054933 -0.006070 -1084.480000 0 0 1
2.807437 14.164110 28.701371 32.128996 1.375125 0.466124 0.055256 -0.013560 -334549.000000 0 0 1
4.206037 14.056010 28.746221 32.273943 1.280042 0.471926 0.053312 -0.009741 -453083.000000 0 0 1
4.808337 15.468510 28.992601 33.210929 1.269418 0.509510 0.050630 -0.011423 -509787.000000 0 0 1
4.578937 16.041010 30.272851 34.564811 1.292739 0.503646 0.058875 -0.011290 69072.800000 0 0 1
3.503737 16.947010 30.406331 34.986030 1.366922 0.517418 0.051154 -0.014067 -78896.200000 0 0 1
3.728837 18.247810 29.639861 35.005830 1.369227 0.561021 0.061498 -0.013628 101668.000000 0 0 1
4.755637 19.057510 30.210811 36.034676 1.326249 0.576489 0.084270 -0.011697 300576.000000 0 0 1
5.180937 20.044010 29.295561 35.872473 1.317854 0.615199 0.053059 -0.005675 -302336.000000 0 0 1
6.311437 20.851110 29.928771 37.018027 1.276873 0.629212 0.055130 0.000986 -458488.000000 0 0 1
5.887537 21.766810 30.897941 38.251011 1.306635 0.630440 0.060383 -0.017217 -579378.000000 0 0 1
6.936537 22.496610 31.403321 39.247695 1.271709 0.643282 0.033574 -0.017428 -787300.000000 0 0 1
7.116437 23.951610 30.861761 39.708583 1.281986 0.680583 0.034529 -0.009699 -147414.000000 0 0 1
7.598437 24.068910 29.560601 38.870012 1.265003 0.706715 0.016976 -0.010182 98312.600000 0 0 1
7.461337 25.364510 29.064741 39.291081 1.284702 0.738129 0.016476 -0.010588 -101225.000000 0 0 1
7.981737 25.513210 27.622421 38.439955 1.267595 0.769029 0.036287 -0.015177 -274276.000000 0 0 1
7.231637 24.846610 26.608501 37.116882 1.287569 0.771474 0.028378 -0.016604 110853.000000 0 0 1
7.773937 24.969910 25.317921 36.399555 1.268976 0.801603 0.042639 -0.024163 -312813.000000 0 0 1
29.877261 2.246510 6.567009 30.672841 0.075050 1.355027 0.128741 -0.021817 -154926.000000 0 0 1
29.686361 3.134810 7.655709 30.817478 0.105208 1.319746 0.123776 -0.023303 -50921.600000 0 0 1
28.469931 2.924610 8.328409 29.806924 0.102367 1.287615 0.114118 -0.016650 -179792.000000 0 0 1
28.385881 3.714610 9.631709 30.204742 0.130122 1.246248 0.097515 -0.015600 -93867.100000 0 0 1
28.348081 5.149010 9.595509 30.367743 0.179676 1.249310 0.113535 -0.020716 311684.000000 0 0 1
29.524421 5.781210 9.119409 31.436881 0.193365 1.276479 0.124051 -0.031208 -50480.000000 0 0 1
29.412091 7.300310 9.086809 31.637569 0.243291 1.279477 0.119104 -0.035109 -336927.000000 0 0 1
28.465911 7.817210 8.210209 30.640242 0.268010 1.299526 0.129636 -0.036857 -203936.000000 0 0 1
28.753621 9.141910 7.877909 31.183437 0.307833 1.315398 0.134007 -0.050139 -104645.000000 0 0 1
27.930081 9.673610 6.673009 30.301770 0.333420 1.348758 0.139308 -0.043135 430064.000000 0 0 1
26.604881 10.077210 7.007109 29.299650 0.362074 1.329303 0.133662 -0.029253 778674.000000 0 0 1
25.799181 10.157210 5.823009 28.331504 0.375066 1.363790 0.146515 -0.039634 1381860.000000 0 0 1
24.333281 10.735310 5.998009 27.264108 0.415493 1.348985 0.106505 -0.025455 1228810.000000 0 0 1
24.307181 12.155810 6.005109 27.832789 0.463721 1.353330 0.095103 -0.036209 120407.000000 0 0 1
22.975981 12.505310 6.309109 26.908797 0.498439 1.334131 0.095478 -0.018180 85606.400000 0 0 1
22.731481 14.016910 6.140309 27.402508 0.552558 1.344799 0.091997 -0.012654 -58215.700000 0 0 1
22.632381 14.601110 4.862009 27.368892 0.572953 1.392201 0.084307 -0.027867 171083.000000 0 0 1
22.494981 16.014510 5.011209 28.064229 0.618678 1.391271 0.114406 -0.005679 -306012.000000 0 0 1
21.937681 16.659110 3.759709 27.801497 0.649479 1.435147 0.103934 -0.025095 -870933.000000 0 0 1
20.577081 16.419210 3.618709 26.572576 0.673482 1.434190 0.111036 -0.005860 -496310.000000 0 0 1
19.968081 17.440610 2.816109 26.661389 0.717937 1.464974 0.099907 -0.013526 280914.000000 0 0 1
18.417581 17.363810 2.780809 25.464527 0.755956 1.461375 0.073657 -0.009569 -45084.900000 0 0 1
17.864081 17.602710 4.054809 25.405163 0.778029 1.410505 0.076218 -0.011070 591795.000000 0 0 1
16.455881 17.487210 4.188109 24.374963 0.815773 1.398119 0.052143 -0.027219 104919.000000 0 1 0
15.621681 18.733010 3.929609 24.706364 0.875717 1.411065 0.067072 -0.023603 -319300.000000 0 1 0
14.226381 18.523110 4.114909 23.715565 0.915853 1.396403 0.072257 -0.028766 268500.000000 0 1 0
13.580681 19.736210 4.133209 24.311239 0.968095 1.399954 0.061356 -0.021348 -1370500.000000 0 1 0
12.086681 19.768110 4.211809 23.550061 1.022020 1.390984 0.048777 -0.019277 -1110820.000000 0 1 0
11.526681 19.266210 5.395909 23.090411 1.031639 1.334929 0.038462 -0.019113 -810253.000000 0 1 0
10.155481 19.108410 5.230009 22.262483 1.082293 1.333655 0.036131 -0.016153 -366503.000000 0 1 0
9.466281 18.563010 6.532509 21.837342 1.099217 1.267001 0.032502 -0.015033 -278230.000000 0 1 0
9.243681 19.549010 7.557209 22.906786 1.129107 1.234587 0.038376 -0.013908 -106987.000000 0 1 0
8.559481 19.046610 8.665509 22.608165 1.148444 1.177439 0.035215 -0.008172 -191390.000000 0 1 0
7.426281 19.873510 9.309809 23.168483 1.213186 1.157281 0.040039 -0.011988 289668.000000 0 1 0
6.321281 20.117310 8.459209 22.720541 1.266344 1.189294 0.039186 -0.020464 -291418.000000 0 1 0
6.391181 21.069310 7.474109 23.251352 1.276277 1.243538 0.038205 -0.019347 -881326.000000 0 1 0
5.107181 21.193310 6.610409 22.780194 1.334324 1.276379 0.028154 -0.016637 428354.000000 0 1 0
3.837581 21.439510 7.168909 22.929738 1.393676 1.252818 0.021318 -0.019143 -9043.700000 0 1 0
3.736781 22.594210 8.011409 24.261998 1.406893 1.234277 0.039329 -0.024849 -966987.000000 0 1 0
3.603481 23.966810 7.322509 25.318219 1.421561 1.277385 0.053082 -0.026689 669920.000000 0 0 1
2.553481 23.978110 6.320009 24.928148 1.464704 1.314470 0.040893 -0.032544 727542.000000 0 1 0
2.627181 25.163710 5.613209 25.915681 1.466770 1.352471 0.054013 -0.028838 -176300.000000 0 0 1
1.420281 25.342210 4.685409 25.810809 1.514811 1.388255 0.057601 -0.026213 -858627.000000 0 0 1
0.255481 25.652310 5.342009 26.203881 1.560837 1.365494 0.067544 -0.034799 -881067.000000 0 0 1
-0.839019 25.950210 4.507809 26.352186 -1.538476 1.398891 0.077322 -0.027486 396570.000000 0 0 1
-2.097219 26.463410 5.273109 27.065035 -1.491712 1.374711 0.084988 -0.031835 632889.000000 0 0 1
-2.959119 27.188210 4.378309 27.697017 -1.462385 1.412052 0.094555 -0.025031 426913.000000 0 0 1
-4.073919 27.810910 5.011709 28.551021 -1.425344 1.394347 0.081043 -0.030609 -132003.000000 0 0 1
-5.005019 28.455210 3.980809 29.164980 -1.396686 1.433876 0.076079 -0.031844 -641916.000000 0 0 1
-4.387119 29.369210 3.160309 29.862767 -1.422515 1.464770 0.077683 -0.027819 -309418.000000 0 0 1
-5.248319 29.728510 2.115309 30.262249 -1.396055 1.500840 0.090296 -0.029505 -215049.000000 0 0 1
-4.550419 30.480410 0.920809 30.831958 -1.422601 1.540926 0.083734 -0.024915 -268161.000000 0 0 1
-4.235319 31.847110 1.249409 32.151787 -1.438583 1.531927 0.088701 -0.021593 -69270.800000 0 0 1
-3.059619 32.107010 1.973009 32.312755 -1.475789 1.509699 0.090826 -0.022652 -405486.000000 0 0 1
-2.351019 33.465010 1.708709 33.590979 -1.500659 1.519906 0.088690 -0.024035 -1080120.000000 0 0 1
-1.685919 33.462810 0.487409 33.508798 -1.520457 1.556250 0.071676 -0.024042 32822.500000 0 0 1
-0.803119 -33.657581 0.340209 33.668881 1.546939 1.560692 0.073272 -0.023987 1233270.000000 0 0 1
0.528381 -33.669381 1.199109 33.694870 -1.555104 1.535202 0.069500 -0.014901 -43789.400000 0 0 1
0.288381 -33.461381 2.587809 33.562538 -1.562178 1.493616 0.063609 -0.018116 377065.000000 0 0 1
1.474081 -33.946481 3.218009 34.130516 -1.527400 1.476371 0.062031 -0.017710 513706.000000 0 0 1
1.425381 -33.915081 4.770609 34.278611 -1.528793 1.431171 0.058391 -0.020798 388867.000000 0 0 1
0.577981 33.344010 5.408709 33.784778 1.553464 1.410011 0.070764 -0.030348 -43700.600000 0 0 1
0.323281 33.534210 6.745709 34.207490 1.561156 1.372296 0.080531 -0.024164 -285241.000000 0 0 1
1.382481 33.289110 7.836109 34.226901 1.529291 1.339802 0.064200 -0.018070 -421162.000000 0 0 1
1.702881 31.948010 8.022909 32.983970 1.517545 1.325095 0.069522 -0.020554 -62367.800000 0 0 1
2.638981 31.828410 9.063009 33.198646 1.488073 1.294293 0.081103 -0.015736 -429918.000000 0 0 1
3.233081 30.431910 9.205609 31.957741 1.464954 1.278600 0.067141 -0.020582 104802.000000 0 0 1
2.350781 29.502710 9.872409 31.199368 1.491284 1.248833 0.087806 -0.035164 416840.000000 0 0 1
2.842581 28.203610 9.994109 30.056715 1.470348 1.231834 0.069852 -0.034272 -600427.000000 0 0 1
2.310781 27.407610 11.149009 29.678565 1.486684 1.185689 0.062794 -0.039514 -552061.000000 0 0 1
2.479181 28.112310 12.465709 30.851941 1.482835 1.154857 0.058621 -0.027606 -94095.300000 0 0 1
2.564881 27.328410 13.587109 30.627278 1.477216 1.111154 0.048329 -0.021646 -1416800.000000 0 0 1
1.213781 26.930910 14.172509 30.456645 1.525757 1.086785 0.040452 -0.024442 -363610.000000 0 0 1
0.405981 27.912110 14.800709 31.596071 1.556252 1.083278 0.037375 -0.018656 180355.000000 0 0 1
-0.067619 28.833310 13.839909 31.982924 -1.568451 1.123280 0.048413 -0.024107 -1824320.000000 0 0 1
-0.787719 29.972410 14.489009 33.300109 -1.544521 1.120643 0.027549 -0.016927 1105740.000000 0 0 1
-2.086019 29.611510 15.061909 33.287447 -1.500466 1.101252 0.013435 -0.009416 1436900.000000 0 0 1
-2.838219 30.796910 15.312109 34.510373 -1.478897 1.111078 0.013666 -0.009958 -477364.000000 0 0 1
-4.085319 30.628910 16.162709 34.871954 -1.438198 1.088870 0.011260 0.000098 -360880.000000 0 0 1
-5.030319 29.814410 15.504609 33.979348 -1.403649 1.096969 0.022475 -0.009886 -640088.000000 0 0 1
-6.199419 29.677210 16.238409 34.392667 -1.364863 1.079071 0.028598 -0.005850 -649462.000000 0 0 1
-7.177119 28.655210 15.559109 33.387393 -1.325380 1.086012 0.033623 -0.009672 -66902.500000 0 0 1
-8.397519 28.560110 16.233609 33.907644 -1.284826 1.071555 0.040846 -0.010972 -300039.000000 0 0 1
-9.337819 27.816310 15.489309 33.179221 -1.246921 1.085085 0.030439 -0.007089 411247.000000 0 0 1
-10.718019 27.491910 16.129709 33.628092 -1.199061 1.070541 0.041744 -0.001699 -2957.200000 0 0 1
-11.522819 28.578310 16.455109 34.932303 -1.187533 1.080308 0.039937 -0.009884 -138008.000000 0 0 1
-11.200319 29.195710 17.699109 35.931812 -1.204482 1.055750 0.044480 -0.016005 -388360.000000 0 0 1
-12.105319 30.367310 18.151509 37.392373 -1.191472 1.063937 0.047864 -0.014382 119425.000000 0 0 1
-13.484319 30.078810 18.318809 37.711278 -1.149357 1.063558 0.055795 -0.005588 300253.000000 0 0 1
-14.185919 31.253210 18.665309 39.069134 -1.144702 1.072704 0.062633 -0.011493 -110527.000000 0 0 1
-15.210419 30.953010 19.755209 39.745616 -1.114050 1.050611 0.061916 -0.016182 -203044.000000 0 0 1
-14.590419 30.821810 21.025709 40.061762 -1.128671 1.018278 0.044458 -0.014752 132194.000000 0 0 1
-15.486719 30.374410 22.014409 40.584202 -1.099291 0.997460 0.029943 -0.007231 -151592.000000 0 0 1
-14.840619 30.383510 23.425809 41.135996 -1.116437 0.964933 0.015865 -0.001871 172660.000000 0 0 1
-13.774019 29.422010 23.599709 40.153761 -1.132949 0.942542 0.017180 -0.001022 942729.000000 0 0 1
-13.165219 29.311010 24.855309 40.623204 -1.148644 0.912399 0.025641 0.002209 57772.600000 0 0 1
-12.640719 30.563010 25.671909 41.868034 -1.178625 0.910739 0.028332 0.006632 -121605.000000 0 0 1
-13.704319 31.372510 26.141809 43.074783 -1.158952 0.918650 0.019833 0.007751 273268.000000 0 0 1
-13.181419 32.514610 26.756509 44.123242 -1.185644 0.919266 0.019212 0.002710 41948.900000 0 0 1
-14.211419 33.554910 27.352009 45.563459 -1.170174 0.926913 0.024833 -0.000702 463357.000000 0 0 1
-14.952719 33.054210 28.475909 46.119866 -1.145974 0.905322 0.002197 -0.002741 584580.000000 0 0 1
-14.147519 32.972910 29.632209 46.534212 -1.165488 0.880477 0.030108 0.000124 -244777.000000 0 0 1
-14.887519 32.162110 30.726609 46.905907 -1.137275 0.856522 0.016010 0.000079 -182319.000000 0 0 1
-15.961719 32.878010 31.262109 48.094277 -1.118830 0.863189 0.010811 -0.003361 -507701.000000 0 0 1
-16.618619 32.137710 32.288009 48.492540 -1.093557 0.842184 0.017048 -0.000009 703737.000000 0 0 1
-18.128219 32.528310 32.357209 49.332669 -1.062361 0.855424 0.018711 0.000754 544067.000000 0 0 1
-18.417119 33.784510 32.964409 50.667896 -1.071696 0.862425 0.020036 -0.004453 534796.000000 0 0 1
-19.825719 34.067310 32.996809 51.404573 -1.043749 0.873817 0.033165 -0.008340 758201.000000 0 0 1
-20.124419 -32.655081 33.352609 50.830533 1.018498 0.855087 0.033088 -0.012290 4722.110000 0 0 1
-19.854019 -32.117381 -33.428572 50.429928 1.017123 2.295444 0.031691 -0.010448 -502779.000000 0 0 1
-20.748719 -32.610881 -32.494472 50.496234 1.004147 2.269862 0.032358 -0.011138 -158137.000000 0 0 1
-20.536819 -31.820981 -31.170572 49.050386 0.997671 2.259427 0.043842 -0.017354 41356.900000 0 0 1
-20.774819 -30.427481 -31.239272 48.304418 0.971731 2.274068 0.042797 -0.018285 -61451.600000 0 0 1
-20.167919 -29.734481 -30.157072 46.907711 0.974806 2.269078 0.039379 -0.010892 84150.600000 0 0 1
-20.449419 -28.210781 -30.160972 46.083740 0.943567 2.284293 0.047877 -0.018967 22495.500000 0 0 1
-21.732419 -27.971881 -29.625472 46.177838 0.910277 2.267316 0.038238 -0.008636 -265219.000000 0 0 1
-22.091319 -26.594081 -29.736672 45.601987 0.877623 2.281136 0.036031 -0.009545 483540.000000 0 0 1
-23.376219 -26.322681 -28.885272 45.537787 0.844615 2.257918 0.046356 -0.013543 312682.000000 0 0 1
-23.276319 -26.511281 -27.424672 44.684983 0.850282 2.231577 0.048196 -0.012670 242727.000000 0 0 1
-22.523819 -25.432581 -26.836672 43.293713 0.845978 2.239379 0.058666 -0.021434 310376.000000 0 0 1
-22.380219 -25.638281 -25.339072 42.429521 0.853144 2.210807 0.064436 -0.013695 -770412.000000 0 0 1
-23.606819 -25.566081 -24.724172 42.687130 0.825221 2.188537 0.057945 -0.010367 -801399.000000 0 0 1
-23.572019 -26.135281 -23.432372 42.282018 0.836920 2.158189 0.059993 -0.010025 -1115140.000000 0 0 1
-24.790219 -25.869781 -22.579072 42.351092 0.806705 2.133104 0.058825 -0.008460 -367794.000000 0 0 1
-26.029419 -26.456081 -22.887172 43.603641 0.793527 2.123384 0.052868 -0.003054 -350341.000000 0 0 1
-26.161219 -27.869881 -23.068772 44.646477 0.817011 2.113787 0.054604 -0.003963 -1217990.000000 0 0 1
-27.602219 -28.388481 -23.086572 45.834246 0.799440 2.098669 0.028732 -0.000417 3823.420000 0 0 1
-28.260219 -28.234581 -21.847972 45.532026 0.784944 2.071266 0.036080 0.004728 -755140.000000 0 0 1
-29.315419 -27.346881 -21.922772 45.693037 0.750671 2.071204 0.035498 0.007381 -285568.000000 0 0 1
-29.920019 -26.920881 -20.513972 45.174821 0.732683 2.042160 0.040203 0.011198 238785.000000 0 0 1
-30.563519 -27.972281 -19.825772 45.930800 0.741159 2.017111 0.029141 0.015642 84340.700000 0 0 1
-31.161619 -27.477781 -18.632972 45.533093 0.722659 1.992393 0.028246 0.023816 -540754.000000 0 0 1
-32.135819 -28.486981 -17.912572 46.530411 0.725281 1.965966 0.015474 0.017439 427019.000000 0 0 1
-33.463119 -28.625881 -18.408372 47.729336 0.707647 1.966744 0.019616 0.015944 923930.000000 0 0 1
-34.286719 -27.449781 -18.511672 47.662895 0.675104 1.969677 0.007143 0.027283 -657726.000000 0 0 1
-34.725619 -26.777281 -17.209672 47.106944 0.656875 1.944786 0.015702 0.025096 -1387690.000000 0 0 1
-33.705719 -26.147981 -16.546772 45.755743 0.659793 1.940815 0.008623 0.031744 -123205.000000 0 0 1
-34.243619 -25.511781 -15.348572 45.376812 0.640299 1.915850 0.013264 0.029282 307149.000000 0 0 1
-33.808719 -26.367481 -14.149872 45.149667 0.662365 1.889567 0.023573 0.025786 65981.600000 0 0 1
-34.419919 -27.665881 -14.041372 46.338881 0.677039 1.878651 0.038422 0.021326 375366.000000 0 0 1
-34.099819 -28.359181 -12.800172 46.161512 0.693745 1.851770 0.046359 0.013548 -288437.000000 0 0 1
-34.913519 -29.625881 -12.597272 47.490398 0.703652 1.839269 0.061983 0.012065 -266795.000000 0 0 1
-34.593219 -30.595381 -13.572672 48.135076 0.724148 1.856644 0.053226 0.011644 267306.000000 0 0 1
-34.987719 -31.855181 -13.116772 49.101352 0.738568 1.841217 0.050879 -0.004085 -310050.000000 0 0 1
-34.468819 -32.948381 -14.075672 49.717400 0.762849 1.857835 0.047490 0.008870 160799.000000 0 0 1
-33.119519 -33.368581 -13.897172 49.025464 0.789144 1.858205 0.038160 0.003154 326064.000000 0 0 1
-32.648819 -33.953981 -15.071872 49.456845 0.804992 1.880470 0.058131 -0.021725 1179930.000000 0 0 1
-31.096119 33.939410 -15.119272 48.450434 -0.829089 1.888153 0.042569 -0.018647 1358730.000000 0 0 1
-30.744119 33.328510 -16.343572 48.198576 -0.825712 1.916744 0.063232 -0.021040 -1330830.000000 0 0 1
-29.487019 32.795410 -16.154972 46.968142 -0.838467 1.921923 0.055445 -0.020202 -1129060.000000 0 0 1
9.975937 19.747910 -8.830691 23.821847 1.103026 1.950556 0.077702 -0.039793 -1900860.000000 0 1 0
8.589737 19.773610 -8.717291 23.254470 1.160987 1.955048 0.064442 -0.038260 -495867.000000 0 1 0
7.920837 20.039710 -9.943891 23.732059 1.194385 2.003147 0.065733 -0.036503 156397.000000 0 1 0
7.741137 18.888210 -10.952391 23.165590 1.181836 2.063247 0.055522 -0.025509 -188081.000000 0 1 0
8.943537 18.419910 -11.556491 23.512389 1.118786 2.084615 0.062741 -0.029217 165508.000000 0 1 0
8.720137 17.315110 -12.359391 22.991485 1.104261 2.138342 0.045362 -0.032361 -738570.000000 0 1 0
9.967837 16.759510 -13.012991 23.443056 1.034241 2.159267 0.057471 -0.035575 -470827.000000 0 1 0
9.668837 15.787110 -14.045891 23.238036 1.021272 2.219853 0.054240 -0.036392 -611396.000000 0 1 0
10.754737 15.599010 -14.878891 24.090971 0.967186 2.236500 0.072007 -0.033643 -793893.000000 0 1 0
10.732137 14.330510 -15.699691 23.812236 0.927999 2.290700 0.078825 -0.036477 -251200.000000 0 1 0
10.765737 13.123910 -14.931791 22.607443 0.883791 2.292256 0.074486 -0.036103 608878.000000 0 1 0
11.992937 12.764410 -14.295591 22.608065 0.816549 2.255344 0.089663 -0.039050 -31174.000000 0 1 0
13.007037 11.962010 -15.143991 23.272584 0.743570 2.279332 0.101328 -0.042319 -549056.000000 0 1 0
13.553637 12.755910 -16.141291 24.636468 0.755087 2.285216 0.086557 -0.037413 2800.250000 0 1 0
14.346937 11.968610 -16.996891 25.258197 0.695266 2.308953 0.079524 -0.039398 -122523.000000 0 0 1
15.172437 12.726910 -18.052691 26.796954 0.697966 2.309979 0.060297 -0.035181 75478.900000 0 0 1
16.079237 13.704410 -17.610391 27.504156 0.705831 2.265660 0.059537 -0.027208 -161236.000000 0 0 1
16.987737 14.013310 -18.649491 28.857574 0.689745 2.273469 0.056880 -0.024264 -66258.900000 0 0 1
18.105137 15.007710 -18.198991 29.736015 0.692128 2.229407 0.058372 -0.008471 -350238.000000 0 0 1
17.882737 16.319810 -17.652991 29.962586 0.739734 2.200825 0.070967 -0.012215 -23604.100000 0 0 1
17.398437 17.279410 -18.590791 30.771758 0.781966 2.219496 0.066698 -0.004330 -11093.100000 0 0 1
17.334837 18.596810 -17.881491 31.081918 0.820505 2.183770 0.074000 0.000392 -355935.000000 0 0 1
18.561637 19.263710 -17.858191 32.164264 0.803957 2.159422 0.065799 0.000868 -316074.000000 0 0 1
18.510237 20.545610 -17.222391 32.578547 0.837466 2.127796 0.061301 0.003438 697697.000000 0 0 1
19.853837 21.368710 -17.229891 33.877216 0.822130 2.104352 0.066334 -0.000182 1127920.000000 0 0 1
20.866137 21.271410 -16.251191 33.940680 0.795016 2.070097 0.054940 -0.000684 177382.000000 0 0 1
20.473037 22.109310 -15.143191 33.723628 0.823805 2.036485 0.058925 -0.006716 -447848.000000 0 0 1
21.568737 22.813610 -14.336591 34.513896 0.813440 1.999163 0.039615 -0.011143 -694500.000000 0 0 1
22.159937 21.968010 -13.330391 33.931631 0.781049 1.974536 0.044259 -0.009727 873150.000000 0 0 1
23.287237 22.609410 -12.682791 34.847295 0.770631 1.943305 0.030962 -0.005931 1513540.000000 0 0 1
24.660037 22.542610 -13.446591 36.015240 0.740570 1.953423 0.031050 -0.011758 90320.400000 0 0 1
24.722037 23.204310 -14.669891 36.943535 0.753741 1.979140 0.023265 -0.002515 -657911.000000 0 0 1
26.026337 23.038410 -15.115091 37.902566 0.724576 1.980991 0.034120 0.004151 -702983.000000 0 0 1
26.250537 23.690310 -16.494291 39.017728 0.734178 2.007261 0.026440 0.000383 176029.000000 0 0 1
27.390137 23.225710 -17.237291 39.834375 0.703308 2.018308 0.040214 0.002490 507676.000000 0 0 1
27.340737 23.654010 -18.560891 40.639079 0.713228 2.045107 0.037067 0.013901 -747921.000000 0 0 1
28.004837 22.658810 -19.490591 40.958219 0.680267 2.066744 0.038012 0.008021 -470913.000000 0 0 1
29.390237 22.836710 -19.584591 42.057788 0.660569 2.055176 0.033099 0.003409 -612891.000000 0 0 1
29.827837 21.924510 -20.571991 42.350806 0.633855 2.078020 0.038116 0.002079 506167.000000 0 0 1
31.356437 22.002310 -20.875291 43.624598 0.611855 2.069766 0.059642 0.000044 352254.000000 0 0 1
31.695837 23.143910 -21.633991 44.814018 0.630700 2.074589 0.044078 0.009607 -611910.000000 0 0 1
32.956237 23.662010 -21.391791 45.865161 0.622693 2.056020 0.042261 0.008191 -682656.000000 0 0 1
33.163637 24.981910 -22.219191 47.091560 0.645605 2.062161 0.038755 0.006270 -197310.000000 0 0 1
33.169837 25.059310 -23.642491 47.824413 0.647002 2.087895 0.037028 0.007184 556921.000000 0 0 1
31.957637 24.642310 -24.283591 47.098055 0.656865 2.112500 0.024799 0.002787 179471.000000 0 0 1
32.024037 24.931510 -25.813161 48.098216 0.661509 2.137289 0.040466 -0.006525 -76213.600000 0 0 1
32.161637 26.315010 -26.201071 49.125826 0.685747 2.133348 0.057410 -0.010033 -286637.000000 0 0 1
30.955037 26.957610 -26.548111 48.884857 0.716482 2.144890 0.065007 -0.002433 161351.000000 0 0 1
30.511437 26.771410 -28.050121 49.340302 0.720200 2.175482 0.061375 -0.007955 37592.600000 0 0 1
30.104537 25.424810 -28.306511 48.517653 0.701322 2.193738 0.051117 -0.016570 -36677.900000 0 0 1
29.925237 25.165610 -29.680711 49.089432 0.699216 2.220092 0.059271 -0.028231 -252584.000000 0 0 1
29.236637 23.842710 -30.022701 48.214296 0.684126 2.242976 0.050745 -0.029225 -32010.100000 0 0 1
28.030137 23.752910 -29.291841 46.988310 0.702986 2.243862 0.063622 -0.029405 -296487.000000 0 0 1
27.303437 22.613210 -29.679441 46.235313 0.691712 2.267798 0.066302 -0.042492 477527.000000 0 0 1
25.856937 22.630810 -29.068981 45.008226 0.718961 2.272945 0.055994 -0.026235 543224.000000 0 0 1
25.882737 22.521310 -27.671411 44.077573 0.716064 2.249506 0.060736 -0.010006 566017.000000 0 0 1
24.556337 22.461410 -27.137541 42.941527 0.740872 2.254882 0.063400 -0.008850 516590.000000 0 0 1
24.512437 22.533010 -25.580701 41.987717 0.743348 2.225901 0.052674 -0.000668 -65708.100000 0 0 1
24.987937 21.334310 -24.996991 41.284371 0.706687 2.221169 0.053752 -0.005992 275360.000000 0 0 1
25.265137 21.627210 -23.618591 40.790945 0.707973 2.188317 0.050918 -0.001156 -127481.000000 0 0 1
25.796637 20.524510 -22.664591 40.005070 0.672069 2.173101 0.069364 0.003376 146197.000000 0 0 1
27.143437 20.239510 -22.966991 40.913159 0.640711 2.166824 0.040990 0.002380 -165710.000000 0 0 1
27.394537 18.824410 -23.021791 40.432931 0.602056 2.176550 0.092982 -0.005552 772694.000000 0 0 1
28.813737 18.409510 -23.586591 41.538762 0.568543 2.174653 0.105417 -0.014918 853864.000000 0 0 1
29.751737 18.335010 -22.506991 41.568053 0.552295 2.142956 0.094301 -0.022557 -314463.000000 0 0 1
30.877437 17.688410 -23.070591 42.409293 0.520224 2.145991 0.073372 -0.017052 -187485.000000 0 0 1
32.033837 17.587410 -22.039391 42.675736 0.502095 2.113483 0.071033 -0.011529 -171640.000000 0 0 1
32.496737 18.855810 -21.698991 43.386930 0.525761 2.094542 0.047811 -0.006831 188948.000000 0 0 1
33.818137 18.662710 -21.190391 44.056734 0.504266 2.072568 0.037890 -0.004767 372491.000000 0 0 1
34.113837 19.677810 -20.121991 44.225158 0.523207 2.043157 0.031328 -0.009181 -335919.000000 0 0 1
33.357537 19.581710 -18.951691 43.073602 0.530824 2.026377 0.045846 -0.007327 -61467.300000 0 0 1
33.660637 20.636810 -18.059191 43.417171 0.549985 1.999779 0.032339 -0.001905 -118429.000000 0 0 1
33.201337 20.416510 -16.603491 42.365535 0.551325 1.973503 0.053575 -0.012586 -230971.000000 0 0 1
33.759437 19.314710 -15.963091 42.042572 0.519673 1.960256 0.054074 -0.012956 224818.000000 0 0 1
33.414237 19.369410 -14.605591 41.291749 0.525341 1.932338 0.063395 -0.013696 -226898.000000 0 0 1
33.938337 18.153310 -13.854391 40.905959 0.491169 1.916319 0.060397 -0.000976 561557.000000 0 0 1
35.376937 18.078710 -13.782291 42.051385 0.472433 1.904716 0.037319 -0.002860 1208320.000000 0 0 1
35.796537 17.165610 -12.727491 41.689798 0.447140 1.881040 0.017979 -0.006545 -850.450000 0 0 1
35.666537 17.650610 -11.228691 41.348874 0.459542 1.845810 0.029852 -0.011795 -720484.000000 0 0 1
36.445037 18.774510 -10.870291 42.413278 0.475691 1.829983 0.013621 -0.005677 -91957.500000 0 0 1
36.084137 19.437310 -9.646291 42.106114 0.494100 1.801944 0.006445 -0.000864 -466168.000000 0 0 1
34.809537 20.281010 -9.617991 41.418944 0.527548 1.805148 0.024409 -0.004536 -711340.000000 0 0 1
33.648837 19.543910 -9.672091 40.096857 0.526197 1.814417 0.046537 -0.018048 -845700.000000 0 0 1
32.471637 20.320110 -9.682891 39.510409 0.559160 1.818390 0.037602 -0.008767 194883.000000 0 0 1
31.141337 19.597510 -9.926191 38.110032 0.561692 1.834296 0.055181 -0.008404 15252.700000 0 0 1
31.116937 19.152910 -11.297091 38.245548 0.551749 1.870653 0.071046 -0.013967 -607172.000000 0 0 1
29.874937 18.650210 -11.646291 37.094181 0.558079 1.890163 0.065389 -0.016042 -734313.000000 0 0 1
29.819137 18.088710 -13.072891 37.246246 0.545269 1.929420 0.089342 -0.011451 129899.000000 0 0 1
30.696137 16.964210 -13.278691 37.501478 0.504875 1.932731 0.097164 -0.008900 417392.000000 0 0 1
30.426137 16.206110 -14.407791 37.362712 0.489416 1.966675 0.083998 -0.010214 735661.000000 0 0 1
31.752137 15.638310 -15.058191 38.464322 0.457639 1.973041 0.102356 -0.020140 1075010.000000 0 0 1
32.566737 14.801810 -14.217491 38.494454 0.426596 1.949094 0.094405 -0.020581 693224.000000 0 0 1
33.817137 14.501310 -14.820791 39.667903 0.405098 1.953707 0.096309 -0.022220 513523.000000 0 0 1
34.765037 13.541010 -14.040491 39.863544 0.371423 1.930732 0.056266 -0.030253 -51641.500000 0 0 1
35.381737 14.117110 -12.890491 40.215977 0.379639 1.897087 0.054760 -0.013497 114283.000000 0 0 1
35.832037 13.052810 -12.063091 39.997861 0.349337 1.877160 0.034015 -0.010964 -729635.000000 0 0 1
36.737037 13.597010 -10.981491 40.682695 0.354483 1.844117 0.054476 -0.010846 95246.100000 0 0 1
-35.508108 13.949410 -11.596591 39.873459 -0.374329 1.865896 0.026205 -0.009026 673581.000000 0 0 1
-34.527308 14.410510 -10.640591 38.897558 -0.395387 1.847883 0.000807 -0.009924 -85134.100000 0 0 1
-33.137908 14.594310 -11.260891 37.919949 -0.414851 1.872309 0.027991 -0.013029 130652.000000 0 0 1
-32.424108 13.441210 -11.819191 37.036228 -0.392981 1.895603 0.031852 -0.019491 617964.000000 0 0 1
-32.270008 12.284410 -10.993991 36.237108 -0.363737 1.879045 0.053025 -0.013420 -214259.000000 0 0 1
-31.010908 11.448810 -11.406591 34.969444 -0.353664 1.903064 0.082358 -0.013191 215497.000000 0 0 1
-31.162608 10.735010 -12.645391 35.302330 -0.331752 1.937138 0.076230 0.000918 290752.000000 0 0 1
-30.246508 9.661310 -12.773791 34.225165 -0.309176 1.953282 0.099886 -0.008635 -123363.000000 0 0 1
-30.270108 8.955410 -14.158691 34.596927 -0.287645 1.992425 0.092956 -0.018960 -217012.000000 0 0 1
-31.513908 8.402810 -14.488891 35.688396 -0.260576 1.988851 0.066087 -0.012228 250802.000000 0 0 1
-31.245708 7.671210 -15.570991 35.743496 -0.240751 2.021536 0.078627 -0.023409 172000.000000 0 0 1
-32.544708 7.054610 -16.148291 37.009362 -0.213464 2.022312 0.069951 -0.030924 116839.000000 0 0 1
-33.252308 6.230710 -15.229291 37.100796 -0.185229 1.993781 0.089227 -0.025853 731920.000000 0 0 1
-34.436108 5.760010 -15.897591 38.363481 -0.165732 1.998073 0.085407 -0.030161 202999.000000 0 0 1
-35.403908 5.119210 -14.898691 38.750665 -0.143599 1.965436 0.086226 -0.021096 -628812.000000 0 0 1
-36.556508 4.629910 -15.501591 39.976414 -0.125980 1.969006 0.094905 -0.022147 158244.000000 0 0 1
35.863437 4.400510 -14.550791 38.952228 0.122092 1.953635 0.093082 -0.020029 704832.000000 0 0 1
34.806337 3.422410 -15.061391 38.079383 0.098012 1.977437 0.095620 -0.024187 -425182.000000 0 0 1
35.344337 2.123810 -15.268491 38.559817 0.060017 1.977919 0.109275 -0.028676 523611.000000 0 0 1
34.430637 1.005310 -15.202091 37.650803 0.029190 1.986425 0.111603 -0.024784 306873.000000 0 0 1
33.952737 0.675810 -13.738091 36.633048 0.019902 1.955214 0.110394 -0.033394 -103017.000000 0 0 1
34.940437 0.069710 -12.933291 37.257335 0.001995 1.925310 0.117296 -0.035441 204652.000000 0 0 1
34.554737 -0.026190 -11.534291 36.428977 -0.000758 1.892965 0.113957 -0.030551 -178202.000000 0 0 1
34.762337 1.347210 -10.693391 36.394830 0.038735 1.869013 0.110154 -0.040902 287381.000000 0 0 1
33.724837 2.279210 -11.027291 35.555035 0.067480 1.886144 0.106308 -0.028461 694095.000000 0 0 1
33.910637 3.569110 -10.540991 35.690087 0.104864 1.870616 0.104664 -0.029294 -346026.000000 0 0 1
32.750037 4.471210 -10.973891 34.827904 0.135686 1.891347 0.095770 -0.027384 -276360.000000 0 0 1
32.841737 5.013110 -12.284291 35.420541 0.151475 1.924967 0.087811 -0.019271 783527.000000 0 0 1
31.804537 5.962910 -12.589291 34.721392 0.185335 1.941831 0.102024 -0.028394 276047.000000 0 0 1
32.009037 6.588910 -13.969191 35.540547 0.203010 1.974742 0.084540 -0.025661 -221353.000000 0 0 1
31.760737 5.792110 -15.115591 35.647917 0.180385 2.008681 0.082148 -0.015417 341426.000000 0 0 1
32.176337 6.361510 -16.388791 36.665759 0.195190 2.034181 0.087949 -0.020181 -941901.000000 0 0 1
31.248537 7.435610 -17.035191 36.358727 0.233606 2.058424 0.094141 -0.018388 516799.000000 0 0 1
30.123237 6.901910 -17.723191 35.625233 0.225235 2.091499 0.070299 -0.016957 975815.000000 0 0 1
29.140137 6.091310 -17.067791 34.315610 0.206068 2.091369 0.066868 -0.012212 -788493.000000 0 0 1
27.749837 6.140310 -17.696091 33.479971 0.217765 2.127697 0.053575 -0.008376 -437616.000000 0 0 1
27.736337 5.541110 -18.983491 34.064368 0.197182 2.161906 0.054028 -0.004189 709688.000000 0 0 1
26.438537 5.554910 -19.592891 33.372663 0.207094 2.198261 0.040299 -0.003691 567962.000000 0 0 1
26.085137 4.244510 -20.381091 33.374228 0.161304 2.227720 0.036272 0.010533 -62368.200000 0 0 1
25.433937 3.297810 -19.539991 32.242393 0.128942 2.221862 0.046755 -0.000854 304271.000000 0 0 1
24.974237 2.224810 -20.337891 32.284548 0.088850 2.252295 0.037538 -0.001399 -544419.000000 0 0 1
24.048137 1.251910 -19.589591 31.042426 0.052012 2.253713 0.037745 -0.008857 -1127240.000000 0 0 1
22.840237 1.885510 -19.373291 30.009264 0.082365 2.272575 0.055928 -0.021267 -831223.000000 0 0 1
21.975437 0.914310 -18.790591 28.928223 0.041582 2.277801 0.065194 -0.022857 318777.000000 0 0 1
20.574437 1.500510 -18.410591 27.649753 0.072802 2.299429 0.067060 -0.027629 -403055.000000 0 0 1
19.874137 1.894110 -19.587991 27.968882 0.095018 2.346683 0.058810 -0.029517 69066.900000 0 0 1
18.839937 2.782510 -19.274991 27.096325 0.146632 2.362214 0.041459 -0.027282 -127208.000000 0 0 1
17.498737 2.249710 -18.729991 25.730906 0.127863 2.386077 0.078669 -0.032306 -970931.000000 0 0 1
17.449237 1.871610 -17.341691 24.672110 0.106852 2.350244 0.071756 -0.035382 1081800.000000 0 1 0
16.132837 1.817410 -16.758291 23.332632 0.112180 2.372057 0.046119 -0.026553 727048.000000 0 1 0
15.268737 3.026510 -16.443391 22.642420 0.195680 2.383605 0.046111 -0.018960 -290477.000000 0 1 0
14.874537 3.678810 -17.627391 23.356164 0.242457 2.426025 0.051708 -0.013225 -6132.980000 0 1 0
13.955737 4.678610 -17.306791 22.719529 0.323471 2.436819 0.068411 -0.020667 -499316.000000 0 1 0
-20.239163 -21.584990 -17.543791 34.399420 0.817565 2.105984 0.080693 -0.026198 114862.000000 0 0 1
-20.054363 -22.399690 -18.688591 35.400382 0.840586 2.126947 0.073615 -0.029657 -291030.000000 0 0 1
-21.052563 -22.152990 -19.626691 36.320413 0.810862 2.141681 0.076139 -0.028736 -348172.000000 0 0 1
-20.808463 -22.889090 -20.921191 37.344327 0.832976 2.165453 0.057912 -0.020274 -215264.000000 0 0 1
-21.005363 -24.277090 -20.734691 38.216878 0.857524 2.144270 0.049227 -0.021587 389429.000000 0 0 1
-20.242963 -25.144580 -21.613191 38.847876 0.892976 2.160788 0.051337 -0.026864 140294.000000 0 0 1
-20.159263 -26.601980 -21.110291 39.493108 0.922315 2.134749 0.056300 -0.008672 225356.000000 0 0 1
-21.457563 -27.174200 -21.183891 40.590903 0.902411 2.119859 0.062312 -0.004475 162921.000000 0 0 1
-21.389063 -28.568390 -21.107991 41.463143 0.928130 2.104910 0.082312 -0.020332 -432975.000000 0 0 1
-22.674863 -29.230080 -21.571991 42.824033 0.911026 2.098714 0.064810 -0.016068 -493821.000000 0 0 1
-23.023063 -29.089300 -22.953391 43.624614 0.901283 2.124871 0.043538 -0.008120 164923.000000 0 0 1
-22.235063 -29.831400 -23.898291 44.220343 0.930273 2.141752 0.044364 -0.014320 -164263.000000 0 0 1
-22.767463 -29.668250 -25.364741 45.187747 0.916251 2.166775 0.041480 -0.006946 1539250.000000 0 0 1
-24.082563 -30.255760 -25.643271 46.399980 0.898520 2.156345 0.037266 -0.006291 1659410.000000 0 0 1
-24.872663 -29.602410 -26.613461 46.938559 0.872005 2.173637 0.031953 0.000255 230938.000000 0 0 1
-24.252163 -29.600990 -28.086031 47.468001 0.884396 2.203942 0.037793 -0.010358 -267529.000000 0 0 1
-24.368563 -30.888140 -28.604851 48.643001 0.902842 2.199451 0.033596 -0.007238 68184.800000 0 0 1
-24.179263 -30.921420 -30.004191 49.406704 0.907154 2.223441 0.056417 -0.011824 -87914.700000 0 0 1
-24.788463 -32.189720 -30.665351 50.901962 0.914571 2.217350 0.041352 -0.018268 -360605.000000 0 0 1
-24.151463 -33.406130 -30.390741 51.213863 0.944823 2.206083 0.045515 -0.029620 314644.000000 0 0 1
-24.998263 33.714740 -30.747071 52.028639 -0.932781 2.203050 0.050259 -0.026673 259041.000000 0 0 1
-24.148863 32.443946 -30.778741 50.824287 -0.930937 2.221305 0.065223 -0.023672 -70518.700000 0 0 1
-23.281163 32.488743 -31.881991 51.127217 -0.949022 2.244112 0.068145 -0.037038 294512.000000 0 0 1
-22.403663 31.336142 -31.741041 49.913641 -0.950109 2.259995 0.062770 -0.026539 1111560.000000 0 0 1
-21.200763 31.156772 -32.757781 49.932845 -0.973309 2.286352 0.061124 -0.022389 831557.000000 0 0 1
-21.576763 30.740832 -34.027007 50.679312 -0.958801 2.306917 0.057308 -0.016970 414429.000000 0 0 1
-20.727163 29.643092 33.748086 49.469804 -0.960591 0.820035 0.041636 -0.004579 345620.000000 0 0 1
-20.977763 29.224302 32.290239 48.340313 -0.948211 0.839309 0.037120 -0.003665 -305354.000000 0 0 1
-20.326963 30.067892 31.424171 48.007729 -0.976336 0.857189 0.036721 0.003092 92938.900000 0 0 1
-20.754863 29.958052 30.081451 47.256142 -0.964921 0.880765 0.043960 0.004961 -315003.000000 0 0 1
-20.285163 31.184992 29.277561 47.340967 -0.994085 0.904040 0.033195 -0.011884 -482072.000000 0 0 1
-20.967463 32.315761 29.642561 48.606834 -0.995243 0.914933 0.040669 -0.009586 -154682.000000 0 0 1
-20.494963 33.505872 29.047121 48.851021 -1.021831 0.934021 0.026965 -0.014536 -294062.000000 0 0 1
-21.587463 -33.679150 29.186401 49.519185 1.000792 0.940486 0.043827 -0.023640 -232790.000000 0 0 1
-21.775163 -33.178630 30.495491 50.049517 0.990004 0.915611 0.030790 -0.017489 62395.200000 0 0 1
-22.738863 -32.134490 30.543421 49.825514 0.954978 0.910935 0.050355 -0.020750 255796.000000 0 0 1
-22.064163 -30.735230 30.290211 48.466262 0.948172 0.895697 0.032571 -0.015661 -262937.000000 0 0 1
-21.686163 -30.479190 28.941341 47.295580 0.952389 0.912304 0.043069 -0.013445 -304315.000000 0 0 1
-21.791763 -29.109670 28.538151 46.224235 0.928186 0.905382 0.037597 -0.015991 -804718.000000 0 0 1
-23.195763 -28.652170 28.199421 46.413334 0.890251 0.917797 0.040543 -0.007476 -1115570.000000 0 0 1
-24.069863 -28.738320 29.324481 47.593849 0.873573 0.906964 0.037731 -0.006534 647424.000000 0 0 1
-25.248083 -29.552780 29.202311 48.616946 0.863789 0.926469 0.054752 -0.009019 1085170.000000 0 0 1
-26.374683 -29.136600 28.192201 48.366988 0.835111 0.948526 0.047674 -0.009622 103593.000000 0 0 1
-25.917963 -29.318780 26.896791 47.484408 0.846889 0.968624 0.068740 -0.005668 -563092.000000 0 0 1
-27.038473 -29.426180 26.116151 47.739213 0.827660 0.991950 0.071967 -0.005653 -299552.000000 0 0 1
-26.561023 -29.729240 24.639761 46.866123 0.841622 1.017202 0.069072 -0.010511 95290.900000 0 0 1
-26.044033 -28.650340 23.891971 45.496812 0.833014 1.017923 0.050726 -0.001235 294062.000000 0 0 1
-25.609623 -28.881280 22.564991 44.711966 0.845367 1.041791 0.082778 -0.009623 486406.000000 0 0 1
-24.325663 -29.727440 22.272491 44.401829 0.885002 1.045335 0.089275 -0.014343 -24354.600000 0 0 1
-24.583663 -31.089130 22.179491 45.418282 0.901722 1.060612 0.085545 -0.020701 416983.000000 0 0 1
-23.480763 -31.880110 21.760291 45.179618 0.935970 1.068272 0.088932 -0.013950 187901.000000 0 0 1
-22.526463 -32.437450 22.822391 45.612402 0.963799 1.046788 0.074474 -0.012162 73157.300000 0 0 1
-21.589663 -31.560640 23.433061 44.847473 0.970842 1.021009 0.084180 -0.015368 177065.000000 0 0 1
-20.990663 -32.324810 24.461651 45.649465 0.994866 1.005272 0.062323 -0.018054 -37674.300000 0 0 1
-20.093463 -31.426340 25.361291 45.106066 1.001921 0.973681 0.046855 -0.008904 -32448.900000 0 0 1
-18.949663 -30.888060 24.665811 43.835650 1.020513 0.973162 0.044018 -0.010291 1283900.000000 0 0 1
-17.934763 -30.338660 25.525431 43.515947 1.036908 0.943971 0.064788 -0.017956 1078840.000000 0 0 1
-17.145163 -31.323270 26.440761 44.432169 1.069981 0.933429 0.036860 -0.022688 -166806.000000 0 0 1
-17.897763 -31.374870 27.686531 45.511058 1.052389 0.916820 0.031668 -0.015477 756077.000000 0 0 1
-17.218663 -32.145570 28.641391 46.369702 1.079040 0.905014 0.019889 -0.013753 108773.000000 0 0 1
-17.680163 -31.702240 30.054811 47.126551 1.062065 0.879227 0.034629 -0.016174 211632.000000 0 0 1
-17.359063 -30.339380 30.151881 46.162224 1.051097 0.859030 0.033072 -0.015148 158831.000000 0 0 1
-17.709563 -29.864640 31.449501 46.846520 1.035544 0.834794 0.036704 -0.014621 -101951.000000 0 0 1
-17.565463 -28.335910 31.551691 45.901835 1.015872 0.812930 0.047342 -0.017803 214666.000000 0 0 1
-18.403763 -27.478470 30.746801 45.156733 0.980661 0.821818 0.044059 -0.015058 272565.000000 0 0 1
-18.333763 -27.623060 29.307251 44.250144 0.984842 0.846900 0.047804 -0.014952 -1594250.000000 0 0 1
-17.053363 -27.322190 28.630371 43.093124 1.012803 0.844127 0.046789 -0.017141 -1383710.000000 0 0 1
-16.868863 -25.920220 28.484051 42.044708 0.993859 0.826478 0.043859 -0.008608 -181794.000000 0 0 1
-15.686063 -25.585290 27.808381 40.914126 1.020808 0.823474 0.045423 -0.008715 -238333.000000 0 0 1
-15.790663 -24.180990 27.235291 39.696680 0.992301 0.814703 0.043937 -0.005660 -233359.000000 0 0 1
-16.741763 -24.096190 26.200871 39.336988 0.963576 0.841880 0.050774 -0.009971 -162907.000000 0 0 1
-16.522163 -22.985890 25.303511 37.968417 0.947567 0.841378 0.051222 -0.009755 -17855.000000 0 0 1
-17.235563 -21.647190 25.660541 37.737631 0.898375 0.823072 0.052300 -0.011605 -267723.000000 0 0 1
-16.716863 -20.596390 24.799071 36.313340 0.888998 0.819045 0.051030 -0.018305 6065.100000 0 0 1
-17.251063 -19.372490 25.152571 36.132317 0.843259 0.800812 0.059693 -0.011800 -387767.000000 0 0 1
-17.014063 -18.134490 24.268731 34.746357 0.817264 0.797561 0.054154 -0.019674 -3592.480000 0 0 1
-15.629863 -17.807790 24.273961 33.921014 0.850440 0.773310 0.052810 -0.024523 120647.000000 0 0 1
-15.231663 -16.690690 23.494811 32.597374 0.831072 0.765901 0.054107 -0.017399 253945.000000 0 0 1
-13.754763 -16.245290 23.712161 31.864863 0.868226 0.731538 0.073280 -0.019556 -338141.000000 0 0 1
-12.849663 -17.192790 23.244041 31.638446 0.928970 0.745606 0.068555 -0.023016 -869879.000000 0 0 1
-11.527963 -16.855290 23.536731 31.160430 0.970932 0.714623 0.072878 -0.017637 -288741.000000 0 0 1
-10.848263 -15.978290 22.376291 29.558230 0.974346 0.712050 0.091338 -0.015292 -224646.000000 0 0 1
-10.715163 -16.648890 21.110591 28.942310 0.998936 0.753348 0.112675 -0.014962 168905.000000 0 0 1
-9.586463 -17.510590 21.163691 29.093347 1.069900 0.756211 0.100517 -0.016983 -162451.000000 0 0 1
-9.368263 -18.551590 20.045691 28.874826 1.103169 0.803451 0.111710 -0.019341 -42069.800000 0 0 1
-9.102363 -17.944990 18.789591 27.530427 1.101376 0.819615 0.115787 -0.025531 -139103.000000 0 0 1
-8.834463 -18.987890 17.877091 27.535033 1.135318 0.864200 0.108495 -0.028435 99689.300000 0 0 1
-8.662063 -18.460290 16.414891 26.177515 1.132069 0.893022 0.099224 -0.031141 1205430.000000 0 0 1
-7.402163 -17.720890 16.348691 25.221055 1.175118 0.865557 0.115177 -0.032888 953476.000000 0 0 1
-7.312363 -17.248790 15.012191 24.007442 1.169828 0.895262 0.129452 -0.044742 -10233.200000 0 1 0
-6.101563 -16.308790 14.872491 22.899709 1.212791 0.863920 0.094228 -0.038671 117604.000000 0 1 0
-6.344663 -15.115490 15.553991 22.597774 1.173384 0.811657 0.094233 -0.039434 -989967.000000 0 1 0
-5.204563 -14.390590 15.763491 21.969620 1.223768 0.770571 0.071962 -0.027653 -1096720.000000 0 1 0
-5.197363 -13.627290 17.133191 22.500263 1.206432 0.705224 0.041354 0.003183 -643825.000000 0 1 0
-5.050763 -14.288490 18.356591 23.804108 1.231020 0.690147 0.058809 0.011635 -378936.000000 0 1 0
-6.088963 -15.044290 18.932091 24.936523 1.186214 0.708696 0.102136 -0.011681 480515.000000 0 1 0
-7.377463 -14.270290 19.348591 25.148282 1.093657 0.692926 0.121132 -0.019493 258335.000000 0 0 1
-6.987163 -13.221090 20.203691 25.135767 1.084620 0.637170 0.107032 -0.024544 -594724.000000 0 0 1
-8.023363 -12.864390 21.061591 25.951059 1.013141 0.623930 0.116058 -0.015640 -239644.000000 0 0 1
-7.735363 -11.897490 22.220691 26.365606 0.994303 0.568349 0.096349 -0.004331 -711483.000000 0 0 1
-7.326663 -10.618890 21.844591 25.369804 0.966837 0.533472 0.063324 -0.001553 130916.000000 0 0 1
-6.840363 -9.818190 22.938391 25.871938 0.962286 0.480827 0.046869 -0.001387 384995.000000 0 0 1
-5.410363 -10.154390 23.438141 26.109962 1.081246 0.456342 0.039984 0.005739 -41854.700000 0 0 1
-5.380363 -11.413590 24.138961 27.237984 1.130290 0.481666 0.056413 0.013353 -657028.000000 0 0 1
-4.077163 -11.545490 24.610921 27.488525 1.231328 0.461656 0.041463 0.006657 -590938.000000 0 0 1
-3.912163 -12.852890 25.410961 28.744021 1.275326 0.486353 0.049784 0.001559 117225.000000 0 0 1
-2.584763 -13.073190 25.875311 29.105343 1.375599 0.475590 0.025278 0.002109 432621.000000 0 0 1
-2.497763 -14.221290 26.725551 30.376619 1.396934 0.495341 0.035431 -0.005371 -100585.000000 0 0 1
-2.559163 -15.664390 26.113751 30.558966 1.408852 0.546139 0.045612 -0.017239 -155958.000000 0 0 1
-1.423563 -16.050290 25.364771 30.050123 1.482334 0.565945 0.041484 -0.017336 53450.400000 0 0 1
-1.542563 -17.348590 24.743901 30.259109 1.482114 0.613333 0.050871 -0.014371 526080.000000 0 0 1
-0.135663 -18.066790 24.563511 30.492513 1.563287 0.634178 0.054983 -0.019307 1360880.000000 0 0 1
0.529037 -18.607290 25.693921 31.728357 -1.542372 0.626969 0.063596 -0.028001 243984.000000 0 0 1
0.927337 -17.678590 26.668621 32.009496 -1.518389 0.586022 0.062928 -0.030600 -849584.000000 0 0 1
1.441337 -18.216090 28.023581 33.454812 -1.491836 0.577821 0.056765 -0.025722 1133480.000000 0 0 1
2.692137 -18.974690 27.893091 33.842443 -1.429857 0.602000 0.061318 -0.029432 1794830.000000 0 0 1
3.476137 -19.136590 29.094191 34.996636 -1.391107 0.589277 0.058621 -0.035131 492472.000000 0 0 1
4.323137 -17.933690 29.585881 34.865901 -1.334247 0.557535 0.077085 -0.027762 -589226.000000 0 0 1
3.633837 -16.768490 30.031071 34.586879 -1.357390 0.519073 0.065578 -0.035922 3773.430000 0 0 1
4.435337 -15.656590 30.426501 34.504680 -1.294741 0.491114 0.076199 -0.037123 183057.000000 0 0 1
3.522537 -14.603490 31.118761 34.554992 -1.334106 0.449746 0.080158 -0.040070 446990.000000 0 0 1
2.921637 -15.130190 32.322763 35.808094 -1.380044 0.444871 0.076537 -0.040124 7682.900000 0 0 1
1.960937 -14.184590 32.737616 35.732329 -1.433423 0.412328 0.071055 -0.031113 -302389.000000 0 0 1
1.014237 -14.742390 33.803557 36.892373 -1.502107 0.412117 0.059842 -0.022500 -24639.000000 0 0 1
1.671637 -15.007990 -33.105071 36.386534 -1.459870 2.713638 0.094948 -0.023350 -55604.100000 0 0 1
0.832637 -15.646890 -32.154351 35.768991 -1.517632 2.688151 0.062175 -0.026630 -94851.300000 0 0 1
1.565437 -15.805890 -30.826571 34.677863 -1.472077 2.665824 0.092603 -0.023995 -99280.700000 0 0 1
0.897637 -16.515390 -29.827061 34.105973 -1.516498 2.635284 0.078133 -0.025279 -627116.000000 0 0 1
1.519237 -16.316490 -28.607311 32.968381 -1.477954 2.621392 0.081486 -0.015946 102810.000000 0 0 1
1.149737 -17.494090 -27.605101 32.701784 -1.505169 2.575768 0.083302 -0.021478 63690.600000 0 0 1
1.825937 -18.676190 -27.952021 33.666743 -1.473338 2.550363 0.110107 -0.029561 9379.340000 0 0 1
1.535937 -19.739290 -27.031201 33.506484 -1.493142 2.509420 0.103144 -0.025610 -876893.000000 0 0 1
2.429337 -20.968190 -27.173811 34.409049 -1.455452 2.481163 0.109247 -0.033502 889306.000000 0 0 1
3.813537 -20.797290 -26.788011 34.127230 -1.389444 2.473404 0.105279 -0.033120 991400.000000 0 0 1
3.958737 -20.889890 -25.382021 33.110513 -1.383512 2.444302 0.101938 -0.027078 -1258440.000000 0 0 1
5.428937 -20.911790 -24.948091 33.002781 -1.316792 2.427884 0.106454 -0.026347 25467.400000 0 0 1
6.114937 -22.172190 -25.100411 34.044516 -1.301693 2.399835 0.101862 -0.027647 208232.000000 0 0 1
6.329037 -22.700490 -26.432851 35.412774 -1.298895 2.413464 0.093727 -0.028633 -871390.000000 0 0 1
5.429237 -23.875590 -26.888291 36.366201 -1.347202 2.402939 0.066276 -0.033472 -18977.600000 0 0 1
5.755837 -25.039790 -26.229821 36.716811 -1.344854 2.366537 0.092505 -0.023269 -208825.000000 0 0 1
5.037937 -26.071050 -26.807951 37.732568 -1.379910 2.360966 0.079404 -0.022237 -134436.000000 0 0 1
5.281037 -27.356190 -25.970101 38.088011 -1.380095 2.321078 0.088142 -0.025472 920213.000000 0 0 1
6.655937 -27.727170 -25.781511 38.441953 -1.335203 2.305896 0.112267 -0.028761 496566.000000 0 0 1
6.719037 -28.965500 -25.081891 38.900474 -1.342861 2.271520 0.113234 -0.034465 -116974.000000 0 0 1
8.073537 -29.692350 -25.126711 39.726178 -1.305309 2.255570 0.102092 -0.035782 -258134.000000 0 0 1
8.500737 -30.017020 -26.426961 40.886040 -1.294825 2.273596 0.105695 -0.037247 201244.000000 0 0 1
9.779537 -30.652210 -26.327351 41.573149 -1.261957 2.256577 0.161449 -0.025104 397560.000000 0 0 1
10.616337 -30.493660 -27.599621 42.477158 -1.235771 2.278055 0.147752 -0.047433 -17375.300000 0 0 1
10.200137 -31.365860 -28.672421 43.703177 -1.256385 2.286398 0.148822 -0.052460 105226.000000 0 0 1
10.383237 -30.652230 -29.901291 44.061979 -1.244185 2.316677 0.136357 -0.039314 38028.400000 0 0 1
-34.846738 -4.767390 -5.422191 35.586842 0.135966 1.723757 0.165981 -0.034521 214714.000000 0 0 1
-34.371940 -3.993090 -4.303191 34.869650 0.115655 1.694520 0.157976 -0.046423 277503.000000 0 0 1
-33.726193 -2.756790 -4.534691 34.141169 0.081559 1.704012 0.172395 -0.048900 -178956.000000 0 0 1
-34.578068 -1.580990 -5.097391 34.987508 0.045691 1.717008 0.181646 -0.045542 -213920.000000 0 0 1
-35.566049 -1.012790 -4.258491 35.834402 0.028469 1.689916 0.148707 -0.045205 340960.000000 0 0 1
-36.301993 -0.023490 -4.955691 36.638697 0.000647 1.706471 0.138322 -0.046781 501006.000000 0 0 1
36.251911 0.825510 -3.988691 36.480025 0.022768 1.680354 0.145035 -0.043983 371409.000000 0 0 1
-36.532093 1.663410 -3.100091 36.701108 -0.045501 1.655366 0.146231 -0.039869 -63473.800000 0 0 1
36.089151 2.471210 -2.344691 36.249570 0.068368 1.635523 0.124825 -0.036882 -556910.000000 0 0 1
-36.657763 3.585210 -1.547791 36.865173 -0.097492 1.612794 0.120966 -0.040610 78516.000000 0 0 1
-36.087113 4.612410 -2.308791 36.453869 -0.127124 1.634173 0.143010 -0.045798 1225570.000000 0 0 1
-34.862929 4.250310 -3.017991 35.250493 -0.121316 1.656517 0.120900 -0.036788 463804.000000 0 0 1
-33.742883 5.305610 -3.086491 34.296619 -0.155960 1.660912 0.106845 -0.041892 -30119.900000 0 0 1
-33.079003 5.463210 -1.854291 33.578349 -0.163679 1.626047 0.115903 -0.040066 330598.000000 0 0 1
-33.340843 6.745010 -1.300591 34.041130 -0.199611 1.609012 0.131731 -0.050558 -225793.000000 0 0 1
-32.748983 6.842010 0.106009 33.456244 -0.205960 1.567628 0.145119 -0.041500 274113.000000 0 0 1
-31.319263 6.889110 0.049309 32.068030 -0.216516 1.569259 0.157863 -0.034409 986058.000000 0 0 1
-30.721793 7.563610 1.201809 31.661983 -0.241396 1.532830 0.164695 -0.039519 208977.000000 0 0 1
-30.642413 9.078010 1.143709 31.979303 -0.288019 1.535025 0.168942 -0.031416 -1381510.000000 0 0 1
-31.901663 9.608410 1.205309 33.339023 -0.292547 1.534635 0.144841 -0.029709 -971022.000000 0 0 1
-31.920123 10.858110 1.866109 33.767961 -0.327886 1.515505 0.137932 -0.015428 -273356.000000 0 0 1
-33.319573 11.484010 1.954709 35.297271 -0.331912 1.515389 0.142465 -0.023771 -1144430.000000 0 0 1
-33.667813 12.003810 0.673009 35.750050 -0.342486 1.551970 0.120409 -0.028460 -130989.000000 0 0 1
-34.957785 12.525210 0.621309 37.139113 -0.344046 1.554066 0.111497 -0.020443 26373.200000 0 0 1
-36.175993 11.557610 0.736209 37.984508 -0.309234 1.551413 0.105855 -0.034515 -445151.000000 0 0 1
-36.382363 10.734110 -0.436191 37.935310 -0.286897 1.582295 0.111235 -0.036893 392408.000000 0 0 1
35.893111 9.989910 -0.321191 37.258783 0.271454 1.579417 0.127747 -0.036916 500768.000000 0 0 1
35.591661 8.980410 -1.474291 36.736735 0.247159 1.610938 0.128222 -0.048980 47321.800000 0 0 1
35.098391 9.647110 -2.608991 36.493433 0.268235 1.642349 0.123701 -0.056963 79964.700000 0 0 1
34.839361 8.731710 -3.632591 36.100133 0.245569 1.671592 0.114150 -0.060021 104753.000000 0 0 1
34.017821 9.257010 -4.871291 35.589800 0.265689 1.708101 0.100121 -0.053868 564102.000000 0 0 1
32.627781 9.361710 -4.566091 34.250006 0.279418 1.704511 0.124834 -0.048874 579443.000000 0 0 1
31.997481 9.934710 -5.720791 33.989186 0.301047 1.739913 0.107769 -0.036257 -400546.000000 0 0 1
30.522431 10.303410 -5.543691 32.688096 0.325557 1.741214 0.120098 -0.034704 -773025.000000 0 0 1
29.661091 9.230810 -5.546891 31.555605 0.301709 1.747496 0.116173 -0.024562 -1248920.000000 0 0 1
28.399481 9.659810 -5.850991 30.562666 0.327864 1.763428 0.117551 -0.011778 -1394500.000000 0 0 1
27.288981 8.615410 -6.041791 29.247513 0.305807 1.778869 0.132318 -0.004605 -257382.000000 0 0 1
27.455681 7.760610 -7.178591 29.420634 0.275473 1.817283 0.130789 -0.009483 482697.000000 0 0 1
26.234181 7.087410 -7.418891 28.169196 0.263860 1.837309 0.141886 -0.016845 297011.000000 0 0 1
26.483381 6.005410 -8.536791 28.465966 0.222990 1.875379 0.142398 -0.028581 2313.340000 0 0 1
27.339381 4.949010 -8.153091 28.955265 0.179082 1.856232 0.133091 -0.030179 396873.000000 0 0 1
27.472181 4.041910 -9.186091 29.247941 0.146079 1.890280 0.122802 -0.027775 9248.450000 0 0 1
28.488051 2.908810 -8.797791 29.957159 0.101754 1.868870 0.112837 -0.027311 406189.000000 0 0 1
29.862071 3.218410 -9.101891 31.383848 0.107361 1.865042 0.131994 -0.021717 836342.000000 0 0 1
30.735831 2.709810 -8.140191 31.910768 0.087937 1.828739 0.108318 -0.028434 -326083.000000 0 0 1
30.961291 1.190710 -8.021991 32.005807 0.038439 1.824139 0.109515 -0.033202 -404444.000000 0 0 1
29.893821 0.487810 -7.353791 30.788906 0.016317 1.811973 0.118032 -0.036863 921533.000000 0 0 1
30.305111 -0.817390 -6.951991 31.103024 -0.026965 1.796215 0.117563 -0.036820 -123590.000000 0 0 1
30.170271 -1.883190 -8.001491 31.270042 -0.062338 1.829558 0.106357 -0.029966 -469263.000000 0 0 1
30.972171 -1.756290 -9.145291 32.341866 -0.056645 1.857476 0.117420 -0.030851 63477.400000 0 0 1
30.942871 -2.794490 -10.074491 32.661381 -0.090067 1.884362 0.105446 -0.038032 -310773.000000 0 0 1
32.130841 -2.731590 -11.051991 34.088107 -0.084811 1.900982 0.122913 -0.035959 635876.000000 0 0 1
33.410721 -3.146990 -10.518391 35.168401 -0.093914 1.874531 0.133929 -0.035797 892845.000000 0 0 1
34.304621 -3.430390 -11.589791 36.371663 -0.099667 1.895100 0.129632 -0.046770 -185290.000000 0 0 1
35.683361 -3.751290 -10.987791 37.524739 -0.104742 1.867965 0.129829 -0.038151 -556261.000000 0 0 1
35.800221 -5.005990 -10.374491 37.607790 -0.138930 1.850281 0.126634 -0.032461 -100480.000000 0 0 1
-36.378613 -5.204590 -9.909091 38.061547 0.142103 1.834175 0.138072 -0.034660 -191358.000000 0 0 1
-36.154623 -6.524590 -9.182391 37.868765 0.178542 1.815717 0.130527 -0.030546 -184492.000000 0 0 1
36.646231 -6.522290 -7.956391 38.062983 -0.176135 1.781382 0.137935 -0.025659 267281.000000 0 0 1
36.370761 -7.855890 -7.645591 37.986871 -0.212727 1.773450 0.123557 -0.012610 -235467.000000 0 0 1
35.856911 -8.103590 -6.211991 37.282370 -0.222264 1.738197 0.125286 -0.004065 124827.000000 0 0 1
-36.606893 -7.987090 -5.213891 37.829128 0.214819 1.709064 0.128658 -0.009699 544248.000000 0 0 1
36.722481 -8.764990 -4.098591 37.975836 -0.234298 1.678933 0.129135 -0.015999 -247464.000000 0 0 1
-36.523103 -10.334490 -4.179491 38.186475 0.275749 1.680466 0.129349 -0.022145 134871.000000 0 0 1
36.063231 -10.917790 -5.117491 38.025564 -0.293969 1.705786 0.106863 -0.022705 334741.000000 0 0 1
36.629321 -12.035490 -5.749691 38.982293 -0.317462 1.718831 0.102859 -0.021678 -74660.100000 0 0 1
35.956921 -12.478890 -7.065391 38.711014 -0.334045 1.754341 0.099708 -0.020796 5251.280000 0 0 1
36.123041 -11.498190 -8.061791 38.756612 -0.308166 1.780337 0.131474 -0.017854 106454.000000 0 0 1
35.593641 -11.856590 -9.321691 38.657211 -0.321549 1.814334 0.115333 -0.007614 -238947.000000 0 0 1
36.056501 -10.926290 -10.441991 39.095911 -0.294237 1.841165 0.098203 -0.014687 -385374.000000 0 0 1
35.565981 -9.625690 -10.492891 38.310491 -0.264311 1.848233 0.110752 -0.011861 161212.000000 0 0 1
35.764391 -9.103790 -11.803791 38.746615 -0.249255 1.880357 0.114688 -0.023456 -157960.000000 0 0 1
34.814841 -7.915090 -12.120491 37.704484 -0.223548 1.898067 0.114186 -0.027883 164039.000000 0 0 1
35.182241 -7.321790 -13.371791 38.343233 -0.205182 1.927022 0.115163 -0.025957 320823.000000 0 0 1
34.166971 -6.475190 -13.812991 37.418027 -0.187295 1.948894 0.114430 -0.031817 -135150.000000 0 0 1
34.646041 -5.708890 -15.079491 38.214273 -0.163310 1.976433 0.109893 -0.030556 523591.000000 0 0 1
35.639621 -4.703790 -14.752491 38.858001 -0.131224 1.960216 0.094924 -0.021776 729542.000000 0 0 1
35.262951 -3.507090 -15.313291 38.604045 -0.099129 1.978689 0.122584 -0.033729 -94003.900000 0 0 1
36.365931 -2.409290 -15.452591 39.586212 -0.066155 1.971811 0.102102 -0.036859 -1050270.000000 0 0 1
-36.185063 -2.847090 -16.391391 39.826404 0.078520 1.994973 0.112288 -0.027521 365005.000000 0 0 1
-34.912708 -2.177790 -16.367891 38.620562 0.062297 2.008447 0.092807 -0.023431 464098.000000 0 0 1
-34.770778 -0.652890 -16.284991 38.400966 0.018775 2.008739 0.089054 -0.015450 -1319860.000000 0 0 1
-35.073661 0.132510 -17.416591 39.160144 -0.003778 2.031695 0.084519 -0.018159 268122.000000 0 0 1
-34.960385 1.435710 -16.943591 38.876408 -0.041044 2.021759 0.087931 -0.024024 101493.000000 0 0 1
-35.325970 2.543410 -17.936991 39.700488 -0.071874 2.039587 0.093594 -0.022057 -114095.000000 0 0 1
-34.413373 2.449710 -18.984991 39.379071 -0.071065 2.073856 0.078722 -0.014292 186293.000000 0 0 1
-34.468752 3.686110 -19.763291 39.903258 -0.106536 2.088954 0.075427 -0.009329 -179840.000000 0 0 1
-33.575153 3.600710 -21.039591 39.785932 -0.106835 2.128006 0.064781 -0.010671 1061460.000000 0 0 1
-32.169693 3.676610 -20.684491 38.422061 -0.113794 2.139273 0.065184 -0.012765 1495150.000000 0 0 1
-31.388933 3.739810 -21.883391 38.446510 -0.118585 2.176317 0.073559 -0.013042 1168830.000000 0 0 1
-29.837693 4.000010 -21.771091 37.151964 -0.133264 2.196911 0.064602 -0.016320 946225.000000 0 0 1
-29.072243 3.023310 -21.149991 36.078496 -0.103621 2.197183 0.088085 -0.002067 -505789.000000 0 0 1
-27.710903 3.258810 -21.313991 35.111255 -0.117063 2.223129 0.070460 -0.003599 -513614.000000 0 0 1
-26.745493 2.508210 -20.373791 33.715039 -0.093507 2.219676 0.066558 -0.002606 -259664.000000 0 0 1
-26.839653 2.955910 -19.015291 33.025531 -0.109690 2.184349 0.051591 0.004339 114199.000000 0 0 1
-26.181083 2.087510 -18.121891 31.909399 -0.079565 2.174769 0.053720 0.007947 -356942.000000 0 0 1
-25.485343 2.783910 -16.958591 30.738359 -0.108804 2.155207 0.064067 -0.000302 -470939.000000 0 0 1
-24.412063 3.561610 -17.378491 30.176909 -0.144873 2.184485 0.045537 -0.008273 -200964.000000 0 0 1
-23.651163 4.116410 -16.314891 29.025817 -0.172321 2.167697 0.065888 -0.025876 -697226.000000 0 0 1
-22.357563 4.767410 -16.666891 28.290884 -0.210088 2.200773 0.073621 -0.037874 -1055530.000000 0 0 1
-21.352463 4.002510 -17.278191 27.757587 -0.185299 2.242688 0.098565 -0.045119 -443559.000000 0 0 1
-20.233163 4.758910 -17.602891 27.237656 -0.231005 2.273483 0.101320 -0.045671 -497945.000000 0 0 1
-19.077263 3.850410 -18.079691 26.563939 -0.199157 2.319392 0.138793 -0.056024 -485109.000000 0 0 1
-18.801563 2.920110 -17.051791 25.549744 -0.154081 2.301503 0.167332 -0.056914 -252573.000000 0 0 1
-17.756263 2.100710 -17.484391 25.008035 -0.117761 2.345006 0.129029 -0.053884 -1106560.000000 0 0 1
-17.841163 0.677910 -16.960891 24.625972 -0.037979 2.330546 0.139613 -0.052989 531886.000000 0 1 0
-18.856263 -0.137690 -17.575691 25.777559 0.007302 2.321046 0.102365 -0.045768 685601.000000 0 0 1
-20.166463 0.137210 -17.135491 26.463751 -0.006804 2.275106 0.107587 -0.053784 -288026.000000 0 0 1
-21.283663 -0.902290 -17.454691 27.540419 0.042368 2.257232 0.086363 -0.047825 -136963.000000 0 0 1
-21.081163 -2.138790 -16.910891 27.110295 0.101109 2.244367 0.084976 -0.043554 480103.000000 0 0 1
-22.048763 -3.113490 -17.284591 28.188630 0.140282 2.230871 0.080720 -0.022795 80993.800000 0 0 1
-22.118063 -4.271690 -16.273891 27.790207 0.190782 2.196414 0.090440 -0.024319 -15435.700000 0 0 1
-22.507163 -3.764890 -14.994391 27.305284 0.165741 2.152130 0.080547 -0.033566 540467.000000 0 0 1
-22.968763 -4.750490 -14.064191 27.348358 0.203948 2.110942 0.086861 -0.042485 -77083.700000 0 0 1
-23.085663 -4.176790 -12.659791 26.658277 0.178989 2.065637 0.091794 -0.051731 271391.000000 0 0 1
-24.056963 -3.114290 -12.541891 27.308155 0.128739 2.047973 0.072929 -0.039375 914633.000000 0 0 1
-24.160563 -2.603690 -11.230891 26.770225 0.107352 2.003723 0.089616 -0.049431 -311959.000000 0 0 1
-25.192043 -1.429390 -11.154591 27.588170 0.056679 1.987037 0.121640 -0.045284 -33423.700000 0 0 1
-25.365923 -1.049390 -9.838791 27.227433 0.041346 1.940518 0.130752 -0.052465 641604.000000 0 0 1
-26.083793 0.190410 -9.797691 27.863870 -0.007300 1.930105 0.146298 -0.051048 -230220.000000 0 0 1
-26.427753 0.502610 -8.362791 27.723907 -0.019016 1.877214 0.152505 -0.051317 -486610.000000 0 0 1
-25.283303 0.741710 -7.584391 26.406790 -0.029328 1.862113 0.135606 -0.049039 307242.000000 0 0 1
-25.616813 0.993610 -6.236591 26.383773 -0.038768 1.809435 0.135507 -0.055729 -294917.000000 0 0 1
-24.335063 1.203910 -5.428191 24.962171 -0.049432 1.790004 0.088422 -0.044032 -390488.000000 0 1 0
-23.966563 2.543110 -5.534491 24.728408 -0.105715 1.796519 0.116704 -0.045153 1021810.000000 0 1 0
-22.560063 2.746610 -5.311191 23.339003 -0.121150 1.800375 0.083968 -0.026860 728032.000000 0 1 0
-22.101363 4.177710 -5.526391 23.161704 -0.186821 1.811721 0.082834 -0.023815 -294617.000000 0 1 0
-22.710463 5.018010 -4.565791 23.702152 -0.217462 1.764640 0.090294 -0.025677 712649.000000 0 1 0
-22.291363 6.384710 -4.779991 23.675255 -0.278953 1.774092 0.082371 -0.030225 -559390.000000 0 1 0
-22.772863 7.485710 -3.820691 24.274201 -0.317585 1.728851 0.082944 -0.025673 -348990.000000 0 1 0
-22.255163 7.442310 -2.492391 23.598566 -0.322718 1.676610 0.075667 -0.018211 883012.000000 0 1 0
-20.905663 7.874410 -2.320391 22.459682 -0.360229 1.674295 0.076829 -0.016209 321480.000000 0 1 0
-20.456163 9.399210 -2.529791 22.653910 -0.430710 1.682701 0.066752 -0.014866 -435890.000000 0 1 0
-20.403563 9.843410 -3.899691 22.987077 -0.449498 1.741268 0.059965 -0.010591 457642.000000 0 1 0
-19.952063 11.142310 -4.064391 23.211101 -0.509311 1.746809 0.072992 -0.001690 -453548.000000 0 1 0
-19.810763 11.426110 -5.574991 23.539390 -0.523158 1.809905 0.083009 -0.015006 -948701.000000 0 1 0
-18.588763 11.084210 -6.104391 22.487006 -0.537684 1.845709 0.050382 -0.012794 -753564.000000 0 1 0
-18.531263 11.462710 -7.489891 23.041265 -0.553955 1.901876 0.066828 -0.012769 117746.000000 0 1 0
-17.225663 11.018410 -8.178391 22.023054 -0.569065 1.951265 0.052562 -0.009318 -376138.000000 0 1 0
-17.142363 9.672710 -8.545191 21.457918 -0.513724 1.980383 0.053244 -0.011178 218388.000000 0 1 0
-18.055563 9.121410 -9.492091 22.345095 -0.467787 2.009532 0.068024 -0.011946 -125434.000000 0 1 0
-18.040663 9.713410 -10.921691 23.218510 -0.493907 2.060526 0.077464 -0.012705 -83175.300000 0 1 0
-16.827563 9.335910 -11.537991 22.437721 -0.506520 2.110898 0.072153 -0.019154 4005.680000 0 1 0
-16.720863 10.099510 -12.701391 23.300487 -0.543360 2.147320 0.076305 -0.026067 148420.000000 0 1 0
-15.647563 9.646110 -13.711791 22.932660 -0.552435 2.211694 0.053441 -0.015335 -214346.000000 0 1 0
-15.962563 8.462310 -14.411391 23.110654 -0.487464 2.244113 0.074981 -0.030527 141503.000000 0 1 0
-15.492563 7.326710 -13.682891 21.929927 -0.441748 2.244567 0.056635 -0.022870 -59611.800000 0 1 0
-15.516763 6.057910 -14.563291 22.125950 -0.372212 2.289221 0.070294 -0.024770 -37518.100000 0 1 0
-14.626363 6.167310 -15.667591 22.303355 -0.399036 2.349668 0.082664 -0.024390 355272.000000 0 1 0
-14.523763 4.931910 -16.349991 22.418422 -0.327358 2.388110 0.070572 -0.024714 -40032.300000 0 1 0
32.575861 -16.217690 28.092511 45.971615 -0.461921 0.913367 0.051841 0.006469 83092.400000 0 0 1
31.832011 -14.986790 28.180731 45.078092 -0.440023 0.895468 0.060007 0.003035 563482.000000 0 0 1
30.840701 -14.943790 29.237711 45.047857 -0.451209 0.864479 0.065381 -0.006166 362865.000000 0 0 1
31.198511 -14.743190 30.721201 46.200659 -0.441456 0.843367 0.049459 -0.010342 -252500.000000 0 0 1
31.701811 -13.472690 31.117991 46.420336 -0.401855 0.836113 0.034011 -0.010591 86548.400000 0 0 1
31.793251 -13.472190 32.549255 47.452763 -0.400806 0.814916 0.022184 -0.012825 -521711.000000 0 0 1
32.237151 -12.162090 33.147425 47.811109 -0.360759 0.804739 0.039152 -0.015885 -168239.000000 0 0 1
32.192911 -12.079090 -33.543151 48.035725 -0.358954 2.343810 0.013947 -0.023039 394566.000000 0 0 1
32.818801 -10.873590 -33.117731 47.875806 -0.319939 2.334696 0.037404 -0.021450 -282956.000000 0 0 1
32.447021 -10.620890 -31.637761 46.546325 -0.316338 2.318156 0.039901 -0.022441 312615.000000 0 0 1
31.050121 -10.472090 -31.433531 45.407506 -0.325284 2.335404 0.098142 -0.024195 311284.000000 0 0 1
30.642971 -10.171890 -30.133041 44.164003 -0.320504 2.321699 0.070514 -0.018711 482237.000000 0 0 1
29.081881 -10.057390 -30.042201 43.005125 -0.332955 2.344197 0.084674 -0.008404 703797.000000 0 0 1
28.612901 -9.961390 -28.722121 41.747906 -0.335020 2.329511 0.066980 -0.014664 884599.000000 0 0 1
27.511781 -10.858590 -28.435381 41.028989 -0.375919 2.336516 0.082159 -0.020319 410617.000000 0 0 1
27.186281 -10.960990 -26.865041 39.761383 -0.383246 2.312651 0.076262 -0.017607 -693417.000000 0 0 1
26.561481 -9.891590 -26.197211 38.595980 -0.356492 2.316862 0.061309 -0.019770 1232700.000000 0 0 1
25.237781 -9.473890 -26.624211 37.888637 -0.359108 2.349977 0.068656 -0.019482 1702870.000000 0 0 1
24.038381 -10.508190 -26.490251 37.282693 -0.412110 2.361039 0.079803 -0.010126 146333.000000 0 0 1
24.210781 -11.612890 -27.332361 38.315520 -0.447242 2.365063 0.086040 -0.018509 467219.000000 0 0 1
23.244381 -12.640490 -27.018771 37.816626 -0.498077 2.366660 0.077109 -0.036209 366003.000000 0 0 1
23.776481 -13.962190 -27.573411 38.994317 -0.530975 2.356204 0.084445 -0.011799 152299.000000 0 0 1
23.910681 -13.902390 -28.999761 40.074721 -0.526653 2.379861 0.085899 -0.022896 622737.000000 0 0 1
25.052281 -14.602690 -29.515421 41.376508 -0.527743 2.365046 0.071170 -0.019341 431368.000000 0 0 1
25.311381 -14.700690 -31.008591 42.641635 -0.526177 2.385016 0.091722 -0.024515 -114598.000000 0 0 1
24.337481 -15.527990 -31.617651 42.814802 -0.567913 2.401602 0.101846 -0.022656 98708.100000 0 0 1
24.544881 -15.841890 -32.976671 44.055391 -0.573153 2.416635 0.108527 -0.024934 -183765.000000 0 0 1
24.593381 -14.704790 34.061810 44.511483 -0.538886 0.699388 0.074970 -0.020302 -271812.000000 0 0 1
23.487081 -13.883090 33.801392 43.438661 -0.533846 0.679096 0.099200 -0.022903 -455243.000000 0 0 1
23.633581 -13.016390 32.680589 42.379163 -0.503425 0.690155 0.084456 -0.021005 -665858.000000 0 0 1
22.682881 -11.795090 32.662405 41.478548 -0.479519 0.664131 0.087508 -0.023227 447195.000000 0 0 1
21.285481 -12.025690 32.755976 40.873498 -0.514265 0.641166 0.075518 -0.019341 412586.000000 0 0 1
20.771781 -12.393490 31.484561 39.703187 -0.537953 0.655081 0.062067 -0.014072 1305890.000000 0 0 1
19.176281 -12.671390 31.562081 39.044319 -0.583919 0.629426 0.062945 -0.006794 2062360.000000 0 0 1
18.439081 -11.470890 31.593231 38.336839 -0.556509 0.602192 0.058556 -0.008892 -732093.000000 0 0 1
17.279981 -11.714990 32.319363 38.475706 -0.595775 0.573524 0.049169 -0.003143 -294133.000000 0 0 1
16.437481 -10.412390 32.655317 38.012871 -0.564656 0.537367 0.049665 -0.002156 -434654.000000 0 0 1
15.668781 -10.040890 31.534081 36.615959 -0.569896 0.533148 0.051226 -0.004950 67994.000000 0 0 1
14.958581 -8.805390 31.635811 36.084880 -0.532033 0.501826 0.062113 0.003124 1358520.000000 0 0 1
13.683581 -8.818890 32.586422 36.426475 -0.572490 0.463304 0.063257 0.002798 -68114.800000 0 0 1
12.705281 -9.805690 32.336440 36.100153 -0.657296 0.460698 0.062372 -0.000317 -161505.000000 0 0 1
11.590581 -9.698490 33.153476 36.435632 -0.696755 0.427707 0.063590 0.005931 461090.000000 0 0 1
10.422181 -8.718590 32.690060 35.401634 -0.696629 0.393936 0.056038 0.006937 352413.000000 0 0 1
10.855781 -7.355590 32.604655 35.142797 -0.595516 0.382388 0.069155 0.004864 12785.200000 0 0 1
9.801681 -6.578290 32.131633 34.231399 -0.591092 0.352074 0.074346 0.009013 1506.720000 0 0 1
10.250081 -5.087090 32.182984 34.156801 -0.460681 0.341620 0.090940 0.011898 227747.000000 0 0 1
10.382281 -4.510590 33.489942 35.351285 -0.409848 0.325949 0.089514 0.000160 367640.000000 0 0 1
10.985681 -3.225490 33.296469 35.209996 -0.285583 0.331197 0.071341 0.003208 -7975.480000 0 0 1
10.897181 -2.460590 -33.462571 35.278133 -0.222076 2.819376 0.065452 -0.002463 -1282520.000000 0 0 1
9.578381 -2.249090 -33.172631 34.600971 -0.230631 2.853261 0.069405 0.010007 -1260620.000000 0 0 1
9.394381 -1.460090 -32.011471 33.393420 -0.154188 2.852897 0.075801 0.002899 431747.000000 0 0 1
7.897381 -1.149590 -31.746431 32.734173 -0.144551 2.895310 0.070951 0.001284 253409.000000 0 0 1
7.227881 -0.352590 -32.690541 33.481906 -0.048743 2.923743 0.070901 0.004437 163491.000000 0 0 1
5.842581 -0.220490 -32.379521 32.903157 -0.037720 2.962949 0.082630 0.004839 365846.000000 0 0 1
5.153281 0.722810 -33.319161 33.723067 0.139353 2.986666 0.084677 -0.002829 -446261.000000 0 0 1
5.803881 1.955010 -33.362091 33.919555 0.324908 2.960043 0.075759 -0.005229 -258578.000000 0 0 1
5.186181 2.871510 33.865283 34.380218 0.505668 0.173293 0.075783 -0.007166 197039.000000 0 0 1
5.969781 4.212110 33.639701 34.423969 0.614456 0.213868 0.066538 -0.013255 -92413.100000 0 0 1
5.369581 5.142710 32.794616 33.626875 0.763820 0.222947 0.087525 -0.027404 -905250.000000 0 0 1
6.143181 6.232610 32.678645 33.830133 0.792624 0.261657 0.081280 -0.024415 -734999.000000 0 0 1
5.553881 7.319410 31.739921 33.043031 0.921695 0.281776 0.096709 -0.024592 -775165.000000 0 0 1
4.384781 7.895710 32.225862 33.467517 1.063865 0.273247 0.098736 -0.027914 -508992.000000 0 0 1
4.058281 9.230910 31.764591 33.326695 1.156591 0.307387 0.103408 -0.031390 -99018.100000 0 0 1
3.695581 9.351010 30.300841 31.925533 1.194429 0.320399 0.098673 -0.028974 -442264.000000 0 0 1
2.420181 8.810810 30.060401 31.418392 1.302725 0.295086 0.100315 -0.026946 -288509.000000 0 0 1
2.049981 8.788010 28.687661 30.073467 1.341624 0.304759 0.071045 -0.013150 -51612.600000 0 0 1
0.717481 8.172310 28.266581 29.432992 1.483227 0.282467 0.073154 -0.012021 377669.000000 0 0 1
-0.477619 8.792610 28.751051 30.069271 -1.516529 0.297199 0.077356 -0.013186 424792.000000 0 0 1
-1.541319 8.519510 27.847561 29.162379 -1.391816 0.301427 0.070655 -0.007076 415731.000000 0 0 1
-2.965119 8.791510 28.375041 29.853400 -1.245506 0.316022 0.055835 -0.010163 -157699.000000 0 0 1
-3.269519 10.165310 28.515261 30.449029 -1.259611 0.358308 0.072220 -0.008974 513530.000000 0 0 1
-4.547519 10.309310 29.152881 31.254636 -1.155362 0.368819 0.057467 -0.014423 416907.000000 0 0 1
-4.721419 11.751810 29.713481 32.299966 -1.188773 0.402912 0.052885 -0.025787 -88584.900000 0 0 1
-4.937019 12.842310 28.806401 31.923468 -1.203781 0.445586 0.048414 -0.018417 386542.000000 0 0 1
-6.152819 12.814810 28.073561 31.467465 -1.123168 0.468724 0.043457 -0.019890 25853.000000 0 0 1
-6.388419 14.216010 27.436641 31.554336 -1.148456 0.516598 0.037715 -0.018386 513006.000000 0 0 1
-5.429419 14.482010 26.383671 30.582761 -1.212106 0.530217 0.037896 -0.007919 456014.000000 0 0 1
-5.626819 15.737910 25.859741 30.790731 -1.227427 0.573781 0.033166 -0.011260 -229485.000000 0 0 1
-4.376919 16.450210 25.331851 30.519985 -1.310750 0.591673 0.051929 -0.006602 -134236.000000 0 0 1
-4.028019 16.072610 23.973611 29.142542 -1.325240 0.604770 0.031147 -0.000681 359371.000000 0 0 1
-2.846219 16.706310 23.470681 28.949518 -1.402049 0.625372 0.033627 0.000730 562795.000000 0 0 1
-2.631019 16.541410 21.940991 27.603398 -1.413061 0.652010 0.023381 0.003722 -12171.300000 0 0 1
-2.218819 15.225310 21.594191 26.514945 -1.426083 0.619075 0.021239 0.003649 173203.000000 0 0 1
-1.926819 15.067810 20.167291 25.248191 -1.443610 0.645562 0.006716 0.003938 -251194.000000 0 0 1
-1.199819 13.824110 19.724491 24.116408 -1.484222 0.613068 0.010812 -0.004549 -545094.000000 0 1 0
-1.853719 12.561710 19.920991 23.623690 -1.424285 0.567470 0.014667 -0.004131 362740.000000 0 1 0
-1.197919 11.528110 19.181791 22.411458 -1.467255 0.543523 0.016378 -0.014143 139949.000000 0 1 0
-2.094919 10.258610 19.195791 21.865639 -1.369355 0.499343 0.013617 -0.010523 -531233.000000 0 1 0
-2.141119 9.639510 20.476391 22.732952 -1.352226 0.449335 0.022964 -0.013067 403616.000000 0 1 0
-3.052719 10.184110 21.468791 23.957132 -1.279566 0.459817 0.038307 -0.007299 1127460.000000 0 1 0
-4.571519 10.093610 21.048391 23.786856 -1.145523 0.484571 0.046011 -0.004737 235610.000000 0 1 0
-5.141419 8.775410 21.001291 23.334443 -1.040817 0.450998 0.042434 -0.011729 485343.000000 0 1 0
-6.553919 8.914910 20.811291 23.569881 -0.936858 0.488663 0.048740 -0.009198 825135.000000 0 1 0
-7.215719 7.472810 20.854491 23.298482 -0.802899 0.462139 0.049677 -0.017148 -37022.800000 0 1 0
-7.128719 6.952810 22.171691 24.305227 -0.772907 0.422128 0.049221 -0.021349 193584.000000 0 1 0
-7.654319 5.635110 22.269591 24.213173 -0.634611 0.403403 0.050089 -0.017450 65556.200000 0 1 0
-7.613719 5.023810 23.662771 25.360089 -0.583259 0.367937 0.038080 -0.012468 -211177.000000 0 0 1
-8.459819 5.552910 24.650411 26.646690 -0.580852 0.389541 0.039936 -0.011195 -86354.900000 0 0 1
-8.648519 4.668410 25.739411 27.551918 -0.494973 0.364745 0.043874 -0.001279 -19032.300000 0 0 1
-9.698819 5.101110 26.780621 28.935965 -0.484193 0.388408 0.037297 -0.000820 -215033.000000 0 0 1
-9.252019 6.150910 27.602131 29.754179 -0.586722 0.382666 0.033215 -0.006084 411423.000000 0 0 1
-10.271319 6.581910 28.510871 31.011148 -0.569884 0.404308 0.035175 -0.012907 515959.000000 0 0 1
-9.761019 7.929410 29.071531 31.675021 -0.682229 0.408277 0.046854 -0.013445 353510.000000 0 0 1
-8.668319 7.681310 29.944131 32.105969 -0.725102 0.369064 0.058195 -0.016874 105539.000000 0 0 1
-8.383319 8.812610 30.691371 33.013669 -0.810358 0.377317 0.060485 -0.018178 57418.000000 0 0 1
-7.307819 8.528610 31.784301 33.710283 -0.862334 0.339664 0.083634 -0.022803 -164599.000000 0 0 1
-6.036119 8.229010 31.254901 32.878871 -0.937928 0.315609 0.071989 -0.026005 -606243.000000 0 0 1
-5.255619 7.680110 32.288098 33.602483 -0.970675 0.280619 0.090539 -0.030351 1070680.000000 0 0 1
-3.699719 7.602510 32.018781 33.116286 -1.117890 0.258169 0.066680 -0.020649 1210320.000000 0 0 1
-3.060719 8.851810 32.125971 33.463421 -1.237892 0.283678 0.061127 -0.021382 11092.800000 0 0 1
-1.645919 8.744010 32.268369 33.472591 -1.384740 0.269051 0.063647 -0.022074 454449.000000 0 0 1
-1.014319 10.044610 31.803681 33.367606 -1.470156 0.307377 0.068672 -0.021254 -200683.000000 0 0 1
-1.343119 11.088810 32.741947 34.594808 -1.450260 0.328767 0.072729 -0.036051 100387.000000 0 0 1
-1.611519 12.246210 32.045381 34.343458 -1.439955 0.367898 0.076609 -0.035584 -321582.000000 0 0 1
-1.751819 13.436010 33.066316 35.734808 -1.441145 0.388904 0.075238 -0.040960 -457025.000000 0 0 1
-0.544119 14.077910 33.372400 36.224311 -1.532165 0.399461 0.104929 -0.043930 -285017.000000 0 0 1
-0.627019 14.776010 -33.524081 36.641338 -1.528387 2.726119 0.098969 -0.045040 1194880.000000 0 0 1
0.839081 15.056010 -32.966981 36.252025 1.515123 2.712595 0.086471 -0.043528 1093740.000000 0 0 1
1.469281 16.066710 -33.726791 37.387088 1.479601 2.695401 0.090109 -0.043404 509195.000000 0 0 1
2.850981 16.120410 -33.367991 37.167439 1.395751 2.685488 0.088943 -0.043037 967265.000000 0 0 1
3.770281 17.156210 34.006233 38.274984 1.354473 0.476793 0.096577 -0.033643 459982.000000 0 0 1
3.362881 18.478110 -33.948011 38.797126 1.390774 2.636260 0.079861 -0.026477 481762.000000 0 0 1
4.254981 19.328010 33.396944 38.820519 1.354107 0.534956 0.061455 -0.009083 789297.000000 0 0 1
3.851081 20.825510 33.445920 39.587400 1.387941 0.564488 0.065356 -0.017101 50043.400000 0 0 1
4.217481 21.485010 -33.514401 40.032585 1.376962 2.562899 0.069211 -0.025424 -122781.000000 0 0 1
3.704481 22.786510 -33.548781 40.724304 1.409633 2.538883 0.055516 -0.021870 94213.500000 0 0 1
3.546581 23.416110 -32.125281 39.911479 1.420480 2.506326 0.071076 -0.023527 -82310.500000 0 0 1
3.116681 24.750010 -32.121941 40.670576 1.445529 2.481292 0.066672 -0.019976 -33973.100000 0 0 1
3.032481 25.230410 -30.791371 39.923402 1.451179 2.451616 0.073123 -0.025817 -22044.200000 0 0 1
2.587581 26.684810 -30.573101 40.663118 1.474130 2.421680 0.063731 -0.026284 -163595.000000 0 0 1
3.727281 27.484110 -30.541251 41.255750 1.436003 2.404299 0.078277 -0.034067 -309127.000000 0 0 1
3.343181 28.787910 -30.242471 41.887082 1.455183 2.377485 0.073288 -0.031330 -354426.000000 0 0 1
4.492681 29.775810 -30.061991 42.550045 1.421042 2.355349 0.096027 -0.047814 363745.000000 0 0 1
5.502181 29.546310 -29.074291 41.815940 1.386683 2.339622 0.089924 -0.056352 242839.000000 0 0 1
6.264981 30.700510 -28.805611 42.562126 1.369493 2.314189 0.110499 -0.072503 -616381.000000 0 0 1
7.266081 30.507110 -27.660831 41.816280 1.336976 2.293593 0.122814 -0.064718 -807679.000000 0 0 1
8.444481 29.898210 -28.110231 41.897462 1.295525 2.306258 0.122938 -0.057680 723533.000000 0 0 1
9.678181 30.655410 -28.092731 42.692188 1.264991 2.288996 0.137807 -0.063077 947900.000000 0 0 1
9.715981 31.897710 -28.961831 44.166185 1.275126 2.285968 0.153166 -0.065214 -1162260.000000 0 0 1
9.031881 33.008910 -28.409141 44.477436 1.303714 2.263645 0.151262 -0.064723 193062.000000 0 0 1
8.740781 34.086310 -29.229621 45.745476 1.319774 2.263944 0.133512 -0.060816 123887.000000 0 0 1
7.354281 -34.102481 -29.952181 45.980407 -1.358397 2.280240 0.087773 -0.039744 378258.000000 0 0 1
7.261081 33.239510 -31.075011 46.078679 1.355728 2.310935 0.071539 -0.035563 163762.000000 0 0 1
5.910981 33.163910 -31.487901 46.111523 1.394413 2.322472 0.065502 -0.024501 -5350.550000 0 0 1
5.824281 32.332710 -32.801951 46.425148 1.392572 2.355415 0.065302 -0.047733 181706.000000 0 0 1
6.266981 33.058510 -33.958481 47.805006 1.383447 2.360797 0.070565 -0.038209 185755.000000 0 0 1
6.191581 32.248810 33.015395 46.565413 1.381110 0.782701 0.076495 -0.033253 -195030.000000 0 0 1
5.739481 32.987010 31.738181 46.134549 1.398529 0.812138 0.059861 -0.027225 350377.000000 0 0 1
6.674881 33.947210 31.236501 46.612081 1.376648 0.836402 0.064651 -0.025549 363750.000000 0 0 1
6.123781 -33.726581 30.081981 45.606014 -1.391182 0.850502 0.032871 -0.035350 -299212.000000 0 0 1
17.921137 -22.353990 29.231321 40.930894 -0.895021 0.775369 0.105121 -0.005777 289075.000000 0 0 1
16.926537 -21.277890 29.161731 39.870575 -0.898806 0.750409 0.088764 -0.004002 1518250.000000 0 0 1
15.569437 -21.680290 29.351971 39.673423 -0.948001 0.737964 0.095432 -0.003144 789703.000000 0 0 1
15.108737 -22.008190 30.792781 40.753278 -0.969185 0.714242 0.097624 -0.012259 -267500.000000 0 0 1
15.816137 -23.161990 31.307141 42.032904 -0.971674 0.730524 0.114766 -0.014962 433195.000000 0 0 1
15.619437 -23.151890 32.674365 42.983612 -0.977287 0.707239 0.091698 -0.016627 140076.000000 0 0 1
16.526237 -24.134090 33.479673 44.457387 -0.970367 0.718075 0.104604 -0.021514 73365.200000 0 0 1
16.290937 -25.519140 33.164934 44.905835 -1.002632 0.739888 0.118987 -0.029430 163789.000000 0 0 1
17.177237 -26.319240 33.944130 46.259742 -0.992561 0.746938 0.105461 -0.030971 202540.000000 0 0 1
16.884437 -27.808580 33.819458 46.927146 -1.025124 0.766014 0.090473 -0.026052 115779.000000 0 0 1
17.250937 -28.432900 32.584406 46.559296 -1.025447 0.795612 0.080133 -0.030127 244105.000000 0 0 1
16.604737 -29.663840 32.417875 46.974240 -1.060488 0.809141 0.092537 -0.033138 -298368.000000 0 0 1
17.150837 -30.342530 31.158671 46.751289 -1.056327 0.841323 0.104233 -0.035814 565095.000000 0 0 1
18.472537 -30.841530 31.381721 47.720509 -1.031149 0.853148 0.096105 -0.041928 451072.000000 0 0 1
19.069937 -31.295750 30.194621 47.484751 -1.023533 0.881648 0.068030 -0.029771 -473012.000000 0 0 1
20.353937 -32.088820 30.548701 48.756519 -1.005537 0.893670 0.041431 -0.022508 485738.000000 0 0 1
21.464237 -31.197310 30.793241 48.807881 -0.968159 0.888074 0.036346 -0.024177 969438.000000 0 0 1
22.649537 -31.950660 31.082831 49.999885 -0.954128 0.899939 0.044745 -0.018464 395892.000000 0 0 1
23.864937 -31.086870 31.468711 50.261401 -0.916072 0.894254 0.045162 -0.022230 102001.000000 0 0 1
24.627837 -30.570810 30.387201 49.643597 -0.892650 0.912074 0.031466 -0.018210 -560505.000000 0 0 1
25.453337 -29.513550 30.629871 49.569254 -0.859131 0.904701 0.021159 -0.012815 -482263.000000 0 0 1
26.551837 -29.367140 29.563051 49.410554 -0.835702 0.929400 0.031618 -0.007449 -500985.000000 0 0 1
27.570237 -30.295700 29.722601 50.610082 -0.832463 0.943095 0.041781 -0.008598 -422238.000000 0 0 1
28.536137 -30.323210 28.678141 50.559311 -0.815751 0.967673 0.032950 -0.021671 513816.000000 0 0 1
29.774237 -31.173670 29.099771 52.010571 -0.808355 0.977017 0.038272 -0.014349 204003.000000 0 0 1
29.497237 -32.513840 29.183661 52.715489 -0.834006 0.984107 0.036889 -0.016443 717823.000000 0 0 1
30.611637 -33.198200 29.805751 54.107075 -0.825911 0.987395 0.044600 -0.014626 -259011.000000 0 0 1
30.224637 33.593488 30.096971 54.294371 0.838138 0.983239 0.032042 -0.013069 423403.000000 0 0 1
29.371737 33.388364 31.252001 54.352271 0.849311 0.958205 0.034614 -0.006216 200706.000000 0 0 1
28.162637 34.054327 31.395141 54.207805 0.879813 0.953095 0.014993 0.000539 -175636.000000 0 0 1
26.899337 33.443086 30.671111 52.751600 0.893420 0.950317 0.028762 -0.010705 690887.000000 0 0 1
26.534437 32.116442 31.084241 51.978574 0.880286 0.929768 0.021110 -0.002367 14138.400000 0 0 1
25.127337 31.957062 31.098451 51.183498 0.904475 0.917777 0.017942 -0.001618 413935.000000 0 0 1
24.641437 30.486762 30.842331 49.878777 0.891035 0.904160 0.032060 -0.003413 42917.800000 0 0 1
24.633337 30.185252 29.437721 48.831651 0.886332 0.923739 0.030024 -0.019627 68915.200000 0 0 1
24.164337 28.903032 29.158911 47.639716 0.874458 0.912119 0.066475 -0.054682 -525898.000000 0 0 1
23.522337 28.786942 27.775601 46.405521 0.885704 0.929118 0.057155 -0.043640 234112.000000 0 0 1
22.187937 29.265922 27.722931 46.014776 0.922100 0.924193 0.081476 -0.046995 320524.000000 0 0 1
21.432537 28.883112 26.598671 44.733400 0.932407 0.934023 0.086303 -0.033381 1093930.000000 0 0 1
20.071237 29.682212 26.456471 44.540241 0.976220 0.934786 0.105789 -0.031609 828358.000000 0 0 1
20.234637 30.979202 25.916301 45.175282 0.992197 0.959801 0.101721 -0.035387 518172.000000 0 0 1
18.961037 31.485972 25.498001 44.732934 1.028756 0.964284 0.101989 -0.035646 75505.300000 0 0 1
18.942237 32.901418 24.788391 45.340666 1.048416 0.992361 0.107704 -0.032023 -105391.000000 0 0 1
19.687737 32.929773 23.578271 45.032341 1.031944 1.019743 0.106999 -0.031397 -93122.000000 0 0 1
21.041537 33.247832 23.801061 45.985379 1.006558 1.026777 0.105664 -0.031128 -336804.000000 0 0 1
21.668437 33.545213 22.372991 45.775028 0.997275 1.060129 0.100871 -0.029797 -134497.000000 0 0 1
21.309037 -33.509300 21.683091 45.244940 -1.004387 1.071010 0.108253 -0.021397 87414.800000 0 0 1
21.897937 -33.417980 20.410991 44.865237 -0.990722 1.098492 0.109006 -0.024958 -142604.000000 0 0 1
21.544037 -32.131930 19.646391 43.388790 -0.980154 1.100894 0.098381 -0.020430 -100193.000000 0 0 1
22.013437 -30.893250 20.151691 42.954335 -0.951687 1.082477 0.090161 -0.011195 96640.800000 0 0 1
21.617537 -29.788600 19.278291 41.549140 -0.943031 1.088305 0.091024 -0.025350 48072.100000 0 0 1
22.429337 -29.487180 17.963691 41.173573 -0.920516 1.119323 0.069745 -0.023339 -133004.000000 0 0 1
22.160137 -30.248740 16.808891 41.092538 -0.938526 1.149384 0.066337 -0.020843 245422.000000 0 0 1
22.800337 -29.534930 15.728191 40.491276 -0.913377 1.171865 0.054778 -0.015721 80233.300000 0 0 1
22.590237 -30.115000 14.336891 40.283724 -0.927210 1.206922 0.047017 -0.034018 -234138.000000 0 0 1
23.203937 -31.357080 14.030491 41.455323 -0.933732 1.225529 0.084471 -0.032411 -107319.000000 0 0 1
23.235037 -31.661600 12.670691 41.265848 -0.937708 1.258704 0.082241 -0.033783 -30803.000000 0 0 1
21.878537 -31.796960 11.916191 40.394463 -0.968122 1.271345 0.076090 -0.026500 315145.000000 0 0 1
21.002937 -32.781010 12.453291 40.875450 -1.000984 1.261210 0.083675 -0.034498 -450652.000000 0 0 1
19.805737 -32.873460 11.717591 40.127715 -1.028552 1.274471 0.075609 -0.033325 -458305.000000 0 0 1
18.818037 -33.605830 12.621191 40.531034 -1.060336 1.254135 0.078742 -0.026757 -537694.000000 0 0 1
18.553237 -32.811220 13.783491 40.134565 -1.056166 1.220228 0.070395 -0.017857 296456.000000 0 0 1
19.110937 -33.497600 14.923091 41.352336 -1.052338 1.201589 0.061047 -0.023227 -588253.000000 0 0 1
19.021937 -32.658850 16.230391 41.132227 -1.043386 1.165174 0.065603 -0.023309 -642293.000000 0 0 1
17.795537 -32.161690 16.677691 40.363359 -1.065412 1.144843 0.069222 -0.026602 24981.000000 0 0 1
16.838837 -33.150240 17.145291 40.944423 -1.100805 1.138733 0.067002 -0.023910 103968.000000 0 0 1
17.155937 -33.939730 18.443591 42.265795 -1.102772 1.119234 0.065166 -0.029932 -403120.000000 0 0 1
17.962437 33.154739 18.225191 41.881301 1.074289 1.120577 0.053556 -0.026836 26016.500000 0 0 1
18.284437 32.612655 19.519691 42.177295 1.059810 1.089644 0.055766 -0.022417 80977.100000 0 0 1
18.930037 31.201562 19.395591 41.328836 1.025464 1.082299 0.062717 -0.019794 -37535.800000 0 0 1
18.063037 30.091692 19.253291 40.030893 1.030181 1.069046 0.043057 -0.021097 -477493.000000 0 0 1
18.777737 29.041312 18.730991 39.330029 0.996824 1.074409 0.051048 -0.025051 -237694.000000 0 0 1
18.051837 27.686252 18.718291 37.983836 0.993006 1.055496 0.064311 -0.026897 -82555.000000 0 0 1
17.895037 27.183802 20.008591 38.203863 0.988610 1.019570 0.066608 -0.031333 -22422.300000 0 0 1
17.476637 25.833892 19.857891 36.975108 0.976017 1.003847 0.080802 -0.037710 -399707.000000 0 0 1
17.100237 25.068692 21.144391 36.985709 0.972161 0.962231 0.096389 -0.035212 432783.000000 0 0 1
15.830637 25.417382 21.706591 36.984165 1.013761 0.943552 0.106421 -0.031338 381235.000000 0 0 1
14.873937 24.418352 21.383991 35.703851 1.023691 0.928636 0.100283 -0.030495 -1106560.000000 0 0 1
13.538537 24.695212 22.001191 35.737905 1.069317 0.907616 0.099606 -0.048583 -1078710.000000 0 0 1
12.831337 25.792302 21.463291 35.924350 1.109161 0.930469 0.114043 -0.048895 -351585.000000 0 0 1
11.756437 26.130592 22.304091 36.311074 1.148017 0.909361 0.104553 -0.050551 -302106.000000 0 0 1
10.886437 27.220972 21.656391 36.448526 1.190352 0.934571 0.097732 -0.052794 -136165.000000 0 0 1
11.486337 28.506852 21.717691 37.632893 1.187765 0.955631 0.097914 -0.053422 -15672.200000 0 0 1
11.122537 29.272532 20.597491 37.481310 1.207680 0.988982 0.099365 -0.050625 -123338.000000 0 0 1
11.693737 30.705422 20.549991 38.753949 1.206919 1.011879 0.100608 -0.046679 -224832.000000 0 0 1
11.032337 31.625902 21.403091 39.749244 1.235157 1.002196 0.106166 -0.046103 -225321.000000 0 0 1
11.497137 31.545162 22.748591 40.555885 1.221293 0.975300 0.084550 -0.042998 -93574.400000 0 0 1
10.810437 32.329764 23.880901 41.621828 1.248104 0.959708 0.071423 -0.039983 328044.000000 0 0 1
9.466737 32.000602 24.210461 41.228680 1.283170 0.943172 0.071283 -0.041343 72019.500000 0 0 1
9.066937 32.746342 25.338391 42.385921 1.300679 0.930040 0.062783 -0.027906 183714.000000 0 0 1
7.684037 32.510746 26.042291 42.357926 1.338702 0.908645 0.100905 -0.042883 1628040.000000 0 0 1
6.511937 33.288584 25.571221 42.478494 1.377615 0.924817 0.089762 -0.043674 1509570.000000 0 0 1
6.041937 33.027222 24.254591 41.419652 1.389859 0.945199 0.089040 -0.051986 -356319.000000 0 0 1
4.985637 31.911482 24.286671 40.410910 1.415816 0.926053 0.078041 -0.058834 -579048.000000 0 0 1
5.630137 30.739052 24.721641 39.846547 1.389645 0.901517 0.063030 -0.045245 -475257.000000 0 0 1
4.950137 29.508782 24.518711 38.683837 1.404593 0.884310 0.047378 -0.037956 -463941.000000 0 0 1
5.912337 28.280482 24.843131 38.104101 1.364704 0.860603 0.048778 -0.034098 1002570.000000 0 0 1
7.033637 28.120062 23.958521 37.606125 1.325696 0.880078 0.058514 -0.039253 646496.000000 0 0 1
8.047437 29.112982 24.083841 38.631054 1.301110 0.897672 0.081398 -0.039098 -808529.000000 0 0 1
9.328437 28.587252 24.763121 38.954626 1.255376 0.881892 0.077337 -0.046772 -999257.000000 0 0 1
9.256637 28.218552 26.155571 39.573803 1.253823 0.848737 0.071985 -0.044255 604851.000000 0 0 1
10.513137 27.804222 26.724531 39.972507 1.209299 0.838508 0.073825 -0.026701 843860.000000 0 0 1
11.564637 28.957052 26.921361 41.194798 1.190831 0.858579 0.070034 -0.030496 -404291.000000 0 0 1
11.132437 29.932282 27.810471 42.347313 1.214728 0.854331 0.071593 -0.034367 106201.000000 0 0 1
12.023537 31.024252 27.918531 43.434019 1.201066 0.872674 0.064882 -0.023509 59242.100000 0 0 1
11.461237 32.092882 28.909001 44.688291 1.227786 0.867280 0.054870 -0.027656 96864.400000 0 0 1
11.431137 31.894412 30.292191 45.448226 1.226653 0.841264 0.061559 -0.043116 -653520.000000 0 0 1
10.120437 31.718352 30.698341 45.286479 1.261935 0.825935 0.083174 -0.036190 -800561.000000 0 0 1
9.999337 31.750952 32.264462 46.358442 1.265699 0.801015 0.115077 -0.036070 -30865.900000 0 0 1
10.453537 30.530752 32.830648 46.035363 1.240914 0.776798 0.092672 -0.039723 214021.000000 0 0 1
10.774237 30.611212 -33.946511 46.962709 1.232367 2.378699 0.120319 -0.039316 -47446.400000 0 0 1
10.890237 29.205842 -33.323781 45.629517 1.213887 2.389575 0.101204 -0.032438 142570.000000 0 0 1
11.956237 28.512942 -33.965111 45.930036 1.173741 2.403119 0.118199 -0.028835 144608.000000 0 0 1
11.916337 27.131572 -33.584861 44.789107 1.156955 2.418623 0.115033 -0.028745 26858.900000 0 0 1
13.090537 26.233042 34.059390 44.939700 1.107941 0.710722 0.115297 -0.026929 99841.600000 0 0 1
13.120137 24.885942 -33.691611 43.892741 1.085618 2.445868 0.086999 -0.021078 -261221.000000 0 0 1
13.363637 24.663822 -32.300541 42.781022 1.074246 2.426481 0.086342 -0.021337 -206829.000000 0 0 1
13.283237 23.204992 -31.958221 41.668260 1.050896 2.444899 0.076644 -0.037272 -703926.000000 0 0 1
14.363837 22.527402 -32.468621 42.047770 1.003176 2.453068 0.058625 -0.020666 -590641.000000 0 0 1
14.150137 21.099102 -32.507501 41.256952 0.980040 2.478233 0.058181 -0.020120 550237.000000 0 0 1
15.404937 20.361502 -33.101921 41.804784 0.923103 2.484582 0.065356 -0.023696 636288.000000 0 0 1
16.548937 20.476402 -32.277031 41.652816 0.891078 2.457363 0.085292 -0.031658 75299.100000 0 0 1
17.675737 19.910502 -32.948051 42.360758 0.844785 2.461949 0.085764 -0.028425 302048.000000 0 0 1
18.967537 19.898502 -32.097031 42.260350 0.809347 2.433351 0.074134 -0.026862 -349955.000000 0 0 1
19.730637 21.057602 -32.317391 43.325909 0.817920 2.412702 0.083684 -0.018298 -73057.800000 0 0 1
20.804737 21.201602 -31.409441 43.230752 0.794846 2.384088 0.068462 -0.012587 119881.000000 0 0 1
20.368637 21.613402 -29.971661 42.193850 0.815039 2.360767 0.066500 -0.016508 -360971.000000 0 0 1
19.853137 22.917602 -29.990471 42.647296 0.856925 2.350714 0.065533 -0.008758 -148257.000000 0 0 1
19.500437 23.381932 -28.666721 41.818210 0.875667 2.326098 0.065570 0.000169 -27949.800000 0 0 1
20.631337 24.001822 -27.771691 42.107082 0.860770 2.291015 0.050815 0.002428 438352.000000 0 0 1
21.352737 25.068062 -28.347021 43.449979 0.865264 2.281551 0.054531 0.000656 -2706.060000 0 0 1
20.612037 26.304402 -28.380551 43.843281 0.906138 2.274857 0.044915 0.001284 -110194.000000 0 0 1
21.459037 27.514722 -28.848901 45.274819 0.908425 2.261650 0.048923 -0.004115 -95615.100000 0 0 1
21.665737 27.607252 -30.288281 46.356709 0.905402 2.282829 0.053789 -0.006249 223616.000000 0 0 1
22.217137 26.499212 -31.061101 46.482269 0.873071 2.302631 0.057451 -0.011288 -478029.000000 0 0 1
23.620437 26.004892 -30.697261 46.652988 0.833410 2.288944 0.086430 -0.027414 -684344.000000 0 0 1
24.605337 26.962252 -31.036301 47.912812 0.831072 2.275445 0.081087 -0.023720 184726.000000 0 0 1
25.878837 26.332932 -30.798831 48.080198 0.794095 2.266039 0.086956 -0.033089 451538.000000 0 0 1
27.043337 27.303672 -31.095311 49.434309 0.790188 2.251092 0.065812 -0.024559 -367824.000000 0 0 1
27.257237 28.324322 -30.130211 49.528313 0.804594 2.224768 0.052270 -0.017526 592905.000000 0 0 1
28.482137 28.988262 -30.495681 50.808838 0.794205 2.214553 0.045723 -0.025546 801912.000000 0 0 1
28.773337 30.253342 -29.732571 51.256174 0.810466 2.189621 0.037059 -0.006934 -197587.000000 0 0 1
29.123337 30.033872 -28.406811 50.568262 0.800789 2.167298 0.056148 -0.011425 232536.000000 0 0 1
28.499837 30.931142 -27.487461 50.244768 0.826285 2.149658 0.037075 0.001852 -286961.000000 0 0 1
28.970437 30.763352 -26.066461 49.650080 0.815404 2.123515 0.054290 -0.000764 -363698.000000 0 0 1
28.768537 29.471792 -25.555031 48.469318 0.797473 2.126147 0.047160 0.008759 1498760.000000 0 0 1
27.419637 29.102972 -25.130801 47.226863 0.815171 2.131910 0.050221 0.004951 1027570.000000 0 0 1
26.845837 29.639372 -23.859591 46.566849 0.834814 2.108742 0.054204 0.017540 -350890.000000 0 0 1
26.516137 31.060462 -23.845091 47.291079 0.864161 2.099274 0.059358 0.010188 -84109.800000 0 0 1
25.808837 31.397482 -22.724491 46.565013 0.882782 2.080612 0.041562 0.028680 -381757.000000 0 0 1
3.304337 -26.673350 -19.630391 33.282705 -1.447543 2.201617 0.079939 -0.015065 -271571.000000 0 0 1
2.894237 -27.577210 -18.663691 33.424728 -1.466229 2.163228 0.066761 -0.005537 137485.000000 0 0 1
2.912337 -27.039450 -17.362491 32.265611 -1.463503 2.138991 0.078705 -0.007704 -129504.000000 0 0 1
3.043837 -28.174010 -16.273191 32.678074 -1.463177 2.092070 0.067903 -0.005081 458561.000000 0 0 1
4.345037 -28.715470 -16.086991 33.200133 -1.420622 2.076640 0.066905 -0.003682 227092.000000 0 0 1
4.223637 -29.664130 -15.047991 33.529714 -1.429365 2.036214 0.068613 -0.004518 1243250.000000 0 0 1
5.599737 -30.335690 -14.624691 34.139313 -1.388259 2.013498 0.079636 -0.000504 1098010.000000 0 0 1
6.413937 -29.523100 -13.808191 33.217738 -1.356869 1.999495 0.064919 0.010194 -24219.100000 0 0 1
7.758737 -29.980180 -13.803691 33.905030 -1.317557 1.990104 0.059261 0.005097 333556.000000 0 0 1
8.291237 -30.692280 -12.567291 34.186217 -1.306953 1.947237 0.048118 -0.000560 -427776.000000 0 0 1
8.616037 -29.843750 -11.469091 33.112317 -1.289734 1.924494 0.043387 -0.003695 -8261.120000 0 0 1
8.787137 -30.368970 -10.149591 33.203950 -1.289142 1.881443 0.045536 -0.000120 627151.000000 0 0 1
9.957637 -31.381840 -9.832891 34.360735 -1.263539 1.861020 0.039865 -0.002400 1212810.000000 0 0 1
11.247637 -30.766300 -9.690891 34.161204 -1.220307 1.858427 0.040812 -0.006050 734038.000000 0 0 1
12.252337 -31.774820 -9.677191 35.403488 -1.202766 1.847660 0.042019 -0.012888 30776.700000 0 0 1
13.486037 -31.505370 -8.809791 35.384656 -1.166341 1.822415 0.045402 -0.016329 -602149.000000 0 0 1
14.413537 -30.637870 -9.377391 35.133525 -1.131068 1.840979 0.045549 -0.031231 -48453.300000 0 0 1
15.341437 -30.178170 -8.397991 34.879906 -1.100481 1.813954 0.054457 -0.029831 733478.000000 0 0 1
16.623037 -29.542680 -9.064691 35.089370 -1.058271 1.832091 0.072398 -0.039615 492905.000000 0 0 1
16.443537 -28.237260 -9.598391 34.056744 -1.043467 1.856503 0.062892 -0.037396 357557.000000 0 0 1
15.526937 -28.037340 -10.694191 33.786741 -1.065044 1.892855 0.049815 -0.032297 107017.000000 0 0 1
15.305437 -26.490830 -10.730391 32.421624 -1.046888 1.908121 0.051260 -0.025880 -528342.000000 0 0 1
14.371237 -25.987130 -9.749391 31.255623 -1.065642 1.888014 0.041610 -0.026069 785180.000000 0 0 1
13.743937 -24.759590 -10.093691 30.063527 -1.064049 1.913193 0.044666 -0.019188 338346.000000 0 0 1
13.016137 -24.602490 -11.430491 30.089175 -1.084174 1.960471 0.033984 -0.015932 -513523.000000 0 0 1
13.995837 -24.473590 -12.449491 30.819310 -1.051314 1.986628 0.033367 -0.007375 -70852.600000 0 0 1
13.424437 -24.512090 -13.718991 31.133081 -1.069747 2.027126 0.049035 -0.015390 -616178.000000 0 0 1
14.132037 -23.749090 -14.809391 31.353656 -1.034020 2.062733 0.050899 -0.014361 593231.000000 0 0 1
15.301137 -24.434390 -15.333191 32.653804 -1.011325 2.059598 0.040189 -0.012816 992570.000000 0 0 1
15.882037 -23.670590 -16.401691 32.886948 -0.979827 2.092929 0.044982 -0.023229 -498346.000000 0 0 1
16.909237 -24.361590 -17.288091 34.326191 -0.964045 2.098605 0.043758 -0.019031 1140280.000000 0 0 1
18.276937 -24.404890 -16.816291 34.820004 -0.927997 2.074816 0.064728 -0.022181 1331560.000000 0 0 1
19.108737 -23.284790 -17.234591 34.703838 -0.883588 2.090496 0.068846 -0.025060 1113150.000000 0 0 1
20.599237 -23.533290 -16.766891 35.486235 -0.851783 2.062910 0.058973 -0.021648 1015530.000000 0 0 1
21.295037 -24.471990 -17.576091 36.895472 -0.854703 2.067324 0.079733 -0.021367 419959.000000 0 0 1
22.451037 -24.944690 -16.847491 37.551625 -0.837963 2.036049 0.086864 -0.012529 893226.000000 0 0 1
23.271037 -26.015480 -17.633291 39.106000 -0.841024 2.038581 0.092029 -0.017849 -58830.300000 0 0 1
23.921637 -25.478240 -18.760491 39.665368 -0.816898 2.063454 0.096380 -0.022201 -162358.000000 0 0 1
24.454537 -26.509640 -19.579291 41.038201 -0.825701 2.068147 0.087973 -0.027193 -359504.000000 0 0 1
25.701737 -26.116810 -20.369091 41.923345 -0.793408 2.078149 0.069368 -0.031275 -283569.000000 0 0 1
25.513637 -25.053190 -21.290691 41.616120 -0.776293 2.107839 0.071261 -0.033623 -144976.000000 0 0 1
25.931437 -23.800290 -20.738391 40.853079 -0.742572 2.103232 0.078396 -0.033016 -610048.000000 0 0 1
24.958837 -22.594890 -20.844991 39.597805 -0.735728 2.125178 0.082691 -0.033971 -61302.600000 0 0 1
24.671437 -21.991390 -22.123691 39.771330 -0.728027 2.160690 0.078147 -0.026765 118473.000000 0 0 1
23.995537 -22.824390 -23.045091 40.346186 -0.760390 2.178744 0.054647 -0.023966 -416774.000000 0 0 1
23.375037 -22.064790 -24.274891 40.280487 -0.756571 2.217610 0.040964 -0.021270 97790.100000 0 0 1
24.282637 -21.442690 -25.185201 41.033276 -0.723369 2.231630 0.043637 -0.013993 -511063.000000 0 0 1
23.642737 -20.594490 -26.038811 40.756983 -0.716600 2.263838 0.036245 -0.011262 -559771.000000 0 0 1
24.353337 -20.176890 -27.330211 41.798712 -0.691883 2.283462 0.045362 -0.011365 -335562.000000 0 0 1
23.505537 -19.337590 -28.075091 41.408494 -0.688419 2.315839 0.051226 -0.016351 219812.000000 0 0 1
24.048137 -18.934190 -29.315791 42.381977 -0.666977 2.334642 0.071512 -0.019652 -287649.000000 0 0 1
23.185937 -17.908390 -30.012361 41.940909 -0.657672 2.368260 0.101637 -0.023875 -476053.000000 0 0 1
21.824837 -18.179590 -30.205771 41.463352 -0.694528 2.386916 0.093247 -0.022891 -195704.000000 0 0 1
21.149837 -17.162490 -30.880521 41.176124 -0.681697 2.418801 0.100811 -0.024339 369277.000000 0 0 1
19.762137 -17.739590 -31.319731 41.062886 -0.731518 2.438314 0.079001 -0.019439 273503.000000 0 0 1
19.876237 -18.548390 -32.477131 42.354121 -0.750855 2.444637 0.084531 -0.018746 -190552.000000 0 0 1
18.639837 -18.978490 -32.929521 42.331784 -0.794400 2.462099 0.078933 -0.027600 -674178.000000 0 0 1
18.817737 -19.767290 33.916655 43.533808 -0.810003 0.677587 0.112848 -0.019208 -271210.000000 0 0 1
19.658337 -20.869190 34.011718 44.483370 -0.815267 0.700385 0.107695 -0.017708 42707.000000 0 0 1
19.627037 -21.675290 32.827120 43.962012 -0.834949 0.727686 0.105074 -0.018269 55407.000000 0 0 1
20.368537 -22.990990 33.163549 45.202698 -0.845806 0.747099 0.090375 -0.013376 -75196.000000 0 0 1
19.748737 -23.740790 -33.932491 45.880841 -0.876935 2.403240 0.096664 -0.015404 167635.000000 0 0 1
20.117437 -23.503790 -32.602321 44.944974 -0.862874 2.382387 0.100018 -0.009439 -175289.000000 0 0 1
19.220237 -24.453590 -31.763751 44.455949 -0.904658 2.366705 0.096312 -0.016092 -39083.000000 0 0 1
19.523637 -25.842300 -31.737691 45.346200 -0.923790 2.346050 0.091006 -0.025029 15021.200000 0 0 1
20.669037 -26.138240 -30.967191 45.490478 -0.901716 2.319569 0.083229 -0.026393 246177.000000 0 0 1
21.116137 -27.653620 -30.946751 46.565172 -0.918652 2.297741 0.066361 -0.025162 36724.000000 0 0 1
20.051637 -28.398310 -30.412501 46.189310 -0.955998 2.289529 0.064564 -0.025821 -64869.900000 0 0 1
20.224437 -29.775140 -30.562581 47.219256 -0.974140 2.274765 0.059272 -0.023708 -778847.000000 0 0 1
19.073537 -30.568480 -29.974421 46.868941 -1.012945 2.264692 0.094166 -0.028473 -37464.400000 0 0 1
17.850437 -30.751400 -30.678421 46.962242 -1.044857 2.282675 0.107130 -0.032969 287389.000000 0 0 1
17.888737 -31.367550 -31.940961 48.209491 -1.052506 2.295008 0.113636 -0.039801 -1165580.000000 0 0 1
16.539037 -31.935850 -32.380831 48.393764 -1.092945 2.303809 0.128736 -0.044699 -144956.000000 0 0 1
15.554837 -31.042920 -32.811731 47.772644 -1.106289 2.327916 0.128944 -0.037309 -988516.000000 0 0 1
14.316637 -31.631210 -32.950181 47.866626 -1.145773 2.330042 0.098898 -0.035827 -654449.000000 0 0 1
13.248937 -30.806050 -33.692301 47.536493 -1.164634 2.358545 0.098286 -0.028975 153441.000000 0 0 1
12.726037 -29.674450 -32.991331 46.162245 -1.165665 2.366966 0.110205 -0.032092 248137.000000 0 0 1
11.751137 -29.067020 -33.839311 46.131115 -1.186608 2.394322 0.094841 -0.022824 519877.000000 0 0 1
10.734737 -28.075550 -33.187271 44.775730 -1.205596 2.405636 0.098389 -0.028336 539968.000000 0 0 1
9.711737 -28.737380 -32.469741 44.434659 -1.244898 2.390187 0.098421 -0.022390 577826.000000 0 0 1
8.709237 -27.867060 -31.906191 43.248455 -1.267886 2.400515 0.072279 -0.023232 674676.000000 0 0 1
7.579437 -28.523940 -31.071631 42.854512 -1.311076 2.381902 0.058971 -0.022375 291051.000000 0 0 1
6.443837 -28.986240 -31.784021 43.496541 -1.352047 2.390180 0.053731 -0.022662 114067.000000 0 0 1
6.567137 -30.283140 -32.308031 44.766111 -1.357245 2.377062 0.059236 -0.023508 36391.400000 0 0 1
5.212137 -30.986590 -32.599961 45.277948 -1.404150 2.374594 0.071385 -0.030994 758621.000000 0 0 1
4.562037 -31.473380 -31.375521 44.674479 -1.426850 2.349440 0.074481 -0.040146 967220.000000 0 0 1
3.498137 -32.416370 -31.636591 45.430517 -1.463300 2.341128 0.085438 -0.059761 -564175.000000 0 0 1
2.742737 -32.905010 -30.401951 44.883637 -1.487635 2.314951 0.074806 -0.066102 -74892.900000 0 0 1
1.606437 -32.194610 -29.993981 44.030812 -1.520940 2.320203 0.062314 -0.057314 675334.000000 0 0 1
0.461437 -32.136710 -30.873661 44.566399 -1.556439 2.336101 0.052928 -0.023611 388737.000000 0 0 1
-0.456363 -30.903990 -30.567061 43.469645 1.556030 2.350659 0.039099 -0.007868 -132588.000000 0 0 1
-1.220063 -30.969370 -29.427101 42.738094 1.531421 2.330277 0.030320 -0.014182 -270923.000000 0 0 1
-1.780063 -29.752880 -29.013481 41.595487 1.511039 2.342720 0.055550 -0.008206 -217924.000000 0 0 1
-2.475763 -29.915500 -27.663461 40.820749 1.488226 2.315401 0.064689 -0.017694 58842.000000 0 0 1
-1.578963 -30.272000 -26.595661 40.326372 1.518684 2.290964 0.043999 -0.022908 94495.200000 0 0 1
-2.259463 -30.338030 -25.389951 39.625129 1.496457 2.266276 0.059961 -0.036698 283405.000000 0 0 1
-1.292663 -30.786640 -24.243991 39.207898 1.528833 2.237431 0.039914 -0.024758 130120.000000 0 0 1
-1.902463 -30.874700 -23.032091 38.566095 1.509255 2.210816 0.072223 -0.038341 -66024.600000 0 0 1
-0.936563 -31.198540 -22.000191 38.186836 1.540786 2.184770 0.068609 -0.026143 638427.000000 0 0 1
-1.435363 -31.070250 -20.531091 37.268571 1.524632 2.154233 0.030342 -0.011520 60240.500000 0 0 1
-1.624663 -29.706920 -20.137391 35.925689 1.516161 2.165821 0.020333 -0.002612 600061.000000 0 0 1
-0.403463 -29.043670 -19.745991 35.122666 1.556906 2.167841 0.052180 -0.010780 425986.000000 0 0 1
-0.588863 -27.570110 -19.215591 33.610960 1.549441 2.179380 0.052534 -0.017603 227299.000000 0 0 1
-1.272963 -27.554890 -17.940391 32.905167 1.524632 2.147442 0.050372 -0.017312 281404.000000 0 0 1
-1.291463 -26.212080 -17.432691 31.506185 1.521566 2.157129 0.046521 -0.015271 -22127.100000 0 0 1
-1.815563 -26.091970 -16.021391 30.672009 1.501325 2.120396 0.043681 -0.011577 -78521.300000 0 0 1
-1.977663 -24.775890 -15.605991 29.347961 1.491143 2.131470 0.047760 -0.012637 105289.000000 0 0 1
-2.845463 -24.851690 -14.489091 28.907385 1.456795 2.095810 0.037410 -0.003506 -86186.700000 0 0 1
-2.761263 -23.765990 -13.438091 27.441376 1.455129 2.082544 0.043355 -0.000820 -229428.000000 0 0 1
-1.607263 -23.780590 -12.626491 26.972727 1.503312 2.057959 0.048074 0.003102 -221085.000000 0 0 1
-1.570463 -22.661790 -11.761891 25.580562 1.501607 2.048564 0.045216 0.003275 1218550.000000 0 0 1
-0.182363 -22.587690 -10.988991 25.119612 1.562723 2.023576 0.037706 -0.000045 1091050.000000 0 0 1
0.242837 -21.291290 -10.621891 23.795011 -1.559391 2.033525 0.028731 0.003008 -639309.000000 0 1 0
1.369937 -21.491990 -9.814691 23.666654 -1.507141 1.998415 0.012066 0.002810 -303381.000000 0 1 0
2.052837 -20.179590 -9.474691 22.387491 -1.469417 2.007786 0.023830 0.001909 -1035860.000000 0 1 0
2.485537 -19.483890 -10.672391 22.353965 -1.443913 2.068521 0.023148 0.006054 306683.000000 0 1 0
3.300937 -18.337290 -10.386991 21.331712 -1.392692 2.079365 0.018719 0.005531 664709.000000 0 1 0
4.746437 -18.633590 -9.896991 21.626136 -1.321376 2.046136 0.041066 -0.010107 -204094.000000 0 1 0
4.724037 -18.973690 -8.522891 21.329723 -1.326780 1.981853 0.034261 -0.018087 -100990.000000 0 1 0
5.777437 -19.874290 -8.242191 22.277789 -1.287894 1.949777 0.048803 -0.012343 -95753.000000 0 1 0
5.334537 -20.799190 -7.090691 22.612861 -1.319730 1.889746 0.043189 -0.022750 336895.000000 0 1 0
4.342037 -21.750390 -7.470691 23.403930 -1.373756 1.895689 0.039143 -0.019329 450188.000000 0 1 0
4.496637 -22.857690 -6.610491 24.215538 -1.376554 1.847291 0.058729 -0.024056 30506.600000 0 1 0
3.560037 -24.009290 -7.038891 25.271839 -1.423591 1.853056 0.055319 -0.014461 203437.000000 0 0 1
3.885437 -24.660490 -8.284291 26.303343 -1.414524 1.891202 0.058752 -0.014971 283201.000000 0 0 1
2.707737 -25.277330 -8.764691 26.890426 -1.464082 1.902803 0.045323 -0.006183 432603.000000 0 0 1
3.058537 -26.200260 -9.961391 28.196410 -1.454585 1.931877 0.053139 -0.004436 -77393.600000 0 0 1
3.768237 -27.357250 -9.665191 29.258069 -1.433916 1.907463 0.053966 -0.008723 -164023.000000 0 0 1
4.378437 -27.894750 -10.830291 30.242073 -1.415104 1.937050 0.071044 -0.002682 217671.000000 0 0 1
4.639037 -29.408560 -10.766691 31.659211 -1.414341 1.917799 0.064818 -0.000660 -320280.000000 0 0 1
3.513837 -30.177420 -11.033791 32.322875 -1.454879 1.919162 0.072292 -0.000849 -227401.000000 0 0 1
3.861637 -31.553950 -11.210791 33.708245 -1.449020 1.909838 0.074598 -0.002156 367416.000000 0 0 1
2.626437 -32.320610 -11.750891 34.490628 -1.489713 1.918456 0.078456 -0.014416 300084.000000 0 0 1
2.274737 -32.184040 -13.167991 34.847996 -1.500235 1.958290 0.073094 -0.010275 535338.000000 0 0 1
1.187037 -33.035190 -13.484191 35.700927 -1.534879 1.958106 0.066143 -0.008005 227885.000000 0 0 1
0.481737 -32.895650 -14.861691 36.100217 -1.556153 1.995092 0.069345 -0.006398 -41446.700000 0 0 1
-0.281463 -31.758440 -15.090791 35.162618 1.561934 2.014372 0.062169 -0.009203 -249835.000000 0 0 1
-0.693363 -31.644060 -16.412791 35.653989 1.548889 2.049169 0.042371 -0.007607 -318216.000000 0 0 1
-1.765863 -30.584290 -16.708791 34.895569 1.513123 2.070110 0.046400 0.002588 -93477.700000 0 0 1
-2.977063 -30.921240 -16.074791 34.976919 1.474813 2.048322 0.047729 -0.002688 60060.200000 0 0 1
-4.113063 -30.738710 -16.932291 35.333950 1.437779 2.070548 0.046130 -0.000588 785709.000000 0 0 1
-5.458063 -30.857400 -16.173891 35.264207 1.395727 2.047271 0.044999 0.002152 -175010.000000 0 0 1
-5.744763 -29.940610 -15.136891 34.037742 1.381228 2.031646 0.039608 0.002673 -114660.000000 0 0 1
-7.142863 -29.785240 -14.980891 34.097039 1.335429 2.025683 0.051224 0.000658 176106.000000 0 0 1
-7.673563 -30.672840 -13.844891 34.516484 1.325653 1.983524 0.049127 -0.004077 -279232.000000 0 0 1
-7.915963 -32.028230 -14.229691 35.929849 1.328496 1.977998 0.058028 -0.006216 -210770.000000 0 0 1
-8.632263 -32.797290 -13.310391 36.432742 1.313433 1.944796 0.074424 -0.007264 87169.400000 0 0 1
-9.200863 -34.043720 -13.985491 37.937115 1.306836 1.948352 0.097459 -0.017855 61686.500000 0 0 1
-8.220263 33.185430 -14.199191 37.019759 -1.327977 1.964441 0.087281 -0.018701 266404.000000 0 0 1
-8.865663 31.988212 -14.578191 36.254232 -1.300429 1.984617 0.107235 -0.036316 23065.800000 0 0 1
-7.614563 -21.784090 -3.125891 23.287321 1.234525 1.705434 0.085361 -0.026269 214410.000000 0 1 0
-7.557163 -21.023290 -4.315791 22.753362 1.225713 1.761630 0.067720 -0.014676 -860577.000000 0 1 0
-6.297863 -21.111990 -4.882591 22.565879 1.280893 1.788892 0.061530 -0.010082 -511066.000000 0 1 0
-6.123263 -20.033190 -5.952591 21.777428 1.274159 1.847657 0.059870 -0.013522 49970.700000 0 1 0
-6.765563 -20.414390 -7.137591 22.659774 1.250776 1.891242 0.057421 -0.011493 -323435.000000 0 1 0
-6.776263 -19.322990 -7.974691 21.974789 1.233512 1.942176 0.043169 -0.011743 77067.100000 0 1 0
-7.803363 -19.462990 -9.143091 22.875676 1.189486 1.981971 0.051623 -0.016898 300206.000000 0 1 0
-7.491363 -20.384490 -10.170791 23.981095 1.218614 2.008783 0.062952 -0.004184 88255.600000 0 1 0
-8.342863 -20.073890 -11.292191 24.496489 1.176908 2.049886 0.075434 -0.018092 313802.000000 0 1 0
-8.013563 -20.941590 -12.510491 25.676444 1.205325 2.079718 0.064207 -0.008613 -451943.000000 0 0 1
-6.854163 -20.545790 -13.202891 25.365830 1.248802 2.118232 0.058136 -0.001019 -263613.000000 0 0 1
-6.477763 -21.470790 -14.176391 26.531609 1.277780 2.134500 0.047864 0.000459 -346141.000000 0 0 1
-5.291363 -21.074590 -15.023291 26.416588 1.324803 2.175729 0.050320 0.002229 -546410.000000 0 0 1
-4.041363 -20.915690 -14.386991 25.705723 1.379927 2.164796 0.048033 -0.004478 550827.000000 0 0 1
-3.000263 -20.238790 -15.099191 25.428247 1.423625 2.206565 0.050576 -0.002608 572365.000000 0 0 1
-3.244663 -18.709290 -15.260491 24.360787 1.399079 2.247770 0.053114 0.003119 -937679.000000 0 1 0
-4.317263 -18.296290 -16.045091 24.715135 1.339071 2.277330 0.063509 0.004712 -193671.000000 0 1 0
-4.003963 -18.429890 -17.421191 25.674704 1.356867 2.316563 0.085218 -0.006343 -839273.000000 0 0 1
-5.217163 -18.051490 -18.243491 26.189693 1.289447 2.341431 0.078261 0.002219 381425.000000 0 0 1
-6.229563 -19.065590 -18.017991 26.962050 1.254988 2.302680 0.058623 0.005599 -59496.700000 0 0 1
-7.505663 -18.765690 -18.505191 27.403069 1.190318 2.312163 0.069410 -0.002587 -250711.000000 0 0 1
-8.544563 -19.687590 -17.860491 27.921459 1.161321 2.264864 0.097905 -0.017973 -161381.000000 0 0 1
-8.450863 -21.009190 -18.366591 29.157071 1.188355 2.252245 0.083272 -0.011836 324929.000000 0 0 1
-9.462663 -21.795190 -17.764591 29.667372 1.161190 2.212789 0.095128 -0.019589 243402.000000 0 0 1
-9.118163 -23.276690 -18.040391 30.828572 1.197440 2.195903 0.093415 -0.026132 -645910.000000 0 0 1
-9.243263 -23.577690 -19.438791 31.925099 1.197176 2.225454 0.074280 -0.027295 733381.000000 0 0 1
-8.361363 -24.629890 -19.912991 32.757763 1.243524 2.224192 0.086489 -0.038880 278529.000000 0 0 1
-6.838963 -24.529090 -19.706791 32.199461 1.298891 2.229412 0.099664 -0.033359 -596484.000000 0 0 1
-6.152463 -23.628190 -20.625691 31.961903 1.316066 2.272240 0.087120 -0.030976 365782.000000 0 0 1
-5.991763 -22.299590 -20.122191 30.628018 1.308302 2.287611 0.077966 -0.023589 -403109.000000 0 0 1
-4.907463 -22.101390 -19.042191 29.583097 1.352298 2.270100 0.086970 -0.009946 -1205800.000000 0 0 1
-3.637763 -22.212290 -19.555591 29.816778 1.408465 2.286116 0.071375 -0.017189 -1072180.000000 0 0 1
-2.676263 -22.057190 -18.520691 28.925732 1.450054 2.265665 0.041401 -0.009768 -488109.000000 0 0 1
-1.390463 -22.810090 -18.750691 29.560480 1.509913 2.257920 0.047893 -0.010669 -383794.000000 0 0 1
-0.460763 -22.162090 -19.625691 29.606389 1.550009 2.295464 0.055420 -0.012712 -270731.000000 0 0 1
0.702737 -22.944090 -19.753491 30.284080 -1.540178 2.281376 0.051975 -0.018576 -249118.000000 0 0 1
1.595337 -22.304190 -20.833491 30.562335 -1.499392 2.320842 0.069793 -0.024664 -253291.000000 0 0 1
1.167037 -22.411790 -22.142591 31.526887 -1.518771 2.349476 0.062088 -0.027741 -484609.000000 0 0 1
0.641237 -21.245390 -22.643791 31.056707 -1.540623 2.387819 0.075407 -0.021022 -535838.000000 0 0 1
0.080737 -21.462390 -24.069091 32.248439 -1.567035 2.413379 0.083363 -0.024328 -88530.400000 0 0 1
-0.399363 -20.353490 -24.756991 32.052030 1.551177 2.453408 0.101772 -0.026034 460860.000000 0 0 1
-1.752463 -20.046290 -24.376291 31.608992 1.483597 2.451492 0.085110 -0.021401 644196.000000 0 0 1
-2.397263 -18.865090 -25.185981 31.559026 1.444400 2.494864 0.077053 -0.017676 266178.000000 0 0 1
-1.763463 -17.619990 -24.844091 30.509059 1.471045 2.522350 0.098112 -0.013648 352796.000000 0 0 1
-2.209363 -16.489490 -25.592521 30.524771 1.437603 2.565171 0.078178 -0.007326 22124.800000 0 0 1
-1.494663 -15.168690 -25.107771 29.372152 1.472577 2.595992 0.091268 -0.011092 97574.400000 0 0 1
-0.129363 -15.083190 -25.438821 29.574532 1.562220 2.606379 0.084362 -0.014439 -331820.000000 0 0 1
0.535737 -13.889690 -25.053991 28.651578 -1.532245 2.635070 0.069710 -0.014703 307902.000000 0 0 1
0.274437 -12.648890 -25.904491 28.829019 -1.549103 2.687265 0.062232 -0.010469 -769247.000000 0 0 1
0.941937 -11.562490 -25.465191 27.983108 -1.489511 2.714129 0.057433 -0.011594 -572270.000000 0 0 1
0.587137 -10.398190 -26.115241 28.115349 -1.514391 2.762121 0.051948 -0.012471 -230753.000000 0 0 1
1.533937 -9.189590 -25.693791 27.330796 -1.405400 2.793732 0.052724 -0.018940 724002.000000 0 0 1
2.915337 -9.179690 -25.958581 27.687792 -1.263285 2.786304 0.062479 -0.013398 -259322.000000 0 0 1
3.235937 -9.339590 -27.309301 29.043022 -1.237265 2.794322 0.061160 -0.011909 -698381.000000 0 0 1
4.683937 -9.018890 -27.736221 29.539424 -1.091791 2.790380 0.053515 -0.005631 -239594.000000 0 0 1
4.938837 -7.593490 -28.006891 29.435338 -0.994137 2.828780 0.059640 -0.003738 781571.000000 0 0 1
6.211037 -7.181290 -28.550831 30.088168 -0.857720 2.820546 0.081996 -0.005874 1088630.000000 0 0 1
7.466237 -7.202690 -27.592961 29.478720 -0.767434 2.781970 0.097217 -0.009101 694391.000000 0 0 1
7.959537 -8.468090 -27.098161 29.485133 -0.816345 2.736447 0.068935 -0.006307 587035.000000 0 0 1
8.523937 -9.347290 -28.096501 30.813028 -0.831437 2.718536 0.066342 -0.012048 -392508.000000 0 0 1
8.815937 -10.735690 -27.535581 30.841271 -0.883273 2.674355 0.068710 -0.007226 -10046.700000 0 0 1
7.707837 -11.621290 -27.439441 30.779669 -0.985162 2.671396 0.071835 -0.009760 73784.500000 0 0 1
7.968037 -12.844790 -26.641301 30.630657 -1.015561 2.625511 0.076239 -0.005516 -11353.600000 0 0 1
8.992737 -13.869290 -27.173221 31.805824 -0.995552 2.595090 0.077278 -0.018592 -4615.880000 0 0 1
8.562137 -14.461990 -28.375711 32.979392 -1.036247 2.606865 0.096218 -0.029993 470942.000000 0 0 1
9.446237 -15.524190 -28.806931 34.059817 -1.024161 2.578812 0.084768 -0.032745 493699.000000 0 0 1
8.711637 -16.297690 -29.883741 35.136096 -1.079906 2.587758 0.088106 -0.037046 -6448.440000 0 0 1
8.219837 -15.461690 -30.936981 35.548929 -1.082169 2.626536 0.083217 -0.031829 -34716.500000 0 0 1
7.600637 -16.197290 -31.917321 36.590125 -1.132047 2.630669 0.088875 -0.030599 -479589.000000 0 0 1
6.569437 -15.462790 -32.801031 36.853263 -1.169049 2.668238 0.085588 -0.020326 -34040.600000 0 0 1
7.074937 -14.446390 -33.660621 37.306706 -1.115392 2.695796 0.095131 -0.013962 409788.000000 0 0 1
6.009937 -13.607790 34.005800 37.117189 -1.154904 0.412369 0.066598 -0.016145 439221.000000 0 0 1
6.495137 -12.372290 33.197903 36.018899 -1.087369 0.398407 0.098901 -0.009804 115885.000000 0 0 1
7.084737 -12.671890 31.936481 35.081463 -1.061000 0.426662 0.088076 -0.014069 99885.300000 0 0 1
7.556537 -11.549890 31.301701 34.209614 -0.991438 0.415295 0.083605 -0.016556 -239664.000000 0 0 1
7.852537 -11.794290 29.827941 33.022320 -0.983400 0.443475 0.078203 -0.008975 227582.000000 0 0 1
6.733237 -12.154190 29.011731 32.167395 -1.064899 0.446651 0.090108 -0.008892 418169.000000 0 0 1
7.115037 -12.188090 27.637291 31.032130 -1.042396 0.472128 0.080747 -0.013344 -209948.000000 0 0 1
6.192337 -12.890890 26.659401 30.252995 -1.122979 0.492369 0.079283 -0.022815 -469549.000000 0 0 1
6.300437 -14.292290 26.860781 31.071958 -1.155596 0.526701 0.076280 -0.015682 558459.000000 0 0 1
5.455837 -15.139390 26.045381 30.615831 -1.224910 0.553450 0.044331 -0.014527 690101.000000 0 0 1
3.921237 -15.263590 26.247071 30.614735 -1.319333 0.540727 0.042416 -0.022655 342798.000000 0 0 1
3.224537 -14.069990 25.901981 29.652569 -1.345508 0.508418 0.040113 -0.026338 -56339.500000 0 0 1
2.048437 -14.372490 25.192931 29.076594 -1.429225 0.522782 0.037275 -0.018855 258631.000000 0 0 1
1.009837 -13.276090 24.859601 28.200604 -1.494878 0.491709 0.029440 -0.017658 -73857.200000 0 0 1
1.483137 -12.344990 23.881571 26.924485 -1.451229 0.480025 0.015757 -0.013175 480113.000000 0 0 1
0.456837 -11.453090 23.412781 26.067993 -1.530930 0.455269 0.017814 0.001213 862596.000000 0 0 1
-0.781063 -12.024490 22.661991 25.666403 1.505931 0.488700 0.016047 0.005356 29010.800000 0 0 1
-0.479263 -12.721290 21.486891 24.974935 1.533140 0.534864 0.017131 0.000485 -326629.000000 0 1 0
-1.695563 -13.041190 20.854491 24.654763 1.441506 0.562620 0.031383 -0.013709 53916.900000 0 1 0
-1.571663 -13.734190 19.502291 23.904758 1.456858 0.616628 0.069088 -0.013293 -124223.000000 0 1 0
-1.009263 -15.024890 19.497891 24.636024 1.503724 0.657638 0.088341 -0.019320 -368649.000000 0 1 0
-1.122863 -15.605990 18.201791 24.002352 1.498969 0.710043 0.097658 -0.018321 377363.000000 0 1 0
-2.215163 -16.734690 18.116691 24.762295 1.439192 0.750095 0.094045 -0.031444 428208.000000 0 1 0
-2.022563 -17.762490 17.191291 24.801961 1.457418 0.804957 0.073370 -0.037363 -695268.000000 0 1 0
-2.948363 -18.812190 17.349491 25.760360 1.415335 0.831869 0.083884 -0.031115 -116832.000000 0 0 1
-2.569963 -20.101990 16.666091 26.238393 1.443640 0.882555 0.071016 -0.026687 232702.000000 0 0 1
-1.435363 -20.678890 17.291091 26.993676 1.501495 0.875568 0.081939 -0.030758 -296492.000000 0 0 1
-1.704863 -22.050690 17.634091 28.286050 1.493634 0.897687 0.084221 -0.029821 -567247.000000 0 0 1
-0.601263 -22.792790 18.343191 29.263380 1.544423 0.893317 0.081997 -0.017575 -75691.200000 0 0 1
0.604637 -22.782790 17.598191 28.794399 -1.544263 0.913262 0.096332 -0.029662 -446897.000000 0 0 1
1.592937 -23.607590 18.200391 29.851465 -1.503423 0.915116 0.089350 -0.035025 -62652.700000 0 0 1
2.907437 -23.531490 17.410691 29.416260 -1.447864 0.937416 0.084507 -0.031333 -546735.000000 0 0 1
3.598937 -22.360490 17.673091 28.727721 -1.411214 0.908166 0.066582 -0.019735 -380637.000000 0 0 1
4.491437 -22.117590 16.568491 27.997779 -1.370450 0.937533 0.041612 -0.015020 48011.600000 0 0 1
5.244837 -20.840990 16.821391 27.291287 -1.324256 0.906678 0.025425 -0.010853 -892594.000000 0 0 1
6.172037 -20.960990 17.899991 28.246536 -1.284436 0.884462 0.027608 -0.004093 219238.000000 0 0 1
6.809437 -19.747490 18.337191 27.795401 -1.238739 0.850350 0.036496 0.000192 982218.000000 0 0 1
7.682037 -19.007790 17.210891 26.767975 -1.186716 0.872432 0.026266 -0.002611 -586754.000000 0 0 1
6.885637 -18.312590 16.301691 25.465821 -1.211144 0.876116 0.013362 -0.005717 -134826.000000 0 0 1
7.693937 -17.430390 15.551991 24.594299 -1.155109 0.886225 0.028342 -0.008064 60070.400000 0 1 0
6.885837 -16.578090 14.559991 23.113657 -1.177121 0.889333 0.008434 -0.009866 -24406.300000 0 1 0
6.303337 -17.284590 13.486591 22.811778 -1.221104 0.938236 0.022330 -0.011987 -8226.740000 0 1 0
5.622337 -16.428690 12.577891 21.440985 -1.241063 0.943907 0.016734 -0.013724 59057.600000 0 1 0
6.249237 -16.509790 11.155491 20.882315 -1.208946 1.007226 0.025612 -0.012800 570339.000000 0 1 0
7.637937 -16.163890 11.159191 21.074557 -1.129365 1.012773 0.042907 -0.008223 391841.000000 0 1 0
8.161837 -16.447290 9.851591 20.837052 -1.110160 1.078340 0.049519 -0.010431 -104499.000000 0 1 0
9.588337 -15.896490 9.755091 20.971323 -1.028047 1.086977 0.055996 -0.007849 -47370.100000 0 1 0
10.366137 -16.585190 8.804591 21.448686 -1.012180 1.147799 0.069195 -0.005581 363854.000000 0 1 0
11.701237 -16.065290 8.685991 21.690065 -0.941292 1.158778 0.072380 -0.007155 1264970.000000 0 1 0
12.626837 -17.036090 7.843391 22.609381 -0.932963 1.216523 0.078498 -0.013904 422248.000000 0 1 0
13.143937 -18.162090 8.548091 23.993633 -0.944340 1.206529 0.104518 -0.019438 273147.000000 0 1 0
13.930537 -18.981190 7.679691 24.765360 -0.937671 1.255500 0.100043 -0.020873 146116.000000 0 1 0
14.408037 -20.291590 8.316391 26.239331 -0.953357 1.248291 0.086372 -0.021164 137808.000000 0 0 1
13.435637 -21.289590 8.669091 26.625478 -1.007830 1.239157 0.089028 -0.021160 -53597.500000 0 0 1
13.984437 -22.439190 9.266391 28.016918 -1.013482 1.233706 0.075891 -0.016721 -156145.000000 0 0 1
12.936837 -23.272790 10.010491 28.446343 -1.063451 1.211188 0.079173 -0.015087 -29901.000000 0 0 1
12.582237 -22.633790 11.187891 28.209396 -1.063431 1.162984 0.081846 -0.019028 242122.000000 0 0 1
11.550937 -23.277390 11.991291 28.619086 -1.110169 1.138457 0.081169 -0.016790 195591.000000 0 0 1
11.922937 -24.691990 12.596591 30.174905 -1.120949 1.140156 0.051303 -0.010995 -124788.000000 0 0 1
13.009637 -24.669090 13.495291 30.982858 -1.085496 1.120122 0.033162 -0.012022 -183019.000000 0 0 1
13.250537 -26.007530 13.915291 32.335795 -1.099587 1.125930 0.023144 -0.019691 62402.000000 0 0 1
14.488037 -26.218430 14.806491 33.414689 -1.065967 1.111728 0.034767 -0.013505 -26564.900000 0 0 1
14.330837 -25.516930 15.993291 33.350741 -1.059075 1.070656 0.040032 -0.018315 64794.500000 0 0 1
15.161837 -25.993560 17.032191 34.578056 -1.042753 1.055753 0.049695 -0.016432 -166293.000000 0 0 1
14.821437 -25.389770 18.450191 34.709147 -1.042406 1.010348 0.051812 -0.019331 -160662.000000 0 0 1
15.138737 -24.075690 18.736291 34.056846 -1.009471 0.988255 0.032453 -0.017467 -212375.000000 0 0 1
16.478137 -23.995890 19.175491 34.857297 -0.969048 0.988295 0.050269 -0.017789 -56469.900000 0 0 1
16.859037 -22.533190 19.474091 34.222974 -0.928457 0.965464 0.047152 -0.023539 -195773.000000 0 0 1
16.952337 -21.737990 18.301591 33.088822 -0.908464 0.984710 0.039364 -0.020713 155991.000000 0 0 1
15.793337 -20.976190 17.986691 31.826892 -0.925431 0.970192 0.051410 -0.012709 -434050.000000 0 0 1
15.994337 -19.987990 16.793891 30.616553 -0.895935 0.990199 0.051136 -0.011961 521093.000000 0 0 1
16.882537 -18.853690 17.036291 30.507652 -0.840501 0.978308 0.060507 -0.013434 1146640.000000 0 0 1
18.262837 -19.230490 16.886291 31.440257 -0.811201 1.003811 0.064081 -0.022003 349232.000000 0 0 1
19.217237 -18.022790 17.034391 31.373454 -0.753335 0.996844 0.081099 -0.019309 -125731.000000 0 0 1
19.360537 -17.683590 18.389991 32.027043 -0.740160 0.959167 0.067631 -0.019458 229961.000000 0 0 1
19.989937 -16.403690 18.475991 31.781140 -0.687175 0.950408 0.068413 -0.016867 -311129.000000 0 0 1
20.473737 -16.081190 19.902391 32.770165 -0.665809 0.918098 0.059656 -0.008039 375537.000000 0 0 1
21.595937 -16.875390 20.318691 34.117627 -0.663305 0.932848 0.059709 -0.011870 430414.000000 0 0 1
21.934237 -16.700090 21.707191 35.088543 -0.650739 0.903785 0.050184 0.003459 26468.800000 0 0 1
34.336391 -0.819490 -7.576691 35.171943 -0.023862 1.787917 0.138781 -0.036444 -35207.000000 0 0 1
35.563591 -0.716390 -8.258491 36.516913 -0.020141 1.798925 0.137127 -0.040415 -63554.100000 0 0 1
36.464641 -1.757690 -7.969891 37.366813 -0.048165 1.785735 0.154749 -0.049467 717311.000000 0 0 1
-35.633754 -1.586390 -8.674791 36.708760 0.044490 1.809367 0.122826 -0.043540 144847.000000 0 0 1
-34.680680 -2.536890 -8.435991 35.781997 0.073020 1.808798 0.136380 -0.036885 -933559.000000 0 0 1
-33.457723 -2.282190 -9.046891 34.734333 0.068106 1.834295 0.169038 -0.042165 -409474.000000 0 0 1
-32.397973 -3.380390 -8.811791 33.744679 0.103963 1.834990 0.168522 -0.036454 -318009.000000 0 0 1
-31.944743 -3.332990 -7.500491 32.982311 0.103960 1.800213 0.173213 -0.037985 740237.000000 0 0 1
-30.985253 -4.367690 -7.153191 32.098766 0.140038 1.795533 0.172313 -0.047547 645321.000000 0 0 1
-30.504753 -4.307490 -5.680691 31.326741 0.140280 1.753142 0.169060 -0.059913 -111769.000000 0 0 1
-29.785663 -3.173590 -5.262791 30.413063 0.106147 1.744716 0.172131 -0.055412 406243.000000 0 0 1
-29.601903 -3.186890 -3.837591 30.019261 0.107245 1.698985 0.170474 -0.056336 -174070.000000 0 0 1
-29.337443 -1.787190 -3.240491 29.569924 0.060843 1.680604 0.196520 -0.060475 232837.000000 0 0 1
-28.014723 -1.297290 -3.466591 28.258184 0.046274 1.693782 0.169198 -0.055179 675180.000000 0 0 1
-28.003533 0.069910 -3.113391 28.176160 -0.002496 1.681520 0.168039 -0.061214 -1050840.000000 0 0 1
-26.646593 0.521210 -2.672591 26.785357 -0.019558 1.670741 0.164434 -0.042328 -878909.000000 0 0 1
-26.090363 -0.152790 -1.539391 26.136184 0.005856 1.629729 0.138976 -0.043106 193419.000000 0 0 1
-24.709163 -0.047490 -1.331891 24.745079 0.001922 1.624647 0.104882 -0.033862 -106656.000000 0 1 0
-24.018463 -0.670090 -0.103991 24.028034 0.027892 1.575124 0.078233 -0.030254 18122.800000 0 1 0
-23.946663 -2.048990 -0.143791 24.034594 0.085357 1.576779 0.089672 -0.033462 -51567.600000 0 1 0
-23.362563 -2.461990 1.013009 23.513761 0.104994 1.527701 0.087698 -0.028216 -661067.000000 0 1 0
-23.361363 -4.048790 1.159109 23.737934 0.171607 1.521947 0.082497 -0.015593 189397.000000 0 1 0
-24.564163 -4.662490 1.624909 25.055484 0.187577 1.505898 0.088394 -0.027996 492261.000000 0 0 1
-24.688763 -6.035790 1.273709 25.447753 0.239772 1.520723 0.071282 -0.012346 501392.000000 0 0 1
-26.027563 -6.733290 1.756409 26.941719 0.253149 1.505557 0.090586 -0.011363 885570.000000 0 0 1
-26.105833 -6.942190 3.158609 27.197157 0.259910 1.454396 0.083047 -0.009133 -736028.000000 0 0 1
-27.322813 -7.487990 3.510009 28.546914 0.267489 1.447529 0.111314 -0.002303 -672910.000000 0 0 1
-27.660613 -7.757190 5.017609 29.162646 0.273418 1.397880 0.106096 -0.013873 -494135.000000 0 0 1
-26.853173 -8.682290 5.643109 28.780545 0.312716 1.373444 0.108358 0.005465 -472787.000000 0 0 1
-26.889443 -8.773490 7.052509 29.150543 0.315389 1.326438 0.090619 -0.006114 60649.700000 0 0 1
-26.074833 -7.692790 7.805509 28.284305 0.286889 1.291202 0.083396 -0.006488 322077.000000 0 0 1
-24.686563 -7.597590 7.498909 26.895788 0.298563 1.288238 0.100488 -0.021413 449691.000000 0 0 1
-24.207263 -6.431890 8.159909 26.342834 0.259700 1.255858 0.106762 -0.025671 -352407.000000 0 0 1
-22.787963 -6.008290 7.810509 24.827301 0.257794 1.250768 0.100975 -0.030917 177465.000000 0 1 0
-21.693663 -6.834890 8.231009 24.188432 0.305219 1.223574 0.097772 -0.038723 202829.000000 0 1 0
-20.496763 -6.317990 7.750409 22.805770 0.299002 1.224045 0.095151 -0.033015 -456108.000000 0 1 0
-19.212463 -6.763990 8.469809 22.059193 0.338511 1.176717 0.096855 -0.031335 -63562.200000 0 1 0
-18.871763 -5.971190 9.586809 21.993305 0.306442 1.119762 0.072213 -0.025105 666712.000000 0 1 0
-17.854563 -6.490190 10.458809 21.686279 0.348653 1.067543 0.063114 -0.027675 193656.000000 0 1 0
-17.403963 -5.443690 11.526509 21.572949 0.303144 1.007112 0.030388 -0.009077 -41133.000000 0 1 0
-18.310163 -5.309990 12.608209 22.856619 0.282260 0.986489 0.047666 -0.018198 177001.000000 0 1 0
-18.945763 -4.055190 12.691809 23.161790 0.210860 0.990869 0.072707 -0.015005 80447.400000 0 1 0
-20.142763 -4.057390 13.669309 24.678804 0.198772 0.983769 0.080257 -0.028318 -131100.000000 0 1 0
-19.812363 -4.346190 14.991809 25.222479 0.215947 0.934298 0.080832 -0.020419 282355.000000 0 0 1
-21.001363 -4.364590 15.759309 26.616963 0.204907 0.937162 0.081249 -0.004741 245104.000000 0 0 1
-20.678263 -4.627590 17.260609 27.330090 0.220162 0.887232 0.080429 -0.000751 63712.600000 0 0 1
-21.811963 -4.746590 18.101609 28.739522 0.214273 0.889435 0.071003 -0.002628 413547.000000 0 0 1
-21.445663 -5.242790 19.334009 29.346333 0.239766 0.851545 0.070406 0.007032 -605685.000000 0 0 1
-22.464763 -4.878690 20.408209 30.740238 0.213850 0.844785 0.073957 0.005293 -262336.000000 0 0 1
-22.234363 -3.521190 20.817009 30.661272 0.157063 0.824485 0.072647 -0.005383 304873.000000 0 0 1
-22.839063 -3.182690 22.062809 31.914258 0.138461 0.807489 0.067933 -0.003864 -4286.680000 0 0 1
-22.839463 -1.681190 22.330909 31.986513 0.073476 0.798007 0.064756 -0.005235 413475.000000 0 0 1
-23.962163 -0.947190 21.817509 32.420459 0.039508 0.832600 0.079677 -0.018607 336399.000000 0 0 1
-24.031263 0.429510 22.060909 32.624681 -0.017871 0.828200 0.072599 -0.016516 1412440.000000 0 0 1
-25.452173 0.983910 21.562109 33.372231 -0.038638 0.868321 0.084284 -0.025618 2043800.000000 0 0 1
-26.571563 0.708810 22.399109 34.760185 -0.026669 0.870571 0.090036 -0.024025 252178.000000 0 0 1
-27.811073 1.178110 21.892209 35.413452 -0.042336 0.904360 0.101560 -0.024705 271894.000000 0 0 1
-28.811253 1.152110 23.076409 36.931509 -0.039967 0.895865 0.091662 -0.022290 -435958.000000 0 0 1
-28.524993 2.036710 24.138909 37.423394 -0.071280 0.869744 0.073983 -0.020512 261369.000000 0 0 1
-29.424103 1.915010 25.246309 38.817796 -0.064991 0.862712 0.071881 -0.016944 -99919.100000 0 0 1
-29.152843 2.995810 26.336009 39.401124 -0.102403 0.838731 0.094867 -0.027444 -91651.500000 0 0 1
-28.117373 2.528310 27.169709 39.181273 -0.089679 0.804549 0.072013 -0.031405 137539.000000 0 0 1
-27.673093 3.523910 28.108709 39.601990 -0.126659 0.781610 0.061443 -0.026763 153220.000000 0 0 1
-26.452643 3.089810 28.976709 39.356562 -0.116278 0.743268 0.078478 -0.025248 266157.000000 0 0 1
-26.700733 2.170710 29.975509 40.201646 -0.081119 0.729318 0.078585 -0.027166 -766634.000000 0 0 1
-25.493623 1.873810 30.560009 39.841563 -0.073369 0.696584 0.056905 -0.026506 -750133.000000 0 0 1
-25.545953 0.784810 31.631709 40.666653 -0.030712 0.679592 0.050402 -0.023450 -80854.100000 0 0 1
-25.740033 -0.506690 31.026909 40.317182 0.019682 0.692628 0.045361 -0.032551 -181111.000000 0 0 1
-25.990513 -1.531990 31.939709 41.206781 0.058876 0.683910 0.059065 -0.033779 -379020.000000 0 0 1
-26.688683 -2.791290 31.336309 41.255804 0.104208 0.708158 0.053354 -0.029558 84307.500000 0 0 1
-27.979423 -2.600790 30.800909 41.693024 0.092687 0.739576 0.064635 -0.025307 53124.900000 0 0 1
-28.085333 -1.780990 29.607009 40.847679 0.063329 0.760031 0.068754 -0.020523 -61104.800000 0 0 1
-29.547543 -1.627190 29.047309 41.466266 0.055015 0.794692 0.092103 -0.028371 1207870.000000 0 0 1
-30.481153 -1.306090 30.052709 42.824898 0.042823 0.792934 0.099646 -0.016109 100223.000000 0 0 1
-31.791493 -0.907390 29.644409 43.477735 0.028534 0.820535 0.077528 -0.019574 1239280.000000 0 0 1
-32.699463 -0.555790 30.886509 44.983778 0.016995 0.813974 0.083258 -0.013688 279332.000000 0 0 1
-33.301123 -1.615190 31.571909 45.916872 0.048465 0.812634 0.091433 -0.018817 -1011.320000 0 0 1
-33.663543 -1.375890 32.945909 47.122820 0.040849 0.796589 0.121208 -0.023036 103574.000000 0 0 1
-33.965893 -2.673290 33.692909 47.917017 0.078543 0.790977 0.117476 -0.020518 309087.000000 0 0 1
-35.115195 -3.334190 33.169109 48.418835 0.094666 0.816130 0.106693 -0.030328 316728.000000 0 0 1
-35.344196 -4.525790 33.841109 49.141792 0.127356 0.811182 0.087023 -0.021753 45292.800000 0 0 1
-36.679003 -5.229990 33.451009 49.916652 0.141633 0.836403 0.083827 -0.022906 -54049.900000 0 0 1
35.766861 -4.604790 -33.964872 49.538722 -0.128040 2.326255 0.089564 -0.029532 -316903.000000 0 0 1
34.533251 -5.099490 33.646409 48.483308 -0.146609 0.803795 0.084326 -0.036277 206201.000000 0 0 1
33.324021 -4.716890 -33.554772 47.525385 -0.140612 2.354685 0.104069 -0.039508 -98600.800000 0 0 1
33.140781 -5.577690 -32.410572 46.689048 -0.166740 2.338075 0.090958 -0.033098 333850.000000 0 0 1
32.648311 -6.908490 -32.715172 46.732451 -0.208527 2.346267 0.085042 -0.030986 396005.000000 0 0 1
31.226391 -7.082590 -33.370372 46.247512 -0.223041 2.376850 0.073077 -0.032975 515856.000000 0 0 1
30.181301 -6.924990 -32.431872 44.840749 -0.225542 2.379319 0.070479 -0.031163 1137450.000000 0 0 1
28.908711 -7.401290 -32.971272 44.470186 -0.250639 2.405987 0.081233 -0.033465 2032040.000000 0 0 1
27.653281 -6.986090 -32.087872 42.931818 -0.247454 2.414958 0.078324 -0.032008 423798.000000 0 0 1
26.441381 -7.551290 -32.506172 42.577222 -0.278181 2.439456 0.070434 -0.029693 102577.000000 0 0 1
25.419281 -7.035990 -31.614472 41.171833 -0.270036 2.446300 0.078610 -0.029559 666495.000000 0 0 1
23.992481 -7.563490 -31.957172 40.670707 -0.305383 2.474711 0.081402 -0.039839 238803.000000 0 0 1
23.785981 -8.960990 -32.014672 40.878007 -0.360290 2.470554 0.100137 -0.040808 157483.000000 0 0 1
23.660381 -9.592390 -30.713772 39.939497 -0.385170 2.448083 0.100220 -0.033288 -339760.000000 0 0 1
23.414581 -11.127590 -30.832272 40.282687 -0.443646 2.442455 0.105707 -0.030568 -6437.160000 0 0 1
22.115481 -11.409390 -31.316472 39.999876 -0.476287 2.470133 0.111304 -0.033980 266109.000000 0 0 1
22.009081 -12.837590 -31.517072 40.528129 -0.528039 2.461730 0.103267 -0.031320 -546594.000000 0 0 1
20.840281 -13.229190 -32.463472 40.782420 -0.565608 2.491481 0.085590 -0.026815 1094670.000000 0 0 1
19.496681 -13.060690 -31.978372 39.665079 -0.590233 2.508514 0.062438 -0.021117 865785.000000 0 0 1
19.086581 -11.707790 -32.069072 39.112598 -0.550217 2.532062 0.053401 -0.022824 -672209.000000 0 0 1
17.651081 -11.352290 -31.632772 37.961394 -0.571545 2.555825 0.049144 -0.017391 5762.750000 0 0 1
16.626481 -11.889890 -32.419772 38.325592 -0.620800 2.579054 0.036935 -0.005634 308799.000000 0 0 1
15.336881 -11.452090 -31.976472 37.267480 -0.641387 2.602210 0.065461 -0.007493 1072550.000000 0 0 1
14.171081 -11.734390 -32.984872 37.769263 -0.691613 2.632785 0.057845 -0.007673 -420088.000000 0 0 1
13.790781 -13.068190 -33.060072 38.130455 -0.758501 2.619997 0.067162 -0.011887 -412539.000000 0 0 1
12.621481 -13.201190 -33.811272 38.428834 -0.807844 2.646324 0.052152 -0.010941 -82672.100000 0 0 1
11.429881 -13.485290 -32.846472 37.301286 -0.867708 2.647864 0.045211 -0.009430 -424014.000000 0 0 1
11.225981 -12.417390 -31.891972 36.018219 -0.835746 2.658236 0.088579 -0.000569 -8550.430000 0 0 1
10.020681 -12.641090 -31.180672 35.106203 -0.900518 2.664168 0.086373 -0.015927 807551.000000 0 0 1
8.797681 -11.822690 -31.683872 34.943425 -0.931059 2.706235 0.079722 -0.003746 342018.000000 0 0 1
9.158381 -10.413290 -31.551972 34.465047 -0.849429 2.727489 0.081804 0.007511 329224.000000 0 0 1
8.018081 -9.661090 -31.878872 34.262060 -0.878067 2.766415 0.081655 0.006316 -27588.900000 0 0 1
8.336381 -8.176390 -32.284372 34.331171 -0.775709 2.794544 0.095591 0.002563 -29380.300000 0 0 1
8.760881 -7.326390 -31.242872 33.264787 -0.696464 2.791140 0.085343 -0.002337 233549.000000 0 0 1
9.062781 -6.054590 -31.707572 33.528528 -0.588975 2.810505 0.087186 0.005091 2374.490000 0 0 1
9.450681 -5.125790 -30.541372 32.378457 -0.496968 2.803118 0.085841 -0.001424 -559835.000000 0 0 1
8.340381 -4.752190 -29.810772 31.318164 -0.517903 2.830072 0.106170 -0.005965 -686619.000000 0 0 1
8.623581 -3.698690 -28.909472 30.394145 -0.405173 2.827745 0.104686 -0.007004 61999.400000 0 0 1
7.409181 -2.982390 -28.287772 29.393684 -0.382682 2.866411 0.087367 -0.012001 -801652.000000 0 0 1
6.605381 -2.233390 -29.163672 29.985644 -0.326049 2.906908 0.081579 -0.002373 66390.600000 0 0 1
5.356481 -1.930790 -28.577872 29.139571 -0.345961 2.944928 0.096759 -0.012395 194588.000000 0 0 1
4.258281 -3.013090 -28.685272 29.155728 -0.615797 2.961706 0.080058 -0.014524 -664606.000000 0 0 1
4.333181 -3.973490 -27.640072 28.258426 -0.742124 2.932010 0.081099 -0.020115 60940.200000 0 0 1
3.243181 -4.862890 -27.723672 28.333159 -0.982615 2.933799 0.083020 -0.019998 74310.900000 0 0 1
3.236481 -5.734490 -26.428872 27.236822 -1.056973 2.897414 0.057493 -0.029751 -162704.000000 0 0 1
2.889081 -5.058290 -25.229872 25.893619 -1.051854 2.914683 0.059808 -0.033792 105240.000000 0 0 1
3.021881 -5.940690 -24.079472 24.984886 -1.100233 2.871558 0.057166 -0.039695 -76360.400000 0 1 0
2.945881 -5.259490 -22.693372 23.480408 -1.060226 2.881948 0.072265 -0.047420 -590050.000000 0 1 0
3.979581 -4.376690 -22.464772 23.230550 -0.832885 2.884116 0.066063 -0.042929 -523466.000000 0 1 0
3.838081 -3.668490 -21.261372 21.914256 -0.762810 2.896881 0.053150 -0.039277 -405366.000000 0 1 0
4.903281 -2.591790 -21.108972 21.825404 -0.486251 2.884662 0.060114 -0.033545 -1069800.000000 0 1 0
6.134481 -3.027490 -20.650972 21.754544 -0.458450 2.821708 0.052221 -0.039120 -1252040.000000 0 1 0
6.824481 -1.854090 -20.325572 21.520689 -0.265279 2.806764 0.059691 -0.028617 -866167.000000 0 1 0
8.302681 -2.102590 -20.075872 21.826499 -0.248028 2.738350 0.068383 -0.029851 -1921200.000000 0 1 0
9.032881 -2.285990 -21.239972 23.193859 -0.247870 2.728188 0.083354 -0.039943 -14912.100000 0 1 0
10.264281 -2.982290 -21.184972 23.728729 -0.282765 2.674316 0.064381 -0.034307 780907.000000 0 1 0
11.433581 -2.242090 -20.455972 23.541464 -0.193640 2.623840 0.056516 -0.035241 -817116.000000 0 1 0
11.134781 -2.027090 -19.092772 22.195189 -0.180078 2.606500 0.048393 -0.026340 -577343.000000 0 1 0
12.145281 -1.498890 -18.308072 22.021354 -0.122792 2.552379 0.048787 -0.033690 -694426.000000 0 1 0
12.550781 -0.022290 -18.338172 22.221862 -0.001776 2.541408 0.048279 -0.030988 16363.500000 0 1 0
13.041581 0.355410 -19.616172 23.558509 0.027245 2.554686 0.049464 -0.035991 195188.000000 0 1 0
13.304381 1.733010 -19.552172 23.712809 0.129529 2.540186 0.072591 -0.039269 -173142.000000 0 1 0
13.693981 2.412310 -20.877172 25.083873 0.174369 2.554031 0.062383 -0.035612 -1089600.000000 0 0 1
15.043581 2.458710 -21.164472 26.082359 0.162007 2.517421 0.064520 -0.038906 -751605.000000 0 0 1
15.278681 3.565010 -22.035272 27.049965 0.229231 2.522859 0.061765 -0.038773 249539.000000 0 0 1
16.761781 3.687010 -22.518172 28.312885 0.216517 2.490353 0.039621 -0.032862 568806.000000 0 0 1
17.017181 2.698610 -23.481472 29.124672 0.157272 2.508565 0.024674 -0.029406 -83175.800000 0 0 1
17.815481 1.644410 -23.026172 29.159905 0.092042 2.481038 0.028535 -0.032696 -604753.000000 0 0 1
9.528737 26.502410 3.361309 28.363233 1.225646 1.452008 0.018585 -0.002007 -114304.000000 0 0 1
9.632137 26.750610 4.762009 28.827937 1.225177 1.404848 0.021134 -0.002796 -256395.000000 0 0 1
10.828737 27.339010 5.188509 29.859733 1.193664 1.396147 0.028752 -0.003386 -551485.000000 0 0 1
10.718137 28.002710 6.519609 30.684451 1.205245 1.356692 0.024914 -0.002040 -19239.600000 0 0 1
10.625637 27.191310 7.655409 30.180736 1.198269 1.314342 0.019231 -0.004593 24491.100000 0 0 1
10.567937 28.025110 8.832909 31.226725 1.210196 1.284018 0.025064 -0.000164 -417589.000000 0 0 1
10.661737 27.223210 10.148409 30.947795 1.197516 1.236695 0.049351 -0.007143 2055970.000000 0 0 1
11.968437 26.584610 10.454109 30.972139 1.147775 1.226502 0.033980 -0.003432 1876130.000000 0 0 1
12.321437 25.466510 9.620409 29.881654 1.120169 1.243008 0.047073 -0.008304 155379.000000 0 0 1
13.592037 24.820710 10.256909 30.100088 1.069791 1.223071 0.052404 -0.011205 603849.000000 0 0 1
14.801837 25.529310 10.035409 31.169689 1.045364 1.242997 0.048496 -0.002495 -691.151000 0 0 1
15.904437 24.826910 10.552809 31.315944 1.001049 1.227090 0.051241 -0.004269 761542.000000 0 0 1
17.102337 25.778410 10.948409 32.815911 0.985033 1.230644 0.051430 -0.009744 43128.100000 0 0 1
17.736337 26.474610 9.886509 33.365037 0.980533 1.269966 0.048301 -0.011430 687351.000000 0 0 1
19.142637 26.671410 10.018709 34.324615 0.948276 1.274603 0.038896 -0.022202 529919.000000 0 0 1
19.772037 27.368510 11.224109 35.580183 0.945170 1.249855 0.052097 -0.027852 -857880.000000 0 0 1
19.705137 28.794310 11.188509 36.641335 0.970657 1.260488 0.063200 -0.039779 463565.000000 0 0 1
18.418737 29.348910 11.469509 36.498740 1.010345 1.251136 0.049657 -0.023371 286653.000000 0 0 1
18.493737 30.850310 11.755409 37.841110 1.030769 1.254918 0.050717 -0.024663 -606447.000000 0 0 1
19.027037 31.686010 10.726309 38.484868 1.030019 1.288341 0.067194 -0.037672 334310.000000 0 0 1
18.259137 31.985510 9.518709 38.040436 1.052082 1.317883 0.071985 -0.039921 1630370.000000 0 0 1
16.750137 32.449310 9.717209 37.788212 1.094278 1.310725 0.065531 -0.029265 984260.000000 0 0 1
16.647137 33.826810 10.074509 39.024044 1.113466 1.309678 0.069821 -0.034671 -854580.000000 0 0 1
15.365137 -33.919581 9.942709 38.541963 -1.145461 1.309875 0.070278 -0.025022 -990407.000000 0 0 1
15.341837 -32.391381 10.099009 37.236589 -1.128459 1.296144 0.061551 -0.022063 -82237.400000 0 0 1
16.112737 -31.729181 9.109709 36.733473 -1.100912 1.320187 0.075753 -0.027340 176156.000000 0 0 1
16.273037 -30.354981 9.355509 35.689805 -1.078694 1.305564 0.083803 -0.026344 16165.300000 0 0 1
17.068237 -29.583881 8.262609 35.139742 -1.047502 1.333438 0.073042 -0.024796 -90662.500000 0 0 1
16.488637 -29.592281 6.987609 34.589087 -1.062447 1.367379 0.072671 -0.025282 -377233.000000 0 0 1
17.407237 -29.281681 6.000309 34.589485 -1.034449 1.396442 0.063925 -0.016490 -412499.000000 0 0 1
16.906237 -29.582481 4.528009 34.372182 -1.051600 1.438678 0.064389 -0.020544 -108427.000000 0 0 1
16.891037 -30.892981 4.160909 35.454148 -1.070444 1.453165 0.059183 -0.021043 26162.200000 0 0 1
16.858237 -30.943981 2.709309 35.342191 -1.071955 1.494062 0.050968 -0.010724 -153621.000000 0 0 1
17.167337 -32.341981 2.145109 36.678641 -1.082808 1.512279 0.051337 -0.014216 -1230770.000000 0 0 1
18.476937 -32.709681 2.307209 37.638327 -1.056603 1.509458 0.051724 -0.007437 -1048870.000000 0 0 1
18.548937 -34.080681 1.924609 38.849196 -1.072367 1.521236 0.065772 -0.010077 -117529.000000 0 0 1
20.002637 33.632710 2.002809 39.182597 1.034255 1.519659 0.068919 -0.009523 85794.200000 0 0 1
20.359437 33.249010 3.303409 39.126920 1.021358 1.486268 0.056801 -0.033514 -247849.000000 0 0 1
21.732137 32.933510 3.343309 39.598985 0.987508 1.486267 0.043078 -0.019286 -269312.000000 0 0 1
22.212237 32.723510 4.792909 39.839472 0.974451 1.450199 0.050704 -0.017033 -617015.000000 0 0 1
21.692637 31.626110 5.519009 38.745849 0.969590 1.427869 0.071219 -0.027030 -33829.200000 0 0 1
22.447237 30.417210 5.539809 38.206997 0.935034 1.425289 0.054420 -0.031525 -269358.000000 0 0 1
21.724937 29.313610 6.358409 37.036333 0.933002 1.398261 0.054050 -0.037034 -1040710.000000 0 0 1
20.548437 28.901410 5.827209 35.937253 0.952737 1.407928 0.059433 -0.031517 -1395140.000000 0 0 1
19.573937 28.727510 6.840409 35.428802 0.972686 1.376501 0.052303 -0.037645 -1084150.000000 0 0 1
18.170537 28.796810 6.327009 34.633159 1.007900 1.387078 0.075182 -0.032280 -1377580.000000 0 0 1
17.574537 30.071510 6.069409 35.355308 1.041908 1.398273 0.064491 -0.040665 -358219.000000 0 0 1
18.165637 30.911110 5.134309 36.219445 1.039490 1.428562 0.074385 -0.032521 -683871.000000 0 0 1
17.954137 32.421710 5.454709 37.460275 1.065064 1.424664 0.081791 -0.031248 434966.000000 0 0 1
16.613437 32.892510 5.425109 37.247219 1.103091 1.424625 0.076442 -0.029847 262653.000000 0 0 1
16.697037 -33.922881 5.610709 38.223461 -1.113404 1.423477 0.071339 -0.029858 -907854.000000 0 0 1
15.345537 -33.300081 5.847209 37.129109 -1.138976 1.412655 0.064749 -0.029080 -737240.000000 0 0 1
14.549237 -33.339981 4.685509 36.676813 -1.159318 1.442695 0.059752 -0.021166 427666.000000 0 0 1
13.356137 -32.541581 4.808409 35.502982 -1.181329 1.434942 0.050017 -0.022475 1541060.000000 0 0 1
12.373337 -32.620581 3.525909 35.066135 -1.208252 1.470076 0.045746 -0.020313 589317.000000 0 0 1
11.381737 -31.637481 3.476009 33.801728 -1.225458 1.467779 0.052072 -0.025813 -170616.000000 0 0 1
10.788237 -31.568681 2.183709 33.432563 -1.241500 1.505433 0.055368 -0.018606 -882984.000000 0 0 1
9.922837 -30.322681 2.103209 31.974227 -1.254538 1.504971 0.057666 -0.019007 -545417.000000 0 0 1
9.319737 -29.948681 0.891909 31.377962 -1.269105 1.542368 0.057388 -0.012101 -163988.000000 0 0 1
8.324237 -30.817281 0.422809 31.924544 -1.306977 1.557552 0.047447 -0.014437 -770677.000000 0 0 1
8.604537 -31.362881 -1.015091 32.537652 -1.303031 1.601999 0.057772 -0.015713 664830.000000 0 0 1
9.739937 -32.260981 -0.891191 33.711000 -1.277587 1.597236 0.057458 -0.015926 727862.000000 0 0 1
9.799837 -33.229181 -1.929691 34.697824 -1.284010 1.626439 0.054306 -0.004521 -87435.200000 0 0 1
11.120637 -34.019881 -1.839091 35.838571 -1.254859 1.622135 0.053776 -0.008657 1852.800000 0 0 1
11.189437 33.322910 -0.743391 35.159245 1.246838 1.591941 0.050953 -0.004407 284908.000000 0 0 1
12.398937 32.568510 -0.792591 34.857850 1.207035 1.593536 0.060951 -0.008285 207161.000000 0 0 1
12.731337 31.613710 0.404509 34.083387 1.187951 1.558928 0.057199 -0.014386 -499922.000000 0 0 1
12.985637 32.264110 1.616509 34.816845 1.188154 1.524351 0.048971 -0.011547 1105800.000000 0 0 1
14.224437 33.015010 1.781109 35.993025 1.163983 1.521291 0.067872 -0.014998 937407.000000 0 0 1
15.518837 32.188210 1.956309 35.787460 1.121548 1.516104 0.076059 -0.022634 -634963.000000 0 0 1
15.903437 31.543110 0.761209 35.333646 1.103810 1.549251 0.078056 -0.023948 -825746.000000 0 0 1
16.710337 30.495510 1.050009 34.789568 1.069520 1.540610 0.087564 -0.026139 -661389.000000 0 0 1
17.233137 29.774110 -0.253591 34.402659 1.046114 1.578168 0.083612 -0.019606 641987.000000 0 0 1
18.362637 30.406210 -0.871491 35.531444 1.027506 1.595326 0.066528 -0.008813 151515.000000 0 0 1
18.042337 31.494510 -1.721491 36.337221 1.050562 1.618189 0.072605 -0.014801 -460487.000000 0 0 1
19.158037 32.255310 -2.437291 37.594891 1.034837 1.635672 0.055318 -0.005533 -287943.000000 0 0 1
19.855037 33.183510 -1.638991 38.704704 1.031598 1.613155 0.042816 0.000002 29284.700000 0 0 1
20.969037 33.730810 -2.343291 39.786418 1.014604 1.629727 0.043797 0.006798 -918512.000000 0 0 1
22.038037 -34.076481 -1.353891 40.604367 -0.996728 1.604146 0.042039 0.005835 -1195900.000000 0 0 1
22.888737 33.172710 -0.711591 40.309172 0.966822 1.588451 0.035918 0.007098 1327600.000000 0 0 1
23.774337 32.391410 -1.561091 40.210192 0.937633 1.609629 0.047414 0.003252 309376.000000 0 0 1
24.660237 33.186910 -2.543091 41.424215 0.931744 1.632226 0.051627 0.000366 -1274100.000000 0 0 1
23.912737 33.684110 -3.652591 41.470226 0.953449 1.658988 0.048121 -0.006520 277737.000000 0 0 1
24.716437 -33.834481 -4.615291 42.154185 -0.939886 1.680502 0.059385 -0.006058 -45967.600000 0 0 1
23.952937 -33.250281 -5.808791 41.389207 -0.946521 1.711607 0.060990 -0.017211 774811.000000 0 0 1
22.930237 -32.249781 -5.440191 39.942957 -0.952713 1.707420 0.058643 -0.012875 1046810.000000 0 0 1
22.340837 -31.813781 -6.606691 39.431942 -0.958570 1.739137 0.062995 -0.018887 245011.000000 0 0 1
21.292937 -30.646581 -6.593991 37.895683 -0.963576 1.745690 0.066810 -0.016235 1108080.000000 0 0 1
19.980337 -30.861681 -6.080891 37.264386 -0.996240 1.734712 0.054724 -0.008894 313143.000000 0 0 1
19.346437 -29.609881 -5.914191 35.860944 -0.992050 1.736473 0.058743 -0.014733 418466.000000 0 0 1
18.136037 -29.613781 -4.932591 35.074525 -1.021295 1.711896 0.043471 -0.001527 1343220.000000 0 0 1
17.030737 -30.478081 -5.286691 35.311592 -1.061232 1.721077 0.044069 -0.010509 -41709.700000 0 0 1
15.957837 -30.360381 -4.444791 34.585567 -1.086868 1.699669 0.029311 -0.008581 414729.000000 0 0 1
14.624237 -31.134581 -4.819091 34.734048 -1.131673 1.709988 0.031899 -0.009265 1030400.000000 0 0 1
14.729037 -32.518381 -4.688691 36.005187 -1.145496 1.701390 0.042891 -0.000124 -461337.000000 0 0 1
13.503437 -33.109281 -4.996691 36.104490 -1.183546 1.709637 0.047199 0.000536 -443622.000000 0 0 1
13.656637 33.623110 -5.069691 36.643131 1.184984 1.709595 0.056709 -0.008483 10752.800000 0 0 1
13.942337 32.966410 -3.864691 36.001511 1.170684 1.678352 0.067401 -0.014157 -79728.600000 0 0 1
14.336037 31.587710 -4.031091 34.922129 1.144747 1.686485 0.070141 -0.015120 -437840.000000 0 0 1
13.277537 30.568510 -4.435691 33.621454 1.161030 1.703112 0.067855 -0.018555 -483450.000000 0 0 1
12.307337 30.335710 -3.445191 32.918007 1.185382 1.675648 0.063035 -0.021289 -200802.000000 0 0 1
12.591537 29.283910 -2.528891 31.976390 1.164714 1.649965 0.069591 -0.022926 172594.000000 0 0 1
11.311737 28.526510 -2.059291 30.756428 1.193281 1.637801 0.063173 -0.019928 510463.000000 0 0 1
10.422937 29.245710 -1.233791 31.072036 1.228438 1.610514 0.029762 -0.015411 -639731.000000 0 0 1
9.606637 28.360010 -0.547191 29.947906 1.244189 1.589069 0.026344 -0.007529 -324351.000000 0 0 1
8.490537 29.134110 0.194809 30.346722 1.287221 1.564377 0.026658 0.004922 -166741.000000 0 0 1
7.705837 28.348610 1.033609 29.395441 1.305385 1.535627 0.022467 -0.000854 -170811.000000 0 0 1
6.718537 29.192010 1.625509 29.999241 1.344586 1.516585 0.045233 0.005660 1491.860000 0 0 1
5.635537 28.434610 2.420709 29.088592 1.375139 1.487481 0.051850 -0.003957 47542.200000 0 0 1
4.902137 27.636010 1.511509 28.108089 1.395240 1.516995 0.052195 -0.010445 -279513.000000 0 0 1
3.841437 26.959210 2.148109 27.316113 1.429258 1.492076 0.054749 -0.015488 234836.000000 0 0 1
3.037237 26.169210 1.051609 26.365854 1.455252 1.530900 0.065014 -0.014179 -360692.000000 0 0 1
1.965037 25.438110 1.528409 25.559633 1.493702 1.510963 0.064422 -0.018487 -566399.000000 0 0 1
1.344037 24.703410 0.509609 24.745194 1.516443 1.550201 0.060627 -0.012969 -249827.000000 0 1 0
-0.026263 24.151710 0.874609 24.167556 -1.569709 1.534599 0.057015 -0.009554 70748.600000 0 1 0
-1.078463 25.048110 1.216409 25.100808 -1.527767 1.522316 0.067651 -0.010574 373822.000000 0 0 1
-2.310863 24.354010 1.221709 24.493887 -1.476193 1.520897 0.055887 -0.007781 433584.000000 0 1 0
-3.605763 25.151510 1.571109 25.457187 -1.428405 1.509041 0.072213 -0.021519 -159433.000000 0 0 1
-4.726863 24.301910 1.565509 24.806791 -1.378689 1.507646 0.064927 -0.023242 -334257.000000 0 1 0
-5.777263 24.989110 2.226509 25.744703 -1.343597 1.484204 0.057654 -0.022135 -126352.000000 0 0 1
-6.991663 25.226010 1.325209 26.210516 -1.300422 1.520215 0.057234 -0.019133 -366238.000000 0 0 1
-6.753263 26.386110 0.518009 27.241544 -1.320235 1.551780 0.064710 -0.021583 298418.000000 0 0 1
-7.902063 26.616010 -0.269891 27.765580 -1.282194 1.580517 0.063902 -0.017152 -86904.300000 0 0 1
-7.689863 27.735810 -1.361791 28.814296 -1.300336 1.618075 0.057558 -0.011653 76264.900000 0 0 1
-7.723963 28.998110 -0.780491 30.019313 -1.310479 1.596799 0.075997 -0.030424 51617.500000 0 0 1
-7.406563 29.977710 -1.746691 30.928486 -1.328578 1.627302 0.073361 -0.025334 -65330.100000 0 0 1
-7.561863 31.435710 -1.279891 32.357747 -1.334731 1.610361 0.071430 -0.029865 -661580.000000 0 0 1
-7.626863 32.385910 -2.324991 33.352988 -1.339511 1.640562 0.075836 -0.022122 282387.000000 0 0 1
-6.510663 32.503510 -3.216391 33.304836 -1.373106 1.667521 0.065677 -0.021592 273934.000000 0 0 1
-5.233863 33.099410 -2.597091 33.611147 -1.413969 1.648142 0.066941 -0.026864 -733859.000000 0 0 1
-5.304063 -33.748181 -2.401291 34.246738 1.414906 1.640971 0.076351 -0.024186 -607254.000000 0 0 1
-4.172063 -33.258581 -1.780791 33.566510 1.446005 1.623874 0.082336 -0.023275 -570320.000000 0 0 1
-4.135463 -31.704981 -1.774691 32.022764 1.441093 1.626244 0.100247 -0.030571 17836.900000 0 0 1
-5.276163 -31.203681 -1.126691 31.666655 1.403293 1.606384 0.097200 -0.026872 -209645.000000 0 0 1
-5.701463 -29.992681 -1.705191 30.577366 1.382943 1.626592 0.115422 -0.021634 16812.900000 0 0 1
-7.128463 -29.508581 -1.364191 30.388030 1.333765 1.615704 0.133626 -0.021383 114752.000000 0 0 1
-7.333663 -29.200381 0.003009 30.107223 1.324736 1.570696 0.109877 -0.019551 -86496.300000 0 0 1
-8.640963 -28.693881 0.204409 29.967430 1.278291 1.563975 0.072232 -0.018587 253629.000000 0 0 1
-8.713363 -28.019881 1.561809 29.384957 1.269305 1.517621 0.078260 -0.015020 51113.400000 0 0 1
-8.001263 -26.799581 1.379709 28.002524 1.280662 1.521505 0.089824 -0.020433 -69634.200000 0 0 1
-7.514563 -26.290181 2.604709 27.466831 1.292388 1.475823 0.090100 -0.008255 248810.000000 0 0 1
-8.429563 -25.255181 3.357009 26.835634 1.248648 1.445373 0.081713 -0.014235 172134.000000 0 0 1
-8.217663 -23.911781 3.112809 25.475338 1.239775 1.448301 0.079935 -0.019655 -921132.000000 0 0 1
-9.059463 -23.102481 3.836009 25.110028 1.197082 1.417428 0.079261 -0.016555 -473105.000000 0 0 1
-8.505163 -21.686681 4.138909 23.659681 1.197046 1.394956 0.052581 -0.007324 810241.000000 0 1 0
-7.501063 -21.788181 5.177709 23.617779 1.239233 1.349772 0.048326 -0.004975 78383.800000 0 1 0
-6.835063 -20.621781 5.595709 22.434079 1.250743 1.318706 0.027942 -0.000623 113696.000000 0 1 0
-7.664063 -19.489981 6.281209 21.864374 1.196139 1.279410 0.035387 -0.005730 220458.000000 0 1 0
-8.378763 -19.921881 7.425209 22.852106 1.172675 1.239864 0.050081 -0.007876 74334.400000 0 1 0
-9.338763 -19.022581 7.920109 22.622980 1.114431 1.213128 0.046234 -0.008216 -250832.000000 0 1 0
-27.563893 28.940310 -5.394691 40.328804 -0.809753 1.704966 0.085340 0.007238 127840.000000 0 0 1
-27.157833 29.981010 -4.525791 40.704934 -0.834767 1.682212 0.071617 -0.005666 -76928.500000 0 0 1
-25.788833 29.781110 -4.210991 39.619577 -0.857117 1.677283 0.058671 0.008623 211943.000000 0 0 1
-25.157003 30.923510 -3.448891 40.012912 -0.887864 1.657098 0.040606 0.002288 -361421.000000 0 0 1
-25.486763 30.967110 -2.136691 40.163447 -0.882171 1.624021 0.024030 -0.005635 -101418.000000 0 0 1
-24.729063 31.900810 -1.416591 40.388055 -0.911370 1.605878 0.024774 -0.008023 158477.000000 0 0 1
-23.491763 31.351210 -0.668691 39.181737 -0.927737 1.587864 0.020293 -0.009240 344500.000000 0 0 1
-22.472163 30.804510 -1.491491 38.159409 -0.940539 1.609892 0.032455 -0.014353 1127670.000000 0 0 1
-21.221063 30.729710 -0.746591 37.352457 -0.966426 1.590785 0.033893 -0.010046 2056440.000000 0 0 1
-20.073663 29.955710 -1.554191 36.093103 -0.980413 1.613870 0.049271 -0.015628 769726.000000 0 0 1
-18.771063 30.080610 -1.018191 35.471575 -1.012898 1.599505 0.063357 -0.018718 -230222.000000 0 0 1
-17.962163 29.142610 -1.683791 34.274863 -1.018439 1.619942 0.062314 -0.017389 -625151.000000 0 0 1
-16.501763 29.377310 -1.300591 33.719818 -1.059001 1.609376 0.069587 -0.026707 -492068.000000 0 0 1
-16.149563 28.878810 -0.004391 33.087673 -1.060903 1.570929 0.059770 -0.030596 -286329.000000 0 0 1
-15.205663 29.674210 0.646709 33.349501 -1.097262 1.551403 0.063965 -0.033511 -148513.000000 0 0 1
-14.611463 28.974810 1.888909 32.505422 -1.103729 1.512653 0.069440 -0.037542 -164829.000000 0 0 1
-15.451063 29.065310 3.020709 33.055292 -1.082191 1.479285 0.057382 -0.034928 -38628.700000 0 0 1
-14.893063 28.437810 4.172709 32.371653 -1.088364 1.441537 0.066163 -0.041590 666085.000000 0 0 1
-13.648863 29.193410 4.768109 32.577316 -1.133459 1.423906 0.078530 -0.031573 451533.000000 0 0 1
-13.889463 30.390210 5.527409 33.867895 -1.142106 1.406858 0.074912 -0.034486 -298000.000000 0 0 1
-14.111063 31.600010 4.807909 34.939931 -1.150813 1.432753 0.083045 -0.044014 -56871.100000 0 0 1
-13.866263 32.876910 5.615309 36.120579 -1.171671 1.414703 0.088811 -0.028508 -13855.900000 0 0 1
-14.878463 33.182910 6.548609 36.950758 -1.149293 1.392630 0.091832 -0.030830 -100121.000000 0 0 1
-14.641763 -33.845081 7.129909 37.559371 1.162497 1.379807 0.114498 -0.043510 -594179.000000 0 0 1
-15.727063 -33.449881 8.082409 37.835967 1.131298 1.355520 0.100200 -0.037393 -542749.000000 0 0 1
-15.822363 34.058910 9.305409 38.690402 -1.135902 1.327906 0.083718 -0.039040 88428.200000 0 0 1
-16.986863 -33.874081 10.066109 39.208844 1.105973 1.311158 0.098511 -0.042780 -563519.000000 0 0 1
-17.181863 33.508610 11.349009 39.329930 -1.096993 1.278075 0.098721 -0.036446 576623.000000 0 0 1
-16.319363 33.827210 12.469609 39.573892 -1.121301 1.250238 0.105125 -0.038504 517700.000000 0 0 1
-14.946863 33.544010 12.238609 38.709081 -1.151616 1.249108 0.099908 -0.026897 195905.000000 0 0 1
-14.009363 33.919110 13.455009 39.087154 -1.179114 1.219377 0.094670 -0.023755 330752.000000 0 0 1
-14.143963 33.045010 14.609609 38.800323 -1.166370 1.184745 0.088600 -0.017934 -48209.600000 0 0 1
-13.435863 31.799710 14.576609 37.472944 -1.171032 1.171261 0.057993 -0.011430 -91076.500000 0 0 1
-14.125963 30.558610 13.939709 36.437440 -1.137795 1.178225 0.052990 -0.016570 33703.300000 0 0 1
-14.049763 30.659410 12.520309 35.974344 -1.141101 1.215323 0.051766 -0.011156 -590142.000000 0 0 1
-15.135763 30.066110 11.906909 35.704857 -1.104420 1.230802 0.035706 -0.002476 -601713.000000 0 0 1
-15.061663 29.990310 10.390809 35.131771 -1.105376 1.270538 0.042065 -0.000107 -12905.000000 0 0 1
-14.372663 28.818410 9.937709 33.702111 -1.108164 1.271478 0.030701 0.004864 146500.000000 0 0 1
-14.305563 28.803510 8.519909 33.269809 -1.109824 1.311826 0.038335 -0.003068 -865001.000000 0 0 1
-13.698663 27.479210 7.992009 31.727474 -1.108341 1.316158 0.041005 -0.005570 -442082.000000 0 0 1
-12.353263 27.421310 8.380509 31.221216 -1.147528 1.299040 0.042177 -0.007698 -379518.000000 0 0 1
-11.833163 26.087910 8.269109 29.815784 -1.144963 1.289772 0.050413 -0.010149 -78358.200000 0 0 1
-10.663463 25.931110 7.287609 28.969660 -1.180653 1.316505 0.068035 -0.019054 -507280.000000 0 0 1
-11.012863 26.255710 5.908509 29.078445 -1.173639 1.366179 0.075173 -0.026578 -256890.000000 0 0 1
-10.047063 25.884710 5.005709 28.213806 -1.200550 1.392432 0.088438 -0.023346 -867332.000000 0 0 1
-10.349663 26.351410 3.603709 28.539430 -1.196551 1.444187 0.079048 -0.032412 -59295.900000 0 0 1
-10.200763 27.715010 3.311309 29.717708 -1.218125 1.459139 0.092561 -0.034986 123442.000000 0 0 1
-10.606463 27.971510 1.994109 29.981310 -1.208359 1.504235 0.078536 -0.037864 -130119.000000 0 0 1
-10.291463 29.408210 1.522409 31.194147 -1.234164 1.521973 0.113440 -0.036326 139148.000000 0 0 1
-11.064363 30.439310 2.095209 32.455533 -1.222155 1.506195 0.106037 -0.045513 -30330.700000 0 0 1
-10.423963 31.687510 1.932009 33.413919 -1.252986 1.512944 0.103800 -0.040930 -116944.000000 0 0 1
-11.000363 32.809010 2.799309 34.717075 -1.247290 1.490077 0.092229 -0.038380 369693.000000 0 0 1
-12.312063 33.298810 2.545309 35.593205 -1.216641 1.499224 0.108753 -0.042376 142190.000000 0 0 1
-12.415863 -34.040681 1.491409 36.264941 1.221054 1.529659 0.094301 -0.032458 90482.100000 0 0 1
-13.886263 -33.778081 1.054809 36.536279 1.180755 1.541922 0.099501 -0.032035 469417.000000 0 0 1
-14.593163 33.305910 0.618509 36.367934 -1.157836 1.553789 0.085503 -0.026869 -176548.000000 0 0 1
-14.803863 33.132410 -0.793991 36.297953 -1.150599 1.592672 0.079889 -0.019931 167121.000000 0 0 1
-13.565263 32.933910 -1.718791 35.659684 -1.180079 1.619015 0.087664 -0.019381 107317.000000 0 0 1
-13.227063 31.557710 -1.833791 34.266705 -1.173901 1.624337 0.079975 -0.020506 -73978.200000 0 0 1
-11.837563 31.376710 -1.987491 33.594285 -1.210035 1.629992 0.080132 -0.020482 -165864.000000 0 0 1
-11.562963 29.908410 -2.163291 32.138683 -1.201884 1.638158 0.064937 -0.022450 -123835.000000 0 0 1
-11.777763 29.449710 -3.471691 31.906955 -1.190352 1.679819 0.058467 -0.018419 -576602.000000 0 0 1
-10.782363 29.723510 -4.411391 31.925018 -1.222804 1.709420 0.055292 -0.014510 -393491.000000 0 0 1
-10.968363 29.138710 -5.811291 31.672394 -1.210782 1.755323 0.064113 -0.020156 -40661.700000 0 0 1
-11.005163 27.746510 -5.811691 30.409837 -1.193196 1.763091 0.066414 -0.009906 -27121.400000 0 0 1
-11.028063 27.133810 -7.136091 30.146072 -1.184757 1.809782 0.058993 -0.008790 91190.200000 0 0 1
-11.520763 25.651710 -7.253891 29.040612 -1.148672 1.823254 0.078247 -0.017418 -277426.000000 0 0 1
-10.720363 24.690210 -6.670491 27.731356 -1.161163 1.813718 0.045683 -0.007302 -401010.000000 0 0 1
-11.300563 23.360810 -6.693291 26.799820 -1.120241 1.823220 0.077933 -0.020310 -241503.000000 0 0 1
-10.596363 22.434610 -5.770291 25.473337 -1.129535 1.799302 0.054132 -0.016680 -614193.000000 0 0 1
-9.313063 22.025910 -6.203391 24.705383 -1.170771 1.824607 0.057137 -0.014263 111807.000000 0 1 0
-8.781063 20.865610 -5.559091 23.310604 -1.172455 1.811596 0.055402 -0.007619 -237202.000000 0 1 0
-8.533963 20.875810 -4.022491 22.908697 -1.182730 1.747299 0.043502 -0.016545 -652391.000000 0 1 0
-9.602563 20.832610 -3.125691 23.151173 -1.138883 1.706222 0.051636 -0.021655 -653053.000000 0 1 0
-10.439263 19.710110 -3.100591 22.518444 -1.083719 1.708926 0.060447 -0.016239 172084.000000 0 1 0
-11.543163 19.972310 -2.014991 23.155949 -1.046742 1.657925 0.062318 -0.008933 148441.000000 0 1 0
-11.106863 19.781110 -0.665891 22.695774 -1.059176 1.600140 0.045936 -0.013096 -5516.090000 0 1 0
-10.993163 18.449410 -0.318291 21.478633 -1.033431 1.585616 0.057569 -0.012070 -235786.000000 0 1 0
-10.842163 18.274610 1.213109 21.283457 -1.035324 1.513768 0.049523 -0.020733 538436.000000 0 1 0
-12.095863 18.393210 1.905909 22.096438 -0.989078 1.484435 0.069310 -0.022372 685123.000000 0 1 0
-11.880863 18.429510 3.288109 22.172357 -0.998181 1.421950 0.063285 -0.022844 -352569.000000 0 1 0
-13.130663 18.414310 4.164309 22.996578 -0.951353 1.388708 0.071923 -0.018970 -395865.000000 0 1 0
-13.676863 17.174110 4.460509 22.403187 -0.898276 1.370355 0.050729 -0.018908 -12025.400000 0 1 0
-14.947863 17.242510 5.057209 23.373450 -0.856561 1.352706 0.066411 -0.020405 -11913.600000 0 1 0
-15.395363 15.846410 5.655109 22.805837 -0.799834 1.320215 0.050097 -0.018452 -447218.000000 0 1 0
-14.670863 15.406910 6.772609 22.326562 -0.809865 1.262597 0.051119 -0.014110 -252829.000000 0 1 0
-15.169863 15.891310 7.963709 23.368337 -0.808621 1.223039 0.041491 -0.014902 -1270290.000000 0 1 0
-14.102763 15.884810 9.069709 23.097073 -0.844755 1.167255 0.023987 -0.000831 346385.000000 0 1 0
-13.044463 16.800610 8.873109 23.046705 -0.910595 1.175582 0.028055 -0.012168 115952.000000 0 1 0
-12.082863 16.401610 7.902809 21.850922 -0.935870 1.200738 0.026763 -0.008284 -953988.000000 0 1 0
-10.966563 17.460510 7.732109 22.020909 -1.009987 1.212023 0.040572 -0.012656 262080.000000 0 1 0
-9.943063 17.361110 8.717009 21.823357 -1.050677 1.159896 0.044901 -0.011176 350801.000000 0 1 0
-9.192963 18.595610 8.755509 22.515911 -1.111669 1.171404 0.043566 -0.012628 458818.000000 0 1 0
-7.853063 18.420710 9.517909 22.171689 -1.167811 1.127099 0.046640 -0.020488 181646.000000 0 1 0
-6.911863 17.403410 9.095309 20.817714 -1.192744 1.118644 0.040611 -0.018403 1259050.000000 0 1 0
-5.556263 17.596410 9.557709 20.781134 -1.264943 1.092889 0.032862 -0.024702 1496750.000000 0 1 0
-4.792163 18.763610 8.803909 21.273146 -1.320745 1.144116 0.029086 -0.028388 -1145240.000000 0 1 0
-5.128263 20.093010 9.186009 22.680629 -1.320905 1.153800 0.042014 -0.030101 142755.000000 0 1 0
-4.490963 21.075010 8.370209 23.116774 -1.360842 1.200294 0.040517 -0.033844 1725770.000000 0 1 0
-3.004463 21.591410 8.682409 23.464868 -1.432533 1.191769 0.049680 -0.026343 1888070.000000 0 1 0
-1.940263 20.730210 8.265009 22.401264 -1.477472 1.192914 0.038462 -0.019637 -162207.000000 0 1 0
-0.776963 21.497710 8.116709 22.992090 -1.534670 1.209997 0.034218 -0.020836 -359465.000000 0 1 0
0.476637 20.647610 7.928009 22.122485 1.547716 1.204276 0.023711 -0.010615 -135890.000000 0 1 0
0.825337 19.870710 9.077009 21.861345 1.529285 1.142625 0.019912 -0.021708 -497698.000000 0 1 0
2.193837 19.555410 9.163409 21.707028 1.459078 1.134991 0.013865 -0.016350 -147179.000000 0 1 0
2.574137 18.632310 10.326909 21.457731 1.433511 1.068696 0.002050 -0.043110 -390624.000000 0 1 0
3.943037 18.563910 10.631009 21.752808 1.361503 1.060176 0.020063 -0.014859 -254574.000000 0 1 0
4.252737 18.095510 11.933409 22.089353 1.339969 1.000082 0.011518 -0.015907 1026660.000000 0 1 0
5.795337 18.070110 12.264809 22.595140 1.260446 0.997020 0.031924 -0.018485 916582.000000 0 1 0
6.598237 17.211210 11.522609 21.737824 1.204709 1.012111 0.018067 -0.015546 -44520.700000 0 1 0
7.724637 16.793410 12.299209 22.202684 1.139674 0.983693 0.026920 -0.008430 30773.000000 0 1 0
8.865737 16.113210 11.564509 21.724979 1.067788 1.009465 0.029183 -0.018557 -60000.400000 0 1 0
9.863937 17.031010 11.099509 22.595390 1.045830 1.057296 0.041824 -0.026767 309603.000000 0 1 0
11.019837 16.278210 10.704009 22.382867 0.975696 1.072166 0.042544 -0.023830 54920.700000 0 1 0
11.944237 17.353710 10.108409 23.366557 0.967979 1.123420 0.049632 -0.022385 -434269.000000 0 1 0
12.955537 16.822310 9.280609 23.172522 0.914530 1.158733 0.044596 -0.019468 -500248.000000 0 1 0
13.696837 17.861610 8.760209 24.153296 0.916610 1.199641 0.051621 -0.008360 614153.000000 0 1 0
14.866837 17.524510 7.740909 24.249803 0.867264 1.245895 0.054818 -0.007539 1226530.000000 0 1 0
16.023337 16.887010 8.283709 24.709073 0.811635 1.228926 0.073561 -0.007891 94824.000000 0 1 0
16.984437 16.655310 7.316509 24.887783 0.775615 1.272408 0.091756 -0.004887 -25613.500000 0 1 0
18.394737 16.328010 7.892909 25.831536 0.725947 1.260277 0.088215 -0.007137 178632.000000 0 0 1
18.514337 15.119510 8.593809 25.401453 0.684804 1.225666 0.090895 -0.010458 -54239.700000 0 0 1
19.632037 15.234110 9.429609 26.578422 0.659923 1.208113 0.092213 -0.014354 -266898.000000 0 0 1
19.797637 14.050710 10.465409 26.436597 0.617217 1.163783 0.079737 -0.012527 18193.500000 0 0 1
20.501837 12.945310 9.893109 26.187401 0.563204 1.183398 0.102395 -0.020999 433182.000000 0 0 1
20.732337 12.050110 10.953609 26.363166 0.526498 1.142316 0.099262 -0.023647 -520504.000000 0 0 1
21.539937 10.875810 10.366609 26.262496 0.467571 1.165022 0.098574 -0.020332 -259037.000000 0 0 1
22.919237 11.320010 10.356609 27.580671 0.458763 1.185857 0.093397 -0.031628 1267380.000000 0 0 1
23.772237 10.545110 9.527009 27.696254 0.417510 1.219642 0.110817 -0.029194 -128413.000000 0 0 1
23.891937 8.990710 9.858609 27.365118 0.359916 1.202248 0.117616 -0.037741 -1347640.000000 0 0 1
22.789737 8.144210 9.676309 26.063983 0.343219 1.190439 0.117162 -0.025902 159598.000000 0 0 1
23.029237 6.783810 10.081309 26.038407 0.286471 1.173235 0.114270 -0.030359 509378.000000 0 0 1
24.063837 5.936210 9.195509 26.436040 0.241857 1.215530 0.130589 -0.031640 781880.000000 0 0 1
23.584437 5.686710 7.940909 25.526895 0.236605 1.254467 0.120901 -0.015281 633814.000000 0 0 1
24.647837 5.205210 7.110909 26.175849 0.208125 1.295680 0.119539 -0.023717 382129.000000 0 0 1
24.204537 4.905610 5.642709 25.333077 0.199965 1.346171 0.119553 -0.025823 -670841.000000 0 0 1
23.515837 3.743610 5.544909 24.449033 0.157871 1.342011 0.123261 -0.026238 142812.000000 0 1 0
22.944937 3.587910 4.243609 23.608292 0.155114 1.390063 0.109605 -0.025512 -17615.700000 0 1 0
22.168437 2.280310 4.042709 22.649126 0.102502 1.391342 0.098104 -0.025112 -26313.800000 0 1 0
23.040737 1.160810 4.071709 23.426520 0.050338 1.396101 0.130247 -0.023102 622689.000000 0 1 0
22.298637 -0.043590 3.948109 22.645500 -0.001955 1.395557 0.110200 -0.030845 115254.000000 0 1 0
23.093037 -1.348290 4.274509 23.523980 -0.058319 1.388073 0.126992 -0.033034 -531604.000000 0 1 0
23.171937 -1.595890 5.650909 23.904357 -0.068763 1.332141 0.131457 -0.036536 639015.000000 0 1 0
23.000137 -2.988590 5.834609 23.916116 -0.129214 1.324348 0.105936 -0.036008 -422771.000000 0 1 0
22.788137 -3.473290 7.244309 24.162842 -0.151253 1.266301 0.120467 -0.038421 -180993.000000 0 1 0
22.725637 -4.887390 7.318609 24.370129 -0.211834 1.265778 0.107982 -0.038823 467170.000000 0 1 0
22.783737 -5.387890 8.664609 24.964043 -0.232214 1.216337 0.146121 -0.041357 -52463.000000 0 1 0
22.377837 -6.914690 8.784309 25.014887 -0.299691 1.211983 0.142197 -0.042803 79093.000000 0 0 1
20.986037 -7.141390 8.751209 23.832684 -0.328001 1.194806 0.129053 -0.040612 373683.000000 0 1 0
20.786437 -8.386290 9.280909 24.259866 -0.383477 1.178228 0.129346 -0.035670 -215596.000000 0 1 0
-26.985163 -32.733281 5.444309 42.770402 0.881356 1.443159 0.044662 -0.009240 -147645.000000 0 0 1
-27.748623 -33.835381 5.823209 44.144410 0.883915 1.438498 0.046026 -0.008592 -72059.900000 0 0 1
-27.711573 -34.095881 7.215509 44.525543 0.888327 1.408025 0.050215 -0.007177 146007.000000 0 0 1
-28.578413 32.893610 7.694009 44.248312 -0.855481 1.396025 0.063736 -0.017373 -181519.000000 0 0 1
-29.944263 33.163410 7.588509 45.321696 -0.836364 1.402567 0.053246 -0.009963 -898028.000000 0 0 1
-30.644663 31.972210 7.747909 44.959401 -0.806596 1.397600 0.067636 -0.021970 -901489.000000 0 0 1
-32.147133 32.161210 7.746009 46.127891 -0.785617 1.402072 0.058582 -0.017382 -1046810.000000 0 0 1
-32.679873 32.367610 6.493709 46.452175 -0.780598 1.430544 0.045281 -0.013068 -1196370.000000 0 0 1
-34.055993 32.397110 6.603409 47.465656 -0.760440 1.431224 0.045928 -0.014832 -1166660.000000 0 0 1
-34.786174 32.254610 5.227909 47.725977 -0.747655 1.461036 0.036113 -0.011908 -470943.000000 0 0 1
-34.668611 30.976910 4.719809 46.730699 -0.729220 1.469624 0.045050 -0.015108 -3769.300000 0 0 1
-35.302275 30.812410 3.499209 46.988294 -0.717592 1.496258 0.048962 -0.003606 -282790.000000 0 0 1
-35.070634 29.456410 2.799809 45.885383 -0.698611 1.509741 0.066361 -0.014330 -61177.400000 0 0 1
-35.523321 28.296110 3.432909 45.545154 -0.672634 1.495351 0.097919 -0.025292 245100.000000 0 0 1
-34.739871 27.155410 3.067109 44.200477 -0.663469 1.501350 0.087209 -0.028194 -215581.000000 0 0 1
-35.181659 25.848210 3.726509 43.815134 -0.633642 1.485643 0.099446 -0.032189 -491396.000000 0 0 1
-36.489143 25.441510 3.456209 44.616963 -0.608868 1.493255 0.110121 -0.029958 -741285.000000 0 0 1
36.563651 24.442310 4.317009 44.192349 0.589261 1.472953 0.112076 -0.031683 -406650.000000 0 0 1
35.078641 24.084210 4.212709 42.758709 0.601661 1.472113 0.121409 -0.033260 -669621.000000 0 0 1
34.659611 23.242810 3.193909 41.853530 0.590722 1.494410 0.107081 -0.037479 151326.000000 0 0 1
35.205351 21.924610 3.237509 41.600322 0.556989 1.492893 0.092186 -0.033992 -694537.000000 0 0 1
34.549621 20.957010 2.224409 40.469997 0.545242 1.515804 0.101929 -0.026926 626498.000000 0 0 1
33.134431 20.755410 2.306509 39.166281 0.559605 1.511872 0.086929 -0.023987 757193.000000 0 0 1
32.613031 19.980110 3.322709 38.390820 0.549663 1.484138 0.069820 -0.019366 -644075.000000 0 0 1
32.910941 18.511410 3.359009 37.908908 0.512367 1.482073 0.079013 -0.019672 -658262.000000 0 0 1
32.291901 17.780410 2.292409 36.934605 0.503315 1.508690 0.065144 -0.027669 377311.000000 0 0 1
32.622821 16.414410 2.108909 36.580443 0.466170 1.513113 0.064253 -0.022536 -309292.000000 0 0 1
31.956411 15.442710 3.160609 35.632555 0.450152 1.481980 0.078224 -0.023178 78107.300000 0 0 1
30.562811 15.641410 3.091109 34.471642 0.473026 1.481005 0.076583 -0.025655 377948.000000 0 0 1
29.799961 14.771510 3.976909 33.497030 0.460193 1.451791 0.080940 -0.036599 478168.000000 0 0 1
28.274681 14.955510 4.054709 32.242295 0.486528 1.444705 0.078845 -0.034995 95820.400000 0 0 1
27.562981 14.514510 2.926709 31.288250 0.484696 1.477119 0.086423 -0.043386 483043.000000 0 0 1
26.167081 14.804110 2.944309 30.208389 0.514857 1.473175 0.070562 -0.030983 590592.000000 0 0 1
25.405981 14.252410 1.720909 29.181443 0.511239 1.511789 0.088424 -0.040300 -120267.000000 0 0 1
25.849381 14.829310 0.516509 29.805465 0.520843 1.553466 0.083878 -0.041964 602071.000000 0 0 1
26.982781 14.209910 -0.084491 30.495888 0.484723 1.573567 0.088492 -0.044187 -238835.000000 0 0 1
27.468381 14.910110 -1.450791 31.287828 0.497306 1.617182 0.096268 -0.037103 113722.000000 0 0 1
28.055581 16.222010 -1.405491 32.438321 0.524243 1.614138 0.073665 -0.031585 961774.000000 0 0 1
29.339681 16.191510 -0.774291 33.519866 0.504273 1.593898 0.086041 -0.038696 -16085.300000 0 0 1
29.803031 17.626910 -0.389191 34.627736 0.534107 1.582036 0.086208 -0.023067 101234.000000 0 0 1
30.153311 18.479510 -1.499791 35.397230 0.549816 1.613179 0.090790 -0.018393 82437.600000 0 0 1
30.779771 19.647010 -1.138391 36.533482 0.568113 1.601962 0.074478 -0.005680 -154375.000000 0 0 1
30.742811 20.656010 -2.324591 37.110577 0.591615 1.633477 0.075168 -0.006057 191533.000000 0 0 1
31.575811 21.792010 -2.099491 38.423059 0.604084 1.625465 0.072620 0.004509 268074.000000 0 0 1
31.478911 22.704710 -3.184391 38.943113 0.624857 1.652658 0.060796 -0.003280 -229649.000000 0 0 1
32.594761 23.759610 -3.070291 40.451999 0.629886 1.646769 0.065750 -0.007921 -291308.000000 0 0 1
32.622671 24.516710 -1.869091 40.850964 0.644476 1.616566 0.070871 -0.007359 118783.000000 0 0 1
33.451991 23.929910 -0.903891 41.139924 0.620954 1.592769 0.077066 0.007150 -758476.000000 0 0 1
33.546021 24.767810 0.358309 41.700220 0.635986 1.562204 0.088294 -0.016764 -26822.300000 0 0 1
34.207901 26.018510 0.181709 42.978790 0.650250 1.566568 0.106855 -0.015010 253047.000000 0 0 1
35.536741 25.992910 0.660309 44.033253 0.631515 1.555800 0.108011 -0.016635 78840.800000 0 0 1
36.458011 27.178510 0.317309 45.474814 0.640598 1.563819 0.089310 -0.018961 -470203.000000 0 0 1
-36.498503 27.262410 -0.964291 45.566541 -0.641544 1.591960 0.077698 -0.016466 -18240.600000 0 0 1
36.106061 27.627610 -2.001291 45.507556 0.653145 1.614788 0.063375 -0.013529 -267550.000000 0 0 1
36.515611 27.055010 -3.335291 45.568494 0.637662 1.644055 0.058384 -0.008658 -206300.000000 0 0 1
-36.274743 28.026210 -4.065591 46.020153 -0.657815 1.659255 0.062886 -0.002370 44981.300000 0 0 1
-35.909305 27.607510 -5.380691 45.613646 -0.655433 1.689034 0.054357 -0.000187 -52133.900000 0 0 1
36.433901 27.655410 -6.447891 46.193357 0.649272 1.710838 0.038108 0.005029 413898.000000 0 0 1
35.462411 26.652610 -6.206691 44.793608 0.644507 1.709806 0.043966 0.006610 101421.000000 0 0 1
34.400821 26.662310 -7.160991 44.108674 0.659340 1.733867 0.042763 -0.001845 176507.000000 0 0 1
33.252691 25.727010 -6.764691 42.583818 0.658486 1.730328 0.054484 -0.010094 -571618.000000 0 0 1
33.377001 24.322210 -6.958791 41.881009 0.629737 1.737727 0.040941 0.000470 -85025.100000 0 0 1
34.469511 23.822210 -6.209791 42.358074 0.604734 1.717929 0.041516 0.002228 -1839.080000 0 0 1
34.728671 22.300510 -6.327991 41.754483 0.570827 1.722935 0.034421 0.002339 -215319.000000 0 0 1
33.762581 21.502510 -5.688291 40.430515 0.567092 1.711958 0.052478 -0.005490 72004.600000 0 0 1
33.968691 20.136510 -6.024191 39.945487 0.535106 1.722184 0.042697 -0.007465 686996.000000 0 0 1
32.792521 19.184710 -5.537591 38.393587 0.529342 1.715533 0.071882 -0.012704 59304.800000 0 0 1
31.721231 19.168810 -6.388891 37.609809 0.543568 1.741497 0.042255 -0.017887 -879265.000000 0 0 1
30.541821 18.809310 -5.699791 36.319150 0.551996 1.728384 0.092276 -0.029094 337538.000000 0 0 1
29.280051 18.613610 -6.582291 35.314508 0.566264 1.758283 0.063581 -0.032250 107152.000000 0 0 1
29.238381 17.522110 -7.497191 34.901507 0.539893 1.787294 0.047397 -0.025652 -560157.000000 0 0 1
28.035081 17.435410 -8.195791 34.016618 0.556377 1.814125 0.063119 -0.029186 -491952.000000 0 0 1
27.991281 16.136110 -9.071191 33.558492 0.522938 1.844511 0.071827 -0.029066 -252686.000000 0 0 1
27.073181 16.252210 -10.120491 33.158948 0.540645 1.880957 0.073746 -0.024831 -59124.000000 0 0 1
27.221781 15.193010 -11.006391 33.060453 0.509056 1.910192 0.086097 -0.008378 -228721.000000 0 0 1
26.297681 15.312410 -12.214891 32.790875 0.527282 1.952507 0.087064 -0.005283 -574984.000000 0 0 1
24.918281 15.211910 -11.927991 31.537278 0.548084 1.958668 0.071597 -0.006328 7547.680000 0 0 1
24.208281 15.350110 -13.150691 31.537398 0.565106 2.000924 0.074667 -0.006274 -370512.000000 0 0 1
24.041781 14.143810 -14.131691 31.269143 0.531773 2.039732 0.083154 -0.012197 -475815.000000 0 0 1
25.229081 13.585610 -14.679791 32.195832 0.493964 2.044239 0.100316 -0.017808 210350.000000 0 0 1
25.616681 14.207810 -15.854991 33.308512 0.506392 2.066902 0.118117 -0.020722 -357842.000000 0 0 1
26.987581 13.717810 -16.360291 34.411727 0.470266 2.066247 0.135879 -0.020798 -16544.600000 0 0 1
27.033581 12.400310 -16.892491 34.204363 0.430065 2.087331 0.145664 -0.023975 -574248.000000 0 0 1
28.344381 12.153610 -17.282891 35.352688 0.405071 2.081591 0.124951 -0.011091 -294333.000000 0 0 1
28.596541 10.721810 -17.858291 35.378496 0.358713 2.099921 0.098940 -0.009711 -207430.000000 0 0 1
27.917181 10.549210 -19.061191 35.411634 0.361289 2.139185 0.098443 -0.013233 -160603.000000 0 0 1
28.153081 9.370210 -19.675791 35.602438 0.321298 2.156340 0.075914 -0.006258 883648.000000 0 0 1
29.593811 9.137510 -20.295191 37.029482 0.299478 2.150866 0.066647 -0.006035 460895.000000 0 0 1
29.990251 9.987310 -21.361391 38.150630 0.321467 2.165088 0.073029 -0.014722 307980.000000 0 0 1
30.507731 9.252710 -22.479091 39.008254 0.294473 2.184947 0.055627 -0.007399 1189180.000000 0 0 1
31.958361 8.599510 -22.393091 39.959216 0.262859 2.165663 0.040343 -0.004745 1578520.000000 0 0 1
33.062361 9.489010 -22.196291 40.936981 0.279491 2.143857 0.036609 -0.009170 374453.000000 0 0 1
34.322751 8.890210 -22.147191 41.804129 0.253448 2.129143 0.013269 -0.003442 -508971.000000 0 0 1
35.475611 9.876410 -22.172291 42.984567 0.271524 2.112761 0.031936 -0.009338 -610863.000000 0 0 1
35.507611 10.527210 -20.918391 42.534594 0.288222 2.084949 0.025217 -0.011690 -540691.000000 0 0 1
36.507451 11.442810 -20.752391 43.524633 0.303739 2.067803 -0.010886 -0.000481 -1013090.000000 0 0 1
36.280241 12.357410 -19.576991 43.037426 0.328285 2.043037 -0.015044 -0.000834 -416880.000000 0 0 1
36.663581 11.641910 -18.363091 42.625760 0.307464 2.016173 0.004223 -0.007164 253525.000000 0 0 1
36.617531 12.443710 -17.218191 42.333859 0.327585 1.989661 0.015463 -0.005383 15239.700000 0 0 1
-36.315013 11.684110 -15.964491 41.354124 -0.311283 1.967135 0.013141 -0.010643 -245921.000000 0 0 1
36.345661 10.559510 -15.696591 40.974301 0.282746 1.963929 0.018446 -0.014656 260995.000000 0 0 1
-36.552053 9.631210 -14.818791 40.600608 -0.257637 1.944418 0.023055 -0.019563 -362101.000000 0 0 1
36.100731 8.363510 -14.681591 39.859255 0.227655 1.948015 0.058350 -0.014014 -20823.800000 0 0 1
34.991531 8.472710 -13.804991 38.558681 0.237564 1.936949 0.089729 -0.018309 598000.000000 0 0 1
35.328451 8.257110 -12.441491 38.354531 0.229602 1.901154 0.082749 -0.020002 -168914.000000 0 0 1
34.197111 8.805310 -11.524691 37.145584 0.252013 1.886260 0.097770 -0.023112 -36817.300000 0 0 1
34.290391 10.205210 -11.451591 37.564827 0.289264 1.880576 0.087876 -0.030813 428294.000000 0 0 1
33.270091 10.864010 -10.708191 36.600424 0.315624 1.867710 0.079399 -0.024799 -130662.000000 0 0 1
33.216841 10.603210 -9.143091 36.046952 0.308988 1.827242 0.094966 -0.025610 45334.500000 0 0 1
34.251941 11.154110 -8.320491 36.970802 0.314819 1.797797 0.090305 -0.033125 356350.000000 0 0 1
34.284241 12.581610 -8.060591 37.398920 0.351720 1.788031 0.091224 -0.028133 -544941.000000 0 0 1
33.987631 12.862410 -6.539191 36.923728 0.361787 1.748835 0.081721 -0.031612 -108814.000000 0 0 1
35.124901 12.510610 -5.781091 37.731884 0.342165 1.724617 0.089064 -0.029722 204138.000000 0 0 1
34.890041 12.658610 -4.421191 37.377832 0.348045 1.689358 0.086450 -0.030082 797691.000000 0 0 1
36.231301 12.482110 -3.607591 38.490583 0.331777 1.664661 0.083003 -0.020316 1363820.000000 0 0 1
-36.354223 13.595310 -3.580691 38.977986 -0.357865 1.662790 0.071552 -0.015092 979819.000000 0 0 1
-35.123355 13.389610 -2.883991 37.699458 -0.364210 1.647371 0.068001 -0.024941 840568.000000 0 0 1
-34.180495 14.592710 -2.602091 37.256199 -0.403505 1.640696 0.052639 -0.025751 621062.000000 0 0 1
-34.790058 15.647710 -1.791791 38.189128 -0.422667 1.617732 0.077024 -0.024415 163711.000000 0 0 1
-33.819063 16.535610 -1.373291 37.670166 -0.454763 1.607260 0.079764 -0.021941 -393439.000000 0 0 1
-34.451673 17.691410 -0.589091 38.733072 -0.474400 1.586006 0.085690 -0.017920 -76099.400000 0 0 1
-35.273547 18.551410 -1.349991 39.877317 -0.484176 1.604656 0.064383 -0.011221 317543.000000 0 0 1
-36.124453 19.238810 -0.439191 40.930439 -0.489363 1.581527 0.049017 -0.007636 269079.000000 0 0 1
36.403391 20.256410 -1.110391 41.674477 0.507776 1.597444 0.053308 -0.008800 470313.000000 0 0 1
-36.393583 21.458210 -1.453691 42.273643 -0.532749 1.605191 0.050782 -0.005780 539126.000000 0 0 1
36.340171 22.057410 -2.475091 42.582432 0.545529 1.628954 0.048308 0.002524 -176217.000000 0 0 1
-36.447413 23.289110 -2.981791 43.355365 -0.568588 1.639626 0.068574 -0.009994 -100680.000000 0 0 1
-35.178578 23.002310 -3.539091 42.180135 -0.579093 1.654799 0.054689 -0.001775 -147281.000000 0 0 1
-34.608665 24.195710 -3.994191 42.416337 -0.610137 1.665102 0.060025 -0.007970 342449.000000 0 0 1
-33.119523 24.032710 -4.431491 41.159593 -0.627725 1.678671 0.057616 -0.023992 373497.000000 0 0 1
-32.865593 23.151210 -5.535991 40.580451 -0.613687 1.707643 0.035542 -0.008999 -739695.000000 0 0 1
-31.546773 23.295410 -5.970991 39.667717 -0.636062 1.721896 0.057376 -0.004916 -529203.000000 0 0 1
-31.148693 22.406710 -7.173191 39.035323 -0.623593 1.755608 0.053346 -0.020727 -28930.000000 0 0 1
-31.869303 22.678410 -8.363391 39.998864 -0.618473 1.781441 0.050623 -0.023532 -40037.700000 0 0 1
-31.219783 22.138210 -9.482091 39.429498 -0.616813 1.813659 0.029041 -0.017547 -119701.000000 0 0 1
-32.085123 22.144110 -10.727791 40.433925 -0.604096 1.839329 0.016642 0.000130 -269576.000000 0 0 1
-32.572333 23.390010 -11.133591 41.617380 -0.622767 1.841617 0.022752 -0.000720 -93436.700000 0 0 1
-33.332783 23.239610 -12.311691 42.458588 -0.608844 1.864991 0.014206 0.003512 -576738.000000 0 0 1
-33.772143 24.621910 -12.779991 43.704969 -0.629964 1.867548 0.031322 0.001184 18696.900000 0 0 1
-32.727783 25.561910 -12.949791 43.499611 -0.663076 1.873078 0.030002 -0.005892 -272504.000000 0 0 1
-31.868993 25.318310 -14.028091 43.051561 -0.671347 1.902701 0.023317 -0.012597 112805.000000 0 0 1
-30.493393 26.084510 -13.919691 42.473598 -0.707629 1.904692 0.036112 -0.005873 802504.000000 0 0 1
-29.504233 25.564710 -13.033891 41.157460 -0.713982 1.893027 0.049440 -0.014148 211656.000000 0 0 1
-29.793243 25.416910 -11.676091 40.865484 -0.706297 1.860554 0.048510 -0.009321 -965994.000000 0 0 1
-29.912613 26.705910 -10.806791 41.530192 -0.728822 1.834041 0.060959 0.000896 -747952.000000 0 0 1
-28.715853 27.318610 -10.465791 40.993164 -0.760468 1.828960 0.066374 0.000138 -831919.000000 0 0 1
-28.895283 28.556410 -9.742091 41.776959 -0.779500 1.806156 0.056842 0.001973 603286.000000 0 0 1
-27.597703 29.443310 -9.616191 41.485092 -0.817743 1.804723 0.062913 -0.000703 589449.000000 0 0 1
-27.718043 30.681410 -8.893091 42.293332 -0.836098 1.782649 0.064759 -0.006588 -422145.000000 0 0 1
-26.647253 31.576810 -9.041291 42.295579 -0.869862 1.786223 0.068903 0.001425 -405846.000000 0 0 1
35.204821 -24.983890 -33.983951 54.940724 -0.617188 2.237701 0.057097 -0.018873 -106134.000000 0 0 1
34.795811 -23.640490 -33.942791 54.053069 -0.596770 2.249717 0.050705 -0.020026 -113939.000000 0 0 1
33.915581 -23.517490 -32.861501 52.756205 -0.606291 2.243232 0.045841 -0.013806 -224842.000000 0 0 1
33.427811 -22.028190 -32.655481 51.662754 -0.582661 2.255043 0.030017 -0.008422 103936.000000 0 0 1
32.628261 -21.626190 -33.751971 51.686469 -0.585325 2.282353 0.023005 -0.007893 -15956.500000 0 0 1
32.137471 -20.345290 -33.459071 50.658240 -0.564382 2.292263 0.011659 -0.001068 64929.300000 0 0 1
31.834221 -19.578190 33.385553 50.113055 -0.551379 0.841688 0.013088 0.002176 -583470.000000 0 0 1
32.992031 -19.306190 32.665003 50.281264 -0.529449 0.863678 0.033877 -0.008853 -370041.000000 0 0 1
32.802671 -18.726090 31.378681 49.105023 -0.518726 0.877584 0.045302 -0.002679 -443236.000000 0 0 1
34.117991 -18.700690 30.594621 49.495292 -0.501397 0.904432 0.036894 -0.002657 131893.000000 0 0 1
35.077481 -17.753190 31.115381 50.137534 -0.468527 0.901288 0.019011 -0.004044 919602.000000 0 0 1
36.135801 -17.549590 30.174681 50.242369 -0.452107 0.926567 0.031500 -0.001508 30360.600000 0 0 1
-36.307883 -16.529190 30.656831 50.312203 0.427212 0.915579 0.022631 -0.006201 -314686.000000 0 0 1
-35.330735 -16.280290 29.646041 48.910085 0.431796 0.919606 0.042667 -0.003543 20751.400000 0 0 1
-34.390456 -15.317290 29.988811 48.131607 0.419017 0.898149 0.050761 -0.006325 -83502.800000 0 0 1
-33.051203 -15.932690 30.477931 47.698395 0.449194 0.877635 0.064648 -0.013723 -550689.000000 0 0 1
-32.162693 -14.939490 30.884861 47.026608 0.434844 0.854292 0.060216 -0.013051 -100957.000000 0 0 1
-30.927793 -15.531290 31.267401 46.641180 0.465389 0.836073 0.070804 -0.023183 -50903.300000 0 0 1
-29.956313 -14.578190 31.948421 46.158487 0.452909 0.806338 0.071778 -0.028611 -453951.000000 0 0 1
-30.429493 -14.056790 33.179017 47.163488 0.432744 0.790501 0.081368 -0.032042 62782.100000 0 0 1
-29.609703 -13.077290 33.767684 46.776132 0.415893 0.764252 0.078987 -0.030352 -332787.000000 0 0 1
-30.016233 -12.673090 -32.967931 46.351547 0.399503 2.362083 0.064963 -0.017004 -366934.000000 0 0 1
-29.784223 -13.681390 -31.960481 45.779392 0.430602 2.343594 0.082420 -0.014579 301418.000000 0 0 1
-29.858853 -13.123690 -30.653301 44.759437 0.414108 2.325188 0.080440 -0.009507 -376735.000000 0 0 1
-30.048953 -14.194390 -29.553521 44.472811 0.441305 2.297661 0.079512 -0.009202 8090.040000 0 0 1
-31.318783 -14.816190 -29.601981 45.570417 0.441878 2.277838 0.071385 -0.013477 131229.000000 0 0 1
-31.478083 -15.649590 -28.445401 45.220794 0.461372 2.251106 0.072502 -0.014724 294068.000000 0 0 1
-32.753433 -16.506990 -28.404731 46.390698 0.466824 2.229755 0.055517 -0.020106 -285050.000000 0 0 1
-32.522623 -17.596390 -29.292201 47.174008 0.495946 2.240737 0.054197 -0.015934 252960.000000 0 0 1
-33.698763 -18.319290 -29.562191 48.426503 0.497931 2.227431 0.040924 -0.020468 -298342.000000 0 0 1
-33.487483 -19.551090 -30.424351 49.287907 0.528447 2.236075 0.045463 -0.017965 -11842.900000 0 0 1
-34.604554 -20.383990 -30.244271 50.276218 0.532333 2.216252 0.027847 -0.017884 -72395.400000 0 0 1
-34.250937 -21.685990 -30.689001 50.845094 0.564439 2.218778 0.026320 -0.018871 358596.000000 0 0 1
-35.458748 -22.634290 -30.975521 52.240949 0.568126 2.205496 0.029156 -0.014257 283344.000000 0 0 1
-36.033868 -23.159690 -29.777421 52.168052 0.571240 2.178274 0.024496 -0.015146 -143826.000000 0 0 1
36.502811 -24.169590 -30.105311 53.131479 -0.584855 2.173193 0.046187 -0.016009 130761.000000 0 0 1
-36.424313 -25.531060 -30.610591 53.996054 0.611353 2.173539 0.039150 -0.010904 -7060.080000 0 0 1
-35.844057 -25.647380 -31.876061 54.393637 0.621071 2.196941 0.049107 -0.013167 -149539.000000 0 0 1
-35.098308 -26.863000 -32.054491 54.598556 0.653262 2.198261 0.046737 -0.009493 473078.000000 0 0 1
-35.536613 -27.624010 -33.359341 56.024837 0.660770 2.208608 0.066381 -0.017805 265731.000000 0 0 1
36.631861 -28.120130 -33.336801 56.955924 -0.654696 2.196057 0.067363 -0.014397 -647373.000000 0 0 1
36.539241 -29.388080 -33.997801 57.919132 -0.677350 2.198129 0.057108 -0.008206 96952.000000 0 0 1
-36.295623 -30.622510 -33.388541 58.050883 0.700823 2.183596 0.055270 -0.010702 43261.100000 0 0 1
36.567961 -30.974140 -32.153371 57.710072 -0.702767 2.161750 0.071072 -0.015415 -43740.900000 0 0 1
-36.154233 -31.884600 -31.377421 57.517813 0.722727 2.147812 0.069510 -0.023215 -181432.000000 0 0 1
36.698021 -32.193300 -30.038761 57.319111 -0.720102 2.122410 0.054582 -0.026197 -415135.000000 0 0 1
35.558511 -32.968000 -30.231331 57.142192 -0.747613 2.128282 0.066616 -0.018132 -544901.000000 0 0 1
34.938221 -33.266160 -29.024011 56.300177 -0.760888 2.112414 0.067771 -0.021933 312288.000000 0 0 1
33.730851 33.984281 -29.121621 56.042577 0.789141 2.117219 0.070197 -0.023006 858708.000000 0 0 1
32.555991 -33.818340 -29.817911 55.611874 -0.804414 2.136700 0.072451 -0.021609 266233.000000 0 0 1
31.469221 33.593417 -29.396571 54.616737 0.818035 2.139136 0.050350 -0.013999 761360.000000 0 0 1
30.211271 33.984330 -30.259581 54.619574 0.844105 2.157965 0.016861 -0.004532 506381.000000 0 0 1
30.155941 33.197420 -31.430031 54.765832 0.833369 2.182055 0.032079 -0.008054 27366.100000 0 0 1
28.874271 33.366147 -32.003481 54.509138 0.857443 2.198295 0.035378 0.003076 154487.000000 0 0 1
28.763011 32.614494 -33.384081 54.822558 0.848067 2.225530 0.036100 -0.005571 -18544.300000 0 0 1
28.600431 31.228832 -33.244131 53.836761 0.829302 2.236355 0.033892 -0.011183 95394.900000 0 0 1
28.296181 30.530772 33.667156 53.537644 0.823366 0.890723 0.037346 -0.005641 50101.900000 0 0 1
28.287281 28.978802 33.807161 52.752871 0.797473 0.875179 0.036381 -0.036335 -237178.000000 0 0 1
29.586071 28.460982 33.886638 53.232202 0.766018 0.880739 0.044571 -0.033755 -541944.000000 0 0 1
29.693981 27.115282 -33.776571 52.515024 0.740037 2.269439 0.045487 -0.042897 -720728.000000 0 0 1
31.145041 26.705332 -33.659791 53.067597 0.708804 2.257875 0.080494 -0.048373 -741349.000000 0 0 1
31.844311 27.242542 -32.540911 53.057772 0.707674 2.231042 0.086583 -0.039201 132953.000000 0 0 1
33.063981 26.494352 -32.498861 53.398067 0.675537 2.225110 0.088616 -0.037385 580776.000000 0 0 1
33.947501 26.852892 -31.247411 53.384561 0.669237 2.196079 0.081464 -0.030894 -161390.000000 0 0 1
34.686591 28.111392 -31.257001 54.501469 0.681074 2.181577 0.075215 -0.025906 329630.000000 0 0 1
34.071541 29.417312 -31.316421 54.835813 0.712221 2.178635 0.071419 -0.019408 -440197.000000 0 0 1
33.053151 29.752382 -30.220391 53.767900 0.732891 2.167662 0.067181 -0.019074 18046.300000 0 0 1
33.647581 29.947582 -28.953901 53.547603 0.727283 2.142081 0.065436 -0.015355 -428072.000000 0 0 1
32.691951 30.276532 -27.997901 52.624277 0.747058 2.131797 0.064094 -0.014554 -510104.000000 0 0 1
33.194661 30.575962 -26.580971 52.376741 0.744357 2.103072 0.061178 -0.016128 -85265.500000 0 0 1
33.899651 31.782052 -26.399061 53.443387 0.753169 2.087438 0.060403 -0.020312 56290.800000 0 0 1
34.185481 32.049692 -24.972891 53.098730 0.753164 2.060439 0.047890 -0.021394 114463.000000 0 0 1
34.354131 33.583361 -24.813191 54.071646 0.774053 2.047547 0.056316 -0.020672 -550316.000000 0 0 1
33.161681 -33.979820 -25.021221 53.669235 -0.797583 2.055800 0.057600 -0.007579 -575997.000000 0 0 1
33.204321 -32.641240 -24.575391 52.649096 -0.776847 2.056439 0.053243 -0.013578 -779485.000000 0 0 1
33.464691 -31.576230 -25.657001 52.680409 -0.756371 2.079484 0.060081 -0.014491 137750.000000 0 0 1
34.771651 -31.577130 -26.195171 53.780757 -0.737288 2.079532 0.071825 -0.023471 178159.000000 0 0 1
35.766471 -30.996800 -25.364661 53.697375 -0.714078 2.062766 0.074209 -0.028122 -649410.000000 0 0 1
-36.272083 -31.126970 -25.856601 54.342581 0.709208 2.066678 0.065423 -0.022670 -243035.000000 0 0 1
-35.749146 -32.451800 -25.913621 54.796318 0.737088 2.063385 0.057942 -0.029127 -31001.800000 0 0 1
-35.464658 -33.085190 -24.652991 54.407184 0.750701 2.041059 0.064000 -0.020487 -329084.000000 0 0 1
-34.275278 -32.697720 -23.741991 52.986958 0.761847 2.035404 0.033973 -0.019043 -31166.900000 0 0 1
-34.469852 -31.373880 -23.294091 52.106676 0.738413 2.034257 -0.010286 -0.015220 -381737.000000 0 0 1
-33.738193 -31.002360 -22.160991 50.897166 0.743165 2.021287 0.028380 -0.019462 -340471.000000 0 0 1
-33.365743 -29.544590 -22.156691 49.770218 0.724733 2.032171 0.026771 -0.007393 958502.000000 0 0 1
-34.538024 -28.674440 -22.149191 50.056820 0.692903 2.029160 0.008303 0.002597 761157.000000 0 0 1
-34.789397 -28.260180 -23.499391 50.607917 0.682209 2.053688 0.012996 -0.000809 -299570.000000 0 0 1
-35.996669 -27.340900 -23.668391 51.024286 0.649579 2.053150 0.010989 -0.000005 -328416.000000 0 0 1
-35.838093 -26.034310 -23.187991 49.998371 0.628253 2.053048 -0.002812 0.000729 -314006.000000 0 0 1
36.673531 -25.122310 -23.678091 50.365964 -0.600605 2.060224 0.015658 0.002006 204933.000000 0 0 1
-36.546703 -24.815390 -25.186621 50.851066 0.596496 2.088978 0.018799 0.002593 -817901.000000 0 0 1
-35.451128 -23.988190 -25.362341 49.754036 0.594886 2.105696 0.004948 0.001129 -760293.000000 0 0 1
-35.501949 -23.244690 -26.567971 50.065568 0.579703 2.130180 0.017245 -0.003371 525644.000000 0 0 1
-34.298272 -22.242990 -26.757661 48.857901 0.575332 2.150365 0.016596 -0.015514 381112.000000 0 0 1
-34.187157 -21.015290 -26.051601 47.844436 0.551168 2.146597 0.018570 -0.005884 49733.200000 0 0 1
-35.137454 -19.988890 -26.314001 48.235081 0.517221 2.147826 0.025290 -0.004199 500835.000000 0 0 1
-36.330713 -19.851790 -25.302611 48.520474 0.500090 2.119385 0.032120 -0.014695 386694.000000 0 0 1
-35.989292 -19.365090 -24.021391 47.405306 0.493645 2.102176 0.031361 -0.019335 -184686.000000 0 0 1
-35.336509 -20.274290 -23.129491 46.847509 0.520894 2.087157 0.004141 -0.010904 -262258.000000 0 0 1
-36.178583 -21.384790 -22.504691 47.672426 0.533842 2.062433 0.011176 -0.005826 -623208.000000 0 0 1
36.415881 -20.991890 -21.551091 47.235848 -0.522922 2.044566 0.015300 -0.000834 -636195.000000 0 0 1
35.935211 -22.143590 -20.797891 47.055608 -0.552252 2.028607 0.016430 0.006811 777126.000000 0 0 1
34.773381 -21.809990 -19.767991 45.559161 -0.560182 2.019610 0.019870 0.000931 1244070.000000 0 0 1
33.516721 -21.482590 -20.362891 44.715988 -0.569988 2.043598 0.031809 0.003883 -213193.000000 0 0 1
32.452331 -21.349190 -19.487991 43.459447 -0.581883 2.035791 0.034776 0.000031 69535.100000 0 0 1
31.131581 -20.958390 -20.211491 42.625507 -0.592526 2.064811 0.039917 -0.006616 -378534.000000 0 0 1
30.626701 -21.935990 -21.092491 43.174942 -0.621541 2.081207 0.040904 -0.009023 94458.200000 0 0 1
29.353981 -21.604190 -21.611691 42.372897 -0.634473 2.106023 0.057742 -0.018968 16167.100000 0 0 1
29.290921 -20.410190 -22.644791 42.276713 -0.608581 2.136053 0.052609 -0.016826 -645006.000000 0 0 1
29.417061 -19.188590 -21.948991 41.416466 -0.577987 2.129347 0.038903 -0.009931 -42684.300000 0 0 1
29.680071 -18.090990 -22.753091 41.543877 -0.547400 2.150395 0.027072 -0.012634 -354376.000000 0 0 1
30.465241 -16.959090 -22.086591 41.274195 -0.507950 2.135445 0.016064 -0.003765 -590952.000000 0 0 1
29.772321 -16.295490 -21.067991 39.947395 -0.500796 2.126326 -0.000359 -0.012219 369748.000000 0 0 1
30.601261 -15.565890 -20.135891 39.801862 -0.470558 2.101225 -0.005412 -0.009216 243062.000000 0 0 1
31.576451 -16.336690 -19.206891 40.408716 -0.477446 2.066119 0.009898 -0.012092 -15886.600000 0 0 1
32.679411 -16.779590 -19.955591 41.805791 -0.474358 2.068422 0.009349 -0.010299 -622215.000000 0 0 1
33.535701 -17.638890 -19.268891 42.509574 -0.484210 2.041242 0.012213 -0.003492 -148134.000000 0 0 1
34.767911 -18.020690 -20.125591 44.029448 -0.478191 2.045521 0.017112 -0.008643 361752.000000 0 0 1
35.695771 -16.916690 -20.234791 44.382533 -0.442561 2.044200 0.029557 -0.012477 314620.000000 0 0 1
36.527841 -17.237390 -21.334391 45.678956 -0.440914 2.056749 0.042438 -0.007402 -496510.000000 0 0 1
-35.985988 -16.180390 -21.791691 45.074096 0.422546 2.075404 0.065122 -0.017640 -84997.400000 0 0 1
-34.981527 -15.927290 -20.799491 43.703600 0.427257 2.066808 0.077819 -0.022490 36601.100000 0 0 1
-34.423233 -14.619190 -21.073991 42.927762 0.401608 2.083939 0.084645 -0.025822 -116348.000000 0 0 1
-33.081473 -14.411690 -20.333591 41.419025 0.410850 2.083946 0.089235 -0.028857 721539.000000 0 0 1
-32.062653 -15.408190 -20.618591 41.116327 0.447979 2.096093 0.092297 -0.028018 663423.000000 0 0 1
-32.132103 -16.619890 -19.835891 41.257186 0.477341 2.072348 0.076237 -0.027636 -480128.000000 0 0 1
-30.895673 -17.525390 -19.945391 40.736968 0.515986 2.082443 0.056112 -0.035011 -37654.900000 0 0 1
-31.189933 -18.822190 -19.369191 41.258361 0.542967 2.059477 0.060947 -0.032028 317907.000000 0 0 1
-30.053523 -19.657290 -19.375191 40.804673 0.579235 2.065565 0.064164 -0.032598 243783.000000 0 0 1
-30.507993 -21.063290 -18.870891 41.599403 0.604267 2.041635 0.052361 -0.005165 194760.000000 0 0 1
-31.305423 -21.802390 -19.769691 42.967597 0.608334 2.048912 0.037115 -0.002460 80564.700000 0 0 1
-31.644843 -23.102190 -19.338891 43.693249 0.630608 2.029299 0.024012 0.013589 44416.300000 0 0 1
-32.639943 -23.837590 -20.268891 45.215313 0.630786 2.035631 0.008784 0.017497 -279664.000000 0 0 1
-32.118713 -24.339890 -21.461591 45.657878 0.648481 2.060146 0.010254 0.010352 225592.000000 0 0 1
-33.056783 -25.038390 -22.307991 47.088410 0.648243 2.064337 0.004769 0.009994 29120.100000 0 0 1
-32.629513 -24.999090 -23.788591 47.492491 0.653757 2.095425 0.008231 0.010871 1000200.000000 0 0 1
-31.392113 -25.642510 -24.204491 47.210809 0.684929 2.109111 0.024517 0.007014 770145.000000 0 0 1
-31.221613 -25.750090 -25.624011 47.900378 0.689652 2.135238 0.023938 0.010268 -139846.000000 0 0 1
-29.783063 -26.181000 -25.938071 47.384165 0.721123 2.150050 0.030949 0.002572 -77831.400000 0 0 1
-28.880233 -25.110810 -25.907861 46.215126 0.715696 2.165898 0.038813 -0.001736 36669.400000 0 0 1
-27.510683 -25.483320 -26.039931 45.654302 0.747160 2.177755 0.036384 0.000629 765209.000000 0 0 1
-26.574783 -24.300290 -26.324221 44.605916 0.740720 2.202042 0.045467 0.001514 -6995.480000 0 0 1
-26.744553 -23.832490 -27.657181 45.256804 0.727885 2.228267 0.033762 -0.001121 -303982.000000 0 0 1
-25.900463 -22.747090 -27.818621 44.296047 0.720668 2.249797 0.052051 -0.012602 -144937.000000 0 0 1
-25.818793 -22.179990 -29.192511 44.841551 0.709733 2.279717 0.022472 -0.009504 186492.000000 0 0 1
-25.074613 -23.067990 -30.039131 45.422657 0.743741 2.293380 0.031992 -0.007185 232558.000000 0 0 1
-24.941863 -22.649590 -31.340281 46.014277 0.737270 2.320059 0.025049 -0.008110 -467836.000000 0 0 1
-24.244263 -23.688690 -32.255011 46.790213 0.773808 2.331393 0.028169 -0.012299 -269181.000000 0 0 1
-24.994663 -24.858990 -32.509111 47.953570 0.782677 2.315738 0.012983 -0.010827 -413820.000000 0 0 1
-24.359763 -25.880880 -33.234961 48.659846 0.815666 2.322666 0.017170 -0.005966 -109692.000000 0 0 1
-20.502363 -14.584690 -11.354091 27.603903 0.618314 1.994700 0.050984 0.010455 819.966000 0 0 1
-20.519663 -13.974290 -10.126291 26.811921 0.597873 1.958084 0.058965 0.003685 409235.000000 0 0 1
-19.827963 -14.744690 -9.114291 26.336748 0.639413 1.924173 0.059226 -0.007032 27285.800000 0 0 1
-20.065963 -14.176490 -7.711191 25.750305 0.615071 1.874923 0.084190 -0.024954 441317.000000 0 0 1
-21.378563 -14.492490 -7.220991 26.818239 0.595738 1.843417 0.105258 -0.022429 811642.000000 0 0 1
-21.740163 -13.759290 -6.067691 26.434251 0.564258 1.802400 0.114494 -0.035795 156932.000000 0 0 1
-22.961063 -14.523690 -5.453691 27.710842 0.564000 1.768897 0.095625 -0.033996 -230008.000000 0 0 1
-22.879063 -15.887190 -4.990391 28.297674 0.606957 1.748077 0.084432 -0.033776 370976.000000 0 0 1
-22.050563 -16.073790 -3.825691 27.554128 0.629893 1.710089 0.092664 -0.033390 270633.000000 0 0 1
-21.846263 -17.574490 -3.415991 28.245193 0.677456 1.692034 0.070613 -0.027258 -420710.000000 0 0 1
-23.020763 -18.110890 -2.902691 29.434427 0.666591 1.669572 0.059812 -0.026983 -283156.000000 0 0 1
-22.762363 -19.292890 -2.154991 29.916296 0.703087 1.642893 0.043486 -0.016802 173101.000000 0 0 1
-24.019463 -20.176190 -1.923791 31.427921 0.698656 1.632047 0.026954 -0.024547 221933.000000 0 0 1
-24.357363 -20.912390 -3.114991 32.253874 0.709446 1.667524 0.019349 -0.028933 44102.800000 0 0 1
-25.368633 -21.882790 -2.944891 33.631777 0.711759 1.658471 0.034558 -0.025502 63102.500000 0 0 1
-25.127123 -23.065990 -3.911791 34.332409 0.742656 1.684983 0.034950 -0.023341 -864689.000000 0 0 1
-23.950563 -23.777290 -3.665091 33.947340 0.781768 1.678971 0.041837 -0.019921 -838716.000000 0 0 1
-23.767963 -24.729390 -4.665691 34.615422 0.805220 1.705994 0.051941 -0.025907 -254442.000000 0 0 1
-22.360863 -24.663690 -5.282191 33.707675 0.834330 1.728151 0.049352 -0.013762 -207695.000000 0 0 1
-22.066563 -23.477290 -5.980091 32.770075 0.816363 1.754311 0.039464 -0.004714 77129.900000 0 0 1
-21.714763 -22.355390 -5.145191 31.587456 0.799934 1.734413 0.035440 -0.011273 -857570.000000 0 0 1
-21.691763 -20.993890 -5.853691 30.749662 0.769050 1.762331 0.038492 -0.002956 -423754.000000 0 0 1
-20.543563 -20.592690 -6.544191 29.814817 0.786592 1.792093 0.035677 0.002673 -348366.000000 0 0 1
-20.761763 -19.386490 -7.266291 29.320399 0.751157 1.821230 0.031686 0.003903 -133844.000000 0 0 1
-19.501063 -18.911990 -7.987591 28.315304 0.770064 1.856773 0.050362 0.005182 -525293.000000 0 0 1
-19.248863 -19.719590 -9.114391 29.025042 0.797477 1.890219 0.042978 0.005776 424536.000000 0 0 1
-18.079063 -19.441090 -9.915791 28.339573 0.821683 1.928252 0.076840 0.004597 538311.000000 0 0 1
-17.928863 -17.993090 -10.580191 27.516102 0.787186 1.965472 0.085322 0.007654 -254716.000000 0 0 1
-17.642263 -16.982090 -9.607591 26.304878 0.766334 1.944687 0.092199 -0.007591 840508.000000 0 0 1
-16.317363 -16.984590 -9.037991 25.227325 0.805431 1.937202 0.125053 -0.010573 526694.000000 0 0 1
-15.998963 -15.774390 -8.052891 23.867284 0.778330 1.914953 0.112773 -0.019920 -46478.800000 0 1 0
-16.521163 -16.046390 -6.787191 24.010444 0.770821 1.857380 0.080167 -0.016130 238949.000000 0 1 0
-16.761363 -14.850490 -6.129091 23.217366 0.725024 1.837950 0.101815 -0.026842 -199437.000000 0 1 0
-17.049363 -15.000590 -4.644691 23.179121 0.721561 1.772545 0.082812 -0.027162 327362.000000 0 1 0
-17.797063 -13.832390 -4.199891 22.928357 0.660701 1.755011 0.108042 -0.027819 730651.000000 0 1 0
-18.177063 -13.917190 -2.828391 23.067154 0.653439 1.693721 0.095538 -0.034855 555669.000000 0 1 0
-19.094163 -12.667390 -2.414991 23.040877 0.585749 1.675803 0.109700 -0.035391 229048.000000 0 1 0
-20.361963 -12.653290 -3.035491 24.164633 0.556019 1.696746 0.132324 -0.042946 -108123.000000 0 1 0
-21.208163 -12.034290 -2.100591 24.474942 0.516132 1.656728 0.134301 -0.031706 655562.000000 0 1 0
-22.736763 -12.228390 -2.474591 25.934871 0.493447 1.666357 0.108456 -0.027597 1027610.000000 0 0 1
-23.219163 -11.411390 -3.543791 26.113365 0.456796 1.706924 0.118408 -0.041045 251701.000000 0 0 1
-24.557363 -11.769390 -3.818591 27.498441 0.446919 1.710112 0.100140 -0.031080 -219334.000000 0 0 1
-25.220293 -11.051090 -4.988891 27.983545 0.412983 1.750034 0.110250 -0.041593 -150430.000000 0 0 1
-24.717263 -11.473890 -6.263291 27.961081 0.434604 1.796713 0.100398 -0.047264 464802.000000 0 0 1
-25.214333 -10.723790 -7.374291 28.375032 0.402129 1.833701 0.111885 -0.045760 -171476.000000 0 0 1
-24.422963 -11.230690 -8.582791 28.218324 0.431008 1.879849 0.128292 -0.046611 -396786.000000 0 0 1
-23.226763 -10.554090 -8.791891 26.984601 0.426502 1.902666 0.124563 -0.043975 -311007.000000 0 0 1
-22.377363 -11.209490 -9.705091 26.843767 0.464391 1.940715 0.084311 -0.032591 1268520.000000 0 0 1
-20.932063 -10.546990 -9.877791 25.435428 0.466737 1.969634 0.089896 -0.039731 1154410.000000 0 0 1
-20.908263 -9.189690 -10.368491 25.082095 0.414108 1.996962 0.086320 -0.042714 1104280.000000 0 0 1
-19.670563 -8.599690 -9.905291 23.643192 0.412147 2.003084 0.089037 -0.038231 633240.000000 0 1 0
-19.519563 -7.213290 -10.464191 23.292578 0.353977 2.036722 0.067423 -0.038345 -134956.000000 0 1 0
-19.129763 -7.164290 -11.819291 23.600223 0.358341 2.095334 0.079198 -0.034880 382483.000000 0 1 0
-19.273263 -5.869990 -12.369491 23.641484 0.295641 2.121411 0.093666 -0.051311 -189467.000000 0 1 0
-18.585763 -5.869590 -13.761991 23.859486 0.305899 2.185594 0.113647 -0.044431 277541.000000 0 1 0
-19.424363 -6.467590 -14.740091 25.227086 0.321417 2.194809 0.110397 -0.048717 452956.000000 0 0 1
-18.830263 -6.430890 -16.015391 25.542668 0.329099 2.248499 0.111222 -0.051096 -278715.000000 0 0 1
-19.442963 -7.369990 -17.037391 26.881560 0.362323 2.257246 0.098521 -0.042840 -309304.000000 0 0 1
-20.766463 -7.030090 -17.391091 27.984249 0.326421 2.241401 0.093708 -0.045195 390101.000000 0 0 1
-21.236563 -7.834790 -18.460191 29.208803 0.353438 2.254938 0.090087 -0.040941 569606.000000 0 0 1
-22.693963 -7.558190 -19.001091 30.548055 0.321494 2.242099 0.073960 -0.035945 -279750.000000 0 0 1
-22.795463 -6.322490 -19.701191 30.785450 0.270557 2.265231 0.080304 -0.039014 130427.000000 0 0 1
-23.988663 -6.162690 -20.429591 32.106119 0.251462 2.260508 0.064669 -0.035163 -156979.000000 0 0 1
-25.212883 -5.907990 -19.543491 32.442902 0.230171 2.217296 0.087634 -0.032055 -1139780.000000 0 0 1
-25.439793 -4.619390 -18.976891 32.072484 0.179624 2.203947 0.083889 -0.027537 506293.000000 0 0 1
-26.687883 -4.478190 -18.310091 32.673487 0.166250 2.165660 0.107791 -0.017100 34467.000000 0 0 1
-26.796293 -2.984990 -17.868091 32.345327 0.110938 2.156057 0.083659 -0.013748 -29556.400000 0 0 1
-26.930253 -2.002790 -18.897591 32.960107 0.074233 2.181382 0.083738 -0.015558 1254340.000000 0 0 1
-28.296123 -1.930090 -19.383591 34.352866 0.068105 2.170320 0.086073 -0.013691 1042940.000000 0 0 1
-28.600413 -0.730290 -20.370191 35.120673 0.025529 2.189532 0.086911 -0.011533 -275504.000000 0 0 1
-28.061543 -0.770790 -21.649791 35.450780 0.027461 2.227741 0.096559 -0.012351 66283.100000 0 0 1
-28.763943 -1.578590 -22.560391 36.589993 0.054826 2.235178 0.105358 -0.007620 -232654.000000 0 0 1
-28.083553 -1.482890 -23.926591 36.923796 0.052754 2.275751 0.101941 -0.009067 -543967.000000 0 0 1
-28.117093 -0.258990 -24.691391 37.420620 0.009211 2.291394 0.108532 -0.010157 41023.200000 0 0 1
-27.436633 0.867410 -24.259491 36.633921 -0.031605 2.294566 0.101741 -0.002865 259054.000000 0 0 1
-25.925443 0.785710 -23.873391 35.251734 -0.030297 2.314782 0.095766 -0.007297 186989.000000 0 0 1
-25.017763 0.365810 -24.884391 35.288174 -0.014621 2.353468 0.085649 -0.007062 93279.800000 0 0 1
-23.725363 0.486210 -24.307891 33.970617 -0.020490 2.368217 0.066249 -0.005820 612851.000000 0 0 1
-22.557863 0.022010 -25.267651 33.871992 -0.000976 2.412794 0.058457 -0.004994 427128.000000 0 0 1
-22.359563 0.835910 -26.399771 34.606310 -0.037368 2.438521 0.035423 -0.000351 23060.900000 0 0 1
-21.534563 0.233210 -27.366201 34.823853 -0.010829 2.474860 0.025057 -0.004921 -327526.000000 0 0 1
-21.307563 0.978710 -28.652591 35.720318 -0.045900 2.501662 0.011786 0.017171 -142375.000000 0 0 1
-20.401663 2.076110 -28.511921 35.120759 -0.101413 2.518068 0.019259 0.018818 414603.000000 0 0 1
-20.447863 3.036710 -29.511981 36.031843 -0.147432 2.530554 -0.000754 0.022576 -264160.000000 0 0 1
-19.894563 2.597710 -30.859011 36.807884 -0.129839 2.565102 -0.013332 0.023549 620446.000000 0 0 1
-18.504963 2.246310 -30.701311 35.917267 -0.120799 2.595920 -0.020513 0.030538 944879.000000 0 0 1
-17.957363 1.588510 -31.870761 36.616057 -0.088230 2.626819 -0.025129 0.021972 1734480.000000 0 0 1
-16.375063 1.563610 -32.046371 36.021625 -0.095199 2.667358 -0.005402 0.004283 1453190.000000 0 0 1
-15.868163 2.846110 -32.337081 36.132890 -0.177473 2.679112 0.004800 0.008875 310129.000000 0 0 1
-14.458563 2.842810 -32.539481 35.720434 -0.194141 2.716374 0.023944 -0.002898 458786.000000 0 0 1
-13.781863 4.166910 -32.930891 35.940875 -0.293609 2.729418 0.042765 -0.002824 -155704.000000 0 0 1
-13.503263 5.133310 -31.870101 34.991318 -0.363281 2.716015 0.067578 -0.022679 105149.000000 0 0 1
-12.922463 6.292610 -32.342371 35.392315 -0.453154 2.723401 0.078471 -0.011726 -435699.000000 0 0 1
-12.579063 7.253310 -31.231091 34.441608 -0.523049 2.706388 0.076420 -0.016660 323817.000000 0 0 1
-11.379763 6.916910 -30.525021 33.303447 -0.546154 2.730219 0.102813 -0.038056 511916.000000 0 0 1
-11.606263 6.046710 -29.412751 32.192825 -0.480296 2.722954 0.106633 -0.042025 271768.000000 0 0 1
-10.389763 5.134410 -29.031211 31.258927 -0.458981 2.761778 0.132683 -0.052374 54863.900000 0 0 1
-9.904763 4.206110 -29.995201 31.867033 -0.401579 2.797142 0.110927 -0.057386 -36335.100000 0 0 1
-10.783863 3.191210 -30.436351 32.447604 -0.287714 2.787655 0.115104 -0.053032 -423078.000000 0 0 1
-10.404863 2.623110 -31.788371 33.550595 -0.246958 2.816045 0.101092 -0.043850 -59580.100000 0 0 1
-11.093463 1.407510 -32.035611 33.931201 -0.126203 2.805754 0.109685 -0.036747 403413.000000 0 0 1
-10.609763 0.781810 -33.243831 34.904593 -0.073555 2.831876 0.095967 -0.026252 -145064.000000 0 0 1
-11.084063 1.433510 33.626304 35.435007 -0.128617 0.320883 0.099759 -0.026496 448589.000000 0 0 1
-12.491563 1.412910 33.386806 35.675121 -0.112630 0.360114 0.050920 -0.022484 289190.000000 0 0 1
-12.679663 1.685910 31.993701 34.455958 -0.132186 0.380339 0.037364 -0.006412 -253169.000000 0 0 1
-14.085063 1.396610 31.450631 34.488863 -0.098832 0.422890 0.024481 -0.007001 -85430.600000 0 0 1
-15.035063 2.389410 31.835621 35.288371 -0.157605 0.446055 0.020442 0.005126 -177270.000000 0 0 1
-16.309863 1.866410 31.527731 35.545646 -0.113939 0.480066 0.004921 0.007919 -78975.500000 0 0 1
-17.277263 3.013510 31.086861 35.692828 -0.172683 0.513653 0.010379 0.009408 -162504.000000 0 0 1
-17.824963 3.727010 32.239523 37.027108 -0.206120 0.514171 -0.001489 0.013115 454959.000000 0 0 1
-16.946063 4.679410 32.814378 37.226997 -0.269422 0.491836 0.003142 0.015941 -3836.920000 0 0 1
-17.623463 5.243110 -34.053844 38.700658 -0.289168 2.646510 0.002271 0.019668 1273580.000000 0 0 1
-18.839763 6.010710 33.870698 39.221034 -0.308835 0.528459 -0.009363 0.020553 516752.000000 0 0 1
-19.855263 5.578610 -33.411391 39.264149 -0.273902 2.588566 -0.014318 0.021046 -197069.000000 0 0 1
-21.167263 6.384710 -33.571121 40.197484 -0.292953 2.559210 -0.008521 0.021501 -136056.000000 0 0 1
-21.164963 7.705610 -33.126991 40.059077 -0.349157 2.544464 -0.000945 0.021345 63375.400000 0 0 1
-20.801263 8.690110 -34.039773 40.827891 -0.395729 2.556640 -0.015046 0.018111 -389376.000000 0 0 1
-20.570063 9.988110 -33.259141 40.361619 -0.452033 2.539282 0.001660 0.002790 -208222.000000 0 0 1
-19.338163 10.073210 -32.542891 39.172361 -0.480226 2.551271 0.011536 -0.000477 536710.000000 0 0 1
-18.922663 11.361110 -32.175321 39.017858 -0.540711 2.540345 0.038481 -0.005039 -305968.000000 0 0 1
-18.205463 12.123810 -33.314061 39.852883 -0.587502 2.560614 0.026798 -0.019565 -194823.000000 0 0 1
-19.072863 12.502910 33.731432 40.717396 -0.580256 0.594501 0.027929 -0.017462 699318.000000 0 0 1
-18.366563 12.526410 32.489373 39.367511 -0.598558 0.600092 0.035241 -0.018527 708387.000000 0 0 1
-19.245963 11.848310 31.324961 38.626969 -0.551830 0.625004 0.025212 -0.021413 381360.000000 0 0 1
-19.380763 10.468910 31.394171 38.351089 -0.495265 0.611828 0.008505 -0.007281 426016.000000 0 0 1
-18.217863 9.800110 30.919671 37.201596 -0.493537 0.589645 0.015376 -0.009544 425339.000000 0 0 1
-18.443863 8.269910 30.905501 36.928546 -0.421508 0.579201 0.010463 -0.002490 -190416.000000 0 0 1
-19.338163 7.805610 29.947071 36.492727 -0.383638 0.608282 0.007415 -0.004829 -69263.000000 0 0 1
-19.270163 6.360910 29.939651 36.168813 -0.318830 0.595665 0.009513 -0.000163 -236657.000000 0 0 1
-19.920963 5.839510 28.700791 35.421463 -0.285146 0.626191 0.031600 -0.009859 -1036720.000000 0 0 1
-21.268963 6.077710 28.512541 36.087011 -0.278337 0.659815 0.052197 -0.018093 -1082330.000000 0 0 1
-21.773963 5.138710 27.603041 35.530827 -0.231762 0.681108 0.056461 -0.021209 598742.000000 0 0 1
-23.332363 5.255510 27.438201 36.398825 -0.221548 0.716938 0.053729 -0.026548 652897.000000 0 0 1
-23.596063 6.354910 26.545531 36.080802 -0.263079 0.744061 0.070120 -0.025911 297975.000000 0 0 1
-24.990963 6.503310 26.381971 36.916794 -0.254580 0.774697 0.069341 -0.024308 -274953.000000 0 0 1
-25.334863 7.084410 24.998511 36.290077 -0.272666 0.810891 0.066103 -0.020813 -392331.000000 0 0 1
-25.404233 6.123310 23.884891 35.402797 -0.236523 0.830291 0.055176 -0.016594 594803.000000 0 0 1
-26.478273 5.190110 23.945991 36.075569 -0.193560 0.844944 0.048018 -0.013002 -173622.000000 0 0 1
-26.514103 4.412610 22.611091 35.124496 -0.164914 0.871419 0.055561 -0.019184 -116475.000000 0 0 1
-27.107993 5.152410 21.539491 35.004861 -0.187829 0.907994 0.053683 -0.013552 303651.000000 0 0 1
-26.822413 4.463610 20.366991 33.973225 -0.164902 0.927919 0.062467 -0.017063 -237627.000000 0 0 1
-27.496203 5.146710 19.155391 33.903670 -0.185038 0.970370 0.119252 -0.030787 -600907.000000 0 0 1
-28.830843 4.748810 19.075191 34.894579 -0.163247 0.992436 0.138395 -0.032114 -655936.000000 0 0 1
-29.393463 5.354210 17.933791 34.846293 -0.180181 1.030192 0.147112 -0.029733 566596.000000 0 0 1
-30.952343 5.451210 18.059491 36.247875 -0.174329 1.049249 0.156877 -0.029686 696193.000000 0 0 1
-31.473463 6.385510 18.967391 37.297661 -0.200169 1.037307 0.158315 -0.024134 -129172.000000 0 0 1
-32.868723 6.400110 19.122091 38.561234 -0.192311 1.051938 0.168767 -0.029970 116427.000000 0 0 1
-33.434133 7.426710 20.152591 39.738196 -0.218581 1.038940 0.177037 -0.018744 119372.000000 0 0 1
-33.223193 7.094310 21.500491 40.204240 -0.210375 1.006547 0.126221 -0.027298 -45872.200000 0 0 1
-33.822583 8.006410 22.365191 41.331241 -0.232439 0.999027 0.142961 -0.028613 2571.140000 0 0 1
-0.055163 32.298910 11.520409 34.292018 -1.569088 1.228182 0.065427 -0.011610 -17425.500000 0 0 1
-0.580863 32.500010 12.827509 34.944714 -1.552926 1.194928 0.048553 -0.011426 256141.000000 0 0 1
-0.520463 33.887710 13.174009 36.362100 -1.555439 1.200061 0.054731 -0.017946 -394751.000000 0 0 1
-0.619663 -33.984481 14.662209 37.017690 1.552565 1.163545 0.042631 -0.009825 398676.000000 0 0 1
-1.857963 -33.920381 15.350209 37.278321 1.516077 1.146397 0.017571 -0.000794 -54604.000000 0 0 1
-1.511263 -33.658181 16.647309 37.580447 1.525926 1.111879 0.018099 -0.016899 515842.000000 0 0 1
-2.669263 -33.484381 17.700509 37.968892 1.491248 1.085823 0.014146 -0.002514 248430.000000 0 0 1
-3.316663 33.521710 18.058409 38.220563 -1.472177 1.078695 0.003754 0.000101 -181978.000000 0 0 1
-4.076563 33.828010 19.191909 39.106036 -1.450866 1.057828 0.008527 -0.000309 83084.000000 0 0 1
-5.158463 32.743310 19.585409 38.500940 -1.414538 1.037123 0.011917 -0.004154 -176923.000000 0 0 1
-6.187063 32.814510 18.673609 38.259319 -1.384438 1.060908 0.018768 -0.009278 -673158.000000 0 0 1
-7.209463 31.875710 19.022109 37.813727 -1.348365 1.043675 0.026153 -0.019110 226358.000000 0 0 1
-8.291463 31.823310 17.919909 37.451230 -1.315916 1.071866 0.014567 -0.025947 -353491.000000 0 0 1
-9.016863 33.031510 17.787509 38.584712 -1.304311 1.091676 0.031358 -0.022221 9167.900000 0 0 1
-9.827163 33.082610 16.627109 38.307871 -1.282049 1.121825 0.040488 -0.017284 89072.400000 0 0 1
-10.832963 -33.982381 16.501909 39.299725 1.262199 1.137462 0.081896 -0.022503 57987.500000 0 0 1
-12.007063 34.035510 17.245109 39.999742 -1.231647 1.125051 0.071791 -0.023112 -301442.000000 0 0 1
-13.039363 -33.327981 16.834109 39.549546 1.197861 1.131121 0.055816 -0.029293 10286.300000 0 0 1
-14.358763 -33.506581 17.604209 40.481765 1.165935 1.120905 0.082641 -0.026001 -273104.000000 0 0 1
-14.311163 -33.146081 18.960009 40.779334 1.163214 1.087228 0.060263 -0.019510 133964.000000 0 0 1
-15.558463 -33.235681 19.638209 41.621335 1.132972 1.079431 0.055538 -0.023562 336819.000000 0 0 1
-15.467963 -32.732281 21.076109 41.891079 1.129341 1.043595 0.043828 -0.027117 -140232.000000 0 0 1
-15.108863 -31.373581 21.191209 40.763301 1.121994 1.024109 0.076014 -0.024687 100165.000000 0 0 1
-15.135263 -30.924281 22.531309 41.146656 1.115641 0.991320 0.036123 -0.014024 73128.600000 0 0 1
-14.965263 -29.412181 22.746509 40.080409 1.100124 0.967303 0.052370 -0.018805 -198983.000000 0 0 1
-14.735463 -28.971781 24.093809 40.459976 1.100281 0.932912 0.051330 -0.015254 -112976.000000 0 0 1
-14.787863 -27.571881 24.300209 39.615524 1.078502 0.910436 0.038652 -0.013404 -140994.000000 0 0 1
-16.134763 -26.894181 23.994809 39.488966 1.030425 0.917719 0.054730 -0.010812 -453243.000000 0 0 1
-17.100363 -27.030781 24.982009 40.585544 1.006732 0.907726 0.070393 -0.008799 242686.000000 0 0 1
-18.275863 -26.255181 24.717909 40.426684 0.962702 0.912935 0.067511 -0.009635 447654.000000 0 0 1
-19.381063 -26.161381 25.847409 41.570808 0.933192 0.899798 0.059692 -0.005343 993919.000000 0 0 1
-20.146863 -27.360781 26.132809 42.865279 0.936094 0.915178 0.078362 -0.004936 779329.000000 0 0 1
-20.945463 -27.860981 25.047309 42.922190 0.926154 0.947701 0.080484 -0.010664 658691.000000 0 0 1
-22.423663 -27.336781 24.860709 43.222392 0.883815 0.957971 0.063433 -0.000277 851735.000000 0 0 1
-22.569163 -25.952481 24.479409 42.215399 0.855014 0.952228 0.078968 -0.007859 777555.000000 0 0 1
-23.827063 -25.707081 23.815509 42.376426 0.823334 0.973996 0.068343 -0.001164 702127.000000 0 0 1
-24.034563 -24.273681 23.302909 41.350906 0.790348 0.972131 0.062439 0.008842 -83527.000000 0 0 1
-24.519163 -23.528481 24.405409 41.837816 0.764782 0.947969 0.059762 0.005925 45691.800000 0 0 1
-24.984763 -22.256481 24.023909 41.191475 0.727710 0.948103 0.058491 0.005702 -110974.000000 0 0 1
-25.601173 -21.526481 25.210609 41.885371 0.699152 0.924924 0.052150 0.006995 -468552.000000 0 0 1
-26.743413 -22.169381 25.686709 43.202994 0.692155 0.934080 0.042477 0.011705 -338061.000000 0 0 1
-27.112853 -21.475881 26.857209 43.790752 0.669901 0.910555 0.028646 0.004763 189954.000000 0 0 1
-28.304583 -22.099881 27.689109 45.345793 0.662916 0.913951 0.036339 -0.002779 2184790.000000 0 0 1
-29.689703 -21.857681 27.311609 45.882031 0.634613 0.933211 0.039209 0.001552 1604020.000000 0 0 1
-30.172933 -22.487081 26.147109 45.822986 0.640469 0.963546 0.035939 0.001216 -414330.000000 0 0 1
-31.717733 -22.596281 26.265309 46.973110 0.619012 0.977429 0.055864 -0.005490 308425.000000 0 0 1
-32.417023 -23.177581 25.168709 47.133084 0.620710 1.007481 0.044584 -0.003774 282627.000000 0 0 1
-32.182593 -24.573781 24.895309 47.532794 0.652132 1.019549 0.050379 -0.009563 -659508.000000 0 0 1
-32.686343 -25.030781 23.529609 47.419190 0.653529 1.051575 0.046441 -0.004483 -86492.700000 0 0 1
-34.054943 -25.231481 23.267409 48.350172 0.637655 1.068742 0.055906 -0.011201 -77758.000000 0 0 1
-34.164444 -25.943181 22.074409 48.244559 0.649466 1.095556 0.057450 -0.005007 1752830.000000 0 0 1
-35.440626 -26.967081 22.049309 49.693395 0.650446 1.111065 0.054882 -0.010297 1570550.000000 0 0 1
-35.261540 -28.170081 22.796709 50.563027 0.674064 1.103071 0.047239 -0.011554 581343.000000 0 0 1
-34.339524 -29.154881 22.255309 50.244491 0.703924 1.111921 0.041084 -0.008338 152960.000000 0 0 1
-34.805535 -30.014481 21.081109 50.563896 0.711619 1.140742 0.035363 -0.007901 -460185.000000 0 0 1
-35.178075 -29.342781 19.890209 49.941128 0.695203 1.161163 0.018655 0.002727 414246.000000 0 0 1
-35.576544 -30.344281 18.963809 50.458815 0.706192 1.185507 0.026618 0.005306 -309751.000000 0 0 1
-36.315323 -29.916181 17.674209 50.260902 0.689079 1.211464 0.024189 0.014227 -539962.000000 0 0 1
-35.520900 -29.243081 16.716909 48.952500 0.688766 1.222292 0.054922 0.004847 -138592.000000 0 0 1
-36.172183 -28.934881 15.503309 48.846769 0.674693 1.247824 0.052561 0.013443 -31145.900000 0 0 1
-36.610803 -30.084881 14.613409 49.588333 0.687862 1.271661 0.034916 0.014616 261682.000000 0 0 1
-35.531292 -30.836481 14.061709 49.102882 0.714776 1.280358 0.029015 0.001732 216199.000000 0 0 1
-35.978075 -31.641281 12.988909 49.641760 0.721350 1.306062 0.023277 0.001877 133817.000000 0 0 1
-36.106003 -30.919781 11.630209 48.938105 0.708176 1.330849 0.024710 0.003785 264880.000000 0 0 1
36.304151 -30.011081 11.435709 48.470938 -0.690785 1.332622 0.011893 0.006299 120635.000000 0 0 1
36.399271 -29.489981 10.187809 47.941187 -0.680918 1.356657 0.005591 0.004093 -47773.300000 0 0 1
35.255641 -28.589981 9.661109 46.407805 -0.681372 1.361084 0.027819 0.002553 -14196.200000 0 0 1
35.687191 -27.556881 8.786709 45.936517 -0.657545 1.378331 0.026658 -0.028445 206604.000000 0 0 1
34.577881 -26.716381 8.469409 44.509840 -0.657836 1.379347 0.027178 -0.023611 377195.000000 0 0 1
34.851481 -25.565281 7.494009 43.867637 -0.632889 1.399122 0.023862 -0.018836 195255.000000 0 0 1
35.515591 -24.437381 8.112209 43.867423 -0.602678 1.384800 0.029589 -0.021382 418507.000000 0 0 1
35.963241 -23.464281 7.105609 43.524900 -0.578097 1.406808 0.042238 -0.035349 136700.000000 0 0 1
36.445241 -22.069181 7.526409 43.266052 -0.544486 1.395950 0.054606 -0.044652 158590.000000 0 0 1
35.372781 -21.370381 8.136509 42.120418 -0.543464 1.376402 0.034087 -0.029477 -48603.000000 0 0 1
35.755531 -19.987781 8.122609 41.760582 -0.509736 1.375044 0.055644 -0.042600 3578.600000 0 0 1
34.918631 -19.024081 8.961809 40.761998 -0.498851 1.349128 0.049872 -0.032172 -197091.000000 0 0 1
35.193041 -19.204681 10.322209 41.399492 -0.499532 1.318806 0.038577 -0.033343 -600451.000000 0 0 1
34.367091 -18.456581 11.124709 40.564782 -0.492840 1.292991 0.054278 -0.024390 -641870.000000 0 0 1
34.739941 -18.573581 12.591309 41.356771 -0.490979 1.261429 0.051236 -0.035671 -207441.000000 0 0 1
35.903201 -17.860681 12.903209 42.125249 -0.461620 1.259486 0.021669 -0.023397 -99905.100000 0 0 1
36.346271 -18.172081 14.195609 43.044062 -0.463624 1.234713 0.011554 -0.008764 127318.000000 0 0 1
-35.838596 -17.534181 14.786509 42.549893 0.455014 1.215882 0.037623 -0.012397 843348.000000 0 0 1
-34.699514 -17.984781 14.040009 41.528671 0.478181 1.225920 0.036365 -0.013714 463606.000000 0 0 1
-33.492753 -17.500781 14.610109 40.515394 0.481504 1.201878 0.043657 -0.016150 107278.000000 0 0 1
-32.280573 -17.634381 13.676109 39.243379 0.499986 1.214832 0.052984 -0.020924 -417684.000000 0 0 1
-31.777843 -18.963081 13.534909 39.403345 0.538018 1.220159 0.039684 -0.013667 -345275.000000 0 0 1
-30.660613 -18.756981 12.704609 38.122233 0.549023 1.231037 0.023876 -0.007667 -452306.000000 0 0 1
-29.910983 -20.036481 12.297409 38.044103 0.590217 1.241644 0.020264 -0.007283 -135435.000000 0 0 1
-30.666433 -20.959981 11.545309 38.897881 0.599554 1.269445 0.023034 -0.008331 -571602.000000 0 0 1
-29.755923 -21.721081 10.795509 38.389626 0.630561 1.285743 0.030721 -0.007347 -404035.000000 0 0 1
-30.351403 -22.489281 9.620109 38.981046 0.637693 1.321431 0.036821 -0.015067 484324.000000 0 0 1
-31.160983 -23.661481 9.855209 40.348454 0.649446 1.324048 0.041462 -0.017734 437413.000000 0 0 1
-32.426993 -23.420381 10.448509 41.342418 0.625503 1.315295 0.054151 -0.021911 -293551.000000 0 0 1
-33.338623 -24.656881 10.380009 42.745412 0.636805 1.325511 0.070621 -0.020671 -7714.850000 0 0 1
-33.681973 -25.114681 9.065409 42.981440 0.640706 1.358286 0.073082 -0.018797 127251.000000 0 0 1
-34.608895 -26.201681 9.059809 44.343927 0.648017 1.365040 0.078305 -0.015394 504155.000000 0 0 1
-34.730162 -26.961481 7.744309 44.643924 0.660130 1.396446 0.070331 -0.021051 797926.000000 0 0 1
-33.433803 -27.514981 7.456109 43.937307 0.688590 1.400272 0.068010 -0.016979 518203.000000 0 0 1
-33.309533 -28.144881 6.176409 44.043245 0.701555 1.430097 0.062460 -0.018869 -1161550.000000 0 0 1
-31.913293 -28.358881 5.702909 43.072121 0.726494 1.438003 0.078289 -0.015360 -1124770.000000 0 0 1
-31.193663 -27.263781 5.188609 41.752606 0.718273 1.446204 0.084886 -0.013352 -57239.300000 0 0 1
-29.873513 -27.679281 4.888109 41.017838 0.747291 1.451342 0.075175 -0.016887 -47815.100000 0 0 1
-29.105353 -26.582981 4.144209 39.635224 0.740135 1.466046 0.071641 -0.015405 -168457.000000 0 0 1
-29.619713 -26.292181 2.835409 39.706999 0.725954 1.499327 0.077114 -0.012071 6309.850000 0 0 1
-28.864243 -25.307481 2.135209 38.447006 0.719835 1.515231 0.055096 -0.020780 -291705.000000 0 0 1
-29.308913 -24.854181 0.758209 38.435890 0.703336 1.551068 0.064373 -0.022813 -446643.000000 0 0 1
-29.176553 -25.806381 -0.270991 38.952715 0.724180 1.577753 0.060059 -0.026322 -139447.000000 0 0 1
-29.366273 -25.199681 -1.561391 38.727766 0.709187 1.611124 0.065897 -0.032006 3524.770000 0 0 1
-30.787333 -24.979081 -2.136891 39.703661 0.681619 1.624643 0.083325 -0.025536 139400.000000 0 0 1
-31.379513 -23.770981 -1.643391 39.400941 0.648304 1.612518 0.084673 -0.017989 -429375.000000 0 0 1
-32.652623 -23.655181 -2.215491 40.381553 0.626947 1.625688 0.104876 -0.024195 -541817.000000 0 0 1
-33.243183 -22.267081 -1.932391 40.058286 0.590185 1.619055 0.108211 -0.029950 -268530.000000 0 0 1
-33.388453 -21.992181 -0.554691 39.984404 0.582450 1.584669 0.115386 -0.034366 368030.000000 0 0 1
-33.975863 -20.720581 -0.297891 39.796866 0.547639 1.578282 0.118047 -0.031628 -201024.000000 0 0 1
-34.236647 -20.445481 1.178509 39.894293 0.538344 1.541251 0.093750 -0.034266 -295608.000000 0 0 1
-35.238844 -21.200281 1.795709 41.163730 0.541607 1.527159 0.103747 -0.035259 -105525.000000 0 0 1
-35.369474 -20.824581 3.143409 41.164839 0.532123 1.494360 0.099467 -0.039065 -525537.000000 0 0 1
-36.497933 -21.564181 3.912309 42.572517 0.533652 1.478769 0.108204 -0.030858 1580820.000000 0 0 1
35.642211 -21.497481 3.399409 41.762003 -0.542730 1.489307 0.092470 -0.025328 977720.000000 0 0 1
35.019831 -20.217381 3.368109 40.576782 -0.523570 1.487695 0.088319 -0.041168 -455859.000000 0 0 1
33.800221 -20.139581 2.416109 39.419479 -0.537356 1.509466 0.073369 -0.026815 562202.000000 0 0 1
32.724911 -20.947581 2.894509 38.962792 -0.569392 1.496439 0.066711 -0.012999 -48295.300000 0 0 1
31.520631 -20.593381 2.257809 37.719163 -0.578713 1.510902 0.083102 -0.016710 -190165.000000 0 0 1
30.204141 -21.171781 2.734409 36.986639 -0.611367 1.496799 0.064374 0.003290 -321315.000000 0 0 1
30.180291 -22.467681 2.221309 37.690594 -0.639939 1.511827 0.051630 -0.002059 -465611.000000 0 0 1
28.982091 -23.132081 2.484909 37.164897 -0.673612 1.503885 0.044724 0.010365 -343763.000000 0 0 1
28.610611 -24.337581 1.592309 37.595484 -0.704871 1.528430 0.040157 0.004967 -101494.000000 0 0 1
28.052681 -23.896081 0.377809 36.852658 -0.705555 1.560544 0.044395 0.001527 -109199.000000 0 0 1
27.274881 -24.928781 -0.150591 36.951130 -0.740487 1.574872 0.035111 0.004700 166465.000000 0 0 1
26.357781 -24.529081 -1.384291 36.032274 -0.749477 1.609224 0.031000 -0.001927 -69212.500000 0 0 1
27.076381 -23.983981 -2.434491 36.253118 -0.724908 1.637999 0.037049 -0.015070 -2807.710000 0 0 1
27.549981 -24.946781 -3.433891 37.324723 -0.735851 1.662927 0.039016 -0.014327 -51804.300000 0 0 1
26.478981 -25.533981 -4.418391 37.049195 -0.767232 1.690338 0.036652 -0.016917 305899.000000 0 0 1
26.007381 -24.621081 -5.413191 36.219942 -0.758023 1.720812 0.035857 -0.028174 784476.000000 0 0 1
24.836181 -23.902181 -5.001991 34.830591 -0.766237 1.714904 0.039687 -0.025967 115110.000000 0 0 1
24.247981 -22.991481 -6.150291 33.976446 -0.758806 1.752816 0.040466 -0.031052 -300890.000000 0 0 1
23.557681 -23.688681 -7.139491 34.162703 -0.788171 1.781333 0.032019 -0.030783 118275.000000 0 0 1
22.497881 -22.930981 -7.717191 33.038457 -0.794931 1.806556 0.027028 -0.034347 73638.500000 0 0 1
22.781681 -21.593781 -8.521291 32.525510 -0.758635 1.835878 0.026223 -0.031484 -558117.000000 0 0 1
23.557981 -21.780981 -9.681191 33.512909 -0.746225 1.863853 0.032132 -0.038097 152470.000000 0 0 1
23.226681 -20.720681 -10.532091 32.859554 -0.728437 1.897073 0.024471 -0.038935 -312078.000000 0 0 1
23.946981 -20.715581 -11.873691 33.816827 -0.713173 1.929561 0.030771 -0.032243 111645.000000 0 0 1
25.337081 -20.443381 -11.754291 34.613045 -0.678908 1.917279 0.052033 -0.040940 161495.000000 0 0 1
25.854581 -20.000781 -12.999491 35.177797 -0.658427 1.949307 0.042917 -0.037460 -962595.000000 0 0 1
27.332681 -19.653081 -13.017091 36.093818 -0.623385 1.939757 0.046589 -0.040797 -6668.250000 0 0 1
28.230381 -20.798281 -13.041491 37.411274 -0.634957 1.926871 0.047557 -0.045131 744495.000000 0 0 1
28.498811 -21.394981 -11.803891 37.540103 -0.643970 1.890657 0.066084 -0.052201 -540537.000000 0 0 1
28.518861 -22.913381 -12.013391 38.505455 -0.676839 1.888085 0.066836 -0.030881 -900423.000000 0 0 1
29.446491 -23.234881 -12.955491 39.683754 -0.668031 1.903361 0.070491 -0.041543 -449028.000000 0 0 1
29.561921 -24.617581 -13.230491 40.681426 -0.694392 1.902043 0.048628 -0.028853 -452064.000000 0 0 1
-3.239163 -9.213290 -27.751851 29.420097 1.232719 2.803219 0.050462 -0.021466 -104182.000000 0 0 1
-3.367963 -8.019090 -26.959721 28.327999 1.173174 2.829518 0.061192 -0.014022 -97819.400000 0 0 1
-4.343063 -7.144290 -27.493091 28.736268 1.024583 2.846373 0.057497 -0.013762 -2326.800000 0 0 1
-4.447663 -5.737690 -26.866841 27.830378 0.911382 2.877686 0.055994 -0.013138 -162022.000000 0 0 1
-5.117863 -5.684390 -25.601341 26.719533 0.837795 2.851267 0.044981 -0.012894 421217.000000 0 0 1
-4.954063 -4.483090 -24.929791 25.809597 0.735533 2.879739 0.050137 -0.010867 -175990.000000 0 0 1
-5.597563 -4.471890 -23.508791 24.576284 0.674069 2.845775 0.047650 -0.014018 -9117.350000 0 1 0
-4.980263 -5.453090 -22.672091 23.844557 0.830686 2.826697 0.043111 -0.017371 465996.000000 0 1 0
-5.514763 -5.361290 -21.404491 22.744412 0.771288 2.796629 0.046354 -0.016063 -393850.000000 0 1 0
-4.899563 -6.336590 -20.451491 21.964097 0.912601 2.768303 0.049846 -0.026147 -314404.000000 0 1 0
-5.278963 -7.682890 -20.702291 22.704165 0.968776 2.718511 0.044936 -0.017781 720082.000000 0 1 0
-4.359463 -8.544390 -20.034991 22.212887 1.099011 2.695068 0.044180 -0.023624 -575469.000000 0 1 0
-4.845063 -10.024290 -20.099191 22.976912 1.120572 2.635728 0.047443 -0.016792 -501084.000000 0 1 0
-6.012263 -10.339990 -19.411091 22.800288 1.044123 2.589355 0.040085 -0.010925 487324.000000 0 1 0
-7.238463 -9.900490 -20.046291 23.500400 0.939487 2.592540 0.044506 -0.011333 -421424.000000 0 1 0
-8.266563 -9.528290 -19.020091 22.822976 0.856184 2.555982 0.033327 -0.004351 -673226.000000 0 1 0
-9.134463 -10.602290 -18.688791 23.347759 0.859632 2.498847 0.055018 -0.012912 386973.000000 0 1 0
-10.041363 -10.299290 -17.637891 22.759603 0.798078 2.457456 0.074486 -0.015014 93938.100000 0 1 0
-10.930163 -11.507790 -17.184991 23.392768 0.811136 2.395915 0.083408 -0.013931 667064.000000 0 1 0
-12.088263 -11.720390 -18.025291 24.665862 0.769948 2.390259 0.098952 -0.023706 750363.000000 0 1 0
-11.898763 -12.164890 -19.386691 25.795521 0.796457 2.421209 0.093505 -0.030839 -290781.000000 0 0 1
-13.214463 -11.937790 -20.224091 26.947109 0.734684 2.419631 0.086396 -0.026466 876980.000000 0 0 1
-14.216563 -12.921290 -20.297491 27.947424 0.737705 2.383682 0.083221 -0.026850 72220.800000 0 0 1
-14.877163 -13.233090 -19.103991 27.593606 0.726978 2.335515 0.084943 -0.018840 -1103270.000000 0 0 1
-16.060463 -14.177590 -19.243991 28.797113 0.723210 2.302665 0.074275 -0.012935 -394297.000000 0 0 1
-15.782263 -15.513290 -19.568291 29.540819 0.776804 2.294835 0.085161 -0.013617 -299771.000000 0 0 1
-16.679663 -15.975190 -20.538891 30.907344 0.763828 2.297662 0.075595 -0.014092 19823.900000 0 0 1
-16.300863 -17.372690 -21.065991 31.801013 0.817217 2.294856 0.057455 -0.016575 -33966.800000 0 0 1
-16.568563 -18.460890 -20.153791 31.960867 0.839367 2.253093 0.066953 -0.013273 45468.500000 0 0 1
-16.079063 -19.720290 -20.611591 32.745439 0.886762 2.251641 0.059610 -0.014375 -50077.000000 0 0 1
-16.743163 -20.857990 -19.843291 33.303835 0.894398 2.209090 0.062723 -0.016441 -57085.600000 0 0 1
-16.314063 -22.074790 -20.383691 34.189762 0.934349 2.209547 0.061047 -0.016387 129311.000000 0 0 1
-17.164663 -23.143490 -19.970791 35.058227 0.932652 2.176872 0.061765 -0.012968 -16347.300000 0 0 1
-16.675263 -24.580290 -20.323091 35.990041 0.974715 2.170850 0.058895 -0.014797 -159808.000000 0 0 1
-16.921463 -24.958290 -21.658891 37.126267 0.974996 2.193686 0.041414 -0.017884 -101757.000000 0 0 1
-16.286263 -26.167170 -21.978991 37.855504 1.014074 2.190265 0.042805 -0.010488 -221108.000000 0 0 1
-16.520563 -26.631080 -23.427891 39.128116 1.015549 2.212734 0.051538 -0.014962 466725.000000 0 0 1
-17.813863 -27.217680 -23.604591 40.190951 0.991267 2.198529 0.060159 -0.011945 392568.000000 0 0 1
-17.769563 -28.606190 -23.501891 41.065927 1.014949 2.180100 0.069680 -0.009439 -46810.000000 0 0 1
-18.780263 -29.219500 -24.491891 42.500943 0.999548 2.184950 0.071935 -0.017354 -262725.000000 0 0 1
-18.338663 -29.127350 -25.866951 43.055873 1.008894 2.215268 0.062750 -0.014612 105631.000000 0 0 1
-18.431663 -27.811900 -26.483081 42.597905 0.985527 2.241706 0.072347 -0.018432 539939.000000 0 0 1
-17.244063 -27.620560 -27.498041 42.619189 1.012686 2.272086 0.080695 -0.020073 216311.000000 0 0 1
-17.430963 -28.140980 -28.798481 43.876027 1.016223 2.286781 0.069122 -0.023089 -20085.800000 0 0 1
-16.339163 -27.713070 -29.598621 43.715682 1.038071 2.314572 0.060935 -0.016750 272867.000000 0 0 1
-16.545663 -28.049830 -31.136901 45.056171 1.037861 2.333763 0.065300 -0.018307 75844.300000 0 0 1
-16.364463 -29.397380 -31.475381 46.072781 1.062851 2.322886 0.053590 -0.016668 306979.000000 0 0 1
-17.041563 -29.635290 -32.719881 47.320776 1.048930 2.334289 0.050261 -0.015638 181715.000000 0 0 1
-16.934863 -31.080030 -33.273361 48.578538 1.071893 2.325317 0.036228 -0.014022 -1050850.000000 0 0 1
-15.712563 -31.320410 -33.854251 48.723331 1.105812 2.338975 0.046247 -0.012894 -1047730.000000 0 0 1
-15.797063 -32.368930 33.384984 49.110609 1.116769 0.823318 0.032906 -0.006899 -580460.000000 0 0 1
-14.420563 -32.650470 32.800281 48.475398 1.154896 0.827610 0.036200 -0.005258 -117336.000000 0 0 1
-13.600963 -33.438570 33.695126 49.381025 1.184489 0.819824 0.038904 -0.010321 45531.400000 0 0 1
-12.508763 -33.969490 32.986382 48.974450 1.217970 0.831805 0.046836 -0.010531 -189134.000000 0 0 1
-11.624063 33.247899 33.737861 48.772788 -1.234462 0.806907 0.055622 -0.016986 286048.000000 0 0 1
-10.797463 33.903122 -33.421051 48.815710 -1.262473 2.324902 0.058005 -0.016458 80437.500000 0 0 1
-10.008363 32.980379 -32.686211 47.500117 -1.276164 2.329704 0.060763 -0.018852 193201.000000 0 0 1
-9.109363 33.726977 -31.681831 47.161720 -1.306999 2.307392 0.059990 -0.021093 106673.000000 0 0 1
-9.953863 -33.891500 -30.724241 46.815511 1.285131 2.286679 0.066813 -0.022795 32165.000000 0 0 1
-9.346063 -32.843640 -30.011811 45.461658 1.293562 2.291823 0.062864 -0.023539 -109119.000000 0 0 1
-10.377963 -32.006210 -29.201231 44.551223 1.257244 2.285579 0.064897 -0.022502 372504.000000 0 0 1
-10.359963 -32.100670 -27.772881 43.693418 1.258616 2.259622 0.078499 -0.028146 -203141.000000 0 0 1
-10.834763 -33.330500 -27.210341 44.370226 1.256501 2.230973 0.073048 -0.026471 -90134.800000 0 0 1
-11.240363 -33.282730 -25.742381 43.551763 1.245100 2.203188 0.078739 -0.037782 43137.300000 0 0 1
-10.156363 -33.145810 -24.853591 42.655567 1.273465 2.192791 0.081955 -0.048504 -583563.000000 0 0 1
-10.517863 -33.392110 -23.524191 42.178739 1.265653 2.162440 0.084824 -0.051571 528583.000000 0 0 1
-9.309163 -33.680490 -22.551191 41.588365 1.301132 2.143906 0.091533 -0.058101 686181.000000 0 0 1
-8.711663 33.278985 -22.594791 41.157120 -1.314765 2.151950 0.083002 -0.056723 -449257.000000 0 0 1
-8.025963 32.992705 -21.437991 40.156221 -1.332167 2.133961 0.107140 -0.059104 -177589.000000 0 0 1
-7.331063 31.575132 -21.356691 38.818059 -1.342660 2.153369 0.118622 -0.066830 253490.000000 0 0 1
-6.173663 31.492822 -22.170591 39.005731 -1.377217 2.175348 0.104905 -0.074000 -110440.000000 0 0 1
-5.637363 30.214222 -22.038691 37.820404 -1.386337 2.192868 0.087292 -0.062248 255157.000000 0 0 1
-4.119163 30.040082 -22.328591 37.655544 -1.434524 2.205538 0.090676 -0.066592 383608.000000 0 0 1
-3.921363 30.338582 -23.735091 38.719003 -1.442256 2.230660 0.103068 -0.061135 -142005.000000 0 0 1
-2.588863 30.753252 -23.970491 39.077476 -1.486813 2.231167 0.089149 -0.066142 24080.000000 0 0 1
-2.370263 30.951512 -25.468991 40.153253 -1.494366 2.257892 0.088433 -0.029747 -277600.000000 0 0 1
-1.388163 31.855102 -25.914541 41.088173 -1.527246 2.253258 0.094711 -0.055098 -128962.000000 0 0 1
-1.841963 33.196375 -25.952751 42.177452 -1.515366 2.233592 0.083233 -0.049488 -6506.780000 0 0 1
-0.950563 -34.057600 -26.763131 43.325383 1.542893 2.236642 0.045394 -0.028824 -387171.000000 0 0 1
0.192837 -33.583180 -26.101581 42.534217 -1.565054 2.231485 0.052510 -0.035210 -591173.000000 0 0 1
0.732237 -32.550730 -26.855481 42.205486 -1.548305 2.260493 0.025416 -0.016212 -757385.000000 0 0 1
2.066837 -32.178720 -26.233831 41.568686 -1.506655 2.253762 0.031056 -0.006639 -800148.000000 0 0 1
1.864937 -31.518720 -24.985291 40.263786 -1.511696 2.240228 0.029545 -0.006884 704126.000000 0 0 1
3.125037 -30.946450 -24.632691 39.676417 -1.470155 2.240610 0.016393 -0.004343 416480.000000 0 0 1
3.064537 -30.246950 -23.261791 38.280285 -1.469824 2.223920 0.036928 -0.011313 -97936.100000 0 0 1
2.790537 -31.058090 -22.137191 38.241957 -1.481188 2.188141 0.046047 -0.012198 431899.000000 0 0 1
2.995937 -30.270600 -20.954291 36.937341 -1.472146 2.174011 0.049229 -0.003516 -273460.000000 0 0 1
2.951637 -31.182800 -19.721291 37.013625 -1.476422 2.132716 0.055020 -0.002362 -84939.300000 0 0 1
1.697637 -31.813130 -19.522791 37.364375 -1.517484 2.120574 0.068364 -0.003195 151485.000000 0 0 1
1.681637 -33.238130 -19.493091 38.569181 -1.520246 2.100649 0.065424 -0.001202 -415871.000000 0 0 1
2.428137 -34.058070 -18.363191 38.769250 -1.499623 2.064231 0.042875 -0.019240 1684560.000000 0 0 1
3.857737 -34.028340 -18.671291 39.005476 -1.457910 2.069951 0.045840 -0.003523 1141680.000000 0 0 1
4.522237 33.335390 -17.796591 38.058081 1.435961 2.057389 0.052353 -0.020156 42897.800000 0 0 1
5.574637 32.464728 -18.505491 37.782116 1.400741 2.082651 0.078193 -0.025275 140635.000000 0 0 1
6.796437 33.032865 -18.911391 38.665261 1.367880 2.081860 0.114010 -0.022084 -341394.000000 0 0 1
7.644637 32.135042 -19.587991 38.403005 1.337246 2.106056 0.102765 -0.038675 -53551.700000 0 0 1
9.033637 32.771708 -19.747691 39.313646 1.301823 2.097066 0.088877 -0.041181 -293441.000000 0 0 1
9.765837 32.859534 -18.546391 38.975494 1.281911 2.066724 0.074616 -0.030181 -40840.300000 0 0 1
11.058037 33.398815 -18.754691 39.868527 1.251066 2.060556 0.072641 -0.016184 276607.000000 0 0 1
11.902737 33.452845 -17.459591 39.567730 1.228958 2.027797 0.049268 -0.013941 -160806.000000 0 0 1
12.425737 32.231515 -17.014391 38.506610 1.202839 2.028463 0.048696 -0.021731 -180732.000000 0 0 1
13.206137 32.420507 -15.872791 38.437440 1.183979 1.996489 0.038916 -0.025687 -335772.000000 0 0 1
14.459337 31.587712 -15.642291 38.099045 1.141515 1.993874 0.043292 -0.023251 -164310.000000 0 0 1
14.251737 30.302432 -15.121291 36.742384 1.131176 1.994949 0.051518 -0.020219 12535.300000 0 0 1
15.459937 29.540152 -15.058291 36.583908 1.088641 1.995016 0.047759 -0.013912 166661.000000 0 0 1
15.416337 28.361842 -14.075291 35.216066 1.072912 1.981968 0.062407 -0.017242 -426695.000000 0 0 1
15.471737 28.737032 -12.685791 35.016010 1.076910 1.941515 0.059198 -0.019051 345740.000000 0 0 1
14.212937 28.957842 -12.030991 34.428316 1.114524 1.927781 0.060026 -0.024359 348548.000000 0 0 1
13.479137 27.685532 -11.650691 32.922855 1.117711 1.932511 0.063436 -0.022077 -1016810.000000 0 0 1
12.760437 27.102272 -12.707991 32.540051 1.130760 1.972008 0.064485 -0.025584 -111775.000000 0 0 1
12.311837 25.739932 -12.503691 31.152331 1.124645 1.983811 0.079752 -0.027956 131877.000000 0 0 1
11.454537 25.429992 -11.267491 30.080679 1.147581 1.954735 0.072625 -0.031691 -285203.000000 0 0 1
10.158837 26.012212 -11.319491 30.132507 1.198471 1.955902 0.071496 -0.026817 169658.000000 0 0 1
9.723837 26.261962 -9.991291 29.733307 1.216185 1.913495 0.054348 -0.021127 245797.000000 0 0 1
8.462437 27.174832 -9.994491 30.165778 1.268907 1.908497 0.058385 -0.020337 373350.000000 0 0 1
8.786437 28.456462 -10.482691 31.573066 1.271315 1.909234 0.057159 -0.025074 122386.000000 0 0 1
7.635537 29.256732 -10.668791 32.063700 1.315507 1.910001 0.047112 -0.027548 130324.000000 0 0 1
8.059437 30.670512 -11.073791 33.589636 1.313831 1.906760 0.066347 -0.021392 226026.000000 0 0 1
8.708237 31.356682 -9.956891 34.032552 1.299907 1.867709 0.060986 -0.019914 177333.000000 0 0 1
9.219437 32.638123 -10.269791 35.436051 1.295495 1.864827 0.054539 -0.020422 -171246.000000 0 0 1
10.397437 32.813680 -11.230091 36.207171 1.263942 1.886160 0.046000 -0.013851 133261.000000 0 0 1
11.675837 32.353053 -10.739491 36.033066 1.224455 1.873441 0.039544 -0.015443 254535.000000 0 0 1
12.562637 32.768168 -11.726391 37.001093 1.204700 1.893277 0.034216 -0.010955 797876.000000 0 0 1
14.115737 32.749322 -11.395091 37.438219 1.163835 1.880074 0.038442 -0.016826 1324160.000000 0 0 1
14.490737 33.692750 -10.478891 38.144331 1.164627 1.849092 0.031812 -0.014875 35943.400000 0 0 1
15.900237 33.600317 -10.339291 38.583672 1.128804 1.842082 0.045839 -0.026624 346679.000000 0 0 1
16.592137 -33.727640 -9.294591 38.720048 -1.113614 1.813210 0.054068 -0.024608 -110758.000000 0 0 1
16.450037 34.084619 -7.929491 38.668356 1.121146 1.777325 0.046568 -0.020608 296732.000000 0 0 1
17.100037 -33.311470 -6.975791 38.088409 -1.096536 1.754983 0.045841 -0.019123 -1005360.000000 0 0 1
17.534337 -33.968310 -5.657991 38.643394 -1.094275 1.717740 0.047641 -0.010908 -337922.000000 0 0 1
18.444437 33.233932 -5.759391 38.442972 1.064132 1.721179 0.045757 -0.016542 -461137.000000 0 0 1
19.753937 33.678557 -6.062191 39.512193 1.040330 1.724831 0.051324 -0.014092 -1072920.000000 0 0 1
20.567637 32.660809 -6.873091 39.204534 1.008800 1.747021 0.042596 -0.013254 -44597.500000 0 0 1
20.984737 31.461552 -6.258491 38.332194 0.982566 1.734800 0.043383 -0.008204 -695371.000000 0 0 1
22.024537 31.587262 -5.349891 38.877457 0.961912 1.708843 0.045645 -0.005009 -977629.000000 0 0 1
22.540537 30.205672 -4.906991 38.007065 0.929709 1.700265 0.036249 -0.012999 4506.430000 0 0 1
23.212137 29.457972 -5.949791 37.973351 0.903431 1.728128 0.045831 -0.015739 360053.000000 0 0 1
23.573937 28.173752 -5.450391 37.137549 0.874054 1.718091 0.047889 -0.012313 19083.600000 0 0 1
24.366937 27.303022 -6.467791 37.162278 0.842161 1.745729 0.048650 -0.010436 -486719.000000 0 0 1
25.617137 27.836032 -6.762691 38.429368 0.826885 1.747695 0.070710 -0.015562 121317.000000 0 0 1
26.610037 26.888022 -7.234391 38.514883 0.790594 1.759752 0.052711 -0.010500 792623.000000 0 0 1
27.390437 26.006042 -6.243391 38.282243 0.759477 1.734617 0.049363 -0.011444 -596781.000000 0 0 1
28.344437 26.806182 -5.562691 39.407131 0.757514 1.712429 0.070698 -0.012530 -248148.000000 0 0 1
29.039237 25.919832 -4.751591 39.213423 0.728700 1.692267 0.066555 -0.001652 -473113.000000 0 0 1
30.249637 26.548992 -4.056491 40.451757 0.720336 1.671245 0.073026 -0.006912 -233674.000000 0 0 1
29.888237 27.239292 -2.885791 40.541503 0.739062 1.642038 0.074023 -0.019487 658845.000000 0 0 1
31.035737 27.397192 -2.027091 41.447945 0.723210 1.619723 0.066434 -0.027549 656615.000000 0 0 1
30.929337 28.571772 -1.075191 42.120376 0.745797 1.596326 0.092451 -0.016744 134807.000000 0 0 1
31.327537 29.832072 -1.639091 43.290342 0.760951 1.608668 0.089625 -0.014356 103141.000000 0 0 1
31.145737 30.863062 -0.746091 43.853645 0.780840 1.587810 0.107359 -0.020857 -135736.000000 0 0 1
33.415891 22.385110 18.766991 44.383723 0.590234 1.134225 0.109415 -0.013759 -99983.900000 0 0 1
33.714101 22.281210 20.159591 45.160847 0.583991 1.108063 0.083030 -0.022106 485607.000000 0 0 1
34.607471 23.322210 20.614791 46.546452 0.592998 1.111981 0.085212 -0.025228 326186.000000 0 0 1
34.627391 23.506810 22.164991 47.359404 0.596390 1.083751 0.050954 -0.006927 426068.000000 0 0 1
33.548281 24.279710 22.724091 47.237441 0.626472 1.068932 0.040664 0.001880 582343.000000 0 0 1
33.729101 24.435510 24.099251 48.119854 0.626957 1.046254 0.029925 -0.006484 -869032.000000 0 0 1
32.489381 24.912310 24.790421 47.861760 0.654156 1.026333 0.048968 -0.002706 -881887.000000 0 0 1
32.218421 26.272310 24.778001 48.396387 0.684087 1.033308 0.030903 -0.001675 271508.000000 0 0 1
30.846231 26.457110 25.077021 47.752755 0.708953 1.017913 0.033857 -0.007080 262012.000000 0 0 1
30.397641 27.932710 25.461451 48.502973 0.743165 1.018144 0.034444 -0.006480 -90933.000000 0 0 1
30.522721 28.775010 24.339761 48.498059 0.755933 1.045036 0.025233 -0.018408 165060.000000 0 0 1
30.232381 30.128610 24.647041 49.286983 0.783679 1.047114 0.023464 -0.016360 -111075.000000 0 0 1
30.577371 31.177410 23.527641 49.603996 0.795114 1.076617 0.020709 -0.017397 544540.000000 0 0 1
31.982631 31.362910 23.371471 50.524712 0.775615 1.089899 0.000697 -0.022829 168871.000000 0 0 1
32.230151 32.028010 22.215291 50.577616 0.782252 1.116053 0.000495 -0.019004 273119.000000 0 0 1
33.729201 32.416310 22.093491 51.735853 0.765552 1.129575 -0.012089 -0.034465 130363.000000 0 0 1
34.080051 33.426810 22.979291 52.979707 0.775722 1.122160 0.008500 -0.019626 70267.600000 0 0 1
35.442071 33.707510 22.703391 53.923841 0.760319 1.136219 0.010684 -0.017477 33837.100000 0 0 1
35.861641 -33.151981 23.226611 54.079447 -0.746156 1.126868 0.025326 -0.006150 -525571.000000 0 0 1
35.205801 -32.041181 22.659491 52.721327 -0.738373 1.126528 0.012438 -0.006012 27880.600000 0 0 1
35.528491 -30.941081 23.370211 52.590788 -0.716492 1.110316 0.033548 -0.007326 -1024430.000000 0 0 1
34.379471 -29.947581 23.278341 51.192644 -0.716611 1.098738 0.028982 -0.011721 470163.000000 0 0 1
33.156641 -30.341081 23.918151 50.911905 -0.741086 1.081738 0.029815 -0.011458 482413.000000 0 0 1
32.301011 -30.950581 22.996991 50.300650 -0.764051 1.095962 0.033296 -0.005068 -1054070.000000 0 0 1
31.631481 -32.267381 23.391031 50.880987 -0.795349 1.093116 0.023608 -0.006627 -165501.000000 0 0 1
30.438661 -32.151681 24.137981 50.427025 -0.812760 1.071655 0.019939 -0.014404 99137.400000 0 0 1
29.954801 -33.455781 24.397761 51.106068 -0.840553 1.073109 0.024772 -0.015493 177428.000000 0 0 1
29.095791 -33.595081 25.708711 51.343280 -0.857045 1.046364 0.024030 -0.016215 292819.000000 0 0 1
28.731331 33.274510 25.923411 51.036317 0.858538 1.038004 0.026000 -0.018694 253648.000000 0 0 1
27.949781 33.032010 27.081101 51.045960 0.868546 1.011578 0.032486 -0.011577 -710976.000000 0 0 1
27.501681 31.598410 27.272611 49.985971 0.854606 0.993685 0.030862 -0.014644 446632.000000 0 0 1
26.770081 31.094310 26.157301 48.658995 0.859990 1.003251 0.030607 -0.008545 291692.000000 0 0 1
25.418281 31.513010 26.078541 48.158583 0.892046 0.998560 0.026121 -0.010307 -582379.000000 0 0 1
24.696981 31.266810 24.749111 46.904934 0.902258 1.014972 0.067839 -0.030699 -96831.000000 0 0 1
24.972681 32.014510 23.595851 46.960918 0.908344 1.044358 0.078392 -0.037595 507249.000000 0 0 1
26.348881 31.939510 23.209111 47.466395 0.881019 1.059901 0.051729 -0.029211 388472.000000 0 0 1
26.534981 32.637010 21.873291 47.410131 0.888159 1.091265 0.073542 -0.028832 1219880.000000 0 0 1
27.943981 32.952210 21.718191 48.356944 0.867456 1.105013 0.060537 -0.022847 1483080.000000 0 0 1
28.230981 33.842010 20.570991 48.635744 0.875547 1.134087 0.052822 -0.029490 465299.000000 0 0 1
29.728001 -34.033181 20.280191 49.530775 -0.852816 1.148949 0.049351 -0.040899 581477.000000 0 0 1
30.325101 33.249410 19.420091 49.013008 0.831364 1.163397 0.045613 -0.040874 -116220.000000 0 0 1
31.402681 33.780710 18.676691 49.760261 0.821864 1.186040 0.033318 -0.035189 68794.100000 0 0 1
32.192651 32.743010 17.828891 49.257902 0.793873 1.200438 0.017737 -0.021962 198351.000000 0 0 1
32.764161 31.666810 18.620691 49.224052 0.768368 1.182854 0.005397 -0.027263 182095.000000 0 0 1
33.709071 30.841810 17.981891 49.100582 0.741009 1.195847 0.023340 -0.026009 337472.000000 0 0 1
34.830911 30.280610 18.900891 49.873354 0.715627 1.182105 0.042402 -0.041081 208568.000000 0 0 1
35.817621 31.246510 19.225591 51.272505 0.717343 1.186433 0.041713 -0.040917 26779.600000 0 0 1
-36.728673 30.627910 20.076891 51.866616 -0.695071 1.173326 0.059326 -0.038537 -663696.000000 0 0 1
-35.675190 31.497510 20.663291 51.882405 -0.723285 1.161164 0.086862 -0.034055 -934941.000000 0 0 1
-34.732283 31.972210 19.730791 51.165006 -0.744044 1.174905 0.086390 -0.030703 -90153.600000 0 0 1
-33.648193 32.693710 20.302891 51.120319 -0.771012 1.162377 0.075994 -0.018835 121932.000000 0 0 1
-33.816923 34.017610 21.145791 52.420669 -0.788357 1.155582 0.063266 -0.011450 -527331.000000 0 0 1
-34.100548 33.812310 22.544591 53.050714 -0.781154 1.131875 0.066674 -0.010427 222164.000000 0 0 1
-33.901613 -33.266781 23.271101 52.891798 0.775947 1.115225 0.054869 -0.009032 -182794.000000 0 0 1
-33.869113 -33.558681 24.793001 53.740067 0.780794 1.091280 0.076519 -0.013596 -482633.000000 0 0 1
-35.099034 -33.989181 25.273231 55.008570 0.769335 1.093430 0.060130 -0.011999 -684153.000000 0 0 1
-35.066991 33.956110 26.647891 55.613140 -0.769305 1.071093 0.083759 -0.010938 193343.000000 0 0 1
-36.449533 33.511510 27.153271 56.470257 -0.743428 1.069182 0.059869 -0.016842 253005.000000 0 0 1
-36.290953 32.751910 28.354451 56.512793 -0.734184 1.045193 0.087832 -0.021277 -65058.100000 0 0 1
35.910721 32.722810 28.929681 56.544572 0.738983 1.033720 0.086977 -0.025061 -311662.000000 0 0 1
35.898001 31.699510 30.052671 56.539265 0.723368 1.010383 0.093223 -0.019742 -187895.000000 0 0 1
35.752271 30.314210 29.745231 55.515358 0.703271 1.005339 0.075759 -0.019290 628107.000000 0 0 1
-36.629713 29.710010 29.052171 55.393585 -0.681467 1.018706 0.078626 -0.017192 319765.000000 0 0 1
36.471361 28.311310 28.638121 54.330769 0.660098 1.015604 0.073528 -0.011861 799769.000000 0 0 1
35.329761 28.266510 27.721771 53.063021 0.674788 1.021097 0.055210 0.002781 1107110.000000 0 0 1
35.117741 27.050210 27.026771 51.917396 0.656349 1.023275 0.062568 -0.004002 -70803.700000 0 0 1
34.858161 25.740710 27.770491 51.467230 0.636062 1.000863 0.046592 -0.005218 -67431.900000 0 0 1
35.975761 25.311710 28.555811 52.443993 0.613122 0.995002 0.047834 -0.004637 366382.000000 0 0 1
35.836381 23.956810 29.080631 51.998635 0.589274 0.977306 0.039911 -0.004297 -355648.000000 0 0 1
36.291471 22.894610 28.047681 51.263110 0.562798 0.991862 0.025562 0.004129 79333.900000 0 0 1
35.458101 22.784810 26.870321 49.984384 0.571144 1.003239 0.026432 -0.001312 208162.000000 0 0 1
35.984231 21.962410 25.848431 49.450518 0.547984 1.020766 0.024805 -0.017011 -642472.000000 0 0 1
35.786691 20.433310 26.014771 48.733723 0.518804 1.007691 0.024230 -0.016055 80384.800000 0 0 1
34.421721 20.050610 26.146621 47.650054 0.527452 0.989962 0.046238 -0.007925 365688.000000 0 0 1
34.113311 18.775210 26.699791 47.213402 0.503133 0.969741 0.050119 -0.001947 -343573.000000 0 0 1
33.952601 18.761310 28.264761 47.996485 0.504817 0.941109 0.037670 -0.008387 91398.800000 0 0 1
32.845531 19.399610 28.881811 47.846973 0.533503 0.922751 0.048044 -0.012737 69623.800000 0 0 1
32.805821 20.846310 28.811341 48.382682 0.566075 0.932922 0.038381 -0.014466 -693365.000000 0 0 1
31.659641 21.361810 29.690771 48.375631 0.593566 0.909989 0.056689 -0.025028 -703776.000000 0 0 1
30.334391 21.076210 29.358631 47.183802 0.607225 0.899223 0.069464 -0.034198 -180757.000000 0 0 1
29.734411 21.721410 28.251991 46.412605 0.630913 0.916358 0.064613 -0.025759 -405912.000000 0 0 1
29.582881 23.256710 28.299261 47.083645 0.666241 0.925992 0.057940 -0.019029 -96246.800000 0 0 1
30.774871 24.019010 28.065781 48.080075 0.662721 0.947481 0.055166 -0.018624 293515.000000 0 0 1
30.739051 25.373110 28.563621 49.036358 0.690059 0.948997 0.047163 -0.013870 -80476.000000 0 0 1
31.041851 25.521810 30.124121 50.223719 0.688116 0.927547 0.052328 -0.023717 1624040.000000 0 0 1
32.393851 24.984410 30.356451 50.942089 0.656976 0.932409 0.043584 -0.020126 1765120.000000 0 0 1
32.874201 24.878010 31.707281 52.009424 0.647816 0.915184 0.048374 -0.032481 210335.000000 0 0 1
32.250901 23.713110 32.503691 51.564737 0.634007 0.888796 0.049533 -0.030675 -181956.000000 0 0 1
32.833881 23.599410 33.815044 52.711034 0.623200 0.874322 0.043357 -0.032264 323589.000000 0 0 1
32.399691 22.466110 -33.656411 51.838404 0.606286 2.277403 0.032562 -0.030909 -416846.000000 0 0 1
33.117981 22.232710 -32.327241 51.343399 0.591216 2.251871 0.015233 -0.023150 -155433.000000 0 0 1
32.635801 23.165710 -31.361081 50.845482 0.617290 2.235457 0.012306 -0.025847 563857.000000 0 0 1
33.257331 22.880110 -30.112931 50.362070 0.602608 2.211711 0.012532 -0.020247 -982728.000000 0 0 1
34.565051 23.510810 -29.765901 51.317734 0.597307 2.189564 0.024951 0.003136 -964013.000000 0 0 1
35.015681 23.173210 -28.484621 50.739228 0.584622 2.166864 0.007810 0.002746 -746391.000000 0 0 1
36.137221 23.925710 -28.151811 51.680391 0.584820 2.146862 0.022028 0.014954 -114892.000000 0 0 1
-36.653213 23.436110 -26.819401 51.107627 -0.568888 2.123233 0.017291 0.016542 -249683.000000 0 0 1
-35.935032 22.189210 -26.829981 50.035342 -0.553174 2.136749 0.005741 0.010858 422076.000000 0 0 1
-36.397243 21.158810 -25.928271 49.444209 -0.526578 2.122800 -0.002951 0.003967 -73878.000000 0 0 1
-35.626263 19.834910 -26.240131 48.489161 -0.508011 2.142606 0.021892 0.007336 274225.000000 0 0 1
-34.291261 19.952510 -25.780651 47.314218 -0.526970 2.147044 0.016373 0.004514 -174350.000000 0 0 1
-33.550413 18.771710 -26.043271 46.435539 -0.510113 2.166206 0.004306 -0.006620 193392.000000 0 0 1
-32.122423 18.940610 -25.465461 45.156245 -0.532766 2.169947 0.013234 -0.009678 111573.000000 0 0 1
-32.140713 19.234110 -24.060591 44.518406 -0.539268 2.141785 0.019048 -0.013294 1200710.000000 0 0 1
-30.766733 19.383110 -23.611091 43.356435 -0.562188 2.146686 0.037838 -0.012227 1382340.000000 0 0 1
-30.619953 19.697810 -22.131691 42.607476 -0.571651 2.116983 0.018485 -0.014784 99828.900000 0 0 1
-31.297563 18.780510 -21.279991 42.250243 -0.540466 2.098633 0.008641 -0.009332 -2422.800000 0 0 1
-31.818893 19.382410 -20.151491 42.358026 -0.547119 2.066604 0.020780 -0.009002 -613029.000000 0 0 1
-32.894853 18.509010 -19.440891 42.457073 -0.512520 2.046423 0.010779 -0.001738 351075.000000 0 0 1
-33.570853 19.071010 -18.312591 42.732384 -0.516620 2.013674 -0.000377 -0.005059 193938.000000 0 0 1
-34.557176 19.991910 -18.759791 44.111276 -0.524473 2.010071 -0.009526 -0.002047 -1040540.000000 0 0 1
-35.655123 20.127810 -17.697891 44.605290 -0.513918 1.978788 0.004073 -0.004652 -385892.000000 0 0 1
-35.309966 20.775210 -16.476391 44.157384 -0.531822 1.953175 0.014486 -0.009058 206104.000000 0 0 1
-36.386343 20.523810 -15.594291 44.591195 -0.513568 1.928065 0.022147 0.005189 -403335.000000 0 0 1
-36.362143 21.203610 -14.217591 44.429027 -0.527918 1.896533 0.028820 0.004745 -217927.000000 0 0 1
-36.550903 22.614710 -14.237091 45.277902 -0.554069 1.890661 0.040319 -0.001497 518762.000000 0 0 1
35.609001 23.009910 -14.557191 44.825983 0.573687 1.901543 0.042309 0.001156 43762.800000 0 0 1
35.419081 24.488110 -14.912991 45.569465 0.604919 1.904197 0.043179 -0.005485 -90685.800000 0 0 1
35.840161 25.332210 -13.897591 46.036736 0.615282 1.877461 0.042826 -0.002740 -5974.280000 0 0 1
35.518251 26.636310 -14.173691 46.603999 0.643458 1.879822 0.039565 -0.001184 -208120.000000 0 0 1
36.667361 27.408710 -14.820391 48.118362 0.641897 1.883885 0.055913 -0.006061 -142658.000000 0 0 1
-36.642593 27.081510 -16.195491 48.356817 -0.636470 1.912313 0.056031 -0.006156 57145.900000 0 0 1
-35.443165 27.710310 -16.603691 47.955832 -0.663559 1.924345 0.056273 -0.011413 -607602.000000 0 0 1
-35.141089 27.425310 -18.114091 48.116152 -0.662696 1.956775 0.050965 -0.012695 -191885.000000 0 0 1
-34.761941 26.109110 -18.423491 47.217616 -0.644194 1.971626 0.044988 -0.014291 498843.000000 0 0 1
-33.526483 25.673410 -17.852691 45.846130 -0.653515 1.970781 0.046090 -0.007050 -71843.100000 0 0 1
-33.106573 24.343810 -18.373991 45.014107 -0.634037 1.991259 0.038794 -0.006134 -306789.000000 0 0 1
-32.836853 24.436210 -19.777891 45.459348 -0.639760 2.020910 0.023112 -0.003843 217002.000000 0 0 1
-32.499523 23.121810 -20.287791 44.748537 -0.618370 2.041343 0.031523 -0.004840 -70066.000000 0 0 1
-32.226053 23.147610 -21.821891 45.282726 -0.622895 2.073622 0.026194 0.000209 516179.000000 0 0 1
-33.423783 23.468810 -22.517691 46.636689 -0.612173 2.074682 0.027915 0.002937 651501.000000 0 0 1
-33.143103 23.156910 -23.899491 46.966940 -0.609849 2.104654 0.027058 0.002486 514703.000000 0 0 1
-33.962753 24.035010 -24.917291 48.497647 -0.615867 2.110385 0.015733 0.013395 -51616.300000 0 0 1
-33.356083 25.345210 -25.142751 48.858632 -0.649768 2.111340 0.012996 0.013929 583449.000000 0 0 1
-34.182567 26.190510 -25.971061 50.288038 -0.653786 2.113492 0.005497 0.014329 513437.000000 0 0 1
-33.526613 27.611610 -26.072291 50.657667 -0.688950 2.111426 0.006241 0.008122 1242670.000000 0 0 1
-32.306843 27.669410 -26.835991 50.294123 -0.708231 2.133625 -0.006401 0.007823 215233.000000 0 0 1
-31.676983 28.911910 -26.878951 50.614305 -0.739793 2.130641 0.007009 0.000036 639431.000000 0 0 1
-30.312073 28.907810 -27.643181 50.185942 -0.761690 2.154137 0.028132 -0.004380 471762.000000 0 0 1
-29.303803 28.258610 -26.880031 48.783173 -0.767243 2.154371 0.021353 -0.000167 -485207.000000 0 0 1
-28.023263 28.223810 -27.424511 48.311392 -0.788964 2.174459 0.035869 0.005071 205227.000000 0 0 1
-27.091673 29.481010 -27.405501 48.519586 -0.827608 2.171028 0.031643 -0.014989 -146947.000000 0 0 1
-26.557293 29.966710 -26.128341 47.811962 -0.845643 2.148953 0.010942 -0.006468 -226155.000000 0 0 1
-27.445743 30.073310 -25.050381 47.803707 -0.831048 2.122367 0.006586 -0.002806 -389816.000000 0 0 1
-26.709623 30.470010 -23.741291 46.962479 -0.851068 2.100801 -0.019689 -0.006695 142484.000000 0 0 1
-26.292043 31.821510 -23.772891 47.634341 -0.880262 2.093322 -0.006685 -0.006064 316557.000000 0 0 1
-25.633773 32.304510 -22.572591 47.012696 -0.900029 2.071609 0.005965 0.006109 423373.000000 0 0 1
-24.996363 33.738910 -22.753791 47.758426 -0.933160 2.067392 0.002767 0.015235 -42151.500000 0 0 1
-25.929313 -33.451181 -22.617791 47.988283 0.911399 2.061582 -0.009892 0.000993 -594452.000000 0 0 1
-25.358933 -32.186981 -22.815191 46.900002 0.903500 2.078835 0.006496 -0.004371 -60867.400000 0 0 1
16.941137 8.826810 -25.337711 31.731913 0.480328 2.495584 0.033634 -0.028395 -170256.000000 0 0 1
15.747637 8.126210 -25.033221 30.670597 0.476387 2.525593 0.034844 -0.029035 29553.500000 0 0 1
15.774537 6.716310 -25.138951 30.428797 0.402522 2.543048 0.030593 -0.026219 -1086430.000000 0 0 1
14.451537 5.988210 -25.094971 29.571323 0.392828 2.584177 0.038844 -0.025592 -755266.000000 0 0 1
13.901337 6.086710 -23.778291 28.208196 0.412705 2.573552 0.071608 -0.046594 91395.000000 0 0 1
12.594337 5.585510 -23.844791 27.538869 0.417430 2.617662 0.065092 -0.043097 -249555.000000 0 0 1
11.588737 5.686810 -22.672791 26.090114 0.456195 2.624011 0.077753 -0.051030 170435.000000 0 0 1
12.010237 4.926410 -21.542991 25.151854 0.389255 2.599279 0.071266 -0.039220 197474.000000 0 0 1
11.237537 5.238110 -20.394891 23.867794 0.436183 2.595373 0.082653 -0.035988 -51343.600000 0 1 0
11.584637 6.609110 -19.698991 23.789375 0.518451 2.546432 0.076341 -0.044755 -70638.700000 0 1 0
11.085537 6.866710 -18.390491 22.544422 0.554584 2.524812 0.058493 -0.030527 -300070.000000 0 1 0
11.405337 8.190810 -17.955291 22.793936 0.622808 2.477899 0.063026 -0.031705 1312360.000000 0 1 0
12.895037 8.557410 -17.550591 23.399455 0.585891 2.418923 0.058449 -0.030843 1051610.000000 0 1 0
13.337737 8.036410 -16.292791 22.537394 0.542279 2.378819 0.061315 -0.026627 1111550.000000 0 1 0
14.766537 8.094110 -16.104791 23.300848 0.501413 2.333900 0.052333 -0.026524 837227.000000 0 1 0
15.157437 7.795610 -14.638191 22.467667 0.475029 2.280386 0.044211 -0.033428 424956.000000 0 1 0
16.565637 7.657310 -14.392091 23.241923 0.432986 2.238558 0.045957 -0.041341 1205640.000000 0 1 0
16.956237 7.904010 -13.041091 22.804767 0.436196 2.179565 0.035026 -0.035636 -179334.000000 0 1 0
17.359737 9.350810 -12.710991 23.459910 0.494087 2.143394 0.062192 -0.037406 -1710280.000000 0 1 0
16.316837 10.269410 -12.776391 23.128686 0.561739 2.156042 0.059682 -0.036458 -43397.500000 0 1 0
16.756937 11.581010 -12.555291 23.928018 0.604740 2.123172 0.105326 -0.048328 -1487140.000000 0 1 0
15.604537 12.495810 -12.687191 23.677239 0.675217 2.136298 0.109618 -0.041771 -782556.000000 0 1 0
14.736437 12.487310 -11.546591 22.503761 0.702969 2.109584 0.089813 -0.029499 412848.000000 0 1 0
15.168137 13.370210 -10.549891 22.806470 0.722481 2.051703 0.097450 -0.030170 -408379.000000 0 1 0
14.956637 14.904110 -10.760791 23.698694 0.783639 2.042121 0.112829 -0.033491 -39582.200000 0 1 0
13.614337 15.259310 -10.512191 22.993540 0.842308 2.045618 0.101978 -0.033959 204217.000000 0 1 0
13.430937 16.613610 -10.734291 23.908724 0.890936 2.036408 0.115363 -0.036369 304378.000000 0 1 0
12.455037 17.220610 -9.673291 23.350587 0.944627 1.997930 0.102151 -0.030761 123762.000000 0 1 0
12.851437 16.950110 -8.369491 22.858566 0.922073 1.945657 0.101906 -0.028608 84947.100000 0 1 0
11.846837 17.328410 -7.455191 22.275574 0.971117 1.912062 0.084911 -0.021086 -156206.000000 0 1 0
12.237237 17.164410 -5.934691 21.899486 0.951437 1.845225 0.074287 -0.020064 -121449.000000 0 1 0
13.179237 18.142910 -5.623591 23.118872 0.942563 1.816508 0.085502 -0.019683 -261970.000000 0 1 0
13.764437 17.866410 -4.377291 22.974530 0.914361 1.762496 0.093925 -0.015128 -398348.000000 0 1 0
14.960837 18.773410 -4.052391 24.345214 0.897939 1.738030 0.093974 -0.019385 -133425.000000 0 1 0
16.122737 18.390410 -4.768491 24.917631 0.851008 1.763354 0.115501 -0.042943 527368.000000 0 1 0
17.145237 19.361510 -4.716991 26.288348 0.846032 1.751206 0.091413 -0.033583 232200.000000 0 0 1
18.505837 19.226910 -5.448691 27.236525 0.804506 1.772206 0.101731 -0.025742 165829.000000 0 0 1
19.408037 18.440110 -4.709091 27.182441 0.759830 1.744915 0.095751 -0.040764 15915.500000 0 0 1
19.591737 17.123210 -5.212091 26.536887 0.718264 1.768491 0.123130 -0.055044 -486795.000000 0 0 1
20.670537 16.309710 -4.470291 26.706951 0.668017 1.738971 0.117767 -0.054749 380453.000000 0 0 1
21.980437 16.764910 -4.784091 28.055112 0.651592 1.742159 0.093677 -0.049280 708202.000000 0 0 1
23.015837 16.048910 -4.127691 28.360784 0.608911 1.716857 0.096202 -0.054624 611945.000000 0 0 1
24.488537 16.335810 -4.519791 29.782136 0.588289 1.723147 0.087011 -0.046117 385302.000000 0 0 1
24.951037 17.590410 -4.056491 30.796621 0.614072 1.702899 0.082299 -0.043160 606206.000000 0 0 1
26.380337 17.588610 -4.113991 31.971961 0.588048 1.699829 0.080657 -0.034245 483304.000000 0 0 1
27.072337 18.762810 -3.419391 33.115656 0.606054 1.674237 0.089314 -0.030990 -307058.000000 0 0 1
26.908837 19.892710 -4.238691 33.730875 0.636594 1.696791 0.080810 -0.036358 261228.000000 0 0 1
26.873537 21.118910 -3.509591 34.358588 0.666061 1.673121 0.083614 -0.018232 -290855.000000 0 0 1
26.876637 22.355110 -4.418091 35.236687 0.693813 1.696510 0.070334 -0.022792 635760.000000 0 0 1
28.110037 22.763910 -5.038291 36.520599 0.680697 1.709195 0.067076 -0.013371 823599.000000 0 0 1
28.562737 22.015010 -6.126391 36.579000 0.656656 1.739073 0.062207 -0.015623 71730.500000 0 0 1
29.648337 22.706510 -7.023191 37.999141 0.653575 1.756690 0.062127 -0.011117 415706.000000 0 0 1
29.222637 23.752810 -7.931591 38.484654 0.682511 1.778381 0.051458 -0.011002 107214.000000 0 0 1
30.324537 24.459610 -8.460191 39.867592 0.678749 1.784629 0.058572 -0.009308 -163450.000000 0 0 1
31.058437 23.808510 -9.654291 40.307282 0.654023 1.812665 0.051203 -0.011709 -19461.700000 0 0 1
30.406437 23.835010 -10.928291 40.150799 0.664834 1.846455 0.049328 -0.002685 -79690.600000 0 0 1
31.122837 23.111310 -11.877691 40.544336 0.638738 1.868113 0.032633 -0.002456 -187032.000000 0 0 1
30.395437 22.925410 -13.223491 40.302825 0.646208 1.905091 0.043274 0.004866 -40978.500000 0 0 1
30.346837 24.084110 -14.031991 41.205238 0.670844 1.918286 0.043979 -0.009714 157151.000000 0 0 1
29.904537 23.697110 -15.329791 41.119786 0.670105 1.952830 0.047274 -0.011795 -355030.000000 0 0 1
30.163337 24.807610 -16.349191 42.338404 0.688276 1.967256 0.048418 -0.006941 -146462.000000 0 0 1
31.527337 24.890810 -16.695091 43.500017 0.668305 1.964699 0.048904 -0.008710 -158838.000000 0 0 1
31.693337 25.395210 -17.963891 44.408171 0.675520 1.987248 0.053788 -0.013384 457651.000000 0 0 1
33.190037 25.739510 -18.236591 45.789455 0.659634 1.980427 0.044336 -0.016317 730866.000000 0 0 1
34.037637 24.591910 -18.322891 45.815402 0.625662 1.982235 0.036822 -0.006165 -509774.000000 0 0 1
35.363037 24.945610 -18.613491 47.109339 0.614351 1.976987 0.042436 -0.011934 -591603.000000 0 0 1
36.278437 23.738910 -18.378691 47.089671 0.579429 1.971744 0.027441 -0.010377 -357254.000000 0 0 1
36.355537 22.840110 -19.433891 47.128248 0.560928 1.995841 0.019749 -0.004665 352074.000000 0 0 1
-36.270608 23.217110 -20.531891 47.709011 -0.569390 2.015684 0.016283 -0.002436 -39543.700000 0 0 1
-36.365508 22.272410 -21.749391 47.870100 -0.549531 2.042430 0.012431 -0.005100 -118117.000000 0 0 1
-35.871508 20.984310 -21.492491 46.787109 -0.529306 2.048080 -0.001442 -0.006463 159443.000000 0 0 1
-35.738908 20.272110 -22.664891 46.924677 -0.515974 2.074881 0.006953 -0.011602 9389.190000 0 0 1
-35.300508 18.790510 -22.472291 45.871702 -0.489154 2.082765 0.003320 -0.011657 -170196.000000 0 0 1
-36.268008 17.934310 -21.933491 46.022668 -0.459233 2.067557 -0.013228 -0.009327 -129668.000000 0 0 1
-35.904108 16.582410 -22.102191 45.305498 -0.432667 2.080419 -0.015641 -0.011297 -459825.000000 0 0 1
36.444237 15.602010 -21.778091 45.231519 0.404499 2.073139 -0.023278 -0.006928 -197321.000000 0 0 1
35.403037 15.784710 -22.721091 44.930836 0.419404 2.100978 0.023539 -0.002043 178976.000000 0 0 1
34.428537 14.743710 -22.731491 43.811206 0.404613 2.116303 0.050026 -0.002919 -211161.000000 0 0 1
34.760837 13.438110 -23.476891 44.046146 0.368891 2.132946 0.009724 -0.009476 -627651.000000 0 0 1
34.750237 13.508810 -24.895091 44.831155 0.370762 2.159529 0.011280 0.001778 404628.000000 0 0 1
35.286337 12.323010 -25.517361 45.256136 0.335988 2.169828 0.011245 0.005089 -430375.000000 0 0 1
35.077537 12.246910 -27.124741 46.001869 0.335907 2.201415 0.043068 0.004682 935985.000000 0 0 1
33.702137 12.109310 -27.559701 45.188566 0.344939 2.226708 0.046393 0.002593 1121820.000000 0 0 1
33.140437 13.214710 -28.181911 45.465780 0.379427 2.239346 0.049310 -0.002361 -313568.000000 0 0 1
33.366537 13.255710 -29.667341 46.574572 0.378156 2.261378 0.054456 -0.014155 -499128.000000 0 0 1
34.712237 13.547510 -29.949671 47.806455 0.372100 2.247822 0.054502 -0.004196 -93381.600000 0 0 1
35.037837 13.664510 -31.318241 48.940791 0.371850 2.265192 0.057397 -0.010875 159687.000000 0 0 1
36.564137 13.737610 -31.607861 50.246541 0.359395 2.251134 0.067815 -0.005561 961423.000000 0 0 1
-36.036408 12.628510 -31.358281 49.410968 -0.337065 2.258342 0.077441 -0.006819 547979.000000 0 0 1
-35.761208 12.362410 -29.966681 48.266916 -0.332833 2.240627 0.049619 -0.002793 109350.000000 0 0 1
-34.568508 11.382110 -29.660061 46.949477 -0.318082 2.254598 0.055530 -0.009529 386568.000000 0 0 1
-34.934008 10.064810 -29.772211 46.990104 -0.280512 2.256974 0.070001 -0.011605 -461068.000000 0 0 1
-33.883308 9.188410 -29.573211 45.902944 -0.264810 2.270845 0.074654 -0.010456 -598769.000000 0 0 1
-34.026708 7.802210 -30.272591 46.207371 -0.225400 2.285173 0.091784 -0.013899 -709945.000000 0 0 1
-33.964408 7.807110 -31.658601 47.082895 -0.225937 2.308245 0.099789 -0.021538 35495.000000 0 0 1
-34.445108 6.643310 -32.318511 47.697853 -0.190527 2.315246 0.102523 -0.023463 611989.000000 0 0 1
-35.904208 6.142110 -32.061721 48.526195 -0.169429 2.292560 0.106244 -0.011970 93533.800000 0 0 1
-36.058508 5.627310 -30.745811 47.719886 -0.154812 2.270901 0.102178 -0.008837 -174090.000000 0 0 1
36.120837 5.204410 -30.460481 47.535688 0.143099 2.266326 0.084843 0.005520 -459434.000000 0 0 1
35.865537 4.618110 -29.118831 46.428116 0.128057 2.248725 0.089189 -0.012276 -259943.000000 0 0 1
36.624137 3.483310 -28.791831 46.716489 0.094824 2.234844 0.106439 -0.003024 333980.000000 0 0 1
36.194137 2.859410 -27.596491 45.604364 0.078838 2.220723 0.105482 -0.005978 72554.700000 0 0 1
-36.611108 1.441110 -27.476631 45.797547 -0.039342 2.214246 0.146572 -0.007973 942170.000000 0 0 1
-35.234908 1.500210 -27.061781 44.453227 -0.042552 2.225305 0.133449 -0.009594 897791.000000 0 0 1
-34.696608 0.197510 -26.867781 43.883611 -0.005692 2.229701 0.147304 -0.012926 115115.000000 0 0 1
-33.355208 0.273110 -26.104741 42.356841 -0.008188 2.234839 0.137548 -0.018718 10833.800000 0 0 1
-33.532508 0.289110 -24.704991 41.651522 -0.008622 2.205744 0.128833 -0.020736 721267.000000 0 0 1
-32.278008 0.424310 -24.014591 40.233698 -0.013145 2.210400 0.136968 -0.007791 597346.000000 0 0 1
-32.280108 0.252410 -22.441891 39.315488 -0.007819 2.178295 0.117819 -0.005405 -524932.000000 0 0 1
-32.516208 -1.090690 -22.096491 39.328721 0.033530 2.167406 0.113075 -0.018405 212209.000000 0 0 1
-32.787408 -1.308190 -20.749291 38.823428 0.039878 2.134657 0.103348 -0.007116 64010.700000 0 0 1
-34.237408 -1.002990 -20.317691 39.824800 0.029287 2.106187 0.091694 -0.005182 -130331.000000 0 0 1
-35.257508 -1.942690 -20.571891 40.866473 0.055044 2.098317 0.089382 -0.014872 587418.000000 0 0 1
-36.440508 -1.709690 -19.799891 41.507461 0.046883 2.068057 0.089468 -0.011032 633938.000000 0 0 1
36.150437 -2.978990 -19.793291 41.321941 -0.082220 2.070314 0.086307 -0.019681 222336.000000 0 0 1
35.466737 -3.444190 -20.933891 41.327710 -0.096807 2.101957 0.072719 -0.019153 370768.000000 0 0 1
36.393637 -4.215490 -21.688291 42.575217 -0.115317 2.105297 0.060894 -0.011004 63072.800000 0 0 1
35.816037 -5.245390 -22.649791 42.700300 -0.145420 2.129912 0.067518 -0.006013 -235484.000000 0 0 1
35.039437 -6.307990 -22.068791 41.887759 -0.178118 2.125693 0.072731 -0.003664 488086.000000 0 0 1
34.681937 -7.304790 -23.017091 42.260894 -0.207588 2.146759 0.073295 0.002706 -45854.400000 0 0 1
33.295937 -7.142690 -23.679091 41.476942 -0.211319 2.178395 0.035363 0.007280 -237996.000000 0 0 1
33.186237 -6.031590 -24.592391 41.743168 -0.179787 2.200785 0.046945 0.004787 -592129.000000 0 0 1
31.847237 -5.975090 -24.943891 40.891880 -0.185461 2.226852 0.005553 0.002961 -817574.000000 0 0 1
31.453437 -4.748390 -25.739671 40.919391 -0.149834 2.251106 0.030179 -0.022325 49999.100000 0 0 1
31.994137 -4.817290 -27.075361 42.188935 -0.149445 2.267593 0.049108 -0.023547 517209.000000 0 0 1
31.410837 -3.847190 -27.902481 42.189927 -0.121873 2.293419 0.059276 -0.031165 -68191.800000 0 0 1
31.629137 -4.195190 -29.444421 43.416308 -0.131867 2.316091 0.070362 -0.026135 90963.000000 0 0 1
31.083137 -3.246690 -30.323671 43.545693 -0.104074 2.341116 0.062212 -0.035395 -176893.000000 0 0 1
30.276537 -3.861690 -31.302731 43.720044 -0.126862 2.368825 0.067545 -0.041107 -457336.000000 0 0 1
29.746537 -2.761090 -32.294881 43.993629 -0.092555 2.395108 0.073959 -0.032227 -1641800.000000 0 0 1
28.859437 -1.847490 -31.800321 42.983028 -0.063930 2.403620 0.049749 -0.033056 -259356.000000 0 0 1
27.512937 -2.251590 -31.600221 41.959567 -0.081656 2.423575 0.057230 -0.034388 101960.000000 0 0 1
26.681937 -2.600890 -32.841561 42.394085 -0.097171 2.456994 0.064086 -0.032664 -1587930.000000 0 0 1
27.258637 -3.600590 -33.588361 43.407090 -0.131330 2.455613 0.072671 -0.034536 -498132.000000 0 0 1
26.577037 -3.777190 33.334238 42.799269 -0.141177 0.677965 0.043046 -0.034522 -209791.000000 0 0 1
26.904337 -5.219090 32.820418 42.758181 -0.191607 0.695736 0.062009 -0.038366 379496.000000 0 0 1
28.234337 -5.458790 32.377357 43.304380 -0.190982 0.726251 0.062908 -0.031900 224729.000000 0 0 1
28.513637 -5.168890 31.007891 42.440949 -0.179330 0.751578 0.062763 -0.029942 -359073.000000 0 0 1
28.951037 -3.685490 30.671481 42.337750 -0.126620 0.760564 0.059569 -0.023126 -782621.000000 0 0 1
30.194637 -3.387190 31.237401 43.577108 -0.111711 0.771550 0.076421 -0.033379 -418468.000000 0 0 1
30.436437 -2.006390 31.374761 43.758175 -0.065825 0.771302 0.070392 -0.028655 -649361.000000 0 0 1
31.714237 -1.738390 32.124691 45.175331 -0.054759 0.779719 0.076340 -0.041505 267903.000000 0 0 1
32.934037 -2.104790 31.441771 45.581420 -0.063822 0.809592 0.090743 -0.040527 184406.000000 0 0 1
34.056837 -1.659490 32.140181 46.857371 -0.048689 0.814936 0.099292 -0.027482 -805518.000000 0 0 1
35.337137 -2.219190 31.557571 47.429087 -0.062718 0.842816 0.116704 -0.024142 -622555.000000 0 0 1
35.761737 -1.741290 30.264401 46.881423 -0.048653 0.869050 0.103108 -0.020973 142841.000000 0 0 1
-36.526608 -2.408290 29.904461 47.268063 0.065837 0.885817 0.101874 -0.027710 219504.000000 0 0 1
-35.992608 -1.993790 28.541281 45.978775 0.055338 0.901099 0.099135 -0.032513 2637.090000 0 0 1
36.580637 -2.217990 27.478951 45.805624 -0.060559 0.927416 0.101346 -0.045222 94343.100000 0 0 1
-36.324108 -1.823290 26.212041 44.831198 0.050153 0.946307 0.093202 -0.032919 377135.000000 0 0 1
-26.596723 14.648410 12.612509 32.879127 -0.503426 1.177102 0.092532 -0.022510 109114.000000 0 0 1
-27.896633 14.095510 12.750309 33.756125 -0.467860 1.183465 0.078152 -0.028985 291563.000000 0 0 1
-28.640643 14.986510 13.572909 35.058605 -0.482082 1.173259 0.085828 -0.026922 -386526.000000 0 0 1
-30.093593 14.525610 13.673709 36.105236 -0.449697 1.182385 0.086385 -0.023100 -687333.000000 0 0 1
-30.977853 15.424310 14.255309 37.426603 -0.461978 1.180041 0.088999 -0.024513 -119476.000000 0 0 1
-32.198723 14.764410 14.633009 38.325847 -0.429933 1.179048 0.115226 -0.037545 878570.000000 0 0 1
-33.082813 15.652310 15.563109 39.770312 -0.441917 1.168726 0.101386 -0.029288 25486.300000 0 0 1
-32.508023 15.850010 16.800709 39.878042 -0.453656 1.135916 0.093322 -0.023278 -216332.000000 0 0 1
-33.468323 16.104010 17.800809 41.186607 -0.448472 1.123866 0.107868 -0.035915 97017.300000 0 0 1
-32.756403 16.641310 19.068609 41.394771 -0.470053 1.092066 0.113447 -0.024051 501420.000000 0 0 1
-32.029473 15.541710 19.640809 40.659480 -0.451763 1.066655 0.121528 -0.028983 -267740.000000 0 0 1
-31.161323 15.817510 20.699509 40.616393 -0.469710 1.036037 0.097911 -0.019452 71136.300000 0 0 1
-31.807193 16.186310 22.067609 41.960381 -0.470733 1.017005 0.099093 -0.029545 -369393.000000 0 0 1
-32.575603 17.402210 22.010209 42.993676 -0.490640 1.033354 0.104029 -0.038040 421820.000000 0 0 1
-33.144083 17.764410 23.273009 44.223721 -0.492012 1.016605 0.106083 -0.041185 167859.000000 0 0 1
-34.307320 16.896910 23.840809 45.065308 -0.457643 1.013342 0.101405 -0.039512 1436860.000000 0 0 1
-35.567030 16.656610 23.134709 45.581478 -0.437981 1.038462 0.091426 -0.031227 1455900.000000 0 0 1
-36.450483 17.750510 23.071209 46.647605 -0.453174 1.053439 0.068540 -0.029257 727586.000000 0 0 1
35.539091 17.281010 22.816109 45.631515 0.452590 1.047189 0.073632 -0.029934 1090690.000000 0 0 1
35.146671 16.435510 23.883109 45.561139 0.437415 1.019022 0.074211 -0.024440 181615.000000 0 0 1
33.823241 15.951010 23.686009 44.265940 0.440670 1.006189 0.089989 -0.021918 377525.000000 0 0 1
33.328301 15.046210 24.875009 44.225900 0.424063 0.973446 0.055837 0.002687 -223512.000000 0 0 1
32.848271 15.728510 26.017209 44.758129 0.446563 0.950490 0.080861 -0.003696 166960.000000 0 0 1
32.959361 14.988710 27.253409 45.318090 0.426808 0.925569 0.071471 0.000933 30097.300000 0 0 1
31.968781 13.805210 27.353809 44.281121 0.407645 0.904943 0.069722 0.006346 102885.000000 0 0 1
32.479411 12.697610 26.606309 43.863848 0.372675 0.919062 0.069110 0.003228 -12814.700000 0 0 1
31.697651 11.557710 26.872809 43.133162 0.349643 0.898199 0.064224 0.005621 -169723.000000 0 0 1
32.315681 10.168910 26.654309 43.106406 0.304864 0.904171 0.077313 0.004260 210864.000000 0 0 1
33.261611 9.697310 27.623609 44.310681 0.283683 0.897703 0.079781 0.006391 504659.000000 0 0 1
33.696111 8.362410 27.300009 44.166145 0.243257 0.904447 0.087587 0.003201 191999.000000 0 0 1
34.666331 7.747410 28.369009 45.459626 0.219872 0.896883 0.092315 -0.009390 284297.000000 0 0 1
35.934131 8.367310 28.412309 46.567510 0.228775 0.914570 0.109223 -0.007671 -131362.000000 0 0 1
-36.525283 7.431710 28.583709 46.971854 -0.200728 0.916591 0.100497 -0.014770 1221320.000000 0 0 1
-35.091139 8.087810 28.865409 46.152059 -0.226524 0.895099 0.095047 -0.015679 1251820.000000 0 0 1
-34.455859 8.488510 27.679709 45.004748 -0.241549 0.908360 0.075367 -0.016519 -388768.000000 0 0 1
-33.140143 8.883110 27.931909 44.242178 -0.261890 0.887515 0.090520 -0.012723 -252626.000000 0 0 1
-32.371783 9.579910 26.766109 43.082846 -0.287722 0.900433 0.086941 -0.022737 -404050.000000 0 0 1
-31.825413 8.673110 25.884009 41.929247 -0.266061 0.905457 0.074561 -0.025701 -42464.100000 0 0 1
-30.940233 9.415710 25.067109 40.918377 -0.295415 0.911435 0.068518 -0.017200 -13908.500000 0 0 1
-30.022103 8.455910 24.253709 39.510398 -0.274544 0.909860 0.057166 -0.017039 -281565.000000 0 0 1
-29.093903 9.028410 23.407009 38.416865 -0.300897 0.915632 0.055650 -0.015412 -27096.000000 0 0 1
-28.366113 8.055310 22.654809 37.185546 -0.276692 0.915698 0.037011 -0.011342 184572.000000 0 0 1
-27.277933 8.647110 21.730009 35.931205 -0.306979 0.921323 0.028458 -0.006332 -372978.000000 0 0 1
-26.220243 9.326910 22.413309 35.733022 -0.341756 0.892787 0.032275 -0.000697 872587.000000 0 0 1
-25.255243 10.069310 21.689709 34.780193 -0.379387 0.897428 0.034820 0.010984 503029.000000 0 0 1
-24.465263 9.351910 20.552009 33.292528 -0.365114 0.905470 0.018751 0.011589 -1113430.000000 0 0 1
-25.214433 9.088910 19.383609 33.077186 -0.345967 0.944669 0.012379 0.004432 211133.000000 0 0 1
-24.531263 8.491510 18.271409 31.744811 -0.333241 0.957493 0.018353 -0.002256 -184548.000000 0 0 1
-24.233163 6.986010 18.346309 31.187139 -0.280673 0.941884 0.017395 0.001698 -370692.000000 0 0 1
-23.093663 6.642910 19.115209 30.705647 -0.280089 0.898824 0.011094 0.004938 464525.000000 0 0 1
-23.054463 5.332410 19.658509 30.763613 -0.227299 0.877575 0.028624 -0.001436 -238336.000000 0 0 1
-22.965563 4.110010 18.693609 29.895824 -0.177089 0.895291 0.037758 -0.005712 -43006.200000 0 0 1
-24.275763 3.900210 18.153909 30.562866 -0.159301 0.934792 0.070592 -0.016277 865542.000000 0 0 1
-24.324163 3.041510 17.039209 29.853817 -0.124395 0.963372 0.063432 -0.015713 -151923.000000 0 0 1
-24.295263 1.550010 17.346909 29.892769 -0.063713 0.951694 0.091929 -0.018541 1714140.000000 0 0 1
-22.952963 1.016110 17.662909 28.980155 -0.044240 0.915388 0.055124 -0.007485 2112190.000000 0 0 1
-23.082563 -0.300390 18.218409 29.407574 0.013013 0.902673 0.088138 -0.014383 -173968.000000 0 0 1
-21.729763 -1.027190 18.339109 28.452780 0.047236 0.870368 0.074492 -0.006738 -221717.000000 0 0 1
-20.975563 -0.502090 19.383509 28.564782 0.023932 0.824968 0.051160 -0.005607 7174.900000 0 0 1
-19.824663 -1.273490 19.703509 27.979767 0.064150 0.789493 0.049066 -0.005137 298571.000000 0 0 1
-18.851863 -0.787590 20.781909 28.069571 0.041754 0.737174 0.058255 -0.008101 39364.100000 0 0 1
-19.367763 -0.782990 22.071609 29.374807 0.040405 0.720647 0.064313 -0.013915 -286175.000000 0 0 1
-18.335163 -0.572990 23.009409 29.426849 0.031241 0.673058 0.058649 -0.018396 -180637.000000 0 0 1
-18.789263 -0.651290 24.477609 30.864445 0.034649 0.654967 0.066700 -0.015226 183617.000000 0 0 1
-19.604463 0.375510 24.958009 31.739222 -0.019152 0.665925 0.069049 -0.030349 298011.000000 0 0 1
-21.010563 0.151810 25.031909 32.681238 -0.007225 0.698292 0.088206 -0.028792 320208.000000 0 0 1
-21.778663 1.226710 25.825909 33.805215 -0.056267 0.701365 0.066253 -0.038016 -184831.000000 0 0 1
-21.772663 2.548410 25.223609 33.418165 -0.116516 0.715466 0.066872 -0.033866 -179203.000000 0 0 1
-22.958963 2.777510 24.516509 33.702935 -0.120392 0.756228 0.067036 -0.029384 -1151390.000000 0 0 1
-22.891463 3.786910 23.319909 32.896473 -0.163944 0.782876 0.068064 -0.021926 -225874.000000 0 0 1
-22.250963 3.351810 22.099509 31.539314 -0.149513 0.794422 0.058362 -0.015100 719421.000000 0 0 1
-20.855163 3.156510 22.273309 30.675751 -0.150214 0.758180 0.049756 -0.011484 -168126.000000 0 0 1
-20.122563 2.439910 21.084609 29.247760 -0.120663 0.765701 0.047055 -0.008385 -30042.800000 0 0 1
-19.707463 3.224210 19.977309 28.246638 -0.162167 0.785202 0.039395 -0.001084 257055.000000 0 0 1
-19.524063 2.448610 18.842409 27.243736 -0.124764 0.807062 0.055514 -0.006169 -185117.000000 0 0 1
-19.039463 3.172910 17.553409 26.090050 -0.165132 0.832808 0.041630 0.001786 2004490.000000 0 0 1
-17.600163 3.492810 17.631309 25.156084 -0.195908 0.794171 0.046866 -0.013987 1985570.000000 0 0 1
-17.224363 4.352710 16.551009 24.280871 -0.247524 0.820784 0.045437 -0.008648 1077880.000000 0 1 0
-15.749863 4.928410 16.633109 23.430914 -0.303265 0.781470 0.052882 -0.003166 1019680.000000 0 1 0
-15.466963 5.925410 17.615409 24.179332 -0.365854 0.754620 0.054772 -0.005657 -57142.300000 0 1 0
-15.948163 7.259810 17.459509 24.736274 -0.427181 0.787208 0.049495 -0.014850 -132168.000000 0 1 0
-15.335663 8.224810 16.345309 23.874656 -0.492279 0.816700 0.035134 -0.008723 120628.000000 0 1 0
-15.615363 7.800510 15.026509 23.032228 -0.463280 0.860033 0.031080 -0.008216 1772700.000000 0 1 0
-17.002163 8.005210 14.599509 23.797114 -0.440044 0.910312 0.023988 -0.006291 1547800.000000 0 1 0
-17.372863 7.343810 13.287109 23.071524 -0.399936 0.957080 0.029863 -0.006277 -290657.000000 0 1 0
-17.297463 5.903210 13.297709 22.602637 -0.328882 0.941810 0.029669 -0.007629 442226.000000 0 1 0
-18.117463 5.330110 12.278809 22.526023 -0.286125 0.994295 0.049901 -0.010141 338861.000000 0 1 0
-17.807163 3.837610 12.216909 21.933426 -0.212263 0.980028 0.048291 -0.007030 218848.000000 0 1 0
-18.122863 3.207610 13.451109 22.796037 -0.175178 0.939659 0.033774 -0.003347 263323.000000 0 1 0
-17.650963 1.859510 13.377609 22.225542 -0.104962 0.924915 0.026639 -0.006708 -411043.000000 0 1 0
-18.391263 0.913510 14.337909 23.337710 -0.049630 0.909213 0.024360 -0.012986 -977328.000000 0 1 0
-19.728563 0.838810 14.013609 24.213654 -0.042492 0.953603 0.042558 -0.007473 -1159690.000000 0 1 0
-20.413163 0.043810 14.929209 25.289928 -0.002146 0.939338 0.053067 -0.016406 -380663.000000 0 0 1
-21.845163 -0.266590 14.476609 26.207908 0.012203 0.985585 0.071594 -0.015589 -362951.000000 0 0 1
-21.939163 -1.231190 13.452309 25.764459 0.056060 1.021454 0.086098 -0.030486 456198.000000 0 0 1
-23.304863 -1.437990 13.123509 26.784529 0.061625 1.058746 0.153743 -0.033051 130061.000000 0 0 1
-23.427763 -2.553690 12.001909 26.446687 0.108574 1.099754 0.143577 -0.043702 -256967.000000 0 0 1
-23.335263 -3.873890 12.545109 26.775386 0.164510 1.083169 0.119868 -0.039072 349750.000000 0 0 1
-23.435463 -4.884390 11.557109 26.582795 0.205477 1.121026 0.124126 -0.043255 -137187.000000 0 0 1
-23.355063 -6.362990 12.160809 27.089332 0.265990 1.105246 0.117548 -0.034355 -13677.500000 0 0 1
-24.555363 -6.593290 12.856909 28.491007 0.262320 1.102617 0.114931 -0.031443 158061.000000 0 0 1
-24.577563 -7.906090 13.274409 29.030550 0.311225 1.095888 0.113278 -0.028353 -225969.000000 0 0 1
-25.474113 -8.131390 14.496209 30.416937 0.308979 1.074032 0.111692 -0.019614 213231.000000 0 0 1
-26.768853 -7.544690 14.472409 31.351946 0.274720 1.090986 0.119410 -0.026311 425407.000000 0 0 1
-27.521393 -7.900290 15.613609 32.613287 0.279543 1.071566 0.118458 -0.017390 72971.900000 0 0 1
-28.997643 -7.355790 15.669209 33.771217 0.248428 1.088312 0.125717 -0.026672 976388.000000 0 0 1
-29.954213 -7.861090 14.733209 34.294593 0.256649 1.126738 0.105963 -0.020610 728485.000000 0 0 1
-30.134543 -9.279190 14.681409 34.781286 0.298712 1.135029 0.100656 -0.031103 -815853.000000 0 0 1
-30.657523 -10.046890 15.924109 35.977785 0.316684 1.112290 0.105072 -0.028481 376240.000000 0 0 1
-29.600503 -10.223390 16.897409 35.584125 0.332552 1.075994 0.104159 -0.017528 817145.000000 0 0 1
-30.016083 -11.064990 17.929509 36.672422 0.353179 1.059957 0.098597 -0.011795 1066890.000000 0 0 1
-28.867923 -11.310990 19.037309 36.382889 0.373434 1.020137 0.103039 -0.005195 1780270.000000 0 0 1
-27.842583 -12.231490 18.617509 35.657123 0.413928 1.021455 0.087614 -0.009154 346902.000000 0 0 1
-26.634183 -12.025890 19.315809 35.030019 0.424118 0.986746 0.086670 -0.003444 -62292.200000 0 0 1
-25.449823 -12.864190 18.842409 34.179194 0.468016 0.986895 0.060673 0.000819 -332883.000000 0 0 1
-25.112833 -12.462390 17.543109 33.071532 0.460648 1.011654 0.053986 -0.001193 1325210.000000 0 0 1
-23.846163 -13.074390 17.127809 32.139400 0.501522 1.008746 0.047074 -0.005876 1430860.000000 0 0 1
-23.607563 -12.970490 15.564009 31.109308 0.502399 1.046850 0.050885 -0.007483 -207702.000000 0 0 1
-23.513263 -11.577690 15.270809 30.333382 0.457541 1.043230 0.029504 -0.001744 -47077.600000 0 0 1
-23.343763 -11.309190 13.872709 29.415661 0.451141 1.079681 0.013612 -0.003280 -1454260.000000 0 0 1
-21.937363 -11.072490 13.408309 27.993405 0.467426 1.071303 0.038998 -0.017757 -1091640.000000 0 0 1
-21.707263 -9.667490 13.318809 27.240711 0.418986 1.059933 0.061304 -0.023537 2248200.000000 0 0 1
-20.307363 -9.224890 13.065509 25.849471 0.426394 1.040898 0.072501 -0.024476 2358940.000000 0 0 1
-19.876563 -9.325790 11.557609 24.811821 0.438693 1.086246 0.099195 -0.026098 -653624.000000 0 1 0
-19.027063 -10.394290 11.297109 24.447803 0.499990 1.090445 0.086972 -0.028182 74589.500000 0 1 0
-18.924763 -10.722790 9.938409 23.914365 0.515499 1.142212 0.110495 -0.021129 -1138950.000000 0 1 0
-18.270363 -12.069690 9.640809 23.925484 0.583802 1.156057 0.095725 -0.004441 852038.000000 0 1 0
-16.841563 -12.126390 9.569009 22.852867 0.624041 1.138758 0.106545 -0.023461 774145.000000 0 1 0
-16.187263 -11.875790 10.766109 22.780935 0.632955 1.078566 0.097673 -0.021774 -82641.300000 0 1 0
-14.628163 -12.099290 10.851009 21.865964 0.691062 1.051521 0.091323 -0.018030 1085720.000000 0 1 0
-14.368263 -13.446890 10.761409 22.429306 0.752285 1.070378 0.088245 -0.017589 160354.000000 0 1 0
-12.966863 -13.654490 10.790609 21.703039 0.811222 1.050435 0.093079 -0.019516 495703.000000 0 1 0
-12.481163 -15.169490 10.615709 22.329043 0.882318 1.075353 0.093156 -0.021130 226320.000000 0 1 0
-12.784363 -15.750690 9.343909 22.334565 0.888980 1.139156 0.083084 -0.024973 -49202.000000 0 1 0
-12.534363 -17.109690 9.407209 23.202313 0.938532 1.153333 0.081092 -0.018797 -19018.700000 0 1 0
-12.986363 -17.951790 8.217009 23.631158 0.944536 1.215659 0.068208 -0.016366 79375.600000 0 1 0
-12.141463 -17.745590 7.059509 22.630903 0.970756 1.253561 0.071729 -0.027106 130295.000000 0 1 0
-12.473763 -18.547890 5.959609 23.133005 0.978755 1.310234 0.049445 -0.020001 -734884.000000 0 1 0
-11.483463 -18.487390 4.823309 22.291654 1.014970 1.352699 0.051632 -0.017467 -354635.000000 0 1 0
-11.884863 -19.264190 3.728809 22.940423 1.018013 1.407529 0.066142 -0.019915 451565.000000 0 1 0
-11.002563 -18.902390 2.669409 22.033667 1.043663 1.449347 0.078163 -0.035276 357370.000000 0 1 0
-11.340663 -19.716990 1.409609 22.789413 1.048833 1.508903 0.080470 -0.035606 -20019.500000 0 1 0
-10.973063 -21.114490 1.663109 23.853631 1.091518 1.501018 0.069227 -0.037868 -138815.000000 0 1 0
-11.262963 -22.077790 0.705209 24.794767 1.099062 1.542351 0.064517 -0.033122 -190095.000000 0 1 0
-10.370763 -22.175990 -0.582391 24.488088 1.133356 1.594581 0.077761 -0.027947 213204.000000 0 1 0
-10.747763 -21.244390 -1.595591 23.861777 1.102431 1.637714 0.088097 -0.038991 690620.000000 0 1 0
-11.898963 -21.601490 -2.388091 24.777261 1.067308 1.667329 0.101266 -0.030422 921757.000000 0 1 0
-13.216763 -20.828990 -2.126091 24.759845 1.005368 1.656771 0.120987 -0.021761 -57741.700000 0 1 0
-13.622863 -20.909090 -0.762291 24.967049 0.993347 1.601333 0.101301 -0.028535 -72188.400000 0 1 0
-14.647463 -19.975290 -0.477891 24.774761 0.938083 1.590087 0.111895 -0.016355 99703.300000 0 1 0
26.398437 -20.238490 -3.763991 33.475985 -0.654075 1.683473 0.073523 -0.029103 -33757.700000 0 0 1
25.098337 -20.408290 -3.247991 32.511140 -0.682698 1.670867 0.065021 -0.022338 39521.700000 0 0 1
25.104737 -21.461090 -2.344491 33.110766 -0.707310 1.641663 0.058043 -0.016926 -976590.000000 0 0 1
23.731537 -21.720690 -1.781491 32.220303 -0.741186 1.626115 0.038807 -0.007241 -894313.000000 0 0 1
22.819437 -22.126290 -2.758891 31.904715 -0.769978 1.657377 0.046260 -0.012608 -77437.800000 0 0 1
21.591537 -22.555790 -2.191691 31.301144 -0.807236 1.640873 0.011657 -0.002947 467837.000000 0 0 1
20.596637 -23.210090 -3.190991 31.194745 -0.844986 1.673268 0.021202 -0.007639 235771.000000 0 0 1
19.987237 -22.319990 -4.103991 30.240938 -0.840481 1.706926 0.026948 -0.008544 -1125820.000000 0 0 1
18.985937 -22.945790 -4.797891 30.166120 -0.879555 1.730524 0.034839 -0.008902 -1066420.000000 0 0 1
18.047137 -21.893190 -5.369791 28.876384 -0.881397 1.757843 0.022526 0.000643 -847148.000000 0 0 1
17.176037 -21.307790 -4.441891 27.726675 -0.892352 1.731692 0.022082 0.005427 222419.000000 0 0 1
17.753137 -20.342090 -3.543191 27.231024 -0.853254 1.701282 0.015849 -0.000033 -746320.000000 0 0 1
16.717337 -19.873990 -2.553391 26.095299 -0.871453 1.668802 0.042392 0.002651 -314767.000000 0 0 1
16.407437 -20.867090 -1.603091 26.593407 -0.904476 1.631114 0.042015 -0.001883 -231863.000000 0 0 1
15.549137 -20.337390 -0.666391 25.609161 -0.918042 1.596821 0.058885 0.003210 -532608.000000 0 0 1
15.233937 -21.117390 0.611709 26.045943 -0.945856 1.547308 0.058959 -0.003592 -160672.000000 0 0 1
14.397437 -22.253790 0.441609 26.508722 -0.996557 1.554137 0.071613 -0.008106 355780.000000 0 0 1
13.690037 -22.489790 1.683409 26.382600 -1.023988 1.506945 0.069106 -0.012124 61597.000000 0 0 1
12.695837 -23.642590 1.727109 26.891248 -1.077996 1.506526 0.073620 -0.021387 -234792.000000 0 0 1
13.231837 -24.904490 1.818209 28.259883 -1.082421 1.506413 0.058633 -0.017183 393090.000000 0 0 1
12.172337 -25.816530 1.515809 28.582454 -1.130213 1.517739 0.053222 -0.012443 457066.000000 0 0 1
12.352737 -27.254430 2.058609 29.993865 -1.145253 1.502108 0.061812 -0.017624 -115773.000000 0 0 1
12.369137 -27.291480 3.493309 30.166598 -1.145265 1.454735 0.070308 -0.025188 231152.000000 0 0 1
12.471537 -28.622810 3.974309 31.473792 -1.159881 1.444185 0.060091 -0.029244 -104716.000000 0 0 1
12.737237 -28.595890 5.513609 31.786192 -1.151756 1.396455 0.075678 -0.030002 -89008.000000 0 0 1
12.401837 -29.815100 6.102709 32.863183 -1.176609 1.384012 0.054622 -0.028607 39463.200000 0 0 1
12.722437 -29.889790 7.516209 33.342965 -1.168380 1.343421 0.063048 -0.025019 152720.000000 0 0 1
12.070337 -31.170580 8.045609 34.380662 -1.201343 1.334590 0.048496 -0.022519 -574594.000000 0 0 1
12.146237 -31.420260 9.422609 34.979270 -1.201918 1.298050 0.040349 -0.019590 -212269.000000 0 0 1
11.429037 -32.583580 9.733209 35.875450 -1.233444 1.296047 0.038480 -0.017956 -105085.000000 0 0 1
11.259337 -32.911050 11.193409 36.540420 -1.241164 1.259462 0.037057 -0.015675 -335551.000000 0 0 1
12.453037 -33.455750 11.684009 37.561701 -1.214462 1.254486 0.041429 -0.020893 -276492.000000 0 0 1
12.527037 -33.705750 13.094209 38.268297 -1.214958 1.221572 0.045025 -0.017003 244364.000000 0 0 1
11.478337 33.538765 13.712309 38.008268 1.241051 1.201701 0.045633 -0.016487 373423.000000 0 0 1
11.643037 32.220235 13.349609 36.768409 1.224039 1.199233 0.053835 -0.016921 -310381.000000 0 0 1
10.447037 31.506412 13.522809 35.842167 1.250621 1.183931 0.069309 -0.013347 -168559.000000 0 0 1
10.298737 30.355312 12.450809 34.387957 1.243710 1.200310 0.058921 -0.009005 -115217.000000 0 0 1
10.077237 30.642762 11.125309 34.121871 1.253075 1.238678 0.037327 -0.008058 479110.000000 0 0 1
11.112637 31.435482 10.504209 34.957383 1.231001 1.265594 0.023824 -0.009874 390388.000000 0 0 1
10.837537 31.802412 9.063209 34.799244 1.242361 1.307316 0.017523 -0.005122 564721.000000 0 0 1
9.602737 32.525715 8.964409 35.078417 1.283717 1.312376 0.029131 -0.015139 464802.000000 0 0 1
9.180937 32.779215 7.642009 34.887918 1.297710 1.349961 0.030293 -0.017913 161358.000000 0 0 1
9.765937 34.025973 6.881709 36.062422 1.291295 1.378791 0.031438 -0.008802 -5720.800000 0 0 1
8.887037 -33.131870 7.065009 35.023058 -1.308733 1.367678 0.035111 -0.009863 284495.000000 0 0 1
9.317637 -31.958560 6.337609 33.887065 -1.287106 1.382667 0.053092 -0.024018 -910199.000000 0 0 1
8.439037 -30.776370 6.653609 32.598662 -1.303169 1.365245 0.054028 -0.020034 -408432.000000 0 0 1
8.482237 -30.353650 8.034009 32.524417 -1.298300 1.321198 0.054272 -0.018791 19188.600000 0 0 1
8.013337 -29.031840 8.241209 31.224651 -1.301483 1.303699 0.058772 -0.015481 96154.800000 0 0 1
8.915237 -27.950450 7.548709 30.293433 -1.262032 1.318956 0.069357 -0.024492 357371.000000 0 0 1
9.687337 -27.260290 8.552409 30.168056 -1.229351 1.283363 0.062297 -0.021997 448531.000000 0 0 1
10.631437 -26.288040 8.138309 29.501196 -1.186485 1.291308 0.071089 -0.032586 122111.000000 0 0 1
10.086637 -25.108230 7.324109 28.032232 -1.188803 1.306454 0.077677 -0.029141 -385307.000000 0 0 1
9.728237 -25.474220 6.033209 27.928016 -1.206003 1.353053 0.081386 -0.029019 -471406.000000 0 0 1
8.899637 -24.534790 5.440609 26.660076 -1.222821 1.365279 0.082426 -0.025546 -192339.000000 0 0 1
8.529737 -24.941090 4.012809 26.663027 -1.241270 1.419721 0.075156 -0.025557 404259.000000 0 0 1
7.642137 -26.061060 3.791809 27.421869 -1.285553 1.432075 0.058346 -0.025695 99936.800000 0 0 1
8.215137 -27.331560 3.995709 28.817847 -1.278814 1.431694 0.056977 -0.023908 -61887.600000 0 0 1
7.279037 -28.508280 3.591809 29.641314 -1.320807 1.449322 0.054734 -0.019438 106304.000000 0 0 1
6.228037 -28.662100 4.525409 29.678001 -1.356831 1.417716 0.053344 -0.021477 237408.000000 0 0 1
5.095937 -29.410870 4.079509 30.126570 -1.399233 1.434967 0.047268 -0.013828 567528.000000 0 0 1
5.043137 -30.980050 4.243109 31.673343 -1.409425 1.436428 0.046906 -0.012285 -606002.000000 0 0 1
6.140137 -31.470550 3.554509 32.260367 -1.378110 1.460390 0.047033 -0.011883 -418405.000000 0 0 1
6.426937 -32.801460 3.899509 33.651856 -1.377313 1.454657 0.048047 -0.013632 522188.000000 0 0 1
7.617837 -33.491330 3.141909 34.490175 -1.347145 1.479574 0.050819 -0.011955 556957.000000 0 0 1
7.238837 -33.814930 1.835809 34.629762 -1.359907 1.517759 0.061616 -0.009715 432254.000000 0 0 1
8.186437 33.433787 1.404109 34.450071 1.330666 1.530027 0.047982 -0.005952 102493.000000 0 0 1
7.809937 32.736172 0.073209 33.654976 1.336602 1.568621 0.052136 -0.001935 -478161.000000 0 0 1
6.616037 32.043932 -0.013091 32.719806 1.367190 1.571196 0.053405 -0.002995 -185279.000000 0 0 1
5.475037 32.888101 -0.357091 33.342626 1.405834 1.581506 0.052765 -0.007742 843372.000000 0 0 1
4.190437 32.046162 -0.117991 32.319192 1.440772 1.574447 0.056694 -0.010859 63580.600000 0 0 1
3.961037 31.000082 -1.050191 31.269759 1.443710 1.604388 0.062592 -0.011105 281596.000000 0 0 1
2.727037 30.330812 -0.804191 30.463775 1.481128 1.597198 0.052955 -0.010170 638621.000000 0 0 1
2.375537 29.156452 -1.751491 29.305453 1.489500 1.630599 0.052262 -0.010322 10637.900000 0 0 1
2.108637 29.446782 -3.119591 29.686549 1.499310 1.676075 0.057990 -0.015939 15484.700000 0 0 1
1.483937 28.318512 -3.670491 28.593928 1.518443 1.699518 0.079808 -0.021779 -275305.000000 0 0 1
1.124737 28.444862 -5.191691 28.936635 1.531276 1.751189 0.076096 -0.026071 -125059.000000 0 0 1
0.138937 29.398202 -5.504391 29.909395 1.566070 1.755887 0.074282 -0.030858 -101754.000000 0 0 1
0.398437 30.161172 -6.721291 30.903573 1.557587 1.790041 0.073247 -0.031901 3448.710000 0 0 1
0.115637 29.402252 -8.049791 30.484503 1.566863 1.838027 0.078297 -0.036060 624000.000000 0 0 1
-1.303963 29.238602 -8.235891 30.404376 -1.526229 1.845102 0.076929 -0.032438 780801.000000 0 0 1
-1.547163 28.821602 -9.583691 30.412589 -1.517167 1.891382 0.083418 -0.032698 34146.600000 0 0 1
-1.470563 29.935372 -10.672091 31.814817 -1.521711 1.912873 0.068370 -0.032011 -312433.000000 0 0 1
-0.173863 30.466582 -10.836591 32.336891 -1.565090 1.912524 0.066863 -0.036596 -239873.000000 0 0 1
-0.175563 31.808402 -11.310691 33.759991 -1.565277 1.912436 0.059601 -0.032498 90535.200000 0 0 1
-0.417863 32.891615 -10.256091 34.456064 -1.558093 1.873034 0.060478 -0.022877 -708784.000000 0 0 1
0.675737 33.007807 -9.436891 34.336960 1.550327 1.849211 0.066393 -0.030998 -739751.000000 0 0 1
0.357537 33.889552 -8.359091 34.907076 1.560247 1.812613 0.070783 -0.020759 -8126.110000 0 0 1
1.593037 -33.909890 -7.550191 34.776770 -1.523852 1.789643 0.066189 -0.021681 630397.000000 0 0 1
2.479637 -32.940360 -8.197791 34.035565 -1.495661 1.814048 0.055962 -0.017939 936589.000000 0 0 1
3.453137 -32.517260 -7.229691 33.489771 -1.464999 1.788387 0.052728 -0.015044 -108897.000000 0 0 1
4.843137 -32.044940 -7.722691 33.316274 -1.420796 1.804723 0.040375 -0.011946 665680.000000 0 0 1
5.698137 -33.034820 -8.303091 34.535625 -1.399988 1.813596 0.053021 -0.012296 386635.000000 0 0 1
6.191937 -34.013090 -7.420091 35.359413 -1.390723 1.782215 0.056021 -0.005153 -1241760.000000 0 0 1
6.377937 32.855186 -8.030191 34.418386 1.379058 1.806278 0.053515 -0.007856 -325405.000000 0 0 1
5.270537 32.117902 -8.452691 33.627164 1.408146 1.824887 0.050058 -0.011454 -704285.000000 0 0 1
4.460537 32.470630 -9.540291 34.135837 1.434279 1.854049 0.058727 -0.015294 -44426.200000 0 0 1
3.516037 31.291282 -9.769191 32.968833 1.458901 1.871629 0.053678 -0.026015 -464043.000000 0 0 1
4.187037 30.180052 -10.339991 32.175802 1.432941 1.897961 0.048290 -0.032772 -192741.000000 0 0 1
3.461837 28.993132 -10.503791 31.030882 1.451957 1.916113 0.056723 -0.032795 -88486.400000 0 0 1
4.187037 28.070762 -11.518791 30.629749 1.422728 1.956343 0.065810 -0.038128 66197.500000 0 0 1
3.994537 28.664072 -12.800691 31.645585 1.432331 1.987230 0.066194 -0.035335 2019.880000 0 0 1
5.032337 28.269202 -13.666191 31.799952 1.394627 2.015018 0.066060 -0.040467 -196841.000000 0 0 1
4.951237 28.948552 -15.039591 32.995798 1.401400 2.044071 0.071587 -0.031977 -291518.000000 0 0 1
3.785237 28.495112 -15.684891 32.746225 1.438731 2.070292 0.064778 -0.029052 -260870.000000 0 0 1
3.732537 28.939702 -17.043991 33.792541 1.442528 2.099450 0.103585 -0.030598 -419161.000000 0 0 1
2.586437 28.360012 -17.820091 33.593683 1.479848 2.129939 0.092031 -0.034850 -565187.000000 0 0 1
2.941837 27.099352 -18.218791 32.786485 1.462662 2.159977 0.110761 -0.023690 -311188.000000 0 0 1
1.996437 26.583812 -19.093791 32.791122 1.495837 2.192333 0.086113 -0.034584 -102648.000000 0 0 1
2.613437 25.394362 -19.916591 32.378608 1.468243 2.233329 0.100527 -0.030191 348885.000000 0 0 1
2.842237 24.238562 -19.157891 31.025973 1.454068 2.236330 0.095981 -0.028943 -16403.000000 0 0 1
3.927937 23.444052 -19.591791 30.804067 1.404793 2.260117 0.099546 -0.021738 79900.100000 0 0 1
4.377437 22.280402 -18.679991 29.402726 1.376797 2.259213 0.102357 -0.016684 146736.000000 0 0 1
3.503537 21.186002 -18.463891 28.320253 1.406909 2.280973 0.102012 -0.016886 -101707.000000 0 0 1
4.238637 20.136602 -17.862691 27.249303 1.363331 2.285678 0.079098 -0.011074 730340.000000 0 0 1
3.244237 19.009702 -17.425191 25.990981 1.401763 2.305587 0.070756 -0.017281 745351.000000 0 0 1
2.531837 19.303502 -16.203991 25.329917 1.440381 2.264927 0.079171 -0.029919 544677.000000 0 0 1
1.629537 18.229902 -15.793891 24.175022 1.481645 2.282750 0.056600 -0.018393 815768.000000 0 1 0
2.311237 17.067902 -14.962091 22.814891 1.436201 2.286043 0.033572 -0.012973 228843.000000 0 1 0
3.285637 16.349902 -15.729291 22.924338 1.372480 2.326965 0.036306 -0.021127 -449254.000000 0 1 0
2.929737 15.165502 -16.436291 22.554987 1.379963 2.387249 0.035056 -0.032309 -576162.000000 0 1 0
3.005437 15.353102 -17.953491 23.813404 1.377486 2.424811 0.040277 -0.027450 -292386.000000 0 1 0
4.249037 15.757002 -18.503091 24.671883 1.307401 2.418808 0.040598 -0.023769 -307177.000000 0 1 0
4.193037 16.208002 -19.835591 25.956339 1.317645 2.440582 0.052625 -0.013984 -525422.000000 0 0 1
4.486837 15.211702 -20.956991 26.281610 1.283970 2.493773 0.045643 -0.022002 -526522.000000 0 0 1
3.514737 14.285102 -21.248991 25.844479 1.329546 2.536039 0.041826 -0.022447 -715522.000000 0 0 1
2.407537 14.823002 -21.942391 26.589211 1.409783 2.541417 0.059329 -0.027455 -291564.000000 0 0 1
1.534437 13.709502 -22.549891 26.434873 1.459335 2.592571 0.066901 -0.017549 -293191.000000 0 0 1
0.869037 12.838202 -21.661091 25.194791 1.503208 2.605566 0.056426 -0.011697 93478.000000 0 0 1
-0.018863 12.001502 -22.370591 25.386605 -1.569225 2.649184 0.041036 -0.004800 -91085.600000 0 0 1
-0.647763 10.893002 -21.508191 24.118030 -1.511400 2.672080 0.024729 -0.004305 -568785.000000 0 1 0
-1.538363 11.352502 -20.489091 23.474427 -1.436108 2.631760 0.026030 -0.004551 223092.000000 0 1 0
-1.868363 10.408102 -19.472291 22.158282 -1.393178 2.644099 0.010522 -0.002881 633253.000000 0 1 0
-3.014863 9.393802 -19.831391 22.149875 -1.260239 2.679962 0.012603 -0.005462 137109.000000 0 1 0
-2.612763 8.400802 -20.756591 22.544092 -1.269266 2.740695 0.015004 -0.000517 -759019.000000 0 1 0
-3.682363 7.582502 -21.029891 22.656355 -1.118703 2.760373 0.018989 0.005259 -861181.000000 0 1 0
-3.274863 6.317002 -21.839791 22.969669 -1.092521 2.826637 0.017091 -0.006237 -75113.700000 0 1 0
-2.412163 5.421202 -21.163091 21.979180 -1.152150 2.868235 0.019700 -0.003564 137229.000000 0 1 0
-2.281963 4.135302 -21.812091 22.317602 -1.066553 2.928347 0.027115 -0.009989 -201562.000000 0 1 0
-1.306263 3.120002 -21.106691 21.375994 -1.174296 2.982690 0.029278 -0.006759 -266103.000000 0 1 0
0.048337 3.451502 -21.063891 21.344852 1.556793 2.979162 0.037823 -0.004244 -714897.000000 0 1 0
0.664537 2.357002 -20.418891 20.565217 1.295988 3.022230 0.034130 0.005101 414945.000000 0 1 0
2.221337 2.417802 -20.459191 20.720970 0.827722 2.982469 0.034014 0.000784 292795.000000 0 1 0
2.797337 2.042802 -21.640891 21.916347 0.630752 2.982879 0.049894 0.004246 1414260.000000 0 1 0
4.258737 2.107902 -21.523491 22.041795 0.459607 2.924303 0.062279 0.003707 1526280.000000 0 1 0
5.105537 1.401902 -22.541691 23.155122 0.267980 2.910898 0.070838 -0.000800 -419514.000000 0 1 0
6.481337 1.376102 -22.263091 23.228142 0.209211 2.852326 0.078835 -0.018143 -197380.000000 0 1 0
7.176437 0.598102 -23.204791 24.296528 0.083150 2.840679 0.080673 -0.024269 482865.000000 0 1 0
8.730037 0.643502 -23.064891 24.670160 0.073578 2.778860 0.077867 -0.030217 418960.000000 0 1 0
9.333337 1.861702 -23.360791 25.225060 0.196884 2.754723 0.067027 -0.031162 -604603.000000 0 0 1
10.707837 1.684302 -23.498091 25.877691 0.156018 2.709388 0.056108 -0.026085 -677217.000000 0 0 1
14.103537 -21.497190 21.891891 33.768236 -0.990170 0.865449 0.058897 0.009155 -235283.000000 0 0 1
12.962537 -22.193790 22.354691 34.063527 -1.042179 0.854939 0.042373 0.016649 944544.000000 0 0 1
11.642137 -21.622690 22.280991 33.159050 -1.076885 0.833967 0.033914 0.006779 1443780.000000 0 0 1
11.127637 -21.457590 20.806291 31.892855 -1.092390 0.860075 0.039877 -0.005384 -695324.000000 0 0 1
11.549537 -20.255090 20.199091 30.849047 -1.052574 0.856915 0.044482 -0.006884 24880.500000 0 0 1
10.981137 -20.103090 18.905891 29.701048 -1.070844 0.880793 0.062974 -0.014924 -104488.000000 0 0 1
11.279737 -18.767490 18.236391 28.495913 -1.029623 0.876343 0.078231 -0.017577 270218.000000 0 0 1
10.384137 -17.713890 18.619291 27.718048 -1.040575 0.834243 0.088906 -0.022397 53348.300000 0 0 1
10.741037 -16.534390 17.944791 26.660297 -0.994690 0.832417 0.094208 -0.023842 510558.000000 0 0 1
9.843137 -15.363790 18.581791 26.042587 -1.001007 0.776293 0.089909 -0.012143 1040660.000000 0 0 1
8.469137 -15.666290 18.374991 25.589044 -1.075202 0.769756 0.057048 -0.006437 -620844.000000 0 0 1
7.715837 -14.698790 19.009291 25.237704 -1.087404 0.717868 0.039924 -0.004252 -911101.000000 0 0 1
6.240437 -14.846390 18.676991 24.661474 -1.172885 0.711574 0.008160 0.006481 -770119.000000 0 1 0
5.871037 -14.688390 17.331091 23.464538 -1.190543 0.739794 -0.001791 -0.001332 905905.000000 0 1 0
4.461437 -14.921190 17.086291 23.118989 -1.280257 0.739124 -0.020562 0.006520 1062290.000000 0 1 0
4.058937 -16.405590 16.836891 23.855801 -1.328255 0.787276 -0.033088 0.006802 -939347.000000 0 1 0
2.806837 -16.516790 16.239791 23.332670 -1.402466 0.800970 -0.011739 0.003869 -833867.000000 0 1 0
2.425737 -17.863990 16.260991 24.278100 -1.435833 0.836884 -0.001631 -0.005486 863575.000000 0 1 0
0.907037 -18.019390 15.909791 24.054990 -1.520502 0.848122 0.010796 0.003062 595128.000000 0 1 0
0.650737 -17.757290 14.559091 22.971981 -1.534167 0.884371 0.017295 -0.001555 -117954.000000 0 1 0
-0.720263 -18.070790 14.343591 23.082695 1.530960 0.900268 0.031919 0.004479 -64705.700000 0 1 0
-1.172963 -17.881690 12.882391 22.070040 1.505294 0.947512 0.031387 -0.023357 373995.000000 0 1 0
-2.517263 -18.193690 12.544591 22.242161 1.433310 0.971574 0.037816 -0.030948 143881.000000 0 1 0
-2.762863 -19.607490 12.377091 23.351219 1.430809 1.012148 0.051786 -0.028514 -566223.000000 0 1 0
-4.242663 -19.972990 12.382191 23.879681 1.361487 1.025672 0.048677 -0.028194 -478638.000000 0 1 0
-4.751763 -20.224290 13.621391 24.842372 1.340029 0.990451 0.060524 -0.037692 -1538510.000000 0 1 0
-6.028363 -20.704190 13.508391 25.445653 1.287463 1.011167 0.057058 -0.030634 -1131930.000000 0 0 1
-6.479763 -21.579590 14.735291 26.922014 1.279089 0.991623 0.061559 -0.030409 527747.000000 0 0 1
-7.902163 -21.538090 14.804591 27.304018 1.219152 0.997728 0.076757 -0.021165 85795.000000 0 0 1
-8.419263 -22.487390 15.716291 28.697883 1.212552 0.991248 0.066182 -0.022120 418507.000000 0 0 1
-9.970963 -22.440590 15.684291 29.137556 1.152670 1.002396 0.085416 -0.021368 427517.000000 0 0 1
-10.425363 -21.144090 16.044591 28.516480 1.112714 0.973217 0.084199 -0.023749 -481502.000000 0 0 1
-11.799863 -21.029190 15.722091 28.786242 1.059457 0.993015 0.095706 -0.014365 317808.000000 0 0 1
-12.391563 -19.663890 16.181991 28.320950 1.008489 0.962611 0.097817 -0.015094 7793.340000 0 0 1
-12.342663 -19.680190 17.624191 29.159275 1.010644 0.921770 0.088535 -0.030189 -131625.000000 0 0 1
-12.894663 -18.507390 18.161291 28.959080 0.962268 0.892925 0.083491 -0.035287 -79035.700000 0 0 1
-13.439063 -18.664890 19.603791 30.220773 0.946761 0.864940 0.075966 -0.024021 210777.000000 0 0 1
-14.656663 -19.385890 19.711491 31.291746 0.923436 0.889338 0.062647 -0.025028 78265.500000 0 0 1
-14.942563 -19.697090 21.066091 32.481313 0.921803 0.865105 0.063720 -0.031266 -584636.000000 0 0 1
-16.309063 -20.358390 21.143891 33.578471 0.895386 0.889647 0.066316 -0.032198 -1278240.000000 0 0 1
-16.327563 -21.587290 20.446591 33.921431 0.923243 0.923837 0.072564 -0.037679 -2971.520000 0 0 1
-17.487863 -21.772290 19.676591 34.161765 0.894097 0.956990 0.074881 -0.029729 -542183.000000 0 0 1
-18.687663 -22.345390 20.404391 35.565213 0.874304 0.959759 0.065575 -0.027474 -930771.000000 0 0 1
-19.250363 -21.518790 21.392991 35.934591 0.840982 0.933118 0.067792 -0.028607 -92059.300000 0 0 1
-19.965863 -22.305590 22.331091 37.347726 0.840692 0.929888 0.069428 -0.018562 49043.600000 0 0 1
-20.613363 -21.517190 23.501471 37.950222 0.806848 0.902982 0.057709 -0.013566 -217648.000000 0 0 1
-21.677363 -20.719490 23.073591 37.836436 0.762809 0.914957 0.061553 -0.010897 -140964.000000 0 0 1
-21.797263 -19.558690 23.945991 37.829532 0.731322 0.885378 0.056962 -0.006928 68836.600000 0 0 1
-22.814663 -18.509790 23.474841 37.605709 0.681600 0.896643 0.058819 -0.002527 -75553.400000 0 0 1
-22.376863 -17.841990 22.314891 36.290701 0.673117 0.908546 0.062043 -0.003827 -42696.300000 0 0 1
-23.228763 -16.758390 21.947191 36.084599 0.624977 0.916987 0.063298 -0.004703 -109123.000000 0 0 1
-22.923863 -16.107590 20.611991 34.782354 0.612506 0.936515 0.063984 -0.001814 125831.000000 0 0 1
-21.656863 -15.480690 20.588991 33.653797 0.620601 0.912477 0.056509 0.004622 -335792.000000 0 0 1
-21.393463 -15.159290 19.293191 32.553211 0.616471 0.936431 0.046691 0.001867 124467.000000 0 0 1
-20.314363 -14.099990 19.001691 31.185691 0.606748 0.915609 0.040953 -0.004403 36363.000000 0 0 1
-19.961563 -14.037890 17.617791 30.098387 0.612901 0.945497 0.038685 -0.001707 287471.000000 0 0 1
-19.105363 -12.910190 17.390491 28.881085 0.594255 0.924616 0.043472 -0.004711 -310585.000000 0 0 1
-18.500063 -12.884690 15.978291 27.632831 0.608351 0.954232 0.040778 -0.010500 -80437.600000 0 0 1
-18.041563 -11.625590 15.511891 26.481524 0.572413 0.944975 0.043388 -0.009221 820926.000000 0 0 1
-16.816763 -11.106990 16.054091 25.766307 0.583701 0.898141 0.053497 -0.017510 124651.000000 0 0 1
-16.212863 -9.923590 15.324091 24.416436 0.549255 0.892312 0.054674 -0.018296 17444.900000 0 1 0
-16.989163 -8.721990 15.428591 24.550890 0.474299 0.891259 0.067996 -0.020559 271417.000000 0 1 0
-16.461163 -7.655490 14.654491 23.330892 0.435310 0.891668 0.055619 -0.026194 -510464.000000 0 1 0
-16.502063 -6.308390 15.402191 23.438032 0.365137 0.853771 0.058256 -0.018657 337005.000000 0 1 0
-15.734263 -6.204190 16.584791 23.687851 0.375592 0.795204 0.039274 -0.007817 1114480.000000 0 1 0
-14.296163 -6.250190 16.432091 22.659628 0.412153 0.759515 0.034584 -0.009077 785873.000000 0 1 0
-13.568663 -6.258390 17.799291 23.239854 0.432160 0.698364 0.031647 -0.005667 -152191.000000 0 1 0
-13.807963 -7.377490 18.638191 24.340693 0.490704 0.698634 0.037153 -0.019401 53467.000000 0 1 0
-13.239163 -8.596990 18.167291 24.067283 0.575926 0.715364 0.044664 -0.014068 -617675.000000 0 1 0
-13.485363 -9.754990 19.118991 25.348583 0.626243 0.716296 0.054691 -0.017003 284607.000000 0 0 1
-14.792063 -10.173790 19.461491 26.477552 0.602482 0.745102 0.064806 -0.015966 -485815.000000 0 0 1
-15.583363 -9.324890 20.154991 27.129660 0.539233 0.733384 0.046690 -0.012135 -1801330.000000 0 0 1
-17.007863 -9.852990 20.419891 28.342914 0.525075 0.766333 0.047811 -0.005889 189890.000000 0 0 1
-17.918163 -9.953290 19.345191 28.184481 0.507045 0.814300 0.045146 -0.001054 120492.000000 0 0 1
-18.278763 -8.672390 18.799791 27.618031 0.443001 0.822069 0.050078 -0.002844 -1357990.000000 0 0 1
-19.253763 -8.610890 17.634091 27.492108 0.420549 0.874444 0.070691 -0.008629 -1114890.000000 0 0 1
-20.472963 -9.019490 18.164391 28.817330 0.414973 0.888820 0.071234 0.000743 -602832.000000 0 0 1
-21.471863 -8.888090 17.137291 28.874310 0.392467 0.935379 0.087997 -0.009012 278825.000000 0 0 1
-22.906063 -9.279090 17.515791 30.291784 0.384889 0.954232 0.083469 0.000559 23680.200000 0 0 1
-23.470563 -8.401890 18.496891 31.041812 0.343762 0.932448 0.089787 0.002630 522019.000000 0 0 1
-24.793163 -8.754090 18.864591 32.360591 0.339420 0.948442 0.089706 0.007502 623410.000000 0 0 1
-25.759493 -7.622690 19.409691 33.142012 0.287707 0.945112 0.107731 0.001124 493827.000000 0 0 1
-25.637223 -7.386090 20.836891 33.852586 0.280504 0.907753 0.100510 -0.000127 56398.300000 0 0 1
-26.412623 -6.285590 21.217591 34.457531 0.233631 0.907445 0.110607 -0.004743 -659777.000000 0 0 1
-26.513623 -6.077390 22.795091 35.489760 0.225325 0.873300 0.102012 -0.006169 528963.000000 0 0 1
-25.290073 -5.611690 23.355401 34.879129 0.218355 0.837113 0.083069 -0.007543 401408.000000 0 0 1
-24.269363 -6.586690 23.445141 34.381115 0.265016 0.820413 0.073831 0.002532 67597.300000 0 0 1
-23.301063 -6.342090 24.693721 34.538985 0.265743 0.774241 0.061162 0.001436 -39467.000000 0 0 1
-22.558263 -5.217090 24.497731 33.708042 0.227276 0.757200 0.052316 0.000124 -229723.000000 0 0 1
-21.721463 -4.988890 25.628171 33.963423 0.225760 0.715780 0.048957 -0.002065 283740.000000 0 0 1
-21.231463 -3.504690 25.771401 33.574142 0.163595 0.695713 0.057087 -0.011679 360220.000000 0 0 1
-20.219763 -3.149390 26.713971 33.651058 0.154516 0.653678 0.042941 -0.007813 248047.000000 0 0 1
-20.564563 -3.212390 28.105971 34.973795 0.154958 0.637427 0.045849 -0.020874 72991.400000 0 0 1
-21.453163 -2.004390 28.615821 35.820678 0.093161 0.645393 0.053637 -0.026234 1262970.000000 0 0 1
-22.740663 -1.965890 27.977881 36.107676 0.086234 0.684325 0.062381 -0.028956 495463.000000 0 0 1
-23.613963 -1.014690 28.578401 37.086033 0.042943 0.691018 0.063237 -0.033603 556472.000000 0 0 1
-24.911563 -0.757290 27.759221 37.305949 0.030390 0.731615 0.065468 -0.030568 -304653.000000 0 0 1
-24.819763 -0.043090 26.497541 36.306228 0.001736 0.752716 0.067990 -0.037189 -132715.000000 0 0 1
-26.037303 0.179510 25.830161 36.676567 -0.006894 0.789404 0.074600 -0.022910 -243884.000000 0 0 1
-26.797613 -1.019390 25.191471 36.793497 0.038022 0.816643 0.072469 -0.025593 -225390.000000 0 0 1
-27.510283 -1.709790 26.205641 38.032548 0.062071 0.810644 0.075409 -0.021425 47752.700000 0 0 1
-27.905243 -3.021990 25.845171 38.155050 0.107874 0.826612 0.076196 -0.021020 25931.800000 0 0 1
-26.796163 -4.079390 26.028401 37.578630 0.151078 0.805656 0.069497 -0.019005 229309.000000 0 0 1
-26.441963 -4.413990 27.371311 38.312523 0.165406 0.774999 0.063314 -0.020432 -70218.200000 0 0 1
-25.370383 -5.324590 27.421851 37.735467 0.206872 0.757310 0.066983 -0.018083 -305707.000000 0 0 1
-25.140703 -5.871790 28.810361 38.685524 0.229444 0.730663 0.047083 -0.015593 174347.000000 0 0 1
-26.156933 -6.668690 29.439241 39.941526 0.249631 0.742089 0.055585 -0.023563 543050.000000 0 0 1
-25.677243 -7.376890 30.569861 40.598716 0.279759 0.718223 0.053882 -0.020915 -230998.000000 0 0 1
-26.877263 -7.731490 31.459301 42.093358 0.280097 0.726702 0.051605 -0.027974 -191797.000000 0 0 1
-27.836483 -8.536190 30.869371 42.434118 0.297551 0.756175 0.040410 -0.028650 -1168030.000000 0 0 1
-28.972353 -8.694690 31.625241 43.762435 0.291551 0.763157 0.054557 -0.025274 -653107.000000 0 0 1
-30.127333 -9.288090 30.789601 44.067271 0.299049 0.797224 0.047491 -0.026475 -264980.000000 0 0 1
-29.936383 -10.661990 30.583751 44.104772 0.342147 0.804552 0.052431 -0.022206 200079.000000 0 0 1
-30.848143 -11.111290 29.600681 44.173171 0.345727 0.836446 0.043234 -0.025976 -261205.000000 0 0 1
-30.379623 -12.392990 28.819391 43.669955 0.387330 0.850062 0.053789 -0.017704 498017.000000 0 0 1
-29.220793 -12.229690 28.010081 42.284568 0.396375 0.846754 0.060040 -0.017394 466963.000000 0 0 1
-28.291073 -13.323390 28.039751 42.001490 0.440130 0.839830 0.059376 -0.015667 287994.000000 0 0 1
-26.961753 -12.877590 27.348301 40.505531 0.445587 0.829595 0.064713 -0.017028 10764.600000 0 0 1
-26.065213 -12.207090 28.232911 40.317560 0.437991 0.795030 0.054752 -0.020355 -97304.900000 0 0 1
-26.429443 -10.931990 28.786361 40.579286 0.392200 0.782170 0.058303 -0.016268 -775507.000000 0 0 1
-26.427543 -9.714690 27.834511 39.592300 0.352265 0.791149 0.054779 -0.010869 965510.000000 0 0 1
-25.104013 -9.322490 27.392481 38.307549 0.355571 0.774076 0.041626 -0.007812 756207.000000 0 0 1
-24.652963 -9.997290 26.216981 37.350294 0.385257 0.792704 0.046163 -0.006648 -120929.000000 0 0 1
-25.424903 -9.870390 24.887031 36.921736 0.370308 0.831121 0.064881 0.003966 17862.300000 0 0 1
-26.547423 -10.713590 24.666751 37.788825 0.383575 0.859584 0.069135 -0.005525 68194.200000 0 0 1
-27.114913 -10.417190 23.391191 37.294560 0.366800 0.892842 0.077616 0.001046 -597625.000000 0 0 1
-28.253733 -11.424290 23.036991 38.203282 0.384247 0.923526 0.083949 -0.010297 597758.000000 0 0 1
-29.518253 -11.119090 23.621011 39.407025 0.360247 0.928031 0.081112 -0.012113 358364.000000 0 0 1
-29.604363 -11.103490 25.017931 40.318763 0.358826 0.901412 0.077099 -0.016355 -726316.000000 0 0 1
-31.067313 -10.787090 25.468931 41.595741 0.334193 0.911834 0.053649 -0.010308 254451.000000 0 0 1
-31.444623 -9.465690 25.188621 41.386353 0.292399 0.916474 0.056036 -0.018198 -222974.000000 0 0 1
-32.801883 -9.141590 25.415441 42.490903 0.271794 0.929620 0.055817 -0.018239 227860.000000 0 0 1
-33.216273 -8.985390 26.940301 43.701692 0.264189 0.906559 0.045349 -0.022164 -229278.000000 0 0 1
-33.546833 -10.259690 27.560701 44.612145 0.296798 0.904874 0.030012 -0.030682 5518.420000 0 0 1
-34.248426 -10.072590 28.746001 45.833878 0.286039 0.892872 0.050902 -0.029270 -1010590.000000 0 0 1
-34.804369 -11.419990 29.356141 46.941914 0.317051 0.895189 0.057491 -0.005530 770043.000000 0 0 1
-36.057196 -11.864990 28.797531 47.646586 0.317900 0.921786 0.043065 -0.007347 140007.000000 0 0 1
36.342521 -11.280890 29.425081 48.102731 -0.300975 0.912572 0.057163 -0.007952 12260.200000 0 0 1
34.977541 -11.953790 28.965361 46.960767 -0.329312 0.906127 0.059640 -0.010670 993569.000000 0 0 1
34.745641 -11.808990 27.619511 45.929829 -0.327622 0.925617 0.069183 -0.007838 -1234140.000000 0 0 1
33.589361 -12.381990 27.168401 44.940860 -0.353173 0.921612 0.087416 -0.002393 -1014000.000000 0 0 1
33.465891 -12.108490 25.626461 43.855409 -0.347162 0.946730 0.079205 -0.010615 25584.400000 0 0 1
33.111451 -10.758290 25.362641 43.074036 -0.314152 0.941204 0.083618 -0.027246 56498.200000 0 0 1
33.300061 -10.400290 24.011411 42.351009 -0.302721 0.967983 0.068005 -0.017811 -334585.000000 0 0 1
32.785601 -8.997790 23.650731 41.415129 -0.267849 0.962994 0.080694 -0.001836 -761444.000000 0 0 1
31.405511 -8.862390 23.594921 40.268702 -0.275040 0.944761 0.088833 -0.012333 -833747.000000 0 0 1
30.959991 -7.508090 23.365531 39.507474 -0.237916 0.937977 0.087499 -0.005551 490727.000000 0 0 1
29.413271 -7.353690 23.389591 38.292169 -0.244991 0.913702 0.097471 -0.000670 471537.000000 0 0 1
28.880021 -7.978090 22.204091 37.292455 -0.269527 0.933027 0.088785 0.003864 -1181690.000000 0 0 1
27.519681 -7.764990 22.169991 36.181990 -0.275012 0.911279 0.081443 -0.011549 -1122610.000000 0 0 1
14.957637 -18.089090 25.728131 34.826466 -0.879874 0.739579 0.051620 0.014811 -534679.000000 0 0 1
13.974537 -19.027790 25.872291 35.024561 -0.937336 0.739672 0.036327 0.009463 -218099.000000 0 0 1
14.521137 -20.340290 25.685631 35.837723 -0.950796 0.771708 0.048744 0.006728 -253429.000000 0 0 1
13.367737 -21.356890 25.657051 35.959663 -1.011535 0.776322 0.008159 0.000275 153396.000000 0 0 1
12.823937 -21.660890 26.927981 36.861411 -1.036256 0.751714 0.027668 -0.005126 383776.000000 0 0 1
11.801437 -20.781490 27.374061 36.338456 -1.054328 0.717718 0.031865 -0.001799 -344264.000000 0 0 1
11.190937 -21.011890 28.770101 37.342406 -1.081410 0.691265 0.034299 -0.008349 -805390.000000 0 0 1
11.948337 -20.692690 29.863931 38.246627 -1.047147 0.674811 0.031595 -0.003325 -535850.000000 0 0 1
11.402737 -19.702790 30.760951 38.268243 -1.046158 0.637100 0.029997 0.000412 -216349.000000 0 0 1
11.444737 -18.253090 30.249521 37.137458 -1.010758 0.618880 0.036016 -0.002888 -230052.000000 0 0 1
12.697137 -17.642190 30.035011 37.075140 -0.946969 0.626453 0.031742 0.008885 -355346.000000 0 0 1
12.632937 -16.495290 29.255661 35.882856 -0.917227 0.617531 0.038569 0.009543 115667.000000 0 0 1
13.667637 -15.450190 29.690661 36.153119 -0.846540 0.607202 0.030672 0.005390 -161881.000000 0 0 1
13.284737 -14.223690 29.236481 35.122206 -0.819518 0.587333 0.055577 0.000406 346730.000000 0 0 1
14.054637 -13.160790 29.868041 35.536447 -0.752567 0.572609 0.052332 0.004983 213487.000000 0 0 1
13.462637 -11.741990 29.730631 34.684684 -0.717237 0.541049 0.051664 0.001430 -214724.000000 0 0 1
13.426837 -11.191390 28.367021 33.319889 -0.694842 0.552235 0.075485 0.000199 -331875.000000 0 0 1
14.642437 -11.014590 27.703851 33.214838 -0.644932 0.584332 0.067641 0.000056 -617523.000000 0 0 1
14.448137 -9.762490 26.834711 32.002446 -0.594225 0.576234 0.072468 0.001262 155687.000000 0 0 1
14.651637 -8.428990 27.334991 32.139073 -0.522055 0.553819 0.068612 -0.005486 382871.000000 0 0 1
16.035337 -8.287990 27.638371 33.010640 -0.477043 0.578550 0.060147 -0.010331 196532.000000 0 0 1
16.625937 -6.822190 27.701811 33.020514 -0.389383 0.575487 0.057108 -0.015594 -702920.000000 0 0 1
17.989137 -6.770390 27.939231 33.912355 -0.359962 0.602598 0.052018 -0.022090 -838387.000000 0 0 1
18.430737 -5.377890 27.856121 33.831601 -0.283907 0.603462 0.054043 -0.020309 1044980.000000 0 0 1
19.981537 -5.382590 27.566421 34.469430 -0.263132 0.643942 0.049652 -0.022048 -389561.000000 0 0 1
20.323237 -5.900390 26.284931 33.745313 -0.282559 0.677853 0.043485 -0.013310 10438.200000 0 0 1
21.612737 -5.657690 25.782421 34.115291 -0.256031 0.714007 0.050327 -0.015091 487115.000000 0 0 1
22.826837 -6.084990 26.688641 35.642322 -0.260514 0.724561 0.049817 -0.025763 -755321.000000 0 0 1
23.130237 -5.102190 27.608511 36.376779 -0.217108 0.709082 0.047798 -0.031856 -130793.000000 0 0 1
24.188237 -5.555790 28.427701 37.736875 -0.225774 0.717710 0.055541 -0.042164 -232627.000000 0 0 1
24.829737 -4.444090 29.284891 38.650622 -0.177107 0.711042 0.054825 -0.037375 -163415.000000 0 0 1
25.708737 -3.714890 28.449041 38.523856 -0.143506 0.739985 0.059470 -0.030460 -109358.000000 0 0 1
25.967437 -2.466790 29.033591 39.030017 -0.094711 0.731941 0.050094 -0.037701 -318879.000000 0 0 1
26.860337 -1.480090 28.220881 38.988286 -0.055047 0.761460 0.068380 -0.032723 145207.000000 0 0 1
28.249537 -1.727290 28.288491 40.015729 -0.061068 0.785642 0.072407 -0.027229 -377826.000000 0 0 1
28.887937 -1.015190 27.289861 39.752736 -0.035128 0.814145 0.065188 -0.008396 -101073.000000 0 0 1
30.425637 -0.957090 27.373821 40.938508 -0.031446 0.838395 0.065650 -0.015969 117161.000000 0 0 1
30.899837 -0.082890 28.380071 41.955157 -0.002683 0.827881 0.060162 -0.006233 -1392610.000000 0 0 1
32.259837 -0.161990 28.490761 43.040060 -0.005021 0.847367 0.083365 -0.022268 -1201900.000000 0 0 1
32.852337 0.766810 29.609271 44.233165 0.023337 0.837408 0.087244 -0.016308 22458.800000 0 0 1
32.617337 2.112110 29.259861 43.869022 0.064664 0.840645 0.074885 -0.005193 210343.000000 0 0 1
32.955737 3.093810 30.217121 44.818820 0.093603 0.830907 0.067288 -0.007278 -13800.400000 0 0 1
33.133037 4.506310 29.503311 44.593164 0.135177 0.847832 0.067649 -0.007184 -72227.100000 0 0 1
33.378037 5.596110 30.347281 45.457312 0.166114 0.839816 0.077250 -0.007924 554904.000000 0 0 1
32.156737 6.139610 30.851301 44.983922 0.188657 0.815053 0.049817 -0.004620 210599.000000 0 0 1
32.273337 7.136910 31.990031 45.998541 0.217637 0.801740 0.049573 -0.011050 -69055.900000 0 0 1
32.806337 6.629110 33.202478 47.144516 0.199383 0.789402 0.058505 -0.009710 113545.000000 0 0 1
32.395537 7.401610 -33.857191 47.440109 0.224621 2.365538 0.075994 -0.022015 -136907.000000 0 0 1
32.724337 6.741710 -32.482481 46.598760 0.203173 2.342096 0.078359 -0.023139 -35927.100000 0 0 1
31.929337 5.605310 -32.161801 45.664904 0.173783 2.352233 0.056414 -0.012152 239851.000000 0 0 1
32.399537 4.386010 -32.764051 46.286608 0.134555 2.357248 0.068152 -0.015729 160115.000000 0 0 1
32.351637 3.171610 -31.805331 45.478199 0.097723 2.345289 0.068000 -0.017786 93295.700000 0 0 1
32.734237 1.963110 -32.431721 46.121584 0.059899 2.350655 0.070645 -0.023348 48319.000000 0 0 1
32.804037 0.949510 -31.486311 45.479601 0.028937 2.335492 0.062918 -0.021011 345117.000000 0 0 1
33.472437 -0.417190 -31.947561 46.273369 -0.012463 2.332851 0.068148 -0.038850 1517650.000000 0 0 1
34.910337 -0.400690 -32.139711 47.453695 -0.011477 2.314863 0.099195 -0.022264 981409.000000 0 0 1
35.576737 -1.627890 -31.967161 47.856594 -0.045725 2.302285 0.103973 -0.022679 213826.000000 0 0 1
36.052337 -1.963590 -30.517501 47.275200 -0.054411 2.272512 0.102063 -0.018284 -245394.000000 0 0 1
35.020637 -2.011290 -29.525691 45.850373 -0.057369 2.270456 0.078060 -0.017109 270709.000000 0 0 1
35.531037 -1.995690 -28.181201 45.394024 -0.056109 2.240576 0.082844 -0.022520 381822.000000 0 0 1
34.431337 -1.608390 -27.130851 43.865555 -0.046679 2.237629 0.082209 -0.025211 178268.000000 0 0 1
34.042937 -0.257890 -27.207881 43.580464 -0.007575 2.245049 0.059631 -0.019121 275178.000000 0 0 1
33.136237 -0.003890 -26.146721 42.209729 -0.000117 2.238835 0.050253 -0.012822 -129758.000000 0 0 1
32.541437 1.415010 -26.167221 41.781225 0.043456 2.247583 0.032485 -0.006206 185236.000000 0 0 1
31.612437 1.649910 -27.222931 41.751123 0.052144 2.281053 0.044997 -0.017096 580603.000000 0 0 1
30.976537 2.917910 -27.180621 41.313995 0.093920 2.288828 0.035177 -0.002567 -7545.320000 0 0 1
30.116237 3.167010 -28.412561 41.524586 0.104774 2.324350 0.052481 -0.010990 -175313.000000 0 0 1
29.143137 4.178510 -28.252991 40.804581 0.142408 2.335603 0.038579 -0.005129 334121.000000 0 0 1
28.462637 4.544610 -29.451901 41.209096 0.158333 2.366983 0.028001 -0.008007 332942.000000 0 0 1
27.315037 5.568910 -29.106451 40.302723 0.201121 2.377768 0.018240 -0.007705 133207.000000 0 0 1
26.160537 4.950110 -28.593831 39.070250 0.187010 2.391839 0.028752 -0.007440 -142706.000000 0 0 1
25.343837 5.909710 -27.955501 38.193517 0.229088 2.391966 0.034358 -0.010424 -522071.000000 0 0 1
24.076437 5.233510 -27.431991 36.872463 0.214041 2.409788 0.044690 -0.008541 -990968.000000 0 0 1
23.177637 4.937210 -28.430061 37.011447 0.209879 2.446731 0.054223 -0.011554 -714479.000000 0 0 1
22.001237 4.370810 -27.934021 35.825520 0.196109 2.465021 0.049510 -0.011039 -244671.000000 0 0 1
20.986537 4.007210 -29.079141 36.084469 0.188671 2.507928 0.036383 -0.008953 -198847.000000 0 0 1
21.510537 3.026310 -29.904211 36.961109 0.139772 2.513368 0.035188 -0.015587 -321714.000000 0 0 1
20.701537 2.602110 -30.937611 37.315685 0.125041 2.548253 0.020781 -0.019193 -601798.000000 0 0 1
20.873137 3.421210 -32.254531 38.571327 0.162460 2.561170 0.025733 -0.018530 445970.000000 0 0 1
21.937537 2.860510 -33.048401 39.769773 0.129662 2.551687 0.042947 -0.017836 428345.000000 0 0 1
22.185737 3.431710 33.761401 40.543997 0.153465 0.586812 0.043073 -0.023800 -172579.000000 0 0 1
23.636237 3.192710 33.293301 40.954962 0.134264 0.621640 0.042196 -0.019515 -25437.700000 0 0 1
23.925537 1.841610 32.906167 40.726387 0.076821 0.630078 0.036634 -0.018500 -1152670.000000 0 0 1
25.259337 1.646210 32.640740 41.305714 0.065080 0.659623 0.044878 -0.022184 -1414660.000000 0 0 1
25.651837 0.168210 32.498797 41.403101 0.006557 0.668203 0.038471 -0.027362 -473819.000000 0 0 1
25.137937 -0.625490 31.467201 40.280166 -0.024877 0.674197 0.031122 -0.027209 189471.000000 0 0 1
23.742337 -0.866090 31.445591 39.411595 -0.036463 0.647032 0.040651 -0.028124 132629.000000 0 0 1
22.981137 -1.902190 32.333098 39.713728 -0.082584 0.619525 0.034027 -0.031920 -277321.000000 0 0 1
22.963037 -3.261290 31.933791 39.467760 -0.141080 0.628159 0.043003 -0.039248 117468.000000 0 0 1
22.305137 -4.093790 32.862264 39.927517 -0.181516 0.604039 0.045591 -0.033238 -278399.000000 0 0 1
22.316037 -5.522490 32.403431 39.730161 -0.242594 0.617052 0.051813 -0.031147 959387.000000 0 0 1
23.647437 -6.075790 32.285119 40.477714 -0.251492 0.647487 0.054525 -0.032351 795934.000000 0 0 1
23.550437 -7.486490 31.967881 40.405643 -0.307789 0.658071 0.074713 -0.037378 862611.000000 0 0 1
24.922237 -8.270890 31.743501 41.196788 -0.320431 0.691119 0.066409 -0.034836 988697.000000 0 0 1
25.430837 -7.870990 30.500941 40.484408 -0.300155 0.717579 0.072108 -0.035944 -122073.000000 0 0 1
26.526537 -8.723090 30.166271 41.106609 -0.317705 0.746817 0.077509 -0.032129 178047.000000 0 0 1
27.075437 -8.383290 28.770381 40.386800 -0.300265 0.777926 0.086990 -0.037129 505562.000000 0 0 1
26.136837 -8.661090 27.707441 39.062142 -0.319987 0.782268 0.064158 -0.030200 370647.000000 0 0 1
26.735637 -8.415290 26.458301 38.544170 -0.304942 0.814213 0.087024 -0.025005 266713.000000 0 0 1
25.920337 -8.999190 25.292911 37.317296 -0.334166 0.826057 0.058088 -0.018784 761675.000000 0 0 1
24.642137 -8.426890 24.956881 36.070670 -0.329504 0.806695 0.053798 -0.011906 778880.000000 0 0 1
23.942237 -9.315690 24.089931 35.218426 -0.371066 0.817544 0.049709 -0.010363 -221739.000000 0 0 1
22.447437 -9.082890 23.885641 34.013382 -0.384491 0.792254 0.020965 -0.006239 -412786.000000 0 0 1
21.685937 -9.306690 25.055801 34.419289 -0.405387 0.755457 0.029554 -0.000144 -10038.600000 0 0 1
20.327837 -9.078490 24.705231 33.256403 -0.420026 0.733447 0.034901 0.003819 786939.000000 0 0 1
19.314437 -9.155890 25.928521 33.603065 -0.442668 0.689425 0.037992 -0.006096 193965.000000 0 0 1
18.901137 -10.442190 26.286131 34.018421 -0.504733 0.687708 0.048806 0.000116 19591.600000 0 0 1
19.716437 -11.108890 27.186791 35.373251 -0.513098 0.694195 0.037465 -0.003371 -325005.000000 0 0 1
18.834237 -12.124490 27.976351 35.838637 -0.571967 0.675139 0.041391 -0.001635 559643.000000 0 0 1
18.180337 -13.133090 27.201111 35.254831 -0.625588 0.689511 0.056596 -0.002303 862246.000000 0 0 1
17.263137 -13.970290 27.944621 35.694351 -0.680359 0.671505 0.045930 0.001184 239760.000000 0 0 1
17.879137 -15.180690 28.674081 37.044835 -0.703956 0.685603 0.063575 0.009611 -333609.000000 0 0 1
16.913437 -15.972690 29.321431 37.429099 -0.756800 0.670701 0.058983 0.005938 152923.000000 0 0 1
17.474537 -17.201790 29.754161 38.556077 -0.777533 0.689269 0.071407 -0.001531 -83429.900000 0 0 1
17.846037 -18.217190 28.635931 38.345320 -0.795690 0.727573 0.069280 -0.001309 170296.000000 0 0 1
18.980337 -17.897490 27.856511 38.164886 -0.756044 0.752622 0.074368 -0.000450 347660.000000 0 0 1
19.319037 -18.955990 26.949231 38.194447 -0.775913 0.787555 0.069290 0.008728 -41006.100000 0 0 1
20.320437 -18.450190 25.883051 37.726144 -0.737197 0.814713 0.073744 0.001086 90411.400000 0 0 1
21.599437 -18.245690 26.449131 38.716887 -0.701427 0.818740 0.082529 -0.005874 10453.200000 0 0 1
22.440337 -17.494190 25.607611 38.280088 -0.662169 0.837996 0.057254 -0.003995 432389.000000 0 0 1
23.891137 -17.211190 26.090651 39.341244 -0.624287 0.845726 0.053530 -0.005598 385771.000000 0 0 1
24.674837 -18.387390 26.155341 40.386204 -0.640414 0.866326 0.053005 -0.011044 374529.000000 0 0 1
25.996237 -18.106790 26.614891 41.376473 -0.608384 0.872077 0.045074 -0.010419 595790.000000 0 0 1
26.899137 -19.383090 26.636891 42.529891 -0.624408 0.893986 0.038956 -0.011780 9255.560000 0 0 1
26.707537 -20.085390 27.824391 43.484619 -0.644812 0.876471 0.050118 -0.010482 -198766.000000 0 0 1
27.474937 -21.243290 27.906421 44.552416 -0.658177 0.893905 0.053602 -0.007044 13547.800000 0 0 1
26.867937 -22.368590 28.842441 45.322469 -0.694269 0.880996 0.057328 0.002461 221271.000000 0 0 1
26.944337 -22.146390 30.189181 46.128586 -0.687971 0.857332 0.062470 -0.003884 -73001.900000 0 0 1
26.299837 -23.220590 30.836151 46.709157 -0.723297 0.849747 0.064657 0.000689 -204015.000000 0 0 1
25.995137 -23.008790 32.348246 47.450611 -0.724532 0.820679 0.064973 -0.001940 -131840.000000 0 0 1
25.485737 -24.160490 32.931596 48.142933 -0.758711 0.817512 0.063374 -0.003119 8765.950000 0 0 1
25.308837 -24.161190 -33.821291 48.663950 -0.762203 2.339212 0.073282 -0.008001 -237532.000000 0 0 1
25.133037 -25.659620 -33.275031 48.962366 -0.795765 2.318019 0.070628 -0.011341 719044.000000 0 0 1
23.849137 -26.297690 -33.388401 48.735358 -0.834187 2.325532 0.086819 -0.013533 384492.000000 0 0 1
23.554537 -26.691970 33.434466 48.837905 -0.847758 0.816741 0.073966 -0.015332 126512.000000 0 0 1
22.184637 -27.424350 33.438776 48.604576 -0.890628 0.812100 0.089958 -0.019383 409296.000000 0 0 1
22.236037 -28.743950 33.970455 49.745832 -0.912368 0.819098 0.084810 -0.020829 152593.000000 0 0 1
20.931537 -29.282220 33.855420 49.414239 -0.950193 0.816007 0.103009 -0.024904 79591.900000 0 0 1
20.811337 -30.874490 34.034353 50.444851 -0.977691 0.830259 0.074615 -0.025367 -318508.000000 0 0 1
21.312837 -31.380500 -32.893191 50.208911 -0.974184 2.285146 0.039728 -0.022670 1621650.000000 0 0 1
22.702037 -31.826830 -33.021281 51.173573 -0.951201 2.272186 0.021523 -0.006796 1134800.000000 0 0 1
23.315537 -32.534560 -31.808661 51.126341 -0.948990 2.242292 0.012506 -0.004764 283846.000000 0 0 1
24.593237 -33.097410 -32.153271 52.288609 -0.931754 2.233080 0.009123 0.001820 811080.000000 0 0 1
25.292537 -33.736580 -31.131311 52.412095 -0.927483 2.206783 0.006558 0.015318 445989.000000 0 0 1
26.090537 -32.917750 -29.999561 51.616548 -0.900585 2.190999 -0.001412 0.010291 207683.000000 0 0 1
26.417437 -33.635400 -28.832701 51.580478 -0.905018 2.163957 0.006700 0.014254 -158806.000000 0 0 1
26.900537 -32.746390 -27.874771 50.724429 -0.883094 2.152602 0.017936 0.010914 -821485.000000 0 0 1
27.365437 -33.405670 -26.555831 50.695345 -0.884466 2.122139 0.012529 0.004884 608401.000000 0 0 1
28.615737 -34.077502 -26.735171 51.912483 -0.872298 2.111809 0.015681 0.022320 235205.000000 0 0 1
29.741837 -33.294660 -26.414261 51.873157 -0.841700 2.105061 0.021070 0.006536 -296720.000000 0 0 1
-27.520003 -30.851181 9.553109 42.431213 0.842405 1.343706 0.066201 -0.020728 86331.000000 0 0 1
-27.384763 -31.695581 10.692109 43.230271 0.858234 1.320873 0.063732 -0.017150 -271764.000000 0 0 1
-26.046403 -32.097681 10.853409 42.737253 0.889099 1.314027 0.059824 -0.025500 -178183.000000 0 0 1
-25.808073 -33.173081 11.934709 43.691501 0.909626 1.294121 0.064244 -0.028049 -130026.000000 0 0 1
-25.986623 33.750610 11.430909 44.102993 -0.914643 1.308616 0.064653 -0.016660 -906709.000000 0 0 1
-27.214043 33.225510 11.770609 44.531853 -0.884535 1.303299 0.049088 -0.018765 -888392.000000 0 0 1
-27.306753 31.734410 11.396609 43.389103 -0.860251 1.305018 0.048624 -0.012884 90225.900000 0 0 1
-27.124703 31.417210 10.061609 42.708625 -0.858591 1.332974 0.066693 -0.017811 -21164.300000 0 0 1
-27.150593 30.050310 9.726009 41.650584 -0.836048 1.335106 0.074966 -0.013732 -364240.000000 0 0 1
-26.538093 29.773610 8.376609 40.754213 -0.842792 1.363781 0.066434 -0.003566 831101.000000 0 0 1
-25.092223 29.776610 8.356009 39.825734 -0.870566 1.359411 0.057273 -0.003571 1122530.000000 0 0 1
-24.666963 29.556010 6.998209 39.127890 -0.875321 1.390974 0.047345 0.005359 918171.000000 0 0 1
-23.174563 29.064610 6.846409 37.797953 -0.897676 1.388659 0.053077 0.001661 908968.000000 0 0 1
-22.952163 27.657710 7.083509 36.632320 -0.878108 1.376203 0.056949 0.003216 164266.000000 0 0 1
-23.307263 26.716210 6.095309 35.974119 -0.853440 1.400539 0.039880 0.000474 -492819.000000 0 0 1
-23.480563 25.348010 6.765209 35.208331 -0.823624 1.377446 0.037045 -0.004732 -716214.000000 0 0 1
-24.748163 25.153610 7.332309 36.040789 -0.793523 1.365921 0.054634 -0.008056 23460.000000 0 0 1
-25.007663 23.775810 7.656109 35.345274 -0.760152 1.352457 0.060470 -0.013498 -166103.000000 0 0 1
-25.327313 22.820710 6.509309 34.707762 -0.733385 1.382133 0.063559 -0.019540 -266589.000000 0 0 1
-26.573423 22.981410 5.844209 35.615261 -0.713039 1.405958 0.061911 -0.022649 470958.000000 0 0 1
-26.507093 22.101810 4.741209 34.836692 -0.695018 1.434274 0.050244 -0.022791 68591.600000 0 0 1
-26.525333 22.925210 3.454609 35.229149 -0.712724 1.472577 0.049355 -0.027970 -884982.000000 0 0 1
-25.323533 23.592410 3.381509 34.775247 -0.750023 1.473403 0.046672 -0.022595 -555963.000000 0 0 1
-25.229053 24.287810 2.158009 35.086463 -0.766392 1.509252 0.040375 -0.011808 -146796.000000 0 0 1
-23.846663 24.947310 2.048609 34.572076 -0.807951 1.511505 0.035150 -0.002378 -120232.000000 0 0 1
-23.617563 25.715510 0.864009 34.925969 -0.827899 1.546055 0.022205 -0.008603 -398023.000000 0 0 1
-22.362663 26.342210 0.910709 34.566315 -0.866924 1.544447 0.024169 -0.001858 -751978.000000 0 0 1
-21.883463 26.956610 -0.399591 34.723256 -0.888900 1.582304 0.038250 -0.005775 55197.800000 0 0 1
-21.422663 26.008010 -1.351191 33.721993 -0.881773 1.610876 0.023306 -0.011540 1392250.000000 0 0 1
-20.204363 25.246410 -1.034091 32.352231 -0.895881 1.602765 0.035979 -0.018287 1020310.000000 0 0 1
-19.842463 24.189610 -2.159591 31.361193 -0.883806 1.639713 0.041791 -0.025328 -509368.000000 0 0 1
-20.875963 23.284910 -2.394291 31.364399 -0.839894 1.647209 0.037795 -0.026224 -372024.000000 0 0 1
-20.548163 22.201110 -3.228391 30.422670 -0.824045 1.677114 0.041058 -0.025462 -843080.000000 0 0 1
-21.769763 21.678710 -3.935691 30.973840 -0.783303 1.698206 0.041435 -0.020648 -580671.000000 0 0 1
-22.325963 22.570810 -4.897191 32.122774 -0.790852 1.723845 0.032864 -0.009622 -710000.000000 0 0 1
-23.416063 22.065710 -5.553791 32.650455 -0.755717 1.741726 0.042558 -0.006597 -621874.000000 0 0 1
-23.759063 22.730110 -6.924391 33.602056 -0.763269 1.778354 0.036883 0.003364 10563.600000 0 0 1
-22.917263 22.314110 -7.965191 32.963082 -0.772064 1.814852 0.021761 -0.002846 20940.400000 0 0 1
-23.093563 23.047210 -9.142791 33.883288 -0.784394 1.844015 0.027415 -0.004799 -173226.000000 0 0 1
-22.343463 22.435010 -10.315891 33.301316 -0.787443 1.885752 0.028896 -0.005063 -300796.000000 0 0 1
-23.069763 21.429010 -10.923791 33.327851 -0.748543 1.904736 0.021458 -0.008239 86121.700000 0 0 1
-22.320363 20.951310 -12.047591 32.898335 -0.753770 1.945726 0.025535 -0.008156 380629.000000 0 0 1
-23.091263 21.014010 -13.411791 33.980453 -0.738335 1.976528 0.018195 -0.006050 394050.000000 0 0 1
-24.106563 20.020910 -13.457891 34.103930 -0.693074 1.976444 0.015634 0.000180 216577.000000 0 0 1
-24.836963 19.965310 -14.675891 35.083759 -0.677087 2.002380 0.026684 -0.005507 511719.000000 0 0 1
-25.731953 18.703010 -14.780591 35.077085 -0.628513 2.005757 0.053288 -0.011667 456646.000000 0 0 1
-25.049263 17.675710 -15.500991 34.353705 -0.614500 2.038925 0.040178 -0.009359 448108.000000 0 0 1
-25.914233 16.548710 -15.712791 34.529684 -0.568316 2.043227 0.077281 -0.016117 276014.000000 0 0 1
-25.567823 15.695310 -16.922991 34.444796 -0.550555 2.084387 0.079674 -0.011223 -5793.390000 0 0 1
-24.445563 14.848910 -16.832591 33.187525 -0.545863 2.102725 0.084105 -0.012245 -113970.000000 0 0 1
-24.176363 14.218610 -18.054091 33.355893 -0.531639 2.142727 0.089772 -0.018175 54629.600000 0 0 1
-23.361863 12.923910 -17.816591 32.097274 -0.505301 2.159257 0.093623 -0.014342 -147158.000000 0 0 1
-22.192363 13.112910 -17.073391 30.918442 -0.533683 2.155806 0.097100 -0.028211 -216139.000000 0 0 1
-21.451963 11.886810 -16.979091 29.829055 -0.505995 2.176345 0.106355 -0.022191 140302.000000 0 0 1
-20.310963 12.044110 -15.940491 28.490263 -0.535246 2.164587 0.110561 -0.028314 -190686.000000 0 0 1
-19.326463 12.931310 -16.385291 28.446594 -0.589684 2.184626 0.091022 -0.020268 842740.000000 0 0 1
-18.202563 13.023810 -15.449891 27.196545 -0.621049 2.174971 0.093892 -0.011717 1710970.000000 0 0 1
-17.281563 14.320410 -15.616691 27.342414 -0.691969 2.178706 0.067602 -0.004789 773429.000000 0 0 1
-16.471163 14.299510 -16.786291 27.523713 -0.714940 2.226711 0.082814 -0.014485 -54194.700000 0 0 1
-15.527063 15.319410 -16.875491 27.578184 -0.778666 2.229275 0.072741 -0.007576 -65725.100000 0 0 1
-14.697563 15.224310 -18.178891 27.897492 -0.803000 2.280530 0.075860 -0.011905 -9812.530000 0 0 1
-13.725163 14.233610 -18.277891 26.926884 -0.803582 2.316920 0.075180 -0.010565 -475841.000000 0 0 1
-13.093463 14.222810 -19.528491 27.478884 -0.826718 2.361250 0.090592 -0.018344 -290344.000000 0 0 1
-12.061363 13.117010 -19.738691 26.592261 -0.827300 2.407251 0.078169 -0.021502 -282807.000000 0 0 1
-12.482963 11.797310 -19.993291 26.357780 -0.757167 2.431858 0.103250 -0.028339 -645877.000000 0 0 1
-11.443863 10.895210 -19.812991 25.342104 -0.760843 2.468378 0.074106 -0.012850 -425270.000000 0 0 1
-11.696863 9.626510 -20.614291 25.581933 -0.688608 2.507846 0.097439 -0.022759 -29979.800000 0 0 1
-11.618863 9.898010 -22.003091 26.778809 -0.705591 2.535115 0.105871 -0.025642 99059.500000 0 0 1
-11.939563 8.818710 -22.884091 27.276445 -0.636173 2.566182 0.108555 -0.017218 2316.800000 0 0 1
-11.550563 9.238210 -24.350791 28.490719 -0.674623 2.595754 0.094195 -0.026937 -106602.000000 0 0 1
-10.165063 9.284610 -24.601491 28.191592 -0.740161 2.631406 0.081124 -0.025142 -219896.000000 0 0 1
-9.699063 8.388410 -25.603901 28.635590 -0.713063 2.677278 0.056425 -0.026910 -360978.000000 0 0 1
-9.405863 8.967310 -26.995401 29.960550 -0.761533 2.692938 0.088305 -0.027826 -275090.000000 0 0 1
-8.187363 9.669410 -27.075561 29.893417 -0.868205 2.703911 0.088173 -0.031608 -154645.000000 0 0 1
-8.057263 10.868010 -26.383941 29.650387 -0.932839 2.667779 0.061610 -0.025812 52279.600000 0 0 1
-6.686363 11.610710 -26.552231 29.741167 -1.048302 2.674269 0.055539 -0.025105 530932.000000 0 0 1
-6.405063 12.148410 -27.837881 31.041203 -1.085599 2.683289 0.054126 -0.032094 -522043.000000 0 0 1
-5.046963 12.434010 -27.895181 30.955089 -1.185214 2.693211 0.069497 -0.031424 -909886.000000 0 0 1
-4.437063 12.843510 -29.246951 32.249456 -1.238162 2.706658 0.070428 -0.028107 -79116.900000 0 0 1
-3.037963 12.856810 -29.028681 31.893433 -1.338760 2.714508 0.087123 -0.039929 103908.000000 0 0 1
-2.303163 12.691710 -30.244791 32.880563 -1.391280 2.738464 0.086394 -0.039771 166567.000000 0 0 1
-0.792063 12.572610 -29.973531 32.513235 -1.507880 2.743719 0.102629 -0.052553 -509559.000000 0 0 1
-0.416963 11.288610 -29.484241 31.574151 -1.533876 2.775713 0.074178 -0.032781 1284610.000000 0 0 1
1.023337 11.114810 -29.527701 31.566934 1.478986 2.780184 0.089300 -0.036735 1614880.000000 0 0 1
1.661337 10.661810 -30.893161 32.723411 1.416218 2.805556 0.088487 -0.028806 -156555.000000 0 0 1
1.437037 11.575910 -31.949791 34.012584 1.447288 2.791532 0.100846 -0.042845 189308.000000 0 0 1
1.602637 10.895210 -33.176161 34.956140 1.424748 2.821098 0.105043 -0.032839 -26328.800000 0 0 1
1.837037 11.804710 33.734802 35.787746 1.416416 0.340357 0.105128 -0.041388 428079.000000 0 0 1
3.156437 12.371010 33.706077 36.043094 1.320979 0.362084 0.102381 -0.044581 593392.000000 0 0 1
3.245337 13.217910 32.570416 35.299821 1.330033 0.395824 0.101802 -0.040538 1150940.000000 0 0 1
4.782237 13.403410 32.249774 35.250094 1.228083 0.415574 0.095073 -0.032219 1165110.000000 0 0 1
5.424337 12.204210 31.742441 34.437606 1.152555 0.398259 0.084507 -0.032529 202610.000000 0 0 1
6.774437 12.528410 31.486701 34.558159 1.075101 0.424798 0.077474 -0.017260 57783.200000 0 0 1
7.657737 11.394710 30.918161 33.829174 0.979081 0.417884 0.057036 -0.009395 20793.700000 0 0 1
7.311937 11.019410 29.629571 32.446930 0.984954 0.419801 0.060070 -0.013699 245435.000000 0 0 1
8.076837 9.846710 29.302591 31.950506 0.883825 0.409991 0.064669 -0.010044 296139.000000 0 0 1
7.503237 9.055110 28.100981 30.462414 0.878847 0.396339 0.057321 -0.008224 542982.000000 0 0 1
6.437237 8.187410 28.518711 30.360971 0.904505 0.350150 0.061562 -0.016512 320210.000000 0 0 1
5.900337 7.420310 27.474871 29.064471 0.899013 0.332259 0.070971 -0.023047 -207395.000000 0 0 1
5.145137 6.203410 28.018661 29.154761 0.878381 0.280084 0.082541 -0.024256 -135969.000000 0 0 1
5.914337 5.356210 28.817501 29.901784 0.735918 0.270121 0.065927 -0.021089 -117728.000000 0 0 1
5.034537 4.493510 29.510521 30.272248 0.728677 0.224806 0.080485 -0.024597 -619455.000000 0 0 1
5.672137 3.322310 30.189581 30.896952 0.529857 0.214394 0.085307 -0.019957 -204835.000000 0 0 1
5.996237 2.246610 29.383991 30.073593 0.358481 0.214563 0.091782 -0.015968 616003.000000 0 0 1
7.092237 2.417710 28.451721 29.421855 0.328541 0.257511 0.078762 -0.015251 216115.000000 0 0 1
7.246737 1.161410 27.596851 28.556089 0.158915 0.259927 0.079012 -0.020991 180384.000000 0 0 1
7.816137 0.095210 28.402411 29.458411 0.012181 0.268564 0.053717 0.004932 198502.000000 0 0 1
7.762137 -1.195390 27.794151 28.882426 -0.152802 0.275385 0.068466 0.003263 -119636.000000 0 0 1
8.273937 -2.380090 28.641441 29.907440 -0.280099 0.292002 0.068351 0.008442 554287.000000 0 0 1
9.683237 -2.308590 28.837521 30.507331 -0.234042 0.332390 0.057575 0.001544 180567.000000 0 0 1
10.355237 -3.521990 28.596001 30.616443 -0.327843 0.365324 0.053159 0.004468 356989.000000 0 0 1
11.905937 -3.345890 28.549061 31.112621 -0.273961 0.408787 0.051634 0.003579 914516.000000 0 0 1
12.777737 -4.441590 28.272251 31.341960 -0.334539 0.446283 0.058767 -0.002422 452258.000000 0 0 1
12.850237 -5.490590 29.221531 32.390940 -0.403796 0.446066 0.062333 0.000179 -496694.000000 0 0 1
12.279237 -6.845290 28.730651 31.985746 -0.508559 0.455064 0.069662 0.000245 1422930.000000 0 0 1
10.824337 -6.886490 28.734891 31.468777 -0.566616 0.419914 0.064420 0.009554 1410230.000000 0 0 1
10.256337 -8.211590 28.473221 31.358363 -0.675128 0.432324 0.065905 0.006691 1196080.000000 0 0 1
8.705437 -8.107190 28.247991 30.650614 -0.749830 0.398581 0.080065 0.004888 763310.000000 0 0 1
8.091837 -7.598490 29.404321 31.429746 -0.753966 0.360963 0.089220 0.010641 230027.000000 0 0 1
6.686637 -7.423290 29.217171 30.878138 -0.837559 0.329485 0.092895 -0.001803 708753.000000 0 0 1
5.947337 -6.746390 30.410841 31.712834 -0.848264 0.287540 0.082301 0.000419 149837.000000 0 0 1
5.976637 -7.466190 31.640151 33.053945 -0.895755 0.293533 0.080333 0.000853 -27400.900000 0 0 1
5.184137 -6.779290 32.572220 33.671702 -0.917952 0.256251 0.083928 0.000689 109896.000000 0 0 1
5.830837 -5.554790 33.361417 34.319651 -0.761158 0.236862 0.093092 0.006063 217300.000000 0 0 1
6.002737 -4.422790 32.533659 33.377131 -0.634997 0.225291 0.091652 0.009200 -69777.000000 0 0 1
6.683337 -3.384090 33.190843 34.025742 -0.468713 0.221983 0.084698 0.015858 30085.200000 0 0 1
6.733137 -2.162890 32.309203 33.074126 -0.310819 0.215487 0.082646 0.014122 22163.900000 0 0 1
5.424037 -1.714690 32.031631 32.532840 -0.306187 0.175761 0.091488 0.009198 -68995.000000 0 0 1
5.321237 -0.556590 31.225411 31.680461 -0.104219 0.169695 0.092857 -0.003912 -282500.000000 0 0 1
3.877437 -0.130890 30.942621 31.184891 -0.033744 0.124731 0.093358 -0.014761 -170069.000000 0 0 1
3.195437 0.270910 32.092431 32.252261 0.084578 0.099596 0.082540 -0.011819 -832432.000000 0 0 1
1.894637 0.723910 31.866811 31.931291 0.364967 0.063561 0.084922 -0.022552 -60843.200000 0 0 1
1.136537 0.820710 33.236246 33.265798 0.625415 0.042154 0.076917 -0.018635 63953.200000 0 0 1
1.638137 1.879610 34.004735 34.096017 0.853935 0.073190 0.072094 -0.014416 -459741.000000 0 0 1
0.971837 1.995010 -32.949571 33.024214 1.117495 3.074345 0.053498 -0.016060 -317156.000000 0 0 1
1.552237 3.114810 -32.021571 32.210130 1.108477 3.033336 0.047169 -0.004817 107127.000000 0 0 1
2.775637 2.729910 -31.432431 31.672611 0.777093 3.018363 0.042115 0.003441 212490.000000 0 0 1
3.330337 3.837810 -30.661101 31.079302 0.856076 2.977360 0.038231 0.002382 120481.000000 0 0 1
4.408937 3.396910 -29.662871 30.180517 0.656468 2.956115 0.059868 0.001451 -77353.000000 0 0 1
3.855137 2.805910 -28.513171 28.909101 0.629165 2.975900 0.066242 -0.013070 1018910.000000 0 0 1
4.955837 2.290310 -27.744861 28.276901 0.432907 2.947301 0.077071 -0.022476 398894.000000 0 0 1
4.523737 1.406210 -26.551311 26.970608 0.301382 2.965032 0.078439 -0.025163 76370.800000 0 0 1
3.832937 0.188410 -26.717611 26.991807 0.049116 2.998934 0.087340 -0.017068 86841.300000 0 0 1
3.479137 -0.456290 -25.503891 25.744146 -0.130406 3.004867 0.088615 -0.016943 -407637.000000 0 0 1
4.255037 -1.702790 -25.077281 25.492643 -0.380663 2.960828 0.095640 -0.029236 1660480.000000 0 0 1
5.706737 -1.538890 -24.936391 25.627302 -0.263397 2.908861 0.083942 -0.029427 1491030.000000 0 0 1
6.227837 -2.798590 -24.687191 25.613970 -0.422328 2.871767 0.090319 -0.033739 1048540.000000 0 0 1
7.781337 -2.874490 -24.403591 25.774932 -0.353859 2.813925 0.104482 -0.036405 703912.000000 0 0 1
8.642737 -2.584390 -25.425381 26.978250 -0.290562 2.800650 0.084656 -0.035444 -1398750.000000 0 0 1
9.835137 -3.228290 -25.128561 27.177129 -0.317160 2.750837 0.064248 -0.023713 -777568.000000 0 0 1
-30.505243 -4.070490 18.063591 35.685180 0.132652 1.040032 0.197679 -0.022041 -913172.000000 0 0 1
-31.866983 -3.942190 18.179591 36.899092 0.123082 1.055625 0.164904 -0.013677 -1305460.000000 0 0 1
-32.386193 -4.978090 19.004491 37.878986 0.152517 1.045215 0.130119 -0.018346 -36082.400000 0 0 1
-33.851073 -4.756890 19.404591 39.307268 0.139610 1.054498 0.122118 -0.014489 -139305.000000 0 0 1
-34.761093 -4.722990 18.337791 39.584275 0.135043 1.089127 0.113584 -0.016338 -488663.000000 0 0 1
-36.085263 -4.854790 18.754091 40.956454 0.133734 1.095161 0.070634 -0.002520 -48650.600000 0 0 1
36.355301 -4.743490 17.576691 40.658931 -0.129743 1.123759 0.046354 0.000632 738710.000000 0 0 1
35.027321 -4.915390 18.053391 39.711449 -0.139420 1.098857 0.021971 0.006210 341926.000000 0 0 1
34.041021 -4.663490 17.067691 38.364637 -0.136149 1.109755 0.023756 0.002174 576844.000000 0 0 1
32.555091 -4.898890 17.429491 37.250775 -0.149359 1.083888 0.038572 0.007403 58065.000000 0 0 1
31.987411 -4.115490 18.423091 37.142186 -0.127957 1.051793 0.048465 0.002118 399954.000000 0 0 1
30.827201 -4.746290 18.971891 36.507208 -0.152765 1.024326 0.065822 0.003114 533571.000000 0 0 1
30.094121 -3.986390 20.108491 36.412894 -0.131697 0.985753 0.084522 -0.010151 -225219.000000 0 0 1
29.242241 -2.950890 19.768491 35.420469 -0.100571 0.978691 0.083167 -0.004995 -139595.000000 0 0 1
29.884801 -1.694190 19.467891 35.706728 -0.056630 0.994149 0.063071 0.000105 -297046.000000 0 0 1
28.984201 -0.460690 19.666391 35.029460 -0.015893 0.974690 0.052855 0.002688 -231088.000000 0 0 1
29.404901 0.728410 19.133591 35.089501 0.024767 0.994074 0.051246 -0.000560 296377.000000 0 0 1
28.421051 1.753010 19.416891 34.465125 0.061602 0.972328 0.045264 -0.001818 575025.000000 0 0 1
28.701191 3.203110 18.799791 34.459403 0.111142 0.993735 0.050843 -0.001142 96553.000000 0 0 1
28.521151 3.075910 17.398191 33.550176 0.107431 1.025616 0.031574 0.001708 56910.300000 0 0 1
28.687971 4.265910 16.676091 33.455787 0.147619 1.048985 0.033759 -0.004730 32142.500000 0 0 1
28.284981 4.053410 15.203891 32.367091 0.142337 1.081808 0.036725 0.000440 -308734.000000 0 0 1
28.221181 5.266310 14.461091 32.144864 0.184487 1.104174 0.049698 -0.018492 376198.000000 0 0 1
27.504681 5.110910 13.224691 30.943842 0.183724 1.129207 0.054594 -0.008615 -20499.200000 0 0 1
27.001381 6.472110 12.758491 30.557191 0.235257 1.140073 0.080218 -0.012494 -694842.000000 0 0 1
26.037381 6.863310 13.677391 30.201346 0.257732 1.100811 0.062816 -0.011959 -244180.000000 0 0 1
25.488981 8.163410 13.320891 29.896080 0.309950 1.108982 0.088951 -0.032085 -307748.000000 0 0 1
24.232381 8.509110 14.122491 29.309691 0.337696 1.068047 0.080997 -0.033060 1112550.000000 0 0 1
22.957581 7.860910 13.832791 27.931891 0.329897 1.052693 0.081672 -0.020491 1792830.000000 0 0 1
22.841081 6.604310 14.415791 27.805520 0.281466 1.025758 0.082003 -0.017824 -732337.000000 0 0 1
21.513481 5.907210 14.100591 26.392265 0.267977 1.007153 0.089501 -0.014652 -382566.000000 0 0 1
21.259781 5.669110 12.709791 25.409760 0.260595 1.046974 0.098743 -0.013638 549926.000000 0 0 1
20.129481 4.862510 12.457091 24.166488 0.237021 1.029241 0.093871 -0.012767 -222192.000000 0 1 0
19.822181 4.803810 10.960191 23.154292 0.237761 1.077701 0.101329 -0.013730 -660542.000000 0 1 0
20.696081 3.988210 10.252191 23.438025 0.190370 1.118072 0.105962 -0.018289 287724.000000 0 1 0
20.316681 3.693410 8.887391 22.480982 0.179828 1.164370 0.114174 -0.017413 290537.000000 0 1 0
21.419581 2.867010 8.133391 23.090480 0.133059 1.210833 0.117171 -0.019330 -594725.000000 0 1 0
21.581381 1.519110 8.514691 23.250025 0.070274 1.195850 0.110051 -0.020458 266099.000000 0 1 0
22.315481 0.739310 7.610291 23.589061 0.033118 1.242301 0.088273 -0.019931 -859049.000000 0 1 0
23.833681 0.957510 7.637791 25.045899 0.040153 1.260909 0.090640 -0.020168 -557921.000000 0 0 1
24.647981 0.582210 8.774191 26.169608 0.023617 1.228892 0.105561 -0.010294 985258.000000 0 0 1
24.525981 1.397210 9.892491 26.482774 0.056907 1.187969 0.098453 -0.010240 -495422.000000 0 0 1
25.297481 0.860210 11.137991 27.654247 0.033991 1.156267 0.079846 -0.006204 -91933.900000 0 0 1
26.693281 1.005210 11.045591 28.905826 0.037640 1.178703 0.074247 -0.012824 -165977.000000 0 0 1
27.291281 0.478010 12.207391 29.900885 0.017513 1.150247 0.066083 -0.012003 368375.000000 0 0 1
28.847651 0.538310 12.185091 31.320173 0.018658 1.171197 0.084685 -0.013166 342806.000000 0 0 1
29.451011 1.783110 12.422591 32.013471 0.060471 1.172289 0.067937 -0.008855 -1030100.000000 0 0 1
30.793191 1.636010 12.171891 33.151955 0.053079 1.194848 0.076914 -0.008099 -1102830.000000 0 0 1
31.680351 2.814710 12.658091 34.231484 0.088615 1.192025 0.065752 -0.007275 -581207.000000 0 0 1
31.383721 4.015210 12.015691 33.844301 0.127248 1.207852 0.081552 -0.019139 467590.000000 0 0 1
32.237291 5.087810 12.415691 34.918164 0.156533 1.207277 0.076604 -0.025868 754793.000000 0 0 1
33.693331 5.114310 11.859291 36.083785 0.150640 1.235912 0.070750 -0.019207 155530.000000 0 0 1
34.512281 4.096410 12.363291 36.888062 0.118142 1.229025 0.061982 -0.022299 136390.000000 0 0 1
35.872951 4.218710 11.968391 38.051393 0.117064 1.250832 0.089349 -0.019240 533819.000000 0 0 1
-36.688733 3.309110 12.852491 39.015380 -0.089951 1.235106 0.145606 -0.012851 -315867.000000 0 0 1
-36.602203 1.908010 12.479191 38.718109 -0.052081 1.242629 0.127149 -0.010916 1127780.000000 0 0 1
35.740631 1.045210 12.739291 37.957538 0.029236 1.228534 0.085965 -0.001072 650087.000000 0 0 1
35.428811 0.724210 14.266691 38.200309 0.020438 1.188049 0.079806 -0.004702 23405.400000 0 0 1
36.344091 -0.158590 14.954691 39.300902 -0.004364 1.180440 0.089243 -0.006092 531558.000000 0 0 1
36.066591 -0.272390 16.316591 39.586669 -0.007552 1.145958 0.096272 -0.014326 48636.000000 0 0 1
-36.417603 -1.186890 17.116791 40.257112 0.032580 1.131628 0.113003 -0.010844 464111.000000 0 0 1
-35.136243 -0.568990 17.178191 39.114826 0.016192 1.116118 0.159630 -0.026554 281579.000000 0 0 1
-34.232250 -1.090290 18.159291 38.765907 0.031839 1.083278 0.149146 -0.021625 384595.000000 0 0 1
-34.584370 -0.982090 19.702891 39.815161 0.028389 1.053124 0.161471 -0.029546 -316121.000000 0 0 1
-35.545471 -1.860490 20.275791 40.964004 0.052293 1.053001 0.112441 -0.027288 193307.000000 0 0 1
-35.675500 -1.695290 21.660191 41.770554 0.047484 1.025640 0.097102 -0.024292 -27054.000000 0 0 1
-36.113583 -2.959490 22.363191 42.580063 0.081767 1.017842 0.067271 -0.019654 -354460.000000 0 0 1
-35.122129 -3.981890 22.402391 41.848375 0.112891 1.005906 0.085595 -0.024733 160404.000000 0 0 1
-35.551146 -5.134890 23.056691 42.683276 0.143445 1.000144 0.074953 -0.026361 -171036.000000 0 0 1
-35.344058 -5.107590 24.571641 43.348073 0.143517 0.968125 0.077999 -0.031160 1103550.000000 0 0 1
-33.974383 -4.987990 25.018201 42.485870 0.145775 0.941150 0.092000 -0.037309 751338.000000 0 0 1
-34.027273 -5.035590 26.435951 43.382854 0.146921 0.915538 0.107230 -0.049289 -508240.000000 0 0 1
-32.808603 -4.443690 27.111221 42.792162 0.134624 0.884656 0.089221 -0.039139 -569926.000000 0 0 1
-32.676493 -3.043290 26.977561 42.482980 0.092866 0.882761 0.080123 -0.026437 -108931.000000 0 0 1
-32.177183 -2.577790 25.748331 41.291557 0.079942 0.897491 0.076762 -0.028038 -264471.000000 0 0 1
-31.900613 -1.094290 25.612131 40.924661 0.034290 0.894593 0.077365 -0.024631 825665.000000 0 0 1
-33.136313 -0.370090 25.474811 41.798543 0.011168 0.915409 0.095176 -0.036376 632198.000000 0 0 1
-32.991893 0.828010 24.719871 41.233756 -0.025092 0.927913 0.080410 -0.021389 -233757.000000 0 0 1
-34.333071 1.573910 24.555441 42.239870 -0.045810 0.950430 0.112031 -0.016085 -379294.000000 0 0 1
-35.196844 0.830910 23.738461 42.462016 -0.023603 0.977555 0.114020 -0.009688 -21466.600000 0 0 1
-36.426673 1.505310 23.459341 43.353306 -0.041301 0.999028 0.103625 -0.005047 352856.000000 0 0 1
-36.382693 2.713910 22.481891 42.854417 -0.074456 1.018538 0.110957 -0.006267 -383284.000000 0 0 1
-36.014288 2.325410 21.193991 41.852380 -0.064480 1.039793 0.135110 -0.035579 86477.500000 0 0 1
-36.425603 3.338610 20.294791 41.831202 -0.091400 1.064251 0.133066 -0.021933 142718.000000 0 0 1
-36.414713 2.922110 18.800991 41.085853 -0.080074 1.095499 0.144183 -0.022645 393828.000000 0 0 1
-35.172379 3.338310 18.254391 39.767617 -0.094629 1.093897 0.187187 -0.034024 209263.000000 0 0 1
-35.062135 2.675910 17.048491 39.078956 -0.076171 1.119361 0.217906 -0.032123 -422074.000000 0 0 1
-34.026853 3.319610 16.164691 37.817242 -0.097251 1.129135 0.196515 -0.031450 -277534.000000 0 0 1
-34.445264 4.633210 15.781391 38.170606 -0.133707 1.144564 0.194670 -0.042419 -113162.000000 0 0 1
-33.614833 5.123210 14.784891 37.078259 -0.151245 1.160645 0.209380 -0.036436 -295593.000000 0 0 1
-33.903293 6.618010 14.453091 37.444936 -0.192778 1.174524 0.221383 -0.051513 430925.000000 0 0 1
-33.084093 7.146210 13.388691 36.398937 -0.212733 1.194120 0.223689 -0.047127 493700.000000 0 0 1
-33.068383 8.573310 13.494491 36.730381 -0.253675 1.194592 0.193628 -0.051329 -48982.000000 0 0 1
-32.484703 9.182410 12.221091 35.901639 -0.275482 1.223449 0.182925 -0.048113 119964.000000 0 0 1
-32.636843 10.596910 12.213491 36.422897 -0.313953 1.228847 0.163075 -0.044676 598592.000000 0 0 1
-31.918703 11.147410 11.052491 35.570015 -0.336001 1.254841 0.137617 -0.039926 357432.000000 0 0 1
-31.967933 12.701610 11.073691 36.137326 -0.378197 1.259352 0.118162 -0.033420 -97926.400000 0 0 1
-31.245573 13.222010 10.001191 35.371333 -0.400315 1.284138 0.096629 -0.023248 -43062.700000 0 0 1
-31.302943 14.638510 10.049491 35.988227 -0.437426 1.287790 0.088531 -0.021152 71798.400000 0 0 1
-30.307043 15.304410 9.055991 35.139050 -0.467623 1.310136 0.088622 -0.020468 527143.000000 0 0 1
-28.955153 15.295410 9.503191 34.097817 -0.485987 1.288352 0.105680 -0.013823 371399.000000 0 0 1
-28.075663 15.865110 8.552991 33.363127 -0.514350 1.311541 0.086843 -0.018372 -719794.000000 0 0 1
-26.667053 15.979310 9.107791 32.394783 -0.539842 1.285804 0.095070 -0.017919 -890553.000000 0 0 1
-26.483533 16.752810 10.318391 32.992475 -0.564028 1.252710 0.089856 -0.024826 180438.000000 0 0 1
-26.933053 18.104510 10.287191 34.043927 -0.591826 1.263824 0.084584 -0.027299 -169103.000000 0 0 1
-26.740033 18.725310 11.665691 34.666338 -0.610909 1.227584 0.092436 -0.019686 1596790.000000 0 0 1
-25.334523 18.888110 12.058091 33.823015 -0.640646 1.206271 0.083136 -0.014042 1774180.000000 0 0 1
-25.147843 19.557610 13.333491 34.535433 -0.660998 1.174416 0.090445 -0.025384 -241871.000000 0 0 1
-25.380523 18.687810 14.619191 34.743718 -0.634679 1.136500 0.088486 -0.021742 -206767.000000 0 0 1
-24.685563 17.485210 14.656091 33.614143 -0.616286 1.119636 0.091813 -0.023483 -174296.000000 0 0 1
-25.255323 16.663010 15.663891 34.071172 -0.583221 1.093094 0.093452 -0.015891 45321.500000 0 0 1
-24.353863 15.479610 16.085491 33.037433 -0.566194 1.062274 0.093313 -0.012788 1060790.000000 0 0 1
-23.128863 15.885310 16.763191 32.684736 -0.601824 1.032266 0.080031 -0.011223 490719.000000 0 0 1
-22.324063 14.836910 17.170291 31.832634 -0.586581 1.001081 0.064074 -0.015135 -334795.000000 0 0 1
-22.836563 13.785310 18.224091 32.305741 -0.543100 0.971438 0.070016 -0.004678 -415930.000000 0 0 1
-22.488063 14.226210 19.520391 33.002177 -0.564054 0.937893 0.074009 -0.009560 175648.000000 0 0 1
-22.689563 13.269810 20.528891 33.351754 -0.529199 0.907742 0.078986 -0.009612 -397046.000000 0 0 1
-22.352863 13.680410 22.002491 34.218617 -0.549211 0.872390 0.073361 -0.004646 105708.000000 0 0 1
-21.027463 13.997710 22.375991 33.745742 -0.587324 0.845876 0.081414 -0.011393 62648.000000 0 0 1
-20.626363 15.294010 22.021391 33.827434 -0.638025 0.861906 0.073787 -0.005139 502072.000000 0 0 1
-19.141263 15.660310 22.438391 33.393333 -0.685707 0.833968 0.070093 -0.018411 1215210.000000 0 0 1
-18.173863 14.976810 21.671991 32.004208 -0.689255 0.826899 0.055719 -0.015481 -83604.800000 0 0 1
-17.625463 15.828810 20.672991 31.441704 -0.731745 0.853297 0.042974 -0.023385 -1490810.000000 0 0 1
-16.531663 15.185810 19.776391 29.916724 -0.742991 0.848582 0.038375 -0.008535 663517.000000 0 0 1
-15.385163 14.674710 20.436591 29.490755 -0.761768 0.805178 0.048583 -0.008424 251113.000000 0 0 1
-14.671463 15.580410 21.236191 30.149242 -0.815435 0.789263 0.039135 -0.013627 -1791070.000000 0 0 1
-13.537063 15.101710 22.120391 30.010422 -0.839978 0.742042 0.031612 -0.019049 -636207.000000 0 0 1
-12.405063 14.745610 21.380491 28.782703 -0.871391 0.733517 0.026454 -0.005149 72521.000000 0 0 1
-11.354263 14.290310 22.279291 28.801025 -0.899392 0.686358 0.030913 -0.007749 461407.000000 0 0 1
-10.161063 13.715510 21.522891 27.469934 -0.933180 0.670506 0.037691 -0.004606 -1161800.000000 0 0 1
-9.606263 12.586710 22.200591 27.268513 -0.918896 0.619537 0.039066 -0.005974 -383889.000000 0 0 1
-8.552563 11.912610 21.613791 26.119199 -0.948130 0.596146 0.041717 -0.005555 426559.000000 0 0 1
-7.173463 12.677410 21.729891 26.160341 -1.055869 0.590536 0.040249 -0.001218 -90626.800000 0 0 1
-7.049463 13.828510 20.848791 25.992205 -1.099357 0.639964 0.031431 0.007184 223783.000000 0 0 1
-6.187763 14.816310 21.498791 26.832992 -1.175183 0.641486 0.027267 0.014535 475152.000000 0 0 1
-6.882163 15.817710 22.477091 28.333439 -1.160409 0.654576 0.033994 -0.006876 3532.360000 0 0 1
-7.892063 16.609510 21.890891 28.589711 -1.127223 0.698681 0.024663 -0.005024 -122939.000000 0 0 1
-7.394763 17.692010 21.050191 28.474555 -1.174894 0.738821 0.023859 0.004594 -43253.800000 0 0 1
-8.466763 18.030710 19.949991 28.192104 -1.131784 0.784637 0.029350 0.013148 1458710.000000 0 0 1
-9.613263 18.801910 20.338391 29.318540 -1.098156 0.804177 0.040500 0.005825 111021.000000 0 0 1
-10.568163 18.066110 21.062591 29.693487 -1.041500 0.782244 0.032123 -0.004123 -271670.000000 0 0 1
-11.932063 18.810810 21.188191 30.743457 -1.005523 0.810421 0.029572 -0.011575 317961.000000 0 0 1
-12.813863 18.710810 20.107891 30.308692 -0.970319 0.845394 0.021613 -0.004883 -193375.000000 0 0 1
-14.117963 19.069610 20.504191 31.359030 -0.933507 0.858131 0.009117 -0.005606 753347.000000 0 0 1
-15.109363 19.418510 19.292991 31.266450 -0.909558 0.905807 0.007577 -0.006705 696645.000000 0 0 1
-15.783063 18.290810 18.724691 30.565878 -0.858863 0.911449 0.022619 -0.003381 171269.000000 0 0 1
-16.391363 18.520010 17.495391 30.294492 -0.846296 0.955120 0.034015 -0.009118 -1073880.000000 0 0 1
-16.940363 17.231110 16.784891 29.421414 -0.793906 0.963683 0.039284 -0.014375 692767.000000 0 0 1
-18.017863 16.598210 17.483291 30.096668 -0.744410 0.950957 0.040485 -0.014189 471086.000000 0 0 1
-19.249863 17.309510 17.465191 31.228341 -0.732374 0.977287 0.051100 -0.020881 -359978.000000 0 0 1
34.691151 -9.480290 11.817109 37.854933 -0.266764 1.253322 0.053314 -0.016434 -1360480.000000 0 0 1
33.382951 -9.850090 11.685609 36.715108 -0.286922 1.246884 0.047819 -0.005883 -1115370.000000 0 0 1
33.147061 -10.948690 12.587009 37.108413 -0.319024 1.224735 0.052426 -0.005132 925140.000000 0 0 1
31.667011 -11.492490 12.670109 35.991785 -0.348135 1.211060 0.058698 -0.000828 1339750.000000 0 0 1
30.664381 -10.656290 13.307609 35.084944 -0.334458 1.181760 0.064205 0.003132 728628.000000 0 0 1
29.405081 -11.271190 13.429409 34.235180 -0.366034 1.167699 0.065886 -0.003279 -35524.000000 0 0 1
29.189631 -12.267190 14.595009 34.864492 -0.397848 1.138870 0.049868 0.003673 -1208330.000000 0 0 1
29.156971 -11.673890 15.910209 35.207150 -0.380835 1.101899 0.057346 0.005311 1598490.000000 0 0 1
28.009681 -12.121190 16.744109 34.811359 -0.408417 1.069006 0.054852 -0.000911 2211090.000000 0 0 1
26.599481 -11.651290 16.243009 33.273418 -0.412853 1.060807 0.065098 -0.026669 -55824.000000 0 0 1
26.387181 -10.259890 16.418909 32.728111 -0.370832 1.045261 0.063575 -0.023753 -68435.900000 0 0 1
25.468281 -9.641890 15.530709 31.349678 -0.361909 1.052498 0.086975 -0.023489 -242221.000000 0 0 1
25.233881 -8.150690 15.749209 30.841856 -0.312427 1.034863 0.100655 -0.019556 111990.000000 0 0 1
26.333081 -7.229990 15.688109 31.493185 -0.267956 1.049341 0.084391 -0.014253 296398.000000 0 0 1
26.027981 -5.860590 16.062309 31.141614 -0.221471 1.028875 0.080240 -0.000036 130588.000000 0 0 1
27.321481 -5.010190 16.068109 32.089710 -0.181364 1.046361 0.085416 -0.000773 289783.000000 0 0 1
27.688481 -4.640790 14.726109 31.702480 -0.166064 1.087715 0.100545 0.000492 884262.000000 0 0 1
28.930461 -3.923390 14.658009 32.668361 -0.134792 1.105496 0.087392 0.004559 465242.000000 0 0 1
29.311241 -3.464290 13.256909 32.355770 -0.117644 1.148646 0.084151 -0.008765 -138109.000000 0 0 1
30.038421 -4.398290 12.455509 32.814500 -0.145389 1.181461 0.076148 -0.009258 519842.000000 0 0 1
30.184201 -3.889890 11.125209 32.403511 -0.128165 1.220333 0.087533 -0.020090 -290903.000000 0 0 1
30.781771 -4.924990 10.188109 32.795892 -0.158652 1.254917 0.116391 -0.021948 -187578.000000 0 0 1
32.170981 -5.107690 10.333009 34.173552 -0.157453 1.263620 0.109640 -0.021759 125104.000000 0 0 1
32.623181 -6.026190 9.316009 34.458308 -0.182662 1.297034 0.121859 -0.024138 272159.000000 0 0 1
34.103461 -6.463990 9.463309 35.977541 -0.187318 1.304631 0.101929 -0.021601 51194.800000 0 0 1
35.091841 -5.519890 9.154309 36.683892 -0.156020 1.318585 0.124388 -0.027881 -408736.000000 0 0 1
36.256651 -6.223590 8.851909 37.836941 -0.169997 1.334659 0.124028 -0.033649 -432374.000000 0 0 1
-35.935195 -5.484290 8.494509 37.330583 0.151448 1.341237 0.123521 -0.030655 -151010.000000 0 0 1
-35.914224 -4.907190 7.172409 36.950717 0.135795 1.375449 0.144742 -0.031465 615836.000000 0 0 1
-34.771767 -4.052490 6.986609 35.697496 0.116022 1.373808 0.104136 -0.015032 349550.000000 0 0 1
-34.774344 -3.294890 5.615409 35.378583 0.094469 1.411399 0.139852 -0.025400 -284136.000000 0 0 1
-34.475027 -4.017590 4.409009 34.987253 0.116013 1.444443 0.133422 -0.029673 301437.000000 0 0 1
-34.471616 -3.223990 3.245009 34.773791 0.093255 1.477343 0.139549 -0.025426 -252219.000000 0 0 1
-33.959673 -3.932590 1.987009 34.244312 0.115288 1.512739 0.155455 -0.033823 315920.000000 0 0 1
-34.797556 -5.028590 1.522109 35.191952 0.143516 1.527531 0.154711 -0.022541 975050.000000 0 0 1
-35.992658 -4.725090 0.805409 36.310420 0.130533 1.548613 0.137965 -0.025413 233596.000000 0 0 1
-35.839612 -4.938190 -0.688991 36.184779 0.136924 1.589838 0.170020 -0.025814 -866900.000000 0 0 1
-35.551401 -6.321390 -1.025191 36.123581 0.175971 1.599180 0.171391 -0.033802 466163.000000 0 0 1
-34.727772 -6.511790 -2.180491 35.400228 0.185357 1.632431 0.149811 -0.031830 360748.000000 0 0 1
-33.253983 -6.037390 -2.057191 33.860147 0.179598 1.631589 0.140807 -0.038544 -514378.000000 0 0 1
-32.415513 -6.937190 -1.358991 33.177356 0.210828 1.611769 0.136275 -0.034105 -637199.000000 0 0 1
-31.183883 -6.328890 -1.104491 31.838802 0.200234 1.605493 0.145463 -0.045376 -480999.000000 0 0 1
-30.569113 -7.317890 -0.099591 31.432978 0.234967 1.573965 0.124438 -0.037107 -303833.000000 0 0 1
-30.017593 -8.521790 -0.629591 31.210146 0.276615 1.590970 0.132052 -0.030920 538913.000000 0 0 1
-29.419003 -9.244390 0.466209 30.840782 0.304462 1.555679 0.126861 -0.021178 -187195.000000 0 0 1
-28.881933 -10.582290 0.068109 30.759642 0.351208 1.568582 0.106305 -0.023161 216448.000000 0 0 1
-27.757203 -10.540790 -0.832291 29.702917 0.362928 1.598820 0.102923 -0.030269 800074.000000 0 0 1
-27.121713 -11.763890 -1.069791 29.582442 0.409254 1.606967 0.093013 -0.019779 -70023.300000 0 0 1
-27.898453 -12.813690 -1.936991 30.761441 0.430559 1.633806 0.080269 -0.022262 487798.000000 0 0 1
-28.916973 -13.605590 -1.259191 31.982636 0.439775 1.610178 0.091497 -0.028463 1072710.000000 0 0 1
-29.180263 -14.668990 -2.082991 32.726226 0.465807 1.634488 0.082148 -0.026368 -341449.000000 0 0 1
-30.208583 -15.674990 -1.504991 34.066535 0.478647 1.614989 0.098868 -0.029317 -79865.100000 0 0 1
-29.693183 -16.457090 -0.424791 33.951456 0.506091 1.583308 0.069145 -0.019870 162334.000000 0 0 1
-30.707433 -17.136290 0.261109 35.166277 0.509003 1.563371 0.073203 -0.010245 -264859.000000 0 0 1
-30.687383 -18.706690 0.002709 35.939613 0.547440 1.570721 0.085137 -0.017120 -113466.000000 0 0 1
-29.466283 -19.391390 0.245509 35.275319 0.582040 1.563836 0.074049 -0.025354 214922.000000 0 0 1
-29.475533 -20.790190 0.025009 36.069928 0.614299 1.570103 0.085375 -0.025625 -152852.000000 0 0 1
-30.370093 -21.590090 0.978509 37.275086 0.618004 1.544542 0.090284 -0.025379 -556937.000000 0 0 1
-29.892313 -21.701690 2.260909 37.008451 0.627961 1.509667 0.078272 -0.023644 -220224.000000 0 0 1
-30.823003 -22.193590 3.194809 38.115873 0.624045 1.486880 0.081856 -0.026479 -24521.000000 0 0 1
-30.055713 -22.416790 4.511309 37.765199 0.640834 1.451054 0.070135 -0.020095 -22068.900000 0 0 1
-29.541753 -21.153590 4.961309 36.671571 0.621422 1.435090 0.059632 -0.022643 38841.400000 0 0 1
-29.056083 -21.257690 6.291709 36.547653 0.631627 1.397784 0.053734 -0.023735 1543.480000 0 0 1
-28.694073 -19.941690 6.899109 35.617672 0.607346 1.375865 0.050616 -0.015484 130452.000000 0 0 1
-27.869083 -20.087090 8.042909 35.282650 0.624527 1.340818 0.050608 -0.018219 -26807.200000 0 0 1
-27.809513 -18.823790 8.759309 34.704893 0.595042 1.315643 0.043547 -0.022421 29835.400000 0 0 1
-26.790723 -18.778590 9.918909 34.187177 0.611354 1.276428 0.053522 -0.019376 -223300.000000 0 0 1
-27.106453 -19.594290 11.006509 35.211351 0.625907 1.252884 0.053620 -0.015691 -126798.000000 0 0 1
-26.015653 -19.807990 11.895909 34.794875 0.650749 1.221872 0.067463 -0.015730 38666.900000 0 0 1
-25.674003 -18.616890 12.786309 34.194045 0.627391 1.187549 0.058314 -0.015792 -249711.000000 0 0 1
-24.957563 -17.541890 12.119909 32.825144 0.612649 1.192620 0.049908 -0.017941 238117.000000 0 0 1
-24.651663 -16.422490 12.933509 32.321484 0.587667 1.159114 0.047028 -0.011975 -37763.500000 0 0 1
-23.764063 -16.501790 14.171409 32.215968 0.606958 1.115323 0.050649 -0.016609 -319042.000000 0 0 1
-24.352163 -17.277390 15.219609 33.513767 0.617061 1.099401 0.040487 -0.022762 -82397.200000 0 0 1
-23.496763 -17.415190 16.343809 33.503833 0.637828 1.061207 0.054648 -0.024926 -498400.000000 0 0 1
-24.087063 -18.169890 17.542609 34.900926 0.646274 1.044146 0.048015 -0.008868 -700025.000000 0 0 1
-25.040263 -17.338790 18.089409 35.424217 0.605632 1.034855 0.050857 -0.001487 -624367.000000 0 0 1
-25.907853 -18.105790 18.910609 36.832698 0.609956 1.031632 0.050133 0.006609 66356.000000 0 0 1
-26.949613 -17.227090 19.624309 37.525562 0.568769 1.020478 0.056072 0.009131 -181149.000000 0 0 1
-26.368413 -16.500690 20.665509 37.344735 0.559156 0.984390 0.052026 0.010150 -112342.000000 0 0 1
-27.193123 -15.456590 21.074409 37.716082 0.516861 0.977901 0.067896 0.001058 -289361.000000 0 0 1
-26.597883 -14.730390 22.298409 37.704785 0.505770 0.938009 0.070055 -0.000504 184420.000000 0 0 1
-25.465773 -13.985190 21.878009 36.369471 0.502210 0.925358 0.066059 0.002220 54361.700000 0 0 1
-24.773163 -13.403390 22.965109 36.342217 0.495942 0.886778 0.059595 0.005766 178830.000000 0 0 1
-23.525063 -12.588890 22.527609 34.919936 0.491353 0.869614 0.044464 0.016959 47066.000000 0 0 1
-23.884563 -11.542090 21.668509 34.252248 0.450154 0.885870 0.069189 0.013009 61096.100000 0 0 1
-22.807263 -10.813190 21.130409 32.917936 0.442723 0.873807 0.064520 0.017242 -521487.000000 0 0 1
-22.456263 -9.521490 21.889309 32.773227 0.401025 0.839410 0.072187 0.011403 533329.000000 0 0 1
-21.783563 -9.619790 23.217209 33.258124 0.415853 0.798068 0.057836 0.009776 1063470.000000 0 0 1
-20.383863 -9.863690 23.121709 32.363679 0.450682 0.774982 0.037460 0.008491 257465.000000 0 0 1
-19.710463 -9.949390 24.519209 32.995217 0.467462 0.733084 0.038649 0.011121 119684.000000 0 0 1
-20.072963 -11.074990 25.316309 34.153986 0.504176 0.735880 0.054953 0.008817 -114757.000000 0 0 1
-19.325063 -11.094290 26.500209 34.623726 0.521149 0.699169 0.059065 0.004115 -983608.000000 0 0 1
-19.597763 -12.292990 27.412809 35.869932 0.560226 0.700953 0.058089 -0.014420 255216.000000 0 0 1
-20.853963 -12.423990 28.049209 37.094494 0.537297 0.713378 0.056849 -0.010198 -16487.700000 0 0 1
-21.880863 -13.025890 27.259909 37.303467 0.536964 0.751361 0.054077 -0.007648 863555.000000 0 0 1
-23.112963 -13.394590 28.181909 38.830969 0.525230 0.758660 0.056888 -0.013287 138034.000000 0 0 1
-23.038363 -14.519190 28.967909 39.758179 0.562343 0.754517 0.055232 -0.012342 -32726.500000 0 0 1
-22.074363 -14.551390 30.035909 40.014701 0.582815 0.721794 0.046154 -0.011680 168318.000000 0 0 1
-22.308063 -15.533390 31.178009 41.364286 0.608247 0.717058 0.038373 -0.016355 -610226.000000 0 0 1
-22.261663 -16.869590 30.717409 41.517755 0.648466 0.737931 0.043822 -0.015180 -39739.800000 0 0 1
-22.407663 -17.856490 31.717609 42.743003 0.672843 0.734667 0.045050 -0.013553 239980.000000 0 0 1
-23.854063 -18.241790 32.162309 44.002197 0.652858 0.751120 0.057164 -0.020044 419763.000000 0 0 1
-24.424863 -17.222390 32.958909 44.491284 0.614152 0.736544 0.072104 -0.027567 -21428.800000 0 0 1
-25.770123 -17.480290 33.321909 45.607120 0.596024 0.751553 0.066559 -0.030080 369273.000000 0 0 1
-26.545133 -16.362990 -34.046372 46.168680 0.552407 2.400060 0.067460 -0.031036 201425.000000 0 0 1
-26.185163 -16.368390 -32.664172 44.950363 0.558672 2.384261 0.080483 -0.034037 -34711.200000 0 0 1
-26.805693 -15.235790 -32.067272 44.485778 0.516844 2.375814 0.074528 -0.025740 -306042.000000 0 0 1
-26.336563 -14.868190 -30.634572 43.048283 0.513942 2.362616 0.058324 -0.016134 -149204.000000 0 0 1
-26.706253 -15.826090 -29.653272 42.930241 0.534960 2.333297 0.062724 -0.006376 -34838.000000 0 0 1
-26.388023 -15.246490 -28.408872 41.663500 0.523922 2.321105 0.057804 -0.006326 -210434.000000 0 0 1
-26.848033 -16.082990 -27.229572 41.484082 0.539712 2.286815 0.054555 -0.002092 434354.000000 0 0 1
-28.083973 -15.654390 -26.632372 41.749883 0.508517 2.262568 0.063138 -0.005831 555664.000000 0 0 1
-27.986563 -14.479490 -25.720372 40.674819 0.477449 2.255368 0.057856 -0.004884 -192564.000000 0 0 1
-26.879133 -14.394790 -24.628272 39.195020 0.491672 2.250229 0.056297 -0.014676 -10610.700000 0 0 1
-25.604783 -13.966390 -25.123072 38.494593 0.499351 2.281859 0.042617 -0.008164 1467590.000000 0 0 1
-24.488763 -14.021190 -24.212472 37.182484 0.519996 2.279934 0.037680 -0.010925 573090.000000 0 0 1
-24.011963 -15.419990 -23.917472 37.234338 0.570858 2.268357 0.031936 -0.011627 -1171490.000000 0 0 1
-23.176663 -15.891990 -24.955672 37.583223 0.601057 2.296967 0.048520 -0.003690 152140.000000 0 0 1
-23.241763 -17.260090 -25.233872 38.403627 0.638769 2.287722 0.069388 -0.010078 -647534.000000 0 0 1
-22.517063 -17.599890 -26.518572 38.987292 0.663436 2.318811 0.070576 -0.011460 -514933.000000 0 0 1
-23.102163 -17.515690 -27.773072 40.147887 0.648718 2.334733 0.078488 -0.013357 -282461.000000 0 0 1
-24.017563 -18.552990 -28.047172 41.324335 0.657731 2.316799 0.084614 -0.006540 -170902.000000 0 0 1
-24.539163 -18.449690 -29.476972 42.561173 0.644682 2.335854 0.060676 -0.010478 -292816.000000 0 0 1
-23.588563 -18.905790 -30.408772 42.878230 0.675643 2.359144 0.067820 -0.020543 161775.000000 0 0 1
-24.035163 -18.892890 -31.746872 44.073736 0.666178 2.375049 0.050826 -0.020579 -6689.140000 0 0 1
-22.880163 -19.379390 -32.653072 44.331543 0.702747 2.398774 0.052030 -0.027191 192508.000000 0 0 1
-21.848063 -18.411190 -32.837572 43.527186 0.700236 2.425559 0.055767 -0.020802 1781030.000000 0 0 1
-20.481163 -18.772990 -32.471472 42.735228 0.741910 2.433847 0.058725 -0.025273 1918290.000000 0 0 1
-19.760063 -19.963690 -33.208372 43.494885 0.790524 2.439513 0.049312 -0.018949 -727952.000000 0 0 1
-19.467663 -19.558490 33.599609 43.479400 0.787725 0.687601 0.052259 -0.018235 -43717.900000 0 0 1
-19.521663 -20.622790 32.695409 43.305711 0.812820 0.715156 0.044506 -0.017790 -154049.000000 0 0 1
-20.869663 -21.128190 32.118209 43.743829 0.791554 0.746259 0.045271 -0.014724 228330.000000 0 0 1
-21.646263 -21.933490 33.030409 45.173517 0.791989 0.750732 0.037712 -0.012390 -137223.000000 0 0 1
-22.786463 -22.554890 32.488309 45.644673 0.780291 0.778788 0.025400 -0.000860 -268893.000000 0 0 1
-22.608363 -23.666490 31.411309 45.364206 0.808260 0.805952 0.026898 -0.001105 -571974.000000 0 0 1
-22.299563 -24.930490 31.973809 46.272285 0.841045 0.807935 0.016897 0.006976 -180337.000000 0 0 1
-22.383663 -26.035870 31.111709 46.333933 0.860684 0.834610 0.027809 0.010751 382793.000000 0 0 1
-21.594963 -27.159080 31.891409 47.127699 0.899033 0.827522 0.031154 -0.001929 176889.000000 0 0 1
-22.317563 -27.534620 33.046109 48.458996 0.889669 0.820385 0.023513 -0.003542 -69776.500000 0 0 1
-21.661663 -28.428510 33.926409 49.278891 0.919679 0.811437 0.028278 -0.012831 -442153.000000 0 0 1
-22.657663 -29.279750 -33.376172 49.846187 0.912215 2.304444 0.025999 -0.020572 280417.000000 0 0 1
-23.535963 -30.148150 33.976309 51.158988 0.907949 0.844464 0.028654 -0.016837 1608280.000000 0 0 1
-24.729663 -29.649440 33.307409 50.990480 0.875624 0.858982 0.029698 -0.008948 838896.000000 0 0 1
-25.873993 -29.404550 -33.826972 51.752827 0.849180 2.283161 0.035514 -0.016613 -327359.000000 0 0 1
-26.951353 -28.569960 33.892709 51.878067 0.814543 0.858842 0.034510 -0.008107 521633.000000 0 0 1
-27.888173 -28.311490 -33.178772 51.769891 0.792930 2.266453 0.021739 0.002355 -80796.600000 0 0 1
-28.953333 -27.340470 -33.638172 52.127952 0.756755 2.272212 0.020303 -0.009864 -190446.000000 0 0 1
-30.063203 -27.981370 33.850109 53.222018 0.749547 0.881471 0.048475 -0.014195 472951.000000 0 0 1
-30.964263 -26.938760 33.385509 52.906281 0.715988 0.887915 0.050811 -0.019337 519699.000000 0 0 1
