# x y z rho theta phi s1 s2 stress_xx np intf bulk
-0.743454 -10.730768 -14.386006 17.962719 1.501624 2.499562 0.001299 0.000867 -1332550.000000 1 0 0
1.965546 -13.524368 -12.968106 18.839949 -1.426473 2.329981 0.000143 0.008319 927733.000000 1 0 0
2.161746 -11.161768 -14.695706 18.580150 -1.379491 2.483133 0.007050 0.003665 592824.000000 1 0 0
-5.452854 -6.093968 -16.469606 18.387985 0.840864 2.680737 -0.004935 -0.004261 -317010.000000 1 0 0
4.408846 -14.111768 -11.496406 18.728248 -1.267981 2.231730 -0.005635 0.005951 500259.000000 1 0 0
14.033646 -10.696668 -7.864206 19.318584 -0.651274 1.990051 0.032492 -0.013015 -562457.000000 1 0 0
7.152346 10.808532 -10.815206 16.880436 0.986218 2.266199 0.001663 -0.006169 -763222.000000 1 0 0
5.723446 -4.221668 -12.502306 14.383601 -0.635524 2.624390 0.002387 -0.002472 3269050.000000 1 0 0
13.635046 0.537532 -9.989406 16.911288 0.039402 2.202716 0.004233 0.000169 1242780.000000 1 0 0
14.138946 5.166632 -10.296906 18.238151 0.350344 2.170721 -0.002601 -0.000618 -1310710.000000 1 0 0
4.133046 4.292132 -13.443006 14.704383 0.804278 2.724369 0.005749 -0.001252 -37112.900000 1 0 0
10.180546 -5.071468 -13.621306 17.745515 -0.462169 2.445871 0.008330 -0.003617 -610955.000000 1 0 0
2.471246 -7.472268 -11.945506 14.305138 -1.251397 2.559020 0.000778 0.001294 2057390.000000 1 0 0
-5.484754 -1.916568 -15.201806 16.274233 0.336172 2.776534 -0.002077 -0.002257 -328960.000000 1 0 0
10.686146 -0.041268 -9.661206 14.406052 -0.003862 2.305861 0.008239 -0.000855 2050700.000000 1 0 0
-1.726254 -9.473268 -16.862406 19.418123 1.390550 2.622732 0.016706 -0.007872 1301490.000000 1 0 0
8.652746 1.637732 -17.969606 20.011470 0.187060 2.685920 0.000085 0.000429 652809.000000 1 0 0
16.527046 -5.848968 -8.745706 19.591862 -0.340147 2.033529 0.028153 -0.004593 333449.000000 1 0 0
10.186746 7.638032 -9.947006 16.157112 0.643374 2.233997 -0.000003 -0.003082 597149.000000 1 0 0
13.873946 -2.255368 -10.558006 17.579663 -0.161152 2.215023 0.021925 -0.003678 -2077.140000 1 0 0
7.207146 -1.884168 -13.654706 15.554551 -0.255708 2.642170 0.007121 -0.004142 -405363.000000 1 0 0
-2.713754 6.671032 -13.833806 15.596196 -1.184445 2.661601 -0.002802 -0.004627 -284021.000000 1 0 0
11.322546 1.898032 -13.854906 17.993360 0.166089 2.449639 -0.001161 -0.001764 575579.000000 1 0 0
-2.180854 10.778932 -12.982106 17.014011 -1.371166 2.438776 -0.001485 -0.000445 548244.000000 1 0 0
2.893646 -1.084768 -15.149806 15.461776 -0.358665 2.940371 0.005915 -0.006817 1185460.000000 1 0 0
-9.027254 0.566332 -15.153206 17.647427 -0.062654 2.603453 0.009384 -0.000987 -367370.000000 1 0 0
2.427646 -1.699968 -17.930206 18.173487 -0.610896 2.977784 0.010678 -0.014044 530808.000000 1 0 0
1.046446 7.842832 -13.148406 15.345542 1.438153 2.599872 -0.002076 -0.003848 -382509.000000 1 0 0
9.458646 -9.191068 -9.820606 16.443419 -0.771052 2.210847 0.019328 -0.005267 844755.000000 1 0 0
3.997646 7.279932 -13.555606 15.897580 1.068619 2.591897 -0.001775 -0.000168 1250990.000000 1 0 0
-2.636754 9.124432 -15.496506 18.175517 -1.289483 2.591743 -0.006171 -0.004651 -91666.300000 1 0 0
5.486046 -7.589368 -15.274906 17.916974 -0.944893 2.591619 0.005615 -0.003519 -13989.300000 1 0 0
4.275246 7.327932 -16.459306 18.517156 1.042659 2.665665 0.001440 0.003430 -187505.000000 1 0 0
-0.189154 5.088632 -13.474106 14.404218 -1.533642 2.780264 0.003212 -0.004263 795770.000000 1 0 0
8.869746 4.213632 -16.652906 19.332521 0.443495 2.608803 0.002893 0.001226 149635.000000 1 0 0
5.345346 0.334132 -14.364706 15.330660 0.062428 2.784714 0.004446 -0.002166 322936.000000 1 0 0
6.314846 7.910332 -11.615406 15.406761 0.897091 2.424799 -0.004822 0.000321 -741251.000000 1 0 0
2.783046 -8.413968 -14.946106 17.376026 -1.251359 2.606373 0.003152 -0.001784 -353379.000000 1 0 0
3.989046 11.418132 -13.832006 18.374184 1.234691 2.423095 -0.002470 -0.005050 -1600290.000000 1 0 0
0.535946 -4.443768 -13.781506 14.490142 -1.450770 2.827559 0.003665 -0.001825 2253120.000000 1 0 0
8.543746 -0.067568 -11.703206 14.490176 -0.007908 2.510977 0.000104 -0.000801 -742620.000000 1 0 0
-0.931154 -5.015268 -16.315306 17.094127 1.387223 2.838571 -0.000292 -0.005533 623070.000000 1 0 0
4.484246 0.914932 -11.669806 12.535148 0.201270 2.767848 0.004158 -0.005007 1739660.000000 1 0 0
-2.873454 -7.160968 -15.568006 17.375241 1.189199 2.681447 -0.004699 -0.002442 2015980.000000 1 0 0
11.410046 -3.814468 -11.405806 16.578050 -0.322627 2.329535 0.017746 -0.003145 1581130.000000 1 0 0
6.403046 -7.106168 -12.481106 15.724968 -0.837399 2.487685 0.005017 -0.002442 -2217330.000000 1 0 0
3.411146 -3.989568 -14.579306 15.495442 -0.863397 2.796006 0.009001 -0.003342 2345760.000000 1 0 0
-0.429254 -1.465968 -18.259006 18.322790 1.285947 3.058129 0.007677 -0.014071 688523.000000 1 0 0
14.843046 2.976532 -8.493906 17.358635 0.197909 2.082105 -0.001908 0.000131 -1034820.000000 1 0 0
6.911846 4.284432 -14.395506 16.533619 0.554900 2.627381 0.001722 0.003113 2073840.000000 1 0 0
9.997146 -9.637768 -13.970106 19.697547 -0.767097 2.359203 0.022577 -0.015112 -1132240.000000 1 0 0
8.995446 -3.060768 -15.548206 18.221774 -0.327969 2.593032 0.007638 -0.010380 -613066.000000 1 0 0
-5.125154 -2.041168 -18.108906 18.930558 0.379010 2.845886 -0.007985 0.006850 -1712730.000000 1 0 0
4.885646 -9.172568 -11.097806 15.204172 -1.081382 2.388999 -0.002667 0.000447 2384710.000000 1 0 0
-2.288554 3.928232 -17.124206 17.717418 -1.043276 2.882092 0.002020 -0.004369 2381870.000000 1 0 0
9.438346 9.375332 -14.510206 19.685663 0.782049 2.399558 0.006944 0.000364 -835087.000000 1 0 0
9.853946 10.080332 -11.640906 18.281795 0.796754 2.261070 0.002446 -0.003056 -359690.000000 1 0 0
12.069346 -6.023768 -9.676206 16.600719 -0.462925 2.193063 0.032556 -0.006527 722506.000000 1 0 0
8.177346 6.887132 -13.685506 17.366481 0.699961 2.478417 0.000360 0.004675 657973.000000 1 0 0
4.042446 -4.114068 -17.495406 18.421622 -0.794179 2.823141 0.016689 -0.010777 -355224.000000 1 0 0
9.215446 -7.505768 -12.273006 17.084721 -0.683506 2.372241 0.018038 -0.007728 816092.000000 1 0 0
12.122046 -8.733568 -8.734306 17.306280 -0.624332 2.099819 0.033902 -0.009767 212549.000000 1 0 0
-2.946554 -2.450868 -13.835006 14.356055 0.693818 2.871347 -0.000240 -0.007455 -3328400.000000 1 0 0
-0.206354 6.092532 -17.601406 18.627158 -1.536939 2.808184 0.005840 -0.006271 1495660.000000 1 0 0
1.085246 -8.454468 -17.386306 19.363353 -1.443131 2.685766 0.013041 -0.011284 1353260.000000 1 0 0
0.120346 8.569532 -15.969206 18.123656 1.556754 2.649032 -0.002849 -0.003939 -1653220.000000 1 0 0
1.856346 3.378932 -15.002506 15.489945 1.068423 2.890059 0.006137 -0.003890 1740940.000000 1 0 0
-1.864554 -0.385568 -15.762106 15.876688 0.203914 3.021379 0.006154 -0.008875 963651.000000 1 0 0
14.116646 -4.335768 -8.490706 17.034397 -0.297993 2.092600 0.028123 -0.003742 320648.000000 1 0 0
0.616746 0.672532 -14.513006 14.541665 0.828640 3.078800 0.001855 -0.006403 1483970.000000 1 0 0
8.845646 2.810132 -12.614706 15.661198 0.307602 2.507273 -0.004264 0.001190 1280010.000000 1 0 0
5.952446 1.013632 -17.067506 18.104111 0.168670 2.801555 0.008335 -0.000210 -848786.000000 1 0 0
15.300446 1.643032 -12.252906 19.670712 0.106975 2.243242 -0.001007 -0.000096 371385.000000 1 0 0
8.705146 -11.228368 -11.893206 18.528469 -0.911310 2.267755 0.018574 -0.008547 2933670.000000 1 0 0
-4.539854 0.811732 -15.005106 15.697847 -0.176932 2.843404 0.002892 -0.005642 1194110.000000 1 0 0
2.555946 5.087632 -17.359606 18.269449 1.105243 2.824669 0.007321 -0.003118 1921390.000000 1 0 0
5.824546 -11.661868 -12.402806 17.993168 -1.107587 2.331328 0.004702 -0.000039 -865852.000000 1 0 0
12.852246 7.225832 -8.585706 17.061865 0.512179 2.098106 0.002617 -0.001248 254838.000000 1 0 0
-4.910254 3.657232 -15.654606 16.809302 -0.640175 2.768779 0.005875 -0.004619 1718900.000000 1 0 0
-0.474254 -4.300068 -19.129506 19.612585 1.460950 2.919184 0.009095 -0.012590 -1119980.000000 1 0 0
9.917246 4.497632 -10.274106 14.971230 0.425774 2.327126 -0.002103 0.001800 1353520.000000 1 0 0
13.370546 3.780732 -12.710306 18.831286 0.275572 2.311703 -0.006238 -0.004868 -515169.000000 1 0 0
-6.094354 5.806832 -17.276206 19.217901 -0.761244 2.688195 0.001805 0.004125 200542.000000 1 0 0
-10.008254 3.326532 -15.290406 18.574915 -0.320891 2.537777 0.008342 0.000092 -890865.000000 1 0 0
10.745946 13.428032 -8.345906 19.116526 0.895896 2.022591 0.020997 -0.009612 156685.000000 1 0 0
7.418946 13.393732 -12.269706 19.620869 1.064955 2.246363 -0.000546 -0.005586 -856816.000000 1 0 0
5.345046 15.120232 -11.176806 19.547683 1.231004 2.179460 -0.003113 -0.011856 -1384700.000000 1 0 0
14.200446 9.486732 -9.884206 19.731910 0.588966 2.095463 0.022468 -0.011605 -398739.000000 1 0 0
8.174246 -17.306368 -2.040406 19.248167 -1.129532 1.677001 0.016647 0.002384 -429573.000000 1 0 0
0.635246 -16.058968 -0.025306 16.071547 -1.531260 1.572371 0.005405 -0.009537 2280940.000000 1 0 0
-9.109054 -11.753868 7.445594 16.630248 0.911497 1.106589 0.005617 -0.006737 -906650.000000 1 0 0
1.975446 -15.921568 -2.667806 16.263945 -1.447354 1.735573 0.005221 -0.006873 1464560.000000 1 0 0
-1.427054 -11.017568 -9.404606 14.555751 1.441988 2.273272 -0.000779 0.004064 702583.000000 1 0 0
-4.858554 -12.595768 -13.047406 18.774816 1.202653 2.339135 0.008874 0.002258 -936477.000000 1 0 0
-8.289054 -17.811068 -1.899506 19.737038 1.135220 1.667186 0.006231 -0.015547 95333.000000 1 0 0
-11.471854 -7.026068 -8.901506 16.130898 0.549532 2.155353 0.009763 -0.004949 2566460.000000 1 0 0
-13.603354 -11.587668 -4.752206 18.490774 0.705552 1.830717 0.009033 -0.003010 863793.000000 1 0 0
-5.932754 -13.273968 9.825194 17.547941 1.150485 0.976524 0.009610 -0.013890 334840.000000 1 0 0
0.065746 -14.006968 -3.715306 14.491479 -1.566103 1.830070 -0.000169 -0.003214 -367827.000000 1 0 0
-14.675454 -11.577068 1.808494 18.779459 0.667919 1.474345 0.002981 0.003465 220926.000000 1 0 0
-4.050054 -16.424968 -7.539706 18.521060 1.329040 1.990060 -0.003162 -0.006572 -161535.000000 1 0 0
0.506546 -15.348668 -9.237106 17.921002 -1.537806 2.112311 -0.000569 0.008255 251187.000000 1 0 0
4.451346 -14.203768 -2.601706 15.110605 -1.267099 1.743836 0.001044 0.001243 -249960.000000 1 0 0
-3.620054 -18.149268 -2.527406 18.678557 1.373920 1.706523 -0.009403 -0.013328 1007670.000000 1 0 0
-1.034054 -13.565068 0.607594 13.617985 1.494714 1.526164 0.000706 -0.007775 3320740.000000 1 0 0
-8.602854 -11.188668 -10.591406 17.645772 0.915315 2.214577 0.007076 -0.002223 3223170.000000 1 0 0
-3.765254 -14.202468 -0.482706 14.701028 1.311645 1.603637 -0.005405 -0.004070 3769530.000000 1 0 0
-1.593754 -14.910568 -7.244106 16.653593 1.464313 2.020821 -0.005971 0.003266 4561.190000 1 0 0
-14.157954 -7.941768 -1.921706 16.346629 0.511204 1.688629 0.007918 0.004970 3019520.000000 1 0 0
-10.803654 -7.096568 -11.735606 17.458656 0.581188 2.307965 0.011025 -0.005785 -606362.000000 1 0 0
-9.406054 -14.778268 6.820394 18.798639 1.003985 1.199511 -0.007799 0.001493 -685179.000000 1 0 0
-2.572054 -14.297068 -12.399806 19.099131 1.392799 2.277373 0.013940 0.005315 -208957.000000 1 0 0
2.170246 -17.841668 -4.717006 18.581852 -1.449752 1.827455 0.009476 -0.005360 -719570.000000 1 0 0
-6.644654 -9.651468 -9.251306 14.929465 0.967857 2.239115 0.004849 -0.002425 43728.800000 1 0 0
-10.989654 -15.478168 0.261494 18.984587 0.953384 1.557022 0.012959 -0.004859 -238146.000000 1 0 0
-12.624554 -11.124968 4.005994 17.297175 0.722340 1.337076 0.008830 -0.001050 3026450.000000 1 0 0
-16.986454 -8.913868 -1.781906 19.265820 0.483261 1.663419 0.005312 0.008157 -1469330.000000 1 0 0
-1.535154 -19.372168 -4.070606 19.854657 1.491716 1.777281 -0.002163 -0.006237 1206460.000000 1 0 0
3.226346 -14.250968 -8.800706 17.057310 -1.348155 2.112912 -0.010133 0.006018 284169.000000 1 0 0
-4.281254 -7.906268 -13.014806 15.818451 1.074502 2.537048 -0.004661 -0.000106 1872400.000000 1 0 0
5.502446 -16.702468 1.275994 17.631719 -1.252555 1.498364 0.022575 -0.000891 5689610.000000 1 0 0
-2.906854 -13.821668 -3.277506 14.499322 1.363506 1.798812 -0.006721 -0.003744 -667313.000000 1 0 0
-0.456254 -13.890168 3.570494 14.348985 1.537961 1.319322 0.004761 -0.003868 -3215890.000000 1 0 0
1.221246 -16.147768 6.891794 17.599394 -1.495311 1.168434 0.022906 -0.007913 3201420.000000 1 0 0
-5.588154 -10.204168 -14.608206 18.674908 1.069771 2.469045 0.003761 -0.002602 -1397600.000000 1 0 0
-0.424854 -17.313168 -5.871006 18.286470 1.546262 1.897642 0.002285 -0.005056 -715818.000000 1 0 0
-6.554754 -13.412068 -1.356506 14.989612 1.116213 1.661417 0.000260 -0.006454 2793740.000000 1 0 0
-1.779754 -17.816068 -0.230106 17.906221 1.471231 1.583647 -0.006301 -0.007449 2187960.000000 1 0 0
-9.448854 -9.780568 -4.909206 14.458238 0.802647 1.917228 0.008768 -0.003729 464532.000000 1 0 0
-0.881454 -16.630568 4.813394 17.335556 1.517844 1.289439 0.010763 -0.007772 1892670.000000 1 0 0
-6.807754 -9.866368 -6.349006 13.564682 0.966816 2.057884 0.007992 -0.003523 1471170.000000 1 0 0
-6.099854 -14.471768 -8.613906 17.911998 1.171894 2.072479 0.002144 -0.006486 1283860.000000 1 0 0
-5.855854 -12.205068 -10.345006 17.037425 1.123448 2.223319 0.006750 0.001138 352177.000000 1 0 0
-10.688654 -12.195368 -8.808006 18.454140 0.851145 2.068366 0.009817 -0.010385 -320516.000000 1 0 0
3.927346 -17.224068 6.505594 18.825921 -1.346614 1.217955 0.037006 -0.007129 -716958.000000 1 0 0
-6.720154 -14.410168 -4.167606 16.437224 1.134431 1.827141 0.002589 -0.013122 -456136.000000 1 0 0
-2.829654 -12.148168 -7.075106 14.340225 1.341948 2.086762 -0.000243 0.001205 2644940.000000 1 0 0
-6.999154 -12.880368 4.355794 15.292644 1.073037 1.281968 -0.001049 0.000431 3167990.000000 1 0 0
2.549346 -16.415768 2.339394 16.776453 -1.416728 1.430895 0.015565 -0.008187 1110780.000000 1 0 0
-6.142954 -11.978968 7.167694 15.251472 1.096952 1.081543 -0.000256 -0.003557 2561070.000000 1 0 0
-11.246754 -12.886168 -1.108506 17.139766 0.853227 1.635516 0.011167 -0.000434 1220460.000000 1 0 0
-14.256754 -8.765968 4.552894 17.344338 0.551277 1.305184 0.008951 -0.001960 572769.000000 1 0 0
-7.954154 -15.588468 4.321594 18.026233 1.098975 1.328699 -0.005118 0.006376 601959.000000 1 0 0
-16.410254 -9.266968 1.040694 18.874749 0.514064 1.515632 -0.003040 0.004889 -524644.000000 1 0 0
-6.614054 -17.046868 2.225194 18.419905 1.200684 1.449697 -0.011102 0.001766 591128.000000 1 0 0
-11.535154 -14.912768 -4.768106 19.446986 0.912419 1.818507 0.020072 -0.015606 344597.000000 1 0 0
-10.138254 -9.721468 -12.704306 18.939127 0.764415 2.306079 0.008182 -0.001272 -1783.550000 1 0 0
-4.406954 -16.059968 -4.576106 17.270916 1.302982 1.838959 -0.008347 -0.008829 -644012.000000 1 0 0
-11.762354 -8.259068 0.030694 14.372408 0.612175 1.568661 -0.000479 0.001496 1945600.000000 1 0 0
-9.561054 -11.217368 3.356094 15.116430 0.864943 1.346914 0.003616 0.004033 2346580.000000 1 0 0
-14.184054 -13.022868 -0.728806 19.269500 0.742744 1.608627 0.009055 0.006829 -302688.000000 1 0 0
5.531046 -14.933368 -7.035006 17.409459 -1.216081 1.986781 0.001760 -0.003435 1185330.000000 1 0 0
-7.404154 -10.546368 -1.379706 12.959589 0.958691 1.677461 0.003089 -0.003142 539734.000000 1 0 0
-11.530854 -8.244268 -6.099306 15.431464 0.620706 1.977138 0.006322 -0.003666 808312.000000 1 0 0
-14.522454 -6.588468 -9.156806 18.389037 0.425905 2.092029 0.017623 -0.009380 3123930.000000 1 0 0
-3.884754 -16.443768 1.364894 16.951453 1.338805 1.490191 -0.007555 -0.007133 1693150.000000 1 0 0
-8.003754 -15.631368 0.017994 17.561323 1.097570 1.569772 0.005979 -0.005834 1009980.000000 1 0 0
0.837146 -18.543568 3.519494 18.893162 -1.525682 1.383418 0.016110 -0.012477 -605906.000000 1 0 0
-13.988854 -8.722868 -4.605506 17.116867 0.557562 1.843216 0.002266 0.000213 -68083.500000 1 0 0
-3.451354 -14.264268 11.259494 18.497497 1.333401 0.916371 0.009029 -0.020258 904718.000000 1 0 0
-10.780654 -12.151368 -3.884906 16.702417 0.845100 1.805542 0.011201 -0.011365 2094520.000000 1 0 0
-9.925254 -10.801668 0.385994 14.674320 0.827657 1.544489 0.003730 0.003389 1779780.000000 1 0 0
-0.181754 -13.158768 -11.089606 17.209462 1.556985 2.271022 0.000386 0.005175 246633.000000 1 0 0
-5.857854 -12.613668 -6.312706 15.273157 1.136028 1.996894 -0.002001 -0.006759 1845960.000000 1 0 0
1.851046 -15.815368 9.794594 18.694553 -1.454285 1.019341 0.022622 -0.008503 -133732.000000 1 0 0
-9.021354 -15.687368 -5.587206 18.939250 1.048909 1.870259 0.021314 -0.018332 -137404.000000 1 0 0
-3.300754 -15.400968 5.854594 16.803603 1.359669 1.214919 -0.000293 -0.002300 -962675.000000 1 0 0
-17.419254 -5.346568 -6.541806 19.360047 0.297806 1.915484 0.005937 0.000773 -312861.000000 1 0 0
18.938146 5.639932 -2.778906 19.954562 0.289445 1.710512 0.002042 0.009095 -959346.000000 1 0 0
12.783346 -12.464068 -5.816706 18.777673 -0.772753 1.885744 0.032046 -0.009354 79818.200000 1 0 0
10.958346 -13.535068 -1.616806 17.489925 -0.890213 1.663371 0.019669 -0.003976 987086.000000 1 0 0
18.558946 -3.019168 4.476894 19.328540 -0.161267 1.337053 0.021638 -0.010211 -1457780.000000 1 0 0
8.682946 -16.988168 4.962894 19.713491 -1.098294 1.316307 0.022941 -0.007772 28588.500000 1 0 0
18.058246 -1.121668 6.581394 19.252874 -0.062034 1.221923 0.037854 -0.010068 -1087870.000000 1 0 0
18.110446 -4.010068 -4.922606 19.191169 -0.217907 1.830199 0.027539 -0.012610 -491065.000000 1 0 0
5.473746 -11.703168 14.925994 19.741108 -1.133309 0.713483 0.006620 -0.001690 -95078.800000 1 0 0
15.960046 -8.902368 -0.874606 18.295906 -0.508805 1.618618 0.020399 -0.005435 -75332.400000 1 0 0
13.790446 -12.592668 -1.322606 18.721671 -0.740030 1.641501 0.019304 -0.002629 536371.000000 1 0 0
11.213746 -2.055668 13.802094 17.901723 -0.181304 0.690398 0.000870 -0.004940 553231.000000 1 0 0
16.945546 -6.138168 -1.517406 18.086768 -0.347527 1.654791 0.014786 -0.010383 -1133450.000000 1 0 0
17.745146 3.638732 -1.008206 18.142411 0.202251 1.626397 0.003918 0.001280 -40088.000000 1 0 0
9.781646 -10.998468 9.435994 17.483846 -0.843888 1.000718 0.004972 0.003973 545229.000000 1 0 0
9.018046 -11.084768 4.271294 14.914463 -0.887846 1.280344 0.000857 0.000607 -585177.000000 1 0 0
13.997446 -10.231268 6.834194 18.636350 -0.631190 1.195323 0.011255 -0.002127 -856439.000000 1 0 0
16.240246 -0.476768 -4.745606 16.926124 -0.029349 1.854978 0.012575 -0.005605 -2460720.000000 1 0 0
15.721246 -0.503268 -1.726806 15.823802 -0.032001 1.680141 0.011179 -0.006995 1270470.000000 1 0 0
12.929546 -5.181368 -0.386106 13.934447 -0.381143 1.598509 0.011742 -0.008368 1341010.000000 1 0 0
14.221446 -7.563268 1.028394 16.140327 -0.488779 1.507037 0.011027 -0.005378 2377020.000000 1 0 0
15.360146 2.483932 3.592694 15.969078 0.160325 1.343876 0.005678 -0.000046 2646080.000000 1 0 0
15.782646 -7.142468 4.956594 18.018729 -0.424974 1.292123 0.015382 -0.009995 -259599.000000 1 0 0
13.637746 -12.145368 3.324794 18.562121 -0.727581 1.390707 0.008531 -0.003575 907093.000000 1 0 0
13.998746 -1.092568 9.146294 16.757485 -0.077890 0.993449 0.016527 -0.009884 3220330.000000 1 0 0
14.197246 -2.858168 -1.697406 14.581225 -0.198663 1.687471 0.011240 -0.005360 -232175.000000 1 0 0
15.024946 1.737832 9.228594 17.718240 0.115151 1.022947 0.023580 -0.006844 -1114940.000000 1 0 0
14.300846 -10.136568 -2.994106 17.782826 -0.616614 1.739973 0.022075 -0.006179 -274686.000000 1 0 0
7.245646 -12.621068 6.119294 15.787226 -1.049645 1.172758 -0.000462 0.003173 171522.000000 1 0 0
12.377046 -4.677768 6.951494 14.946440 -0.361345 1.087056 0.008716 -0.006917 2843210.000000 1 0 0
14.953346 -9.095468 -5.644506 18.389958 -0.546468 1.882766 0.030429 -0.008007 -496790.000000 1 0 0
14.266646 -4.523968 4.623494 15.664616 -0.307071 1.271178 0.010784 -0.011865 1436970.000000 1 0 0
17.043146 -4.306268 0.888094 17.601179 -0.247489 1.520318 0.006373 -0.012585 -1225750.000000 1 0 0
10.197646 -14.539568 1.088594 17.792585 -0.959150 1.509576 0.014797 -0.003123 259879.000000 1 0 0
16.449046 -2.614268 8.510094 18.703669 -0.157613 1.098429 0.030343 -0.013288 612999.000000 1 0 0
16.023146 -2.550468 3.085994 16.515734 -0.157850 1.382840 0.010915 -0.006928 1954510.000000 1 0 0
7.800046 -15.358168 2.627194 17.424586 -1.100868 1.419444 0.011474 -0.001221 3092240.000000 1 0 0
16.538446 -7.074568 7.801594 19.607004 -0.404210 1.161571 0.026556 -0.009189 -1335290.000000 1 0 0
10.290646 -8.541568 5.077194 14.305023 -0.692787 1.207964 0.004479 -0.003168 1554590.000000 1 0 0
10.879346 -11.913568 2.185594 16.280974 -0.830742 1.436148 0.004811 -0.001632 1801090.000000 1 0 0
12.319246 -7.176368 11.973694 18.618094 -0.527477 0.872229 0.003709 -0.010898 -672902.000000 1 0 0
14.993446 -9.815868 4.240494 18.415659 -0.579656 1.338446 0.005257 -0.009757 -439068.000000 1 0 0
7.349746 -10.220268 7.780994 14.799207 -0.947344 1.017175 -0.000570 0.005849 952946.000000 1 0 0
15.212346 -3.290568 -4.485806 16.197709 -0.213027 1.851405 0.015918 -0.009587 972016.000000 1 0 0
11.826246 -8.923068 9.730194 17.724501 -0.646384 0.989667 0.002208 -0.002404 -1443660.000000 1 0 0
16.873246 -6.684868 2.395794 18.306658 -0.377210 1.439550 0.015130 -0.010656 995066.000000 1 0 0
17.503946 3.969132 2.059694 18.066114 0.222986 1.456539 0.008558 0.005221 594515.000000 1 0 0
14.698846 -4.917368 8.702694 17.775643 -0.322837 1.059182 0.020942 -0.011577 935405.000000 1 0 0
12.750346 -12.745468 6.147494 19.047571 -0.785207 1.242169 0.003250 0.003367 375475.000000 1 0 0
18.176246 0.774032 -0.879206 18.213952 0.042559 1.619086 0.009575 -0.006425 8722.370000 1 0 0
11.641246 -2.172568 10.933894 16.117962 -0.184504 0.825259 0.000697 -0.004561 2288140.000000 1 0 0
5.869446 -12.578168 10.676194 17.511192 -1.134193 0.915142 0.000484 0.008306 -1540140.000000 1 0 0
10.680346 -4.948268 11.076994 16.163383 -0.433864 0.815761 0.003772 -0.005671 829324.000000 1 0 0
17.743246 1.239532 4.931494 18.457488 0.069746 1.300330 0.022707 -0.004173 -217258.000000 1 0 0
12.245946 -7.782968 7.079894 16.145052 -0.566153 1.116847 0.009853 -0.009613 -1808560.000000 1 0 0
10.859046 -7.941568 14.326294 19.652737 -0.631446 0.753977 0.016825 -0.007959 -1035980.000000 1 0 0
14.101046 -0.287568 3.666494 14.572762 -0.020391 1.316464 0.003104 -0.000968 1817090.000000 1 0 0
11.583646 -7.728768 2.462094 14.141309 -0.588381 1.395798 0.008193 -0.003432 1278390.000000 1 0 0
9.293246 6.018232 3.507494 11.614046 0.574681 1.264002 0.000764 0.002720 1605530.000000 1 0 0
-3.803254 14.927732 -9.923006 18.323973 -1.321326 2.143054 0.007642 -0.001865 699730.000000 1 0 0
8.768546 -6.354368 9.261894 14.249494 -0.627097 0.863237 0.002663 -0.001869 -687476.000000 1 0 0
5.746046 -10.661168 -8.477806 14.783462 -1.076461 2.181526 0.000952 -0.002551 -723065.000000 1 0 0
5.323346 1.004132 0.557694 5.445853 0.186437 1.468209 0.000618 -0.002018 3341800.000000 1 0 0
-0.577054 9.911632 10.993694 14.813330 -1.512642 0.734526 -0.002669 0.000254 -1430110.000000 1 0 0
-6.334754 -5.177368 1.133694 8.259510 0.685199 1.433102 0.001196 -0.002667 1652670.000000 1 0 0
-1.061354 4.036532 -10.868406 11.642264 -1.313679 2.774934 0.004562 -0.004912 1350280.000000 1 0 0
10.892446 5.725132 1.189794 12.362772 0.483922 1.474407 0.000959 0.004485 59276.200000 1 0 0
-10.140654 -1.641868 -13.498906 16.963167 0.160517 2.491087 0.011512 -0.011722 1386580.000000 1 0 0
7.504346 10.876932 -6.034206 14.527027 0.966859 1.999155 -0.001219 -0.003945 1568730.000000 1 0 0
-12.372154 -2.908568 -9.668506 15.969031 0.230897 2.221132 0.007695 -0.008308 1345760.000000 1 0 0
-3.878754 -8.644168 2.387994 9.770818 1.149013 1.323895 0.003104 -0.001794 -280445.000000 1 0 0
8.021746 -6.739668 -5.920406 12.034232 -0.698762 2.085140 0.006913 -0.005478 2741720.000000 1 0 0
14.314846 3.160032 -4.259906 15.265891 0.217268 1.853598 0.013697 -0.001895 -23785.200000 1 0 0
-2.525454 -4.962668 9.817394 11.286594 1.100062 0.515943 0.000227 -0.000752 1443160.000000 1 0 0
3.507846 -1.833568 -4.568106 6.044382 -0.481646 2.427611 -0.002967 -0.000986 -1736170.000000 1 0 0
-3.995354 8.475932 -3.403706 9.969428 -1.130309 1.919218 -0.000184 0.002741 -389320.000000 1 0 0
5.907746 0.057432 11.676994 13.086518 0.009721 0.468400 0.000133 -0.001338 2125000.000000 1 0 0
7.152146 4.710732 12.344894 15.024666 0.582429 0.606511 -0.001008 0.006261 863809.000000 1 0 0
1.226546 -14.566768 12.454994 19.204740 -1.486793 0.865135 0.013724 -0.002495 -31876.300000 1 0 0
3.096446 8.743432 -9.021006 12.938861 1.230433 2.342284 0.001064 -0.001077 1391700.000000 1 0 0
-4.422354 -8.874468 -4.595706 10.928582 1.108491 2.004817 0.002447 -0.004295 370143.000000 1 0 0
5.674546 -6.686268 -4.041706 9.656192 -0.867065 2.002657 0.000049 -0.004552 2654610.000000 1 0 0
-3.102454 3.404632 8.595094 9.751532 -0.831803 0.491958 -0.000474 -0.000774 1403570.000000 1 0 0
-3.715654 3.202232 -11.120806 12.154534 -0.711317 2.726183 0.001511 -0.007617 253516.000000 1 0 0
3.000846 -6.109568 8.529594 10.912647 -1.114236 0.673530 -0.000861 0.001606 -581052.000000 1 0 0
-5.095154 -8.750268 10.481794 14.573805 1.043504 0.768115 0.006980 -0.006437 2633220.000000 1 0 0
-13.215954 -2.531768 6.588994 14.982861 0.189276 1.115455 0.006653 -0.003619 -364744.000000 1 0 0
3.906746 -5.903168 -8.345506 10.943378 -0.986167 2.438131 0.000336 -0.002205 2148000.000000 1 0 0
2.993846 -0.529268 12.416294 12.783098 -0.174977 0.240136 0.003086 -0.001474 1385680.000000 1 0 0
1.427746 -1.370568 -7.510706 7.767086 -0.764968 2.883943 0.002783 -0.005620 115306.000000 1 0 0
3.552846 -3.538268 3.438694 6.080023 -0.783342 0.969669 -0.000934 0.000041 816758.000000 1 0 0
1.499046 0.515432 -11.795406 11.901446 0.331177 3.008003 0.005468 -0.008206 -40695.800000 1 0 0
4.127746 3.589132 -10.620806 11.946618 0.715714 2.666001 -0.000827 -0.000071 1651790.000000 1 0 0
2.743046 3.277732 3.344194 5.426920 0.873973 0.906858 -0.004247 0.000080 -1665040.000000 1 0 0
-5.347354 0.895132 2.563594 5.997288 -0.165859 1.129116 -0.000462 -0.002206 864183.000000 1 0 0
-9.525054 -9.385668 5.549994 14.478254 0.778028 1.177394 0.003105 -0.001724 -1647660.000000 1 0 0
-3.028254 3.926032 -0.574706 4.991426 -0.913785 1.686191 0.000659 -0.003447 -1546210.000000 1 0 0
-15.930954 -6.594168 4.997694 17.951470 0.392450 1.288668 0.014801 -0.007625 424421.000000 1 0 0
1.042846 6.735732 -8.047506 10.546088 1.417193 2.438861 0.002111 -0.002370 35793.800000 1 0 0
-1.460454 6.648732 -9.530506 11.711922 -1.354571 2.521361 -0.000856 -0.000591 899226.000000 1 0 0
2.036846 -0.360568 5.206794 5.602629 -0.175208 0.378153 0.000005 -0.000770 2349220.000000 1 0 0
-3.451054 -0.600968 -6.269106 7.181408 0.172412 2.632041 0.006133 -0.007797 -63.413100 1 0 0
1.817146 -1.151868 -2.399706 3.222950 -0.564965 2.410684 0.002758 -0.001819 1267640.000000 1 0 0
2.356146 -8.562368 -7.659806 11.727668 -1.302268 2.282520 -0.005058 0.000058 1801990.000000 1 0 0
-2.419954 14.048032 -5.541706 15.294244 -1.400208 1.941573 0.002407 0.002338 2335650.000000 1 0 0
6.841046 -5.168968 -8.205906 11.868237 -0.647064 2.334246 0.004394 -0.003707 3871680.000000 1 0 0
-14.213054 -4.941168 -2.158006 15.201415 0.334580 1.713238 0.009526 0.000917 669622.000000 1 0 0
-2.689954 6.969332 -6.784006 10.091094 -1.202443 2.308076 0.002991 -0.000465 -2109990.000000 1 0 0
-5.684054 -1.161568 -8.039306 9.914038 0.201580 2.516487 0.006127 -0.011295 -264216.000000 1 0 0
-5.692554 -10.636368 3.357994 12.522524 1.079389 1.299318 0.001089 0.000105 -2903140.000000 1 0 0
8.096146 -7.502868 6.669994 12.896877 -0.747383 1.027245 0.000017 -0.003300 1915960.000000 1 0 0
8.864546 -6.102168 13.222694 17.048644 -0.602884 0.683153 0.013854 -0.005650 -22929.200000 1 0 0
-4.840854 9.576032 -0.679106 10.751532 -1.102744 1.634002 -0.005168 0.002370 1009990.000000 1 0 0
2.763546 6.570232 12.139994 14.077805 1.172645 0.530904 -0.002259 0.001113 805325.000000 1 0 0
6.142046 -2.873968 10.958294 12.886762 -0.437653 0.554141 0.005460 -0.003723 118295.000000 1 0 0
-9.656454 -6.452568 -1.115106 11.667313 0.589072 1.666518 0.000506 -0.002309 -543783.000000 1 0 0
0.942246 -13.368768 6.093294 14.722093 -1.500432 1.144076 0.005817 -0.001335 742815.000000 1 0 0
-0.515754 -3.134568 8.795994 9.352060 1.407720 0.346577 -0.000262 -0.001150 951703.000000 1 0 0
4.195946 0.746132 3.411394 5.458964 0.175983 0.895772 -0.004162 0.001066 812395.000000 1 0 0
-10.264254 5.533532 8.361394 14.348791 -0.494442 0.948719 -0.006861 -0.002782 633774.000000 1 0 0
9.404746 8.005932 -0.083306 12.351160 0.705228 1.577541 0.000350 0.004183 -308657.000000 1 0 0
4.298146 2.806732 8.204394 9.678011 0.578488 0.559095 -0.002676 -0.000834 3518960.000000 1 0 0
1.342846 2.699432 -9.797306 10.250726 1.109187 2.843053 0.006186 -0.006783 2010430.000000 1 0 0
-1.405554 -10.146868 3.054794 10.689541 1.433151 1.280982 0.002009 -0.004185 -1550270.000000 1 0 0
-9.976454 9.562132 9.060994 16.524697 -0.764196 0.990430 -0.007361 -0.004067 1729930.000000 1 0 0
9.724146 -2.052668 -7.642306 12.537037 -0.208036 2.226325 0.014355 -0.002292 -44458.000000 1 0 0
-5.195554 -1.838668 6.732794 8.700862 0.340138 0.685966 -0.002080 -0.001804 967161.000000 1 0 0
3.108446 -7.835968 -4.959706 9.780773 -1.193147 2.102598 -0.004265 -0.002876 2048210.000000 1 0 0
-4.984554 4.979432 -13.038506 14.820363 -0.784884 2.646174 0.001017 -0.008700 1984610.000000 1 0 0
-5.691654 9.638332 5.606194 12.518857 -1.037375 1.106471 -0.005387 0.000744 2224740.000000 1 0 0
-0.495654 -1.751868 -9.350706 9.526301 1.295074 2.949293 0.005492 -0.008091 -352322.000000 1 0 0
-16.810154 0.155632 6.383494 17.982060 -0.009258 1.207890 0.015998 -0.008850 -1028460.000000 1 0 0
-6.014054 -2.838768 4.135594 7.831384 0.441016 1.014459 -0.006300 0.000350 2518960.000000 1 0 0
1.003846 -5.638168 -5.132706 7.690339 -1.394598 2.301539 0.000731 -0.002064 1216980.000000 1 0 0
-6.985654 1.371032 -8.421406 11.027201 -0.193801 2.439812 0.001826 -0.008404 1045150.000000 1 0 0
8.029046 1.946332 4.773094 9.541290 0.237824 1.046901 -0.003018 -0.000130 403598.000000 1 0 0
0.410246 -8.105568 -0.525606 8.132945 -1.520227 1.635468 -0.001659 -0.001045 1392420.000000 1 0 0
5.424746 5.490132 -3.457006 8.456968 0.791389 1.991909 0.000192 0.000399 -624536.000000 1 0 0
-0.835154 -0.318768 -1.166806 1.469874 0.364621 2.487850 0.002871 -0.002187 1772280.000000 1 0 0
9.110946 6.379532 -6.353106 12.808971 0.610864 2.089770 0.001405 -0.000262 36441.100000 1 0 0
-14.992154 -7.093768 2.371894 16.754465 0.441950 1.428751 0.003334 -0.000748 1913800.000000 1 0 0
-6.408154 6.849632 8.956794 12.969428 -0.818685 0.808467 -0.002544 -0.001906 415152.000000 1 0 0
-9.367454 -3.146368 -9.642606 13.806834 0.324043 2.343947 0.007271 -0.008850 1105610.000000 1 0 0
14.869746 3.406932 -1.326106 15.312580 0.225231 1.657507 -0.000404 0.001416 2280560.000000 1 0 0
12.068046 1.618732 -5.808506 13.490618 0.133338 2.015908 0.010958 -0.001889 -272168.000000 1 0 0
1.637046 -9.452968 12.734194 15.943595 -1.399319 0.645660 0.002018 -0.005211 431841.000000 1 0 0
-3.648554 6.363632 7.942994 10.811980 -1.050207 0.745649 -0.001015 -0.001103 1695690.000000 1 0 0
-3.854754 13.120632 -12.330306 18.413217 -1.285043 2.304526 -0.002849 -0.007506 -97325.600000 1 0 0
-10.341054 7.803832 6.537994 14.511463 -0.646468 1.103426 -0.006729 -0.003420 118044.000000 1 0 0
8.011346 -9.329168 -7.181606 14.240453 -0.861249 2.099379 0.008903 -0.005592 1595370.000000 1 0 0
5.817446 -3.865668 -0.345206 6.993228 -0.586498 1.620179 0.002547 -0.003265 -854991.000000 1 0 0
-1.715054 -4.445568 4.267394 6.396494 1.202600 0.840426 -0.002175 0.001527 973489.000000 1 0 0
9.867746 -2.035268 -2.557106 10.394880 -0.203402 1.819344 0.006219 -0.005212 -3478550.000000 1 0 0
13.456146 7.060132 1.389694 15.259246 0.483194 1.479598 -0.002872 0.004887 81352.000000 1 0 0
5.374846 -3.784868 -3.274906 7.344332 -0.613527 2.032986 0.002255 -0.004300 -2268240.000000 1 0 0
-12.217654 -5.997568 1.921594 13.745341 0.456336 1.430537 0.002425 0.001599 825845.000000 1 0 0
3.693246 -5.805968 -0.247506 6.885535 -1.004246 1.606750 -0.000310 -0.000793 -393056.000000 1 0 0
-5.190454 3.713932 -8.679006 10.773080 -0.621074 2.507517 0.002523 -0.006088 2018030.000000 1 0 0
-1.611354 -9.344168 7.203794 11.908173 1.400031 0.921099 0.006143 -0.004023 1525460.000000 1 0 0
-7.458054 -7.436468 2.516894 10.828591 0.783949 1.336221 0.005900 -0.002404 -2886280.000000 1 0 0
-5.658654 13.133332 -8.590006 16.682115 -1.163971 2.111714 0.011285 -0.005040 2372450.000000 1 0 0
9.109346 -13.921268 -4.121406 17.139658 -0.991371 1.813636 0.016665 -0.000058 1338070.000000 1 0 0
-6.554754 -5.096068 -6.697306 10.667174 0.660846 2.249575 0.005195 -0.007940 2200070.000000 1 0 0
3.418646 0.457032 -6.233506 7.124087 0.132900 2.636212 0.000355 -0.004298 1399240.000000 1 0 0
-3.626454 5.693332 5.010394 8.406500 -1.003639 0.932268 -0.001559 0.001378 928891.000000 1 0 0
-2.709654 -10.781368 -2.813506 11.467168 1.324569 1.818680 0.001435 -0.002801 1684630.000000 1 0 0
-12.600554 -0.418668 1.874594 12.746111 0.033214 1.423189 0.004873 -0.000889 1418480.000000 1 0 0
8.298046 -12.038268 -6.084806 15.836740 -0.967284 1.965160 0.011108 -0.006273 785314.000000 1 0 0
6.091946 3.898732 0.959794 7.296104 0.569300 1.438865 0.000532 -0.000703 -359846.000000 1 0 0
3.372046 -4.763468 -10.913606 12.376111 -0.954790 2.650522 0.002082 -0.001150 901350.000000 1 0 0
-7.656054 4.291832 8.648494 12.321990 -0.510930 0.792770 -0.007029 -0.000451 604725.000000 1 0 0
8.235446 8.662632 4.087894 12.632286 0.810673 1.241257 0.002932 0.001766 1678510.000000 1 0 0
0.321146 10.615732 -6.305606 12.351420 1.540554 2.106582 0.000078 0.001809 1971010.000000 1 0 0
5.432046 8.010332 3.317594 10.231274 0.974900 1.240567 0.002474 0.000903 3754460.000000 1 0 0
8.075446 6.652832 -3.817306 11.137542 0.689106 1.920631 0.000551 0.000832 2892980.000000 1 0 0
10.493446 2.463132 -8.262006 13.580875 0.230557 2.224784 0.002962 -0.001211 2017410.000000 1 0 0
3.259346 -12.505968 -0.311706 12.927480 -1.315845 1.594911 0.001531 -0.005038 -1226650.000000 1 0 0
0.565846 2.167532 5.212794 5.673764 1.315440 0.405883 -0.001311 -0.000581 32226.500000 1 0 0
-4.889654 13.527132 1.399094 14.451625 -1.223940 1.473832 -0.009886 0.004974 1796810.000000 1 0 0
8.305346 4.061732 -8.044206 12.255027 0.454850 2.286834 -0.002065 0.001481 1962680.000000 1 0 0
-13.850454 -0.573268 -3.626906 14.328927 0.041366 1.826698 0.000213 -0.000998 1077590.000000 1 0 0
-8.638954 0.045332 -0.443306 8.650439 -0.005247 1.622065 -0.002695 -0.001483 1426850.000000 1 0 0
1.773146 -3.844468 -1.127606 4.381264 -1.138651 1.831096 0.000439 0.000714 -2043930.000000 1 0 0
8.049446 -5.613068 -0.242406 9.816256 -0.608927 1.595493 0.005664 -0.005801 1746670.000000 1 0 0
-2.296954 -1.169768 7.391094 7.827683 0.471036 0.335563 0.000325 -0.001526 1341930.000000 1 0 0
-5.768854 8.841732 -11.721706 15.775116 -0.992696 2.408413 0.004328 -0.006842 882942.000000 1 0 0
-6.108154 9.210432 -8.836306 14.149979 -0.985213 2.245255 0.009516 -0.003523 607958.000000 1 0 0
-1.446054 14.080332 -8.381806 16.449969 -1.468455 2.105439 0.009235 -0.002053 -1723590.000000 1 0 0
-1.477054 7.199332 9.787394 12.239491 -1.368439 0.644073 0.000025 -0.002610 1456990.000000 1 0 0
9.999046 2.357732 -4.018406 11.031202 0.231566 1.943652 0.001628 -0.000683 -1411630.000000 1 0 0
-3.013154 -7.423668 -6.854506 10.543917 1.185227 2.278501 0.004302 -0.004287 926763.000000 1 0 0
-5.548554 -5.070468 -1.506306 7.665837 0.740407 1.768579 0.003028 -0.004226 -32959.100000 1 0 0
5.719446 7.406132 -8.758606 12.817021 0.913201 2.323148 -0.001710 -0.000255 737808.000000 1 0 0
-9.550254 5.240332 -7.461306 13.203769 -0.501853 2.171338 0.002046 -0.001076 716071.000000 1 0 0
-0.450654 6.119232 -5.292006 8.102680 -1.497284 2.282491 0.003382 -0.000684 -1941270.000000 1 0 0
-8.233254 2.799232 -6.292206 10.733779 -0.327730 2.197164 0.004382 -0.003497 1005910.000000 1 0 0
3.641946 1.347932 -2.041806 4.387444 0.354479 2.054854 -0.001498 -0.002908 1277360.000000 1 0 0
-6.762154 12.542032 -3.515306 14.676058 -1.076314 1.812675 -0.000194 0.008874 486190.000000 1 0 0
-6.546354 3.157132 -2.332906 7.633130 -0.449366 1.881395 -0.000200 -0.000876 -709257.000000 1 0 0
12.087146 3.934632 -0.812306 12.737358 0.314704 1.634613 0.001900 0.002121 -192728.000000 1 0 0
2.368546 12.369732 -5.474506 13.732826 1.381607 1.980834 0.003663 -0.001534 479573.000000 1 0 0
-9.152554 -1.465768 -4.295406 10.216077 0.158800 2.004744 0.001288 -0.001877 -2250620.000000 1 0 0
-1.171054 5.794932 3.460694 6.850475 -1.371399 1.041211 -0.001021 0.001332 2555660.000000 1 0 0
11.641946 2.537632 11.979594 16.896306 0.214616 0.782708 0.003850 0.004784 90855.800000 1 0 0
-7.089254 -2.355468 -5.709906 9.402594 0.320783 2.223415 0.005637 -0.007552 -1439430.000000 1 0 0
7.495846 -7.409568 10.880794 15.148633 -0.779610 0.769485 0.005077 -0.002132 -1615650.000000 1 0 0
-5.523754 -1.918968 -10.821806 12.300641 0.334359 2.646187 0.007514 -0.006371 -553845.000000 1 0 0
0.725346 -6.192668 4.453794 7.662346 -1.454198 0.950523 -0.003912 0.001267 1966100.000000 1 0 0
-4.755954 -9.323468 7.382494 12.808098 1.099097 0.956489 0.001098 -0.002660 5084890.000000 1 0 0
-8.704754 9.319432 1.778894 12.875908 -0.819488 1.432196 -0.008242 0.002364 1041430.000000 1 0 0
-8.053154 7.202332 -9.062306 14.101499 -0.729684 2.268746 0.010448 -0.004629 60362.700000 1 0 0
-1.284854 -10.736868 -0.067606 10.813684 1.451695 1.577048 0.000895 -0.003522 -372390.000000 1 0 0
-3.969654 10.302632 7.830494 13.535842 -1.203022 0.953907 -0.002532 0.001638 507066.000000 1 0 0
-7.369554 12.036232 2.091694 14.267319 -1.021396 1.423659 -0.015324 0.000141 2684010.000000 1 0 0
-8.214354 -8.189068 -2.830106 11.939260 0.783857 1.810116 0.006708 -0.005655 817210.000000 1 0 0
5.449446 4.572132 -8.059306 10.749571 0.698078 2.418455 0.001227 0.000835 1440710.000000 1 0 0
-8.918654 -0.116768 -10.127306 13.495123 0.013092 2.419527 0.005848 -0.010873 -1587170.000000 1 0 0
-15.133354 -2.220368 -1.549206 15.373629 0.145681 1.671738 0.003242 -0.001695 -1066660.000000 1 0 0
-7.163754 -5.789068 8.692394 12.664533 0.679664 0.814328 0.005735 -0.003558 -2247120.000000 1 0 0
8.070646 3.410032 -1.009706 8.819476 0.399771 1.685534 0.000131 0.001167 1106810.000000 1 0 0
11.952646 7.329232 -5.802906 15.174225 0.550061 1.963209 0.002940 -0.002272 1542740.000000 1 0 0
3.811546 13.257132 -9.474606 16.734623 1.290838 2.172646 -0.006321 -0.005889 530790.000000 1 0 0
-9.775154 5.441932 -0.485706 11.198400 -0.507981 1.614183 -0.003383 0.001689 1318460.000000 1 0 0
11.243946 -1.290668 -5.130606 12.426394 -0.114288 1.996410 0.017877 -0.005903 -691062.000000 1 0 0
10.510746 1.639132 -1.283006 10.714880 0.154702 1.690825 0.002920 -0.000382 858825.000000 1 0 0
14.563546 5.111432 4.893394 16.191631 0.337543 1.263778 0.001225 0.001237 3608250.000000 1 0 0
0.887346 -0.829368 10.352294 10.423302 -0.751638 0.116792 0.002112 -0.001632 1466030.000000 1 0 0
-7.872154 1.456932 -12.535806 14.874135 -0.183003 2.573246 0.002620 -0.007147 -46983.000000 1 0 0
3.017846 -11.510468 -7.869106 14.266082 -1.314385 2.155072 -0.007971 0.000642 1923690.000000 1 0 0
2.903846 5.002532 -6.718206 8.865210 1.044857 2.430757 0.001174 -0.000734 -334418.000000 1 0 0
6.504246 7.957232 0.493394 10.289130 0.885535 1.522825 0.004995 0.000589 234779.000000 1 0 0
-9.054654 -5.426568 6.733494 12.520956 0.539914 1.002997 0.000911 -0.000089 -729333.000000 1 0 0
-0.382354 -6.813668 -11.789106 13.621868 1.514739 2.616853 0.002292 0.001675 1905310.000000 1 0 0
6.339646 -13.296568 -4.593406 15.430140 -1.125890 1.873069 0.005517 -0.002125 2242070.000000 1 0 0
-3.303554 -0.353868 10.057494 10.592067 0.106710 0.319059 -0.001485 -0.000484 -182362.000000 1 0 0
8.552646 8.395532 6.945094 13.851608 0.776128 1.045589 -0.001532 -0.000969 573149.000000 1 0 0
-7.932054 5.743232 -2.635506 10.141404 -0.626688 1.833690 0.002508 -0.000863 1410960.000000 1 0 0
-5.319854 5.798732 -6.442506 10.170153 -0.828442 2.256828 0.004114 0.000008 -205311.000000 1 0 0
3.269446 -13.682968 2.534194 14.294580 -1.336251 1.392571 0.009296 -0.007295 -1250970.000000 1 0 0
-11.278754 -7.043468 6.405394 14.759736 0.558232 1.121893 0.005657 -0.005896 -135827.000000 1 0 0
-12.855554 -3.678668 -6.802006 15.002171 0.278706 2.041374 0.008671 -0.006040 -241730.000000 1 0 0
6.065446 0.353532 -7.287206 9.487781 0.058220 2.446606 -0.000127 0.000964 -184779.000000 1 0 0
-1.396854 2.206132 -2.488906 3.607336 -1.006344 2.332226 0.001627 -0.004062 2681340.000000 1 0 0
7.570846 0.882632 -4.927706 9.076290 0.116059 2.144707 -0.001378 0.000532 1007320.000000 1 0 0
3.704046 -4.506768 10.937394 12.395866 -0.882852 0.489981 0.001269 -0.000392 692504.000000 1 0 0
5.926846 -2.580768 2.037494 6.777850 -0.410678 1.265463 0.001628 -0.004175 -836453.000000 1 0 0
-6.369254 7.686332 1.168794 10.050531 -0.878830 1.454241 -0.005305 0.000581 433896.000000 1 0 0
5.954446 -3.454368 7.902994 10.480716 -0.525683 0.716588 0.001125 -0.003353 103084.000000 1 0 0
6.683046 -2.335968 -7.862506 10.580116 -0.336262 2.408547 0.003364 -0.001348 976572.000000 1 0 0
12.146346 -8.125668 -5.800106 15.722641 -0.589603 1.948623 0.031183 -0.010233 1564390.000000 1 0 0
5.598946 -9.701768 10.044194 15.045210 -1.047381 0.839815 -0.004818 0.005554 2216120.000000 1 0 0
-6.576954 7.524532 -4.444006 10.937280 -0.852494 1.989216 0.003850 0.001036 1882800.000000 1 0 0
-1.323154 -7.574668 9.732294 12.403382 1.397860 0.668667 0.006432 -0.003821 -832351.000000 1 0 0
9.986546 -9.347468 0.792394 13.701611 -0.752356 1.512932 0.005689 -0.005209 -81000.200000 1 0 0
11.103046 5.989032 9.813094 15.982583 0.494672 0.909695 -0.001993 -0.000215 1789140.000000 1 0 0
-15.217754 -4.232668 -5.004906 16.569387 0.271283 1.877646 0.008844 -0.001799 1666370.000000 1 0 0
-4.744354 -4.545968 7.919594 10.290514 0.764047 0.692580 0.001744 -0.000317 -823983.000000 1 0 0
3.042546 10.853832 -11.067206 15.797019 1.297491 2.347018 -0.003588 -0.003059 -214321.000000 1 0 0
9.840946 -1.493768 1.510494 10.067629 -0.150641 1.420193 0.002817 -0.003878 372720.000000 1 0 0
-1.623754 -2.629568 0.734094 3.176491 1.017610 1.337586 -0.000236 -0.002646 -260553.000000 1 0 0
1.545346 3.043432 0.830094 3.512781 1.100957 1.332233 -0.004714 -0.002339 -401284.000000 1 0 0
-9.007054 -2.358468 4.343394 10.273970 0.256097 1.134311 -0.004020 -0.002131 3660920.000000 1 0 0
9.904446 4.853932 -2.697506 11.354966 0.455677 1.810651 0.001339 0.001917 1567790.000000 1 0 0
2.561146 8.472732 2.504594 9.198894 1.277248 1.295044 0.001212 0.000053 138574.000000 1 0 0
-8.129654 -0.021868 2.472094 8.497235 0.002690 1.275598 -0.005176 -0.002003 1268470.000000 1 0 0
6.976846 2.006932 13.720494 15.522761 0.280094 0.486670 -0.000109 0.005036 -901376.000000 1 0 0
6.763146 4.307232 3.740394 8.847765 0.567088 1.134318 -0.001922 0.000749 539776.000000 1 0 0
-0.284554 3.285932 7.816994 8.484322 -1.484414 0.399268 -0.002533 0.000451 323338.000000 1 0 0
2.717646 -10.299768 9.306694 14.145154 -1.312821 0.852713 0.000626 -0.001321 2567720.000000 1 0 0
1.301146 -4.566868 6.873794 8.354538 -1.293240 0.604543 -0.002128 0.001118 1890920.000000 1 0 0
-0.166354 10.835832 -1.927506 11.007189 -1.555445 1.746817 0.005030 -0.000654 3834100.000000 1 0 0
8.766246 5.491532 7.997694 13.075439 0.559635 0.912642 -0.003969 0.000307 -1363300.000000 1 0 0
2.717246 11.473732 -2.799506 12.118877 1.338257 1.803906 0.009174 -0.004548 2829090.000000 1 0 0
1.511746 2.511532 -6.721506 7.332927 1.028965 2.730338 0.001704 -0.003927 130512.000000 1 0 0
-13.605254 -2.271168 3.622994 14.261389 0.165408 1.313939 0.004809 -0.005174 7889.690000 1 0 0
-0.936754 -10.580668 -5.248006 11.847768 1.482492 2.029686 -0.001008 0.000009 -325477.000000 1 0 0
-5.602954 2.817732 0.410894 6.285025 -0.465966 1.505373 0.001794 -0.002943 1408960.000000 1 0 0
3.722646 7.299532 -4.985106 9.591274 1.099193 2.117360 0.002250 -0.001638 -2679950.000000 1 0 0
3.060146 9.821432 -6.480106 12.157993 1.268751 2.132928 0.003662 -0.000746 1285970.000000 1 0 0
-12.212354 1.727432 -2.547506 12.594260 -0.140517 1.774477 -0.000828 0.001275 480849.000000 1 0 0
-2.468154 9.744332 -5.691306 11.551396 -1.322722 2.085979 -0.000876 0.002075 45159.000000 1 0 0
-1.390454 3.392832 1.786294 4.078666 -1.181852 1.117468 -0.001938 -0.003102 1380740.000000 1 0 0
12.916946 3.653432 9.621294 16.515580 0.275640 0.948923 0.008003 -0.000997 -373203.000000 1 0 0
-2.507454 -9.590768 11.556594 15.225801 1.315076 0.708999 0.006185 -0.010606 337105.000000 1 0 0
-0.573154 -8.777368 -7.500306 11.559640 1.505590 2.276850 -0.001607 0.001810 1549520.000000 1 0 0
2.388346 7.639132 -0.491306 8.018848 1.267778 1.632104 0.002828 -0.000655 1482610.000000 1 0 0
-11.733754 -1.300768 -5.535706 13.039057 0.110406 2.009259 0.002911 -0.000921 -1252960.000000 1 0 0
-6.276054 -7.126368 -10.959306 14.501047 0.848758 2.427610 -0.000056 -0.001991 2795130.000000 1 0 0
-4.722954 -2.382768 -1.375006 5.465758 0.467248 1.825096 0.001315 -0.003257 -1986680.000000 1 0 0
-10.493854 3.761632 4.550994 12.040863 -0.344192 1.183202 -0.003469 -0.003754 2844420.000000 1 0 0
6.810946 9.292032 -3.558306 12.057877 0.938272 1.870359 0.003808 0.000066 -465057.000000 1 0 0
1.192546 -2.611468 -11.489406 11.842651 -1.142420 2.896735 0.004100 -0.005690 -1542120.000000 1 0 0
1.178646 8.785232 7.508394 11.616604 1.437430 0.868005 -0.005933 0.005099 338274.000000 1 0 0
10.302446 0.432832 10.372494 14.625880 0.041988 0.782451 -0.006252 -0.000805 1697420.000000 1 0 0
-5.303854 -0.885568 -3.894706 6.639565 0.165441 2.197639 0.002905 -0.006822 1177.500000 1 0 0
11.683246 5.679432 5.395894 14.066622 0.452480 1.177110 -0.001750 0.004016 1662000.000000 1 0 0
9.883146 -3.540568 3.625594 11.106626 -0.343999 1.238267 0.008859 -0.007902 -1031780.000000 1 0 0
7.279446 -1.724468 -3.455406 8.240386 -0.232607 2.003499 0.001769 -0.002137 -2967850.000000 1 0 0
2.323546 9.215332 10.460294 14.132904 1.323805 0.737521 -0.004727 0.001821 3119040.000000 1 0 0
2.463246 -10.889168 6.407994 12.872605 -1.348330 1.049735 -0.002800 0.000939 1851520.000000 1 0 0
5.868246 -7.605368 -1.249006 9.686999 -0.913619 1.700093 0.000704 -0.004737 1078430.000000 1 0 0
-0.270454 -5.616068 -2.260306 6.059897 1.522676 1.953030 0.001033 0.000330 858717.000000 1 0 0
7.668546 -5.109068 2.717394 9.606946 -0.587705 1.284025 0.004103 -0.005395 950021.000000 1 0 0
-2.732154 -12.418568 4.633994 13.533639 1.354241 1.221320 0.003243 -0.003052 -598686.000000 1 0 0
4.732646 -10.315668 -1.140206 11.406622 -1.140663 1.670924 -0.002223 -0.005137 946139.000000 1 0 0
0.869846 0.244932 1.080894 1.408885 0.274474 0.696335 -0.003537 0.000119 -2738110.000000 1 0 0
-1.608654 8.609232 2.427794 9.088500 -1.386074 1.300385 -0.003053 0.003275 1957010.000000 1 0 0
-7.575354 0.663932 -3.002506 8.175685 -0.087420 1.946845 0.000031 -0.001293 -290925.000000 1 0 0
4.457546 -6.421968 12.919494 15.100487 -0.964035 0.544149 0.015753 -0.007889 -1601140.000000 1 0 0
-5.075954 13.035732 8.458894 16.347737 -1.199472 1.026945 -0.006641 0.003105 553926.000000 1 0 0
0.599146 6.074232 8.231694 10.247734 1.472477 0.638032 -0.002670 0.002594 721394.000000 1 0 0
7.848346 -0.576268 -0.742006 7.904378 -0.073294 1.664808 0.001311 -0.003057 3435590.000000 1 0 0
2.378846 -9.195368 -2.400206 9.796667 -1.317646 1.818318 -0.004517 -0.002244 87519.800000 1 0 0
-7.075154 12.190332 4.907494 14.924661 -1.044920 1.235745 -0.007480 0.001001 -88194.300000 1 0 0
-15.014954 0.248632 0.205894 15.018423 -0.016557 1.557086 0.005456 0.000702 814506.000000 1 0 0
6.837646 -0.496668 3.871194 7.873133 -0.072510 1.056759 0.000590 -0.002956 1471220.000000 1 0 0
-4.327554 -4.985268 5.130794 8.360961 0.855906 0.910108 -0.002425 -0.000895 403946.000000 1 0 0
2.922146 5.122832 6.837094 9.029297 1.052414 0.711762 -0.004044 0.000699 572986.000000 1 0 0
2.016046 -7.219868 1.790794 7.707002 -1.298496 1.336294 -0.002410 -0.000780 779928.000000 1 0 0
-2.422554 6.480832 -1.751406 7.137042 -1.213076 1.818725 -0.000508 0.000204 1933480.000000 1 0 0
2.725546 -3.721568 -6.502406 7.972450 -0.938677 2.524578 -0.000370 -0.003276 -1393610.000000 1 0 0
-5.081654 0.933532 -12.112306 13.168244 -0.181681 2.738397 0.002017 -0.005609 -1053940.000000 1 0 0
-7.416454 6.388432 -11.840506 15.362729 -0.711067 2.450781 0.008624 -0.008932 2653070.000000 1 0 0
-0.941054 11.284332 -8.978906 14.451383 -1.487594 2.241220 -0.002183 0.001708 -108188.000000 1 0 0
4.621146 5.860632 -0.640706 7.490828 0.903103 1.656433 0.002038 -0.000900 387899.000000 1 0 0
-2.639954 13.403732 3.490894 14.100203 -1.376329 1.320617 -0.007333 0.006018 920459.000000 1 0 0
1.451046 -7.895368 10.277194 13.040824 -1.389040 0.663115 -0.003618 -0.003228 -583227.000000 1 0 0
12.940046 -0.373168 -1.175706 12.998705 -0.028830 1.661368 0.009574 -0.008460 -145507.000000 1 0 0
-1.014954 3.060732 -5.381606 6.273746 -1.250602 2.601766 0.002871 -0.004252 879061.000000 1 0 0
6.516246 1.024832 7.200494 9.765186 0.155996 0.741637 -0.000855 -0.000595 1061370.000000 1 0 0
5.429646 -6.148568 6.869094 10.699084 -0.847411 0.873658 -0.002963 -0.000141 1247550.000000 1 0 0
12.192146 -4.904468 2.538994 13.384645 -0.382457 1.379945 0.006132 -0.007251 237327.000000 1 0 0
4.374646 -9.181868 13.892494 17.217596 -1.126170 0.631949 0.006503 -0.004578 -459901.000000 1 0 0
-2.747254 -4.405868 -1.321006 5.357624 1.013245 1.819931 0.003953 -0.004149 2288880.000000 1 0 0
-9.376554 -5.134768 -7.599306 13.116213 0.501012 2.188767 0.005518 -0.007441 -278929.000000 1 0 0
-10.535654 -3.118068 7.881394 13.521787 0.287741 0.948545 0.000492 0.000204 817714.000000 1 0 0
11.949346 -0.726368 1.568594 12.073731 -0.060713 1.440510 0.004817 -0.003296 917576.000000 1 0 0
-7.614554 4.799132 4.394594 10.016264 -0.562371 1.116594 -0.001096 -0.003162 800704.000000 1 0 0
-1.082154 10.682332 6.999994 12.817300 -1.469838 0.993051 -0.004471 0.004105 1574460.000000 1 0 0
7.328546 -10.005168 1.878594 12.543528 -0.938605 1.420465 0.001764 -0.003991 2018870.000000 1 0 0
-4.342254 -1.738568 1.678894 4.969554 0.380837 1.226180 -0.004195 0.000755 1481540.000000 1 0 0
6.664746 -14.999768 -0.906906 16.438807 -1.152673 1.625993 0.011661 0.000914 -2199790.000000 1 0 0
-10.475754 1.729932 2.421694 10.890302 -0.163660 1.346550 -0.003737 0.000469 553246.000000 1 0 0
-2.917354 8.387232 -11.458206 14.496451 -1.236054 2.482282 -0.002689 0.001347 -1911450.000000 1 0 0
-1.234854 -5.116468 -6.858606 8.645437 1.333976 2.487041 0.000404 -0.003222 91106.200000 1 0 0
12.763446 -0.545768 6.404194 14.290456 -0.042734 1.106107 0.006636 -0.005276 1036000.000000 1 0 0
5.925946 -13.319468 3.686394 15.037106 -1.152184 1.323119 0.007000 -0.001492 1966180.000000 1 0 0
-5.566954 3.469632 -5.000506 8.248296 -0.557344 2.222130 0.003674 -0.002370 1763200.000000 1 0 0
-4.414954 8.046732 3.450794 9.805595 -1.068979 1.211174 -0.002261 0.001226 -103067.000000 1 0 0
14.060646 6.143732 -3.971906 15.850024 0.411945 1.824089 0.012350 0.003018 786748.000000 1 0 0
-6.730054 -8.566668 5.254194 12.094957 0.904892 1.121411 0.006220 -0.000973 1093710.000000 1 0 0
1.669146 11.391732 2.640394 11.812252 1.425309 1.345362 0.002540 0.000521 1506530.000000 1 0 0
-7.444654 7.350632 6.037994 12.079405 -0.779043 1.047361 -0.006155 -0.002177 57809.300000 1 0 0
-17.457254 -4.131168 5.297594 18.705260 0.232370 1.283653 0.015721 -0.010925 -370270.000000 1 0 0
7.374146 -13.143468 -8.610706 17.357219 -1.059509 2.089884 0.009631 -0.004526 -896571.000000 1 0 0
-2.347254 12.828032 -2.759706 13.329816 -1.389820 1.779337 -0.004625 0.004146 1818030.000000 1 0 0
-5.432954 13.965132 -5.819306 16.075019 -1.199776 1.941219 0.010684 0.005382 1109790.000000 1 0 0
-5.716654 2.528232 7.439794 9.717130 -0.416397 0.698765 0.000225 -0.002396 2025290.000000 1 0 0
-7.387354 5.007732 1.393394 9.032825 -0.595725 1.415919 -0.000495 -0.000360 1180450.000000 1 0 0
10.728846 -5.678168 -5.008706 13.131522 -0.486767 1.962135 0.020311 -0.007996 3377420.000000 1 0 0
-9.508654 -0.732768 6.825694 11.727811 0.076911 0.949599 -0.005303 -0.000928 651525.000000 1 0 0
-11.249654 -4.604168 -2.540606 12.418041 0.388474 1.776841 -0.000785 0.000252 985595.000000 1 0 0
6.589446 -4.389368 13.501994 15.652195 -0.587625 0.530358 0.018255 -0.011987 -543067.000000 1 0 0
0.314746 10.262532 -11.648806 15.527824 1.540136 2.419145 -0.005695 -0.000287 -2650510.000000 1 0 0
-11.764054 -3.177468 1.470594 12.274034 0.263805 1.450694 0.001214 -0.002222 3621660.000000 1 0 0
5.223446 5.850132 5.412594 9.529145 0.841931 0.966718 -0.000931 0.000667 -4790870.000000 1 0 0
-7.097554 0.090332 8.073894 10.750404 -0.012727 0.721173 -0.004623 -0.001223 481639.000000 1 0 0
1.771346 2.011332 9.709594 10.072703 0.848757 0.269323 0.000114 -0.001643 2401160.000000 1 0 0
10.411746 -4.898268 -2.022706 11.682843 -0.439734 1.744808 0.009418 -0.005687 1462750.000000 1 0 0
-9.629454 -2.397568 -1.625206 10.055645 0.244021 1.733130 -0.001749 -0.001488 -721637.000000 1 0 0
-2.073654 -5.171168 -9.880806 11.343339 1.189426 2.628166 0.003636 -0.005047 754227.000000 1 0 0
7.599246 -1.601368 6.561794 10.167107 -0.207689 0.869257 0.001097 -0.004709 1031080.000000 1 0 0
1.480746 -11.905768 -2.648706 12.286397 -1.447060 1.788082 -0.002919 -0.003705 -3980370.000000 1 0 0
-0.733454 -1.502668 4.798894 5.081865 1.116713 0.335282 -0.002110 -0.000480 1137070.000000 1 0 0
7.576846 1.483332 9.830994 12.500293 0.193327 0.665738 0.000385 -0.002287 1297360.000000 1 0 0
-3.715754 10.777432 -7.995606 13.924424 -1.238787 2.182441 0.007196 0.001565 2919690.000000 1 0 0
-9.469254 12.781632 6.345694 17.126141 -0.933178 1.191220 -0.012187 0.006177 712933.000000 1 0 0
-2.537254 -2.405268 -11.053306 11.593039 0.758700 2.835252 0.006523 -0.008851 -1619260.000000 1 0 0
1.136946 -11.966668 11.107394 16.366673 -1.476071 0.824861 0.005239 -0.000310 1898490.000000 1 0 0
1.404446 3.472932 -1.991906 4.242808 1.186504 2.059496 -0.002758 -0.002307 2136100.000000 1 0 0
-1.957254 -9.411368 -12.063306 15.424916 1.365752 2.468771 -0.001680 0.004642 1174100.000000 1 0 0
1.244546 -2.636768 1.576994 3.314868 -1.129801 1.074999 0.002179 0.000675 1555200.000000 1 0 0
-1.111054 -2.235768 -6.589106 7.046234 1.109596 2.779407 0.004020 -0.007904 972229.000000 1 0 0
1.829046 5.872432 4.057494 7.368455 1.268856 0.987645 -0.005056 0.002081 -1732390.000000 1 0 0
-11.018154 8.586832 3.612494 14.428566 -0.662013 1.317733 -0.018247 -0.001630 2008370.000000 1 0 0
-16.390154 -1.654468 4.011094 16.954742 0.100602 1.331955 0.009632 -0.005867 -110202.000000 1 0 0
-12.193654 0.235532 6.750694 13.939603 -0.019314 1.065254 -0.000181 -0.001527 -344963.000000 1 0 0
-5.176654 3.046432 4.663994 7.604691 -0.531917 0.910558 -0.000015 -0.001013 2016410.000000 1 0 0
5.087846 -6.052568 3.950794 8.839035 -0.871779 1.107420 -0.001532 -0.001990 1979230.000000 1 0 0
9.935446 3.442832 6.272094 12.243584 0.333571 1.032964 -0.003597 0.003417 1126320.000000 1 0 0
-12.205954 5.867232 3.196094 13.914910 -0.448077 1.339039 -0.004035 -0.001105 819489.000000 1 0 0
-4.974754 12.353032 -1.334106 13.383774 -1.187951 1.670643 -0.003173 0.006975 490492.000000 1 0 0
-1.784154 -12.182568 10.252594 16.022292 1.425379 0.876434 0.015106 -0.009681 1034430.000000 1 0 0
5.181846 6.230332 13.887194 16.078642 0.877015 0.528222 0.003427 0.002658 613285.000000 1 0 0
12.886346 -3.715468 -5.911706 14.656428 -0.280713 1.985974 0.018442 -0.006871 1113930.000000 1 0 0
3.485046 -2.530768 6.351394 7.674017 -0.628081 0.595890 -0.004116 0.001195 846514.000000 1 0 0
7.161246 -11.853168 -0.657906 13.864122 -1.027321 1.618268 0.004828 -0.000586 -195239.000000 1 0 0
-6.135854 -6.560368 -4.068206 9.860904 0.818822 1.996058 0.003193 -0.005937 -1059550.000000 1 0 0
0.401746 -8.889968 5.069494 10.241714 -1.525636 1.052979 -0.000136 -0.001315 1600860.000000 1 0 0
-10.329054 2.490532 -0.390306 10.632236 -0.236603 1.607514 -0.003077 0.001529 -2639260.000000 1 0 0
-1.913754 8.954532 -0.374406 9.164403 -1.360245 1.611662 -0.000103 0.000364 69740.000000 1 0 0
-3.475754 2.292832 -6.661506 7.855801 -0.583139 2.582945 0.006339 -0.007635 255107.000000 1 0 0
-12.586454 2.992032 6.525294 14.489670 -0.233387 1.103649 -0.003172 -0.001124 684082.000000 1 0 0
11.373346 1.603532 7.890094 13.934773 0.140067 0.968888 -0.000581 -0.004013 -2331970.000000 1 0 0
5.968046 2.610032 -3.235906 7.273303 0.412271 2.031861 -0.001779 -0.001215 290036.000000 1 0 0
10.400146 -2.439768 6.387994 12.446766 -0.230423 1.031858 0.007955 -0.008081 3215610.000000 1 0 0
-1.008254 11.008032 4.070794 11.779843 -1.479459 1.217947 -0.000181 0.003187 2812130.000000 1 0 0
-1.510754 -12.269268 7.401094 14.408106 1.448280 1.031333 0.007252 0.000517 -87831.700000 1 0 0
8.130046 8.671732 -7.862806 14.252028 0.817627 2.155194 -0.001961 -0.003141 1064640.000000 1 0 0
-4.765154 -5.928868 -8.665906 11.530659 0.893791 2.421210 0.006314 -0.005512 -282613.000000 1 0 0
-8.571454 -5.223468 -11.606506 15.344882 0.547305 2.428552 0.009640 -0.006676 775372.000000 1 0 0
6.138246 -0.677668 -9.936006 11.698783 -0.109956 2.585491 0.002017 -0.000308 -258543.000000 1 0 0
-11.187754 -5.449868 -5.410606 13.569877 0.453297 1.980919 0.002802 -0.003898 -1933130.000000 1 0 0
3.928246 8.885132 -2.734806 10.092366 1.154519 1.845205 0.006541 -0.002671 1978570.000000 1 0 0
11.652546 -10.369868 -4.034006 16.111772 -0.727220 1.823865 0.023841 -0.008367 -112445.000000 1 0 0
3.989446 -11.322968 3.950094 12.638375 -1.232045 1.252922 -0.001938 -0.000214 1201830.000000 1 0 0
-1.104554 0.932832 3.240894 3.548747 -0.701312 0.419605 -0.001245 -0.000917 -363353.000000 1 0 0
-10.617354 -5.077268 4.505194 12.601731 0.446060 1.205200 0.003120 -0.002099 2345060.000000 1 0 0
4.512046 -8.723268 2.746694 10.197955 -1.093450 1.298091 -0.003389 -0.000025 5066000.000000 1 0 0
-3.792554 -5.803268 2.739494 7.454275 0.991950 1.194470 -0.000467 -0.000764 1991230.000000 1 0 0
10.038246 4.976032 12.346694 16.672377 0.460208 0.736911 -0.005676 0.004693 -79140.600000 1 0 0
1.576346 -12.339068 -5.274406 13.511359 -1.443732 1.971828 -0.004449 -0.002002 793453.000000 1 0 0
9.833146 -10.869868 -1.791206 14.766625 -0.835432 1.692397 0.012170 -0.005403 137129.000000 1 0 0
9.648246 -4.506268 -9.212206 14.080478 -0.436947 2.283992 0.017951 -0.003150 2887260.000000 1 0 0
-7.382254 -2.926468 -13.055806 15.281229 0.377416 2.595131 0.005374 -0.004928 2139770.000000 1 0 0
0.419346 6.198132 -2.483106 6.690180 1.503242 1.951051 0.000440 -0.001502 895193.000000 1 0 0
-5.913354 -9.473668 0.856394 11.200515 1.012781 1.494261 0.003149 -0.001156 -340519.000000 1 0 0
-8.908754 -4.063468 0.612094 9.810827 0.427932 1.508366 -0.004796 -0.001154 3002520.000000 1 0 0
1.874846 3.836032 12.128494 12.858093 1.116192 0.338489 0.001322 -0.005315 712792.000000 1 0 0
6.635946 4.243732 9.583794 12.405408 0.568963 0.687949 -0.000939 0.000367 1341080.000000 1 0 0
-8.223554 9.845232 -3.656506 13.338870 -0.874909 1.848475 -0.003317 0.004414 2639160.000000 1 0 0
16.385346 2.188932 -6.062406 17.607492 0.132805 1.922298 0.008714 -0.004385 -1258780.000000 1 0 0
-10.965854 2.692932 -5.090506 12.386084 -0.240809 1.994332 -0.001939 0.002523 1913230.000000 1 0 0
-13.722154 3.914532 1.607994 14.359899 -0.277890 1.458583 -0.002985 0.004525 -577390.000000 1 0 0
-17.272854 10.544732 3.315694 20.506991 -0.548090 1.408397 0.019430 -0.010364 -1265090.000000 1 0 0
-14.348954 2.867932 -1.098506 14.673930 -0.197271 1.645727 -0.000666 0.004841 812533.000000 1 0 0
-14.339454 5.048232 5.208594 16.069662 -0.338502 1.240709 -0.002554 -0.002259 1196670.000000 1 0 0
-17.388654 7.558532 3.143394 19.219199 -0.410043 1.406503 0.011977 -0.001962 -1830410.000000 1 0 0
-14.825354 12.801532 -3.407206 19.881634 -0.712273 1.743021 0.026149 0.000004 453255.000000 1 0 0
-8.446654 12.512632 -9.641006 17.912591 -0.977012 2.139126 0.018884 -0.011837 1602790.000000 1 0 0
-12.482354 8.882232 -9.860606 18.219077 -0.618458 2.142689 0.001558 -0.002861 -749036.000000 1 0 0
-13.995054 -3.354068 -12.270006 18.912016 0.235224 2.276795 0.024330 -0.004248 -1113900.000000 1 0 0
-14.782154 5.857332 -7.629406 17.635993 -0.377264 2.018176 0.013192 0.000889 511918.000000 1 0 0
-10.820054 13.515232 -8.334606 19.214596 -0.895701 2.019463 0.023733 -0.012244 1052960.000000 1 0 0
-10.826054 13.660832 3.867394 17.854369 -0.900652 1.352458 -0.017723 -0.000322 -1834610.000000 1 0 0
-15.180754 3.155932 3.083594 15.808977 -0.204971 1.374484 0.001133 0.001340 162840.000000 1 0 0
-11.064454 9.453332 -12.422606 19.133969 -0.707036 2.277386 0.006221 -0.017464 -116374.000000 1 0 0
-13.036754 11.694132 -9.110306 19.741007 -0.731162 2.050472 0.017589 -0.007569 -454981.000000 1 0 0
-8.776454 14.706532 -3.562806 17.492907 -1.032753 1.775903 -0.003454 0.005654 2039520.000000 1 0 0
-16.530454 8.399532 -4.040806 18.977253 -0.470126 1.785368 0.016268 0.004084 -1909900.000000 1 0 0
-16.845154 6.845132 0.274794 18.184899 -0.385974 1.555685 0.010590 0.006637 -571015.000000 1 0 0
-10.426154 2.888732 -12.432206 16.480570 -0.270286 2.425468 0.009915 -0.006814 1073560.000000 1 0 0
-16.913054 0.760232 2.424194 17.102808 -0.044919 1.428575 0.009451 -0.001231 183864.000000 1 0 0
-12.580354 1.208032 -6.923106 14.410206 -0.095732 2.071942 0.002288 -0.002513 2107450.000000 1 0 0
-12.390454 9.034632 -5.511206 16.294825 -0.630030 1.915819 0.005777 0.002040 -849867.000000 1 0 0
-9.505254 13.860832 1.249594 16.853308 -0.969689 1.496583 -0.007575 -0.002425 -800361.000000 1 0 0
-12.124254 11.115232 2.756394 16.677638 -0.742007 1.404760 -0.013528 -0.000504 -655627.000000 1 0 0
-12.564954 6.921332 -3.593206 14.788307 -0.503491 1.816229 -0.003345 0.004132 -85947.000000 1 0 0
-15.792154 3.829032 -9.491506 18.818669 -0.237874 2.099444 0.013994 -0.002693 -1718890.000000 1 0 0
-15.081654 5.933732 -4.646206 16.859795 -0.374839 1.849988 0.008395 0.008392 722512.000000 1 0 0
-17.987154 5.214832 7.400094 20.136871 -0.282183 1.194488 0.026025 -0.010516 -2005670.000000 1 0 0
-15.710654 10.270032 -2.058206 18.882119 -0.578971 1.680016 0.010411 0.002784 -102760.000000 1 0 0
-8.717154 9.927832 -8.422206 15.667934 -0.850240 2.138318 0.012458 -0.009186 -522072.000000 1 0 0
-16.980554 4.248132 -1.242806 17.547946 -0.245145 1.641679 0.004202 0.006975 -1298200.000000 1 0 0
-10.224754 5.375232 -4.557506 12.418114 -0.484002 1.946583 -0.001114 0.000386 607453.000000 1 0 0
-18.334054 2.671532 6.226994 19.546101 -0.144696 1.246565 0.026909 -0.012286 339813.000000 1 0 0
-10.373554 10.042632 -5.865206 15.584149 -0.769191 1.956658 0.000896 0.001957 1710230.000000 1 0 0
-15.376554 0.509732 -5.877906 16.469609 -0.033138 1.935737 0.006064 0.000082 985485.000000 1 0 0
-16.442354 -4.045568 -8.895606 19.127191 0.241253 2.054517 0.011686 -0.010980 -1312220.000000 1 0 0
-9.851954 9.608432 -1.053906 13.801945 -0.772885 1.647230 -0.010748 0.005831 1980910.000000 1 0 0
-17.315454 -2.925568 -3.223406 17.854250 0.167376 1.752332 0.009663 -0.000412 1321730.000000 1 0 0
-11.947854 5.033532 -11.534006 17.352837 -0.398726 2.297856 0.011368 -0.006473 406213.000000 1 0 0
-16.280854 7.021832 5.821394 18.661751 -0.407189 1.253559 0.003304 -0.001466 119609.000000 1 0 0
-12.097054 6.144032 -8.794006 16.168561 -0.469944 2.145869 0.001426 -0.005356 2720600.000000 1 0 0
-14.475854 8.486732 -0.128306 16.780686 -0.530261 1.578442 0.002387 0.002823 1092550.000000 1 0 0
-14.723654 11.932232 3.878594 19.344447 -0.681058 1.368926 -0.010049 -0.009655 593332.000000 1 0 0
-17.245654 4.172032 -4.029206 18.194860 -0.237358 1.794095 0.013292 0.002309 -1353270.000000 1 0 0
-13.587254 13.503132 -0.801006 19.172628 -0.782293 1.612587 0.006383 -0.002635 -1372590.000000 1 0 0
-10.022154 6.883132 -13.006006 17.803855 -0.601806 2.389874 0.001844 -0.013649 448334.000000 1 0 0
-15.780654 -1.100868 -8.290806 17.859967 0.069648 2.053541 0.005148 -0.008440 -267832.000000 1 0 0
-11.333354 11.884032 -0.036706 16.421829 -0.809112 1.573032 -0.007854 0.000379 849379.000000 1 0 0
-11.949754 7.402232 -0.871706 14.083662 -0.554596 1.632731 -0.008536 0.005747 2224040.000000 1 0 0
-11.453954 0.246432 -11.565606 16.279343 -0.021512 2.360929 0.006259 -0.013667 -428444.000000 1 0 0
-19.114154 -1.116468 -4.729206 19.722139 0.058344 1.812948 0.017927 -0.004287 -892169.000000 1 0 0
-17.922254 1.516232 -5.167906 18.713989 -0.084400 1.850584 0.011258 0.001048 243699.000000 1 0 0
-13.321654 -0.108868 -9.452406 16.334818 0.008172 2.187889 0.012666 -0.011007 -1260590.000000 1 0 0
-5.965054 11.339132 -13.202706 18.397533 -1.086519 2.371196 -0.008026 -0.008332 -2053770.000000 1 0 0
16.260646 5.801232 7.210894 18.709888 0.342689 1.175149 0.008190 -0.003158 895298.000000 1 0 0
14.973346 10.210432 -5.441106 18.922464 0.598480 1.862461 0.032205 -0.004613 -65247.300000 1 0 0
2.474746 16.885232 4.388694 17.620899 1.425270 1.319085 0.022161 -0.009471 2582190.000000 1 0 0
-3.692454 18.330932 -5.854606 19.594226 -1.372023 1.874223 -0.001650 -0.002272 1713640.000000 1 0 0
5.547646 14.483732 5.589994 16.486446 1.205008 1.224872 0.008151 -0.008650 344895.000000 1 0 0
9.919946 6.125632 15.040294 19.029954 0.553193 0.659419 0.002101 0.002848 -85714.500000 1 0 0
4.719146 12.821532 -1.083206 13.705304 1.218120 1.649914 0.005552 -0.006260 2043950.000000 1 0 0
3.456746 13.726832 12.880794 19.138701 1.324102 0.832507 0.007395 -0.003146 -1236570.000000 1 0 0
-0.775454 12.380932 9.263494 15.482284 -1.508245 0.929383 -0.003012 0.002122 1310130.000000 1 0 0
-7.682454 14.023232 8.378594 18.051924 -1.069615 1.088135 -0.005811 0.002058 1926940.000000 1 0 0
11.487446 12.907432 -4.162406 17.773262 0.843541 1.807187 0.022582 -0.004340 -662372.000000 1 0 0
-5.747554 16.286432 0.875394 17.293020 -1.231536 1.520153 -0.010190 0.007067 214853.000000 1 0 0
3.177446 10.596832 6.821294 12.996887 1.279478 1.018268 -0.003378 0.004575 1629100.000000 1 0 0
-1.191254 15.598732 2.440694 15.833399 -1.494576 1.416031 0.000662 -0.000143 -2170520.000000 1 0 0
9.861446 8.764432 9.509094 16.263034 0.726569 0.946279 0.001008 -0.006609 1264590.000000 1 0 0
7.250246 12.208232 6.215794 15.499777 1.034888 1.158161 0.001057 -0.003525 703610.000000 1 0 0
11.885746 14.038432 -1.535606 18.458240 0.868246 1.654086 0.018599 -0.004660 483130.000000 1 0 0
9.686246 15.965532 -1.291506 18.718696 1.025467 1.639847 0.011707 -0.008095 1517450.000000 1 0 0
10.039746 13.664232 2.890194 17.200609 0.937129 1.401967 0.005566 -0.005103 2152600.000000 1 0 0
-5.920254 14.553032 6.253894 16.910096 -1.184437 1.191968 -0.014510 0.001122 739068.000000 1 0 0
-0.782354 18.242532 -6.064206 19.239975 -1.527936 1.891451 0.015192 -0.003389 1282550.000000 1 0 0
-3.499354 15.766932 5.364394 17.018177 -1.352394 1.250113 -0.010220 0.002049 1478400.000000 1 0 0
6.998146 12.153932 10.673094 17.624048 1.048366 0.920279 -0.000079 -0.003006 1471840.000000 1 0 0
1.500246 14.574232 6.234894 15.922716 1.468219 1.168457 0.007817 -0.003384 311084.000000 1 0 0
17.482846 7.640632 -1.273806 19.122023 0.412021 1.637460 0.002160 0.008199 482391.000000 1 0 0
2.156946 16.361032 -3.386706 16.846530 1.439718 1.773209 -0.000838 -0.003713 1927700.000000 1 0 0
6.783846 11.141532 0.513094 13.054408 1.023874 1.531482 0.005633 -0.002138 1617530.000000 1 0 0
12.709146 9.311932 3.207094 16.078555 0.632334 1.369985 0.005316 0.002198 -3091090.000000 1 0 0
6.055046 14.278732 -3.453506 15.889383 1.169722 1.789892 -0.001635 -0.006990 466843.000000 1 0 0
3.053046 16.522332 1.533994 16.871920 1.388074 1.479751 0.009422 -0.012710 -1011150.000000 1 0 0
2.846646 18.989132 -2.555406 19.370613 1.421995 1.703104 0.006491 -0.012094 1419250.000000 1 0 0
3.960646 11.885032 10.614294 16.419621 1.249124 0.867888 0.003582 -0.003580 2320030.000000 1 0 0
8.019546 11.444732 3.353494 14.371532 0.959588 1.335282 -0.002107 0.000468 123390.000000 1 0 0
0.757846 12.610232 0.135894 12.633715 1.510771 1.560040 0.008834 -0.004293 -1954580.000000 1 0 0
12.061746 9.964632 -4.566206 16.298155 0.690475 1.854764 0.014890 0.000146 1217610.000000 1 0 0
-1.431754 16.500132 9.944194 19.318159 -1.484241 1.030070 0.008470 0.000860 305881.000000 1 0 0
8.216746 14.722932 -7.888606 18.614772 1.061762 2.008413 0.001496 -0.009565 889404.000000 1 0 0
14.529546 7.582532 -1.340706 16.443844 0.480990 1.652419 0.006321 0.006484 259659.000000 1 0 0
12.462546 8.302832 6.055494 16.153052 0.587695 1.186526 0.001893 -0.001973 -1323760.000000 1 0 0
-3.057254 14.224132 10.266794 17.806734 -1.359083 0.956274 -0.000618 -0.001501 1476410.000000 1 0 0
-4.522654 17.162732 -3.136506 18.023636 -1.313138 1.745709 0.005144 -0.001320 -86335.000000 1 0 0
-7.034754 16.495532 -1.826806 18.025747 -1.167686 1.672315 -0.004394 0.007847 515056.000000 1 0 0
8.405546 11.325732 -1.892706 14.230522 0.932329 1.704195 0.007758 -0.002226 -431946.000000 1 0 0
8.630146 12.990932 -4.243506 16.163263 0.984420 1.836450 0.012447 -0.005781 3451430.000000 1 0 0
2.625346 14.841032 -7.321106 16.755515 1.395710 2.022987 -0.006423 -0.002943 -956923.000000 1 0 0
11.281546 11.256032 9.850994 18.735358 0.784266 1.017145 0.013455 -0.009275 986525.000000 1 0 0
8.587746 15.766232 1.375694 18.005999 1.072037 1.494320 0.004220 -0.004653 -845486.000000 1 0 0
6.000646 9.861732 7.713494 13.883786 1.024166 0.981741 -0.000183 0.004872 4185980.000000 1 0 0
14.398746 11.430832 2.739994 18.587506 0.670996 1.422847 0.015864 0.001435 1051160.000000 1 0 0
12.186246 12.647532 1.138194 17.600004 0.803971 1.506081 0.015877 0.000114 2988000.000000 1 0 0
5.226746 15.883832 8.112794 18.585812 1.252896 1.119086 0.013962 -0.005998 29855.200000 1 0 0
11.348046 14.855432 5.127894 19.384461 0.918459 1.303073 0.012409 -0.008917 548823.000000 1 0 0
5.933946 16.739232 1.719194 17.842904 1.230124 1.474295 0.000140 -0.016542 1400.710000 1 0 0
-0.627254 16.126132 -4.128906 16.658135 -1.531919 1.821268 0.004422 -0.004981 1697300.000000 1 0 0
15.988946 6.440932 2.635694 17.437858 0.382949 1.419067 -0.006326 0.002540 408697.000000 1 0 0
7.659446 16.715232 -3.182906 18.660037 1.141118 1.742208 -0.006262 -0.009098 -1561550.000000 1 0 0
14.794146 8.160232 7.580494 18.518100 0.504059 1.149048 0.007677 -0.000754 1484670.000000 1 0 0
2.104046 12.904232 8.620694 15.660861 1.409168 0.987880 0.005513 -0.001827 1544680.000000 1 0 0
16.042646 7.486032 -5.763106 18.617749 0.436600 1.885515 0.014054 0.003422 -2626560.000000 1 0 0
-2.963654 17.138332 0.694994 17.406570 -1.399564 1.530859 -0.007185 0.003000 -211446.000000 1 0 0
-2.883454 18.629532 4.616594 19.408419 -1.417236 1.330629 -0.006553 0.002573 1185120.000000 1 0 0
-0.846854 19.162332 0.986994 19.206413 -1.526631 1.519385 0.000526 -0.006020 1419930.000000 1 0 0
7.051546 16.838332 -6.053206 19.232655 1.174206 1.890975 -0.004071 -0.003643 777923.000000 1 0 0
11.017646 10.102432 0.783394 14.968680 0.742091 1.518437 0.005278 0.005390 -1270960.000000 1 0 0
8.987346 8.793032 14.296294 19.038745 0.774470 0.721365 0.001296 0.004578 -344100.000000 1 0 0
6.362946 12.337732 -8.309306 16.178729 1.094644 2.110165 0.002343 -0.008027 110413.000000 1 0 0
6.246146 8.908632 13.278594 17.166803 0.959310 0.686445 0.002408 -0.000248 1130480.000000 1 0 0
16.603346 9.422232 3.014894 19.327161 0.516172 1.414164 0.011803 -0.000783 -1751290.000000 1 0 0
2.556346 14.805032 -0.806506 15.045741 1.399815 1.624426 0.004872 -0.005635 314661.000000 1 0 0
9.063546 12.780332 8.398094 17.776747 0.953936 1.078762 0.004013 -0.008393 152377.000000 1 0 0
7.190246 9.252532 10.503694 15.736473 0.910169 0.839984 0.001284 -0.002755 1228830.000000 1 0 0
4.382646 15.811232 -5.318806 17.247966 1.300399 1.884278 0.001689 -0.006740 1751980.000000 1 0 0
0.284746 16.414032 -8.193006 18.347394 1.553450 2.033701 0.003210 0.002766 385946.000000 1 0 0
-2.399954 15.680632 -1.920706 15.979084 -1.418923 1.691289 -0.003896 0.001134 -1212710.000000 1 0 0
13.257246 10.453732 7.780994 18.589754 0.667708 1.138933 0.012584 -0.008670 2320310.000000 1 0 0
-1.018754 15.806632 7.099394 17.357675 -1.506434 1.149432 0.008196 -0.002764 1677680.000000 1 0 0
13.113746 13.231832 6.736294 19.809830 0.789880 1.223828 0.017032 -0.009544 317450.000000 1 0 0
5.514346 17.277032 4.459294 18.675898 1.261845 1.329695 0.009443 -0.015977 2360670.000000 1 0 0
10.832946 9.579432 -1.846406 14.578322 0.724066 1.697792 0.007652 0.004491 1271100.000000 1 0 0
3.233246 12.670832 4.731894 13.906642 1.320955 1.223601 0.002659 0.001340 1616170.000000 1 0 0
-0.108154 18.066932 3.695294 18.441283 -1.564810 1.369049 0.007750 -0.004994 2540290.000000 1 0 0
-7.633954 16.032032 -5.909006 18.714156 -1.126395 1.892044 0.019692 -0.000969 837994.000000 1 0 0
-12.434954 -9.201568 8.129594 17.475332 0.637055 1.086931 0.001606 -0.008676 503046.000000 1 0 0
-13.220354 -11.838768 6.676294 18.960672 0.730321 1.210969 0.007472 -0.006300 -370812.000000 1 0 0
-6.789054 -12.245468 12.394994 18.699695 1.064571 0.846185 0.016646 -0.013409 -1658920.000000 1 0 0
-1.825254 -10.805068 14.317094 18.029427 1.403450 0.653278 0.013976 -0.014722 315235.000000 1 0 0
-8.886354 2.830732 10.974394 14.402002 -0.308385 0.704393 -0.006499 0.001584 172511.000000 1 0 0
0.544746 10.005532 15.227594 18.228742 1.516406 0.582006 -0.006337 -0.002643 -685867.000000 1 0 0
0.949846 -6.838068 16.622394 17.999038 -1.432774 0.393649 0.006646 -0.013590 2091070.000000 1 0 0
6.059346 2.342532 17.789394 18.938471 0.368900 0.350137 0.013679 -0.000390 616973.000000 1 0 0
-5.036154 -2.985268 17.614194 18.561641 0.535084 0.320885 0.007532 -0.008187 -286623.000000 1 0 0
-4.413854 8.098632 13.035194 15.968288 -1.071791 0.615790 -0.003849 -0.003900 1764300.000000 1 0 0
0.047846 -5.039168 18.697794 19.364994 -1.561302 0.263263 0.007141 -0.007649 -442666.000000 1 0 0
-11.629154 1.989432 11.204394 16.270633 -0.169433 0.811203 -0.000332 -0.000586 862036.000000 1 0 0
-3.340654 -6.190768 14.325094 15.959132 1.075958 0.456477 0.012859 -0.009870 819734.000000 1 0 0
-7.394754 -2.448668 14.566594 16.518596 0.319772 0.491067 0.004666 -0.000196 1116360.000000 1 0 0
-6.223454 -1.058968 10.639994 12.371833 0.168543 0.535492 -0.003023 0.000252 1110640.000000 1 0 0
-3.910054 2.450632 11.144094 12.061714 -0.559858 0.392586 -0.001716 -0.000579 1575870.000000 1 0 0
-6.484954 6.101732 13.547294 16.211568 -0.754961 0.581470 -0.009641 -0.007504 -138348.000000 1 0 0
-9.013254 5.451432 12.534294 16.372702 -0.543959 0.698884 -0.010537 -0.004566 -794159.000000 1 0 0
-12.182354 -2.385968 15.842794 20.127014 0.193406 0.664637 0.000656 0.000462 2198310.000000 1 0 0
-3.375754 -7.677268 16.979094 18.937418 1.156534 0.458788 0.018873 -0.011290 -2007600.000000 1 0 0
-0.564154 -5.414068 14.382394 15.378025 1.466970 0.361814 0.007250 -0.005236 764769.000000 1 0 0
-14.135754 -2.212868 13.644194 19.770694 0.155284 0.809138 -0.000597 -0.002088 392704.000000 1 0 0
-6.518754 1.566032 12.167694 13.892422 -0.235767 0.503600 -0.005534 0.000039 1045450.000000 1 0 0
2.181846 -2.320568 14.533194 14.878146 -0.816199 0.215756 0.004113 -0.003459 1017670.000000 1 0 0
-12.587554 3.984232 9.293994 16.146174 -0.306544 0.957439 -0.007566 0.001232 -388235.000000 1 0 0
-9.017054 -3.231468 12.495794 15.744666 0.344114 0.654007 -0.003023 0.004079 531239.000000 1 0 0
-7.107754 -7.379168 15.303694 18.416713 0.804131 0.589951 0.013347 -0.006280 -828518.000000 1 0 0
-3.167554 5.962332 19.472194 20.609443 -1.082454 0.333755 0.005349 -0.006411 129921.000000 1 0 0
0.587746 5.404132 16.110394 17.002790 1.462463 0.325426 0.000685 -0.003220 1639400.000000 1 0 0
3.457246 1.431832 16.807494 17.219017 0.392648 0.219067 0.006392 0.000021 1564260.000000 1 0 0
-11.625554 11.529632 7.762694 18.120302 -0.781256 1.128078 -0.005097 -0.006501 -1414850.000000 1 0 0
0.640446 -9.542168 15.420594 18.145464 -1.503779 0.555130 -0.001655 -0.006967 1663030.000000 1 0 0
-2.534154 -3.836068 18.957994 19.507509 0.986997 0.237919 0.015500 -0.009260 1281490.000000 1 0 0
-12.660054 2.264432 13.869594 18.914816 -0.176993 0.747683 -0.015709 -0.003872 3113.070000 1 0 0
-5.389054 -0.673168 15.741694 16.652207 0.124270 0.332216 0.004774 0.000944 724408.000000 1 0 0
-4.463754 -6.052668 11.636194 13.854995 0.935353 0.573779 0.003418 -0.003707 -475815.000000 1 0 0
2.449846 1.792432 14.021594 14.346416 0.631654 0.213201 0.003092 -0.002294 361027.000000 1 0 0
0.051346 3.250832 14.267394 14.633150 1.555003 0.224053 0.005831 -0.003318 -1025200.000000 1 0 0
-12.985654 7.147832 12.344494 19.290029 -0.503181 0.876374 0.000516 0.002957 499853.000000 1 0 0
0.876046 1.487032 18.245294 18.326742 1.038412 0.094313 0.004978 -0.000379 910391.000000 1 0 0
-1.968554 6.400032 12.481694 14.164332 -1.272395 0.492389 0.001392 -0.004679 807937.000000 1 0 0
-13.454054 -2.749268 10.855394 17.504560 0.201570 0.901867 0.005394 -0.002439 -460007.000000 1 0 0
-2.551354 3.613132 13.471894 14.179424 -0.955966 0.317235 0.000809 -0.002693 -777199.000000 1 0 0
3.484546 6.055032 16.269994 17.706445 1.048602 0.405579 -0.001008 -0.001180 1224660.000000 1 0 0
-3.754454 12.295532 12.379094 17.847073 -1.274438 0.804293 -0.002792 -0.004907 834952.000000 1 0 0
3.705546 -1.517468 17.057794 17.521476 -0.388680 0.230570 0.020432 -0.008192 318969.000000 1 0 0
-15.834754 0.317532 9.106294 18.269232 -0.020050 1.048987 0.009559 -0.003963 -482739.000000 1 0 0
-4.696854 4.509432 15.225094 16.558952 -0.765043 0.404122 0.001193 -0.004841 699673.000000 1 0 0
-8.034054 -8.209368 10.417894 15.507168 0.796191 0.834145 0.007747 -0.008156 3716530.000000 1 0 0
-2.698654 -0.496368 14.681494 14.935708 0.181899 0.184765 0.002133 -0.001002 1732370.000000 1 0 0
-1.865554 0.922032 17.198094 17.323535 -0.459029 0.120415 -0.001150 -0.001035 1884970.000000 1 0 0
-0.780854 -2.517668 14.385494 14.625007 1.270054 0.181228 0.005846 -0.000458 1467750.000000 1 0 0
5.171646 -8.127968 16.500694 19.107137 -1.004128 0.528453 0.017752 -0.013629 981158.000000 1 0 0
-4.536354 9.980632 10.663694 15.293982 -1.144194 0.799246 -0.006394 -0.001773 -315684.000000 1 0 0
-6.211254 2.066132 15.208694 16.557565 -0.321129 0.406439 -0.000193 -0.000982 649368.000000 1 0 0
-4.863654 6.748432 17.270594 19.169504 -0.946307 0.448863 -0.001961 -0.002639 -512678.000000 1 0 0
-4.150354 9.080132 15.671794 18.581694 -1.142070 0.567217 -0.003790 -0.004093 857970.000000 1 0 0
-4.532854 -9.883168 18.450294 21.415815 1.140778 0.532527 0.034271 -0.013720 -1770770.000000 1 0 0
-6.820654 -4.143568 11.041294 13.623533 0.545918 0.625864 0.004222 0.001853 62985.500000 1 0 0
-2.231854 -0.964568 19.513894 19.664781 0.407938 0.123958 0.008883 -0.005253 -957093.000000 1 0 0
-5.631154 -4.694268 15.280594 16.948233 0.694910 0.447333 0.008307 -0.004172 930442.000000 1 0 0
-12.993854 -0.066768 9.696194 16.212985 0.005138 0.929729 0.000293 0.000399 2031360.000000 1 0 0
-14.394954 8.823432 10.307494 19.781610 -0.549889 1.022699 -0.001592 -0.006170 -1551180.000000 1 0 0
-8.334454 10.490132 12.921994 18.614078 -0.899415 0.803481 -0.009468 -0.007914 -1065240.000000 1 0 0
-10.563354 7.172432 10.735194 16.681505 -0.596487 0.871684 -0.009864 -0.001667 457053.000000 1 0 0
-9.834954 -6.760068 14.775194 18.992925 0.602186 0.679429 0.005281 -0.005733 97526.000000 1 0 0
-0.701254 -13.576968 14.466194 19.851866 1.519192 0.754364 0.009383 -0.009748 1394650.000000 1 0 0
3.775146 -5.661868 17.012594 18.323123 -0.982724 0.380506 0.021946 -0.014760 1781580.000000 1 0 0
-7.360654 9.374632 10.393994 15.814489 -0.905165 0.853639 -0.008485 -0.002771 1858070.000000 1 0 0
-10.414354 -6.825168 11.786294 17.145215 0.580135 0.812839 0.004318 -0.005154 1650650.000000 1 0 0
-10.940354 -4.024368 10.610394 15.762847 0.352484 0.832368 0.002974 0.003065 11225.100000 1 0 0
-10.060954 -10.320168 9.690294 17.367511 0.798116 0.978877 0.004575 -0.012643 1829880.000000 1 0 0
-9.771754 -3.889168 15.186794 18.472994 0.378782 0.605693 0.005609 -0.002778 1223200.000000 1 0 0
5.584946 -3.408368 16.007794 17.293295 -0.547942 0.388007 0.019544 -0.013594 -164839.000000 1 0 0
-11.141254 0.300332 15.387594 18.999889 -0.026950 0.626852 -0.002501 -0.002831 -1445830.000000 1 0 0
-3.054854 3.127132 18.773494 19.275766 -0.797089 0.228784 0.002207 -0.003448 -642447.000000 1 0 0
0.453846 7.315132 13.937894 15.747445 1.508834 0.484111 -0.003008 -0.003390 901575.000000 1 0 0
-13.283054 -7.487568 12.088694 19.458667 0.513295 0.900460 0.001634 -0.005808 1596690.000000 1 0 0
-1.531554 -1.136568 12.148794 12.297587 0.638427 0.155717 0.001386 -0.001324 242907.000000 1 0 0
2.048546 -4.911368 13.161994 14.197048 -1.175633 0.384213 0.003914 -0.003929 2231860.000000 1 0 0
-14.648454 -4.167168 8.665894 17.522563 0.277157 1.053472 0.003421 -0.009436 -2353680.000000 1 0 0
8.077946 0.861732 16.116294 18.048012 0.106275 0.466900 0.013224 -0.002481 1131730.000000 1 0 0
-1.253754 11.393432 13.431694 17.657650 -1.461196 0.706447 -0.007536 0.001523 661352.000000 1 0 0
2.678646 -12.331068 -13.730706 18.648396 -1.356892 2.398374 0.002741 0.005429 -229846.000000 1 0 0
0.751746 -10.681568 -14.049706 17.665086 -1.500534 2.490361 0.005379 0.005128 -2701570.000000 1 0 0
3.132646 -14.443068 -12.374906 19.275736 -1.357208 2.267892 -0.006437 0.008140 -613366.000000 1 0 0
-5.275254 -10.147468 -16.167606 19.803810 1.091388 2.525926 0.005311 -0.010145 -167579.000000 1 0 0
-1.074354 -12.160768 -15.036206 19.368170 1.482679 2.459628 0.005997 -0.001492 -146833.000000 1 0 0
5.641546 -14.892168 -12.171506 20.043684 -1.208675 2.223390 -0.005846 0.001697 377356.000000 1 0 0
1.974046 -11.746568 -16.170906 20.084246 -1.404299 2.506731 0.010966 -0.000339 -460784.000000 1 0 0
1.031846 -14.328768 -13.975706 20.042421 -1.498908 2.342429 0.002478 0.008751 -738642.000000 1 0 0
-1.149454 -10.612468 -15.889706 19.142322 1.462905 2.550052 0.008909 -0.006937 5553.240000 1 0 0
-5.789454 -5.338468 -15.062206 16.996678 0.744893 2.659842 0.000239 -0.004443 62608.300000 1 0 0
-6.384854 -7.417968 -16.545906 19.223933 0.860107 2.607426 -0.003975 -0.003763 435221.000000 1 0 0
4.848546 -12.539168 -11.545606 17.721178 -1.201832 2.280376 -0.001953 0.005705 -353320.000000 1 0 0
-2.021454 -15.567568 -13.290006 20.568415 1.441669 2.273308 0.009218 0.008053 -43892.200000 1 0 0
15.822546 -7.288768 -8.649806 19.449891 -0.431681 2.031661 0.013496 -0.003265 278456.000000 1 0 0
19.103946 -3.173268 -3.981306 19.770716 -0.164602 1.773557 0.002744 -0.014528 333325.000000 1 0 0
14.924446 -11.619168 -8.810106 20.865333 -0.661513 2.006707 0.035130 -0.011397 11759.300000 1 0 0
18.166246 -3.362068 -6.401806 19.552471 -0.183002 1.904365 0.053649 -0.008557 914504.000000 1 0 0
9.345246 -9.100768 -15.316206 20.118245 -0.772145 2.436126 0.022103 -0.019273 150571.000000 1 0 0
1.359746 1.875132 -15.274906 15.449524 0.943392 2.991101 0.005207 -0.008136 -50721.000000 1 0 0
4.779746 -4.349668 -13.849006 15.282688 -0.738324 2.704980 -0.000200 0.000688 109125.000000 1 0 0
13.214446 -5.637768 -8.691606 16.791368 -0.403256 2.114867 0.034415 -0.002023 -1463570.000000 1 0 0
2.944046 0.975432 -12.154606 12.544055 0.319941 2.891759 0.003951 -0.006461 -2299390.000000 1 0 0
0.615446 6.319232 -12.885306 14.364629 1.473710 2.683768 0.002671 -0.003857 89754.400000 1 0 0
3.240846 -1.151668 -16.683606 17.034440 -0.341442 2.938287 0.009581 -0.009036 -233696.000000 1 0 0
13.178846 4.468832 -11.326706 17.942874 0.326924 2.253979 -0.004604 -0.003161 -7584.480000 1 0 0
-3.804654 9.379632 -16.543906 19.394683 -1.185447 2.592527 -0.004807 -0.003773 -482444.000000 1 0 0
-0.264554 -5.069968 -17.749206 18.461010 1.518663 2.862998 0.007667 -0.007995 55372.000000 1 0 0
-0.505354 -8.587268 -17.435206 19.441784 1.512015 2.683258 0.010945 -0.009941 -579211.000000 1 0 0
5.379446 -10.150968 -12.289206 16.822758 -1.083481 2.389866 0.001809 -0.001817 495708.000000 1 0 0
1.777246 -9.691968 -18.174806 20.674052 -1.389438 2.644792 0.022332 -0.007978 72680.700000 1 0 0
10.924846 8.835732 -14.621106 20.278046 0.680068 2.376086 0.010264 -0.001083 -999340.000000 1 0 0
10.947246 -3.877868 -12.941506 17.388578 -0.340440 2.410212 0.012086 -0.003670 47449.100000 1 0 0
4.972546 7.407832 -12.283306 15.181627 0.979624 2.513399 -0.004918 0.001619 -418205.000000 1 0 0
9.491346 -5.963468 -12.479506 16.774584 -0.560973 2.409763 0.011176 -0.007989 -1621300.000000 1 0 0
-3.237754 0.431332 -15.819806 16.153494 -0.132440 2.937981 0.005899 -0.005967 -1623760.000000 1 0 0
-0.573254 10.793332 -12.819906 16.768262 -1.517734 2.441114 -0.008599 -0.000761 -589490.000000 1 0 0
6.616446 -5.572768 -12.290606 15.029707 -0.699983 2.528295 0.004830 -0.002419 96864.300000 1 0 0
17.974146 -6.037368 -8.005506 20.581736 -0.324051 1.970301 0.016227 -0.009721 1393770.000000 1 0 0
13.236546 4.858532 -13.887906 19.791044 0.351786 2.348615 0.000326 -0.005061 304855.000000 1 0 0
14.165846 0.938332 -11.414206 18.216360 0.066142 2.247968 0.004140 -0.000997 -589001.000000 1 0 0
14.988846 6.269332 -11.071106 19.660606 0.396154 2.168942 0.000351 -0.005617 -243939.000000 1 0 0
8.367146 1.532332 -11.847806 14.585187 0.181130 2.518912 -0.003008 0.002600 446271.000000 1 0 0
9.910246 1.190232 -8.988106 13.431891 0.119529 2.303876 0.002250 -0.000067 246689.000000 1 0 0
-0.248954 -5.681868 -12.979806 14.171131 1.527009 2.728623 0.002178 -0.001530 790947.000000 1 0 0
10.623946 -5.736268 -9.005406 15.062216 -0.495085 2.211651 0.025981 -0.006878 -44926.300000 1 0 0
10.324046 8.614732 -11.203906 17.502201 0.695387 2.265480 0.002874 -0.004020 641074.000000 1 0 0
8.312046 8.228832 -14.565906 18.680723 0.780367 2.465030 0.004345 0.003304 758877.000000 1 0 0
8.705746 10.639732 -10.656406 17.394048 0.885038 2.230201 0.001821 -0.006007 -1913930.000000 1 0 0
7.044446 1.748532 -17.868606 19.286489 0.243297 2.755754 0.007150 -0.000490 -1436150.000000 1 0 0
12.207946 2.731132 -12.809006 17.904292 0.220093 2.368015 -0.003586 -0.002146 -1635160.000000 1 0 0
2.641946 -0.651468 -19.157806 19.350086 -0.241763 3.000501 0.013760 -0.017032 -990165.000000 1 0 0
10.233746 -2.068968 -15.422506 18.624282 -0.199482 2.546481 0.004317 -0.007714 -310564.000000 1 0 0
8.247746 -0.843068 -13.058906 15.468391 -0.101864 2.575926 0.002537 -0.002348 -320595.000000 1 0 0
0.640546 4.367332 -14.627206 15.278712 1.425167 2.848513 0.002741 -0.006609 122172.000000 1 0 0
3.962146 -7.679768 -15.704906 17.925443 -1.094494 2.638558 0.012339 -0.006036 -1592960.000000 1 0 0
11.262946 -5.961768 -14.412306 19.238274 -0.486832 2.417571 0.006842 -0.006673 -514287.000000 1 0 0
-5.764254 4.324532 -16.795706 18.276322 -0.643650 2.736300 0.008904 -0.004872 210785.000000 1 0 0
11.406646 7.836132 -8.948006 16.479786 0.601934 2.144764 0.005724 -0.003993 -598955.000000 1 0 0
9.635446 6.217032 -13.511706 17.721724 0.573011 2.437868 0.002082 0.003872 10573.400000 1 0 0
12.060746 0.554032 -10.240006 15.831181 0.045905 2.274210 0.007697 0.000138 -1544930.000000 1 0 0
5.529446 -7.257968 -13.742006 16.495321 -0.919757 2.555458 0.005251 -0.002494 -1109590.000000 1 0 0
8.617546 -10.296668 -10.605206 17.110052 -0.873942 2.239314 0.017704 -0.007159 561621.000000 1 0 0
10.195946 4.622732 -15.848306 19.403499 0.425669 2.526597 0.007759 0.000905 -323976.000000 1 0 0
9.885546 -0.478168 -11.002406 14.798838 -0.048333 2.409032 0.002405 0.000553 -1366970.000000 1 0 0
-1.663554 5.432132 -13.938006 15.051361 -1.273622 2.754551 0.000010 -0.006320 -318134.000000 1 0 0
1.357446 -0.715568 -14.837506 14.916644 -0.485125 3.038539 0.002925 -0.007321 -104584.000000 1 0 0
11.302746 -10.472868 -14.349606 21.055741 -0.747306 2.320614 0.019676 -0.014344 -500306.000000 1 0 0
9.337846 -7.863368 -10.723406 16.248673 -0.699888 2.291556 0.020622 -0.006228 224974.000000 1 0 0
14.032346 -0.986068 -9.628606 17.046675 -0.070156 2.171033 0.010169 0.000976 612498.000000 1 0 0
4.035446 11.100732 -12.250106 17.016938 1.222119 2.374422 -0.000627 -0.006006 -1293180.000000 1 0 0
-1.069654 2.896732 -16.999806 17.277981 -1.217066 2.961908 0.003249 -0.006120 50039.900000 1 0 0
5.966146 -0.477568 -17.643906 18.631436 -0.079876 2.814550 0.000717 0.000433 -177585.000000 1 0 0
6.344246 -6.477068 -16.051106 18.434746 -0.795757 2.627417 0.009072 -0.004073 168369.000000 1 0 0
-1.559654 -5.167768 -19.927806 20.645963 1.277685 2.877063 0.008737 -0.011771 -707322.000000 1 0 0
-0.012154 -4.240268 -15.271006 15.848774 1.567930 2.870747 0.000061 -0.004991 -246739.000000 1 0 0
0.454046 0.861232 -12.943706 12.980270 1.085622 3.066517 0.005498 -0.009156 668203.000000 1 0 0
15.625546 0.755132 -13.526506 20.680771 0.048289 2.283738 -0.001914 -0.000579 829221.000000 1 0 0
-0.005654 7.068932 -16.359306 17.821244 -1.569997 2.733720 0.001493 -0.003905 -197554.000000 1 0 0
-4.520154 -0.563568 -18.267206 18.826583 0.124039 2.897214 -0.008783 -0.002777 -285576.000000 1 0 0
10.357646 -8.381768 -13.035606 18.640330 -0.680347 2.345246 0.018334 -0.015378 1225060.000000 1 0 0
4.281246 8.611832 -17.445906 19.921154 1.109443 2.637779 0.003314 -0.003727 -309999.000000 1 0 0
9.262946 0.556832 -16.920906 19.298427 0.060042 2.639968 0.000194 -0.001287 -96701.600000 1 0 0
3.503246 4.849732 -18.635606 19.572390 0.945222 2.830951 0.012675 0.000164 -398175.000000 1 0 0
1.488346 -8.245068 -15.839306 17.918703 -1.392206 2.655048 0.007760 -0.008429 -334161.000000 1 0 0
4.522546 7.866932 -14.918906 17.461838 1.049052 2.595138 -0.000340 0.003432 380434.000000 1 0 0
-5.661854 -0.359868 -15.242806 16.264354 0.063475 2.785284 -0.000742 -0.002466 467192.000000 1 0 0
2.889546 3.415232 -13.788706 14.496265 0.868585 2.827866 0.003802 -0.003537 -1231440.000000 1 0 0
-2.382254 -10.244368 -18.109506 20.942216 1.342314 2.615422 0.015277 -0.007828 -374006.000000 1 0 0
6.157346 -9.006568 -15.465506 18.926517 -0.971128 2.527218 0.006932 -0.004286 -366508.000000 1 0 0
-1.643854 5.383932 -17.337406 18.228402 -1.274461 2.827640 -0.001928 -0.007548 1443960.000000 1 0 0
9.922946 -12.285768 -11.721006 19.666900 -0.891391 2.209277 0.021249 -0.007578 243739.000000 1 0 0
10.947846 3.578432 -9.384606 14.857030 0.315915 2.254490 0.001603 -0.000912 -982728.000000 1 0 0
4.927246 -0.442268 -10.953906 12.019210 -0.089520 2.717388 0.003432 -0.005322 353704.000000 1 0 0
6.440046 9.484732 -11.364506 16.142687 0.974310 2.351815 -0.001670 -0.005549 213069.000000 1 0 0
10.964546 -9.570468 -9.388606 17.319384 -0.717614 2.143715 0.027573 -0.012573 -396442.000000 1 0 0
3.343946 -2.446468 -14.399506 14.983756 -0.631628 2.861420 0.006967 -0.005548 18995.800000 1 0 0
9.189246 -4.426268 -14.689506 17.883391 -0.448884 2.534666 0.014733 -0.008024 -154168.000000 1 0 0
-3.941054 -6.587468 -16.585906 18.276184 1.031653 2.708125 -0.008003 -0.004523 -1235310.000000 1 0 0
5.779946 -7.836368 -11.192206 14.835158 -0.935292 2.425594 0.000417 -0.001453 138001.000000 1 0 0
5.489546 6.393832 -16.883206 18.869522 0.861348 2.678632 0.005095 -0.006897 -1915970.000000 1 0 0
9.023846 1.084332 -19.428006 21.448846 0.119590 2.704021 0.008803 -0.009381 483791.000000 1 0 0
13.135646 5.827532 -9.249206 17.089562 0.417555 2.142683 -0.004933 -0.000410 304589.000000 1 0 0
-1.522454 -0.730668 -17.328706 17.410795 0.447461 3.044448 0.008391 -0.008675 559780.000000 1 0 0
-0.344754 -0.528868 -19.513206 19.523416 0.993107 3.109251 0.009830 -0.016087 -462749.000000 1 0 0
2.935746 6.450832 -16.633106 18.080156 1.143713 2.738787 0.006210 -0.000262 -688514.000000 1 0 0
7.646746 3.743932 -15.700206 17.860185 0.455302 2.644687 -0.000027 0.001376 735317.000000 1 0 0
3.138246 -9.985268 -14.727406 18.067945 -1.266284 2.523719 0.008430 -0.001179 -765582.000000 1 0 0
8.860746 -10.530868 -13.296506 19.136590 -0.871312 2.338967 0.018561 -0.011696 77595.500000 1 0 0
3.805546 0.162332 -14.740706 15.224879 0.042631 2.888723 0.007408 -0.005192 -1670610.000000 1 0 0
-1.007954 -2.816068 -18.809806 19.046128 1.227075 2.983899 0.009114 -0.010113 35167.800000 1 0 0
9.257846 10.137032 -13.109606 18.982331 0.830698 2.333144 0.006631 -0.003160 -90988.700000 1 0 0
4.732246 2.160032 -10.709306 11.905844 0.428204 2.689420 -0.002368 -0.001975 181628.000000 1 0 0
-0.265554 7.073032 -18.899006 20.180950 -1.533269 2.783245 0.010862 -0.005652 -11485.000000 1 0 0
0.921446 -1.738368 -17.463006 17.573490 -1.083388 3.029400 0.011581 -0.015994 -2748700.000000 1 0 0
-4.428954 -2.114268 -14.060206 14.892117 0.445384 2.805764 0.000891 -0.008645 -4929860.000000 1 0 0
10.249446 6.093732 -10.406706 15.826694 0.536397 2.288347 0.000531 0.003752 -239279.000000 1 0 0
8.298246 5.542532 -17.319206 19.988383 0.588867 2.618871 0.010789 -0.005089 -131228.000000 1 0 0
11.431946 0.344532 -13.536306 17.721165 0.030129 2.440053 -0.000970 0.003806 266021.000000 1 0 0
6.780346 11.962932 -11.836006 18.143205 1.055162 2.281498 0.000236 -0.006461 -194484.000000 1 0 0
-0.844654 0.593232 -15.121806 15.156991 -0.612293 3.073442 0.004171 -0.008571 -1558100.000000 1 0 0
-4.149154 -2.962768 -18.969306 19.642506 0.620104 2.879028 -0.005389 -0.000801 -354843.000000 1 0 0
5.732046 -12.092268 -13.937406 19.321765 -1.128143 2.376520 0.000674 -0.004704 174089.000000 1 0 0
2.135046 -4.720368 -13.919306 14.852184 -1.146027 2.785279 0.004836 -0.001694 682177.000000 1 0 0
11.816346 2.067232 -15.374506 19.500639 0.173194 2.479017 0.004364 -0.000620 227245.000000 1 0 0
9.784446 2.336332 -13.804606 17.081012 0.234391 2.511859 -0.000147 -0.001017 -392738.000000 1 0 0
-2.172454 -3.987868 -16.502006 17.115456 1.071981 2.873048 -0.004843 -0.005760 -1115320.000000 1 0 0
-2.823654 10.177332 -14.321506 17.794849 -1.300158 2.506155 -0.005018 -0.005561 115251.000000 1 0 0
3.653446 5.740832 -13.807906 15.393606 1.004044 2.683708 -0.002000 0.002167 209795.000000 1 0 0
-5.069654 -2.556268 -16.579106 17.524344 0.467025 2.811651 -0.001119 0.000574 140402.000000 1 0 0
-4.184654 6.186832 -13.628106 15.540704 -0.976099 2.640233 -0.002101 -0.006655 -1777010.000000 1 0 0
5.902746 -1.048868 -13.867806 15.108229 -0.175856 2.733546 0.006372 -0.005301 -2264830.000000 1 0 0
6.829846 -3.055768 -12.659906 14.705704 -0.420701 2.607801 0.005331 -0.002428 1192540.000000 1 0 0
3.005046 -3.165168 -18.196706 18.712795 -0.811343 2.906190 0.015633 -0.015838 -478277.000000 1 0 0
7.272746 -12.008668 -11.900106 18.404170 -1.026251 2.273913 0.007475 -0.005960 -657504.000000 1 0 0
-5.926454 -5.241068 -17.706006 19.393151 0.724102 2.721382 0.007813 -0.002727 383604.000000 1 0 0
0.572146 8.672432 -11.870906 14.712472 1.504919 2.509614 -0.003275 -0.001171 19247.200000 1 0 0
0.400246 8.546032 -14.411606 16.759751 1.523996 2.605858 -0.003907 -0.004779 -505143.000000 1 0 0
7.635046 -2.377368 -15.079606 17.068694 -0.301860 2.654005 0.006495 -0.008081 -95686.200000 1 0 0
14.123246 1.608332 -8.897506 16.769569 0.113390 2.130075 -0.008392 0.000916 106897.000000 1 0 0
2.704246 10.860932 -14.561206 18.365770 1.326770 2.486259 -0.001514 0.000539 -972035.000000 1 0 0
6.215546 0.978932 -15.505506 16.733560 0.156214 2.756095 0.006495 -0.001495 15433.900000 1 0 0
16.801146 -5.509268 -10.288006 20.456628 -0.316862 2.097768 0.043448 -0.010353 588366.000000 1 0 0
4.872446 -4.234968 -11.141006 12.876246 -0.715517 2.616420 0.000154 -0.001014 -470117.000000 1 0 0
8.882546 -3.421168 -17.123106 19.590936 -0.367645 2.634236 0.006185 -0.008188 264039.000000 1 0 0
13.519246 -9.471368 -8.756906 18.685830 -0.611118 2.058546 0.040916 -0.012872 -576461.000000 1 0 0
2.337346 -7.723768 -13.576106 15.793367 -1.276940 2.605299 0.000993 0.001061 516585.000000 1 0 0
-6.558054 -2.144668 -18.746706 19.976152 0.316065 2.788924 -0.010009 0.007498 -1400980.000000 1 0 0
-1.429354 -6.464768 -15.745006 17.080442 1.353198 2.743533 0.001258 -0.003467 463227.000000 1 0 0
1.552846 -7.201068 -18.233906 19.665758 -1.358407 2.757638 0.020649 -0.015871 -123583.000000 1 0 0
5.262846 10.719332 -14.542306 18.817021 1.114401 2.454080 0.005599 -0.008996 -107498.000000 1 0 0
5.469846 -3.388768 -17.404606 18.555950 -0.554661 2.787475 0.009787 -0.007630 -366967.000000 1 0 0
4.000246 12.993232 -14.003406 19.517209 1.272134 2.370989 -0.001040 -0.008325 20008.800000 1 0 0
9.202246 10.494132 -15.668206 20.983346 0.850894 2.413879 0.010660 -0.001510 231914.000000 1 0 0
2.652346 3.913132 -16.284106 16.956404 0.975121 2.859056 0.005538 -0.004777 217713.000000 1 0 0
16.731346 1.827232 -11.469706 20.367398 0.108779 2.168978 0.006581 0.005914 1451330.000000 1 0 0
10.025946 -3.764568 -10.607506 15.073512 -0.359194 2.351414 0.017386 -0.002174 103269.000000 1 0 0
14.733846 -1.894368 -11.843606 18.998575 -0.127871 2.243873 0.020441 -0.004646 -379366.000000 1 0 0
-2.753654 -8.672568 -15.975806 18.385386 1.263351 2.623854 0.001057 -0.002314 -900536.000000 1 0 0
14.000846 8.235032 -8.896506 18.519915 0.531684 2.071879 0.014906 -0.005177 -304677.000000 1 0 0
-8.396054 -0.119168 -16.475606 18.491985 0.014192 2.670250 0.008814 -0.000489 -360877.000000 1 0 0
-3.314254 3.890532 -15.874306 16.676753 -0.865214 2.830117 0.003006 -0.006220 1229670.000000 1 0 0
15.084146 4.055932 -9.667106 18.369404 0.262674 2.124994 0.003105 0.003541 61872.600000 1 0 0
5.357046 1.163732 -12.979306 14.089521 0.213910 2.741957 0.004923 -0.003372 305179.000000 1 0 0
7.750046 -7.848868 -12.772206 16.875935 -0.791733 2.429245 0.010417 -0.007296 -3418910.000000 1 0 0
3.205246 -6.068868 -11.840106 13.685499 -1.084887 2.616260 0.001756 -0.000484 -1123210.000000 1 0 0
-3.177054 3.400432 -18.386006 18.965807 -0.819346 2.893690 0.004352 -0.007870 174762.000000 1 0 0
1.002946 5.085032 -17.789306 18.528974 1.376061 2.858086 0.005007 -0.009414 -450327.000000 1 0 0
6.397446 7.223532 -10.176706 14.023982 0.845972 2.382796 -0.002726 -0.000118 26929.600000 1 0 0
9.689346 3.832232 -11.710706 15.675142 0.376630 2.414466 -0.002743 0.000988 72174.600000 1 0 0
4.549746 1.723032 -17.414306 18.081125 0.362019 2.869166 0.008160 -0.005171 -218890.000000 1 0 0
2.617046 8.025432 -13.367206 15.809449 1.255575 2.578335 -0.001432 -0.001669 -1302120.000000 1 0 0
14.446246 -3.585968 -9.860006 17.854213 -0.243311 2.155858 0.026671 -0.000128 430630.000000 1 0 0
-1.205954 9.390832 -16.158006 18.727606 -1.443077 2.611560 0.000375 -0.003329 -1797620.000000 1 0 0
-5.175654 2.104732 -15.670006 16.636297 -0.386235 2.799089 0.007054 -0.006052 573741.000000 1 0 0
4.488046 4.273232 -11.951606 13.462688 0.760884 2.663247 0.002920 -0.001450 272144.000000 1 0 0
9.241446 3.069532 -17.717306 20.217054 0.320684 2.639037 0.001053 0.003406 710597.000000 1 0 0
-4.205054 14.236632 -13.405106 20.001526 -1.283594 2.305280 0.002833 -0.009109 -444247.000000 1 0 0
15.562446 -4.773468 -8.034506 18.152934 -0.297620 2.029293 0.028763 -0.007320 -194817.000000 1 0 0
1.243946 9.292132 -16.864406 19.295059 1.437717 2.634226 0.003724 -0.002548 -558412.000000 1 0 0
0.495046 -3.134468 -12.807106 13.194390 -1.414154 2.898706 0.001815 -0.003538 -77647.300000 1 0 0
7.564846 3.633632 -13.105106 15.561940 0.447789 2.572009 -0.000191 0.003322 -209330.000000 1 0 0
-2.768554 7.585832 -15.108806 17.131426 -1.220853 2.650748 -0.007431 -0.003920 -154277.000000 1 0 0
12.171846 -5.227668 -11.073506 17.265714 -0.405666 2.267063 0.027206 -0.006009 -430052.000000 1 0 0
0.908046 -4.321468 -19.946506 20.429458 -1.363685 2.923723 0.025892 -0.016913 -647210.000000 1 0 0
3.424446 -4.505368 -16.089206 17.055431 -0.920874 2.803376 0.011320 -0.007791 542669.000000 1 0 0
-5.525654 4.221232 -14.304906 15.905407 -0.652359 2.689131 0.002476 -0.004274 483370.000000 1 0 0
12.358946 -7.563668 -9.808606 17.497468 -0.549196 2.165874 0.037853 -0.005706 345092.000000 1 0 0
-2.093354 -1.702168 -14.920906 15.162880 0.682696 2.962702 0.004919 -0.006551 43310.500000 1 0 0
7.122646 5.846232 -14.282806 16.997325 0.687293 2.568628 0.004643 0.001482 66992.200000 1 0 0
4.245146 -5.475168 -18.347706 19.612166 -0.911270 2.780544 0.023710 -0.015513 261627.000000 1 0 0
7.643446 7.383832 -12.277906 16.238541 0.768124 2.428124 -0.001962 0.000390 -665331.000000 1 0 0
12.363546 -2.564568 -11.055306 16.782553 -0.204529 2.289937 0.020034 -0.001947 308786.000000 1 0 0
7.550446 -0.596168 -10.620206 13.044287 -0.078795 2.522086 0.003978 0.001056 -2440550.000000 1 0 0
5.371446 3.903432 -14.326206 15.790168 0.628422 2.707582 0.002112 0.001109 -1680070.000000 1 0 0
14.777046 3.055632 -12.802006 19.788617 0.203908 2.274358 -0.006212 -0.004726 -224971.000000 1 0 0
-6.054354 6.867732 -16.050306 18.477913 -0.848260 2.623209 -0.001770 0.008466 400362.000000 1 0 0
-11.027954 3.962532 -16.385506 20.144533 -0.344951 2.520765 0.022449 -0.011461 352622.000000 1 0 0
-4.908554 6.165632 -18.320506 19.943667 -0.898429 2.735352 0.002036 0.019100 466284.000000 1 0 0
-9.841154 1.820232 -15.646206 18.573242 -0.182894 2.572529 0.014673 -0.000430 -259868.000000 1 0 0
-7.610954 5.837932 -17.834206 20.250110 -0.654320 2.648127 0.002724 -0.004276 433422.000000 1 0 0
-8.639154 4.123332 -15.432406 18.160286 -0.445310 2.586381 0.007277 0.000558 -1149290.000000 1 0 0
8.968546 13.448232 -12.033906 20.152039 0.982636 2.210747 0.012452 -0.008813 -2531760.000000 1 0 0
13.769946 9.033632 -11.369506 20.012086 0.580609 2.175030 0.006008 -0.013476 340867.000000 1 0 0
8.369446 15.812232 -8.967706 20.012348 1.083983 2.035445 0.008471 -0.012564 -188914.000000 1 0 0
7.076046 13.738932 -13.838606 20.744534 1.095192 2.301101 0.002414 -0.001016 -95676.600000 1 0 0
4.878946 15.768332 -12.596206 20.763160 1.270725 2.222650 0.005140 -0.012653 142095.000000 1 0 0
11.044546 11.104432 -11.545506 19.457367 0.788102 2.206041 0.009415 -0.007266 -666157.000000 1 0 0
15.743546 9.967332 -9.915706 21.107539 0.564407 2.059827 0.030328 -0.001773 827114.000000 1 0 0
13.236146 10.646632 -9.294006 19.362977 0.677394 2.071438 0.038196 -0.011869 242905.000000 1 0 0
10.423146 11.848032 -8.400306 17.876884 0.849290 2.059971 0.015578 -0.002830 21453.600000 1 0 0
5.238546 16.245732 -10.027806 19.797047 1.258866 2.101952 -0.001120 -0.009448 -147032.000000 1 0 0
6.790946 14.573332 -11.383806 19.700000 1.134730 2.186898 0.000172 -0.006273 -1947990.000000 1 0 0
10.800446 13.919932 -9.881806 20.200600 0.910926 2.081950 0.025226 -0.004170 -558274.000000 1 0 0
8.253346 -18.648068 -1.184206 20.427200 -1.154126 1.628801 0.032208 0.003230 -456174.000000 1 0 0
7.106646 -17.416668 -3.255706 19.090426 -1.183381 1.742175 0.016598 0.001693 2927.790000 1 0 0
4.380546 -18.461368 5.601294 19.783473 -1.337823 1.283740 0.038369 0.002439 241097.000000 1 0 0
9.589146 -17.228568 -2.762606 19.909979 -1.062912 1.710000 0.018731 0.003366 -1047260.000000 1 0 0
-9.887754 -12.086868 -10.179606 18.640934 0.885141 2.148485 0.012070 -0.003859 387159.000000 1 0 0
-5.213354 -6.914868 -12.182806 14.947081 0.924782 2.523634 0.000160 0.000838 768982.000000 1 0 0
-10.781754 -9.558568 -5.701206 15.495683 0.725334 1.947570 0.005706 -0.002109 -1805640.000000 1 0 0
-4.639254 -11.365268 -14.031106 18.643066 1.183245 2.422825 0.008523 -0.002965 512657.000000 1 0 0
-2.993254 -15.463368 7.397594 17.401141 1.379590 1.131701 0.003202 -0.001031 143678.000000 1 0 0
-4.925654 -11.959668 -11.581206 17.361453 1.180112 2.301058 0.004498 0.003391 51005.700000 1 0 0
-14.464854 -12.840868 -4.207906 19.794604 0.725994 1.785009 0.013881 -0.009118 208038.000000 1 0 0
-3.269254 -12.258668 -3.226006 13.090839 1.310173 1.819794 -0.000859 -0.005046 657519.000000 1 0 0
-2.525054 -17.486768 -1.600406 17.740469 1.427390 1.661131 -0.013067 -0.007157 -1258330.000000 1 0 0
-5.718354 -12.173768 3.663394 13.939894 1.131659 1.304874 -0.000414 -0.002144 430498.000000 1 0 0
-8.857954 -10.408468 -11.934606 18.144817 0.865703 2.288613 0.003696 0.001320 1258650.000000 1 0 0
-9.735254 -11.901568 -7.584906 17.145066 0.885187 2.029065 0.007141 -0.009520 -479072.000000 1 0 0
-10.827754 -15.133368 6.218994 19.619759 0.949751 1.248257 0.007097 -0.002825 -1456540.000000 1 0 0
-9.495354 -15.873368 0.530094 18.504231 1.031706 1.542145 0.011141 0.001049 -2068480.000000 1 0 0
-14.955854 -7.613168 -8.056406 18.615681 0.470856 2.018365 0.005114 -0.004436 -307405.000000 1 0 0
-2.460154 -16.548768 5.105994 17.492434 1.423216 1.274586 0.005963 -0.000657 -43047.000000 1 0 0
4.418246 -15.921868 5.743594 17.493303 -1.300112 1.236260 0.026514 -0.000633 -612056.000000 1 0 0
4.104346 -14.673668 -10.056106 18.256162 -1.298058 2.154159 -0.007396 0.005723 -87258.700000 1 0 0
-7.660154 -14.129268 -0.396406 16.077043 1.074002 1.595455 0.003880 -0.001579 1082080.000000 1 0 0
3.045246 -14.786068 9.474994 17.823491 -1.367683 1.010306 0.020528 -0.007423 -491493.000000 1 0 0
2.505746 -17.248668 10.283694 20.237334 -1.426534 1.037756 0.035300 -0.009340 -111418.000000 1 0 0
-8.347654 -17.125368 -5.919306 19.949931 1.117244 1.872040 0.018931 -0.016497 -226719.000000 1 0 0
-6.447454 -9.095168 -7.727006 13.564600 0.954130 2.176870 0.008467 -0.003960 400339.000000 1 0 0
-6.153354 -13.076068 -4.836706 15.239457 1.130959 1.893762 -0.002129 -0.008337 452431.000000 1 0 0
2.043246 -19.421468 -4.875206 20.127988 -1.465976 1.815440 0.003408 -0.006478 19748.900000 1 0 0
-5.520954 -12.738668 8.424994 16.239923 1.161831 1.025370 0.005991 -0.006896 598363.000000 1 0 0
2.025246 -17.502168 3.342894 17.933278 -1.455595 1.383292 0.017667 -0.010588 -82194.300000 1 0 0
-17.687554 -9.999368 -2.751906 20.503900 0.514539 1.705416 0.016441 0.002156 809918.000000 1 0 0
-3.511054 -15.458468 2.540294 16.054433 1.347457 1.411898 -0.005121 -0.002010 -109286.000000 1 0 0
-10.107754 -10.191068 -14.261506 20.234009 0.789503 2.352978 0.002130 -0.002941 -367483.000000 1 0 0
6.029846 -14.512668 -5.541306 16.663813 -1.177010 1.909787 0.001303 -0.002332 133553.000000 1 0 0
-7.392654 -12.278368 -10.751806 17.916779 1.028843 2.214419 0.006237 -0.001418 -435224.000000 1 0 0
-7.090954 -14.356868 3.873394 16.474358 1.112035 1.333458 -0.006318 0.004581 502386.000000 1 0 0
3.214446 -15.035068 -3.162306 15.696691 -1.360171 1.773648 0.003403 -0.003709 -463127.000000 1 0 0
-7.596854 -11.394068 7.632394 15.677704 0.982745 1.062338 0.000382 -0.010179 -1281290.000000 1 0 0
-12.789454 -12.383468 -1.132806 17.838264 0.769272 1.634343 0.009256 0.006418 -309752.000000 1 0 0
-1.970854 -13.574468 3.854194 14.247991 1.426616 1.296876 0.000376 -0.000330 -2126130.000000 1 0 0
-3.102854 -13.889768 5.257094 15.172027 1.351014 1.216960 -0.002486 -0.001181 -351951.000000 1 0 0
-14.415554 -10.275268 -4.370406 18.234302 0.619259 1.812833 0.000430 0.000136 643898.000000 1 0 0
-6.334654 -8.680568 -10.507006 15.029214 0.940381 2.344942 0.002773 -0.000402 93406.500000 1 0 0
0.575946 -19.272768 2.096094 19.394971 -1.540921 1.462511 0.012229 -0.017344 -250990.000000 1 0 0
6.257646 -14.195168 -8.239206 17.565462 -1.155595 2.059019 0.001980 -0.001147 -2987500.000000 1 0 0
-4.017354 -16.745868 -5.982806 18.230666 1.335345 1.905165 -0.008191 -0.007377 -376323.000000 1 0 0
-3.683154 -13.579568 -13.232306 19.314870 1.305941 2.325515 0.019920 0.000190 -2420970.000000 1 0 0
-8.244754 -14.671568 -4.577606 17.440910 1.058821 1.836371 0.011641 -0.016690 -985367.000000 1 0 0
-4.752654 -14.244368 10.293594 18.205708 1.248760 0.969872 0.014843 -0.009271 235983.000000 1 0 0
-0.402654 -12.122868 -9.881406 15.645071 1.537594 2.254410 0.000672 0.003934 234232.000000 1 0 0
2.364546 -17.217068 6.570394 18.579251 -1.434313 1.209335 0.026934 -0.010996 -2361780.000000 1 0 0
-3.052854 -19.211268 -3.530206 19.770055 1.413204 1.750322 -0.014343 -0.012418 -1118.840000 1 0 0
0.583746 -15.390968 -3.154006 15.721654 -1.532887 1.772782 0.001944 -0.006647 -1127300.000000 1 0 0
6.040946 -18.024368 0.533894 19.017253 -1.247408 1.542718 0.028007 -0.004174 -617177.000000 1 0 0
-7.077254 -16.853068 3.747994 18.659070 1.173221 1.368553 -0.007318 0.009589 723904.000000 1 0 0
-5.332554 -13.546868 -9.649006 17.465883 1.195787 2.156096 0.004250 0.000524 -28846.700000 1 0 0
5.631046 -15.145768 -2.125106 16.297823 -1.214843 1.701561 0.008630 0.001008 -642832.000000 1 0 0
-8.858854 -10.393768 -0.719106 13.675775 0.864955 1.623403 0.002866 -0.002278 -323271.000000 1 0 0
-7.447554 -18.040068 -3.266606 19.788401 1.179275 1.736632 0.005980 -0.024005 139136.000000 1 0 0
7.842446 -16.011768 -1.117806 17.864215 -1.115348 1.633410 0.015346 0.001409 -1236830.000000 1 0 0
-8.128054 -10.176068 -9.502606 16.121946 0.896823 2.201138 0.004857 -0.002560 -1607990.000000 1 0 0
-9.279854 -15.034368 -7.035206 19.016888 1.017795 1.949746 0.021614 -0.016125 -733141.000000 1 0 0
-11.471754 -10.266768 -12.068806 19.561793 0.730024 2.235668 0.007274 0.003218 -1262840.000000 1 0 0
6.515746 -16.348768 2.502794 17.776421 -1.191543 1.429534 0.024144 -0.002027 987348.000000 1 0 0
-2.183154 -11.114468 -6.064206 12.848041 1.376841 2.062348 0.002976 -0.001712 -932858.000000 1 0 0
-12.442954 -15.281668 -3.471006 20.010106 0.887432 1.745141 0.016341 -0.017130 237446.000000 1 0 0
-0.503154 -19.854868 -2.905706 20.072670 1.545460 1.716066 0.009577 -0.009754 370196.000000 1 0 0
-5.901254 -15.636868 -4.798706 17.388617 1.209929 1.850393 -0.005583 -0.011112 -2737280.000000 1 0 0
1.831346 -15.910668 -1.057806 16.050612 -1.456199 1.636749 0.008193 -0.011461 120456.000000 1 0 0
-13.139954 -12.158468 5.096394 18.613435 0.746621 1.293453 0.010821 -0.003290 400196.000000 1 0 0
2.008446 -15.295368 -8.780806 17.750625 -1.440233 2.088258 -0.003848 0.008147 -1953600.000000 1 0 0
-11.942254 -16.750468 -0.013806 20.571723 0.951432 1.571467 0.031545 -0.008624 431762.000000 1 0 0
-7.591154 -16.689068 -1.080706 18.366233 1.143910 1.629672 0.006284 -0.007649 263455.000000 1 0 0
-3.033854 -14.526268 -1.860506 14.955875 1.364903 1.695519 -0.007472 -0.006751 221523.000000 1 0 0
-1.890954 -10.440168 -13.272006 16.991732 1.391616 2.467200 0.000705 0.005355 721477.000000 1 0 0
1.272046 -19.634568 4.564894 20.198332 -1.506101 1.342823 0.029560 -0.006035 -44437.500000 1 0 0
-17.275754 -9.451568 2.317594 19.828138 0.500614 1.453644 0.001971 0.001219 -1095080.000000 1 0 0
-2.797254 -15.580568 -8.015006 17.743141 1.393154 2.039493 -0.006046 -0.000934 -1292130.000000 1 0 0
-10.464354 -12.272768 0.110294 16.128723 0.864767 1.563958 0.005251 0.003254 312686.000000 1 0 0
-6.868254 -11.427368 -6.568006 14.862582 1.029616 2.028529 0.005282 -0.004665 41713.500000 1 0 0
-2.165254 -13.517668 -6.705506 15.243998 1.411966 2.026260 -0.008441 0.002740 517162.000000 1 0 0
-14.381654 -14.599168 -1.137806 20.524675 0.792903 1.626261 0.022254 0.003184 227061.000000 1 0 0
-9.573954 -11.302268 -4.442906 15.464193 0.867998 1.862206 0.009293 -0.007816 278708.000000 1 0 0
9.218646 -15.197768 -5.085706 18.488375 -1.025553 1.849465 0.008132 -0.000325 219038.000000 1 0 0
-5.723154 -10.945568 -9.349106 15.490827 1.089017 2.218711 0.005267 0.000043 -793742.000000 1 0 0
-10.366154 -15.979068 -4.783406 19.638450 0.995312 1.816845 0.022983 -0.020011 -1672520.000000 1 0 0
1.948946 -17.436168 -3.202006 17.834550 -1.459482 1.751315 0.007397 -0.004300 340106.000000 1 0 0
-0.381154 -14.602568 -8.184106 16.743950 1.544700 2.081487 -0.000697 0.005987 -1160770.000000 1 0 0
-0.602154 -18.291268 -7.127406 19.640086 1.537888 1.942176 0.002679 -0.003789 231499.000000 1 0 0
-1.843054 -10.025668 -10.589506 14.698588 1.388993 2.375238 0.000623 0.003789 299683.000000 1 0 0
-5.084254 -17.332068 1.942394 18.166538 1.285457 1.463670 -0.009352 -0.002089 -1704010.000000 1 0 0
0.160746 -12.773568 -2.715706 13.060051 -1.558213 1.780265 -0.001727 -0.003150 -1982390.000000 1 0 0
2.572746 -14.993668 3.118494 15.529137 -1.400862 1.368606 0.013182 -0.006084 -869876.000000 1 0 0
-9.282354 -13.173668 6.722594 17.461411 0.956980 1.175592 -0.005149 -0.002913 -602817.000000 1 0 0
-1.101254 -17.887468 -4.559106 18.492153 1.509308 1.819908 -0.002196 -0.008556 -472528.000000 1 0 0
-9.842454 -17.530968 -2.306506 20.236815 1.059218 1.685020 0.024947 -0.021553 722925.000000 1 0 0
1.310746 -16.161068 1.423694 16.276519 -1.489868 1.483215 0.009758 -0.011401 -479826.000000 1 0 0
-0.529354 -17.954368 4.032294 18.409208 1.541322 1.349969 0.021626 -0.015570 -871296.000000 1 0 0
-17.354754 -9.252468 -0.272906 19.669014 0.489805 1.584672 0.002865 0.005304 1062650.000000 1 0 0
-14.844254 -7.241368 -10.546006 19.596110 0.453859 2.139059 0.016761 -0.010679 477822.000000 1 0 0
2.820146 -12.694068 -8.936106 15.778041 -1.352184 2.172883 -0.008546 0.003760 441333.000000 1 0 0
-11.483954 -14.711568 1.587994 18.730541 0.907993 1.485913 0.012656 -0.000226 -57302.700000 1 0 0
-2.451054 -15.313968 10.615894 18.794214 1.412089 0.970546 0.019737 -0.009125 -142317.000000 1 0 0
-7.047654 -15.878468 1.204094 17.413931 1.153069 1.501596 0.001255 0.000149 -1818610.000000 1 0 0
-12.558754 -15.177668 -6.052806 20.608745 0.879541 1.868892 0.014924 -0.011916 1378450.000000 1 0 0
0.797246 -13.705268 -5.164106 14.667582 -1.512691 1.930585 -0.002276 -0.000176 472037.000000 1 0 0
5.823646 -16.510468 -7.213106 18.935134 -1.231696 1.961607 0.002035 -0.002238 264045.000000 1 0 0
-6.483054 -12.869368 5.849894 15.552231 1.104146 1.185164 0.001015 -0.001433 143964.000000 1 0 0
-2.669154 -13.553268 0.500594 13.822664 1.376347 1.534573 -0.001711 -0.006967 1500430.000000 1 0 0
-4.311054 -15.577068 0.119794 16.163062 1.300798 1.563385 -0.008405 -0.004942 -176393.000000 1 0 0
-17.542754 -7.440168 -2.166406 19.178050 0.401122 1.684001 -0.006193 0.009901 361598.000000 1 0 0
1.099446 -12.741768 -11.833406 17.423861 -1.484723 2.317400 -0.001705 0.008571 -1093520.000000 1 0 0
1.136546 -17.159868 -5.699906 18.117443 -1.504660 1.890841 0.005939 -0.002626 -1740340.000000 1 0 0
-12.904354 -6.343868 -9.026306 16.977668 0.456911 2.131353 0.011797 -0.005797 1228550.000000 1 0 0
-11.437254 -13.646168 -8.708306 19.820779 0.873234 2.025674 0.013596 -0.010927 451610.000000 1 0 0
-4.295154 -9.799068 3.464294 11.245951 1.157696 1.257656 0.003476 -0.000350 -3433260.000000 1 0 0
-7.276254 -14.109368 9.565694 18.534310 1.094665 1.028496 0.004692 -0.018192 -1086750.000000 1 0 0
-5.398454 -15.809268 -8.110206 18.570183 1.241737 2.022760 -0.002614 -0.010832 -965922.000000 1 0 0
-0.268554 -13.480668 2.060994 13.639950 1.550878 1.419116 0.002511 -0.008432 1031600.000000 1 0 0
-10.988154 -13.430068 -4.826106 18.011040 0.885071 1.842064 0.017972 -0.013497 -1064910.000000 1 0 0
-9.813254 -10.640368 6.522794 15.876530 0.825815 1.147416 0.005232 -0.002729 -622516.000000 1 0 0
-15.330154 -7.887568 -4.909606 17.925724 0.475191 1.848228 0.001395 0.003129 -65219.800000 1 0 0
-14.575054 -7.397868 5.360794 17.201708 0.469686 1.253875 0.011053 -0.004467 -216379.000000 1 0 0
-1.705654 -19.385968 0.003194 19.460859 1.483038 1.570632 -0.004420 -0.005685 -517920.000000 1 0 0
-15.370554 -12.213468 -1.447206 19.685455 0.671441 1.644379 0.009260 0.010511 551792.000000 1 0 0
-4.355854 -12.084768 -6.550906 14.419759 1.224850 2.042383 -0.002880 -0.000937 84039.100000 1 0 0
-7.243154 -18.434268 1.764594 19.884650 1.196410 1.481938 -0.004963 0.003713 -222078.000000 1 0 0
-2.671454 -11.712568 -8.627606 14.790419 1.346548 2.193611 -0.000434 0.003524 595148.000000 1 0 0
-1.525454 -20.409268 -5.313106 21.144605 1.496192 1.824793 -0.001313 -0.007317 -217905.000000 1 0 0
-5.327554 -8.781568 -13.891706 17.276523 1.025484 2.504923 -0.001713 0.001569 566405.000000 1 0 0
-8.229954 -19.205668 -1.097906 20.923556 1.165951 1.623293 0.004267 0.001263 147397.000000 1 0 0
-17.087154 -7.495168 5.724194 19.517038 0.413370 1.273128 0.012698 -0.009188 -113607.000000 1 0 0
-3.637154 -14.685368 -4.364706 15.746097 1.328010 1.851668 -0.008802 -0.005264 -2795340.000000 1 0 0
-3.186054 -14.942768 -11.055506 18.858989 1.360725 2.197181 0.005928 0.002314 -107194.000000 1 0 0
-0.149054 -16.654168 6.171494 17.761500 1.561847 1.215930 0.022831 -0.009937 -387991.000000 1 0 0
-11.081654 -11.550768 3.640194 16.415672 0.806123 1.347186 0.005386 0.000800 226289.000000 1 0 0
-0.298554 -14.750968 -0.192606 14.755246 1.550559 1.583850 -0.000699 -0.005002 883595.000000 1 0 0
-7.201654 -9.382668 -2.462406 12.081462 0.916158 1.776051 0.005333 -0.004454 263655.000000 1 0 0
-11.202454 -14.520468 -0.947306 18.363996 0.913680 1.622404 0.017732 -0.007825 162949.000000 1 0 0
0.251046 -14.644268 -10.636106 18.100949 -1.553655 2.198885 -0.004227 0.007598 184603.000000 1 0 0
-1.465454 -14.020868 -3.891306 14.624451 1.466655 1.840123 -0.005437 -0.003119 -3989050.000000 1 0 0
-11.345354 -8.051068 -7.694706 15.897964 0.617164 2.076023 0.007013 -0.004021 707564.000000 1 0 0
-0.275954 -17.300468 -0.384106 17.306932 1.554847 1.592992 -0.000248 -0.009870 -400867.000000 1 0 0
-12.876554 -9.620768 4.543794 16.703619 0.641677 1.295300 0.008368 0.000228 231174.000000 1 0 0
3.900146 -16.908268 1.653794 17.430884 -1.344096 1.475776 0.018015 -0.006332 2182820.000000 1 0 0
-3.985754 -17.866068 -8.266806 20.085385 1.351300 1.994987 0.001363 -0.008194 -66570.800000 1 0 0
-13.353554 -11.227568 2.612394 17.640870 0.699124 1.422162 0.005962 0.000860 -808673.000000 1 0 0
-8.515954 -12.326468 4.040894 15.517477 0.966226 1.307350 0.004303 0.001300 2642110.000000 1 0 0
-8.277154 -9.516768 -5.935306 13.939441 0.854951 2.010634 0.008099 -0.005283 -2021270.000000 1 0 0
3.655546 -17.463768 -5.190406 18.581887 -1.364454 1.853889 -0.002396 0.002980 -327226.000000 1 0 0
-2.695754 -12.861968 11.336994 17.355827 1.364196 0.858981 0.014447 -0.013932 188825.000000 1 0 0
-0.029254 -16.824168 -9.354506 19.249942 1.569058 2.078246 0.002316 0.005734 -249903.000000 1 0 0
-7.120654 -10.537568 -14.508606 19.293618 0.976539 2.421872 0.003748 0.002625 -2094290.000000 1 0 0
-4.728654 -18.814368 -1.546006 19.461006 1.324564 1.650321 0.002198 -0.017068 11556.500000 1 0 0
-2.487054 -17.192768 1.062894 17.404208 1.427136 1.509687 -0.001993 -0.012194 535843.000000 1 0 0
3.990546 -14.616568 -7.423306 16.872285 -1.304276 2.026362 -0.004010 0.002006 372939.000000 1 0 0
-1.157254 -15.920268 -6.102206 17.088917 1.498233 1.935942 -0.003834 -0.001093 -532237.000000 1 0 0
-9.380154 -15.298468 8.356394 19.795447 1.020769 1.134995 -0.012123 -0.001811 -954966.000000 1 0 0
-7.127454 -12.008168 -1.898106 14.092533 1.035133 1.705896 0.002190 -0.003380 795566.000000 1 0 0
-7.502154 -15.015968 -9.309706 19.194589 1.107459 2.077179 0.014148 -0.010078 1274020.000000 1 0 0
-5.106354 -13.303468 -0.615506 14.263098 1.204301 1.613963 -0.001479 -0.006379 1738800.000000 1 0 0
-6.420954 -13.751368 -7.250406 16.819547 1.133951 2.016475 0.000704 -0.008331 438326.000000 1 0 0
5.703046 -15.467368 0.254294 16.487234 -1.217547 1.555372 0.012699 -0.001319 -34956.900000 1 0 0
-14.322454 -12.834768 0.887394 19.252309 0.730672 1.524687 -0.002377 -0.000085 994045.000000 1 0 0
1.006646 -15.305668 11.050394 18.904709 -1.505121 0.946494 0.022077 -0.008165 -88932.200000 1 0 0
-9.227454 -10.798368 1.818494 14.319831 0.863682 1.443461 0.005059 0.002351 90261.300000 1 0 0
-9.456954 -8.927168 -3.516306 13.471923 0.756589 1.834865 0.007609 -0.003996 -484028.000000 1 0 0
-12.302554 -6.809568 -12.200106 18.616273 0.505533 2.285437 0.011360 -0.011160 -730659.000000 1 0 0
-13.226054 -8.311868 -0.633406 15.633837 0.561074 1.611322 0.004537 0.002012 475958.000000 1 0 0
-11.135254 -9.721468 0.348094 14.785871 0.717716 1.547252 -0.000212 0.004375 932421.000000 1 0 0
-15.775054 -12.154468 2.831594 20.114704 0.656484 1.429555 0.014490 0.004071 -113683.000000 1 0 0
-10.455054 -12.491268 -2.369806 16.460738 0.873904 1.715266 0.014091 -0.009614 230581.000000 1 0 0
-3.451854 -8.877168 -12.026906 15.341638 1.199942 2.471781 -0.001323 0.004483 -848774.000000 1 0 0
-0.363254 -15.417768 3.914194 15.911016 1.547240 1.322240 0.008469 -0.008356 -768593.000000 1 0 0
-15.734354 -7.772868 1.117594 17.585118 0.458841 1.507200 0.001297 0.002582 765761.000000 1 0 0
-6.201554 -13.373168 -13.453606 19.957465 1.136582 2.310561 0.010016 0.001059 -457201.000000 1 0 0
-15.209854 -10.334968 0.876194 18.409751 0.596829 1.523184 -0.000662 0.004653 638909.000000 1 0 0
-10.047654 -8.138968 -12.698306 18.123055 0.680831 2.347134 0.013561 0.000272 396803.000000 1 0 0
-13.378754 -11.928968 -6.293406 18.997323 0.728174 1.908455 0.014135 0.001214 -106794.000000 1 0 0
-12.223654 -11.381868 -3.907806 17.153296 0.749753 1.800631 0.006608 -0.003506 859613.000000 1 0 0
-11.806654 -11.032868 -8.905906 18.450919 0.751532 2.074510 0.005733 -0.009836 318065.000000 1 0 0
-13.094854 -8.489068 -5.877006 16.675691 0.575162 1.930962 0.001154 -0.001144 -1447310.000000 1 0 0
-13.312754 -8.171168 -3.244906 15.953896 0.550494 1.775618 0.004540 -0.001121 380550.000000 1 0 0
-4.411954 -17.017668 -3.306406 17.888507 1.317124 1.756699 -0.006958 -0.013367 89735.000000 1 0 0
-15.436754 -8.950568 -1.939406 17.949020 0.525451 1.679058 0.008620 0.008333 -1974560.000000 1 0 0
-9.329554 -15.644168 3.511994 18.550328 1.033058 1.380324 0.002922 0.000877 -1262800.000000 1 0 0
4.596346 -17.424568 7.978994 19.708027 -1.312886 1.153970 0.040937 -0.012569 366910.000000 1 0 0
-8.331954 -15.570468 5.898294 18.618561 1.079455 1.248446 -0.005313 0.008076 239332.000000 1 0 0
0.970446 -16.017268 8.503894 18.160695 -1.510283 1.083478 0.021177 -0.007160 -183525.000000 1 0 0
-10.945854 -7.700468 -10.267706 16.868157 0.613075 2.225222 0.009764 -0.003223 1165780.000000 1 0 0
-4.846754 -15.737268 5.685294 17.420539 1.272035 1.238351 -0.008169 -0.005399 -1447090.000000 1 0 0
-1.487954 -13.227368 -12.000006 17.921423 1.458777 2.304453 0.002759 0.003272 -1028570.000000 1 0 0
-6.429054 -14.348768 -2.629506 15.941586 1.149560 1.736500 0.001687 -0.009632 220236.000000 1 0 0
-17.691254 -6.824468 -7.148706 20.264694 0.368165 1.931322 0.005782 -0.001000 -19799.900000 1 0 0
-17.400254 -3.942568 -10.174206 20.538431 0.222819 2.089062 0.021554 -0.012586 788748.000000 1 0 0
-15.362454 -5.196468 -9.065306 18.579237 0.326176 2.080509 0.011512 -0.011035 43368.600000 1 0 0
-16.053154 -5.343868 -5.750106 17.869650 0.321348 1.898406 0.006260 0.002121 -847371.000000 1 0 0
-15.287154 -4.291568 -12.341806 20.110564 0.273686 2.231532 0.026572 -0.009922 -636707.000000 1 0 0
-18.609854 -5.090468 -5.465706 20.052767 0.267005 1.846856 0.009679 -0.000769 62735.600000 1 0 0
-17.459954 -4.267868 -7.692406 19.550902 0.239737 1.975183 0.010699 -0.008087 785719.000000 1 0 0
12.091946 -7.771668 8.665394 16.784012 -0.571236 1.028285 0.008259 -0.008263 185925.000000 1 0 0
15.998646 -3.376568 1.692194 16.438413 -0.208001 1.467672 0.010443 -0.010858 264973.000000 1 0 0
12.069946 -2.198468 12.463194 17.488513 -0.180169 0.777527 0.004674 -0.006137 367347.000000 1 0 0
9.671746 -10.007568 5.195494 14.855546 -0.802461 1.213509 0.000251 0.000747 176885.000000 1 0 0
16.815846 -1.908068 7.112894 18.357742 -0.112985 1.172921 0.022953 -0.011338 -527204.000000 1 0 0
5.171846 -12.885368 9.240394 16.678297 -1.189106 0.983591 0.007153 0.007958 -376117.000000 1 0 0
15.041546 -9.027868 -2.169606 17.676473 -0.540563 1.693846 0.013111 -0.004863 -74004.300000 1 0 0
11.182846 -8.620068 6.323294 15.470801 -0.656699 1.149740 0.007988 -0.005377 -3069640.000000 1 0 0
19.759446 -3.455768 3.527994 20.367248 -0.173141 1.396699 0.026400 -0.012248 -195975.000000 1 0 0
13.564746 -8.658468 6.911894 17.514157 -0.568111 1.165114 0.012325 -0.007001 -1863850.000000 1 0 0
8.308546 -10.968568 8.813394 16.340665 -0.922521 1.001127 0.003012 0.004531 -1177820.000000 1 0 0
16.765246 0.063932 -0.685106 16.779361 0.003813 1.611638 0.008554 -0.004977 -1038120.000000 1 0 0
12.421846 -12.368768 2.342894 17.685526 -0.783257 1.437931 0.007218 -0.002922 -720349.000000 1 0 0
10.301446 -11.632468 3.622494 15.954829 -0.846007 1.341752 0.001293 -0.000762 -1387270.000000 1 0 0
16.260446 2.982232 2.337394 16.696084 0.181388 1.430338 0.004468 0.000162 264414.000000 1 0 0
18.265046 -3.349968 0.420794 18.574479 -0.181393 1.548140 0.008249 -0.011905 479197.000000 1 0 0
13.420346 -11.604168 -0.132906 17.742043 -0.712949 1.578287 0.018327 -0.002566 -364588.000000 1 0 0
16.924046 -7.625468 -1.057306 18.592714 -0.423328 1.627694 0.019795 -0.007830 504088.000000 1 0 0
10.098746 -5.690268 9.771094 15.160412 -0.513121 0.870409 0.008450 -0.005641 -1085040.000000 1 0 0
11.225846 -13.286068 6.143294 18.446661 -0.869251 1.231281 -0.001373 0.003371 64882.000000 1 0 0
13.010446 -1.887568 10.115694 16.588004 -0.144076 0.914963 0.009781 -0.008247 832150.000000 1 0 0
15.539446 -2.045268 -1.411406 15.736886 -0.130866 1.660605 0.008381 -0.010429 -740915.000000 1 0 0
10.470746 -12.351368 8.990694 18.520945 -0.867616 1.063937 0.007482 -0.000846 -92724.000000 1 0 0
14.336346 1.271632 3.212094 14.746709 0.088468 1.351218 0.003721 0.001440 1358130.000000 1 0 0
15.064846 -5.743268 5.265594 16.960578 -0.364227 1.255119 0.019456 -0.009994 -634606.000000 1 0 0
14.408846 -3.449168 -3.135206 15.144013 -0.234957 1.779331 0.017568 -0.007310 602638.000000 1 0 0
14.011746 0.470032 9.523394 16.948304 0.033533 0.974105 0.015878 -0.008262 660599.000000 1 0 0
15.328746 -3.384768 4.248394 16.262717 -0.217324 1.306495 0.009914 -0.007765 -797656.000000 1 0 0
18.565246 4.999932 -4.229506 19.686453 0.263075 1.787328 -0.005249 0.002735 612875.000000 1 0 0
18.629346 -5.537168 -4.888206 20.040143 -0.288912 1.817203 0.064516 -0.014095 908638.000000 1 0 0
17.295846 0.048032 5.831994 18.252692 0.002777 1.245580 0.029825 -0.005832 918502.000000 1 0 0
16.986946 -6.794868 3.977394 18.722880 -0.380511 1.356730 0.019764 -0.011614 303826.000000 1 0 0
9.781846 -6.796768 14.331794 18.635474 -0.607251 0.693427 0.013117 -0.006565 -1157700.000000 1 0 0
8.486246 -12.362768 5.165294 15.859845 -0.969232 1.239061 -0.000165 0.001735 -1719580.000000 1 0 0
16.812546 -10.248368 -0.738406 19.703705 -0.547424 1.608281 0.024754 -0.003553 -325124.000000 1 0 0
14.972646 -8.776768 0.338894 17.358763 -0.530201 1.551272 0.024283 -0.008058 -208377.000000 1 0 0
9.966246 -13.020168 1.467894 16.462246 -0.917482 1.481510 0.006255 -0.001805 252719.000000 1 0 0
16.913246 -8.220068 8.857294 20.786512 -0.452396 1.130610 0.030323 -0.008816 482994.000000 1 0 0
19.098046 -0.097768 -1.898906 19.192467 -0.005119 1.669899 0.018254 -0.009839 8936.780000 1 0 0
13.410246 -1.251368 7.643494 15.486240 -0.093045 1.054610 0.010023 -0.004387 -64376.700000 1 0 0
12.759146 -9.760668 -3.086906 16.358345 -0.653028 1.760640 0.020834 -0.006907 -2046450.000000 1 0 0
8.838646 -15.371268 1.415594 17.787677 -1.048954 1.491129 0.016187 0.003907 377080.000000 1 0 0
11.433446 -8.143868 11.054194 17.867330 -0.618923 0.903732 0.008436 -0.006205 29031.400000 1 0 0
13.951246 -3.988168 -0.623706 14.523490 -0.278439 1.613754 0.010954 -0.010469 -1287500.000000 1 0 0
7.240046 -13.387568 10.741294 18.628490 -1.075041 0.956228 0.011419 0.014933 -776414.000000 1 0 0
15.344846 -6.795668 1.879594 16.887223 -0.416903 1.459262 0.009881 -0.008976 -21155.100000 1 0 0
15.877946 -6.166468 -2.744906 17.253087 -0.370438 1.730572 0.018121 -0.008996 564714.000000 1 0 0
11.227746 -8.572668 3.796294 14.627535 -0.652101 1.308260 0.010547 -0.006425 235852.000000 1 0 0
10.540946 -14.617368 -0.499706 18.028552 -0.946033 1.598517 0.020631 -0.000733 490256.000000 1 0 0
13.452846 -12.940968 4.702694 19.250014 -0.766007 1.324003 0.006667 0.001093 569649.000000 1 0 0
12.797446 -11.194268 6.478894 18.195118 -0.718675 1.206728 0.004791 -0.001323 -608568.000000 1 0 0
10.778146 -10.552568 1.440394 15.152553 -0.774823 1.475593 0.004377 -0.003824 -75633.600000 1 0 0
13.888346 -7.404368 11.702294 19.612611 -0.489803 0.931449 0.004702 -0.015299 -223671.000000 1 0 0
15.351046 -1.746868 -5.018306 16.244678 -0.113307 1.884854 0.015611 -0.007046 -222289.000000 1 0 0
12.875446 -11.511468 -7.098606 18.673008 -0.729526 1.960758 0.032135 -0.009337 201747.000000 1 0 0
17.551746 -5.354868 1.940294 18.452727 -0.296120 1.465452 0.017261 -0.013870 78601.900000 1 0 0
10.584946 -9.692568 9.075794 16.981078 -0.741418 1.006922 0.001078 0.000365 -1026440.000000 1 0 0
16.330046 1.657132 10.148994 19.298150 0.101131 1.017017 0.026986 -0.006270 401773.000000 1 0 0
18.057446 3.751332 0.556594 18.451386 0.204831 1.540626 -0.000993 0.002805 506784.000000 1 0 0
13.200646 -3.999168 5.713494 14.929649 -0.294163 1.178085 0.010851 -0.011439 -642338.000000 1 0 0
12.236046 -6.261168 6.557394 15.229001 -0.472963 1.125654 0.010275 -0.009672 -379828.000000 1 0 0
16.304646 -10.049768 3.364194 19.446263 -0.552373 1.396922 -0.003315 -0.014034 -695430.000000 1 0 0
16.348946 -8.278268 -5.598306 19.161388 -0.468714 1.867287 0.027312 -0.002611 883687.000000 1 0 0
13.874846 -0.530468 5.265394 14.849819 -0.038214 1.208335 0.006288 -0.002680 323272.000000 1 0 0
17.934646 -4.288168 5.191794 19.157104 -0.234694 1.296353 0.017190 -0.009789 -621630.000000 1 0 0
13.579146 -13.649768 7.183694 20.550300 -0.787992 1.213688 0.012012 0.004642 141604.000000 1 0 0
14.929046 -13.566968 -0.778906 20.187762 -0.737636 1.609389 0.020074 -0.001454 279615.000000 1 0 0
17.711846 -6.001068 7.759294 20.246702 -0.326677 1.177498 0.033201 -0.013484 -786871.000000 1 0 0
14.359846 3.179032 9.183294 17.339098 0.217869 1.012633 0.011466 -0.006021 -1276320.000000 1 0 0
18.648946 3.793332 3.165294 19.292269 0.200670 1.405981 0.015646 0.003275 -216636.000000 1 0 0
14.729246 -10.753768 8.150794 19.975727 -0.630641 1.150496 0.011939 -0.002444 -536221.000000 1 0 0
14.819846 -4.773768 10.298394 18.667448 -0.311625 0.986423 0.020304 -0.015430 78046.600000 1 0 0
17.729446 -7.937968 1.879894 19.516111 -0.420963 1.474322 0.029998 -0.013249 -159017.000000 1 0 0
18.419946 -5.763368 -1.982706 19.402112 -0.303238 1.673165 0.016411 -0.013991 -479409.000000 1 0 0
14.254846 -12.984568 -5.393406 20.022200 -0.738798 1.843536 0.032758 -0.012996 -407064.000000 1 0 0
15.518546 -1.673368 9.382894 18.211649 -0.107415 1.029539 0.028095 -0.013077 1338160.000000 1 0 0
13.119346 -9.777768 10.104694 19.230882 -0.640482 1.017563 0.002877 -0.012899 -1142750.000000 1 0 0
16.398746 2.057432 4.707994 17.184793 0.124811 1.293285 0.012743 -0.003580 -773553.000000 1 0 0
14.986046 2.363732 -0.125506 15.171835 0.156440 1.579069 0.003194 -0.000097 -1511320.000000 1 0 0
15.042046 -10.070268 -6.845306 19.352821 -0.589944 1.932332 0.033430 -0.010952 313983.000000 1 0 0
16.187946 -0.080868 -3.203906 16.502156 -0.004996 1.766188 0.012783 -0.005403 118119.000000 1 0 0
12.132246 2.445032 13.502194 18.316081 0.198868 0.741913 0.014241 0.003673 -269124.000000 1 0 0
17.632346 -3.289768 9.372494 20.237733 -0.184455 1.089284 0.032186 -0.017992 -317343.000000 1 0 0
7.807646 -18.226968 4.500194 20.333063 -1.166086 1.347624 0.037659 -0.010017 -360545.000000 1 0 0
6.831446 -11.188668 6.637794 14.694055 -1.022642 1.102089 0.001888 0.003878 -176031.000000 1 0 0
18.010046 2.204132 -1.559406 18.211307 0.121778 1.656530 0.009481 -0.000585 434825.000000 1 0 0
17.559146 -2.299468 3.468394 18.045524 -0.130215 1.377390 0.019916 -0.007539 -1053930.000000 1 0 0
12.509446 -13.415968 -1.880106 18.439340 -0.820350 1.672936 0.020732 -0.001383 -936825.000000 1 0 0
14.766346 -8.249168 4.306094 17.453831 -0.509457 1.321509 0.007982 -0.010296 235424.000000 1 0 0
11.731046 -3.089968 14.908094 19.220214 -0.257551 0.683057 0.001539 -0.010572 -21794.900000 1 0 0
11.951146 -13.797368 -6.217006 19.283372 -0.856978 1.899063 0.021330 -0.012753 -220454.000000 1 0 0
10.528146 -12.084468 -1.191406 16.071580 -0.854115 1.644996 0.016240 -0.006581 -1580320.000000 1 0 0
13.065046 -8.104268 1.996894 15.503618 -0.555213 1.441636 0.007639 -0.002506 -815121.000000 1 0 0
8.722446 -7.783768 9.971594 15.365572 -0.728591 0.864584 0.003408 0.000324 -1936120.000000 1 0 0
15.594646 -3.853868 7.996294 17.943969 -0.242273 1.108923 0.028043 -0.016077 -971727.000000 1 0 0
10.236446 -17.356468 5.225894 20.816863 -1.037928 1.317040 0.020686 -0.008698 453226.000000 1 0 0
15.190746 -6.395968 8.317494 18.462066 -0.398515 1.103451 0.023604 -0.005251 -237218.000000 1 0 0
16.471146 -5.080468 -0.397006 17.241445 -0.299188 1.593825 0.005663 -0.011474 -979860.000000 1 0 0
13.757746 -10.558868 3.515094 17.695230 -0.654598 1.370820 0.007281 -0.005774 333442.000000 1 0 0
14.964046 -10.081068 -4.419906 18.576495 -0.592846 1.811030 0.031979 -0.010970 242635.000000 1 0 0
13.598846 -6.587968 -0.074306 15.110773 -0.451131 1.575714 0.009918 -0.008427 -107326.000000 1 0 0
17.773046 -0.744968 -4.973806 18.470920 -0.041891 1.843439 0.010555 -0.009678 -1602490.000000 1 0 0
14.304646 0.226932 -1.637206 14.399821 0.015863 1.684739 0.008386 -0.005626 -2421450.000000 1 0 0
5.017646 -13.025268 11.966494 18.385629 -1.203092 0.862078 0.003967 0.010030 -297886.000000 1 0 0
12.062246 -7.346968 13.514494 19.547820 -0.547075 0.807433 0.009352 -0.010576 -599647.000000 1 0 0
12.047846 -5.620468 11.497594 17.576545 -0.436500 0.857746 0.006356 -0.007894 -416175.000000 1 0 0
13.166246 -4.597368 8.336994 16.247809 -0.335943 1.031986 0.011040 -0.011262 -525755.000000 1 0 0
15.313346 -1.107868 3.053394 15.654046 -0.072221 1.374483 0.009382 -0.002992 -201788.000000 1 0 0
15.108046 -10.312668 5.709994 19.162678 -0.598949 1.268226 0.012327 -0.009269 -332656.000000 1 0 0
13.760846 -8.063468 -5.719006 16.943655 -0.530041 1.915089 0.030944 -0.006029 -634658.000000 1 0 0
9.621046 -2.323468 13.593494 16.815056 -0.236961 0.629347 0.005847 -0.004178 552812.000000 1 0 0
10.237546 -9.301768 13.671194 19.448182 -0.737543 0.791253 0.021998 -0.000613 181623.000000 1 0 0
20.451346 6.193232 -2.836806 21.556001 0.294049 1.702781 0.019102 0.001818 380714.000000 1 0 0
11.019246 -3.529168 10.462894 15.599711 -0.309951 0.835630 0.001334 -0.006068 649321.000000 1 0 0
10.258146 -14.020968 -2.995706 17.629276 -0.939157 1.741553 0.020244 -0.001596 935482.000000 1 0 0
14.891146 -12.748668 2.471994 19.758176 -0.708039 1.445355 0.012163 0.000581 278222.000000 1 0 0
11.375046 -0.569568 14.380194 18.344102 -0.050030 0.669852 0.011755 -0.000400 288590.000000 1 0 0
18.969746 -1.950768 5.589994 19.872212 -0.102476 1.285651 0.042824 -0.012426 166305.000000 1 0 0
18.947846 -0.538468 7.790694 20.494042 -0.028411 1.180844 0.045638 -0.013035 157766.000000 1 0 0
18.886346 0.920032 0.528694 18.916132 0.048676 1.542843 0.011607 -0.005473 -277876.000000 1 0 0
18.476746 0.768832 3.556494 18.831620 0.041587 1.380798 0.021781 -0.002458 544454.000000 1 0 0
16.657946 -3.932968 -4.267406 17.639903 -0.231856 1.815138 0.010227 -0.010345 -801544.000000 1 0 0
11.277946 -8.192268 15.836794 21.097615 -0.628223 0.721760 0.025136 -0.012783 302924.000000 1 0 0
16.370146 -7.736468 6.316294 19.176293 -0.441485 1.235149 0.011790 -0.005688 58795.000000 1 0 0
18.745646 2.188132 5.757894 19.731714 0.116202 1.274679 0.022525 -0.006452 370348.000000 1 0 0
15.521646 1.549132 7.738294 17.412711 0.099475 1.110286 0.027121 -0.004838 236478.000000 1 0 0
8.753146 -15.935568 3.795994 18.573354 -1.068503 1.364968 0.012988 -0.003441 1176790.000000 1 0 0
11.376046 -15.120668 1.971594 19.024621 -0.925792 1.466976 0.010446 0.001508 -586070.000000 1 0 0
8.009446 -16.133868 6.171394 19.040458 -1.110003 1.240715 0.015539 -0.004022 225680.000000 1 0 0
14.463646 -11.632368 -2.417806 18.717768 -0.677326 1.700330 0.022219 -0.006451 400730.000000 1 0 0
13.658346 -4.925868 3.182094 14.864061 -0.346130 1.355047 0.007695 -0.007971 -975912.000000 1 0 0
-1.009254 10.293232 -5.518106 11.722573 -1.473059 2.060908 -0.001169 0.002473 -1877810.000000 1 0 0
8.211446 -1.853268 -7.971206 11.593213 -0.221974 2.328941 0.003188 -0.001710 -3362600.000000 1 0 0
2.949846 -10.246768 7.747194 13.180169 -1.290495 0.942470 -0.001665 0.001400 542761.000000 1 0 0
-6.311354 1.433232 8.421594 10.621233 -0.223301 0.655240 -0.003736 -0.001154 -316175.000000 1 0 0
7.192846 -6.328468 -7.204506 11.987137 -0.721558 2.215573 0.003498 -0.003630 145340.000000 1 0 0
-11.389954 -4.576168 -4.087906 12.937671 0.382033 1.892274 0.001638 -0.002447 -105436.000000 1 0 0
2.080746 -3.203768 2.886694 4.788177 -0.994795 0.923691 -0.000046 0.000522 966023.000000 1 0 0
-3.586254 -4.185568 8.935394 10.498641 0.862360 0.552719 -0.000055 -0.000742 -2185890.000000 1 0 0
-4.837254 -1.137968 -2.358206 5.500466 0.231050 2.013881 0.001373 -0.002198 106082.000000 1 0 0
5.021246 -5.285168 -3.658406 8.156583 -0.811000 2.035907 0.002130 -0.002472 84363.200000 1 0 0
2.796546 14.277932 -8.773306 16.989730 1.377380 2.113425 -0.002499 -0.004559 91132.600000 1 0 0
5.525046 -5.589568 13.660494 15.760029 -0.791203 0.522086 0.015887 -0.011323 -1525090.000000 1 0 0
-4.813554 -0.805168 9.930894 11.065317 0.165737 0.456775 0.000413 -0.000659 -2845660.000000 1 0 0
-0.986454 11.971132 -2.667006 12.304227 -1.488579 1.789286 -0.002427 -0.000228 623865.000000 1 0 0
3.187046 9.375332 -10.480206 14.418351 1.243112 2.384544 -0.000061 -0.000868 -262993.000000 1 0 0
-10.722754 2.717832 1.133794 11.119782 -0.248236 1.468657 -0.005671 0.002486 -497051.000000 1 0 0
5.590946 -9.038768 -0.673806 10.649508 -1.016847 1.634110 -0.000199 -0.004151 781252.000000 1 0 0
-7.044554 5.492232 9.493594 13.035286 -0.662204 0.754959 -0.006878 -0.001659 24004.600000 1 0 0
-5.657154 -1.784768 5.223694 7.904161 0.305605 0.848807 -0.002797 -0.001585 355939.000000 1 0 0
6.525146 -3.827468 -7.369306 10.560952 -0.530487 2.343101 0.004354 -0.003319 581464.000000 1 0 0
6.205046 4.676932 11.053194 13.511084 0.645884 0.612726 0.002743 0.000666 396582.000000 1 0 0
3.714246 -9.927568 3.333794 11.111544 -1.212785 1.266072 -0.005604 -0.000083 867032.000000 1 0 0
-6.542054 6.470332 -5.656506 10.800913 -0.779886 2.121992 0.002649 -0.000700 -302713.000000 1 0 0
-11.092754 8.346132 5.195094 14.822149 -0.645032 1.212696 -0.013233 -0.004924 340611.000000 1 0 0
-9.169754 -5.474668 5.094394 11.832549 0.538237 1.125705 0.000391 -0.001246 -1084840.000000 1 0 0
3.425046 9.921132 -7.978606 13.184004 1.238380 2.220780 0.001626 -0.002468 643412.000000 1 0 0
-8.152354 -8.729468 5.945194 13.342032 0.819570 1.108953 0.002374 0.002081 -2110980.000000 1 0 0
-7.881854 -5.674468 -7.454506 12.243074 0.623984 2.225438 0.003954 -0.006896 346432.000000 1 0 0
9.169346 -1.614668 7.010494 11.654660 -0.174307 0.925396 0.003953 -0.008286 1680380.000000 1 0 0
-4.140854 -0.397568 -4.864206 6.400408 0.095718 2.434084 0.007060 -0.007226 -622617.000000 1 0 0
8.999046 1.133332 -4.270606 10.025236 0.125280 2.010847 -0.000249 -0.000358 -2212670.000000 1 0 0
-1.870154 -10.650268 10.557794 15.112667 1.396972 0.797349 0.007379 -0.008326 340534.000000 1 0 0
-12.892354 0.307332 -2.698106 13.175242 -0.023834 1.777041 0.003602 -0.000719 -300639.000000 1 0 0
-9.865854 -5.141168 -6.143906 12.708826 0.480390 2.075372 0.002687 -0.005400 -2939150.000000 1 0 0
-5.810254 8.458032 -0.107006 10.262008 -0.968882 1.581224 -0.004722 0.002554 423247.000000 1 0 0
6.281446 9.585432 0.332994 11.465076 0.990696 1.541748 0.007818 -0.001425 591135.000000 1 0 0
-0.676954 -12.212668 -0.122006 12.232024 1.515423 1.580771 0.001184 -0.005661 -555109.000000 1 0 0
6.066246 4.641732 2.346994 7.990832 0.653142 1.272690 0.001014 -0.000393 315233.000000 1 0 0
3.361346 -7.443168 -8.254606 11.611973 -1.146611 2.361531 -0.001933 -0.002669 594951.000000 1 0 0
-6.497754 -9.874568 4.446094 12.629159 0.988797 1.211036 0.003739 0.000256 -2305040.000000 1 0 0
0.095846 6.570032 -9.293706 11.381893 1.556209 2.526178 0.001110 -0.001427 -2181100.000000 1 0 0
-17.255854 -2.947968 4.277394 18.020852 0.169205 1.331151 0.012868 -0.010141 176030.000000 1 0 0
-8.357754 0.908332 -9.072706 12.368957 -0.108256 2.394262 0.002802 -0.009190 206073.000000 1 0 0
-10.067154 -5.670868 -11.870306 16.565340 0.513000 2.369676 0.010319 -0.005443 -837109.000000 1 0 0
2.027046 9.522032 6.377594 11.638373 1.361048 0.990849 -0.003311 0.006237 289034.000000 1 0 0
-11.371454 1.612832 -1.224806 11.550382 -0.140892 1.677036 -0.001039 0.000795 -1866810.000000 1 0 0
-6.066254 -5.382968 -2.990906 8.644148 0.725789 1.924105 0.005964 -0.005336 664797.000000 1 0 0
-6.873954 -8.279768 1.302394 10.839835 0.877904 1.450356 0.002896 -0.000891 -398933.000000 1 0 0
0.048346 11.147732 -7.791106 13.600574 1.566459 2.180777 -0.001881 0.001227 -143277.000000 1 0 0
-3.006654 9.389832 -4.248306 10.735782 -1.260909 1.977642 0.002375 0.003686 -211745.000000 1 0 0
3.464146 -4.852168 9.376194 11.111114 -0.950777 0.566365 0.000085 -0.001566 -939373.000000 1 0 0
-9.027954 1.634732 -0.342706 9.181162 -0.179134 1.608132 -0.005177 0.000161 -2559930.000000 1 0 0
2.520046 3.561832 -10.445406 11.320061 0.955045 2.745911 0.002330 -0.003708 303787.000000 1 0 0
-13.788654 0.416532 1.206294 13.847585 -0.030199 1.483574 0.001989 0.001261 -688257.000000 1 0 0
9.391946 -12.711468 -5.118706 16.612984 -0.934466 1.884007 0.016986 -0.003089 -1337250.000000 1 0 0
-4.584854 9.462732 -8.423706 13.473047 -1.119612 2.246218 0.006715 -0.000082 181538.000000 1 0 0
-2.339754 7.163232 8.434194 11.310259 -1.255087 0.729194 -0.000274 0.000282 -697597.000000 1 0 0
-10.682654 -1.465468 -4.397706 11.645021 0.136331 1.958050 -0.001044 -0.003093 -4700420.000000 1 0 0
2.668146 -7.209968 9.582994 12.285618 -1.216361 0.676103 -0.000341 0.000699 -1231120.000000 1 0 0
-16.135754 -6.577268 3.395694 17.752570 0.387059 1.378331 0.011137 -0.002912 251238.000000 1 0 0
-10.793854 -0.121368 6.163494 12.430232 0.011244 1.051986 -0.002740 -0.001510 -2814860.000000 1 0 0
-8.449454 9.942032 9.389894 16.075055 -0.866377 0.946991 -0.006584 -0.002808 -194572.000000 1 0 0
0.140846 -6.019068 -3.779206 7.108545 -1.547401 2.131335 -0.001206 -0.000645 1004920.000000 1 0 0
4.890546 1.452932 -2.983806 5.910292 0.288785 2.100004 -0.001913 -0.001354 -672696.000000 1 0 0
0.342346 5.392332 3.866294 6.643995 1.507394 0.949705 -0.001386 0.002262 -1225700.000000 1 0 0
5.942046 -11.254468 -1.487406 12.813405 -1.085022 1.687141 0.000066 -0.003323 -2186220.000000 1 0 0
6.132146 -13.430968 5.269794 15.676889 -1.142494 1.227970 0.006483 -0.002110 -141415.000000 1 0 0
8.119046 -8.343668 -5.947706 13.073290 -0.799042 2.043113 0.006238 -0.005907 683338.000000 1 0 0
-13.052854 -1.384068 -4.734606 13.953821 0.105641 1.916975 0.001835 -0.001870 -3212630.000000 1 0 0
-6.851254 -1.503568 -7.031406 9.931821 0.216034 2.357412 0.002422 -0.007867 -554633.000000 1 0 0
-5.624654 13.008132 -4.557906 14.886999 -1.162679 1.881960 0.002368 0.007047 398787.000000 1 0 0
-4.254154 6.942332 -6.771706 10.590080 -1.021029 2.264564 0.004699 0.000054 -2366510.000000 1 0 0
-9.344954 -3.622668 -8.128206 12.904248 0.369824 2.252203 0.005739 -0.007216 437396.000000 1 0 0
-2.250254 -6.400068 9.194694 11.426588 1.232698 0.635668 0.003085 -0.002365 -633864.000000 1 0 0
7.431346 -6.010068 10.113394 13.914976 -0.680051 0.757146 0.004105 -0.002633 216624.000000 1 0 0
9.639446 -5.039068 12.302894 16.421703 -0.481685 0.723966 0.008492 -0.003083 -760107.000000 1 0 0
-6.492254 2.780332 -8.948806 11.400032 -0.404623 2.473461 0.001902 -0.007591 442078.000000 1 0 0
7.418446 5.407032 8.817294 12.728473 0.629836 0.805540 -0.002223 -0.000259 -852358.000000 1 0 0
12.746146 3.271632 11.147894 17.246546 0.251252 0.867960 0.009248 0.003657 -831304.000000 1 0 0
-7.482154 -7.310368 -3.962706 11.186024 0.773786 1.932914 0.007294 -0.008937 -1941100.000000 1 0 0
2.401246 1.564332 -5.795606 6.465460 0.577406 2.682365 -0.001850 -0.002940 -357527.000000 1 0 0
12.833846 6.890232 -7.052206 16.183835 0.492714 2.021675 0.003038 -0.000607 198188.000000 1 0 0
0.776246 -7.715668 0.963294 7.814219 -1.470527 1.447207 -0.002330 -0.001466 144175.000000 1 0 0
-10.282154 -5.975568 -8.622006 14.689080 0.526451 2.198104 0.006958 -0.004636 294953.000000 1 0 0
-6.688854 0.190532 3.111994 7.379808 -0.028477 1.135488 -0.002483 -0.003030 -935202.000000 1 0 0
10.681646 -7.988068 1.172794 13.389632 -0.642112 1.483094 0.004692 -0.005437 -573826.000000 1 0 0
6.163846 0.920932 10.370594 12.099187 0.148312 0.541122 0.002874 -0.001093 392684.000000 1 0 0
-12.979054 5.309832 1.914094 14.153230 -0.388333 1.435140 -0.002263 0.003126 -165764.000000 1 0 0
1.963646 7.428432 3.582894 8.477891 1.312366 1.134466 -0.002635 0.002006 306931.000000 1 0 0
9.994046 -9.585868 -0.798806 13.871118 -0.764554 1.628416 0.006064 -0.005023 784817.000000 1 0 0
6.709646 -11.776068 -9.048106 16.296115 -1.052902 2.159437 0.002018 -0.004915 -814623.000000 1 0 0
10.321546 3.449832 11.924694 16.144163 0.322563 0.739748 -0.007931 0.005084 -571927.000000 1 0 0
-11.020454 -3.097468 -1.893406 11.603004 0.273996 1.734712 -0.001957 -0.000667 -565283.000000 1 0 0
12.360346 0.961432 6.825794 14.152525 0.077627 1.067515 0.004372 -0.002046 -127421.000000 1 0 0
-9.551154 9.078932 3.135494 13.545585 -0.760056 1.337200 -0.012318 -0.002211 591974.000000 1 0 0
-6.541054 7.671332 -8.736106 13.339950 -0.864759 2.284824 0.008873 -0.005803 -234838.000000 1 0 0
8.541246 5.382932 12.059894 15.727997 0.562350 0.696989 -0.004287 0.005604 -3016320.000000 1 0 0
1.316246 4.922632 -2.707206 5.770076 1.309522 2.059159 -0.001278 -0.002906 -142769.000000 1 0 0
1.277446 0.506432 9.595594 9.693491 0.377434 0.142241 0.002160 -0.001492 632251.000000 1 0 0
2.712446 12.599132 -3.911006 13.468165 1.358745 1.865430 0.007543 -0.004141 342825.000000 1 0 0
2.121646 0.642332 13.010494 13.197990 0.293979 0.168761 0.003902 -0.003327 41441.100000 1 0 0
-12.272554 -1.731568 0.961694 12.431362 0.140167 1.493359 0.000634 -0.002807 -204859.000000 1 0 0
3.335246 8.698832 -1.242606 9.398809 1.204670 1.703393 0.006132 -0.001516 -124227.000000 1 0 0
3.698746 -2.759968 -5.795206 7.408276 -0.641058 2.469083 -0.000720 -0.002798 -1809620.000000 1 0 0
-7.788954 -7.167068 9.250494 14.057251 0.743841 0.852559 0.005012 -0.002605 192889.000000 1 0 0
-7.008054 10.951632 -3.677506 13.512036 -1.001547 1.846439 0.000096 0.007341 1358210.000000 1 0 0
0.268046 0.582532 2.514294 2.594777 1.139542 0.249716 -0.000779 0.000684 -1529660.000000 1 0 0
-7.020154 4.649832 -1.965606 8.646797 -0.585011 1.800123 0.001712 -0.000954 -91656.900000 1 0 0
-7.063054 -3.873768 -5.883606 9.975451 0.501656 2.201618 0.000023 -0.005692 -131074.000000 1 0 0
3.015646 -6.181468 13.505794 15.156225 -1.116914 0.471021 0.008937 -0.009177 -1213070.000000 1 0 0
-5.529454 -0.426168 -11.419006 12.694494 0.076920 2.689476 0.004595 -0.007323 -706465.000000 1 0 0
11.826146 2.367432 -0.701706 12.081178 0.197575 1.628912 0.000230 0.000509 -123584.000000 1 0 0
6.103746 -10.996468 10.818994 16.590017 -1.064073 0.860394 -0.000198 0.006059 543770.000000 1 0 0
-8.026054 6.320232 -10.372506 14.558563 -0.667050 2.363805 0.005083 -0.007702 573176.000000 1 0 0
2.879546 7.830632 11.136594 13.915255 1.218416 0.642975 -0.003866 0.001168 1081900.000000 1 0 0
-6.173954 -10.222068 -0.506306 11.952603 1.027453 1.613168 0.005417 -0.001826 -807458.000000 1 0 0
11.308546 4.288732 6.075494 13.534699 0.362489 1.105282 -0.002664 0.002864 639079.000000 1 0 0
-7.617554 10.512932 1.743394 13.099171 -0.943758 1.437308 -0.013094 -0.000026 1050790.000000 1 0 0
4.281846 -2.722468 -3.509206 6.169325 -0.566340 2.175861 -0.000493 -0.002555 -4227420.000000 1 0 0
6.433546 6.311432 6.307794 11.000589 0.775817 0.960140 0.001021 0.000229 -5656590.000000 1 0 0
-0.262254 10.428732 -10.165406 14.565806 -1.545654 2.343251 -0.004972 0.001307 -82200.400000 1 0 0
14.161646 6.450132 -2.401206 15.745546 0.427389 1.723894 0.009963 0.003892 800477.000000 1 0 0
1.483946 9.515832 -6.208206 11.458402 1.416097 2.143378 0.001830 -0.000113 564995.000000 1 0 0
0.611746 7.334332 7.175994 10.279180 1.487580 0.798043 -0.004609 0.003386 48579.800000 1 0 0
12.156346 6.281832 1.879494 13.811976 0.476960 1.434296 0.000107 0.005515 -2522590.000000 1 0 0
-6.760554 6.735632 -3.080106 10.028005 -0.783552 1.882994 -0.000742 0.000045 879036.000000 1 0 0
0.961546 9.761932 11.098994 14.812412 1.472613 0.723786 -0.003803 -0.001550 -2218070.000000 1 0 0
-3.432754 13.773532 -10.945006 17.924484 -1.326544 2.227637 -0.000185 -0.002214 -392381.000000 1 0 0
-9.996954 -5.490368 -2.254806 11.626150 0.502232 1.765976 -0.000143 -0.001149 -914489.000000 1 0 0
-3.925754 3.893532 -12.512306 13.679508 -0.781277 2.725500 0.003679 -0.008980 -309984.000000 1 0 0
-3.233054 8.492132 2.519594 9.429597 -1.207028 1.300309 -0.003794 0.004102 -565847.000000 1 0 0
6.987046 8.796432 7.126994 13.303762 0.899538 1.005445 0.003322 0.001479 193922.000000 1 0 0
-1.421354 -2.160968 -8.145306 8.546112 0.989000 2.834117 0.004930 -0.008192 -1588320.000000 1 0 0
0.834846 -1.311868 4.736794 4.985497 -1.004056 0.317193 0.000638 -0.001277 -1733850.000000 1 0 0
2.675146 -8.814368 -6.100006 11.048057 -1.276133 2.155718 -0.005488 -0.002371 312793.000000 1 0 0
5.358846 3.888532 8.689994 10.924922 0.627720 0.651082 -0.000048 -0.001328 -442661.000000 1 0 0
6.039646 -7.659068 -2.830106 10.156188 -0.903069 1.853193 0.000936 -0.005472 822235.000000 1 0 0
1.833446 2.366932 -8.320606 8.842872 0.911731 2.796191 0.002505 -0.005595 138206.000000 1 0 0
-5.512454 10.983732 -0.703106 12.309503 -1.105650 1.627946 -0.006737 0.005492 766817.000000 1 0 0
-5.436254 3.240832 -3.442006 7.204391 -0.537585 2.068905 0.001712 0.000252 48650.400000 1 0 0
2.108146 13.726332 -6.340206 15.266129 1.418403 1.999082 -0.004957 -0.001601 545358.000000 1 0 0
-5.236954 -2.580068 2.734494 6.446696 0.457763 1.132751 -0.005569 0.000221 381054.000000 1 0 0
10.435346 -3.304268 -1.849406 11.101123 -0.306654 1.738173 0.004534 -0.005490 -329854.000000 1 0 0
2.240746 -3.269868 6.991694 8.037211 -0.970024 0.515766 -0.001301 0.000499 -1377120.000000 1 0 0
-2.799354 9.966132 -11.731606 15.645790 -1.296966 2.418594 -0.003093 0.002379 -2168440.000000 1 0 0
0.580146 -2.106568 9.415294 9.665504 -1.302059 0.228032 0.002585 -0.001259 698901.000000 1 0 0
9.459946 2.591832 5.014094 11.015867 0.267417 1.098233 -0.001142 -0.000305 -485779.000000 1 0 0
13.444146 2.118232 -5.152206 14.552567 0.156273 1.932685 0.012456 -0.004155 -1724780.000000 1 0 0
-6.493654 3.895632 7.658094 10.769860 -0.540356 0.779782 -0.001797 -0.003706 -381020.000000 1 0 0
10.495146 -0.056268 1.768694 10.643286 -0.005361 1.403842 0.001262 -0.001675 1173890.000000 1 0 0
15.465646 6.586932 -4.615006 17.431930 0.402639 1.838735 0.016914 0.000600 415323.000000 1 0 0
8.099146 -4.997468 -9.210406 13.243958 -0.552852 2.339831 0.010467 -0.001280 1517490.000000 1 0 0
4.491146 5.578132 -2.185906 7.487599 0.892932 1.867048 0.001315 -0.001673 45441.500000 1 0 0
-1.604854 -10.591968 1.505694 10.818154 1.420424 1.431161 0.000082 -0.004103 -683978.000000 1 0 0
-2.625354 12.303632 -12.908106 18.024734 -1.360569 2.369042 -0.005003 -0.004605 -468295.000000 1 0 0
8.457146 4.295432 -9.601006 13.496421 0.469952 2.362248 0.001003 -0.001572 -383416.000000 1 0 0
4.145546 7.610132 -8.928106 12.442296 1.072000 2.371090 0.001339 -0.002724 -2058600.000000 1 0 0
-1.735554 -5.021168 -2.436806 5.844852 1.238004 2.000845 0.002871 -0.002740 -446670.000000 1 0 0
-3.160054 -9.078568 7.016494 11.901156 1.235834 0.940277 0.006541 -0.001532 946417.000000 1 0 0
1.065946 7.346232 -1.412206 7.556302 1.426701 1.758793 0.003023 -0.001686 1576470.000000 1 0 0
0.319146 -0.684168 -2.245906 2.369395 -1.134328 2.817316 0.002037 -0.001589 -1146190.000000 1 0 0
4.086246 -6.677468 7.547794 10.874520 -1.021640 0.803654 -0.000577 0.001492 -949442.000000 1 0 0
-13.830754 3.922932 6.212094 15.661075 -0.276379 1.162923 -0.008594 0.004482 -556333.000000 1 0 0
4.220246 6.263432 12.677094 14.756347 0.977877 0.537299 0.000633 0.004802 -2449530.000000 1 0 0
8.383846 10.099732 -7.198206 14.970225 0.877966 2.072403 0.002886 -0.004534 620051.000000 1 0 0
12.497446 5.217332 9.586194 16.592222 0.395477 0.954824 0.004072 0.002425 77912.200000 1 0 0
7.530346 4.027832 0.329494 8.546234 0.491161 1.532232 0.002557 0.001462 -1503010.000000 1 0 0
-10.890654 -7.461568 -1.001706 13.239515 0.600680 1.646529 0.001448 0.001172 -1343660.000000 1 0 0
10.363246 6.842232 0.174994 12.419486 0.583540 1.556706 0.002864 0.003397 -1527100.000000 1 0 0
14.507246 3.628032 4.294894 15.558564 0.245058 1.291118 0.004498 0.001188 613389.000000 1 0 0
2.164846 5.647132 8.178194 10.171505 1.204722 0.636754 -0.005568 0.002036 806365.000000 1 0 0
4.299746 0.125432 11.789994 12.550200 0.029164 0.349842 0.003913 -0.002521 -366298.000000 1 0 0
-1.503654 -1.602468 -0.484606 2.250271 0.817200 1.787851 0.004123 -0.003173 -829528.000000 1 0 0
3.033046 -5.142668 -9.422906 11.155158 -1.037925 2.576825 -0.000070 -0.000939 460482.000000 1 0 0
-3.991754 -5.422668 -1.310806 6.859857 0.936235 1.763062 0.002516 -0.003567 -214569.000000 1 0 0
-1.166854 -8.674868 8.583794 12.259543 1.437089 0.795157 0.006671 -0.003004 -243136.000000 1 0 0
3.940946 8.598332 -5.944406 11.171317 1.141030 2.131891 0.004762 -0.001607 -161445.000000 1 0 0
-14.275054 -1.798268 -2.783006 14.654557 0.125313 1.761864 0.002468 -0.003245 -1343480.000000 1 0 0
8.812346 -10.639868 -6.730406 15.367583 -0.879072 2.024126 0.005968 -0.006799 733882.000000 1 0 0
14.695746 6.169432 1.753694 16.034410 0.397467 1.461206 -0.005661 0.005658 -1753590.000000 1 0 0
-5.736654 0.359732 -8.551006 10.303315 -0.062626 2.549774 0.005569 -0.010877 277345.000000 1 0 0
-8.007154 -4.393768 -12.905106 15.810170 0.501868 2.525692 0.004541 -0.008873 709228.000000 1 0 0
0.867746 -10.687368 12.059894 16.137344 -1.489780 0.726764 0.007292 -0.005886 -360791.000000 1 0 0
0.259646 11.737232 3.370794 12.214429 1.548678 1.291199 0.002939 0.001829 747961.000000 1 0 0
5.049946 -13.117668 -3.661306 14.525162 -1.203311 1.825611 0.000420 -0.000817 251374.000000 1 0 0
-7.450654 1.522632 -6.884206 10.257823 -0.201586 2.306512 0.002296 -0.005359 971610.000000 1 0 0
1.418946 2.795932 4.009194 5.089625 1.101164 0.663699 -0.004044 -0.000681 -2287790.000000 1 0 0
17.123046 5.478332 2.094794 18.099696 0.309648 1.454800 -0.004216 0.001607 -323975.000000 1 0 0
2.436046 -8.185568 -3.562106 9.253456 -1.281540 1.965949 -0.004652 -0.000886 575338.000000 1 0 0
-0.324154 -9.531768 -0.574906 9.554590 1.536802 1.631003 0.002247 -0.002154 -692897.000000 1 0 0
0.879146 11.792932 -5.450306 13.021213 1.496385 2.002668 0.003149 -0.001048 -953940.000000 1 0 0
5.940246 -5.016268 7.822394 11.029022 -0.701266 0.782355 -0.000495 -0.001099 -1399390.000000 1 0 0
-5.984654 -2.143668 -9.323206 11.284217 0.343956 2.543154 0.007504 -0.009537 -205157.000000 1 0 0
2.116846 -1.173768 11.268494 11.525525 -0.506283 0.211586 0.000119 -0.003058 -911444.000000 1 0 0
17.976846 2.285732 -6.002306 19.089768 0.126470 1.890648 0.000437 0.000033 -950759.000000 1 0 0
-8.922154 4.792632 7.844094 12.810307 -0.492933 0.911796 -0.006823 -0.004270 -441042.000000 1 0 0
11.510146 -7.067468 -4.767106 14.323333 -0.550665 1.910090 0.026353 -0.009525 412347.000000 1 0 0
10.779046 0.483832 8.856494 13.959206 0.044856 0.883493 -0.003073 -0.003679 137504.000000 1 0 0
-8.438254 -7.356868 -1.489006 11.293572 0.717042 1.703027 0.004206 -0.004528 -1655050.000000 1 0 0
10.271446 -10.497768 -3.249306 15.042065 -0.796295 1.788527 0.018128 -0.006408 -134261.000000 1 0 0
7.576346 -13.795068 -3.688706 16.165131 -1.068562 1.801014 0.010673 -0.003728 -1192800.000000 1 0 0
1.705846 -1.082368 -11.557406 11.732650 -0.565405 2.968539 0.005035 -0.007586 197496.000000 1 0 0
-11.806854 -2.546268 -6.465806 13.700070 0.212407 2.062302 0.007041 -0.004784 -227351.000000 1 0 0
2.638246 -12.146768 -6.434306 13.996593 -1.356921 2.048460 -0.006619 -0.000738 325078.000000 1 0 0
-5.522354 1.399632 1.090794 5.800448 -0.248222 1.381616 -0.001602 -0.001676 219511.000000 1 0 0
0.087346 6.814532 -3.937806 7.870946 1.557979 2.094737 0.004121 -0.001935 869443.000000 1 0 0
5.462346 -11.842168 3.530094 13.510579 -1.138616 1.306444 -0.004109 -0.003356 -2217450.000000 1 0 0
-4.363754 -9.248268 0.987894 10.273692 1.129925 1.474490 0.004160 -0.002933 -1558260.000000 1 0 0
7.112046 -6.342768 -4.672006 10.613178 -0.728285 2.026627 0.006353 -0.004482 391553.000000 1 0 0
-7.065554 -5.987468 2.272494 9.536040 0.702992 1.330175 0.001988 -0.002575 -252536.000000 1 0 0
-6.049054 -0.618268 7.128994 9.369945 0.101855 0.706195 -0.003270 -0.000825 -590634.000000 1 0 0
4.174546 -5.002168 3.154294 7.238653 -0.875342 1.119917 -0.003016 -0.001452 -707000.000000 1 0 0
-2.323454 10.581632 -8.715806 13.904483 -1.354652 2.248280 -0.001823 0.000568 -1922530.000000 1 0 0
-2.427154 -4.924568 2.880694 6.200068 1.112872 1.087588 -0.002160 0.000205 237647.000000 1 0 0
15.000746 5.162432 6.424694 17.115776 0.331449 1.186004 0.005653 -0.002251 529530.000000 1 0 0
6.754746 0.304132 0.082394 6.762092 0.044995 1.558611 0.000619 -0.003452 3299690.000000 1 0 0
-9.576754 9.236332 0.474394 13.313493 -0.767305 1.535156 -0.010969 0.001969 -1586300.000000 1 0 0
7.327046 10.401232 -2.556506 12.977171 0.957097 1.769094 0.002548 -0.001793 -647928.000000 1 0 0
1.690346 -4.231468 -5.361806 7.036445 -1.190747 2.437200 0.000041 -0.002494 -384280.000000 1 0 0
0.826646 -8.135868 -7.885106 11.360043 -1.469539 2.337977 -0.002612 0.000243 -452640.000000 1 0 0
-10.416254 0.310032 -10.326106 14.670478 -0.029755 2.351627 0.003756 -0.011543 -3596960.000000 1 0 0
5.689746 -2.524168 0.477694 6.242822 -0.417548 1.494203 0.001447 -0.002858 158401.000000 1 0 0
-3.350954 5.410532 -1.062406 6.452244 -1.016278 1.736206 -0.000545 -0.002082 583905.000000 1 0 0
-0.418954 4.519632 -5.012206 6.762012 -1.478364 2.405697 0.002141 -0.002712 -844270.000000 1 0 0
3.986346 -9.671868 10.118794 14.554243 -1.179852 0.802033 -0.003551 0.002005 -237288.000000 1 0 0
7.164746 -13.480768 -0.694706 15.282255 -1.082284 1.616270 0.010343 -0.000822 233002.000000 1 0 0
12.945946 -0.258068 0.395294 12.954551 -0.019932 1.540278 0.002579 -0.003429 898754.000000 1 0 0
9.212046 2.319332 -0.746206 9.528794 0.246645 1.649187 0.002160 0.000788 -930809.000000 1 0 0
-0.860554 -5.801268 4.504694 7.395102 1.423531 0.915813 -0.004511 0.001586 946894.000000 1 0 0
11.421046 -3.745868 3.327494 12.471730 -0.316924 1.300722 0.007525 -0.007576 -1700840.000000 1 0 0
1.731046 -8.158668 11.802994 14.452372 -1.361724 0.615158 -0.000678 -0.003253 -143717.000000 1 0 0
9.474646 -6.042968 -5.959906 12.720333 -0.567754 2.058427 0.010557 -0.006706 240476.000000 1 0 0
3.202246 6.306232 -0.122706 7.073754 1.100936 1.588144 0.000916 -0.000244 -1070920.000000 1 0 0
6.516546 -1.393268 11.444994 13.243657 -0.210633 0.527264 0.001917 -0.000935 572148.000000 1 0 0
-4.940754 -7.595768 -3.853606 9.846675 0.994097 1.972907 0.004386 -0.005993 -28284.900000 1 0 0
-3.361254 -8.461568 -5.694406 10.738828 1.192674 2.129707 0.004658 -0.002361 -1173370.000000 1 0 0
9.770846 5.309132 2.204194 11.336437 0.497735 1.375115 -0.000508 0.001914 -642722.000000 1 0 0
8.696046 -1.526468 0.315594 8.834644 -0.173766 1.535066 0.001631 -0.003489 1646270.000000 1 0 0
-3.887654 9.633132 9.250594 13.909873 -1.187215 0.843252 -0.004012 -0.001044 -217680.000000 1 0 0
-14.304154 -3.496468 -6.108006 15.941827 0.239736 1.963993 0.003513 -0.004721 55714.000000 1 0 0
10.644946 6.364632 -5.976806 13.767557 0.538875 2.019860 -0.002219 -0.003473 -590373.000000 1 0 0
-1.883054 4.579332 2.716394 5.647563 -1.180666 1.069018 -0.000275 -0.001094 204850.000000 1 0 0
6.897446 -3.710168 2.587794 8.248442 -0.493509 1.251676 0.003463 -0.005510 -1678860.000000 1 0 0
8.305146 -11.253768 -1.655806 14.084191 -0.935027 1.688634 0.009028 -0.004281 -1287650.000000 1 0 0
4.395846 0.502032 1.797694 4.775689 0.113713 1.184861 -0.000727 -0.001244 373861.000000 1 0 0
-10.769054 2.341232 3.831294 11.667592 -0.214073 1.236218 -0.004308 -0.002281 44569.700000 1 0 0
-0.940954 -3.052268 4.386494 5.426146 1.271760 0.629368 -0.001231 0.000061 190291.000000 1 0 0
8.596346 -8.796668 -8.562306 14.986381 -0.796915 2.178933 0.013101 -0.007174 -219401.000000 1 0 0
12.069546 -4.753168 0.926194 13.004783 -0.375163 1.499516 0.004840 -0.006121 551023.000000 1 0 0
2.880246 4.858732 3.398394 6.591827 1.035689 1.029151 -0.004493 0.000023 -375936.000000 1 0 0
6.065646 7.432732 1.965894 9.792973 0.886332 1.368678 0.001323 -0.000129 205954.000000 1 0 0
-1.666154 -1.278768 -10.303406 10.515298 0.654605 2.940501 0.007461 -0.009539 523357.000000 1 0 0
-0.847254 -8.615668 6.016294 10.542455 1.472773 0.963471 0.001079 -0.001617 -742280.000000 1 0 0
-4.284554 -0.234968 2.213194 4.828130 0.054786 1.094607 -0.002345 -0.000063 268819.000000 1 0 0
-8.398554 6.171432 -7.969906 13.120277 -0.633715 2.223642 0.005516 -0.004029 -999743.000000 1 0 0
6.464946 11.143432 -9.381806 15.937060 1.045095 2.200220 0.002621 -0.006507 256317.000000 1 0 0
-11.167054 -5.723168 3.101894 12.925923 0.473601 1.328457 0.001419 0.000572 178868.000000 1 0 0
1.445646 -6.407468 3.022094 7.230394 -1.348893 1.139586 -0.003349 0.001057 758230.000000 1 0 0
10.094046 2.218132 7.269594 12.635540 0.216309 0.957790 -0.003157 0.001079 -1799350.000000 1 0 0
-4.036454 -2.373468 -10.555506 11.547511 0.531555 2.724063 0.004034 -0.008785 -2491950.000000 1 0 0
-8.269654 11.848332 5.879294 15.599239 -0.961441 1.184353 -0.009438 0.003047 -899574.000000 1 0 0
6.896946 5.867232 -3.048606 9.554385 0.704900 1.895554 0.003434 0.000928 -2718180.000000 1 0 0
3.793746 -9.885868 -2.331306 10.842411 -1.204373 1.787506 -0.003508 -0.003867 -2620480.000000 1 0 0
8.304746 -12.978468 -7.325506 17.060846 -1.001564 2.014597 0.010353 -0.005311 149772.000000 1 0 0
-1.068754 9.492132 3.614494 10.213098 -1.458675 1.209050 -0.000919 0.002945 -232319.000000 1 0 0
0.535546 -13.108268 4.536294 13.881335 -1.529963 1.237890 0.003507 -0.001671 -1453540.000000 1 0 0
-11.109154 -7.021468 -5.197606 14.132566 0.563648 1.947412 0.006229 -0.004567 -19879.000000 1 0 0
3.627146 10.295832 -3.355606 11.420177 1.232080 1.869029 0.008773 -0.003428 -91784.000000 1 0 0
11.687046 -8.054068 -7.328606 15.973839 -0.603403 2.047427 0.036299 -0.008715 285408.000000 1 0 0
11.645546 -4.723568 -5.883106 13.875942 -0.385335 2.008630 0.023880 -0.008251 -112094.000000 1 0 0
1.303746 -10.308368 -2.742606 10.746352 -1.444990 1.828864 -0.006830 -0.001568 -1316790.000000 1 0 0
2.391046 -12.128268 -3.909706 12.965253 -1.376146 1.877117 -0.004509 -0.002116 -2260670.000000 1 0 0
-7.583354 -5.786068 7.162594 11.928478 0.651767 0.926718 0.000545 0.000131 -1798470.000000 1 0 0
-7.226454 -0.745368 9.437494 11.909807 0.102781 0.656040 -0.004071 0.000393 -136384.000000 1 0 0
16.119446 2.610932 -7.581706 18.003771 0.160579 2.005474 -0.001050 -0.000675 -34464.100000 1 0 0
-1.975754 6.346432 -5.539106 8.652312 -1.268989 2.265539 0.002690 0.000584 -2029440.000000 1 0 0
7.640446 1.160232 8.302294 11.342427 0.150703 0.749590 0.000667 -0.003537 -547439.000000 1 0 0
7.899846 8.223832 -3.778206 12.013069 0.805489 1.890735 0.004345 0.000206 -1069230.000000 1 0 0
8.082346 0.551932 3.941794 9.009256 0.068183 1.117950 0.001854 -0.002586 1472700.000000 1 0 0
-6.995854 5.969332 5.294094 10.611424 -0.706388 1.048461 -0.001819 -0.005114 -85342.200000 1 0 0
-6.077954 -2.123068 -4.519606 7.866116 0.336057 2.182871 0.003220 -0.005892 -1412380.000000 1 0 0
-15.110754 -2.161168 3.190094 15.594301 0.142058 1.364774 0.007144 -0.005466 -2053700.000000 1 0 0
1.080146 1.341732 -10.526506 10.666503 0.892990 2.979397 0.006194 -0.009468 373670.000000 1 0 0
1.498046 -9.280168 9.470894 13.344043 -1.410752 0.781657 -0.000673 -0.003796 -754082.000000 1 0 0
-0.358354 -6.878168 -1.269206 7.003463 1.518743 1.753029 -0.000300 0.000115 783339.000000 1 0 0
-0.603954 -10.127568 -8.364006 13.148726 1.511232 2.260240 -0.002239 0.003217 -177754.000000 1 0 0
-4.372454 6.530832 3.870294 8.760667 -0.980828 1.113214 -0.000920 0.000308 -207748.000000 1 0 0
10.724546 -1.297868 -8.621006 13.821074 -0.120433 2.244338 0.016077 -0.000361 67495.900000 1 0 0
3.052346 -1.026168 6.227794 7.011081 -0.324319 0.477212 -0.002007 -0.000267 629373.000000 1 0 0
1.987746 -12.367968 6.713094 14.212086 -1.411442 1.078840 0.004442 -0.000131 -241937.000000 1 0 0
2.828546 -5.017768 -1.290906 5.902974 -1.057491 1.791265 0.003002 0.000798 -1700150.000000 1 0 0
-1.086054 9.521432 -1.641006 9.722658 -1.457223 1.740390 0.001302 -0.001125 674165.000000 1 0 0
4.478446 -2.582668 2.642694 5.806073 -0.523102 1.098244 0.001136 -0.000523 -2034030.000000 1 0 0
17.855446 6.716232 -2.494106 19.239161 0.359774 1.700799 0.004008 0.005955 -388465.000000 1 0 0
-7.107754 3.537232 -5.448806 9.629209 -0.461772 2.172275 0.002553 -0.004117 -770259.000000 1 0 0
-13.793254 -6.013168 2.261394 15.215976 0.411109 1.421624 -0.001609 -0.000070 1186480.000000 1 0 0
6.599646 -6.125168 3.325794 9.598642 -0.748128 1.216974 -0.000169 -0.003740 1080040.000000 1 0 0
-4.694854 1.985732 3.531594 6.201366 -0.400141 0.964915 0.000829 -0.002910 288895.000000 1 0 0
6.816746 -12.007068 -5.400906 14.825906 -1.054444 1.943665 0.009377 -0.002760 673943.000000 1 0 0
2.903746 -12.353268 3.304894 13.113249 -1.339928 1.316022 0.004020 -0.005033 -534324.000000 1 0 0
3.414246 11.320632 -6.098706 13.304435 1.277877 2.046986 0.002354 -0.000341 -376587.000000 1 0 0
-5.573254 -8.371868 6.378494 11.909430 0.983455 1.005598 0.006029 0.000714 297966.000000 1 0 0
-3.993954 6.474132 6.361694 9.916512 -1.018036 0.874311 0.000130 -0.000526 342613.000000 1 0 0
4.344046 4.294032 -6.945706 9.249448 0.779608 2.420269 0.000181 -0.000383 -202396.000000 1 0 0
-0.320754 -2.673568 1.654894 3.160621 1.451395 1.019728 -0.000981 0.000226 -2379150.000000 1 0 0
-13.225854 -0.963668 6.572894 14.800500 0.072734 1.110627 0.004549 -0.003908 -52503.000000 1 0 0
-0.565354 -9.208368 -5.948306 10.977067 1.509478 2.143474 -0.001901 -0.000073 -270081.000000 1 0 0
2.061446 -1.545668 -3.946406 4.713043 -0.643372 2.563190 -0.001699 -0.000439 -639504.000000 1 0 0
11.271946 -2.083268 0.999594 11.506345 -0.182757 1.483813 0.004163 -0.005826 1044150.000000 1 0 0
0.422546 -4.290768 -1.760206 4.656990 -1.472635 1.958400 0.001141 -0.001840 -2813810.000000 1 0 0
1.051546 -7.238968 -11.178106 13.358835 -1.426543 2.562131 -0.000753 0.001311 587818.000000 1 0 0
-4.456654 4.185632 -10.023906 11.741378 -0.754048 2.593893 0.001794 -0.005989 592624.000000 1 0 0
-1.032454 5.741332 -2.095606 6.198421 -1.392870 1.915680 0.001939 -0.001057 -1971890.000000 1 0 0
-11.368254 1.772332 -3.876806 12.141169 -0.154657 1.895798 -0.001894 0.001695 -451556.000000 1 0 0
-1.738054 -11.232068 4.153494 12.100896 1.417274 1.220434 0.006067 -0.002420 -321637.000000 1 0 0
-3.593954 -5.446368 -9.589706 11.599219 0.987506 2.544110 0.002636 -0.002215 -2304910.000000 1 0 0
-12.810554 -3.715668 -8.364806 15.744410 0.282301 2.130916 0.009722 -0.002755 328378.000000 1 0 0
11.324946 4.389032 0.530494 12.157279 0.369732 1.527147 0.002368 0.004605 424459.000000 1 0 0
-8.846154 -2.419168 -3.051906 9.665451 0.266944 1.892048 0.001165 -0.002288 159184.000000 1 0 0
-2.455854 -6.023468 -6.418906 9.138694 1.183657 2.349543 0.001223 -0.003848 -528736.000000 1 0 0
0.012446 2.714632 -1.939506 3.336325 1.566211 2.191159 -0.000255 -0.003042 -1253080.000000 1 0 0
8.023546 6.082132 -5.306206 11.380925 0.648624 2.055828 0.001674 0.000248 -944399.000000 1 0 0
-9.842654 -0.954768 -0.943606 9.933771 0.096701 1.665929 -0.002978 -0.001758 508297.000000 1 0 0
6.279046 0.502032 -8.853606 10.865763 0.079784 2.523209 0.001697 -0.000028 695423.000000 1 0 0
-4.174454 2.517632 7.873194 9.260222 -0.542699 0.554400 -0.001477 -0.000900 -1007820.000000 1 0 0
-10.126954 -3.332868 1.455594 10.760202 0.317944 1.435105 -0.001516 -0.001807 2717710.000000 1 0 0
-1.932154 -8.025768 -7.888206 11.417967 1.334548 2.333473 0.003314 -0.001681 -26954.200000 1 0 0
-9.372754 -9.823068 4.049894 14.168374 0.808853 1.280913 -0.000002 0.001113 -448558.000000 1 0 0
-1.012354 -10.802268 7.325594 13.091149 1.477352 0.976913 0.007985 -0.002578 -167369.000000 1 0 0
9.493946 3.864632 -3.833706 10.943843 0.386580 1.928695 0.000667 -0.000239 -701933.000000 1 0 0
12.787846 -0.901868 2.932394 13.150715 -0.070409 1.345922 0.002821 -0.003076 617574.000000 1 0 0
6.493546 11.844032 -6.783406 15.114954 1.069294 2.036205 0.000260 -0.003376 11882.700000 1 0 0
-11.657354 -0.003768 -6.499406 13.346767 0.000323 2.079408 0.005142 -0.000759 504617.000000 1 0 0
-7.700254 -6.562168 -11.500406 15.317157 0.705771 2.420097 0.005178 -0.004487 -728743.000000 1 0 0
4.211846 5.963532 6.546694 9.806251 0.955877 0.839810 -0.004686 0.001848 -4177610.000000 1 0 0
-4.304754 -1.478768 -7.323806 8.622980 0.330890 2.585522 0.004399 -0.009357 -1149290.000000 1 0 0
9.649646 9.296032 0.869994 13.427166 0.766736 1.505957 0.004669 0.003146 -1489790.000000 1 0 0
-8.943154 4.081232 4.921694 10.993613 -0.428124 1.106620 -0.004058 -0.004922 760952.000000 1 0 0
-6.962954 7.872032 -12.146606 16.062118 -0.846601 2.428324 0.008494 -0.009579 -411741.000000 1 0 0
11.071846 -3.711168 7.147094 13.690855 -0.323420 1.021562 0.008888 -0.005109 692571.000000 1 0 0
11.810646 6.882232 6.464594 15.121093 0.527612 1.129047 -0.000421 0.000976 32086.500000 1 0 0
-10.097254 -0.455768 -14.526406 17.696856 0.045107 2.533688 0.013921 -0.008490 267715.000000 1 0 0
1.696846 -13.073668 12.072694 17.875962 -1.441727 0.829345 0.011119 -0.000329 298571.000000 1 0 0
2.912946 3.016632 13.047794 13.705118 0.802883 0.310967 0.001616 -0.003639 -1135090.000000 1 0 0
-2.639654 -1.395068 11.053694 11.449809 0.486190 0.263807 0.001253 -0.001085 -849950.000000 1 0 0
2.483846 -10.050868 -8.318606 13.281139 -1.328523 2.247655 -0.007295 0.001343 -769720.000000 1 0 0
13.853346 3.683432 -7.506606 16.181224 0.259875 2.053198 0.007117 -0.000951 -2475780.000000 1 0 0
7.373846 -1.523568 4.992094 9.034150 -0.203751 0.985339 0.001452 -0.003515 476827.000000 1 0 0
-1.352954 8.742432 10.217694 13.515246 -1.417257 0.713597 -0.001772 -0.002714 -178181.000000 1 0 0
-12.211254 -4.636568 0.983694 13.098860 0.362882 1.495628 0.001216 0.000014 69241.400000 1 0 0
-4.794054 4.802532 -5.301806 8.611412 -0.786282 2.234035 0.005829 -0.001938 -208990.000000 1 0 0
-11.219454 0.386632 1.990494 11.401214 -0.034447 1.395311 -0.003489 -0.000845 -1277490.000000 1 0 0
-1.348454 2.194932 -4.096806 4.839408 -1.019893 2.580269 0.001658 -0.004282 743520.000000 1 0 0
3.105846 -9.887368 13.240794 16.814427 -1.266434 0.664109 0.004345 -0.001077 -1332020.000000 1 0 0
8.893346 4.596832 -1.524706 10.126559 0.477064 1.721936 0.001771 0.000214 -1883750.000000 1 0 0
3.984746 2.306332 3.721794 5.920230 0.524678 0.890971 -0.004175 0.000993 460067.000000 1 0 0
-5.544354 -3.211268 7.543694 9.897445 0.524982 0.704113 -0.000352 -0.000869 -146143.000000 1 0 0
1.664746 -5.809368 7.762694 9.837660 -1.291713 0.661488 -0.002976 -0.000014 -1029390.000000 1 0 0
-5.895854 -6.247368 -9.669906 12.934364 0.814337 2.415258 0.003210 -0.004854 -1117250.000000 1 0 0
-11.724454 -5.743768 5.478694 14.158735 0.455532 1.173477 0.004411 -0.002022 -1300670.000000 1 0 0
10.514046 6.198032 4.467694 12.996964 0.532663 1.219890 0.000295 0.002781 -1971150.000000 1 0 0
1.459446 -3.667968 0.425194 3.970486 -1.192111 1.463502 0.002433 -0.000333 -312010.000000 1 0 0
8.821446 4.380132 6.900494 12.025818 0.460870 0.959650 -0.003064 0.003280 -515039.000000 1 0 0
-7.837654 12.223632 3.574394 14.954006 -1.000640 1.329434 -0.013568 0.003484 -683284.000000 1 0 0
-6.099454 13.241032 -7.037006 16.187888 -1.139123 2.020510 0.012441 -0.002926 370488.000000 1 0 0
4.452446 -6.967168 -1.000906 8.328717 -1.002149 1.691263 -0.000162 -0.003476 -1087730.000000 1 0 0
-1.894954 -8.221468 11.079794 13.926422 1.344264 0.650807 0.005268 -0.007431 -725305.000000 1 0 0
11.670946 8.902332 -5.713506 15.751402 0.651629 1.941992 0.007872 -0.001814 465501.000000 1 0 0
-3.380754 -3.049368 -1.915206 4.939246 0.733907 1.968989 0.004035 -0.004618 -2262080.000000 1 0 0
-2.030054 5.922632 4.820894 7.901880 -1.240584 0.914616 -0.002426 0.001847 911831.000000 1 0 0
0.382546 -11.385968 -5.592806 12.691181 -1.537211 2.027157 -0.004468 -0.001318 -1121400.000000 1 0 0
-8.917454 6.291032 -1.548406 11.022505 -0.614390 1.711739 -0.002103 0.001006 -643407.000000 1 0 0
2.906346 -0.020468 3.912894 4.874219 -0.007042 0.638864 -0.004420 0.000161 -882487.000000 1 0 0
-10.201354 3.993532 -1.041406 11.004565 -0.373132 1.665572 -0.001417 0.000696 118105.000000 1 0 0
6.536046 5.442932 13.613194 16.051930 0.694397 0.558460 0.006107 0.005739 -561195.000000 1 0 0
-8.749854 -1.609368 5.728394 10.581328 0.181898 0.998733 -0.004619 -0.002222 -89186.900000 1 0 0
12.932246 -1.896068 -1.633206 13.172146 -0.145578 1.695106 0.012789 -0.009969 -2348130.000000 1 0 0
5.141546 -5.528668 5.464494 9.319998 -0.821663 0.944289 -0.003775 -0.001585 182289.000000 1 0 0
-9.005954 -1.114968 3.330494 9.666568 0.123177 1.219050 -0.005811 -0.000607 703982.000000 1 0 0
1.945246 5.432432 5.565394 8.016789 1.226941 0.803464 -0.002457 0.001307 -459837.000000 1 0 0
9.275046 3.041532 -7.403206 12.250913 0.316876 2.219681 0.001613 -0.000102 -1773340.000000 1 0 0
2.235546 -2.376668 -1.474006 3.580351 -0.815986 1.995108 0.000577 -0.000503 73195.300000 1 0 0
-6.300454 0.319532 -3.861706 7.396661 -0.050672 2.120093 -0.001541 -0.002731 -2583850.000000 1 0 0
-4.087654 4.182632 5.061794 7.734668 -0.796882 0.857369 -0.001101 -0.001334 325279.000000 1 0 0
-6.356154 1.813932 -12.249706 13.919279 -0.277992 2.646771 0.001057 -0.004587 -2999750.000000 1 0 0
-0.095554 3.140632 6.300494 7.040520 -1.540381 0.462611 -0.003468 -0.000105 1196560.000000 1 0 0
-8.677654 9.394432 -2.141706 12.967032 -0.825040 1.736722 -0.007218 0.004583 505145.000000 1 0 0
-1.265054 -3.753068 -6.083906 7.259462 1.245685 2.564524 -0.000338 -0.004243 15247.800000 1 0 0
-3.263554 7.133132 -2.998306 8.397749 -1.141706 1.935890 0.001374 0.001406 843400.000000 1 0 0
6.928446 -0.426468 -4.304706 8.167970 -0.061476 2.125890 -0.000505 -0.000335 -497322.000000 1 0 0
-5.126554 -10.807068 6.874894 13.796320 1.127862 1.049144 0.001188 -0.003569 158478.000000 1 0 0
9.731546 8.436832 -1.578106 12.975883 0.714256 1.692717 0.005648 0.001652 338566.000000 1 0 0
13.722146 4.625032 -4.312706 15.109191 0.325091 1.860258 0.004960 -0.002611 701476.000000 1 0 0
4.715346 1.081632 -6.909406 8.434709 0.225485 2.530747 -0.002070 -0.000987 -1261790.000000 1 0 0
8.984246 -4.841368 3.510994 10.792711 -0.494260 1.239455 0.004409 -0.006005 -1314110.000000 1 0 0
-8.677554 -3.290468 -0.758006 9.311374 0.362442 1.652293 -0.003387 -0.000397 53561.800000 1 0 0
-8.454954 -4.227568 -10.412806 14.063609 0.463656 2.404473 0.007042 -0.009006 -150981.000000 1 0 0
10.417046 -1.154668 10.676194 14.960923 -0.110393 0.776165 -0.000771 -0.001856 1305140.000000 1 0 0
2.244246 -11.707468 9.950094 15.527583 -1.381400 0.875255 0.001652 -0.000105 847657.000000 1 0 0
-6.346754 -10.521868 1.944894 12.440804 1.028030 1.413821 0.003944 -0.002630 -1061170.000000 1 0 0
-3.647154 -1.482768 6.658394 7.735279 0.386144 0.533991 0.000673 -0.001489 -1912150.000000 1 0 0
4.611346 -7.603168 3.950294 9.730236 -1.025609 1.152744 -0.006045 0.000217 110114.000000 1 0 0
11.490546 -9.452068 -5.329706 15.804430 -0.688367 1.914768 0.025103 -0.008780 352878.000000 1 0 0
11.363246 1.080932 11.392294 16.126876 0.094840 0.786374 0.001057 0.001365 288700.000000 1 0 0
-10.300754 -3.431268 4.408094 11.717953 0.321548 1.185123 0.000618 -0.001783 1505130.000000 1 0 0
2.006846 8.771432 8.925294 12.673844 1.345874 0.789459 -0.004773 0.002511 -83522.600000 1 0 0
6.619246 8.710632 4.128294 11.693261 0.920987 1.209968 0.001147 0.001773 293167.000000 1 0 0
-4.193554 3.581032 0.410494 5.529755 -0.706775 1.496494 0.002151 -0.003358 -1703610.000000 1 0 0
4.877846 6.832132 4.256094 9.412000 0.950765 1.101567 0.000504 0.000423 -965101.000000 1 0 0
-8.237854 12.943632 1.062494 15.379491 -1.004012 1.501656 -0.012797 0.001214 -381953.000000 1 0 0
8.891546 8.192732 -9.200706 15.193204 0.744517 2.221291 -0.002035 -0.004445 -1593780.000000 1 0 0
7.009346 1.944532 5.998894 9.428620 0.270615 0.881178 -0.002145 -0.000491 -368311.000000 1 0 0
11.481446 -6.219968 2.964594 13.390311 -0.496480 1.347548 0.006963 -0.004509 -442953.000000 1 0 0
11.393546 4.680832 -2.072806 12.490781 0.389809 1.737514 0.002964 0.001100 794498.000000 1 0 0
-3.915254 14.301332 -6.058006 16.017389 -1.303575 1.958663 0.006476 0.003372 -1967230.000000 1 0 0
7.036046 -3.013068 6.913394 10.314046 -0.404606 0.836198 0.001159 -0.003986 -1718450.000000 1 0 0
-8.060754 -0.463768 0.959994 8.130954 0.057471 1.452454 -0.003843 -0.000596 272595.000000 1 0 0
-3.250954 1.078532 10.716894 11.250944 -0.320333 0.309346 -0.001250 -0.000114 -75807.100000 1 0 0
7.011446 -1.238668 -1.955306 7.383624 -0.174859 1.838810 0.004190 -0.003157 -1303140.000000 1 0 0
-7.779454 5.253132 2.911794 9.828217 -0.593926 1.270013 -0.002716 -0.001302 883184.000000 1 0 0
9.339946 -2.275968 2.785794 10.008760 -0.239023 1.288736 0.001940 -0.006121 -1589060.000000 1 0 0
0.215346 3.462632 1.597794 3.819573 1.508685 1.139204 -0.002800 -0.001583 -1984350.000000 1 0 0
-7.607254 -3.019968 3.958294 9.091678 0.377905 1.120341 -0.004063 -0.001788 225392.000000 1 0 0
-2.207454 8.474732 -6.619606 10.977847 -1.315984 2.218049 -0.001185 0.002216 -220239.000000 1 0 0
4.387146 9.722732 7.390394 12.976768 1.146924 0.964887 -0.002539 0.006094 1705350.000000 1 0 0
-11.811254 -3.168168 6.923194 14.052531 0.262064 1.055646 0.003723 -0.004754 -1501600.000000 1 0 0
-4.720254 2.284432 -5.657306 7.713918 -0.450737 2.394091 0.006100 -0.005808 -41048.200000 1 0 0
-2.683354 3.008432 -1.894506 4.454234 -0.842450 2.010119 0.003246 -0.002419 1657890.000000 1 0 0
2.322346 5.199032 11.439494 12.778312 1.150700 0.461855 0.000494 -0.003479 -39616.100000 1 0 0
-0.767854 1.718132 4.555194 4.928628 -1.150513 0.391778 -0.000546 -0.001048 -963160.000000 1 0 0
5.074646 1.548232 7.607794 9.275106 0.296121 0.608969 -0.001342 -0.000351 -349014.000000 1 0 0
3.256746 -8.261368 1.838294 9.068402 -1.195288 1.366667 -0.002980 -0.002007 2290000.000000 1 0 0
4.966846 6.447632 -4.611206 9.354397 0.914406 2.086268 0.005714 -0.001162 -3137040.000000 1 0 0
-4.001254 2.897232 -7.996106 9.399026 -0.626706 2.588184 0.006967 -0.009349 171071.000000 1 0 0
-8.666554 -1.958068 -12.928306 15.687074 0.222203 2.539474 0.005575 -0.009066 589853.000000 1 0 0
-7.866854 8.037132 1.444194 11.338808 -0.796104 1.443082 -0.003973 0.001149 -2318170.000000 1 0 0
7.357246 0.859632 -6.480506 9.842002 0.116314 2.289559 -0.001979 0.000287 464251.000000 1 0 0
9.024846 8.714732 5.475694 13.688595 0.767918 1.159259 0.000559 0.001416 362206.000000 1 0 0
9.315046 -1.080668 -1.388406 9.479747 -0.115497 1.717785 0.002923 -0.004008 1184040.000000 1 0 0
5.424446 0.137532 4.237094 6.884512 0.025349 0.907836 -0.002323 0.000603 -1424800.000000 1 0 0
-4.282054 -7.178568 -7.771606 11.413399 1.032950 2.319814 0.006510 -0.005673 -1010910.000000 1 0 0
-2.192854 7.415732 -0.535906 7.751702 -1.283286 1.639985 -0.000178 -0.000946 346845.000000 1 0 0
13.325246 -3.403268 -7.450506 15.641434 -0.250055 2.067274 0.020630 -0.004255 1208230.000000 1 0 0
-4.834054 -5.121468 1.677094 7.239486 0.814260 1.337013 -0.000111 -0.001942 178430.000000 1 0 0
-8.909454 1.416432 2.563594 9.378521 -0.157661 1.293925 -0.003917 -0.001932 -15181.800000 1 0 0
-1.080054 11.172632 10.155694 15.137118 -1.474426 0.835357 -0.005455 -0.000444 229443.000000 1 0 0
-8.493454 0.372432 7.358594 11.243948 -0.043821 0.857342 -0.004423 -0.003054 -277789.000000 1 0 0
-6.211854 12.928332 -2.088306 14.494479 -1.122883 1.715375 -0.002832 0.007425 -515770.000000 1 0 0
-12.978854 -0.825968 3.358394 13.431741 0.063554 1.318081 0.003508 -0.004093 452473.000000 1 0 0
-6.624954 12.787032 8.697894 16.824136 -1.092774 1.027467 -0.008822 0.001848 77910.800000 1 0 0
-7.945654 0.964032 -14.031106 16.153473 -0.120738 2.623191 0.003191 -0.004601 -303572.000000 1 0 0
7.224046 2.812132 3.706494 8.592615 0.371226 1.124799 -0.002198 0.001316 -15267.700000 1 0 0
-1.754854 0.736532 -1.964706 2.735336 -0.397383 2.372107 0.002734 -0.003266 775628.000000 1 0 0
-6.176554 9.625332 -10.420606 15.472099 -1.000280 2.309743 0.007638 -0.006697 -122471.000000 1 0 0
-9.989454 13.858532 5.252694 17.872853 -0.946236 1.272500 -0.018739 0.006397 924525.000000 1 0 0
-5.690654 8.175932 2.540394 10.280224 -0.962743 1.321095 -0.005090 0.001326 -1520920.000000 1 0 0
-2.463954 -10.728268 -1.179406 11.070583 1.345042 1.677534 0.000774 -0.002103 16881.200000 1 0 0
-2.286054 -12.466368 8.788094 15.422936 1.389434 0.964526 0.007961 -0.003542 681336.000000 1 0 0
-14.753654 -6.437968 -1.799206 16.197372 0.411457 1.682106 0.012424 0.003384 489151.000000 1 0 0
-2.758254 -9.371568 3.266294 10.300627 1.284557 1.248130 0.001397 -0.002951 -822042.000000 1 0 0
4.568146 -2.691668 7.521494 9.202495 -0.532459 0.614031 -0.003206 0.000396 -434278.000000 1 0 0
-14.875254 -1.260368 -0.292706 14.931422 0.084527 1.590401 -0.002161 -0.003523 -112389.000000 1 0 0
5.540246 8.774232 -2.757106 10.736997 1.007592 1.830491 0.006025 -0.000062 -415389.000000 1 0 0
-5.639154 -5.704268 8.548994 11.722799 0.791138 0.753553 0.004534 -0.000821 -4352610.000000 1 0 0
3.312446 3.531232 7.082994 8.579668 0.817356 0.599610 -0.000775 -0.000430 946638.000000 1 0 0
3.321046 2.319632 9.383194 10.220292 0.609694 0.407550 0.000478 -0.002875 690621.000000 1 0 0
9.738246 -3.201268 5.186594 11.488356 -0.317603 1.102389 0.010065 -0.006962 -1016470.000000 1 0 0
6.642246 9.890032 -5.054206 12.941297 0.979379 1.972024 0.005501 -0.004913 706060.000000 1 0 0
-4.374154 12.156932 -8.523406 15.478135 -1.225411 2.153968 0.005733 -0.004028 175183.000000 1 0 0
-3.330754 -7.190668 2.090994 8.195845 1.137016 1.312816 0.001973 -0.002124 1020080.000000 1 0 0
-7.400054 -3.947168 1.181294 8.469733 0.490007 1.430868 0.001310 -0.001852 2016420.000000 1 0 0
-2.049354 -3.948268 -10.947106 11.816421 1.092024 2.755617 0.004273 -0.005645 -668989.000000 1 0 0
-5.143954 8.219732 -4.436006 10.663133 -1.011618 1.999853 0.006353 0.002150 -1602380.000000 1 0 0
-10.875054 -3.222468 -10.203506 15.256560 0.288075 2.303383 0.009260 -0.006843 372878.000000 1 0 0
4.624646 -11.366868 -7.642706 14.456970 -1.184396 2.127808 -0.000675 -0.005572 -437620.000000 1 0 0
-9.324954 -3.964568 7.258494 12.464281 0.402003 0.949188 -0.002033 -0.001436 -308233.000000 1 0 0
-5.701254 -9.587068 -5.210606 12.311238 1.034297 2.007815 0.005517 -0.006963 211911.000000 1 0 0
4.889346 4.438932 -9.524706 11.590075 0.737151 2.535357 -0.001673 0.002625 22582.000000 1 0 0
-3.384654 -7.084968 -14.055006 16.099560 1.125128 2.632128 -0.006887 0.000225 -367640.000000 1 0 0
0.590246 -0.788868 -8.775006 8.830143 -0.928436 3.029783 0.005114 -0.009451 -334177.000000 1 0 0
-7.800054 2.259532 -2.802406 8.590681 -0.281964 1.903093 0.001527 -0.002090 135139.000000 1 0 0
-2.252654 7.533832 -12.592206 14.845765 -1.280253 2.583378 -0.003859 -0.003623 -364771.000000 1 0 0
-9.867754 8.930832 7.573194 15.312922 -0.735599 1.053465 -0.008055 -0.002978 -197320.000000 1 0 0
-10.543054 -3.023768 -14.215106 17.954620 0.279305 2.484423 0.011296 -0.006619 -854891.000000 1 0 0
-3.136854 4.864932 7.964294 9.845679 -0.998093 0.628496 -0.000385 -0.000957 -451575.000000 1 0 0
8.713146 -2.348568 -3.490706 9.675728 -0.263286 1.939889 0.003718 -0.002959 -5541650.000000 1 0 0
1.875646 -8.422468 -1.105206 8.699281 -1.351676 1.698186 -0.002304 -0.000803 -305692.000000 1 0 0
-13.583954 -2.866668 5.082494 14.784226 0.207982 1.219859 0.010139 -0.007757 168617.000000 1 0 0
6.984746 2.752432 -2.024206 7.775601 0.375378 1.834158 0.001080 -0.002069 -17310.300000 1 0 0
-11.100154 4.420732 9.090094 15.012864 -0.379004 0.920419 -0.007537 -0.000540 -3461560.000000 1 0 0
-1.769154 -2.469168 8.120294 8.669825 0.949084 0.357954 -0.000687 -0.002045 -1386030.000000 1 0 0
3.056046 11.907132 -9.870306 15.765220 1.319562 2.247314 -0.005129 -0.005688 623287.000000 1 0 0
3.552846 -4.982568 -7.072606 9.352564 -0.951362 2.428315 -0.000199 -0.003114 -165080.000000 1 0 0
8.135146 -13.829268 -9.831406 18.817168 -1.039057 2.120542 0.012082 0.003408 -114686.000000 1 0 0
-6.324854 -5.855668 -0.343606 8.626163 0.746898 1.610640 0.002159 -0.004262 -725287.000000 1 0 0
-1.178454 -4.120968 9.913194 10.800118 1.292265 0.408095 -0.001200 -0.000389 460953.000000 1 0 0
2.739646 3.276232 1.820794 4.642699 0.874358 1.167791 -0.004940 -0.000629 -614987.000000 1 0 0
-9.048954 13.526732 7.703994 18.005765 -0.981202 1.128670 -0.012438 0.002206 -105468.000000 1 0 0
3.913946 -11.112868 -0.016506 11.781981 -1.232163 1.572197 0.000034 -0.005132 -423673.000000 1 0 0
-12.558354 -1.428068 -9.147006 15.601902 0.113228 2.197249 0.008506 -0.007098 -479631.000000 1 0 0
-4.215054 0.844432 -13.438106 14.108949 -0.197720 2.831983 0.003838 -0.007172 557771.000000 1 0 0
3.885646 -3.115668 4.915794 6.997904 -0.675862 0.791939 -0.003603 0.000999 -111517.000000 1 0 0
1.673546 -1.108768 1.132394 2.304873 -0.585130 1.057210 -0.000839 0.000461 213628.000000 1 0 0
8.170246 -8.955568 7.289794 14.145537 -0.831222 1.029389 0.001518 0.003461 -1025410.000000 1 0 0
0.011246 2.276332 -6.348706 6.744470 1.565856 2.797317 0.001968 -0.005081 -1642890.000000 1 0 0
-3.767254 -9.690268 -3.346406 10.922084 1.200011 1.882194 0.003869 -0.002476 564951.000000 1 0 0
-9.419054 2.342732 -5.369106 11.092081 -0.243776 2.076072 0.001786 -0.001255 -856270.000000 1 0 0
8.982746 -7.548268 5.286994 12.869281 -0.698840 1.147440 0.002735 -0.002208 2749610.000000 1 0 0
-5.646954 -4.231168 4.697194 8.476703 0.643042 0.983479 -0.001490 -0.000703 -643366.000000 1 0 0
-0.224454 -12.472268 10.420594 16.254126 1.552802 0.874860 0.015256 -0.004346 -636213.000000 1 0 0
-14.213254 -8.322368 3.015894 16.744372 0.529716 1.389694 0.001727 -0.001634 -893764.000000 1 0 0
10.819946 -1.253368 -3.588206 11.468103 -0.115325 1.889026 0.011436 -0.004402 -608426.000000 1 0 0
-13.625054 2.873632 2.854894 14.214439 -0.207862 1.368576 -0.001777 0.001483 -1696140.000000 1 0 0
-6.335254 6.128132 0.972794 8.867681 -0.768781 1.460874 -0.001484 0.000085 476895.000000 1 0 0
7.118546 -6.891768 -0.513306 9.921373 -0.769213 1.622557 0.004167 -0.005641 453712.000000 1 0 0
-6.877754 7.889732 10.047394 14.508670 -0.853819 0.805834 -0.006803 -0.002207 173639.000000 1 0 0
-12.643354 -5.023468 -1.869306 13.732586 0.378195 1.707342 0.001059 -0.000555 -829938.000000 1 0 0
-9.366454 -5.562568 0.189994 10.895353 0.535909 1.553357 -0.001461 -0.001436 -1030920.000000 1 0 0
-1.965254 1.916232 2.237494 3.541263 -0.772769 0.886878 -0.000754 -0.001011 599274.000000 1 0 0
-7.108454 7.354632 7.608794 12.748116 -0.802418 0.931219 -0.003730 -0.003175 115435.000000 1 0 0
5.604246 7.139832 -0.483906 9.089496 0.905314 1.624059 0.003561 -0.000240 -1807220.000000 1 0 0
-0.084354 -4.054868 7.579394 8.596295 1.549996 0.491333 -0.002059 -0.000275 335686.000000 1 0 0
6.614246 0.639432 12.946894 14.552635 0.096375 0.474197 0.001813 -0.001105 149033.000000 1 0 0
5.825646 6.111632 -7.866206 11.539818 0.809351 2.320822 -0.001587 0.000241 -178042.000000 1 0 0
9.991146 5.194032 8.976494 14.400640 0.479412 0.897790 -0.004312 0.002064 -1326950.000000 1 0 0
-1.278954 -4.875568 -8.486506 9.870546 1.314257 2.605637 0.004525 -0.003905 760276.000000 1 0 0
9.924846 -3.587568 -7.895406 13.179934 -0.346859 2.213107 0.019003 -0.006161 521298.000000 1 0 0
8.261146 -5.632068 1.350494 10.089131 -0.598375 1.436537 0.004943 -0.006278 1149630.000000 1 0 0
15.736246 3.176832 -4.939706 16.796500 0.199203 1.869301 0.009417 -0.003142 -1050060.000000 1 0 0
-6.879154 3.566132 1.022894 7.815777 -0.478257 1.439544 0.000553 -0.003361 372550.000000 1 0 0
-1.760254 3.819332 0.318194 4.217468 -1.138932 1.495278 0.001047 -0.004081 -1555810.000000 1 0 0
-2.618154 10.185332 6.966594 12.614640 -1.319192 0.985721 -0.003707 0.003697 513964.000000 1 0 0
5.450746 -5.770368 -8.733506 11.801776 -0.813874 2.403891 0.002234 -0.004008 -524187.000000 1 0 0
-1.165854 -0.946868 6.305094 6.481511 0.682116 0.233850 -0.000481 -0.000561 151345.000000 1 0 0
-5.687554 4.988332 -7.799506 10.865727 -0.719996 2.371445 0.004304 -0.003750 -10428.000000 1 0 0
6.667546 -1.214468 2.475494 7.215205 -0.180171 1.220587 -0.000006 -0.002597 -1021720.000000 1 0 0
8.804446 7.497432 3.147794 11.984923 0.705394 1.305033 0.001716 0.002221 -93253.900000 1 0 0
-5.311654 -4.789968 -7.702406 10.511161 0.733800 2.393200 0.006075 -0.008719 1445520.000000 1 0 0
-2.052454 8.011632 -10.184406 13.119487 -1.320006 2.459541 -0.004574 -0.000454 290335.000000 1 0 0
-2.815354 -2.212468 1.714294 3.969891 0.666058 1.124282 -0.003596 0.001434 -356057.000000 1 0 0
5.955946 -2.115468 -9.252206 11.204991 -0.341287 2.542277 0.001493 -0.000429 829275.000000 1 0 0
1.194346 -7.539568 5.156894 9.212226 -1.413691 0.976666 -0.004422 0.000722 349997.000000 1 0 0
1.783646 12.161532 1.252394 12.355272 1.425172 1.469257 0.006228 -0.005997 354399.000000 1 0 0
-1.081354 7.077832 2.503494 7.585019 -1.419188 1.234432 -0.000875 0.002298 658393.000000 1 0 0
8.744746 7.873032 -6.665206 13.523320 0.732989 2.086179 0.002362 -0.004584 16176.400000 1 0 0
3.782046 -11.137168 5.498094 12.983429 -1.243427 1.133524 0.001912 0.001992 780075.000000 1 0 0
8.076046 -7.177968 12.367394 16.422490 -0.726591 0.718070 0.010762 -0.006990 257023.000000 1 0 0
-8.659554 0.018632 -3.973206 9.527570 -0.002152 2.000963 0.002311 -0.002042 -827687.000000 1 0 0
-3.356654 -5.014168 11.197794 12.720047 0.980880 0.494246 0.003488 -0.002865 57816.600000 1 0 0
-8.270354 0.281332 -11.506606 14.173210 -0.034004 2.518120 0.001125 -0.008445 -2016120.000000 1 0 0
1.345246 -5.024468 5.343394 7.456998 -1.309193 0.771937 -0.002486 0.002470 -633266.000000 1 0 0
6.728946 3.670532 -7.805806 10.939933 0.499369 2.365299 -0.002313 0.001653 1075590.000000 1 0 0
16.288446 4.182232 -1.400306 16.874994 0.251331 1.653873 0.001719 0.006314 66982.600000 1 0 0
7.938146 7.451132 0.080994 10.887612 0.753762 1.563357 0.003865 -0.000533 -2548810.000000 1 0 0
5.429946 -10.343068 14.043394 18.266918 -1.087362 0.693852 0.004406 -0.004258 -349511.000000 1 0 0
-5.180554 -9.246268 8.942794 13.867414 1.060090 0.869932 0.003064 -0.006598 473991.000000 1 0 0
-12.632554 -3.244968 2.844094 13.349161 0.251437 1.356097 0.002149 -0.002389 -89236.900000 1 0 0
-2.168254 -1.373868 -5.799906 6.342535 0.564780 2.724933 0.004807 -0.007748 -1209020.000000 1 0 0
-2.386654 12.997132 -4.357406 13.914329 -1.389190 1.889315 -0.000747 0.005157 475498.000000 1 0 0
3.973146 -0.410068 -4.985506 6.388217 -0.102846 2.466137 -0.001094 -0.001298 -513054.000000 1 0 0
-8.785054 3.811532 -7.392106 12.097445 -0.409356 2.228179 0.003698 -0.003352 486622.000000 1 0 0
-4.426854 8.001432 -11.326106 14.556807 -1.065455 2.462372 0.003836 -0.003293 -1461270.000000 1 0 0
-10.130054 -6.432568 7.324994 14.058857 0.565757 1.022747 0.000426 -0.001912 -1536340.000000 1 0 0
8.071246 5.160432 4.071494 10.409233 0.568859 1.168924 -0.002216 0.002321 -913058.000000 1 0 0
-6.780154 -7.617568 3.980694 10.947317 0.843496 1.198642 0.005041 -0.001318 -311525.000000 1 0 0
-4.068754 11.812232 8.256894 14.975309 -1.239072 0.986794 -0.005776 0.003597 75315.600000 1 0 0
-7.191354 10.041532 -8.030806 14.732338 -0.949306 2.147322 0.010781 -0.004946 -1680600.000000 1 0 0
13.038446 5.624332 4.566794 14.916092 0.407250 1.259634 -0.000515 0.002047 787952.000000 1 0 0
5.326146 3.942732 -3.808506 7.643147 0.637238 2.092422 0.000703 -0.000037 490000.000000 1 0 0
-2.928554 -4.192768 5.243194 7.324398 0.961093 0.772951 -0.000341 0.000634 -777673.000000 1 0 0
12.317746 -2.416768 -5.187506 13.582263 -0.193741 1.962683 0.018815 -0.007096 -1705250.000000 1 0 0
-5.295954 9.832632 7.184594 13.279540 -1.076740 0.999138 -0.005900 0.002187 -1482510.000000 1 0 0
1.726346 3.831432 -0.488206 4.230661 1.147465 1.686451 -0.004292 -0.002953 504795.000000 1 0 0
-0.150354 9.616632 7.700494 12.320707 -1.555163 0.895659 -0.003724 0.003708 -1090780.000000 1 0 0
-5.666054 2.195432 5.898594 8.468618 -0.369659 0.800255 -0.000806 -0.003356 723182.000000 1 0 0
8.822446 0.979132 10.662894 13.874133 0.110530 0.694233 -0.003351 -0.000300 -1246260.000000 1 0 0
0.393846 -2.888168 -10.124206 10.535472 -1.435267 2.861261 0.003934 -0.006070 -1617800.000000 1 0 0
1.267646 10.677532 -2.675106 11.080289 1.452629 1.814635 0.006917 -0.002733 2136040.000000 1 0 0
2.321146 -4.276968 11.720794 12.690831 -1.073569 0.393523 0.000062 -0.001942 39407.200000 1 0 0
6.497546 -3.065868 9.431994 11.856651 -0.440875 0.650960 0.001399 -0.004239 489589.000000 1 0 0
-10.626954 -8.231968 5.482594 14.517447 0.659080 1.183533 0.002111 -0.001108 -552432.000000 1 0 0
-2.953854 0.785932 -6.896806 7.543797 -0.260045 2.724413 0.007567 -0.007509 863665.000000 1 0 0
11.011046 2.528532 -5.144306 12.413722 0.225723 1.998085 0.002943 -0.000646 -3121020.000000 1 0 0
-2.022354 -4.061668 0.114594 4.538743 1.108820 1.545546 0.000810 -0.001980 1174340.000000 1 0 0
-1.358554 -6.394768 -10.637706 12.485973 1.361461 2.590538 0.000397 -0.000177 152707.000000 1 0 0
0.351446 6.814532 -6.570806 9.472954 1.519269 2.337324 0.002164 0.001070 -2877270.000000 1 0 0
2.011346 3.863132 -6.121506 7.512798 1.090764 2.523198 0.000850 -0.002244 -1892440.000000 1 0 0
1.680346 -14.736768 6.280994 16.107352 -1.457263 1.170224 0.014021 -0.003110 -122165.000000 1 0 0
-1.763254 5.479232 -10.518806 11.990677 -1.259455 2.640897 0.001642 -0.001757 -37382.500000 1 0 0
13.619246 4.242532 -0.802406 14.287295 0.301983 1.626988 0.004775 0.003153 -1755170.000000 1 0 0
-2.338654 3.286032 -6.211806 7.406338 -0.952264 2.565715 0.004508 -0.004848 -1760780.000000 1 0 0
5.637846 7.741832 14.238194 17.159471 0.941373 0.592124 0.004712 0.003539 589294.000000 1 0 0
15.891546 0.699932 -5.788906 16.927569 0.044016 1.919820 0.009019 -0.006986 93985.400000 1 0 0
6.241546 -8.379868 10.703594 14.958142 -0.930615 0.773357 0.001736 0.001789 50617.200000 1 0 0
0.151446 -5.808468 -6.432606 8.668313 -1.544729 2.406969 -0.001002 -0.002232 -775622.000000 1 0 0
8.786946 5.494932 -7.621706 12.864490 0.558852 2.204906 -0.001194 0.000452 -312984.000000 1 0 0
-16.066554 -0.829468 5.359194 16.957097 0.051581 1.249239 0.011681 -0.010310 -18137.400000 1 0 0
-0.308154 4.031332 -12.285006 12.933212 -1.494505 2.823650 0.003644 -0.005353 752688.000000 1 0 0
-11.271454 3.661832 5.897694 13.237729 -0.314120 1.109040 -0.001317 -0.003824 -983826.000000 1 0 0
5.063946 -9.875768 -9.648706 14.706185 -1.096989 2.286434 -0.002051 0.001550 -623073.000000 1 0 0
1.597646 11.121032 -11.717406 16.233528 1.428113 2.377200 -0.004558 -0.001189 -2878950.000000 1 0 0
5.919046 2.343532 1.150394 6.469209 0.376993 1.392019 0.000630 -0.000708 -111462.000000 1 0 0
5.655646 4.425032 4.875994 8.680009 0.663923 0.974297 -0.001963 -0.000189 -264540.000000 1 0 0
0.349046 -1.553068 -6.335406 6.532321 -1.349723 2.895432 0.003785 -0.005724 286753.000000 1 0 0
12.783546 6.901732 -4.519506 15.214431 0.495050 1.872402 0.006449 -0.000110 -178851.000000 1 0 0
7.432246 3.191432 12.722694 15.076156 0.405594 0.566294 -0.000761 0.001552 -447119.000000 1 0 0
-2.603354 -0.174168 8.619594 9.005842 0.066802 0.293934 0.001510 -0.001661 645572.000000 1 0 0
2.456446 -15.168968 13.323394 20.338253 -1.410251 0.856494 0.019705 -0.004062 371730.000000 1 0 0
18.870846 4.525032 -1.661106 19.476756 0.235346 1.656187 0.004924 0.002976 467990.000000 1 0 0
-0.329454 -13.274168 7.065594 15.041100 1.545982 1.081786 0.002554 0.000780 -1161890.000000 1 0 0
4.359846 1.497532 -0.620606 4.651453 0.330857 1.704617 -0.000395 -0.002097 544613.000000 1 0 0
2.674446 -0.375468 -7.394206 7.871971 -0.139479 2.791404 0.001264 -0.003335 367710.000000 1 0 0
7.217546 -11.253368 0.828894 13.394713 -1.000513 1.508875 0.000450 -0.003188 216628.000000 1 0 0
-11.809354 -7.383268 1.353294 13.993030 0.558747 1.473933 0.002136 0.003419 -225866.000000 1 0 0
0.128446 -7.021268 10.040194 12.252355 -1.552504 0.610345 0.000082 -0.002395 -1483080.000000 1 0 0
-4.585854 -7.248268 10.565594 13.608792 1.006691 0.681895 0.005218 -0.003181 -1645040.000000 1 0 0
11.816146 0.710532 -1.742906 11.965111 0.060060 1.716982 0.003027 -0.002830 2193850.000000 1 0 0
6.455546 -9.635268 -7.510106 13.817169 -0.980496 2.145438 0.000650 -0.005098 193512.000000 1 0 0
-10.999254 4.917232 3.552994 12.561310 -0.420399 1.284030 -0.005944 -0.002429 -661927.000000 1 0 0
5.942046 -9.168168 2.052494 11.116472 -0.995746 1.385095 -0.004178 -0.002241 2642200.000000 1 0 0
11.521746 -1.386768 5.895694 13.016642 -0.119785 1.100742 0.006764 -0.005629 -517141.000000 1 0 0
-6.549754 3.693332 4.154294 8.590584 -0.513444 1.066048 -0.001684 -0.002815 -1192380.000000 1 0 0
9.575846 6.300432 -3.258606 11.916828 0.581944 1.847770 0.005138 0.000071 1564020.000000 1 0 0
-2.233654 6.387932 10.950094 12.872430 -1.234418 0.553552 0.001149 -0.004197 471652.000000 1 0 0
1.763946 9.836532 2.742094 10.362816 1.393356 1.302998 0.002030 0.002482 82833.300000 1 0 0
2.851146 6.144032 -5.573106 8.771412 1.136319 2.259286 -0.000574 -0.000987 -2414670.000000 1 0 0
11.981646 0.020632 -5.579306 13.216994 0.001722 2.006591 0.012705 -0.003541 356457.000000 1 0 0
-2.608054 -12.466568 6.234894 14.180662 1.364567 1.115559 0.006375 -0.001460 262993.000000 1 0 0
10.812846 1.824332 -2.804906 11.318716 0.167145 1.821217 0.002060 -0.001948 50449.100000 1 0 0
-8.844554 5.197932 0.782494 10.288679 -0.531325 1.494669 -0.003842 -0.000400 -379915.000000 1 0 0
1.270146 -10.113068 5.648994 11.653263 -1.445856 1.064712 -0.001813 -0.000539 -196569.000000 1 0 0
9.415246 -5.642668 -1.062306 11.027922 -0.539913 1.667275 0.008631 -0.006670 -568981.000000 1 0 0
-7.780454 8.590732 -4.555306 12.453391 -0.834852 1.945276 0.000890 0.001495 254904.000000 1 0 0
-7.495954 -0.088268 -1.581506 7.661480 0.011775 1.778714 -0.001733 -0.000751 -920106.000000 1 0 0
4.088546 8.783232 2.819794 10.090224 1.135132 1.287567 0.003605 -0.000113 424646.000000 1 0 0
-1.358954 -10.521768 -3.671206 11.226402 1.442351 1.903940 0.000594 -0.001534 -538738.000000 1 0 0
3.087246 7.877032 -3.632106 9.207112 1.197266 1.976308 0.006344 -0.003212 105175.000000 1 0 0
-4.189154 1.675532 -11.079706 11.963123 -0.380480 2.754883 0.004307 -0.007971 -577701.000000 1 0 0
1.302746 2.828232 10.991194 11.423764 1.139144 0.276070 0.001936 -0.003148 462650.000000 1 0 0
2.186546 5.630932 -7.998406 10.023117 1.200408 2.494759 -0.000517 -0.000998 -347800.000000 1 0 0
15.628146 6.018732 4.113094 17.244757 0.367614 1.329962 0.004893 -0.000168 200003.000000 1 0 0
-4.498854 9.052632 4.696694 11.146693 -1.109579 1.135859 -0.001955 0.001689 354629.000000 1 0 0
-0.987254 -8.167068 -12.392606 14.874554 1.450498 2.555560 0.000629 0.003092 -10037.800000 1 0 0
14.233746 -4.245568 -5.295706 15.769239 -0.289873 1.913277 0.018390 -0.007163 -139379.000000 1 0 0
-6.036854 -6.132368 -5.608606 10.271611 0.793247 2.148414 0.004795 -0.006741 471358.000000 1 0 0
-8.850254 2.657432 -12.207706 15.310683 -0.291701 2.493659 0.006055 -0.006233 -102419.000000 1 0 0
10.540846 5.360532 13.774194 18.154150 0.470463 0.709427 -0.000015 0.004034 440492.000000 1 0 0
-0.536554 10.952232 5.560494 12.294648 -1.521845 1.101488 -0.002520 0.005217 517623.000000 1 0 0
0.376746 11.252532 -0.527306 11.271179 1.537328 1.617597 0.006923 -0.001548 389292.000000 1 0 0
-1.507554 -0.510368 3.757494 4.080681 0.326430 0.400668 -0.001178 0.000683 422395.000000 1 0 0
-4.823954 6.766732 8.939994 12.205846 -0.951470 0.748904 -0.001188 -0.004202 -1480760.000000 1 0 0
3.340146 -8.701568 -11.335806 14.675638 -1.204284 2.453444 -0.006313 0.003105 1268580.000000 1 0 0
6.817746 -3.849768 12.007194 14.334402 -0.514035 0.577832 0.014581 -0.006250 -533408.000000 1 0 0
-2.518954 -1.784268 -12.499006 12.874544 0.616299 2.899469 0.001843 -0.008990 1002870.000000 1 0 0
-16.126854 -5.038468 5.408894 17.740285 0.302819 1.260970 0.010969 -0.009141 840532.000000 1 0 0
-9.016354 7.242732 5.923494 12.993829 -0.676743 1.097447 -0.014423 -0.002634 -3392260.000000 1 0 0
-12.880654 1.495032 6.083294 14.323157 -0.115551 1.132147 -0.001167 -0.002717 399823.000000 1 0 0
-3.432154 3.602832 10.118394 11.275725 -0.809655 0.457044 -0.000953 -0.001801 539393.000000 1 0 0
1.940246 -12.336468 -1.195906 12.545246 -1.414797 1.666269 0.000138 -0.002775 -2201250.000000 1 0 0
10.105046 -5.217468 -3.571006 11.919984 -0.476621 1.875050 0.019232 -0.004839 904703.000000 1 0 0
3.077246 -13.425368 0.972694 13.807827 -1.345477 1.500293 0.003722 -0.005753 401353.000000 1 0 0
10.007846 -1.621468 -6.136506 11.850859 -0.160624 2.115087 0.013408 -0.002752 817090.000000 1 0 0
11.916646 -5.314368 -1.644006 13.151111 -0.419491 1.696133 0.016114 -0.007269 63811.500000 1 0 0
1.428146 1.006332 5.812094 6.068999 0.613835 0.292002 -0.001005 -0.000913 90807.100000 1 0 0
-10.652954 11.727832 6.556294 17.146791 -0.833388 1.178444 -0.012811 -0.000756 -913239.000000 1 0 0
4.753246 -14.123968 2.968594 15.195143 -1.246165 1.374167 0.007635 -0.003661 -2542350.000000 1 0 0
5.269446 -3.564668 -1.748406 6.597791 -0.594765 1.838999 0.001807 -0.001380 -1154230.000000 1 0 0
2.035346 -2.830568 -7.655106 8.411623 -0.947393 2.714232 0.000445 -0.003397 -280601.000000 1 0 0
-2.696154 14.920532 -8.775006 17.518340 -1.392025 2.095439 0.006141 -0.005543 -2399490.000000 1 0 0
-2.227054 6.237032 -8.159006 10.508554 -1.227837 2.459755 0.004195 -0.001845 80489.500000 1 0 0
2.509746 -3.491068 -11.412706 12.195747 -0.947495 2.781301 0.002874 -0.002278 -1111840.000000 1 0 0
14.541146 2.703632 -2.763206 15.046258 0.183831 1.755492 0.006510 0.001814 737015.000000 1 0 0
-3.466554 13.257932 2.133494 13.868726 -1.315052 1.416348 -0.009920 0.004805 -116308.000000 1 0 0
7.905246 -5.117868 13.994394 16.867974 -0.574546 0.592329 0.010557 -0.011602 -1601780.000000 1 0 0
-11.644854 7.290232 2.851594 14.031454 -0.559352 1.366142 -0.015554 0.001037 842004.000000 1 0 0
-2.367254 11.908332 3.930394 12.761671 -1.374565 1.257723 -0.005303 0.004823 1126790.000000 1 0 0
1.687346 1.498332 0.628694 2.342518 0.726135 1.299081 -0.004661 -0.000745 -1189230.000000 1 0 0
-7.000454 8.729732 5.367494 12.410663 -0.894892 1.123543 -0.006299 -0.001235 -48685.200000 1 0 0
-1.204954 9.187532 1.003794 9.320422 -1.440390 1.462889 -0.000088 0.002574 7577.460000 1 0 0
4.932146 12.907532 -8.437906 16.190389 1.205804 2.119015 -0.002213 -0.011173 -3524060.000000 1 0 0
8.886846 6.854032 7.128494 13.295459 0.656967 1.004915 -0.005848 0.001025 -1934860.000000 1 0 0
7.219546 -13.875568 2.819294 15.893447 -1.091036 1.392465 0.009127 -0.000221 1181270.000000 1 0 0
4.128746 -13.396968 -1.310006 14.079823 -1.271847 1.663972 -0.000573 0.001048 -3015780.000000 1 0 0
12.076046 -11.815968 -4.538506 17.494171 -0.774513 1.833228 0.022898 -0.008762 -900762.000000 1 0 0
2.865346 -0.039368 -1.916206 3.447260 -0.013738 2.160198 0.000466 -0.003037 689297.000000 1 0 0
-13.438254 -3.396068 -10.748506 17.539963 0.247534 2.230396 0.007397 -0.012129 285790.000000 1 0 0
-6.579354 13.694032 5.064194 16.014383 -1.122907 1.249046 -0.007842 0.000748 -416458.000000 1 0 0
7.337946 -4.265068 -0.583606 8.507459 -0.526507 1.639450 0.004233 -0.003291 -1287470.000000 1 0 0
11.765346 1.963232 -7.321106 13.995580 0.165342 2.121282 0.011260 -0.003700 280189.000000 1 0 0
-7.490154 -4.560568 9.637294 13.029912 0.546920 0.738278 0.004323 0.001159 -36604.800000 1 0 0
0.984746 2.684032 8.509294 8.976739 1.219154 0.324133 0.000558 -0.001764 -2039590.000000 1 0 0
1.657246 8.070232 -8.659606 11.952568 1.368259 2.381101 0.001522 -0.001295 365614.000000 1 0 0
-8.613754 -2.033668 -5.642106 10.495995 0.231850 2.138323 0.003547 -0.005855 -2357110.000000 1 0 0
6.594946 -0.532068 7.083294 9.692753 -0.080504 0.751329 -0.000849 -0.002409 -447390.000000 1 0 0
-10.913854 6.563132 7.341594 14.699861 -0.541417 1.047852 -0.005863 -0.000810 -326925.000000 1 0 0
-5.924054 11.055732 4.961494 13.488515 -1.078893 1.194121 -0.009924 0.002532 492728.000000 1 0 0
6.011946 -1.202568 -6.915806 9.242188 -0.197424 2.416272 0.000209 -0.000137 -484080.000000 1 0 0
4.509146 -5.774968 11.469394 13.609910 -0.907867 0.568474 0.007522 -0.005442 -1363170.000000 1 0 0
-9.049654 -7.357168 2.549594 11.938366 0.682604 1.355576 0.000623 0.000521 -1951060.000000 1 0 0
-1.220754 12.786232 -9.335606 15.878649 -1.475611 2.199299 0.004280 -0.000369 283585.000000 1 0 0
-4.688654 9.215232 -2.207406 10.572446 -1.100138 1.781132 -0.004076 0.001871 360264.000000 1 0 0
-3.332854 9.618932 -0.140706 10.180941 -1.237253 1.584617 -0.001696 0.001353 -944113.000000 1 0 0
-3.346254 10.810132 -6.416206 13.008615 -1.270603 2.086592 0.005590 0.002642 68541.900000 1 0 0
4.846646 -4.912768 0.348194 6.909885 -0.792173 1.520384 0.000323 -0.002284 -1193320.000000 1 0 0
-2.166554 2.968532 -10.904506 11.507145 -0.940323 2.816525 0.005096 -0.006034 -2501870.000000 1 0 0
-3.669354 12.117132 -2.237106 12.856659 -1.276751 1.745690 -0.006123 0.005495 -520278.000000 1 0 0
-0.294154 0.393432 0.111294 0.503688 -0.928794 1.347999 -0.002467 0.000064 -2833180.000000 1 0 0
-4.796654 -1.782768 0.132194 5.118947 0.355847 1.544969 -0.002086 -0.000097 -8352.680000 1 0 0
2.669646 2.554232 -2.403306 4.407606 0.763308 2.147500 -0.010132 -0.002612 552574.000000 1 0 0
6.055046 -9.752668 8.557294 14.318010 -1.015179 0.930218 -0.001665 0.005552 -592370.000000 1 0 0
-4.355254 -5.419368 6.641094 9.614672 0.893836 0.808305 -0.000505 -0.001668 -21005.300000 1 0 0
-6.185254 5.382832 -12.036406 14.563904 -0.716144 2.543577 0.004308 -0.007176 496645.000000 1 0 0
-12.793254 3.026732 8.082094 15.432067 -0.232316 1.019584 -0.005119 -0.001542 502053.000000 1 0 0
4.680146 -7.495668 -5.036106 10.171095 -1.012643 2.088791 -0.002271 -0.004030 589363.000000 1 0 0
-5.900854 2.482732 -1.078406 6.492071 -0.398258 1.737681 -0.000568 -0.002482 -503587.000000 1 0 0
-6.725354 -2.634068 -14.512606 16.210627 0.373298 2.679794 -0.000027 -0.000778 -252776.000000 1 0 0
2.720846 -6.148368 0.941594 6.789111 -1.154171 1.431656 -0.001296 0.000903 -376249.000000 1 0 0
4.804146 -7.976868 12.969494 15.966152 -1.028717 0.622691 0.007650 -0.007285 -373146.000000 1 0 0
-10.002654 -1.608668 8.087294 12.963226 0.159459 0.897119 -0.000908 0.000467 -254913.000000 1 0 0
-4.616754 13.368532 -0.173106 14.144329 -1.238275 1.583035 -0.010251 0.006068 473529.000000 1 0 0
6.722846 2.188432 -4.539306 8.401857 0.314704 2.141559 -0.001652 0.000857 -932891.000000 1 0 0
5.009646 4.462732 -0.030006 6.709205 0.727724 1.575269 -0.000050 -0.002736 -1056340.000000 1 0 0
-5.776154 12.348132 1.967194 13.773531 -1.133259 1.427482 -0.011552 0.005452 281312.000000 1 0 0
6.529746 -7.249468 6.505794 11.726795 -0.837583 0.982698 -0.002826 -0.000626 -918425.000000 1 0 0
-0.307054 4.861632 7.772994 9.173286 -1.507722 0.559819 -0.002781 0.000659 -1352140.000000 1 0 0
-5.820254 -3.504168 -1.575406 6.973984 0.541936 1.798661 0.001572 -0.002855 -1105230.000000 1 0 0
2.306446 -6.540168 -5.258006 8.702880 -1.231755 2.219518 -0.001383 -0.001802 -621891.000000 1 0 0
-14.327254 -4.722368 -3.768206 15.548966 0.318393 1.815578 0.007712 -0.001697 -444749.000000 1 0 0
-12.332254 -5.108368 -6.416906 14.810692 0.392712 2.018905 0.007517 -0.007318 -2455540.000000 1 0 0
-14.869754 -3.778568 -1.253106 15.393421 0.248844 1.652292 0.008974 -0.001374 116561.000000 1 0 0
11.912946 2.851632 8.745694 15.051155 0.234952 0.950760 0.001513 -0.001720 -1889700.000000 1 0 0
8.678346 -6.384168 7.662794 13.220806 -0.634249 0.952557 0.003237 -0.003335 -28918.200000 1 0 0
-8.749454 -1.693868 -9.809006 13.252876 0.191231 2.404077 0.004462 -0.011266 -534223.000000 1 0 0
-8.820554 5.119732 -3.823506 10.891879 -0.525907 1.929480 0.002392 -0.000390 86469.700000 1 0 0
-4.211354 -6.303468 4.214894 8.673785 0.981801 1.063364 0.000373 -0.001674 -1062820.000000 1 0 0
-0.083054 -9.339868 3.567094 9.998209 1.561904 1.205985 -0.001560 -0.003252 1299170.000000 1 0 0
7.873746 -10.444468 3.328794 13.496802 -0.924825 1.321589 -0.000851 -0.000652 199057.000000 1 0 0
0.010246 6.555932 9.575994 11.605172 1.569233 0.600331 -0.003904 -0.002602 442867.000000 1 0 0
-0.010954 3.560532 -9.705306 10.337818 -1.567720 2.789972 0.005366 -0.005352 747079.000000 1 0 0
4.584246 -3.175068 11.094694 12.417270 -0.605745 0.465741 0.003155 -0.003081 -1558640.000000 1 0 0
8.512946 -9.123968 1.325694 12.548885 -0.820029 1.464956 0.003463 -0.004502 -1426610.000000 1 0 0
-0.328454 -0.476568 11.337894 11.352658 0.967351 0.051005 0.005178 -0.001810 -1584670.000000 1 0 0
10.880246 5.908932 11.387494 16.821720 0.497521 0.827183 -0.003365 0.000783 -271884.000000 1 0 0
-6.315654 -2.886668 -11.824906 13.713086 0.428714 2.610607 0.004641 -0.007735 285487.000000 1 0 0
-1.642954 2.776832 8.514394 9.105218 -1.036528 0.362223 0.001823 -0.001737 -468638.000000 1 0 0
-1.594754 13.571032 -6.828106 15.275444 -1.453821 2.034204 0.006765 0.000111 375707.000000 1 0 0
7.614346 3.049832 9.805794 12.784105 0.380970 0.696597 -0.000860 0.000692 -280123.000000 1 0 0
6.555346 8.455132 -7.928906 13.316508 0.911293 2.208584 0.002916 -0.001360 -714647.000000 1 0 0
6.603146 -3.073668 -3.962806 8.291731 -0.435657 2.069085 0.004325 -0.002988 -1888950.000000 1 0 0
2.055746 8.212932 1.017194 8.527194 1.325530 1.451223 0.001923 0.001321 922132.000000 1 0 0
-17.595454 6.184832 6.159294 19.641513 -0.338012 1.251830 0.013619 -0.006627 -165620.000000 1 0 0
-14.557654 3.054332 -10.157006 18.011635 -0.206810 2.169913 0.017028 -0.008949 -543205.000000 1 0 0
-18.287654 0.202032 -4.354406 18.799999 -0.011047 1.804536 0.018579 -0.001528 186685.000000 1 0 0
-12.979254 8.008532 0.157894 15.251968 -0.552844 1.560444 -0.007521 0.006628 -1017020.000000 1 0 0
-13.004754 -4.034768 -13.329206 19.054414 0.300837 2.345541 0.026532 0.004642 -1013850.000000 1 0 0
-17.269854 -0.585068 -8.624706 19.312579 0.033865 2.033741 0.012349 -0.010360 -172806.000000 1 0 0
-16.619554 -2.056968 -2.029406 16.868882 0.123142 1.691393 0.007222 -0.004322 -1072560.000000 1 0 0
-15.310454 4.062332 1.789294 15.940957 -0.259355 1.458314 0.000845 0.004541 -791830.000000 1 0 0
-13.187754 5.895532 4.472094 15.121963 -0.420395 1.270571 -0.005984 -0.001383 -39818.700000 1 0 0
-9.869954 14.201532 2.759394 17.513245 -0.963439 1.412577 -0.010680 -0.004952 -584105.000000 1 0 0
-11.709954 2.531832 -6.496606 13.628612 -0.212934 2.067680 -0.003440 0.003670 568030.000000 1 0 0
-15.769354 10.699132 3.832694 19.437939 -0.596134 1.372320 -0.001943 -0.005894 -82588.600000 1 0 0
-12.714254 1.037532 -8.508506 15.333734 -0.081423 2.159025 0.008549 -0.007889 587991.000000 1 0 0
-12.102354 14.583232 3.872194 19.342479 -0.878099 1.369243 -0.002749 -0.006878 -972879.000000 1 0 0
-10.237354 11.148932 -0.949006 15.165840 -0.827997 1.633412 -0.008599 0.004958 317956.000000 1 0 0
-17.149954 5.583332 8.748594 20.045758 -0.314738 1.119168 0.020890 -0.008088 630644.000000 1 0 0
-11.678754 12.530332 -9.198206 19.442466 -0.820560 2.063601 0.017844 -0.010513 -1336860.000000 1 0 0
-17.245154 -0.570268 3.193394 17.547601 0.033056 1.387792 0.014280 -0.005133 573749.000000 1 0 0
-12.911654 14.947532 -0.715906 19.764919 -0.858346 1.607025 0.008050 -0.006516 -185597.000000 1 0 0
-16.373654 4.881232 -10.564206 20.087942 -0.289727 2.124567 0.015403 -0.001601 781990.000000 1 0 0
-11.829054 7.708232 -8.986106 16.735993 -0.577524 2.137594 -0.003052 -0.005311 -110453.000000 1 0 0
-14.609654 13.621932 -2.024006 20.077241 -0.750426 1.671779 0.020775 -0.007666 498390.000000 1 0 0
-11.895254 10.557332 -5.536206 16.840543 -0.725880 1.905768 0.013495 0.002373 1801180.000000 1 0 0
-17.711054 2.919332 -0.758106 17.966041 -0.163362 1.613005 0.009649 0.004429 -714403.000000 1 0 0
-9.173154 15.312132 0.645994 17.861283 -1.031055 1.534621 -0.011088 -0.002359 80641.200000 1 0 0
-8.073554 13.328232 -3.839506 16.048858 -1.026161 1.812378 -0.003241 0.006531 -1803200.000000 1 0 0
-17.546654 11.731232 2.273994 21.229176 -0.589322 1.463474 0.028874 0.003760 -567948.000000 1 0 0
-8.127454 15.712132 -7.398106 19.174425 -1.093426 1.966906 0.037821 -0.014225 35774.800000 1 0 0
-6.166354 15.366132 -5.623106 17.486030 -1.189174 1.898191 0.007042 0.005836 995059.000000 1 0 0
-17.342554 5.395032 -0.202706 18.163470 -0.301596 1.581957 0.010580 0.009818 1153650.000000 1 0 0
-5.168854 12.270532 -12.175206 18.042135 -1.172114 2.311518 -0.009969 -0.010683 -1372790.000000 1 0 0
-11.096554 3.724932 -11.288906 16.261858 -0.323864 2.338098 0.009780 -0.009622 106737.000000 1 0 0
-11.788654 10.981832 1.194594 16.155496 -0.749980 1.496785 -0.010716 0.001679 44897.400000 1 0 0
-12.907054 0.281732 -10.937406 16.920350 -0.021824 2.273660 0.010127 -0.013033 -271706.000000 1 0 0
-14.382754 -1.884168 -12.703206 19.281731 0.130260 2.290047 0.033312 -0.020116 193182.000000 1 0 0
-18.705154 -2.218868 -3.669906 19.190476 0.118072 1.763217 0.011019 -0.001241 1607560.000000 1 0 0
-18.157554 4.896032 -5.149806 19.498420 -0.263378 1.838082 0.013132 0.000376 -16564.100000 1 0 0
-8.210154 15.482532 -2.270706 17.671206 -1.083215 1.699650 -0.001255 0.005629 879484.000000 1 0 0
-15.886254 9.254632 -5.246906 19.119396 -0.527494 1.848792 0.015501 0.002675 -421869.000000 1 0 0
-18.237254 1.678932 2.282494 18.456056 -0.091802 1.446807 0.012750 -0.000087 48276.700000 1 0 0
-15.666854 -2.666268 -8.632506 18.085338 0.168570 2.068399 0.007426 -0.009335 54708.500000 1 0 0
-9.711354 10.396132 -7.249106 15.966825 -0.819441 2.042058 0.009798 -0.004683 418289.000000 1 0 0
-13.878554 12.267632 -7.889106 20.133232 -0.723864 1.973432 0.022220 0.002229 -731845.000000 1 0 0
-11.038354 6.596832 -3.930206 13.446560 -0.538674 1.867410 -0.005507 0.003230 -561923.000000 1 0 0
-13.161854 4.981532 -12.624706 18.905905 -0.361820 2.301999 0.021468 -0.010076 1368350.000000 1 0 0
-17.593254 9.079832 2.724594 19.984728 -0.476442 1.434037 0.016728 -0.006868 901750.000000 1 0 0
-13.466754 8.730132 -6.650606 17.372369 -0.575160 1.963650 0.005142 0.000557 -1232710.000000 1 0 0
-15.627054 7.132932 -3.728406 17.577956 -0.428203 1.784527 0.003363 0.007977 -1851130.000000 1 0 0
-14.898254 -0.173068 -9.292406 17.559519 0.011616 2.128448 0.013964 -0.011343 -570028.000000 1 0 0
-9.901054 5.855832 -6.062306 13.002815 -0.534098 2.055821 -0.000053 -0.000844 408314.000000 1 0 0
-12.572954 12.307932 -0.959606 17.620590 -0.774747 1.625283 0.002249 -0.001546 -717503.000000 1 0 0
-10.663654 3.520732 -13.893606 17.864528 -0.318894 2.461827 0.010792 -0.003256 26335.000000 1 0 0
-10.947954 6.199032 -11.932706 17.339987 -0.515216 2.329748 0.006066 -0.009584 -1003880.000000 1 0 0
-5.584054 11.679532 -14.713906 19.598269 -1.124817 2.420032 -0.008896 -0.010221 -437320.000000 1 0 0
-15.473254 13.302032 3.569994 20.714982 -0.710086 1.397593 0.002313 -0.015741 -192489.000000 1 0 0
-14.987454 11.232532 -3.150006 18.992527 -0.643157 1.737421 0.019113 0.002509 883124.000000 1 0 0
-17.961354 7.997032 -4.574606 20.186376 -0.418885 1.799401 0.012014 0.001123 -867322.000000 1 0 0
-3.829454 16.377732 -10.569206 19.864615 -1.341102 2.131830 0.010554 -0.001598 -222907.000000 1 0 0
-15.738354 4.496332 -4.353806 16.937190 -0.278280 1.830771 0.008901 0.006164 -1167480.000000 1 0 0
-18.784054 -1.786568 -6.157306 19.848046 0.094826 1.886223 0.024569 -0.006381 632838.000000 1 0 0
-10.921554 8.545132 -6.002906 15.110741 -0.663923 1.979326 -0.000150 0.002145 934845.000000 1 0 0
-11.222854 13.312032 -6.828206 18.702594 -0.870345 1.944530 0.019060 -0.010567 -76221.200000 1 0 0
-9.430954 10.336732 -4.562706 14.717649 -0.831187 1.886006 -0.007416 0.005350 -276294.000000 1 0 0
-11.060354 6.279032 -0.140206 12.719172 -0.516336 1.581820 -0.008424 0.003918 -1113690.000000 1 0 0
-14.546154 9.455932 -1.359006 17.402647 -0.576420 1.648968 0.003678 0.004439 -38748.000000 1 0 0
-18.905754 3.430832 4.961694 19.844811 -0.179517 1.318091 0.025944 -0.007665 294942.000000 1 0 0
-14.477054 13.283732 0.539094 19.655362 -0.742439 1.543366 -0.005991 -0.000439 -44620.700000 1 0 0
-16.944754 2.756432 -9.370606 19.558396 -0.161259 2.070436 0.016657 -0.001310 -344360.000000 1 0 0
-9.044354 8.434232 -9.004206 15.297462 -0.750506 2.200132 0.009879 -0.004739 -2306410.000000 1 0 0
-17.615654 4.767632 -2.607406 18.434753 -0.264315 1.712712 0.009706 0.008104 960861.000000 1 0 0
-13.505054 5.900032 -4.443506 15.392907 -0.411886 1.863636 -0.000893 0.007719 -1079280.000000 1 0 0
-12.131954 9.720532 3.460194 15.926267 -0.675493 1.351786 -0.018844 0.002816 705366.000000 1 0 0
-17.610154 2.611532 -4.044606 18.256408 -0.147224 1.794194 0.021653 0.002957 975723.000000 1 0 0
-11.186154 1.499032 -12.504306 16.844429 -0.133214 2.407353 0.009497 -0.008444 -134113.000000 1 0 0
-11.093054 12.108232 3.460894 16.782220 -0.829126 1.363082 -0.015831 -0.002496 -281870.000000 1 0 0
-16.178554 13.375832 -4.098806 21.388284 -0.690848 1.763627 0.025625 0.001928 679328.000000 1 0 0
-11.179854 4.159732 -4.578906 12.777280 -0.356203 1.937310 -0.006400 0.002585 -657681.000000 1 0 0
-11.236354 15.052832 -8.717206 20.708285 -0.929564 2.005292 0.034635 -0.009719 543037.000000 1 0 0
-15.441454 7.249932 -0.368006 17.062691 -0.438960 1.592366 0.003696 0.008283 -719548.000000 1 0 0
-12.788554 8.452932 -4.053706 15.856598 -0.584053 1.829314 0.000542 0.003985 394133.000000 1 0 0
-19.221754 2.015332 -6.010906 20.240266 -0.104465 1.872322 0.026602 -0.001850 992476.000000 1 0 0
-12.738554 10.144932 -8.939206 18.576862 -0.672539 2.072821 0.011990 -0.005071 553545.000000 1 0 0
-16.510354 11.159732 -0.947106 19.950649 -0.594384 1.618287 0.011858 0.003685 727372.000000 1 0 0
-10.637354 6.695332 -14.489906 19.181714 -0.561769 2.427064 0.007788 -0.013017 36782.000000 1 0 0
-13.595954 13.074132 -4.434006 19.376359 -0.765835 1.801678 0.019355 0.001694 225168.000000 1 0 0
-17.996254 7.775032 -0.271606 19.605867 -0.407815 1.584650 0.024222 0.003969 -200825.000000 1 0 0
-12.761254 6.678332 -2.052406 14.548611 -0.482136 1.712341 -0.007344 0.007978 305079.000000 1 0 0
-13.865154 8.525532 -10.567106 19.405950 -0.551296 2.146624 0.007284 -0.008745 -874911.000000 1 0 0
-14.994354 1.414032 -0.906806 15.088155 -0.094026 1.630933 0.003305 0.004729 -640438.000000 1 0 0
-13.389854 2.809132 -2.411306 13.892221 -0.206796 1.745252 -0.005462 0.005300 604388.000000 1 0 0
-11.370554 9.332232 -10.905506 18.311475 -0.687258 2.208754 0.012566 -0.012555 -171999.000000 1 0 0
-15.352254 4.411832 -8.072406 17.897477 -0.279833 2.038722 0.014560 -0.001836 759600.000000 1 0 0
-18.167254 10.707432 4.608094 21.585475 -0.532575 1.355659 0.033788 -0.018653 132135.000000 1 0 0
-15.332954 6.273632 -6.196406 17.687662 -0.388378 1.928713 0.011951 0.006477 563590.000000 1 0 0
-7.496454 11.438632 -12.857906 18.771384 -0.990660 2.325364 0.003095 -0.010024 -1862810.000000 1 0 0
-16.780654 9.234432 -2.687706 19.341376 -0.503075 1.710209 0.020642 -0.000729 1306020.000000 1 0 0
-20.674554 -0.762168 -4.668806 21.208862 0.036848 1.792749 0.023403 -0.004214 174095.000000 1 0 0
-15.405754 4.176732 4.345894 16.542948 -0.264751 1.304973 0.002881 0.000123 747001.000000 1 0 0
-6.842754 12.609232 -9.514006 17.214306 -1.073592 2.156373 0.011463 -0.008232 139891.000000 1 0 0
-17.263854 1.554532 5.784294 18.273349 -0.089803 1.248714 0.017120 -0.011280 552403.000000 1 0 0
-10.316454 14.277232 -3.161006 17.895824 -0.945076 1.748362 0.016849 -0.005299 1562770.000000 1 0 0
-9.897754 8.449732 -12.769806 18.232703 -0.706639 2.346725 -0.002942 -0.014987 -566947.000000 1 0 0
-13.585454 11.714032 2.827794 18.159833 -0.711562 1.414443 -0.011761 -0.005336 -1649850.000000 1 0 0
-16.705254 6.832932 1.860594 18.144318 -0.388266 1.468072 0.004115 0.003023 882194.000000 1 0 0
-9.232154 13.269332 -8.506606 18.266641 -0.962928 2.055211 0.031318 -0.013958 410636.000000 1 0 0
-5.533454 9.828932 -12.948506 17.172385 -1.058045 2.424974 0.002348 -0.005805 -316840.000000 1 0 0
-15.878254 1.717532 3.177094 16.283820 -0.107750 1.374429 0.003477 0.001609 -666603.000000 1 0 0
-18.747454 -4.997368 4.834394 19.995301 0.260505 1.326600 0.026016 -0.004233 507810.000000 1 0 0
-5.208054 14.526932 -9.282706 18.009004 -1.226560 2.112327 0.010493 -0.002042 -32870.000000 1 0 0
-15.478454 -0.791268 -6.753906 16.906327 0.051076 1.981757 0.012379 -0.002032 817101.000000 1 0 0
-8.871954 10.968632 -9.590506 17.058730 -0.890684 2.167846 0.014386 -0.013671 446805.000000 1 0 0
-16.660654 1.357432 -6.134306 17.805890 -0.081296 1.922513 0.004769 -0.000985 -1273830.000000 1 0 0
-11.127254 8.704932 -1.448306 14.201733 -0.663859 1.672955 -0.008630 0.003444 -130446.000000 1 0 0
-10.636954 10.979932 -12.706206 19.878414 -0.801263 2.264249 0.008010 -0.015287 -5967.180000 1 0 0
-13.824754 11.888332 -10.497006 21.039092 -0.710231 2.093158 0.012646 -0.005070 -8067.900000 1 0 0
-13.185354 5.805932 -7.632906 16.304099 -0.414785 2.058002 0.002517 0.002485 -52899.500000 1 0 0
-8.729354 15.656632 -4.826906 18.564233 -1.062175 1.833830 0.016304 -0.000521 46175.900000 1 0 0
-8.629154 6.132132 -12.870806 16.665023 -0.617824 2.453289 0.006835 -0.009414 -438021.000000 1 0 0
-16.292654 7.492732 4.309094 18.443424 -0.431043 1.334978 0.006298 0.000900 573262.000000 1 0 0
-12.654554 5.518532 -10.181606 17.153922 -0.411227 2.206252 0.005772 -0.004816 733373.000000 1 0 0
-12.414554 9.125432 -13.212306 20.296790 -0.633870 2.279639 0.019095 -0.017998 -1015070.000000 1 0 0
-10.796554 5.258832 -8.436406 14.676302 -0.453262 2.183195 -0.000400 -0.001490 -735573.000000 1 0 0
-17.752454 -4.312768 -2.535606 18.443939 0.238322 1.708709 0.009222 -0.001967 512495.000000 1 0 0
-8.969054 13.175632 -10.979806 19.354517 -0.973120 2.174019 0.031304 -0.013832 -235251.000000 1 0 0
-15.031954 6.084432 6.197194 17.360448 -0.384609 1.205772 0.000191 -0.002417 -524517.000000 1 0 0
-16.258854 -3.140968 -4.473706 17.153135 0.190834 1.834657 0.008721 -0.002676 501353.000000 1 0 0
-11.159754 -1.128468 -12.365906 16.695184 0.100777 2.404889 0.010303 -0.011298 319009.000000 1 0 0
-15.386854 7.007332 -8.619206 18.977584 -0.427344 2.042246 0.013463 -0.000173 160164.000000 1 0 0
-14.787354 9.350232 1.183594 17.535494 -0.563841 1.503248 -0.003266 -0.000773 -117329.000000 1 0 0
-19.491554 5.460232 7.787894 21.688386 -0.273132 1.203513 0.040564 -0.017999 -1472890.000000 1 0 0
-16.382254 0.311532 1.003894 16.415940 -0.019014 1.509605 0.006786 0.002059 -373022.000000 1 0 0
-17.656954 3.682332 7.214594 19.426218 -0.205602 1.190297 0.025354 -0.005126 531209.000000 1 0 0
-15.434554 3.980932 -1.332506 15.995276 -0.252422 1.654199 0.004472 0.006854 -2427340.000000 1 0 0
-10.743554 13.292732 0.455994 17.097620 -0.891059 1.544123 -0.007442 -0.005529 -1873460.000000 1 0 0
-13.443354 3.240732 0.182694 13.829659 -0.236552 1.557586 -0.001007 0.004688 -744860.000000 1 0 0
-15.119754 0.135932 -4.325406 15.726874 -0.008990 1.849420 0.005166 0.002254 480808.000000 1 0 0
-18.759954 6.815132 3.411094 20.248888 -0.348457 1.401531 0.017462 -0.003119 -242829.000000 1 0 0
-14.048454 1.357232 -6.288106 15.451259 -0.096312 1.989924 0.003398 -0.001157 928083.000000 1 0 0
-14.010454 12.162932 5.298994 19.295312 -0.714927 1.292596 -0.007141 -0.010217 319825.000000 1 0 0
17.628846 5.423732 6.410794 19.526684 0.298472 1.236283 0.010325 -0.003934 717849.000000 1 0 0
18.376646 7.444632 0.009494 19.827349 0.384907 1.570317 0.000139 0.004336 -457345.000000 1 0 0
16.492046 5.128132 8.664694 19.322584 0.301468 1.105796 0.013218 -0.000043 360363.000000 1 0 0
11.544446 12.335432 11.027794 20.175464 0.818510 0.992505 0.012992 -0.011024 396206.000000 1 0 0
-2.304654 16.435132 -0.550306 16.605054 -1.431477 1.603943 -0.004540 0.003408 -121603.000000 1 0 0
14.917346 12.590332 3.672594 19.862820 0.701004 1.384828 0.025905 -0.005853 80142.900000 1 0 0
13.585346 11.718632 6.897294 19.221359 0.711760 1.203777 0.020011 -0.002868 977949.000000 1 0 0
-0.762254 15.808232 8.680494 18.050823 -1.522615 1.069125 0.005857 -0.001472 -290773.000000 1 0 0
0.727946 12.879032 9.484994 16.011386 1.514335 0.936773 -0.001574 -0.000036 402776.000000 1 0 0
0.855646 15.490932 -3.916706 16.001303 1.515617 1.818083 -0.000757 -0.001534 2231670.000000 1 0 0
5.137446 10.056132 13.309194 17.454334 1.098485 0.703605 0.007277 -0.012857 54455.600000 1 0 0
-1.326354 16.423532 -2.774406 16.708948 -1.490212 1.737612 -0.001811 -0.003160 -1257320.000000 1 0 0
8.601946 9.998232 3.329394 13.603051 0.860326 1.323531 0.000068 0.001640 351837.000000 1 0 0
12.614046 13.816132 -4.836006 19.323215 0.830848 1.823755 0.032944 -0.008843 -57602.600000 1 0 0
2.433746 11.530032 7.866494 14.168503 1.362771 0.982181 0.004047 0.000200 114933.000000 1 0 0
-0.250254 15.021032 -8.756006 17.388550 -1.554138 2.098499 0.002263 0.001532 -1846220.000000 1 0 0
2.314746 15.898832 0.297394 16.069205 1.426220 1.552288 0.007216 -0.008859 -1246110.000000 1 0 0
1.900746 13.335932 5.330994 14.487216 1.429222 1.193962 0.006315 0.001256 202167.000000 1 0 0
17.571046 9.185532 -1.729406 19.902425 0.481693 1.657800 -0.005123 0.004068 648730.000000 1 0 0
-7.061054 15.029432 7.308194 18.142547 -1.131587 1.156200 -0.007096 0.000211 -665467.000000 1 0 0
8.489846 15.906432 -0.213306 18.031572 1.080525 1.582626 0.000093 -0.010848 128576.000000 1 0 0
15.662946 10.506032 2.355594 19.006668 0.590829 1.446542 0.014082 0.001978 -620341.000000 1 0 0
14.058046 7.422732 8.845594 18.192585 0.485801 1.063038 0.002603 -0.002597 -819347.000000 1 0 0
4.122846 18.616932 -1.610706 19.135893 1.352857 1.655068 0.006780 -0.017134 180684.000000 1 0 0
-0.450354 17.572332 -4.732106 18.203914 -1.545173 1.833767 0.007299 -0.004261 -25489.200000 1 0 0
1.309646 13.766832 -0.863206 13.855900 1.475951 1.633135 0.006830 -0.006134 706510.000000 1 0 0
10.098446 14.619932 4.155794 18.248059 0.966318 1.341041 0.002348 -0.010603 613558.000000 1 0 0
-1.705054 15.362432 -5.035806 16.256410 -1.460260 1.885751 0.004234 -0.002859 329215.000000 1 0 0
15.134146 8.745732 -6.043506 18.494707 0.523997 1.903680 0.019418 -0.001649 -78636.900000 1 0 0
-2.362954 18.626532 0.891894 18.796987 -1.444611 1.523330 -0.001215 -0.002406 317482.000000 1 0 0
-3.709554 19.447932 3.483094 20.102607 -1.382318 1.396652 -0.001305 -0.002385 216989.000000 1 0 0
1.767646 17.728132 -2.697706 18.019125 1.471416 1.721075 -0.004563 -0.006126 978557.000000 1 0 0
2.943746 12.022432 3.297294 12.809241 1.330666 1.310450 0.004869 -0.001405 -352292.000000 1 0 0
-2.539554 16.194932 1.871094 16.499277 -1.415251 1.457147 -0.005984 -0.000364 -1517460.000000 1 0 0
11.854746 12.840432 -2.579006 17.665304 0.825291 1.717313 0.013491 0.000720 252348.000000 1 0 0
7.160146 11.617132 4.714894 14.437994 1.018446 1.238133 -0.002354 -0.000379 199385.000000 1 0 0
7.119446 15.730432 1.838394 17.364121 1.145790 1.464724 0.002066 -0.009132 -3538440.000000 1 0 0
5.496946 12.153132 10.172494 16.774823 1.146026 0.919253 0.002683 -0.001402 -830615.000000 1 0 0
-1.300454 14.167432 3.109994 14.562945 -1.479261 1.355584 -0.001711 0.002403 -816167.000000 1 0 0
4.554146 15.989332 1.575694 16.699754 1.293320 1.476301 0.002326 -0.015074 -2058320.000000 1 0 0
7.292446 13.071332 11.965094 19.162541 1.061911 0.896433 0.007620 -0.000924 184195.000000 1 0 0
0.774546 17.330932 -9.434506 19.747684 1.526134 2.068891 0.003585 0.002463 195124.000000 1 0 0
9.563046 9.495232 15.596194 20.611952 0.781840 0.712610 -0.002542 0.002559 -577975.000000 1 0 0
13.485546 7.478332 -0.128206 15.420825 0.506325 1.579110 -0.002204 0.006836 90626.100000 1 0 0
12.406346 13.623532 -0.088406 18.426228 0.832125 1.575594 0.016592 -0.002120 496840.000000 1 0 0
9.349846 12.306332 3.331694 15.810301 0.921079 1.358475 -0.001029 0.000549 9509.150000 1 0 0
-0.681354 12.981432 0.678494 13.016996 -1.518358 1.518649 0.001650 -0.002912 -900320.000000 1 0 0
15.984546 7.402532 -0.734506 17.630732 0.433699 1.612469 -0.001341 0.007232 -1170350.000000 1 0 0
-4.144254 18.456632 -2.303606 19.055936 -1.349920 1.691979 0.002138 -0.002381 -64729.100000 1 0 0
11.741146 9.395932 -3.112506 15.356619 0.674898 1.774892 0.017449 0.000850 -45176.600000 1 0 0
14.713446 9.709132 7.938394 19.333154 0.583291 1.147673 0.016117 -0.005657 1483760.000000 1 0 0
4.432146 13.727132 4.659194 15.158699 1.258488 1.258378 0.005123 -0.001649 982365.000000 1 0 0
2.193246 15.868332 5.625594 16.978268 1.433451 1.233072 0.015179 -0.004850 43962.800000 1 0 0
6.341546 18.339032 5.353394 20.129435 1.237872 1.301609 0.009570 -0.019717 -328597.000000 1 0 0
10.658146 17.249932 -0.962406 20.299814 1.017344 1.618224 0.023778 -0.013460 -157476.000000 1 0 0
10.100846 13.655732 -4.396506 17.545238 0.933934 1.824077 0.020697 -0.008603 163041.000000 1 0 0
16.529246 7.950832 2.416294 18.500546 0.448345 1.439815 -0.000637 0.002569 293229.000000 1 0 0
3.930146 14.080532 -0.557106 14.629347 1.298605 1.608887 0.003547 -0.005570 -570292.000000 1 0 0
5.639946 13.179532 -2.343306 14.525844 1.166445 1.732824 0.004373 -0.006094 -228081.000000 1 0 0
-6.062854 16.834032 -3.000806 18.142427 -1.225104 1.736963 0.001851 -0.000399 -2116220.000000 1 0 0
18.076346 10.005132 2.714994 20.838142 0.505521 1.440135 0.017028 -0.005440 -63589.700000 1 0 0
7.853946 12.763632 9.444694 17.714317 1.019175 1.008456 0.000174 -0.004339 267526.000000 1 0 0
-2.542754 15.649732 6.647594 17.192156 -1.409725 1.173784 -0.004865 -0.000073 -489424.000000 1 0 0
10.783946 15.810232 6.280294 20.141972 0.972194 1.253708 0.002791 -0.011778 18937.100000 1 0 0
13.565846 11.927432 1.461794 18.122711 0.721218 1.490048 0.018606 0.000890 -470517.000000 1 0 0
17.526146 7.926232 -5.518106 20.011008 0.424725 1.850170 0.002771 0.009684 -1532480.000000 1 0 0
9.413746 9.209432 8.077294 15.449108 0.774428 1.020626 0.001557 -0.002459 -8355.790000 1 0 0
-2.073954 14.157532 -1.911806 14.435789 -1.425340 1.703622 -0.003737 0.002188 480980.000000 1 0 0
10.941946 11.660132 0.693694 16.005189 0.817163 1.527441 0.005504 0.007413 1226640.000000 1 0 0
11.840746 9.755932 -0.576606 15.352979 0.689162 1.608362 0.005384 0.007559 -51893.000000 1 0 0
-0.433154 16.155132 11.174494 19.648034 -1.543991 0.965831 0.015033 -0.001191 28738.400000 1 0 0
2.146246 20.199532 -1.795706 20.392450 1.464941 1.658968 0.008138 -0.013084 -450841.000000 1 0 0
9.186746 14.339132 1.733094 17.117553 1.001003 1.469376 0.003249 -0.004552 -353969.000000 1 0 0
8.582746 11.746132 -5.218206 15.455252 0.939771 1.915198 0.006683 -0.004342 -35696.400000 1 0 0
10.530446 9.974632 10.343294 17.814806 0.758299 0.951330 0.000993 -0.007664 96515.600000 1 0 0
-5.026754 15.806132 5.840694 17.584532 -1.262885 1.232215 -0.018408 0.005768 -307965.000000 1 0 0
14.436446 9.005532 -2.032906 17.136023 0.557740 1.689710 0.014789 0.003919 -521296.000000 1 0 0
12.168546 9.614732 6.954794 16.996639 0.668694 1.149234 0.002096 -0.004117 -1090030.000000 1 0 0
3.276846 12.923532 9.655794 16.461767 1.322473 0.943993 0.006371 -0.004172 -1364490.000000 1 0 0
8.568046 12.638732 -2.690006 15.504357 0.975044 1.745179 0.006229 -0.003693 -814019.000000 1 0 0
9.355646 17.052232 2.021894 19.554917 1.068993 1.467216 0.003845 -0.010615 -25020.300000 1 0 0
9.633346 14.199732 -7.442906 18.703759 0.974703 1.980063 0.016869 -0.017811 -668393.000000 1 0 0
6.377946 11.336832 7.236894 14.885382 1.058341 1.063090 -0.001566 0.000163 -1160200.000000 1 0 0
5.516746 16.920832 -5.592506 18.655433 1.255631 1.875257 -0.001032 -0.006297 -728108.000000 1 0 0
-4.021754 17.327432 -4.630306 18.380809 -1.342731 1.825450 0.004055 0.001665 9701.080000 1 0 0
0.003346 18.683332 -0.315706 18.686000 1.570617 1.587692 0.000404 -0.003061 235068.000000 1 0 0
6.519046 15.682032 -2.758906 17.205687 1.176828 1.731840 -0.002080 -0.006496 101274.000000 1 0 0
-0.926254 20.760032 0.963994 20.803033 -1.526209 1.524441 0.003501 -0.004774 -155575.000000 1 0 0
-1.301954 18.849032 4.439694 19.408554 -1.501833 1.340004 0.008836 -0.002914 13636.500000 1 0 0
7.259946 13.806932 -4.378106 16.202037 1.086708 1.844417 0.001514 -0.005035 -327291.000000 1 0 0
-0.859254 12.034832 7.725594 14.326908 -1.499520 1.001266 -0.002316 0.007218 152010.000000 1 0 0
7.567146 10.730632 10.964294 17.106254 0.956595 0.875058 0.002312 -0.005940 -32418.200000 1 0 0
1.537746 16.005332 -7.305806 17.660977 1.475013 1.997277 -0.001689 -0.003234 -542581.000000 1 0 0
8.862546 7.247232 14.539094 18.505468 0.685463 0.667026 -0.002071 -0.001068 271366.000000 1 0 0
11.523046 11.437232 -4.825006 16.937283 0.781661 1.859672 0.020283 -0.004499 -258042.000000 1 0 0
-3.302854 17.074132 4.453694 17.951886 -1.379714 1.320088 -0.010168 0.001941 -452934.000000 1 0 0
4.018346 15.364932 -6.805006 17.278205 1.314998 1.975612 0.004052 -0.007813 -741861.000000 1 0 0
-4.464054 14.041432 9.509094 17.536033 -1.262981 0.997671 -0.002946 -0.001140 -164710.000000 1 0 0
6.159846 17.651632 0.409694 18.700045 1.235042 1.548886 -0.000405 -0.024991 -601812.000000 1 0 0
9.906046 10.817532 -2.112806 14.819335 0.829353 1.713855 0.008131 0.002845 -861732.000000 1 0 0
7.426646 18.080232 -2.397806 19.692621 1.181048 1.692861 0.006480 -0.011616 31783.900000 1 0 0
3.532846 10.313232 10.472694 15.116914 1.240770 0.805460 -0.000573 0.001689 1317410.000000 1 0 0
0.042946 18.655132 2.229494 18.787933 1.568494 1.451850 0.008698 -0.010250 704617.000000 1 0 0
-0.783254 17.259332 -7.331506 18.768298 -1.525446 1.972115 0.010378 -0.000014 60755.100000 1 0 0
10.024346 9.080132 13.132594 18.852091 0.736015 0.800132 -0.001599 0.007738 -625365.000000 1 0 0
3.730046 11.498632 5.627194 13.334058 1.257116 1.135128 0.000193 0.002333 518077.000000 1 0 0
12.794046 13.810832 8.193294 20.531848 0.823598 1.160313 0.012572 -0.017224 -110093.000000 1 0 0
-0.487954 17.288332 6.780094 18.576711 -1.542579 1.197187 0.012934 -0.005493 -391939.000000 1 0 0
11.904846 13.479532 5.722894 18.872590 0.847352 1.262707 0.005893 -0.008485 70629.400000 1 0 0
4.881846 14.562932 -4.478706 15.999069 1.247345 1.854523 -0.000593 -0.005630 -1049060.000000 1 0 0
3.917646 17.561432 4.668694 18.588936 1.351308 1.316924 0.019991 -0.011420 1319790.000000 1 0 0
7.090746 11.502832 2.060294 13.668893 1.018380 1.419491 0.001932 -0.000620 218133.000000 1 0 0
6.431246 8.475632 11.726994 15.834130 0.921692 0.736811 0.002109 -0.001304 502888.000000 1 0 0
-5.359254 14.987232 1.731594 16.010532 -1.227378 1.462431 -0.011739 0.007864 -199205.000000 1 0 0
6.856946 13.712132 6.025394 16.472573 1.107097 1.196322 -0.000306 -0.004471 -389649.000000 1 0 0
6.030446 15.825332 4.841994 17.613981 1.206721 1.292316 0.007490 -0.011469 764782.000000 1 0 0
1.343146 18.026032 4.363694 18.595260 1.496422 1.333920 0.023922 -0.008235 -68677.100000 1 0 0
7.508346 18.114332 -6.908006 20.790018 1.177855 1.909511 -0.005143 -0.002108 413138.000000 1 0 0
-2.204354 18.941232 -5.871506 19.952544 -1.454939 1.869492 0.011221 0.000836 -857384.000000 1 0 0
13.652546 10.194532 -4.571706 17.641457 0.641394 1.832934 0.021364 0.001556 -1089840.000000 1 0 0
-1.680554 18.109732 9.739194 20.631010 -1.478263 1.079164 0.019344 -0.003615 -619726.000000 1 0 0
3.538746 11.804532 -1.479106 12.411988 1.279543 1.690248 0.008245 -0.006093 418789.000000 1 0 0
4.404746 13.909032 -10.809106 18.157636 1.264106 2.208426 -0.006776 -0.014981 -535849.000000 1 0 0
11.541546 13.505132 2.343594 17.918937 0.863635 1.439632 0.012386 -0.000437 358838.000000 1 0 0
16.062246 6.587032 -7.061506 18.741655 0.389178 1.957115 0.008350 0.005260 307252.000000 1 0 0
2.478946 16.138032 2.969594 16.595172 1.418379 1.390884 0.009860 -0.007085 -237352.000000 1 0 0
13.475246 10.584132 3.691194 17.528007 0.665806 1.358620 0.009669 0.002179 -1448090.000000 1 0 0
-4.713854 19.603832 -5.886506 21.004323 -1.334820 1.854853 -0.004991 -0.003173 405681.000000 1 0 0
5.628946 12.150032 0.073694 13.390808 1.136948 1.565293 0.007088 -0.003940 76214.000000 1 0 0
4.723646 15.381232 9.550894 18.711352 1.272834 1.035108 0.011025 -0.004268 -147447.000000 1 0 0
7.610746 9.440932 13.923494 18.463974 0.892321 0.716529 0.001006 -0.000020 -1774070.000000 1 0 0
-4.916754 13.525832 6.980394 15.995265 -1.222138 1.119198 -0.012607 0.004598 -601640.000000 1 0 0
-4.505954 17.154332 0.537894 17.744409 -1.313928 1.540478 -0.005609 0.002016 -4134830.000000 1 0 0
-0.574454 16.534332 3.545894 16.920032 -1.536067 1.359663 0.005659 -0.003551 -1252630.000000 1 0 0
7.912946 16.990132 -4.729306 19.329916 1.134932 1.817968 -0.001534 -0.006975 536109.000000 1 0 0
3.133246 16.522032 -4.627706 17.441629 1.383381 1.839338 0.001899 -0.004107 -379364.000000 1 0 0
9.502046 14.291232 8.222594 19.029957 0.984027 1.123991 0.008544 -0.010756 73885.700000 1 0 0
12.693646 10.789832 9.254994 19.057913 0.704505 1.063719 0.014059 -0.013938 95915.400000 1 0 0
3.705046 12.394332 12.094694 17.709558 1.280321 0.819007 0.006619 -0.002310 557877.000000 1 0 0
-3.375454 19.206032 5.996694 20.401610 -1.396823 1.272458 0.004331 -0.004077 17843.200000 1 0 0
-2.843654 15.797832 10.230194 19.034567 -1.392701 1.003382 0.009749 -0.000986 -131646.000000 1 0 0
2.014346 14.217432 7.715994 16.301213 1.430052 1.077719 0.010466 -0.002876 -57536.900000 1 0 0
4.595946 17.318332 7.793094 19.539183 1.311395 1.160540 0.026296 -0.008652 100712.000000 1 0 0
-1.914654 13.467432 9.466494 16.572632 -1.429574 0.962814 0.003126 0.000254 -1274350.000000 1 0 0
5.952746 17.702532 2.983794 18.913431 1.246409 1.412374 0.003320 -0.018348 626853.000000 1 0 0
7.340246 15.403732 -6.726406 18.341175 1.126105 1.946297 -0.003062 -0.007417 -97376.600000 1 0 0
10.991446 7.587432 9.521594 16.402493 0.604188 0.951458 0.000267 -0.001741 860129.000000 1 0 0
9.028846 16.173232 -2.673506 18.714730 1.061635 1.714142 0.006431 -0.017666 -1658300.000000 1 0 0
14.784246 11.369532 -6.539906 19.763870 0.655570 1.908056 0.046329 -0.008250 506166.000000 1 0 0
11.098046 6.749432 15.927794 20.552764 0.546401 0.684127 0.022567 -0.007561 -325148.000000 1 0 0
8.538346 8.403132 10.272894 15.781265 0.777417 0.861954 0.001583 -0.001460 -1293970.000000 1 0 0
16.362746 9.390332 4.631594 19.426000 0.520996 1.330055 0.015767 -0.000663 75929.900000 1 0 0
-3.348654 14.356632 4.525394 15.420945 -1.341645 1.272955 -0.012442 0.006680 -1339280.000000 1 0 0
4.631146 14.721032 12.493394 19.855508 1.266005 0.890253 0.008242 -0.001210 -878489.000000 1 0 0
16.211246 10.577232 -4.511706 19.875559 0.578104 1.799790 0.030696 -0.010234 67802.900000 1 0 0
14.489046 13.974432 6.304094 21.094047 0.767320 1.267302 0.019896 -0.002256 520081.000000 1 0 0
6.235746 9.431132 9.235194 14.598616 0.986597 0.885881 0.000768 0.001604 329552.000000 1 0 0
10.347946 11.951932 8.726894 18.057889 0.857203 1.066407 0.009635 -0.012928 -578588.000000 1 0 0
8.082746 11.543532 -0.370706 14.096856 0.959938 1.597096 0.003489 -0.000425 196071.000000 1 0 0
7.414446 13.509132 -8.590106 17.642579 1.068839 2.079329 0.000034 -0.007251 -510306.000000 1 0 0
2.788446 15.425232 -2.268406 15.838525 1.391956 1.714511 0.003090 -0.004787 467447.000000 1 0 0
12.225646 13.666732 -7.825606 19.937054 0.840998 1.974162 0.028646 -0.018648 -489316.000000 1 0 0
-7.862654 14.849132 9.734694 19.418607 -1.083826 1.045687 -0.002225 0.001802 -20503.000000 1 0 0
11.591546 9.713632 2.211394 15.284268 0.697482 1.425602 0.007847 0.004607 -2697720.000000 1 0 0
12.153646 8.607732 4.491994 15.555776 0.616237 1.277858 0.001332 0.002033 31478.400000 1 0 0
14.006046 7.983632 6.167794 17.261211 0.518079 1.205398 0.002159 0.000553 -2410850.000000 1 0 0
16.227846 7.428632 7.393194 19.318046 0.429297 1.178069 0.013791 -0.003918 882404.000000 1 0 0
13.550246 8.393132 2.277494 16.100957 0.554568 1.428869 -0.001405 0.004331 -2273390.000000 1 0 0
-3.980554 17.519932 -7.248406 19.373493 -1.347388 1.954266 0.011035 -0.005607 77553.300000 1 0 0
3.368346 19.447132 -3.999706 20.137883 1.399293 1.770742 0.014201 -0.015173 209865.000000 1 0 0
-0.072454 14.816432 6.331694 16.112798 -1.565906 1.166947 0.008602 0.000852 -928419.000000 1 0 0
6.838246 16.137732 8.130794 19.320917 1.169991 1.136438 0.013670 -0.005877 398097.000000 1 0 0
12.884946 15.206432 -2.005706 20.031981 0.867851 1.671090 0.034097 -0.011710 31943.000000 1 0 0
12.548046 15.616832 4.368094 20.504125 0.893928 1.356116 0.019404 -0.012086 127940.000000 1 0 0
3.024646 18.123832 1.348594 18.423911 1.405433 1.497533 0.018279 -0.015042 -600405.000000 1 0 0
10.391146 14.549232 -1.243306 17.922106 0.950600 1.640225 0.012718 -0.000462 -780733.000000 1 0 0
-6.346954 15.930132 -0.555206 17.156957 -1.191649 1.603162 -0.005570 0.005704 -621349.000000 1 0 0
-3.832654 15.858232 -2.540106 16.511357 -1.333661 1.725250 -0.001903 0.001668 -1873520.000000 1 0 0
-6.804754 17.260232 1.619094 18.623688 -1.195261 1.483749 -0.007027 0.008517 449993.000000 1 0 0
0.410846 19.321132 -6.225406 20.303463 1.549535 1.882434 0.020818 -0.009528 756091.000000 1 0 0
4.806846 14.928232 6.894994 17.131807 1.259283 1.156586 0.012497 -0.005774 -523732.000000 1 0 0
8.660346 12.182032 6.982394 16.497192 0.952785 1.133770 0.003976 -0.005403 -393224.000000 1 0 0
-7.457754 17.661732 -5.755006 20.016867 -1.171253 1.862420 0.024318 -0.003671 426055.000000 1 0 0
-7.898554 17.798132 -1.452606 19.526155 -1.153122 1.645258 0.009546 0.000639 420557.000000 1 0 0
-13.645754 -9.301668 9.200394 18.904361 0.598306 1.062510 0.001077 -0.009927 143916.000000 1 0 0
-12.593854 -13.030268 7.543194 19.628877 0.802428 1.176357 0.006061 -0.004820 218083.000000 1 0 0
-3.913254 -14.823668 12.683894 19.898137 1.312697 0.879623 0.011213 -0.017628 344959.000000 1 0 0
-1.975354 -14.227968 15.197194 20.911523 1.432842 0.757235 0.022789 -0.005754 -364663.000000 1 0 0
-7.401154 -13.676468 12.719694 20.090134 1.074766 0.885204 0.019046 -0.020471 -131578.000000 1 0 0
-9.844554 -11.680268 8.885194 17.671745 0.870476 1.043972 0.001721 -0.010215 726736.000000 1 0 0
-10.695354 -10.697868 11.128894 18.779969 0.785516 0.936521 0.009176 -0.018272 344023.000000 1 0 0
-6.258154 -12.164068 10.904194 17.493727 1.095633 0.897815 0.010222 -0.013060 504664.000000 1 0 0
-12.506654 -10.466368 7.157894 17.810017 0.696818 1.157203 0.000089 -0.004598 -445391.000000 1 0 0
-8.001454 -11.247168 12.506994 18.626512 0.952447 0.834616 0.020672 -0.015877 -992817.000000 1 0 0
-14.785454 -11.687568 7.066194 20.128089 0.668907 1.212092 0.010328 -0.007725 375087.000000 1 0 0
-11.020354 -9.261468 8.897794 16.923171 0.698892 1.017169 -0.002622 -0.012964 189756.000000 1 0 0
-5.675354 -11.809968 13.462894 18.786551 1.122824 0.771846 0.022735 -0.019797 -443891.000000 1 0 0
4.053246 -12.465968 14.851094 19.808689 -1.256433 0.723148 0.002712 -0.003602 -303159.000000 1 0 0
6.533946 -12.753568 14.363594 20.289376 -1.097339 0.784224 0.007406 0.002997 -320368.000000 1 0 0
6.699246 -8.287768 15.962094 19.192588 -0.890997 0.588670 0.014731 -0.017693 336932.000000 1 0 0
0.662946 -1.837968 14.375294 14.507471 -1.224625 0.135091 0.002644 -0.002908 -1314950.000000 1 0 0
-0.192754 -6.319068 15.605994 16.837898 1.540302 0.384896 0.005857 -0.009445 90285.700000 1 0 0
-1.482954 -4.861168 18.358294 19.048807 1.274703 0.270077 0.013194 -0.014341 -2388720.000000 1 0 0
-5.227254 12.465432 13.064094 18.798450 -1.173730 0.802438 -0.006758 -0.005066 745441.000000 1 0 0
-4.154054 8.761832 11.639494 15.149379 -1.128076 0.694592 -0.005980 -0.001956 49920.100000 1 0 0
-0.813454 -3.985568 14.981394 15.523808 1.369462 0.265127 0.004880 -0.004774 272950.000000 1 0 0
-4.487554 9.185332 14.149094 17.455811 -1.116345 0.625678 -0.001667 -0.006013 331751.000000 1 0 0
-13.509654 -2.705368 16.777994 21.710155 0.197640 0.687527 0.000330 0.002229 1173980.000000 1 0 0
-0.259554 0.879432 17.294894 17.319184 -1.283806 0.052968 0.003355 0.000091 -338478.000000 1 0 0
-3.194454 -7.401468 15.408194 17.389615 1.163351 0.482027 0.015235 -0.012888 177451.000000 1 0 0
-7.439054 5.416532 12.525794 15.542646 -0.629351 0.633605 -0.010381 -0.005824 -2293130.000000 1 0 0
-9.762454 10.063932 13.496194 19.461127 -0.800603 0.804468 -0.006860 -0.009108 -445122.000000 1 0 0
-5.519354 2.328032 11.164194 12.669737 -0.399152 0.492465 -0.001480 -0.000638 -89270.300000 1 0 0
-7.210054 -7.581368 16.879094 19.858646 0.810496 0.554883 0.017052 -0.011970 -76901.000000 1 0 0
-4.645354 2.964832 18.624594 19.422797 -0.568061 0.287683 -0.001549 -0.002700 -565903.000000 1 0 0
0.889946 -8.443368 16.585894 18.632615 -1.465782 0.473114 0.007129 -0.009444 561621.000000 1 0 0
-14.964854 -3.521568 13.950794 20.759888 0.231118 0.833880 0.006919 -0.007538 -248091.000000 1 0 0
-14.151154 2.245132 13.254494 19.518642 -0.157342 0.824303 -0.007640 0.001389 -298231.000000 1 0 0
-5.538254 0.882232 16.018594 16.971916 -0.157971 0.336762 0.004659 -0.002174 169952.000000 1 0 0
4.577346 5.569132 15.207994 16.830045 0.882835 0.442645 0.002738 0.005249 92973.500000 1 0 0
-1.141054 -12.145768 13.886194 18.483724 1.477125 0.720818 0.013659 -0.009399 -66739.600000 1 0 0
-5.810754 -4.069768 16.729194 18.171236 0.610985 0.401076 0.014496 -0.008868 -218725.000000 1 0 0
-12.958054 -1.645868 9.844494 16.356470 0.126339 0.924954 0.003500 0.000515 -1110890.000000 1 0 0
-14.312754 10.437432 10.311794 20.497024 -0.630082 1.043629 -0.006241 0.004532 396254.000000 1 0 0
-3.550354 -3.498668 17.754094 18.440541 0.778066 0.273708 0.008820 -0.007661 -1508630.000000 1 0 0
-7.977754 9.346532 11.893494 17.101386 -0.864244 0.801723 -0.008847 -0.004081 268812.000000 1 0 0
-4.446954 10.528132 16.260494 19.875126 -1.171140 0.612640 0.002155 -0.005383 157890.000000 1 0 0
-12.373454 12.897532 8.160094 19.647794 -0.806134 1.142503 -0.002895 -0.007032 21122.600000 1 0 0
-12.587654 3.054132 10.598694 16.736459 -0.238029 0.885025 -0.005255 0.002838 -378220.000000 1 0 0
-10.009154 -3.711668 13.628294 17.311558 0.355107 0.664481 -0.000468 0.000661 -1382750.000000 1 0 0
-4.175854 -6.477968 17.665794 19.273871 0.998210 0.411387 0.022343 -0.013224 -464802.000000 1 0 0
0.714746 -3.761868 18.009094 18.411681 -1.383037 0.209504 0.007815 -0.011032 -840486.000000 1 0 0
-5.881354 1.831232 13.653294 14.978524 -0.301848 0.423820 -0.004389 0.000204 -901651.000000 1 0 0
-10.609754 8.678632 10.275494 17.131004 -0.685612 0.927522 -0.006978 -0.006568 -75815.000000 1 0 0
4.588246 2.446432 17.211194 17.979495 0.489850 0.293394 0.009029 -0.002331 -1923000.000000 1 0 0
0.554346 -5.488068 13.276994 14.377231 -1.470128 0.393758 0.004234 -0.003415 -904103.000000 1 0 0
-4.195054 5.744732 20.678494 21.867797 -0.940060 0.331319 0.018044 -0.006857 -266566.000000 1 0 0
-10.792154 10.946032 8.947394 17.786007 -0.792477 1.043663 -0.001305 -0.005471 -66340.000000 1 0 0
0.655146 4.164932 13.116294 13.777266 1.414774 0.311012 0.003494 -0.004528 -2355970.000000 1 0 0
-3.132854 7.163132 13.269094 15.401107 -1.158505 0.532447 -0.003526 -0.004083 96266.500000 1 0 0
0.614846 8.860132 14.123994 16.684339 1.501513 0.561341 -0.006609 -0.000680 46683.200000 1 0 0
-4.171854 -6.726568 13.039394 15.253750 1.015652 0.545569 0.009431 -0.007559 257653.000000 1 0 0
-5.099054 8.033432 16.365494 18.930551 -1.005231 0.526638 0.002286 -0.008568 -235498.000000 1 0 0
1.754246 -10.721268 15.687294 19.081776 -1.408610 0.605691 0.005362 -0.008299 387876.000000 1 0 0
-14.946754 -0.912668 14.292294 20.700437 0.060986 0.808707 -0.013793 0.003843 970976.000000 1 0 0
-13.569954 -5.328768 8.508894 16.880186 0.374188 1.042485 0.004795 -0.006608 -853647.000000 1 0 0
-14.083854 -1.945168 12.099594 18.669194 0.137245 0.865703 0.002929 -0.003729 464764.000000 1 0 0
9.424046 1.147632 16.986394 19.459375 0.121180 0.509649 0.021466 -0.003421 223671.000000 1 0 0
4.946746 -6.677168 17.005294 18.927094 -0.933180 0.454540 0.021673 -0.010441 -630146.000000 1 0 0
-6.158354 -2.635168 11.041194 12.914232 0.404326 0.545316 -0.000392 0.000140 34532.200000 1 0 0
0.539746 -6.446168 18.100294 19.221474 -1.487260 0.343236 0.012245 -0.013803 -74698.200000 1 0 0
-8.436054 11.999932 12.231894 19.099335 -0.958054 0.875731 -0.003915 -0.002129 -344664.000000 1 0 0
-6.596754 -5.907068 14.929794 17.358265 0.730296 0.535336 0.011678 -0.005028 -630982.000000 1 0 0
-4.328254 -8.937368 17.186294 19.848905 1.119798 0.523937 0.026005 -0.016452 14269.600000 1 0 0
2.423646 -6.255468 16.349494 17.672320 -1.201160 0.389374 0.012369 -0.012803 10076.000000 1 0 0
2.167346 5.208132 16.003994 16.969085 1.176448 0.338883 -0.000459 -0.001444 -1697480.000000 1 0 0
0.930346 -8.888468 14.004094 16.612798 -1.466507 0.568015 0.002772 -0.008046 -636130.000000 1 0 0
-9.904654 -2.955468 11.187694 15.231594 0.289981 0.745858 -0.005445 0.002392 -217390.000000 1 0 0
-1.273554 10.156032 12.414694 16.090107 -1.446049 0.689486 -0.003611 -0.001209 -260820.000000 1 0 0
-12.377754 -3.796968 11.299194 17.184223 0.297645 0.853257 0.006393 -0.000193 -1434610.000000 1 0 0
-1.823054 6.648532 20.005094 21.159638 -1.303170 0.331865 0.003105 -0.005444 -455832.000000 1 0 0
0.407046 -13.371368 15.627294 20.571132 -1.540364 0.707989 0.003096 -0.013680 -592882.000000 1 0 0
4.097346 -8.545468 15.365494 18.053024 -1.123702 0.552660 0.014335 -0.012807 149043.000000 1 0 0
4.432346 -4.505168 16.088694 17.285494 -0.793546 0.374303 0.021877 -0.011978 -441617.000000 1 0 0
8.128546 1.748532 14.781994 16.959893 0.211881 0.512369 -0.001490 0.006418 240410.000000 1 0 0
-6.318154 -0.011168 11.908794 13.481045 0.001768 0.487785 -0.001028 0.000989 323658.000000 1 0 0
-3.407954 -10.983368 18.495294 21.778990 1.269932 0.556278 0.031713 -0.011796 -754754.000000 1 0 0
3.238146 -1.656168 13.532094 14.012354 -0.472770 0.262570 0.007297 -0.003683 542647.000000 1 0 0
-2.550554 8.744632 15.915594 18.337940 -1.286998 0.519827 -0.001230 -0.000230 878100.000000 1 0 0
-3.232754 4.048832 14.845394 15.723532 -0.897007 0.335787 0.000697 -0.003392 -777481.000000 1 0 0
-4.448854 -9.061968 19.783694 22.210496 1.114426 0.471834 0.036656 -0.013692 -43409.900000 1 0 0
-5.770854 -2.870068 19.048194 20.109046 0.461516 0.326268 0.020331 -0.013340 -451337.000000 1 0 0
-6.633854 -8.656768 11.041194 15.519524 0.916932 0.779253 0.013209 -0.011856 949228.000000 1 0 0
-11.522154 2.274232 12.779394 17.356413 -0.194874 0.743222 -0.010197 -0.005860 -656005.000000 1 0 0
-11.767154 -7.644968 11.481994 18.131399 0.576155 0.885031 0.000804 -0.006312 1064540.000000 1 0 0
-10.925754 -7.669568 15.586094 20.521225 0.612048 0.708235 0.006418 -0.008470 582113.000000 1 0 0
0.246746 5.606532 17.672794 18.542431 1.526814 0.307477 -0.000514 -0.005191 -121361.000000 1 0 0
-2.101154 -0.130968 13.260794 13.426863 0.062251 0.157442 0.001470 -0.001571 -334977.000000 1 0 0
-5.963154 -10.583868 18.291494 21.958056 1.057709 0.586253 0.028563 -0.012500 -496055.000000 1 0 0
0.433446 2.709032 19.174494 19.369769 1.412141 0.142116 0.009359 -0.003728 -462448.000000 1 0 0
-0.736154 10.894032 14.820994 18.408795 -1.503325 0.634946 -0.003860 0.000252 11376.700000 1 0 0
-12.676554 -2.381668 14.329894 19.279866 0.185715 0.732871 -0.000974 0.000232 287092.000000 1 0 0
-13.895954 8.302132 11.728294 19.989392 -0.538542 0.943787 0.013584 -0.011152 565184.000000 1 0 0
-18.106954 -0.562368 6.968594 19.409774 0.031048 1.203573 0.028735 -0.015907 -858972.000000 1 0 0
-2.010754 -7.986968 17.682594 19.506638 1.324167 0.435898 0.016149 -0.011474 -2792590.000000 1 0 0
5.712146 2.627832 14.457694 15.765755 0.431174 0.410224 0.002461 0.002784 -2337370.000000 1 0 0
-14.256854 -6.952268 10.912394 19.252850 0.453714 0.968188 0.013322 -0.010204 828734.000000 1 0 0
3.243646 7.650132 16.060994 18.083177 1.169774 0.477442 -0.001671 -0.006876 -585136.000000 1 0 0
0.991746 2.057532 14.564494 14.742506 1.121646 0.155558 0.005885 -0.003566 -2436830.000000 1 0 0
-14.425454 0.659132 9.727794 17.411437 -0.045661 0.977977 0.003984 -0.001011 -1778940.000000 1 0 0
-9.486854 -5.428868 15.505294 18.970692 0.519766 0.614037 0.004523 0.001653 -832002.000000 1 0 0
-2.512254 -0.240868 18.121094 18.295996 0.095585 0.138383 0.004273 -0.004061 206361.000000 1 0 0
6.729346 3.719732 17.484794 19.100747 0.504962 0.414300 0.015355 -0.005392 -680523.000000 1 0 0
-4.271254 -0.807468 14.617694 15.250331 0.186842 0.289045 0.007885 0.000700 -724482.000000 1 0 0
4.900446 -9.024168 17.826394 20.572562 -1.073316 0.522623 0.019274 -0.006874 -136506.000000 1 0 0
1.915546 6.922032 13.437394 15.236384 1.300821 0.490860 0.001548 0.000798 -1291240.000000 1 0 0
-3.565754 -0.757068 20.367094 20.690729 0.209210 0.177102 0.011473 -0.004028 -1188660.000000 1 0 0
-10.505154 1.342232 16.388894 19.512962 -0.127080 0.573701 -0.002181 -0.005853 -600550.000000 1 0 0
-3.790054 6.961532 18.384994 20.020875 -1.072241 0.407054 0.004013 -0.003992 -851383.000000 1 0 0
-12.412554 0.970932 14.792894 19.335044 -0.078063 0.699628 -0.007602 -0.003845 -879578.000000 1 0 0
-16.037954 -4.865768 8.484494 18.785055 0.294565 1.102169 0.008086 -0.012921 -2193760.000000 1 0 0
-2.454154 0.750532 15.730794 15.938759 -0.296789 0.161717 0.003144 -0.002562 -197121.000000 1 0 0
-13.786054 -8.933668 12.527594 20.659291 0.574984 0.919283 -0.002942 -0.010615 348015.000000 1 0 0
6.165946 -3.279868 14.546394 16.136109 -0.488866 0.447617 0.019926 -0.011780 607364.000000 1 0 0
-15.772854 0.365832 7.531594 17.482610 -0.023190 1.125412 0.009222 -0.007813 -335406.000000 1 0 0
-13.963454 5.935132 12.807794 19.855564 -0.401911 0.869710 -0.001261 0.002337 -95880.100000 1 0 0
0.402646 9.322732 16.669594 19.103686 1.527633 0.510326 -0.008081 -0.006329 -606553.000000 1 0 0
-10.431854 -5.534368 10.777194 15.987517 0.487769 0.831050 0.004313 -0.001193 247611.000000 1 0 0
-3.205354 -11.189668 15.038894 19.017132 1.291811 0.658669 0.019485 -0.016568 -960642.000000 1 0 0
-3.531854 2.680132 12.689294 13.441551 -0.649138 0.336140 0.000338 -0.001564 -2445650.000000 1 0 0
-12.399354 -7.792468 7.317594 16.371124 0.561082 1.107408 0.006884 -0.008865 458820.000000 1 0 0
-8.086354 -2.089968 13.178094 15.601899 0.252921 0.564891 -0.001197 0.001187 -333034.000000 1 0 0
-9.806254 6.467332 9.538294 15.131690 -0.583032 0.888790 -0.008713 -0.000367 -619381.000000 1 0 0
-17.884154 -3.479368 6.632894 19.389281 0.192150 1.221655 0.011399 -0.016556 381412.000000 1 0 0
-1.155054 -0.190168 20.396894 20.430458 0.163176 0.057328 0.005605 -0.006827 -1490010.000000 1 0 0
-2.662154 2.460332 20.164894 20.488125 -0.746019 0.177866 0.006655 -0.003366 -636489.000000 1 0 0
-3.777154 11.307132 11.162194 16.331341 -1.248400 0.818273 -0.005686 -0.002222 -657901.000000 1 0 0
-4.102754 -4.902368 14.828494 16.147756 0.873961 0.407030 0.010941 -0.008724 106135.000000 1 0 0
-0.113054 -14.540868 13.289494 19.699245 1.563022 0.830347 0.012720 -0.009813 -656036.000000 1 0 0
-12.147854 0.265232 8.363994 14.751173 -0.021830 0.967931 -0.000882 -0.000744 -550669.000000 1 0 0
-7.806954 2.165732 15.475094 17.467612 -0.270606 0.482299 0.002708 -0.000509 -61654.700000 1 0 0
3.539546 -2.291968 18.429194 18.905467 -0.574638 0.224939 0.021586 -0.010071 -323025.000000 1 0 0
-2.076354 4.858932 12.612794 13.674905 -1.166956 0.396725 0.001409 -0.003631 -606049.000000 1 0 0
-10.450254 -6.417468 13.321294 18.106589 0.550720 0.744074 0.000601 -0.002997 -150489.000000 1 0 0
2.295346 -3.887868 14.317594 15.012582 -1.037475 0.305468 0.005988 -0.004233 -678055.000000 1 0 0
6.778146 1.151132 16.970094 18.309901 0.168225 0.384926 0.009606 -0.001785 -1299520.000000 1 0 0
-1.923854 -5.829268 13.746594 15.054914 1.252019 0.419981 0.003420 -0.007106 -3070110.000000 1 0 0
-12.524154 3.583532 14.767194 19.691779 -0.278684 0.722860 -0.026558 0.000375 10214.500000 1 0 0
-13.433454 -6.436868 13.271794 19.950726 0.446843 0.842996 0.003408 -0.011826 -288261.000000 1 0 0
-9.524654 6.825732 11.914894 16.711503 -0.621806 0.777064 -0.013798 -0.001772 -2431.530000 1 0 0
-1.173054 -2.501868 12.839394 13.133371 1.132360 0.211981 0.002873 0.000337 128968.000000 1 0 0
0.012846 6.641532 15.258394 16.641175 1.568862 0.410538 -0.001323 -0.002953 287345.000000 1 0 0
-16.351654 -1.105568 9.629594 19.008628 0.067509 1.039570 0.012159 -0.003852 -357494.000000 1 0 0
-1.319754 2.703632 13.810994 14.134884 -1.116681 0.214487 0.003462 -0.003644 -3298150.000000 1 0 0
-11.094754 -3.516268 15.965194 19.757154 0.306916 0.629925 0.002497 -0.003109 -1193370.000000 1 0 0
-5.044054 -1.469668 17.085294 17.874834 0.283517 0.298327 0.005058 0.000347 50443.000000 1 0 0
-11.981554 6.618932 11.236994 17.709826 -0.504705 0.883427 -0.005922 0.002262 -1181170.000000 1 0 0
-2.642654 4.641332 18.763094 19.508441 -1.053200 0.277316 0.004920 -0.000915 221786.000000 1 0 0
5.058046 -1.944968 16.315094 17.191539 -0.367099 0.320688 0.021141 -0.010046 -582388.000000 1 0 0
-7.985854 -4.334768 12.061094 15.100797 0.497303 0.645655 0.006073 0.001036 -2560680.000000 1 0 0
-11.620754 -0.929468 16.253794 20.002291 0.079814 0.622203 0.011085 -0.001099 409957.000000 1 0 0
2.060246 2.012632 17.328494 17.566218 0.773708 0.164704 0.003844 -0.004894 -1003050.000000 1 0 0
-9.098654 -7.650368 11.496694 16.537461 0.699143 0.802111 0.011334 -0.009234 19165.600000 1 0 0
-7.299854 6.590332 14.858694 17.818561 -0.734362 0.584680 -0.013383 -0.007645 -1078770.000000 1 0 0
-5.611654 3.385232 15.842394 17.144442 -0.542806 0.392242 -0.004379 -0.002653 -256056.000000 1 0 0
-9.411054 4.203832 11.645394 15.551699 -0.420099 0.724519 -0.008086 -0.001841 -206543.000000 1 0 0
-9.996954 -0.046268 14.311694 17.457543 0.004628 0.609735 -0.004082 0.000994 102454.000000 1 0 0
8.065546 -0.703368 15.817294 17.768921 -0.086986 0.473086 0.008569 -0.002151 206500.000000 1 0 0
-8.535254 -7.623068 14.638194 18.580593 0.729005 0.663532 0.012017 -0.004975 -2177080.000000 1 0 0
-0.145054 4.067632 15.622594 16.144105 -1.535151 0.254868 0.003148 -0.005159 29957.800000 1 0 0
-8.094954 3.164432 9.675994 13.006412 -0.372649 0.731849 -0.011098 0.000699 -1135590.000000 1 0 0
-2.038954 -9.796768 13.070594 16.461301 1.365600 0.653403 0.006740 -0.009938 357724.000000 1 0 0
-6.078254 10.343132 10.442594 15.905135 -1.039499 0.854554 -0.003376 -0.002389 -1061160.000000 1 0 0
-8.520554 -2.953168 15.632094 18.046701 0.333637 0.523245 0.006814 -0.002788 676527.000000 1 0 0
4.130446 5.827032 17.777194 19.158380 0.954161 0.382037 0.007515 0.001790 730949.000000 1 0 0
-6.768254 -1.165768 15.124894 16.611162 0.170567 0.426242 0.003369 0.000234 -855285.000000 1 0 0
-0.885354 -10.074068 15.408694 18.430913 1.483137 0.580799 0.003643 -0.011359 546286.000000 1 0 0
-4.333854 5.622732 16.295294 17.774533 -0.914132 0.410860 0.001091 -0.004450 324762.000000 1 0 0
3.803146 0.008432 17.432094 17.842138 0.002217 0.214804 0.014211 -0.002460 -332363.000000 1 0 0
1.418546 0.382432 19.285194 19.341076 0.263334 0.076036 0.003432 -0.001013 -521586.000000 1 0 0
-6.281154 6.360732 17.936594 20.040789 -0.791693 0.462355 -0.007592 -0.000442 -399459.000000 1 0 0
-12.177854 0.536332 10.936394 16.376583 -0.044013 0.839538 0.000870 0.000973 -143459.000000 1 0 0
-5.403754 5.072032 13.923494 15.773070 -0.753743 0.489138 -0.006594 -0.003023 -1987440.000000 1 0 0
-8.687154 -9.494168 9.726194 16.130862 0.829756 0.923596 0.008545 -0.012349 -47385.600000 1 0 0
6.806946 -3.675268 17.024994 18.700068 -0.495078 0.426488 0.018797 -0.009366 30622.300000 1 0 0
-16.818754 1.433332 9.639494 19.438229 -0.085017 1.051921 0.022140 -0.008694 -535299.000000 1 0 0
-4.097854 -9.607368 11.342994 15.419385 1.167628 0.744197 0.009284 -0.010595 -325158.000000 1 0 0
-11.056054 -3.942868 9.058894 14.827208 0.342565 0.913518 0.002437 0.001266 -440813.000000 1 0 0
3.559646 -5.222268 18.514694 19.563667 -0.972507 0.328951 0.016462 -0.016481 -164329.000000 1 0 0
2.515346 -1.889768 16.058394 16.363686 -0.644330 0.193468 0.006573 -0.007408 -264820.000000 1 0 0
-3.311154 -4.481768 20.214694 20.968639 0.934498 0.268974 0.019405 -0.009859 -472034.000000 1 0 0
-6.267254 -3.602768 14.343594 16.062288 0.521726 0.466833 0.008409 0.000271 513148.000000 1 0 0
-9.689854 5.193332 13.945194 17.757601 -0.491997 0.667602 -0.009877 -0.007614 -400859.000000 1 0 0
-5.873954 -5.304768 11.676394 14.106101 0.734525 0.595702 0.004985 -0.001037 -418011.000000 1 0 0
6.155546 2.082832 19.370294 20.431281 0.326274 0.323683 0.024831 -0.009647 48196.000000 1 0 0
-2.761054 11.893832 13.548794 18.238873 -1.342695 0.733475 -0.003891 -0.006837 -1161660.000000 1 0 0
3.389546 1.305932 15.228794 15.656010 0.367755 0.234148 0.005967 -0.000851 -470728.000000 1 0 0
-5.830054 7.353032 12.893094 15.946425 -0.900413 0.629154 -0.008298 -0.008814 28996.000000 1 0 0
-1.913054 -1.738468 15.271194 15.488428 0.737623 0.167681 0.003392 -0.000877 828562.000000 1 0 0
-7.282854 10.446332 14.129394 19.021188 -0.961973 0.733518 0.007550 -0.010267 -13738.700000 1 0 0
-10.144454 2.007632 10.570894 14.787979 -0.195380 0.774415 -0.009457 0.002113 -1263110.000000 1 0 0
-13.646054 5.216532 9.257794 17.295483 -0.365133 1.005966 -0.006411 0.002939 363034.000000 1 0 0
0.402146 -5.055968 20.271494 20.896363 -1.491424 0.245167 0.008183 -0.005743 -163333.000000 1 0 0
-14.342554 -3.058168 7.574394 16.505535 0.210077 1.094039 0.006390 -0.007926 121798.000000 1 0 0
-2.282554 2.429732 17.588194 17.901347 -0.816621 0.187321 -0.001579 -0.001977 -261397.000000 1 0 0
-6.112254 -8.449568 14.706994 18.029157 0.944550 0.616800 0.012917 -0.007899 -548057.000000 1 0 0
-8.026754 1.971532 12.039494 14.603600 -0.240852 0.601620 -0.008578 0.001389 -1260620.000000 1 0 0
-14.625554 -3.550168 10.127894 18.140693 0.238132 0.978465 0.010325 -0.007873 228201.000000 1 0 0
-0.523454 6.986932 12.754794 14.552525 -1.496017 0.502324 0.000629 -0.003086 -1782380.000000 1 0 0
-1.857754 -2.492368 19.367794 19.615672 0.930261 0.159144 0.009980 -0.007443 -526268.000000 1 0 0
-12.701054 10.444032 7.365494 18.017910 -0.688189 1.149671 -0.006597 -0.006664 -735807.000000 1 0 0
-19.626354 2.073332 7.056594 20.959198 -0.105250 1.227405 0.036213 -0.021053 1746050.000000 1 0 0
-16.370954 8.346432 6.725294 19.567847 -0.471482 1.219952 0.015088 0.000510 429447.000000 1 0 0
-12.261254 7.570432 13.701494 19.884183 -0.553135 0.810598 0.000021 -0.003537 155935.000000 1 0 0
-15.922354 8.449832 10.005794 20.616424 -0.487897 1.064054 0.003191 -0.009450 -717821.000000 1 0 0
1.836446 10.889832 15.057894 18.673541 1.403730 0.632798 -0.002627 -0.007504 -1389050.000000 1 0 0
2.133746 14.549532 12.506794 19.304446 1.425180 0.866010 0.004087 -0.001111 -961550.000000 1 0 0
-3.221554 13.603432 11.759394 18.267871 -1.338261 0.871447 -0.004586 -0.004179 244546.000000 1 0 0
9.143346 4.976232 15.883194 18.990511 0.498415 0.580159 0.006518 0.011653 13431.100000 1 0 0
-0.295854 12.600232 12.955294 18.074651 -1.547321 0.771643 -0.004981 -0.001489 82201.900000 1 0 0
3.606546 13.419432 14.439094 20.039356 1.308245 0.766220 0.000349 0.001752 -42277.000000 1 0 0
-2.942554 -4.047568 -13.784306 14.664533 0.942183 2.793356 -0.002414 -0.004880 -315384.000000 1 0 0
5.912846 -11.429868 16.434294 20.873180 -1.093393 0.664314 0.010169 -0.001168 224816.000000 1 0 0
7.750546 -13.500668 7.330594 17.206877 -1.049649 1.130700 -0.005265 0.004933 -369050.000000 1 0 0
-0.122154 15.626132 1.294094 15.680102 -1.562979 1.488171 0.001051 -0.003998 -3383970.000000 1 0 0
-13.512154 8.236032 9.113494 18.261059 -0.547396 1.048274 -0.013059 0.001147 -32835.700000 1 0 0
-15.522854 -9.778768 4.762194 18.954202 0.562158 1.316828 0.012541 -0.002687 -65360.300000 1 0 0
9.570746 -11.059368 11.031194 18.319281 -0.857431 0.924589 0.008167 -0.001670 256046.000000 1 0 0
-5.767354 -10.718468 -16.745706 20.701850 1.077154 2.513073 0.007360 -0.009350 19815.300000 1 0 0
-1.950054 -12.518368 -14.948006 19.594773 1.416263 2.438516 0.006642 -0.001023 -77013.000000 1 0 0
5.513546 -15.830468 -12.246406 20.759994 -1.235648 2.201736 -0.000911 0.001322 258881.000000 1 0 0
2.766746 -11.712968 -16.693306 20.579479 -1.338836 2.516934 0.014371 -0.005970 221588.000000 1 0 0
0.454846 -13.800868 -14.515006 20.033877 -1.537850 2.381138 0.015651 0.007631 30177.300000 1 0 0
-6.415054 -5.733868 -14.466506 16.831814 0.729387 2.605036 -0.001579 -0.007722 -10750.100000 1 0 0
-6.067854 -8.069968 -17.159706 19.909765 0.926077 2.609750 -0.009164 -0.011413 -95921.100000 1 0 0
-2.433754 -16.416368 -13.180006 21.192755 1.423617 2.241977 0.010793 0.005041 148032.000000 1 0 0
16.349146 -8.033568 -8.915306 20.280914 -0.456724 2.025940 0.019194 -0.007301 -22577.700000 1 0 0
18.802946 -2.431368 -3.469906 19.274402 -0.128594 1.751810 -0.007574 -0.018351 -156852.000000 1 0 0
15.821146 -11.323068 -8.706606 21.314913 -0.621180 1.991579 0.030676 -0.014271 130426.000000 1 0 0
18.734246 -2.602668 -6.457506 19.986126 -0.138042 1.899799 0.136773 -0.005387 -353569.000000 1 0 0
8.958946 -9.754168 -15.887506 20.683795 -0.827868 2.446686 0.035736 -0.004054 96438.000000 1 0 0
-4.559554 9.594832 -16.008906 19.212897 -1.127177 2.555734 0.000195 -0.008725 137723.000000 1 0 0
2.659646 -9.568968 -18.504606 21.001412 -1.299694 2.649006 0.025465 -0.001976 521057.000000 1 0 0
11.079746 8.017232 -15.077806 20.356253 0.626386 2.404903 0.007490 -0.019170 529841.000000 1 0 0
18.726746 -6.008468 -8.584506 21.458948 -0.310473 1.982360 0.022612 -0.005458 330827.000000 1 0 0
12.570746 5.526632 -13.774306 19.449906 0.414207 2.357733 0.001642 -0.001262 169493.000000 1 0 0
15.797946 6.386432 -10.587306 20.061223 0.384171 2.126746 -0.009242 -0.008257 178543.000000 1 0 0
3.456746 -0.168668 -19.083806 19.395082 -0.048755 2.962192 0.019799 -0.012898 179911.000000 1 0 0
10.184146 -1.485968 -14.674106 17.923569 -0.144887 2.529948 0.000920 -0.006655 18110.300000 1 0 0
12.109746 -5.884168 -13.988606 19.415213 -0.452307 2.375315 0.010018 -0.003503 247852.000000 1 0 0
10.087946 6.502932 -12.726906 17.493682 0.572587 2.385488 -0.002045 -0.003137 485177.000000 1 0 0
10.727746 5.237432 -16.340106 20.236460 0.454174 2.510628 0.008420 -0.003699 95649.100000 1 0 0
11.928046 -9.987268 -14.874806 21.524025 -0.697070 2.333777 0.031297 -0.021003 358060.000000 1 0 0
-1.336954 2.130432 -17.493606 17.673495 -1.010365 2.998794 0.001941 -0.008673 399045.000000 1 0 0
6.563446 -1.104268 -17.252706 18.492001 -0.166684 2.773408 0.011051 0.009450 129400.000000 1 0 0
7.197846 -6.275668 -15.686106 18.364284 -0.717061 2.594737 0.009782 -0.006405 308406.000000 1 0 0
-2.231154 -4.625668 -20.324906 20.963698 1.121375 2.894096 0.017037 -0.023377 84554.200000 1 0 0
15.508046 -0.173368 -13.364006 20.472572 -0.011179 2.282040 -0.017856 0.006529 -38189.700000 1 0 0
-3.668554 -0.456068 -18.674406 19.036799 0.123684 2.946159 -0.004263 -0.003183 170453.000000 1 0 0
3.432246 8.991832 -17.639106 20.094064 1.206158 2.642102 -0.001721 -0.014157 -317268.000000 1 0 0
10.140546 0.763532 -16.621606 19.485673 0.075153 2.592535 0.012932 -0.027112 -117130.000000 1 0 0
4.400246 4.570032 -18.494906 19.552721 0.804323 2.811152 0.012577 0.000991 469483.000000 1 0 0
-3.128554 -10.793868 -17.900506 21.135836 1.288681 2.580975 0.026266 -0.023514 222669.000000 1 0 0
6.653846 -9.080468 -16.272106 19.786612 -0.938417 2.536377 0.028948 -0.006040 256843.000000 1 0 0
9.962746 -12.589268 -10.821606 19.361124 -0.901341 2.163897 0.004809 0.003194 173635.000000 1 0 0
6.240746 6.942832 -17.075206 19.460537 0.838602 2.641269 0.008497 -0.002827 286284.000000 1 0 0
8.453846 1.302832 -20.155906 21.895786 0.152908 2.740252 0.009706 -0.006251 56687.000000 1 0 0
-0.852854 -0.861268 -20.243906 20.280160 0.790307 3.081790 0.012438 -0.014781 161473.000000 1 0 0
-0.867754 6.674532 -19.516306 20.644335 -1.441512 2.809490 0.002083 -0.010015 36038.900000 1 0 0
8.715746 5.818032 -18.126806 20.937880 0.588601 2.617428 0.011789 -0.005210 95036.800000 1 0 0
12.299146 0.015732 -13.330506 18.137575 0.001279 2.396413 0.003128 0.004856 -6784.490000 1 0 0
-3.674154 -2.498968 -19.648806 20.144970 0.597278 2.919190 -0.024728 -0.010966 378138.000000 1 0 0
5.738346 -11.355068 -14.536606 19.317844 -1.102873 2.422641 -0.004402 -0.008603 88949.800000 1 0 0
12.000646 2.970032 -15.605606 19.909082 0.242614 2.471628 0.032560 -0.002885 -156682.000000 1 0 0
-2.946654 -4.369068 -16.899406 17.702018 0.977435 2.839311 -0.000178 -0.007861 216508.000000 1 0 0
-6.628854 -4.620068 -17.552406 19.322880 0.608685 2.710176 0.003884 -0.008841 -10593.500000 1 0 0
2.999946 10.215232 -15.192106 18.551300 1.285153 2.530330 -0.002721 -0.013495 286283.000000 1 0 0
17.047846 -6.229668 -10.856006 21.149248 -0.350348 2.109827 0.033221 -0.012475 -6366.890000 1 0 0
9.577946 -3.143868 -17.707906 20.376234 -0.317160 2.624069 0.000832 -0.009548 -33313.800000 1 0 0
-6.924054 -1.451368 -19.283306 20.540080 0.206621 2.789966 -0.013868 0.016573 592622.000000 1 0 0
1.298646 -7.298168 -19.144206 20.529256 -1.394698 2.772161 0.025627 -0.021893 286466.000000 1 0 0
6.113646 11.108832 -14.378706 19.171072 1.067691 2.418890 0.006239 0.011151 489692.000000 1 0 0
6.134746 -3.723068 -17.995106 19.373182 -0.545465 2.762138 0.013342 -0.012804 570248.000000 1 0 0
4.511546 13.382532 -14.703006 20.386873 1.245640 2.376329 0.000213 -0.005593 96997.200000 1 0 0
9.241446 11.339332 -15.236206 21.121713 0.886982 2.376550 0.018759 -0.008296 66440.000000 1 0 0
17.330846 1.128832 -11.705106 20.943782 0.065042 2.163833 0.020380 0.016224 96446.700000 1 0 0
15.457946 -2.489468 -11.998706 19.725985 -0.159677 2.224674 0.022114 -0.006323 -48677.200000 1 0 0
-8.948054 -0.117468 -17.248806 19.432004 0.013127 2.663012 0.022036 -0.002648 348496.000000 1 0 0
-3.346954 4.161332 -18.928806 19.667701 -0.893440 2.866614 0.010744 -0.009986 66893.100000 1 0 0
4.387846 2.456232 -16.832406 17.567475 0.510321 2.851290 0.009927 -0.009467 246092.000000 1 0 0
-5.014254 14.200332 -13.901506 20.494976 -1.231355 2.316227 0.003317 -0.009268 126386.000000 1 0 0
0.992646 9.725832 -17.671506 20.195526 1.469086 2.636275 0.006756 -0.003017 184622.000000 1 0 0
1.244646 -5.186568 -20.148606 20.842647 -1.335275 2.882805 0.023136 0.000496 558195.000000 1 0 0
3.995646 -6.236268 -17.836906 19.313504 -1.000979 2.748022 0.029996 -0.025744 138264.000000 1 0 0
-6.634854 7.610632 -15.933306 18.863013 -0.853789 2.576773 -0.002897 -0.000541 -91016.100000 1 0 0
-11.422354 3.371332 -17.015906 20.769620 -0.287003 2.530931 0.019898 -0.009433 324434.000000 1 0 0
-4.208154 6.688432 -17.948206 19.610757 -1.009205 2.726856 0.001592 0.026752 426745.000000 1 0 0
-8.235054 5.555932 -17.175706 19.841607 -0.593522 2.617225 0.013617 -0.017875 465778.000000 1 0 0
-8.373154 4.390132 -14.560306 17.360457 -0.482906 2.565698 -0.003712 -0.026794 390205.000000 1 0 0
9.431946 13.961432 -12.685306 21.090287 0.976654 2.216144 0.008043 -0.006911 444019.000000 1 0 0
13.102246 9.534832 -11.822806 20.058929 0.629092 2.201117 -0.023546 -0.020370 7665.200000 1 0 0
8.861646 15.525932 -9.728106 20.352380 1.052151 2.069154 0.005771 -0.014086 9607.220000 1 0 0
7.597346 14.443232 -14.205606 21.636217 1.086555 2.287053 0.010582 -0.004396 172320.000000 1 0 0
4.112446 15.380232 -13.001506 20.554876 1.309523 2.255607 0.007081 -0.014608 153287.000000 1 0 0
10.633646 11.931732 -11.323906 19.587535 0.842860 2.187217 0.005856 -0.010794 72083.300000 1 0 0
15.920946 10.437432 -10.721906 21.848931 0.580287 2.083723 0.038731 -0.002457 199912.000000 1 0 0
13.172246 11.347832 -9.931806 20.023040 0.711130 2.089804 0.032296 -0.014880 236376.000000 1 0 0
10.835346 11.258232 -7.780006 17.455114 0.804536 2.032769 0.015187 -0.011377 152782.000000 1 0 0
5.920946 16.905632 -10.065606 20.546884 1.233912 2.082754 0.028024 -0.005319 -185153.000000 1 0 0
11.671346 14.014932 -10.249106 20.920870 0.876385 2.082770 0.038083 -0.018995 -77383.600000 1 0 0
8.105246 -19.471268 -1.634606 21.154130 -1.176346 1.648145 0.024408 -0.000210 325131.000000 1 0 0
7.167646 -16.767068 -3.946206 18.656963 -1.166824 1.783920 0.011221 -0.005982 383159.000000 1 0 0
3.743846 -18.795068 4.980394 19.800891 -1.374177 1.316542 0.042751 -0.017137 29799.800000 1 0 0
10.109746 -18.018368 -2.849706 20.856399 -1.059486 1.707860 0.016456 0.006903 496507.000000 1 0 0
-3.552754 -14.848968 7.857994 17.171546 1.335952 1.095483 0.025259 -0.026163 179955.000000 1 0 0
-15.395154 -12.730668 -4.365206 20.448366 0.690946 1.785926 0.015600 -0.005871 189033.000000 1 0 0
-9.132554 -12.583768 -7.313006 17.182398 0.943003 2.010433 0.007370 -0.011217 203433.000000 1 0 0
-11.421654 -15.347468 6.928994 20.347233 0.931015 1.223308 0.004504 -0.001656 307548.000000 1 0 0
-15.014354 -8.509468 -8.365706 19.178814 0.515616 2.022162 0.036766 -0.000904 -8007.410000 1 0 0
5.337546 -16.045268 5.538494 17.793677 -1.249656 1.254276 0.035948 -0.003165 136641.000000 1 0 0
2.848346 -14.098068 8.850194 16.887704 -1.371442 1.019184 0.015090 -0.003806 332187.000000 1 0 0
3.386446 -17.520268 10.053194 20.481565 -1.379863 1.057741 0.031311 -0.003414 145936.000000 1 0 0
-7.510454 -17.319768 -5.514606 19.667032 1.161635 1.855006 -0.025120 -0.018579 -81177.500000 1 0 0
2.061146 -19.946168 -4.083506 20.463943 -1.467826 1.771691 0.013417 -0.001933 28587.800000 1 0 0
-17.503254 -10.911168 -2.559406 20.783841 0.557433 1.694254 -0.052320 0.007054 -15332.300000 1 0 0
-4.147854 -14.768568 2.685294 15.573249 1.296993 1.397500 -0.006418 0.000273 182357.000000 1 0 0
-10.549554 -9.534068 -14.786406 20.514125 0.734878 2.375740 -0.000927 -0.000014 254733.000000 1 0 0
-0.091754 -19.927168 2.264794 20.055666 1.566192 1.457630 0.006823 -0.019351 287232.000000 1 0 0
6.741446 -18.432268 1.029294 19.653372 -1.220167 1.518400 0.034193 -0.001077 275633.000000 1 0 0
-6.971854 -18.861068 -3.220906 20.364696 1.216731 1.729625 -0.032120 -0.025273 41675.800000 1 0 0
-9.401654 -15.762368 -7.633306 19.877392 1.032982 1.964942 0.024881 -0.014230 19664.400000 1 0 0
-11.709054 -11.182668 -12.153506 20.245042 0.762408 2.214698 -0.002584 0.002897 251928.000000 1 0 0
-13.389054 -15.195968 -3.469406 20.548016 0.848526 1.740453 0.016266 -0.011581 315191.000000 1 0 0
-0.644954 -20.709068 -2.515006 20.871193 1.539663 1.691591 0.007436 -0.006984 364343.000000 1 0 0
-12.230954 -16.829968 -0.915406 20.825033 0.942351 1.614767 0.028774 -0.008039 267029.000000 1 0 0
0.595046 -20.258868 4.798294 20.827852 -1.541433 1.338329 0.028269 -0.006787 53732.300000 1 0 0
-18.176654 -9.155968 2.257194 20.477241 0.466620 1.460342 0.020553 0.007666 93716.100000 1 0 0
-15.133854 -14.977768 -0.698006 21.303856 0.780215 1.603566 0.022302 0.000955 -76642.300000 1 0 0
10.138346 -15.237368 -5.320406 19.059648 -0.983698 1.853700 0.013407 -0.003450 -103482.000000 1 0 0
-0.085754 -19.079368 -7.006406 20.325338 1.566302 1.922729 0.006064 -0.005019 143275.000000 1 0 0
-10.172254 -17.971468 -3.080906 20.879185 1.055735 1.718896 0.023173 0.015581 591633.000000 1 0 0
-14.673454 -6.603968 -11.229406 19.621982 0.422906 2.180088 0.014441 -0.011135 19985.300000 1 0 0
-12.273354 -14.209268 1.423694 18.829907 0.858370 1.495116 0.023071 -0.024041 -25118.800000 1 0 0
-2.908054 -16.032668 10.194994 19.220851 1.391364 1.011708 0.019285 -0.019453 270708.000000 1 0 0
-12.434154 -14.412368 -6.601706 20.147135 0.858951 1.904638 0.011306 -0.011888 167630.000000 1 0 0
5.774546 -16.935268 -6.364806 18.991036 -1.242182 1.912559 0.010773 -0.013334 -78516.400000 1 0 0
-17.521954 -7.189368 -3.082506 19.188739 0.389359 1.732137 -0.006351 0.007954 -43606.000000 1 0 0
-12.040454 -13.726368 -9.437906 20.553826 0.850735 2.047868 0.014211 -0.015429 52450.400000 1 0 0
-7.474454 -14.742968 10.245194 19.447019 1.101577 1.015934 0.006750 0.007876 460490.000000 1 0 0
-15.505254 -7.949668 -5.841306 18.377458 0.473762 1.894259 0.002855 0.004415 207533.000000 1 0 0
-0.814654 -19.661068 -0.178506 19.678748 1.529385 1.579867 0.001368 -0.008006 330703.000000 1 0 0
-15.035654 -11.615168 -2.104706 19.115773 0.657752 1.681123 0.011914 0.013503 44564.400000 1 0 0
-6.764754 -18.824668 1.042694 20.030408 1.225811 1.518717 -0.017792 -0.005432 -62112.800000 1 0 0
-2.428154 -20.428868 -5.608406 21.323433 1.452492 1.836943 0.001956 -0.010066 232846.000000 1 0 0
-8.974654 -19.795468 -1.103806 21.762889 1.145144 1.621538 0.005180 0.006656 79786.400000 1 0 0
-17.655454 -7.731468 5.000494 19.912197 0.412753 1.316952 0.014371 -0.003728 -139396.000000 1 0 0
-2.900654 -15.835668 -10.901006 19.442585 1.389632 2.165999 0.006952 0.006772 21855.200000 1 0 0
-3.362154 -18.438768 -7.835706 20.314786 1.390436 1.966778 -0.002039 0.002735 236836.000000 1 0 0
3.774446 -17.844968 -6.052406 19.217725 -1.362355 1.891188 -0.004407 0.030854 324246.000000 1 0 0
0.615846 -17.502868 -9.193706 19.780139 -1.535625 2.054199 0.002983 0.009366 -129766.000000 1 0 0
-7.470154 -11.420268 -14.472106 19.891394 0.991535 2.385549 -0.008729 -0.015158 458086.000000 1 0 0
-4.927954 -19.677468 -1.889206 20.372937 1.325407 1.663661 -0.004329 -0.011165 380654.000000 1 0 0
-9.967954 -14.743668 8.855694 19.878611 0.976303 1.109076 -0.013804 -0.030432 122961.000000 1 0 0
-7.446454 -15.111968 -10.253206 19.721802 1.112964 2.117521 0.017792 -0.006819 316547.000000 1 0 0
-12.694454 -7.568668 -12.615606 19.431608 0.537634 2.277370 0.009845 -0.006677 328208.000000 1 0 0
-15.668654 -13.072068 3.053094 20.632669 0.695298 1.422277 0.016859 0.003327 143119.000000 1 0 0
-6.098354 -14.317368 -13.475106 20.585321 1.168129 2.284447 -0.010962 0.009694 397238.000000 1 0 0
-14.159054 -12.321068 -6.667306 19.918345 0.716099 1.912117 0.013024 0.003439 168326.000000 1 0 0
-11.855254 -10.477868 -8.136406 17.791398 0.723802 2.045778 0.016974 -0.005658 311382.000000 1 0 0
-10.054654 -15.063268 3.710294 18.486871 0.982221 1.368725 0.004742 0.009992 656839.000000 1 0 0
4.700346 -18.328968 8.250494 20.642552 -1.319762 1.159624 0.044736 -0.011359 162763.000000 1 0 0
-4.962854 -16.405668 5.020194 17.859961 1.277040 1.285870 -0.009386 0.001153 398192.000000 1 0 0
-18.578754 -7.089468 -6.937406 21.060823 0.364536 1.906463 0.012427 -0.002245 114222.000000 1 0 0
-17.042954 -3.457768 -10.908806 20.528528 0.200169 2.131046 0.026056 -0.012983 -275983.000000 1 0 0
-15.540154 -4.409368 -13.249906 20.892556 0.276474 2.257760 0.016193 -0.006592 191982.000000 1 0 0
-19.220654 -4.472268 -5.849306 20.582738 0.228613 1.858953 0.013231 -0.002891 -170666.000000 1 0 0
5.536246 -13.570468 8.692294 17.040059 -1.183444 1.035484 0.022583 0.003068 177662.000000 1 0 0
19.640746 -3.109768 2.651194 20.061366 -0.157029 1.438254 0.012160 -0.010721 -182150.000000 1 0 0
17.921546 -2.509768 0.140494 18.096975 -0.139137 1.563033 0.004076 -0.015896 350244.000000 1 0 0
14.199646 -11.235168 0.265894 18.108828 -0.669370 1.556113 0.020506 -0.001124 97964.700000 1 0 0
11.090846 -14.141868 5.753494 18.870665 -0.905729 1.260972 0.001518 0.017729 545385.000000 1 0 0
9.901746 -13.093468 9.158494 18.797912 -0.923316 1.061907 0.006545 0.008894 347978.000000 1 0 0
17.700746 4.626432 -4.354606 18.806459 0.255650 1.804465 -0.015878 0.002536 -78862.900000 1 0 0
19.410146 -5.707968 -4.374806 20.699604 -0.286009 1.783750 0.059866 -0.019345 -91609.600000 1 0 0
17.396246 -10.181668 0.008194 20.156781 -0.529525 1.570390 0.018313 -0.002079 182574.000000 1 0 0
17.591646 -8.803868 8.538594 21.444853 -0.464013 1.161281 0.056365 -0.012750 -187676.000000 1 0 0
19.931846 0.296332 -2.126706 20.047174 0.014866 1.677081 0.027628 -0.011236 104289.000000 1 0 0
7.735446 -12.987968 11.446594 18.961776 -1.033629 0.922704 0.013615 0.000499 317468.000000 1 0 0
16.271946 -6.563168 -3.513006 17.893927 -0.383385 1.768404 0.024922 -0.008774 393803.000000 1 0 0
14.353346 -7.910768 12.357894 20.525992 -0.503721 0.924717 0.010161 -0.013234 240393.000000 1 0 0
16.119346 1.198132 10.953594 19.525626 0.074192 0.975220 0.023375 -0.013860 287678.000000 1 0 0
16.278846 -9.982068 2.416994 19.247971 -0.550064 1.444893 -0.007512 -0.012425 201073.000000 1 0 0
16.303446 -7.470268 -6.096006 18.941187 -0.429654 1.898467 0.026685 -0.001091 339242.000000 1 0 0
18.514746 -4.611268 5.871194 19.963230 -0.244093 1.272282 0.108381 -0.012666 22129.100000 1 0 0
13.303946 -13.508268 8.081894 20.610320 -0.793018 1.167852 0.011545 0.001264 211721.000000 1 0 0
15.047646 -14.174068 -1.499906 20.726446 -0.755512 1.643226 0.017451 -0.006780 150917.000000 1 0 0
18.576746 -6.353468 7.933494 21.175514 -0.329541 1.186773 0.041440 -0.016419 291794.000000 1 0 0
19.529846 3.663832 2.834094 20.071638 0.185446 1.429124 0.017836 0.004465 290941.000000 1 0 0
15.674046 -10.734968 8.053194 20.634176 -0.600512 1.169856 0.031069 -0.020918 125041.000000 1 0 0
14.020246 -4.406468 10.656394 18.153319 -0.304518 0.943421 0.011069 -0.014230 -200196.000000 1 0 0
18.657046 -7.778368 2.008594 20.313120 -0.395001 1.471753 0.032218 -0.013542 -92703.000000 1 0 0
19.021446 -5.398268 -1.344406 19.818278 -0.276528 1.638685 0.022002 -0.018351 146450.000000 1 0 0
14.557746 -13.788568 -5.798806 20.872919 -0.758270 1.852315 0.032357 -0.012686 317754.000000 1 0 0
13.934946 -9.332968 9.905994 19.478597 -0.590136 1.037287 0.007148 -0.024399 496611.000000 1 0 0
14.237046 1.939232 0.276194 14.371165 0.135377 1.551577 -0.002047 -0.003002 -233311.000000 1 0 0
12.982146 2.793032 13.745194 19.111973 0.211914 0.768156 0.013950 -0.003058 18525.400000 1 0 0
18.162246 -3.735868 8.722394 20.491561 -0.202865 1.131108 0.030471 -0.024131 80158.000000 1 0 0
7.517546 -18.624868 5.312594 20.775535 -1.187165 1.312210 0.040500 -0.013401 311759.000000 1 0 0
12.517146 -2.835768 15.377194 20.029444 -0.222790 0.695506 0.002399 0.008078 255830.000000 1 0 0
11.819646 -13.786168 -7.157806 19.519136 -0.862048 1.946263 0.026721 -0.004778 252635.000000 1 0 0
10.614246 -17.820568 4.488094 21.222108 -1.033605 1.357705 0.013961 -0.005208 568189.000000 1 0 0
18.224446 0.075632 -4.814506 18.849818 0.004150 1.829072 0.013572 -0.017681 -157998.000000 1 0 0
4.157846 -13.384668 11.782094 18.309963 -1.269605 0.871761 0.002433 -0.002340 -19914.400000 1 0 0
9.267446 -2.806768 14.330994 17.295690 -0.294081 0.594216 0.013869 -0.005753 423638.000000 1 0 0
9.334146 -9.446368 13.927194 19.243879 -0.791374 0.761618 0.024728 -0.008090 311888.000000 1 0 0
21.133546 5.591032 -2.564006 22.010465 0.258632 1.687552 0.024305 0.004598 470308.000000 1 0 0
14.829046 -13.540868 1.951394 20.175819 -0.740023 1.473925 0.021846 0.000383 117618.000000 1 0 0
10.794446 0.060732 13.970194 17.654747 0.005626 0.657865 -0.003808 -0.025861 129413.000000 1 0 0
19.197146 0.345632 7.548494 20.630794 0.018002 1.196213 0.043626 -0.013092 97836.200000 1 0 0
19.754746 1.297732 0.452294 19.802492 0.065598 1.547954 0.020007 -0.005160 244855.000000 1 0 0
17.871646 0.226532 3.064194 18.133845 0.012675 1.401005 0.015381 -0.003158 133342.000000 1 0 0
10.472846 -8.258768 16.336694 21.089697 -0.667744 0.684668 0.032448 -0.009005 206928.000000 1 0 0
18.750046 3.103932 5.505394 19.786561 0.164055 1.288836 0.009702 0.000639 81431.100000 1 0 0
15.018746 1.990332 7.063794 16.715901 0.131755 1.134507 0.010091 -0.007801 9916.680000 1 0 0
11.348546 -16.047568 2.177694 19.775143 -0.955267 1.460450 -0.004212 0.008058 266979.000000 1 0 0
8.567946 -16.207368 6.936394 19.601072 -1.084496 1.209082 0.012117 0.001937 432086.000000 1 0 0
6.169046 6.651432 7.154494 11.553591 0.823007 0.903017 0.000665 0.001395 -1449500.000000 1 0 0
18.447346 2.304032 -6.827406 19.804712 0.124254 1.922754 -0.003262 0.003435 190469.000000 1 0 0
14.114346 4.555232 -7.234206 16.501474 0.312184 2.024611 0.011096 -0.002933 339445.000000 1 0 0
-10.253954 -3.791668 -13.736506 17.555965 0.354183 2.469372 0.004168 -0.011693 -321615.000000 1 0 0
7.503946 -14.147968 -10.465806 19.131317 -1.083133 2.149634 -0.000516 0.004212 821.402000 1 0 0
2.261446 -15.780568 14.023694 21.232156 -1.428460 0.849321 0.018863 -0.007174 402002.000000 1 0 0
-9.490654 -8.101268 2.156894 12.663145 0.706583 1.399633 0.003060 0.000778 384853.000000 1 0 0
-13.710954 3.158032 -9.738906 17.111683 -0.226381 2.176253 0.012980 -0.008390 416184.000000 1 0 0
-12.439354 -4.632368 -12.854106 18.477673 0.356486 2.340129 0.001586 -0.020581 -811.004000 1 0 0
-17.923554 -1.253968 -8.458206 19.858687 0.069848 2.010774 0.041770 -0.025182 356054.000000 1 0 0
-12.372954 14.926632 4.715594 19.953224 -0.878669 1.332207 0.000157 -0.018989 305220.000000 1 0 0
-17.311054 6.482632 9.008894 20.563494 -0.358314 1.117311 0.018356 -0.006062 94748.100000 1 0 0
-13.337154 15.360032 0.026694 20.342344 -0.855772 1.569484 0.012321 -0.021551 261811.000000 1 0 0
-15.679754 5.305432 -11.055306 19.905328 -0.326269 2.159633 0.005642 0.003014 83939.600000 1 0 0
-18.210054 3.028232 0.042994 18.460176 -0.164787 1.568467 0.026510 0.002842 43742.300000 1 0 0
-9.793754 15.524932 -0.041006 18.356002 -1.008008 1.573030 -0.008047 -0.002300 130475.000000 1 0 0
-17.898354 12.483932 2.734694 21.992685 -0.609040 1.446128 0.056789 -0.016387 -87908.100000 1 0 0
-8.256654 16.456632 -7.973906 20.064303 -1.105772 1.979497 0.047018 -0.019191 111440.000000 1 0 0
-15.268054 -1.826768 -13.042906 20.163530 0.119080 2.274251 0.037418 -0.019759 -12042.100000 1 0 0
-18.847954 5.414632 -4.753606 20.178215 -0.279746 1.808613 0.025013 0.001825 -101718.000000 1 0 0
-16.198554 8.998632 -6.106806 19.510551 -0.507072 1.889147 0.011321 -0.000947 -28520.800000 1 0 0
-18.945154 1.302632 2.792094 19.194048 -0.068650 1.424812 0.013863 -0.010015 42554.400000 1 0 0
-13.737954 11.750532 -7.104706 19.423780 -0.707582 1.945260 0.022312 -0.003173 216673.000000 1 0 0
-12.849854 5.123332 -13.510706 19.336661 -0.379392 2.344388 0.022837 -0.016277 -22572.600000 1 0 0
-14.001554 9.490032 -6.848206 18.248346 -0.595660 1.955493 0.009183 0.000529 186783.000000 1 0 0
-5.961154 11.133032 -15.393406 19.910718 -1.079195 2.454544 -0.014080 -0.033440 146880.000000 1 0 0
-14.946454 13.949632 3.116694 20.680969 -0.750915 1.419516 0.009285 -0.020249 29219.100000 1 0 0
-18.457854 8.756432 -4.856106 20.998791 -0.442960 1.804165 0.025085 -0.002918 43817.600000 1 0 0
-3.650254 17.086132 -9.962106 20.112280 -1.360322 2.089005 0.006023 0.000505 106643.000000 1 0 0
-19.607854 -1.922868 -6.610406 20.781309 0.097754 1.894515 0.038203 -0.009229 -135912.000000 1 0 0
-12.091354 13.649032 -6.641706 19.406421 -0.845839 1.920099 0.047757 -0.007636 139252.000000 1 0 0
-19.703454 3.016932 4.653794 20.469142 -0.151937 1.341434 0.040380 -0.009281 -140315.000000 1 0 0
-14.804454 12.397932 0.641994 19.320785 -0.697161 1.537562 -0.006942 -0.004388 90156.600000 1 0 0
-16.668154 1.860132 -9.219906 19.138811 -0.111138 2.073434 -0.034090 -0.002068 88843.400000 1 0 0
-16.546454 14.188432 -3.772206 22.120720 -0.708827 1.742162 0.021517 0.044751 328448.000000 1 0 0
-10.447254 15.551432 -8.893706 20.738615 -0.979257 2.014013 0.030169 -0.009408 178384.000000 1 0 0
-19.011954 2.308932 -6.889706 20.353221 -0.120854 1.916126 0.020949 -0.008208 262534.000000 1 0 0
-17.032154 10.585632 -0.398806 20.057640 -0.556085 1.590681 0.016281 0.002233 -49490.200000 1 0 0
-11.509354 7.039332 -14.643906 19.911338 -0.548919 2.397135 0.018340 -0.013104 411478.000000 1 0 0
-13.214254 12.281932 -4.793506 18.666549 -0.748847 1.830502 0.023597 -0.009068 224452.000000 1 0 0
-18.863554 7.396132 -0.189706 20.262587 -0.373665 1.580159 0.027640 0.003530 91110.800000 1 0 0
-14.606954 9.022632 -10.243006 19.992252 -0.553329 2.108714 0.010688 -0.003827 521288.000000 1 0 0
-17.794254 11.267832 5.278394 21.713151 -0.564495 1.325239 0.002121 -0.026260 -147588.000000 1 0 0
-8.118954 11.793732 -13.481506 19.666228 -0.967890 2.326108 -0.002193 -0.018239 598576.000000 1 0 0
-21.055954 -0.669868 -5.534006 21.781348 0.031803 1.827683 0.012262 0.000261 141737.000000 1 0 0
-10.491054 13.414732 -2.803106 17.259045 -0.907094 1.733933 0.001591 0.002398 395849.000000 1 0 0
-18.773354 -5.328768 3.944394 19.909616 0.276573 1.371362 0.022059 -0.001690 -22743.800000 1 0 0
-11.457354 11.458532 -12.686506 20.579513 -0.785450 2.235039 0.017947 -0.022084 398448.000000 1 0 0
-14.728154 12.170432 -10.414506 21.760052 -0.690596 2.069863 0.017280 0.020203 162720.000000 1 0 0
-12.710654 9.702632 -13.906306 21.191676 -0.651988 2.286589 0.030647 -0.016429 269784.000000 1 0 0
-18.627754 -4.576068 -2.794606 19.384102 0.240888 1.715470 0.024674 -0.002911 -471162.000000 1 0 0
-9.771054 12.818432 -11.342706 19.708949 -0.919491 2.184025 0.043117 -0.013169 139385.000000 1 0 0
-16.092854 7.501232 -8.219106 19.565330 -0.436180 2.004336 0.026438 0.001888 -27047.100000 1 0 0
-14.335754 9.018532 1.950694 17.048547 -0.561538 1.456125 -0.002397 0.000343 -114121.000000 1 0 0
-19.688754 6.350932 8.053094 22.199858 -0.312029 1.199574 0.039948 -0.011050 97699.700000 1 0 0
-18.668954 6.135832 4.068994 20.068258 -0.317543 1.366623 0.001587 0.004823 -76153.400000 1 0 0
-14.669354 12.425932 5.930794 20.118848 -0.702789 1.271563 0.010184 -0.018570 95723.800000 1 0 0
18.282746 6.079532 6.198794 20.239678 0.321026 1.259525 0.023015 0.000696 179350.000000 1 0 0
18.540246 8.198532 0.563894 20.279907 0.416350 1.542987 0.022315 0.012543 26724.100000 1 0 0
16.673846 4.198732 8.590294 19.220813 0.246687 1.107469 0.013010 -0.005922 -144543.000000 1 0 0
12.159846 12.994132 10.728194 20.779882 0.818553 1.028297 0.030506 -0.016922 212885.000000 1 0 0
15.587846 12.487232 4.337694 20.438383 0.675404 1.356937 0.036728 -0.004405 27627.200000 1 0 0
4.790846 10.184932 14.184294 18.107436 1.131120 0.670774 0.008660 -0.009393 363490.000000 1 0 0
13.046646 13.328532 -5.527006 19.452829 0.796085 1.858888 0.027020 -0.004912 203754.000000 1 0 0
17.870846 9.336032 -2.618206 20.331838 0.481420 1.699929 0.004476 0.001962 -284496.000000 1 0 0
14.583846 7.653432 9.602294 19.064827 0.483281 1.042960 0.004626 -0.004627 319208.000000 1 0 0
4.765946 19.315832 -1.588506 19.958431 1.328890 1.650471 0.004861 -0.015517 517052.000000 1 0 0
-4.634054 19.230032 3.462594 20.081288 -1.334325 1.397501 -0.006663 -0.004811 364028.000000 1 0 0
6.879146 13.925732 11.925094 19.582046 1.111970 0.916021 0.015125 0.021494 -135303.000000 1 0 0
0.694646 16.917532 -10.286106 19.811345 1.529759 2.116714 0.000875 0.003777 31080.000000 1 0 0
10.501046 9.396132 15.709494 21.103257 0.729924 0.731144 0.010312 -0.000291 255084.000000 1 0 0
-1.121554 12.230532 1.059194 12.327436 -1.479351 1.484769 0.000918 0.001061 367415.000000 1 0 0
-4.638254 19.173232 -2.684406 19.908095 -1.333443 1.706048 0.002449 0.009257 156760.000000 1 0 0
6.876246 17.893532 5.999994 20.086343 1.203909 1.267456 0.019352 -0.027612 -174250.000000 1 0 0
10.838946 17.750232 -1.749506 20.871374 1.022592 1.654718 0.017656 -0.006089 437773.000000 1 0 0
18.321646 10.682832 3.333794 21.469043 0.527879 1.414882 0.015441 -0.005064 280971.000000 1 0 0
11.329246 15.813232 7.058194 20.693676 0.949121 1.222731 0.013355 -0.009333 -21582.000000 1 0 0
18.128346 7.226932 -5.743906 20.343499 0.379345 1.857035 -0.000016 0.008929 187080.000000 1 0 0
-0.332954 15.216332 11.279894 18.944224 -1.548918 0.933000 0.009292 0.003764 246547.000000 1 0 0
1.198746 20.267632 -1.796906 20.382413 1.511719 1.659071 0.002701 -0.008957 323684.000000 1 0 0
14.271646 9.746332 -1.461506 17.343785 0.599168 1.655163 0.005690 0.001296 -135896.000000 1 0 0
9.869246 17.589932 1.430594 20.220147 1.059491 1.499986 0.017574 -0.018834 298058.000000 1 0 0
0.073346 17.736132 -0.297906 17.738785 1.566661 1.587591 -0.004658 -0.003589 43223.300000 1 0 0
-0.124254 21.146332 1.295694 21.186355 -1.564920 1.509601 0.008698 -0.000325 317830.000000 1 0 0
6.136246 17.103132 -0.365506 18.174274 1.226322 1.590909 0.007563 -0.034301 -8368.700000 1 0 0
6.853046 18.705632 -2.824806 20.120747 1.219619 1.711654 -0.007696 -0.019729 3990.150000 1 0 0
10.043246 9.977532 12.821494 19.099965 0.782116 0.834857 -0.000078 0.002885 160753.000000 1 0 0
13.025646 14.732132 8.205094 21.307903 0.846799 1.175510 0.025328 -0.014230 113341.000000 1 0 0
0.398546 17.424332 7.093494 18.817116 1.547927 1.184273 0.015696 -0.007688 285595.000000 1 0 0
7.219046 18.075032 -7.812006 20.972574 1.190813 1.952483 -0.007545 -0.006330 147336.000000 1 0 0
-0.935554 18.665532 9.542494 20.984197 -1.520716 1.098709 0.033226 -0.003340 -259615.000000 1 0 0
16.176646 7.164532 -7.807106 19.338183 0.416928 1.986370 0.028028 0.006291 -179820.000000 1 0 0
-4.946754 19.701032 -6.802406 21.421339 -1.324791 1.893944 -0.004815 -0.009921 223610.000000 1 0 0
3.882946 15.783332 9.735494 18.946522 1.329571 1.031141 0.014843 -0.004932 191526.000000 1 0 0
9.060146 14.703132 7.489394 18.824435 1.018546 1.161619 0.009272 -0.011187 -124524.000000 1 0 0
-2.993554 20.037032 6.253794 21.202687 -1.422492 1.271390 0.019508 0.001243 136863.000000 1 0 0
5.068446 18.079832 8.108194 20.452684 1.297475 1.163164 0.027395 -0.011352 63268.700000 1 0 0
13.892546 11.376832 -6.867506 19.224926 0.686169 1.936085 -0.043927 -0.027058 24192.800000 1 0 0
11.852346 7.156432 15.518194 20.796802 0.543208 0.728488 0.026096 -0.005596 396294.000000 1 0 0
16.939346 8.835232 5.143394 19.785279 0.480763 1.307815 0.012772 -0.003976 122596.000000 1 0 0
4.384846 15.435032 11.917194 19.987161 1.294005 0.931984 -0.011695 0.009431 261926.000000 1 0 0
16.069046 10.380332 -3.593306 19.464773 0.573546 1.756467 0.032377 -0.016834 130263.000000 1 0 0
15.292346 13.701232 6.731394 21.607667 0.730575 1.253996 0.032777 0.001085 395169.000000 1 0 0
12.529146 14.543732 -8.028306 20.807531 0.859675 1.966911 0.036641 -0.019485 261027.000000 1 0 0
-8.019854 15.784532 9.681794 20.179362 -1.100703 1.070384 -0.004418 0.007709 119699.000000 1 0 0
-3.904354 16.574132 -7.200806 18.487765 -1.339445 1.970875 0.002957 -0.006192 154181.000000 1 0 0
2.745646 19.745632 -4.652206 20.471238 1.432631 1.800055 0.010557 -0.012456 65718.000000 1 0 0
7.081546 16.565232 8.943494 20.113212 1.166815 1.110004 0.011494 -0.007105 620258.000000 1 0 0
13.234546 15.652432 -1.243306 20.535278 0.868905 1.631378 0.038096 -0.014194 180493.000000 1 0 0
12.550246 16.560032 4.481594 21.256247 0.922281 1.358366 0.029416 -0.019671 329794.000000 1 0 0
2.839646 18.455932 0.477994 18.679226 1.418133 1.545204 0.015475 -0.017292 167103.000000 1 0 0
-6.642454 18.179132 1.440794 19.408218 -1.220478 1.496492 -0.038944 0.030945 213790.000000 1 0 0
0.208346 20.182932 -5.880906 21.023302 1.560474 1.854312 0.016384 0.007216 201495.000000 1 0 0
-7.978254 18.177632 -6.359506 20.845195 -1.157207 1.880821 0.053833 -0.012785 115806.000000 1 0 0
-7.335654 18.503432 -1.155706 19.938016 -1.193356 1.628794 0.004509 0.002997 229701.000000 1 0 0
-14.286454 -9.941268 8.912394 19.554087 0.607937 1.097546 0.000003 0.007835 261937.000000 1 0 0
-13.248654 -13.682768 7.762394 20.566957 0.801516 1.183787 0.006972 -0.004015 -2667.890000 1 0 0
-3.784454 -15.761068 12.768194 20.633956 1.335144 0.903588 0.028793 -0.013352 -20036.600000 1 0 0
-1.843854 -15.165968 15.269794 21.600301 1.449812 0.785655 0.017907 -0.006928 542036.000000 1 0 0
-7.787954 -13.601468 13.584194 20.740841 1.050781 0.856681 0.001230 -0.014002 211917.000000 1 0 0
-10.222554 -11.386668 11.581194 19.190645 0.839217 0.922937 0.019628 -0.010317 -206099.000000 1 0 0
-7.765954 -10.442468 12.953694 18.361736 0.931346 0.787707 0.018706 -0.016937 394729.000000 1 0 0
-15.213554 -12.459168 7.418194 21.016962 0.686191 1.210061 0.010728 -0.001046 302211.000000 1 0 0
-4.807654 -11.714068 13.088094 18.210742 1.181342 0.768863 0.023824 -0.036391 199755.000000 1 0 0
3.570546 -12.523668 14.034894 19.146000 -1.293061 0.748007 0.002020 0.002727 561967.000000 1 0 0
6.432946 -13.552868 14.866994 21.120856 -1.127629 0.789921 -0.000623 0.006738 258094.000000 1 0 0
7.188046 -8.828568 16.571294 20.105208 -0.887468 0.601957 0.015982 -0.014122 415846.000000 1 0 0
-5.107554 13.032032 13.817194 19.668142 -1.197272 0.791869 -0.015828 0.001753 515061.000000 1 0 0
-14.012954 -1.917068 16.945094 22.072024 0.135963 0.695524 0.014223 -0.013553 44610.400000 1 0 0
-9.943154 9.131732 13.527294 19.111319 -0.742885 0.784395 -0.017090 -0.008838 406939.000000 1 0 0
-7.207654 -8.515668 17.051394 20.376872 0.868396 0.579382 0.017663 -0.010157 107367.000000 1 0 0
-4.866954 2.168932 18.155694 18.921436 -0.419226 0.285466 0.002437 -0.003938 500337.000000 1 0 0
-15.478954 -3.455968 14.746994 21.656767 0.219666 0.821749 0.006915 -0.004557 -11075.900000 1 0 0
-14.279454 3.127332 12.926194 19.513316 -0.215605 0.846739 -0.008103 0.011477 366609.000000 1 0 0
-13.505054 10.782932 9.950194 19.941526 -0.673787 1.048388 -0.066179 0.023657 -146438.000000 1 0 0
-5.010754 11.029032 15.682694 19.816511 -1.144352 0.657708 0.022043 -0.010059 234326.000000 1 0 0
-13.181554 13.103532 7.704994 20.120210 -0.782430 1.177811 0.007797 -0.022386 171013.000000 1 0 0
-4.279254 -6.553168 18.607094 20.186133 0.992311 0.398160 0.021088 -0.009157 335863.000000 1 0 0
0.068646 -3.231468 17.557694 17.852723 -1.549556 0.182052 -0.005047 -0.017867 -17319.100000 1 0 0
-4.251754 6.512132 21.235594 22.614945 -0.992387 0.351065 0.006198 0.003481 379990.000000 1 0 0
2.342646 -10.497068 16.398694 19.611058 -1.351223 0.580486 0.006273 -0.016048 312528.000000 1 0 0
-14.742154 -0.064368 13.916794 20.273441 0.004366 0.814194 -0.026859 0.004018 -72585.000000 1 0 0
-13.793254 -5.886868 7.773294 16.891807 0.403389 1.092597 0.003170 -0.008168 108350.000000 1 0 0
10.251346 0.967832 16.555394 19.496355 0.094131 0.556416 0.024317 0.008037 332319.000000 1 0 0
-7.617954 12.477732 12.161894 19.016800 -1.022675 0.876904 0.003338 0.003500 98511.900000 1 0 0
-1.912754 7.553832 20.278894 21.724469 -1.322793 0.366859 0.003105 -0.001821 497346.000000 1 0 0
1.239346 -13.014668 15.340094 20.155298 -1.475856 0.705797 0.001408 -0.025201 591767.000000 1 0 0
-3.581454 -11.615368 17.807394 21.560308 1.271708 0.598939 0.029785 -0.015961 505688.000000 1 0 0
-2.158354 9.241832 16.623694 19.142026 -1.341367 0.518750 -0.001785 -0.001188 429609.000000 1 0 0
-4.642054 -9.498768 20.604894 23.158949 1.116229 0.474073 0.051105 -0.013139 209441.000000 1 0 0
-6.720154 -2.833068 19.056094 20.403957 0.398968 0.365511 0.018357 -0.014074 357605.000000 1 0 0
-10.537754 -8.316468 16.163594 21.011179 0.668125 0.693074 0.014261 -0.010809 149616.000000 1 0 0
-0.435654 6.253332 17.808494 18.879524 -1.501241 0.338450 0.009070 -0.008986 119656.000000 1 0 0
-6.061354 -11.082368 19.094194 22.894260 1.070308 0.584448 0.030986 -0.008231 447194.000000 1 0 0
0.144846 3.452032 18.657494 18.974709 1.528861 0.183110 0.004121 -0.007117 108452.000000 1 0 0
-18.010054 -1.124668 7.728094 19.630343 0.062366 1.166164 -0.000531 -0.006016 -48936.800000 1 0 0
-1.828154 -8.918068 17.730994 19.931438 1.368603 0.474329 0.011320 -0.005369 95622.800000 1 0 0
5.720246 3.363632 15.058494 16.455804 0.531566 0.415072 0.005447 0.000565 303645.000000 1 0 0
-13.777354 -7.039668 10.096894 18.474839 0.472377 0.992592 0.003091 -0.007025 223881.000000 1 0 0
3.827646 8.226732 16.539594 18.864998 1.135317 0.501766 -0.000559 -0.002952 126069.000000 1 0 0
6.544846 4.494532 18.002594 19.675600 0.601763 0.415361 0.022149 -0.008590 326832.000000 1 0 0
5.548246 -9.638568 18.150894 21.287085 -1.048489 0.549718 0.025798 0.001214 178656.000000 1 0 0
-4.417154 -0.993768 20.018194 20.523813 0.221295 0.222430 0.008241 0.002298 743167.000000 1 0 0
-11.107754 1.625232 17.066594 20.427731 -0.145284 0.581823 0.017745 -0.009959 69836.600000 1 0 0
-16.670654 -4.199068 8.724694 19.278567 0.246751 1.101163 0.005812 -0.017593 175944.000000 1 0 0
-13.392154 -9.497868 11.872594 20.261238 0.616881 0.944713 0.006233 -0.020393 182843.000000 1 0 0
-14.609254 6.271632 13.417794 20.803866 -0.405500 0.869817 0.003406 -0.001116 20795.700000 1 0 0
1.214046 8.968032 17.013494 19.270664 1.436239 0.488857 -0.003093 -0.011933 254396.000000 1 0 0
-3.676954 -10.366668 15.090994 18.674204 1.229949 0.629843 0.021671 -0.018479 532340.000000 1 0 0
-18.441454 -3.998668 7.200594 20.197156 0.213525 1.206261 0.066899 -0.006421 -229246.000000 1 0 0
-1.283254 -0.448568 21.301994 21.345325 0.336278 0.063729 0.003717 0.002005 319897.000000 1 0 0
-1.752854 2.188932 20.209494 20.403126 -0.895580 0.137880 0.004940 -0.013551 117614.000000 1 0 0
-8.006554 2.073932 16.399294 18.366898 -0.253459 0.467112 -0.001819 0.006111 498523.000000 1 0 0
2.655546 -2.141868 18.743194 19.051164 -0.678731 0.180051 0.005507 -0.008054 196066.000000 1 0 0
-11.628754 3.895732 14.823494 19.239039 -0.323258 0.691186 -0.044492 0.002415 89694.000000 1 0 0
-13.649354 -5.540668 13.042294 19.674991 0.385607 0.846128 0.021687 -0.009316 57749.600000 1 0 0
-17.299154 -1.160168 9.669994 19.852342 0.066965 1.062035 0.018091 -0.015697 99156.000000 1 0 0
-7.627054 7.477132 14.764094 18.222457 -0.775473 0.626279 -0.007608 -0.013632 74504.700000 1 0 0
-9.193454 0.458532 14.357294 17.054669 -0.049835 0.570114 -0.003558 0.003247 247564.000000 1 0 0
7.591046 -0.864268 15.010194 16.842710 -0.113365 0.470816 0.011158 -0.006166 194170.000000 1 0 0
3.815146 6.534632 18.326994 19.827644 1.042348 0.391559 0.005285 0.001969 200740.000000 1 0 0
1.325346 0.585432 20.208594 20.260468 0.415947 0.071574 0.000860 0.005971 139364.000000 1 0 0
-6.949754 6.928032 17.571194 20.125694 -0.783833 0.509327 -0.008953 -0.006951 463006.000000 1 0 0
7.428046 -2.964068 17.129994 18.904980 -0.379676 0.436800 0.008863 0.006452 448622.000000 1 0 0
-16.478854 2.319832 9.606694 19.215171 -0.139857 1.047251 0.018617 -0.004277 266644.000000 1 0 0
3.504146 -5.990668 19.070494 20.294110 -1.041528 0.349027 0.014199 -0.021214 67002.300000 1 0 0
-3.741854 -3.858468 20.787794 21.471414 0.800740 0.253018 0.018228 -0.004130 365320.000000 1 0 0
-9.695554 5.886632 14.594694 18.484082 -0.545659 0.660669 -0.013665 -0.005367 -87745.500000 1 0 0
6.470646 2.880832 19.778294 21.008317 0.418868 0.343889 0.033389 -0.019376 135101.000000 1 0 0
-7.752354 10.896032 14.822094 19.962890 -0.952404 0.734028 0.020263 -0.012593 319109.000000 1 0 0
-14.458454 5.130032 8.772994 17.672847 -0.340955 1.051337 -0.002668 -0.006282 408771.000000 1 0 0
1.237746 -5.495168 20.378094 21.142271 -1.349251 0.269683 0.023431 -0.008575 272662.000000 1 0 0
-6.376954 -8.677168 13.823494 17.522779 0.937022 0.661800 0.022502 -0.000687 326960.000000 1 0 0
-12.703754 10.263732 6.432794 17.553074 -0.679557 1.195577 -0.020131 -0.009634 183957.000000 1 0 0
-19.355454 1.820232 7.931294 20.996482 -0.093767 1.183438 0.004697 -0.018687 81651.700000 1 0 0
-15.529954 8.641632 7.054094 19.121127 -0.507781 1.192954 -0.012082 -0.004695 -52524.400000 1 0 0
-12.964654 7.606432 14.339094 20.773774 -0.530587 0.808962 0.008557 -0.009805 175244.000000 1 0 0
-16.488954 9.001532 10.532194 21.536952 -0.499700 1.059820 0.012464 -0.013649 427438.000000 1 0 0
2.149946 10.953332 14.163394 18.033288 1.376978 0.667450 -0.005944 -0.040509 462386.000000 1 0 0
1.460746 14.335432 13.142194 19.502709 1.469249 0.831369 0.006187 -0.019591 260443.000000 1 0 0
8.605546 5.379732 16.554394 19.417644 0.558705 0.549963 -0.000094 0.001633 246406.000000 1 0 0
-0.595154 13.453832 13.245494 18.889228 -1.526588 0.793690 -0.004196 0.004901 114086.000000 1 0 0
4.499446 13.304532 14.742294 20.361503 1.244682 0.761172 0.023244 0.012590 88132.600000 1 0 0
-3.777354 -4.494568 -13.859706 15.051943 0.871887 2.740902 -0.001155 -0.006587 -25985.600000 1 0 0
5.309246 -11.931968 16.969094 21.412849 -1.152142 0.655944 -0.034919 0.017382 336779.000000 1 0 0
8.644946 -13.767968 7.154494 17.761724 -1.010112 1.156218 -0.001413 0.003067 318022.000000 1 0 0
-0.461254 15.285732 0.474594 15.300052 -1.540630 1.539772 0.001262 -0.002779 -273357.000000 1 0 0
-13.974154 7.762132 8.431994 18.072802 -0.507028 1.085402 -0.008092 -0.000866 -23501.800000 1 0 0
-15.820154 -9.821868 5.663494 19.463338 0.555606 1.275543 0.006614 0.000776 85562.300000 1 0 0
9.384146 -10.216068 11.426994 17.972380 -0.827817 0.881741 0.012210 0.002491 13091.400000 1 0 0
-25.418254 6.297932 31.268608 40.785750 -0.242881 0.697181 -0.001320 -0.007633 428508.000000 0 0 1
-24.262954 5.450132 31.151788 39.860115 -0.220960 0.673685 0.001708 -0.009047 487064.000000 0 0 1
-23.342654 5.801932 32.164788 40.163609 -0.243618 0.642093 -0.003834 -0.004750 1123.250000 0 0 1
-21.956054 5.155932 31.934968 39.095960 -0.230651 0.614892 0.003673 -0.003175 -108430.000000 0 0 1
-21.821054 3.796732 32.356458 39.211146 -0.172269 0.600266 0.010450 -0.002046 175982.000000 0 0 1
-20.459154 3.464332 32.130018 38.248093 -0.167738 0.573435 0.012112 0.000658 170850.000000 0 0 1
-19.915854 2.292732 32.883648 38.512753 -0.114616 0.547482 0.006132 0.000344 -392423.000000 0 0 1
-20.280354 1.037232 32.313028 38.164124 -0.051100 0.561071 0.012710 -0.003874 31692.100000 0 0 1
-20.527354 0.055132 33.338822 39.151658 -0.002686 0.551899 0.004367 0.006366 -224529.000000 0 0 1
-21.262154 -1.189468 32.879645 39.173525 0.055885 0.574741 0.008699 -0.002937 -232225.000000 0 0 1
-20.438454 -2.139968 32.186798 38.187692 0.104323 0.568224 0.020029 -0.004582 218376.000000 0 0 1
-20.522954 -3.537368 32.611918 38.694209 0.170684 0.568311 0.027209 -0.009914 679806.000000 0 0 1
-21.828454 -4.378368 32.174558 39.126125 0.197954 0.605304 0.020895 -0.003854 1675250.000000 0 0 1
-23.037954 -4.084068 32.863322 40.341354 0.175453 0.618703 0.007982 0.002715 362705.000000 0 0 1
-23.078454 -4.547168 34.210310 41.516709 0.194539 0.602338 0.003450 0.004214 110878.000000 0 0 1
-24.481854 -4.317968 -33.977996 42.101190 0.174579 2.509945 -0.006787 0.013042 721007.000000 0 0 1
-24.656454 -4.890868 -32.697846 41.243308 0.195819 2.486192 -0.003200 0.012539 -136596.000000 0 0 1
-25.778154 -4.374168 -32.048876 41.361540 0.168084 2.457270 -0.002099 0.014052 -614577.000000 0 0 1
-25.808154 -4.957468 -30.605366 40.340125 0.189778 2.432085 -0.015164 0.021637 -1159850.000000 0 0 1
-26.096514 -6.367668 -30.668806 40.769485 0.239328 2.422265 -0.012242 0.022520 615630.000000 0 0 1
-25.896364 -7.017968 -29.444606 39.835391 0.264646 2.402614 -0.030051 0.028076 -259134.000000 0 0 1
-26.194564 -8.541768 -29.373696 40.273204 0.315217 2.388183 -0.027330 0.020395 734171.000000 0 0 1
-27.596334 -8.859168 -29.294426 41.209294 0.310634 2.361530 0.000413 0.022001 703790.000000 0 0 1
-27.728094 -10.259668 -29.006026 41.418082 0.354389 2.346646 0.000482 0.012674 411429.000000 0 0 1
-29.129474 -10.631468 -28.478696 42.102143 0.349951 2.313686 0.032418 0.010437 427343.000000 0 0 1
-28.902934 -11.357068 -27.335646 41.371489 0.374404 2.292596 0.050967 0.002079 261078.000000 0 0 1
-30.153734 -11.753668 -26.783806 42.009149 0.371675 2.262137 0.054010 0.002539 289881.000000 0 0 1
-30.089784 -12.387568 -25.368366 41.260161 0.390540 2.232978 0.060730 -0.000116 -76989.300000 0 0 1
-29.794764 -11.534368 -24.245606 40.107593 0.369360 2.219952 0.054434 0.001023 212571.000000 0 0 1
-29.847554 -12.243268 -23.034206 39.640241 0.389263 2.190853 0.056185 -0.005480 -464773.000000 0 0 1
-29.324124 -11.477668 -21.797706 38.298578 0.373077 2.176270 0.052041 -0.007108 -5080.950000 0 0 1
-29.143694 -12.157168 -20.571306 37.687269 0.395199 2.148190 0.050798 -0.005595 -70806.600000 0 0 1
-28.074054 -13.060668 -20.626306 37.204543 0.435440 2.158442 0.047426 -0.008630 -719834.000000 0 0 1
-27.658564 -13.711568 -19.272606 36.392809 0.460237 2.128892 0.055995 -0.010557 142918.000000 0 0 1
-27.111914 -12.637468 -18.489206 35.165497 0.436180 2.124425 0.049929 -0.006353 231560.000000 0 0 1
-26.906764 -12.991868 -17.092806 34.422763 0.449832 2.090422 0.052324 -0.018027 32580.000000 0 0 1
-26.550464 -11.795868 -16.206106 33.267213 0.418088 2.079619 0.050087 -0.015008 -687684.000000 0 0 1
-25.308384 -11.249668 -16.463006 32.219557 0.418274 2.107101 0.050265 -0.008381 -448599.000000 0 0 1
-25.340654 -9.936268 -15.885906 31.515713 0.373684 2.099093 0.049997 -0.016820 406708.000000 0 0 1
-23.950754 -9.221668 -15.999206 30.243220 0.367532 2.128239 0.059279 -0.015561 307867.000000 0 0 1
-23.009354 -9.786668 -15.133306 29.227148 0.402154 2.115053 0.046206 -0.016624 -196441.000000 0 0 1
-21.803554 -9.061768 -15.224606 28.094470 0.393890 2.143502 0.055198 -0.029608 391817.000000 0 0 1
-20.683554 -9.435368 -14.178606 26.793067 0.427979 2.128441 0.025696 -0.008839 597167.000000 0 0 1
-19.844754 -10.517768 -14.639106 26.809348 0.487360 2.148432 0.017970 -0.002288 812117.000000 0 0 1
-18.716154 -10.548668 -13.730506 25.496972 0.513235 2.139470 0.011004 0.001096 956698.000000 0 0 1
-17.611854 -11.598068 -14.139106 25.389110 0.582354 2.161441 0.015394 0.002314 384361.000000 0 0 1
-16.916754 -11.309468 -15.352206 25.490603 0.589296 2.217137 0.019533 -0.007077 165384.000000 0 0 1
-17.728154 -11.341868 -16.515306 26.752210 0.569147 2.236158 0.025084 -0.014675 -70055.800000 0 0 1
-16.958754 -10.696068 -17.700206 26.745139 0.562695 2.294027 0.027075 -0.012407 504341.000000 0 0 1
-17.800954 -10.807068 -18.836306 28.079763 0.545628 2.306103 0.031087 -0.010276 664877.000000 0 0 1
-17.163454 -10.268968 -19.976306 28.268156 0.539172 2.355579 0.037033 -0.015946 -211542.000000 0 0 1
-17.840854 -10.757168 -21.235206 29.748054 0.542587 2.365756 0.037050 -0.009885 -23420.500000 0 0 1
-19.090754 -10.103768 -21.366006 30.381725 0.486772 2.350758 0.026958 -0.009470 -59019.800000 0 0 1
-20.014754 -10.859668 -22.101106 31.732974 0.497131 2.341265 0.022387 0.006197 757955.000000 0 0 1
-21.294754 -10.031268 -22.509106 32.569199 0.440235 2.333829 0.010530 0.006048 789442.000000 0 0 1
-20.896354 -8.873768 -23.323606 32.548302 0.401579 2.369689 0.008800 0.000061 -357177.000000 0 0 1
-21.954554 -8.219268 -23.912706 33.486957 0.358224 2.366120 0.002566 -0.003781 -711694.000000 0 0 1
-21.468254 -7.353768 -25.114746 33.848401 0.330015 2.406811 0.001336 -0.005998 41845.800000 0 0 1
-20.940654 -8.236868 -26.102276 34.462817 0.374755 2.430124 0.012897 -0.007622 155769.000000 0 0 1
-20.516054 -7.524668 -27.269256 34.944834 0.351536 2.466024 0.002862 -0.012493 -164638.000000 0 0 1
-19.291254 -8.142468 -27.985736 34.952163 0.399395 2.499237 0.046414 -0.009803 -162538.000000 0 0 1
-19.379454 -9.293668 -28.767866 35.909965 0.447165 2.499945 0.044521 -0.002926 687267.000000 0 0 1
-18.092954 -9.635568 -29.318586 35.773994 0.489354 2.531422 0.020961 0.002590 605127.000000 0 0 1
-18.082054 -10.850468 -30.231826 36.859960 0.540470 2.532523 0.015769 0.005109 -240851.000000 0 0 1
-18.648354 -10.634868 -31.483496 38.106063 0.518283 2.543138 0.016736 0.003528 165766.000000 0 0 1
-18.574854 -11.893168 -32.140696 38.980726 0.569514 2.540164 0.006259 0.010095 -109342.000000 0 0 1
-19.278754 -12.042768 -33.485256 40.471731 0.558359 2.545212 0.002888 0.004682 -270436.000000 0 0 1
-18.620854 -11.256268 -34.398005 40.702119 0.543720 2.577578 0.010171 -0.002185 -159995.000000 0 0 1
-19.202754 -11.435768 33.228304 40.045508 0.537124 0.592112 0.012908 -0.008586 -224665.000000 0 0 1
-18.629054 -12.576268 32.341448 39.384939 0.593811 0.607351 0.017190 -0.014849 1061980.000000 0 0 1
-17.270754 -12.307668 31.893198 38.300571 0.619153 0.586816 0.014606 -0.011351 1293280.000000 0 0 1
-16.776054 -12.958668 30.770518 37.365597 0.657715 0.603246 0.013021 -0.009150 43674.600000 0 0 1
-16.618654 -14.510368 30.783658 37.872999 0.717774 0.621832 0.013640 -0.005908 -468125.000000 0 0 1
-17.855354 -15.159968 30.519618 38.471878 0.703938 0.654591 0.016172 -0.013003 264238.000000 0 0 1
-17.886354 -16.565768 30.822628 39.298610 0.747086 0.669199 0.021066 -0.019034 -212223.000000 0 0 1
-18.295154 -16.903268 32.276208 40.769924 0.745875 0.657263 -0.001282 -0.013032 207307.000000 0 0 1
-17.227554 -16.556868 33.157407 40.869697 0.765549 0.624431 0.004809 -0.011667 487234.000000 0 0 1
-17.757754 -16.268368 34.415495 42.005046 0.741654 0.610576 0.003246 -0.011304 128786.000000 0 0 1
-16.622854 -15.792268 -33.526706 40.617176 0.759780 2.541763 0.007803 -0.003663 109331.000000 0 0 1
-16.182054 -14.468668 -33.894746 40.249907 0.729556 2.571975 0.010833 -0.003718 -311722.000000 0 0 1
-15.019854 -14.055968 -33.229786 39.081772 0.752260 2.587281 0.014103 0.000072 -304793.000000 0 0 1
-15.224954 -13.625168 -31.777636 37.779129 0.730003 2.570189 0.024286 0.001965 -302304.000000 0 0 1
-15.477354 -14.716168 -30.925496 37.583246 0.760193 2.537210 0.018176 0.003537 -159901.000000 0 0 1
-15.777254 -14.291468 -29.649766 36.500362 0.736025 2.518906 0.019729 0.005636 -529321.000000 0 0 1
-15.965254 -15.522768 -28.737056 36.354698 0.771347 2.482361 0.014563 0.012916 863004.000000 0 0 1
-14.775654 -16.194168 -28.262686 35.768009 0.831169 2.481877 0.032911 -0.001919 689638.000000 0 0 1
-13.867954 -16.674368 -29.223846 36.392140 0.877027 2.503152 0.026685 -0.012595 -805417.000000 0 0 1
-12.497154 -17.115468 -28.702566 35.678500 0.940109 2.505592 0.041351 -0.008450 -193532.000000 0 0 1
-11.633054 -16.001168 -28.492696 34.687160 0.942170 2.534691 0.037197 -0.006381 -313803.000000 0 0 1
-10.495054 -16.455668 -27.810266 33.975669 1.003061 2.529652 0.037114 -0.013910 640804.000000 0 0 1
-9.230354 -15.515768 -27.814596 33.160070 1.034134 2.565868 0.026208 -0.009322 605012.000000 0 0 1
-9.358354 -14.327468 -27.071326 32.026736 0.992192 2.577872 0.030844 -0.011085 -301385.000000 0 0 1
-8.102054 -13.762968 -26.771916 31.173676 1.038738 2.603717 0.030579 -0.016242 -130135.000000 0 0 1
-7.795254 -12.322968 -27.207936 30.868970 1.006765 2.649616 0.023709 -0.015354 -295994.000000 0 0 1
-7.553954 -12.314468 -28.623546 32.062684 1.020567 2.674180 0.036184 -0.010814 178942.000000 0 0 1
-7.394054 -10.960068 -29.005886 31.876897 0.977297 2.713922 0.025974 -0.008693 -179544.000000 0 0 1
-6.543454 -10.791768 -30.266836 32.792688 1.025730 2.746537 0.020854 0.000303 -1251810.000000 0 0 1
-5.195654 -11.133668 -30.164006 32.570242 1.134173 2.754795 0.026235 0.001571 -269885.000000 0 0 1
-4.354054 -10.692368 -31.204916 33.272080 1.184089 2.787239 0.022158 0.004470 117058.000000 0 0 1
-4.218154 -9.120368 -31.199826 32.778088 1.137598 2.830012 0.007870 -0.000900 -1689750.000000 0 0 1
-3.194954 -8.710468 -32.072786 33.387776 1.219239 2.860002 0.009437 -0.004272 -97708.900000 0 0 1
-3.146454 -7.346268 -32.246786 33.222327 1.166128 2.898657 0.006911 -0.006816 655418.000000 0 0 1
-1.737354 -6.786668 -32.692526 33.434690 1.320183 2.930500 0.019113 -0.011140 843813.000000 0 0 1
-1.462454 -7.003368 -34.062743 34.805982 1.364933 2.934565 0.025282 -0.011006 -516663.000000 0 0 1
-0.213454 -6.444468 -34.344370 34.944420 1.537686 2.956008 0.020345 -0.002341 -17774.200000 0 0 1
0.501946 -7.125168 33.307191 34.064482 -1.500466 0.211253 0.019813 -0.001914 624063.000000 0 0 1
-0.124854 -6.765968 32.008458 32.715979 1.552345 0.208349 0.022820 -0.000963 641758.000000 0 0 1
0.538546 -7.461068 30.963538 31.854329 -1.498740 0.237048 0.016856 0.001334 130677.000000 0 0 1
0.135546 -7.064968 29.506158 30.340493 -1.551613 0.235058 0.022302 0.008769 87737.800000 0 0 1
0.759846 -5.863168 29.070798 29.665896 -1.441918 0.200636 0.023671 0.001566 168401.000000 0 0 1
0.490046 -5.680368 27.690988 28.271851 -1.484739 0.203058 0.021964 0.006665 -119172.000000 0 0 1
-0.714854 -4.770868 27.365378 27.787337 1.422066 0.174493 0.033242 0.003240 -473398.000000 0 0 1
-1.961854 -5.304468 27.583748 28.157582 1.216549 0.202232 0.040875 0.008887 -918688.000000 0 0 1
-3.016754 -4.349768 27.469788 27.975177 0.964417 0.190370 0.030485 0.004932 1401170.000000 0 0 1
-4.443054 -4.993568 27.692158 28.487402 0.843670 0.236840 0.028396 0.004688 899701.000000 0 0 1
-4.938654 -5.756768 26.608108 27.668070 0.861742 0.277694 0.025477 0.010553 482177.000000 0 0 1
-6.295154 -6.148068 26.881248 28.284788 0.773578 0.316347 0.019628 0.004286 1119910.000000 0 0 1
-6.552654 -7.664568 26.620038 28.465932 0.863448 0.362102 0.021046 0.001197 213219.000000 0 0 1
-5.993054 -8.303568 27.750638 29.579788 0.945625 0.353513 0.019012 -0.002549 -155583.000000 0 0 1
-6.153154 -9.657768 27.663928 29.940386 1.003529 0.392470 0.023721 -0.004965 90607.700000 0 0 1
-5.442754 -10.305268 28.874308 31.137562 1.084881 0.383624 0.029493 -0.009360 -55784.400000 0 0 1
-5.225154 -11.686368 28.787478 31.505433 1.150344 0.418424 0.033966 -0.012673 230985.000000 0 0 1
-4.775154 -12.205268 30.060918 32.793741 1.197867 0.411139 0.037014 -0.012717 -91865.700000 0 0 1
-4.791854 -13.765068 30.190618 33.524803 1.235800 0.449773 0.042894 -0.017387 143873.000000 0 0 1
-6.133654 -14.179068 30.016048 33.758419 1.162519 0.475328 0.047844 -0.018666 -12023.900000 0 0 1
-6.261354 -15.609568 30.080328 34.462869 1.189322 0.509819 0.048238 -0.020582 203572.000000 0 0 1
-6.358154 -16.265268 31.514698 36.030005 1.198156 0.506023 0.046826 -0.017290 -250397.000000 0 0 1
-7.588854 -16.058468 32.144258 36.724902 1.129327 0.504800 0.054244 -0.014164 -383848.000000 0 0 1
-7.594054 -16.662968 33.378880 38.071956 1.143176 0.501772 0.051822 -0.007259 420261.000000 0 0 1
-9.008754 -17.124368 33.864228 39.002404 1.086505 0.519112 0.052031 -0.012160 727462.000000 0 0 1
-9.598854 -18.333568 33.348799 39.247931 1.088473 0.555388 0.043498 -0.010326 754420.000000 0 0 1
-10.282654 -18.255768 32.067788 38.305993 1.057833 0.578748 0.034549 -0.017685 -109341.000000 0 0 1
-10.762554 -19.636768 31.540838 38.681516 1.069427 0.617380 0.024460 -0.019570 -471593.000000 0 0 1
-11.839854 -20.136268 32.268758 39.836217 1.039257 0.626583 0.037004 -0.019578 -346793.000000 0 0 1
-12.104754 -21.526468 32.241018 40.612771 1.058544 0.653659 0.028213 -0.015157 -249679.000000 0 0 1
-11.559754 -22.233668 33.498564 41.834408 1.091339 0.642264 0.023335 -0.010214 -85564.900000 0 0 1
-10.152054 -22.344468 33.320388 41.383423 1.144337 0.634847 0.006816 -0.009302 68728.900000 0 0 1
-9.488654 -23.054668 34.364813 42.455773 1.180354 0.627622 0.012191 -0.014960 308718.000000 0 0 1
-9.846654 -24.578568 -34.310357 43.338934 1.189756 2.484342 0.020205 -0.005911 -271363.000000 0 0 1
-9.431854 -25.356218 33.492427 43.053924 1.214681 0.679451 0.017374 -0.009048 -40819.800000 0 0 1
-9.866954 -26.667228 33.762551 44.140771 1.216414 0.699936 0.029719 -0.016722 -306395.000000 0 0 1
-9.323654 -27.674398 32.720398 43.856895 1.245834 0.728653 0.003989 -0.004653 958398.000000 0 0 1
-7.916454 -27.896588 32.524158 43.574198 1.294287 0.728147 0.012446 -0.006927 865037.000000 0 0 1
-7.252354 -28.657118 33.518987 44.691717 1.322927 0.722727 0.006636 -0.012949 814057.000000 0 0 1
-5.687554 -28.485668 33.608110 44.421691 1.373724 0.712745 0.016822 -0.010211 974281.000000 0 0 1
-5.162254 -27.272438 33.961326 43.861218 1.383725 0.685203 0.019505 -0.007946 -46418.900000 0 0 1
-4.934654 -26.419398 32.812186 42.414325 1.386143 0.686276 0.039636 -0.001327 -125436.000000 0 0 1
-4.809354 -24.943468 33.212822 41.813850 1.380324 0.652939 0.034980 -0.016921 474420.000000 0 0 1
-3.628854 -24.777568 33.992883 42.220997 1.425373 0.634922 0.028396 -0.011931 422189.000000 0 0 1
-3.237754 -23.425368 34.251085 41.621722 1.433451 0.604276 0.025835 -0.005615 88143.400000 0 0 1
33.791299 -15.290168 2.219094 37.155962 -0.424921 1.511037 0.045527 -0.029518 136374.000000 0 0 1
34.702089 -15.855668 3.160594 38.283502 -0.428584 1.488145 0.028935 -0.025535 865943.000000 0 0 1
33.954019 -16.485768 4.207794 37.978434 -0.452006 1.459774 0.047601 -0.021643 835875.000000 0 0 1
34.898235 -16.652868 5.454494 39.050689 -0.445229 1.430661 0.044644 -0.009471 704816.000000 0 0 1
-35.135867 -17.764068 5.478294 39.750509 0.468103 1.432539 0.043597 -0.008432 238856.000000 0 0 1
-34.472843 -17.863768 6.733494 39.405977 0.478100 1.399079 0.041355 -0.000963 112752.000000 0 0 1
-33.125674 -18.615568 6.727994 38.589060 0.511985 1.395551 0.026230 -0.002702 -221968.000000 0 0 1
-33.192924 -20.012568 6.541894 39.307371 0.542561 1.403589 0.041527 -0.001060 261128.000000 0 0 1
-31.894484 -20.519568 6.786294 38.527452 0.571692 1.393731 0.026518 0.004920 310937.000000 0 0 1
-32.002364 -22.039268 7.091294 39.498950 0.603086 1.390286 0.013215 -0.008569 -136632.000000 0 0 1
-32.046464 -22.899668 5.980794 39.838932 0.620442 1.420102 0.033304 -0.010944 176840.000000 0 0 1
-32.436354 -24.212568 6.286294 40.961970 0.641234 1.416721 0.050980 -0.014665 -197872.000000 0 0 1
-31.903554 -25.219848 5.269994 41.007930 0.668923 1.441928 0.044955 -0.011057 -317858.000000 0 0 1
-32.513904 -25.173548 3.994894 41.313686 0.658835 1.473948 0.043196 -0.005885 -94715.700000 0 0 1
-32.035644 -26.083408 2.994894 41.419754 0.683339 1.498427 0.034959 -0.008167 -311320.000000 0 0 1
-32.558414 -25.799398 1.564894 41.570520 0.670092 1.533143 0.044203 -0.007864 -460398.000000 0 0 1
-33.907374 -26.086458 1.330194 42.801667 0.655767 1.539713 0.041112 -0.005154 -497114.000000 0 0 1
-34.199833 -25.422898 0.137694 42.614214 0.639240 1.567565 0.049845 -0.005312 -73343.100000 0 0 1
-35.299462 -24.346168 0.284194 42.882032 0.603782 1.564169 0.058252 -0.003394 -687756.000000 0 0 1
34.366229 -24.883968 0.596194 42.433536 -0.626706 1.556746 0.036768 -0.009302 -587661.000000 0 0 1
33.504229 -23.811268 0.915894 41.113850 -0.617867 1.548517 0.046821 -0.000951 -721731.000000 0 0 1
32.028749 -24.029768 0.681394 40.046658 -0.643665 1.553781 0.015708 0.000491 -669411.000000 0 0 1
31.748559 -23.912168 -0.725406 39.752849 -0.645529 1.589045 0.017137 -0.007391 1168780.000000 0 0 1
30.337799 -23.641468 -0.943706 38.473259 -0.661975 1.595328 0.012460 -0.004760 1261250.000000 0 0 1
30.018559 -23.408968 -2.455706 38.146090 -0.662312 1.635217 0.001691 0.005055 119016.000000 0 0 1
30.541639 -22.155268 -2.961806 37.847324 -0.627578 1.649133 0.010737 -0.004477 261344.000000 0 0 1
30.095939 -21.899668 -4.294806 37.467404 -0.629051 1.685677 0.007140 -0.019785 -87975.600000 0 0 1
30.203409 -20.418768 -4.733306 36.763789 -0.594465 1.699904 0.014045 -0.020445 346617.000000 0 0 1
29.199029 -19.693068 -4.032806 35.449453 -0.593367 1.684805 0.014000 -0.020706 174192.000000 0 0 1
29.396729 -18.290068 -4.216606 34.877988 -0.556569 1.691989 0.017064 -0.019454 -126971.000000 0 0 1
28.499999 -17.482868 -3.283006 33.595814 -0.550239 1.668673 0.019131 -0.020302 -725184.000000 0 0 1
28.841869 -17.345368 -1.911306 33.710062 -0.541445 1.627525 0.020920 -0.014262 -198697.000000 0 0 1
29.270329 -18.465868 -1.189906 34.628836 -0.562812 1.605165 0.010475 -0.006953 -1202110.000000 0 0 1
28.477479 -19.766468 -1.051306 34.681195 -0.606761 1.601114 0.007869 -0.006093 -557080.000000 0 0 1
27.540609 -19.590568 -0.017606 33.797571 -0.618292 1.571317 0.009292 0.003092 -225841.000000 0 0 1
26.703759 -20.713268 0.111094 33.795600 -0.659728 1.567509 0.009985 0.005361 434698.000000 0 0 1
25.721539 -20.603368 1.364894 32.984228 -0.675360 1.529404 0.016540 0.008928 -379901.000000 0 0 1
24.837339 -21.675568 1.562394 33.002496 -0.717526 1.523437 0.021426 0.013653 -483618.000000 0 0 1
24.128939 -21.557368 2.742494 32.472251 -0.729170 1.486239 0.026513 0.008433 85476.400000 0 0 1
22.717939 -20.950968 2.491894 31.004150 -0.744957 1.490337 0.021770 0.008375 -599977.000000 0 0 1
22.745339 -19.622268 1.976394 30.104650 -0.711818 1.505098 0.035689 0.000583 206165.000000 0 0 1
23.062839 -18.604168 2.949494 29.777661 -0.678797 1.471583 0.037049 0.005257 -352803.000000 0 0 1
22.942539 -17.177368 2.417194 28.762213 -0.642677 1.486656 0.037028 0.005654 541608.000000 0 0 1
21.584539 -16.774868 2.206194 27.425459 -0.660665 1.490266 0.041527 0.004359 476378.000000 0 0 1
21.515639 -15.494668 1.579594 26.561298 -0.624127 1.511291 0.051226 -0.006092 544685.000000 0 0 1
20.075839 -15.025668 1.216494 25.105574 -0.642505 1.522322 0.036996 -0.005559 163668.000000 0 0 1
19.140239 -14.961068 2.267094 24.399222 -0.663455 1.477745 0.039949 -0.004864 860660.000000 0 1 0
18.018939 -14.097468 1.975094 22.963488 -0.663898 1.484680 0.032826 -0.006367 448176.000000 0 1 0
18.340639 -12.564968 2.263794 22.346861 -0.600648 1.469320 0.041545 -0.007793 -201065.000000 0 1 0
19.298439 -12.035168 1.346994 22.783534 -0.557617 1.511640 0.038458 -0.008989 552692.000000 0 1 0
19.649339 -10.722868 1.867994 22.462543 -0.499545 1.487540 0.033130 -0.015379 -95604.500000 0 1 0
20.565239 -9.896668 0.926794 22.841454 -0.448521 1.530210 0.032382 -0.016669 -324612.000000 0 1 0
19.973039 -9.539368 -0.269806 22.135822 -0.445578 1.582985 0.038968 -0.010333 161806.000000 0 1 0
20.779939 -8.680268 -1.033006 22.543736 -0.395691 1.616635 0.033145 -0.012203 -524629.000000 0 1 0
20.206939 -8.346668 -2.430706 21.997627 -0.391714 1.681521 0.034551 -0.010890 -219035.000000 0 1 0
21.062839 -7.682468 -3.397206 22.676078 -0.349746 1.721177 0.031884 -0.013710 1546960.000000 0 1 0
22.200939 -8.477268 -3.891306 24.080864 -0.364756 1.733101 0.028846 -0.009793 154384.000000 0 1 0
21.890139 -9.809668 -4.671406 24.438286 -0.421299 1.763131 0.022622 -0.005508 -560957.000000 0 1 0
21.342339 -9.600068 -5.934306 24.142757 -0.422699 1.819142 0.020078 -0.007585 -79536.900000 0 1 0
19.981039 -9.255868 -5.846306 22.783597 -0.433803 1.830301 0.017180 -0.006481 -1001520.000000 0 1 0
19.309939 -9.164968 -7.236806 22.566385 -0.443142 1.897254 0.020855 -0.007095 -436067.000000 0 1 0
19.093239 -10.357568 -7.985106 23.142880 -0.497046 1.923073 0.017037 -0.006120 960373.000000 0 1 0
20.266139 -10.802868 -8.638806 24.536652 -0.489737 1.930586 0.021984 -0.004274 -31615.500000 0 1 0
19.943139 -12.219768 -9.203106 25.134611 -0.549728 1.945668 0.011972 -0.010880 -635505.000000 0 0 1
18.886539 -12.236168 -10.091106 24.662838 -0.574882 1.992332 0.024672 -0.024986 -226066.000000 0 1 0
18.771539 -13.483168 -10.772206 25.499155 -0.622887 2.006947 0.027926 -0.013155 -128340.000000 0 0 1
17.488639 -13.668168 -11.616906 25.052421 -0.663386 2.052968 0.015648 -0.014322 107748.000000 0 0 1
17.398939 -15.024168 -12.012506 25.937405 -0.712286 2.052325 0.024350 -0.015896 197924.000000 0 0 1
16.312339 -15.210468 -12.894806 25.762895 -0.750458 2.094994 0.026479 -0.017021 -288855.000000 0 0 1
16.152639 -16.740068 -13.321306 26.806619 -0.803255 2.090866 0.026068 -0.012171 -454950.000000 0 0 1
15.578739 -17.524368 -12.319106 26.486996 -0.844105 2.054544 0.020867 -0.011567 162290.000000 0 0 1
15.752739 -18.918968 -12.527506 27.622718 -0.876466 2.041509 0.019980 -0.009171 -731961.000000 0 0 1
14.785239 -19.799168 -11.704106 27.342210 -0.929372 2.013141 0.015810 -0.007413 -66247.600000 0 0 1
13.491039 -19.636468 -12.253406 26.790763 -0.968821 2.045837 0.007366 -0.005044 -118669.000000 0 0 1
12.553939 -20.467168 -11.577106 26.655876 -1.020604 2.020076 0.002015 -0.004001 -522877.000000 0 0 1
11.191939 -20.488968 -12.230506 26.356073 -1.070843 2.053357 -0.000794 -0.008799 -649251.000000 0 0 1
10.276739 -21.258368 -11.462706 26.247347 -1.120500 2.022744 -0.007853 -0.003564 -527335.000000 0 0 1
8.984339 -20.849868 -11.826106 25.598674 -1.163934 2.051024 -0.010644 -0.009937 443933.000000 0 0 1
7.802639 -21.415868 -10.951006 25.287252 -1.221405 2.018686 -0.011529 -0.003518 460546.000000 0 0 1
7.859139 -22.845668 -10.822906 26.473117 -1.239468 1.991964 0.001350 -0.004940 -410873.000000 0 0 1
7.006139 -23.310268 -9.830206 26.250477 -1.278826 1.954629 0.008681 -0.010540 -255228.000000 0 0 1
7.062139 -24.847568 -9.744706 27.608599 -1.293880 1.931528 0.017328 -0.010784 -244667.000000 0 0 1
8.303539 -25.333198 -9.356806 28.253663 -1.254058 1.908341 0.016042 -0.000995 -919263.000000 0 0 1
8.469639 -26.714848 -9.725806 29.664949 -1.263782 1.904829 0.016940 0.001787 -522209.000000 0 0 1
9.893839 -27.203098 -9.571306 30.487809 -1.221967 1.890135 0.008965 0.008220 -582627.000000 0 0 1
10.214639 -27.323378 -8.213106 30.304471 -1.213041 1.845248 0.008957 0.005211 -519969.000000 0 0 1
11.546139 -27.751228 -8.081206 31.124747 -1.176523 1.833445 0.015297 0.016348 -241057.000000 0 0 1
12.022339 -27.795878 -6.587806 30.992687 -1.162571 1.784990 0.007240 0.002864 -87398.900000 0 0 1
11.694739 -28.879538 -5.805906 31.693898 -1.186031 1.755024 0.016220 0.004002 -896047.000000 0 0 1
10.372339 -29.248518 -5.617506 31.537558 -1.230005 1.749873 0.024436 0.002543 -967132.000000 0 0 1
10.094439 -30.486868 -4.710306 32.458185 -1.251050 1.716430 0.035921 -0.002431 -105365.000000 0 0 1
10.178839 -31.756958 -5.301606 33.767146 -1.260619 1.728453 0.042438 -0.001869 -57168.000000 0 0 1
9.137339 -32.141178 -6.202006 33.985455 -1.293816 1.754315 0.057100 -0.000704 303781.000000 0 0 1
9.050939 -33.645668 -6.531506 35.448710 -1.308010 1.756107 0.064506 -0.001090 25671.900000 0 0 1
8.636539 -34.421991 -5.377006 35.893947 -1.324969 1.721165 0.054065 -0.002459 87044.900000 0 0 1
8.918839 33.267120 -5.710906 34.912196 1.308858 1.735114 0.054416 -0.002932 158772.000000 0 0 1
8.808239 32.323407 -4.452906 33.796688 1.304753 1.702936 0.043509 0.001361 -324302.000000 0 0 1
7.505939 32.089017 -4.019006 33.199346 1.341018 1.692151 0.047658 -0.004544 -1099790.000000 0 0 1
7.446739 31.012687 -3.103306 32.044831 1.335139 1.667791 0.037574 -0.003952 690075.000000 0 0 1
6.032439 30.373727 -3.304406 31.142780 1.374740 1.677101 0.033676 -0.003413 642115.000000 0 0 1
5.985239 29.713917 -4.572506 30.653675 1.372027 1.720522 0.023797 -0.006523 28849.600000 0 0 1
5.456839 30.509047 -5.606306 31.496186 1.393808 1.749749 0.024875 -0.006650 -559686.000000 0 0 1
5.636539 29.853437 -6.980206 31.172449 1.384186 1.796633 0.039459 -0.010292 201718.000000 0 0 1
4.767539 28.782687 -7.355006 30.087682 1.406648 1.817751 0.040149 -0.007821 239183.000000 0 0 1
5.172139 27.580577 -6.756206 28.863222 1.385421 1.807065 0.029493 -0.007825 414536.000000 0 0 1
4.336039 26.334777 -7.299106 27.669454 1.407610 1.837752 0.032895 -0.007288 195760.000000 0 0 1
2.985139 26.243207 -6.958706 27.313743 1.457534 1.828406 0.035803 -0.010484 -284967.000000 0 0 1
2.027339 26.763807 -7.896906 27.978074 1.495191 1.856939 0.043185 -0.014244 463428.000000 0 0 1
1.599739 25.923607 -9.054506 27.505939 1.509165 1.906235 0.042020 -0.006704 -20408.100000 0 0 1
2.597139 25.693357 -10.083106 27.722965 1.470056 1.943043 0.030024 -0.001889 540605.000000 0 0 1
2.142039 24.883927 -11.174806 27.361916 1.484927 1.991505 0.037986 0.000850 -234721.000000 0 0 1
2.018039 23.384957 -10.988306 25.916627 1.484713 2.008639 0.047718 -0.003139 87044.400000 0 0 1
0.850539 22.996657 -10.293706 25.209721 1.533828 1.991412 0.051143 -0.005682 -57581.000000 0 0 1
0.761839 21.576157 -10.289206 23.916077 1.535502 2.015534 0.029314 -0.007652 -570508.000000 0 1 0
-0.328261 20.943557 -9.449106 22.978815 -1.555124 1.994577 0.029083 -0.004580 950422.000000 0 1 0
-1.681361 21.033757 -9.972506 23.338740 -1.491030 2.012294 0.040892 -0.004643 1036810.000000 0 1 0
-2.588861 20.368857 -9.097306 22.457817 -1.444375 1.987867 0.033092 -0.007015 601014.000000 0 1 0
-4.066761 20.646857 -9.495506 23.086704 -1.376318 1.994674 0.043375 -0.006967 550210.000000 0 1 0
-5.041161 19.707757 -9.074806 22.274674 -1.320370 1.990407 0.031909 -0.017387 26977.700000 0 1 0
-5.748061 19.262657 -10.177806 22.531709 -1.280804 2.039478 0.025995 -0.012749 -781283.000000 0 1 0
-6.737561 18.095457 -9.839006 21.671325 -1.214365 2.042058 0.041818 -0.014213 720666.000000 0 1 0
-7.770861 18.461857 -8.899706 21.918741 -1.172391 1.988904 0.053730 -0.013493 -188977.000000 0 1 0
-8.906661 18.977957 -9.519106 23.024006 -1.131996 1.997028 0.058848 -0.014685 -1329720.000000 0 1 0
-9.854061 19.410257 -8.431906 23.344328 -1.101029 1.940348 0.060035 -0.017306 -637253.000000 0 1 0
-10.394761 18.298257 -7.753306 22.427462 -1.054183 1.923787 0.069792 -0.010355 -338800.000000 0 1 0
-11.067561 18.613057 -6.597206 22.637578 -1.034347 1.866515 0.060326 -0.005990 -373656.000000 0 1 0
-11.571861 17.404357 -5.795006 21.688746 -0.984030 1.841272 0.038686 -0.008865 9808.090000 0 1 0
-12.469261 17.715457 -4.747506 22.177888 -0.957482 1.786531 0.047297 -0.009389 421889.000000 0 1 0
-12.999061 16.572557 -4.050706 21.448391 -0.905657 1.760796 0.043586 -0.007546 -72309.700000 0 1 0
-14.028761 16.844857 -2.950106 22.119188 -0.876360 1.704568 0.023859 -0.011381 531694.000000 0 1 0
-15.252661 17.319557 -3.535106 23.347542 -0.848769 1.722793 0.054261 -0.008585 585665.000000 0 1 0
-16.315461 17.526257 -2.629306 24.088944 -0.821161 1.680164 0.049942 -0.008735 9516.430000 0 1 0
-17.677461 17.682157 -3.316606 25.222038 -0.785531 1.702675 0.049521 -0.017775 -239524.000000 0 0 1
-17.768161 18.955457 -3.961006 26.281295 -0.817717 1.722089 0.049700 -0.014901 -270129.000000 0 0 1
-19.033261 19.132757 -4.543606 27.367349 -0.788005 1.737592 0.027671 -0.021254 -226923.000000 0 0 1
-18.960861 19.824557 -5.915406 28.062775 -0.807663 1.783181 0.013420 -0.003474 -190655.000000 0 0 1
-18.644261 21.192957 -5.957206 28.848539 -0.849289 1.778792 0.017423 -0.019511 -28895.200000 0 0 1
-18.499461 21.701157 -7.279006 29.430498 -0.864873 1.820719 0.008848 -0.006059 -104910.000000 0 0 1
-18.415261 23.285857 -7.332806 30.579781 -0.901669 1.812949 0.005521 -0.002649 -440603.000000 0 0 1
-17.234961 23.877057 -6.858306 30.235643 -0.945575 1.799616 0.017104 -0.008364 -181427.000000 0 0 1
-17.382861 24.561637 -5.612706 30.609481 -0.954905 1.755205 0.012555 -0.004240 -192506.000000 0 0 1
-16.018861 25.192997 -5.345006 30.329196 -1.004436 1.747955 0.021673 -0.012987 -710357.000000 0 0 1
-15.891761 25.868667 -4.097806 30.635405 -1.019910 1.704959 0.013951 -0.014277 373811.000000 0 0 1
-14.588661 26.394377 -3.837406 30.400952 -1.065868 1.697360 0.023606 -0.008710 697828.000000 0 0 1
-14.069761 27.522767 -4.756206 31.274309 -1.098225 1.723469 0.031469 -0.005970 -313146.000000 0 0 1
-14.821961 28.716797 -4.586606 32.640189 -1.094318 1.711783 0.032254 -0.004175 106038.000000 0 0 1
-14.355261 29.728937 -5.447106 33.459740 -1.120945 1.734320 0.021837 -0.011872 -155810.000000 0 0 1
-14.940761 31.052277 -4.889706 34.804877 -1.122343 1.711752 0.023628 -0.007621 1050560.000000 0 0 1
-16.361961 31.207267 -4.984806 35.587295 -1.087898 1.711331 0.035004 -0.005181 435754.000000 0 0 1
-16.661161 32.486667 -4.495206 36.785659 -1.096913 1.693302 0.037677 -0.005969 -118361.000000 0 0 1
12.785446 -8.285968 18.815218 24.210273 -0.575023 0.680659 0.029646 -0.013079 -212543.000000 0 1 0
13.286146 -9.519468 19.321618 25.307447 -0.621711 0.702119 0.029523 -0.011003 5463.860000 0 0 1
13.294646 -10.619168 18.413618 25.071412 -0.673981 0.745945 0.023372 -0.015874 -87768.400000 0 0 1
13.733146 -11.943868 19.056418 26.351515 -0.715827 0.762427 0.040994 -0.020382 -554323.000000 0 0 1
15.084746 -11.900868 19.438918 27.332248 -0.667957 0.779581 0.033084 -0.015502 -13152.400000 0 0 1
15.420446 -13.026768 20.242218 28.587309 -0.701451 0.784015 0.042287 -0.020420 -159901.000000 0 0 1
16.152546 -14.103068 19.437318 28.941503 -0.717763 0.834421 0.038486 -0.015612 -349841.000000 0 0 1
15.312246 -14.606768 18.370618 28.023243 -0.761823 0.855887 0.052075 -0.022407 665803.000000 0 0 1
15.849646 -15.686468 17.612018 28.415836 -0.780224 0.902314 0.057327 -0.021490 -142895.000000 0 0 1
15.001546 -16.008268 16.353518 27.363271 -0.817851 0.930236 0.055204 -0.023612 -437716.000000 0 0 1
13.739446 -16.571968 16.538518 27.146364 -0.878575 0.915701 0.086345 -0.025840 -597535.000000 0 0 1
13.099846 -16.405068 15.272818 25.961341 -0.896956 0.941853 0.088833 -0.025967 -184658.000000 0 0 1
12.498446 -17.654268 14.622518 26.109431 -0.954751 0.976353 0.058176 -0.013454 252606.000000 0 0 1
13.487746 -18.486668 14.045518 26.850564 -0.940484 1.020313 0.052427 -0.017777 791799.000000 0 0 1
12.777046 -19.565068 13.398818 26.936465 -0.992277 1.050171 0.046734 -0.022635 334741.000000 0 0 1
13.727946 -20.694368 12.919018 27.993114 -0.985082 1.091103 0.044614 -0.021753 2141.820000 0 0 1
14.322346 -21.444968 13.978818 29.332978 -0.981964 1.074063 0.030803 -0.017963 169357.000000 0 0 1
14.800546 -22.648968 13.396318 30.190947 -0.991982 1.111051 0.013992 -0.017344 -353899.000000 0 0 1
15.624646 -23.524668 14.339718 31.672813 -0.984516 1.100954 0.007193 -0.015995 973475.000000 0 0 1
17.002546 -23.095368 14.463818 32.119848 -0.936193 1.103686 -0.003041 -0.009303 830492.000000 0 0 1
17.669246 -23.750568 15.524918 33.426260 -0.931178 1.087780 0.008314 -0.019308 -754804.000000 0 0 1
19.007546 -23.098968 15.741018 33.802793 -0.882262 1.086402 -0.009272 -0.005256 -50206.700000 0 0 1
20.057946 -23.580368 14.856218 34.337475 -0.865942 1.123363 -0.006142 -0.016777 135483.000000 0 0 1
21.288846 -22.980268 15.158118 34.800521 -0.823587 1.120123 -0.007053 -0.009375 -741821.000000 0 0 1
22.437446 -23.846768 14.716618 35.898276 -0.815838 1.148393 -0.010650 -0.016862 -870818.000000 0 0 1
22.675746 -24.987808 15.523618 37.142465 -0.833868 1.139611 -0.007519 -0.016882 -315584.000000 0 0 1
23.857146 -25.555668 15.047218 38.061455 -0.819759 1.164358 0.001402 -0.025515 -507326.000000 0 0 1
24.373346 -26.713248 15.961218 39.527435 -0.831169 1.155128 0.002779 -0.024914 -352847.000000 0 0 1
24.847946 -26.158668 17.177218 39.959394 -0.811090 1.126451 0.007913 -0.013932 73014.700000 0 0 1
25.291646 -27.249238 17.991718 41.302424 -0.822639 1.120081 0.020818 -0.010675 -18742.400000 0 0 1
25.596846 -26.882358 19.480218 41.920623 -0.809889 1.087509 0.007816 -0.005044 -403728.000000 0 0 1
24.486146 -26.408888 20.176218 41.280510 -0.823159 1.060130 0.010703 -0.002211 -180901.000000 0 0 1
24.880146 -25.849498 21.406618 41.778721 -0.804504 1.032841 0.014564 0.000297 -288010.000000 0 0 1
23.630946 -25.705668 22.276218 41.417785 -0.827426 1.002921 0.009832 -0.000443 -19937.500000 0 0 1
22.985046 -26.911518 22.637218 42.011734 -0.863929 1.001748 0.013129 0.003964 262440.000000 0 0 1
22.050046 -26.800338 23.708218 42.030254 -0.882335 0.971484 0.016127 0.013870 95259.500000 0 0 1
21.381946 -28.221328 23.892738 42.714095 -0.922416 0.977178 0.037826 0.012996 -183239.000000 0 0 1
22.224746 -29.245348 24.392108 44.093136 -0.920963 0.984602 0.023154 0.019541 319239.000000 0 0 1
21.804146 -30.465368 23.856098 44.414782 -0.949609 1.003776 0.031295 0.011084 -771203.000000 0 0 1
22.637946 -31.645148 24.254328 45.849367 -0.949830 1.013374 0.012152 0.022463 -516854.000000 0 0 1
22.455346 -31.998108 25.645728 46.752806 -0.958883 0.990181 0.005696 0.019469 869638.000000 0 0 1
23.668446 -32.171388 26.409318 47.881579 -0.936511 0.986569 0.001691 0.015656 158037.000000 0 0 1
23.359346 -32.709418 27.848998 48.899200 -0.950638 0.964876 0.003085 -0.000753 154876.000000 0 0 1
22.951346 -34.074013 28.008818 49.722194 -0.978027 0.972415 -0.002286 0.002740 464801.000000 0 0 1
21.682146 -34.308953 27.388098 48.962513 -1.007202 0.977172 -0.005690 0.011814 -125270.000000 0 0 1
21.151746 33.421596 28.021668 48.472811 1.006553 0.954410 0.023964 -0.018711 34900.000000 0 0 1
20.353246 33.623839 29.215318 48.972972 1.026473 0.931588 -0.000662 -0.017300 465324.000000 0 0 1
19.958746 32.338777 29.674578 48.215440 1.017842 0.907829 0.003419 -0.022318 -203818.000000 0 0 1
19.701446 32.425537 31.188358 49.114928 1.024814 0.882778 -0.006118 -0.021856 -489209.000000 0 0 1
20.853446 32.566297 31.953568 50.164335 1.001243 0.880225 -0.004260 -0.017057 -562062.000000 0 0 1
20.569446 33.109920 33.214840 51.211274 1.014900 0.865073 -0.007584 -0.015692 -903379.000000 0 0 1
21.791646 33.109549 34.092747 52.282249 0.988701 0.860458 -0.009558 -0.002656 -523846.000000 0 0 1
22.150346 31.782857 34.370028 51.788867 0.962135 0.845100 -0.002862 -0.004131 -96316.400000 0 0 1
23.358246 31.638167 -33.785256 51.846165 0.934830 2.280546 -0.005447 0.011984 -40838.100000 0 0 1
23.701446 30.168597 -33.338636 50.826838 0.904877 2.286205 0.005815 0.007085 -70578.500000 0 0 1
24.107646 29.310187 -34.418351 51.233666 0.882485 2.307421 0.018761 -0.005324 421240.000000 0 0 1
23.162646 28.292377 34.186130 50.056551 0.884763 0.819003 0.023562 -0.016481 -463707.000000 0 0 1
23.317846 27.612617 32.756838 48.776931 0.869525 0.834479 0.065871 -0.026332 -448486.000000 0 0 1
24.557046 26.971967 32.767378 49.033016 0.832229 0.838913 0.054055 -0.027914 -39844.000000 0 0 1
24.918746 26.333457 31.575868 48.077337 0.812994 0.854266 0.068668 -0.042727 -269997.000000 0 0 1
26.262546 25.577457 31.649978 48.431898 0.772183 0.858604 0.067136 -0.033304 -223099.000000 0 0 1
26.340146 24.504997 32.574448 48.532390 0.749321 0.834984 0.081990 -0.037566 296351.000000 0 0 1
27.271146 24.727827 33.624905 49.857949 0.736526 0.830625 0.075107 -0.038478 -811856.000000 0 0 1
27.120946 23.876757 -33.987526 49.606423 0.721869 2.325597 0.054308 -0.033550 129146.000000 0 0 1
26.112246 24.255287 -33.041366 48.599385 0.748547 2.318385 0.038256 -0.020341 685328.000000 0 0 1
24.749946 24.300097 -33.391796 48.146304 0.776227 2.337199 0.043784 -0.018226 -229155.000000 0 0 1
24.050646 22.892957 -33.514256 47.177605 0.760742 2.360841 0.037321 -0.018828 -655390.000000 0 0 1
24.096846 22.180357 -32.282936 45.987109 0.744009 2.348998 0.013989 -0.024933 409824.000000 0 0 1
23.925246 20.781957 -32.462466 45.366495 0.715205 2.368222 0.019024 -0.011820 -270599.000000 0 0 1
23.759546 19.963857 -31.149316 43.969893 0.698804 2.358059 0.013926 -0.017153 -1178080.000000 0 0 1
22.577346 20.120157 -30.477596 42.935314 0.727913 2.360080 0.005400 -0.008005 -812958.000000 0 0 1
22.691246 19.386257 -29.213816 41.763222 0.707014 2.345509 0.003516 -0.006697 309797.000000 0 0 1
21.320246 19.053157 -28.519616 40.384950 0.729304 2.354905 0.015724 -0.019311 479661.000000 0 0 1
21.394946 18.460257 -27.259126 39.263021 0.711897 2.338201 0.016350 -0.014802 -384.502000 0 0 1
21.824846 19.364757 -26.251646 39.248779 0.725743 2.303461 0.013929 -0.005823 -294211.000000 0 0 1
22.082646 18.687457 -24.909906 38.175486 0.702313 2.281689 0.019876 -0.000538 -10383.700000 0 0 1
23.069846 17.670157 -24.957006 38.305410 0.653626 2.280392 0.023554 -0.012204 364914.000000 0 0 1
22.884746 16.843057 -23.822906 37.080063 0.634477 2.268516 0.034081 -0.007525 -231912.000000 0 0 1
23.926346 15.724857 -23.689906 37.161174 0.581434 2.262033 0.039707 -0.010761 968115.000000 0 0 1
25.287646 16.178257 -23.428806 38.080310 0.569149 2.233496 0.050773 -0.013157 1891090.000000 0 0 1
26.252546 15.094457 -23.435606 38.291859 0.521813 2.229416 0.049455 -0.020133 616669.000000 0 0 1
26.289946 14.210757 -22.128406 37.185659 0.495551 2.208160 0.056270 -0.015699 -281593.000000 0 0 1
25.207046 13.287057 -22.076706 36.046110 0.485105 2.229962 0.053464 -0.013329 276986.000000 0 0 1
24.886946 12.888257 -20.749006 34.871027 0.477843 2.208089 0.032195 -0.018063 89181.700000 0 0 1
23.425146 12.377657 -20.650206 33.591292 0.486102 2.232864 0.035793 -0.011847 616123.000000 0 0 1
22.459246 13.427357 -20.725406 33.380445 0.538840 2.240667 0.047858 -0.011664 -244220.000000 0 0 1
21.183846 12.979457 -21.103706 32.597363 0.549709 2.274971 0.044743 -0.014327 -22031.300000 0 0 1
20.180246 14.152757 -20.998106 32.379984 0.611610 2.276396 0.046065 -0.016336 -441224.000000 0 0 1
20.415146 15.147857 -21.993506 33.614730 0.638356 2.284029 0.035300 -0.006808 99216.600000 0 0 1
19.505346 16.212557 -21.997906 33.573999 0.693469 2.285252 0.031942 -0.005737 -338796.000000 0 0 1
18.166646 16.082157 -22.729606 33.246019 0.724610 2.323588 0.027620 0.002259 127096.000000 0 0 1
17.178346 15.325857 -22.019306 31.856354 0.728467 2.333953 0.023837 -0.008395 756365.000000 0 0 1
16.092846 14.956457 -22.881006 31.720904 0.748815 2.376506 0.024037 -0.017670 -95093.900000 0 0 1
14.963046 14.240457 -22.157906 30.292840 0.760660 2.391252 0.015854 -0.019263 -718022.000000 0 0 1
13.905546 14.153057 -23.069906 30.428503 0.794219 2.431295 0.030024 -0.017322 -798477.000000 0 0 1
12.736946 13.695157 -22.406806 29.186505 0.821634 2.446058 0.041943 -0.017740 144891.000000 0 0 1
11.475146 13.968357 -23.270906 29.467424 0.883076 2.481143 0.038588 -0.018704 -103054.000000 0 0 1
11.152546 15.324957 -23.384706 30.101131 0.941696 2.460478 0.028128 -0.018811 -41602.300000 0 0 1
10.565746 15.658757 -24.628406 31.038525 0.977218 2.487300 0.037403 -0.022694 -490411.000000 0 0 1
10.482346 17.194357 -24.629306 31.813963 1.023320 2.456194 0.030665 -0.022564 867088.000000 0 0 1
11.750546 17.870657 -24.447706 32.482704 0.989144 2.422855 0.034143 -0.019609 1917400.000000 0 0 1
12.877646 17.740057 -25.373766 33.531648 0.942893 2.429064 0.036649 -0.022205 876760.000000 0 0 1
12.619546 17.795457 -26.889466 34.626213 0.953960 2.459990 0.039299 -0.018459 -853084.000000 0 0 1
13.738546 17.511257 -27.675466 35.515112 0.905544 2.464279 0.034044 -0.018476 -211427.000000 0 0 1
13.271446 17.134657 -28.962556 36.173988 0.911775 2.499169 0.037189 -0.025261 -182421.000000 0 0 1
14.206246 17.573457 -30.102816 37.640714 0.890959 2.497660 0.029456 -0.015270 147280.000000 0 0 1
15.371746 16.811057 -30.332456 37.933628 0.830091 2.497457 0.016721 -0.010628 74916.200000 0 0 1
16.249846 17.512457 -31.201836 39.297560 0.822778 2.488139 0.018544 -0.002615 678517.000000 0 0 1
17.580646 16.765557 -31.546326 39.816249 0.761671 2.485362 0.025074 -0.004506 662579.000000 0 0 1
18.578446 16.707957 -30.481346 39.413538 0.732439 2.454940 0.023277 -0.007320 699020.000000 0 0 1
19.608446 15.815557 -30.863566 39.839462 0.678733 2.457034 0.022943 -0.004573 202596.000000 0 0 1
20.847846 16.532057 -31.460836 41.203469 0.670450 2.439586 0.027768 -0.004662 -521461.000000 0 0 1
20.635246 17.109657 -32.763946 42.332374 0.692263 2.455882 0.026493 -0.001509 -131727.000000 0 0 1
21.797746 17.662857 -33.306576 43.548206 0.680994 2.441560 0.030756 -0.002900 -499609.000000 0 0 1
21.606146 18.161957 34.126057 44.286229 0.699007 0.691047 0.019399 0.015578 -78864.800000 0 0 1
22.635646 19.014257 33.663837 44.801433 0.698668 0.720614 0.027624 0.004705 172975.000000 0 0 1
22.458946 19.384157 32.329358 43.878665 0.712046 0.742486 0.041496 0.005913 -761087.000000 0 0 1
23.308846 20.551957 31.867708 44.511078 0.722625 0.772812 0.057471 -0.007221 -296119.000000 0 0 1
24.693946 20.292857 31.870628 45.136770 0.687878 0.786835 0.052915 -0.015308 -359097.000000 0 0 1
25.431446 21.472957 31.926738 46.121177 0.701203 0.806214 0.058561 -0.030209 -308482.000000 0 0 1
26.901346 21.270957 31.521378 46.580397 0.669046 0.827513 0.052254 -0.033987 -19713.900000 0 0 1
27.577746 20.406757 32.429468 47.208455 0.637052 0.813524 0.045061 -0.031961 -713220.000000 0 0 1
28.930746 20.205257 32.183788 47.760200 0.609652 0.831373 0.038730 -0.022221 -504912.000000 0 0 1
29.645746 19.572657 33.405025 48.763254 0.583525 0.816131 0.023407 -0.023645 -68846.600000 0 0 1
29.662246 20.503957 -34.364340 49.811334 0.604828 2.332133 0.021582 -0.021351 765859.000000 0 0 1
28.624946 20.137257 -33.424756 48.395361 0.613062 2.333198 0.019813 -0.022433 302760.000000 0 0 1
28.904446 20.736457 -32.038846 47.874370 0.622318 2.303965 0.018852 -0.011447 507583.000000 0 0 1
30.129546 20.169157 -31.560866 48.069457 0.589903 2.287056 0.020369 -0.019360 492618.000000 0 0 1
30.322546 20.506957 -30.181426 47.443762 0.594638 2.260296 0.015728 -0.013343 272046.000000 0 0 1
31.704046 20.017157 -29.640746 47.795470 0.563171 2.239740 0.023564 0.003986 -137476.000000 0 0 1
32.734446 20.542357 -30.384156 49.160242 0.560428 2.237073 0.003238 0.000671 -761128.000000 0 0 1
33.925646 20.591157 -29.618956 49.519974 0.545514 2.211951 0.002009 0.011184 826589.000000 0 0 1
35.119546 21.333257 -30.361886 51.091433 0.545877 2.207149 -0.008582 0.007948 705357.000000 0 0 1
-35.233446 20.702157 -31.479016 51.583946 -0.531231 2.227170 -0.006673 0.003505 190953.000000 0 0 1
-34.199546 21.471657 -32.066186 51.564341 -0.560635 2.241921 -0.007582 0.002226 585783.000000 0 0 1
-33.393146 20.801057 -33.277006 51.528102 -0.557098 2.272871 -0.018381 0.005117 339378.000000 0 0 1
-32.862046 19.568057 -32.791506 50.379617 -0.537075 2.279550 0.005344 0.003089 84556.100000 0 0 1
-31.994346 19.048857 -33.774186 50.271192 -0.537017 2.307486 0.020703 -0.000248 -463763.000000 0 0 1
-31.017246 17.992357 -33.259466 48.907940 -0.525641 2.318617 0.006288 0.009150 -596347.000000 0 0 1
-31.633146 16.865957 -32.744566 48.552271 -0.489833 2.310974 0.010460 0.008212 -105843.000000 0 0 1
-30.966446 15.667557 -33.060166 47.930864 -0.468398 2.331936 0.006912 0.010176 -73547.500000 0 0 1
-31.991346 14.561557 -33.426816 48.506053 -0.427146 2.331080 0.010085 0.004490 4444.610000 0 0 1
-31.390446 13.328257 -33.682136 47.932127 -0.401528 2.349988 0.028722 -0.004505 612894.000000 0 0 1
-32.369446 12.295057 -33.543046 48.208769 -0.363003 2.340312 0.032279 -0.012053 238819.000000 0 0 1
-31.678146 10.951257 -33.302246 47.249070 -0.332842 2.352970 0.043312 -0.008638 -131619.000000 0 0 1
-31.059246 10.395257 34.432907 47.522240 -0.322972 0.760395 0.024963 -0.003562 305372.000000 0 0 1
-31.727546 9.242757 33.910682 47.349764 -0.283471 0.772491 0.044131 -0.012455 279429.000000 0 0 1
-30.920346 8.637457 32.710078 45.832551 -0.272402 0.776049 0.040128 -0.012139 417785.000000 0 0 1
-29.631946 8.183257 33.059155 45.143390 -0.269447 0.749082 0.022971 -0.003090 -146139.000000 0 0 1
-28.826746 7.894257 31.963908 43.760622 -0.267298 0.751850 0.013101 -0.007460 -215205.000000 0 0 1
20.373246 -4.260768 -32.115326 38.270321 -0.206164 2.566553 0.016705 -0.026026 76472.300000 0 0 1
21.697846 -4.199868 -32.639696 39.418082 -0.191197 2.546397 0.008674 -0.024759 361173.000000 0 0 1
22.536746 -3.269168 -31.973406 39.254186 -0.144055 2.522701 0.009791 -0.016744 187276.000000 0 0 1
22.336646 -1.837768 -32.468546 39.452625 -0.082091 2.537426 0.013653 -0.014400 -508648.000000 0 0 1
23.252646 -0.934868 -31.878416 39.468886 -0.040183 2.511011 0.015229 -0.011154 211215.000000 0 0 1
23.137846 0.407532 -32.357646 39.781192 0.017611 2.520753 0.016587 -0.012437 -850891.000000 0 0 1
24.052346 1.445732 -31.776136 39.878921 0.060036 2.492802 0.025019 -0.002302 -33758.900000 0 0 1
25.381146 1.335832 -32.297506 41.098856 0.052582 2.474865 0.030791 -0.000833 13651.200000 0 0 1
26.204946 2.264832 -31.666686 41.165613 0.086213 2.448464 0.028628 0.001839 703512.000000 0 0 1
27.750546 2.175432 -31.977796 42.395811 0.078232 2.425335 0.037416 0.000621 1159190.000000 0 0 1
28.185346 2.726432 -33.218026 43.649564 0.096432 2.435674 0.046469 -0.004264 -110928.000000 0 0 1
28.144846 1.768832 -34.285541 44.393237 0.062765 2.453273 0.048797 -0.007371 -370545.000000 0 0 1
28.424946 2.293532 33.158286 43.734538 0.080513 0.710292 0.040171 -0.018391 112840.000000 0 0 1
27.454346 3.071832 32.453588 42.619393 0.111425 0.705211 0.038214 -0.017342 360681.000000 0 0 1
27.317046 4.380732 33.007746 43.068819 0.159012 0.697585 0.044885 -0.017246 44107.700000 0 0 1
26.721146 5.476532 32.060128 42.093514 0.202152 0.704955 0.031114 -0.012872 373138.000000 0 0 1
27.141446 6.811532 32.456558 42.854209 0.245886 0.711518 0.039609 -0.018351 174729.000000 0 0 1
26.672746 7.644232 31.452958 41.942321 0.279112 0.722871 0.036122 -0.018775 -60877.800000 0 0 1
27.033846 9.127032 31.722258 42.666535 0.325599 0.732518 0.019165 -0.012866 688173.000000 0 0 1
28.423946 9.418932 31.562998 43.507009 0.319985 0.759080 0.026002 -0.015698 380965.000000 0 0 1
28.533746 10.820832 31.729558 44.023062 0.362473 0.765915 0.023400 -0.017967 -355411.000000 0 0 1
29.859346 11.406532 31.230608 44.688258 0.364901 0.797001 0.021066 -0.009260 -1012390.000000 0 0 1
30.901746 11.063732 32.105668 45.914029 0.343810 0.796440 0.040525 -0.022100 -139641.000000 0 0 1
32.162846 11.232132 31.478108 46.384057 0.335986 0.824886 0.035924 -0.020893 285732.000000 0 0 1
32.752246 12.732732 31.428288 47.144134 0.370778 0.841101 0.036215 -0.015548 -550554.000000 0 0 1
33.251646 13.093832 32.710598 48.446916 0.375133 0.829582 0.038065 -0.012653 99041.200000 0 0 1
33.477246 14.505732 33.049833 49.228384 0.408881 0.834758 0.046241 -0.005376 -328584.000000 0 0 1
32.422446 15.587032 32.752088 48.650487 0.448128 0.832252 0.040133 -0.017896 -910326.000000 0 0 1
32.113246 15.757932 31.352798 47.566490 0.456179 0.851127 0.033647 -0.022414 -283338.000000 0 0 1
31.149746 16.733332 31.165798 47.134044 0.492955 0.848357 0.031531 -0.030056 434313.000000 0 0 1
29.654746 16.286332 31.358718 46.130443 0.502227 0.823329 0.029435 -0.022036 175083.000000 0 0 1
29.180646 15.349432 30.428168 44.866342 0.484242 0.825491 0.021423 -0.018613 -433976.000000 0 0 1
27.895446 14.881832 30.706498 44.073959 0.490076 0.800004 0.012304 -0.016050 -404515.000000 0 0 1
27.223046 14.173532 29.518698 42.583293 0.480027 0.804878 0.017907 -0.009561 -219378.000000 0 0 1
27.613246 12.849632 29.240828 42.221209 0.435540 0.805761 0.016140 -0.010695 -22838.200000 0 0 1
26.960846 12.282632 28.094598 40.829606 0.427479 0.811938 0.015772 -0.019748 132355.000000 0 0 1
26.730746 10.743832 28.244368 40.344852 0.382167 0.795296 0.021282 -0.005794 129747.000000 0 0 1
27.780846 10.029632 27.602068 40.425773 0.346464 0.819230 0.023324 -0.006169 246381.000000 0 0 1
27.363946 8.689832 27.312218 39.626456 0.307493 0.810354 0.030625 -0.005000 548758.000000 0 0 1
28.522646 7.694632 26.933538 39.977046 0.263500 0.831558 0.035359 -0.015205 420953.000000 0 0 1
28.934046 7.855132 25.586618 39.415190 0.265095 0.864322 0.037834 -0.008893 -345121.000000 0 0 1
29.912746 6.886532 25.333778 39.799460 0.226278 0.880798 0.047773 0.002432 -87913.600000 0 0 1
30.456446 6.917832 23.866918 39.307522 0.223349 0.918284 0.045261 0.006143 -235665.000000 0 0 1
31.186046 8.075832 23.544318 39.901422 0.253390 0.939661 0.019518 0.003435 -111464.000000 0 0 1
30.510946 9.342432 23.366418 39.549822 0.297135 0.938734 0.018644 -0.001755 74232.900000 0 0 1
29.813346 9.587932 21.948018 38.242379 0.311152 0.959513 0.018821 0.006475 290179.000000 0 0 1
30.763746 9.957832 20.989818 38.550473 0.313044 0.995032 0.015224 0.002759 122053.000000 0 0 1
30.356446 9.609232 19.656018 37.419383 0.306567 1.017741 0.019617 -0.004713 -983302.000000 0 0 1
31.156646 10.412832 18.606418 37.753973 0.322538 1.055453 0.030579 -0.020740 -423439.000000 0 0 1
32.435846 10.002932 18.288618 38.556664 0.299137 1.076592 0.030922 -0.019136 -720537.000000 0 0 1
33.407946 10.169832 19.304818 39.902285 0.295501 1.065802 0.028577 -0.015827 -2233640.000000 0 0 1
34.778846 10.040932 18.746918 40.765616 0.281065 1.092947 0.034790 -0.011856 -1719500.000000 0 0 1
35.077646 8.682632 18.480318 40.587579 0.242649 1.098065 0.025392 -0.005398 256819.000000 0 0 1
-34.927946 8.491632 17.410018 39.939679 -0.238492 1.119750 0.030726 -0.007506 -218058.000000 0 0 1
-34.628346 7.046532 17.039518 39.231635 -0.200749 1.121501 0.028496 -0.004855 147164.000000 0 0 1
35.091046 6.330732 16.752718 39.396869 0.178489 1.131581 0.024245 -0.011573 497139.000000 0 0 1
35.375446 5.099532 16.194718 39.238964 0.143168 1.145358 0.023760 -0.002187 -290022.000000 0 0 1
34.176246 4.145332 16.221118 38.056856 0.120703 1.130471 0.026029 -0.005245 -140216.000000 0 0 1
33.981546 3.489132 17.476618 38.371236 0.102319 1.097906 0.025435 -0.000861 -118131.000000 0 0 1
32.803046 2.716832 17.384118 37.224032 0.082634 1.084886 0.015596 0.000708 187944.000000 0 0 1
32.263646 1.906732 18.579818 37.279863 0.059030 1.049058 0.030112 -0.001576 -53197.800000 0 0 1
32.940346 0.691132 18.715618 37.892195 0.020978 1.054207 0.023424 -0.002223 -199043.000000 0 0 1
32.459546 -0.066168 19.820818 38.032767 -0.002038 1.022597 0.025647 0.004107 -75160.800000 0 0 1
33.131546 -1.413968 20.107518 38.781580 -0.042652 1.025723 0.017572 0.001793 75571.100000 0 0 1
32.616246 -2.159968 21.212018 38.967098 -0.066127 0.995174 0.021591 0.001183 140933.000000 0 0 1
33.222346 -3.450768 21.148618 39.533481 -0.103498 1.006342 0.026232 0.001857 -48574.600000 0 0 1
32.799946 -4.436968 22.295218 39.907392 -0.134457 0.978010 0.022445 0.000053 -29719.700000 0 0 1
33.277546 -3.956068 23.550318 40.959285 -0.118326 0.958230 0.022601 -0.013100 315991.000000 0 0 1
32.793046 -4.700868 24.683998 41.313216 -0.142380 0.930436 0.029117 -0.012828 26316.600000 0 0 1
33.307646 -4.151768 26.031368 42.476683 -0.124009 0.911148 0.018722 -0.007432 -579465.000000 0 0 1
32.618346 -4.573668 27.162548 42.692845 -0.139309 0.881192 0.021261 -0.008135 -107905.000000 0 0 1
33.010846 -3.908268 28.356688 43.693161 -0.117845 0.864532 0.018013 -0.003856 601605.000000 0 0 1
31.899046 -4.222068 29.457258 43.624593 -0.131592 0.829500 0.025634 -0.004734 908081.000000 0 0 1
31.902346 -5.614068 29.901988 44.084083 -0.174193 0.825357 0.019709 -0.012602 -198166.000000 0 0 1
30.962646 -5.702668 30.926358 44.132137 -0.182138 0.794324 0.024181 -0.011747 -641328.000000 0 0 1
30.761046 -7.078668 31.640218 44.692873 -0.226180 0.784208 0.032606 -0.005365 331967.000000 0 0 1
31.982246 -7.386668 32.304318 46.054271 -0.226981 0.793380 0.037538 -0.009438 274286.000000 0 0 1
32.570146 -8.506968 31.670218 46.218889 -0.255482 0.815887 0.034934 -0.006686 -399858.000000 0 0 1
33.868546 -8.962968 32.324348 47.668404 -0.258709 0.825610 0.024840 -0.001458 -214191.000000 0 0 1
33.665746 -9.591468 33.570075 48.500811 -0.277549 0.806326 0.023567 -0.008615 -175969.000000 0 0 1
34.920746 -9.891368 34.103772 49.803263 -0.276022 0.816508 0.011177 -0.007839 -366835.000000 0 0 1
34.900446 -10.228668 -33.246436 49.274662 -0.285097 2.311377 0.022604 -0.010745 -305230.000000 0 0 1
34.554446 -9.159368 -32.371206 48.226536 -0.259112 2.306666 0.018981 -0.004025 611395.000000 0 0 1
-35.350246 -8.152168 -32.296146 48.570967 0.226649 2.298192 0.021113 0.004698 50616.600000 0 0 1
35.219746 -6.843668 -31.600356 47.810551 -0.191922 2.292880 0.017718 0.001886 -552110.000000 0 0 1
35.276146 -6.822668 -30.162636 46.912044 -0.191049 2.269155 0.016537 -0.001926 91887.300000 0 0 1
34.417946 -5.885168 -29.578376 45.761453 -0.169353 2.273601 0.025457 -0.001807 -200849.000000 0 0 1
34.879746 -5.554368 -28.157016 45.169296 -0.157917 2.243837 0.027952 -0.010668 -124502.000000 0 0 1
-34.790146 -4.918968 -28.072456 44.973473 0.140459 2.244904 0.025913 -0.004843 -496640.000000 0 0 1
-34.589046 -4.559568 -26.701726 43.933745 0.131065 2.224049 0.029762 -0.002491 529694.000000 0 0 1
-33.170946 -4.033668 -26.331546 42.543301 0.121008 2.238183 0.017596 0.013693 -1059980.000000 0 0 1
-33.180746 -3.634368 -24.999506 41.703068 0.109098 2.213628 0.025777 0.000186 473900.000000 0 0 1
-31.927146 -3.609668 -24.314706 40.293638 0.112581 2.218602 0.031529 0.006289 932001.000000 0 0 1
-30.737846 -2.791868 -24.921806 39.669965 0.090580 2.250071 0.030162 0.014632 -226192.000000 0 0 1
-30.362946 -3.255168 -26.219136 40.248574 0.106801 2.280264 0.024628 0.020640 194931.000000 0 0 1
-29.128346 -2.724468 -26.731126 39.628732 0.093262 2.311136 0.025945 0.016243 620974.000000 0 0 1
-28.645846 -3.512868 -27.953416 40.178579 0.122022 2.340231 0.019591 0.025173 254318.000000 0 0 1
-29.527546 -3.520268 -29.104086 41.609087 0.118660 2.345444 0.022303 0.025258 442339.000000 0 0 1
-29.165346 -4.527168 -30.026256 42.103310 0.153995 2.364787 0.013751 0.017611 -1022040.000000 0 0 1
-30.232646 -4.832068 -31.141706 43.671130 0.158489 2.364701 0.001552 0.019145 -692368.000000 0 0 1
-31.364046 -5.614368 -30.819046 44.328750 0.177130 2.339548 0.005353 0.013255 178857.000000 0 0 1
-32.380046 -4.920668 -30.127696 44.501218 0.150812 2.314486 0.015487 0.008014 -778396.000000 0 0 1
-33.211746 -4.006068 -31.054766 45.645012 0.120042 2.319042 0.034967 0.006483 -1340380.000000 0 0 1
-32.568446 -2.861368 -31.615006 45.479663 0.087632 2.339419 0.036948 0.009285 114016.000000 0 0 1
-32.199446 -1.836468 -30.654736 44.495952 0.056972 2.330812 0.030008 0.011445 -51851.600000 0 0 1
-31.662546 -0.540468 -31.368376 44.573355 0.017068 2.351455 0.036046 0.008097 187392.000000 0 0 1
-32.615646 0.240932 -32.089126 45.755332 -0.007387 2.348044 0.034186 0.004879 205816.000000 0 0 1
-32.068146 1.442032 -32.574376 45.733308 -0.044937 2.363521 0.024408 0.011258 26759.200000 0 0 1
-33.213046 2.392732 -32.932886 46.833819 -0.071918 2.350665 0.035229 0.002485 151120.000000 0 0 1
-33.968946 2.009132 -34.088363 48.165780 -0.059077 2.357076 0.039273 -0.004783 142272.000000 0 0 1
-35.043246 2.928232 -34.172771 49.034497 -0.083367 2.341880 0.046926 -0.001699 19288.400000 0 0 1
34.695646 2.712132 33.714479 48.454201 0.078011 0.801262 0.055774 0.001996 -256538.000000 0 0 1
34.868046 2.747332 32.332108 47.630806 0.078630 0.824660 0.033358 -0.002765 88648.500000 0 0 1
-35.250146 1.730332 31.727858 47.457600 -0.049048 0.838537 0.025062 -0.001493 -121826.000000 0 0 1
-35.112246 1.856332 30.164638 46.327327 -0.052819 0.861737 0.018569 -0.004641 -31794.900000 0 0 1
-34.415846 3.052232 29.795488 45.623872 -0.088455 0.859168 0.022620 -0.010305 300718.000000 0 0 1
-34.183446 3.099432 28.411598 44.557080 -0.090423 0.879359 0.015620 -0.010553 53658.700000 0 0 1
-33.647246 4.532832 28.065658 44.049573 -0.133910 0.880017 0.017785 -0.007718 -48556.100000 0 0 1
-33.220646 4.669432 26.735398 42.897511 -0.139643 0.897919 0.017017 -0.005569 88545.700000 0 0 1
-32.612946 5.929032 26.583208 42.490289 -0.179836 0.894857 0.028209 -0.001933 -271999.000000 0 0 1
-31.714746 6.012432 25.337198 41.035936 -0.187355 0.905313 0.007413 0.001114 29992.700000 0 0 1
-30.503746 5.276432 25.367688 40.022979 -0.171282 0.884304 0.001369 -0.000020 508171.000000 0 0 1
-29.645946 5.320832 24.234948 38.659101 -0.177588 0.893243 0.004716 -0.003458 327020.000000 0 0 1
-30.214546 4.713932 22.948018 38.232859 -0.154768 0.927024 0.009085 -0.003028 -148980.000000 0 0 1
-30.182246 3.320432 22.874018 38.015970 -0.109572 0.925175 0.008985 -0.003825 -287662.000000 0 0 1
-31.143246 2.874532 21.959418 38.214929 -0.092040 0.958645 0.015351 0.000547 -1161310.000000 0 0 1
-30.956846 1.368032 21.642218 37.796606 -0.044163 0.961126 0.029771 -0.005939 -197026.000000 0 0 1
-29.830346 1.030832 20.862918 36.416666 -0.034543 0.960763 0.047078 -0.010351 98035.100000 0 0 1
-29.864546 1.553032 19.550718 35.728611 -0.051956 0.991780 0.044493 -0.007797 -183190.000000 0 0 1
-28.702246 0.889932 18.787618 34.315966 -0.030996 0.991436 0.041655 -0.010652 -123385.000000 0 0 1
-28.961046 -0.461568 18.452718 34.343239 0.015936 1.003561 0.062770 -0.013609 72904.600000 0 0 1
-27.909546 -1.174768 17.836018 33.142818 0.042067 1.002548 0.076401 -0.011597 -238229.000000 0 0 1
-27.692446 -0.873168 16.337518 32.164398 0.031520 1.038007 0.052804 0.002337 49422.300000 0 0 1
-27.121146 0.406032 16.077118 31.530861 -0.014970 1.035745 0.059982 -0.002740 326167.000000 0 0 1
-26.921746 0.567332 14.685818 30.672065 -0.021070 1.071508 0.053285 -0.003612 -98541.200000 0 0 1
-26.585846 1.999832 14.346518 30.275884 -0.075080 1.077128 0.060871 -0.014575 1208130.000000 0 0 1
-25.154546 2.193032 14.199818 28.968870 -0.086962 1.058506 0.061804 -0.019319 1061010.000000 0 0 1
-24.946746 3.426132 13.642618 28.639126 -0.136484 1.074283 0.063501 -0.017841 -787569.000000 0 0 1
-23.568746 3.773632 13.119518 27.236884 -0.158764 1.068223 0.054116 -0.015867 -711603.000000 0 0 1
-22.677046 4.071032 14.173418 27.050093 -0.177630 1.019292 0.045835 -0.011996 104442.000000 0 0 1
-21.419646 4.505732 13.701518 25.823138 -0.207332 1.011499 0.036265 -0.015080 107467.000000 0 0 1
-20.501446 5.102332 14.809218 25.800311 -0.243921 0.959421 0.027145 -0.018006 -171095.000000 0 0 1
-20.646546 6.443132 15.142818 26.402628 -0.302492 0.959982 0.011483 -0.012685 275761.000000 0 0 1
-20.067746 6.797632 16.365618 26.772294 -0.326603 0.913108 0.012573 -0.010458 -340427.000000 0 0 1
-20.427646 8.260532 16.733318 27.668196 -0.384277 0.921300 0.020535 -0.006205 -430853.000000 0 0 1
-19.819046 9.240832 15.930018 27.054631 -0.436293 0.941211 0.019127 -0.004738 449647.000000 0 0 1
-20.104546 10.632332 16.249618 27.951554 -0.486462 0.950410 0.023215 -0.001117 -457205.000000 0 0 1
-19.690146 11.224432 17.632018 28.715463 -0.518109 0.909646 0.033558 -0.000985 -359410.000000 0 0 1
-20.496846 10.724432 18.634218 29.704684 -0.482053 0.892695 0.047241 -0.008190 141605.000000 0 0 1
-19.950846 11.091732 19.883318 30.272250 -0.507402 0.854207 0.045869 -0.006274 36155.900000 0 0 1
-12.341354 -32.924293 -21.349906 41.135588 1.212166 2.116492 0.050213 -0.009651 -429908.000000 0 0 1
-13.050054 -33.763293 -20.522006 41.610294 1.201968 2.086555 0.071214 -0.010192 -217606.000000 0 0 1
-14.341654 -33.197993 -20.354106 41.497945 1.163009 2.083442 0.062530 -0.023147 52404.200000 0 0 1
-15.167254 -33.925793 -19.234406 41.844562 1.150380 2.048412 0.059838 -0.021913 -947051.000000 0 0 1
-15.529954 33.818832 -19.730006 42.120850 -1.140310 2.058291 0.057637 -0.029394 39254.300000 0 0 1
-16.179354 33.021532 -18.762006 41.282029 -1.115210 2.042589 0.055831 -0.023642 366081.000000 0 0 1
-17.578754 33.469632 -18.242306 41.976310 -1.087181 2.020375 0.060990 -0.031219 -671926.000000 0 0 1
-17.608654 -34.414893 -17.399306 42.393224 1.097866 1.993718 0.068452 -0.022397 -1082400.000000 0 0 1
-18.906154 -34.195593 -17.017606 42.619012 1.065743 1.981545 0.053406 -0.017905 -1126090.000000 0 0 1
-19.319354 34.209732 -15.707706 42.311644 -1.056712 1.951139 0.055578 -0.022593 -537256.000000 0 0 1
-19.232054 32.807132 -15.500606 41.066392 -1.040574 1.957840 0.059996 -0.025653 300557.000000 0 0 1
-19.901454 32.272832 -14.330306 40.533458 -1.018215 1.932152 0.055138 -0.017609 118205.000000 0 0 1
-19.961554 30.779232 -14.154706 39.321501 -0.995448 1.939036 0.051917 -0.021828 148087.000000 0 0 1
-18.691954 30.263932 -13.787806 38.149683 -1.017513 1.940580 0.057608 -0.034172 254386.000000 0 0 1
-18.698454 28.885532 -13.540006 36.977532 -0.996301 1.945684 0.049452 -0.029937 -1035300.000000 0 0 1
-17.339854 28.328932 -13.216706 35.747451 -1.021535 1.949509 0.061822 -0.024351 -374149.000000 0 0 1
-16.406654 28.284732 -14.323406 35.698240 -1.045173 1.983662 0.080589 -0.029204 -278313.000000 0 0 1
-15.241154 27.651432 -13.915306 34.504061 -1.067041 1.985911 0.089729 -0.032649 -55689.900000 0 0 1
-13.962354 28.202032 -14.629906 34.703546 -1.111090 2.005970 0.082395 -0.027936 204909.000000 0 0 1
-14.030254 28.115332 -16.018106 35.268961 -1.107929 2.042237 0.071012 -0.028143 21167.100000 0 0 1
-12.965454 28.836232 -16.619806 35.719032 -1.148255 2.054762 0.073142 -0.021822 200019.000000 0 0 1
-12.979854 28.744032 -18.154806 36.390836 -1.146640 2.093107 0.090362 -0.023583 9200.010000 0 0 1
-12.703254 27.462032 -18.608506 35.521998 -1.137534 2.122171 0.058456 -0.024286 221832.000000 0 0 1
-13.367954 27.275432 -19.830406 36.275286 -1.115092 2.149172 0.046119 -0.026423 -127559.000000 0 0 1
-12.686854 26.201232 -20.697006 35.718719 -1.119862 2.188843 0.022312 -0.019643 -74734.300000 0 0 1
-11.431154 26.503232 -21.280206 35.860002 -1.163592 2.206103 0.018772 -0.020820 -34990.100000 0 0 1
-10.839154 25.266832 -21.620306 34.976245 -1.165553 2.237174 0.004098 -0.019892 246085.000000 0 0 1
-9.605254 25.623532 -22.508806 35.432649 -1.212148 2.259136 0.030596 -0.029883 158509.000000 0 0 1
-9.985554 26.109132 -23.750706 36.680977 -1.205506 2.275088 0.020585 -0.029383 570865.000000 0 0 1
-8.807854 26.476432 -24.486106 37.123431 -1.249645 2.291065 0.018737 -0.027964 580285.000000 0 0 1
-9.114754 27.085032 -25.894336 38.564159 -1.246177 2.306975 0.021659 -0.022741 -217276.000000 0 0 1
-9.721454 26.225932 -26.781796 38.724292 -1.215818 2.334501 0.003853 -0.014753 -347380.000000 0 0 1
-10.120754 26.824332 -27.994506 40.070773 -1.210013 2.344272 0.004912 -0.012655 239009.000000 0 0 1
-11.428054 26.214732 -28.572696 40.425382 -1.159696 2.355762 -0.008284 -0.011738 345333.000000 0 0 1
-11.794354 26.837832 -29.819226 41.815813 -1.156736 2.364719 0.002913 -0.008487 658961.000000 0 0 1
-13.085354 26.348332 -30.226966 42.179741 -1.109849 2.369744 -0.001106 -0.010331 535490.000000 0 0 1
-13.395454 26.814232 -31.681966 43.614082 -1.107497 2.383889 0.002631 -0.004516 -410699.000000 0 0 1
-12.495654 26.379232 -32.650226 43.795462 -1.128415 2.412105 0.007784 -0.006700 -178819.000000 0 0 1
-12.292754 24.996032 -32.721646 42.972311 -1.113740 2.436357 0.008869 -0.010170 -332238.000000 0 0 1
-11.410254 24.500132 -33.845416 43.312383 -1.134945 2.467744 0.009681 -0.005934 -425571.000000 0 0 1
-12.026654 24.694932 33.774059 43.533517 -1.117595 0.682787 0.015123 -0.005028 -158826.000000 0 0 1
-11.436354 24.005132 32.706228 42.151322 -1.126196 0.682618 0.019505 -0.006175 -554776.000000 0 0 1
-12.217054 24.078532 31.378378 41.396071 -1.101259 0.710549 0.031084 0.001399 -417334.000000 0 0 1
-13.407954 23.354132 31.377208 41.348735 -1.049628 0.709261 0.032919 -0.002217 -121994.000000 0 0 1
-14.105454 23.327432 30.103068 40.611915 -1.026948 0.735884 0.039101 0.008757 450554.000000 0 0 1
-15.270254 22.332432 30.024628 40.415300 -0.971046 0.733400 0.031824 0.008358 248755.000000 0 0 1
-14.798954 21.016732 30.163578 39.630210 -0.957290 0.705749 0.026075 0.000458 -282305.000000 0 0 1
-15.894554 20.213032 30.452848 39.856988 -0.904433 0.701224 0.021376 0.003160 -200347.000000 0 0 1
-15.521954 18.742432 30.525648 39.038763 -0.879112 0.673038 0.012871 -0.002196 -69196.000000 0 0 1
-15.417754 18.175532 29.253788 37.733821 -0.867308 0.683659 0.026886 -0.002964 42622.300000 0 0 1
-15.033654 16.828732 29.340878 37.014917 -0.841677 0.655608 0.022188 -0.016078 -70451.000000 0 0 1
-14.752554 16.169832 27.933998 35.488161 -0.831200 0.664645 0.019450 -0.009761 -508495.000000 0 0 1
-13.578654 16.626432 27.362438 34.778170 -0.885961 0.665237 0.013389 -0.003442 -805439.000000 0 0 1
-13.095254 15.868532 26.320138 33.407269 -0.880857 0.663475 0.001379 0.000927 238157.000000 0 0 1
-11.872154 16.451032 25.559238 32.632180 -0.945677 0.670916 0.004111 0.002179 261911.000000 0 0 1
-12.192454 17.464632 24.568588 32.515917 -0.961332 0.714247 -0.001346 0.000562 -437261.000000 0 0 1
-12.431054 18.757232 25.099758 33.709979 -0.985521 0.730892 0.001683 0.000265 -56294.400000 0 0 1
-11.374854 19.690332 25.775108 34.372266 -1.046945 0.722914 0.004668 0.001846 -13404.600000 0 0 1
-10.971454 19.409632 27.095588 35.089564 -1.056314 0.688526 0.017880 -0.004971 178084.000000 0 0 1
-11.960654 19.785732 28.071058 36.366423 -1.027068 0.688980 0.030326 0.001716 284751.000000 0 0 1
-11.613554 19.425332 29.537098 37.210997 -1.031955 0.653808 0.030329 0.001672 -717407.000000 0 0 1
-10.526654 20.166932 29.946418 37.607227 -1.089723 0.649652 0.019943 -0.007035 -758423.000000 0 0 1
-10.493854 20.252232 31.383388 38.796790 -1.092728 0.628488 0.013666 -0.008351 324102.000000 0 0 1
-9.220354 20.985932 31.909678 39.289335 -1.156827 0.622932 0.002969 -0.005031 634323.000000 0 0 1
-8.141054 20.127732 32.284338 38.906052 -1.186443 0.592043 0.004613 -0.009545 172474.000000 0 0 1
-7.150454 20.974732 32.857308 39.631693 -1.242244 0.593360 -0.003252 -0.002824 407214.000000 0 0 1
-5.888854 20.276332 33.450789 39.557092 -1.288142 0.563046 0.001149 0.003240 -125561.000000 0 0 1
-6.109054 19.497932 -34.286157 39.912786 -1.267166 2.604162 -0.002791 -0.003607 573667.000000 0 0 1
-4.914454 18.961232 -33.683706 38.965013 -1.317192 2.614872 0.001267 -0.002205 882072.000000 0 0 1
-4.111754 17.914132 34.338324 38.947954 -1.345178 0.491457 -0.002360 0.003698 -489340.000000 0 0 1
-4.754654 16.701932 34.187529 38.345123 -1.293456 0.469987 0.002598 0.003779 -151974.000000 0 0 1
-4.505554 16.143432 32.928837 36.948866 -1.298627 0.470812 -0.002358 0.008007 -227348.000000 0 0 1
-5.191354 14.771332 32.793638 36.339581 -1.232832 0.445438 0.017147 0.004604 56422.500000 0 0 1
-4.559854 13.635032 33.438590 36.398430 -1.248066 0.406065 0.020793 0.008325 305656.000000 0 0 1
-5.461754 12.511032 33.540794 36.212450 -1.159179 0.386530 0.034189 0.006176 392242.000000 0 0 1
-4.776754 11.268532 34.078408 36.209600 -1.169856 0.344800 0.050513 0.002325 107382.000000 0 0 1
-4.499354 11.313532 -33.462516 35.608709 -1.192277 2.792631 0.048760 -0.005172 -54123.400000 0 0 1
-3.483354 10.333632 -33.246296 34.989054 -1.245669 2.824646 0.063709 -0.008476 415017.000000 0 0 1
-3.418554 9.887232 -31.794296 33.471198 -1.237909 2.823713 0.061891 -0.010994 -462192.000000 0 0 1
-4.538854 9.227732 -31.305006 32.950806 -1.113673 2.824201 0.057414 -0.011818 -609731.000000 0 0 1
-4.386454 8.739132 -29.994526 31.548138 -1.105604 2.826457 0.057331 -0.007837 522783.000000 0 0 1
-5.732954 8.160032 -29.437216 31.080582 -0.958351 2.814952 0.047704 -0.008763 565933.000000 0 0 1
-5.599454 7.336232 -28.290226 29.757538 -0.918863 2.826253 0.043464 -0.010885 -232075.000000 0 0 1
-6.814554 6.703132 -28.022516 29.607964 -0.777156 2.812859 0.049346 -0.022663 -940161.000000 0 0 1
-6.695654 5.758032 -26.859996 28.274478 -0.710251 2.823946 0.035012 -0.020004 -330326.000000 0 0 1
-6.715954 6.380332 -25.584146 27.209579 -0.759777 2.794197 0.020009 -0.010051 268836.000000 0 0 1
-5.601854 7.167232 -25.211256 26.802190 -0.907381 2.795312 0.021377 -0.010476 -178798.000000 0 0 1
-6.094054 8.100732 -24.059206 26.107561 -0.925835 2.742829 0.005390 -0.002855 192295.000000 0 0 1
-6.232154 7.435332 -22.753806 24.735796 -0.873204 2.738554 0.005390 -0.005397 -726258.000000 0 1 0
-7.550954 7.499832 -22.336206 24.742079 -0.782002 2.696944 0.007219 -0.003578 -828212.000000 0 1 0
-7.569954 7.689832 -20.827606 23.456916 -0.793254 2.663576 0.009093 -0.004498 -129308.000000 0 1 0
-6.925854 8.896232 -20.483106 23.380933 -0.909294 2.638427 -0.008013 -0.000241 117833.000000 0 1 0
-6.626954 9.111532 -19.093706 22.169938 -0.941972 2.608507 -0.006612 -0.001595 -879255.000000 0 1 0
-7.834754 9.427632 -18.202506 21.945269 -0.877412 2.548919 -0.015244 0.003082 -825106.000000 0 1 0
-7.600454 9.595532 -16.824706 20.806534 -0.900902 2.512609 -0.020912 0.002550 1384850.000000 0 1 0
-8.873954 9.756432 -16.106706 20.817324 -0.832730 2.455483 -0.002387 -0.007040 1439530.000000 0 1 0
-9.345154 11.213632 -16.249006 21.842794 -0.876034 2.409694 -0.006660 -0.006343 -863063.000000 0 1 0
-8.444254 12.128532 -15.725506 21.580043 -0.962605 2.387227 -0.021251 -0.010858 -421382.000000 0 1 0
-8.834354 13.446232 -15.977706 22.674524 -0.989507 2.352732 -0.008039 -0.012425 -343634.000000 0 1 0
-7.681254 14.434132 -15.775606 22.720378 -1.081754 2.338295 -0.004464 -0.007031 -296842.000000 0 1 0
-7.179754 14.639632 -14.437506 21.778642 -1.114832 2.295509 -0.000404 -0.010001 -291997.000000 0 1 0
-8.077454 15.042632 -13.447506 21.733878 -1.078011 2.237927 0.002913 -0.028008 -975538.000000 0 1 0
-7.348854 15.856332 -12.347106 21.398129 -1.136802 2.185869 0.011766 -0.021735 341228.000000 0 1 0
-6.894554 17.188432 -12.703006 22.457592 -1.189328 2.172011 0.017574 -0.023117 225907.000000 0 1 0
-5.839554 17.230432 -13.649906 22.744408 -1.244036 2.214477 0.017412 -0.018946 -358766.000000 0 1 0
-5.629454 18.660732 -14.187806 24.108246 -1.277805 2.200004 0.029370 -0.006850 195738.000000 0 1 0
-4.930654 19.518832 -13.304206 24.130853 -1.323363 2.154761 0.022983 -0.011812 -40247.000000 0 1 0
-4.990554 20.812632 -13.820706 25.477111 -1.335455 2.144177 0.025367 -0.002691 43333.700000 0 0 1
-4.603054 22.014832 -12.902706 25.929149 -1.364677 2.091642 0.033071 -0.005757 -541500.000000 0 0 1
-4.872154 23.334032 -13.384306 27.337787 -1.364953 2.082416 0.022320 -0.006048 -28462.000000 0 0 1
-6.211254 23.765732 -13.323206 27.944543 -1.315161 2.067776 0.024086 -0.010043 -567186.000000 0 0 1
-6.900154 23.902332 -11.949406 27.599310 -1.289756 2.018571 0.017856 -0.016066 -650493.000000 0 0 1
-7.229754 22.655832 -11.351706 26.351799 -1.261899 2.016148 0.023639 -0.017707 -221506.000000 0 0 1
-7.915554 22.771132 -10.103406 26.139228 -1.236249 1.967655 0.033865 -0.021193 -316966.000000 0 0 1
-7.354854 23.312432 -8.810206 25.984285 -1.265189 1.916713 0.032739 -0.016313 -507525.000000 0 0 1
-7.040354 24.694532 -8.880306 27.170689 -1.293067 1.903748 0.025068 -0.017035 -50282.800000 0 0 1
-6.794654 25.230532 -7.595906 27.211116 -1.307734 1.853702 0.024399 -0.012326 -223506.000000 0 0 1
-6.904254 26.799432 -7.607806 28.701167 -1.318652 1.839072 0.019042 -0.019516 266989.000000 0 0 1
-5.910054 27.642932 -8.198406 29.432538 -1.360168 1.853079 0.011004 -0.019541 87428.700000 0 0 1
-5.638654 27.489032 -9.591806 29.655422 -1.368479 1.900161 0.015056 -0.013763 -165816.000000 0 0 1
-5.068454 28.795132 -10.160306 30.952878 -1.396563 1.905247 0.013288 -0.012755 242082.000000 0 0 1
-5.957854 29.910032 -10.094806 32.124930 -1.374177 1.890448 0.012042 -0.007685 317409.000000 0 0 1
-6.934854 30.013832 -11.125906 32.752223 -1.343726 1.917393 0.017404 -0.009942 -618285.000000 0 0 1
-8.009054 31.028232 -10.901606 33.848798 -1.318189 1.898709 0.024986 -0.006242 -746560.000000 0 0 1
-9.033754 30.521732 -10.075206 33.387043 -1.283034 1.877345 0.035708 -0.007639 -150719.000000 0 0 1
-10.099854 31.444632 -10.017506 34.512641 -1.260010 1.865291 0.029581 -0.014453 644606.000000 0 0 1
-11.381354 31.063932 -9.208006 34.340799 -1.219600 1.842254 0.033042 -0.012906 961496.000000 0 0 1
-12.146054 30.026532 -9.850406 33.854833 -1.186407 1.866027 0.045029 -0.016335 297047.000000 0 0 1
-13.358254 29.740132 -9.165306 33.866225 -1.148636 1.844846 0.043602 -0.010637 445310.000000 0 0 1
-14.207054 28.631432 -9.797206 33.430293 -1.110189 1.868226 0.052456 -0.005455 -103596.000000 0 0 1
-13.936854 27.299032 -9.345506 32.043900 -1.098764 1.866745 0.051739 -0.011795 -47935.700000 0 0 1
-14.700754 26.313332 -9.990206 31.753863 -1.061313 1.890846 0.057435 -0.021792 -515088.000000 0 0 1
-14.902754 25.008532 -9.225506 30.538970 -1.033392 1.877680 0.051759 -0.016268 35583.300000 0 0 1
-13.850554 24.045532 -9.187806 29.230827 -1.048201 1.890536 0.048704 -0.014128 400269.000000 0 0 1
-14.379554 22.792132 -8.830306 28.358899 -1.007966 1.887438 0.061304 -0.013500 559949.000000 0 0 1
-13.313454 21.654032 -9.083306 26.993547 -1.019547 1.913993 0.060053 -0.016962 379475.000000 0 0 1
-13.130654 21.392132 -10.480606 27.200744 -1.020286 1.966336 0.066297 -0.009566 143830.000000 0 0 1
-12.572854 20.158632 -10.805906 26.100090 -1.013135 1.997660 0.065770 -0.012197 -394353.000000 0 0 1
-12.453254 19.991032 -12.341106 26.589994 -1.013678 2.053444 0.058988 -0.010116 -385126.000000 0 0 1
-13.709654 20.002232 -12.941706 27.486936 -0.969932 2.061029 0.058743 0.005439 -619640.000000 0 0 1
-13.677554 19.623832 -14.326806 27.882389 -0.962095 2.110440 0.054550 0.007864 -32005.700000 0 0 1
-15.060954 19.247732 -14.883206 28.614984 -0.906830 2.117787 0.046414 0.008584 -189438.000000 0 0 1
-15.895054 20.359432 -14.936006 29.836948 -0.907921 2.095074 0.031584 0.002914 -725705.000000 0 0 1
-17.214954 19.948332 -15.186406 30.412456 -0.858816 2.093643 0.022737 0.008972 -224280.000000 0 0 1
-18.113854 21.035132 -15.797506 31.939782 -0.859880 2.088174 0.019715 0.000202 -133241.000000 0 0 1
-18.309754 22.223232 -15.023706 32.478160 -0.881650 2.051698 0.025271 -0.007346 194865.000000 0 0 1
-18.863954 23.313132 -15.745906 33.871587 -0.890498 2.054285 0.033435 -0.012899 -129180.000000 0 0 1
-19.416454 24.431932 -14.899106 34.581806 -0.899285 2.016216 0.029967 -0.002744 33573.700000 0 0 1
-20.596954 24.109332 -14.183006 34.736898 -0.863803 1.991385 0.031064 -0.004874 116645.000000 0 0 1
-21.079454 25.248132 -13.535406 35.567102 -0.875139 1.961198 0.022132 -0.013158 -263783.000000 0 0 1
-25.504334 -0.822568 3.569294 25.766015 0.032241 1.431822 0.036360 -0.025868 -84320.100000 0 0 1
-25.993004 0.092632 4.541994 26.387014 -0.003564 1.397805 0.049121 -0.031150 293347.000000 0 0 1
-26.802814 -0.519968 5.522694 27.370812 0.019397 1.367628 0.029561 -0.022229 -110095.000000 0 0 1
-27.252004 0.348732 6.684094 28.061904 -0.012796 1.330293 0.030839 -0.017923 -397659.000000 0 0 1
-28.152514 1.403532 6.381294 28.900776 -0.049813 1.348162 0.058400 -0.020785 648456.000000 0 0 1
-28.731094 2.154632 7.511594 29.774859 -0.074853 1.315761 0.072469 -0.012991 647139.000000 0 0 1
-27.688304 3.035832 8.337794 29.075372 -0.109207 1.279948 0.090441 -0.021321 533932.000000 0 0 1
-26.845184 2.116632 8.992894 28.390424 -0.078683 1.248487 0.069738 -0.026910 -199644.000000 0 0 1
-25.674224 2.691732 9.515594 27.512864 -0.104460 1.217641 0.068774 -0.030614 233257.000000 0 0 1
-24.708554 1.650632 10.211394 26.786373 -0.066705 1.179685 0.055533 -0.024130 313838.000000 0 0 1
-23.891854 0.930032 9.314094 25.660046 -0.038907 1.199332 0.051465 -0.029437 640781.000000 0 0 1
-24.586554 -0.239368 8.853594 26.133160 0.009735 1.225168 0.044482 -0.027924 -90289.200000 0 0 1
-23.611354 -1.138268 8.047294 24.970995 0.048171 1.242674 0.048397 -0.028420 -299687.000000 0 1 0
-22.602054 -1.652268 8.860794 24.333033 0.072973 1.198080 0.036666 -0.039973 -441037.000000 0 1 0
-21.628154 -2.280668 8.067094 23.196045 0.105061 1.215595 0.041858 -0.028578 -58328.100000 0 1 0
-20.440354 -2.754568 8.963594 22.488702 0.133954 1.160826 0.041208 -0.018997 446434.000000 0 1 0
-19.621754 -1.677968 9.515494 21.871749 0.085308 1.120693 0.026310 -0.019044 909121.000000 0 1 0
-20.171454 -1.115968 10.659294 22.841924 0.055268 1.085292 0.028838 -0.019939 -817999.000000 0 1 0
-19.756854 0.346432 10.903494 22.568550 -0.017533 1.066573 0.023441 -0.017949 -333963.000000 0 1 0
-20.166754 1.279732 9.922194 22.511899 -0.063373 1.114359 0.027215 -0.021260 244791.000000 0 1 0
-20.505854 2.465032 10.606994 23.217983 -0.119637 1.096352 0.031453 -0.012118 -196175.000000 0 1 0
-21.326854 3.445932 9.731894 23.694280 -0.160193 1.147544 0.026472 -0.024653 -469717.000000 0 1 0
-21.556954 4.639132 10.387494 24.374655 -0.211971 1.130553 0.027323 -0.020535 569595.000000 0 1 0
-22.167354 5.684032 9.671194 24.844150 -0.251007 1.170952 0.027861 -0.024260 -482343.000000 0 1 0
-22.287954 6.921232 10.537294 25.606462 -0.301095 1.146687 0.030794 -0.019110 6320.110000 0 0 1
-23.220254 6.684832 11.575294 26.792809 -0.280308 1.124054 0.034129 -0.016833 426089.000000 0 0 1
-23.326454 7.843932 12.341894 27.531311 -0.324389 1.105950 0.030917 -0.010914 -129466.000000 0 0 1
-24.042054 7.546432 13.687094 28.675870 -0.304146 1.073213 0.039234 -0.010314 450147.000000 0 0 1
-25.408184 7.204832 13.518194 29.668619 -0.276310 1.097706 0.035648 -0.004143 170249.000000 0 0 1
-26.160704 7.085932 14.712994 30.839342 -0.264515 1.073461 0.039493 -0.002025 146548.000000 0 0 1
-27.627194 6.750232 14.363894 31.861402 -0.239638 1.103108 0.032961 0.004426 -109002.000000 0 0 1
-27.869224 5.482032 13.813794 31.584287 -0.194226 1.118132 0.043050 0.001353 -61314.900000 0 0 1
-28.426904 5.578932 12.545994 31.569214 -0.193792 1.162101 0.056489 0.000145 -439322.000000 0 0 1
-28.617804 4.207732 11.856294 31.261084 -0.145986 1.181792 0.064383 -0.008579 -34975.400000 0 0 1
-29.626824 3.412732 12.450094 32.317182 -0.114685 1.175321 0.046986 -0.002087 301134.000000 0 0 1
-29.969674 2.243232 11.741294 32.265638 -0.074711 1.198350 0.041842 -0.002398 628631.000000 0 0 1
-31.206974 1.437732 12.313594 33.579263 -0.046038 1.195334 0.013749 0.005755 459767.000000 0 0 1
-30.877264 0.411432 13.227894 33.593926 -0.013324 1.166079 0.024486 0.004067 440872.000000 0 0 1
-32.027654 -0.111268 13.906094 34.916507 0.003474 1.161170 0.011822 0.013434 367355.000000 0 0 1
-31.644134 -1.206068 14.969894 35.027183 0.038095 1.129204 0.020361 0.005407 -27734.800000 0 0 1
-31.407324 -2.505968 14.422994 34.651445 0.079621 1.141500 0.030013 -0.000853 171696.000000 0 0 1
-31.464784 -3.464968 15.443394 35.221258 0.109680 1.116903 0.033699 -0.000646 -126972.000000 0 0 1
-31.235024 -4.959468 15.027994 35.015191 0.157465 1.127206 0.037336 -0.001508 307538.000000 0 0 1
-32.278254 -5.369368 14.136894 35.645021 0.164837 1.162984 0.024655 -0.000749 475388.000000 0 0 1
-32.105984 -6.759268 13.776394 35.584701 0.207500 1.173265 0.033545 -0.005189 -684393.000000 0 0 1
-33.128734 -7.218968 12.702994 36.207631 0.214553 1.212331 0.033561 -0.008826 679623.000000 0 0 1
-34.509094 -7.202768 13.030694 37.583991 0.205767 1.216737 0.037524 -0.006104 718655.000000 0 0 1
-35.110806 -5.899368 13.261894 37.992750 0.166467 1.214224 0.040246 -0.002934 -158448.000000 0 0 1
34.289769 -5.731668 12.949394 37.098882 -0.165623 1.214238 0.058908 -0.008435 454071.000000 0 0 1
33.415389 -6.584768 13.618294 36.679767 -0.194565 1.190414 0.054687 -0.006315 -39035.700000 0 0 1
32.077419 -6.382368 13.199394 35.269242 -0.196403 1.187212 0.050994 -0.003894 452321.000000 0 0 1
31.035159 -7.492168 13.518994 34.670980 -0.236877 1.170249 0.036284 0.000372 86149.500000 0 0 1
30.529429 -7.329068 14.811094 34.714979 -0.235607 1.130012 0.031394 -0.001709 -665955.000000 0 0 1
29.536029 -8.235668 15.077594 34.169242 -0.271928 1.113792 0.026101 -0.004372 -735227.000000 0 0 1
28.907229 -8.185368 16.458394 34.256486 -0.275936 1.069633 0.012911 0.002743 -202698.000000 0 0 1
29.589749 -8.885868 17.451194 35.483180 -0.291734 1.056622 0.018859 0.004713 -382537.000000 0 0 1
28.858129 -8.843968 18.644794 35.477256 -0.297376 1.017444 0.016124 0.003183 -790031.000000 0 0 1
29.613189 -9.234968 19.922594 36.866453 -0.302296 0.999885 0.014785 -0.001086 920500.000000 0 0 1
30.761869 -8.417468 20.290494 37.800139 -0.267095 1.004176 0.016358 -0.001737 731862.000000 0 0 1
31.914669 -8.818968 19.597094 38.475530 -0.269602 1.036380 0.019984 0.000444 -72905.600000 0 0 1
33.284809 -8.196768 20.046394 39.710495 -0.241457 1.041630 0.019139 0.003386 765741.000000 0 0 1
33.739409 -8.640568 21.302894 40.826712 -0.250709 1.021851 0.029388 -0.004919 498334.000000 0 0 1
35.025951 -8.062168 21.600494 41.933246 -0.226236 1.029653 0.027932 -0.004477 767681.000000 0 0 1
-35.267860 -8.556968 22.922794 42.924330 0.238028 1.007439 0.040431 -0.011427 61329.300000 0 0 1
34.987664 -8.123868 24.147294 43.280777 -0.228150 0.978917 0.038941 -0.014673 362437.000000 0 0 1
-35.354114 -8.718368 25.294094 44.336379 0.241777 0.963677 0.031689 -0.004813 -304736.000000 0 0 1
34.849197 -8.277668 26.573794 44.599920 -0.233207 0.932503 0.045597 -0.006599 30961.000000 0 0 1
-35.238725 -7.458368 27.357394 45.230764 0.208574 0.921231 0.021000 -0.013153 -88846.400000 0 0 1
34.991725 -6.978768 28.479394 45.653038 -0.196858 0.897172 0.026844 -0.016984 719189.000000 0 0 1
-34.870455 -6.518568 29.563394 46.178291 0.184804 0.876036 0.031991 -0.011441 1304590.000000 0 0 1
-34.174379 -7.568168 30.285194 46.285617 0.217940 0.857525 0.029288 -0.010320 -222715.000000 0 0 1
-33.034374 -7.087868 30.912694 45.794130 0.211356 0.829783 0.016653 -0.008987 -264862.000000 0 0 1
-32.628344 -7.821368 32.192394 46.498740 0.235272 0.806086 -0.001219 0.000513 -315.830000 0 0 1
-32.331704 -9.226268 32.002594 46.417983 0.277975 0.810075 0.005176 0.001276 470851.000000 0 0 1
-31.869604 -9.882368 33.195394 47.066623 0.300686 0.787971 -0.000106 0.006298 -191669.000000 0 0 1
-32.017874 -11.394068 33.023994 47.387268 0.341891 0.799736 0.012019 0.000353 832227.000000 0 0 1
-33.414334 -11.751368 33.047994 48.443599 0.338176 0.820035 0.003312 -0.002886 954486.000000 0 0 1
-33.590364 -13.155068 33.254394 49.063460 0.373272 0.826053 0.010449 -0.006989 1016820.000000 0 0 1
-35.091419 -13.595768 33.469994 50.363609 0.369631 0.843882 0.010454 -0.007492 1016520.000000 0 0 1
-35.248802 -14.912368 33.938694 51.153609 0.400227 0.845354 0.006017 -0.012312 -235620.000000 0 0 1
34.302119 -15.242468 33.903694 50.580912 -0.418153 0.836202 -0.003167 -0.007319 -194046.000000 0 0 1
33.973299 -16.723568 34.170894 51.005027 -0.457433 0.836653 -0.010049 -0.005122 -287362.000000 0 0 1
34.228059 -17.095768 -33.364530 50.764330 -0.463221 2.287952 -0.000536 -0.010639 176432.000000 0 0 1
34.232919 -18.515968 -33.294130 51.217506 -0.495816 2.278451 -0.005205 -0.018747 -386035.000000 0 0 1
34.647889 -19.033568 -31.875130 50.781658 -0.502338 2.249378 -0.000794 -0.018784 -627481.000000 0 0 1
33.675949 -18.942768 -30.908530 49.479645 -0.512391 2.245507 0.005420 -0.012399 -709208.000000 0 0 1
33.936119 -19.896468 -29.867130 49.392055 -0.530279 2.220179 0.000965 -0.007653 -833095.000000 0 0 1
32.852259 -19.856468 -28.731830 47.948601 -0.543661 2.213325 0.000951 -0.001935 1034110.000000 0 0 1
31.637419 -20.536368 -29.084830 47.629781 -0.575754 2.227670 0.012240 0.003566 338669.000000 0 0 1
30.851779 -19.856968 -29.996030 47.390856 -0.571880 2.256154 -0.000471 0.002889 -1943000.000000 0 0 1
29.516859 -20.549968 -30.274530 47.011630 -0.608179 2.270485 -0.000005 0.007231 -524641.000000 0 0 1
28.678719 -19.777868 -31.075330 46.683071 -0.603736 2.299182 -0.001704 0.008181 -435053.000000 0 0 1
27.425759 -20.399068 -31.227930 46.297709 -0.639516 2.311087 0.005762 0.006046 -27138.600000 0 0 1
26.560229 -19.642868 -32.260730 46.174048 -0.636786 2.344342 0.009828 0.014644 98641.700000 0 0 1
27.100769 -19.762368 -33.553130 47.442759 -0.630067 2.356374 -0.002101 0.010024 580942.000000 0 0 1
26.072059 -19.543868 34.332194 47.333018 -0.643251 0.759279 0.033435 0.001590 378181.000000 0 0 1
26.458699 -19.957568 32.881694 46.685898 -0.646242 0.789335 0.025457 0.003974 -435362.000000 0 0 1
27.400609 -19.051368 32.341394 46.472721 -0.607558 0.801093 0.005484 0.007597 175172.000000 0 0 1
27.629209 -18.962768 30.935894 45.606900 -0.601493 0.825328 0.005500 0.001954 57524.700000 0 0 1
26.464339 -18.277568 30.153094 44.086730 -0.604422 0.817634 0.008570 0.008857 106370.000000 0 0 1
26.367409 -16.930368 30.718494 43.880559 -0.570798 0.795332 0.012838 0.000807 365441.000000 0 0 1
25.635539 -16.097868 29.836994 42.503746 -0.560719 0.792615 0.024455 0.003733 68002.100000 0 0 1
25.268439 -14.743968 30.434494 42.215365 -0.528194 0.765647 0.027049 0.002088 528224.000000 0 0 1
26.429949 -13.903668 30.385194 42.604157 -0.484276 0.776747 0.030692 0.003941 885198.000000 0 0 1
26.152799 -12.579368 30.881494 42.377778 -0.448328 0.754347 0.045884 0.002423 -113543.000000 0 0 1
27.436909 -11.737568 31.027894 43.049793 -0.404242 0.765921 0.041830 -0.003087 110434.000000 0 0 1
27.979369 -11.322468 29.803294 42.417917 -0.384527 0.791736 0.039741 -0.005680 -23993.700000 0 0 1
29.333329 -10.934368 29.939294 43.317040 -0.356808 0.807694 0.039120 -0.003713 280506.000000 0 0 1
29.923579 -10.254368 28.658294 42.683374 -0.330143 0.834679 0.046813 -0.007591 -181308.000000 0 0 1
29.459829 -8.956668 28.375594 41.872160 -0.295150 0.826204 0.036069 -0.004548 -289452.000000 0 0 1
30.154579 -8.463468 27.253594 41.517313 -0.273629 0.854707 0.030957 -0.002826 -99759.700000 0 0 1
30.057049 -6.967168 27.053694 41.034985 -0.227776 0.850931 0.027409 -0.005649 -454354.000000 0 0 1
28.788659 -6.454268 26.787494 39.849897 -0.220548 0.833607 0.043421 -0.010909 -912834.000000 0 0 1
28.852789 -5.071768 26.692994 39.632338 -0.174003 0.831842 0.046986 -0.013872 527064.000000 0 0 1
27.404719 -4.489968 26.715894 38.534626 -0.162396 0.804744 0.051532 -0.012789 363161.000000 0 0 1
26.843069 -4.653368 25.445594 37.278445 -0.171649 0.819506 0.047674 -0.012351 103101.000000 0 0 1
25.493439 -4.205468 25.462594 36.275957 -0.163490 0.792715 0.057339 -0.015920 251029.000000 0 0 1
24.684839 -4.458168 24.160894 34.827652 -0.178677 0.804145 0.042091 -0.005940 -154869.000000 0 0 1
25.036039 -3.649468 23.085694 34.250126 -0.144749 0.831142 0.048193 0.001536 -16913.500000 0 0 1
24.413739 -4.054768 21.903894 33.049242 -0.164583 0.846291 0.033912 -0.001778 -68872.000000 0 0 1
24.822139 -3.210868 20.683094 32.469041 -0.128641 0.880184 0.042280 -0.003402 -12539.700000 0 0 1
24.239439 -1.931868 20.771094 31.980007 -0.079531 0.863866 0.050639 0.000141 62898.700000 0 0 1
24.644439 -1.140868 19.661894 31.547425 -0.046260 0.897906 0.051321 -0.004073 -435310.000000 0 0 1
23.538739 -0.228068 19.101894 30.315122 -0.009689 0.889100 0.033198 -0.006300 7061.790000 0 0 1
22.765039 -1.043368 18.196694 29.162567 -0.045800 0.896978 0.035562 -0.009276 -352294.000000 0 0 1
21.557039 -0.400068 17.894294 28.019132 -0.018556 0.878060 0.037642 -0.007795 -340870.000000 0 0 1
20.581139 -1.403368 17.252294 26.892273 -0.068082 0.874301 0.018662 -0.010785 -766485.000000 0 0 1
20.834839 -1.846068 15.908794 26.279045 -0.088374 0.920554 0.036372 -0.023792 278036.000000 0 0 1
19.859739 -2.790268 15.471294 25.328951 -0.139585 0.913707 0.037908 -0.025240 142224.000000 0 0 1
20.025139 -3.136368 14.002194 24.635430 -0.155359 0.966265 0.042013 -0.036959 -2063.510000 0 1 0
19.191839 -4.222868 13.593094 23.894173 -0.216583 0.965644 0.044673 -0.032760 772253.000000 0 1 0
19.546139 -4.633868 12.275994 23.541969 -0.232776 1.022245 0.043960 -0.028349 -336639.000000 0 1 0
18.447639 -5.556368 11.770194 22.577114 -0.292554 1.022384 0.036594 -0.026798 -223422.000000 0 1 0
18.558339 -6.793168 12.472694 23.369364 -0.350896 1.007803 0.046386 -0.028247 1157280.000000 0 1 0
17.373539 -7.577368 12.259494 22.573249 -0.411272 0.996674 0.032935 -0.015136 305801.000000 0 1 0
17.682039 -8.967668 12.571894 23.476075 -0.469361 1.005674 0.050017 -0.028749 -433080.000000 0 1 0
18.309639 -9.631668 11.529294 23.684099 -0.484265 1.062380 0.041641 -0.038107 285050.000000 0 1 0
18.133639 -11.076768 11.640894 24.228786 -0.548353 1.069620 0.058245 -0.031187 -92388.700000 0 1 0
18.723439 -11.859268 10.448394 24.502619 -0.564611 1.130266 0.059319 -0.025110 -115626.000000 0 1 0
18.233739 -11.364668 9.208994 23.375853 -0.557359 1.165868 0.054956 -0.021814 371034.000000 0 1 0
18.871039 -11.892368 8.070394 23.720788 -0.562324 1.223641 0.054358 -0.032416 -273155.000000 0 1 0
18.300239 -11.189368 6.854694 22.518604 -0.548784 1.261486 0.037533 -0.020200 -260183.000000 0 1 0
18.758239 -9.852868 6.730394 22.231706 -0.483647 1.263232 0.032267 -0.018417 719005.000000 0 1 0
19.432639 -9.628968 5.474094 22.367615 -0.460045 1.323552 0.033246 -0.017403 121378.000000 0 1 0
19.967339 -8.200868 5.243794 22.213650 -0.389708 1.332485 0.054954 -0.016176 -304985.000000 0 1 0
20.360539 -7.950968 3.930394 22.208499 -0.372298 1.392882 0.043345 -0.022578 498873.000000 0 1 0
20.798239 -6.618568 3.763294 22.148015 -0.308094 1.400052 0.056158 -0.022095 -571911.000000 0 1 0
21.394539 -6.418168 2.348394 22.459611 -0.291448 1.466044 0.055786 -0.020073 11041.900000 0 1 0
20.503139 -6.068368 1.311694 21.422519 -0.287758 1.509528 0.028982 -0.028027 384950.000000 0 1 0
21.287039 -5.461168 0.343594 21.979091 -0.251133 1.555163 0.050603 -0.023658 -115208.000000 0 1 0
-25.557264 -16.213468 0.092694 30.266464 0.565329 1.567734 0.021235 0.001957 93538.300000 0 0 1
-24.690954 -15.446368 -0.795506 29.135310 0.559022 1.598104 0.022733 0.005906 755857.000000 0 0 1
-23.286254 -15.595368 -0.658406 28.033883 0.590116 1.594285 0.021735 0.009045 476932.000000 0 0 1
-22.686754 -14.909768 0.585094 27.153864 0.581421 1.549247 0.022250 -0.000880 -743099.000000 0 0 1
-22.991154 -15.582768 1.737894 27.828692 0.595652 1.508306 0.023020 0.004421 14417.500000 0 0 1
-22.235254 -15.096768 2.857594 27.027481 0.596463 1.464869 0.029220 0.014612 254428.000000 0 0 1
-22.693454 -15.679468 4.210794 27.902855 0.604609 1.419309 0.038058 0.016794 -219118.000000 0 0 1
-22.312854 -17.061468 4.361194 28.424939 0.652810 1.416759 0.037215 0.010812 157293.000000 0 0 1
-22.715754 -17.658468 5.581694 29.308399 0.660787 1.379179 0.038969 -0.000871 -277199.000000 0 0 1
-22.667054 -19.221468 5.479994 30.220696 0.703327 1.388455 0.028701 -0.000833 -102009.000000 0 0 1
-23.025354 -19.867168 6.690294 31.138903 0.711901 1.354255 0.019415 -0.001831 -155157.000000 0 0 1
-23.225554 -21.220268 6.248094 32.074363 0.740311 1.374743 0.025785 -0.005896 184216.000000 0 0 1
-24.025154 -22.036868 7.313394 33.411335 0.742260 1.350120 0.028360 -0.004035 54681.200000 0 0 1
-23.238654 -22.445868 8.416894 33.387065 0.768046 1.315946 0.032811 0.000279 -350554.000000 0 0 1
-24.013754 -23.060768 9.417794 34.599917 0.765157 1.295127 0.038475 -0.002344 -183389.000000 0 0 1
-23.262154 -23.565968 10.642094 34.781271 0.791886 1.259837 0.025059 -0.012503 2093.160000 0 0 1
-22.628054 -22.483768 11.338294 33.854181 0.782200 1.229281 0.041176 -0.018458 -115355.000000 0 0 1
-21.960754 -22.992168 12.453194 34.146691 0.808338 1.197489 0.053833 -0.020905 -373495.000000 0 0 1
-22.112654 -22.174768 13.747594 34.200674 0.786801 1.157131 0.034691 -0.016153 -307426.000000 0 0 1
-23.429354 -22.255968 14.241294 35.313980 0.759720 1.155702 0.029497 -0.015710 -175476.000000 0 0 1
-23.641654 -21.750968 15.517694 35.676760 0.743770 1.120811 0.026247 -0.008860 -482889.000000 0 0 1
-24.937154 -22.281368 16.155794 37.139341 0.729213 1.120753 0.011914 -0.006876 31407.100000 0 0 1
-26.110844 -21.792768 15.502794 37.376965 0.695500 1.143108 0.008018 -0.008050 410623.000000 0 0 1
-26.644444 -22.548068 14.405694 37.760638 0.702318 1.179378 0.000853 -0.005182 90033.800000 0 0 1
-27.722764 -23.616468 14.834494 39.323675 0.705584 1.183981 -0.000335 -0.009434 165506.000000 0 0 1
-27.302754 -24.448768 15.919494 39.957639 0.730306 1.161014 0.009668 -0.007875 -300445.000000 0 0 1
-28.357134 -25.242338 16.358494 41.338880 0.727351 1.163948 0.000211 -0.002980 -295275.000000 0 0 1
-28.266744 -26.666278 15.724594 41.920902 0.756272 1.186290 0.005694 -0.001542 -179778.000000 0 0 1
-28.732794 -27.034478 14.421394 42.004917 0.754954 1.220340 -0.007234 -0.002713 370468.000000 0 0 1
-30.055404 -27.566618 14.417794 43.256427 0.742233 1.230984 0.002248 -0.002803 185029.000000 0 0 1
-30.621314 -28.106888 13.119394 43.586472 0.742610 1.265058 0.015069 -0.012548 -272918.000000 0 0 1
-29.997034 -29.252548 12.593894 43.750883 0.772834 1.278810 0.017539 -0.020519 69575.100000 0 0 1
-30.305074 -29.339098 11.231594 43.650073 0.769204 1.310559 0.025394 -0.014029 -163631.000000 0 0 1
-29.607734 -30.505848 10.523494 43.794618 0.800337 1.328130 0.019537 -0.018981 58876.400000 0 0 1
-30.094404 -31.769128 11.021794 45.126828 0.812463 1.324060 0.021334 -0.012718 126029.000000 0 0 1
-29.335924 -32.768578 10.439794 45.203600 0.840614 1.337742 0.033200 -0.014438 -362098.000000 0 0 1
-29.520944 -34.060624 11.226294 46.450424 0.856677 1.326696 0.025020 -0.010010 1612220.000000 0 0 1
-30.899834 34.502848 11.155394 47.641254 -0.840432 1.334448 0.018577 -0.007640 1447000.000000 0 0 1
-30.904024 33.205374 11.615294 46.824893 -0.821280 1.320121 0.022218 -0.008630 317542.000000 0 0 1
-32.276294 32.738597 12.233294 47.573400 -0.792509 1.310729 0.030061 -0.005468 1002920.000000 0 0 1
-33.387184 32.461917 11.392194 47.940194 -0.771348 1.330868 0.012469 -0.003690 538135.000000 0 0 1
-33.988934 33.623472 10.787094 49.011702 -0.779993 1.348887 0.027029 -0.003052 -236879.000000 0 0 1
-35.403290 33.280418 10.248394 49.658924 -0.754500 1.362927 0.023824 0.000384 163446.000000 0 0 1
-35.381476 32.495227 9.059994 48.886318 -0.742902 1.384391 0.003626 0.004970 266208.000000 0 0 1
34.202989 32.356377 8.587994 47.859516 0.757661 1.390377 0.001923 0.008496 238939.000000 0 0 1
33.982359 31.976407 7.082194 47.195856 0.754995 1.420168 -0.003836 0.003998 -112657.000000 0 0 1
34.193299 30.630997 6.797894 46.407446 0.730500 1.423785 0.002986 0.000878 166723.000000 0 0 1
33.770349 30.285697 5.459694 45.688819 0.731052 1.451013 0.007110 -0.006076 184493.000000 0 0 1
34.154129 28.774457 5.125894 44.952739 0.700117 1.456519 0.003502 -0.000435 288408.000000 0 0 1
33.391009 27.755617 5.821094 43.808891 0.693496 1.437527 0.011386 0.003903 272259.000000 0 0 1
33.983399 27.314697 7.031194 44.163353 0.677033 1.410907 -0.000198 0.000746 -520826.000000 0 0 1
33.157029 26.236137 7.734694 42.983124 0.669395 1.389864 -0.001857 -0.000500 -327083.000000 0 0 1
33.218399 25.010347 7.023694 42.170034 0.645359 1.403460 -0.002886 -0.001090 88791.600000 0 0 1
32.106449 24.185567 7.309094 40.855704 0.645605 1.390928 -0.004829 0.006494 -375689.000000 0 0 1
32.149719 22.864657 6.489094 39.981312 0.618199 1.407772 -0.003848 0.004706 50454.700000 0 0 1
33.058909 21.829057 6.816494 40.197808 0.583587 1.400399 0.000422 0.000909 1621450.000000 0 0 1
34.489359 22.155157 6.731694 41.541336 0.570997 1.408031 0.007059 -0.004599 1759480.000000 0 0 1
35.348401 20.850257 6.924294 41.619569 0.532923 1.403648 0.015519 -0.006471 -341230.000000 0 0 1
35.257365 19.977957 5.797694 40.936705 0.515523 1.428693 0.022020 -0.013510 34158.400000 0 0 1
-35.266167 18.702557 6.231894 40.402038 -0.487613 1.415931 0.032277 -0.013776 -299184.000000 0 0 1
35.067073 17.574257 5.322494 39.583874 0.464576 1.435927 0.035876 -0.016357 -27705.500000 0 0 1
-35.202944 17.434257 4.030394 39.489804 -0.459840 1.468557 0.035477 -0.014386 91284.000000 0 0 1
35.150161 16.412557 3.301794 38.933375 0.436841 1.485888 0.025139 -0.014408 -1552970.000000 0 0 1
-34.895478 15.988457 2.126194 38.442760 -0.429637 1.515460 0.031976 0.002341 -344990.000000 0 0 1
-33.729004 15.260557 2.358694 37.095737 -0.424886 1.507169 0.042520 -0.011237 -456238.000000 0 0 1
-32.683384 16.075357 2.823594 36.532087 -0.457107 1.493428 0.043781 -0.009313 -551865.000000 0 0 1
-31.288454 15.391057 3.006394 34.998434 -0.457154 1.484790 0.032599 -0.017764 633021.000000 0 0 1
-31.327414 14.502257 4.119794 34.766291 -0.433551 1.452018 0.049867 -0.023552 305580.000000 0 0 1
-29.986234 14.199557 4.432194 33.473064 -0.442253 1.437996 0.038336 -0.025328 -124758.000000 0 0 1
-29.861014 13.402857 5.682594 33.220605 -0.421890 1.398895 0.048689 -0.024155 -175938.000000 0 0 1
-30.340474 12.047257 5.532794 33.110309 -0.377977 1.402907 0.055767 -0.020796 457268.000000 0 0 1
-29.967014 11.154757 6.573194 32.644408 -0.356344 1.368053 0.046506 -0.006817 -171702.000000 0 0 1
-30.283024 9.659557 6.241594 32.393303 -0.308774 1.376902 0.039977 -0.014997 -307659.000000 0 0 1
-31.612744 9.297657 6.454794 33.577915 -0.286045 1.377359 0.036285 0.007002 -486986.000000 0 0 1
-31.793814 7.890057 6.170194 33.334230 -0.243249 1.384622 0.036189 -0.005576 -11535.600000 0 0 1
-33.240484 7.455157 6.480194 34.677111 -0.220629 1.382819 0.031601 0.002092 -22228.200000 0 0 1
-33.592614 7.369557 7.859594 35.278142 -0.215959 1.346122 0.026537 0.004753 342340.000000 0 0 1
-34.829248 6.656857 7.908594 36.330925 -0.188851 1.351357 0.008411 -0.003517 355547.000000 0 0 1
-35.349234 6.306157 9.333994 37.100666 -0.176539 1.316478 0.001942 -0.000861 -79306.300000 0 0 1
35.097328 7.421757 10.078194 37.262245 0.208392 1.296919 0.020534 -0.003143 133302.000000 0 0 1
-34.859875 8.084357 10.870594 37.399699 -0.227882 1.275880 0.030245 -0.003758 -282394.000000 0 0 1
35.322649 9.032557 11.840894 38.333841 0.250351 1.256772 0.028904 -0.013028 -137795.000000 0 0 1
34.652239 8.317457 12.868794 37.888832 0.235570 1.224256 0.021152 -0.013688 404010.000000 0 0 1
33.989599 9.251057 13.700994 37.796721 0.265736 1.199856 0.034147 -0.027816 -627905.000000 0 0 1
33.377589 8.603857 14.903994 37.552881 0.252281 1.162681 0.033695 -0.022420 -375270.000000 0 0 1
32.046159 8.142357 14.724294 36.194739 0.248817 1.151840 0.037179 -0.026371 316728.000000 0 0 1
31.680929 7.424157 15.899094 36.215750 0.230188 1.116299 0.033137 -0.023490 113304.000000 0 0 1
30.177039 7.067457 15.913594 34.840280 0.230054 1.096448 0.033790 -0.019052 -180693.000000 0 0 1
29.334299 8.227857 16.053794 34.437233 0.273459 1.085833 0.029181 -0.021572 453360.000000 0 0 1
27.946969 7.953457 15.942594 33.142976 0.277261 1.068973 0.043981 -0.019476 256304.000000 0 0 1
27.337539 7.408057 17.232094 33.153664 0.264629 1.024221 0.057982 -0.017776 -884789.000000 0 0 1
27.296099 8.436057 18.193894 33.871254 0.299745 1.003743 0.056498 -0.009762 -20086.300000 0 0 1
26.689839 8.102857 19.420194 33.987464 0.294750 0.962594 0.060214 -0.010565 -247800.000000 0 0 1
27.240629 6.928857 20.275794 34.657882 0.249076 0.945883 0.068079 -0.012354 -60378.100000 0 0 1
26.695119 6.841457 21.567694 34.994290 0.250882 0.906735 0.060603 -0.003947 -196517.000000 0 0 1
27.054419 5.630257 22.206094 35.450698 0.205180 0.893878 0.067553 -0.006803 -335383.000000 0 0 1
26.537259 5.605057 23.677994 36.004030 0.208155 0.853103 0.070070 -0.005178 539012.000000 0 0 1
25.147039 5.300557 23.682194 34.947329 0.207742 0.826229 0.059752 -0.011975 39224.100000 0 0 1
24.339639 6.449657 23.892294 34.711062 0.259032 0.811627 0.056717 -0.004520 863640.000000 0 0 1
22.818339 6.033857 23.969494 33.639570 0.258513 0.777687 0.041643 -0.009892 1063960.000000 0 0 1
22.206939 5.718157 22.706894 32.271481 0.252019 0.790316 0.034407 0.013842 -908607.000000 0 0 1
20.850839 5.513957 22.839694 31.413577 0.258530 0.756760 0.022630 0.004790 -2072310.000000 0 0 1
20.314739 5.084457 21.477194 29.996836 0.245246 0.772767 0.026839 0.007313 1645520.000000 0 0 1
18.871339 5.025857 21.217694 28.837081 0.260281 0.743981 0.022414 -0.000290 2594410.000000 0 0 1
18.102139 4.216757 22.178694 28.937224 0.228861 0.697514 0.022900 -0.003526 522801.000000 0 0 1
16.661739 3.825657 21.690094 27.617193 0.225695 0.667481 0.037297 -0.003442 -189576.000000 0 0 1
16.738339 2.977557 20.583394 26.696703 0.176047 0.690373 0.025472 -0.001824 -283076.000000 0 0 1
15.560239 2.683357 19.888294 25.394206 0.170770 0.671029 0.037996 -0.014253 27920.200000 0 0 1
14.466839 1.957857 20.745494 25.367265 0.134517 0.613209 0.048894 -0.014682 -489373.000000 0 0 1
14.820639 0.643357 21.094994 25.788835 0.043382 0.612889 0.019329 -0.005078 275582.000000 0 0 1
13.694439 0.033857 21.683494 25.645910 0.002472 0.563304 0.027775 -0.009745 101621.000000 0 0 1
13.971939 -1.460043 21.913394 26.029668 -0.104120 0.570072 0.005438 -0.008685 1320.620000 0 0 1
13.845239 -2.222943 20.734194 25.030759 -0.159198 0.594643 0.027190 -0.008853 230567.000000 0 0 1
14.162939 -3.608643 20.903194 25.505973 -0.249486 0.610187 0.021708 0.002671 -120754.000000 0 0 1
13.986939 -4.267843 19.528894 24.397267 -0.296157 0.642744 0.021387 -0.006585 552481.000000 0 1 0
12.647939 -4.144943 19.019994 23.214458 -0.316687 0.610578 0.035320 -0.009992 668074.000000 0 1 0
12.522439 -4.839843 17.823694 22.314113 -0.368809 0.645559 0.046783 -0.011775 -893373.000000 0 1 0
11.083039 -4.976743 17.410294 21.230169 -0.422056 0.609257 0.041709 -0.012608 -950674.000000 0 1 0
10.428439 -6.046543 18.080594 21.730644 -0.525444 0.588035 0.039311 -0.009848 -603927.000000 0 1 0
9.090839 -5.991143 17.656094 20.743066 -0.582698 0.552566 0.038913 -0.027838 -70341.200000 0 1 0
8.105739 -6.621043 18.693094 21.423655 -0.684922 0.510409 0.044970 -0.023296 -106828.000000 0 1 0
7.945939 -8.029543 18.654394 21.808208 -0.790631 0.544504 0.030382 -0.021277 -364121.000000 0 1 0
8.849939 -8.857643 19.321694 23.024055 -0.785833 0.574993 0.033204 -0.017656 -290370.000000 0 1 0
8.839039 -10.322643 18.846994 23.235635 -0.862670 0.624724 0.043978 -0.020355 162882.000000 0 1 0
9.449039 -10.453243 17.570094 22.522496 -0.835812 0.675950 0.045833 -0.013356 86346.100000 0 1 0
9.518439 -11.835243 17.143494 22.903559 -0.893472 0.724987 0.025189 -0.014475 126687.000000 0 1 0
10.193839 -11.911943 15.762694 22.232212 -0.862964 0.782714 0.041990 -0.014677 203351.000000 0 1 0
10.379839 -13.204043 15.257094 22.690675 -0.904582 0.833357 0.020933 -0.003739 -159393.000000 0 1 0
9.880039 -13.293343 13.935394 21.645400 -0.931641 0.871337 0.009621 0.003829 -381890.000000 0 1 0
10.609739 -14.439943 13.162994 22.233824 -0.937127 0.937226 0.021842 -0.002212 544838.000000 0 1 0
11.954939 -14.212043 12.793594 22.551691 -0.871443 0.967572 0.008749 -0.004101 -47096.200000 0 1 0
12.048039 -13.284343 11.729994 21.429460 -0.834163 0.991570 -0.017882 -0.002659 -17752.600000 0 1 0
13.501539 -13.152243 11.158194 21.903843 -0.772294 1.036289 0.000858 -0.009580 683012.000000 0 1 0
14.058539 -14.237443 10.421694 22.560120 -0.791721 1.090601 0.006653 -0.005592 -693237.000000 0 1 0
15.375539 -13.862743 10.205794 23.081184 -0.733704 1.112780 0.018600 -0.017067 -751258.000000 0 1 0
16.261239 -14.881743 9.430594 23.975618 -0.741132 1.166534 0.022901 -0.021238 111306.000000 0 1 0
16.680739 -16.007643 10.197494 25.268173 -0.764810 1.155380 0.025006 -0.011419 -221837.000000 0 0 1
15.839239 -17.101343 10.124794 25.413557 -0.823694 1.161023 0.047341 -0.016246 -408452.000000 0 0 1
15.928639 -17.999643 11.387194 26.596557 -0.846363 1.128357 0.026912 -0.007105 -179971.000000 0 0 1
17.229339 -18.496443 11.555294 27.793764 -0.820851 1.142028 0.054857 -0.013087 -145001.000000 0 0 1
17.317839 -19.068543 12.848694 28.785514 -0.833475 1.108103 0.027944 -0.011274 32183.800000 0 0 1
18.676739 -19.787843 13.022894 30.165793 -0.814277 1.124408 0.002409 -0.014585 -552786.000000 0 0 1
19.756739 -18.943043 13.137894 30.360696 -0.764375 1.123281 0.004928 -0.010830 -519850.000000 0 0 1
20.941139 -19.611243 12.690094 31.371494 -0.752615 1.154353 -0.003123 -0.015569 658693.000000 0 0 1
21.786039 -18.905343 11.575794 31.081224 -0.714722 1.189163 0.013307 -0.000889 -145696.000000 0 0 1
21.323439 -18.846143 10.203494 30.232060 -0.723805 1.226530 0.016613 -0.001247 -471960.000000 0 0 1
20.131139 -18.183843 9.910794 28.881460 -0.734618 1.220523 0.021124 0.000315 -321971.000000 0 0 1
20.176339 -16.638843 9.999094 27.998529 -0.689604 1.205604 0.052496 -0.025597 16931.200000 0 0 1
21.248939 -16.183043 9.192794 28.247402 -0.650879 1.239321 0.041066 -0.012533 205064.000000 0 0 1
21.347839 -14.787443 9.254494 27.568902 -0.605803 1.228463 0.058242 -0.026159 -6320.310000 0 0 1
-34.132425 25.398732 7.648394 43.227490 -0.639729 1.392926 0.016743 -0.002591 -403340.000000 0 0 1
-33.451834 24.595232 8.650994 42.412148 -0.633990 1.365380 0.027462 0.001364 667821.000000 0 0 1
-32.364924 25.346032 9.170994 42.119078 -0.664371 1.351298 0.029199 0.004321 -326170.000000 0 0 1
-31.291234 24.556632 9.930994 40.997489 -0.665389 1.326128 0.043373 -0.009462 -321561.000000 0 0 1
-30.453094 23.778432 9.119194 39.698419 -0.662937 1.339015 0.056405 -0.011611 -224566.000000 0 0 1
-29.687144 22.888232 9.855694 38.759933 -0.656794 1.313698 0.062160 -0.015712 71783.800000 0 0 1
-28.774604 21.993232 8.951794 37.307033 -0.652608 1.328483 0.062633 -0.024128 379259.000000 0 0 1
-29.584974 21.109332 8.142594 37.244817 -0.619739 1.350393 0.066566 -0.031573 831614.000000 0 0 1
-28.821034 20.204632 7.319494 35.950718 -0.611422 1.365765 0.050053 -0.029739 672676.000000 0 0 1
-29.720494 19.250932 6.385594 35.981689 -0.574780 1.392383 0.051506 -0.020767 384087.000000 0 0 1
-30.409084 18.152532 6.947294 36.090050 -0.538170 1.377088 0.049562 -0.022589 826735.000000 0 0 1
-31.431504 17.701232 6.040194 36.575360 -0.512897 1.404893 0.035048 -0.017537 323824.000000 0 0 1
-32.146624 16.436032 6.574894 36.698471 -0.472633 1.390664 0.049120 -0.016444 -244520.000000 0 0 1
-32.911304 16.715832 7.738894 37.715560 -0.469952 1.364137 0.052767 -0.021768 931658.000000 0 0 1
-33.826434 15.657532 8.141794 38.153306 -0.433512 1.355746 0.054468 -0.025492 525755.000000 0 0 1
-34.834767 16.090132 9.227094 39.465081 -0.432705 1.334808 0.047716 -0.026857 -636952.000000 0 0 1
35.092321 16.911932 8.740794 39.923501 0.449085 1.350070 0.039825 -0.022372 -625778.000000 0 0 1
34.409569 17.466632 9.852094 39.826692 0.469717 1.320827 0.041813 -0.013522 -40198.100000 0 0 1
33.536229 18.655232 9.393894 39.508753 0.507645 1.330730 0.019965 -0.010710 -919840.000000 0 0 1
32.268729 18.393932 8.910094 38.196824 0.518086 1.335359 -0.004560 -0.006717 -735539.000000 0 0 1
31.654539 19.643732 8.648194 38.244964 0.555404 1.342697 -0.011099 -0.003268 -174703.000000 0 0 1
30.148259 19.551232 8.354394 36.891247 0.575322 1.342355 -0.020943 0.000495 -533639.000000 0 0 1
29.550079 20.811732 8.203194 37.062484 0.613597 1.347614 -0.024970 -0.000399 86705.700000 0 0 1
28.266899 20.848532 7.609994 35.938710 0.635492 1.357432 -0.016857 -0.003338 -54064.600000 0 0 1
28.144909 20.430332 6.093494 35.308144 0.627897 1.397348 -0.028952 0.013403 -715791.000000 0 0 1
28.360749 19.056032 5.794594 34.656049 0.591628 1.402804 -0.032740 0.003937 85020.000000 0 0 1
28.328039 18.704632 4.388194 34.228603 0.583573 1.442240 -0.035723 0.002339 -660330.000000 0 0 1
26.977129 18.920432 3.719094 33.159914 0.611632 1.458404 -0.017262 0.015339 -1643410.000000 0 0 1
25.981439 18.029732 4.222694 31.905134 0.606652 1.438055 -0.017511 0.005202 1181510.000000 0 0 1
24.657739 18.429132 3.787394 31.015824 0.641833 1.448379 0.009086 0.003005 947220.000000 0 0 1
24.114339 19.679132 4.528994 31.452844 0.684467 1.426301 0.014707 0.006695 -1113150.000000 0 0 1
24.547539 20.863332 3.876094 32.448180 0.704445 1.451055 0.002282 0.004106 268975.000000 0 0 1
23.953939 21.968532 4.535194 32.817306 0.742191 1.432157 0.004565 0.015189 149271.000000 0 0 1
24.731339 23.294132 4.284194 34.243394 0.755481 1.445358 -0.010487 0.019583 474856.000000 0 0 1
25.967759 23.370932 4.986794 35.290127 0.732814 1.429013 -0.005844 0.013249 640692.000000 0 0 1
26.794979 24.509232 4.717194 36.618646 0.740875 1.441618 -0.001065 0.012857 400716.000000 0 0 1
28.127079 24.426832 5.576494 37.668289 0.715106 1.422208 -0.011916 0.013306 1026520.000000 0 0 1
29.080299 23.373732 5.239594 37.675569 0.677033 1.431273 -0.021049 0.011823 903110.000000 0 0 1
29.564079 23.374832 3.888394 37.888483 0.669014 1.467988 -0.012059 0.003715 -276887.000000 0 0 1
30.470479 24.610632 3.411594 39.316310 0.679411 1.483914 0.005511 -0.009263 -116445.000000 0 0 1
29.828159 25.843232 3.427194 39.614863 0.713941 1.484175 -0.012559 -0.003625 296589.000000 0 0 1
30.758699 26.781432 2.813594 40.881034 0.716386 1.501918 0.017903 -0.004455 -278714.000000 0 0 1
30.312309 28.258232 2.868894 41.540273 0.750342 1.501678 0.014403 -0.000996 705039.000000 0 0 1
29.134149 28.608832 2.139794 40.888172 0.776301 1.518440 0.018730 -0.007361 274016.000000 0 0 1
27.941959 27.992532 2.589994 39.636385 0.786302 1.505406 0.004840 0.006022 -1399280.000000 0 0 1
26.709279 28.579732 1.936294 39.165494 0.819216 1.521337 -0.011784 0.018718 -687454.000000 0 0 1
26.549869 29.887432 2.399594 40.048872 0.844467 1.510844 -0.019225 0.020677 641022.000000 0 0 1
25.242839 30.337632 2.007494 39.517121 0.876808 1.519974 -0.020723 0.019297 955625.000000 0 0 1
24.756539 31.750432 2.537494 40.341232 0.908542 1.507854 -0.010009 0.005246 59300.200000 0 0 1
24.509839 31.887432 3.905294 40.407819 0.915474 1.473998 -0.010829 0.003028 306149.000000 0 0 1
25.708639 31.918632 4.669694 41.249718 0.892745 1.457348 -0.011369 -0.000094 152537.000000 0 0 1
25.530439 32.170932 6.163194 41.530196 0.899978 1.421843 0.004684 -0.009679 -187786.000000 0 0 1
25.006139 31.111632 6.941694 40.514537 0.893770 1.398608 0.003681 -0.007439 -80069.400000 0 0 1
25.784739 29.916832 6.922494 40.097263 0.859445 1.397284 0.008650 -0.004637 -130864.000000 0 0 1
25.262739 28.606132 7.581894 38.910177 0.847384 1.374685 0.017677 0.000307 -55558.200000 0 0 1
24.092539 28.178132 6.911194 37.712361 0.863402 1.386494 0.006102 -0.009459 85719.400000 0 0 1
23.894739 26.785632 7.138694 36.597672 0.842378 1.374479 0.017884 0.000823 100698.000000 0 0 1
22.801539 26.205232 6.176194 35.281294 0.854740 1.394834 0.043208 0.009658 153267.000000 0 0 1
23.101439 26.148032 4.743194 35.212128 0.847180 1.435682 0.014600 0.002923 43642.500000 0 0 1
23.163539 27.334332 4.029794 36.054882 0.867805 1.458794 0.007102 0.005177 -75283.000000 0 0 1
23.119839 27.167732 2.505894 35.761601 0.865720 1.500667 0.006588 0.009532 -688886.000000 0 0 1
24.183039 26.426332 2.045794 35.879739 0.829695 1.513747 -0.010690 0.024224 -687504.000000 0 0 1
23.955939 26.049832 0.713994 35.397607 0.827247 1.550624 0.001679 0.020209 411417.000000 0 0 1
25.104539 25.317832 -0.100306 35.654461 0.789628 1.573610 0.010099 0.011890 -155041.000000 0 0 1
26.267049 26.135332 -0.207606 37.054778 0.782885 1.576399 0.008435 0.013611 243186.000000 0 0 1
27.261889 25.610932 -1.072606 37.420328 0.754183 1.599464 -0.001670 0.010356 514298.000000 0 0 1
28.158489 24.603632 -0.269206 37.394006 0.718125 1.577996 0.002811 0.007882 -824002.000000 0 0 1
27.556179 23.362232 -0.438306 36.129337 0.703218 1.582928 0.006553 0.000795 175505.000000 0 0 1
28.092779 22.355532 0.362894 35.904119 0.672159 1.560689 0.007276 -0.003820 404454.000000 0 0 1
26.923259 21.476332 0.937594 34.452486 0.673329 1.543579 0.004379 0.001000 649129.000000 0 0 1
26.580969 20.318032 0.180094 33.457477 0.652643 1.565414 0.021755 -0.012295 -6845.280000 0 0 1
25.296839 19.907932 0.558194 32.195767 0.666747 1.553458 0.018272 -0.002352 -668236.000000 0 0 1
24.832639 18.568832 -0.064606 31.007510 0.642065 1.572880 0.030055 -0.013964 -564417.000000 0 0 1
23.478539 18.336632 0.220494 29.791316 0.663045 1.563395 0.041615 -0.012235 -245599.000000 0 0 1
23.076539 17.185932 -0.405106 28.775806 0.640124 1.584875 0.049539 -0.030460 160993.000000 0 0 1
21.595339 16.847532 -0.091806 27.389896 0.662517 1.574148 0.051516 -0.019351 -727267.000000 0 0 1
21.040739 15.612032 -0.598206 26.206986 0.638355 1.593625 0.050064 -0.023858 -344656.000000 0 0 1
19.686539 15.538732 -0.319906 25.082152 0.668187 1.583551 0.060410 -0.018044 -279946.000000 0 0 1
18.638839 16.484432 -1.010006 24.903071 0.724136 1.611365 0.061756 -0.021549 -472013.000000 0 1 0
18.709539 17.768532 -0.540106 25.808125 0.759607 1.591726 0.051174 -0.013851 413026.000000 0 0 1
17.516539 18.497432 -0.862806 25.489774 0.812628 1.604652 0.036330 -0.017047 741075.000000 0 0 1
17.648339 19.998932 -0.491006 26.676998 0.847754 1.589203 0.042447 -0.012427 -106017.000000 0 0 1
17.229539 20.179732 0.812094 26.546904 0.864098 1.540201 0.051517 -0.014471 -85836.200000 0 0 1
17.370839 21.555732 1.257494 27.712397 0.892494 1.525404 0.066721 -0.013982 302789.000000 0 0 1
16.332839 22.612632 0.715494 27.903489 0.945268 1.545152 0.066980 -0.022521 862504.000000 0 0 1
15.047839 22.376232 1.297994 26.996630 0.978772 1.522698 0.059191 -0.025550 898834.000000 0 0 1
14.049239 23.342932 0.886294 27.259111 1.029008 1.538277 0.053505 -0.025837 136088.000000 0 0 1
12.636139 22.998232 1.326994 26.274543 1.068383 1.520270 0.045293 -0.032277 -493012.000000 0 0 1
12.425139 23.435732 2.638394 26.656683 1.083298 1.471657 0.045984 -0.017036 -193018.000000 0 0 1
11.086439 23.159832 2.979994 25.848933 1.124340 1.455254 0.035309 -0.021028 20348.500000 0 0 1
10.715039 23.426132 4.469694 26.145246 1.141808 1.398996 0.033464 -0.013177 -322517.000000 0 0 1
11.381339 22.578432 5.343094 25.843164 1.103890 1.362544 0.029064 -0.027388 -49574.500000 0 0 1
10.654839 22.433232 6.551694 25.684629 1.127382 1.312864 0.010311 -0.016304 -85029.300000 0 0 1
11.402139 21.437832 7.532494 25.422979 1.081979 1.269994 0.018119 -0.015766 14996.300000 0 0 1
12.550739 21.854532 8.206694 26.504555 1.049499 1.255989 0.018628 -0.003511 55636.500000 0 0 1
13.733239 21.849832 7.419994 26.852808 1.009664 1.290832 0.041287 -0.005316 465396.000000 0 0 1
15.083939 21.823632 8.215894 27.772235 0.966018 1.270471 0.031154 -0.000878 526285.000000 0 0 1
15.383639 20.651432 9.022294 27.286256 0.930555 1.233800 0.035856 -0.005682 630310.000000 0 0 1
16.720739 20.501132 9.511694 28.113197 0.886615 1.225649 0.043540 -0.009801 796409.000000 0 0 1
17.102239 21.375032 10.738794 29.405786 0.895992 1.196956 0.028358 -0.004245 -811141.000000 0 0 1
16.211339 21.116932 11.755194 29.101837 0.916067 1.154984 0.029156 -0.013226 -347746.000000 0 0 1
16.366739 22.023832 12.832994 30.291997 0.931702 1.133333 0.011114 0.001225 -273895.000000 0 0 1
17.349139 21.583532 13.924294 30.995604 0.893734 1.104888 0.018964 0.008777 241010.000000 0 0 1
18.692339 21.678132 13.499494 31.647769 0.859224 1.130117 0.027758 0.004112 188424.000000 0 0 1
19.660839 21.419732 14.535394 32.505864 0.828188 1.107206 0.022303 0.001797 884501.000000 0 0 1
21.071039 21.984932 14.210194 33.604398 0.806621 1.134189 0.032383 -0.001734 172608.000000 0 0 1
21.718239 21.231232 13.204694 33.118138 0.774060 1.160681 0.038379 0.005939 182928.000000 0 0 1
23.011639 21.799632 13.005894 34.262410 0.758358 1.181436 0.032878 0.008055 715037.000000 0 0 1
23.828039 21.165832 11.806494 33.987662 0.726299 1.216025 0.028735 0.019637 351237.000000 0 0 1
23.476239 21.699432 10.550794 33.664795 0.746087 1.252017 0.031597 0.014221 143787.000000 0 0 1
24.492539 21.410232 9.634994 33.928095 0.718350 1.282851 0.035944 0.008021 -451024.000000 0 0 1
24.332439 22.211132 8.320194 33.979812 0.739853 1.323424 0.016440 0.009825 5873.730000 0 0 1
24.586739 23.562832 8.584294 35.119865 0.764136 1.323866 0.016557 0.016156 195302.000000 0 0 1
25.954939 23.887732 8.462994 36.275403 0.743947 1.335328 0.005837 0.014909 -505569.000000 0 0 1
26.380519 25.038332 9.421094 37.571357 0.759301 1.317339 0.013599 0.012307 611409.000000 0 0 1
27.659189 25.579732 9.025594 38.740351 0.746359 1.335659 0.003695 0.017143 1060480.000000 0 0 1
28.126619 26.521332 10.011194 39.933842 0.756032 1.317399 0.001969 0.015676 2977.300000 0 0 1
29.375969 27.270832 9.539794 41.202591 0.748253 1.337142 0.009369 0.010577 -276973.000000 0 0 1
29.127209 28.100832 8.458394 41.347255 0.767465 1.364772 0.013085 0.003582 1151290.000000 0 0 1
30.320739 28.426332 7.687094 42.266949 0.753163 1.387908 0.012190 0.003053 791992.000000 0 0 1
29.978959 29.415832 6.555894 42.508927 0.775917 1.415954 0.027783 0.000871 114289.000000 0 0 1
29.760729 30.769532 6.908094 43.361121 0.802063 1.410799 0.034185 -0.001593 88955.500000 0 0 1
29.768519 31.620232 5.780394 43.811149 0.815553 1.438472 0.033303 -0.001944 31502.400000 0 0 1
29.826619 33.145832 6.056594 44.999508 0.838058 1.435794 0.016667 -0.001817 1288920.000000 0 0 1
28.545459 33.609832 6.573094 44.583288 0.866698 1.422823 0.017070 -0.004057 1066110.000000 0 0 1
28.510259 -34.037193 6.792594 44.916642 -0.873533 1.418987 0.014915 -0.005429 -946689.000000 0 0 1
27.190779 -33.516793 7.296694 43.771630 -0.889228 1.403315 0.032293 -0.014384 -742638.000000 0 0 1
26.168879 -33.798093 6.386294 43.219279 -0.911942 1.422488 0.022788 -0.013339 -700043.000000 0 0 1
24.947839 -33.162193 6.649594 42.027882 -0.925826 1.411910 0.010911 -0.015672 160331.000000 0 0 1
23.878239 -33.394593 5.558594 41.427854 -0.950052 1.436215 0.008165 -0.002388 -33009.800000 0 0 1
24.219439 -32.714693 4.355694 40.936591 -0.933517 1.464194 -0.005279 0.012851 -866956.000000 0 0 1
23.150339 -32.697793 3.469594 40.213455 -0.954715 1.484409 -0.004525 0.006477 -668401.000000 0 0 1
23.448039 -32.110293 2.070694 39.814184 -0.940066 1.518764 0.000964 0.012048 -269415.000000 0 0 1
23.762639 -30.726193 2.100394 38.899532 -0.912507 1.516775 0.017184 0.011211 53877.400000 0 0 1
24.310939 -30.336093 0.845194 38.884633 -0.895210 1.549059 0.011897 0.001160 -8085.450000 0 0 1
24.637839 -28.776293 0.926794 37.894025 -0.862722 1.546336 0.022507 -0.003399 -85177.500000 0 0 1
23.487339 -27.971893 0.823094 36.534359 -0.872326 1.548265 0.024707 0.005472 -165824.000000 0 0 1
23.176039 -27.663693 -0.529106 36.092778 -0.873441 1.585456 0.039586 -0.009424 -424866.000000 0 0 1
22.040939 -26.628893 -0.525806 34.571338 -0.879387 1.586006 0.037576 -0.004059 -246131.000000 0 0 1
22.351339 -25.276293 -0.247006 33.742175 -0.846734 1.578117 0.033018 -0.005282 -347171.000000 0 0 1
22.542639 -24.929293 1.093094 33.627891 -0.835631 1.538285 0.024756 0.001192 61534.400000 0 0 1
21.283939 -24.572393 1.939194 32.566379 -0.856988 1.511215 0.024253 0.000301 200737.000000 0 0 1
21.463139 -24.018693 3.215794 32.371365 -0.841528 1.471292 0.014659 -0.000112 724157.000000 0 0 1
20.170639 -23.691593 3.796394 31.345795 -0.865499 1.449385 0.014517 0.008141 1162570.000000 0 0 1
20.271239 -22.853493 5.098294 30.970920 -0.845205 1.405428 0.004396 0.008025 2739.240000 0 0 1
20.591939 -21.483893 5.024494 30.179979 -0.806594 1.403533 0.024093 0.008740 192622.000000 0 0 1
19.515639 -20.713293 4.515494 28.814759 -0.815160 1.413440 0.016029 -0.000276 -306120.000000 0 0 1
19.504839 -19.259393 5.039794 27.870459 -0.779066 1.388967 0.020549 -0.002109 179539.000000 0 0 1
18.916639 -19.056693 6.332194 27.587922 -0.789086 1.339204 0.039448 -0.006901 1008990.000000 0 0 1
17.475539 -19.057493 6.336594 26.622076 -0.828673 1.330469 0.014844 -0.006719 847234.000000 0 0 1
18.201246 -26.348108 -12.293606 34.302200 -0.966272 1.937340 0.040138 -0.003815 39541.000000 0 0 1
18.281146 -24.970168 -12.420706 33.346417 -0.938837 1.952471 0.055986 -0.014401 -642015.000000 0 0 1
17.095646 -24.470468 -12.954506 32.540500 -0.960995 1.980245 0.034609 -0.013923 -419484.000000 0 0 1
17.101546 -22.944568 -13.221906 31.523561 -0.930283 2.003613 0.032147 -0.022924 83456.600000 0 0 1
17.224546 -21.985068 -12.187306 30.472260 -0.906219 1.982256 0.034116 -0.022642 497885.000000 0 0 1
18.479046 -21.917868 -11.471406 30.878168 -0.870319 1.951426 0.046539 -0.027155 274383.000000 0 0 1
18.456346 -22.718068 -10.111806 30.967660 -0.888535 1.903424 0.050108 -0.019276 90794.800000 0 0 1
17.721746 -22.224568 -8.983206 29.810899 -0.897646 1.876894 0.043330 -0.013921 1448720.000000 0 0 1
16.293146 -22.264668 -9.256606 29.100976 -0.939049 1.894506 0.042477 0.002661 1037780.000000 0 0 1
15.368746 -21.576568 -8.222106 27.737153 -0.951870 1.871748 0.030922 -0.007382 -667423.000000 0 0 1
15.209546 -20.226468 -8.493106 26.694066 -0.926040 1.894589 0.019100 -0.017277 277643.000000 0 0 1
14.256646 -19.602068 -7.646306 25.415724 -0.941980 1.876380 0.010564 -0.022826 1913430.000000 0 0 1
12.700546 -19.852368 -7.919106 24.862273 -1.001661 1.894963 0.004725 -0.007083 1216830.000000 0 1 0
12.289746 -21.197368 -7.865306 25.733816 -1.045379 1.881408 0.006300 -0.003814 -1338710.000000 0 0 1
10.985046 -21.253468 -8.328606 25.332722 -1.093753 1.905796 -0.003007 0.002336 -820357.000000 0 0 1
10.382246 -22.664168 -8.085706 26.207522 -1.141235 1.884440 -0.005415 0.005919 -147036.000000 0 0 1
10.379346 -22.902168 -6.683606 26.017508 -1.145281 1.830598 0.002773 -0.000688 97525.100000 0 0 1
9.923946 -24.203568 -6.498606 26.954207 -1.181682 1.814293 -0.002741 0.002421 104230.000000 0 0 1
10.306546 -24.542368 -5.035406 27.090737 -1.173212 1.757755 0.010294 -0.008078 361880.000000 0 0 1
9.588646 -25.628848 -4.439306 27.721606 -1.212784 1.731628 0.023473 -0.007667 -114168.000000 0 0 1
10.234246 -25.897738 -3.236306 28.034021 -1.194453 1.686496 0.016914 -0.011515 -393545.000000 0 0 1
9.488646 -26.875698 -2.346006 28.597925 -1.231401 1.652923 0.040962 -0.010909 -633839.000000 0 0 1
8.510446 -26.301468 -1.575306 27.688924 -1.257856 1.627720 0.031910 -0.005615 -1001150.000000 0 0 1
8.018246 -27.172838 -0.577306 28.337055 -1.283856 1.591171 0.045955 -0.009877 161027.000000 0 0 1
7.154446 -26.476918 0.471694 27.430563 -1.306885 1.553600 0.043282 -0.011053 1831170.000000 0 0 1
5.784246 -26.077838 0.136794 26.711980 -1.352523 1.565675 0.042479 -0.014764 2131970.000000 0 0 1
4.941646 -25.928098 1.318894 26.427743 -1.382465 1.520870 0.056964 -0.005149 394188.000000 0 0 1
3.527646 -25.378278 1.170694 25.649012 -1.432679 1.525138 0.032316 -0.011101 -150535.000000 0 0 1
2.616546 -26.211818 0.487594 26.346602 -1.471303 1.552288 0.021775 -0.014052 59475.300000 0 0 1
1.309846 -25.718318 0.714294 25.761556 -1.519910 1.543066 0.010550 -0.007040 -320878.000000 0 0 1
0.103146 -26.439288 0.166894 26.440016 -1.566895 1.564484 0.009965 -0.007461 -67263.500000 0 0 1
-0.340054 -27.606428 0.902794 27.623279 1.558479 1.538108 0.011315 0.000207 383827.000000 0 0 1
0.542946 -28.732218 0.661494 28.744960 -1.551902 1.547782 0.008061 -0.011046 377539.000000 0 0 1
0.257546 -29.982898 1.515594 30.022284 -1.562207 1.520293 0.008277 -0.003927 34380.600000 0 0 1
0.613546 -29.827228 2.865694 29.970855 -1.550229 1.475034 -0.000748 -0.000390 -47307.300000 0 0 1
0.150346 -30.911588 3.616594 31.122799 -1.565933 1.454329 -0.000793 0.000034 -252908.000000 0 0 1
0.402046 -30.864838 5.141394 31.292712 -1.557771 1.405748 -0.006372 0.005406 81805.700000 0 0 1
1.706046 -31.171398 5.608694 31.717883 -1.516120 1.393031 -0.013290 0.009942 40654.800000 0 0 1
1.687946 -31.232258 7.012894 32.054388 -1.516804 1.350231 -0.006211 0.006572 409423.000000 0 0 1
3.018246 -31.799608 7.585794 32.830918 -1.476165 1.337633 -0.006418 0.009172 501443.000000 0 0 1
3.320846 -33.124108 7.266994 34.074092 -1.470876 1.355875 -0.011105 0.001839 -278466.000000 0 0 1
4.648546 -33.450848 7.603794 34.617711 -1.432714 1.349340 -0.016271 0.001556 -2939.680000 0 0 1
4.859546 34.091502 7.336994 35.209050 1.429206 1.360874 -0.008968 0.001231 -550860.000000 0 0 1
4.662646 33.616632 6.026094 34.469291 1.432975 1.395068 -0.006318 -0.002530 53208.800000 0 0 1
4.765446 32.210747 5.999194 33.109395 1.423916 1.388597 -0.009037 -0.005693 -902747.000000 0 0 1
4.828546 31.830967 4.473994 32.504491 1.420251 1.432716 0.000091 -0.002176 -532207.000000 0 0 1
6.110646 31.842937 3.924694 32.660617 1.381202 1.450339 0.017308 0.003056 -569182.000000 0 0 1
7.025646 30.876327 4.363594 31.964797 1.347064 1.433856 0.009712 -0.001399 -221476.000000 0 0 1
8.401346 30.970677 3.658994 32.297890 1.305903 1.457264 0.009679 0.001379 873309.000000 0 0 1
9.492046 31.508617 4.443094 33.205918 1.278191 1.436590 0.007932 0.001421 849427.000000 0 0 1
10.705846 31.579517 3.689494 33.548374 1.243943 1.460598 0.026487 -0.005587 544407.000000 0 0 1
11.910246 32.011957 4.551894 34.457788 1.214609 1.438308 0.034084 -0.009542 -206987.000000 0 0 1
12.368246 30.979137 5.350794 33.783302 1.190942 1.411741 0.042399 -0.008933 -89287.100000 0 0 1
13.443946 31.482037 6.131694 34.777235 1.167203 1.393556 0.046336 -0.010041 159632.000000 0 0 1
14.263446 30.427707 6.859794 34.297931 1.132447 1.369432 0.052764 -0.016653 -508406.000000 0 0 1
13.595346 30.052417 8.078994 33.959555 1.145958 1.330593 0.033949 -0.001851 309368.000000 0 0 1
14.341846 29.144547 8.843794 33.664609 1.113494 1.304974 0.037790 -0.002410 -10956.100000 0 0 1
14.027246 29.260527 10.328094 34.053071 1.123771 1.262649 0.014936 0.011569 262612.000000 0 0 1
14.706146 30.314357 10.994694 35.441703 1.119122 1.255373 0.016985 0.012970 187905.000000 0 0 1
14.071846 30.492657 12.245694 35.745993 1.138434 1.221140 0.011492 0.012700 -268682.000000 0 0 1
14.717246 31.477097 13.152994 37.153819 1.133441 1.208936 0.008598 0.011060 413845.000000 0 0 1
15.908246 31.006557 13.822094 37.490388 1.096755 1.193204 -0.000602 0.017423 707337.000000 0 0 1
16.368246 32.028887 14.670794 38.845866 1.098351 1.183521 0.002695 0.013695 -647923.000000 0 0 1
17.358946 31.497387 15.688094 39.236905 1.067091 1.159465 -0.003213 0.010945 298019.000000 0 0 1
18.675246 31.240887 15.178294 39.435244 1.032009 1.175706 0.005920 0.011397 768901.000000 0 0 1
18.964646 29.859337 15.158794 38.484112 1.004944 1.165928 -0.001063 0.008736 397685.000000 0 0 1
20.409846 29.391757 14.779794 38.715366 0.963834 1.179102 0.008719 -0.002407 786536.000000 0 0 1
21.371246 29.630197 15.793294 39.800840 0.945940 1.162760 0.004904 -0.001642 1022770.000000 0 0 1
22.725346 29.365277 15.360094 40.183247 0.912183 1.178565 0.014128 -0.010895 982440.000000 0 0 1
23.671046 29.308907 16.570394 41.157119 0.891414 1.156427 0.029083 -0.023842 -315843.000000 0 0 1
23.681046 28.191297 17.315494 40.686208 0.872129 1.131187 0.015873 -0.016479 -64494.400000 0 0 1
24.811746 28.371987 18.166794 41.840469 0.852241 1.121655 0.018608 -0.011652 358075.000000 0 0 1
25.829046 27.150387 18.173794 41.648169 0.810334 1.119242 0.010884 -0.001395 143942.000000 0 0 1
25.481946 25.849797 18.655294 40.811293 0.792564 1.096052 0.018087 0.006311 -294370.000000 0 0 1
25.184646 25.724837 20.046794 41.205675 0.796009 1.062711 0.026331 0.007505 -241664.000000 0 0 1
24.596846 24.370587 20.357694 40.166729 0.780778 1.039293 0.031864 0.007108 -487429.000000 0 0 1
25.496646 23.316257 20.220894 40.032629 0.740760 1.041287 0.029691 0.002273 -540179.000000 0 0 1
24.920546 22.089157 20.492794 39.101395 0.725241 1.019146 0.029552 -0.000295 -139328.000000 0 0 1
25.926146 20.914157 20.570294 39.149764 0.678802 1.017581 0.014782 -0.001280 -11969.200000 0 0 1
25.311246 19.669857 20.872994 38.252377 0.660633 0.993614 0.010212 0.006235 -199292.000000 0 0 1
26.178546 18.568257 20.973894 38.340588 0.616936 0.991970 0.017876 0.000870 -162716.000000 0 0 1
26.686446 18.311857 22.396394 39.358468 0.601394 0.965463 0.034715 -0.000404 277307.000000 0 0 1
25.643846 17.786357 23.196994 38.885240 0.606412 0.931601 0.017701 0.005546 514599.000000 0 0 1
26.234246 17.405857 24.406294 39.835496 0.585792 0.911353 0.040294 -0.001683 -447841.000000 0 0 1
25.241346 16.800757 25.394494 39.550870 0.587267 0.873599 0.027165 0.004264 -245072.000000 0 0 1
25.008146 15.541957 24.831394 38.516983 0.556061 0.870183 0.023573 0.005309 692397.000000 0 0 1
23.924346 14.916157 25.539494 38.041186 0.557500 0.834748 0.019411 0.004335 538188.000000 0 0 1
23.205346 13.756357 24.799594 36.643490 0.535116 0.827416 0.014284 -0.003745 -182459.000000 0 0 1
22.002746 13.326757 25.381694 36.137981 0.544590 0.792096 0.017848 -0.002563 -162109.000000 0 0 1
21.507946 12.301757 24.569194 34.893700 0.519549 0.789620 0.023229 -0.000635 -244782.000000 0 0 1
20.159346 11.718657 25.018894 34.200457 0.526557 0.750223 0.026168 -0.002072 185479.000000 0 0 1
19.080846 12.646857 25.035394 33.923335 0.585324 0.740696 0.027968 -0.001783 661345.000000 0 0 1
17.848246 12.016357 25.396594 33.285729 0.592547 0.702874 0.022676 0.001124 1260310.000000 0 0 1
16.577846 12.943057 25.480394 33.039343 0.662889 0.690051 0.025369 -0.006250 489439.000000 0 0 1
16.535446 13.708357 26.632494 34.214467 0.692192 0.678685 0.027519 -0.001290 205376.000000 0 0 1
15.399146 14.558057 26.729494 34.110652 0.757329 0.670339 0.034212 -0.001555 -56613.000000 0 0 1
15.145746 14.895157 28.212494 35.315778 0.777057 0.645393 0.025276 0.003717 -50701.100000 0 0 1
14.662346 13.755357 28.947894 35.244501 0.753493 0.607031 0.022664 0.009768 127293.000000 0 0 1
14.892546 13.850657 30.381194 36.560164 0.749166 0.589908 0.016222 0.015824 -513894.000000 0 0 1
16.305046 13.525357 30.858294 37.430257 0.692483 0.601618 0.026086 0.011737 -536915.000000 0 0 1
17.220346 14.561457 30.583694 37.999194 0.701932 0.635372 0.037628 0.003782 582093.000000 0 0 1
18.551846 14.033757 30.466194 38.331532 0.647624 0.652106 0.040139 0.009062 178501.000000 0 0 1
19.526546 15.123757 30.022194 38.876036 0.659012 0.688414 0.039381 0.007201 -655361.000000 0 0 1
19.295346 15.729157 28.783094 38.055003 0.683928 0.713073 0.031160 0.008572 48863.700000 0 0 1
19.425746 14.835157 27.618294 36.881048 0.652202 0.724474 0.040217 0.001159 -531846.000000 0 0 1
19.313046 15.508557 26.235694 36.080753 0.676573 0.756652 0.019659 -0.001967 -1102330.000000 0 0 1
20.297546 16.408257 25.964994 36.815788 0.679834 0.787995 0.016870 0.013635 -768407.000000 0 0 1
20.218846 16.903157 24.662694 36.093863 0.696316 0.818533 0.006682 0.003999 389168.000000 0 0 1
21.499146 17.699657 24.176294 36.877966 0.688771 0.855852 0.013225 0.011630 622401.000000 0 0 1
21.337746 18.138857 22.814894 36.122527 0.704542 0.887184 0.015814 0.004162 867215.000000 0 0 1
22.482346 18.937557 22.393194 36.953242 0.700024 0.919790 0.022255 0.002196 858636.000000 0 0 1
22.747646 20.317557 23.106794 38.264637 0.729030 0.922451 0.034608 -0.001297 28132.400000 0 0 1
21.819846 21.338657 22.744194 38.062348 0.774249 0.930353 0.025160 0.001352 445782.000000 0 0 1
22.187246 22.548857 23.421194 39.360859 0.793481 0.933484 0.034146 0.004059 388881.000000 0 0 1
21.196746 23.706257 23.066594 39.285576 0.841227 0.943261 0.019214 -0.001769 297811.000000 0 0 1
21.522646 24.284037 21.799694 39.091757 0.845609 0.979239 0.027384 0.001651 422516.000000 0 0 1
20.867346 25.555587 21.704494 39.492015 0.886047 0.988921 0.028898 0.001436 -227593.000000 0 0 1
21.211946 26.382417 20.445694 39.547503 0.893610 1.027465 0.030037 -0.003417 -182906.000000 0 0 1
20.934746 25.762017 19.224494 38.360479 0.888407 1.045865 0.019357 -0.003540 83354.700000 0 0 1
21.359246 26.570437 18.170094 38.631048 0.893699 1.081110 0.020462 -0.015396 -589347.000000 0 0 1
21.216946 26.003177 16.734594 37.501609 0.886413 1.108241 0.010685 0.002497 747580.000000 0 0 1
19.858046 25.866777 16.262194 36.440241 0.916060 1.108203 0.015664 0.007086 954442.000000 0 0 1
19.970446 25.600597 14.910394 35.728548 0.908322 1.140297 0.022174 0.008626 -898879.000000 0 0 1
18.628446 25.309227 14.287094 34.520965 0.936294 1.144098 0.009551 0.012363 -774133.000000 0 0 1
17.901946 26.477717 13.927094 34.864210 0.976282 1.159861 -0.004233 0.018164 895227.000000 0 0 1
16.762146 26.782357 14.777794 34.880473 1.011575 1.133304 0.001949 0.021709 1253220.000000 0 0 1
15.397446 26.087087 14.472394 33.571828 1.037590 1.125099 -0.003481 0.008658 -190492.000000 0 0 1
15.257846 24.660907 14.784894 32.550811 1.016736 1.099311 -0.010726 0.019260 -123326.000000 0 0 1
15.098846 24.264147 16.176594 32.839096 1.014163 1.055720 -0.011682 0.026479 -65408.000000 0 0 1
13.949846 24.944917 16.966994 33.237419 1.060897 1.035055 0.019474 0.014477 -57403.600000 0 0 1
14.222046 26.273187 17.250894 34.498410 1.074646 1.047141 0.011289 0.012514 427606.000000 0 0 1
13.348046 26.724157 18.305494 35.034869 1.107569 1.021023 0.007847 0.004665 264658.000000 0 0 1
13.933246 27.994917 18.898194 36.537549 1.108985 1.027189 0.021162 -0.002258 -429008.000000 0 0 1
13.922446 29.112257 17.986994 36.944418 1.124713 1.062298 0.015500 -0.006895 -45993.100000 0 0 1
14.391146 30.207787 18.677394 38.320498 1.126202 1.061687 0.011281 -0.006613 -532462.000000 0 0 1
14.192046 31.561887 17.959694 38.988685 1.148227 1.092082 0.002431 -0.011979 -354792.000000 0 0 1
12.855046 31.949557 17.788694 38.761631 1.188262 1.094011 0.002683 -0.008646 -271200.000000 0 0 1
12.815646 33.150173 17.083494 39.433749 1.201900 1.122734 -0.004500 -0.001769 -120755.000000 0 0 1
11.476046 33.876926 17.284294 39.725214 1.244172 1.120651 0.006507 -0.012566 -484065.000000 0 0 1
11.407946 -33.872828 16.707994 39.454617 -1.245940 1.133520 -0.001505 -0.005733 6538.400000 0 0 1
12.322546 -32.823258 17.023594 38.974532 -1.211656 1.118772 0.000073 -0.009381 -382219.000000 0 0 1
12.233646 -32.421468 18.586194 39.322516 -1.209983 1.078489 0.008539 -0.019215 -519680.000000 0 0 1
12.959046 -33.281108 19.418994 40.652999 -1.199477 1.072788 0.023266 -0.017109 -137110.000000 0 0 1
12.656646 -33.191498 20.796194 41.162458 -1.206495 1.041157 0.023522 -0.016512 -151541.000000 0 0 1
13.808646 -33.641078 21.751394 42.373624 -1.181297 1.031743 0.032341 -0.019192 628611.000000 0 0 1
14.932846 -32.774588 21.532794 41.962182 -1.143276 1.031948 0.039287 -0.012324 553295.000000 0 0 1
16.050346 -33.133908 22.335494 43.062092 -1.119700 1.025489 0.049089 -0.009241 339824.000000 0 0 1
17.337946 -32.315088 22.207294 42.872289 -1.078355 1.026300 0.054112 -0.013975 38488.000000 0 0 1
17.301446 -31.118508 22.884094 42.324737 -1.063369 0.999552 0.064731 -0.013599 654147.000000 0 0 1
18.399046 -30.321218 22.407594 41.952371 -1.025389 1.007330 0.062176 -0.007655 87617.000000 0 0 1
-4.585854 13.202732 18.251218 22.988022 -1.236492 0.653526 0.003935 0.005022 -298630.000000 0 1 0
-4.305654 14.540732 17.976518 23.518647 -1.282912 0.700761 -0.000382 0.005686 131729.000000 0 1 0
-5.471854 15.241732 17.568818 23.893827 -1.226122 0.744706 0.001644 0.002034 119893.000000 0 1 0
-5.218054 16.697732 17.401418 24.674920 -1.267911 0.788053 0.010996 -0.001539 -170993.000000 0 1 0
-4.943954 17.289432 18.615818 25.882732 -1.292277 0.768093 0.013289 0.003402 104760.000000 0 0 1
-4.718354 18.689732 18.429318 26.668497 -1.323507 0.807853 0.023458 0.002643 -416447.000000 0 0 1
-4.010154 19.332532 19.680318 27.877286 -1.366267 0.787015 0.013573 0.001924 -221799.000000 0 0 1
-4.764754 19.409432 20.855818 28.885880 -1.330070 0.764097 0.003871 0.002599 -67095.600000 0 0 1
-4.037354 20.106532 21.826918 29.949745 -1.372633 0.754251 -0.003270 0.001094 -126789.000000 0 0 1
-5.013454 20.380332 22.962618 31.109074 -1.329591 0.740498 -0.003916 0.003599 -68298.200000 0 0 1
-5.432654 19.261832 23.640018 30.973898 -1.295895 0.702508 0.000463 -0.002811 -369852.000000 0 0 1
-6.260554 19.476432 24.755448 32.114765 -1.259785 0.690633 -0.003595 -0.002210 -63651.400000 0 0 1
-5.682754 20.223332 26.014348 33.436853 -1.296861 0.679298 -0.010011 -0.006007 -1038650.000000 0 0 1
-5.366954 21.564932 25.731168 33.999169 -1.326878 0.712366 -0.006121 -0.007472 173574.000000 0 0 1
-4.249454 22.060932 26.448298 34.702378 -1.380504 0.704174 -0.006503 0.008621 234412.000000 0 0 1
-2.853254 21.487632 26.181478 33.990134 -1.438783 0.691537 0.008692 0.013287 -1007230.000000 0 0 1
-2.415554 20.325732 26.814528 33.734096 -1.452509 0.651988 0.007790 0.015408 253791.000000 0 0 1
-1.147454 19.926532 26.306928 33.021778 -1.513276 0.649057 0.015432 0.021106 576022.000000 0 0 1
-0.437954 18.736432 27.022188 32.885321 -1.547426 0.606392 0.006513 0.021707 -114739.000000 0 0 1
-0.985154 17.405732 26.769478 31.945814 -1.514257 0.577253 0.001423 0.017138 238045.000000 0 0 1
-0.170154 16.216632 27.009178 31.504029 -1.560304 0.540747 -0.003133 0.016435 935403.000000 0 0 1
1.232146 16.104832 26.289458 30.854812 1.494437 0.550931 -0.003986 0.018489 469831.000000 0 0 1
1.359646 15.946132 24.848018 29.555909 1.485737 0.572199 -0.004285 0.015497 -470317.000000 0 0 1
0.878446 14.739032 24.374348 28.497712 1.511267 0.544649 -0.003744 0.011350 -257118.000000 0 0 1
1.130046 14.547132 22.907618 27.159805 1.493270 0.567145 -0.001255 0.002639 -255658.000000 0 0 1
2.457046 14.359032 22.503718 26.807391 1.401323 0.574509 0.000830 -0.000348 -359559.000000 0 0 1
2.380746 13.953632 21.162818 25.460492 1.401805 0.589530 -0.000562 -0.003798 -563605.000000 0 0 1
3.815846 13.776632 20.721918 25.174475 1.300591 0.603891 -0.005426 -0.006690 -539130.000000 0 0 1
4.397446 14.851632 20.059718 25.343654 1.282929 0.657523 0.000103 -0.002557 95248.900000 0 0 1
5.813646 14.732432 20.009218 25.518853 1.194940 0.669559 0.012941 0.004122 37808.000000 0 0 1
6.476746 15.790332 19.135318 25.640656 1.181552 0.728328 0.029165 -0.007037 -596530.000000 0 0 1
6.141246 15.712732 17.766118 24.499792 1.198207 0.759539 0.020810 -0.009788 296795.000000 0 1 0
6.861646 16.611832 16.910318 24.677804 1.179084 0.815858 0.022917 -0.004354 53355.000000 0 1 0
6.755446 16.143832 15.429618 23.330934 1.174483 0.848196 0.021948 -0.004155 -126368.000000 0 1 0
7.723846 15.262932 14.935418 22.708624 1.102318 0.853038 0.016868 -0.006460 -163569.000000 0 1 0
7.832446 13.963532 15.554818 22.322182 1.059607 0.799825 0.022576 -0.009578 -618502.000000 0 1 0
8.809146 13.118832 14.766018 21.627300 0.979463 0.819278 0.021481 -0.015188 543837.000000 0 1 0
10.139246 13.678032 14.900018 22.625283 0.932900 0.851898 0.022521 -0.021168 297203.000000 0 1 0
10.972646 13.017332 14.006718 22.046271 0.870424 0.882357 0.020821 -0.016718 -712049.000000 0 1 0
12.431346 13.454032 14.070718 23.098365 0.824886 0.915789 0.023447 -0.013030 -980836.000000 0 1 0
13.120246 13.077832 15.270918 24.007738 0.783779 0.881385 0.012883 -0.016021 225758.000000 0 1 0
14.359746 13.730932 15.468718 25.179795 0.763017 0.909259 0.021916 -0.015946 875334.000000 0 0 1
15.535846 13.237232 14.551618 25.066640 0.705680 0.951432 0.031077 -0.017801 -217991.000000 0 0 1
16.832046 13.730432 14.860118 26.318542 0.684260 0.970817 0.026125 -0.020042 627812.000000 0 0 1
17.726646 13.347332 13.797318 26.129509 0.645388 1.014510 0.022653 -0.015118 -37418.400000 0 0 1
19.161346 13.786932 14.113218 27.503084 0.623705 1.031945 0.018009 -0.012354 -345388.000000 0 0 1
19.756146 13.307732 15.281418 28.300579 0.592787 1.000397 0.009251 -0.016180 -415905.000000 0 0 1
21.127946 13.613732 15.226818 29.386728 0.572391 1.026106 0.014431 -0.003363 -236325.000000 0 0 1
21.867246 13.252932 16.531318 30.448336 0.544866 0.996874 0.018855 -0.007136 -35729.200000 0 0 1
22.061646 11.852032 16.659218 30.078505 0.492981 0.983806 0.034180 -0.006977 -374471.000000 0 0 1
22.963646 11.598832 17.651218 31.199799 0.467716 0.969456 0.030457 -0.003570 -738790.000000 0 0 1
23.044946 10.053032 17.721118 30.759893 0.411349 0.956833 0.038462 -0.007354 292684.000000 0 0 1
21.852646 9.458832 18.231518 29.989930 0.408498 0.917356 0.027056 -0.011905 551256.000000 0 0 1
21.673146 8.211632 17.627118 29.118233 0.362172 0.920574 0.036462 0.001624 344023.000000 0 0 1
20.376546 7.461432 18.082118 28.246055 0.351013 0.876084 0.030548 -0.001547 165272.000000 0 0 1
20.191246 6.230532 17.416818 27.383417 0.299306 0.881447 0.042242 -0.013008 771786.000000 0 0 1
18.996646 5.654032 17.970918 26.754337 0.289284 0.834294 0.039499 -0.009123 177163.000000 0 0 1
18.888146 4.182132 17.679018 26.206869 0.217900 0.830381 0.027428 -0.000397 -309865.000000 0 0 1
18.786846 3.936532 16.276418 25.166718 0.206548 0.867489 0.034523 -0.011174 154080.000000 0 0 1
19.142146 2.629432 15.901418 25.023804 0.136509 0.882203 0.038506 -0.021271 -446761.000000 0 0 1
18.263646 1.416832 16.260518 24.494339 0.077422 0.844844 0.041592 -0.019960 -464252.000000 0 1 0
18.279846 1.073732 17.650818 25.433385 0.058671 0.803764 0.032903 -0.016694 208224.000000 0 0 1
17.266446 0.106432 17.916118 24.882299 0.006164 0.766944 0.030823 -0.017893 -256067.000000 0 1 0
17.245546 -0.718268 19.196218 25.815104 -0.041625 0.732352 0.018240 -0.003353 -344473.000000 0 0 1
18.283146 -1.661768 19.317818 26.649822 -0.090642 0.759942 0.015269 0.003111 -248996.000000 0 0 1
17.880146 -2.834268 19.994618 26.972532 -0.157207 0.735798 0.010235 -0.005016 -128577.000000 0 0 1
17.774246 -4.074868 19.076318 26.390042 -0.225362 0.762863 0.000748 -0.001005 -232576.000000 0 0 1
17.002546 -3.933668 17.907718 25.004933 -0.227357 0.772501 -0.005916 -0.004285 237492.000000 0 0 1
17.023246 -5.094868 17.138318 24.687457 -0.290804 0.803472 0.009020 -0.011820 -252435.000000 0 1 0
16.616346 -4.972168 15.648218 23.360055 -0.290753 0.836762 0.008608 -0.022132 347610.000000 0 1 0
15.306846 -4.540568 15.264918 22.089229 -0.288368 0.807846 0.000985 -0.023871 631320.000000 0 1 0
15.146446 -4.447368 13.871118 21.014325 -0.285598 0.849872 0.011215 -0.025730 180438.000000 0 1 0
15.756746 -3.202668 13.213318 20.811629 -0.200525 0.882916 0.020306 -0.022156 -68660.300000 0 1 0
14.912346 -2.112668 13.431818 20.180564 -0.140736 0.842523 0.017067 -0.015963 307570.000000 0 1 0
15.550746 -0.910368 13.008018 20.294409 -0.058475 0.875041 0.024175 -0.015811 162697.000000 0 1 0
14.671346 0.277132 13.398218 19.870517 0.018887 0.830812 0.023299 -0.003448 -445777.000000 0 1 0
14.993246 1.509632 12.837018 19.795592 0.100349 0.865212 0.024038 -0.002767 -81914.300000 0 1 0
15.929146 2.255332 13.589018 21.059099 0.140650 0.869406 0.032491 -0.010820 -216547.000000 0 1 0
15.890146 3.719632 13.090418 20.921077 0.229944 0.894762 0.016315 -0.008615 613350.000000 0 1 0
14.733246 4.545432 13.371118 20.408731 0.299251 0.856393 0.005127 -0.004061 936496.000000 0 1 0
14.695846 5.697632 12.487918 20.109177 0.369861 0.900771 0.005379 -0.011256 -56268.600000 0 1 0
13.706546 6.772332 12.931418 20.023873 0.458912 0.868726 -0.001064 -0.005315 -484621.000000 0 1 0
14.012246 7.979332 12.240218 20.244400 0.517656 0.921505 0.000130 -0.013238 97862.200000 0 1 0
13.192546 9.098632 12.523218 20.338618 0.603766 0.907477 -0.004407 0.000786 -679750.000000 0 1 0
13.426646 9.911532 13.799718 21.655150 0.635905 0.879873 0.010249 -0.004950 -159419.000000 0 1 0
13.076846 9.295932 15.026118 21.981867 0.617984 0.818155 0.014275 -0.004156 228482.000000 0 1 0
13.525246 10.009632 16.148118 23.321380 0.637116 0.805963 0.021055 -0.009034 -244604.000000 0 1 0
13.107946 9.368332 17.459618 23.757571 0.620528 0.745266 0.022136 -0.013645 -522534.000000 0 1 0
11.746846 9.607032 17.665318 23.288343 0.685524 0.709715 0.020761 -0.014213 -895853.000000 0 1 0
11.146246 8.897732 18.716518 23.531181 0.673686 0.651142 0.033090 -0.010547 37557.600000 0 1 0
11.645946 9.132132 20.218918 25.056507 0.664999 0.631856 0.054063 -0.014306 -342937.000000 0 0 1
12.913446 8.544232 20.364418 25.582622 0.584524 0.650096 0.049349 -0.015838 -633335.000000 0 0 1
13.531846 8.890432 21.541518 26.947869 0.581281 0.644538 0.040184 -0.010420 -11751.700000 0 0 1
15.028246 8.466832 21.517718 27.578028 0.513069 0.675733 0.028358 -0.006693 84919.800000 0 0 1
15.732646 9.322232 20.657318 27.588856 0.534917 0.724613 0.033437 -0.006635 -341549.000000 0 0 1
16.878346 8.656632 20.159318 27.680570 0.473902 0.754982 0.026906 -0.006429 122052.000000 0 0 1
17.703246 9.652732 19.268318 27.889931 0.499191 0.808105 0.030354 -0.011010 170456.000000 0 0 1
18.463146 10.598132 20.049818 29.243861 0.521094 0.815358 0.032862 -0.008175 307606.000000 0 0 1
19.207646 11.438432 19.173818 29.451769 0.537115 0.861863 0.028841 -0.010307 150361.000000 0 0 1
20.185746 12.326932 19.995718 30.971703 0.548232 0.868971 0.022014 -0.007971 -83454.300000 0 0 1
19.587346 13.590032 20.350218 31.344609 0.606564 0.864210 0.018028 -0.000731 409648.000000 0 0 1
20.241746 14.329532 21.381418 32.744905 0.616021 0.859298 0.013988 -0.000799 275355.000000 0 0 1
21.599646 15.076532 21.125818 33.766059 0.609382 0.894829 0.006589 0.002168 1080210.000000 0 0 1
22.783646 14.299632 21.046218 34.154316 0.560486 0.906875 -0.001711 0.002029 189902.000000 0 0 1
23.946546 15.110032 21.124218 35.326799 0.562895 0.929836 0.001900 0.003438 629340.000000 0 0 1
25.216246 14.190432 21.120818 35.823406 0.512579 0.940256 0.009638 0.001109 256506.000000 0 0 1
25.509246 13.534332 19.901018 35.070648 0.487800 0.967384 0.011937 -0.002189 526059.000000 0 0 1
26.795446 12.915132 19.980318 35.833081 0.449136 0.979312 0.006954 -0.002767 591861.000000 0 0 1
27.205446 12.085332 18.738318 35.175505 0.418041 1.008998 0.009431 -0.006461 -112957.000000 0 0 1
27.563846 12.898532 17.641718 35.176242 0.437681 1.045437 0.009759 -0.008336 -15904.000000 0 0 1
27.831846 12.061632 16.494018 34.527486 0.408943 1.072754 0.023547 -0.013677 490777.000000 0 0 1
26.620946 11.556432 15.601618 32.948997 0.409562 1.077527 0.024975 -0.018143 393039.000000 0 0 1
25.962946 12.603432 14.985618 32.519069 0.451931 1.091871 0.028761 -0.018031 121462.000000 0 0 1
24.960346 12.069232 14.109218 31.108766 0.450390 1.100058 0.042645 -0.017191 442392.000000 0 0 1
24.466846 13.007432 12.963018 30.591824 0.488634 1.133225 0.028889 -0.011450 -11338.100000 0 0 1
23.801346 14.129432 13.499918 30.795986 0.535730 1.117016 0.019228 -0.000649 124808.000000 0 0 1
23.603046 15.016432 12.378318 30.591172 0.566618 1.154215 0.002937 0.006367 -93204.500000 0 0 1
23.013146 16.400332 12.790618 31.018957 0.619166 1.145766 0.015655 0.010919 141470.000000 0 0 1
21.599746 16.331232 12.891318 29.990736 0.647384 1.126477 0.034005 -0.005161 201143.000000 0 0 1
21.039746 17.568032 13.239018 30.439748 0.695717 1.120841 0.038565 -0.003584 -714923.000000 0 0 1
20.374246 18.360532 12.080818 29.969405 0.733458 1.155889 0.037605 0.003544 715973.000000 0 0 1
19.142546 17.837332 11.563318 28.606255 0.750118 1.154667 0.038075 0.001350 1476100.000000 0 0 1
17.981846 17.830932 12.423018 28.206742 0.781184 1.114722 0.030523 -0.000435 1023340.000000 0 0 1
16.698946 17.181732 11.753318 26.687211 0.799647 1.114741 0.041547 -0.000850 781825.000000 0 0 1
16.740046 15.768932 11.594018 25.754798 0.755535 1.103841 0.040574 -0.007668 827006.000000 0 0 1
15.479846 15.426632 10.994518 24.463975 0.783676 1.104684 0.042730 -0.017775 843691.000000 0 1 0
15.581146 14.062832 10.278418 23.370521 0.734225 1.115417 0.044179 -0.021350 41374.100000 0 1 0
15.560746 12.977332 11.129018 23.117159 0.695119 1.068524 0.028095 -0.017647 538939.000000 0 1 0
16.095846 11.914532 10.310718 22.524281 0.637215 1.095322 0.030279 -0.013344 56045.000000 0 1 0
16.359846 10.584032 11.098118 22.423972 0.574229 1.053051 0.021849 -0.014855 -968012.000000 0 1 0
17.037646 9.646132 10.252418 22.100709 0.515170 1.088409 0.019753 -0.012640 475709.000000 0 1 0
17.528946 8.502132 10.940418 22.343745 0.451603 1.059118 0.019851 -0.011873 -146198.000000 0 1 0
18.738046 8.780632 11.820518 23.831461 0.438213 1.051805 0.021107 -0.018814 -1256910.000000 0 1 0
18.355046 9.488332 13.000218 24.411920 0.477102 1.009203 0.017725 -0.020828 -288793.000000 0 1 0
19.385146 9.621732 13.935918 25.740463 0.460720 0.998694 0.023940 -0.019431 -967507.000000 0 0 1
18.830346 9.685432 15.402618 26.184541 0.475063 0.941924 0.019433 -0.012975 162593.000000 0 0 1
18.189446 8.555132 15.923318 25.643680 0.439635 0.900848 0.020374 -0.019068 -476901.000000 0 0 1
16.964246 8.283732 15.321318 24.313549 0.454248 0.889043 0.019444 -0.018645 -1010340.000000 0 1 0
16.251146 6.981632 15.863518 23.759086 0.405768 0.839705 0.014622 -0.016744 -118583.000000 0 1 0
15.640846 7.099632 17.109718 24.244243 0.426106 0.787353 0.029022 -0.014817 -142586.000000 0 1 0
15.226846 5.860332 17.571918 23.978587 0.367394 0.748343 0.027058 0.001943 -336231.000000 0 1 0
13.704646 5.641932 17.714218 23.096369 0.390535 0.696691 0.008827 -0.007695 -131314.000000 0 1 0
13.361546 4.250932 17.802918 22.661537 0.308021 0.667130 0.011751 -0.005877 107268.000000 0 1 0
13.063846 3.629832 16.579818 21.417986 0.271017 0.685493 0.018309 -0.007486 -284762.000000 0 1 0
12.775946 2.111532 16.751818 21.173256 0.163793 0.658063 0.008287 -0.005464 -598980.000000 0 1 0
13.883846 1.255232 16.938018 21.937029 0.090164 0.688626 0.007456 -0.001759 -116992.000000 0 1 0
13.724746 -0.146668 16.766718 21.668249 -0.010686 0.685990 0.006945 0.004707 -424423.000000 0 1 0
12.972546 -0.901768 17.901418 22.126024 -0.069402 0.628235 0.006659 0.002917 -643044.000000 0 1 0
11.628946 -0.593068 17.992118 21.431296 -0.050955 0.574387 0.011865 0.009592 -1214520.000000 0 1 0
10.969346 -1.387968 18.909918 21.905205 -0.125863 0.529101 0.019015 -0.006887 -430214.000000 0 1 0
-25.340004 13.911032 29.267578 41.136647 -0.502056 0.779205 0.011642 0.007372 182859.000000 0 0 1
-24.276654 14.058032 30.216518 41.231325 -0.524892 0.748290 0.013339 0.004370 579960.000000 0 0 1
-23.397254 12.957632 30.155518 40.307406 -0.505764 0.725544 0.011882 -0.002095 125385.000000 0 0 1
-22.245454 13.020232 31.196108 40.467071 -0.529539 0.690542 0.009538 -0.004112 -38252.400000 0 0 1
-22.743354 12.888432 32.533498 41.734881 -0.515567 0.676885 0.009040 -0.002247 373409.000000 0 0 1
-21.663554 13.075732 33.414873 41.914652 -0.543049 0.648133 -0.006085 0.006610 -217020.000000 0 0 1
-22.129954 13.250532 -33.992206 42.670617 -0.539507 2.492477 0.007209 0.007869 -117370.000000 0 0 1
-22.804454 12.187832 -33.389706 42.231017 -0.490826 2.482657 -0.011002 0.005905 28762.200000 0 0 1
-23.531454 12.630632 -32.262486 41.882337 -0.492618 2.450127 -0.008118 0.004536 -116203.000000 0 0 1
-24.442254 11.598432 -31.589426 41.591336 -0.443060 2.433370 -0.011751 -0.009132 481.203000 0 0 1
-23.772154 10.601732 -30.779056 40.309581 -0.419500 2.439615 -0.008020 -0.017519 408614.000000 0 0 1
-23.175054 9.550832 -31.573466 40.313587 -0.390908 2.470587 -0.015984 -0.014373 -26052.700000 0 0 1
-22.349954 8.668132 -30.657456 38.917047 -0.369977 2.477967 -0.014595 -0.008329 -592036.000000 0 0 1
-23.156854 7.881132 -29.802226 38.555477 -0.328040 2.454305 -0.016511 -0.007333 343020.000000 0 0 1
-22.394854 7.194832 -28.833466 37.211071 -0.310856 2.457294 -0.013753 -0.000591 -231348.000000 0 0 1
-23.232754 6.403932 -27.791096 36.784728 -0.268963 2.427223 -0.016122 -0.003096 -126454.000000 0 0 1
-23.701654 5.179832 -28.363476 37.324065 -0.215160 2.433993 -0.008855 -0.010612 108348.000000 0 0 1
-24.065854 4.240332 -27.438766 36.742776 -0.174407 2.414003 0.003286 0.003397 -448616.000000 0 0 1
-24.603054 2.912432 -28.040916 37.417716 -0.117829 2.417955 0.013466 0.007248 400001.000000 0 0 1
-25.905404 2.898932 -28.610936 38.705031 -0.111441 2.402685 0.019732 0.008762 402074.000000 0 0 1
-26.119314 3.674032 -29.772556 39.775899 -0.139747 2.416605 -0.001893 0.008672 -579814.000000 0 0 1
-27.559594 3.580932 -30.334426 41.140390 -0.129210 2.399919 0.027283 0.000261 138860.000000 0 0 1
-28.615364 4.082532 -29.524586 41.318365 -0.141713 2.366796 0.021691 -0.001630 -600820.000000 0 0 1
-29.770454 4.243732 -30.241816 42.648055 -0.141595 2.359020 0.024314 -0.001755 -912037.000000 0 0 1
-30.111464 5.654132 -30.733996 43.396405 -0.185612 2.357763 0.028664 -0.023678 -444838.000000 0 0 1
-29.393484 6.020832 -31.913906 43.803250 -0.202041 2.387034 0.028563 -0.019578 232122.000000 0 0 1
-29.528204 7.332332 -32.417646 44.458764 -0.243393 2.387893 0.023125 -0.018474 -558230.000000 0 0 1
-29.039184 8.562732 -31.582346 43.749733 -0.286742 2.377321 0.020325 -0.029401 646922.000000 0 0 1
-27.645154 8.841232 -31.357546 42.728417 -0.309532 2.394813 0.001643 -0.043029 921597.000000 0 0 1
-26.999044 8.038132 -30.394886 41.441634 -0.289363 2.394163 0.011109 -0.043284 -620665.000000 0 0 1
-27.090864 8.546632 -28.909036 40.530139 -0.305598 2.364953 0.005391 -0.031520 1153170.000000 0 0 1
-28.437454 8.897932 -28.457696 41.203185 -0.303245 2.333208 0.018980 -0.037630 1492030.000000 0 0 1
-29.139884 7.808432 -27.886226 41.082186 -0.261813 2.316912 0.018249 -0.017905 -1221380.000000 0 0 1
-30.519564 8.184032 -27.422226 41.837789 -0.261993 2.285563 0.011935 -0.008205 -1170500.000000 0 0 1
-30.565844 8.956932 -26.194476 41.238914 -0.285057 2.259049 -0.005403 -0.012595 -46872.200000 0 0 1
-30.428604 8.148232 -24.974106 40.199497 -0.261643 2.241139 -0.003324 -0.010508 -48085.400000 0 0 1
-29.896644 8.961932 -23.767206 39.230162 -0.291240 2.221618 0.004629 -0.006025 -229395.000000 0 0 1
-30.758964 9.970032 -23.331306 39.873114 -0.313449 2.195848 0.003203 -0.011615 111162.000000 0 0 1
-30.029764 10.910232 -22.537706 39.099464 -0.348486 2.185137 0.005313 -0.012341 -72373.100000 0 0 1
-30.922814 11.856732 -21.745206 39.618890 -0.366141 2.151796 -0.008746 -0.005024 -207239.000000 0 0 1
-31.479794 11.272632 -20.565306 39.255337 -0.343865 2.122203 -0.012984 -0.009135 301353.000000 0 0 1
-32.084524 12.190032 -19.642406 39.545387 -0.363090 2.090595 -0.014267 0.002499 -106357.000000 0 0 1
-31.158454 12.904632 -18.634406 38.530765 -0.392655 2.075587 -0.010705 0.001900 -303591.000000 0 0 1
-30.796204 12.097232 -17.544506 37.450753 -0.374298 2.058353 0.014627 -0.000707 112598.000000 0 0 1
-31.686544 12.134732 -16.444406 37.705534 -0.365732 2.022087 0.006273 0.003871 -234513.000000 0 0 1
-31.839984 13.450632 -15.637106 37.937095 -0.399704 1.995647 -0.005239 0.004159 -419110.000000 0 0 1
-32.495934 14.457632 -16.370806 39.153699 -0.418610 2.002167 -0.010656 0.001776 296195.000000 0 0 1
-33.024194 15.499232 -15.559306 39.660000 -0.438812 1.973946 -0.020335 0.008966 -18037.100000 0 0 1
-33.906014 16.490732 -16.337606 41.091111 -0.452681 1.979690 -0.019865 -0.001452 173396.000000 0 0 1
-35.004834 15.942332 -17.063206 42.079085 -0.427362 1.988326 -0.018087 -0.002498 403195.000000 0 0 1
35.056766 16.990032 -17.422306 42.675224 0.451287 1.991336 -0.014409 -0.000289 -672500.000000 0 0 1
34.509769 16.849232 -18.861406 42.785201 0.454200 2.027330 -0.012726 0.003819 -207728.000000 0 0 1
33.537829 15.858632 -19.102706 41.727635 0.441699 2.046310 0.008376 -0.000184 -660910.000000 0 0 1
32.265489 16.406432 -19.021306 40.890621 0.470410 2.054629 0.040228 -0.012580 -1287580.000000 0 0 1
31.145199 15.377532 -19.189906 39.683049 0.458625 2.075536 0.050750 -0.016123 -470060.000000 0 0 1
30.946239 14.965232 -20.508906 40.028029 0.450432 2.108731 0.037092 -0.012353 184008.000000 0 0 1
30.084939 13.862532 -20.706806 39.064628 0.431782 2.129474 0.015995 -0.008116 -150755.000000 0 0 1
30.602419 12.471232 -20.283406 38.774428 0.386976 2.121296 0.014916 0.010643 -198274.000000 0 0 1
30.807629 12.303332 -18.928606 38.193901 0.379954 2.089313 0.035525 0.004145 86605.800000 0 0 1
31.195339 10.983232 -18.667506 37.977050 0.338526 2.084662 0.029643 0.011162 -370255.000000 0 0 1
31.452949 10.770432 -17.202206 37.432687 0.329915 2.048285 0.023763 0.012552 347193.000000 0 0 1
30.258069 10.439032 -16.477606 36.000495 0.332213 2.046209 0.038757 0.004324 575969.000000 0 0 1
30.485039 10.208432 -15.126906 35.529888 0.323130 2.010589 0.023435 0.005603 -88196.100000 0 0 1
30.021839 11.408832 -14.303506 35.157681 0.363163 1.989787 0.034479 -0.008261 -584856.000000 0 0 1
28.620659 11.583632 -14.265606 34.012206 0.384577 2.003609 0.038808 -0.004924 77028.500000 0 0 1
28.260349 12.552832 -13.287906 33.656936 0.418008 1.976651 0.047212 -0.005796 -312616.000000 0 0 1
26.739449 12.647032 -13.141206 32.367219 0.441793 1.988873 0.052082 -0.010195 -229452.000000 0 0 1
26.140369 11.406432 -12.660806 31.204512 0.411447 1.988581 0.041891 -0.013357 370789.000000 0 0 1
24.739539 11.353032 -12.887006 30.116624 0.430232 2.012968 0.040213 -0.009313 11066.000000 0 0 1
24.368139 10.695732 -14.257006 30.190513 0.413604 2.062620 0.035984 -0.011426 -952347.000000 0 0 1
24.666639 9.300032 -14.337606 30.008342 0.360548 2.068931 0.035016 -0.009196 585351.000000 0 0 1
26.038909 9.010232 -14.561206 31.164688 0.333133 2.056956 0.038348 -0.015496 157305.000000 0 0 1
26.621839 7.783732 -13.760606 30.962285 0.284453 2.031336 0.035561 -0.011043 -19265.700000 0 0 1
26.044019 6.519732 -14.110706 30.330016 0.245294 2.054701 0.046673 -0.011987 551046.000000 0 0 1
25.827439 5.749932 -12.919306 29.445319 0.219056 2.025010 0.034533 -0.010360 -238502.000000 0 0 1
25.120339 4.413632 -13.173206 28.706183 0.173924 2.047551 0.031378 -0.002281 -258209.000000 0 0 1
24.555639 3.910432 -11.980806 27.600917 0.157922 2.019805 0.026095 -0.002932 291959.000000 0 0 1
23.816639 2.700832 -12.192906 26.892262 0.112919 2.041371 0.012235 -0.001312 -197306.000000 0 0 1
23.263639 2.141332 -10.831706 25.750885 0.091788 2.004941 0.002044 -0.003554 -160108.000000 0 0 1
24.133539 1.987032 -9.705906 26.087940 0.082150 1.952008 0.006815 0.003424 635458.000000 0 0 1
23.331739 1.798032 -8.552806 24.914924 0.076912 1.921204 0.008400 0.008756 -276568.000000 0 1 0
24.129839 1.243032 -7.329706 25.249136 0.051469 1.865332 0.024724 0.004877 -166448.000000 0 0 1
24.297539 -0.197768 -7.218006 25.347764 -0.008139 1.859551 0.007855 -0.001331 268283.000000 0 0 1
25.182039 -0.834868 -8.081106 26.460090 -0.033141 1.881163 0.020496 -0.001274 -784416.000000 0 0 1
25.359139 -2.306068 -7.604006 26.574890 -0.090687 1.860987 0.030961 -0.008637 -252512.000000 0 0 1
26.284059 -2.438068 -6.538706 27.194680 -0.092494 1.813616 0.043301 -0.015705 409016.000000 0 0 1
26.300039 -3.758568 -6.157306 27.271437 -0.141950 1.798538 0.048297 -0.021192 -612271.000000 0 0 1
27.587389 -4.269168 -5.530906 28.458404 -0.153533 1.766392 0.052190 -0.023182 -1163050.000000 0 0 1
28.733649 -4.259468 -6.305406 29.724128 -0.147168 1.784551 0.047030 -0.013952 -180750.000000 0 0 1
29.847659 -4.749868 -5.568806 30.731996 -0.157814 1.753008 0.053733 -0.011162 -43958.400000 0 0 1
31.052119 -4.894968 -6.530906 32.106814 -0.156351 1.775638 0.041044 -0.007672 -372907.000000 0 0 1
30.991029 -6.011368 -7.406806 32.425934 -0.191592 1.801253 0.030839 -0.003700 101313.000000 0 0 1
31.844369 -5.880868 -8.516406 33.483990 -0.182618 1.827964 0.032283 -0.012550 -1157330.000000 0 0 1
31.316899 -6.638568 -9.720006 33.455900 -0.208888 1.865579 0.028993 -0.013351 42412.400000 0 0 1
30.063089 -6.151268 -10.163806 32.325383 -0.201826 1.890644 0.040862 -0.011556 204351.000000 0 0 1
28.986859 -6.826568 -9.549306 31.273459 -0.231291 1.881101 0.036435 -0.013956 -742425.000000 0 0 1
27.684389 -6.020168 -9.442006 29.863344 -0.214124 1.892490 0.031336 -0.011395 -826004.000000 0 0 1
26.927069 -5.783468 -10.587506 29.506115 -0.211568 1.937804 0.019618 -0.008085 374278.000000 0 0 1
25.700339 -5.157368 -10.266606 28.151537 -0.198043 1.944097 0.029141 -0.007635 777049.000000 0 0 1
24.462639 -6.039668 -9.877406 27.064025 -0.242053 1.944391 0.028077 -0.000736 -390671.000000 0 0 1
24.549539 -6.630268 -8.561406 26.831660 -0.263784 1.895553 0.023752 -0.009824 406496.000000 0 0 1
23.444039 -7.457968 -8.292506 25.961701 -0.307995 1.895906 0.025363 -0.006183 106113.000000 0 0 1
22.246639 -6.797668 -7.538406 24.452992 -0.296549 1.884182 0.024648 -0.010012 34110.700000 0 1 0
21.572539 -5.783668 -8.269906 23.816309 -0.261943 1.925420 0.012467 -0.012598 499014.000000 0 1 0
21.444739 -4.554368 -7.562406 23.190711 -0.209268 1.902968 0.009811 -0.011097 -205680.000000 0 1 0
21.371639 -3.317168 -8.515306 23.243515 -0.153985 1.945882 0.014348 -0.006966 65348.100000 0 1 0
22.489339 -3.222268 -9.395906 24.585289 -0.142311 1.962946 0.007203 0.003683 593143.000000 0 1 0
22.402439 -2.230768 -10.370006 24.786743 -0.099250 2.002445 0.006003 0.002347 -669803.000000 0 1 0
23.427939 -2.159668 -11.516806 26.194834 -0.091924 2.026016 0.008996 -0.003260 664284.000000 0 0 1
24.646939 -1.508568 -11.071406 27.061475 -0.061131 1.992286 0.011911 0.000300 1469140.000000 0 0 1
25.720139 -1.612868 -12.002506 28.428631 -0.062626 2.006665 0.013620 0.001617 -367005.000000 0 0 1
26.870389 -0.734468 -11.538606 29.252293 -0.027327 1.976267 0.026828 -0.003866 -957030.000000 0 0 1
27.989209 -0.810068 -12.394706 30.621573 -0.028934 1.987524 0.032841 -0.010280 183273.000000 0 0 1
28.963489 0.166732 -12.123006 31.398706 0.005757 1.967195 0.040101 -0.008107 -174400.000000 0 0 1
28.772769 1.489832 -12.909506 31.571303 0.051733 1.992045 0.042721 -0.004982 -347893.000000 0 0 1
28.999019 1.395132 -14.311606 32.368373 0.048073 2.028788 0.034232 -0.008933 419339.000000 0 0 1
29.009499 2.644832 -14.939006 32.737136 0.090920 2.044665 0.038143 -0.000370 -117631.000000 0 0 1
29.370139 2.527532 -16.458606 33.762097 0.085846 2.080006 0.026447 -0.001077 140506.000000 0 0 1
28.394979 1.782732 -17.165306 33.228011 0.062701 2.113662 0.034366 0.004529 279502.000000 0 0 1
28.846429 1.647732 -18.499806 34.308516 0.057059 2.140306 0.018819 0.001555 -189177.000000 0 0 1
27.777939 0.994032 -19.408306 33.901096 0.035770 2.180346 0.013894 0.003636 -29211.300000 0 0 1
27.558789 -0.407668 -19.145406 33.558898 -0.014792 2.177913 0.012663 0.004679 159466.000000 0 0 1
27.123619 -0.995468 -20.345206 33.920629 -0.036685 2.214033 0.003653 0.002416 -184831.000000 0 0 1
26.789799 -2.497668 -20.189406 33.638427 -0.092963 2.214533 0.013547 -0.010927 -150202.000000 0 0 1
25.510539 -2.772568 -19.660006 32.326314 -0.108258 2.224554 0.019161 -0.008595 20991.200000 0 0 1
25.161039 -4.163268 -19.670306 32.207633 -0.163979 2.227784 0.025247 -0.013710 -91292.700000 0 0 1
25.866459 -5.079968 -18.606306 32.265684 -0.193924 2.185430 0.014002 -0.009981 346371.000000 0 0 1
27.226809 -5.342368 -18.906206 33.575060 -0.193756 2.168932 0.017331 -0.014605 319550.000000 0 0 1
28.034659 -5.337568 -17.736006 33.600560 -0.188140 2.126862 0.019991 -0.018509 -726248.000000 0 0 1
29.514299 -5.128768 -17.972106 34.934148 -0.172054 2.111170 0.041523 -0.021676 -968099.000000 0 0 1
30.105429 -6.203468 -18.649006 35.952820 -0.203214 2.116135 0.025844 -0.022495 -63402.100000 0 0 1
31.433819 -5.847468 -18.988206 37.186420 -0.183922 2.106704 0.041253 -0.025754 7690.320000 0 0 1
32.222069 -6.983968 -19.660006 38.386891 -0.213443 2.108487 0.032952 -0.016876 -139914.000000 0 0 1
32.530009 -8.080068 -18.811606 38.436513 -0.243461 2.082221 0.034695 -0.018487 -98636.000000 0 0 1
33.319429 -9.004168 -19.501406 39.642959 -0.263933 2.085097 0.031121 -0.010379 -152699.000000 0 0 1
34.204689 -9.829168 -18.515306 40.117201 -0.279823 2.050516 0.029255 -0.008182 -747811.000000 0 0 1
33.385959 -10.669968 -17.744506 39.285340 -0.309335 2.039447 0.029684 -0.012378 169872.000000 0 0 1
34.055709 -11.515568 -16.829406 39.694187 -0.326070 2.008628 0.022158 -0.003190 -137372.000000 0 0 1
35.037939 -10.870968 -15.767806 39.930675 -0.300845 1.976733 0.028406 -0.003407 218016.000000 0 0 1
-35.261279 -11.545868 -14.665806 39.896751 0.316435 1.947217 0.026859 -0.009198 478488.000000 0 0 1
-34.797851 -12.849268 -15.008406 40.015576 0.353724 1.955262 0.019973 -0.008309 -629602.000000 0 0 1
-33.429014 -13.002068 -15.686206 39.148560 0.370941 1.983060 0.035008 -0.014022 -650274.000000 0 0 1
-33.401594 -12.394268 -16.948606 39.453005 0.355319 2.014835 0.028362 -0.006665 577695.000000 0 0 1
-32.091734 -12.421468 -17.542206 38.625137 0.369303 2.042232 0.039272 -0.010213 743195.000000 0 0 1
-31.904264 -11.509668 -18.757606 38.758254 0.346225 2.075975 0.043874 -0.015691 43496.900000 0 0 1
-31.912674 -10.086368 -18.554506 38.267783 0.306126 2.076999 0.042103 -0.011674 129210.000000 0 0 1
-33.182424 -9.472968 -18.685906 39.242495 0.278084 2.067085 0.032943 -0.013446 -364372.000000 0 0 1
-33.163854 -8.010268 -18.054906 38.600327 0.236997 2.057528 0.040590 -0.013069 180033.000000 0 0 1
-34.400416 -7.382268 -18.363106 39.687405 0.211392 2.051827 0.039855 -0.018118 195746.000000 0 0 1
-34.588752 -6.088968 -17.786906 39.367897 0.174254 2.039592 0.042217 -0.015764 -224375.000000 0 0 1
23.779046 27.239732 -27.277426 45.293532 0.853126 2.217096 0.016231 0.014369 -358088.000000 0 0 1
24.421946 26.540332 -26.256926 44.612183 0.826942 2.200072 0.018271 -0.001926 417934.000000 0 0 1
25.713646 26.126532 -26.738826 45.373474 0.793363 2.200995 0.018312 -0.003172 691967.000000 0 0 1
26.470646 25.188832 -25.723896 44.686589 0.760590 2.184197 0.004286 -0.009773 -241872.000000 0 0 1
26.822246 25.954232 -24.580906 44.690894 0.768953 2.153185 0.011027 -0.001392 239448.000000 0 0 1
27.140946 25.013132 -23.565506 43.790648 0.744622 2.139025 0.003151 -0.006514 -411127.000000 0 0 1
27.767746 25.721932 -22.376806 43.970296 0.747170 2.104711 0.002125 -0.004092 -465903.000000 0 0 1
26.827846 26.571432 -21.778906 43.590080 0.780596 2.093968 0.011785 -0.006244 -326133.000000 0 0 1
27.407046 27.420332 -20.872106 44.030281 0.785640 2.064670 0.002463 -0.010675 -386122.000000 0 0 1
26.465546 28.356532 -20.089206 43.681738 0.819878 2.048678 0.012359 -0.002434 -230436.000000 0 0 1
25.976246 27.807532 -18.884906 42.481336 0.819434 2.031464 0.021249 -0.003427 -160805.000000 0 0 1
25.109146 28.777532 -18.372406 42.381138 0.853369 2.019174 0.020517 0.002683 -601240.000000 0 0 1
24.130246 28.340932 -17.287106 41.040483 0.865474 2.005587 0.016729 0.004825 -357653.000000 0 0 1
23.166546 27.544032 -17.933206 40.211472 0.871508 2.033057 0.021628 0.001449 -490546.000000 0 0 1
21.968246 27.447232 -17.231606 39.152045 0.895823 2.026529 0.023917 0.008521 119139.000000 0 0 1
20.857246 26.569432 -17.906406 38.230862 0.905263 2.058248 0.019071 -0.004418 38488.100000 0 0 1
20.197646 27.026332 -19.062206 38.752229 0.929005 2.085067 0.020910 -0.000270 -118284.000000 0 0 1
19.479946 25.964332 -19.623706 37.930261 0.927130 2.114563 0.020567 0.001488 -125183.000000 0 0 1
18.741446 26.202232 -20.974506 38.441237 0.949901 2.147931 0.016000 0.005606 264179.000000 0 0 1
17.760946 27.201432 -20.797406 38.573323 0.992356 2.140242 0.008963 0.014602 -91321.800000 0 0 1
16.758746 27.098632 -21.824406 38.619893 1.016932 2.171360 0.008092 0.005822 -361575.000000 0 0 1
15.624746 28.034932 -21.502306 38.632102 1.062342 2.161074 0.008611 0.008112 -656962.000000 0 0 1
14.901246 27.716932 -20.331206 37.465096 1.077506 2.144410 0.018536 0.006298 -118073.000000 0 0 1
13.885046 28.656132 -20.058506 37.633922 1.119593 2.132927 0.012362 0.006523 50856.100000 0 0 1
13.538346 28.735532 -18.571206 36.795480 1.130505 2.099847 0.017339 0.004572 -573695.000000 0 0 1
12.692646 27.696132 -18.209506 35.493170 1.141076 2.109522 0.018076 0.009214 -448467.000000 0 0 1
12.295746 27.880032 -16.863706 34.826228 1.155432 2.076273 0.034858 0.011164 -731241.000000 0 0 1
11.358346 26.802932 -16.392706 33.408532 1.169966 2.083660 0.048804 0.007676 -619659.000000 0 0 1
11.975146 25.565532 -16.090606 32.494740 1.132739 2.088833 0.023813 0.008420 -361661.000000 0 0 1
11.079746 24.481032 -16.302606 31.430187 1.145795 2.116117 0.040906 0.003316 -287786.000000 0 0 1
11.634446 23.064532 -16.482406 30.643151 1.103611 2.138719 0.018710 0.005811 -527130.000000 0 0 1
12.284246 22.967532 -17.733806 31.510286 1.079657 2.168559 0.020303 0.004920 -235400.000000 0 0 1
13.166946 21.852532 -17.774506 31.093966 1.028514 2.179298 0.018655 0.008079 -227190.000000 0 0 1
12.558146 20.511932 -18.099306 30.100353 1.021428 2.215922 0.023591 0.003491 -197311.000000 0 0 1
11.952546 19.926832 -16.937306 28.754379 1.030508 2.200659 0.022374 0.005259 -130155.000000 0 0 1
11.729046 18.533932 -17.185106 27.864046 1.006578 2.235402 0.021507 -0.001536 -21317.700000 0 0 1
12.980046 17.609132 -17.221706 27.841521 0.935589 2.237708 0.029516 -0.001106 80968.100000 0 0 1
13.477646 17.413432 -15.907506 27.164744 0.912124 2.196409 0.024552 -0.004424 -535952.000000 0 0 1
14.437746 16.420832 -15.988506 27.087351 0.849574 2.202174 0.024956 -0.003947 -1286830.000000 0 0 1
14.772946 15.689232 -14.664906 26.066289 0.815469 2.168324 0.040576 -0.001463 -840582.000000 0 0 1
15.558946 16.338732 -13.688306 26.389481 0.809840 2.116130 0.032979 -0.001572 687839.000000 0 0 1
16.894646 16.683432 -14.043806 27.586128 0.779108 2.104923 0.022459 -0.001105 282605.000000 0 0 1
17.883246 15.513432 -14.420406 27.720483 0.714557 2.117890 0.018893 -0.005692 -711737.000000 0 0 1
18.130746 14.530832 -13.430006 26.837178 0.675623 2.094886 0.025208 -0.014692 702128.000000 0 0 1
18.956746 14.898632 -12.303706 27.068592 0.666101 2.042650 0.023981 -0.002379 -196962.000000 0 0 1
19.708246 13.807332 -11.632206 26.727619 0.611120 2.021071 0.030643 -0.012152 -531307.000000 0 0 1
18.771246 12.955832 -11.010406 25.326711 0.604115 2.020540 0.049856 -0.021101 473131.000000 0 0 1
19.387046 11.880732 -10.347206 24.981474 0.549791 1.997855 0.048746 -0.012473 -127658.000000 0 1 0
19.760846 10.717032 -11.253906 25.139535 0.496941 2.034941 0.033060 -0.014164 -339878.000000 0 0 1
20.839646 10.974332 -12.152706 26.503115 0.484707 2.047147 0.033022 -0.012009 604796.000000 0 0 1
21.097546 9.885732 -13.036006 26.697783 0.438191 2.080915 0.026921 -0.007243 -364403.000000 0 0 1
22.063246 8.776132 -12.562606 26.863105 0.378584 2.057430 0.020812 0.002664 -943944.000000 0 0 1
21.547046 8.255932 -11.351106 25.715428 0.365904 2.027968 0.029569 -0.008948 406783.000000 0 0 1
22.164846 7.098332 -10.823006 25.667181 0.309931 2.006079 0.021035 0.010446 -1012990.000000 0 0 1
22.036446 5.735032 -11.550606 25.532569 0.254604 2.040237 0.011635 0.006013 370709.000000 0 0 1
20.685946 5.224132 -11.519706 24.246723 0.247373 2.065878 -0.002765 -0.003159 1376060.000000 0 1 0
19.832946 5.789832 -12.523606 24.160063 0.284037 2.115728 -0.028820 -0.007543 -64738.100000 0 1 0
18.837346 4.725932 -13.064306 23.406327 0.245808 2.162954 -0.027891 -0.007944 340631.000000 0 1 0
19.569446 3.730932 -13.778406 24.222460 0.188390 2.175876 -0.017145 -0.000641 302092.000000 0 1 0
18.825446 2.573032 -13.870006 23.524349 0.135837 2.201362 -0.003319 0.005659 -1058490.000000 0 1 0
19.326046 1.430332 -14.728906 24.340965 0.073876 2.220697 -0.000232 0.005764 -828448.000000 0 1 0
20.394746 0.815932 -14.104606 24.810307 0.039986 2.175475 0.006517 0.010595 -278075.000000 0 1 0
21.547846 0.605432 -14.879606 26.193108 0.028090 2.174959 0.001906 0.003740 -31127.100000 0 0 1
21.838146 -0.870168 -15.196606 26.619517 -0.039825 2.178376 0.009378 0.005690 -432891.000000 0 0 1
20.994646 -1.391268 -16.190706 26.549007 -0.066171 2.226658 0.002521 0.008114 150477.000000 0 0 1
21.633446 -2.375868 -16.962506 27.593067 -0.109385 2.232850 0.003908 0.002464 -469002.000000 0 0 1
20.632346 -3.118868 -17.832406 27.448420 -0.150028 2.277946 0.002219 0.001700 131924.000000 0 0 1
19.768246 -3.920068 -16.996606 26.363519 -0.195762 2.271429 -0.003016 -0.000819 339371.000000 0 0 1
18.744446 -4.494368 -17.765606 26.213935 -0.235328 2.315449 -0.008969 -0.005938 -228401.000000 0 0 1
17.895746 -5.587868 -17.072606 25.356575 -0.302653 2.309461 -0.005236 -0.007877 -330748.000000 0 0 1
18.643146 -6.695968 -16.625206 25.861175 -0.344816 2.269027 -0.009025 0.002633 123060.000000 0 0 1
17.848546 -7.684168 -16.023406 25.186635 -0.406537 2.260342 -0.004694 0.004543 -140740.000000 0 0 1
18.684046 -8.806068 -15.271806 25.687905 -0.440437 2.207457 -0.011155 0.004017 515881.000000 0 0 1
19.417746 -9.625968 -16.174206 27.042801 -0.460226 2.211920 0.001788 0.005866 -214200.000000 0 0 1
20.338946 -10.411968 -15.565206 27.647015 -0.473140 2.168805 0.007290 0.005029 -998781.000000 0 0 1
20.917846 -11.476468 -16.489506 29.002921 -0.501802 2.175534 0.005616 0.006510 -9287.190000 0 0 1
21.775746 -11.020668 -17.542906 30.056477 -0.468514 2.194031 0.000946 0.011637 289231.000000 0 0 1
22.203346 -12.060268 -18.380106 31.245271 -0.497587 2.199692 0.001661 0.018704 -134140.000000 0 0 1
21.454546 -12.253068 -19.738706 31.623595 -0.518912 2.244873 0.002722 0.016428 542484.000000 0 0 1
20.159446 -12.834168 -19.664706 30.948664 -0.566921 2.259320 -0.006460 0.023070 361831.000000 0 0 1
20.195946 -14.231668 -19.820406 31.674361 -0.613860 2.246896 -0.008062 0.028301 -748653.000000 0 0 1
18.776146 -14.739868 -19.984906 31.132039 -0.665547 2.267822 0.001577 0.020883 -300943.000000 0 0 1
18.245246 -14.274068 -21.239406 31.428497 -0.663882 2.312847 -0.001544 0.024743 474564.000000 0 0 1
16.827946 -14.084468 -21.198306 30.510985 -0.696880 2.338905 0.011078 0.025921 625051.000000 0 0 1
16.320446 -13.402968 -22.491806 30.852518 -0.687557 2.387671 0.001831 0.033376 -353067.000000 0 0 1
16.172146 -14.266068 -23.581206 31.955161 -0.722859 2.400819 0.009110 0.025301 333501.000000 0 0 1
15.574546 -13.718468 -24.736806 32.290439 -0.722120 2.443504 0.010593 0.020717 -115473.000000 0 0 1
15.578046 -14.531268 -26.042576 33.645936 -0.750646 2.455960 0.004077 0.016523 236338.000000 0 0 1
14.579446 -15.553968 -25.916596 33.558250 -0.817727 2.453229 0.008127 0.015887 481196.000000 0 0 1
14.569846 -16.303668 -27.127266 34.842195 -0.841498 2.463188 0.009946 0.015270 313496.000000 0 0 1
15.567346 -17.537368 -27.281906 35.975046 -0.844837 2.431584 0.013757 0.006377 -337083.000000 0 0 1
16.857646 -17.088868 -27.556306 36.545310 -0.792209 2.424974 0.025332 0.007779 -689949.000000 0 0 1
17.768446 -18.152768 -27.328656 37.310804 -0.796097 2.392724 0.029923 0.001984 -213907.000000 0 0 1
19.248946 -17.782568 -27.471116 37.965825 -0.745821 2.379764 0.021190 0.003835 -336989.000000 0 0 1
19.685146 -17.125268 -26.297506 37.045089 -0.715968 2.360122 0.018264 0.008338 -408518.000000 0 0 1
21.052046 -16.825868 -26.323306 37.672469 -0.674284 2.344433 0.021128 0.008728 -323072.000000 0 0 1
21.599646 -16.197168 -24.997306 36.793454 -0.643425 2.317735 0.018761 0.014986 -56194.200000 0 0 1
21.440746 -14.835368 -24.706806 35.919633 -0.605285 2.329299 0.019480 0.014201 1969.690000 0 0 1
20.100146 -14.521068 -24.346506 34.750966 -0.625625 2.347033 0.016671 0.020218 367919.000000 0 0 1
19.946646 -13.147968 -23.711406 33.659598 -0.582785 2.352440 0.007596 0.032751 -213067.000000 0 0 1
20.132946 -12.031368 -24.553706 33.955468 -0.538650 2.379098 0.011790 0.020464 139245.000000 0 0 1
19.922246 -10.826868 -23.906406 32.948949 -0.497805 2.382643 0.006847 0.023888 -75830.300000 0 0 1
20.068446 -9.628068 -24.845506 33.357779 -0.447326 2.411060 0.009144 0.013988 -542135.000000 0 0 1
19.843746 -8.426768 -24.104606 32.339090 -0.401579 2.411887 0.011412 0.018439 110003.000000 0 0 1
19.728346 -7.305568 -24.933206 32.622749 -0.354651 2.440734 0.002367 0.011678 -178319.000000 0 0 1
19.083246 -6.159168 -24.123706 31.369712 -0.312198 2.448091 -0.002373 0.002364 178588.000000 0 0 1
17.755546 -6.439768 -23.684906 30.293643 -0.347935 2.468414 -0.010132 0.010663 219784.000000 0 0 1
17.277446 -5.526868 -22.735506 29.085386 -0.309602 2.468154 -0.019820 0.001749 -202171.000000 0 0 1
18.001346 -5.526868 -21.336006 28.457335 -0.297889 2.418487 -0.012803 0.004461 -307360.000000 0 0 1
17.839746 -6.599568 -20.449206 27.928138 -0.354324 2.392355 -0.010637 0.011550 241272.000000 0 0 1
18.187746 -7.887768 -20.896606 28.804151 -0.409205 2.382516 -0.007402 0.017769 -716155.000000 0 0 1
17.993346 -8.970868 -19.814106 28.228280 -0.462500 2.348891 -0.012686 0.020552 -487240.000000 0 0 1
16.637946 -9.186068 -19.548606 27.264503 -0.504466 2.370283 -0.020406 0.018182 -505658.000000 0 0 1
16.482146 -10.289568 -18.620206 26.911864 -0.558085 2.334908 -0.011874 0.016477 800614.000000 0 0 1
14.937346 -10.503268 -18.365806 25.898760 -0.612840 2.359072 0.014070 0.002309 980431.000000 0 0 1
14.246546 -9.618068 -17.511506 24.538218 -0.593829 2.365480 0.023668 0.000946 139395.000000 0 1 0
14.152146 -8.268768 -17.928506 24.291708 -0.528778 2.400973 0.016371 -0.011683 -905352.000000 0 1 0
13.055646 -7.407968 -17.286006 22.893971 -0.516115 2.426521 0.030096 -0.003775 -77432.600000 0 1 0
11.812246 -7.546068 -17.948606 22.773334 -0.568486 2.478580 0.019519 -0.015296 96260.100000 0 1 0
10.845946 -6.693168 -17.345306 21.524235 -0.552907 2.507906 0.015026 -0.019566 754705.000000 0 1 0
9.400446 -6.811168 -17.941006 21.369139 -0.627018 2.567298 0.019930 -0.014030 660857.000000 0 1 0
9.211146 -6.431668 -19.314306 22.343992 -0.609549 2.614766 0.022971 -0.018183 -174137.000000 0 1 0
7.872046 -6.068568 -19.552006 21.933481 -0.656744 2.671272 0.023000 -0.022211 -19189.900000 0 1 0
7.520746 -5.671768 -20.993306 23.009769 -0.646152 2.719821 0.033597 -0.027158 15954.900000 0 1 0
7.772046 -6.758068 -21.826406 24.134378 -0.715727 2.700697 0.042591 -0.018925 227803.000000 0 1 0
7.177546 -6.392668 -23.099006 25.018942 -0.727624 2.747280 0.055601 -0.021993 155389.000000 0 0 1
7.115546 -7.590168 -24.063106 26.215925 -0.817662 2.733505 0.050740 -0.013716 4663.670000 0 0 1
6.184946 -8.598068 -23.687706 25.947789 -0.947207 2.721127 0.047091 -0.014436 245238.000000 0 0 1
6.128146 -9.539368 -24.743506 27.217546 -0.999778 2.711918 0.046639 -0.000217 233079.000000 0 0 1
5.178546 -10.772868 -24.426306 27.194052 -1.122705 2.686505 0.032315 0.002214 273157.000000 0 0 1
5.579746 -11.768068 -23.529806 26.893731 -1.128048 2.636063 0.030050 -0.004908 -289886.000000 0 0 1
4.718846 -12.886568 -23.554706 27.260875 -1.219778 2.614053 0.034752 -0.011494 -502053.000000 0 0 1
5.292446 -14.085868 -22.787506 27.307363 -1.211388 2.557989 0.031801 -0.009071 -866280.000000 0 0 1
6.334646 -14.864068 -23.275506 28.334033 -1.167934 2.534777 0.033733 -0.000096 -945825.000000 0 0 1
7.617246 -14.319368 -23.303106 28.391926 -1.081913 2.533546 0.028008 0.001936 -364665.000000 0 0 1
8.287346 -14.067268 -21.919306 27.331742 -1.038413 2.501386 0.027940 0.004921 -822844.000000 0 0 1
8.552046 -15.200868 -21.087506 27.365796 -1.058329 2.450545 0.025783 0.012243 604482.000000 0 0 1
7.514246 -15.522368 -20.130706 26.507605 -1.119956 2.433235 0.031286 0.004770 267134.000000 0 0 1
8.027946 -15.664668 -18.734906 25.706545 -1.097209 2.387363 0.029580 -0.004167 -238908.000000 0 0 1
9.120146 -16.557868 -18.788506 26.652355 -1.067336 2.353145 0.041576 -0.005561 -308467.000000 0 0 1
9.734446 -16.784168 -17.527306 26.147164 -1.045229 2.305454 0.043410 -0.014550 -256360.000000 0 0 1
8.988646 -17.737068 -16.576006 25.887513 -1.101746 2.265697 0.023762 -0.012776 -1175450.000000 0 0 1
8.921746 -19.142968 -16.895006 27.046109 -1.134669 2.245511 0.021909 -0.019746 149381.000000 0 0 1
8.081646 -19.514368 -17.967606 27.730100 -1.178162 2.275681 0.029014 -0.019067 -15198.000000 0 0 1
6.546946 -19.364668 -17.841306 27.132362 -1.244773 2.288379 0.017107 -0.008559 -116853.000000 0 0 1
6.126146 -18.018868 -17.621406 25.936908 -1.243071 2.317734 0.019492 -0.005497 -962729.000000 0 0 1
4.756046 -17.841868 -17.789606 25.640248 -1.310287 2.337570 0.006868 -0.002342 -497098.000000 0 0 1
4.243046 -16.413468 -17.555606 24.405013 -1.317824 2.373654 0.004123 0.005685 -39790.300000 0 1 0
4.410846 -16.060568 -16.185606 23.224368 -1.302766 2.341895 -0.008379 0.003025 105672.000000 0 1 0
4.073446 -14.713968 -16.024406 22.133129 -1.300718 2.380381 -0.011826 0.007414 77878.900000 0 1 0
10.299946 30.167632 -18.477406 36.845481 1.241782 2.096109 0.056480 -0.014783 -388911.000000 0 0 1
9.302446 29.716232 -19.393706 36.683863 1.267417 2.127831 0.069279 -0.018871 -73457.200000 0 0 1
8.261646 29.069032 -18.728306 35.552959 1.293890 2.125595 0.058263 -0.018055 91187.200000 0 0 1
7.077146 28.538832 -19.578306 35.325076 1.327717 2.158237 0.056212 -0.014856 310416.000000 0 0 1
6.212346 29.537032 -20.043206 36.232025 1.363494 2.156985 0.063466 -0.021520 -667789.000000 0 0 1
5.248846 28.982332 -20.885606 36.107264 1.391633 2.187602 0.065816 -0.025684 -630831.000000 0 0 1
4.373146 30.013232 -21.530306 37.195061 1.426107 2.188112 0.035169 -0.022151 -223127.000000 0 0 1
3.318046 30.399532 -20.646306 36.897302 1.462079 2.164653 0.035374 -0.025849 -573270.000000 0 0 1
2.379046 31.198532 -21.242106 37.818452 1.494689 2.167219 0.011662 -0.028919 -867989.000000 0 0 1
0.934546 30.804932 -20.843806 37.205933 1.540468 2.165457 -0.014585 -0.014481 -445468.000000 0 0 1
0.621646 29.501932 -21.201406 36.335245 1.549728 2.193821 -0.015982 -0.025071 31069.100000 0 0 1
0.409146 29.219632 -22.583106 36.931707 1.556795 2.228730 -0.001748 -0.031467 -944653.000000 0 0 1
-0.146154 27.798632 -22.849506 35.984514 -1.565539 2.258781 0.005421 -0.023807 316402.000000 0 0 1
-1.260954 27.504232 -21.999106 35.242495 -1.524983 2.244930 0.010793 -0.023096 196726.000000 0 0 1
-1.744554 26.249732 -22.353806 34.522233 -1.504434 2.275121 0.033166 -0.039807 -554074.000000 0 0 1
-2.902354 25.882432 -21.418606 33.720626 -1.459127 2.259036 0.023644 -0.031892 -650018.000000 0 0 1
-3.995554 26.701232 -21.692706 34.633708 -1.422259 2.247654 0.019220 -0.028384 -315120.000000 0 0 1
-5.170154 26.258332 -21.044706 34.045707 -1.376387 2.237159 0.020557 -0.029537 107407.000000 0 0 1
-6.151554 27.338132 -20.538406 34.742498 -1.349465 2.203294 0.039443 -0.036606 107638.000000 0 0 1
-7.260254 26.726432 -19.905306 34.106226 -1.305547 2.193984 0.035304 -0.028860 -103663.000000 0 0 1
-7.784854 27.616632 -18.908406 34.362918 -1.296036 2.153467 0.033353 -0.031403 611880.000000 0 0 1
-9.097954 27.147932 -18.209906 33.932045 -1.247434 2.137268 0.048318 -0.019763 516802.000000 0 0 1
-8.868954 26.309332 -17.111106 32.613329 -1.245657 2.123119 0.039836 -0.025894 177117.000000 0 0 1
-10.082754 25.633632 -16.792606 32.260450 -1.196044 2.118271 0.030769 -0.021189 138225.000000 0 0 1
-10.070354 24.877732 -15.446006 30.965992 -1.186164 2.093016 0.040629 -0.016553 -123632.000000 0 0 1
-9.353554 23.634432 -15.497506 29.769918 -1.193951 2.118322 0.029675 -0.013726 25941.100000 0 0 1
-9.507054 23.044432 -14.231106 28.704604 -1.179515 2.089527 0.035744 -0.016514 -790303.000000 0 0 1
-9.121754 21.566832 -14.105606 27.336839 -1.170661 2.112962 0.044929 -0.006511 345865.000000 0 0 1
-9.980954 20.560632 -14.728906 27.190066 -1.118864 2.143257 0.019803 -0.005386 181767.000000 0 0 1
-10.132154 20.618332 -16.174206 28.095927 -1.114040 2.184229 0.025224 -0.004740 -384036.000000 0 0 1
-8.871354 20.476132 -17.037906 28.076024 -1.161956 2.222886 0.003822 -0.001102 -173699.000000 0 0 1
-8.289054 19.192532 -17.044706 26.973759 -1.163105 2.254798 0.000292 0.000445 184895.000000 0 0 1
-7.298954 19.083932 -18.076206 27.280403 -1.205496 2.295092 0.009801 -0.001024 69528.800000 0 0 1
-6.703654 17.661132 -18.227506 26.250648 -1.208024 2.338332 0.004138 0.006716 346246.000000 0 0 1
-7.634354 16.623732 -18.620506 26.102779 -1.140282 2.365068 -0.009543 0.003385 61727.700000 0 0 1
-7.254754 15.928932 -19.756006 26.394357 -1.143424 2.416584 -0.008035 0.000072 -334.064000 0 0 1
-6.076854 14.949132 -19.681106 25.450946 -1.184697 2.454819 -0.003569 0.006642 -333928.000000 0 0 1
-6.427554 13.808732 -18.933806 24.299867 -1.135152 2.464142 -0.014102 0.006274 575546.000000 0 1 0
-5.341954 12.872632 -18.741806 23.355865 -1.177439 2.502178 -0.006040 0.002574 767341.000000 0 1 0
-4.443654 13.217032 -17.525406 22.395889 -1.246462 2.469512 0.005525 0.003235 -373821.000000 0 1 0
-3.751454 14.387532 -17.667106 23.091148 -1.315732 2.441998 0.006073 -0.001746 -1014940.000000 0 1 0
-3.541154 14.970632 -16.415706 22.497444 -1.338525 2.388635 0.015164 0.003213 -35352.100000 0 1 0
-2.824354 16.345132 -16.515506 23.407312 -1.399691 2.354024 0.028285 0.001627 -265917.000000 0 1 0
-3.589254 17.459532 -16.829706 24.514424 -1.368045 2.327492 0.024579 0.002885 -1136060.000000 0 1 0
-2.861054 18.631532 -16.943506 25.345651 -1.418427 2.302983 0.030793 -0.001773 -450738.000000 0 0 1
-3.553954 19.897932 -17.501006 26.736557 -1.394051 2.284413 0.046614 -0.003849 -125007.000000 0 0 1
-3.691554 19.912332 -18.910106 27.707772 -1.387487 2.321952 0.046432 -0.010871 -108133.000000 0 0 1
-4.139254 21.135832 -19.512106 29.061643 -1.377403 2.306898 0.056150 -0.012467 -146860.000000 0 0 1
-3.080054 22.236432 -19.729706 29.886568 -1.433158 2.291819 0.041757 -0.015776 -501852.000000 0 0 1
-2.104154 21.975132 -20.708906 30.268675 -1.475336 2.324261 0.058550 -0.019254 480190.000000 0 0 1
-0.920854 22.778932 -20.668606 30.772049 -1.530393 2.307255 0.047362 -0.020275 555379.000000 0 0 1
0.118246 22.348732 -19.613006 29.734657 1.565505 2.291084 0.049062 -0.014648 -866699.000000 0 0 1
-0.266454 22.531632 -18.291506 29.022829 -1.558971 2.252666 0.039337 -0.007338 -425465.000000 0 0 1
0.698746 22.022332 -17.373406 28.058984 1.539078 2.238487 0.044468 -0.003097 -160628.000000 0 0 1
0.372446 22.082832 -15.926206 27.229290 1.553932 2.195544 0.051084 -0.000005 63034.100000 0 0 1
-0.483454 21.035432 -15.456906 26.108218 -1.547818 2.204374 0.050390 -0.000289 129047.000000 0 0 1
-0.275854 20.926732 -14.057806 25.211627 -1.557615 2.162279 0.053816 -0.002999 173983.000000 0 0 1
-1.171754 19.912432 -13.313006 23.981536 -1.512019 2.159322 0.038774 -0.002336 10402.600000 0 1 0
-0.796054 18.571532 -13.491206 22.968416 -1.527958 2.198615 0.029958 -0.002503 233553.000000 0 1 0
-1.675454 17.731732 -12.733806 21.894549 -1.476587 2.191487 0.018454 -0.003230 330284.000000 0 1 0
-1.320754 16.214532 -12.795106 20.697106 -1.489521 2.237256 0.007167 -0.004642 -728902.000000 0 1 0
-0.163254 15.894932 -12.052306 19.948273 -1.560526 2.219530 0.003840 -0.002428 18100.200000 0 1 0
0.109446 14.513532 -12.029606 18.851154 1.563255 2.262872 0.005296 -0.003795 -469187.000000 0 1 0
0.659346 13.940432 -13.286006 19.268844 1.523534 2.331605 0.001246 -0.006012 -751418.000000 0 1 0
-0.136954 13.830432 -14.461606 20.010938 -1.560894 2.378476 0.003434 -0.011199 -308152.000000 0 1 0
0.606146 13.155532 -15.407206 20.268632 1.524753 2.434341 0.003835 -0.006252 -172343.000000 0 1 0
-0.230754 12.872232 -16.724306 21.105687 -1.552872 2.485542 0.012342 -0.005617 336380.000000 0 1 0
-0.495454 14.112932 -17.329806 22.354921 -1.535704 2.457847 0.018082 -0.012713 -243283.000000 0 1 0
-0.651254 13.841632 -18.695206 23.270703 -1.523781 2.503745 0.024977 -0.011255 -367629.000000 0 1 0
-1.057654 15.092732 -19.525406 24.701228 -1.500834 2.482361 0.036667 -0.004468 78545.100000 0 1 0
-0.104854 16.134132 -19.513006 25.319530 -1.564298 2.450688 0.030558 -0.012350 427845.000000 0 0 1
-0.808454 17.326232 -19.880506 26.383450 -1.524169 2.424199 0.050757 -0.012776 343171.000000 0 0 1
0.226846 18.429032 -20.103206 27.273056 1.558488 2.399578 0.059469 -0.017511 44492.000000 0 0 1
0.770246 18.268532 -21.393806 28.142983 1.528659 2.434390 0.053533 -0.024692 -199452.000000 0 0 1
1.821746 19.190132 -21.556906 28.918508 1.476149 2.411985 0.063019 -0.026394 -232095.000000 0 0 1
2.218846 19.342232 -22.985306 30.122575 1.456580 2.438829 0.064467 -0.028121 17118.800000 0 0 1
2.943846 18.153332 -23.399706 29.761652 1.410030 2.475491 0.030877 -0.025775 126404.000000 0 0 1
3.280646 18.293532 -24.762606 30.961308 1.393349 2.497745 0.033837 -0.037641 -43182.100000 0 0 1
4.273046 17.247632 -25.286106 30.905127 1.327939 2.529043 0.009932 -0.022263 149424.000000 0 0 1
5.552446 17.233332 -24.610306 30.552979 1.259106 2.507308 0.004014 -0.017027 802153.000000 0 0 1
6.352046 16.116132 -25.011506 30.424556 1.195350 2.535856 0.010208 -0.024872 378745.000000 0 0 1
6.879446 16.108932 -26.495316 31.762025 1.167184 2.557445 0.010780 -0.026355 -1646090.000000 0 0 1
7.904046 17.016132 -26.702726 32.635231 1.135947 2.529100 0.007228 -0.020569 -323581.000000 0 0 1
8.279146 17.248632 -28.042556 33.947673 1.123286 2.542863 0.011534 -0.020717 -297167.000000 0 0 1
9.011446 16.167332 -28.830966 34.260960 1.062300 2.570870 0.018664 -0.026122 -57798.900000 0 0 1
10.316846 15.853032 -28.333796 34.066992 0.993873 2.552974 0.031164 -0.022335 467957.000000 0 0 1
10.596746 14.490432 -28.697366 33.849704 0.939376 2.582596 0.029611 -0.016657 -296572.000000 0 0 1
10.084846 13.395132 -27.782046 32.449588 0.925458 2.598588 0.024119 -0.018422 900233.000000 0 0 1
8.643846 13.291532 -27.799236 32.002788 0.994191 2.623268 0.026921 -0.016359 881519.000000 0 0 1
8.246846 12.461832 -26.694946 30.592938 0.986193 2.631266 0.031876 -0.014498 -539162.000000 0 0 1
6.799146 12.032332 -26.622906 29.996409 1.056454 2.662767 0.016422 -0.016509 -1068990.000000 0 0 1
5.873146 13.041732 -26.560526 30.166905 1.147664 2.647612 0.012841 -0.013414 -827182.000000 0 0 1
4.574546 12.552232 -26.304666 29.502889 1.221315 2.671654 0.011653 -0.011780 115060.000000 0 0 1
3.464346 13.521432 -26.732676 30.157367 1.319980 2.660391 0.020333 -0.012379 -1327160.000000 0 0 1
3.214246 13.600732 -28.142926 31.421896 1.338725 2.680680 0.031693 -0.019554 326397.000000 0 0 1
3.944246 14.671832 -28.757806 32.524316 1.308174 2.655562 0.037000 -0.024469 224680.000000 0 0 1
3.835846 14.486132 -30.281556 33.786600 1.311943 2.682059 0.052287 -0.028881 6514.390000 0 0 1
4.571646 13.373432 -30.778816 33.868631 1.241405 2.711125 0.045239 -0.026405 -264870.000000 0 0 1
4.465346 13.285432 -32.206386 35.123971 1.246550 2.731126 0.050541 -0.024791 -1244810.000000 0 0 1
5.427846 12.251532 -32.779686 35.412842 1.153750 2.753530 0.041257 -0.020991 550360.000000 0 0 1
6.831446 12.467332 -32.587346 35.553314 1.069530 2.730230 0.029061 -0.017110 828973.000000 0 0 1
7.363046 12.637532 -31.270866 34.522293 1.043244 2.704100 0.026519 -0.018506 -1339780.000000 0 0 1
7.480446 11.392832 -30.326146 33.247990 0.989801 2.719222 0.032497 -0.013373 212447.000000 0 0 1
8.563146 10.528532 -30.671876 33.540147 0.887981 2.725023 0.031494 -0.008722 242811.000000 0 0 1
8.433546 9.284432 -29.964726 32.483999 0.833385 2.745164 0.036708 -0.011007 -12114.900000 0 0 1
9.496446 8.204532 -30.295206 32.791712 0.712542 2.748863 0.029841 -0.007651 868803.000000 0 0 1
10.786446 8.421332 -29.715296 32.714906 0.662882 2.710024 0.032824 -0.007558 287403.000000 0 0 1
11.580346 7.287232 -29.658996 32.662887 0.561668 2.709362 0.009156 -0.000219 -648060.000000 0 0 1
12.932746 7.519232 -28.967676 32.602470 0.526638 2.664888 0.006832 0.000184 43749.400000 0 0 1
13.676246 6.351732 -28.712256 32.431125 0.434793 2.658000 0.013001 0.002799 922837.000000 0 0 1
14.634846 5.887632 -29.731466 33.657139 0.382490 2.653786 0.005082 0.007229 870203.000000 0 0 1
15.500446 4.666232 -29.313206 33.485842 0.292409 2.637040 0.015548 0.000153 617147.000000 0 0 1
16.364046 4.885032 -28.196346 32.964822 0.290101 2.597016 0.008726 -0.006657 541370.000000 0 0 1
17.237446 3.802332 -27.871196 32.990769 0.217109 2.577021 0.009526 -0.004772 226941.000000 0 0 1
17.928546 4.126132 -26.537126 32.290506 0.226204 2.535402 0.019054 -0.006127 -510607.000000 0 0 1
18.775846 5.220632 -26.563746 32.945713 0.271200 2.508647 0.040521 -0.012587 -223158.000000 0 0 1
19.011946 5.594632 -25.231706 32.084155 0.286191 2.475792 0.043117 -0.012689 214903.000000 0 0 1
20.105346 6.706532 -25.113106 32.861385 0.321963 2.440617 0.039713 -0.015262 -68259.400000 0 0 1
19.683246 8.000032 -25.565596 33.241997 0.386045 2.448189 0.047948 -0.018554 101758.000000 0 0 1
20.546546 8.812132 -26.347616 34.554466 0.405158 2.437957 0.049856 -0.025272 -646562.000000 0 0 1
20.743246 8.435232 -27.826286 35.717469 0.386226 2.463972 0.054196 -0.020506 615686.000000 0 0 1
19.599046 8.735732 -28.636526 35.783883 0.419291 2.498530 0.052731 -0.014227 1119430.000000 0 0 1
18.430046 7.919532 -28.523776 34.871068 0.405851 2.528684 0.050329 -0.012168 356048.000000 0 0 1
17.150146 8.542732 -29.129896 34.866268 0.462138 2.559793 0.031958 -0.006015 -109809.000000 0 0 1
17.231346 8.627632 -30.546326 36.116940 0.464203 2.578788 0.025503 -0.000400 1039930.000000 0 0 1
16.058746 9.263132 -31.116736 36.220715 0.523207 2.604279 0.015796 0.000235 680423.000000 0 0 1
15.615846 8.862632 -32.525446 37.152463 0.516211 2.637180 -0.003341 0.010301 100773.000000 0 0 1
14.904246 7.626032 -32.593996 36.642346 0.472939 2.667084 -0.001265 0.012042 281210.000000 0 0 1
13.634146 7.810932 -33.212766 36.742189 0.520251 2.699693 -0.009412 0.011425 403473.000000 0 0 1
12.966246 6.469632 -33.611626 36.602201 0.462815 2.734549 -0.008653 0.010170 -49196.700000 0 0 1
12.578746 5.670732 -32.486646 35.295385 0.423534 2.739955 -0.001320 0.006696 104938.000000 0 0 1
11.970246 4.503732 -32.994246 35.386306 0.359861 2.771798 0.006227 -0.001137 138005.000000 0 0 1
11.575646 3.363632 -32.007176 34.201885 0.282791 2.781405 0.021953 0.002079 -109585.000000 0 0 1
12.715046 2.621532 -31.651466 34.210527 0.203327 2.752350 0.020825 -0.004441 67276.000000 0 0 1
12.508146 1.661432 -30.577296 33.078469 0.132055 2.750221 0.030367 -0.003544 -131621.000000 0 0 1
11.874346 0.337332 -30.999956 33.198060 0.028401 2.775654 0.040242 -0.000907 210844.000000 0 0 1
12.718346 -0.457668 -31.826676 34.276860 -0.035969 2.761197 0.041480 -0.007664 730814.000000 0 0 1
13.593846 -1.391668 -31.143676 34.009674 -0.102019 2.728117 0.038989 -0.007701 743598.000000 0 0 1
14.003946 -2.630568 -31.947246 34.980808 -0.185681 2.722060 0.044877 -0.011812 281141.000000 0 0 1
12.930746 -3.536568 -32.151096 34.833956 -0.266972 2.746553 0.045358 -0.014288 193675.000000 0 0 1
13.316246 -4.592468 -32.981006 35.863072 -0.332104 2.737951 0.054722 -0.019081 203269.000000 0 0 1
12.495546 -5.932068 -32.811056 35.607492 -0.443232 2.742631 0.046761 -0.006309 -125905.000000 0 0 1
12.840746 -6.616368 -31.688366 34.825474 -0.475784 2.713885 0.043460 -0.004816 -164827.000000 0 0 1
12.151246 -7.810368 -31.482406 34.638079 -0.571271 2.711425 0.053442 -0.009471 -504275.000000 0 0 1
12.646246 -8.655068 -30.336886 33.987710 -0.600178 2.673840 0.036771 -0.002346 -312165.000000 0 0 1
14.026846 -8.952768 -30.422546 34.676156 -0.568077 2.641073 0.042223 -0.002299 -54044.000000 0 0 1
14.540146 -9.477268 -29.237006 34.000544 -0.577640 2.605867 0.045684 0.005996 -100204.000000 0 0 1
14.285946 -11.013068 -29.002966 34.154765 -0.656745 2.585195 0.027007 0.011368 -59419.600000 0 0 1
12.985546 -11.468968 -28.671966 33.499900 -0.723461 2.598050 0.017452 0.011212 146786.000000 0 0 1
12.871246 -12.852868 -28.885086 34.135222 -0.784684 2.579602 0.014091 0.004656 67998.500000 0 0 1
-9.702154 -3.175068 -17.650406 20.389940 0.316269 2.617229 0.000636 -0.002411 -32752.600000 0 1 0
-10.475554 -2.813868 -18.733806 21.647415 0.262418 2.616757 0.005831 -0.005753 -362618.000000 0 1 0
-11.305054 -3.818668 -19.240806 22.640563 0.325751 2.586474 0.003884 -0.002536 15925.200000 0 1 0
-12.219154 -3.280568 -20.413606 24.016352 0.262292 2.586758 0.015837 -0.012019 85362.300000 0 1 0
-13.150954 -2.308468 -19.944706 24.001415 0.173766 2.551664 0.009468 -0.010852 -18915.000000 0 1 0
-13.885754 -1.810868 -21.020506 25.257772 0.129680 2.553931 0.004088 -0.008639 72920.700000 0 0 1
-14.763854 -0.580768 -20.652206 25.393351 0.039317 2.520584 0.019872 -0.005639 1533.960000 0 0 1
-14.184454 0.627532 -21.048406 25.389524 -0.044212 2.548148 0.021648 -0.013752 338605.000000 0 0 1
-15.055854 1.754332 -20.781906 25.722442 -0.115998 2.511425 0.023512 -0.011890 341447.000000 0 0 1
-14.617754 3.103232 -21.451806 26.143618 -0.209186 2.533146 0.041023 -0.015587 -237500.000000 0 0 1
-13.426354 3.638332 -20.956906 25.153456 -0.264629 2.555597 0.042242 -0.009648 -181770.000000 0 0 1
-13.200254 4.827032 -21.627906 25.793667 -0.350572 2.565315 0.046999 -0.016458 -1095810.000000 0 0 1
-12.103154 5.643532 -21.048306 24.927233 -0.436315 2.576222 0.036358 -0.012099 -1129110.000000 0 1 0
-12.406654 6.129132 -19.747706 24.113548 -0.458852 2.530369 0.048745 -0.019902 -66443.800000 0 1 0
-11.282654 6.537732 -19.022806 23.063117 -0.525172 2.540671 0.024499 -0.014497 -549173.000000 0 1 0
-11.510654 7.176832 -17.657906 22.266650 -0.557516 2.486547 0.045308 -0.015538 -211941.000000 0 1 0
-11.743954 8.578132 -17.700906 22.909100 -0.630858 2.453814 0.025510 -0.017218 -217395.000000 0 1 0
-12.945454 8.828832 -17.047806 23.155145 -0.598545 2.398298 0.039687 -0.005094 -719362.000000 0 1 0
-13.368454 10.301632 -16.925006 23.901778 -0.656551 2.357609 0.031815 0.000302 -229470.000000 0 1 0
-12.721654 11.019832 -15.919706 23.167093 -0.713839 2.328381 0.009988 0.000579 335161.000000 0 1 0
-13.173554 12.368932 -16.149306 24.234956 -0.753907 2.300118 0.010784 -0.003119 -274734.000000 0 1 0
-12.431954 13.378132 -15.306706 23.829040 -0.822041 2.268364 0.015128 0.004834 -685568.000000 0 1 0
-12.643454 13.318332 -13.897106 23.029643 -0.811387 2.218610 0.037987 -0.001891 -68439.100000 0 1 0
-12.182054 14.503732 -13.364006 23.180969 -0.872180 2.185244 0.033475 -0.004082 -1159650.000000 0 1 0
-12.710254 14.795332 -11.990006 22.895690 -0.861059 2.121961 0.033700 -0.005515 1442690.000000 0 1 0
-14.060454 15.348932 -11.887406 23.970742 -0.829182 2.089682 0.025490 0.003641 1594510.000000 0 1 0
-15.098854 14.455932 -12.192806 24.199460 -0.763648 2.098842 0.021316 0.009917 -1350140.000000 0 1 0
-16.486154 14.741732 -11.646606 24.995107 -0.729595 2.055510 0.005978 0.021458 -349882.000000 0 1 0
-17.448354 13.855832 -12.219006 25.411282 -0.671136 2.072420 0.002003 0.014202 -521817.000000 0 0 1
-18.654954 14.127932 -11.585806 26.112002 -0.648175 2.030516 0.035630 0.006210 -643925.000000 0 0 1
-19.895854 13.515632 -12.293106 27.011808 -0.596711 2.043282 0.037895 -0.002214 -47088.200000 0 0 1
-19.990554 12.117032 -12.366106 26.445515 -0.544920 2.057378 0.033002 0.005979 619367.000000 0 0 1
-21.195854 11.685932 -13.003306 27.475647 -0.503865 2.063792 0.064233 0.002872 384210.000000 0 0 1
-21.907554 10.518032 -12.304306 27.239050 -0.447609 2.039484 0.058971 -0.000593 -113726.000000 0 0 1
-21.100154 9.370232 -12.273306 26.146735 -0.417923 2.059409 0.045986 -0.003699 362230.000000 0 0 1
-21.731054 8.404932 -11.468106 25.969194 -0.369050 2.028182 0.048467 -0.000106 149058.000000 0 0 1
-20.774554 7.201432 -11.233606 24.690820 -0.333684 2.043136 0.051632 -0.009860 113864.000000 0 1 0
-20.907854 6.254132 -12.280606 25.041282 -0.290657 2.083362 0.073125 -0.009844 432740.000000 0 0 1
-19.637554 5.759632 -12.649306 24.058508 -0.285296 2.124420 0.057652 -0.017105 27981.700000 0 1 0
-19.755854 4.614232 -13.692706 24.476010 -0.229450 2.164499 0.060967 -0.024371 -158145.000000 0 1 0
-20.183554 3.358132 -13.214506 24.357259 -0.164869 2.144240 0.056189 -0.026038 263159.000000 0 1 0
-20.066354 2.388432 -14.272706 24.740115 -0.118469 2.185731 0.056609 -0.029530 19193.700000 0 1 0
-20.894754 1.034632 -14.074906 25.214364 -0.049476 2.163023 0.056025 -0.020460 275519.000000 0 0 1
-22.242854 1.144232 -14.483706 26.567490 -0.051397 2.147384 0.041258 -0.015890 234209.000000 0 0 1
-22.795454 -0.181568 -14.445906 26.987958 0.007965 2.135626 0.039468 -0.022908 -132805.000000 0 0 1
-24.228554 -0.322568 -15.016106 28.506320 0.013313 2.125585 0.045326 -0.017488 160314.000000 0 0 1
-25.135084 0.396932 -14.187906 28.865666 -0.015791 2.084625 0.051635 -0.024369 -345646.000000 0 0 1
-26.349314 0.611432 -14.842806 30.248456 -0.023201 2.083685 0.035953 -0.015920 -219214.000000 0 0 1
-27.553244 0.886132 -13.914806 30.880225 -0.032150 2.038240 0.036542 0.000270 22278.000000 0 0 1
-27.926224 -0.252468 -13.128506 30.859283 0.009040 2.010235 0.037292 -0.010410 139885.000000 0 0 1
-29.156064 0.047732 -12.494606 31.720553 -0.001637 1.975663 0.047769 -0.010944 128003.000000 0 0 1
-29.290524 -0.805168 -11.203806 31.370501 0.027482 1.936005 0.050222 -0.016654 -337628.000000 0 0 1
-29.580764 -2.178768 -11.271806 31.730462 0.073522 1.933963 0.050710 -0.012432 371823.000000 0 0 1
-28.612314 -2.967768 -11.929106 31.141222 0.103354 1.963908 0.046056 -0.019218 -422253.000000 0 0 1
-28.626754 -4.436968 -11.407406 31.133689 0.153770 1.945934 0.046164 -0.015584 -385918.000000 0 0 1
-29.741444 -5.233568 -11.722006 32.393659 0.174186 1.941060 0.051380 -0.015630 -50552.700000 0 0 1
-29.811004 -6.563868 -11.131806 32.491497 0.216725 1.920486 0.058015 -0.017976 90084.400000 0 0 1
-29.010414 -7.764768 -11.780506 32.259511 0.261524 1.944622 0.069412 -0.019298 175502.000000 0 0 1
-27.630624 -7.730368 -11.518806 30.917517 0.272800 1.952569 0.045666 -0.014504 -444930.000000 0 0 1
-26.970764 -8.746268 -12.209306 30.870479 0.313587 1.977410 0.065473 -0.014519 -39927.500000 0 0 1
-25.446154 -8.758068 -11.935406 29.439164 0.331481 1.988241 0.064774 -0.019395 -258060.000000 0 0 1
-24.812454 -7.571168 -12.342706 28.728432 0.296162 2.014884 0.048656 -0.013684 1234810.000000 0 0 1
-23.451854 -7.365768 -11.886406 27.304407 0.304324 2.021200 0.037207 -0.020522 942970.000000 0 0 1
-23.210154 -7.160368 -10.339006 26.398431 0.299238 1.973223 0.019227 -0.017330 -494431.000000 0 0 1
-23.644254 -5.956468 -9.714306 26.246866 0.246785 1.949927 0.019940 -0.008653 1123230.000000 0 0 1
-25.080264 -5.895768 -9.591306 27.491323 0.230884 1.927177 0.026452 -0.014323 514164.000000 0 0 1
-25.530424 -4.568368 -8.920206 27.427041 0.177064 1.902055 0.027002 -0.015052 -420254.000000 0 0 1
-25.538644 -4.570768 -7.480006 27.001199 0.177100 1.851493 0.027160 -0.015308 555719.000000 0 0 1
-25.872004 -3.228568 -7.128306 27.029557 0.124148 1.837676 0.033904 -0.015203 -128102.000000 0 0 1
-25.715334 -3.006868 -5.604706 26.490232 0.116400 1.783984 0.032234 -0.016730 -116235.000000 0 0 1
-24.400454 -3.167868 -5.102906 25.128812 0.129106 1.775288 0.027557 -0.007821 299167.000000 0 0 1
-24.310954 -2.709668 -3.748606 24.747057 0.111001 1.722859 0.015445 -0.002867 489867.000000 0 1 0
-22.922654 -3.093468 -3.138706 23.342431 0.134142 1.705668 0.004722 -0.000417 449512.000000 0 1 0
-22.770154 -4.492468 -2.903206 23.389972 0.194795 1.695239 0.010834 0.003680 -98905.400000 0 1 0
-21.478254 -4.806768 -2.490806 22.150045 0.220169 1.683486 0.013482 0.005474 -840420.000000 0 1 0
-21.278054 -6.317068 -2.501906 22.336527 0.288594 1.683041 0.020711 0.004755 30387.300000 0 1 0
-22.157954 -7.063068 -1.667506 23.316141 0.308578 1.642375 0.033377 0.004795 654729.000000 0 1 0
-21.976454 -8.424268 -1.958006 23.617083 0.366055 1.653798 -0.000543 0.004598 210202.000000 0 1 0
-22.725954 -9.371068 -0.987306 24.602046 0.391108 1.610938 0.010226 0.002744 22746.500000 0 1 0
-21.873854 -9.747568 0.085794 23.947608 0.419211 1.567214 0.008074 0.007114 218935.000000 0 1 0
-22.454754 -10.612868 1.009394 24.856947 0.441516 1.530177 0.014014 0.011396 16833.600000 0 1 0
-21.424954 -11.376868 1.900494 24.332563 0.488147 1.492612 0.024767 0.011515 535371.000000 0 1 0
-20.594454 -12.287168 1.175694 24.010170 0.537934 1.521810 0.025069 0.013290 -201657.000000 0 1 0
-19.486654 -12.599268 1.937094 23.285694 0.573952 1.487512 0.015582 0.009232 -164496.000000 0 1 0
-18.553354 -13.732168 1.339694 23.121292 0.637164 1.512822 0.009963 0.012918 142518.000000 0 1 0
-19.243954 -14.959168 1.313894 24.409686 0.660773 1.516944 0.008625 0.010345 87855.100000 0 1 0
-18.684554 -15.983568 0.519294 24.593834 0.707645 1.549680 0.005041 0.004156 626779.000000 0 1 0
-17.431854 -16.701368 1.180694 24.170214 0.764000 1.521928 0.012889 0.003188 954023.000000 0 1 0
-16.197254 -15.990168 1.062394 22.785196 0.778965 1.524153 0.016503 -0.001035 1063720.000000 0 1 0
-15.021254 -16.558668 1.661094 22.418447 0.834043 1.496633 0.024813 -0.007176 876921.000000 0 1 0
-15.014554 -16.722268 3.181794 22.697905 0.839155 1.430153 0.024027 0.003518 -422717.000000 0 1 0
-14.841554 -15.461268 3.872494 21.778860 0.805846 1.392036 0.024199 -0.001662 -242342.000000 0 1 0
-14.200454 -15.594168 5.105394 21.700138 0.832141 1.333300 0.020695 0.007653 -374887.000000 0 1 0
-15.042354 -15.973768 6.335794 22.838037 0.815419 1.289686 0.015531 0.001725 -1080390.000000 0 1 0
-15.531854 -14.811368 7.011394 22.578192 0.761658 1.255037 0.018503 0.000198 132884.000000 0 1 0
-15.792154 -15.041868 8.388094 23.366858 0.761070 1.203628 0.018755 0.001853 57298.300000 0 1 0
-16.617654 -16.327568 8.856694 24.923421 0.776593 1.207501 0.013820 0.004456 -253768.000000 0 1 0
-16.108254 -17.642668 8.544494 25.372188 0.830830 1.227316 0.015640 0.007396 -501740.000000 0 0 1
-16.787554 -18.703768 9.095794 26.728007 0.839337 1.223550 0.025026 -0.001293 -398792.000000 0 0 1
-16.444254 -18.923368 10.616994 27.225501 0.855379 1.170203 0.024452 -0.001396 333438.000000 0 0 1
-15.089654 -19.296368 10.811694 26.775739 0.907131 1.155144 0.025728 -0.003030 65139.400000 0 0 1
-14.780854 -19.513668 12.146794 27.327669 0.922537 1.110195 0.023159 -0.010458 -143477.000000 0 0 1
-13.423954 -20.185068 12.375694 27.217592 0.983918 1.098767 0.017596 -0.005123 -104558.000000 0 0 1
-12.301654 -19.378868 12.125094 25.959374 1.005183 1.084811 0.011298 -0.011848 328410.000000 0 0 1
-11.069054 -20.116868 12.236194 26.018009 1.067771 1.081169 0.008010 -0.007675 1271960.000000 0 0 1
-9.798054 -19.361768 12.701094 25.143542 1.102319 1.041248 0.007426 -0.011709 508925.000000 0 0 1
-9.170454 -18.601368 11.678994 23.801408 1.112765 1.057921 -0.005926 -0.012411 158644.000000 0 1 0
-8.012454 -17.966468 12.254094 23.176631 1.151301 1.013697 -0.006748 -0.009723 492773.000000 0 1 0
-7.222054 -17.193568 11.194694 21.750816 1.173131 1.030163 -0.006509 -0.013891 -155764.000000 0 1 0
-6.590954 -18.060768 10.299994 21.811050 1.220881 1.078969 -0.005706 -0.010018 -563016.000000 0 1 0
-5.994954 -17.409768 9.216094 20.590675 1.239169 1.106733 0.000906 -0.007112 -25839.600000 0 1 0
-4.855654 -18.230968 8.545094 20.711451 1.310498 1.145514 -0.003391 -0.002196 1311830.000000 0 1 0
-3.563054 -18.191368 9.202594 20.695626 1.377380 1.109998 0.018340 -0.005807 513925.000000 0 1 0
-2.645254 -18.861368 8.363294 20.801280 1.431458 1.157034 0.020857 -0.007087 -399103.000000 0 1 0
-1.294854 -19.050968 9.035694 21.124862 1.502933 1.128819 0.023070 -0.013069 -580158.000000 0 1 0
-0.311754 -19.638268 8.205894 21.286039 1.554923 1.175040 0.037575 -0.002881 -150514.000000 0 1 0
0.825246 -19.820168 9.043194 21.801363 -1.529184 1.143074 0.036054 -0.001994 -556909.000000 0 1 0
2.052146 -20.302668 8.305194 22.031475 -1.470061 1.184274 0.048221 -0.019964 -665215.000000 0 1 0
2.036346 -21.652668 7.834094 23.116180 -1.477026 1.225048 0.036935 -0.006743 -146661.000000 0 1 0
2.196346 -22.615868 8.917894 24.409634 -1.473985 1.196795 0.035116 -0.006276 -145973.000000 0 1 0
1.904546 -24.016768 8.373894 25.505971 -1.491661 1.236281 0.014838 0.006541 110494.000000 0 0 1
1.853046 -25.070258 9.326994 26.813139 -1.497016 1.215518 0.009938 0.007175 -115653.000000 0 0 1
1.316246 -26.228878 8.734894 27.676433 -1.520655 1.249699 0.006967 0.006704 -673522.000000 0 0 1
1.392146 -27.449648 9.682494 29.140555 -1.520123 1.232088 0.017108 0.006446 259994.000000 0 0 1
0.623746 -27.358348 10.883894 29.450423 -1.548001 1.192254 0.019976 0.002868 -781349.000000 0 0 1
-0.721054 -27.634948 10.668194 29.631413 1.544710 1.202496 0.014425 0.006410 -967562.000000 0 0 1
-1.475154 -27.871688 11.975494 30.371360 1.517919 1.165488 0.024268 -0.004239 -313217.000000 0 0 1
-0.985854 -28.956438 12.708094 31.637681 1.536763 1.157450 0.018392 -0.009868 -197076.000000 0 0 1
-0.914054 -28.779978 14.108694 32.065213 1.539047 1.115198 0.021668 -0.011136 -136969.000000 0 0 1
-0.522154 -29.997378 14.979694 33.533663 1.553391 1.107716 0.017565 -0.008749 149114.000000 0 0 1
-0.803054 -29.676828 16.351294 33.892829 1.543743 1.067357 0.019424 -0.010189 112855.000000 0 0 1
-0.402054 -30.701658 17.215194 35.201085 1.557702 1.059793 0.017788 -0.007586 -198395.000000 0 0 1
-0.890254 -30.456958 18.673794 35.736948 1.541575 1.020975 0.014095 -0.007981 -1006050.000000 0 0 1
-2.256754 -30.484458 18.839394 35.907073 1.496901 1.018468 0.016254 -0.004090 -1033020.000000 0 0 1
-2.532254 -30.273378 20.176994 36.469176 1.487344 0.984522 0.016690 -0.005199 -160972.000000 0 0 1
-3.991754 -30.470068 20.602794 36.997760 1.440532 0.980189 0.022781 -0.010668 -818821.000000 0 0 1
-4.977554 -29.742308 19.956094 36.161120 1.404977 0.986196 0.022078 -0.017393 272014.000000 0 0 1
-6.149254 -29.367958 20.688894 36.446133 1.364392 0.967140 0.019823 -0.017415 638899.000000 0 0 1
-6.024554 -28.269248 21.752394 36.174746 1.360824 0.925651 0.017783 -0.020327 -556863.000000 0 0 1
-5.197354 -28.725768 22.809894 37.046909 1.391803 0.907518 0.017740 -0.020052 101987.000000 0 0 1
-4.994254 -27.691688 23.761294 36.828946 1.392362 0.869538 0.016562 -0.020317 -412443.000000 0 0 1
-3.872354 -28.081458 24.717194 37.609880 1.433763 0.853699 0.027184 -0.018745 -178416.000000 0 0 1
-4.222454 -29.202128 25.532694 39.019378 1.427198 0.857461 0.026292 -0.015542 245229.000000 0 0 1
-3.501254 -30.348638 25.141594 39.565115 1.455936 0.882207 0.025446 -0.013160 39299.900000 0 0 1
-3.817554 -31.462858 26.184494 41.110982 1.450051 0.880297 0.029101 -0.007294 84985.600000 0 0 1
-3.396654 -31.231958 27.504794 41.755073 1.462466 0.851684 0.038650 -0.018182 72910.200000 0 0 1
-3.773754 -32.289208 28.369394 43.146920 1.454451 0.853291 0.033035 -0.011147 -133549.000000 0 0 1
-3.165754 -32.104768 29.768894 43.896756 1.472507 0.825544 0.050735 -0.018431 396812.000000 0 0 1
-1.754654 -32.216478 29.925794 44.006061 1.516386 0.822982 0.056397 -0.017059 690753.000000 0 0 1
-1.304554 -32.032408 31.268494 44.782762 1.530093 0.797880 0.059657 -0.020772 -166545.000000 0 0 1
-27.568854 3.231432 -10.658306 29.733539 -0.116681 1.937415 0.055147 -0.002565 -263288.000000 0 0 1
-28.560234 3.149332 -11.639006 31.001156 -0.109826 1.955665 0.051662 -0.023247 -346836.000000 0 0 1
-29.484944 4.211532 -11.584406 31.957743 -0.141877 1.941736 0.039582 -0.008685 -58326.400000 0 0 1
-30.526394 4.060932 -12.711606 33.315714 -0.132254 1.962269 0.038314 -0.007542 -49666.500000 0 0 1
-31.351354 2.890232 -12.568406 33.900231 -0.091929 1.950609 0.046745 -0.010797 418909.000000 0 0 1
-32.066794 2.677732 -13.802806 35.013811 -0.083312 1.976005 0.038091 -0.004841 -182439.000000 0 0 1
-33.163314 1.645932 -13.585506 35.875903 -0.049590 1.959167 0.039925 -0.012746 -446545.000000 0 0 1
-32.620534 0.420432 -13.246406 35.209988 -0.012888 1.956500 0.046420 -0.012016 -147431.000000 0 0 1
-33.607694 -0.506968 -12.878306 35.994234 0.015084 1.936694 0.053360 -0.013105 -141313.000000 0 0 1
-33.081494 -1.897068 -12.563006 35.437455 0.057283 1.933189 0.038536 -0.015378 -111025.000000 0 0 1
-33.025744 -2.763768 -13.644906 35.840223 0.083491 1.961366 0.043301 -0.012563 194240.000000 0 0 1
-32.826394 -4.103368 -13.161606 35.603899 0.124357 1.949448 0.046271 -0.011915 14943.900000 0 0 1
-33.112014 -5.229068 -14.203606 36.407294 0.156627 1.971570 0.048963 -0.015428 17876.800000 0 0 1
-32.881704 -6.526068 -13.653406 36.196844 0.195925 1.957566 0.049462 -0.018624 162732.000000 0 0 1
-33.320584 -7.611368 -14.433306 37.101409 0.224575 1.970367 0.051530 -0.011394 -636807.000000 0 0 1
-33.101454 -8.920968 -13.670506 36.907623 0.263249 1.950234 0.044998 -0.014952 84772.100000 0 0 1
-31.741294 -9.234268 -13.379206 35.662089 0.283108 1.955372 0.052108 -0.018129 535508.000000 0 0 1
-31.136854 -9.837868 -14.518506 35.736177 0.306030 1.989164 0.051984 -0.021936 -481180.000000 0 0 1
-30.074474 -10.891868 -14.158706 34.979647 0.347469 1.987523 0.051024 -0.027438 187602.000000 0 0 1
-30.670394 -12.066968 -13.634506 35.667696 0.374839 1.963042 0.051848 -0.023427 894709.000000 0 0 1
-29.605544 -13.000868 -13.465106 35.025988 0.413783 1.965389 0.067054 -0.020522 267947.000000 0 0 1
-29.925714 -14.346368 -14.163206 36.082725 0.447032 1.974167 0.071427 -0.015228 -236569.000000 0 0 1
-29.943504 -14.269068 -15.526506 36.623655 0.444698 2.008596 0.062436 -0.016761 232201.000000 0 0 1
-30.191934 -15.437468 -16.253106 37.603613 0.472655 2.017752 0.062841 -0.018530 -556687.000000 0 0 1
-29.072484 -16.501968 -16.135806 37.119920 0.516266 2.020495 0.057033 -0.012391 1308620.000000 0 0 1
-27.809994 -16.033968 -16.704206 36.187213 0.523001 2.050600 0.048468 -0.019011 1563390.000000 0 0 1
-26.804904 -17.075268 -16.682906 35.894108 0.567196 2.054184 0.046396 -0.017754 158174.000000 0 0 1
-25.402844 -16.665068 -17.085506 34.856039 0.580604 2.083085 0.055702 -0.021759 -506778.000000 0 0 1
-25.208914 -16.542468 -18.477506 35.363269 0.580732 2.120583 0.056938 -0.020532 -188457.000000 0 0 1
-23.912554 -16.148368 -18.872706 34.478385 0.593962 2.150024 0.040485 -0.009261 -394657.000000 0 0 1
-23.771054 -15.634568 -20.370506 34.992288 0.581779 2.192158 0.040905 -0.005463 135704.000000 0 0 1
-24.291754 -16.541368 -21.352406 36.326731 0.597823 2.199118 0.036855 -0.014740 679243.000000 0 0 1
-25.707924 -16.577568 -21.462906 37.368027 0.572741 2.182625 0.043924 -0.020103 95037.600000 0 0 1
-26.151484 -17.905768 -22.204806 38.698450 0.600380 2.181923 0.046587 -0.019210 -122159.000000 0 0 1
-25.645264 -18.042868 -23.522306 39.198514 0.613108 2.214399 0.042964 -0.010476 289302.000000 0 0 1
-26.171284 -19.258068 -24.091806 40.450271 0.634382 2.208797 0.035299 -0.021723 39059.300000 0 0 1
-25.580624 -19.707368 -25.495636 41.143360 0.656431 2.239129 0.034759 -0.029856 1146350.000000 0 0 1
-24.179254 -20.031168 -25.497696 40.447701 0.691846 2.252848 0.034235 -0.021255 971019.000000 0 0 1
-23.792654 -21.369268 -25.043506 40.619123 0.731790 2.235143 0.035951 -0.018074 422046.000000 0 0 1
-22.261354 -21.658968 -25.106346 39.937543 0.771684 2.250600 0.039752 0.000549 629352.000000 0 0 1
-21.906954 -21.655568 -26.514346 40.643435 0.779628 2.281497 0.040983 -0.007496 286258.000000 0 0 1
-20.498954 -21.626468 -26.709536 40.016378 0.812157 2.301596 0.030264 -0.003344 290763.000000 0 0 1
-20.249154 -21.419968 -28.233966 40.816664 0.813489 2.334673 0.033017 -0.002769 -406017.000000 0 0 1
-20.639954 -22.541668 -29.000626 42.132776 0.829410 2.329960 0.066972 -0.012603 -26023.800000 0 0 1
-20.732454 -22.221468 -30.346936 42.948397 0.820050 2.355465 0.060706 -0.023767 -244935.000000 0 0 1
-19.474354 -22.482368 -31.205426 43.110160 0.856969 2.380167 0.061299 -0.030515 109481.000000 0 0 1
-19.496154 -23.803368 -31.653196 44.143234 0.884547 2.370367 0.068457 -0.041479 -387588.000000 0 0 1
-18.437854 -23.955368 -32.532446 44.409167 0.914822 2.392874 0.073536 -0.046021 -1104560.000000 0 0 1
-18.727554 -24.944468 -33.690736 45.913107 0.926803 2.394685 0.075766 -0.027671 76118.000000 0 0 1
-17.830754 -24.991738 34.062791 45.856259 0.951090 0.733529 0.068238 -0.034065 -38435.000000 0 0 1
-18.476954 -24.625268 32.876440 45.040670 0.927087 0.752580 0.055993 -0.032477 -660579.000000 0 0 1
-17.525854 -24.676368 31.668198 43.805861 0.953239 0.762775 0.049736 -0.023496 -94533.000000 0 0 1
-16.966154 -23.406368 31.480548 42.740301 0.943585 0.742835 0.038029 -0.024742 -222837.000000 0 0 1
-16.238254 -23.287168 30.274288 41.503079 0.961882 0.753283 0.039191 -0.021489 -188820.000000 0 0 1
-15.461554 -21.977368 30.172808 40.403746 0.957711 0.727585 0.022449 -0.019380 -444732.000000 0 0 1
-16.247654 -20.791768 30.007488 39.959144 0.907471 0.721290 0.025631 -0.018855 -323607.000000 0 0 1
-15.585854 -19.554868 30.054898 39.097424 0.897868 0.693962 0.028263 -0.017119 -397640.000000 0 0 1
-14.932154 -19.045468 31.356958 39.610073 0.905871 0.657306 0.025862 -0.018045 50734.300000 0 0 1
-14.474354 -17.735268 31.129498 38.640553 0.886295 0.634080 0.020547 -0.011272 -104366.000000 0 0 1
-13.969454 -17.158168 32.343648 39.187497 0.887482 0.599963 0.025144 -0.020750 72888.800000 0 0 1
-13.389554 -15.738468 32.065968 38.147160 0.865865 0.572432 0.028200 -0.022941 100680.000000 0 0 1
-12.302954 -15.701168 31.151178 36.990340 0.906155 0.569550 0.027289 -0.020198 -57578.000000 0 0 1
-12.010354 -14.354668 30.826218 36.063289 0.874083 0.545667 0.025211 -0.022085 62082.500000 0 0 1
-10.513354 -14.077368 30.562788 35.253183 0.929329 0.521744 0.031917 -0.016935 110308.000000 0 0 1
-10.254454 -12.741768 30.476248 34.587688 0.893141 0.492550 0.027249 -0.017700 -670075.000000 0 0 1
-8.929854 -12.512268 30.843568 34.461933 0.950943 0.462356 0.027912 -0.017239 -545336.000000 0 0 1
-8.550254 -11.003968 30.866138 33.866099 0.910228 0.424082 0.028736 -0.014904 -382030.000000 0 0 1
-9.139354 -10.286068 31.946068 34.783362 0.844361 0.406704 0.019860 -0.011748 135143.000000 0 0 1
-8.868754 -8.911368 31.985268 34.367494 0.787795 0.374519 0.013402 -0.012922 -223006.000000 0 0 1
-9.909654 -8.134668 32.831954 35.246436 0.687346 0.372289 0.007654 -0.005416 529644.000000 0 0 1
-11.252354 -8.111068 32.317198 35.168255 0.624571 0.405435 0.010748 -0.008586 640960.000000 0 0 1
-12.180654 -7.585168 33.237836 36.202995 0.556960 0.407546 0.013624 -0.011186 -177197.000000 0 0 1
-12.104254 -6.055468 33.629494 36.250856 0.463868 0.382624 0.017393 -0.014024 -681825.000000 0 0 1
-12.102654 -5.168568 32.516488 35.078631 0.403615 0.384570 0.002178 -0.009833 132968.000000 0 0 1
-12.198454 -3.858368 32.973755 35.368882 0.306343 0.370127 0.005527 -0.009580 -309246.000000 0 0 1
-11.714454 -2.753868 32.034928 34.220591 0.230891 0.359337 -0.006386 0.000396 -10933.600000 0 0 1
-10.317554 -2.559068 32.001948 33.721290 0.243124 0.320706 0.006942 -0.007308 -24968.300000 0 0 1
-9.980454 -1.420168 31.215548 32.803000 0.141346 0.312375 0.001589 -0.000368 308176.000000 0 0 1
-8.470854 -1.067468 31.357518 32.499058 0.125356 0.265830 0.028390 -0.001256 393071.000000 0 0 1
-8.185854 -0.677768 32.690608 33.706727 0.082609 0.246165 0.029314 -0.015018 -629694.000000 0 0 1
-6.811454 -0.463668 32.810286 33.513069 0.067967 0.205154 0.043013 -0.021834 -480335.000000 0 0 1
-6.377154 0.174532 34.135761 34.726773 -0.027362 0.184756 0.051547 -0.031806 -130728.000000 0 0 1
-6.900954 1.498732 34.366041 35.084101 -0.213857 0.202667 0.047431 -0.021513 141021.000000 0 0 1
-6.385154 2.580632 33.549341 34.248915 -0.384089 0.202465 0.052576 -0.016736 -93661.500000 0 0 1
-7.123554 3.920432 33.724470 34.690844 -0.503110 0.236588 0.051736 -0.006997 686579.000000 0 0 1
-8.466054 3.905232 33.217099 34.500733 -0.432196 0.273639 0.027433 0.001412 615175.000000 0 0 1
-9.302454 4.946032 33.684893 35.294063 -0.488678 0.303130 0.011448 0.015583 -13044.300000 0 0 1
-10.453754 5.122432 32.699278 34.709697 -0.455623 0.342020 -0.003314 0.016148 -81320.800000 0 0 1
-11.379554 6.175432 32.978848 35.429291 -0.497204 0.374103 0.003791 0.012513 434393.000000 0 0 1
-12.272554 6.315432 31.869178 34.729595 -0.475258 0.408702 -0.009346 0.018050 43808.300000 0 0 1
-13.155354 7.554832 31.993068 35.407559 -0.521292 0.442775 -0.010914 0.011054 422041.000000 0 0 1
-14.120454 7.539132 33.083600 36.752555 -0.490411 0.450633 -0.006139 0.018817 618090.000000 0 0 1
-14.693054 8.816732 33.107789 37.279301 -0.540465 0.477599 -0.006089 0.019455 -617302.000000 0 0 1
-15.322354 9.070132 -34.403771 38.738370 -0.534482 2.664004 -0.006874 0.011766 -451026.000000 0 0 1
-14.544654 9.229532 -33.247286 37.444803 -0.565448 2.663559 -0.002388 0.002850 -143445.000000 0 0 1
-15.330354 9.688632 -32.142066 36.905308 -0.563610 2.627895 0.003190 0.005794 -549160.000000 0 0 1
-14.471854 9.889832 -30.856396 35.487470 -0.599487 2.624988 0.012067 -0.001356 570651.000000 0 0 1
-13.630954 11.026832 -30.756906 35.403124 -0.680178 2.623494 0.018803 -0.000121 -155641.000000 0 0 1
-12.456354 11.098032 -31.506556 35.650949 -0.727795 2.654614 0.017351 -0.005782 -698085.000000 0 0 1
-11.780254 12.469232 -31.501136 35.868896 -0.813803 2.642945 0.021403 -0.001257 -363318.000000 0 0 1
-12.442754 13.419632 -32.326406 37.147075 -0.823152 2.626460 0.015257 -0.004368 79697.700000 0 0 1
-11.661554 14.496632 -32.809666 37.717613 -0.893359 2.625748 0.029332 -0.011601 -38971.900000 0 0 1
-11.568354 15.638532 -31.808006 37.284578 -0.933898 2.592722 0.027222 -0.017788 150342.000000 0 0 1
-12.819754 16.279832 -31.865436 38.010328 -0.903747 2.565020 0.025674 -0.015704 187389.000000 0 0 1
-12.755454 17.328432 -30.972666 37.713157 -0.936251 2.534429 0.011702 -0.005482 290088.000000 0 0 1
-14.187854 17.861832 -30.679546 38.230548 -0.899534 2.502249 0.009811 -0.014864 343045.000000 0 0 1
-14.771154 18.601732 -31.771056 39.668771 -0.899679 2.499607 0.022600 -0.021133 837682.000000 0 0 1
-16.087654 19.133132 -31.548576 40.251733 -0.871652 2.471528 0.019843 -0.021086 976147.000000 0 0 1
-16.114754 20.417332 -30.657756 40.205108 -0.902633 2.438017 -0.007562 -0.021649 -183743.000000 0 0 1
-15.484054 21.485632 -31.379946 41.062018 -0.946332 2.440610 0.000725 -0.019366 321513.000000 0 0 1
-15.927654 22.790732 -30.984116 41.630795 -0.960832 2.410222 -0.005758 -0.013940 883860.000000 0 0 1
-17.320254 23.366632 -31.452396 42.839747 -0.932926 2.395265 -0.007961 -0.014858 1301970.000000 0 0 1
-18.457154 22.714932 -30.887666 42.552116 -0.888446 2.383107 0.001551 -0.016854 475871.000000 0 0 1
-19.567054 22.677832 -31.752266 43.650430 -0.858902 2.385353 0.030970 -0.017035 -75715.800000 0 0 1
-20.819854 21.885632 -31.272166 43.478679 -0.810349 2.373523 0.040639 -0.021395 11873.600000 0 0 1
-21.640354 22.558332 -30.322476 43.550382 -0.806165 2.340973 0.081823 -0.022765 654698.000000 0 0 1
-22.571254 23.527732 -30.825986 44.869333 -0.806144 2.328172 0.084119 -0.014855 320764.000000 0 0 1
-23.878554 22.985232 -31.483296 45.713282 -0.766338 2.330508 0.075872 -0.028904 -360206.000000 0 0 1
-23.685054 22.293132 -32.653336 46.089108 -0.755134 2.358142 0.067742 -0.016973 110578.000000 0 0 1
-24.861054 21.897732 -33.341166 47.002298 -0.722108 2.359375 0.074937 -0.015752 101655.000000 0 0 1
-24.527654 21.030132 34.252562 47.086200 -0.708777 0.756207 0.057809 -0.001228 -107478.000000 0 0 1
-24.050554 19.768632 -34.422821 46.412914 -0.687989 2.406345 0.059436 -0.003866 27543.500000 0 0 1
-23.919854 19.024532 33.252917 45.164684 -0.671896 0.743271 0.040247 -0.011441 -230356.000000 0 0 1
-23.567354 17.574132 33.488069 44.561430 -0.640742 0.720458 0.028791 0.004486 593482.000000 0 0 1
-24.677154 16.721132 33.892390 45.135931 -0.595531 0.721379 0.030468 0.006545 1071720.000000 0 0 1
-24.816154 15.543632 33.166306 44.243077 -0.559571 0.723281 0.027024 0.003626 -173531.000000 0 0 1
-25.721554 14.385832 33.648253 44.729805 -0.509948 0.719317 0.017223 0.006070 341705.000000 0 0 1
-27.124964 14.627832 33.733906 45.691504 -0.494572 0.740254 0.020263 0.006363 911460.000000 0 0 1
-27.981124 13.454632 33.801141 45.896487 -0.448208 0.742967 0.027033 0.006192 725303.000000 0 0 1
-27.787874 12.440532 -33.861786 45.536286 -0.420937 2.409268 0.028607 -0.002267 -126827.000000 0 0 1
-26.742534 11.488132 -34.110895 44.840756 -0.405746 2.435205 0.020027 -0.014608 173089.000000 0 0 1
-27.203554 10.187232 34.378572 45.007769 -0.358316 0.701560 0.023436 -0.009903 -735757.000000 0 0 1
-26.162574 9.041132 -34.321507 44.092949 -0.332727 2.462893 0.012733 -0.016566 763395.000000 0 0 1
-25.098224 8.940532 33.595711 42.878034 -0.342207 0.670489 -0.009635 -0.010539 526432.000000 0 0 1
-24.191654 10.011432 33.460998 42.486507 -0.392379 0.663945 -0.012832 -0.010246 -853532.000000 0 0 1
-22.999554 9.545132 32.589948 41.014555 -0.393382 0.652457 -0.002999 -0.005998 -284948.000000 0 0 1
-23.202954 9.515632 31.234868 40.056726 -0.389187 0.676505 -0.001580 -0.004795 584276.000000 0 0 1
-22.006454 9.080032 30.579428 38.753483 -0.391328 0.661494 -0.007810 -0.004078 583602.000000 0 0 1
-22.168554 9.089632 29.025388 37.636941 -0.389118 0.690082 0.001864 -0.005597 -8546.260000 0 0 1
-22.389854 10.335932 28.460818 37.658402 -0.432487 0.713978 -0.003006 -0.006554 172255.000000 0 0 1
-22.179754 10.235532 27.061698 36.456043 -0.432360 0.734285 -0.004167 -0.009667 -721390.000000 0 0 1
-22.478954 11.574432 26.346158 36.515625 -0.475497 0.764825 0.001734 -0.002301 -289800.000000 0 0 1
-23.798754 12.004632 26.412178 37.524592 -0.467180 0.789975 0.008444 0.003056 -620300.000000 0 0 1
-24.758154 11.395332 25.575908 37.375752 -0.431358 0.817165 0.009437 0.009972 13313.100000 0 0 1
-26.178854 11.895932 25.945158 38.729792 -0.426515 0.836720 0.011288 0.013335 48164.200000 0 0 1
-26.339314 13.250632 25.441208 38.943469 -0.466104 0.858880 0.015636 0.012938 261957.000000 0 0 1
-27.448134 13.917032 26.056478 40.323986 -0.469256 0.868230 0.017843 0.013235 545078.000000 0 0 1
-27.903574 15.219032 25.361678 40.662551 -0.499316 0.897315 0.021943 0.006313 -341770.000000 0 0 1
-26.962894 16.223232 25.601718 40.566475 -0.541659 0.887819 0.025372 0.003918 -198003.000000 0 0 1
-27.153474 17.344832 24.745748 40.626425 -0.568440 0.915865 0.020484 0.006529 -245250.000000 0 0 1
-22.059954 -9.259668 32.109008 40.042121 0.397416 0.640360 0.021176 -0.005209 462573.000000 0 0 1
-20.940154 -9.105668 31.208768 38.670278 0.410178 0.631661 0.020143 -0.004932 698953.000000 0 0 1
-21.400554 -9.214768 29.850828 37.867765 0.406592 0.662769 0.011168 -0.000472 324581.000000 0 0 1
-20.341754 -8.766168 28.806948 36.338312 0.406895 0.655500 0.011164 -0.003115 -968974.000000 0 0 1
-20.074154 -7.376868 28.851338 35.913640 0.352162 0.637891 0.010019 -0.000304 959413.000000 0 0 1
-18.781554 -7.014268 29.402818 35.587532 0.357425 0.598448 0.008158 0.005166 1675860.000000 0 0 1
-17.528354 -7.498668 28.537408 34.319919 0.404242 0.588973 0.001859 0.004254 -464548.000000 0 0 1
-17.199554 -8.869368 28.626648 34.553948 0.476108 0.594440 0.001387 0.005121 86675.600000 0 0 1
-16.809854 -9.506368 29.887588 35.583847 0.514683 0.573660 0.000163 -0.001481 -578798.000000 0 0 1
-15.400854 -9.148168 30.368468 35.257895 0.535999 0.532927 0.001339 -0.010390 -413527.000000 0 0 1
-14.366754 -9.659168 29.574228 34.268617 0.591912 0.529594 0.008387 -0.007428 -789924.000000 0 0 1
-13.098754 -9.366868 30.103958 34.140355 0.620786 0.491194 0.011787 -0.016115 -532825.000000 0 0 1
-12.016354 -10.148368 29.407158 33.349109 0.701319 0.491137 0.013875 -0.008550 -906522.000000 0 0 1
-11.782854 -9.734668 28.099258 31.986993 0.690497 0.498169 0.023468 -0.008453 -718510.000000 0 0 1
-10.820854 -10.527968 27.537938 31.404889 0.771680 0.501489 0.022098 -0.011235 -862193.000000 0 0 1
-10.511954 -10.111968 26.091748 29.892012 0.766006 0.509749 0.016044 -0.002166 300484.000000 0 0 1
-11.389654 -10.517168 25.006208 29.421854 0.745592 0.554964 0.008902 -0.000784 333794.000000 0 0 1
-10.924854 -10.114568 23.759218 28.038498 0.746904 0.559768 0.013204 -0.006901 133988.000000 0 0 1
-11.773454 -10.736868 22.587918 27.642514 0.739381 0.614357 0.012191 -0.009755 -237859.000000 0 0 1
-11.716054 -12.177668 22.618618 28.234082 0.804715 0.641648 0.014550 -0.004277 224005.000000 0 0 1
-12.895954 -12.821368 22.202718 28.699369 0.782498 0.686245 0.010491 -0.000917 97009.300000 0 0 1
-14.132454 -12.714468 23.128318 29.938321 0.732630 0.687977 0.015211 0.001931 -1153090.000000 0 0 1
-15.267454 -13.337568 22.652918 30.399680 0.718034 0.730007 0.012713 0.002293 -733483.000000 0 0 1
-16.298554 -13.129168 23.602118 31.544855 0.678111 0.725439 0.015527 0.004094 -645497.000000 0 0 1
-17.518154 -13.958568 23.225218 32.266671 0.672790 0.767297 0.022209 0.001501 -1210090.000000 0 0 1
-17.441254 -15.337768 23.264918 32.874015 0.721314 0.784560 0.025490 -0.000613 -333500.000000 0 0 1
-18.637454 -16.058068 23.185718 33.805233 0.711191 0.815009 0.032294 0.003012 -292977.000000 0 0 1
-19.530254 -16.072568 24.449088 35.178348 0.688583 0.802371 0.025424 0.002876 -302414.000000 0 0 1
-18.931954 -16.849368 25.488968 35.944507 0.727261 0.782547 0.029562 0.001497 204597.000000 0 0 1
-19.658754 -16.823768 26.701628 37.181752 0.707846 0.769673 0.024242 -0.004287 -435549.000000 0 0 1
-19.232054 -17.695468 27.836888 38.182376 0.743811 0.753862 0.029499 -0.006113 -337855.000000 0 0 1
-19.358854 -19.063168 27.590238 38.721968 0.777703 0.777711 0.041108 -0.008665 151287.000000 0 0 1
-19.169754 -19.653368 28.860658 39.833051 0.797854 0.760429 0.034302 -0.012127 -273598.000000 0 0 1
-19.019254 -21.163168 28.739648 40.442293 0.838702 0.780398 0.046373 -0.007494 -222413.000000 0 0 1
-20.244454 -21.789568 28.402288 41.125578 0.822140 0.808446 0.044951 -0.010136 170736.000000 0 0 1
-20.071354 -23.154368 28.084348 41.565787 0.856601 0.828936 0.059323 -0.006223 872316.000000 0 0 1
-21.382054 -23.664268 27.348958 42.013751 0.836019 0.861958 0.058653 -0.005388 759340.000000 0 0 1
-22.385354 -23.935268 28.282718 43.288720 0.818846 0.858794 0.046924 -0.010520 -467776.000000 0 0 1
-23.482154 -24.584168 27.690958 43.847258 0.808321 0.887268 0.031170 -0.005408 -164670.000000 0 0 1
-24.245654 -25.573928 28.574638 45.369455 0.812054 0.889474 0.019492 -0.005972 112597.000000 0 0 1
-25.250064 -24.990788 29.409648 46.119764 0.780238 0.879314 0.008207 -0.001986 556981.000000 0 0 1
-25.768574 -25.927218 30.370308 47.524685 0.788467 0.877543 0.011994 -0.009244 48311.300000 0 0 1
-26.705294 -25.154118 31.338788 48.249580 0.755496 0.863851 0.015123 -0.004060 460362.000000 0 0 1
-27.867014 -24.723168 30.625018 48.225483 0.725689 0.882739 0.011325 -0.001608 454486.000000 0 0 1
-28.843514 -24.121068 31.456288 49.023181 0.696471 0.874134 0.014027 -0.004545 -215041.000000 0 0 1
-30.134294 -23.783468 30.669648 49.136100 0.668151 0.896718 0.017037 -0.007403 -87743.500000 0 0 1
-30.991494 -24.927068 30.758718 50.278526 0.677369 0.912505 0.019217 -0.009199 538346.000000 0 0 1
-32.116754 -24.865368 29.871818 50.419222 0.658821 0.936676 0.010417 -0.013728 -111556.000000 0 0 1
-33.343324 -25.571578 30.367848 51.844855 0.654241 0.944998 0.012255 -0.011733 -658235.000000 0 0 1
-33.064834 -26.957638 30.334788 52.346890 0.683999 0.952687 0.018754 -0.010529 925950.000000 0 0 1
-34.186510 -27.727788 30.822708 53.736273 0.681457 0.959912 0.027240 -0.015810 696026.000000 0 0 1
-33.764724 -29.193038 31.074958 54.386975 0.712910 0.962625 0.033266 -0.021353 -104822.000000 0 0 1
-32.982144 -29.315498 32.224008 54.640708 0.726609 0.940055 0.034820 -0.015336 -42710.700000 0 0 1
-32.440944 -30.602578 32.485328 55.174534 0.756246 0.941255 0.041928 -0.016119 -278788.000000 0 0 1
-31.490054 -30.691548 33.680792 55.389443 0.772557 0.917166 0.038613 -0.014975 -208834.000000 0 0 1
-32.092074 -30.647668 -33.886756 55.834514 0.762380 2.222968 0.026127 -0.004442 -360342.000000 0 0 1
-31.179654 -30.787538 -32.845146 54.761729 0.779070 2.214026 0.016860 -0.008155 -339271.000000 0 0 1
-31.721684 -30.212508 -31.488406 53.949797 0.761036 2.194027 0.000438 -0.010484 -20142.200000 0 0 1
-31.766894 -28.802888 -31.376486 53.134036 0.736502 2.202494 0.003659 -0.007017 171750.000000 0 0 1
-30.503094 -28.168908 -31.289236 51.989830 0.745635 2.216592 0.004087 -0.004716 -6424.130000 0 0 1
-30.761444 -26.591498 -31.247866 51.281608 0.712819 2.226023 -0.006644 0.007674 47336.400000 0 0 1
-31.490174 -26.200828 -30.086876 50.826514 0.693970 2.204275 -0.012112 0.005717 16661.500000 0 0 1
-31.547474 -24.807468 -29.866896 50.026843 0.666364 2.210574 -0.000579 0.005636 209519.000000 0 0 1
-30.404474 -24.168068 -29.019416 48.483544 0.671614 2.212476 0.006176 -0.006042 -29001.900000 0 0 1
-30.292094 -22.800368 -29.006536 47.737269 0.645217 2.223868 0.004001 -0.002299 259611.000000 0 0 1
-29.237534 -22.394168 -28.138766 46.347840 0.653624 2.223229 0.023617 -0.006460 -82144.200000 0 0 1
-29.057384 -20.851468 -28.303086 45.608990 0.622438 2.240252 0.035755 -0.010948 -299002.000000 0 0 1
-28.544454 -20.502768 -29.554016 45.919377 0.622886 2.269998 0.051586 -0.015340 273320.000000 0 0 1
-28.211394 -19.153968 -29.567316 45.132952 0.596454 2.285132 0.049229 -0.019670 -366617.000000 0 0 1
-27.592714 -18.669868 -30.890816 45.433075 0.594864 2.318449 0.065316 -0.015858 -176229.000000 0 0 1
-28.387444 -18.698168 -32.058266 46.724735 0.582451 2.326923 0.055935 -0.015767 -70038.100000 0 0 1
-29.243464 -17.581568 -32.060416 46.820529 0.541311 2.325059 0.048666 -0.014759 -747175.000000 0 0 1
-29.682504 -17.064468 -33.461736 47.874157 0.521759 2.344727 0.054929 -0.018415 -125311.000000 0 0 1
-30.735684 -17.675768 -34.168325 49.240120 0.521902 2.337705 0.051800 -0.018077 1234710.000000 0 0 1
-32.033884 -17.261568 -33.641136 49.556609 0.494245 2.316982 0.044258 -0.014909 1318030.000000 0 0 1
-33.167884 -17.756068 34.232526 50.865040 0.491518 0.832530 0.049402 -0.021782 127564.000000 0 0 1
-33.391134 -19.089868 34.165200 51.445620 0.519354 0.844503 0.028401 -0.020463 -69196.100000 0 0 1
-34.302113 -19.340868 33.124336 51.458000 0.513406 0.871452 0.029388 -0.021850 -625048.000000 0 0 1
-34.874363 -20.769668 33.084660 52.365972 0.537146 0.886927 0.011767 -0.021542 150169.000000 0 0 1
-33.844314 -21.740268 33.095585 52.090254 0.570986 0.882334 0.028030 -0.020089 77407.400000 0 0 1
-34.360002 -22.894568 33.736587 53.319117 0.587759 0.885723 0.020371 -0.013820 -1134740.000000 0 0 1
-33.345824 -24.056068 33.873367 53.273289 0.624952 0.881698 0.022598 -0.010793 1035490.000000 0 0 1
-32.242224 -23.815368 -34.086824 52.617909 0.636190 2.275513 0.008993 -0.009195 980563.000000 0 0 1
-31.312654 -22.799868 34.405795 51.808059 0.629361 0.844505 0.014684 -0.008463 -871947.000000 0 0 1
-30.039554 -22.669868 -33.579746 50.437060 0.646481 2.299329 0.008403 -0.003653 -343767.000000 0 0 1
-29.083694 -23.627568 -33.970006 50.577510 0.682256 2.307220 0.004185 -0.002665 44340.700000 0 0 1
-27.861634 -23.415668 -33.266076 49.307159 0.698910 2.311314 0.008911 -0.004017 274494.000000 0 0 1
-27.749144 -24.057768 -31.838806 48.605563 0.714266 2.285038 0.015196 0.001795 -607894.000000 0 0 1
-27.346724 -25.407818 -31.721126 48.986022 0.748661 2.275167 0.010398 0.002846 129427.000000 0 0 1
-27.017544 -25.654338 -30.379686 48.073049 0.759523 2.254861 0.011225 -0.000004 -40284.600000 0 0 1
-26.433264 -27.108188 -30.148706 48.399543 0.798003 2.243257 0.011733 0.003975 225527.000000 0 0 1
-27.468814 -28.094448 -30.211036 49.563499 0.796658 2.226279 -0.004606 0.008308 545498.000000 0 0 1
-26.995154 -29.290258 -29.691346 49.681320 0.826152 2.211346 -0.008746 0.003096 -128907.000000 0 0 1
-27.829954 -30.511008 -30.129696 51.119727 0.831321 2.201106 -0.000782 0.008871 -221757.000000 0 0 1
-27.574114 -30.904678 -31.459266 52.010732 0.842290 2.220388 0.009703 -0.007611 199304.000000 0 0 1
-27.868294 -32.260958 -31.693926 53.121711 0.858322 2.210090 0.024562 -0.002387 -368560.000000 0 0 1
-27.421274 -32.652258 -33.102236 53.980128 0.872255 2.230940 0.023741 -0.011508 483994.000000 0 0 1
-26.001744 -32.637778 -33.277496 53.373279 0.898085 2.243990 0.013942 -0.008802 404662.000000 0 0 1
-25.642294 -33.218018 34.306076 54.202129 0.913401 0.885466 0.036467 -0.016255 -311704.000000 0 0 1
-24.211754 -33.687258 34.038741 53.662615 0.947616 0.883680 0.038066 -0.016922 -376718.000000 0 0 1
-24.004754 -34.181415 32.734978 53.067656 0.958545 0.906057 0.040844 -0.011098 1216090.000000 0 0 1
-22.801354 34.033496 32.726188 52.432661 -0.980512 0.896745 0.036229 -0.003411 780988.000000 0 0 1
-22.700654 33.194008 31.452288 51.052995 -0.970973 0.907051 0.031248 -0.007456 173746.000000 0 0 1
-23.853954 32.350267 31.508288 51.071745 -0.935431 0.905946 0.047469 -0.021191 471588.000000 0 0 1
-23.969154 31.350757 30.486488 49.867988 -0.918049 0.913039 0.030809 -0.009900 -462245.000000 0 0 1
-25.371964 30.806897 30.180038 50.036348 -0.881841 0.923336 0.036440 -0.009496 -392085.000000 0 0 1
-25.932854 30.102467 31.260318 50.555701 -0.859672 0.904175 0.041509 -0.016345 151689.000000 0 0 1
-27.270174 29.775337 30.920358 50.855694 -0.829285 0.917255 0.030531 -0.018018 381665.000000 0 0 1
-27.787904 28.662367 31.889038 51.094125 -0.800888 0.896787 0.032419 -0.030217 -75349.800000 0 0 1
-26.953134 27.518477 31.695058 49.883010 -0.795776 0.882286 0.026395 -0.033818 452531.000000 0 0 1
-27.478104 26.254307 32.125548 49.763297 -0.762626 0.869031 0.017106 -0.022653 405674.000000 0 0 1
-28.464974 25.572937 31.115238 49.319245 -0.731931 0.888091 0.010964 -0.016092 538171.000000 0 0 1
-27.823344 25.317177 29.880568 48.041089 -0.738272 0.899528 0.002852 -0.011239 -286502.000000 0 0 1
-28.775034 24.748217 29.013848 47.773216 -0.710305 0.918108 0.019065 -0.015051 -84095.700000 0 0 1
-28.205604 24.234597 27.680468 46.358172 -0.709818 0.930915 0.027431 -0.013788 427564.000000 0 0 1
-27.125684 23.302257 27.807168 45.299410 -0.709723 0.909864 0.012700 -0.002536 499087.000000 0 0 1
-26.345654 23.100957 26.621498 44.005135 -0.719872 0.921076 0.010348 -0.005722 -670006.000000 0 0 1
-24.996554 22.509457 26.857468 43.044477 -0.733093 0.897013 0.006956 -0.000083 -1199270.000000 0 0 1
-25.176274 21.155157 27.261998 42.715360 -0.698825 0.878606 0.023939 -0.003961 982200.000000 0 0 1
-23.949454 20.517357 27.668278 41.953211 -0.708368 0.850639 0.012975 -0.001219 760086.000000 0 0 1
-24.275354 19.082057 28.229408 41.836792 -0.666187 0.830169 0.027300 0.001829 130695.000000 0 0 1
-23.078254 18.490457 28.687838 41.200666 -0.675476 0.800573 0.016002 0.006084 398660.000000 0 0 1
-23.331254 17.386857 29.528248 41.455611 -0.640433 0.778047 0.013942 0.007524 317339.000000 0 0 1
-22.121454 16.394557 29.640348 40.456031 -0.637791 0.748580 0.006909 -0.002313 517404.000000 0 0 1
-21.038354 16.917857 30.379508 40.641613 -0.677262 0.726509 0.020867 0.001772 320325.000000 0 0 1
-19.868854 16.118357 30.362178 39.704341 -0.681556 0.700210 0.009195 -0.006451 715133.000000 0 0 1
-18.690954 16.593357 31.259658 40.023212 -0.726020 0.674470 0.005037 -0.006230 222185.000000 0 0 1
-19.020054 16.469857 32.648468 41.218213 -0.713665 0.656574 0.004530 -0.004607 706273.000000 0 0 1
-17.929854 16.884057 33.473346 41.557381 -0.755368 0.634323 0.006604 -0.011214 -189406.000000 0 0 1
-18.165754 16.609357 -33.909696 41.901466 -0.740672 2.513709 0.002569 -0.011268 -33243.800000 0 0 1
-19.093554 17.452757 -33.277726 42.149372 -0.740532 2.480821 0.015296 -0.009664 -400908.000000 0 0 1
-20.409254 16.966957 -33.322326 42.600384 -0.693559 2.468997 0.036165 -0.006457 -450743.000000 0 0 1
-21.384054 17.888857 -32.515036 42.831256 -0.696634 2.432791 0.053734 -0.007636 117018.000000 0 0 1
-21.355654 17.493057 -31.175976 41.641475 -0.686297 2.416859 0.051277 -0.013201 337273.000000 0 0 1
-22.271854 18.272157 -30.422586 41.897982 -0.687066 2.383445 0.046352 -0.018853 -317896.000000 0 0 1
-22.440954 18.010057 -28.909536 40.788722 -0.676296 2.358539 0.056146 -0.024392 115952.000000 0 0 1
-23.068354 16.868357 -28.365766 40.265458 -0.631382 2.352471 0.038912 -0.019616 703228.000000 0 0 1
-24.401154 16.599057 -28.839596 41.263389 -0.597352 2.344675 0.040821 -0.018707 1026820.000000 0 0 1
-25.199624 15.447157 -28.111856 40.791079 -0.549917 2.331135 0.036640 -0.019635 131623.000000 0 0 1
-24.622354 14.178157 -28.361716 40.145577 -0.522454 2.355297 0.021526 -0.013585 198323.000000 0 0 1
-25.487564 13.199057 -27.832826 39.981211 -0.477835 2.340814 -0.000416 -0.014425 51.879200 0 0 1
-24.879154 11.802957 -27.931316 39.222959 -0.442968 2.363305 0.008564 -0.016184 -273905.000000 0 0 1
-23.862454 11.652857 -26.966836 37.847272 -0.454272 2.363876 0.013067 -0.013287 -303097.000000 0 0 1
-23.006354 10.638457 -27.430476 37.348361 -0.433129 2.395651 0.003539 -0.004918 -11383.300000 0 0 1
-21.998954 10.042457 -26.418396 35.815312 -0.428244 2.400348 0.023928 -0.006367 -87752.900000 0 0 1
-22.554154 9.123857 -25.560006 35.288079 -0.384406 2.380850 0.010771 -0.001846 4409.920000 0 0 1
-21.564254 8.447857 -24.788106 33.923937 -0.373377 2.390138 0.035768 0.002065 -298828.000000 0 0 1
-22.185454 7.403257 -23.893706 33.435187 -0.322079 2.366888 0.033091 0.005951 79501.100000 0 0 1
-22.706354 6.295857 -24.622506 34.080553 -0.270478 2.378178 0.030362 -0.007759 256646.000000 0 0 1
-23.234854 5.297157 -23.738606 33.636880 -0.224152 2.354251 0.035940 -0.001256 -206864.000000 0 0 1
34.190729 25.581932 -10.165706 43.895134 0.642356 1.804509 -0.010014 -0.001448 -976607.000000 0 0 1
35.237692 24.994532 -9.514706 44.237441 0.616949 1.787573 -0.001667 -0.000597 -868340.000000 0 0 1
-35.202999 23.867332 -10.302406 43.761173 -0.595802 1.808451 0.011177 -0.005158 -437732.000000 0 0 1
-34.124960 23.075632 -9.642106 42.308012 -0.594580 1.800719 0.016274 -0.009506 -521081.000000 0 0 1
-34.651683 22.260232 -8.572106 42.068255 -0.571014 1.776000 0.000796 -0.003775 583671.000000 0 0 1
-33.548934 21.519932 -8.051006 40.662724 -0.570341 1.770108 0.002022 0.009892 287648.000000 0 0 1
-33.903254 20.675532 -6.798606 40.288079 -0.547623 1.740357 -0.001196 0.024543 -123506.000000 0 0 1
-34.562388 19.503432 -7.196006 40.332679 -0.513753 1.750173 0.001356 0.012775 38629.500000 0 0 1
-34.900696 18.806332 -6.055006 40.104860 -0.494245 1.722355 0.010933 -0.003668 -167135.000000 0 0 1
35.236051 17.483632 -6.387106 39.850368 0.460592 1.731768 0.011389 0.009946 -374529.000000 0 0 1
34.137789 17.765532 -7.193106 39.150269 0.479839 1.755577 0.015982 0.001389 -774449.000000 0 0 1
33.688799 16.558432 -7.740906 38.328038 0.456834 1.774160 0.015644 0.009740 709631.000000 0 0 1
32.441339 16.873432 -8.670006 37.580875 0.479615 1.803596 0.003468 -0.002006 592359.000000 0 0 1
31.975209 15.779832 -9.432306 36.883404 0.458436 1.829402 0.016718 -0.011382 -95950.000000 0 0 1
31.296879 16.257032 -10.595506 36.824591 0.479083 1.862651 0.034449 -0.005720 -574939.000000 0 0 1
30.620279 15.056032 -11.301606 35.944567 0.456987 1.890639 0.030609 -0.001787 -649104.000000 0 0 1
29.439709 14.567132 -10.750306 34.561060 0.459489 1.887097 0.029752 -0.003293 -227255.000000 0 0 1
29.519469 14.022832 -9.448606 34.019333 0.443478 1.852239 0.018386 -0.008745 -481131.000000 0 0 1
28.393879 12.974932 -9.171706 32.537385 0.428629 1.856552 0.022533 0.000543 447268.000000 0 0 1
28.674149 11.818332 -9.889006 32.552607 0.390945 1.879460 0.026513 -0.004071 753226.000000 0 0 1
27.546459 10.943232 -9.859206 31.237248 0.378146 1.891910 0.036107 -0.003839 177658.000000 0 0 1
28.044689 9.591932 -10.377706 31.403925 0.329551 1.907586 0.050807 -0.011428 -751933.000000 0 0 1
29.086379 9.051732 -9.669606 31.960172 0.301702 1.878165 0.045378 -0.010126 -465511.000000 0 0 1
29.138069 7.673832 -9.780706 31.679283 0.257514 1.884666 0.044897 -0.005127 19062.000000 0 0 1
30.124989 7.068232 -8.704106 32.143994 0.230461 1.845005 0.057665 -0.006837 162521.000000 0 0 1
31.452149 7.360632 -9.037506 33.542407 0.229889 1.843603 0.056338 -0.007024 318921.000000 0 0 1
32.406899 6.893532 -8.041506 34.093895 0.209594 1.808903 0.049529 -0.013488 1036470.000000 0 0 1
33.909639 7.110332 -8.368006 35.643288 0.206690 1.807779 0.042281 -0.015296 358705.000000 0 0 1
34.260539 6.215732 -9.428006 36.073635 0.179473 1.835222 0.045274 -0.008071 -379802.000000 0 0 1
-35.291276 6.300832 -9.697606 37.137827 -0.176676 1.834984 0.033231 -0.006582 -1543630.000000 0 0 1
-34.906602 5.390632 -10.874506 36.956524 -0.153220 1.869468 0.037773 -0.005224 -826621.000000 0 0 1
-33.581124 5.406632 -11.299806 35.841445 -0.159632 1.891540 0.037552 -0.003990 -148908.000000 0 0 1
-33.143744 6.549232 -12.023206 35.860252 -0.195088 1.912698 0.025372 -0.000088 -42782.500000 0 0 1
-32.348494 7.614232 -11.132506 35.047600 -0.231173 1.894035 0.029472 0.005649 -392262.000000 0 0 1
-33.228124 8.396632 -10.385906 35.811711 -0.247515 1.865038 0.023524 0.003214 -9656.270000 0 0 1
-33.449464 9.665232 -10.982006 36.508736 -0.281289 1.876333 0.020103 0.001708 28652.300000 0 0 1
-34.429427 10.540632 -10.154606 37.411313 -0.297091 1.845676 0.010385 0.001423 153781.000000 0 0 1
-33.754624 11.058132 -9.065606 36.658452 -0.316585 1.820688 0.017556 0.000022 369376.000000 0 0 1
-34.662655 11.863132 -8.274806 37.559366 -0.329750 1.792931 0.017741 -0.001782 18037.100000 0 0 1
-34.055904 12.890332 -7.258506 37.130192 -0.361840 1.767551 0.010812 0.001968 181766.000000 0 0 1
-33.390784 13.992832 -7.905206 37.057200 -0.396831 1.785773 0.019314 -0.000388 248525.000000 0 0 1
-32.665854 14.848132 -7.024606 36.563234 -0.426628 1.764120 0.019410 -0.002201 420154.000000 0 0 1
-31.617404 15.662932 -7.872306 36.151914 -0.459952 1.790311 0.010154 -0.000907 315583.000000 0 0 1
-32.114534 16.789832 -8.585806 37.241882 -0.481729 1.803431 0.004308 0.001825 -413917.000000 0 0 1
-31.062964 17.515132 -9.111006 36.806222 -0.513421 1.820937 0.005584 0.005215 -178913.000000 0 0 1
-31.639784 18.750332 -9.846406 38.073647 -0.534975 1.832384 -0.013322 -0.005289 226798.000000 0 0 1
-31.381684 18.770932 -11.246306 38.257514 -0.539058 1.869167 -0.013381 -0.003398 118725.000000 0 0 1
-32.505104 19.170632 -12.039606 39.611198 -0.532866 1.879627 -0.013716 -0.011580 96790.900000 0 0 1
-32.162324 19.433532 -13.522506 39.936642 -0.543526 1.916224 -0.013701 0.002048 -401935.000000 0 0 1
-31.350184 20.545332 -13.723506 39.915903 -0.580127 1.921768 -0.012719 -0.006377 -76.779300 0 0 1
-31.125284 20.745932 -15.138306 40.352761 -0.587908 1.955354 -0.013913 -0.006645 -784729.000000 0 0 1
-30.294024 21.993332 -15.548206 40.536172 -0.627961 1.964448 -0.001760 -0.021621 1002480.000000 0 0 1
-28.888284 21.785332 -15.231906 39.257414 -0.646135 1.969258 -0.004737 -0.015960 1122490.000000 0 0 1
-28.182824 22.968532 -15.035306 39.343175 -0.683811 1.962927 0.013728 -0.014243 -202462.000000 0 0 1
-27.540854 23.587232 -16.313606 39.761663 -0.708224 1.993563 -0.017541 -0.008035 -805362.000000 0 0 1
-28.435054 24.168232 -17.249606 41.112098 -0.704462 2.003773 0.008339 -0.000636 477549.000000 0 0 1
-27.692924 24.700832 -18.358206 41.401121 -0.728352 2.030210 -0.003649 0.000277 108472.000000 0 0 1
-27.017324 26.054532 -18.187006 41.707812 -0.767259 2.022009 -0.000226 0.005651 205347.000000 0 0 1
-27.880054 27.155332 -17.854406 42.819263 -0.772231 2.000907 0.002667 0.009778 175141.000000 0 0 1
-27.156344 28.388132 -17.873206 43.160219 -0.807571 1.997764 0.001382 0.013175 354031.000000 0 0 1
-27.907554 29.723932 -17.482706 44.362019 -0.816905 1.975876 0.000009 0.018876 -26915.100000 0 0 1
-28.268454 29.845432 -16.136806 44.161655 -0.812528 1.944862 -0.003615 0.005439 496344.000000 0 0 1
-27.132454 30.005032 -15.289006 43.246106 -0.835631 1.932144 -0.001436 0.005241 -53957.400000 0 0 1
-27.404864 30.608632 -13.866806 43.361310 -0.840567 1.896311 0.004941 -0.004243 -219648.000000 0 0 1
-27.702904 31.978032 -14.004906 44.566611 -0.856909 1.890459 0.005714 0.001093 213885.000000 0 0 1
-28.142784 32.616532 -12.831406 44.949966 -0.858896 1.860282 -0.003057 -0.006415 -14118.600000 0 0 1
-27.394964 33.928232 -12.640006 45.402409 -0.891536 1.852924 -0.009666 -0.004232 9619.830000 0 0 1
-27.694584 -34.151093 -13.672206 46.045807 0.889418 1.872268 -0.020628 -0.012944 259379.000000 0 0 1
-26.711244 -33.113893 -13.745106 44.709601 0.892015 1.883288 0.017244 -0.012976 273445.000000 0 0 1
-26.662504 -32.284093 -15.032506 44.487392 0.880478 1.915486 0.017637 -0.015376 -118516.000000 0 0 1
-26.349294 -32.986393 -16.239606 45.233972 0.896792 1.938007 0.013258 -0.018884 164858.000000 0 0 1
-26.715914 -32.113793 -17.295806 45.212616 0.876896 1.963344 0.022059 -0.013466 -121546.000000 0 0 1
-26.178434 -32.609193 -18.646806 45.786169 0.894355 1.990247 0.013809 -0.008869 -355723.000000 0 0 1
-26.580434 -33.826093 -19.199006 47.109722 0.904776 1.990553 0.009366 -0.002381 -15541.600000 0 0 1
-25.659194 34.142932 -19.031506 46.758232 -0.926321 1.989985 0.002729 -0.001967 -404907.000000 0 0 1
-25.947124 32.895032 -19.874006 46.371462 -0.902931 2.013720 0.006344 0.008151 63249.200000 0 0 1
-27.176324 32.232732 -19.661606 46.519677 -0.870305 2.007165 0.006856 0.007714 120546.000000 0 0 1
-28.245104 32.762232 -20.452106 47.848076 -0.859306 2.012454 0.003439 0.006246 288885.000000 0 0 1
-29.589564 32.164032 -19.925406 48.032167 -0.827063 1.998557 0.002384 0.007169 85979.900000 0 0 1
-29.794474 30.810032 -20.256306 47.405555 -0.802154 2.012299 0.004374 0.015098 -252197.000000 0 0 1
-31.145024 30.519232 -20.435306 48.156389 -0.775250 2.009044 0.011684 0.010890 -624352.000000 0 0 1
-31.392384 29.353932 -21.469406 48.042382 -0.751854 2.034076 0.020097 0.006846 -1686300.000000 0 0 1
-32.712714 29.043932 -21.577106 48.777486 -0.726061 2.029022 0.022452 0.002291 -1300930.000000 0 0 1
-32.778094 27.888732 -22.387506 48.511702 -0.704978 2.050467 0.019722 0.002864 -873765.000000 0 0 1
-34.133951 27.238732 -22.526906 49.137934 -0.673517 2.047038 0.011102 -0.002141 -842861.000000 0 0 1
-34.967073 27.918832 -23.421806 50.504835 -0.673784 2.053024 -0.002520 0.004871 -115083.000000 0 0 1
34.897369 27.088432 -23.902206 50.228726 0.660079 2.066746 0.002807 0.002692 433522.000000 0 0 1
34.002289 27.625332 -25.058206 50.470073 0.682289 2.090354 0.006437 -0.006003 453012.000000 0 0 1
34.788639 27.865132 -26.209456 51.707355 0.675340 2.102359 0.007908 -0.004082 352491.000000 0 0 1
33.909619 28.213632 -27.278826 51.865264 0.693965 2.124635 0.018676 -0.005980 574537.000000 0 0 1
34.735209 28.484432 -28.589316 53.247034 0.686845 2.137576 0.017814 -0.001772 322656.000000 0 0 1
35.187297 27.281732 -29.210626 53.251286 0.659516 2.151417 0.007685 0.006879 138317.000000 0 0 1
-35.118579 27.589132 -30.462586 54.059634 -0.665898 2.169412 -0.018723 0.013877 -1674050.000000 0 0 1
-34.731025 26.346932 -31.323346 53.680135 -0.648982 2.193851 -0.021900 0.013822 1040320.000000 0 0 1
-33.739604 25.430632 -30.774006 52.269660 -0.645886 2.200314 -0.019658 0.010372 1037890.000000 0 0 1
-32.557524 26.071632 -30.294486 51.550734 -0.675220 2.198964 -0.038700 0.019113 -771861.000000 0 0 1
-31.816584 25.255532 -29.217406 50.037923 -0.670940 2.194327 -0.037784 0.011712 104128.000000 0 0 1
-31.377204 23.969932 -29.679066 49.395683 -0.652356 2.215352 -0.018459 0.011285 446805.000000 0 0 1
-31.974694 23.029132 -28.788046 48.800344 -0.624174 2.201750 -0.022080 0.010755 73902.900000 0 0 1
-31.778274 21.576932 -29.162386 48.227248 -0.596481 2.220169 -0.033680 0.001194 395413.000000 0 0 1
-30.410304 21.173732 -29.151196 47.147701 -0.608217 2.237368 0.032639 -0.002052 480416.000000 0 0 1
-30.398144 19.951732 -29.865626 47.053952 -0.580824 2.258430 0.017729 -0.006579 100004.000000 0 0 1
-29.012854 19.244032 -29.870386 45.872850 -0.585664 2.279903 0.038094 -0.013397 143951.000000 0 0 1
-28.074214 19.982532 -30.680346 46.138343 -0.618585 2.298242 0.049887 -0.011258 1214570.000000 0 0 1
-26.757514 19.413232 -30.830616 45.203595 -0.627652 2.321344 0.056401 -0.020396 1062320.000000 0 0 1
-26.647134 18.098532 -31.669276 45.172665 -0.596624 2.347696 0.048884 -0.014225 -416478.000000 0 0 1
-27.195204 16.985332 -30.983066 44.587341 -0.558291 2.339056 0.023019 -0.009722 143963.000000 0 0 1
-27.221524 15.844832 -31.860496 44.801353 -0.527131 2.361929 0.001377 -0.000194 -136878.000000 0 0 1
-27.578584 14.563832 -31.116376 44.055787 -0.485862 2.355047 0.011740 -0.003075 598126.000000 0 0 1
-28.963814 14.305032 -30.850326 44.668547 -0.458750 2.333184 0.012904 -0.008490 776351.000000 0 0 1
-29.413824 12.937232 -30.679786 44.427404 -0.414369 2.333059 0.005462 -0.009046 -203454.000000 0 0 1
-29.020204 12.066232 -29.489896 43.097797 -0.394042 2.324378 -0.002002 -0.026288 -356460.000000 0 0 1
-29.587824 12.557232 -28.297556 42.823767 -0.401367 2.292668 -0.006895 -0.017656 243227.000000 0 0 1
-29.476494 11.649032 -27.220766 41.779585 -0.376359 2.280399 0.000003 -0.022347 -76887.400000 0 0 1
-29.487584 12.408632 -25.868996 41.142395 -0.398315 2.250763 -0.007612 -0.013909 259594.000000 0 0 1
-28.176314 12.883332 -25.604486 40.192967 -0.428858 2.261447 0.002862 -0.023016 185017.000000 0 0 1
-28.016154 13.604032 -24.356906 39.537747 -0.452044 2.234504 0.004882 -0.016112 -308395.000000 0 0 1
-26.547844 13.783632 -23.926106 38.304504 -0.478889 2.245453 0.020263 -0.014549 -722107.000000 0 0 1
-25.859074 14.651432 -24.801206 38.709895 -0.515489 2.266198 0.025202 -0.015934 1257760.000000 0 0 1
-24.455254 14.862732 -24.485606 37.663047 -0.546100 2.278542 0.038393 -0.021651 1280720.000000 0 0 1
-24.128954 15.522932 -23.096806 36.832462 -0.571674 2.248592 0.038824 -0.018335 -674712.000000 0 0 1
-24.699754 16.835732 -22.990406 37.710456 -0.598280 2.226423 0.050219 -0.018529 342182.000000 0 0 1
-24.590154 17.327832 -21.654106 37.065209 -0.613850 2.194711 0.048758 -0.014436 540037.000000 0 0 1
-25.993584 17.480832 -20.978906 37.700933 -0.592034 2.160910 0.036180 -0.010281 1028350.000000 0 0 1
-26.856404 16.326332 -21.035406 37.819358 -0.546217 2.160611 0.035301 -0.008656 362443.000000 0 0 1
-28.051894 16.477032 -20.327406 38.361501 -0.531086 2.129268 0.025741 -0.000469 -161452.000000 0 0 1
-29.117154 15.320032 -20.560506 38.797505 -0.484349 2.129331 -0.008948 -0.005085 675822.000000 0 0 1
-29.625344 14.978332 -21.855606 39.745175 -0.468111 2.153033 -0.006094 -0.000171 110645.000000 0 0 1
-30.332744 16.073132 -22.383806 40.981163 -0.487276 2.148614 -0.011858 0.004700 -648452.000000 0 0 1
-30.876444 15.896432 -23.817906 42.111091 -0.475449 2.171953 -0.016684 0.003729 -733216.000000 0 0 1
-32.012114 15.139332 -24.054906 42.809033 -0.441754 2.167492 -0.006014 0.008012 -419180.000000 0 0 1
-32.396164 15.361132 -25.354926 43.912960 -0.442767 2.186325 -0.000643 0.000904 206035.000000 0 0 1
-33.717624 14.700132 -25.882566 44.976430 -0.411132 2.183975 -0.002143 0.001991 430524.000000 0 0 1
-33.765424 13.370132 -26.175236 44.766139 -0.377028 2.195320 -0.001258 -0.000874 1947.410000 0 0 1
-33.566974 12.511932 -25.050706 43.713019 -0.356792 2.181046 -0.008235 -0.004494 -438398.000000 0 0 1
-33.588044 11.017832 -25.571416 43.628507 -0.316969 2.197055 -0.006630 -0.015693 -4995.870000 0 0 1
-34.862383 10.497532 -25.878506 44.668568 -0.292478 2.188721 -0.009950 -0.007948 -156334.000000 0 0 1
-34.751899 9.318232 -26.620856 44.757054 -0.261974 2.207795 -0.005905 0.001727 -399814.000000 0 0 1
34.845097 8.614432 -26.905416 44.858562 0.242361 2.214027 0.000629 0.006115 -391098.000000 0 0 1
34.221939 7.987332 -25.809676 43.601353 0.229293 2.204268 -0.020067 0.014339 -65773.900000 0 0 1
33.047669 7.315132 -26.249696 42.833470 0.217838 2.230435 -0.015870 0.015133 219744.000000 0 0 1
32.306639 6.425432 -25.216966 41.483737 0.196327 2.224179 -0.019561 0.016033 71090.800000 0 0 1
33.134159 5.398232 -24.700306 41.678754 0.161502 2.205123 -0.023724 0.013822 -176594.000000 0 0 1
32.528489 4.668732 -23.663506 40.495199 0.142554 2.194879 -0.020903 0.015922 -283172.000000 0 0 1
33.474399 3.795932 -22.846606 40.705183 0.112916 2.166716 -0.025316 0.015236 -86547.000000 0 0 1
33.919569 2.643032 -23.543606 41.374197 0.077763 2.176135 -0.024270 0.006109 1334300.000000 0 0 1
35.238209 2.161532 -23.143106 42.213824 0.061264 2.151049 -0.008638 0.009691 1393940.000000 0 0 1
-35.146670 0.950932 -23.928806 42.529759 -0.027050 2.168368 0.012645 0.010053 -291668.000000 0 0 1
35.037050 -0.233468 -23.670306 42.283954 -0.006663 2.164934 0.000245 0.010383 67955.400000 0 0 1
-35.378828 -1.367168 -24.389106 42.992547 0.038624 2.174004 0.011500 0.003131 39968.200000 0 0 1
-22.319454 29.400332 27.832378 46.229631 -0.921461 0.924735 0.019089 -0.002855 -474046.000000 0 0 1
-23.587854 29.706332 27.264088 46.713847 -0.899703 0.947592 0.004174 -0.006975 714768.000000 0 0 1
-23.735454 29.070432 25.974488 45.641383 -0.886087 0.965386 -0.002841 0.005527 -459484.000000 0 0 1
-24.193654 27.626132 26.001948 44.995970 -0.851540 0.954676 -0.000938 0.000657 -698287.000000 0 0 1
-25.501964 27.378332 26.444548 45.817435 -0.820867 0.955535 -0.001530 0.007363 -48107.200000 0 0 1
-25.742764 27.367432 27.863578 46.776546 -0.815979 0.932692 0.002338 0.003191 -689877.000000 0 0 1
-25.132524 26.145332 28.679288 46.235524 -0.805147 0.901688 0.013441 0.006593 -399792.000000 0 0 1
-23.786554 26.338632 29.025798 45.847799 -0.836268 0.885257 0.025695 0.006522 -430869.000000 0 0 1
-23.606454 27.096332 30.206468 46.945783 -0.854120 0.871822 0.024169 -0.003814 -25373.300000 0 0 1
-22.226654 26.938232 30.881548 46.619336 -0.880939 0.846753 0.031350 -0.002949 968894.000000 0 0 1
-21.007254 27.141332 30.120618 45.664081 -0.912114 0.850493 0.026565 -0.005122 862350.000000 0 0 1
-19.899854 26.644932 30.837918 45.353432 -0.929312 0.823106 0.039560 -0.000408 -26622.200000 0 0 1
-19.427654 25.260132 30.344388 44.003294 -0.915181 0.809869 0.038418 -0.000933 -85804.900000 0 0 1
-18.723554 25.381332 29.080588 42.900630 -0.935220 0.825949 0.031934 0.000077 224981.000000 0 0 1
-19.402154 24.786032 27.990578 42.122006 -0.906640 0.843956 0.029428 -0.003883 47784.000000 0 0 1
-19.342454 23.197332 28.010608 41.192729 -0.875770 0.823049 0.034022 0.014756 595254.000000 0 0 1
-20.170654 22.612732 29.038008 41.968999 -0.842416 0.806690 0.023177 0.002957 370357.000000 0 0 1
-19.953954 21.212432 28.945378 41.060473 -0.815959 0.788451 0.016908 0.008594 338304.000000 0 0 1
-20.421854 20.430432 30.183338 41.779045 -0.785608 0.763455 0.010191 0.001010 43864.800000 0 0 1
-19.525754 20.639632 31.248848 42.234346 -0.813123 0.737887 0.018621 -0.006329 4379.310000 0 0 1
-19.944954 20.070932 32.521268 43.107730 -0.788546 0.716029 0.017697 -0.006361 173804.000000 0 0 1
-19.084854 20.584332 33.734616 43.885882 -0.823180 0.694007 0.029241 -0.009421 43000.200000 0 0 1
-19.152354 21.975032 34.034778 44.811615 -0.853923 0.708240 0.024323 -0.009531 -84448.100000 0 0 1
-18.344554 22.819832 33.246309 44.301066 -0.893690 0.722034 0.031832 -0.007321 923315.000000 0 0 1
-16.816954 22.932932 33.663461 44.067652 -0.938063 0.701455 0.034572 -0.001073 1127990.000000 0 0 1
-16.056954 21.766332 33.456797 43.022741 -0.935216 0.679871 0.040540 -0.018406 -774608.000000 0 0 1
-14.788154 21.927232 34.026350 43.096235 -0.977446 0.660732 0.030976 -0.016270 -740912.000000 0 0 1
-13.914954 20.692532 33.742055 41.956324 -0.978792 0.636437 0.033541 -0.014266 -233969.000000 0 0 1
-12.558454 20.569732 34.071414 41.733558 -1.022670 0.615641 0.017281 -0.015011 -41967.600000 0 0 1
-12.386054 20.558332 -33.358966 41.095985 -1.028553 2.517910 0.025429 -0.023220 -322434.000000 0 0 1
-10.914854 20.405632 -32.909176 40.231054 -1.079625 2.528729 0.010066 -0.017923 -195316.000000 0 0 1
-10.172554 21.541732 -33.072896 40.759582 -1.129614 2.517364 0.007639 -0.016991 -364110.000000 0 0 1
-8.866054 21.333532 -32.552776 39.917537 -1.176921 2.524390 -0.001468 -0.013628 30450.800000 0 0 1
-7.955954 22.570632 -32.664296 40.493047 -1.231904 2.509282 -0.003389 -0.012262 -148494.000000 0 0 1
-8.019754 23.535032 -31.648566 40.247309 -1.242378 2.475678 0.001309 -0.009089 106367.000000 0 0 1
-7.431254 23.144032 -30.413196 38.933690 -1.260107 2.467308 0.001033 -0.012261 -215552.000000 0 0 1
-7.286954 24.398632 -29.530906 38.993171 -1.280567 2.430019 0.007234 -0.015410 -322420.000000 0 0 1
-6.478554 25.367032 -30.093226 39.888096 -1.320749 2.425599 -0.002974 -0.012751 -259418.000000 0 0 1
-6.215454 26.393432 -29.142326 39.806033 -1.339518 2.392208 0.008038 -0.005940 -388039.000000 0 0 1
-4.910554 27.141432 -29.473956 40.366879 -1.391808 2.389341 0.022150 -0.012531 -1029430.000000 0 0 1
-3.828254 26.361732 -29.032436 39.401507 -1.426584 2.399174 0.029100 -0.007528 504554.000000 0 0 1
-2.573354 26.729532 -29.646436 40.000015 -1.474818 2.405594 0.029375 -0.010474 864917.000000 0 0 1
-1.901854 28.066832 -29.359346 40.661226 -1.503138 2.377554 0.038558 -0.020798 -928605.000000 0 0 1
-1.281654 28.139732 -28.095046 39.784655 -1.525282 2.354882 0.044567 -0.030911 177036.000000 0 0 1
-0.679454 29.351232 -27.844886 40.463492 -1.547651 2.329730 0.044439 -0.026523 -1120450.000000 0 0 1
-0.063654 29.533732 -26.447926 39.645153 -1.568641 2.301127 0.036632 -0.031937 618225.000000 0 0 1
0.971046 28.637632 -25.968076 38.670375 1.536901 2.307060 0.050819 -0.033113 1530920.000000 0 0 1
2.173246 28.738132 -26.766506 39.332545 1.495318 2.319266 0.044849 -0.028139 899086.000000 0 0 1
3.541346 28.763632 -25.973946 38.917008 1.448294 2.301534 0.044636 -0.029478 820601.000000 0 0 1
3.840346 27.541932 -25.376996 37.647021 1.432253 2.310511 0.055953 -0.026190 67929.900000 0 0 1
5.021046 27.607332 -24.602506 37.318347 1.390889 2.290631 0.038865 -0.016444 65779.800000 0 0 1
5.510346 26.337332 -23.808906 35.928860 1.364549 2.295172 0.053933 -0.015591 -371310.000000 0 0 1
6.718146 26.615532 -23.180006 35.928160 1.323546 2.272051 0.045004 -0.019839 -855053.000000 0 0 1
7.254946 25.433932 -22.650706 34.822028 1.292929 2.279000 0.046927 -0.011325 576725.000000 0 0 1
8.777046 25.522232 -22.323706 35.025258 1.239568 2.261864 0.039724 0.001277 -482425.000000 0 0 1
9.087946 26.312132 -21.174906 34.975644 1.238234 2.221088 0.044920 0.001725 654572.000000 0 0 1
10.489746 26.504132 -20.949706 35.375047 1.193935 2.204604 0.058573 -0.000249 921891.000000 0 0 1
11.300246 25.229732 -20.566806 34.456182 1.149695 2.210425 0.036948 0.007787 -777574.000000 0 0 1
11.556146 24.405432 -21.625206 34.595074 1.128567 2.246049 0.032646 0.007845 -261518.000000 0 0 1
12.009246 23.186232 -21.103106 33.573270 1.092894 2.250508 0.027821 0.005515 -437433.000000 0 0 1
12.026746 22.144132 -22.242806 33.611719 1.073257 2.293957 0.025562 -0.000018 -550349.000000 0 0 1
10.770946 21.980432 -22.823506 33.467374 1.115161 2.321239 0.032046 -0.006561 -443496.000000 0 0 1
10.792746 21.043532 -23.918506 33.636417 1.096900 2.361843 0.035873 -0.017208 -148822.000000 0 0 1
9.871446 21.175332 -25.146326 34.324595 1.134572 2.392936 0.042747 -0.011834 205311.000000 0 0 1
8.510346 20.850132 -24.899806 33.573119 1.183269 2.406337 0.028871 -0.011848 -185699.000000 0 0 1
7.847446 20.779632 -26.128986 34.294306 1.209704 2.437045 0.025293 -0.006810 -162693.000000 0 0 1
6.410446 20.229332 -25.877396 33.465793 1.263918 2.454746 0.008810 -0.010494 157725.000000 0 0 1
5.413346 21.093932 -25.340446 33.412520 1.319587 2.431669 0.030877 -0.006668 119080.000000 0 0 1
5.628546 21.685632 -24.097906 32.903742 1.316848 2.392601 0.028228 -0.010267 -884033.000000 0 0 1
4.293446 22.187532 -23.525406 32.621542 1.379652 2.376274 0.039337 -0.021067 40919.400000 0 0 1
3.805946 23.384832 -24.151106 33.832108 1.409458 2.365779 0.034614 -0.019439 791343.000000 0 0 1
2.417246 23.569732 -23.818006 33.595725 1.468596 2.358818 0.049098 -0.024361 763287.000000 0 0 1
1.795946 24.645532 -24.711006 34.946552 1.498054 2.356197 0.035783 -0.017511 -445967.000000 0 0 1
0.395446 24.725532 -24.604206 34.883739 1.554804 2.353671 0.044677 -0.039161 -231290.000000 0 0 1
0.042646 25.357132 -25.844896 36.206969 1.569114 2.365720 0.041271 -0.029515 630651.000000 0 0 1
-1.478554 25.104632 -26.135566 36.269774 -1.511969 2.375446 0.059505 -0.032204 512320.000000 0 0 1
-1.823454 23.813732 -26.546226 35.708835 -1.494374 2.408947 0.082657 -0.039356 -439943.000000 0 0 1
-3.049754 23.864432 -27.216566 36.325660 -1.443690 2.417707 0.079087 -0.028981 -195237.000000 0 0 1
-3.547754 22.424132 -27.512036 35.669881 -1.413885 2.451671 0.055341 -0.027636 202438.000000 0 0 1
-2.575054 21.865832 -28.432886 35.960736 -1.453570 2.482690 0.063157 -0.024953 764319.000000 0 0 1
-2.948154 20.555932 -28.983986 35.655426 -1.428347 2.519896 0.046189 -0.028395 118396.000000 0 0 1
-4.157054 20.355932 -29.972036 36.468726 -1.369348 2.535457 0.025787 -0.018328 173525.000000 0 0 1
-4.170554 20.946032 -31.296386 37.889227 -1.374257 2.542765 0.018316 -0.014268 -82522.000000 0 0 1
-3.906554 22.337332 -31.406456 38.737360 -1.397658 2.516235 0.032734 -0.018518 -332666.000000 0 0 1
-3.413154 22.761032 -32.789276 40.060589 -1.421949 2.529578 0.020464 -0.006483 -225553.000000 0 0 1
-2.262054 22.100632 -33.235846 39.977197 -1.468799 2.552365 0.026851 -0.006522 -144534.000000 0 0 1
-2.024254 22.288232 34.246359 40.910586 -1.480223 0.578831 0.022393 0.009745 440165.000000 0 0 1
-0.851054 21.378332 33.756236 39.965495 -1.531008 0.564914 0.024742 0.015224 519209.000000 0 0 1
-1.271654 20.027632 33.603755 39.139948 -1.507386 0.538354 0.013461 0.022087 -250249.000000 0 0 1
-0.232454 19.309432 33.032188 38.262693 -1.558759 0.529024 0.021133 0.021582 -352863.000000 0 0 1
-0.656154 17.979532 32.404568 37.064136 -1.534318 0.506838 0.010497 0.027963 -112001.000000 0 0 1
-1.251054 18.105132 31.143268 36.045306 -1.501807 0.527629 0.000087 0.025514 -70849.900000 0 0 1
-1.436254 16.820632 30.621358 34.966614 -1.485617 0.503848 -0.000069 0.020470 164856.000000 0 0 1
-2.636954 16.637132 29.638868 34.091204 -1.413606 0.516811 0.003637 0.023704 463667.000000 0 0 1
-3.949154 16.987932 30.030068 34.727376 -1.342385 0.526169 -0.004959 0.015646 121303.000000 0 0 1
-4.196254 18.292532 29.471888 34.940198 -1.345301 0.567039 -0.005415 0.017170 330294.000000 0 0 1
-5.710854 18.626832 29.658348 35.485072 -1.273302 0.581212 -0.008729 0.005083 589591.000000 0 0 1
-6.543354 17.891632 28.811018 34.539843 -1.220185 0.584227 -0.006877 0.005740 31276.300000 0 0 1
-7.826554 18.487932 28.592858 34.937231 -1.170338 0.612164 0.007814 0.010181 290209.000000 0 0 1
-8.664054 17.579832 27.683668 33.919048 -1.112893 0.616047 0.015545 0.002880 -453438.000000 0 0 1
-9.049554 16.256032 28.093458 33.695629 -1.062832 0.584946 0.019602 -0.007492 473355.000000 0 0 1
-9.761654 16.014032 29.332048 34.815344 -1.023371 0.568883 0.021900 -0.004428 -110023.000000 0 0 1
-10.356554 14.564332 29.413488 34.417020 -0.952666 0.545977 0.021062 -0.004906 31136.400000 0 0 1
-9.492654 13.466532 29.629438 33.902235 -0.956785 0.507490 0.026257 0.001490 476385.000000 0 0 1
-8.554354 13.421932 30.716728 34.595413 -1.003371 0.478070 0.021070 0.000789 342218.000000 0 0 1
-9.234154 13.194732 32.059208 35.877059 -0.960180 0.465527 0.037692 -0.007804 -206155.000000 0 0 1
-9.676954 11.871532 32.354008 35.796069 -0.886892 0.442130 0.030318 0.000656 295619.000000 0 0 1
-10.052854 11.885732 33.737996 37.156195 -0.868750 0.432300 0.029351 0.011079 -209621.000000 0 0 1
-10.335354 10.435932 34.285836 37.299421 -0.790240 0.404738 0.026295 0.003523 278668.000000 0 0 1
-9.183354 9.582932 34.367485 36.841425 -0.806687 0.368555 0.025207 -0.001010 407225.000000 0 0 1
-9.312554 8.681932 -33.445336 35.786731 -0.750367 2.777855 0.042506 -0.003880 129819.000000 0 0 1
-8.618954 9.140632 -32.132486 34.501220 -0.814764 2.768881 0.029294 -0.002368 12291.000000 0 0 1
-9.302954 10.274032 -31.635306 34.538287 -0.834961 2.728663 0.024815 -0.003705 -79982.300000 0 0 1
-8.534754 11.013432 -30.735346 33.746099 -0.911523 2.715971 0.023007 -0.004067 14932.800000 0 0 1
-7.546154 12.072732 -31.377676 34.456550 -1.012156 2.715638 0.022439 -0.005127 637943.000000 0 0 1
-8.137954 13.266532 -31.905006 35.498684 -1.020568 2.687743 0.024198 -0.007493 216403.000000 0 0 1
-7.096354 14.110832 -32.362066 36.010792 -1.104830 2.687540 0.017435 -0.010070 297629.000000 0 0 1
-7.586354 15.510632 -32.846306 37.108116 -1.115901 2.657616 0.012142 -0.007285 -113343.000000 0 0 1
-8.149854 15.556732 -34.115435 38.370496 -1.088228 2.666184 0.018922 -0.008510 -82123.100000 0 0 1
-8.440354 16.901132 -34.410272 39.254995 -1.107632 2.639512 0.027243 -0.008779 -495003.000000 0 0 1
-9.038554 17.133332 32.991881 38.258473 -1.085359 0.530920 0.034930 -0.014622 1073010.000000 0 0 1
-10.283354 16.540932 32.619218 37.991620 -1.014580 0.538284 0.029754 -0.015913 356057.000000 0 0 1
-11.444554 17.009832 33.248341 39.061034 -0.978546 0.552549 0.026076 -0.019409 -32068.800000 0 0 1
-12.755754 16.417532 32.642558 38.701179 -0.910263 0.567121 0.030076 -0.022303 200633.000000 0 0 1
-12.828054 14.982932 32.734398 38.217640 -0.862727 0.542296 0.017666 -0.022128 -578648.000000 0 0 1
-14.101954 14.599232 33.111541 38.837827 -0.802722 0.549934 0.011816 -0.012126 -833911.000000 0 0 1
-14.321354 13.071432 33.246355 38.487448 -0.739800 0.527986 0.008158 -0.002694 -751545.000000 0 0 1
-14.357354 12.301732 32.060728 37.220378 -0.708443 0.532825 -0.006861 -0.008074 421683.000000 0 0 1
-13.084854 11.765532 31.685558 36.243837 -0.732357 0.506943 0.004079 -0.002972 156718.000000 0 0 1
-12.885754 11.290832 30.236438 34.752953 -0.719524 0.515514 0.009525 -0.001278 328823.000000 0 0 1
-13.605354 10.031132 30.002098 34.436248 -0.635319 0.513082 -0.001859 -0.000815 457968.000000 0 0 1
-13.614854 9.676432 28.655468 33.168259 -0.617888 0.527750 -0.016495 0.001638 554794.000000 0 0 1
-14.580354 8.484632 28.244008 32.898324 -0.527021 0.538412 -0.011804 0.009102 624558.000000 0 0 1
-14.151254 7.215832 28.801238 32.891299 -0.471542 0.504018 -0.018916 0.009092 -267018.000000 0 0 1
-14.911154 6.123432 28.391608 32.648466 -0.389663 0.516374 -0.008948 0.013661 -73540.800000 0 0 1
-14.100554 4.778232 28.286518 31.965360 -0.326724 0.484492 -0.012053 0.017455 478864.000000 0 0 1
-12.967854 4.669532 27.456048 30.721399 -0.345631 0.465247 -0.013908 0.004604 -266009.000000 0 0 1
-13.367054 4.696532 26.134118 29.727557 -0.337878 0.496782 -0.005430 0.006545 -701875.000000 0 0 1
-12.302754 4.407632 25.093008 28.292120 -0.344018 0.480150 -0.021514 0.011974 -1077650.000000 0 0 1
-11.845854 3.094432 25.258718 28.069603 -0.255515 0.451347 -0.020183 0.008180 -274804.000000 0 0 1
-11.272554 2.783132 23.998558 26.659840 -0.242054 0.450622 -0.016120 0.007314 -698286.000000 0 0 1
-10.416254 1.535432 23.972878 26.183101 -0.146353 0.413834 -0.014044 -0.002251 191615.000000 0 0 1
-9.056954 1.783932 24.336338 26.028219 -0.194479 0.362542 -0.004805 -0.006571 14030.900000 0 0 1
-8.381954 0.600632 24.560258 25.958124 -0.071535 0.329670 -0.001567 -0.009372 -362615.000000 0 0 1
-6.853754 0.763132 24.490568 25.442961 -0.110888 0.274475 0.014347 -0.008474 -369854.000000 0 0 1
-6.464254 1.125132 23.126918 24.039693 -0.172328 0.276450 0.021685 -0.005690 976026.000000 0 1 0
-5.054154 1.333732 22.906018 23.494871 -0.258007 0.224359 0.009706 -0.009633 1228560.000000 0 1 0
-4.387054 2.639832 23.408518 23.961921 -0.541692 0.215335 0.023723 -0.010289 -323174.000000 0 1 0
-4.497854 2.771832 24.817688 25.373833 -0.552287 0.209755 0.029960 -0.008209 -168902.000000 0 0 1
-4.249454 4.103932 25.262968 25.944512 -0.767979 0.229718 0.031047 -0.012539 -87312.600000 0 0 1
4.082446 -23.770568 13.002894 27.400393 -1.400712 1.076342 0.040359 -0.003190 357136.000000 0 0 1
3.832346 -25.184548 13.075094 28.634008 -1.419784 1.096595 0.028149 -0.012210 14364.600000 0 0 1
2.473446 -25.576158 13.196494 28.886074 -1.474387 1.096350 0.022888 -0.006916 391518.000000 0 0 1
2.357846 -26.930538 13.928094 30.410609 -1.483466 1.095051 0.021216 0.000702 -282439.000000 0 0 1
2.250346 -26.768508 15.324994 30.926890 -1.486927 1.052359 0.023323 -0.011300 193606.000000 0 0 1
2.702646 -27.982138 15.921594 32.307917 -1.474510 1.055483 0.021541 -0.015091 -145537.000000 0 0 1
2.368146 -28.143098 17.423894 33.184848 -1.486847 1.018016 0.021387 -0.015161 -70543.900000 0 0 1
3.074646 -27.138488 18.111094 32.771370 -1.457983 0.985256 0.022587 -0.016900 190922.000000 0 0 1
3.116946 -27.475148 19.443594 33.803143 -1.457833 0.957947 0.007482 -0.014177 50960.100000 0 0 1
3.798646 -26.456938 20.400294 33.623969 -1.428192 0.918870 0.007400 -0.010987 115406.000000 0 0 1
2.955446 -25.347658 20.725694 32.875414 -1.454724 0.888687 0.006082 -0.008095 42251.200000 0 0 1
3.504346 -24.490668 21.627494 32.860641 -1.428672 0.852427 0.012076 -0.012662 -496437.000000 0 0 1
2.517746 -23.417668 22.131794 32.319383 -1.463693 0.816489 0.013414 -0.007584 -118466.000000 0 0 1
2.081546 -22.451568 21.192794 30.944147 -1.478348 0.816368 0.010637 -0.008300 39583.800000 0 0 1
3.099946 -21.621768 20.673494 30.074971 -1.428395 0.812895 0.013685 -0.000933 -542481.000000 0 0 1
2.578246 -20.494168 19.837194 28.638655 -1.445650 0.805609 0.001069 -0.006529 -65759.300000 0 0 1
1.995146 -19.492568 20.655794 28.471084 -1.468797 0.759035 -0.003814 -0.003683 -110432.000000 0 0 1
1.593146 -18.479968 19.817894 27.143991 -1.484800 0.752324 -0.008991 -0.011447 75003.700000 0 0 1
1.085446 -17.220668 20.572994 26.851028 -1.507848 0.697905 0.003198 -0.006305 89416.600000 0 0 1
2.137146 -16.315668 20.786694 26.511414 -1.440550 0.669607 -0.006458 0.009637 7641.840000 0 0 1
1.647446 -15.068568 21.206994 26.067459 -1.461899 0.620577 0.001518 0.009300 544591.000000 0 0 1
2.745046 -13.957668 21.046294 25.402722 -1.376605 0.594363 -0.013810 0.019581 -56873.500000 0 0 1
2.993946 -13.558468 19.690094 24.093476 -1.353466 0.614195 -0.015394 0.013019 -56569.100000 0 1 0
2.017446 -13.143268 18.717494 22.959969 -1.418489 0.617682 -0.008914 0.008304 218116.000000 0 1 0
1.165846 -11.897468 18.937094 22.394697 -1.473117 0.563097 -0.007417 -0.003025 343944.000000 0 1 0
1.997046 -10.721768 18.889694 21.812039 -1.386646 0.523607 -0.002110 -0.002119 147310.000000 0 1 0
1.730946 -9.742268 19.901794 22.225872 -1.394957 0.461392 0.006592 -0.005003 173039.000000 0 1 0
0.300246 -9.139168 19.953394 21.948860 -1.537955 0.429712 0.016061 -0.008797 359066.000000 0 1 0
0.000646 -8.395568 21.119294 22.726859 -1.570719 0.378376 0.023142 -0.010039 734781.000000 0 1 0
-1.384854 -7.995668 21.113194 22.618919 1.399297 0.366937 0.022428 -0.008903 1065610.000000 0 1 0
-1.736054 -7.137668 22.398294 23.572097 1.332205 0.316907 0.031902 -0.008097 -20378.800000 0 1 0
-1.609654 -7.942068 23.554294 24.909279 1.370831 0.331353 0.031392 0.001239 109694.000000 0 1 0
-2.026654 -7.291468 24.738094 25.869792 1.299691 0.296879 0.036844 0.005611 -105981.000000 0 0 1
-2.205254 -8.130168 26.049294 27.377518 1.305926 0.312770 0.041169 0.004525 344471.000000 0 0 1
-0.997754 -8.804768 26.402494 27.849796 1.457958 0.323804 0.038400 0.002012 470240.000000 0 0 1
-1.201754 -9.724268 27.394794 29.094335 1.447837 0.343490 0.048176 -0.002770 153501.000000 0 0 1
0.067446 -10.596768 27.462394 29.436017 -1.564432 0.368268 0.036848 0.002104 106738.000000 0 0 1
1.173346 -10.089368 28.164694 29.940309 -1.455021 0.346124 0.021399 0.005268 297833.000000 0 0 1
2.132246 -11.158368 28.344994 30.536770 -1.381983 0.381183 0.012379 0.010529 811721.000000 0 0 1
3.147646 -10.834668 29.515094 31.598077 -1.288063 0.365126 0.010519 0.005394 245772.000000 0 0 1
2.634446 -10.886168 30.831994 32.803366 -1.333362 0.348449 0.014100 0.001393 -235918.000000 0 0 1
3.477546 -10.306268 31.779194 33.589130 -1.245372 0.329774 0.003515 0.006768 -1035420.000000 0 0 1
2.825546 -10.216868 33.143794 34.797689 -1.300983 0.309549 0.004704 0.004634 -417239.000000 0 0 1
2.894846 -11.398268 33.931394 35.911560 -1.322082 0.333630 0.002290 -0.002741 27115.600000 0 0 1
2.329346 -11.303468 -33.624730 35.550200 -1.367568 2.810963 0.008641 -0.005231 -224299.000000 0 0 1
2.994946 -10.408568 -32.542730 34.297774 -1.290626 2.820304 0.005864 0.003411 60055.800000 0 0 1
2.551446 -9.046868 -32.626730 33.953781 -1.295910 2.861088 0.013803 -0.000772 335425.000000 0 0 1
3.135946 -8.407068 -31.502730 32.755686 -1.213769 2.864111 0.011118 0.003776 112918.000000 0 0 1
2.656246 -6.969768 -31.269430 32.146704 -1.206680 2.907436 0.002550 -0.001650 207385.000000 0 0 1
3.210946 -6.080868 -32.273730 32.998194 -1.084969 2.931662 0.011133 0.002650 264279.000000 0 0 1
3.390546 -4.764668 -31.801630 32.334835 -0.952326 2.959738 0.019170 -0.000412 28594.200000 0 0 1
3.393246 -3.765468 -33.006130 33.393076 -0.837347 2.989211 0.017296 0.000481 -900068.000000 0 0 1
2.161746 -3.325468 -33.436330 33.670760 -0.994380 3.023521 0.022069 -0.000376 -1063120.000000 0 0 1
2.341546 -2.393968 34.385394 34.548071 -0.796468 0.097082 0.028189 0.002983 120760.000000 0 0 1
1.767146 -2.824168 33.015794 33.183450 -1.011677 0.100565 0.029492 -0.006069 181731.000000 0 0 1
0.392346 -2.736468 32.718894 32.835472 -1.428390 0.084291 0.030762 -0.009078 -407513.000000 0 0 1
0.166646 -3.440868 31.539494 31.727071 -1.522403 0.108794 0.039383 -0.002212 -443945.000000 0 0 1
-1.290454 -3.734668 31.240294 31.489188 1.238106 0.125814 0.043289 -0.010551 -152989.000000 0 0 1
-2.095054 -2.582268 30.956994 31.135074 0.889189 0.107005 0.047244 -0.009125 853676.000000 0 0 1
-3.501854 -2.845268 30.863694 31.191764 0.682319 0.145164 0.031815 -0.006277 1005550.000000 0 0 1
-4.329054 -1.705768 30.238194 30.594096 0.375347 0.152680 0.040601 -0.005102 -245703.000000 0 0 1
-4.222054 -1.585768 28.795294 29.146344 0.359289 0.155362 0.037864 -0.005270 46162.600000 0 0 1
-5.317854 -0.885868 28.222694 28.732991 0.165068 0.188747 0.026081 -0.010206 330473.000000 0 0 1
-5.520754 0.577332 28.704794 29.236574 -0.104196 0.191020 0.031022 -0.006318 -19909.500000 0 0 1
-6.856054 0.765232 29.131894 29.937573 -0.111154 0.232523 0.028808 -0.004710 -191411.000000 0 0 1
-7.079254 2.135732 29.293994 30.212833 -0.293005 0.247255 0.026322 -0.005325 1539010.000000 0 0 1
-8.588154 2.448332 29.742494 31.054254 -0.277715 0.291691 0.008607 -0.004837 1753890.000000 0 0 1
-9.561654 2.414632 28.727394 30.372995 -0.247361 0.330685 -0.007130 0.000765 176960.000000 0 0 1
-10.868454 2.574632 29.261194 31.320432 -0.232603 0.364639 -0.024792 0.007385 732363.000000 0 0 1
-12.025854 1.809332 28.557894 31.039461 -0.149333 0.402585 -0.028506 0.011211 226183.000000 0 0 1
-11.905354 0.424932 28.850494 31.213283 -0.035677 0.391594 -0.023827 0.014114 68163.900000 0 0 1
-12.024454 -0.370968 27.640494 30.145016 0.030841 0.410510 -0.027402 0.015564 -1188380.000000 0 0 1
-11.974754 -1.912868 27.804294 30.333687 0.158403 0.411269 -0.023369 0.011224 197420.000000 0 0 1
-10.725254 -2.517768 28.132194 30.212424 0.230576 0.373252 -0.018056 0.009400 1189790.000000 0 0 1
-9.532554 -2.119468 27.428794 29.115296 0.218781 0.342032 -0.007224 0.002843 32361.700000 0 0 1
-9.481154 -2.608768 25.952794 27.753296 0.268508 0.362185 -0.010106 0.004454 -626637.000000 0 0 1
-10.391654 -1.941768 25.088294 27.224611 0.184728 0.398794 -0.020053 0.004126 278818.000000 0 0 1
-10.472454 -2.658368 23.841994 26.175941 0.248593 0.425491 -0.002993 0.004885 -328075.000000 0 0 1
-9.423054 -2.354468 22.750094 24.736698 0.244849 0.403506 0.004522 -0.001603 649600.000000 0 1 0
-8.098854 -2.726468 23.151294 24.678077 0.324731 0.353601 0.012062 0.000644 633085.000000 0 1 0
-7.176254 -2.322368 22.113894 23.364852 0.312982 0.328709 0.016671 -0.005432 821939.000000 0 1 0
-5.683454 -2.391968 22.561594 23.389072 0.398363 0.266794 0.017634 -0.004717 387462.000000 0 1 0
-5.020854 -3.637668 22.754594 23.584172 0.626988 0.266020 0.020641 -0.003189 -73671.800000 0 1 0
-5.519954 -4.596468 23.711894 24.776023 0.694365 0.294146 0.029561 -0.003493 -289366.000000 0 1 0
-5.445254 -6.038568 23.133794 24.521165 0.837017 0.337995 0.032876 -0.003754 44193.100000 0 1 0
-6.467154 -6.465468 22.246794 24.052987 0.785268 0.390003 0.041257 -0.010915 30538.100000 0 1 0
-6.256154 -6.040168 20.925894 22.660894 0.767835 0.393855 0.036189 -0.011240 -432326.000000 0 1 0
-7.448554 -6.158768 19.972794 22.188373 0.690894 0.450690 0.041125 -0.012029 412882.000000 0 1 0
-8.522254 -5.233668 20.242494 22.578278 0.550736 0.458884 0.044558 -0.008171 424646.000000 0 1 0
-9.443354 -5.150568 19.177294 21.988040 0.499318 0.511177 0.040866 -0.006874 87525.600000 0 1 0
-10.070354 -3.758368 19.260294 22.056661 0.357201 0.509027 0.024171 -0.007190 -130254.000000 0 1 0
-9.092054 -2.755868 19.017094 21.258178 0.294305 0.463311 0.020062 -0.004936 54398.100000 0 1 0
-9.575954 -1.472068 18.816594 21.164359 0.152531 0.475487 0.008656 -0.011231 -915164.000000 0 1 0
-8.516954 -0.563268 18.192194 20.095066 0.066039 0.438696 0.009616 -0.011213 -451351.000000 0 1 0
-7.477054 -0.333168 19.140794 20.552064 0.044529 0.372743 0.015787 0.000951 76769.600000 0 1 0
-7.732654 0.580332 20.257094 21.690564 -0.074909 0.365591 0.024093 -0.001055 -501706.000000 0 1 0
-7.640454 2.100132 19.834694 21.358890 -0.268245 0.380070 0.010606 -0.014344 -188723.000000 0 1 0
-8.657154 2.589132 19.005094 21.043847 -0.290607 0.443818 0.003284 -0.021797 -143832.000000 0 1 0
-8.402254 3.944832 18.721994 20.896713 -0.438949 0.460276 -0.001225 -0.018623 -274873.000000 0 1 0
-9.386954 4.481632 17.712494 20.540992 -0.445431 0.531003 0.000260 -0.011970 -499415.000000 0 1 0
-10.675054 4.682832 18.277994 21.678809 -0.413393 0.567724 0.000284 -0.000876 266144.000000 0 1 0
-11.562654 5.251032 17.296994 21.458199 -0.426289 0.633301 -0.001579 0.009096 51069.300000 0 1 0
-11.459354 6.764632 17.222494 21.764451 -0.533268 0.657843 -0.004502 0.005788 -997094.000000 0 1 0
-10.254454 7.230732 16.682194 20.874216 -0.614161 0.644871 -0.009801 -0.005108 -53079.300000 0 1 0
-10.362954 8.617432 16.561194 21.352379 -0.693692 0.683110 -0.013610 -0.012392 -947159.000000 0 1 0
-9.040954 9.304432 16.657994 21.113978 -0.799759 0.661689 -0.012362 -0.006920 -909276.000000 0 1 0
-8.408554 9.433932 17.967294 21.966486 -0.842803 0.612973 -0.005264 0.002971 575673.000000 0 1 0
-7.395154 10.441132 17.985394 22.072153 -0.954541 0.618334 0.003311 -0.001772 356320.000000 0 1 0
-7.993554 11.906532 17.909894 22.943991 -0.979552 0.675184 0.003620 0.003376 32016.200000 0 1 0
-8.126554 12.373632 16.611094 22.250305 -0.989681 0.727926 0.000005 -0.002164 -56363.400000 0 1 0
-8.880054 13.576432 16.589794 23.203365 -0.991559 0.774210 0.010536 -0.003396 42464.300000 0 1 0
-8.799254 14.198432 15.199794 22.584421 -1.015993 0.832510 0.011018 0.000839 624794.000000 0 1 0
-7.557054 14.856132 14.991594 22.417886 -1.100227 0.838292 0.010550 0.003936 -2430.750000 0 1 0
-7.442854 15.256832 13.639894 21.776448 -1.116926 0.893922 0.004387 0.002561 10167.800000 0 1 0
-6.612954 16.571432 13.408294 22.318733 -1.191103 0.926340 -0.013536 0.005965 670711.000000 0 1 0
-5.223554 16.381432 13.667094 21.964205 -1.262118 0.899190 -0.015639 0.001676 -271645.000000 0 1 0
-4.552154 17.602532 13.605794 22.708784 -1.317733 0.928367 -0.013317 0.003400 -319850.000000 0 1 0
-3.033454 17.397632 13.580094 22.277756 -1.398172 0.915265 -0.002105 -0.001280 -11055.400000 0 1 0
-2.365254 16.777532 14.719494 22.444231 -1.430742 0.855521 0.004501 -0.006328 14060.400000 0 1 0
-2.552654 15.417932 14.932494 21.614996 -1.406721 0.808147 -0.001755 -0.003433 -133554.000000 0 1 0
-1.510754 14.825632 15.970394 21.843425 -1.469245 0.750819 -0.007025 0.000500 600930.000000 0 1 0
-0.315854 14.447632 15.270994 21.024678 -1.548938 0.757819 0.001402 -0.014559 87147.300000 0 1 0
0.685946 13.944332 16.126194 21.330004 1.521644 0.713565 0.001996 -0.007140 -179511.000000 0 1 0
1.637646 14.864232 16.837394 22.519439 1.461065 0.726231 0.002387 -0.003337 -870172.000000 0 1 0
0.977846 15.788632 17.654194 23.704591 1.508942 0.730624 -0.004563 -0.005886 127624.000000 0 1 0
1.899346 16.739032 18.274894 24.855069 1.457811 0.744749 0.001953 -0.004708 373669.000000 0 1 0
1.107546 17.892432 18.930994 26.071983 1.508975 0.758156 0.011717 -0.002332 262361.000000 0 0 1
0.427146 18.773832 18.107694 26.086928 1.548048 0.803587 0.005677 -0.002307 -515839.000000 0 0 1
-0.774254 18.288032 17.564294 25.368406 -1.528485 0.806029 0.001758 -0.003536 -895637.000000 0 0 1
-1.411154 19.374332 16.682094 25.605631 -1.498088 0.861235 0.004136 -0.000933 -343515.000000 0 0 1
-1.957854 20.366832 17.524394 26.939663 -1.474961 0.862547 -0.001434 -0.000252 -150770.000000 0 0 1
-2.625354 21.294032 16.681194 27.177022 -1.448125 0.909934 0.011737 -0.003859 -461162.000000 0 0 1
-3.237954 22.457132 17.469694 28.635596 -1.427599 0.914648 0.009423 0.001180 -974943.000000 0 0 1
-4.403254 22.122932 18.124294 28.936185 -1.374328 0.893929 0.016118 0.002409 -809440.000000 0 0 1
-4.842654 23.179232 18.896194 30.295119 -1.364837 0.897281 0.015936 0.006944 194591.000000 0 0 1
-5.858254 22.950432 20.055594 31.036564 -1.320876 0.868212 0.008865 0.006857 -1130760.000000 0 0 1
-7.148154 22.905732 19.650794 31.014873 -1.268305 0.884608 0.012061 0.007129 -1577410.000000 0 0 1
-8.061454 22.402732 20.626094 31.500876 -1.225380 0.856907 0.002443 0.001547 -11221.500000 0 0 1
-9.494354 22.647632 20.159194 31.771860 -1.173831 0.883437 0.013117 0.002833 -301951.000000 0 0 1
-10.044954 23.975332 20.333094 33.002308 -1.174044 0.907000 0.027115 0.002660 20807.300000 0 0 1
-11.152854 24.243932 19.509194 33.056967 -1.139636 0.939528 0.017881 0.003350 -327640.000000 0 0 1
-11.466754 25.743732 19.534394 34.290213 -1.151758 0.964682 0.032846 0.000281 -166524.000000 0 0 1
-12.171754 25.902732 20.749994 35.350606 -1.131515 0.943476 0.029581 0.000825 79377.100000 0 0 1
-12.647654 27.235932 20.786994 36.522024 -1.136054 0.965308 0.040133 -0.004701 -562029.000000 0 0 1
-13.573754 27.491932 21.973694 37.721298 -1.112173 0.948961 0.048150 -0.013086 -595870.000000 0 0 1
-14.798254 26.798932 21.852594 37.612590 -1.066269 0.950850 0.031059 -0.007909 -106881.000000 0 0 1
-15.654054 27.360132 22.831494 38.921759 -1.051108 0.943942 0.021793 -0.004827 -625575.000000 0 0 1
-17.086554 26.852432 22.836094 39.172575 -1.004103 0.948428 0.034651 0.005052 -484182.000000 0 0 1
-17.240054 25.526732 23.295894 38.620360 -0.976791 0.923286 0.041590 -0.000650 -1019400.000000 0 0 1
-18.541854 25.064832 23.308294 38.927146 -0.933884 0.928835 0.041692 0.009152 -712870.000000 0 0 1
26.862946 23.583832 23.956658 43.031808 0.720488 0.980365 0.034341 -0.002415 -18744.600000 0 0 1
26.628646 23.099732 25.263608 43.369717 0.714553 0.948974 0.042538 -0.023920 123349.000000 0 0 1
25.929346 21.867132 25.244808 42.282417 0.700612 0.930975 0.048995 -0.011750 10280.800000 0 0 1
25.455446 21.394332 26.630628 42.601497 0.698931 0.895524 0.056085 -0.020981 644848.000000 0 0 1
24.344146 22.190932 27.101978 42.656678 0.739160 0.882333 0.059093 -0.011949 580937.000000 0 0 1
23.948846 21.835632 28.384438 43.081532 0.739275 0.851502 0.052866 -0.017062 -1167220.000000 0 0 1
22.622746 22.335432 28.853268 42.932171 0.779008 0.833801 0.058044 -0.008715 -1227620.000000 0 0 1
22.580046 23.740432 28.819638 43.635286 0.810444 0.849357 0.062569 -0.030298 -90143.600000 0 0 1
21.624546 24.108232 29.790218 44.003238 0.839654 0.827117 0.082962 -0.024207 -108828.000000 0 0 1
21.397446 25.586532 30.089748 44.921201 0.874323 0.836811 0.064234 -0.016681 -370062.000000 0 0 1
20.561046 26.243932 29.148238 44.284539 0.906223 0.852366 0.045626 -0.040448 150324.000000 0 0 1
19.968946 27.372932 29.751578 45.090937 0.940535 0.850227 0.026081 -0.041143 143794.000000 0 0 1
18.646946 27.256732 30.568398 45.000722 0.970806 0.824006 0.035995 -0.034694 -317491.000000 0 0 1
17.535846 26.886032 29.751758 43.766788 0.992856 0.823335 0.051724 -0.028756 273591.000000 0 0 1
16.346846 26.949432 30.517038 43.872325 1.025556 0.801559 0.044808 -0.023313 -16270.400000 0 0 1
15.897746 25.732732 31.314928 43.537760 1.017389 0.768061 0.017069 -0.012752 -196307.000000 0 0 1
16.727446 25.453332 32.443278 44.499954 0.989390 0.753844 0.021973 -0.013251 662164.000000 0 0 1
15.940846 24.606432 33.246242 44.327189 0.995946 0.722705 0.005901 -0.004080 482202.000000 0 0 1
16.548346 24.542032 -34.177800 45.213727 0.977537 2.427849 0.027039 -0.000353 -108295.000000 0 0 1
16.353746 25.693132 -33.342036 45.158315 1.003968 2.401397 0.009812 0.001403 365078.000000 0 0 1
17.149946 25.467932 -32.176126 44.475154 0.978151 2.379602 0.022635 0.007790 399379.000000 0 0 1
17.602346 26.812032 -31.555926 44.994490 0.989859 2.348056 0.028830 0.000126 471715.000000 0 0 1
16.399246 27.499632 -31.178496 44.690756 1.033069 2.342908 0.032745 -0.008069 825257.000000 0 0 1
16.640446 28.757332 -30.606396 45.173444 1.046223 2.315196 0.034501 -0.005982 -113387.000000 0 0 1
15.993246 28.889932 -29.235606 44.103659 1.065199 2.295460 0.044214 -0.010404 -536741.000000 0 0 1
16.622146 28.080632 -28.334836 43.216670 1.036322 2.285834 0.040197 -0.003448 17982.800000 0 0 1
16.202946 28.460132 -27.030926 42.463932 1.053241 2.260829 0.026650 0.002094 -190221.000000 0 0 1
16.777246 27.517532 -25.966436 41.387756 1.023280 2.248999 0.022769 -0.000274 -418708.000000 0 0 1
18.158546 27.750532 -25.907526 42.083545 0.991370 2.233970 0.033755 -0.000521 -781020.000000 0 0 1
18.774546 27.225532 -24.747906 41.305835 0.967089 2.213221 0.032747 -0.000940 -193161.000000 0 0 1
20.301346 27.354932 -24.863206 42.173641 0.932341 2.201290 0.026973 0.002070 -330606.000000 0 0 1
20.957246 26.994532 -23.707406 41.592692 0.910642 2.177290 0.023624 0.003958 1540330.000000 0 0 1
22.381746 26.697532 -23.927306 42.263658 0.873108 2.172616 0.024146 0.006916 1930530.000000 0 0 1
23.265246 26.464032 -22.700806 41.915907 0.849634 2.143111 0.038040 0.002465 41731.800000 0 0 1
22.840146 25.327832 -22.002706 40.586826 0.836998 2.143748 0.032393 -0.002659 202325.000000 0 0 1
23.289346 25.428532 -20.647606 40.191137 0.829280 2.110329 0.026228 -0.002429 -241325.000000 0 0 1
22.771946 24.328432 -19.709706 38.715716 0.818432 2.104921 0.022683 -0.003078 -829208.000000 0 0 1
23.288646 23.066432 -20.015906 38.406482 0.780604 2.119005 0.024065 0.002043 158689.000000 0 0 1
23.079646 22.173932 -18.942806 37.191171 0.765387 2.105209 0.030538 -0.003186 -735514.000000 0 0 1
23.269746 20.677132 -19.295106 36.624118 0.726472 2.125677 0.044562 -0.008163 95508.000000 0 0 1
22.398846 20.141032 -20.266206 36.305490 0.732373 2.163027 0.024206 -0.006159 -481727.000000 0 0 1
21.074046 19.968332 -19.855706 35.172415 0.758464 2.170654 0.021343 -0.004863 -835743.000000 0 0 1
20.100646 19.868632 -21.035506 35.231960 0.779593 2.210624 0.030922 -0.001622 -174048.000000 0 0 1
20.149546 20.863632 -22.084406 36.455676 0.802808 2.221552 0.023374 -0.001071 -263961.000000 0 0 1
20.109746 22.234232 -21.683906 36.999389 0.835528 2.196985 0.020991 -0.002079 -103471.000000 0 0 1
19.851746 23.207532 -22.857106 38.146149 0.863175 2.213296 0.027231 -0.006305 680204.000000 0 0 1
18.495246 23.117832 -23.291206 37.669465 0.896030 2.237380 0.039673 -0.006340 111998.000000 0 0 1
18.224846 23.722632 -24.516806 38.677927 0.915719 2.257344 0.031495 -0.011514 215340.000000 0 0 1
16.749446 23.561832 -24.964606 38.196013 0.952811 2.283117 0.035733 -0.003929 560958.000000 0 0 1
15.846346 24.361832 -24.184406 37.808611 0.994099 2.264844 0.035909 -0.008091 355797.000000 0 0 1
14.490846 24.152632 -24.566906 37.374686 1.030399 2.288045 0.037953 -0.003798 396803.000000 0 0 1
13.678046 25.312732 -23.957306 37.440297 1.075383 2.265139 0.029243 0.001182 -17320.100000 0 0 1
13.980846 26.547932 -24.655006 38.834599 1.086075 2.258639 0.017522 0.002482 -57180.300000 0 0 1
13.024046 27.449132 -24.185806 38.833411 1.127773 2.243125 0.025904 0.007203 -153881.000000 0 0 1
13.030346 28.896232 -24.777606 40.233219 1.147164 2.234260 0.022526 0.000182 92650.900000 0 0 1
12.533046 28.977532 -26.132646 40.984019 1.162583 2.262214 0.027577 -0.004146 -118365.000000 0 0 1
12.008446 30.211832 -26.519386 41.955160 1.192469 2.255042 0.041278 -0.005581 -17384.900000 0 0 1
12.959446 31.467532 -26.493896 43.128637 1.180129 2.232294 0.050061 -0.007166 603384.000000 0 0 1
14.070446 31.330532 -27.373316 43.918995 1.148694 2.243711 0.033592 0.002223 92343.800000 0 0 1
14.745446 32.554632 -27.634516 45.176307 1.145496 2.229009 0.029191 -0.006026 435918.000000 0 0 1
16.197446 32.346932 -28.165666 45.847421 1.106556 2.232339 0.019277 0.009238 660410.000000 0 0 1
17.050246 31.886332 -27.081386 45.175774 1.079760 2.213631 -0.002297 0.016357 16511.900000 0 0 1
18.347446 31.780632 -27.633646 45.937520 1.047224 2.216234 0.018271 0.017595 -267772.000000 0 0 1
19.332846 30.895932 -26.780966 45.227621 1.011664 2.204505 0.010540 0.021628 -448648.000000 0 0 1
19.831246 31.395732 -25.595426 45.100955 1.007426 2.174280 0.017882 0.017160 -224045.000000 0 0 1
20.519746 32.616132 -25.572676 46.247528 1.009234 2.156700 0.016384 0.012563 -583071.000000 0 0 1
22.011346 32.564832 -25.943926 47.096231 0.976412 2.154203 0.014147 0.018317 -477251.000000 0 0 1
22.136346 32.082432 -27.244056 47.555640 0.966825 2.180821 0.012716 0.026092 225421.000000 0 0 1
23.397846 32.309032 -27.875466 48.665947 0.944020 2.180704 0.017701 0.029656 -128936.000000 0 0 1
23.467546 31.624132 -29.236326 49.046653 0.932385 2.209422 0.006173 0.025787 -624331.000000 0 0 1
22.562346 32.089532 -30.177266 49.492069 0.957989 2.226528 0.012837 0.017878 333733.000000 0 0 1
21.355446 31.270732 -30.111266 48.379770 0.971625 2.242594 0.006430 0.015881 304490.000000 0 0 1
20.287546 31.899132 -31.017506 48.900152 1.004333 2.257903 -0.006322 0.012046 -374764.000000 0 0 1
19.804746 33.181532 -30.525906 49.245030 1.032688 2.239383 0.001036 0.015197 216753.000000 0 0 1
19.081146 33.943032 -31.475326 50.069109 1.058671 2.250596 -0.003607 0.005619 186697.000000 0 0 1
17.524246 33.931932 -31.463386 49.481510 1.094073 2.259921 0.000981 0.001902 234048.000000 0 0 1
16.876046 32.782732 -31.930086 48.775392 1.095391 2.284496 0.012864 -0.002395 79287.100000 0 0 1
17.172146 32.293432 -33.266866 49.441205 1.082070 2.308861 0.015740 -0.011832 -624975.000000 0 0 1
16.747446 33.103632 34.329772 50.545630 1.102432 0.824146 0.014278 -0.019635 -367257.000000 0 0 1
17.531046 34.267132 34.142742 51.451927 1.097912 0.845195 0.008525 -0.007200 78760.500000 0 0 1
17.349646 -34.060493 32.913667 50.442412 -1.099675 0.859918 0.010604 -0.016951 35475.800000 0 0 1
15.903346 -33.536793 32.591298 49.394591 -1.127996 0.850224 0.011457 -0.015727 -175913.000000 0 0 1
15.054246 34.441432 32.289978 49.552853 1.158724 0.861069 0.023795 -0.022985 -264983.000000 0 0 1
13.685246 -34.257593 32.135418 48.923959 -1.190738 0.854171 0.025953 -0.020042 425888.000000 0 0 1
13.289546 -33.522493 30.846058 47.453650 -1.193366 0.863179 0.005042 -0.011896 -1219900.000000 0 0 1
13.623546 -32.160493 30.743168 46.529998 -1.170103 0.849023 0.015042 -0.013444 87450.200000 0 0 1
12.993446 -31.692993 29.610568 45.277602 -1.181717 0.857965 0.014847 -0.015812 -209594.000000 0 0 1
13.370546 -30.218293 29.350528 44.196949 -1.154226 0.844527 0.023842 -0.016312 -229235.000000 0 0 1
12.975746 -29.386893 30.388658 44.220245 -1.154993 0.813153 0.018588 -0.006979 333420.000000 0 0 1
13.455446 -28.059593 30.264938 43.409173 -1.123658 0.799310 0.037946 -0.014598 -643023.000000 0 0 1
13.083546 -27.214893 31.552358 43.673572 -1.122667 0.763444 0.029300 -0.007953 663331.000000 0 0 1
11.689946 -26.900993 31.651418 43.152411 -1.160861 0.747369 0.026685 -0.003964 899988.000000 0 0 1
11.094246 -26.027593 30.644488 41.708543 -1.167868 0.745529 0.011205 -0.004334 -210593.000000 0 0 1
11.181446 -24.481493 30.992298 41.047421 -1.142359 0.715087 0.009360 -0.004205 -102892.000000 0 0 1
10.372246 -24.095993 32.071368 41.433960 -1.164314 0.685606 0.018154 -0.007390 -67764.400000 0 0 1
10.815446 -22.835593 32.547928 41.204439 -1.128473 0.660129 0.012665 -0.005994 341115.000000 0 0 1
9.940846 -22.256393 33.715967 41.604494 -1.150731 0.625975 0.007285 -0.008213 -73808.700000 0 0 1
9.923646 -22.998193 -33.906366 42.154920 -1.163436 2.505339 0.004507 -0.002060 442087.000000 0 0 1
11.175146 -23.149293 -33.238176 42.018449 -1.121050 2.483300 0.004008 -0.005931 477692.000000 0 0 1
11.820746 -21.937593 -32.517406 40.967911 -1.076565 2.487711 0.007273 -0.017167 -192646.000000 0 0 1
12.197146 -20.913093 -33.450106 41.292099 -1.042799 2.515093 -0.001551 -0.016233 -310199.000000 0 0 1
13.228446 -20.094893 -33.001806 40.840124 -0.988609 2.511670 0.001354 -0.025058 -598217.000000 0 0 1
13.436246 -18.958993 -34.052006 41.225177 -0.954255 2.542771 -0.001798 -0.017565 -819664.000000 0 0 1
13.986546 -19.450993 33.653227 41.309857 -0.947389 0.618665 0.014187 -0.006148 37478.700000 0 0 1
13.859346 -18.586993 32.540788 39.955734 -0.930087 0.619066 -0.001544 -0.001848 -231065.000000 0 0 1
14.803746 -17.342893 32.447428 39.658069 -0.864221 0.612558 0.010602 -0.004697 -435627.000000 0 0 1
14.405346 -16.334893 33.324032 39.809972 -0.848085 0.578877 0.005718 -0.005953 244523.000000 0 0 1
15.135446 -15.131293 33.124964 39.437305 -0.785261 0.573624 0.023789 -0.009608 548983.000000 0 0 1
16.512346 -15.065893 33.891261 40.598723 -0.739625 0.583052 0.027769 0.003251 239155.000000 0 0 1
17.405746 -15.904093 33.230560 40.745188 -0.740347 0.617082 0.035751 -0.000459 -296773.000000 0 0 1
18.753546 -15.549293 33.529519 41.445201 -0.692258 0.628333 0.050401 -0.000455 496412.000000 0 0 1
19.742646 -16.249693 32.547248 41.390192 -0.688654 0.665915 0.068726 -0.006749 -285549.000000 0 0 1
19.735446 -15.768293 31.227718 40.165872 -0.674121 0.680165 0.051507 -0.001068 122473.000000 0 0 1
20.514646 -16.475293 30.306048 40.134057 -0.676628 0.714958 0.047796 -0.000484 -610314.000000 0 0 1
20.800446 -15.613793 29.072848 39.008712 -0.643915 0.729825 0.033237 0.006641 -460360.000000 0 0 1
21.577446 -14.455293 29.315708 39.165705 -0.590256 0.724992 0.029224 0.001104 355396.000000 0 0 1
21.979046 -13.884893 28.115948 38.293280 -0.563427 0.746269 0.017594 -0.003893 95042.600000 0 0 1
22.777746 -12.542593 28.299278 38.431647 -0.503343 0.743131 0.007408 -0.000207 642220.000000 0 0 1
21.953146 -11.438093 28.791038 37.969652 -0.480324 0.710149 0.013886 -0.007516 253345.000000 0 0 1
22.673246 -10.262993 28.927108 38.159962 -0.425054 0.710480 0.014016 -0.006891 -628830.000000 0 0 1
21.834746 -9.007493 28.948468 37.361811 -0.391261 0.684375 0.024997 -0.010391 -663737.000000 0 0 1
20.855546 -9.051393 29.924948 37.581698 -0.409472 0.649702 0.033959 -0.017658 -787496.000000 0 0 1
19.882146 -8.065893 29.693948 36.634532 -0.385398 0.625714 0.039269 -0.021104 413230.000000 0 0 1
18.595746 -8.126993 30.581268 36.702367 -0.412020 0.585885 0.036573 -0.018217 269089.000000 0 0 1
18.793846 -7.721493 31.961998 37.873466 -0.389827 0.566256 0.039316 -0.022428 10210.000000 0 0 1
19.487946 -8.607993 32.781298 39.095922 -0.415937 0.576301 0.036647 -0.024854 -749746.000000 0 0 1
19.521646 -8.084993 34.228020 40.224609 -0.392649 0.553058 0.043473 -0.026054 881513.000000 0 0 1
18.228546 -7.983093 -33.996046 39.392142 -0.412784 2.612006 0.039191 -0.031420 904397.000000 0 0 1
18.404146 -7.294493 -32.782536 38.296435 -0.377356 2.598318 0.028373 -0.032674 -269491.000000 0 0 1
17.137346 -6.759293 -32.123986 37.031435 -0.375686 2.620908 0.024227 -0.027152 -214686.000000 0 0 1
17.511746 -5.908093 -31.040176 36.125605 -0.325387 2.604557 0.010006 -0.022148 692529.000000 0 0 1
16.345646 -5.612093 -30.272086 34.857925 -0.330728 2.622847 0.014175 -0.010230 406711.000000 0 0 1
16.486546 -4.586193 -29.156186 33.807138 -0.271318 2.610841 0.002938 0.000218 -417000.000000 0 0 1
17.356946 -4.969093 -28.106926 33.405909 -0.278830 2.570620 0.000100 0.006715 177017.000000 0 0 1
16.884346 -5.881193 -27.074796 32.445557 -0.335179 2.557964 -0.007306 0.004714 -14472.900000 0 0 1
15.558246 -5.500193 -26.353306 31.093535 -0.339810 2.582147 0.004493 0.004829 -63065.700000 0 0 1
15.551746 -4.397993 -25.511936 30.200299 -0.275601 2.576909 -0.019153 0.010817 -256201.000000 0 0 1
14.352046 -4.422593 -24.763606 28.961643 -0.298918 2.596440 0.004975 0.002675 23629.500000 0 0 1
14.138946 -3.251593 -23.828506 27.897677 -0.226044 2.594690 0.004058 -0.000701 -81809.100000 0 0 1
14.014346 -1.957593 -24.442306 28.242882 -0.138787 2.616809 -0.001036 -0.008308 -118809.000000 0 0 1
13.628446 -1.064593 -23.455306 27.148099 -0.077957 2.613909 0.004421 -0.014941 -68109.300000 0 0 1
13.987146 0.378407 -23.846006 27.648064 0.027047 2.610953 -0.003793 -0.013521 -77404.700000 0 0 1
13.159046 0.793407 -24.931106 28.201951 0.060221 2.655191 0.014748 -0.017054 426735.000000 0 0 1
13.566846 2.080407 -25.271346 28.758100 0.152160 2.644045 0.014548 -0.002468 -124931.000000 0 0 1
12.889946 2.514407 -26.601336 29.666547 0.192648 2.683003 0.021118 -0.000471 499780.000000 0 0 1
11.658546 3.207407 -26.385826 29.024489 0.268470 2.711887 0.025252 -0.014483 188998.000000 0 0 1
11.095646 3.459407 -27.621856 29.967446 0.302229 2.743311 0.029265 -0.013003 -89885.700000 0 0 1
9.801946 4.307407 -27.573036 29.578780 0.414041 2.771212 0.031403 -0.011107 95397.700000 0 0 1
10.048746 5.694407 -27.155286 29.509543 0.515558 2.739440 0.031992 -0.019772 435799.000000 0 0 1
8.818546 6.385407 -26.950086 29.066257 0.626710 2.757650 0.037178 -0.021423 396079.000000 0 0 1
7.641446 5.175932 -31.270866 32.604433 0.595362 2.854597 0.033849 -0.006353 -60592.200000 0 0 1
7.722046 4.213632 -30.205376 31.460283 0.499507 2.858197 0.030973 0.003972 327083.000000 0 0 1
7.841446 2.919532 -30.782756 31.899687 0.356420 2.876187 0.027338 0.009697 -297274.000000 0 0 1
7.647946 1.779332 -29.726606 30.746190 0.228588 2.883344 0.030025 0.005529 -644219.000000 0 0 1
8.692446 1.419732 -28.871466 30.185026 0.161900 2.845497 0.037867 0.000136 -255804.000000 0 0 1
8.355246 0.470332 -27.931196 29.157899 0.056232 2.850493 0.045041 -0.004750 -227893.000000 0 0 1
9.575646 -0.017368 -27.131406 28.771627 -0.001814 2.802304 0.039336 -0.016088 204392.000000 0 0 1
10.448646 -0.884968 -27.846756 29.755658 -0.084495 2.781452 0.037180 -0.003084 222232.000000 0 0 1
11.643246 -1.132168 -27.125406 29.540390 -0.096933 2.734430 0.027770 -0.003685 219867.000000 0 0 1
12.417146 -2.345668 -27.690036 30.437243 -0.186705 2.713458 0.019985 -0.001269 371397.000000 0 0 1
11.627846 -3.530268 -27.752906 30.296755 -0.294761 2.728879 0.034061 -0.001275 1211300.000000 0 0 1
12.556346 -4.614068 -28.102806 31.124254 -0.352152 2.697319 0.032247 0.001531 727049.000000 0 0 1
11.972346 -5.943968 -27.672646 30.731794 -0.460823 2.691614 0.033449 0.001028 -142293.000000 0 0 1
11.823546 -5.912368 -26.281786 29.419120 -0.463688 2.675558 0.023551 0.002826 -78132.400000 0 0 1
11.233546 -7.070468 -25.754576 28.973820 -0.561762 2.665716 0.029883 0.003088 -182383.000000 0 0 1
10.820346 -6.847968 -24.302306 27.469558 -0.564245 2.656645 0.037682 -0.003016 -280724.000000 0 0 1
11.895846 -6.595068 -23.426406 27.088791 -0.506216 2.615550 0.012626 0.005386 158222.000000 0 0 1
11.420946 -6.605368 -22.116806 25.753097 -0.524352 2.603723 0.019691 -0.008699 1023690.000000 0 0 1
12.695446 -6.647668 -21.163706 25.559114 -0.482369 2.546381 0.007585 -0.008482 1130580.000000 0 0 1
13.206446 -5.376768 -21.020706 25.400589 -0.386640 2.545557 -0.010559 -0.010448 -426619.000000 0 0 1
14.366546 -5.380068 -20.223306 25.383555 -0.358320 2.492626 -0.013451 -0.004145 -52175.200000 0 0 1
14.726346 -4.045468 -19.465206 24.741167 -0.268096 2.476329 -0.012238 -0.003251 309350.000000 0 1 0
15.458646 -3.151868 -20.343206 25.743932 -0.201133 2.481954 -0.012120 0.000207 329487.000000 0 0 1
15.866446 -1.945668 -19.745806 25.405247 -0.122019 2.461053 -0.012352 -0.002481 -53047.400000 0 0 1
16.841046 -1.193868 -20.683706 26.699473 -0.070772 2.457015 -0.015207 0.001365 119270.000000 0 0 1
18.065546 -1.860068 -20.875806 27.669895 -0.102601 2.425626 -0.007788 -0.005049 -394205.000000 0 0 1
18.881246 -1.160168 -21.767106 28.838418 -0.061368 2.426139 -0.003637 -0.002224 460984.000000 0 0 1
20.236146 -1.902668 -22.036806 29.979036 -0.093748 2.396572 -0.002079 -0.004101 -6909.850000 0 0 1
21.218146 -1.734968 -21.043006 29.933726 -0.081587 2.350384 0.008891 -0.005305 652941.000000 0 0 1
22.475946 -2.374268 -21.271706 31.036926 -0.105246 2.325905 0.001296 -0.005462 715205.000000 0 0 1
23.450746 -1.706168 -22.294406 32.401991 -0.072627 2.329604 0.019033 -0.010996 -795690.000000 0 0 1
23.076846 -1.893068 -23.678906 33.118199 -0.081850 2.367394 0.014955 -0.010006 320634.000000 0 0 1
23.939046 -1.240868 -24.611706 34.356277 -0.051788 2.369378 0.021051 -0.004659 291604.000000 0 0 1
25.262946 -2.000468 -24.870606 35.507258 -0.079021 2.346806 0.026782 -0.018509 -1054790.000000 0 0 1
26.262046 -1.825968 -23.921306 35.570467 -0.069417 2.308384 0.022200 -0.010599 223370.000000 0 0 1
27.470946 -2.547368 -24.198506 36.697543 -0.092465 2.290822 0.012278 -0.010758 447164.000000 0 0 1
28.487646 -1.863868 -25.087236 38.005123 -0.065334 2.291750 0.012963 -0.005724 -1358100.000000 0 0 1
28.034746 -1.671668 -26.396416 38.542344 -0.059558 2.325219 0.026089 -0.006021 -11177.900000 0 0 1
28.724546 -0.675368 -27.110306 39.503473 -0.023508 2.327154 0.017886 -0.004183 -646025.000000 0 0 1
28.038546 -0.331068 -28.485146 39.970905 -0.011807 2.364061 0.021676 -0.007879 1021790.000000 0 0 1
26.699946 0.201632 -28.490436 39.046546 0.007552 2.388611 0.031304 -0.005945 907394.000000 0 0 1
26.548646 1.466132 -27.873206 38.521368 0.055168 2.379768 0.026809 -0.002334 -607672.000000 0 0 1
25.085946 1.940832 -28.010976 37.652175 0.077213 2.409744 0.025028 -0.003961 19833.900000 0 0 1
24.245346 1.377832 -27.009836 36.321708 0.056768 2.409277 0.023376 -0.008637 -34049.100000 0 0 1
22.917546 1.658532 -27.384936 35.747718 0.072244 2.443487 0.020880 -0.005291 198131.000000 0 0 1
21.800646 1.454932 -26.294016 34.187136 0.066639 2.448260 0.023471 -0.005513 450814.000000 0 0 1
21.849546 2.382532 -25.202846 33.440433 0.108614 2.424415 0.029977 -0.003505 -16902.700000 0 0 1
20.929946 1.935532 -24.256006 32.096149 0.092214 2.427564 0.026151 -0.008969 -362836.000000 0 0 1
21.071646 2.565732 -22.824206 31.169563 0.121166 2.392430 0.020361 -0.004284 -394123.000000 0 0 1
20.726346 3.881232 -22.643306 30.941311 0.185117 2.391777 0.024375 -0.010103 321042.000000 0 0 1
21.000446 4.311832 -21.321406 30.235955 0.202507 2.353455 0.020677 -0.008782 -396317.000000 0 0 1
20.613746 5.794232 -21.082006 30.049137 0.274015 2.348415 0.023817 -0.007519 -165024.000000 0 0 1
21.470846 6.799532 -21.624706 31.222729 0.306695 2.335877 0.020313 -0.003234 415944.000000 0 0 1
21.076746 8.106032 -21.252906 31.010047 0.367157 2.325888 0.017134 -0.006685 -444430.000000 0 0 1
21.348046 8.480032 -19.831306 30.346840 0.378114 2.282980 0.010911 -0.006661 446728.000000 0 0 1
22.738846 8.461532 -19.467606 31.106918 0.356242 2.246990 0.008437 -0.001304 925328.000000 0 0 1
23.014546 8.790932 -18.092106 30.565898 0.364870 2.204217 0.012779 -0.009932 -71130.900000 0 0 1
22.798246 10.248632 -17.491106 30.507922 0.422468 2.181361 0.016814 -0.017265 963588.000000 0 0 1
21.399346 10.563232 -17.293406 29.471610 0.458534 2.197875 0.018467 -0.025880 837964.000000 0 0 1
21.258746 11.998132 -17.147006 29.831347 0.513821 2.183154 0.005992 -0.018068 -51544.500000 0 0 1
19.760446 12.375332 -16.995406 28.852520 0.559511 2.200672 0.011772 -0.021704 428119.000000 0 0 1
18.886846 12.161132 -18.078806 28.834863 0.572071 2.248463 0.010493 -0.023215 142114.000000 0 0 1
18.539646 10.823532 -18.356106 28.245601 0.528426 2.278216 0.020447 -0.020713 -634716.000000 0 0 1
17.817546 10.547032 -19.708006 28.585142 0.534477 2.331525 0.029092 -0.018981 112851.000000 0 0 1
18.633246 10.791032 -20.836006 29.963034 0.524931 2.339759 0.043353 -0.024784 509659.000000 0 0 1
17.923146 10.451732 -22.042806 30.271491 0.527931 2.386445 0.031885 -0.024003 477834.000000 0 0 1
18.841546 10.678132 -23.305106 31.814373 0.515599 2.392833 0.047660 -0.022770 264182.000000 0 0 1
19.134246 12.003132 -23.596406 32.664735 0.560260 2.378037 0.039917 -0.018625 171076.000000 0 0 1
19.820946 12.132932 -24.838106 34.014842 0.549289 2.389431 0.044261 -0.017969 45948.800000 0 0 1
20.179946 13.618932 -25.081456 34.954041 0.593663 2.371082 0.048604 -0.024165 -170898.000000 0 0 1
20.774546 13.770632 -26.364226 36.280635 0.585363 2.384266 0.046052 -0.027792 214663.000000 0 0 1
20.746946 15.147432 -26.795386 37.119714 0.630646 2.377288 0.043980 -0.018248 27868.100000 0 0 1
19.385846 15.543732 -27.394006 36.984459 0.675843 2.404893 0.043601 -0.021536 132226.000000 0 0 1
18.250346 15.477532 -26.549476 35.742185 0.703371 2.408047 0.038700 -0.016408 -1057490.000000 0 0 1
17.142846 15.870732 -27.252336 35.894946 0.746884 2.432918 0.037486 -0.018220 -337744.000000 0 0 1
15.806646 15.451132 -26.557436 34.552640 0.774025 2.447459 0.031682 -0.025076 223560.000000 0 0 1
15.639846 14.035532 -26.483926 33.808272 0.731389 2.470844 0.033655 -0.020205 976015.000000 0 0 1
14.278946 13.610132 -26.227756 32.817970 0.761422 2.496741 0.031270 -0.025064 1124370.000000 0 0 1
14.245046 12.110932 -26.022186 32.042943 0.704602 2.518544 0.030479 -0.022629 299091.000000 0 0 1
12.926446 11.591832 -25.955036 31.227031 0.731018 2.552009 0.032912 -0.024244 183205.000000 0 0 1
12.926046 10.249132 -25.591606 30.447622 0.670400 2.569025 0.039087 -0.019935 639460.000000 0 0 1
11.454346 9.703432 -25.467496 29.562679 0.702831 2.608963 0.040442 -0.024723 1047360.000000 0 0 1
10.653946 10.423032 -24.521606 28.695911 0.774443 2.595448 0.042126 -0.027083 525747.000000 0 0 1
9.426246 9.714632 -24.325506 27.838075 0.800464 2.633803 0.034519 -0.024726 783829.000000 0 0 1
8.419646 10.331432 -23.298606 26.841274 0.887003 2.621985 0.022115 -0.019452 720037.000000 0 0 1
7.689646 11.551832 -23.673006 27.440603 0.983488 2.611381 0.019534 -0.019482 622147.000000 0 0 1
6.996446 12.239332 -22.606506 26.642178 1.051494 2.583985 0.021503 -0.014378 -132287.000000 0 0 1
7.833946 13.174632 -21.799006 26.648420 1.034339 2.528761 0.027994 -0.013546 -159357.000000 0 0 1
8.884846 12.467532 -21.173806 26.128718 0.951638 2.515572 0.026650 -0.009464 -285431.000000 0 0 1
9.691146 13.158932 -20.274806 26.041190 0.936011 2.463175 0.026475 -0.010624 -534059.000000 0 0 1
10.584846 12.285132 -19.412706 25.294596 0.859607 2.445673 0.030118 -0.009631 831504.000000 0 0 1
11.753246 11.632332 -20.004006 25.954002 0.780228 2.450811 0.042650 -0.015278 1143580.000000 0 0 1
11.456546 10.544732 -20.898006 26.060899 0.743978 2.501250 0.043434 -0.021254 -639603.000000 0 0 1
12.658146 10.036932 -21.707006 27.058507 0.670411 2.501809 0.041642 -0.021750 -365410.000000 0 0 1
13.492246 9.198532 -20.972806 26.580299 0.598382 2.480034 0.051083 -0.025749 -603720.000000 0 0 1
14.498746 8.720232 -21.787806 27.585586 0.541483 2.481321 0.057107 -0.031744 -804010.000000 0 0 1
15.272846 7.480732 -21.341406 27.288767 0.455459 2.468758 0.065870 -0.025789 560689.000000 0 0 1
16.099146 7.724632 -20.158806 26.930093 0.447371 2.416685 0.030225 -0.025570 527564.000000 0 0 1
16.565746 6.541732 -19.619206 26.497763 0.376098 2.404476 0.015919 -0.018484 246472.000000 0 0 1
17.259846 6.622832 -18.209706 25.949135 0.366388 2.348642 0.026749 -0.015972 -834187.000000 0 0 1
18.390546 7.409432 -18.115806 26.856923 0.382998 2.311124 0.021479 -0.020875 -89926.900000 0 0 1
19.189246 7.433832 -16.929006 26.647332 0.369594 2.259191 0.018599 -0.022690 501719.000000 0 0 1
19.770246 6.054432 -16.478206 26.439555 0.297171 2.243676 0.003972 -0.019473 -1259200.000000 0 0 1
20.845346 5.584632 -17.205606 27.599809 0.261761 2.243875 0.004179 -0.019411 -46071.800000 0 0 1
21.490446 4.493132 -16.522406 27.477580 0.206107 2.215930 0.014691 -0.019978 751149.000000 0 0 1
22.935446 4.107732 -16.999306 28.842409 0.177221 2.201095 0.002422 0.003061 476197.000000 0 0 1
23.539846 3.151232 -16.161306 28.727033 0.133077 2.168302 0.001582 0.006242 -267467.000000 0 0 1
24.797746 2.798932 -16.662306 30.006577 0.112395 2.159506 0.006917 0.001313 -418485.000000 0 0 1
25.386346 1.709132 -15.731606 29.914397 0.067223 2.124554 0.028573 -0.006251 -371370.000000 0 0 1
24.855346 0.440532 -15.889906 29.503753 0.017722 2.139538 0.022719 0.001970 224216.000000 0 0 1
25.925646 -0.499368 -15.847606 30.389721 -0.019259 2.119380 0.023663 0.001983 279966.000000 0 0 1
25.510846 -2.011268 -16.121306 30.244751 -0.078677 2.132972 0.016722 -0.005101 22373.900000 0 0 1
24.872046 -2.741768 -15.060606 29.205442 -0.109792 2.112595 0.014178 -0.004606 483895.000000 0 0 1
24.724046 -4.151368 -15.281206 29.360306 -0.166356 2.118200 0.015979 -0.007609 -1051390.000000 0 0 1
24.197346 -4.881768 -14.000706 28.378918 -0.199076 2.086732 0.012794 -0.006994 1707710.000000 0 0 1
22.788346 -4.814268 -13.615906 26.979229 -0.208199 2.099809 0.008063 0.000487 1916900.000000 0 0 1
21.836146 -5.183968 -14.614706 26.782092 -0.233088 2.148008 0.001080 0.004946 -167677.000000 0 0 1
20.391346 -5.393468 -14.096806 25.369597 -0.258577 2.159950 0.008019 0.002799 -117502.000000 0 0 1
20.253646 -6.505968 -13.229006 25.050836 -0.310813 2.127142 0.008862 0.008620 661313.000000 0 0 1
20.693546 -6.159368 -11.885706 24.646109 -0.289297 2.074023 0.021690 0.001926 -472496.000000 0 1 0
20.487746 -7.434268 -11.001806 24.414255 -0.348089 2.038268 0.026077 0.001054 303941.000000 0 1 0
19.110646 -7.750868 -10.749206 23.255928 -0.385306 2.051286 0.035403 -0.007335 1301960.000000 0 1 0
18.705346 -8.865868 -11.560706 23.709566 -0.442612 2.080131 0.017551 -0.008013 -1095330.000000 0 1 0
17.281746 -9.267768 -11.264206 22.614876 -0.492245 2.092189 0.040730 -0.026186 -1142650.000000 0 1 0
16.311346 -8.331868 -11.604906 21.683032 -0.472252 2.135549 0.037424 -0.019113 -613365.000000 0 1 0
15.145046 -8.923268 -12.086106 21.332395 -0.532431 2.173123 0.033051 -0.019866 -349064.000000 0 1 0
14.113146 -7.848668 -12.543906 20.448278 -0.507533 2.231213 0.026022 -0.015695 -215330.000000 0 1 0
14.281346 -7.189268 -13.765106 21.097881 -0.466366 2.281596 0.025435 -0.010668 263224.000000 0 1 0
15.275346 -6.184368 -13.741506 21.457204 -0.384689 2.265834 0.026535 -0.006923 -94837.600000 0 1 0
14.972746 -5.106268 -14.740406 21.622596 -0.328668 2.320898 0.000333 -0.006169 -124255.000000 0 1 0
13.954046 -4.231968 -14.299906 20.423327 -0.294462 2.346439 0.011650 -0.008416 5171.950000 0 1 0
13.506046 -3.243668 -15.203206 20.593012 -0.235700 2.401298 -0.004796 -0.014487 -214951.000000 0 1 0
14.416346 -1.996668 -15.380806 21.175149 -0.137625 2.383809 -0.001459 -0.014614 -132095.000000 0 1 0
15.544746 -2.297868 -16.196406 22.566411 -0.146760 2.371321 -0.014656 -0.005583 261814.000000 0 1 0
16.617046 -1.380068 -16.048206 23.142509 -0.082861 2.337065 -0.007634 -0.001104 209310.000000 0 1 0
17.673146 -1.946868 -15.069606 23.307154 -0.109717 2.273870 0.008463 0.001595 -637298.000000 0 1 0
17.304546 -2.075568 -13.704806 22.171536 -0.119373 2.237153 0.005544 0.001994 -19594.700000 0 1 0
18.462946 -2.496468 -13.051606 22.747685 -0.134400 2.181880 0.007272 0.011305 -285899.000000 0 1 0
18.287946 -2.639468 -11.539406 21.784712 -0.143338 2.129046 0.017866 0.006872 -390848.000000 0 1 0
17.982646 -1.495868 -10.793506 21.026482 -0.082993 2.109856 0.013882 0.004486 799935.000000 0 1 0
17.647246 -1.858868 -9.474506 20.115838 -0.104948 2.061217 0.024303 0.000479 -914476.000000 0 1 0
17.697046 -0.605868 -8.506706 19.644759 -0.034222 2.018644 0.023366 0.000250 259525.000000 0 1 0
19.007446 -0.223468 -8.086406 20.657273 -0.011756 1.973009 0.024115 0.002284 1403780.000000 0 1 0
19.956946 0.338032 -8.997906 21.894207 0.016936 1.994316 0.015019 0.007694 -161080.000000 0 1 0
19.594046 1.688732 -9.705006 21.930928 0.085974 2.029210 0.007174 0.009444 -789162.000000 0 1 0
19.353646 2.742532 -8.817406 21.443688 0.140769 1.994554 0.003093 0.008914 536922.000000 0 1 0
18.838946 3.868232 -9.431506 21.420141 0.202517 2.026740 -0.002510 0.004663 -404225.000000 0 1 0
18.865746 5.255632 -8.736006 21.444250 0.271692 1.990382 0.027576 0.002411 -380439.000000 0 1 0
18.071846 6.245432 -9.300906 21.262735 0.332740 2.023532 0.020385 -0.009702 236797.000000 0 1 0
18.667146 7.521932 -9.205506 22.131045 0.383047 1.999788 0.053200 -0.005045 -242208.000000 0 1 0
-25.629204 -29.613178 5.767894 39.586172 0.857392 1.424571 0.025885 -0.008671 162518.000000 0 0 1
-26.003404 -28.639648 6.737994 39.265850 0.833606 1.398343 0.008328 -0.007163 593021.000000 0 0 1
-24.967854 -27.634698 6.693094 37.840028 0.836053 1.392982 0.025237 -0.004401 306424.000000 0 0 1
-25.302664 -26.424868 7.582094 37.362904 0.807089 1.366446 0.010869 -0.000761 -188827.000000 0 0 1
-26.438864 -25.567158 7.283794 37.493289 0.768638 1.375284 -0.007667 -0.001311 1980720.000000 0 0 1
-27.744554 -26.136268 7.612194 38.869143 0.755558 1.373681 0.007238 -0.001851 1180200.000000 0 0 1
-27.951184 -26.250068 9.122394 39.415134 0.754023 1.337235 -0.012036 0.001538 -782568.000000 0 0 1
-26.943474 -26.957768 9.846694 39.365333 0.785663 1.317975 -0.007730 0.000820 -59159.800000 0 0 1
-27.315314 -27.090098 11.197094 40.067127 0.781259 1.287566 -0.003508 -0.001020 -616516.000000 0 0 1
-26.280944 -27.910958 11.947494 40.155351 0.815468 1.268690 -0.006631 0.000864 920956.000000 0 0 1
-25.113004 -27.176778 12.399594 39.025506 0.824846 1.247461 -0.000100 0.001169 854377.000000 0 0 1
-25.411694 -26.586718 13.654194 39.230661 0.807992 1.215307 0.004364 -0.006789 -444962.000000 0 0 1
-24.202354 -25.803018 14.244694 38.137396 0.817397 1.188006 0.022846 -0.010071 -194861.000000 0 0 1
-23.314654 -26.747968 14.731294 38.419239 0.853871 1.177283 0.042068 -0.011156 -464124.000000 0 0 1
-22.242554 -26.154618 15.460694 37.654061 0.866055 1.147686 0.040181 -0.015965 493912.000000 0 0 1
-21.243754 -27.225928 15.976894 38.050090 0.908198 1.137471 0.031710 -0.022801 -225654.000000 0 0 1
-21.869954 -28.063838 16.934694 39.403778 0.908810 1.126555 0.037063 -0.016772 353273.000000 0 0 1
-21.187454 -29.291078 17.127694 40.002917 0.944576 1.128339 0.038997 -0.021543 -260002.000000 0 0 1
-21.858154 -30.199588 18.221094 41.494605 0.944282 1.116178 0.033566 -0.023923 162205.000000 0 0 1
-23.021454 -30.800328 17.681894 42.323716 0.928934 1.139799 0.020438 -0.018630 -132958.000000 0 0 1
-23.686254 -31.534908 18.636194 43.621059 0.926584 1.129370 0.020492 -0.017544 -531455.000000 0 0 1
-24.851954 -32.360098 18.070594 44.624454 0.915886 1.153874 0.016668 -0.018796 -211080.000000 0 0 1
-24.385554 -33.262008 17.066094 44.634829 0.938176 1.178459 0.018498 -0.018765 38818.400000 0 0 1
-25.346774 -34.203643 16.669994 45.719108 0.933045 1.197574 0.016306 -0.014430 -739512.000000 0 0 1
-24.956654 34.055504 15.361694 44.928761 -0.938379 1.221845 0.010497 -0.021853 254573.000000 0 0 1
-23.802354 33.224996 15.417594 43.682429 -0.949149 1.210077 0.000258 -0.027867 786642.000000 0 0 1
-22.626854 33.999970 15.158894 43.563339 -0.983604 1.215388 0.000797 -0.027770 -936499.000000 0 0 1
-21.309254 33.283007 15.242294 42.357649 -1.001310 1.202692 0.012028 -0.029063 -690691.000000 0 0 1
-21.232154 32.294327 14.207994 41.177603 -0.989196 1.218513 0.007371 -0.019716 1120530.000000 0 0 1
-19.952354 31.604347 14.261194 40.003910 -1.007668 1.206283 0.016823 -0.020196 1077490.000000 0 0 1
-19.801554 30.518677 13.189094 38.696814 -0.995241 1.222995 0.007614 -0.018116 -58349.200000 0 0 1
-19.469354 31.007237 11.908694 38.500928 -1.010116 1.256330 -0.002178 -0.011740 -68107.600000 0 0 1
-19.432754 30.014557 10.954594 37.396640 -0.996220 1.273507 0.003834 -0.014722 99972.600000 0 0 1
-19.118054 30.624427 9.536994 37.340458 -1.012719 1.312528 -0.004663 -0.013959 -646802.000000 0 0 1
-17.755354 30.821677 9.340794 36.776063 -1.048160 1.313992 0.001243 -0.022638 -881352.000000 0 0 1
-17.492954 31.540397 8.143694 36.974584 -1.064413 1.348724 0.005879 -0.025167 524635.000000 0 0 1
-16.703754 30.687927 7.048294 35.643270 -1.072332 1.371739 0.012424 -0.017583 -63657.400000 0 0 1
-17.435054 29.573967 6.636894 34.966398 -1.038103 1.379830 0.011767 -0.011564 -31730.200000 0 0 1
-17.086954 28.326277 7.250194 33.866020 -1.028013 1.355042 0.010370 -0.011256 -618175.000000 0 0 1
-18.125754 27.289417 6.874494 33.474078 -0.984500 1.363957 0.012176 -0.003585 44197.000000 0 0 1
-17.789454 26.758057 5.635094 32.622271 -0.984069 1.397188 0.019497 -0.002955 1335610.000000 0 0 1
-19.053054 26.332067 5.090694 32.898507 -0.944427 1.415433 0.005804 0.000758 279573.000000 0 0 1
-18.829154 25.571037 3.756894 31.977011 -0.936091 1.453037 0.018077 -0.010358 -975060.000000 0 0 1
-18.540654 26.307897 2.539594 32.284839 -0.956885 1.492053 0.020695 -0.000438 -83992.900000 0 0 1
-17.259654 26.831187 2.287294 31.984996 -0.999168 1.499224 0.017013 -0.003204 -481061.000000 0 0 1
-16.059354 25.876547 2.239694 30.537105 -1.015357 1.497387 0.023358 -0.011323 -786681.000000 0 0 1
-15.842154 24.756517 1.370494 29.423413 -1.001541 1.524201 0.034249 -0.011710 -30745.300000 0 0 1
-16.012454 24.968587 -0.023706 29.661921 -1.000559 1.571596 0.025117 -0.006092 -99392.300000 0 0 1
-15.674054 23.660657 -0.817406 28.393147 -0.985717 1.599589 0.034566 -0.020270 61741.400000 0 0 1
-16.623254 22.665557 -0.502106 28.112491 -0.937995 1.588658 0.043496 -0.027320 222663.000000 0 0 1
-16.461254 21.517857 -1.339106 27.125344 -0.917761 1.620184 0.044749 -0.027608 -321132.000000 0 0 1
-15.332154 20.553357 -0.952206 25.659738 -0.929880 1.607914 0.045778 -0.028512 -158731.000000 0 0 1
-15.635154 19.758257 0.168794 25.196731 -0.901369 1.564097 0.057290 -0.031906 714736.000000 0 0 1
-14.601154 18.776757 0.404294 23.789152 -0.909852 1.553801 0.060960 -0.048537 463829.000000 0 1 0
-15.192154 17.590757 1.230394 23.275527 -0.858434 1.517910 0.043528 -0.049037 415168.000000 0 1 0
-15.941154 16.610657 0.532994 23.028643 -0.805963 1.547649 0.043836 -0.043756 527675.000000 0 1 0
-16.700154 15.735157 1.366094 22.986007 -0.755656 1.511330 0.055808 -0.056310 188964.000000 0 1 0
-17.371454 14.596157 0.548994 22.696180 -0.698799 1.546605 0.061363 -0.046028 -467514.000000 0 1 0
-18.399954 14.979357 -0.336306 23.728728 -0.683278 1.584970 0.081017 -0.046423 -53374.700000 0 1 0
-19.033154 13.848857 -0.857606 23.553923 -0.629022 1.607215 0.068184 -0.032876 -757289.000000 0 1 0
-20.338054 14.302957 -1.505606 24.909393 -0.612911 1.631276 0.077640 -0.018037 -994476.000000 0 1 0
-21.158854 13.293557 -2.179706 25.083199 -0.560950 1.657805 0.053677 -0.017043 494368.000000 0 0 1
-22.224354 12.878257 -1.405606 25.724446 -0.525184 1.625464 0.056548 -0.022059 -1081260.000000 0 0 1
-23.439754 13.798457 -1.256006 27.228607 -0.532053 1.616941 0.042433 -0.015440 -1126850.000000 0 0 1
-23.198454 15.030757 -0.568006 27.648048 -0.574912 1.591342 0.048218 -0.024634 -181524.000000 0 0 1
-24.386954 15.694757 -0.245706 29.001884 -0.571843 1.579268 0.041705 -0.012776 -554272.000000 0 0 1
-24.067054 16.868057 0.678394 29.397528 -0.611315 1.547718 0.039876 -0.021312 96392.100000 0 0 1
-23.502954 16.398257 1.881894 28.719909 -0.609188 1.505224 0.049423 -0.019921 72522.300000 0 0 1
-23.113254 17.402657 2.813594 29.068734 -0.645374 1.473853 0.041177 -0.027647 -152675.000000 0 0 1
-24.201454 18.283557 3.458394 30.528009 -0.646995 1.457267 0.035601 -0.023808 -919372.000000 0 0 1
-25.060354 17.666257 4.395594 30.974816 -0.614039 1.428407 0.036161 -0.022447 675135.000000 0 0 1
-26.296584 18.405057 4.453794 32.405134 -0.610661 1.432919 0.029816 -0.022319 508523.000000 0 0 1
-27.332924 17.909757 3.419994 32.856422 -0.580053 1.466518 0.019255 -0.017293 -1019390.000000 0 0 1
-28.569004 18.568357 3.560894 34.258602 -0.576338 1.466667 0.013102 -0.011566 105798.000000 0 0 1
-29.126834 18.975457 2.335194 34.840975 -0.577413 1.503722 0.010828 -0.002779 -218101.000000 0 0 1
-30.435534 19.773357 2.408694 36.374568 -0.576150 1.504529 0.013724 -0.012063 -425454.000000 0 0 1
-31.627094 18.995157 2.430694 36.972927 -0.540859 1.505006 0.019860 -0.007436 1154220.000000 0 0 1
-32.813964 19.777557 2.707294 38.408820 -0.542415 1.500252 0.019816 -0.010206 741413.000000 0 0 1
-33.036244 20.457557 4.073994 39.070481 -0.554451 1.466333 0.026418 -0.018144 -1056020.000000 0 0 1
-32.102064 21.494057 4.359194 38.878523 -0.589999 1.458437 0.019802 -0.015745 345858.000000 0 0 1
-32.264884 22.041357 5.648694 39.481032 -0.599319 1.427230 0.027119 -0.017861 -614475.000000 0 0 1
-31.213484 23.051857 6.108794 39.280874 -0.636115 1.414647 0.032601 -0.013392 -519873.000000 0 0 1
-31.185674 24.242477 5.371394 39.863465 -0.660782 1.435640 0.027583 -0.007786 73571.800000 0 0 1
-30.378774 25.224767 5.941794 39.930736 -0.692970 1.421439 0.027170 -0.006078 -576769.000000 0 0 1
-30.766684 26.576637 5.452994 41.020015 -0.712458 1.437467 0.018343 -0.001841 441782.000000 0 0 1
-31.962174 27.019367 6.128194 42.298718 -0.701791 1.425406 0.023421 0.001261 658910.000000 0 0 1
-32.090054 28.421027 5.973394 43.280570 -0.724838 1.432339 0.010635 -0.000646 278509.000000 0 0 1
-33.151804 29.074847 6.905894 44.632726 -0.719974 1.415445 0.006922 0.001088 -290814.000000 0 0 1
-32.596014 29.298797 8.191594 44.587239 -0.732177 1.386026 0.013040 0.007256 -164112.000000 0 0 1
-33.268024 29.978177 9.197494 45.717025 -0.733428 1.368231 0.014582 0.001614 -857050.000000 0 0 1
-34.575098 29.388237 9.720294 46.406788 -0.704484 1.359775 0.004799 0.007202 -262235.000000 0 0 1
-34.264180 28.199237 10.510794 45.603813 -0.688606 1.338225 0.015336 0.001422 657846.000000 0 0 1
-35.425942 27.626607 11.094494 46.274340 -0.662328 1.328683 0.010154 -0.002719 296225.000000 0 0 1
-35.060578 26.231677 11.776794 45.343554 -0.642336 1.308060 0.029484 -0.002213 -79287.900000 0 0 1
-33.981914 26.321657 12.693794 44.818886 -0.659047 1.283642 0.036230 -0.008145 272797.000000 0 0 1
-33.845454 25.195727 13.523294 44.308226 -0.639930 1.260638 0.050277 -0.006750 442561.000000 0 0 1
-32.615064 25.425137 14.477894 43.815401 -0.662148 1.234038 0.048125 -0.009581 415441.000000 0 0 1
-32.847124 26.364487 15.478994 44.873366 -0.676350 1.218613 0.042449 -0.010213 -875495.000000 0 0 1
-31.679644 26.823687 16.047294 44.504221 -0.702585 1.201908 0.050069 -0.008344 -892931.000000 0 0 1
-31.831394 27.997147 17.026694 45.683544 -0.721398 1.188869 0.048101 -0.011308 -351132.000000 0 0 1
-31.833764 29.227187 16.337594 46.201017 -0.742736 1.209358 0.052324 -0.016287 140557.000000 0 0 1
-32.247894 30.304677 17.141694 47.456694 -0.754343 1.201234 0.041256 -0.014436 -128877.000000 0 0 1
-31.967924 31.684107 16.499494 47.938128 -0.780939 1.219428 0.032245 -0.014663 -430644.000000 0 0 1
-30.605444 31.974207 16.401594 47.202282 -0.807267 1.215920 0.027993 -0.009598 -484020.000000 0 0 1
-30.428524 33.171163 15.632994 47.650935 -0.828495 1.236533 0.018869 -0.004768 -1033250.000000 0 0 1
-28.971954 33.496208 15.312794 46.859916 -0.857697 1.237904 0.027337 -0.009022 -291511.000000 0 0 1
-28.340834 32.779437 14.233694 45.610223 -0.857892 1.253423 0.020202 -0.007481 344689.000000 0 0 1
-28.007384 31.449037 14.511694 44.542617 -0.843219 1.238945 0.023387 -0.010182 -825271.000000 0 0 1
-29.021904 30.362947 14.130194 44.315255 -0.807977 1.246274 0.040753 -0.007760 -280307.000000 0 0 1
-29.230064 30.077147 12.795794 43.849330 -0.799680 1.274675 0.046218 -0.005171 -366361.000000 0 0 1
-30.130324 29.060137 12.520994 43.693286 -0.767320 1.280156 0.047248 -0.006043 -192082.000000 0 0 1
-30.283744 28.650957 11.022694 43.121715 -0.757700 1.312309 0.051455 -0.004550 49633.700000 0 0 1
-29.198534 27.863707 10.577194 41.723106 -0.762010 1.314490 0.062011 -0.002557 -46670.900000 0 0 1
-29.226094 27.739237 9.169094 41.324353 -0.759303 1.347053 0.059036 -0.005338 -224171.000000 0 0 1
-28.014894 27.043957 8.544094 39.864915 -0.767765 1.354794 0.052923 0.001314 -136225.000000 0 0 1
-27.954504 27.133437 7.108494 39.600611 -0.770495 1.390313 0.032310 0.001958 492180.000000 0 0 1
-26.749114 26.543677 6.556294 38.250057 -0.781543 1.398540 0.040455 -0.001354 726456.000000 0 0 1
-26.478124 26.955307 5.051394 38.120811 -0.794328 1.437895 0.044045 -0.004743 7103.090000 0 0 1
-25.816704 28.202257 4.934694 38.551533 -0.829531 1.442442 0.046259 0.002360 217204.000000 0 0 1
-25.433124 28.464697 3.586594 38.339880 -0.841586 1.477112 0.038977 0.005839 -108409.000000 0 0 1
-24.319354 29.501207 3.389894 38.382855 -0.881382 1.482363 0.034245 0.005886 -248929.000000 0 0 1
-23.029654 29.079257 3.759594 37.284081 -0.900976 1.469788 0.026339 0.003115 -360052.000000 0 0 1
-22.124654 30.128437 3.500894 37.543033 -0.937390 1.477410 0.020451 0.004698 41859.400000 0 0 1
-20.637754 29.781187 3.695394 36.421037 -0.964798 1.469158 0.003597 0.006909 538590.000000 0 0 1
-19.726754 30.832097 3.410294 36.761299 -1.001616 1.477894 -0.001430 0.004523 -1432450.000000 0 0 1
-18.402854 30.527277 3.500294 35.816641 -1.028296 1.472912 -0.001699 -0.002331 -621712.000000 0 0 1
-17.398354 31.598767 2.943094 36.191803 -1.067491 1.489387 -0.002665 -0.005420 301243.000000 0 0 1
-17.288954 32.721887 3.766294 37.199661 -1.084719 1.469377 -0.002609 -0.008320 108236.000000 0 0 1
-16.263254 33.553046 3.255894 37.428614 -1.119461 1.483697 0.013140 -0.003814 146105.000000 0 0 1
-15.996054 -34.315308 4.184294 38.090975 1.134594 1.460724 0.015792 -0.007653 -31698.800000 0 0 1
-16.996754 -33.330278 4.062594 37.633784 1.099221 1.462635 0.010349 -0.009342 -2198.830000 0 0 1
-16.798054 -32.319058 5.060594 36.773710 1.091468 1.432744 0.003062 -0.017264 -565251.000000 0 0 1
-17.921054 -31.319588 5.179494 36.454189 1.051069 1.428232 0.009386 -0.010190 -648232.000000 0 0 1
-18.140954 -30.501708 4.071394 35.721487 1.034245 1.456572 0.016421 -0.003245 -117145.000000 0 0 1
-18.970654 -29.448848 4.451494 35.311983 0.998516 1.444398 0.029181 -0.003931 -605812.000000 0 0 1
-19.489254 -28.595208 3.323294 34.764367 0.972556 1.475055 0.019658 -0.007918 181683.000000 0 0 1
-18.580954 -27.624538 2.799594 33.409649 0.978680 1.486902 0.024350 -0.005370 343701.000000 0 0 1
-19.206154 -26.965658 1.735494 33.151697 0.951899 1.518422 0.019661 -0.001277 128273.000000 0 0 1
-18.388154 -25.727098 1.332794 31.650973 0.950247 1.528675 0.012658 0.005930 677032.000000 0 0 1
-17.179854 -26.066148 0.634494 31.224894 0.988060 1.550475 0.008883 0.011931 269687.000000 0 0 1
-16.255554 -24.999948 0.821694 29.831453 0.994264 1.543248 0.018240 0.023333 631450.000000 0 0 1
-14.801554 -25.271268 0.315594 29.288608 1.040953 1.560021 0.036922 0.012902 409271.000000 0 0 1
-14.700554 -25.315778 -1.102506 29.295228 1.044698 1.608440 0.031766 0.013758 -25155.100000 0 0 1
-14.817554 -24.034268 -1.722906 28.287353 1.018320 1.631741 0.033480 0.011026 -315263.000000 0 0 1
-15.038054 -24.045468 -3.222406 28.543151 1.011909 1.683933 0.010275 0.012145 -195893.000000 0 0 1
-13.981654 -24.643268 -3.938106 28.605698 1.054721 1.708904 0.035084 0.007513 -265007.000000 0 0 1
-14.275954 -24.654868 -5.331106 28.984238 1.045937 1.755781 0.017257 0.005229 -822058.000000 0 0 1
-13.124854 -24.990538 -6.221906 28.905032 1.087198 1.787748 0.041702 -0.000551 -585361.000000 0 0 1
-12.691654 -26.329568 -6.231506 29.885714 1.121627 1.780849 0.011535 0.004597 -239054.000000 0 0 1
-11.780954 -26.573268 -7.295306 29.969166 1.153496 1.816694 0.011507 -0.005294 102490.000000 0 0 1
22.744746 13.396232 28.790438 39.059850 0.532278 0.742049 0.027758 -0.004691 -11814.900000 0 0 1
23.594246 12.241532 28.844128 39.224065 0.478602 0.744587 0.022483 -0.013289 417077.000000 0 0 1
23.065746 11.116132 29.532728 39.086815 0.449089 0.714276 0.030314 -0.015304 -214134.000000 0 0 1
23.096046 11.325232 31.076958 40.341859 0.455901 0.691422 0.035779 -0.010418 114348.000000 0 0 1
22.126846 12.275132 31.493028 40.399097 0.506492 0.676853 0.036038 -0.000175 27545.700000 0 0 1
22.297246 12.777032 32.789158 41.659916 0.520354 0.664756 0.029875 -0.003894 -737480.000000 0 0 1
21.254346 13.858132 33.114176 41.717427 0.577790 0.653808 0.024026 0.004888 -228561.000000 0 0 1
20.031846 13.317732 33.566011 41.295447 0.586729 0.621809 0.025474 0.010155 -388398.000000 0 0 1
19.375446 14.247332 34.343571 41.927023 0.634046 0.610908 0.023492 0.010508 -30498.200000 0 0 1
18.235746 13.520632 -33.714006 40.644608 0.637997 2.548978 0.021889 0.013054 1092340.000000 0 0 1
17.110046 13.133332 34.325483 40.539819 0.654658 0.561025 0.018881 0.015269 606675.000000 0 0 1
16.152646 12.447532 -33.789596 39.466262 0.656567 2.598596 0.005277 0.010705 -391861.000000 0 0 1
14.837846 12.161432 34.356581 39.350182 0.686592 0.509275 0.003643 0.011730 -9299.560000 0 0 1
14.932446 11.048632 33.540187 38.340506 0.637011 0.505778 -0.009761 0.022133 -95382.700000 0 0 1
13.620446 10.717932 33.150466 37.407807 0.666702 0.481738 -0.000314 0.019252 37746.900000 0 0 1
13.646546 9.748832 31.967858 36.100027 0.620313 0.483151 -0.001811 0.022235 -15193.300000 0 0 1
14.142846 8.509132 32.407648 36.368683 0.541636 0.471062 -0.014612 0.019355 73893.400000 0 0 1
14.757846 7.762832 31.340038 35.500051 0.484241 0.488971 -0.022009 0.005023 187583.000000 0 0 1
15.199746 6.348632 31.789808 35.804041 0.395654 0.478073 -0.003308 -0.005154 137607.000000 0 0 1
14.176146 5.360232 31.902518 35.319483 0.361500 0.443500 -0.006129 -0.003585 350828.000000 0 0 1
14.762146 4.154532 32.396668 35.843064 0.274336 0.442118 -0.000743 -0.009346 874137.000000 0 0 1
13.637346 3.060332 32.475888 35.355709 0.220751 0.406407 -0.005681 -0.008036 466397.000000 0 0 1
14.057546 1.792432 32.898276 35.820720 0.126822 0.406742 0.007804 -0.016333 96400.100000 0 0 1
12.968146 1.023732 33.416430 35.859150 0.078779 0.371235 0.018545 -0.012500 407171.000000 0 0 1
13.410146 -0.408068 33.764722 36.332561 -0.030420 0.378218 0.011392 -0.014725 28951.700000 0 0 1
13.413046 -1.357068 32.712618 35.381730 -0.100832 0.390911 -0.004202 -0.016662 182732.000000 0 0 1
14.110146 -2.544568 33.090227 36.062920 -0.178418 0.408874 0.040892 -0.023352 -276071.000000 0 0 1
14.333046 -3.538068 31.955648 35.201102 -0.242009 0.432782 0.048312 -0.026955 -522355.000000 0 0 1
14.759046 -4.815268 32.407248 35.933911 -0.315370 0.446748 0.055292 -0.028403 635975.000000 0 0 1
16.020446 -5.062368 33.047204 37.072901 -0.306065 0.470346 0.048015 -0.031318 981431.000000 0 0 1
17.342446 -4.720868 32.287158 36.952776 -0.265775 0.507955 0.051898 -0.032165 -66829.300000 0 0 1
17.507246 -3.330168 32.272198 36.865817 -0.187971 0.504541 0.042254 -0.029084 -1907.580000 0 0 1
18.661546 -2.910168 31.587008 36.803009 -0.154699 0.538902 0.044383 -0.031737 -332700.000000 0 0 1
18.698646 -1.332268 31.373908 36.547728 -0.071129 0.538582 0.039764 -0.028679 -383201.000000 0 0 1
19.053646 -0.670468 32.537408 37.711721 -0.035174 0.530028 0.030852 -0.025767 166303.000000 0 0 1
18.620246 0.699132 32.569368 37.522874 0.037529 0.519662 0.025605 -0.014540 -87960.800000 0 0 1
19.550346 1.705832 31.872288 37.429516 0.087033 0.551903 0.035953 -0.009149 -284539.000000 0 0 1
19.464346 1.798232 30.485498 36.214086 0.092124 0.570163 0.031732 -0.012168 293117.000000 0 0 1
20.450646 2.712132 29.986168 36.397182 0.131849 0.602609 0.020623 -0.005041 262130.000000 0 0 1
20.059946 4.216132 29.925968 36.273141 0.207161 0.600564 0.019029 -0.001897 -441361.000000 0 0 1
19.731346 4.543632 31.278808 37.260361 0.226329 0.574496 0.021906 0.003408 449253.000000 0 0 1
19.142946 5.804332 31.427208 37.253350 0.294399 0.566830 0.017036 0.000490 -390219.000000 0 0 1
18.929046 6.256932 32.888374 38.459110 0.319240 0.544953 0.020104 0.001883 -103010.000000 0 0 1
17.822046 5.632532 33.509507 38.369751 0.306109 0.508797 0.011746 -0.002000 113194.000000 0 0 1
17.728546 6.004532 -34.021316 38.830474 0.326566 2.638612 0.006242 0.005917 149862.000000 0 0 1
16.624646 5.274632 -33.232606 37.531410 0.307232 2.658282 0.021309 0.006743 -128711.000000 0 0 1
16.997846 3.917532 -33.094646 37.410285 0.226517 2.656518 0.017023 0.000926 149839.000000 0 0 1
15.909146 3.142232 -32.651556 36.456806 0.195001 2.680626 0.018321 0.006396 3360.840000 0 0 1
16.112246 1.705032 -33.149216 36.896912 0.105430 2.686973 0.014341 -0.008058 668283.000000 0 0 1
17.264246 1.056532 -32.577666 36.884614 0.061121 2.653506 0.002511 -0.008570 617192.000000 0 0 1
17.300546 -0.227468 -33.109156 37.357420 -0.013147 2.660048 0.012177 -0.010442 195043.000000 0 0 1
18.388846 -1.114368 -32.425446 37.293445 -0.060526 2.624920 0.020209 -0.013440 125189.000000 0 0 1
18.113446 -1.398168 -31.040796 35.966412 -0.077037 2.612072 0.013864 -0.009405 405974.000000 0 0 1
18.294046 -0.327468 -30.145546 35.263768 -0.017898 2.596075 0.012324 -0.002136 -341821.000000 0 0 1
18.103346 -0.658668 -28.640386 33.888592 -0.036368 2.577611 0.005192 -0.004219 192642.000000 0 0 1
16.693346 -0.692468 -28.396516 32.947070 -0.041458 2.609767 0.004988 -0.005007 745873.000000 0 0 1
16.255346 -0.596268 -27.044956 31.559808 -0.036665 2.600105 0.000222 -0.003248 37009.800000 0 0 1
16.765046 -1.637768 -26.004856 30.983893 -0.097380 2.566795 0.002195 0.003082 -169356.000000 0 0 1
18.094546 -1.398068 -25.542926 31.333820 -0.077111 2.523848 0.008307 -0.004500 449785.000000 0 0 1
18.930146 -2.517168 -25.286676 31.687577 -0.132196 2.494765 0.000507 -0.002908 392190.000000 0 0 1
19.664146 -3.084468 -26.498696 33.141718 -0.155590 2.497354 0.007766 -0.009075 -224751.000000 0 0 1
20.779946 -2.295568 -26.906526 34.073992 -0.110024 2.481035 0.022224 -0.007923 95443.200000 0 0 1
21.150646 -2.533268 -28.243796 35.376253 -0.119205 2.495401 0.024897 -0.014966 -589554.000000 0 0 1
22.553446 -1.989668 -28.509806 36.406397 -0.087992 2.470429 0.015498 -0.018240 -492812.000000 0 0 1
23.587646 -2.859368 -28.138236 36.828160 -0.120635 2.440350 0.014040 -0.019103 -1071990.000000 0 0 1
24.791846 -2.401968 -28.666716 37.976120 -0.096584 2.426239 0.003594 -0.016359 -713457.000000 0 0 1
25.869646 -3.486768 -28.396716 38.571617 -0.133975 2.398246 0.008464 -0.016225 -339776.000000 0 0 1
25.841446 -4.643868 -29.256946 39.310492 -0.177808 2.410212 0.009742 -0.017576 275727.000000 0 0 1
26.969146 -5.473668 -29.050046 40.015011 -0.200240 2.383253 0.016167 -0.015514 81166.900000 0 0 1
26.834546 -6.521668 -27.918536 39.269195 -0.238410 2.361648 0.011957 -0.012925 -178999.000000 0 0 1
26.809746 -6.061768 -26.584836 38.239522 -0.222364 2.339521 0.009329 -0.003567 281645.000000 0 0 1
26.683746 -7.125368 -25.716066 37.737372 -0.260942 2.320536 -0.004371 -0.001790 -340998.000000 0 0 1
26.713746 -6.633568 -24.242906 36.678972 -0.243397 2.292878 -0.005157 -0.003346 -756196.000000 0 0 1
27.967946 -6.357568 -23.724906 37.222249 -0.223518 2.261896 -0.004267 -0.001368 -445848.000000 0 0 1
27.900646 -5.800168 -22.439606 36.271531 -0.204967 2.237827 0.008315 -0.012988 -203996.000000 0 0 1
29.318746 -5.432968 -21.974806 37.040493 -0.183229 2.205904 0.007087 -0.009544 -411923.000000 0 0 1
29.895346 -4.372368 -22.638006 37.753525 -0.145226 2.213830 0.013401 -0.015686 -1363410.000000 0 0 1
31.149846 -4.135468 -22.151106 38.445891 -0.131989 2.184823 0.015683 -0.008169 -881329.000000 0 0 1
31.827346 -2.909668 -22.843506 39.284500 -0.091167 2.191354 0.019414 -0.006785 -137083.000000 0 0 1
31.146646 -1.774568 -22.447206 38.433576 -0.056913 2.194508 0.009429 0.000101 58434.000000 0 0 1
31.736746 -0.584568 -23.002906 39.200720 -0.018417 2.197895 -0.001386 -0.001554 217247.000000 0 0 1
30.903646 0.717432 -22.806106 38.414431 0.023211 2.206428 0.005363 0.009175 899356.000000 0 0 1
29.597746 0.634732 -23.389106 37.729031 0.021442 2.239441 -0.000619 -0.000013 514494.000000 0 0 1
28.716446 1.680932 -23.061006 36.868277 0.058469 2.246565 -0.006082 0.008903 145808.000000 0 0 1
27.449446 1.601532 -23.957406 36.469087 0.058279 2.287528 -0.007219 0.008488 109483.000000 0 0 1
26.562646 2.636032 -23.582406 35.618152 0.098914 2.294400 -0.002785 0.009196 304848.000000 0 0 1
25.561046 2.946532 -24.546706 35.561073 0.114768 2.332657 0.016321 0.002976 262987.000000 0 0 1
24.482946 3.980532 -24.193106 34.649180 0.161174 2.343719 0.021491 0.000848 -102162.000000 0 0 1
25.047046 5.263832 -23.943506 35.047881 0.207143 2.322885 0.004026 0.005049 -128095.000000 0 0 1
24.051346 6.180932 -23.595206 34.254999 0.251546 2.330643 0.024502 -0.002628 -267650.000000 0 0 1
24.615646 7.435032 -22.868206 34.411693 0.293332 2.297684 0.032294 -0.001914 -192650.000000 0 0 1
25.258246 8.265632 -23.791506 35.669811 0.316261 2.300962 0.019424 0.000345 -42749.500000 0 0 1
25.348646 9.596232 -23.245106 35.706813 0.361897 2.279696 0.025856 -0.002351 -245101.000000 0 0 1
26.139546 10.554232 -24.178006 37.138170 0.383748 2.279735 0.041820 -0.005775 -237375.000000 0 0 1
25.645546 10.828332 -25.455676 37.721854 0.399523 2.311525 0.042319 -0.011886 1199270.000000 0 0 1
24.335546 11.449032 -25.589506 37.123065 0.439742 2.331340 0.052834 -0.022480 1239410.000000 0 0 1
23.928946 11.699732 -27.055386 37.966724 0.454758 2.364005 0.041384 -0.021686 -96341.100000 0 0 1
23.765946 10.591132 -27.948926 38.185531 0.419225 2.391938 0.039047 -0.010096 661468.000000 0 0 1
24.928246 9.798532 -28.251656 38.930512 0.374518 2.382840 0.032749 -0.015778 408213.000000 0 0 1
25.685446 10.294732 -29.508016 40.453018 0.381196 2.388298 0.027235 -0.009175 -248828.000000 0 0 1
26.723046 11.273432 -29.289236 41.219787 0.399210 2.361094 0.018171 -0.002913 905153.000000 0 0 1
27.378346 11.811132 -30.414846 42.592717 0.407282 2.366113 0.016288 -0.001593 116309.000000 0 0 1
28.328346 10.857032 -31.130716 43.468285 0.365990 2.369097 0.011581 -0.008387 -911450.000000 0 0 1
27.592746 9.960832 -31.911066 43.346210 0.346436 2.398220 0.014611 -0.012208 450010.000000 0 0 1
28.412346 8.895832 -32.431166 44.024741 0.303429 2.398911 0.011102 -0.010043 -185501.000000 0 0 1
27.632746 7.856632 -33.296616 43.976812 0.277013 2.429721 0.024364 -0.012310 598720.000000 0 0 1
26.596546 7.221732 -32.501636 42.613214 0.265136 2.438293 0.022231 -0.009156 116106.000000 0 0 1
25.915446 6.306832 -33.268316 42.639973 0.238721 2.465805 0.036653 -0.006441 -329628.000000 0 0 1
24.794946 5.506232 -32.478216 41.230359 0.218525 2.477905 0.044882 -0.002756 535746.000000 0 0 1
23.550246 6.159132 -32.520296 40.621653 0.255802 2.499035 0.039253 -0.001355 -188492.000000 0 0 1
23.483446 7.178632 -31.492346 39.934607 0.296668 2.479322 0.040944 -0.003949 -585473.000000 0 0 1
22.065746 7.742132 -31.250676 39.031302 0.337447 2.499187 0.038993 -0.001045 85723.200000 0 0 1
21.622446 8.447632 -32.392576 39.851871 0.372453 2.519781 0.034393 -0.000061 182675.000000 0 0 1
20.254546 8.795232 -32.189946 39.035822 0.409667 2.540337 0.034220 0.002835 317177.000000 0 0 1
19.748746 9.719332 -33.291506 39.909933 0.457347 2.557415 0.028991 0.004404 -328653.000000 0 0 1
19.554246 9.228432 34.289118 40.537343 0.440949 0.562612 0.025198 0.004693 62127.300000 0 0 1
19.239146 10.323932 33.438209 39.935475 0.492505 0.578459 0.018114 0.010370 -45681.200000 0 0 1
18.026946 10.144532 32.500818 38.525128 0.512574 0.566794 0.010684 0.011642 -112077.000000 0 0 1
18.132446 9.171632 31.459828 37.451639 0.468287 0.573491 0.009562 0.004873 47189.700000 0 0 1
19.199646 9.357932 30.534198 37.263046 0.453518 0.610393 0.023498 0.000549 -459872.000000 0 0 1
18.904046 10.287632 29.319828 36.371014 0.498381 0.633211 0.025224 -0.006805 131589.000000 0 0 1
17.943746 9.778232 28.413608 34.998928 0.498949 0.623496 0.013681 -0.000659 -50289.200000 0 0 1
16.606446 9.934432 28.791658 34.690439 0.539115 0.591761 0.013795 0.002331 -761345.000000 0 0 1
15.553346 9.319332 27.859428 33.240100 0.539820 0.576956 0.015472 0.005017 -603972.000000 0 0 1
15.541646 9.833032 26.548088 32.296010 0.564110 0.605840 0.021366 0.002280 141538.000000 0 0 1
14.397546 9.495432 25.792218 31.027264 0.583037 0.589397 0.029804 -0.001778 72515.900000 0 0 1
14.308946 8.011232 25.311898 30.159874 0.510394 0.574880 0.027822 0.005108 -39367.000000 0 0 1
14.464046 7.111832 26.402968 30.933857 0.456978 0.548074 0.008246 0.004518 -108153.000000 0 0 1
13.894846 5.856932 26.173458 30.206296 0.398918 0.522669 0.015905 -0.003145 -275923.000000 0 0 1
13.969446 4.872332 27.382898 31.124077 0.335592 0.495359 0.012435 0.005156 -584358.000000 0 0 1
15.156646 4.142532 27.414908 31.598444 0.266799 0.520435 0.002449 0.004227 -304796.000000 0 0 1
15.508746 3.967032 28.746678 32.903344 0.250424 0.508100 -0.010922 0.003782 60982.000000 0 0 1
16.611446 2.918832 29.058988 33.598877 0.173937 0.525886 0.005173 -0.001468 -49648.900000 0 0 1
16.221246 1.557032 28.923058 33.197838 0.095694 0.513087 0.011170 -0.005596 157810.000000 0 0 1
15.464146 0.996432 30.003508 33.768968 0.064346 0.476745 0.011199 -0.009434 147696.000000 0 0 1
15.278846 -0.526068 30.041408 33.707656 -0.034418 0.470738 0.020714 -0.014027 -351269.000000 0 0 1
14.436946 -1.093568 29.035068 32.444668 -0.075603 0.462566 0.015224 -0.013322 3485.050000 0 0 1
14.852646 -1.133268 27.716258 31.465479 -0.076153 0.493149 0.017552 -0.008566 -878876.000000 0 0 1
16.068146 -2.034668 27.377718 31.809820 -0.125957 0.534215 0.020478 -0.006245 670398.000000 0 0 1
17.327446 -1.785068 28.002298 32.978107 -0.102658 0.556483 0.031474 -0.015110 360570.000000 0 0 1
17.961046 -0.642768 27.487438 32.841614 -0.035772 0.579074 0.030168 -0.012400 -2306150.000000 0 0 1
19.409946 -0.437468 27.827278 33.930735 -0.022535 0.609175 0.042011 -0.006362 -1396680.000000 0 0 1
20.107146 -1.267868 26.999958 33.688315 -0.062972 0.641058 0.038138 -0.010196 24822.700000 0 0 1
21.510446 -1.276468 27.343918 34.814057 -0.059272 0.667410 0.037435 -0.014950 1001550.000000 0 0 1
22.356846 -1.584868 26.076448 34.384903 -0.070771 0.709989 0.048240 -0.006231 -151957.000000 0 0 1
22.238946 -0.763868 24.928218 33.415121 -0.034335 0.728737 0.056005 -0.000465 62438.500000 0 0 1
21.670046 -1.435668 23.833398 32.244115 -0.066155 0.738981 0.045229 0.008899 -157708.000000 0 0 1
21.535746 -0.557268 22.591918 31.216881 -0.025871 0.761635 0.034958 -0.008431 -382564.000000 0 0 1
20.629446 0.453932 22.850418 30.788337 0.022001 0.734482 0.016876 0.001168 -456651.000000 0 0 1
20.340146 1.189432 21.713918 29.776342 0.058411 0.753595 0.028937 -0.002730 95716.500000 0 0 1
-29.567394 -27.650593 -10.538106 41.831062 0.751911 1.825461 0.013025 0.015314 114110.000000 0 0 1
-29.468474 -26.523993 -9.722906 40.822152 0.732859 1.811285 0.016225 0.015048 -531008.000000 0 0 1
-30.304014 -26.752893 -8.648306 41.338163 0.723240 1.781562 0.024480 0.007826 -692592.000000 0 0 1
-30.553064 -25.438993 -7.795906 40.514297 0.694315 1.764428 0.032373 0.002438 566125.000000 0 0 1
-29.359144 -24.759493 -7.384006 39.109019 0.700610 1.760742 0.022849 -0.001489 340733.000000 0 0 1
-28.703804 -25.389093 -6.252006 38.827851 0.724197 1.732519 0.026256 -0.002208 -157478.000000 0 0 1
-27.582414 -24.501993 -5.679906 37.328254 0.726324 1.723551 0.028714 -0.004085 -378449.000000 0 0 1
-27.804994 -23.342093 -4.859306 36.627638 0.698362 1.703856 0.029807 -0.010260 -955851.000000 0 0 1
-28.651244 -22.398693 -5.355406 36.759701 0.663526 1.717004 0.036112 -0.008809 -501048.000000 0 0 1
-28.773804 -21.288293 -4.293206 36.049339 0.636973 1.690172 0.039303 -0.014870 281476.000000 0 0 1
-27.655624 -20.411293 -4.422606 34.655647 0.635811 1.698761 0.038648 -0.023681 474282.000000 0 0 1
-27.611744 -19.504793 -3.364606 33.973018 0.615005 1.669997 0.038655 -0.015135 55959.300000 0 0 1
-26.445834 -18.483893 -3.435906 32.447525 0.610010 1.676886 0.041533 -0.014922 265739.000000 0 0 1
-26.649134 -17.581093 -4.488006 32.239934 0.583181 1.710456 0.049776 -0.023375 327908.000000 0 0 1
-25.666334 -16.542893 -4.450306 30.858276 0.572525 1.715519 0.048679 -0.024235 322280.000000 0 0 1
-25.949664 -15.422893 -5.462806 30.677238 0.536246 1.749825 0.044694 -0.029608 277113.000000 0 0 1
-27.200264 -14.789993 -5.238506 31.401277 0.498028 1.738405 0.038450 -0.020530 227005.000000 0 0 1
-27.259224 -13.705793 -6.122806 31.119171 0.465881 1.768842 0.059866 -0.032239 423430.000000 0 0 1
-28.686154 -13.074993 -6.123206 32.114553 0.427662 1.762639 0.062810 -0.027710 667429.000000 0 0 1
-29.686184 -13.956993 -6.649206 33.470571 0.439485 1.770785 0.069750 -0.027528 518516.000000 0 0 1
-30.922734 -13.230593 -6.711106 34.297274 0.404290 1.767742 0.055848 -0.026794 74795.900000 0 0 1
-32.013914 -13.970293 -7.457006 35.716477 0.411472 1.781127 0.031953 -0.025494 -662998.000000 0 0 1
-32.698504 -15.036493 -6.814506 36.629575 0.431017 1.757925 0.031863 -0.021979 132374.000000 0 0 1
-33.070704 -15.985293 -7.784206 37.547236 0.450253 1.779629 0.040976 -0.020746 -422313.000000 0 0 1
-34.045284 -17.090293 -7.301806 38.787573 0.465236 1.760178 0.031466 -0.017247 1213490.000000 0 0 1
-35.395894 -16.653193 -7.002906 39.739638 0.439757 1.747941 0.004295 -0.024726 1029210.000000 0 0 1
35.394988 -16.017293 -5.724606 39.269963 -0.424956 1.717093 0.018763 -0.024461 -347538.000000 0 0 1
33.922809 -15.840493 -5.267406 37.807721 -0.436866 1.710572 0.019270 -0.022807 -446946.000000 0 0 1
33.227199 -14.954193 -6.157606 36.953900 -0.422903 1.738207 0.030150 -0.034609 1288080.000000 0 0 1
31.842789 -14.649193 -5.864206 35.538022 -0.431178 1.736567 0.038999 -0.032133 1210810.000000 0 0 1
31.557309 -14.092093 -4.416506 34.841877 -0.419986 1.697897 0.035742 -0.033021 -956378.000000 0 0 1
31.766979 -15.000293 -3.325206 35.287487 -0.441159 1.665168 0.025477 -0.023581 221144.000000 0 0 1
31.319449 -14.364693 -2.127906 34.522171 -0.430025 1.632474 0.040880 -0.038735 -893299.000000 0 0 1
31.282209 -15.250293 -0.914206 34.813558 -0.453603 1.597059 0.039210 -0.034083 25672.700000 0 0 1
32.517099 -15.747293 -0.429906 36.132033 -0.450991 1.582695 0.047889 -0.031751 145991.000000 0 0 1
33.277849 -16.615293 -1.275106 37.217054 -0.463079 1.605064 0.033348 -0.029130 -727471.000000 0 0 1
32.691189 -17.994993 -1.688806 37.354862 -0.503192 1.616022 0.024196 -0.021526 -1024020.000000 0 0 1
32.962549 -18.995693 -0.703806 38.050773 -0.522797 1.589294 0.027252 -0.019487 247546.000000 0 0 1
32.673869 -20.360593 -1.060806 38.513125 -0.557265 1.598344 0.015712 -0.008854 397189.000000 0 0 1
33.580459 -20.989393 -2.232006 39.663380 -0.558634 1.627100 0.024044 -0.006980 482129.000000 0 0 1
33.478059 -20.328193 -3.511406 39.323604 -0.545704 1.660211 0.019376 -0.016905 -308782.000000 0 0 1
34.469739 -20.673893 -4.435406 40.438170 -0.540250 1.680701 0.020893 -0.015114 -301801.000000 0 0 1
34.474279 -19.745293 -5.682506 40.132822 -0.520145 1.712866 0.027916 -0.017737 192707.000000 0 0 1
33.344379 -20.047193 -6.501906 39.446322 -0.541314 1.736381 0.017205 -0.018943 626636.000000 0 0 1
33.242119 -19.011693 -7.464506 39.015405 -0.519513 1.763305 0.026640 -0.021014 123706.000000 0 0 1
32.205999 -19.409593 -8.558206 38.564252 -0.542381 1.794580 0.027938 -0.027678 321196.000000 0 0 1
32.651919 -20.485793 -9.407406 39.677636 -0.560323 1.810172 0.038040 -0.029906 561553.000000 0 0 1
31.613729 -20.842093 -10.319106 39.246715 -0.582867 1.836853 0.036058 -0.037896 142857.000000 0 0 1
31.596359 -22.306993 -10.804106 40.157945 -0.614741 1.843193 0.043489 -0.036930 -441610.000000 0 0 1
31.269199 -23.270693 -9.837406 40.200280 -0.639782 1.818017 0.034217 -0.032914 -155970.000000 0 0 1
31.142339 -24.488093 -10.509006 40.987208 -0.666349 1.830089 0.029419 -0.025923 -44990.400000 0 0 1
30.207539 -25.422293 -9.675206 40.649699 -0.699590 1.811117 0.016947 -0.023397 468512.000000 0 0 1
28.889529 -25.005393 -9.388206 39.344796 -0.713454 1.811734 0.024789 -0.030211 1255.150000 0 0 1
28.028629 -26.056593 -9.004206 39.314448 -0.748953 1.801878 0.010257 -0.023978 -556748.000000 0 0 1
26.616839 -25.559793 -8.791806 37.934878 -0.765142 1.804683 0.018857 -0.029442 -683214.000000 0 0 1
25.968149 -25.232293 -10.019306 37.568602 -0.771027 1.840757 0.017945 -0.027123 -134774.000000 0 0 1
24.784139 -24.495293 -9.829906 36.206353 -0.779537 1.845744 0.033126 -0.035441 -356021.000000 0 0 1
24.134039 -24.085393 -11.141706 35.870540 -0.784389 1.886630 0.068411 -0.039598 -482229.000000 0 0 1
23.395839 -25.138793 -11.671706 36.270552 -0.821294 1.898422 0.051044 -0.034948 352961.000000 0 0 1
22.575339 -24.806793 -12.800606 35.900953 -0.832458 1.935373 0.054221 -0.012818 501966.000000 0 0 1
21.813139 -26.025893 -13.385006 36.500939 -0.873233 1.946259 0.055407 -0.022576 143764.000000 0 0 1
22.746239 -26.908493 -13.956406 37.897753 -0.869027 1.947938 0.041414 -0.015320 403263.000000 0 0 1
22.177439 -28.162293 -13.993606 38.480834 -0.903732 1.942981 0.037189 0.002515 -560746.000000 0 0 1
23.132539 -29.162593 -14.598706 39.983664 -0.900199 1.944555 0.022526 -0.000990 -516194.000000 0 0 1
23.269839 -29.046993 -15.998006 40.511102 -0.895379 1.976760 0.022681 0.003591 330427.000000 0 0 1
23.850639 -30.211293 -16.535806 41.892817 -0.902515 1.976556 0.017454 0.011823 -562188.000000 0 0 1
23.803039 -30.369593 -18.076406 42.610484 -0.906025 2.008902 0.014176 0.008144 -293849.000000 0 0 1
22.480839 -30.388093 -18.555006 42.108343 -0.933861 2.027118 0.016644 0.007345 -99808.100000 0 0 1
22.408739 -30.604593 -19.950306 42.857991 -0.938784 2.054993 0.010639 0.008823 -350735.000000 0 0 1
20.978339 -30.424693 -20.475006 42.249006 -0.967141 2.076733 0.004574 0.007208 -347935.000000 0 0 1
20.758839 -30.480693 -21.854806 42.867640 -0.972903 2.105773 0.000830 0.011177 17486.700000 0 0 1
19.428639 -30.239293 -22.244506 42.269432 -0.999714 2.124987 0.011388 0.003940 -524037.000000 0 0 1
19.248339 -30.330393 -23.748306 43.062900 -1.005308 2.154933 0.011720 0.006577 -403734.000000 0 0 1
19.730939 -29.205093 -24.451606 42.896718 -0.976635 2.177316 0.019811 0.002735 353811.000000 0 0 1
19.492739 -29.397593 -25.833586 43.721385 -0.985286 2.202931 0.021154 -0.004640 -312938.000000 0 0 1
20.047639 -28.287493 -26.817266 43.832133 -0.954248 2.229153 0.028091 -0.009227 -20459.900000 0 0 1
19.285939 -27.105593 -26.965676 42.822988 -0.952386 2.251965 0.038167 -0.011771 197464.000000 0 0 1
18.204639 -27.378293 -27.864596 43.097744 -0.983997 2.273842 0.052212 -0.017029 270874.000000 0 0 1
17.269539 -26.224193 -28.295886 42.268220 -0.988445 2.304246 0.051653 -0.020936 106960.000000 0 0 1
16.384439 -25.779593 -27.275906 40.951341 -1.004640 2.299706 0.030641 0.003697 -30763.200000 0 0 1
16.011939 -24.449393 -27.547686 40.162545 -0.990983 2.326643 0.012719 0.012976 -96467.000000 0 0 1
15.053839 -23.880493 -26.465196 38.694995 -1.008336 2.323951 0.010847 0.008356 446608.000000 0 0 1
13.734139 -24.418293 -26.629886 38.652690 -1.058443 2.330840 0.027045 -0.000618 274147.000000 0 0 1
12.804239 -24.150893 -25.590266 37.444304 -1.083300 2.323236 0.008974 0.005696 18453.300000 0 0 1
13.003239 -24.690993 -24.167306 36.915959 -1.086065 2.284526 0.020735 0.000223 -442864.000000 0 0 1
14.030239 -24.002593 -23.473606 36.386567 -1.041829 2.271973 -0.005776 -0.000749 40401.600000 0 0 1
13.972339 -24.433693 -22.142906 35.812566 -1.051335 2.237374 0.004242 -0.004566 -130750.000000 0 0 1
15.191039 -23.963093 -21.344406 35.504664 -1.005798 2.215763 -0.001580 -0.010294 -171997.000000 0 0 1
15.160439 -22.613493 -20.907706 34.326974 -0.980203 2.225690 -0.008039 -0.016782 497362.000000 0 0 1
16.424239 -22.155693 -20.417806 34.314970 -0.932880 2.208076 0.006991 -0.009002 -73132.100000 0 0 1
16.321939 -20.866193 -19.574006 32.938510 -0.906992 2.207140 0.010480 0.012365 834863.000000 0 0 1
15.428439 -20.869093 -18.388606 31.807179 -0.934181 2.187228 0.004282 -0.007639 1669770.000000 0 0 1
14.057239 -20.623593 -18.715306 31.196173 -0.972520 2.214201 0.003724 -0.006758 422663.000000 0 0 1
13.106339 -20.397693 -17.503506 29.903423 -0.999683 2.196089 0.012931 -0.011681 -336462.000000 0 0 1
13.307639 -19.271693 -16.676106 28.750373 -0.966456 2.189563 0.025853 -0.011508 -351913.000000 0 0 1
12.317239 -18.972593 -15.736006 27.555318 -0.994975 2.178605 0.032310 -0.016869 -670813.000000 0 0 1
12.581239 -17.727393 -14.787306 26.290920 -0.953586 2.168141 0.021360 -0.015754 -390647.000000 0 0 1
12.352139 -16.498393 -15.389006 25.721466 -0.928136 2.212167 0.049685 -0.027925 158145.000000 0 0 1
12.431839 -15.364493 -14.518406 24.523507 -0.890514 2.204359 0.040811 -0.024076 47773.000000 0 1 0
11.049439 -14.825393 -14.045106 23.219548 -0.930307 2.220415 0.034548 -0.017651 41521.800000 0 1 0
10.318339 -14.389593 -15.163406 23.312173 -0.948706 2.278973 0.034832 -0.011311 -713603.000000 0 1 0
9.108339 -13.801693 -14.789506 22.185086 -0.987463 2.300491 0.034664 -0.016330 -508062.000000 0 1 0
8.380839 -13.099393 -15.925106 22.258517 -1.001633 2.368080 0.032700 -0.015970 -48410.000000 0 1 0
8.944139 -11.917593 -16.562706 22.278911 -0.926976 2.408974 0.034860 -0.012456 1370240.000000 0 1 0
10.217139 -12.160893 -17.262406 23.457790 -0.872041 2.397780 0.048651 -0.009057 1381440.000000 0 1 0
10.499539 -10.919893 -18.108406 23.609294 -0.805021 2.444954 0.050576 -0.007518 -83525.500000 0 1 0
9.674739 -10.802393 -19.253206 24.103490 -0.840412 2.496049 0.044322 -0.009449 113890.000000 0 1 0
9.912239 -9.631093 -19.990506 24.302896 -0.771013 2.536688 0.051086 -0.012234 38717.700000 0 1 0
9.269239 -9.556793 -21.380806 25.187099 -0.800671 2.584658 0.038124 -0.014257 137617.000000 0 0 1
10.078739 -10.393993 -22.201806 26.505401 -0.800796 2.563732 0.010487 0.012870 -44348.700000 0 0 1
9.558039 -10.568393 -23.493406 27.477030 -0.835556 2.596385 0.024183 0.015090 441933.000000 0 0 1
10.516439 -11.307093 -24.534806 28.989697 -0.821612 2.579851 0.031509 0.015865 683051.000000 0 0 1
10.513639 -12.699693 -24.234506 29.310921 -0.879294 2.544205 0.016442 0.017016 -379031.000000 0 0 1
11.505239 -13.351793 -24.969306 30.563166 -0.859549 2.526940 0.005833 0.016768 -171620.000000 0 0 1
11.566239 -14.867493 -24.688406 31.053786 -0.909643 2.489838 0.000935 0.011198 468445.000000 0 0 1
10.403839 -15.505693 -25.218896 31.379278 -0.979821 2.504250 0.009235 0.002071 254295.000000 0 0 1
10.425739 -16.785493 -24.632506 31.578619 -1.014995 2.465522 0.010745 0.006497 158194.000000 0 0 1
9.306839 -17.691493 -25.176876 32.147803 -1.086516 2.470528 0.013295 -0.001333 118763.000000 0 0 1
9.572339 -18.367193 -26.394036 33.550389 -1.090360 2.476239 0.007182 -0.013213 90559.600000 0 0 1
8.472339 -19.230893 -26.667856 33.952648 -1.155821 2.474207 0.010218 -0.017325 116404.000000 0 0 1
8.539339 -20.034393 -27.967796 35.447071 -1.167881 2.479979 0.007976 -0.016024 -977301.000000 0 0 1
9.328439 -21.144793 -27.779286 36.136004 -1.155310 2.447669 -0.000741 -0.015571 -414392.000000 0 0 1
9.030339 -22.163393 -28.708306 37.375525 -1.183889 2.446672 0.001072 -0.007955 120099.000000 0 0 1
10.006639 -23.397493 -28.662146 38.328764 -1.166658 2.415534 0.002331 -0.006200 421592.000000 0 0 1
9.551939 -24.385793 -29.565876 39.497436 -1.197465 2.416672 0.014259 -0.007850 -69404.500000 0 0 1
10.070239 -25.675093 -29.218826 40.179098 -1.197016 2.385052 0.026964 -0.008844 134112.000000 0 0 1
9.447639 -26.430993 -28.013046 39.655845 -1.227504 2.355201 0.037471 -0.007728 370802.000000 0 0 1
10.268339 -26.446193 -26.832256 39.048814 -1.200440 2.328350 0.025076 -0.001547 -86012.500000 0 0 1
9.547139 -26.507793 -25.597536 38.066321 -1.225096 2.308305 0.018746 -0.007849 52885.900000 0 0 1
8.858139 -25.234193 -25.169466 36.725102 -1.233198 2.325877 0.017777 -0.006713 -396923.000000 0 0 1
9.695039 -24.200393 -24.788206 35.973712 -1.189760 2.330994 -0.002742 -0.000498 -571986.000000 0 0 1
8.966739 -22.983393 -24.676406 34.893607 -1.198819 2.356312 0.008644 -0.010180 214182.000000 0 0 1
9.938039 -21.793593 -24.441406 34.221450 -1.142958 2.366295 0.012639 -0.012040 37876.700000 0 0 1
10.569839 -21.833193 -23.193506 33.561116 -1.119935 2.333782 0.026736 -0.008494 -117197.000000 0 0 1
11.419839 -20.734193 -23.028606 33.024781 -1.067360 2.342438 0.014492 -0.003009 -424455.000000 0 0 1
11.815839 -20.421593 -21.591006 31.981668 -1.046264 2.311904 0.004404 -0.006633 -226720.000000 0 0 1
10.867139 -19.808793 -20.735206 30.666460 -1.069027 2.313324 0.013789 -0.002128 -14992.600000 0 0 1
10.503039 -18.423893 -20.924006 29.792074 -1.052670 2.349468 0.029003 0.006383 -446363.000000 0 0 1
11.572539 -17.342693 -20.793706 29.446067 -0.982365 2.354860 0.014369 0.001701 31721.200000 0 0 1
12.496639 -17.315493 -21.850706 30.552343 -0.945653 2.367691 0.007681 0.014901 -189869.000000 0 0 1
13.869139 -17.268293 -21.551706 30.903446 -0.894134 2.342543 0.016245 0.007475 95617.800000 0 0 1
14.840639 -17.254093 -22.751506 32.180418 -0.860455 2.356041 0.010071 0.020632 -616330.000000 0 0 1
16.152739 -17.439593 -22.337406 32.619168 -0.823687 2.325117 0.013114 0.021302 -894808.000000 0 0 1
17.059739 -17.321393 -23.398706 33.742626 -0.793008 2.337058 0.004109 0.022568 401571.000000 0 0 1
18.512139 -17.613893 -22.878606 34.298384 -0.760539 2.301033 -0.003189 0.019790 420192.000000 0 0 1
18.695039 -18.996993 -22.550306 34.912842 -0.793409 2.273002 0.001639 0.013497 -106405.000000 0 0 1
19.986339 -19.260993 -22.070306 35.461782 -0.766919 2.242562 -0.008684 0.007982 -184080.000000 0 0 1
20.254939 -20.741393 -21.690806 36.207168 -0.797263 2.213142 0.002893 0.004155 -363392.000000 0 0 1
19.792239 -21.027993 -20.412506 35.363535 -0.815662 2.186115 0.002466 0.000787 328355.000000 0 0 1
20.117839 -22.365493 -19.958306 36.100924 -0.838256 2.156574 0.006019 0.014887 -442662.000000 0 0 1
-15.939454 12.820332 28.346418 34.956352 -0.677366 0.625093 0.005577 -0.025164 -391942.000000 0 0 1
-17.068254 13.645732 28.403178 35.836738 -0.674424 0.655782 0.014725 -0.018349 -507663.000000 0 0 1
-17.604554 13.687532 27.116328 35.107892 -0.660870 0.688230 0.008749 -0.015502 -1161930.000000 0 0 1
-18.874254 14.432132 26.933338 35.915576 -0.652809 0.722875 0.022251 -0.008422 -957068.000000 0 0 1
-18.674754 15.810832 27.144998 36.545585 -0.702541 0.733597 0.024126 -0.003572 465719.000000 0 0 1
-19.782554 16.499732 26.543968 36.988820 -0.695164 0.770415 0.018748 -0.001997 15125.800000 0 0 1
-19.813554 17.989332 26.661678 37.776157 -0.737179 0.787272 0.024172 0.005719 1080170.000000 0 0 1
-18.673854 18.623332 26.011348 37.042294 -0.784044 0.792304 0.017031 0.008877 1017130.000000 0 0 1
-17.523754 18.751632 26.830648 37.129359 -0.819234 0.763202 0.021526 0.013283 -173699.000000 0 0 1
-16.437954 19.674532 26.250728 36.693245 -0.874784 0.773585 0.027449 0.015248 63863.400000 0 0 1
-16.823454 21.093332 26.294968 37.674694 -0.897538 0.798269 0.028795 0.015754 690463.000000 0 0 1
-15.808754 21.918232 25.679698 37.279652 -0.945944 0.810909 0.034970 0.012294 601413.000000 0 0 1
-16.007054 23.408332 25.827728 38.356842 -0.971013 0.832060 0.041909 0.010944 48073.300000 0 0 1
-15.499054 24.066832 27.013618 39.359480 -0.998650 0.814365 0.042341 0.011572 163963.000000 0 0 1
-15.693154 25.486132 26.889728 40.235252 -1.018874 0.838858 0.044128 0.012126 -413834.000000 0 0 1
-15.082654 26.255932 28.031518 41.262894 -1.049377 0.823934 0.028968 0.010659 -362342.000000 0 0 1
-13.679454 26.148332 28.060568 40.721717 -1.088802 0.810576 0.030472 0.002695 -475426.000000 0 0 1
-13.186054 27.190232 28.881518 41.800991 -1.119257 0.808023 0.030239 0.004484 -921383.000000 0 0 1
-11.686354 27.039932 29.026558 41.355409 -1.162853 0.792762 0.035797 0.000146 -639566.000000 0 0 1
-10.972754 27.550332 27.930828 40.737615 -1.191773 0.815331 0.031418 0.007455 253313.000000 0 0 1
-9.560754 27.371232 27.972188 40.286917 -1.234746 0.803316 0.023277 0.005500 363551.000000 0 0 1
-8.864954 28.304232 26.924518 40.058041 -1.267272 0.833704 0.032616 -0.003229 930049.000000 0 0 1
-7.441754 28.069532 26.846278 39.547452 -1.311640 0.824619 0.018817 -0.007501 996007.000000 0 0 1
-6.875854 28.817532 25.801878 39.286950 -1.336576 0.854290 0.028440 -0.014456 -565047.000000 0 0 1
-5.372654 28.596632 25.644538 38.784986 -1.385084 0.848382 0.016890 -0.014529 -708834.000000 0 0 1
-4.639354 29.138532 26.728808 39.812144 -1.412904 0.834736 0.019142 -0.015057 987823.000000 0 0 1
-3.228654 28.831632 26.633568 39.383171 -1.459278 0.828112 0.016778 -0.010382 1345090.000000 0 0 1
-2.344954 29.826032 25.841868 39.533443 -1.492337 0.858371 0.006640 0.002281 -581106.000000 0 0 1
-2.478054 29.686932 24.453598 38.541317 -1.487517 0.883464 -0.003860 0.013506 -4139.070000 0 0 1
-2.190354 30.882832 23.687018 38.982327 -1.499990 0.917717 -0.005624 0.012942 -489651.000000 0 0 1
-2.465354 30.780332 22.166718 38.011448 -1.490872 0.948184 -0.008585 0.020172 -806561.000000 0 0 1
-3.763454 30.529432 21.792318 37.697678 -1.448142 0.954421 0.001055 0.015213 -1186410.000000 0 0 1
-4.023254 29.098232 21.809118 36.585944 -1.433403 0.932153 -0.009556 0.011405 2348.260000 0 0 1
-5.525654 28.881032 21.481818 36.415867 -1.381756 0.939858 0.020418 0.006459 129644.000000 0 0 1
-5.838054 29.150832 20.087018 35.879551 -1.373141 0.976597 0.004577 0.009707 585889.000000 0 0 1
-6.886354 28.284932 19.623418 35.107518 -1.331979 0.977675 0.010755 0.001846 -97436.900000 0 0 1
-6.437954 26.796132 19.367418 33.683480 -1.335009 0.958213 0.002586 0.009497 406994.000000 0 0 1
-5.564854 26.647432 18.227718 32.761303 -1.364922 0.980774 -0.003019 0.009225 966546.000000 0 0 1
-4.174354 26.820332 18.511818 32.854876 -1.416394 0.972250 0.004807 0.014798 77929.400000 0 0 1
-3.356154 27.026732 17.220818 32.222113 -1.447250 1.006950 0.008178 0.010998 -183231.000000 0 0 1
-3.010754 25.838432 16.506118 30.808134 -1.454797 1.005375 0.007205 0.008761 -76295.000000 0 0 1
-2.445254 26.210632 15.279818 30.437630 -1.477773 1.044882 0.007033 -0.004728 -209380.000000 0 0 1
-1.805354 24.989732 14.598218 28.997482 -1.498678 1.043232 0.007763 -0.006643 184060.000000 0 0 1
-0.699054 24.423832 15.281618 28.819093 -1.542182 1.011889 0.012642 -0.006680 -140872.000000 0 0 1
-0.131754 23.299532 14.640518 27.517818 -1.565142 1.009791 0.011954 -0.018182 55608.300000 0 0 1
1.115446 23.024332 15.534018 27.796939 1.522388 0.977811 0.008150 -0.013484 244250.000000 0 0 1
2.130446 24.004432 15.402418 28.600455 1.482276 1.002096 0.010349 -0.014994 552829.000000 0 0 1
3.398746 23.469632 15.822518 28.508371 1.426981 0.982418 0.019574 -0.014169 255320.000000 0 0 1
4.478446 24.546832 15.871018 29.571822 1.390336 1.004282 0.031148 -0.014468 -261049.000000 0 0 1
5.743546 23.934632 15.863518 29.283206 1.335282 0.998305 0.030098 -0.012147 -361330.000000 0 0 1
6.842346 24.823732 15.780518 30.200333 1.301838 1.020983 0.038075 -0.014717 -312420.000000 0 0 1
8.156446 24.029032 15.738718 29.860162 1.243559 1.015635 0.037567 -0.010363 -272245.000000 0 0 1
8.527846 23.506032 14.462518 28.886366 1.222770 1.046424 0.027558 -0.008383 -203918.000000 0 0 1
9.247446 24.440832 13.723818 29.516313 1.209083 1.087210 0.030914 -0.007762 -836018.000000 0 0 1
9.804146 23.849632 12.392918 28.609625 1.180773 1.122786 0.022005 0.001489 464376.000000 0 0 1
10.888446 22.949132 12.719718 28.407959 1.127789 1.106547 0.022467 -0.002696 734459.000000 0 0 1
11.603946 22.523332 11.547518 27.844160 1.095065 1.143162 0.042220 -0.003396 1108830.000000 0 0 1
12.740946 21.445932 11.820918 27.604236 1.034729 1.128265 0.019658 -0.003233 433250.000000 0 0 1
12.199946 20.198432 12.226618 26.576410 1.027437 1.092739 0.017071 0.004737 -516396.000000 0 0 1
13.093046 19.173032 12.488518 26.362779 0.971647 1.077289 0.026837 -0.003671 -401681.000000 0 0 1
13.685646 19.147732 13.919518 27.343839 0.950246 1.036710 0.019799 -0.004138 -302569.000000 0 0 1
14.750446 18.276832 14.172018 27.431084 0.891767 1.027873 0.025451 -0.005911 -207588.000000 0 0 1
15.128746 18.251032 15.518518 28.333788 0.878665 0.991179 0.014628 -0.012552 -462602.000000 0 0 1
16.340346 17.332332 15.605118 28.476945 0.814849 0.990835 0.003659 -0.010136 -438189.000000 0 0 1
16.816346 17.111532 16.937018 29.367612 0.794098 0.956083 0.015828 -0.013901 -678395.000000 0 0 1
17.854446 16.220232 16.879618 29.441445 0.737475 0.960234 0.012181 -0.010062 -651643.000000 0 0 1
18.367246 15.754232 18.312118 30.346091 0.708968 0.922985 0.013154 -0.009443 13741.500000 0 0 1
18.994446 16.806732 19.053518 31.722103 0.724367 0.926497 0.015307 -0.000020 705424.000000 0 0 1
18.100746 17.590232 19.866318 32.120459 0.771095 0.903971 0.012697 -0.002100 471602.000000 0 0 1
18.889546 18.616932 20.733518 33.664282 0.778130 0.907280 0.002673 0.000163 97830.800000 0 0 1
17.963246 19.487832 21.357718 34.038301 0.826084 0.892508 0.020598 0.000652 502685.000000 0 0 1
18.600646 20.615532 21.930018 35.382339 0.836732 0.902307 0.013301 0.008582 -13027.600000 0 0 1
17.530046 21.647532 22.316218 35.692181 0.890112 0.895356 0.023232 0.003046 -5519.240000 0 0 1
16.837146 21.229632 23.446618 35.831978 0.900279 0.857475 0.027330 -0.001445 -27097.200000 0 0 1
15.724246 22.060932 23.731918 36.015838 0.951555 0.851401 0.036390 -0.004167 118215.000000 0 0 1
15.019246 21.787632 25.055878 36.442773 0.967256 0.812700 0.041171 -0.007592 -463793.000000 0 0 1
14.204846 20.692332 24.894638 35.351001 0.969203 0.789482 0.038560 -0.015710 -221959.000000 0 0 1
13.288146 20.523032 25.996758 35.687548 0.996198 0.754733 0.038631 -0.005091 160555.000000 0 0 1
12.555846 19.155032 26.026988 34.669419 0.990575 0.721647 0.050144 -0.013640 104126.000000 0 0 1
13.358746 17.960132 26.047748 34.343961 0.931275 0.709884 0.039234 -0.021016 223110.000000 0 0 1
14.155146 17.674432 24.900218 33.656717 0.895517 0.737980 0.044559 -0.020442 -680310.000000 0 0 1
13.412546 17.263232 23.677618 32.226467 0.910274 0.745534 0.065720 -0.025586 -664414.000000 0 0 1
12.646846 18.200032 22.930218 31.890105 0.963515 0.768378 0.048299 -0.020423 258934.000000 0 0 1
13.407846 19.057432 22.061018 32.088075 0.957692 0.812736 0.036465 -0.015514 224613.000000 0 0 1
14.138246 18.306432 20.937918 31.199549 0.913169 0.835109 0.038684 -0.011284 -96777.700000 0 0 1
13.228146 17.685132 20.071018 29.842814 0.928589 0.833137 0.033887 -0.009781 9737.560000 0 0 1
13.914546 17.010432 19.045518 29.080942 0.885175 0.856727 0.034008 -0.010646 442276.000000 0 0 1
12.896046 16.389532 18.028618 27.567297 0.904127 0.857955 0.034945 -0.008789 387933.000000 0 0 1
12.202846 17.351032 17.252618 27.342652 0.957864 0.887983 0.037268 -0.011285 -315667.000000 0 0 1
11.338046 16.617832 16.442518 25.981918 0.972061 0.885575 0.030759 -0.013422 -230007.000000 0 0 1
10.738246 17.371832 15.256818 25.492371 1.017144 0.929187 0.025886 -0.005990 -251318.000000 0 0 1
10.027946 18.549132 15.522618 26.183615 1.075187 0.936219 0.026109 -0.004606 110616.000000 0 0 1
9.627646 19.150532 14.293818 25.763301 1.104963 0.982658 0.016091 0.003855 -356421.000000 0 0 1
8.552446 20.240132 14.424218 26.284318 1.171004 0.989896 0.019628 0.004760 -1017550.000000 0 0 1
7.308046 19.749232 14.728118 25.697416 1.216379 0.960468 0.007210 -0.000644 -1353260.000000 0 0 1
6.410246 20.801232 14.993618 26.430874 1.271864 0.967601 0.019393 -0.003763 -195035.000000 0 0 1
5.151346 20.334332 15.743818 26.227643 1.322684 0.926950 0.020212 -0.007943 -649239.000000 0 0 1
4.214146 19.813532 14.858718 25.122034 1.361229 0.937926 0.024103 -0.008963 -199331.000000 0 0 1
3.112246 19.258632 15.603218 24.980821 1.410579 0.896167 0.014070 -0.007790 589778.000000 0 1 0
1.967446 18.694832 14.756318 23.898044 1.465942 0.905274 0.010414 -0.008348 -188172.000000 0 1 0
1.364946 19.666432 13.959918 24.155971 1.501503 0.954634 0.014227 -0.017506 -981344.000000 0 1 0
0.436746 19.064732 13.161118 23.170451 1.547892 0.966707 0.011164 -0.021138 -779172.000000 0 1 0
-0.445454 20.007932 12.329518 23.506016 -1.548536 1.018638 0.015720 -0.023720 567210.000000 0 1 0
-1.420854 20.718132 13.144418 24.577135 -1.502323 1.006498 0.015484 -0.013712 263309.000000 0 1 0
-2.599054 20.926932 12.420618 24.473727 -1.447232 1.038506 0.014535 -0.013911 -91361.900000 0 1 0
-3.708454 21.807032 12.994618 25.654617 -1.402350 1.039651 0.009044 -0.011366 202106.000000 0 0 1
-4.391554 21.205732 14.078718 25.829811 -1.366590 0.994339 0.004578 -0.004200 -9040.210000 0 0 1
-5.617954 21.852432 14.378918 26.755251 -1.319160 1.003417 0.009751 -0.001284 347835.000000 0 0 1
-6.282154 21.244532 15.679318 27.141050 -1.283283 0.954891 0.011306 0.002188 -777328.000000 0 0 1
-6.987154 20.012632 15.522518 26.273072 -1.234890 0.938728 0.009580 0.005539 586073.000000 0 0 1
-7.832154 19.594132 16.609918 26.854460 -1.190532 0.903943 0.004729 0.017476 282963.000000 0 0 1
-9.012154 20.519432 16.956318 28.103073 -1.156959 0.923086 0.005978 0.017926 -23367.100000 0 0 1
-10.198954 20.574032 16.156318 28.077323 -1.110579 0.957676 -0.001646 0.006488 110564.000000 0 0 1
-11.186654 19.738532 16.675318 28.157008 -1.055190 0.936977 -0.008958 0.009062 -59918.800000 0 0 1
-12.410654 19.643432 15.692418 28.038201 -1.007324 0.976797 0.005904 0.007154 -127734.000000 0 0 1
-13.139254 20.795232 15.522818 29.086759 -1.007294 1.007858 -0.003145 0.009863 -281888.000000 0 0 1
-14.069654 20.681532 14.474518 28.899699 -0.973414 1.046212 0.004665 -0.000715 72640.900000 0 0 1
-15.114454 21.833832 14.384818 30.200760 -0.965291 1.074347 0.001710 -0.010281 1034280.000000 0 0 1
-16.245754 21.714032 15.292018 31.133094 -0.928468 1.057350 0.008972 -0.011131 796845.000000 0 0 1
-17.149154 22.802332 15.115818 32.288199 -0.925966 1.083597 0.016815 -0.016834 -173397.000000 0 0 1
-18.388554 22.629532 15.987218 33.253959 -0.888425 1.069274 0.032822 -0.017272 -657052.000000 0 0 1
-19.246554 21.574232 15.528018 32.817627 -0.842358 1.077921 0.027583 -0.014489 1120400.000000 0 0 1
-20.467654 21.323232 16.249918 33.729289 -0.805868 1.068117 0.027779 -0.011556 968315.000000 0 0 1
-21.538854 22.425932 16.300518 35.107713 -0.805572 1.087952 0.026424 -0.010022 -1092560.000000 0 0 1
-21.974854 22.684532 15.010818 34.968655 -0.801288 1.127118 0.027144 -0.006526 -251411.000000 0 0 1
-22.902754 23.697932 14.990418 36.205535 -0.802460 1.143912 0.040610 -0.019612 -561678.000000 0 0 1
-22.253654 24.982532 14.377618 36.415215 -0.843105 1.164920 0.027056 -0.014175 579590.000000 0 0 1
-21.025454 25.376732 14.999218 36.208076 -0.878898 1.143677 0.010515 -0.023755 482930.000000 0 0 1
-20.562454 26.544732 14.342818 36.512378 -0.911715 1.167099 0.006468 -0.008993 -929201.000000 0 0 1
-19.085954 26.893032 14.404018 35.985894 -0.953591 1.158987 0.008711 -0.011262 -678115.000000 0 0 1
-18.321054 26.106032 13.534118 34.646187 -0.958867 1.169472 0.008589 -0.006894 -515721.000000 0 0 1
-17.009954 26.580732 13.474518 34.313794 -1.001529 1.167247 0.002516 -0.003421 -405322.000000 0 0 1
-16.009254 25.973532 12.467618 32.960007 -1.018428 1.182875 0.013110 -0.009036 -520248.000000 0 0 1
-14.737754 26.497932 12.639918 32.849799 -1.063217 1.175828 0.014152 -0.001296 -1032720.000000 0 0 1
-13.827954 25.829432 11.809118 31.588402 -1.079265 1.187647 0.015611 -0.007099 -196956.000000 0 0 1
-12.405354 26.375632 12.070218 31.547693 -1.131162 1.178185 0.012519 0.001874 -685170.000000 0 0 1
-11.329254 25.787232 11.405218 30.387700 -1.156846 1.186051 0.009187 0.001995 1047330.000000 0 0 1
-10.011954 26.261132 11.775118 30.471949 -1.206561 1.174044 0.022201 0.001307 1160400.000000 0 0 1
-9.637654 27.682532 11.289018 31.410968 -1.235771 1.203174 0.016824 -0.006407 -747537.000000 0 0 1
-8.338554 28.020832 11.713718 31.494598 -1.281557 1.189711 0.027793 -0.010832 40127.600000 0 0 1
-7.938954 29.212732 11.128318 32.252909 -1.305442 1.218522 0.030649 -0.014847 -595676.000000 0 0 1
-6.642854 29.817432 11.638118 32.690252 -1.351592 1.206800 0.025625 -0.012439 -178117.000000 0 0 1
-5.459254 29.149432 11.248818 31.717956 -1.385656 1.208255 0.028698 -0.013293 336179.000000 0 0 1
-4.339354 29.538632 12.050418 32.195859 -1.424935 1.187171 0.017300 -0.014759 -221104.000000 0 0 1
-3.020254 29.314532 11.345118 31.578085 -1.468129 1.203309 0.032865 -0.023023 -788421.000000 0 0 1
-2.997754 29.924932 10.101818 31.725933 -1.470954 1.246746 0.039078 -0.028026 600268.000000 0 0 1
-1.739154 29.715032 9.455918 31.231749 -1.512335 1.263203 0.036978 -0.027372 584355.000000 0 0 1
-1.663254 30.548032 8.147118 31.659504 -1.516403 1.310532 0.033115 -0.027945 -61375.100000 0 0 1
-2.536054 30.156932 7.114818 31.088467 -1.486899 1.339893 0.034583 -0.024076 44575.900000 0 0 1
-2.635354 31.179632 6.100918 31.880021 -1.486475 1.378237 0.029157 -0.016321 73629.700000 0 0 1
11.112846 -33.905593 -27.100606 44.805440 -1.254071 2.220375 0.059258 -0.006282 166164.000000 0 0 1
11.349446 -33.478993 -25.751496 43.735483 -1.243953 2.200371 0.059042 -0.004225 158730.000000 0 0 1
12.709546 -33.173493 -25.513546 43.737332 -1.204923 2.193626 0.060585 -0.002624 93020.000000 0 0 1
13.075546 -33.219593 -23.991706 43.012943 -1.195811 2.162503 0.054250 -0.005119 -656893.000000 0 0 1
12.645446 -32.120593 -23.246506 41.617783 -1.195744 2.163459 0.052252 -0.005598 251934.000000 0 0 1
13.155346 -32.193393 -21.903606 41.100434 -1.182868 2.132854 0.035480 0.000078 1003840.000000 0 0 1
14.698146 -31.925593 -21.714306 41.313316 -1.139338 2.124217 0.021693 0.000097 686019.000000 0 0 1
15.473246 -33.032893 -22.158406 42.680070 -1.132731 2.116681 0.026622 0.007002 185832.000000 0 0 1
16.851646 -32.747593 -21.910606 42.853909 -1.095543 2.107477 0.014501 0.004345 -136853.000000 0 0 1
17.804346 -33.801293 -22.418806 44.295881 -1.085990 2.101471 0.004883 0.010423 -545528.000000 0 0 1
19.121646 -33.595193 -21.969706 44.462820 -1.053348 2.087612 0.005089 0.017534 405199.000000 0 0 1
19.964346 34.294932 -22.151406 45.446697 1.043615 2.079923 0.009328 0.022649 14011.500000 0 0 1
21.444046 34.476032 -21.803906 46.085293 1.014358 2.063626 0.021036 0.030498 -228591.000000 0 0 1
22.133246 -33.919293 -22.861006 46.508329 -0.992647 2.084661 0.018346 0.030920 443461.000000 0 0 1
23.528946 -33.826393 -22.619506 47.005087 -0.963043 2.072835 0.020774 0.034804 606735.000000 0 0 1
24.479646 -33.350793 -23.748006 47.702162 -0.937611 2.091902 0.030992 0.022997 175114.000000 0 0 1
24.492946 -31.944293 -24.101906 46.917419 -0.916668 2.110299 0.030141 0.018209 170928.000000 0 0 1
23.260346 -31.466193 -24.652206 46.248203 -0.934232 2.132987 0.021909 0.018931 496387.000000 0 0 1
23.013546 -29.964393 -24.428606 44.991610 -0.915856 2.144753 0.011024 0.000462 -45220.000000 0 0 1
23.826646 -29.117793 -25.256656 45.315049 -0.885005 2.161995 0.012201 -0.004561 173560.000000 0 0 1
23.833746 -27.839193 -24.719106 44.205230 -0.862759 2.164204 0.020279 0.000696 277096.000000 0 0 1
24.346546 -26.839893 -25.772206 44.467300 -0.834071 2.189005 0.021839 0.002977 267844.000000 0 0 1
23.391446 -26.670493 -26.778016 44.447015 -0.850805 2.217389 0.020145 -0.000052 -209005.000000 0 0 1
24.064446 -26.073393 -27.852966 45.107728 -0.825445 2.236327 0.019461 -0.000178 -24482.900000 0 0 1
23.079546 -25.673893 -28.991526 45.081291 -0.838562 2.269329 0.022319 -0.006324 163764.000000 0 0 1
22.404546 -24.498093 -28.730096 43.903743 -0.830005 2.284170 0.034509 -0.006501 -763232.000000 0 0 1
21.148746 -24.702693 -28.149766 43.010485 -0.862754 2.284299 0.030645 -0.008093 -794077.000000 0 0 1
20.357446 -23.411893 -27.848496 41.690300 -0.855070 2.302294 0.035703 -0.011967 -6649.300000 0 0 1
19.798546 -22.815093 -29.032146 41.897213 -0.856069 2.336352 0.047063 -0.019001 40793.300000 0 0 1
19.257846 -21.562793 -28.781946 40.794842 -0.841803 2.353966 0.035401 -0.007653 -378487.000000 0 0 1
18.260246 -21.218693 -29.907596 40.965032 -0.860196 2.389230 0.040748 -0.018783 -262236.000000 0 0 1
17.048446 -21.924593 -29.749206 40.698312 -0.909867 2.390537 0.037127 -0.019646 -465122.000000 0 0 1
16.074546 -21.321793 -30.551336 40.575781 -0.924802 2.423322 0.028852 -0.019817 -834469.000000 0 0 1
14.803446 -22.159693 -30.501516 40.503537 -0.981847 2.423494 0.012690 -0.019305 -1077780.000000 0 0 1
14.977146 -23.465393 -31.048066 41.700384 -1.002715 2.410658 0.015484 -0.010980 69629.900000 0 0 1
13.982446 -24.416093 -30.728646 41.664182 -1.050712 2.400204 0.027898 -0.016843 -96112.200000 0 0 1
14.485546 -25.871693 -31.013116 42.906747 -1.060385 2.378646 0.045684 -0.012780 -119387.000000 0 0 1
13.558246 -26.859993 -30.693066 42.980805 -1.103336 2.366150 0.050646 -0.006081 -369731.000000 0 0 1
14.037546 -28.123993 -31.108806 44.224083 -1.107844 2.351016 0.085376 -0.013928 326828.000000 0 0 1
13.380846 -29.282393 -30.282096 44.198540 -1.142171 2.325589 0.077532 -0.022174 129236.000000 0 0 1
13.666446 -29.475293 -28.858396 43.455399 -1.136643 2.297075 0.084424 -0.018169 159184.000000 0 0 1
13.199346 -28.444393 -28.015956 42.049971 -1.136328 2.299970 0.071580 -0.009710 642889.000000 0 0 1
14.368346 -28.229693 -26.970556 41.602594 -1.099991 2.276133 0.048707 0.001182 722279.000000 0 0 1
14.478346 -29.285893 -26.020016 41.765144 -1.111655 2.243379 0.054058 -0.011531 543216.000000 0 0 1
15.429146 -29.000893 -24.941606 41.245534 -1.081860 2.220199 0.056808 -0.017813 -165647.000000 0 0 1
15.096446 -27.895593 -23.881506 39.703818 -1.074752 2.216163 0.048195 -0.014703 383740.000000 0 0 1
14.107846 -28.224293 -22.915606 38.997013 -1.107271 2.198916 0.038229 -0.013005 -801575.000000 0 0 1
12.823446 -28.419793 -23.358906 38.958490 -1.146932 2.213778 0.044906 -0.005856 -1558020.000000 0 0 1
11.696746 -28.157893 -22.349206 37.804336 -1.177086 2.203319 0.036720 -0.002793 -104282.000000 0 0 1
11.551746 -26.751493 -22.143306 36.597968 -1.163166 2.220615 0.026758 -0.003107 192704.000000 0 0 1
10.406546 -26.434893 -21.371706 35.550662 -1.195761 2.215751 0.024882 -0.001308 -63737.500000 0 0 1
10.145646 -24.932693 -21.240406 34.288893 -1.184338 2.238844 0.023586 -0.006937 -247812.000000 0 0 1
10.539346 -24.462293 -20.000906 33.309426 -1.163989 2.214870 0.014362 -0.012873 189713.000000 0 0 1
10.028546 -23.146593 -19.821106 32.081346 -1.161948 2.236788 0.013755 -0.012569 -184379.000000 0 0 1
10.376446 -22.483593 -18.468806 30.891413 -1.138410 2.211628 0.007692 -0.019011 -568885.000000 0 0 1
9.610946 -22.966293 -17.419806 30.385367 -1.174461 2.181319 0.023843 -0.020210 123434.000000 0 0 1
9.837846 -22.223793 -16.226106 29.222709 -1.154053 2.159468 0.016641 -0.017009 -117336.000000 0 0 1
9.024646 -22.927793 -15.113806 28.905970 -1.195809 2.121000 0.016704 -0.016572 278675.000000 0 0 1
9.528046 -24.189193 -14.803706 29.917394 -1.195562 2.088423 0.018295 -0.016764 166531.000000 0 0 1
8.713146 -24.606093 -13.730006 29.493928 -1.230469 2.055018 0.015309 -0.015807 168222.000000 0 0 1
8.736046 -26.152493 -13.609006 30.748601 -1.248408 2.029281 0.030275 -0.017794 -499624.000000 0 0 1
9.892746 -26.559993 -12.974606 31.171142 -1.214247 2.000100 0.037713 -0.016343 -802461.000000 0 0 1
10.234646 -27.868793 -13.432206 32.585914 -1.218843 1.995674 0.042048 -0.014683 869792.000000 0 0 1
11.641546 -28.366493 -12.806706 33.229434 -1.181359 1.966440 0.041558 -0.012238 2049470.000000 0 0 1
12.886046 -27.885793 -13.288506 33.470166 -1.137925 1.979070 0.029287 -0.007981 168341.000000 0 0 1
13.036446 -27.942593 -14.700506 34.159074 -1.134270 2.015682 0.031142 -0.008918 -586132.000000 0 0 1
14.473546 -27.547993 -15.171906 34.620257 -1.087041 2.024434 0.013269 -0.002336 451734.000000 0 0 1
15.455046 -28.493793 -14.818306 35.641786 -1.073806 1.999571 0.025838 -0.002397 -197383.000000 0 0 1
16.688646 -28.046093 -15.358506 36.069072 -1.034029 2.010651 0.036563 -0.004030 614104.000000 0 0 1
17.882246 -29.024693 -15.115206 37.291782 -1.018619 1.988128 0.026889 -0.001446 565622.000000 0 0 1
17.856446 -30.084893 -16.050906 38.491363 -1.035144 2.000939 0.006710 0.004846 -612640.000000 0 0 1
19.144546 -30.559593 -16.295406 39.571993 -1.011143 1.995215 0.010227 0.009081 -296599.000000 0 0 1
19.442946 -31.646593 -17.331706 40.986864 -1.019872 2.007395 0.010611 0.007368 -115574.000000 0 0 1
19.006546 -32.941593 -16.982106 41.650802 -1.047477 1.990758 -0.003858 0.013523 -35262.500000 0 0 1
19.428646 -33.921993 -17.930506 43.007871 -1.050659 2.000842 0.002188 0.014762 -56287.700000 0 0 1
19.489146 33.621832 -17.344206 42.556737 1.045469 1.990571 -0.005423 0.015406 73409.700000 0 0 1
20.477346 33.325132 -16.358006 42.396586 1.019804 1.966907 0.003742 0.013390 200403.000000 0 0 1
20.379446 31.972432 -15.893506 41.111577 1.003325 1.967732 0.008625 0.012148 61960.100000 0 0 1
21.357646 31.486532 -14.736706 40.800996 0.974776 1.940335 -0.003167 0.003602 441036.000000 0 0 1
22.713546 31.271732 -15.108106 41.497967 0.942618 1.943429 0.005744 0.010946 653046.000000 0 0 1
23.555546 30.769632 -14.051506 41.219884 0.917420 1.918661 0.019563 0.006620 463247.000000 0 0 1
23.076946 29.488132 -13.296706 39.735347 0.906765 1.912011 0.013937 0.011730 -1125250.000000 0 0 1
23.282946 28.383332 -14.205906 39.363903 0.883797 1.940015 0.014649 0.015050 147737.000000 0 0 1
23.107746 27.104532 -13.545806 38.106593 0.864828 1.934215 0.009330 0.014035 695238.000000 0 0 1
21.605246 26.867632 -13.120006 36.888899 0.893538 1.934419 0.011182 0.009589 36176.500000 0 0 1
20.826546 26.636932 -14.224506 36.682527 0.907210 1.969011 0.017765 -0.004101 87297.500000 0 0 1
19.402646 26.704132 -14.139106 35.909437 0.942454 1.975497 0.019529 -0.010773 807274.000000 0 0 1
18.814046 28.159532 -14.147906 36.702736 0.981786 1.966516 0.018222 -0.010506 -446901.000000 0 0 1
18.837946 28.893632 -15.382606 37.766847 0.993033 1.990297 0.015164 -0.004387 -15477.500000 0 0 1
18.055246 28.418832 -16.464506 37.479353 1.004805 2.025610 0.016009 0.004649 -480192.000000 0 0 1
18.174346 29.237732 -17.767106 38.740443 1.014641 2.047237 0.007207 0.005721 -338828.000000 0 0 1
17.439446 30.438532 -17.882306 39.375314 1.050512 2.042214 0.005158 0.002753 53122.500000 0 0 1
17.167846 30.883432 -19.172406 40.200777 1.063441 2.067939 0.004303 0.011387 261711.000000 0 0 1
16.103746 32.054132 -19.212806 40.693119 1.105237 2.062512 0.000289 0.004945 672597.000000 0 0 1
16.533946 33.324632 -18.676806 41.626020 1.110235 2.036085 -0.008575 0.003337 36214.800000 0 0 1
15.456946 34.242932 -18.781906 42.003042 1.146786 2.034379 0.000252 0.000177 186310.000000 0 0 1
15.581546 -33.424693 -18.086506 41.074523 -1.134578 2.026767 -0.000919 0.001240 -109690.000000 0 0 1
14.457246 -32.657493 -18.457906 40.202215 -1.154035 2.047808 0.000044 0.004497 -94074.900000 0 0 1
14.219446 -31.624493 -17.575706 38.874242 -1.148247 2.039934 0.014917 -0.004023 462826.000000 0 0 1
12.972546 -30.768093 -17.976206 37.922375 -1.171789 2.064654 0.021066 -0.007293 993331.000000 0 0 1
11.731146 -31.483593 -17.937906 38.086808 -1.214121 2.061191 0.032349 -0.006426 -285977.000000 0 0 1
10.672146 -30.608493 -17.967606 37.062237 -1.235310 2.076926 0.036587 -0.004097 -948864.000000 0 0 1
9.295646 -31.237593 -18.049706 37.255713 -1.281562 2.076567 0.050117 -0.014678 -1806690.000000 0 0 1
8.713846 -31.849093 -16.926306 37.105198 -1.303734 2.044484 0.051727 -0.011101 207833.000000 0 0 1
7.638146 -32.716593 -17.286006 37.782572 -1.341440 2.045992 0.071011 -0.007197 1185530.000000 0 0 1
6.288146 -32.075393 -17.796206 37.216617 -1.377209 2.069376 0.055521 -0.001837 -216071.000000 0 0 1
6.442946 -31.449993 -19.074706 37.342443 -1.368729 2.106917 0.050763 -0.002518 -230366.000000 0 0 1
6.441846 -32.309193 -20.182606 38.635721 -1.373996 2.120438 0.044094 -0.004658 -813446.000000 0 0 1
6.588246 -31.825993 -21.641006 39.046536 -1.366671 2.158241 0.037467 0.011155 18904.100000 0 0 1
7.871446 -31.377393 -22.053306 39.151613 -1.325005 2.169146 0.046494 0.004740 521.310000 0 0 1
8.894946 -32.317793 -22.240806 40.227022 -1.302213 2.156616 0.048476 -0.001152 -352915.000000 0 0 1
8.719146 -33.406393 -23.344006 41.676771 -1.315490 2.165327 0.048264 -0.000049 -119616.000000 0 0 1
7.706046 -34.274793 -22.824606 41.894000 -1.349642 2.146968 0.047850 -0.007300 74556.900000 0 0 1
7.559146 33.588132 -23.540106 41.706593 1.349430 2.170529 0.045597 -0.012117 -359235.000000 0 0 1
6.416746 32.664032 -23.057306 40.493864 1.376820 2.176575 0.051595 -0.018785 1314600.000000 0 0 1
5.062646 33.091532 -23.345106 40.812668 1.418984 2.179746 0.041287 -0.012763 1159820.000000 0 0 1
4.519046 34.036932 -22.441806 41.019132 1.438799 2.149699 0.024631 -0.014258 -831031.000000 0 0 1
3.253746 -34.335493 -22.955806 41.430448 -1.476315 2.158054 0.001780 -0.007353 -193340.000000 0 0 1
2.036046 34.078632 -22.634606 40.961250 1.511122 2.156260 -0.010992 -0.016995 -107737.000000 0 0 1
0.919746 -34.368393 -23.241406 41.499341 -1.544041 2.165234 -0.012056 -0.008419 -113388.000000 0 0 1
-0.393654 33.996632 -22.789506 40.930277 -1.559218 2.161311 -0.017115 -0.010878 -106226.000000 0 0 1
-0.723154 34.369032 -21.437506 40.513207 -1.549759 2.128393 -0.025223 -0.008108 -309131.000000 0 0 1
-1.796354 33.628032 -20.920706 39.645269 -1.517429 2.126684 -0.018148 -0.006889 -55990.800000 0 0 1
-1.913154 33.885432 -19.365406 39.075588 -1.514397 2.089308 -0.015738 -0.001872 -104499.000000 0 0 1
-0.891954 33.299232 -18.613906 38.159035 -1.544017 2.080362 -0.017663 -0.009924 -522201.000000 0 0 1
-1.330854 33.155432 -17.272006 37.408235 -1.530678 2.050726 -0.026521 -0.003818 -175294.000000 0 0 1
-0.520054 32.262432 -16.320406 36.159240 -1.554678 2.039072 -0.036203 -0.000250 115531.000000 0 0 1
0.769146 32.724232 -15.988106 36.429198 1.547297 2.025150 -0.025089 -0.003778 88226.100000 0 0 1
1.502446 31.780432 -15.183606 35.253299 1.523556 2.016065 -0.010717 0.010618 187137.000000 0 0 1
2.577346 32.371832 -14.284506 35.477110 1.491347 1.985196 0.012076 -0.000576 246520.000000 0 0 1
3.792646 32.814232 -14.888306 36.232853 1.455728 1.994244 0.017873 -0.005318 45943.400000 0 0 1
4.544046 33.617932 -14.028806 36.709959 1.436443 1.962921 0.032194 -0.010341 288086.000000 0 0 1
5.963546 33.865632 -14.642006 37.374233 1.396489 1.973348 0.057875 -0.025846 556827.000000 0 0 1
6.794046 32.725932 -14.524906 36.443361 1.366100 1.980744 0.054312 -0.014435 -605765.000000 0 0 1
7.841646 32.778232 -15.460706 37.080148 1.335976 2.000888 0.062028 -0.008294 -93129.100000 0 0 1
8.670846 31.488632 -15.414206 36.115305 1.302091 2.011754 0.056309 -0.018457 -167342.000000 0 0 1
9.311346 31.379932 -14.181706 35.672428 1.282343 1.979646 0.057724 -0.021141 -492139.000000 0 0 1
10.079946 30.192832 -14.053106 34.795146 1.248579 1.986552 0.055568 -0.009480 408313.000000 0 0 1
9.277046 28.846932 -13.888306 33.333078 1.259647 2.000556 0.038568 -0.001578 163045.000000 0 0 1
8.760446 28.266632 -15.092306 33.219356 1.270262 2.042408 0.053072 -0.003955 155566.000000 0 0 1
8.001246 27.104532 -14.765406 31.885621 1.283749 2.052257 0.037825 -0.001497 30136.800000 0 0 1
7.258646 26.396632 -15.938806 31.678315 1.302445 2.098031 0.034779 0.005348 245786.000000 0 0 1
8.100446 25.649032 -16.776506 31.700808 1.264891 2.128470 0.041903 0.002288 15898.600000 0 0 1
7.286846 24.871932 -17.648206 31.355547 1.285797 2.168616 0.031090 0.009371 420695.000000 0 0 1
8.185546 24.011032 -18.560206 31.432691 1.242244 2.202443 0.033458 0.013399 -69219.600000 0 0 1
7.467446 23.158732 -19.401906 31.121111 1.258876 2.243921 0.032591 0.007421 98608.600000 0 0 1
8.371046 22.229132 -19.991506 31.046240 1.210641 2.270416 0.027560 0.006875 364554.000000 0 0 1
7.639546 21.267032 -20.965606 30.825411 1.225931 2.318750 0.025282 -0.008405 -205334.000000 0 0 1
6.825146 20.343932 -20.358106 29.578889 1.247108 2.329891 0.013941 -0.007405 -414845.000000 0 0 1
6.107046 19.512832 -21.222606 29.469402 1.267478 2.374825 0.007674 -0.013669 -223689.000000 0 0 1
24.106046 -11.865568 -9.439206 28.477917 -0.457407 1.908644 0.019002 -0.004233 -16707.700000 0 0 1
24.994946 -11.686268 -8.364306 28.831889 -0.437348 1.865134 0.016607 -0.001228 374715.000000 0 0 1
24.296546 -12.008968 -7.202306 28.043015 -0.459050 1.830538 0.012696 0.004199 -755923.000000 0 0 1
25.047346 -11.748868 -5.926606 28.293641 -0.438596 1.781827 0.013694 -0.001753 -510120.000000 0 0 1
25.250346 -10.440168 -5.408606 27.853727 -0.392061 1.766217 0.017796 0.000248 378628.000000 0 0 1
26.030546 -9.592568 -6.217706 28.430029 -0.353070 1.791280 0.018729 -0.008890 -1324320.000000 0 0 1
26.038146 -8.162968 -5.702506 27.877189 -0.303796 1.776809 0.031144 -0.011549 18341.500000 0 0 1
26.744346 -8.015168 -4.479206 28.276603 -0.291178 1.729873 0.047317 -0.023375 1406370.000000 0 0 1
28.140746 -8.359068 -4.391306 29.682641 -0.288744 1.719283 0.056741 -0.021823 224946.000000 0 0 1
28.637246 -8.178268 -2.949406 29.927829 -0.278177 1.669507 0.055129 -0.019471 -596344.000000 0 0 1
29.001746 -6.802068 -2.661506 29.907408 -0.230376 1.659906 0.066798 -0.020542 785233.000000 0 0 1
29.713246 -6.615768 -1.416206 30.473776 -0.219080 1.617286 0.057821 -0.019919 124850.000000 0 0 1
30.107446 -5.174268 -1.040006 30.566534 -0.170197 1.604827 0.062498 -0.027677 387733.000000 0 0 1
28.922146 -4.438668 -0.715506 29.269511 -0.152281 1.595244 0.076596 -0.029061 539849.000000 0 0 1
29.145046 -3.095668 -0.283606 29.310362 -0.105819 1.580472 0.073389 -0.024742 -306854.000000 0 0 1
29.735446 -3.009968 1.158694 29.909852 -0.100881 1.532047 0.073971 -0.024862 -135642.000000 0 0 1
28.973946 -3.634268 2.154294 29.280342 -0.124781 1.497155 0.078277 -0.032960 285121.000000 0 0 1
29.652546 -3.361768 3.356294 30.030646 -0.112890 1.458800 0.065622 -0.027258 -150056.000000 0 0 1
29.007246 -4.140668 4.529694 29.649344 -0.141788 1.417420 0.068497 -0.030945 -237104.000000 0 0 1
29.156246 -5.547268 4.361694 29.998054 -0.188013 1.424880 0.063510 -0.035897 152864.000000 0 0 1
28.983846 -6.205068 5.582194 30.161683 -0.210903 1.384647 0.056985 -0.036569 -75532.000000 0 0 1
29.896446 -7.453768 5.667694 31.328564 -0.244338 1.388883 0.034510 -0.033440 758522.000000 0 0 1
31.292846 -7.175868 5.738094 32.613817 -0.225416 1.393935 0.046014 -0.034280 896837.000000 0 0 1
32.151746 -8.330968 5.897594 33.733091 -0.253538 1.395062 0.038699 -0.031141 729522.000000 0 0 1
33.667946 -8.059668 5.844394 35.109056 -0.234965 1.403554 0.046378 -0.027775 92020.100000 0 0 1
34.211446 -7.744968 4.587394 35.375864 -0.222633 1.440754 0.048965 -0.027866 -199453.000000 0 0 1
-35.304246 -7.604668 4.591994 36.404769 0.212162 1.444322 0.045376 -0.018647 3686.200000 0 0 1
-34.711946 -7.262868 3.223694 35.609839 0.206257 1.480144 0.041607 -0.012136 -186779.000000 0 0 1
-34.620446 -8.378868 2.369094 35.698646 0.237455 1.504384 0.044705 -0.010026 -93157.500000 0 0 1
-33.602646 -8.208068 1.431794 34.620229 0.239577 1.529427 0.053717 -0.011139 -367987.000000 0 0 1
-33.400046 -9.530368 0.638794 34.739013 0.277954 1.552407 0.056831 -0.012185 -189204.000000 0 0 1
-32.969046 -10.535968 1.540694 34.645900 0.309314 1.526312 0.046407 -0.012951 279389.000000 0 0 1
-32.740546 -11.713768 0.847794 34.783250 0.343585 1.546420 0.040624 -0.016134 -485809.000000 0 0 1
-32.488246 -12.943068 1.777494 35.016691 0.379120 1.520013 0.025246 -0.024795 628157.000000 0 0 1
-31.161846 -13.117868 2.265294 33.886143 0.398443 1.503896 0.020615 -0.017140 323190.000000 0 0 1
-30.326246 -13.853568 1.415794 33.370751 0.428509 1.528357 0.020908 -0.006688 137630.000000 0 0 1
-29.031746 -14.360368 2.143794 32.460103 0.459353 1.504704 0.020738 -0.001733 702790.000000 0 0 1
-28.285146 -13.285268 2.746094 31.370191 0.439107 1.483146 0.020875 -0.002706 345972.000000 0 0 1
-26.907346 -13.587868 2.830194 30.276153 0.467629 1.477180 0.026502 -0.003708 -49566.100000 0 0 1
-26.241046 -12.490368 3.700994 29.296743 0.444252 1.444130 0.028798 0.001769 -321354.000000 0 0 1
-24.998846 -12.774268 4.295494 28.400273 0.472404 1.418965 0.027931 0.003827 53171.400000 0 0 1
-24.516046 -11.747968 5.106994 27.661031 0.446866 1.385103 0.030579 0.010990 105229.000000 0 0 1
-23.118846 -11.979668 5.729594 26.661240 0.478084 1.354203 0.031831 0.021104 208553.000000 0 0 1
-23.120246 -12.703868 6.978794 27.288049 0.502436 1.312178 0.035159 0.011567 467713.000000 0 0 1
-21.842946 -13.207168 7.378394 26.570365 0.543826 1.289405 0.030738 0.016606 869400.000000 0 0 1
-21.074346 -12.565068 8.583694 25.994015 0.537640 1.234262 0.023680 0.011756 -358413.000000 0 0 1
-20.789846 -11.173368 8.481094 25.079689 0.493152 1.225829 0.019926 0.011487 503378.000000 0 0 1
-21.894146 -10.359168 8.827194 25.779553 0.441936 1.221315 0.038795 0.005491 -313905.000000 0 0 1
-22.236446 -10.298568 10.379594 26.613080 0.433727 1.170145 0.048957 0.006279 -173401.000000 0 0 1
-22.669446 -11.533268 10.954394 27.693299 0.470630 1.164118 0.046081 -0.004129 782708.000000 0 0 1
-23.949846 -12.032868 10.543494 28.801915 0.465581 1.196015 0.039490 -0.004323 111938.000000 0 0 1
-25.137946 -11.685668 11.462394 29.997627 0.435144 1.178718 0.043496 -0.008536 -139325.000000 0 0 1
-25.165546 -12.419068 12.680094 30.794849 0.458430 1.146412 0.039501 -0.005989 529699.000000 0 0 1
-26.339346 -12.002868 13.388694 31.891803 0.427585 1.137554 0.026372 -0.005909 513888.000000 0 0 1
-26.498646 -12.751768 14.722694 32.886830 0.448514 1.106630 0.027401 -0.000179 -104431.000000 0 0 1
-26.696646 -14.183068 14.595294 33.569226 0.488348 1.121000 0.014554 -0.001689 305135.000000 0 0 1
-26.379846 -14.879468 15.790194 34.155894 0.513564 1.090212 0.006722 0.004573 -549315.000000 0 0 1
-26.157546 -16.392668 15.577994 34.577604 0.559814 1.103446 0.009037 -0.004415 -636337.000000 0 0 1
-27.308446 -17.177368 15.745594 35.898982 0.561480 1.116747 -0.001015 -0.000624 -56326.700000 0 0 1
-26.961346 -18.578168 15.668794 36.298397 0.603350 1.124457 -0.001073 0.003863 -208948.000000 0 0 1
-28.012646 -19.428968 16.366794 37.816201 0.606403 1.123202 -0.016147 0.008973 -265099.000000 0 0 1
-28.044246 -19.353368 17.823694 38.454085 0.604052 1.088849 -0.000550 0.008552 -166239.000000 0 0 1
-28.594846 -20.522668 18.432194 39.731485 0.622510 1.088382 0.008999 0.004733 -512468.000000 0 0 1
-27.624746 -21.661668 18.638994 39.746277 0.664995 1.082695 0.001000 0.000832 -814249.000000 0 0 1
-26.515246 -21.276668 19.403094 39.143773 0.676222 1.052170 0.017245 0.006304 -263287.000000 0 0 1
-25.858446 -22.405068 19.926094 39.594135 0.713967 1.043431 0.024160 -0.003512 454938.000000 0 0 1
-24.377146 -22.104368 20.338394 38.684604 0.736541 1.017201 0.031354 0.000130 331928.000000 0 0 1
-23.492146 -21.829068 19.294794 37.425636 0.748719 1.029147 0.035265 -0.006411 -337132.000000 0 0 1
-22.235046 -21.543868 19.876994 36.791717 0.769612 1.000053 0.051048 -0.001724 -272581.000000 0 0 1
-21.151046 -21.230168 18.855194 35.406287 0.787265 1.009200 0.048037 -0.010465 -416799.000000 0 0 1
-20.845846 -22.355768 18.036294 35.491373 0.820335 1.037717 0.040937 -0.013792 -40437.900000 0 0 1
-19.642846 -22.058768 17.377994 34.269890 0.843267 1.038989 0.039644 -0.009864 -221879.000000 0 0 1
-19.396346 -23.010068 16.212994 34.183953 0.870409 1.076643 0.035599 -0.006912 -489136.000000 0 0 1
-19.289446 -24.404368 16.453494 35.190530 0.901931 1.084274 0.036272 -0.010317 1264930.000000 0 0 1
-18.147346 -24.909368 17.241694 35.314003 0.941175 1.060725 0.037401 -0.016352 996719.000000 0 0 1
-16.865846 -25.067568 16.404494 34.379458 0.978549 1.073376 0.038422 -0.018226 -228735.000000 0 0 1
-16.228846 -23.827368 16.140794 33.040039 0.972867 1.060401 0.037270 -0.013701 -82403.800000 0 0 1
-14.992946 -23.993368 15.466894 32.244301 1.012284 1.070508 0.041001 -0.008042 -229260.000000 0 0 1
-14.223246 -22.679568 15.389394 30.878746 1.010660 1.049066 0.041952 -0.005564 -467225.000000 0 0 1
-14.837046 -21.614768 14.697794 30.055969 0.969235 1.059837 0.036863 -0.007465 -469048.000000 0 0 1
-15.812746 -20.895868 15.410694 30.400160 0.922995 1.039179 0.034308 -0.012125 -294524.000000 0 0 1
-15.364146 -19.770168 16.434594 29.950165 0.910152 0.989950 0.033420 -0.010802 -434822.000000 0 0 1
-14.913846 -18.580068 15.873294 28.628713 0.894423 0.983090 0.026140 -0.012057 5270.510000 0 0 1
-14.813946 -17.438768 16.750194 28.357232 0.866602 0.938889 0.017904 -0.010393 -489481.000000 0 0 1
-14.309446 -16.145568 16.037294 26.881860 0.845615 0.931558 0.023343 -0.008824 -29315.000000 0 0 1
-15.221746 -15.624668 15.110694 26.536105 0.798460 0.964973 0.002249 -0.008436 -42004.300000 0 0 1
-15.008346 -16.051268 13.795094 25.946065 0.818964 1.010209 0.013334 -0.015933 -208548.000000 0 0 1
-15.909046 -15.372168 12.772394 25.544771 0.768237 1.047197 0.003456 -0.012477 -414294.000000 0 0 1
-17.254946 -15.766968 12.756994 26.628394 0.740368 1.071196 0.000310 -0.010457 -84950.400000 0 0 1
-18.080946 -14.757868 12.169994 26.321551 0.684548 1.090143 0.007460 -0.009192 264196.000000 0 0 1
-19.604246 -15.058168 12.419294 27.664305 0.654990 1.105231 0.010491 -0.008163 671775.000000 0 0 1
-20.131346 -16.204068 11.783694 28.402436 0.677732 1.142982 0.021615 -0.014102 -256629.000000 0 0 1
-20.220746 -15.996768 10.386494 27.796662 0.669295 1.187845 0.020896 -0.003211 -528542.000000 0 0 1
-20.904346 -17.147368 9.581194 28.684895 0.686984 1.230236 0.017720 -0.000464 793728.000000 0 0 1
-20.128546 -18.348268 9.674194 28.903414 0.739162 1.229501 0.020909 0.005883 2075.170000 0 0 1
-20.940846 -19.342668 9.131894 29.934083 0.745746 1.260788 0.020152 -0.003867 -62256.500000 0 0 1
-20.453146 -20.767268 9.201694 30.566023 0.793019 1.265010 0.029609 0.001791 -1150.800000 0 0 1
-19.275846 -20.962968 8.441894 29.703028 0.827301 1.282614 0.047656 0.006120 -340047.000000 0 0 1
-18.990846 -22.388068 8.467894 30.554591 0.867315 1.289980 0.050447 0.000386 1008070.000000 0 0 1
-17.543546 -22.712568 7.937194 29.776430 0.913103 1.300975 0.050875 0.009369 943131.000000 0 0 1
-16.469146 -22.144868 8.673494 28.928489 0.931339 1.266287 0.033120 -0.003652 451686.000000 0 0 1
-15.263546 -22.539068 8.010194 28.375141 0.975534 1.284610 0.044564 0.013445 391763.000000 0 0 1
-13.946346 -21.863668 8.459694 27.277958 1.002990 1.255467 -0.023056 0.011641 190411.000000 0 0 1
-12.891546 -22.262068 7.598794 26.824118 1.045900 1.283582 0.003720 0.019059 -1165620.000000 0 0 1
-11.705446 -21.884168 8.177894 26.130676 1.079634 1.252487 0.008424 0.009591 -157637.000000 0 0 1
-10.398946 -22.518968 7.583894 25.937568 1.138184 1.274071 0.009464 0.019984 658422.000000 0 0 1
-10.273146 -23.895668 7.878894 27.177517 1.164769 1.276669 0.006189 0.024700 99163.500000 0 0 1
-9.058746 -24.339868 7.283494 26.972937 1.214503 1.297372 0.015248 0.020081 290212.000000 0 0 1
-8.947146 -25.856498 7.257894 28.307012 1.237662 1.311501 0.015239 0.013549 -336216.000000 0 0 1
-9.950546 -26.449258 6.443594 28.984419 1.210963 1.346611 0.007720 0.011117 -192642.000000 0 0 1
-9.920846 -27.882298 6.393294 30.277383 1.228954 1.358037 0.022946 0.009744 201182.000000 0 0 1
-8.723946 -28.620678 5.726094 30.463726 1.274930 1.381707 0.011192 -0.000714 390987.000000 0 0 1
-7.480246 -28.466668 6.384994 30.117660 1.313833 1.357174 0.018673 0.000111 60306.200000 0 0 1
-6.417646 -29.259828 5.871894 30.525446 1.354882 1.377229 0.029605 0.005798 525932.000000 0 0 1
-6.334746 -30.679808 6.438994 31.981874 1.367178 1.368078 0.037829 -0.008794 -359637.000000 0 0 1
-6.299646 -30.725518 7.860294 32.334613 1.368569 1.325244 0.038460 -0.006013 136364.000000 0 0 1
-6.370846 -32.092048 8.305594 33.756038 1.374826 1.322196 0.069409 -0.011814 -313272.000000 0 0 1
-6.681646 -32.118838 9.775494 34.231921 1.365693 1.281199 0.068384 -0.014513 -335699.000000 0 0 1
-5.804946 -31.428068 10.642894 33.685190 1.388149 1.249337 0.047441 -0.007448 70529.300000 0 0 1
-6.163446 -31.647768 12.007594 34.405691 1.378453 1.214292 0.037774 -0.006178 -436490.000000 0 0 1
-5.211946 -31.006038 12.996694 34.021358 1.404259 1.178820 0.034331 -0.005728 -330669.000000 0 0 1
-5.349946 -29.576208 12.898094 32.706801 1.391845 1.165430 0.022963 0.005914 -135601.000000 0 0 1
-4.644946 -28.846408 13.832194 32.326775 1.411143 1.128643 0.012008 0.004039 -268062.000000 0 0 1
-5.546946 -28.314718 15.008694 32.523111 1.377343 1.091136 0.023581 0.007402 300804.000000 0 0 1
-6.134646 -29.264788 15.861894 33.847620 1.364163 1.083061 0.019279 -0.002455 11466.600000 0 0 1
-5.191946 -29.969468 16.605494 34.653539 1.399258 1.071069 -0.000239 -0.004197 -41744.900000 0 0 1
-5.829946 -31.335948 16.952294 36.101387 1.386853 1.081987 0.000658 -0.000114 -162356.000000 0 0 1
-5.857946 -32.339998 15.932994 36.524667 1.391603 1.119396 0.010746 0.001224 -37520.400000 0 0 1
-6.517146 -33.532668 16.249094 37.827848 1.378837 1.126798 0.016595 0.000530 -237982.000000 0 0 1
-5.844946 34.207355 15.757594 38.113099 -1.401563 1.144564 0.009048 -0.006767 -332584.000000 0 0 1
-5.998446 33.931083 14.402694 37.346183 -1.395821 1.174880 0.027381 -0.009273 -183699.000000 0 0 1
-5.115946 32.943227 13.938394 36.134581 -1.416731 1.174791 0.028394 -0.012742 18363.100000 0 0 1
-3.947946 33.671356 13.173594 36.371556 -1.454080 1.200175 0.031233 -0.017623 -276350.000000 0 0 1
-4.308946 34.199337 11.916694 36.471486 -1.445462 1.237944 0.033097 -0.021383 489328.000000 0 0 1
-3.191946 34.452304 11.051194 36.321876 -1.478412 1.261638 0.041823 -0.023907 -195605.000000 0 0 1
-3.597946 -34.259465 9.598794 35.760215 1.466159 1.299043 0.035932 -0.023527 -523557.000000 0 0 1
-3.930946 33.684137 8.731694 35.018794 -1.454622 1.318794 0.036182 -0.028863 1150270.000000 0 0 1
-4.913946 32.648817 9.068794 34.239380 -1.421408 1.302733 0.048938 -0.028142 392014.000000 0 0 1
-6.342746 33.050157 9.417594 34.946164 -1.381189 1.297934 0.069267 -0.030962 -768352.000000 0 0 1
-7.133546 33.500804 8.370794 35.259914 -1.360993 1.331105 0.083034 -0.023756 -392942.000000 0 0 1
-8.465046 33.738690 8.819194 35.885017 -1.324971 1.322490 0.069248 -0.024162 223692.000000 0 0 1
-9.375346 33.958129 7.592694 36.037490 -1.301421 1.358517 0.078898 -0.030209 -332468.000000 0 0 1
-9.346446 -33.766178 7.106794 35.749369 1.300758 1.370668 0.091893 -0.028254 57029.400000 0 0 1
-10.027546 -33.641918 5.881894 35.593918 1.281114 1.404785 0.072813 -0.020228 -331219.000000 0 0 1
-10.134246 -32.291888 5.184894 34.239628 1.266698 1.418782 0.046856 -0.021002 -59033.200000 0 0 1
-10.990846 -31.476388 5.908094 33.859523 1.234854 1.395410 0.058525 -0.020450 489942.000000 0 0 1
-12.306546 -31.300848 5.343794 34.055107 1.196192 1.413229 0.059631 -0.021049 487171.000000 0 0 1
-13.218046 -30.409578 6.169194 33.727113 1.160766 1.386846 0.048810 -0.020367 -431175.000000 0 0 1
-14.056946 -31.218318 6.963794 34.938167 1.147711 1.370135 0.065353 -0.016119 530597.000000 0 0 1
-14.923746 -30.436248 7.843494 34.793732 1.114916 1.343414 0.055998 -0.017189 484948.000000 0 0 1
31.833989 -13.078368 -12.580206 36.642982 -0.389808 1.921244 0.012651 0.001393 357093.000000 0 0 1
30.906949 -12.954568 -11.473506 35.421768 -0.396903 1.900657 0.016827 0.001218 793757.000000 0 0 1
30.642799 -14.217268 -10.842206 35.477673 -0.434409 1.881372 0.011484 0.010376 -352635.000000 0 0 1
31.746499 -14.641168 -9.854506 36.322380 -0.432120 1.845547 0.012412 0.002014 161596.000000 0 0 1
32.977229 -14.940868 -10.478406 37.689842 -0.425401 1.852525 0.016648 -0.004699 -422439.000000 0 0 1
33.865989 -15.645468 -9.650406 38.533313 -0.432773 1.823934 0.026724 -0.010053 -105342.000000 0 0 1
35.203798 -15.819168 -10.390906 39.969043 -0.422321 1.833791 0.020532 -0.022278 -361814.000000 0 0 1
-34.967466 -14.677868 -10.634806 39.386071 0.397422 1.844204 0.023364 -0.018386 -436394.000000 0 0 1
-33.660294 -14.902968 -11.086406 38.445055 0.416805 1.863321 0.035239 -0.024489 -201668.000000 0 0 1
-32.969634 -13.607168 -11.425106 37.452434 0.391422 1.880794 0.050762 -0.024148 -550647.000000 0 0 1
-32.715584 -12.729468 -10.325706 36.591925 0.371070 1.856868 0.066490 -0.025678 350963.000000 0 0 1
-32.111374 -11.525868 -10.806806 35.787889 0.344612 1.877553 0.064301 -0.023404 -17109.800000 0 0 1
-32.488504 -10.336968 -9.849706 35.487638 0.308045 1.852043 0.062186 -0.028759 57047.500000 0 0 1
-31.769464 -10.315268 -8.653106 34.504780 0.313953 1.824282 0.061603 -0.021084 -56166.600000 0 0 1
-32.397754 -9.378068 -7.882806 34.636704 0.281765 1.800394 0.063836 -0.023052 -208237.000000 0 0 1
-31.777634 -9.134968 -6.454306 33.688629 0.279918 1.763575 0.055692 -0.019203 137195.000000 0 0 1
-30.565394 -8.361768 -6.414206 32.331169 0.267036 1.770512 0.060534 -0.022382 771888.000000 0 0 1
-29.948654 -8.273368 -5.138206 31.492406 0.269530 1.734686 0.058962 -0.017756 -203857.000000 0 0 1
-29.279964 -9.507768 -4.502106 31.112423 0.313978 1.716011 0.058718 -0.012690 -459941.000000 0 0 1
-30.137454 -10.647168 -4.348006 32.257301 0.339600 1.705999 0.064878 -0.012587 298304.000000 0 0 1
-30.630574 -10.776168 -3.060506 32.614790 0.338287 1.664773 0.046527 -0.013562 -20775.800000 0 0 1
-31.307004 -12.075268 -2.562906 33.652772 0.368123 1.647027 0.046940 -0.016151 -29711.200000 0 0 1
-32.546644 -12.424268 -3.127206 34.977505 0.364664 1.660322 0.050757 -0.028062 -53677.600000 0 0 1
-32.918324 -13.746468 -2.744506 35.778677 0.395580 1.647580 0.051738 -0.026864 -1003740.000000 0 0 1
-34.404497 -13.896568 -2.530106 37.191201 0.383879 1.638879 0.034618 -0.021628 -920188.000000 0 0 1
-34.752765 -13.128268 -1.372506 37.175124 0.361190 1.607725 0.030003 -0.021987 303816.000000 0 0 1
34.761979 -13.004668 -1.224406 37.135101 -0.357987 1.603774 0.047177 -0.032731 -35941.200000 0 0 1
34.214029 -11.919668 -0.274706 36.231943 -0.335236 1.578378 0.046905 -0.037515 -137314.000000 0 0 1
34.484989 -12.168268 1.071494 36.584550 -0.339218 1.541504 0.057115 -0.031036 170490.000000 0 0 1
34.321259 -11.011768 1.860494 36.092510 -0.310468 1.519226 0.048468 -0.030631 -299058.000000 0 0 1
34.590429 -11.266568 3.345194 36.532501 -0.314877 1.479100 0.048809 -0.027471 285876.000000 0 0 1
33.612509 -12.080568 3.986694 35.939318 -0.345030 1.459639 0.046214 -0.034589 277174.000000 0 0 1
34.116309 -12.513968 5.251894 36.716540 -0.351565 1.427265 0.038119 -0.029227 -414854.000000 0 0 1
33.063469 -12.709468 6.372394 35.990707 -0.366983 1.392801 0.046730 -0.019941 -78574.900000 0 0 1
32.564369 -11.514568 6.821794 35.207389 -0.339873 1.375803 0.042595 -0.023823 -172348.000000 0 0 1
32.407069 -11.506268 8.219194 35.357707 -0.341170 1.336192 0.028422 -0.011651 86368.200000 0 0 1
31.669119 -10.195968 8.734494 34.397416 -0.311474 1.314056 0.031625 -0.028238 -167760.000000 0 0 1
30.301489 -10.146568 8.431094 33.048698 -0.323118 1.312834 0.031101 -0.024157 38780.200000 0 0 1
29.606619 -9.261568 9.336694 32.396024 -0.303177 1.278445 0.043260 -0.017055 -320479.000000 0 0 1
28.095879 -9.265168 9.106594 30.954027 -0.318540 1.272181 0.032291 -0.017649 -507560.000000 0 0 1
27.610389 -8.621868 7.956094 29.999494 -0.302674 1.302377 0.045994 -0.023444 258075.000000 0 0 1
26.753859 -9.549168 7.286194 29.326510 -0.342832 1.319716 0.053219 -0.027890 -190464.000000 0 0 1
25.977529 -9.022568 6.049394 28.157306 -0.334287 1.354265 0.064989 -0.030709 10276.200000 0 0 1
24.886239 -8.240068 6.515594 27.012526 -0.319748 1.327188 0.063762 -0.032535 485205.000000 0 0 1
24.026039 -7.641868 5.543794 25.814382 -0.307948 1.354354 0.073912 -0.037980 -84387.600000 0 0 1
24.501839 -6.438868 4.728494 25.771259 -0.256981 1.386272 0.076173 -0.035210 -870620.000000 0 0 1
25.458439 -6.735768 3.745994 26.599533 -0.258652 1.429497 0.079142 -0.036565 -60899.300000 0 0 1
25.800139 -5.471168 3.167294 26.563369 -0.208964 1.451277 0.082047 -0.038522 -168056.000000 0 0 1
26.398659 -5.649668 1.771494 27.054503 -0.210833 1.505271 0.081896 -0.040542 196682.000000 0 0 1
25.448139 -5.974568 0.740394 26.150553 -0.230598 1.542480 0.076599 -0.038824 412232.000000 0 0 1
26.001769 -5.990568 -0.558906 26.688785 -0.226440 1.591739 0.071713 -0.036952 -242742.000000 0 0 1
24.874939 -6.217868 -1.577606 25.688778 -0.244946 1.632247 0.053073 -0.034317 125358.000000 0 0 1
23.881739 -5.204168 -1.630406 24.496511 -0.214560 1.637402 0.058346 -0.032528 31495.700000 0 1 0
23.293739 -5.367768 -2.922806 24.082234 -0.226485 1.692464 0.039941 -0.026161 -293119.000000 0 1 0
22.156439 -4.368468 -3.143406 22.800708 -0.194668 1.709101 0.020313 -0.025930 -384883.000000 0 1 0
22.676739 -3.031768 -3.141806 23.093225 -0.132907 1.707268 0.027868 -0.024848 515728.000000 0 1 0
22.995339 -2.490968 -4.467106 23.557283 -0.107904 1.761579 0.024106 -0.021146 -916758.000000 0 1 0
21.901139 -1.660068 -5.028806 22.532301 -0.075654 1.795874 0.000110 -0.010632 -1011970.000000 0 1 0
21.729139 -0.444268 -4.372506 22.169160 -0.020443 1.769332 -0.004037 -0.006047 460086.000000 0 1 0
20.998839 0.463232 -5.185606 21.634610 0.022056 1.812843 0.008030 -0.001557 -654249.000000 0 1 0
20.780739 1.883332 -4.604806 21.367973 0.090382 1.788001 0.010975 0.005825 -455143.000000 0 1 0
21.982439 2.627732 -4.567206 22.605131 0.118973 1.774240 0.026756 0.006534 618159.000000 0 1 0
22.686739 2.497832 -3.340106 23.066937 0.109659 1.716108 0.039372 0.005585 -508464.000000 0 1 0
23.894439 3.377832 -3.135906 24.334910 0.140434 1.700020 0.033596 0.001038 -613813.000000 0 1 0
23.505839 4.749632 -3.137206 24.185234 0.199377 1.700879 0.025135 0.009671 143493.000000 0 1 0
24.561139 5.604132 -2.853106 25.353423 0.224330 1.683569 0.023861 0.000389 -579871.000000 0 0 1
24.132839 7.095932 -2.956806 25.327631 0.285977 1.687805 0.018286 -0.004489 46307.100000 0 0 1
23.146439 7.566232 -2.050606 24.437890 0.315936 1.654806 0.030246 -0.009000 556414.000000 0 1 0
22.639639 8.780532 -2.568006 24.418142 0.369979 1.676159 0.025215 -0.003776 -1013380.000000 0 1 0
21.597239 9.391832 -1.644006 23.608261 0.410195 1.640490 0.019020 -0.001820 -620577.000000 0 1 0
22.004839 9.754432 -0.321706 24.072087 0.417256 1.584161 0.018243 -0.002686 1045220.000000 0 1 0
20.830239 10.263332 0.309794 23.223497 0.457801 1.557456 0.008129 0.001904 407668.000000 0 1 0
21.099839 10.577032 1.792294 23.670427 0.464675 1.495005 0.014265 -0.009652 -622350.000000 0 1 0
21.976139 11.627932 2.135094 24.954321 0.486668 1.485131 0.028307 -0.017813 259999.000000 0 1 0
21.530839 12.945432 1.931394 25.197054 0.541339 1.494069 0.039565 -0.016334 -499246.000000 0 0 1
20.482439 13.567932 2.884294 24.737385 0.585055 1.453934 0.035782 -0.006613 -13262.200000 0 1 0
19.176539 13.023532 2.625394 23.329053 0.596588 1.458020 0.052915 -0.005976 1910330.000000 0 1 0
18.104639 13.732132 3.352694 22.969326 0.648911 1.424309 0.045228 -0.006708 681366.000000 0 1 0
18.152839 13.660332 4.892694 23.239378 0.645110 1.358675 0.034719 -0.005485 -980392.000000 0 1 0
17.840439 12.346032 5.408594 22.359755 0.605354 1.326483 0.027603 -0.005778 480219.000000 0 1 0
18.064239 12.235032 6.799794 22.852788 0.595333 1.268673 0.028223 -0.012637 -80747.700000 0 1 0
18.169039 10.759732 7.294594 22.340477 0.534666 1.238178 0.011227 -0.016194 -1178420.000000 0 1 0
19.306439 10.155732 6.866194 22.869676 0.484253 1.265861 0.009619 -0.015033 -817407.000000 0 1 0
19.473839 8.838932 7.334994 22.608831 0.426082 1.240387 0.027531 -0.011313 269427.000000 0 1 0
20.421639 7.889932 6.542694 22.849534 0.368685 1.280394 0.032575 -0.012681 203872.000000 0 1 0
19.866939 7.629332 5.272094 21.924802 0.366656 1.327954 0.012441 -0.012100 682432.000000 0 1 0
20.775239 6.859732 4.516194 22.339706 0.318917 1.367233 0.017239 -0.017599 39839.400000 0 1 0
20.440539 6.851632 3.015394 21.768167 0.323428 1.431826 0.011039 -0.007994 -501223.000000 0 1 0
21.177739 5.875132 2.404194 22.108685 0.270615 1.461837 0.003307 -0.011467 -32116.700000 0 1 0
21.079039 5.871232 0.995494 21.904069 0.271649 1.525333 0.012438 -0.000318 -301276.000000 0 1 0
22.150739 4.945632 0.380994 22.699332 0.219669 1.554011 0.024279 -0.004465 64977.300000 0 1 0
22.016139 3.597532 0.824394 22.323356 0.161973 1.533858 0.023106 0.001856 899161.000000 0 1 0
23.213539 2.881432 0.515794 23.397373 0.123496 1.548750 0.037964 0.001789 359453.000000 0 1 0
23.093239 1.330332 0.583494 23.138884 0.057543 1.545577 0.061304 -0.008908 316535.000000 0 1 0
22.122939 0.701832 -0.293206 22.136011 0.031714 1.584042 0.034283 -0.012786 1231840.000000 0 1 0
22.516039 -0.578268 -0.841306 22.539170 -0.025677 1.608131 0.054819 -0.016633 -890241.000000 0 1 0
22.298939 -1.846268 0.025294 22.375255 -0.082608 1.569666 0.067647 -0.015038 297268.000000 0 1 0
23.224939 -2.114268 1.083494 23.346132 -0.090784 1.524370 0.078450 -0.009719 1594280.000000 0 1 0
24.605639 -2.300468 0.699494 24.722842 -0.093223 1.542499 0.091123 -0.022539 1201680.000000 0 1 0
25.593539 -1.992968 1.908394 25.741855 -0.077713 1.496592 0.090291 -0.022532 350215.000000 0 0 1
25.451639 -0.632468 2.290794 25.562349 -0.024845 1.481060 0.079744 -0.021480 436877.000000 0 0 1
26.393249 -0.285268 3.275494 26.597252 -0.010808 1.447331 0.081448 -0.019128 143103.000000 0 0 1
25.962649 1.074532 3.942194 26.282212 0.041364 1.420233 0.077193 -0.016776 37876.300000 0 0 1
26.013009 2.259632 3.141594 26.299281 0.086648 1.451055 0.074230 -0.013354 463585.000000 0 0 1
27.293929 2.731932 2.726694 27.565501 0.099761 1.471717 0.078440 -0.019273 419605.000000 0 0 1
27.160269 3.796232 1.611294 27.471583 0.138872 1.512110 0.060119 -0.017512 -31553.900000 0 0 1
26.958019 3.309832 0.307694 27.162188 0.122166 1.559468 0.067810 -0.006746 302602.000000 0 0 1
27.425919 4.194832 -0.670106 27.752958 0.151775 1.594944 0.062652 -0.002433 -398822.000000 0 0 1
28.793339 3.893932 -1.313206 29.085109 0.134422 1.615962 0.062610 -0.010107 -189013.000000 0 0 1
29.824189 4.145532 -0.378806 30.113306 0.138114 1.583376 0.072800 -0.020344 539187.000000 0 0 1
31.131939 3.943632 -0.933706 31.394612 0.126004 1.600542 0.065699 -0.021985 1385120.000000 0 0 1
32.296709 4.307932 0.084694 32.582861 0.132603 1.568197 0.043739 -0.019312 530501.000000 0 0 1
32.500599 3.336932 1.062894 32.688741 0.102314 1.538275 0.037418 -0.015983 725403.000000 0 0 1
31.704029 3.678832 2.250494 31.995999 0.115520 1.500401 0.035194 -0.008201 343793.000000 0 0 1
31.719089 2.614032 3.370894 32.004635 0.082226 1.465275 0.035464 -0.007240 -579999.000000 0 0 1
30.977929 1.482232 3.081794 31.166112 0.047812 1.471752 0.054113 -0.013883 -130623.000000 0 0 1
31.067459 0.445632 4.019694 31.329595 0.014343 1.442138 0.051703 -0.013273 -328318.000000 0 0 1
32.319439 -0.450068 3.989194 32.567812 -0.013925 1.447999 0.051571 -0.015373 -608100.000000 0 0 1
33.444799 0.235232 4.459794 33.741661 0.007033 1.438234 0.038359 -0.008310 -369185.000000 0 0 1
34.573459 -0.558768 4.136294 34.824492 -0.016160 1.451740 0.025531 -0.012046 235037.000000 0 0 1
-34.951387 0.097132 4.498994 35.239889 -0.002779 1.442779 0.019569 -0.015577 767246.000000 0 0 1
-34.708955 1.253032 3.721394 34.930365 -0.036085 1.464056 0.012953 -0.013803 220021.000000 0 0 1
-34.326462 0.999332 2.379194 34.423323 -0.029104 1.501625 0.021338 -0.012545 -990849.000000 0 0 1
-34.362773 2.277032 1.539194 34.472513 -0.066168 1.526132 0.029176 -0.017193 -38606.200000 0 0 1
-33.369244 3.269132 1.719894 33.573080 -0.097657 1.519546 0.027094 -0.023309 665401.000000 0 0 1
-32.151274 2.856832 1.077594 32.295930 -0.088623 1.537424 0.044224 -0.023463 84196.200000 0 0 1
-30.883874 3.615632 1.559094 31.133860 -0.116541 1.520698 0.050073 -0.026819 22367.000000 0 0 1
-30.621224 3.327932 2.923994 30.940010 -0.108256 1.476150 0.041238 -0.025906 -32402.000000 0 0 1
-29.967994 4.448832 3.448094 30.492001 -0.147376 1.457472 0.045919 -0.021765 -711896.000000 0 0 1
-30.198034 4.562732 4.967294 30.942104 -0.149959 1.409564 0.038433 -0.017050 40424.300000 0 0 1
-31.490044 4.872432 5.452994 32.327985 -0.153512 1.401309 0.039858 -0.006685 93051.600000 0 0 1
-32.489054 3.886032 5.379694 33.159930 -0.119045 1.407841 0.037692 -0.002663 -463031.000000 0 0 1
-32.442134 2.821132 6.499994 33.206938 -0.086741 1.373782 0.016591 -0.003711 -570768.000000 0 0 1
-32.860894 3.436332 7.752394 33.937388 -0.104193 1.340329 0.019284 -0.001358 557215.000000 0 0 1
-32.617594 2.697732 8.947694 33.930022 -0.082520 1.303930 0.011517 -0.001050 -496625.000000 0 0 1
-33.620694 1.565232 9.210394 34.894589 -0.046522 1.303682 0.011289 0.004206 -478245.000000 0 0 1
-33.476504 0.373432 8.461794 34.531402 -0.011155 1.323229 0.016291 0.002866 -196358.000000 0 0 1
-34.501989 -0.531268 8.737394 35.595105 0.015397 1.322796 0.029126 0.004267 -432896.000000 0 0 1
-34.434403 -1.352268 10.133194 35.919888 0.039251 1.284808 0.034157 0.002508 421395.000000 0 0 1
-33.283934 -2.244468 10.085294 34.850696 0.067332 1.277211 0.025562 -0.006106 1133720.000000 0 0 1
-33.183614 -3.052668 11.238794 35.167904 0.091735 1.245515 0.028134 0.008018 -128476.000000 0 0 1
-31.842994 -3.810468 11.266294 33.991547 0.119098 1.232963 0.031398 0.001726 -210053.000000 0 0 1
-31.773454 -4.677568 10.139994 33.678650 0.146166 1.264971 0.028924 -0.004876 -46039.300000 0 0 1
-30.552104 -5.366968 10.194194 32.652059 0.173892 1.253281 0.017483 -0.008321 -138349.000000 0 0 1
-30.389014 -6.437868 9.116794 32.373666 0.208762 1.285323 0.019277 -0.005740 496647.000000 0 0 1
-31.356644 -7.511268 9.207294 33.532559 0.235113 1.292646 0.022691 -0.012366 446184.000000 0 0 1
-31.407684 -8.374568 8.117894 33.503376 0.260578 1.326060 0.034295 -0.011344 -96807.500000 0 0 1
-32.635044 -9.294968 8.181894 34.905385 0.277469 1.334193 0.035660 -0.018291 -321389.000000 0 0 1
-33.883384 -8.672768 8.153794 35.913576 0.250580 1.341760 0.035599 -0.021176 -810527.000000 0 0 1
-34.864003 -9.649068 8.280194 37.110171 0.270005 1.345778 0.041642 -0.024876 -520499.000000 0 0 1
7.554546 -24.268468 10.612694 27.543765 -1.269014 1.175260 0.051188 -0.019027 217208.000000 0 0 1
6.903346 -24.822568 9.482394 27.454178 -1.299543 1.218142 0.054627 -0.018382 -647211.000000 0 0 1
5.616246 -25.283738 9.765794 27.679963 -1.352216 1.210223 0.051954 -0.014062 -223325.000000 0 0 1
5.127046 -26.354878 8.781794 28.248648 -1.378657 1.254683 0.037586 -0.005076 -271262.000000 0 0 1
4.783446 -25.783308 7.552994 27.289339 -1.387357 1.290360 0.052514 -0.003289 -171250.000000 0 0 1
4.487446 -26.831188 6.624894 27.998911 -1.405083 1.331918 0.036636 0.000795 -518900.000000 0 0 1
4.012046 -26.284598 5.243294 27.101084 -1.419327 1.376097 0.039415 0.002471 748435.000000 0 0 1
2.606946 -26.072658 5.044494 26.683826 -1.471140 1.380605 0.014082 0.004930 419349.000000 0 0 1
1.957946 -27.268448 4.673494 27.735237 -1.499117 1.401485 0.001670 0.003028 361747.000000 0 0 1
0.396546 -27.234888 4.761394 27.650809 -1.556237 1.397736 -0.005210 0.008465 576113.000000 0 0 1
-0.073154 -27.172578 6.067294 27.841810 1.568104 1.351113 -0.004462 0.015152 572555.000000 0 0 1
-1.488754 -27.030918 6.293694 27.793839 1.515776 1.342373 -0.015153 0.013075 1200460.000000 0 0 1
-2.248654 -28.356098 6.470194 29.171701 1.491661 1.347139 -0.015572 0.014743 -428985.000000 0 0 1
-1.823154 -29.032318 7.623894 30.071966 1.508081 1.314477 -0.007232 0.013551 -252886.000000 0 0 1
-2.413354 -30.239558 7.855294 31.336254 1.491157 1.317416 0.006138 0.009665 -242073.000000 0 0 1
-2.029454 -30.770948 9.290294 32.206824 1.504938 1.278181 0.012442 0.004968 669544.000000 0 0 1
-0.687354 -31.201688 9.513894 32.627166 1.548771 1.274903 0.013554 -0.000261 328451.000000 0 0 1
-0.501754 -31.424238 10.876294 33.257003 1.554831 1.237629 0.020888 -0.004411 -578108.000000 0 0 1
0.936846 -31.803538 11.136794 33.710101 -1.541348 1.234101 0.013144 -0.007844 -713884.000000 0 0 1
1.394246 -33.143178 10.784894 34.881630 -1.528754 1.256460 0.019782 -0.007609 586015.000000 0 0 1
2.804746 -33.243678 10.998594 35.128020 -1.486626 1.252341 0.012060 -0.001296 623458.000000 0 0 1
3.232246 -33.806168 12.366294 36.141799 -1.475475 1.221581 0.020215 -0.003602 -349339.000000 0 0 1
2.902746 -32.990758 13.466694 35.751474 -1.483036 1.184592 0.028861 -0.005365 150816.000000 0 0 1
3.639446 -33.453358 14.560094 36.665639 -1.462431 1.162436 0.029899 -0.000991 -451511.000000 0 0 1
3.571346 -32.444878 15.780494 36.255325 -1.461163 1.120469 0.029653 -0.005337 63861.500000 0 0 1
4.061246 -31.161388 15.452194 35.018511 -1.441197 1.113796 0.024112 -0.013962 -391785.000000 0 0 1
5.443646 -30.966898 15.526394 35.066379 -1.396785 1.112109 0.020592 -0.006965 -768606.000000 0 0 1
5.938646 -29.591348 14.987994 33.698002 -1.372739 1.109874 0.021797 -0.010001 -318160.000000 0 0 1
5.875846 -29.464828 13.556394 32.961758 -1.373959 1.146942 0.015947 -0.001882 -1288700.000000 0 0 1
4.674146 -29.335728 12.925194 32.395883 -1.412792 1.160396 0.007138 0.012044 -1766920.000000 0 0 1
4.839646 -29.574298 11.444494 32.078618 -1.408590 1.205995 0.001005 0.006324 143225.000000 0 0 1
5.089846 -30.873438 10.914194 33.139030 -1.407404 1.235186 0.003846 0.000724 1180010.000000 0 0 1
6.484646 -31.208408 11.153494 33.770043 -1.365926 1.234198 0.003828 0.002518 956020.000000 0 0 1
6.957546 -32.552398 10.614394 34.938967 -1.360231 1.262120 -0.006457 0.003606 -241053.000000 0 0 1
6.667546 -33.622998 11.465094 36.144302 -1.375033 1.248017 -0.011402 0.000323 223093.000000 0 0 1
6.994246 34.227829 10.807994 36.568792 1.369228 1.270763 0.001986 -0.001037 -158068.000000 0 0 1
6.916646 33.004357 11.699494 35.693217 1.364218 1.236844 0.008354 -0.000554 273591.000000 0 0 1
5.558646 32.856767 12.118694 35.458828 1.403205 1.221999 0.004242 -0.002214 578770.000000 0 0 1
5.339646 31.565547 12.693894 34.438794 1.403222 1.193301 0.020576 -0.003465 -196466.000000 0 0 1
4.070646 31.583607 13.542594 34.604859 1.442618 1.168699 0.021607 -0.009344 -237425.000000 0 0 1
4.209346 32.213867 14.758694 35.682922 1.440864 1.144384 0.034694 -0.007741 -113670.000000 0 0 1
3.049046 31.998927 15.510994 35.690601 1.475797 1.121207 0.037949 -0.004571 -114533.000000 0 0 1
3.343446 32.182157 17.022294 36.559929 1.467276 1.086484 0.037769 -0.002137 24101.000000 0 0 1
3.569546 33.552206 17.368294 37.949306 1.464807 1.095422 0.029874 -0.000714 56836.000000 0 0 1
4.339246 33.551987 18.538994 38.577963 1.442181 1.069504 0.029344 -0.005592 -74301.500000 0 0 1
4.654746 -34.092601 19.114994 39.361848 -1.435103 1.063721 0.022467 -0.007432 -427805.000000 0 0 1
3.447546 -33.479158 19.422494 38.858369 -1.468182 1.047396 0.021692 -0.003906 -494873.000000 0 0 1
3.659146 -32.246698 20.104794 38.176454 -1.457806 1.016167 0.016337 0.001694 -108117.000000 0 0 1
2.371246 -31.637438 20.675794 37.868704 -1.495986 0.993230 0.014759 0.003703 -278996.000000 0 0 1
1.725446 -32.533748 21.550794 39.062241 -1.517810 0.986390 0.017215 0.003385 -57703.000000 0 0 1
0.738046 -31.855828 22.311894 38.899346 -1.547632 0.959927 0.016453 0.000838 252413.000000 0 0 1
-0.401954 -32.730968 22.906194 39.952116 1.558516 0.960218 0.007940 0.001501 326073.000000 0 0 1
-1.331454 -33.240398 21.884594 39.819998 1.530762 0.988925 0.008401 0.002093 386521.000000 0 0 1
-2.048554 -34.344862 22.288794 40.994591 1.511220 0.995956 0.005511 0.005032 46272.400000 0 0 1
-3.294154 -34.006677 23.176794 41.285219 1.474230 0.974741 0.015938 0.004109 91418.800000 0 0 1
-4.321054 -33.408828 22.389994 40.449142 1.442172 0.984194 0.011060 -0.000462 -113801.000000 0 0 1
-5.359954 -32.835338 23.159194 40.536857 1.408986 0.962693 0.010661 0.004841 162747.000000 0 0 1
-6.609654 -32.458628 22.317994 39.941744 1.369910 0.977902 -0.002146 -0.004589 209621.000000 0 0 1
-7.283854 -33.638518 21.866494 40.776807 1.357555 1.004810 0.000030 0.003352 338353.000000 0 0 1
-8.455054 -33.280138 21.142594 40.324494 1.322003 1.018890 0.015973 -0.012109 413151.000000 0 0 1
-9.343954 -34.492241 20.717094 41.306442 1.306246 1.045411 0.025141 -0.019996 190652.000000 0 0 1
-9.995054 33.922809 21.790194 41.538785 -1.284263 1.018581 0.037482 -0.021351 -1178090.000000 0 0 1
-11.357354 33.823342 21.546994 41.680702 -1.246841 1.027508 0.046419 -0.027724 -601499.000000 0 0 1
-12.133054 33.723914 22.921594 42.543071 -1.225439 1.001801 0.040117 -0.016055 -213470.000000 0 0 1
-12.135754 -34.161126 23.729594 43.328428 1.229452 0.991222 0.029543 -0.016234 540438.000000 0 0 1
-10.891054 -33.800748 24.337794 43.051525 1.259087 0.969978 0.011579 -0.015033 217801.000000 0 0 1
-10.949854 -32.382618 24.982294 42.339677 1.244726 0.939682 0.006046 -0.014285 -412627.000000 0 0 1
-11.749454 -32.221438 26.131994 43.117883 1.221133 0.919699 0.023245 -0.011216 15218.900000 0 0 1
-11.842154 -30.850458 26.447994 42.325923 1.204284 0.895838 0.035751 -0.013605 147118.000000 0 0 1
-12.812954 -30.532038 27.620194 43.119047 1.173461 0.875573 0.006454 -0.008510 202881.000000 0 0 1
-12.231054 -30.748198 28.922994 43.949857 1.192204 0.852516 -0.001155 -0.004399 73962.000000 0 0 1
-13.158254 -30.477838 29.930794 44.697770 1.163238 0.837091 0.007577 -0.008512 -322001.000000 0 0 1
-12.545154 -30.002098 31.290894 45.129002 1.174748 0.804647 0.003141 -0.005080 -126812.000000 0 0 1
-13.538454 -29.469398 32.169094 45.679161 1.140147 0.789444 0.020492 -0.008056 472757.000000 0 0 1
-13.109154 -28.984028 33.453794 46.163623 1.146041 0.760228 0.010461 0.000495 -221557.000000 0 0 1
-12.465754 -30.087888 34.413594 47.381130 1.178014 0.757852 0.010290 0.002273 615794.000000 0 0 1
-11.074854 -30.335508 34.154594 47.004593 1.220752 0.757403 0.001059 0.004325 714985.000000 0 0 1
-10.664054 -31.526058 -34.048830 47.612364 1.244617 2.367600 -0.005438 0.012123 -807699.000000 0 0 1
-9.219654 -31.952798 -34.218730 47.716924 1.289886 2.370457 -0.012713 0.003039 -737349.000000 0 0 1
-8.416554 -31.138548 -33.384330 46.421558 1.306811 2.373383 0.009519 0.000117 216304.000000 0 0 1
-7.069754 -31.587108 -33.228030 46.387809 1.350608 2.369295 0.016444 -0.006682 379624.000000 0 0 1
-6.338054 -30.694858 -32.194130 44.931139 1.367172 2.369599 0.023846 -0.002701 -167663.000000 0 0 1
-6.856954 -30.758358 -30.895230 44.131731 1.351453 2.346290 0.022929 -0.009706 -167367.000000 0 0 1
-6.161254 -29.879178 -30.021530 42.802086 1.367441 2.348161 0.012609 -0.004644 84702.400000 0 0 1
-6.456954 -30.123508 -28.551530 42.003665 1.359642 2.318203 0.023566 -0.007951 -319535.000000 0 0 1
-5.978454 -31.299218 -27.964730 42.395862 1.382060 2.291096 0.021290 -0.003166 -201493.000000 0 0 1
-6.849254 -31.699098 -26.929630 42.153886 1.357997 2.263787 0.038814 -0.006701 -139541.000000 0 0 1
-6.414054 -32.901098 -26.091230 42.477931 1.378262 2.232206 0.038183 -0.011576 -27158.200000 0 0 1
-5.354354 -32.596748 -25.219830 41.560280 1.407990 2.222857 0.009824 -0.008115 -242856.000000 0 0 1
-5.172554 -33.741238 -24.423030 41.972739 1.418680 2.191833 0.014924 -0.011014 -272456.000000 0 0 1
-4.276154 -33.469018 -23.228730 40.963820 1.443720 2.173722 0.007378 -0.015453 -71352.300000 0 0 1
-4.921754 -32.807778 -22.125530 39.876221 1.421889 2.158985 0.014852 -0.005320 25504.300000 0 0 1
-4.959354 -31.446638 -22.350530 38.897717 1.414378 2.182909 0.002939 0.001736 -464352.000000 0 0 1
-5.639154 -30.696168 -21.210030 37.734867 1.389113 2.167695 0.011933 -0.001672 324163.000000 0 0 1
-7.061754 -30.690728 -21.338530 38.041057 1.344639 2.166310 0.024062 0.002592 172793.000000 0 0 1
-7.674454 -29.594028 -20.737830 36.942676 1.317061 2.166814 0.024240 -0.001781 -386890.000000 0 0 1
-7.785154 -28.322538 -21.623230 36.473811 1.302546 2.205380 0.036659 -0.025735 -396051.000000 0 0 1
-6.582154 -27.696428 -22.062230 36.016092 1.337471 2.230099 0.032500 -0.014698 -314523.000000 0 0 1
-6.652554 -27.016948 -23.289430 36.284563 1.329363 2.267711 0.056423 -0.035235 -1086490.000000 0 0 1
-5.552854 -27.463338 -24.239830 37.049136 1.371294 2.284002 0.049083 -0.031450 261094.000000 0 0 1
-4.227154 -27.042718 -23.941930 36.364728 1.415737 2.289465 0.050176 -0.028614 502618.000000 0 0 1
-3.630954 -27.709428 -22.778430 36.053476 1.440502 2.254664 0.026433 -0.027251 -532439.000000 0 0 1
-2.084254 -27.455898 -22.703130 35.687569 1.495029 2.260312 0.023306 -0.027385 495364.000000 0 0 1
-1.693154 -26.124548 -22.940430 34.808363 1.506076 2.290350 0.032601 -0.031391 -264574.000000 0 0 1
-2.205154 -25.096958 -22.040530 33.473945 1.483156 2.289538 0.040769 -0.029143 -802418.000000 0 0 1
-2.154254 -23.684268 -22.633030 32.830465 1.480089 2.331444 0.035556 -0.021752 152436.000000 0 0 1
-2.989454 -23.498668 -23.754330 33.546869 1.444258 2.357591 0.027717 -0.026592 940548.000000 0 0 1
-4.411254 -23.580368 -23.574630 33.634151 1.385861 2.347474 0.030839 -0.025861 290104.000000 0 0 1
-5.129554 -23.630768 -24.957930 34.750882 1.357042 2.372002 0.026941 -0.026797 -81501.600000 0 0 1
-5.235254 -22.419468 -25.642830 34.461503 1.341393 2.409984 0.033594 -0.027647 30522.700000 0 0 1
-5.741554 -22.519068 -26.936230 35.575755 1.321151 2.429738 0.035487 -0.022015 -165745.000000 0 0 1
-5.592654 -21.263568 -27.947630 35.559628 1.313606 2.475007 0.042062 -0.014604 -13395.800000 0 0 1
-5.953854 -21.489568 -29.290230 36.812600 1.300518 2.490889 0.039118 -0.009084 312268.000000 0 0 1
-5.051854 -22.400168 -29.951430 37.740918 1.348980 2.487510 0.029217 -0.000513 190627.000000 0 0 1
-5.337954 -22.491468 -31.480630 39.056241 1.337775 2.508216 0.042893 -0.012245 -31728.800000 0 0 1
-5.143154 -21.336068 -32.274630 39.029881 1.334255 2.544406 0.069225 -0.013557 662273.000000 0 0 1
-6.440554 -21.052968 -32.832630 39.530871 1.273916 2.550903 0.052302 -0.012329 949503.000000 0 0 1
-6.398554 -20.141868 -34.045030 40.071192 1.263204 2.586049 0.040501 -0.010780 19627.700000 0 0 1
-5.496554 -20.608968 33.863994 40.021391 1.310156 0.562082 0.045056 -0.007532 -412133.000000 0 0 1
-5.456654 -19.801668 32.724394 38.636344 1.301905 0.560509 0.043811 0.007522 61554.400000 0 0 1
-4.273954 -20.231768 31.834194 37.960598 1.362608 0.576067 0.025111 0.011550 -1214500.000000 0 0 1
-4.277854 -21.512168 31.351894 38.262445 1.374500 0.610449 0.036320 -0.001467 -335445.000000 0 0 1
-3.189654 -21.869968 30.568094 37.721052 1.425971 0.626009 0.030993 -0.005557 811900.000000 0 0 1
-1.704554 -21.840568 31.127694 38.063752 1.492909 0.613257 0.010314 -0.005860 288030.000000 0 0 1
-1.169854 -20.563368 31.010494 37.227294 1.513967 0.586281 -0.000910 -0.000730 -202222.000000 0 0 1
-0.089754 -20.284568 31.871794 37.779399 1.566372 0.566790 0.003353 0.003832 71278.600000 0 0 1
-0.589654 -20.085468 33.366194 38.949668 1.541448 0.542058 0.005922 -0.000764 -50114.600000 0 0 1
-1.426954 -18.979368 33.578594 38.597598 1.495753 0.515663 0.012197 0.007664 -161912.000000 0 0 1
-1.707254 -18.658268 -33.927030 38.756794 1.479549 2.637023 0.018809 0.001120 279952.000000 0 0 1
-2.738854 -17.481368 -33.811630 38.161838 1.415387 2.659456 0.017291 -0.005949 386264.000000 0 0 1
-2.291454 -16.129768 -34.138430 37.826612 1.429677 2.696330 0.034008 -0.009029 -491706.000000 0 0 1
-3.258354 -15.177768 -33.853730 37.243208 1.359327 2.711653 0.031906 -0.006108 -317159.000000 0 0 1
-2.906454 -13.723868 -34.253330 37.014628 1.362099 2.752886 0.030577 -0.011730 527584.000000 0 0 1
-1.879554 -13.040368 -33.483430 35.982274 1.427649 2.766718 0.040374 -0.008490 511564.000000 0 0 1
-1.816854 -11.608168 -33.652430 35.644587 1.415541 2.805682 0.024102 -0.003689 101388.000000 0 0 1
-1.248054 -11.020668 33.859494 35.629736 1.458030 0.316548 0.025857 -0.002557 4703.050000 0 0 1
-2.190854 -11.126768 32.808294 34.712951 1.376384 0.332800 0.025167 -0.008333 228410.000000 0 0 1
-1.647154 -10.780968 31.540494 33.372821 1.419185 0.332910 0.020972 -0.005969 500157.000000 0 0 1
-0.654354 -11.780768 30.847594 33.027091 1.515309 0.365322 0.018525 -0.009552 588107.000000 0 0 1
-1.358354 -12.987868 30.641794 33.308398 1.466589 0.402864 0.029888 -0.009051 -78492.600000 0 0 1
-0.520354 -13.930768 30.074094 33.147974 1.533461 0.434055 0.025454 -0.007478 -479554.000000 0 0 1
-0.721354 -15.443568 30.442294 34.143190 1.524121 0.469915 0.014981 -0.005546 133510.000000 0 0 1
-1.882154 -16.065468 29.909394 34.003141 1.454173 0.495761 0.023641 -0.007857 342838.000000 0 0 1
-2.196454 -17.320468 30.449694 35.099956 1.444657 0.520614 0.018906 -0.001011 -279930.000000 0 0 1
-2.598854 -18.325368 29.438694 34.773695 1.429918 0.561271 0.016202 -0.005049 383797.000000 0 0 1
-3.933954 -18.042868 28.972594 34.357420 1.356122 0.567457 0.025835 -0.008014 1049310.000000 0 0 1
-4.502954 -18.976268 27.993994 34.118016 1.337812 0.608503 0.029865 -0.004770 -133159.000000 0 0 1
-3.667854 -19.223968 26.700794 33.105083 1.382266 0.632509 0.018828 -0.008037 -227461.000000 0 0 1
-4.286454 -19.900268 25.583694 32.694338 1.358641 0.672107 0.028929 -0.003665 -28343.000000 0 0 1
-4.618754 -21.287868 25.830794 33.789586 1.357141 0.700593 0.018801 -0.010774 -71575.100000 0 0 1
-28.700484 -34.358693 -0.694606 44.774100 0.874887 1.586311 0.014333 -0.005376 37035.800000 0 0 1
-28.024964 -33.174393 -0.292206 43.428382 0.869342 1.577525 0.029105 -0.005835 103898.000000 0 0 1
-28.421264 -32.773093 1.020794 43.392233 0.856394 1.547269 0.021348 -0.005887 -62935.700000 0 0 1
-27.802974 -31.387593 1.314694 41.951338 0.845885 1.539453 0.025096 -0.011065 1418320.000000 0 0 1
-26.350604 -31.379193 1.399294 40.999587 0.872284 1.536660 0.031585 -0.009924 871061.000000 0 0 1
-25.778074 -30.102393 1.643594 39.665660 0.862629 1.529348 0.033350 -0.010221 183699.000000 0 0 1
-24.276854 -30.215593 1.941994 38.808749 0.893953 1.520735 0.025855 -0.004578 -312775.000000 0 0 1
-24.030554 -30.916093 3.161994 39.284482 0.910062 1.490220 0.022485 -0.003995 -1059100.000000 0 0 1
-22.659854 -30.905393 3.360194 38.469510 0.938134 1.483338 0.028210 -0.003048 -819796.000000 0 0 1
-22.134854 -31.417993 4.675194 38.715623 0.957038 1.449744 0.032976 -0.013278 -207493.000000 0 0 1
-22.355354 -30.509793 5.724694 38.254169 0.938442 1.420583 0.028018 -0.012383 -111247.000000 0 0 1
-21.806454 -31.054293 6.898994 38.567949 0.958593 1.390949 0.015244 -0.006139 -420445.000000 0 0 1
-22.389354 -30.550793 8.204694 38.755014 0.938358 1.357475 0.011970 0.001595 -245143.000000 0 0 1
-21.969554 -29.283793 8.804494 37.652635 0.927149 1.334776 0.031099 -0.003672 -76592.800000 0 0 1
-22.701854 -28.979493 9.957694 38.135821 0.906274 1.306623 0.014261 0.003317 -371344.000000 0 0 1
-22.259954 -27.726993 10.692094 37.129672 0.894335 1.278694 0.040157 -0.003315 662782.000000 0 0 1
-20.939054 -27.906493 11.217494 36.647626 0.927085 1.259713 0.039996 -0.010162 277646.000000 0 0 1
-20.587854 -26.896093 12.141694 35.981666 0.917475 1.226599 0.053737 -0.015356 -241704.000000 0 0 1
-19.225454 -27.069193 12.793894 35.581498 0.953235 1.202994 0.041339 -0.016914 -483661.000000 0 0 1
-19.216954 -28.195993 13.626394 36.742128 0.972561 1.190855 0.030441 -0.015245 382342.000000 0 0 1
-17.988754 -28.290493 14.366394 36.473834 1.004427 1.165945 0.028582 -0.019754 521910.000000 0 0 1
-17.911154 -29.402393 15.413594 37.721201 1.023659 1.149856 0.052583 -0.029603 -470327.000000 0 0 1
-17.730754 -30.712793 14.868094 38.454070 1.047229 1.173805 0.057178 -0.033444 29868.100000 0 0 1
-17.831854 -31.631893 15.919894 39.648388 1.057473 1.157613 0.057691 -0.033613 79553.000000 0 0 1
-17.590454 -33.078593 15.406994 40.509170 1.082051 1.180639 0.047911 -0.035089 118933.000000 0 0 1
-17.564454 -34.017393 16.458294 41.672155 1.094164 1.164786 0.052557 -0.030244 172006.000000 0 0 1
-16.883654 33.922032 15.885594 41.086666 -1.108975 1.173815 0.046174 -0.027797 -484157.000000 0 0 1
-16.871954 32.767232 16.968194 40.574301 -1.095297 1.139333 0.058264 -0.023315 -680513.000000 0 0 1
-17.911054 31.845732 16.844794 40.233115 -1.058459 1.138805 0.051297 -0.021899 -242348.000000 0 0 1
-18.013254 30.843532 17.809094 39.911961 -1.042209 1.108271 0.038260 -0.017641 -1669.530000 0 0 1
-18.900554 31.188332 19.046994 41.142812 -1.025967 1.089478 0.041482 -0.022447 60163.200000 0 0 1
-18.316654 32.211832 19.849694 42.037035 -1.053762 1.079017 0.045148 -0.023965 369141.000000 0 0 1
-19.113054 32.475532 21.015894 43.146689 -1.038848 1.062053 0.041006 -0.024886 -36412.900000 0 0 1
-18.451754 33.318932 22.093194 44.030985 -1.065047 1.045159 0.042421 -0.010908 -136748.000000 0 0 1
-17.437854 32.653332 22.814794 43.483717 -1.080297 1.018464 0.027894 -0.017236 -83772.600000 0 0 1
-16.941154 33.445032 23.879494 44.450007 -1.101933 1.003657 0.031394 -0.020029 -417726.000000 0 0 1
-17.581154 33.001932 25.186694 45.084299 -1.081308 0.978030 0.023922 -0.013874 737363.000000 0 0 1
-18.979954 33.352432 25.150194 45.881975 -1.053428 0.990646 0.014983 -0.015189 839095.000000 0 0 1
-19.758554 32.529732 26.026794 46.108328 -1.024954 0.971005 0.009664 -0.010578 131846.000000 0 0 1
-21.262354 32.714832 25.742994 46.744515 -0.994470 0.987573 0.024838 -0.010028 -124332.000000 0 0 1
-21.654054 32.363232 24.414394 45.960194 -0.981115 1.010771 0.020583 -0.001920 1907670.000000 0 0 1
-23.111854 32.273332 24.309594 46.547633 -0.949328 1.021307 0.004568 -0.005022 1692970.000000 0 0 1
-23.646854 31.955932 22.859994 45.857765 -0.933737 1.048931 -0.005559 -0.007534 -246483.000000 0 0 1
-23.409054 33.066332 21.975894 46.090194 -0.954760 1.073783 -0.006753 -0.009061 297641.000000 0 0 1
-23.375254 32.586832 20.632094 45.099750 -0.948539 1.095641 -0.005721 -0.002341 -294622.000000 0 0 1
-22.989654 33.711232 19.588694 45.262438 -0.972282 1.123222 0.006368 -0.016122 746181.000000 0 0 1
-21.584054 34.024032 19.599594 44.806810 -1.005483 1.118064 0.032855 -0.014718 879355.000000 0 0 1
-21.216754 -34.181193 18.496994 44.279153 1.015285 1.139844 0.039890 -0.016178 146464.000000 0 0 1
-19.766054 -33.652093 18.600194 43.233407 1.039719 1.126052 0.048333 -0.020322 37255.900000 0 0 1
-19.720354 -32.541293 19.445294 42.731108 1.025969 1.098355 0.042316 -0.026439 515457.000000 0 0 1
-18.361854 -32.307993 19.761094 42.088774 1.053983 1.082061 0.053405 -0.025534 -18049.000000 0 0 1
-18.425454 -31.216393 20.847494 41.816008 1.037577 1.048868 0.052932 -0.022196 -220106.000000 0 0 1
-18.907154 -30.035893 20.287394 40.880481 1.008978 1.051509 0.069343 -0.025704 230988.000000 0 0 1
-19.365154 -29.317093 21.432194 41.156288 0.987046 1.023065 0.061546 -0.024015 -453234.000000 0 0 1
-20.153354 -28.057293 21.153294 40.507175 0.947898 1.021355 0.046390 -0.021291 -728515.000000 0 0 1
-19.436154 -27.023793 20.535994 39.112358 0.947285 1.018021 0.045670 -0.015647 109954.000000 0 0 1
-20.140154 -25.805793 20.427394 38.585531 0.908090 1.012897 0.050008 -0.002538 -459134.000000 0 0 1
-21.299054 -25.625893 19.426694 38.571136 0.877346 1.042967 0.050324 -0.013527 -514327.000000 0 0 1
-22.493454 -26.052493 19.997694 39.806980 0.858580 1.044463 0.043848 -0.009556 616933.000000 0 0 1
-23.681154 -25.629593 19.287394 39.870749 0.824891 1.065864 0.034764 -0.003587 200432.000000 0 0 1
-25.042054 -26.033693 19.844094 41.214630 0.804811 1.068452 0.030593 -0.008659 -425912.000000 0 0 1
-25.466554 -27.390093 19.807394 42.321335 0.821774 1.083743 0.022251 -0.002946 97548.500000 0 0 1
-25.489944 -27.933893 18.526394 42.110176 0.831113 1.115253 0.021338 -0.016548 -431228.000000 0 0 1
-26.644404 -28.972893 18.454594 43.473266 0.827240 1.132382 0.010764 -0.020490 -128350.000000 0 0 1
-27.887254 -28.382193 18.746394 43.984942 0.794194 1.130508 0.001436 -0.017569 -827513.000000 0 0 1
-28.854844 -29.349893 18.432394 45.097355 0.793903 1.149740 0.002669 -0.003155 947541.000000 0 0 1
-30.329734 -28.789593 18.672594 45.797371 0.759353 1.150838 -0.002333 -0.002302 1247310.000000 0 0 1
-30.673794 -27.732293 17.785294 45.014202 0.735078 1.164615 0.001534 0.007940 -245871.000000 0 0 1
-32.002524 -27.343293 18.003594 45.781509 0.707049 1.166632 -0.010556 0.015900 -365535.000000 0 0 1
-32.515414 -26.142693 17.185994 45.122621 0.677181 1.180056 -0.011285 0.005068 -323137.000000 0 0 1
-32.784794 -26.328193 15.820194 44.925438 0.676605 1.210936 0.011419 -0.007998 168919.000000 0 0 1
-33.288614 -25.154193 15.227094 44.415421 0.647101 1.220865 0.014120 -0.013954 -361687.000000 0 0 1
-32.329504 -23.941993 14.958194 42.920431 0.637433 1.214815 -0.008222 -0.003589 182820.000000 0 0 1
-31.802044 -23.325893 16.146094 42.616471 0.632839 1.182222 -0.020348 0.001337 344710.000000 0 0 1
-31.159604 -22.096393 15.867794 41.363733 0.616831 1.177088 -0.007051 -0.000165 6422.550000 0 0 1
-32.087514 -20.854493 16.057094 41.501189 0.576323 1.173522 -0.007049 -0.002407 207111.000000 0 0 1
-32.159074 -20.572893 17.424294 41.964937 0.569117 1.142622 -0.003105 -0.003506 106287.000000 0 0 1
-33.020374 -19.480393 17.602094 42.186070 0.532998 1.140380 0.007795 -0.005028 -203561.000000 0 0 1
-33.348304 -19.218693 19.107194 42.971530 0.522812 1.110015 0.009665 -0.003877 92300.300000 0 0 1
-34.445267 -20.022993 19.538794 44.375231 0.526555 1.114854 0.009935 -0.003222 477042.000000 0 0 1
-34.804789 -19.592293 20.822594 45.042332 0.512708 1.090221 0.016368 0.002939 -297029.000000 0 0 1
34.652809 -19.834393 21.282194 45.245465 -0.519859 1.081084 0.022064 0.004585 -198799.000000 0 0 1
34.233269 -21.129693 21.683594 45.700754 -0.552990 1.076436 0.015630 0.005058 -514340.000000 0 0 1
35.024658 -21.846593 22.560594 47.042329 -0.557699 1.070619 0.003435 0.003881 -807536.000000 0 0 1
34.452609 -23.214993 23.081894 47.525698 -0.592941 1.063665 0.012511 0.003343 -171678.000000 0 0 1
33.358699 -23.134993 23.948694 47.133541 -0.606365 1.037815 0.036302 -0.006538 -148318.000000 0 0 1
33.127609 -24.362493 24.520894 47.877383 -0.634100 1.033098 0.038251 -0.020655 -611973.000000 0 0 1
32.116849 -24.541593 25.645994 47.869602 -0.652486 1.005404 0.040769 -0.025047 -599210.000000 0 0 1
30.809089 -24.588393 25.165194 46.766185 -0.673575 1.002607 0.046324 -0.025852 -87589.600000 0 0 1
29.833409 -24.641793 26.192994 46.726044 -0.690383 0.975728 0.038386 -0.025275 -509351.000000 0 0 1
28.406109 -25.046793 25.904394 45.883401 -0.722634 0.970884 0.021598 -0.023229 -570646.000000 0 0 1
27.624719 -23.997593 25.325994 44.501860 -0.715251 0.965386 0.029173 -0.015912 583007.000000 0 0 1
26.288399 -24.500693 25.195794 43.888403 -0.750214 0.959307 0.022359 -0.011810 160185.000000 0 0 1
25.262639 -23.495293 24.720594 42.442167 -0.749167 0.949052 0.013696 -0.003407 -745467.000000 0 0 1
25.411439 -22.980893 23.396694 41.488167 -0.735214 0.971651 0.026401 -0.009487 395094.000000 0 0 1
26.499219 -22.042493 23.309594 41.610303 -0.693843 0.976184 0.023129 0.000076 306945.000000 0 0 1
26.594569 -21.347393 21.960794 40.561789 -0.676384 0.998676 0.029572 -0.008212 -471696.000000 0 0 1
25.680139 -20.329093 21.796594 39.342510 -0.669615 0.983609 0.016494 -0.004302 -438809.000000 0 0 1
25.748939 -19.751493 20.506994 38.388359 -0.654343 1.007237 0.003648 -0.001757 112218.000000 0 0 1
24.705839 -18.603193 20.444794 37.073533 -0.645411 0.986676 0.005147 0.007886 90308.800000 0 0 1
24.972539 -17.408393 21.240994 37.119532 -0.608778 0.961571 0.016138 -0.009128 46673.800000 0 0 1
24.664439 -17.503793 22.628194 37.772377 -0.617191 0.928461 0.018765 -0.004320 16893.700000 0 0 1
24.928339 -16.160393 23.401594 37.818183 -0.575161 0.903592 0.031995 0.004822 -72461.300000 0 0 1
23.731139 -15.417693 23.245094 36.622488 -0.576152 0.883148 -0.006808 0.002103 58787.400000 0 0 1
23.754939 -14.120693 23.830694 36.491000 -0.536315 0.859183 -0.010740 0.001106 -939890.000000 0 0 1
22.485839 -13.312093 23.778494 35.330462 -0.534532 0.832497 -0.019864 -0.001222 -1171270.000000 0 0 1
21.507639 -13.900193 24.568294 35.487955 -0.573763 0.806125 0.003041 0.003111 60791.500000 0 0 1
20.268939 -13.194293 24.369694 34.333675 -0.577051 0.781596 0.017015 -0.004754 601831.000000 0 0 1
18.982839 -13.958193 24.726894 34.155506 -0.634030 0.761285 0.016880 0.003518 -232363.000000 0 0 1
18.675839 -15.010793 23.819594 33.785854 -0.677026 0.788350 0.022924 0.005200 -731299.000000 0 0 1
17.512639 -15.602893 24.270294 33.751888 -0.727793 0.768319 0.021758 0.009069 -769942.000000 0 0 1
17.096439 -16.770893 23.328694 33.433203 -0.775786 0.798516 0.018266 0.005162 -29272.600000 0 0 1
17.831039 -17.963593 23.534194 34.561466 -0.789101 0.821754 0.010230 0.012615 203654.000000 0 0 1
17.526339 -18.863293 22.468694 34.173654 -0.822122 0.853319 0.022155 0.010109 90969.500000 0 0 1
17.909139 -20.328493 22.755394 35.380685 -0.848585 0.872180 0.009255 0.014508 -585023.000000 0 0 1
17.076039 -20.867293 23.747294 35.930057 -0.884986 0.848737 0.017573 0.010951 145234.000000 0 0 1
17.245039 -22.236693 24.073894 37.032611 -0.911160 0.863116 0.026528 0.009695 -455145.000000 0 0 1
16.765939 -23.233893 22.987394 36.733238 -0.945710 0.894649 0.022440 0.016130 -363694.000000 0 0 1
17.638139 -23.414693 21.911694 36.598827 -0.925191 0.928920 0.022097 0.016942 -184726.000000 0 0 1
18.737539 -24.268093 22.204494 37.855981 -0.913297 0.944002 0.012036 0.013893 -522661.000000 0 0 1
19.629239 -24.423393 21.049494 37.747720 -0.893799 0.979261 0.012031 0.010862 -747034.000000 0 0 1
18.973839 -25.196893 20.075294 37.388600 -0.925363 1.003995 0.026333 -0.012754 524414.000000 0 0 1
19.911439 -25.630693 19.083094 37.650529 -0.910326 1.039272 0.018811 -0.001393 341098.000000 0 0 1
19.264239 -26.368893 17.883394 37.232314 -0.939849 1.069778 0.013155 -0.008252 55124.000000 0 0 1
18.738339 -27.616893 18.287594 38.055936 -0.974639 1.069520 0.034199 -0.023261 -28227.100000 0 0 1
18.026339 -28.203793 17.208694 37.636976 -1.002089 1.095920 0.035722 -0.023848 -193104.000000 0 0 1
17.320439 -29.493593 17.686894 38.505790 -1.039796 1.093555 0.045791 -0.015726 22491.100000 0 0 1
16.326739 -29.104893 18.610494 38.210047 -1.059576 1.062079 0.047345 -0.010834 78710.500000 0 0 1
15.517339 -30.169393 19.163194 38.964190 -1.095742 1.056623 0.051284 -0.016801 17702.600000 0 0 1
14.422839 -29.541893 19.993694 38.477130 -1.116620 1.024384 0.044307 -0.009893 -592674.000000 0 0 1
13.530539 -28.752593 19.275594 37.166324 -1.130956 1.025548 0.049591 -0.006723 993857.000000 0 0 1
12.200339 -28.634893 19.883194 36.934358 -1.168024 1.002332 0.031031 -0.001323 1822500.000000 0 0 1
11.200139 -28.026993 18.862794 35.591578 -1.190618 1.012220 0.020351 -0.003027 -143469.000000 0 0 1
10.919639 -28.971393 17.848094 35.737020 -1.210351 1.047857 0.000100 -0.005449 205180.000000 0 0 1
10.101839 -28.520393 16.772994 34.594701 -1.230387 1.064613 0.008449 -0.007187 43100.200000 0 0 1
10.137639 -29.492193 15.573794 34.858345 -1.239709 1.107640 0.000961 -0.007159 -516998.000000 0 0 1
9.210839 -30.518493 15.629894 35.503684 -1.277678 1.114938 -0.004637 -0.007695 -401117.000000 0 0 1
9.499639 -31.562093 14.691594 36.086726 -1.278438 1.151499 -0.008408 -0.001674 293456.000000 0 0 1
8.369939 -32.636193 14.402494 36.641627 -1.319745 1.166835 -0.014453 -0.004274 191808.000000 0 0 1
8.218539 -33.573193 15.441394 37.856840 -1.330723 1.150655 -0.009023 -0.009692 -162023.000000 0 0 1
7.250839 34.515932 15.104094 38.367407 1.363735 1.166176 -0.001353 -0.004170 -202019.000000 0 0 1
7.187039 33.426532 16.198694 37.833639 1.359011 1.128345 0.019072 -0.004841 263518.000000 0 0 1
8.332739 32.570232 16.204894 37.320948 1.320330 1.121642 0.013992 -0.011282 372983.000000 0 0 1
8.208539 31.502732 17.120894 36.782159 1.315898 1.086634 0.026617 -0.013535 660043.000000 0 0 1
9.583339 30.737132 17.252694 36.527621 1.268564 1.078876 0.015394 -0.016301 582781.000000 0 0 1
9.993339 30.149432 16.034394 35.580288 1.250732 1.103299 0.032487 -0.014279 -653248.000000 0 0 1
11.136639 29.435932 16.376194 35.477860 1.209105 1.091011 0.023900 -0.008927 -835706.000000 0 0 1
11.763039 28.652032 15.197194 34.500185 1.181230 1.114645 0.016418 -0.005576 187001.000000 0 0 1
10.959739 27.705232 14.456094 33.116075 1.194103 1.119060 0.024659 -0.006580 405469.000000 0 0 1
11.710839 27.285132 13.318594 32.542390 1.165372 1.149143 0.023516 0.000589 227320.000000 0 0 1
-9.454454 -9.502368 19.020918 23.269659 0.787926 0.613891 0.022265 -0.013903 -473121.000000 0 1 0
-9.240654 -9.609168 17.612018 22.088662 0.804946 0.647933 0.003082 -0.021033 -89291.300000 0 1 0
-9.186654 -10.973868 17.286018 22.441631 0.873816 0.691539 0.010037 -0.016897 -33208.700000 0 1 0
-9.549154 -11.236168 15.758218 21.581456 0.866384 0.752220 0.011536 -0.021473 -531262.000000 0 1 0
-10.848254 -10.817168 15.456318 21.762204 0.783963 0.780962 0.001552 -0.024290 126108.000000 0 1 0
-11.545654 -11.409168 14.324318 21.648495 0.779452 0.847743 0.012868 -0.028153 534930.000000 0 1 0
-11.627554 -12.959668 14.234418 22.489368 0.839524 0.885452 0.012910 -0.024618 -1414910.000000 0 1 0
-10.469954 -13.546368 13.754818 21.961763 0.912801 0.893989 0.021741 -0.023034 -518307.000000 0 1 0
-10.341054 -14.933268 14.023218 22.947560 0.965132 0.913349 0.026661 -0.022237 -223967.000000 0 1 0
-10.004454 -15.355468 15.436418 23.961688 0.993351 0.870803 0.029795 -0.026328 244636.000000 0 1 0
-10.997054 -15.107068 16.436718 24.886229 0.941563 0.849346 0.011045 -0.015067 97117.500000 0 1 0
-10.416454 -15.287568 17.746918 25.635236 0.972685 0.806144 0.021546 -0.011645 -12595.700000 0 0 1
-11.235954 -14.691168 18.922118 26.459849 0.917884 0.773992 0.010259 -0.011172 -500714.000000 0 0 1
-11.444354 -13.273468 18.711818 25.637674 0.859263 0.752685 0.010105 -0.007957 1114990.000000 0 0 1
-12.601054 -12.960968 17.877818 25.424194 0.799477 0.790934 0.011862 -0.012277 1164810.000000 0 0 1
-14.019554 -13.159768 18.505918 26.687008 0.753775 0.804540 0.007319 -0.009576 39268.600000 0 0 1
-14.426154 -14.488668 18.708918 27.713878 0.787560 0.829731 0.012285 -0.005484 316545.000000 0 0 1
-15.561654 -14.484568 19.595318 28.912701 0.749566 0.826110 0.019680 0.001154 430785.000000 0 0 1
-15.880854 -15.877668 20.208318 30.210561 0.785298 0.838047 0.022562 0.005410 19335.400000 0 0 1
-16.602454 -16.674568 19.266418 30.411800 0.787565 0.884705 0.035140 0.001045 144309.000000 0 0 1
-16.939654 -17.933968 19.838618 31.656750 0.813902 0.893512 0.015561 -0.002074 -445366.000000 0 0 1
-18.371154 -18.371568 19.520018 32.496845 0.785409 0.926452 0.030873 0.001360 -371480.000000 0 0 1
-18.725154 -18.739968 18.194218 32.137943 0.785794 0.968994 0.031101 -0.008594 59170.800000 0 0 1
-19.018254 -17.660668 17.339318 31.212900 0.748402 0.981811 0.028514 -0.013874 -563210.000000 0 0 1
-18.494454 -17.798968 15.877218 30.181685 0.766238 1.016841 0.028864 -0.025506 -307914.000000 0 0 1
-19.054154 -18.833768 15.103418 30.755241 0.779581 1.057462 0.030596 -0.024202 -37261.500000 0 0 1
-18.845854 -18.676368 13.725418 29.872396 0.780881 1.093400 0.031365 -0.024415 57785.700000 0 0 1
-19.241254 -19.950668 12.991618 30.611062 0.803497 1.132487 0.036470 -0.021432 -635406.000000 0 0 1
-18.189354 -20.838868 13.096618 30.604451 0.853181 1.128593 0.044485 -0.016889 -635986.000000 0 0 1
-18.381054 -22.123368 12.564318 31.387396 0.877529 1.158954 0.041098 -0.013548 -964874.000000 0 0 1
-17.170554 -23.042168 12.617518 31.384251 0.930387 1.157060 0.040036 -0.016170 -580969.000000 0 0 1
-17.405254 -24.305768 12.154718 32.271510 0.949349 1.184631 0.051663 -0.021378 641914.000000 0 0 1
-16.497954 -24.523268 11.037518 31.549960 0.978596 1.213393 0.036717 -0.014039 380572.000000 0 0 1
-16.785854 -25.831238 10.231818 32.460866 0.994542 1.250124 0.041927 -0.011082 14112.800000 0 0 1
-17.908654 -25.603878 9.414718 32.633041 0.960439 1.278134 0.043955 -0.009128 -413274.000000 0 0 1
-18.020454 -26.641488 8.453718 33.256142 0.976082 1.313776 0.050196 -0.003563 750451.000000 0 0 1
-19.233354 -26.592068 7.448318 33.653193 0.944620 1.347623 0.040149 -0.006128 654252.000000 0 0 1
-19.145854 -25.467408 6.555918 32.528951 0.926158 1.367865 0.044932 -0.006609 -116844.000000 0 0 1
-20.206454 -25.398858 5.626718 32.940290 0.898765 1.399139 0.041810 -0.005084 -27442.300000 0 0 1
-20.195754 -24.162468 4.675118 31.836301 0.874585 1.423415 0.038618 0.000499 -324978.000000 0 0 1
-21.176154 -24.218768 3.690018 32.382008 0.852323 1.456596 0.030137 -0.001614 -385161.000000 0 0 1
-21.203354 -22.991068 2.979518 31.417335 0.825827 1.475817 0.029506 0.006731 239984.000000 0 0 1
-21.872054 -23.044768 1.552618 31.809726 0.811501 1.521967 0.001112 0.006221 44336.200000 0 0 1
-21.147454 -23.811468 0.609218 31.852346 0.844583 1.551669 -0.012644 0.002366 -90395.200000 0 0 1
-21.576954 -23.526168 -0.663982 31.929397 0.828588 1.591593 -0.006357 0.001862 -316539.000000 0 0 1
-20.788654 -24.265468 -1.746182 32.000472 0.862415 1.625391 -0.001978 0.001319 -353473.000000 0 0 1
-19.422554 -23.943568 -1.927682 30.890872 0.889275 1.633240 -0.010454 0.006174 121176.000000 0 0 1
-18.746454 -24.539768 -3.017982 31.028019 0.918445 1.668217 -0.003120 0.013326 -2568.600000 0 0 1
-18.536354 -26.065788 -2.991282 32.124282 0.952635 1.664047 0.012037 0.006177 -405586.000000 0 0 1
-19.753654 -26.763468 -3.119982 33.409944 0.934966 1.664317 0.029581 0.002488 -260029.000000 0 0 1
-19.445454 -28.022428 -3.727982 34.311514 0.964159 1.679662 0.035717 0.001879 -50772.200000 0 0 1
-20.637554 -28.652968 -4.446682 35.590366 0.946603 1.696064 0.032609 -0.000572 -80395.500000 0 0 1
-20.995054 -28.025238 -5.659182 35.471574 0.927841 1.731022 0.024575 0.001778 8605.160000 0 0 1
-21.988354 -28.738098 -6.363582 36.740456 0.917683 1.744878 0.031486 -0.001553 130352.000000 0 0 1
-22.420154 -28.214848 -7.774582 36.867127 0.899343 1.783273 0.021847 0.001108 673136.000000 0 0 1
-21.345654 -28.327878 -8.748982 36.532866 0.925046 1.812629 0.037718 0.003776 593803.000000 0 0 1
-21.611654 -28.101338 -10.096582 36.860409 0.915207 1.848257 0.027855 0.002045 -330525.000000 0 0 1
-22.054354 -26.694238 -10.593882 36.210595 0.880292 1.867702 0.011420 0.007051 -603128.000000 0 0 1
-21.119654 -25.672048 -10.516982 34.866900 0.882384 1.877201 0.008721 0.007406 -548265.000000 0 0 1
-21.243954 -24.924268 -9.294082 34.042689 0.864945 1.847320 0.007719 0.005411 53047.900000 0 0 1
-21.107054 -23.389668 -9.511082 32.909648 0.836652 1.863985 -0.004375 0.003915 376768.000000 0 0 1
-22.286554 -22.828968 -10.064682 33.453700 0.797420 1.876384 -0.003623 0.010134 206961.000000 0 0 1
-21.970654 -21.512768 -10.396982 32.459298 0.774868 1.896851 0.006110 0.014182 -142798.000000 0 0 1
-23.213954 -20.647368 -10.586582 32.821901 0.726949 1.899215 0.016612 0.017824 -883267.000000 0 0 1
-23.984254 -21.086568 -11.733882 34.023106 0.721195 1.922907 0.019875 0.017958 130722.000000 0 0 1
-25.231014 -20.459168 -11.844882 34.575755 0.681336 1.920456 0.023483 0.020013 -414328.000000 0 0 1
-25.243874 -18.899168 -11.936082 33.717974 0.642645 1.932638 0.030133 0.008316 -1715350.000000 0 0 1
-24.738854 -18.277268 -13.065582 33.418241 0.636300 1.972483 0.040279 0.010256 349842.000000 0 0 1
-24.436354 -16.861868 -12.946882 32.389500 0.604005 1.982013 0.054709 -0.004994 224105.000000 0 0 1
-23.443054 -16.405168 -11.820882 30.958675 0.610584 1.962569 0.036048 -0.000571 -178520.000000 0 0 1
-23.907654 -16.551168 -10.527982 30.924997 0.605537 1.918177 0.052639 -0.007886 641119.000000 0 0 1
-22.732154 -16.556568 -9.685582 29.743592 0.629489 1.902481 0.036684 -0.008687 487123.000000 0 0 1
-22.872554 -16.884068 -8.223182 29.594698 0.635893 1.852362 0.021195 -0.018620 -277080.000000 0 0 1
-23.336254 -18.192468 -8.059982 30.667734 0.662165 1.836736 0.027984 -0.010459 643577.000000 0 0 1
-24.742254 -18.235268 -7.787782 31.707312 0.635135 1.818950 0.037095 -0.016444 498870.000000 0 0 1
-25.195324 -19.615568 -7.241182 32.741557 0.661518 1.793802 0.029565 -0.005187 -19047.200000 0 0 1
-25.468954 -20.605068 -8.273382 33.788834 0.680221 1.818167 0.026463 -0.011846 66866.500000 0 0 1
-25.569744 -21.857068 -7.724182 34.513855 0.707275 1.796507 0.029261 -0.001805 22549.200000 0 0 1
-25.202294 -22.975668 -8.673382 35.188982 0.739214 1.819843 0.018227 0.002850 -264768.000000 0 0 1
-25.513084 -24.239568 -8.163182 36.126329 0.759807 1.798727 0.015779 0.007105 -269667.000000 0 0 1
-25.337514 -25.357288 -8.975782 36.953299 0.785788 1.816146 0.002691 0.013329 192667.000000 0 0 1
-26.299714 -26.522988 -8.559782 38.319886 0.789625 1.796074 0.004469 0.009212 34537.200000 0 0 1
-25.801254 -27.352648 -7.481782 38.338611 0.814577 1.767207 0.016057 0.000627 158736.000000 0 0 1
-26.720284 -28.308678 -6.986382 39.549518 0.814255 1.748377 0.020265 -0.004182 1855.990000 0 0 1
-26.242184 -29.053878 -5.683882 39.561175 0.836202 1.714968 0.021519 -0.003037 46327.300000 0 0 1
-26.438414 -28.253738 -4.491982 38.954349 0.818578 1.686367 0.014386 -0.009712 -56386.200000 0 0 1
-25.680214 -28.623518 -3.364882 38.601834 0.839546 1.658076 0.014191 -0.004395 -187999.000000 0 0 1
-26.068344 -29.931888 -2.653482 39.780868 0.854281 1.637548 0.009885 0.002568 -289011.000000 0 0 1
-25.779744 -31.114218 -3.359882 40.546005 0.878887 1.653757 0.033428 -0.004274 -239754.000000 0 0 1
-25.812264 -32.282438 -2.583982 41.413835 0.896314 1.633231 0.039490 -0.005965 342535.000000 0 0 1
-24.783254 -32.492248 -1.415282 40.889594 0.919189 1.605416 0.036948 -0.006955 715271.000000 0 0 1
-23.412754 -32.423518 -1.804582 40.033712 0.945397 1.615888 0.049010 -0.012970 532283.000000 0 0 1
-22.569454 -32.886768 -0.718882 39.892813 0.969339 1.588818 0.058984 -0.004332 1188650.000000 0 0 1
-21.346054 -31.972478 -0.383982 38.445296 0.982121 1.580784 0.048498 -0.013329 613350.000000 0 0 1
-21.830154 -30.710308 0.071118 37.678690 0.952831 1.568909 0.042452 -0.007708 -166208.000000 0 0 1
-21.756254 -29.752088 -0.979982 36.871150 0.939403 1.597378 0.035994 -0.008541 -74568.300000 0 0 1
-22.185454 -28.308868 -0.702282 35.973317 0.906078 1.590320 0.031524 -0.005903 -208302.000000 0 0 1
-23.581954 -28.248098 -0.519482 36.801269 0.875184 1.584913 0.016220 -0.009495 -115582.000000 0 0 1
-24.079354 -26.924128 -0.233982 36.121720 0.841117 1.577274 0.025911 -0.021200 123488.000000 0 0 1
-23.718954 -26.307668 1.121418 35.439240 0.837099 1.539148 0.023297 -0.013120 -612136.000000 0 0 1
-24.234354 -26.881388 2.257418 36.263051 0.837137 1.508505 0.013241 -0.014813 -97851.400000 0 0 1
-23.799754 -26.185868 3.434418 35.551697 0.833098 1.474042 0.020618 -0.011589 361674.000000 0 0 1
-24.707054 -24.930568 3.708018 35.294775 0.789901 1.465544 0.026170 -0.011325 87503.900000 0 0 1
-24.630654 -23.820568 2.886118 34.386309 0.768680 1.486765 0.020632 -0.010112 29994.800000 0 0 1
-25.630824 -22.876068 3.295218 34.512491 0.728668 1.475172 0.007245 -0.007773 169339.000000 0 0 1
-25.760894 -21.743568 2.267118 33.786776 0.701032 1.503645 0.008883 -0.002945 20883.800000 0 0 1
-24.682054 -20.834668 2.309718 32.382433 0.701072 1.499409 0.003004 0.000545 -137857.000000 0 0 1
-24.669454 -19.824268 1.302118 31.674581 0.676930 1.529675 -0.006083 -0.004625 -94100.200000 0 0 1
-23.467554 -18.892768 1.600518 30.169926 0.677818 1.517721 0.008777 0.001363 217680.000000 0 0 1
-22.282254 -19.619568 1.279418 29.716379 0.721938 1.527729 0.009598 0.002243 302831.000000 0 0 1
-21.150554 -18.850768 1.726518 28.384472 0.727969 1.509933 0.012913 0.006785 996798.000000 0 0 1
-19.779654 -19.603768 1.583418 27.893541 0.780932 1.513999 -0.000902 0.002266 340238.000000 0 0 1
-19.459154 -19.635568 0.221818 27.645314 0.789911 1.562773 -0.008293 0.003983 -452625.000000 0 0 1
-18.531454 -20.667968 0.074218 27.759416 0.839848 1.568123 0.001995 0.008519 -185318.000000 0 0 1
-18.284854 -20.929268 -1.422882 27.827949 0.852731 1.621950 0.002948 0.004242 194536.000000 0 0 1
-17.669654 -19.879368 -2.166782 26.685218 0.844179 1.652084 -0.001705 0.000697 66168.300000 0 0 1
-17.809754 -20.278768 -3.546082 27.221140 0.850131 1.701437 0.012034 0.000442 -80720.400000 0 0 1
-17.083254 -19.328568 -4.478482 26.181824 0.846985 1.742695 0.016850 -0.003812 -415207.000000 0 0 1
-15.700554 -19.275168 -4.265682 25.223710 0.887247 1.740727 0.049319 -0.013843 -432575.000000 0 0 1
-15.154954 -18.508568 -5.341382 24.510611 0.884692 1.790480 0.062687 -0.011700 517463.000000 0 1 0
-13.649454 -18.096568 -5.181682 23.251735 0.924577 1.795535 0.077077 -0.028639 842832.000000 0 1 0
-12.783054 -19.226568 -5.319982 23.693239 0.984043 1.797263 0.061808 -0.024964 542393.000000 0 1 0
-11.515654 -18.922668 -5.911182 22.926398 1.024104 1.831575 0.056408 -0.030308 859566.000000 0 1 0
-10.506554 -20.088468 -5.907482 23.427176 1.088907 1.825712 0.048227 -0.031166 319030.000000 0 1 0
-10.880754 -21.021468 -6.906482 24.657502 1.093166 1.854691 0.046974 -0.021113 -22816.600000 0 1 0
-9.866054 -22.010268 -7.033182 25.124820 1.149401 1.854517 0.038349 -0.013826 144821.000000 0 0 1
-10.187554 -23.107868 -8.044182 26.504126 1.155561 1.879167 0.031821 0.004461 -238551.000000 0 0 1
-10.198454 -22.680668 -9.387082 26.580791 1.148230 1.931735 0.039277 -0.009635 -27229.500000 0 0 1
-10.538154 -23.778368 -10.226282 27.947098 1.153626 1.945413 0.041391 -0.005977 -553497.000000 0 0 1
-11.157254 -23.326768 -11.481782 28.292291 1.124657 1.988680 0.057171 -0.011881 -394893.000000 0 0 1
-10.376854 -22.606768 -12.416582 27.801377 1.140471 2.033778 0.039377 -0.011032 183336.000000 0 0 1
-11.235454 -22.221768 -13.528582 28.338400 1.102674 2.068483 0.040205 -0.010938 274435.000000 0 0 1
-10.768254 -20.979968 -14.328382 27.593783 1.096594 2.116783 0.034712 -0.002180 -288785.000000 0 0 1
-10.620254 -19.864568 -13.490582 26.256173 1.079828 2.110412 0.041452 -0.007323 108103.000000 0 0 1
-10.292954 -18.662568 -14.194582 25.607079 1.066780 2.158345 0.036507 0.008911 -163670.000000 0 0 1
-10.104854 -17.471268 -13.203582 24.118206 1.046433 2.150114 0.040319 -0.001421 -96027.600000 0 1 0
-11.304954 -16.977268 -12.584782 23.966776 0.983333 2.123620 0.051415 -0.007169 465925.000000 0 1 0
-11.129354 -15.958168 -11.623582 22.663479 0.961812 2.109329 0.053209 -0.014597 -70566.400000 0 1 0
-10.663054 -14.558268 -12.148782 21.754006 0.938629 2.163327 0.045873 -0.003349 72771.900000 0 1 0
-11.686154 -13.719768 -12.654182 22.021048 0.865273 2.182961 0.031754 0.000760 -46182.700000 0 1 0
-11.748054 -13.872368 -14.069782 22.987347 0.868124 2.229467 0.039029 0.004990 494193.000000 0 1 0
-12.908154 -13.043168 -14.756082 23.547539 0.790601 2.248044 0.031686 0.008758 540898.000000 0 1 0
-12.722754 -11.613268 -14.529582 22.535421 0.739839 2.271485 0.011833 0.008468 22467.600000 0 1 0
-13.826354 -10.899268 -15.074682 23.177751 0.667564 2.278900 0.005763 0.000608 -62716.700000 0 1 0
-14.128254 -9.461668 -14.511682 22.354409 0.590099 2.277281 0.008911 -0.012632 102132.000000 0 1 0
-13.102754 -8.468868 -14.563182 21.342215 0.573800 2.321789 0.014928 -0.017103 240304.000000 0 1 0
-13.051254 -7.696668 -15.748482 21.853801 0.532831 2.375505 0.019919 -0.012629 -281869.000000 0 1 0
-11.862054 -6.724268 -15.756782 20.837473 0.515705 2.428245 0.008370 -0.007545 -149575.000000 0 1 0
-10.640854 -7.397068 -15.913882 20.523061 0.607468 2.458168 0.007481 -0.009754 -383430.000000 0 1 0
-9.523354 -6.580768 -15.641282 19.458943 0.604669 2.504468 -0.004413 -0.002571 119046.000000 0 1 0
11.694446 22.125232 15.477818 29.425309 1.084565 1.016902 0.025361 0.002538 -203334.000000 0 0 1
12.331546 22.021832 16.723318 30.277013 1.060331 0.985623 0.035249 0.007436 -229861.000000 0 0 1
12.413946 20.700632 17.081918 29.570495 1.030605 0.954928 0.031121 0.003887 -463205.000000 0 0 1
13.406846 20.625932 18.250318 30.630813 0.994421 0.932515 0.028901 -0.003812 -164826.000000 0 0 1
14.622046 21.181232 17.774118 31.278876 0.966590 0.966423 0.012058 0.002660 -722930.000000 0 0 1
15.681446 20.836832 18.639318 32.054727 0.925644 0.950244 0.019070 -0.001572 -550616.000000 0 0 1
16.996346 21.409232 18.095518 32.782294 0.899799 0.986047 0.021743 0.001607 -1186720.000000 0 0 1
17.159946 22.775132 18.396718 33.935374 0.925090 0.997850 0.029658 0.005743 55511.200000 0 0 1
18.300446 23.434132 17.887018 34.698852 0.907791 1.029213 0.026252 0.005785 -403910.000000 0 0 1
19.697646 23.025432 18.326018 35.412014 0.863133 1.026860 0.011538 -0.002336 -1165950.000000 0 0 1
20.062746 21.787232 17.867918 34.589880 0.826581 1.027962 0.026013 -0.003110 328531.000000 0 0 1
21.264546 21.419832 18.567218 35.436305 0.789036 1.019302 0.035674 -0.000443 441612.000000 0 0 1
21.429746 19.941532 18.510418 34.634294 0.749442 1.006935 0.036877 -0.001468 -326064.000000 0 0 1
21.591546 19.481032 17.205318 33.789473 0.734058 1.036551 0.017581 0.000217 -21601.900000 0 0 1
21.477246 18.083732 16.983318 32.813512 0.699828 1.026787 0.020481 0.006674 -156789.000000 0 0 1
22.484246 17.160032 17.694118 33.363001 0.651897 1.011781 0.017313 0.003673 256726.000000 0 0 1
23.775446 17.129732 17.113318 33.934720 0.624339 1.042224 0.019569 -0.001696 227505.000000 0 0 1
24.640046 16.181032 17.682918 34.375039 0.581068 1.030475 0.004670 -0.005902 -297612.000000 0 0 1
26.053946 16.015432 17.123918 35.050403 0.551160 1.060368 0.026400 0.001168 -1438330.000000 0 0 1
26.846646 17.112632 17.381718 36.272699 0.567482 1.071058 0.019649 -0.000641 895801.000000 0 0 1
28.170546 16.841832 17.902618 37.386237 0.538839 1.071445 0.020404 -0.002828 1389070.000000 0 0 1
29.163246 15.967132 17.050218 37.365147 0.500929 1.096949 0.015884 -0.009293 -642065.000000 0 0 1
29.345146 16.299332 15.692418 37.054795 0.507007 1.133499 0.026019 -0.008244 -51030.800000 0 0 1
29.568546 15.097132 14.963118 36.415893 0.472076 1.147360 0.044160 -0.015936 -163363.000000 0 0 1
29.015546 15.026032 13.521218 35.362507 0.477834 1.178447 0.015127 -0.003120 -269777.000000 0 0 1
29.722546 15.735932 12.515318 35.884293 0.486911 1.214539 0.008918 0.005064 -406266.000000 0 0 1
28.991446 15.960232 11.336318 34.982068 0.503239 1.240778 -0.006890 0.007340 -137271.000000 0 0 1
27.729446 16.839932 11.324618 34.362079 0.545766 1.234951 -0.016498 0.013708 -203907.000000 0 0 1
27.883546 18.246032 11.605018 35.285780 0.579438 1.235672 -0.023462 0.022419 73641.700000 0 0 1
28.246146 18.691132 12.954618 36.263278 0.584572 1.205487 0.006930 0.021631 925829.000000 0 0 1
27.092446 18.528832 14.068218 35.710405 0.599846 1.165868 -0.003564 0.022520 1530380.000000 0 0 1
25.915746 19.342732 13.921518 35.207611 0.641174 1.164280 0.008722 0.026490 855869.000000 0 0 1
25.063246 19.333832 15.056918 35.052449 0.657058 1.126798 0.018300 0.016945 306860.000000 0 0 1
25.667346 20.105832 16.287618 36.446449 0.664489 1.107508 0.035935 0.003674 -94860.600000 0 0 1
25.703146 21.523232 16.149718 37.211754 0.697120 1.121874 0.025696 0.004134 49549.300000 0 0 1
24.498746 22.165732 16.510818 36.933932 0.735444 1.107347 0.029941 0.002314 -180636.000000 0 0 1
24.556546 23.755332 16.447718 37.919219 0.768815 1.122138 0.029668 0.003145 -97989.200000 0 0 1
24.386246 24.159632 15.100718 37.502114 0.780730 1.156372 0.048874 -0.002388 113628.000000 0 0 1
24.505246 25.570832 15.073518 38.491369 0.806674 1.168418 0.043288 -0.005033 -321208.000000 0 0 1
24.088246 26.117932 13.670718 38.069391 0.825803 1.203493 0.035244 -0.002701 -76411.200000 0 0 1
22.724046 26.070232 13.325718 37.062300 0.853868 1.203012 0.036926 -0.000789 -216504.000000 0 0 1
22.580746 26.257332 11.933218 36.629760 0.860538 1.238960 0.026267 -0.005625 -195822.000000 0 0 1
22.158746 24.956232 11.156118 35.189239 0.844704 1.248198 0.038957 -0.004767 -187233.000000 0 0 1
20.756146 24.830432 11.329718 34.288927 0.874536 1.234049 0.040755 -0.004331 262150.000000 0 0 1
20.213546 23.583932 10.857418 32.903994 0.862201 1.234522 0.045596 0.003493 54740.100000 0 0 1
20.141746 23.358732 9.337118 32.225798 0.859217 1.276841 0.048193 0.011732 -96823.000000 0 0 1
19.028146 23.945732 8.679518 31.793120 0.899335 1.294286 0.051443 0.013709 357421.000000 0 0 1
19.450046 24.321032 7.399718 32.008948 0.896225 1.337510 0.050662 0.003792 -135137.000000 0 0 1
18.319046 24.548932 6.393218 31.290746 0.929715 1.365031 0.045849 0.003981 -1054700.000000 0 0 1
17.955846 23.336732 5.706718 29.993034 0.914979 1.379361 0.054231 0.012180 529202.000000 0 0 1
16.929146 23.452532 4.710418 29.305380 0.945558 1.409360 0.073403 -0.006768 390906.000000 0 0 1
15.545046 24.018432 5.080718 29.057654 0.996383 1.395043 0.064746 -0.012414 -659369.000000 0 0 1
15.494746 25.434432 5.047118 30.207133 1.023637 1.402925 0.085497 -0.016715 1262350.000000 0 0 1
14.143446 25.912632 5.284718 29.990496 1.071174 1.393658 0.077355 -0.018545 1182950.000000 0 0 1
14.006346 27.285232 4.883618 31.056583 1.096541 1.412892 0.077235 -0.015502 -182618.000000 0 0 1
13.749046 27.447932 3.480218 30.895585 1.106418 1.457912 0.072339 -0.018030 269198.000000 0 0 1
13.697946 28.784432 3.177518 32.035510 1.126630 1.471446 0.063863 -0.017752 -156047.000000 0 0 1
13.375746 29.025932 1.676618 32.003537 1.138981 1.518384 0.069580 -0.015634 184444.000000 0 0 1
14.367146 28.558732 0.751918 31.977828 1.104693 1.547280 0.079630 -0.017406 260964.000000 0 0 1
14.480846 27.166332 0.553018 30.789777 1.081064 1.552834 0.072950 -0.013955 -327376.000000 0 0 1
15.493946 26.895032 -0.543582 31.043528 1.048144 1.588308 0.081440 -0.017455 81588.700000 0 0 1
14.952446 27.242032 -1.862082 31.131516 1.068818 1.630645 0.073828 -0.011976 27355.900000 0 0 1
15.846946 26.938332 -2.923282 31.390206 1.039048 1.664059 0.063365 -0.008959 -121810.000000 0 0 1
15.481946 27.400332 -4.337782 31.769249 1.056489 1.707764 0.061468 -0.007652 -562204.000000 0 0 1
14.497346 26.671332 -5.032482 30.771072 1.072914 1.735080 0.064951 -0.013758 -407753.000000 0 0 1
14.271646 27.361232 -6.230482 31.482310 1.090018 1.770016 0.052368 -0.007866 85016.700000 0 0 1
12.951546 26.995932 -6.924582 30.732275 1.123472 1.798067 0.040616 -0.010526 56729.500000 0 0 1
13.010346 25.639032 -7.342982 29.674037 1.101212 1.820849 0.037068 -0.008114 -763386.000000 0 0 1
11.796046 25.354832 -7.941182 29.070201 1.135342 1.847486 0.032777 -0.003817 -572235.000000 0 0 1
11.642746 23.872932 -8.434682 27.867800 1.117040 1.878287 0.024334 -0.003046 273312.000000 0 0 1
12.422546 23.482232 -9.581382 28.240711 1.084204 1.916943 0.024320 -0.002110 341958.000000 0 0 1
11.999646 22.248132 -10.056782 27.204958 1.076162 1.949447 0.017080 0.004222 -196125.000000 0 0 1
12.097146 22.051432 -11.613082 27.703254 1.069038 2.003355 0.014049 0.005653 155872.000000 0 0 1
11.516246 20.782032 -11.914382 26.579490 1.064777 2.035608 0.018643 0.004478 -42290.600000 0 0 1
11.783646 20.472232 -13.270282 27.093671 1.048518 2.082648 0.018968 0.005367 338985.000000 0 0 1
13.158946 19.883232 -13.704182 27.501007 0.986163 2.092451 0.017512 0.007069 449046.000000 0 0 1
14.256246 20.746732 -13.515182 28.571447 0.968742 2.063524 0.012462 0.010902 131170.000000 0 0 1
15.468446 20.136532 -13.981982 28.987041 0.915762 2.074135 0.021384 0.011839 1100000.000000 0 0 1
16.723446 21.065932 -13.842182 30.249845 0.899809 2.046085 0.026212 0.016003 266305.000000 0 0 1
16.851446 22.274732 -14.603182 31.518056 0.923131 2.052543 0.025296 0.012011 191848.000000 0 0 1
15.848346 23.295332 -14.383782 31.634408 0.973399 2.042818 0.021830 0.010159 522304.000000 0 0 1
16.303346 24.689932 -14.898882 33.126553 0.987198 2.037289 0.022433 0.010759 6414.610000 0 0 1
16.383446 24.846332 -16.300782 33.933361 0.987848 2.071880 0.023331 0.004615 -319126.000000 0 0 1
15.149546 25.127232 -16.907182 33.863540 1.028237 2.093557 0.015720 0.006106 -140371.000000 0 0 1
15.232446 25.062532 -18.466282 34.657777 1.024678 2.132723 0.021847 0.007553 143629.000000 0 0 1
15.535646 23.821832 -19.021382 34.214748 0.992904 2.160291 0.028164 0.005537 -36179.600000 0 0 1
15.538046 23.883432 -20.431882 35.061532 0.994015 2.192897 0.027046 0.005735 -337247.000000 0 0 1
16.057046 22.574832 -21.074482 34.807838 0.952539 2.221130 0.026807 0.001646 370810.000000 0 0 1
15.095146 21.502832 -21.206182 33.762959 0.958724 2.249893 0.033196 0.002881 503797.000000 0 0 1
15.709746 20.443132 -21.854082 33.798205 0.915585 2.273922 0.025435 0.001215 -154542.000000 0 0 1
14.705546 19.311432 -22.058482 32.798798 0.919979 2.308431 0.026172 -0.004909 -232137.000000 0 0 1
14.292546 18.586632 -20.867982 31.388094 0.915265 2.298073 0.032467 -0.004217 26116.800000 0 0 1
13.636246 17.371132 -21.126182 30.561724 0.905272 2.334031 0.030809 -0.004797 1069940.000000 0 0 1
12.075546 17.539132 -21.320182 30.132874 0.967836 2.356806 0.030702 -0.007939 979946.000000 0 0 1
11.219446 17.596232 -20.171882 29.024269 1.003184 2.339217 0.011234 -0.005642 666889.000000 0 0 1
9.921846 18.025232 -20.599682 29.115269 1.067614 2.356781 0.020004 -0.008546 917031.000000 0 0 1
8.757446 17.629232 -19.642082 27.808165 1.109746 2.355114 0.009466 -0.008356 114019.000000 0 0 1
8.489946 16.193432 -19.625382 26.822790 1.087911 2.391562 0.005686 -0.005503 464176.000000 0 0 1
7.314246 15.705432 -18.949682 25.675849 1.134951 2.400950 0.011618 -0.004998 351119.000000 0 0 1
7.228046 15.816632 -17.423282 24.616686 1.142145 2.357152 0.007108 -0.004717 -78890.000000 0 1 0
6.795946 17.085732 -16.966082 25.019094 1.192226 2.316005 0.011230 -0.003343 -272585.000000 0 0 1
6.473846 16.989432 -15.588082 23.948691 1.206731 2.279559 0.007279 -0.013398 -59437.100000 0 1 0
6.194446 18.405832 -14.961782 24.515316 1.246155 2.227240 0.005378 -0.011889 121218.000000 0 1 0
7.305046 19.287732 -14.811882 25.392364 1.208750 2.193607 0.006178 -0.008709 -10834.500000 0 0 1
7.553346 20.119632 -15.963382 26.770921 1.211656 2.209675 0.016964 -0.000145 -230731.000000 0 0 1
8.774346 21.023632 -15.815582 27.732921 1.175418 2.177645 0.019493 0.011130 -430004.000000 0 0 1
8.542746 22.197332 -14.997582 28.118100 1.203414 2.133386 0.022684 0.009085 23537.500000 0 0 1
8.428346 22.031732 -13.579982 27.218562 1.205419 2.093153 0.005036 0.002613 -190437.000000 0 0 1
8.074646 23.325732 -12.765382 27.789290 1.237538 2.048075 0.022595 0.003952 1136060.000000 0 0 1
6.722346 23.833132 -12.967482 27.952884 1.295879 2.053194 0.018969 0.006959 1066870.000000 0 0 1
6.307446 24.760632 -11.971582 28.216866 1.321364 2.008952 0.021555 0.009158 369507.000000 0 0 1
5.824846 24.134432 -10.598382 26.994913 1.333975 1.974260 0.017954 0.003033 -378385.000000 0 0 1
6.894746 24.076432 -9.693382 26.854679 1.291891 1.940090 0.011583 0.004264 -46153.000000 0 0 1
6.578646 23.298432 -8.585482 25.686690 1.295597 1.911594 0.003994 -0.005997 -384477.000000 0 0 1
7.637746 23.420132 -7.516782 25.755383 1.255553 1.866960 0.002339 -0.005159 -412159.000000 0 0 1
7.514846 24.614032 -6.794782 26.617523 1.274477 1.828928 0.005387 -0.007444 163118.000000 0 0 1
8.420746 24.673032 -5.704682 26.687279 1.241899 1.786219 0.013258 -0.011021 99511.700000 0 0 1
8.537546 26.026732 -5.079282 27.858205 1.253826 1.754148 0.014251 -0.008033 -1665.630000 0 0 1
9.163346 26.885632 -6.000182 29.031127 1.242317 1.778978 0.023767 -0.004760 -86871.600000 0 0 1
9.304046 28.151532 -5.378582 30.133091 1.251599 1.750252 0.027556 -0.006595 176906.000000 0 0 1
9.472446 29.237332 -6.437282 31.400437 1.257483 1.777266 0.030486 -0.002876 -735541.000000 0 0 1
10.708546 29.277932 -7.048182 31.961651 1.220156 1.793144 0.035254 -0.005334 -982720.000000 0 0 1
10.850146 30.367632 -7.906982 33.202999 1.227639 1.811247 0.033367 -0.003026 103884.000000 0 0 1
12.188246 30.453832 -8.688882 33.933551 1.190100 1.829736 0.036882 -0.009638 721824.000000 0 0 1
13.285546 30.744932 -7.812682 34.391781 1.162909 1.799964 0.037834 -0.007037 241480.000000 0 0 1
14.454046 30.950332 -8.612682 35.228125 1.133889 1.817783 0.036161 -0.007453 952281.000000 0 0 1
15.762446 31.303032 -7.836682 35.913063 1.104318 1.790779 0.035165 -0.004072 543569.000000 0 0 1
16.396646 30.244532 -7.138082 35.135935 1.074011 1.775377 0.039310 -0.007832 117585.000000 0 0 1
17.432446 30.699432 -6.262582 35.854780 1.054358 1.746362 0.026712 -0.001058 582207.000000 0 0 1
18.540746 29.636832 -5.994182 35.468737 1.011767 1.740610 0.029805 0.000011 -141169.000000 0 0 1
18.172446 28.544132 -5.146282 34.227029 1.003868 1.721726 0.053796 -0.014376 -854515.000000 0 0 1
19.213646 27.667232 -4.906682 34.039910 0.963802 1.715445 0.045149 -0.012210 -659913.000000 0 0 1
19.477046 26.470632 -5.952082 33.398757 0.936446 1.749966 0.042120 0.003429 -124586.000000 0 0 1
19.875346 26.869432 -7.189282 34.185985 0.933919 1.782677 0.022949 0.008330 -34063.900000 0 0 1
19.650046 25.847532 -8.200082 33.488215 0.920781 1.818176 0.018966 0.002791 -652205.000000 0 0 1
20.331046 26.204332 -9.537182 34.510524 0.910946 1.850796 0.018523 -0.000052 1208990.000000 0 0 1
21.772846 26.225032 -9.518782 35.389495 0.877891 1.843122 0.010604 0.002738 883192.000000 0 0 1
22.358846 24.951632 -9.665582 34.870122 0.840147 1.851663 0.023303 0.004406 -24557.200000 0 0 1
23.911746 24.988032 -9.573582 35.886304 0.807405 1.840842 0.004848 0.014147 406831.000000 0 0 1
24.527746 25.405232 -10.764182 36.917527 0.802970 1.866668 0.000152 0.013534 -103191.000000 0 0 1
25.909246 25.622432 -10.529382 37.929750 0.779832 1.852094 -0.008150 0.020621 340501.000000 0 0 1
26.729246 25.776532 -11.840782 38.975458 0.767255 1.879476 -0.009893 0.016596 -16469.000000 0 0 1
26.563946 27.048632 -12.466182 39.908363 0.794438 1.888483 -0.018944 0.019429 -19825.400000 0 0 1
27.293346 27.037632 -13.675782 40.779741 0.780692 1.912781 -0.016475 0.011646 14711.000000 0 0 1
26.935446 28.132832 -14.703982 41.631498 0.807138 1.931779 -0.005585 0.009643 -190811.000000 0 0 1
27.293246 29.450732 -14.383382 42.651478 0.823401 1.914770 -0.006005 0.011167 -43751.500000 0 0 1
27.278846 30.287232 -15.526382 43.617891 0.837610 1.934741 0.010066 0.008826 -378242.000000 0 0 1
27.668446 31.711132 -15.283382 44.774106 0.853375 1.919143 0.004886 0.006801 -288542.000000 0 0 1
28.976746 31.946132 -14.848382 45.614489 0.834100 1.902357 0.005253 0.003366 -377474.000000 0 0 1
29.241446 33.324532 -14.687682 46.704546 0.850566 1.890706 0.008733 0.000529 38346.400000 0 0 1
14.997646 -32.902193 -29.173256 46.460333 -1.143109 2.249671 0.042458 -0.010160 10192.400000 0 0 1
16.012846 -33.293093 -28.251676 46.508048 -1.122492 2.223653 0.030979 -0.007772 237389.000000 0 0 1
16.125746 -32.353793 -27.211466 45.246785 -1.108414 2.216050 0.045050 -0.010465 -999010.000000 0 0 1
17.152546 -32.806593 -26.120686 45.307534 -1.089045 2.185259 0.025452 -0.005389 1064800.000000 0 0 1
18.544946 -32.660393 -26.407776 45.912819 -1.054381 2.183611 0.016451 -0.005807 770915.000000 0 0 1
19.065046 -33.057293 -27.652696 47.126768 -1.047665 2.197864 0.014440 -0.007703 -954333.000000 0 0 1
20.572046 -32.740893 -27.883996 47.672764 -1.009807 2.195558 0.030584 -0.002171 502112.000000 0 0 1
21.035446 -31.434093 -28.078436 47.106165 -0.981047 2.209390 0.040358 -0.020088 46005.300000 0 0 1
22.437546 -31.285293 -28.037716 47.626952 -0.948625 2.200239 0.022031 -0.002073 -88731.900000 0 0 1
22.912546 -29.991293 -28.710786 47.421216 -0.918412 2.221117 0.012770 0.004498 -89373.500000 0 0 1
22.975546 -30.166693 -30.086996 48.405913 -0.919900 2.241524 0.008959 0.000418 27500.000000 0 0 1
23.505046 -29.001993 -30.718946 48.345180 -0.889708 2.259334 0.017108 -0.014887 153278.000000 0 0 1
23.803746 -29.315993 -32.220476 49.640758 -0.888798 2.277162 0.023474 -0.011417 463965.000000 0 0 1
24.896846 -30.217593 -32.383196 50.809716 -0.881640 2.261841 0.031131 -0.024239 83620.700000 0 0 1
25.161246 -30.459593 -33.730566 51.948303 -0.880370 2.277473 0.025643 -0.026231 -191991.000000 0 0 1
26.432346 -31.234493 -34.125687 53.280625 -0.868480 2.265932 0.015623 -0.023313 585820.000000 0 0 1
27.572546 -30.365993 -34.307339 53.472725 -0.833575 2.267360 0.023710 -0.027213 -42432.200000 0 0 1
28.694446 -31.119393 34.228747 54.437074 -0.825918 0.890818 0.027632 -0.023660 -830703.000000 0 0 1
29.929546 -30.270393 34.017597 54.491021 -0.791060 0.896588 0.036045 -0.028624 -602195.000000 0 0 1
29.863946 -29.440593 32.880385 53.289057 -0.778260 0.905847 0.037146 -0.025804 183748.000000 0 0 1
31.031446 -28.643993 32.762788 53.449315 -0.745412 0.910983 0.036678 -0.030314 72001.700000 0 0 1
31.108846 -27.706693 31.554248 52.259848 -0.727618 0.922543 0.031418 -0.035833 -79357.900000 0 0 1
32.340146 -26.991993 31.522278 52.612801 -0.695502 0.928373 0.030963 -0.038558 453377.000000 0 0 1
32.573846 -26.112193 30.442488 51.668629 -0.675734 0.940744 0.039991 -0.039212 85723.600000 0 0 1
33.348746 -26.837193 29.240428 51.839912 -0.677627 0.971511 0.044509 -0.032699 -17165.800000 0 0 1
32.675646 -27.908693 28.592018 51.614887 -0.706877 0.983696 0.048507 -0.036411 255609.000000 0 0 1
31.703246 -27.485993 27.660798 50.256297 -0.714268 0.987959 0.044994 -0.036774 -610.233000 0 0 1
30.806446 -28.628593 27.091878 50.026027 -0.748772 0.998510 0.032815 -0.023366 -13172.600000 0 0 1
29.541446 -28.188493 26.661668 48.766103 -0.761967 0.992348 0.026280 -0.013807 359195.000000 0 0 1
28.808046 -29.243193 26.025568 48.604507 -0.792894 1.005749 0.007392 -0.000570 744136.000000 0 0 1
27.396846 -28.849493 25.475688 47.242895 -0.811219 1.001251 0.007691 0.013044 576523.000000 0 0 1
26.442246 -28.475993 26.452328 47.008513 -0.822414 0.973132 0.007731 0.003259 630361.000000 0 0 1
25.242146 -28.094793 25.764138 45.719516 -0.838831 0.972148 0.000555 0.017850 1255070.000000 0 0 1
23.957946 -27.790493 26.635878 45.340542 -0.859324 0.942876 0.006454 0.011243 540418.000000 0 0 1
24.000446 -26.620293 27.500838 45.176958 -0.837106 0.916330 0.005614 0.005899 -178356.000000 0 0 1
22.831046 -26.562193 28.257708 45.003387 -0.860795 0.891942 0.009505 -0.005132 -497573.000000 0 0 1
22.879246 -25.398793 29.230178 44.977349 -0.837539 0.863361 0.004360 0.006730 -966742.000000 0 0 1
21.656146 -25.239893 29.869088 44.701268 -0.861669 0.839019 0.010818 0.012328 -397178.000000 0 0 1
21.616946 -24.043193 30.664028 44.560634 -0.838485 0.811872 0.015750 0.008227 -351611.000000 0 0 1
21.238346 -22.728293 29.950618 43.181966 -0.819273 0.804334 0.024866 0.010192 -525148.000000 0 0 1
22.262546 -22.356393 29.046648 42.885161 -0.787501 0.826693 0.024794 0.008492 247722.000000 0 0 1
22.238146 -20.992393 28.631238 41.892285 -0.756590 0.818319 0.045568 0.010815 -152652.000000 0 0 1
22.884446 -20.038593 29.674498 42.494929 -0.719194 0.797767 0.040974 0.007467 -158313.000000 0 0 1
22.240946 -19.914893 30.955338 43.005763 -0.730277 0.767289 0.050212 0.007471 559466.000000 0 0 1
23.094246 -19.271793 31.916298 43.856543 -0.695417 0.755771 0.050893 -0.009157 -20262.800000 0 0 1
22.342546 -18.924693 33.232941 44.291780 -0.702764 0.722253 0.064912 -0.005631 -49889.900000 0 0 1
22.493646 -19.968693 34.169474 45.522146 -0.726005 0.721808 0.052128 -0.005653 513779.000000 0 0 1
21.682846 -19.760593 -33.525966 44.549043 -0.739049 2.422742 0.054569 -0.009097 148661.000000 0 0 1
21.819446 -20.991293 -32.611356 44.499699 -0.766056 2.393289 0.044016 -0.006256 597761.000000 0 0 1
23.078846 -21.244993 -31.964946 44.785496 -0.744048 2.365612 0.035729 -0.005415 432239.000000 0 0 1
23.019046 -22.274693 -30.979286 44.561807 -0.768966 2.339492 0.030351 -0.008252 -777844.000000 0 0 1
24.354546 -22.659493 -30.402986 45.065931 -0.749360 2.311264 0.037748 -0.001110 -669957.000000 0 0 1
25.255346 -23.378393 -31.227076 46.470550 -0.746824 2.307670 0.024572 0.003794 255174.000000 0 0 1
26.325946 -23.914393 -30.433046 46.809443 -0.737435 2.278575 0.031488 -0.008502 109230.000000 0 0 1
27.146446 -24.927593 -31.229296 48.307177 -0.742814 2.273749 0.010899 -0.010886 233815.000000 0 0 1
28.183846 -24.287793 -32.026346 49.090864 -0.711284 2.281529 0.010760 -0.011356 702737.000000 0 0 1
27.852446 -24.074293 -33.390866 49.701914 -0.712767 2.307463 0.016813 -0.006193 -36380.900000 0 0 1
28.039946 -25.342493 -34.292899 51.034140 -0.734910 2.307648 0.016525 -0.002883 -25526.600000 0 0 1
26.912546 -26.167193 -34.070692 50.693384 -0.771357 2.307829 0.033184 -0.013996 115406.000000 0 0 1
26.951246 -27.366493 34.054512 51.332294 -0.793043 0.845425 0.034300 -0.015524 122288.000000 0 0 1
26.477946 -27.168793 32.555618 49.990932 -0.798275 0.861592 0.034689 -0.027200 -352976.000000 0 0 1
27.495946 -26.682593 31.725258 49.744144 -0.770387 0.879198 0.028627 -0.031593 -104629.000000 0 0 1
27.194246 -26.670793 30.341778 48.697862 -0.775681 0.898145 0.017869 -0.025380 -741555.000000 0 0 1
28.330746 -26.094093 29.486118 48.507361 -0.744325 0.917422 0.022759 -0.027071 -218495.000000 0 0 1
28.691146 -24.723293 29.506158 48.010795 -0.711250 0.908951 0.019536 -0.036279 352838.000000 0 0 1
29.175246 -24.256993 30.768378 48.849665 -0.693610 0.889425 0.018807 -0.028747 -1163010.000000 0 0 1
29.428346 -22.746293 30.965378 48.397067 -0.658021 0.876533 0.000876 -0.012187 1542320.000000 0 0 1
30.732146 -22.169993 30.629578 48.725194 -0.624941 0.891020 0.017024 -0.020924 1892090.000000 0 0 1
31.804646 -22.645393 31.473918 50.149346 -0.618744 0.892325 0.011220 -0.017919 -91063.200000 0 0 1
33.181746 -22.089993 31.070098 50.540549 -0.587352 0.908720 0.000834 -0.013434 -226378.000000 0 0 1
33.687546 -22.624693 29.837698 50.368797 -0.591413 0.936781 0.013589 -0.017919 -162780.000000 0 0 1
34.976546 -22.180593 29.542678 50.873444 -0.565156 0.951197 -0.007302 -0.012775 -230266.000000 0 0 1
-35.386146 -22.630993 28.154348 50.566872 0.568990 0.980299 0.007798 -0.014059 -56272.700000 0 0 1
-35.218646 -24.034593 28.018418 51.020060 0.598843 0.989432 0.009993 -0.015414 224755.000000 0 0 1
-34.632946 -24.243693 26.753088 50.029245 0.610738 1.006586 0.005411 0.002291 -230108.000000 0 0 1
-34.463146 -25.720093 26.376738 50.447636 0.641134 1.020601 0.007009 -0.002173 1023820.000000 0 0 1
35.157046 -26.386793 26.399708 51.275973 -0.643847 1.029957 0.025708 -0.010234 1313110.000000 0 0 1
35.227046 -27.765593 25.949868 51.819578 -0.667498 1.046304 0.032196 -0.007506 185450.000000 0 0 1
-34.826146 -28.720993 26.853978 52.525156 0.689619 1.034147 0.030242 -0.014802 -500770.000000 0 0 1
-34.728846 -30.029393 26.288598 52.905081 0.712956 1.050772 0.044067 -0.012014 604117.000000 0 0 1
-33.778846 -30.898393 26.938358 53.116817 0.740892 1.038918 0.048918 -0.017029 1172260.000000 0 0 1
-32.278346 -30.458793 26.825308 51.857756 0.756403 1.027119 0.053539 -0.019141 -357790.000000 0 0 1
-31.742846 -30.415193 25.566208 50.855907 0.764042 1.044056 0.047589 -0.011565 -13278.300000 0 0 1
-30.400746 -29.979893 25.558688 49.761892 0.778428 1.031398 0.031640 -0.008302 4701.680000 0 0 1
-29.744646 -29.814193 24.168188 48.556477 0.786566 1.049813 0.020928 -0.006987 -298732.000000 0 0 1
-29.767846 -30.999593 23.460018 48.963986 0.805665 1.071135 0.025221 -0.008560 509040.000000 0 0 1
-29.284146 -30.830593 22.149518 47.944633 0.811117 1.090569 0.017216 -0.005729 -887080.000000 0 0 1
-29.204246 -32.106393 21.311218 48.351593 0.832698 1.114356 0.019523 -0.006054 -77466.400000 0 0 1
-28.266346 -33.083093 21.679818 48.615758 0.863751 1.108570 0.007527 -0.020177 -355219.000000 0 0 1
-26.926346 -32.729393 21.467018 47.508675 0.882369 1.101953 0.018433 -0.013324 -902667.000000 0 0 1
-26.037546 -33.966693 21.300518 47.805880 0.916780 1.108994 0.014971 -0.006417 -937446.000000 0 0 1
-26.272146 34.275032 20.126718 47.645443 -0.916812 1.134675 0.001098 -0.011915 12009.600000 0 0 1
-27.393646 33.410632 20.117018 47.658961 -0.884034 1.135032 0.008006 -0.012232 25688.400000 0 0 1
-27.431746 32.314732 21.183618 47.386583 -0.866945 1.107345 0.007957 -0.004448 -153640.000000 0 0 1
-26.558446 31.232732 20.912018 46.023332 -0.866105 1.099122 -0.003744 -0.000852 33633.500000 0 0 1
-26.808046 30.142732 21.778818 45.842912 -0.843885 1.075747 0.001183 0.000473 -304178.000000 0 0 1
-25.920546 28.926232 21.540918 44.414106 -0.840145 1.064431 -0.004071 0.009742 -615523.000000 0 0 1
-24.583646 29.163032 21.836618 43.950836 -0.870396 1.050840 -0.003762 0.007796 -408757.000000 0 0 1
-23.653546 28.322132 21.157218 42.535412 -0.874980 1.050194 0.000983 0.008163 -295653.000000 0 0 1
-22.218146 28.726032 21.434418 42.169482 -0.912455 1.037596 0.000825 0.006640 -841683.000000 0 0 1
-21.803946 28.652232 22.783418 42.608058 -0.920301 1.006619 0.000783 0.010723 139834.000000 0 0 1
-20.522046 29.216132 22.900318 42.416522 -0.958447 1.000488 0.035743 0.008326 -56876.400000 0 0 1
-19.935246 29.352632 24.355818 43.037158 -0.974192 0.969241 0.032236 0.006800 -329484.000000 0 0 1
-19.842046 28.143032 24.942538 42.519022 -0.956694 0.943917 0.040592 -0.000280 596517.000000 0 0 1
-19.303446 28.094532 26.303708 43.055904 -0.968788 0.913574 0.032059 -0.007055 -531282.000000 0 0 1
-17.852746 28.435832 26.603908 42.837892 -1.010168 0.900731 0.030367 -0.001373 -1104530.000000 0 0 1
-17.465946 29.804632 26.489828 43.532590 -1.040724 0.916620 0.022025 -0.005018 24283.600000 0 0 1
-16.230846 30.172732 27.056508 43.656486 -1.077266 0.902361 0.014729 -0.004621 -188307.000000 0 0 1
-16.222846 30.328232 28.587328 44.723794 -1.079613 0.877342 0.000071 0.003145 -577406.000000 0 0 1
-16.247546 29.068332 29.244578 44.319251 -1.061113 0.850162 0.013629 0.004977 189276.000000 0 0 1
-16.307546 29.327132 30.624158 45.429680 -1.063315 0.831050 0.009282 0.008416 -192353.000000 0 0 1
-16.196046 28.040232 31.478408 45.160344 -1.047010 0.799540 0.011563 0.008912 -41169.100000 0 0 1
-14.864546 27.695932 31.826668 44.732049 -1.078218 0.779172 0.013860 0.013507 272306.000000 0 0 1
-14.718446 26.443632 32.368628 44.312825 -1.062902 0.751805 0.023420 0.008015 -300873.000000 0 0 1
-15.114546 26.363932 33.846714 45.487432 -1.050238 0.731626 0.023035 0.002353 198377.000000 0 0 1
-16.494346 26.205232 34.140870 46.090961 -1.009018 0.736643 0.022319 0.003192 84810.300000 0 0 1
-16.927846 27.213532 -33.786606 46.568906 -1.014330 2.382584 0.015833 0.002330 -79641.500000 0 0 1
-18.141446 26.807132 -32.932096 46.176372 -0.975853 2.364822 0.010777 0.003756 183727.000000 0 0 1
-19.236046 26.511332 -33.800326 47.067380 -0.943109 2.371903 0.012727 0.008623 -1047140.000000 0 0 1
-20.337446 26.189232 -33.062156 46.825140 -0.910514 2.354739 0.029829 -0.002973 -149803.000000 0 0 1
-21.689246 26.272632 -33.893606 48.056749 -0.880672 2.353619 0.046268 -0.014506 508638.000000 0 0 1
-21.852846 25.594332 33.728848 47.647161 -0.864091 0.784293 0.042461 -0.014921 13109.300000 0 0 1
-21.808046 24.160332 33.753005 46.888995 -0.836525 0.767211 0.037960 -0.014355 -361119.000000 0 0 1
-22.094846 23.447232 32.448478 45.725908 -0.815085 0.781823 0.025320 -0.010061 -165906.000000 0 0 1
-23.472146 23.305832 32.186678 46.152852 -0.781843 0.799043 0.028371 -0.016760 -300679.000000 0 0 1
-23.743646 23.159132 30.817508 45.274993 -0.772937 0.822114 0.026491 -0.007587 -8534.640000 0 0 1
-25.193346 22.682832 30.655968 45.705623 -0.733008 0.835609 0.014623 -0.002449 -258899.000000 0 0 1
-25.411846 21.384032 31.025878 45.449355 -0.699538 0.819417 0.018416 -0.003790 1030530.000000 0 0 1
-26.745846 20.970232 30.617738 45.744254 -0.664943 0.837497 0.017531 -0.003824 983685.000000 0 0 1
-27.082546 19.525932 31.093438 45.623768 -0.624667 0.820961 0.037128 -0.010846 -340436.000000 0 0 1
-27.643446 19.371332 32.398908 46.787796 -0.611234 0.805896 0.043267 -0.008962 29527.100000 0 0 1
-27.749546 17.999732 32.911827 46.660648 -0.575425 0.787887 0.040036 0.002356 74910.300000 0 0 1
-28.771746 17.077232 32.195058 46.432392 -0.535657 0.804634 0.022284 -0.001727 463047.000000 0 0 1
-30.165146 17.286832 32.398698 47.523113 -0.520385 0.820650 0.018498 -0.007924 420090.000000 0 0 1
-30.876146 16.219932 31.752338 47.166021 -0.483700 0.832264 0.031187 -0.002836 90858.600000 0 0 1
-32.391646 16.501232 31.738368 48.257988 -0.471162 0.853060 0.021301 -0.002625 -313802.000000 0 0 1
-32.944846 16.571132 33.004434 49.489979 -0.466042 0.840767 0.026074 -0.004329 663215.000000 0 0 1
-34.368446 16.685232 33.019761 50.496452 -0.451965 0.858065 0.035840 -0.009590 344188.000000 0 0 1
-34.948946 17.032432 34.407380 51.917246 -0.453478 0.846331 0.027024 -0.005744 -1597040.000000 0 0 1
34.666946 17.455932 34.336898 51.822093 0.466470 0.846522 0.014014 -0.006934 -1290280.000000 0 0 1
34.321146 18.127532 -33.335156 51.164256 0.485932 2.280399 -0.002556 -0.001064 -886330.000000 0 0 1
32.827346 18.285832 -33.192916 50.137571 0.508225 2.294329 0.013101 -0.001085 -956861.000000 0 0 1
32.229946 17.040332 -32.975866 49.158418 0.486352 2.306094 0.016155 0.009098 1151070.000000 0 0 1
30.823246 17.151632 -32.628616 48.050781 0.507783 2.317256 0.013722 0.014582 883078.000000 0 0 1
30.090646 15.851032 -32.724486 47.197396 0.484838 2.336929 0.001932 0.011843 -494886.000000 0 0 1
29.835846 15.410132 -34.062610 47.832116 0.476758 2.363322 0.013671 -0.008416 355059.000000 0 0 1
29.059446 14.214132 -34.199650 47.075567 0.454922 2.383988 0.007831 -0.010685 -47797.900000 0 0 1
29.937246 12.983232 -34.174048 47.251123 0.409201 2.379283 0.007264 -0.013025 -376971.000000 0 0 1
30.566046 12.768732 -32.936286 46.713196 0.395707 2.353325 0.010250 -0.000676 448475.000000 0 0 1
31.692946 11.964432 -33.328106 47.522133 0.360970 2.348040 0.023590 -0.001286 -27004.200000 0 0 1
17.438446 -21.403968 9.535294 29.208750 -0.887138 1.238247 0.004273 -0.002856 -84179.700000 0 0 1
17.061046 -22.575368 10.217794 30.085376 -0.923633 1.224276 0.000491 -0.010841 398041.000000 0 0 1
18.225946 -23.284968 10.630094 31.422504 -0.906672 1.225691 0.000129 -0.011323 -50210.800000 0 0 1
17.959346 -24.450768 11.647194 32.496697 -0.937282 1.204230 0.012212 -0.015887 -271436.000000 0 0 1
17.368546 -25.617948 11.107094 32.883327 -0.975000 1.226247 0.014464 -0.010592 -227183.000000 0 0 1
15.976546 -25.513318 11.245794 32.134830 -1.011332 1.213272 0.016854 -0.011788 -434141.000000 0 0 1
15.119346 -26.581298 10.505794 32.334683 -1.053637 1.239882 0.029434 -0.000626 182811.000000 0 0 1
15.040846 -26.284238 9.135294 31.631342 -1.051040 1.277818 0.032812 -0.011558 680784.000000 0 0 1
13.890446 -26.956348 8.587394 31.517178 -1.094988 1.294840 0.036858 -0.001134 580298.000000 0 0 1
13.616046 -26.590148 7.102994 30.706436 -1.097539 1.337363 0.036091 -0.009936 -100868.000000 0 0 1
12.949546 -25.321378 7.074994 29.307311 -1.098064 1.326981 0.038287 -0.019024 18960.500000 0 0 1
12.480946 -25.065118 5.770394 28.589012 -1.108797 1.367561 0.041287 -0.008731 21079.400000 0 0 1
12.105146 -23.551968 5.883194 27.126403 -1.096031 1.352178 0.055766 -0.005249 55038.500000 0 0 1
11.584446 -22.906768 4.694494 26.095166 -1.102582 1.389913 0.045146 -0.006392 56699.800000 0 0 1
11.187846 -21.627968 5.015494 24.861458 -1.093416 1.367665 0.058594 -0.009740 -659410.000000 0 1 0
10.403946 -20.848968 4.043394 23.648903 -1.107937 1.398976 0.048471 -0.013153 -384316.000000 0 1 0
11.114646 -20.358968 2.953594 23.382614 -1.071080 1.444142 0.026708 -0.007040 -178898.000000 0 1 0
10.156746 -19.772868 2.101394 22.328046 -1.096272 1.476542 0.027440 0.002500 227773.000000 0 1 0
10.762046 -19.316068 0.801694 22.126338 -1.062476 1.534556 0.013698 0.007271 301022.000000 0 1 0
11.723746 -18.264168 0.954094 21.724096 -1.000137 1.526863 0.010369 0.010116 183363.000000 0 1 0
12.330046 -17.924068 -0.297706 21.757548 -0.968234 1.584480 0.009953 0.002730 -150449.000000 0 1 0
13.449946 -16.892368 -0.058606 21.592975 -0.898368 1.573510 0.005695 0.001590 20978.500000 0 1 0
14.536346 -17.495868 0.615594 22.754993 -0.877529 1.543740 0.016233 -0.005897 -372201.000000 0 1 0
15.773846 -16.903068 0.328894 23.122199 -0.819942 1.556572 0.026655 -0.010320 -466121.000000 0 1 0
16.923446 -17.532368 1.093894 24.392285 -0.803069 1.525935 0.024432 -0.011595 -486593.000000 0 1 0
17.252946 -18.798068 0.554094 25.521335 -0.828231 1.549084 0.028904 -0.016432 -804927.000000 0 0 1
18.275146 -19.421868 1.205894 26.695395 -0.815808 1.525609 0.035898 -0.010534 -451684.000000 0 0 1
18.713246 -20.757768 0.490894 27.951950 -0.837150 1.553233 0.024313 -0.008149 13035.600000 0 0 1
17.782146 -21.723368 0.874394 28.086901 -0.884833 1.539660 0.026169 -0.010278 -174151.000000 0 0 1
17.799846 -22.849668 0.031094 28.964510 -0.908993 1.569723 0.029671 -0.012841 -764009.000000 0 0 1
16.845546 -23.993368 0.289494 29.317878 -0.958668 1.560922 0.023321 -0.003441 -534337.000000 0 0 1
16.885746 -24.556068 1.584794 29.843600 -0.968414 1.517668 0.016395 0.001155 26137.300000 0 0 1
15.788146 -25.434868 1.774194 29.989095 -1.015275 1.511600 0.015092 -0.001257 -602021.000000 0 0 1
15.819846 -26.258348 3.032994 30.805315 -1.028563 1.472180 0.011115 0.000834 1243020.000000 0 0 1
16.894946 -27.263408 3.047194 32.218287 -1.016022 1.476075 0.011608 0.001402 1428970.000000 0 0 1
18.182146 -26.687628 3.330894 32.464054 -0.972735 1.468013 0.013161 0.006953 -336965.000000 0 0 1
19.234946 -27.768938 3.551094 33.966268 -0.965001 1.466057 0.023336 0.010847 -400986.000000 0 0 1
19.626646 -28.335788 2.288994 34.545066 -0.965024 1.504487 0.033102 0.006045 234082.000000 0 0 1
20.603146 -29.385908 2.416094 35.970248 -0.959317 1.503576 0.034626 0.005309 522049.000000 0 0 1
20.008146 -30.769238 2.908894 36.817572 -0.994235 1.491706 0.028017 0.008059 -63104.200000 0 0 1
19.872446 -30.898418 4.329394 36.991486 -0.999249 1.453490 0.038730 0.012581 -229199.000000 0 0 1
19.157746 -32.045978 4.636594 37.622626 -1.031981 1.447243 0.032443 0.001839 -312110.000000 0 0 1
18.966346 -32.232018 6.145294 37.899735 -1.038926 1.407931 0.043195 -0.001361 453203.000000 0 0 1
20.015346 -32.969418 6.797794 39.163843 -1.025181 1.396340 0.036399 -0.013893 857624.000000 0 0 1
19.444546 -33.690238 7.857194 39.684481 -1.047343 1.371488 0.037690 -0.008793 296292.000000 0 0 1
20.560746 34.493875 8.508094 41.048257 1.033272 1.362012 0.021317 -0.008738 70324.200000 0 0 1
21.386446 -33.730858 9.276294 41.002445 -1.005728 1.342583 0.027958 -0.014102 -314208.000000 0 0 1
22.424646 -34.498609 9.844094 42.307505 -0.994410 1.335964 0.027062 -0.018273 -229933.000000 0 0 1
23.398946 -33.671228 10.661094 42.366510 -0.963485 1.316422 0.028021 -0.019817 -250066.000000 0 0 1
24.228546 -32.703508 10.027294 41.917640 -0.933174 1.329240 0.015488 -0.017422 465494.000000 0 0 1
25.100746 -32.019818 10.925994 42.127112 -0.905942 1.308439 0.011152 -0.010718 138055.000000 0 0 1
25.990446 -31.037648 10.140394 41.733278 -0.873672 1.325359 0.018595 -0.015797 -488919.000000 0 0 1
25.351346 -29.871968 9.702194 40.362827 -0.867077 1.328045 0.016869 -0.020517 -17907.900000 0 0 1
25.806746 -29.419748 8.434994 40.033222 -0.850727 1.358505 0.034417 -0.020316 -198324.000000 0 0 1
25.188946 -28.058288 8.253894 38.598929 -0.839233 1.355295 0.022920 -0.014813 -249654.000000 0 0 1
25.728146 -27.226858 9.239994 38.582597 -0.813692 1.328960 0.017115 -0.024728 47429.200000 0 0 1
25.418346 -25.856078 9.013894 37.361469 -0.793935 1.327131 0.021070 -0.017746 51251.400000 0 0 1
26.164346 -24.840168 9.992094 37.435931 -0.759442 1.300609 0.032558 -0.025866 605232.000000 0 0 1
27.542646 -24.787868 9.673494 38.296374 -0.732805 1.315434 0.048200 -0.021677 -454620.000000 0 0 1
28.284546 -23.944768 10.510394 38.520590 -0.702498 1.294441 0.038406 -0.021029 886610.000000 0 0 1
29.728946 -23.730568 9.908894 39.308222 -0.673661 1.315965 0.054746 -0.024166 926993.000000 0 0 1
29.709846 -22.848168 8.748294 38.486964 -0.655578 1.341487 0.059315 -0.016340 -544731.000000 0 0 1
30.976646 -22.595968 8.215594 39.212579 -0.630220 1.359718 0.060589 -0.020297 -377236.000000 0 0 1
30.944146 -21.733468 6.921994 38.442136 -0.612298 1.389746 0.059640 -0.012005 6598.640000 0 0 1
30.704346 -20.363368 7.232794 37.546464 -0.585604 1.376949 0.053302 -0.000018 30169.800000 0 0 1
30.919246 -19.516368 6.117494 37.071716 -0.563049 1.405020 0.038095 0.008963 163011.000000 0 0 1
30.435946 -18.004468 6.393994 35.935927 -0.534185 1.391916 0.036099 0.012970 509048.000000 0 0 1
31.278846 -17.404568 7.398694 36.551688 -0.507768 1.366971 0.047597 0.007087 403947.000000 0 0 1
30.881246 -16.093968 7.671994 35.658473 -0.480429 1.353949 0.043894 0.005156 -101917.000000 0 0 1
31.446746 -15.460268 8.942594 36.164730 -0.456932 1.320931 0.043532 -0.008025 -1100580.000000 0 0 1
32.816546 -15.315068 8.925894 37.298105 -0.436644 1.329139 0.040010 -0.009026 -1183430.000000 0 0 1
33.157346 -14.620768 10.081394 37.613973 -0.415303 1.299456 0.043130 -0.015531 -71775.400000 0 0 1
34.672746 -14.538768 10.355594 38.997608 -0.397045 1.302028 0.033861 -0.011499 232092.000000 0 0 1
35.407746 -13.659568 9.492794 39.120397 -0.368187 1.325694 0.036465 -0.009589 -234576.000000 0 0 1
-34.451046 -14.330068 8.882494 38.355236 0.394184 1.337090 0.028665 -0.012218 -453946.000000 0 0 1
-33.604246 -13.299668 8.130494 37.043643 0.376857 1.349511 0.018307 -0.013209 -294526.000000 0 0 1
-34.240146 -12.760768 6.959394 37.197553 0.356739 1.382594 0.032648 -0.017527 811427.000000 0 0 1
-33.297446 -12.367368 5.898894 36.006509 0.355629 1.406226 0.027751 -0.010386 702810.000000 0 0 1
-32.523746 -13.545868 5.200094 35.613559 0.394642 1.424258 0.017162 -0.011528 648870.000000 0 0 1
-31.487546 -14.179468 5.953394 35.042343 0.423120 1.400077 0.012285 -0.010090 346390.000000 0 0 1
-30.704846 -15.144668 5.311594 34.646235 0.458220 1.416880 0.008926 -0.004840 11477.100000 0 0 1
-29.817446 -15.879768 6.335794 34.371346 0.489360 1.385403 0.007021 -0.004150 -357928.000000 0 0 1
-30.569946 -16.735168 7.146194 35.576053 0.500875 1.368549 -0.001379 -0.012030 -15075.000000 0 0 1
-29.926846 -16.904468 8.415894 35.386501 0.514180 1.330667 -0.001651 -0.009216 316658.000000 0 0 1
-30.846046 -17.574468 9.480994 36.745472 0.517878 1.309826 -0.023408 -0.001821 712587.000000 0 0 1
-32.042146 -16.813568 9.790194 37.486572 0.483238 1.306567 -0.008460 -0.005549 908933.000000 0 0 1
-32.764246 -17.285668 10.923994 38.621546 0.485465 1.284035 0.009963 -0.006735 647728.000000 0 0 1
-33.825546 -18.432368 10.672094 39.972658 0.498938 1.300533 0.031642 -0.007859 -462864.000000 0 0 1
-33.268446 -19.640768 10.154294 39.945700 0.533310 1.313773 0.018714 -0.010484 -200165.000000 0 0 1
-32.426546 -20.415868 11.006894 39.867785 0.561903 1.291078 0.007729 -0.016489 -653117.000000 0 0 1
-32.975846 -20.990068 12.316094 40.983845 0.566847 1.265568 0.053763 -0.016113 -21055.000000 0 0 1
-33.583946 -22.270568 12.192094 42.101150 0.585551 1.276997 0.023251 -0.013339 -179517.000000 0 0 1
-34.902946 -22.289768 11.699494 43.034028 0.568335 1.295465 0.039874 -0.020407 -355645.000000 0 0 1
-35.449046 -23.731868 11.517894 44.187083 0.589937 1.307088 0.036232 -0.013851 -14186.300000 0 0 1
-35.424946 -24.413768 12.771894 44.878504 0.603420 1.282219 0.044297 -0.013366 -39689.300000 0 0 1
34.818346 -25.585148 12.543194 44.991652 -0.633714 1.288263 0.030176 -0.001317 -276442.000000 0 0 1
33.981646 -26.073088 13.786894 44.995963 -0.654462 1.259384 0.039184 -0.020634 156527.000000 0 0 1
32.804046 -25.295178 13.894694 43.692265 -0.656868 1.247164 0.036081 -0.016366 -57113.400000 0 0 1
32.218046 -25.443458 15.176694 43.768757 -0.668445 1.216695 0.037358 -0.002466 -502270.000000 0 0 1
31.899646 -24.121368 15.959894 43.059796 -0.647434 1.191093 0.032326 -0.010149 -431395.000000 0 0 1
32.992946 -23.416068 16.503094 43.694380 -0.617226 1.183492 0.038148 -0.014740 -62441.800000 0 0 1
33.758246 -22.854068 15.452694 43.597172 -0.595117 1.208478 0.042336 -0.015825 -694162.000000 0 0 1
34.783746 -21.804968 15.850094 44.006717 -0.559945 1.202341 0.035681 -0.015913 -331731.000000 0 0 1
34.327846 -20.527068 16.231794 43.165179 -0.538926 1.185278 0.045065 -0.009639 -321679.000000 0 0 1
33.515246 -20.405268 17.339194 42.898652 -0.546891 1.154704 0.037560 -0.010501 -253461.000000 0 0 1
33.570646 -18.967968 17.993894 42.550586 -0.514299 1.134173 0.035055 -0.007354 -403844.000000 0 0 1
33.161146 -17.902568 17.160694 41.408369 -0.495029 1.143485 0.038870 -0.013665 197784.000000 0 0 1
33.328446 -16.596368 17.657594 41.206982 -0.462018 1.127954 0.024280 -0.009291 492162.000000 0 0 1
34.746546 -16.148968 18.169594 42.405728 -0.435064 1.127997 0.023842 -0.014690 179548.000000 0 0 1
35.092446 -16.524168 19.450694 43.391905 -0.440078 1.105983 0.023935 -0.004807 259375.000000 0 0 1
-34.797346 -15.603168 19.827894 42.982084 0.421523 1.091330 0.020337 -0.010042 13077.500000 0 0 1
-34.505746 -15.674768 21.350394 43.499244 0.426395 1.057763 0.014135 -0.000892 193110.000000 0 0 1
-33.602046 -16.745068 21.700194 43.363501 0.462315 1.046706 0.013094 -0.003773 582634.000000 0 0 1
-33.345346 -16.663068 23.097194 43.852598 0.463417 1.016082 0.012013 0.002670 -251033.000000 0 0 1
-32.487646 -17.799868 23.592094 43.918895 0.501227 1.003713 0.007991 0.006282 -753872.000000 0 0 1
-33.136046 -19.059668 23.507794 44.876329 0.521980 1.019449 -0.001593 0.005560 289847.000000 0 0 1
-32.482746 -20.113068 24.177894 45.213216 0.554412 1.006581 -0.008432 0.010568 -416236.000000 0 0 1
-31.262346 -20.745368 23.482494 44.262084 0.585869 1.011567 -0.009831 0.011078 413124.000000 0 0 1
-30.134946 -19.853968 23.405794 43.013094 0.582561 0.995415 -0.004843 0.014737 985500.000000 0 0 1
-29.045246 -20.512668 22.721894 42.198108 0.614896 1.002191 0.009474 0.005908 320421.000000 0 0 1
-27.813046 -19.627168 22.497694 40.803646 0.614529 0.986797 0.017849 0.009152 -520595.000000 0 0 1
-27.189446 -19.464068 23.716794 40.995149 0.621297 0.953875 0.016339 0.007404 -19721.800000 0 0 1
-26.071446 -18.597968 23.558294 39.756734 0.619627 0.936562 0.032377 0.008442 77236.900000 0 0 1
-25.709946 -18.029168 24.900694 40.076137 0.611566 0.900351 0.027667 -0.001033 -730688.000000 0 0 1
-24.587446 -17.185768 24.948994 39.017245 0.610031 0.877033 0.031105 0.000195 536.364000 0 0 1
-24.192946 -16.678768 26.210294 39.375874 0.603581 0.842441 0.026417 -0.006458 -3086.050000 0 0 1
-23.325846 -17.536768 27.144094 39.855177 0.644663 0.821576 0.022236 -0.003787 -573489.000000 0 0 1
-23.819346 -18.805568 27.518894 40.967062 0.668311 0.834252 0.026156 -0.006996 -732335.000000 0 0 1
-22.922846 -19.432868 28.342494 41.308476 0.703187 0.814657 0.033719 -0.011849 -747080.000000 0 0 1
-23.424046 -20.824168 28.758894 42.537112 0.726709 0.828354 0.030780 -0.012739 398755.000000 0 0 1
-24.548646 -20.662768 29.648394 43.687679 0.699660 0.824881 0.025970 -0.017149 598738.000000 0 0 1
-24.845246 -21.873868 30.305094 44.879295 0.721883 0.829482 0.025132 -0.016769 -574304.000000 0 0 1
-25.966046 -21.738768 31.356594 46.152417 0.697016 0.823833 0.024231 -0.010662 -695663.000000 0 0 1
-25.647346 -20.895468 32.388694 46.297240 0.683654 0.795985 0.036821 -0.021917 1248530.000000 0 0 1
-26.681546 -20.843068 33.433294 47.582807 0.663159 0.791704 0.042604 -0.016743 767690.000000 0 0 1
-27.980846 -20.062568 33.203494 47.832065 0.622052 0.803533 0.024965 -0.019225 -121575.000000 0 0 1
-28.904946 -20.770368 32.358694 48.103941 0.623084 0.832968 0.034070 -0.018382 634720.000000 0 0 1
-30.042346 -19.932268 32.201094 48.339925 0.585788 0.841777 0.037524 -0.019540 341690.000000 0 0 1
-31.109046 -20.347168 31.144294 48.494815 0.579224 0.873407 0.032091 -0.009322 52929.700000 0 0 1
-31.389346 -19.345368 30.151994 47.630632 0.552321 0.885325 0.024174 -0.016093 296489.000000 0 0 1
-32.130446 -19.958168 29.121494 47.736312 0.555834 0.914674 0.016931 -0.012737 -361897.000000 0 0 1
-32.997646 -18.914668 28.422494 47.481022 0.520490 0.929035 0.008030 -0.001213 -505852.000000 0 0 1
-33.825346 -19.427968 27.403394 47.671228 0.521354 0.958386 -0.004222 0.004198 -240227.000000 0 0 1
-34.582146 -18.347368 26.938494 47.520871 0.487784 0.968086 0.006168 0.005784 -403797.000000 0 0 1
35.181546 -18.862868 26.035094 47.658946 -0.492154 0.992881 0.004673 0.002960 -291104.000000 0 0 1
34.266146 -19.658668 26.729194 47.697818 -0.520861 0.975944 0.003445 0.007212 -890341.000000 0 0 1
33.389246 -20.275168 25.855494 46.844752 -0.545723 0.986107 0.037123 -0.001467 -388982.000000 0 0 1
32.274046 -20.890968 26.762394 46.843061 -0.574474 0.962683 0.034727 -0.010943 -335615.000000 0 0 1
31.350846 -19.925468 27.195494 46.037971 -0.566160 0.938847 0.023376 -0.008462 823055.000000 0 0 1
30.320146 -20.638668 27.963694 46.121948 -0.597649 0.919398 0.019504 -0.005606 834160.000000 0 0 1
-29.360994 -5.803768 34.161363 45.417512 0.195154 0.719458 -0.008556 0.012250 -146773.000000 0 0 1
-29.996784 -5.812168 32.943019 44.931402 0.191388 0.747803 0.000696 0.013147 272688.000000 0 0 1
-29.715744 -4.540068 32.374738 44.178743 0.151611 0.748350 0.005942 0.006240 -2934.280000 0 0 1
-30.308214 -4.393768 30.942138 43.535146 0.143967 0.780248 0.009582 0.001843 180655.000000 0 0 1
-29.882564 -5.395768 29.962168 42.659272 0.178641 0.792089 0.008837 -0.007279 768895.000000 0 0 1
-28.550574 -5.231868 29.451348 41.350811 0.181238 0.778124 0.009757 -0.009448 459104.000000 0 0 1
-28.240814 -6.317168 28.386768 40.537128 0.220067 0.795026 0.012751 -0.009209 -266032.000000 0 0 1
-28.932674 -6.225968 27.157868 40.167301 0.211956 0.828314 0.023176 -0.015856 15012.400000 0 0 1
-28.305614 -6.963268 26.109548 39.133149 0.241213 0.840356 0.044451 -0.014850 27754.200000 0 0 1
-28.996404 -6.613968 24.787658 38.716456 0.224259 0.875991 0.037002 -0.021939 -59731.000000 0 0 1
-28.629114 -5.327668 24.291208 37.921933 0.183988 0.875571 0.041809 -0.017383 266059.000000 0 0 1
-29.540384 -4.930668 23.280618 37.933270 0.165388 0.910026 0.053751 -0.022291 168408.000000 0 0 1
-29.124284 -3.573468 22.644418 37.064312 0.122087 0.913537 0.056461 -0.022515 -341789.000000 0 0 1
-28.009544 -3.703968 21.826318 35.702130 0.131477 0.913037 0.063778 -0.018175 -664861.000000 0 0 1
-27.422004 -2.460168 21.560718 34.969748 0.089476 0.906439 0.066750 -0.018414 -326788.000000 0 0 1
-26.032284 -2.657868 20.953218 33.522849 0.101746 0.895610 0.066536 -0.012904 -491381.000000 0 0 1
-26.021774 -3.263968 19.716318 32.810355 0.124781 0.926148 0.065361 -0.009995 390818.000000 0 0 1
-24.819654 -2.904268 19.013318 31.399940 0.116485 0.920376 0.052692 -0.017157 23337.900000 0 0 1
-24.582254 -3.735168 17.750218 30.550105 0.150792 0.950815 0.050110 -0.016443 -302335.000000 0 0 1
-25.593174 -3.676868 16.748118 30.806320 0.142690 0.996006 0.054837 -0.005332 183694.000000 0 0 1
-25.276944 -4.334868 15.568818 30.001718 0.169843 1.025197 0.054989 -0.004527 -33662.200000 0 0 1
-26.512634 -4.502368 14.649618 30.623559 0.168215 1.071990 0.050666 -0.004513 223672.000000 0 0 1
-26.901844 -3.228268 14.136618 30.561003 0.119431 1.089904 0.052552 -0.006948 1100090.000000 0 0 1
-28.169184 -3.399068 13.433218 31.392800 0.120086 1.128620 0.035390 -0.004969 1063850.000000 0 0 1
-28.617834 -2.221268 12.537818 31.322697 0.077463 1.158975 0.033588 -0.006880 -361442.000000 0 0 1
-27.690344 -1.986968 11.512918 30.054125 0.071634 1.177676 0.041039 -0.010590 -64166.800000 0 0 1
-27.934414 -0.835668 10.743718 29.940897 0.029906 1.203781 0.038407 -0.011411 -767786.000000 0 0 1
-29.169264 -0.849668 9.870118 30.805634 0.029121 1.244645 0.023187 -0.004398 -449892.000000 0 0 1
-29.057824 -1.584268 8.702418 30.374317 0.054467 1.280219 0.015972 -0.005209 467524.000000 0 0 1
-30.375444 -1.844168 8.233618 31.525561 0.060638 1.306559 0.009881 -0.003921 400320.000000 0 0 1
-30.423544 -2.447768 6.819318 31.274377 0.080283 1.350982 0.016496 -0.007983 -600889.000000 0 0 1
-29.979194 -1.667668 5.734118 30.568174 0.055570 1.382094 0.016865 -0.009934 186662.000000 0 0 1
-30.874774 -0.686268 5.291418 31.332439 0.022224 1.401103 0.014630 -0.008324 -449500.000000 0 0 1
-30.427744 0.005332 4.007118 30.690464 -0.000175 1.439857 0.017391 -0.015571 -77354.200000 0 0 1
-30.442094 -0.873668 2.934918 30.595720 0.028691 1.474723 0.026947 -0.019188 181060.000000 0 0 1
-29.893114 -0.343868 1.798818 29.949161 0.011503 1.510698 0.023358 -0.018373 -324358.000000 0 0 1
-30.569074 -0.946968 0.551318 30.588706 0.030968 1.552772 0.012327 -0.016856 -347426.000000 0 0 1
-31.888094 -0.510168 0.364418 31.894256 0.015997 1.559370 0.025087 -0.014402 -56056.900000 0 0 1
-32.454604 -1.158868 -0.789482 32.484882 0.035692 1.595102 0.033622 -0.017296 96783.200000 0 0 1
-33.959424 -0.876068 -0.988882 33.985112 0.025792 1.599898 0.045691 -0.019831 143773.000000 0 0 1
-34.823764 -1.514468 -0.047882 34.856713 0.043462 1.572170 0.033561 -0.014741 -232181.000000 0 0 1
34.756869 -1.361368 -0.420782 34.786065 -0.039148 1.582893 0.043943 -0.014278 -549534.000000 0 0 1
33.922119 -2.541968 0.128718 34.017471 -0.074796 1.567012 0.049910 -0.012309 -497975.000000 0 0 1
34.070049 -2.692968 1.544918 34.211213 -0.078878 1.525623 0.044585 -0.019692 526320.000000 0 0 1
33.421699 -3.917068 1.970118 33.708081 -0.116669 1.512317 0.041653 -0.016747 -115337.000000 0 0 1
33.590469 -4.299468 3.415718 34.036336 -0.127304 1.470272 0.043844 -0.021079 479626.000000 0 0 1
32.625469 -3.589668 4.202618 33.090315 -0.109586 1.443448 0.048198 -0.024744 520623.000000 0 0 1
32.864849 -4.070868 5.536418 33.575619 -0.123239 1.405146 0.045197 -0.022863 117992.000000 0 0 1
32.388469 -3.125468 6.713818 33.224341 -0.096202 1.367320 0.050899 -0.019152 75967.900000 0 0 1
30.992049 -2.934168 6.709218 31.845409 -0.094394 1.358525 0.060891 -0.018869 -201783.000000 0 0 1
30.651769 -1.929568 7.543318 31.625240 -0.062868 1.329953 0.060787 -0.014228 1285610.000000 0 0 1
29.104379 -1.910568 7.940418 30.228552 -0.065551 1.304998 0.058725 -0.012222 1055490.000000 0 0 1
28.280639 -1.272468 6.941918 29.147966 -0.044964 1.330324 0.069560 -0.013410 389347.000000 0 0 1
26.888369 -1.371568 7.159718 27.859059 -0.050966 1.310882 0.062018 -0.006419 380109.000000 0 0 1
26.257969 -2.782468 6.889818 27.289057 -0.105573 1.315559 0.075841 -0.018511 -819285.000000 0 0 1
26.510479 -3.602168 8.006018 27.926286 -0.135050 1.280033 0.057700 -0.020510 366865.000000 0 0 1
26.102919 -4.969768 7.810818 27.696026 -0.188140 1.284898 0.065837 -0.028972 -215270.000000 0 0 1
26.404809 -5.855568 9.024718 28.512228 -0.218230 1.248737 0.048568 -0.021831 -551918.000000 0 0 1
25.618439 -5.604968 10.167518 28.126473 -0.215393 1.200928 0.045110 -0.014295 635093.000000 0 0 1
26.011529 -6.416968 11.302818 29.078013 -0.241868 1.171569 0.037783 -0.014444 -840052.000000 0 0 1
24.924439 -6.283668 12.308018 28.499113 -0.246962 1.124227 0.022538 -0.014238 -847202.000000 0 0 1
23.748839 -6.969968 11.997918 27.505233 -0.285471 1.119419 0.028708 -0.021176 -687313.000000 0 0 1
22.742839 -6.706168 12.909318 26.997406 -0.286743 1.072228 0.038114 -0.021614 -368815.000000 0 0 1
21.673439 -7.776368 13.144518 26.513925 -0.344490 1.052088 0.040851 -0.025871 -392690.000000 0 0 1
22.143939 -8.922468 13.771818 27.561340 -0.383030 1.047568 0.034526 -0.027252 -64471.300000 0 0 1
21.209939 -9.978168 13.786918 27.193831 -0.439728 1.039111 0.062664 -0.040047 -383518.000000 0 0 1
21.693239 -11.106968 14.696818 28.459758 -0.473203 1.028146 0.042252 -0.032221 -466724.000000 0 0 1
21.672339 -10.779868 16.087218 29.063627 -0.461567 0.984215 0.045824 -0.027812 115353.000000 0 0 1
21.875239 -11.907568 16.889218 30.092556 -0.498487 0.974910 0.028461 -0.024228 -353127.000000 0 0 1
21.552739 -11.675968 18.373718 30.634006 -0.496479 0.927568 0.032369 -0.024258 356035.000000 0 0 1
20.173839 -11.435568 18.644018 29.754922 -0.515689 0.893631 0.027353 -0.033022 225174.000000 0 0 1
19.838139 -11.687368 20.008618 30.503953 -0.532393 0.855375 0.033555 -0.025795 176325.000000 0 0 1
20.372139 -10.718468 21.124518 31.243477 -0.484335 0.828305 0.023785 -0.019586 -81757.700000 0 0 1
19.672439 -9.502168 21.433318 30.605280 -0.449971 0.794958 0.026404 -0.020302 -176580.000000 0 0 1
19.840039 -8.485468 20.500618 29.764167 -0.404150 0.811007 0.021365 -0.011923 -1092990.000000 0 0 1
20.919239 -7.475968 20.967018 30.547021 -0.343228 0.814290 0.011951 0.001815 587615.000000 0 0 1
22.233839 -7.979468 21.160218 31.713882 -0.344571 0.840323 0.019580 -0.003810 261223.000000 0 0 1
22.916139 -8.138568 19.914018 31.431733 -0.341252 0.884645 0.013007 -0.012396 -881991.000000 0 0 1
24.235539 -8.914868 20.052318 32.694521 -0.352481 0.910535 0.003116 -0.007416 -150178.000000 0 0 1
24.044239 -10.207568 20.596918 33.264890 -0.401475 0.903100 0.000443 -0.016413 -529127.000000 0 0 1
25.194039 -10.929168 20.331518 34.169532 -0.409300 0.933507 0.006563 -0.016160 -458516.000000 0 0 1
25.065739 -12.409268 20.703718 34.798350 -0.459695 0.933577 -0.004381 -0.017055 -357635.000000 0 0 1
24.326739 -13.014368 19.703218 33.902519 -0.491240 0.950627 0.010421 -0.021172 -115529.000000 0 0 1
24.201639 -14.429968 19.940218 34.518917 -0.537650 0.954936 0.009928 -0.011463 -376304.000000 0 0 1
23.340939 -15.105068 18.909718 33.623503 -0.574368 0.973516 0.025082 -0.012938 -496029.000000 0 0 1
23.999839 -15.271068 17.657018 33.480861 -0.566683 1.015287 0.020673 -0.013351 930082.000000 0 0 1
23.097939 -15.845568 16.683118 32.602504 -0.601279 1.033619 -0.006048 -0.011297 258818.000000 0 0 1
22.689739 -17.319968 16.786918 33.115044 -0.651984 1.039180 -0.007427 -0.006019 -1048180.000000 0 0 1
23.733139 -18.181668 16.486218 34.141329 -0.653718 1.066854 0.008594 -0.002254 -446214.000000 0 0 1
23.320539 -19.539768 16.521018 34.620718 -0.697414 1.073330 0.010659 -0.001097 220137.000000 0 0 1
24.381839 -20.599868 16.067418 35.735005 -0.701517 1.104449 0.009056 0.008354 238529.000000 0 0 1
24.729339 -20.559468 14.682618 35.352669 -0.693584 1.142503 0.014319 -0.002251 -84627.000000 0 0 1
25.474939 -21.723068 14.440718 36.460918 -0.706073 1.163574 0.027342 -0.010455 -77154.100000 0 0 1
26.087769 -21.842968 13.003018 36.424791 -0.697067 1.205761 0.030352 -0.023987 215412.000000 0 0 1
25.038239 -21.872568 12.043718 35.360625 -0.718018 1.223245 0.015143 -0.012050 361440.000000 0 0 1
25.450739 -21.475368 10.726718 34.985626 -0.700884 1.259174 0.027440 -0.008614 -547395.000000 0 0 1
24.321639 -21.272468 9.719518 33.742096 -0.718621 1.278603 0.004231 -0.007659 -196958.000000 0 0 1
23.823439 -22.447068 9.083218 33.969574 -0.755661 1.300110 0.000894 -0.013294 260935.000000 0 0 1
22.434639 -22.588968 9.352118 33.181872 -0.788826 1.285081 -0.015748 -0.002644 707073.000000 0 0 1
21.686339 -23.629868 8.395018 33.153345 -0.828260 1.314791 -0.008382 0.000231 85810.500000 0 0 1
22.114639 -24.942568 8.747518 34.463140 -0.845422 1.314166 -0.010359 0.001111 117211.000000 0 0 1
21.713839 -25.931228 7.830718 34.716560 -0.873685 1.343277 0.002599 0.007425 -770137.000000 0 0 1
20.267339 -26.378598 7.780718 34.163358 -0.915670 1.341030 0.002852 0.018071 -167449.000000 0 0 1
19.334339 -25.398498 7.290918 32.742294 -0.920141 1.346238 0.004421 0.012859 -426511.000000 0 0 1
18.005639 -25.824388 7.347718 32.327867 -0.961929 1.341505 0.012814 -0.007503 -788806.000000 0 0 1
17.061139 -24.671368 7.241518 30.857713 -0.965774 1.333913 0.010504 -0.007921 -779698.000000 0 0 1
16.866039 -24.099168 5.971218 30.014807 -0.960164 1.370518 0.013461 -0.010734 51376.400000 0 0 1
16.127239 -22.906368 6.055218 28.661040 -0.957357 1.357922 0.017085 -0.007532 -142838.000000 0 0 1
15.748039 -22.239668 4.736518 27.659323 -0.954651 1.398703 0.026208 -0.002180 33246.000000 0 0 1
15.168139 -20.945168 4.962118 26.332397 -0.944024 1.381221 0.038575 -0.003572 2645.540000 0 0 1
14.822439 -20.413868 3.708318 25.498673 -0.942770 1.424847 0.037735 -0.003970 516834.000000 0 0 1
13.963039 -19.084868 3.855918 23.959690 -0.939157 1.409160 0.025058 0.000322 119099.000000 0 1 0
14.753439 -18.073768 4.400118 23.742074 -0.886201 1.384389 0.017028 0.002290 13693.400000 0 1 0
14.180039 -16.794068 4.251218 22.387208 -0.869593 1.379741 0.000178 0.006305 682409.000000 0 1 0
15.311039 -15.672668 4.157418 22.301223 -0.797069 1.383278 0.009806 -0.001158 231982.000000 0 1 0
15.671339 -15.427068 5.484818 22.664256 -0.777544 1.326367 0.020111 -0.012811 -264007.000000 0 1 0
16.727639 -14.517668 5.555918 22.835166 -0.714786 1.325024 0.027527 -0.018959 -530700.000000 0 1 0
18.154139 -15.046868 5.582418 24.231062 -0.692080 1.338325 0.038643 -0.020746 -548053.000000 0 1 0
19.161039 -14.070268 5.741818 24.455804 -0.633388 1.333801 0.053981 -0.019349 -152754.000000 0 1 0
20.431939 -14.600568 5.457918 25.698825 -0.620454 1.356786 0.059163 -0.015108 490455.000000 0 0 1
21.491739 -13.398468 5.373618 25.889951 -0.557465 1.361720 0.052792 -0.021290 545908.000000 0 0 1
21.690139 -12.767168 6.619218 26.024541 -0.532007 1.313626 0.066483 -0.026689 204707.000000 0 0 1
22.849039 -11.968468 6.650718 26.637471 -0.482511 1.318451 0.071116 -0.024934 6845.800000 0 0 1
22.812939 -11.055868 7.900318 26.553294 -0.451277 1.268695 0.069552 -0.026866 -164105.000000 0 0 1
23.137739 -11.894868 9.031518 27.539266 -0.474856 1.236663 0.055236 -0.020636 421254.000000 0 0 1
23.206039 -11.126068 10.232418 27.694982 -0.447071 1.192360 0.059942 -0.024749 -95690.300000 0 0 1
23.701639 -12.035768 11.404718 28.925681 -0.469871 1.165516 0.039058 -0.020177 -175377.000000 0 0 1
22.766739 -13.010768 11.818318 28.762426 -0.519186 1.147361 0.049569 -0.025027 456637.000000 0 0 1
23.285439 -13.837568 12.826818 29.970272 -0.536187 1.128535 0.043231 -0.019502 674544.000000 0 0 1
22.228839 -15.016668 13.058018 29.835104 -0.594127 1.117787 0.031668 -0.021025 1387150.000000 0 0 1
21.054439 -14.508968 13.710918 29.013597 -0.603384 1.078593 0.028551 -0.033323 546662.000000 0 0 1
19.970339 -15.447968 13.677318 28.714512 -0.658401 1.074331 0.013538 -0.020654 -21920.400000 0 0 1
18.739939 -14.718268 14.189518 27.733647 -0.665772 1.033709 0.025041 -0.023388 -969822.000000 0 0 1
18.928039 -14.329868 15.568818 28.390207 -0.648011 0.990362 0.019807 -0.023762 417798.000000 0 0 1
18.391739 -12.987768 15.758918 27.482389 -0.614858 0.960124 0.032790 -0.038166 -622929.000000 0 0 1
16.906639 -12.742768 15.912918 26.484591 -0.645874 0.926249 0.045810 -0.037679 -559145.000000 0 0 1
16.123439 -13.012268 14.699818 25.404115 -0.679019 0.953737 0.050511 -0.044049 978252.000000 0 0 1
14.725139 -12.755768 14.804718 24.468735 -0.713857 0.920972 0.058400 -0.037626 718693.000000 0 1 0
14.290239 -11.307568 14.444818 23.253490 -0.669401 0.900537 0.041908 -0.031249 -393956.000000 0 1 0
14.820539 -10.486268 15.430018 23.826365 -0.615775 0.866362 0.022560 -0.019060 67767.800000 0 1 0
14.639239 -9.110568 15.300118 23.052188 -0.556683 0.845020 0.019379 -0.021999 -1237260.000000 0 1 0
15.203639 -8.136868 16.342918 23.758161 -0.491403 0.812223 0.022574 -0.014927 -430768.000000 0 1 0
16.604539 -8.175268 16.166618 24.574484 -0.457510 0.852820 0.018294 -0.025721 -181091.000000 0 1 0
17.323239 -9.036868 17.014718 25.908690 -0.480826 0.854337 0.031553 -0.021650 -396774.000000 0 0 1
18.830839 -8.835168 16.736818 26.697973 -0.438694 0.893235 0.024590 -0.020190 -143285.000000 0 0 1
19.373939 -7.675568 17.319918 27.096926 -0.377209 0.877360 0.019462 -0.025800 656744.000000 0 0 1
20.518739 -7.285568 16.520418 27.331710 -0.341183 0.921732 0.016656 -0.012534 557539.000000 0 0 1
21.071339 -5.936168 17.032418 27.737027 -0.274601 0.909592 0.012581 -0.011864 -305570.000000 0 0 1
21.751239 -5.928468 18.256518 29.009715 -0.266094 0.890113 0.016104 -0.008613 99009.600000 0 0 1
21.944739 -4.626368 18.792518 29.259761 -0.207776 0.873347 0.018807 -0.009801 -228694.000000 0 0 1
-5.451254 -33.310593 -6.737106 34.419477 1.408585 1.767804 0.002042 0.003869 412437.000000 0 0 1
-6.369554 -32.231393 -6.423306 33.476750 1.375691 1.763867 -0.002817 -0.003194 414933.000000 0 0 1
-6.059454 -31.537493 -5.193406 32.531553 1.380975 1.731124 -0.011615 -0.000792 -770000.000000 0 0 1
-6.656954 -30.099893 -5.028906 31.234732 1.353138 1.732504 -0.000253 0.001595 490503.000000 0 0 1
-8.058454 -29.955693 -4.891206 31.403919 1.308005 1.727184 0.004926 -0.000266 49188.200000 0 0 1
-8.818954 -30.373293 -6.003406 32.192418 1.288214 1.758380 0.003125 -0.004445 -943716.000000 0 0 1
-10.322754 -30.118093 -5.756506 32.354229 1.240601 1.749670 0.002278 0.002668 -147417.000000 0 0 1
-11.044654 -30.677493 -6.831406 33.313077 1.225219 1.777328 0.005313 -0.000074 -388141.000000 0 0 1
-12.415854 -30.483593 -6.531406 33.556849 1.184016 1.766684 0.013958 -0.000680 204133.000000 0 0 1
-13.387854 -31.024893 -7.603706 34.635170 1.163416 1.792136 0.021816 -0.009905 48679.500000 0 0 1
-13.396854 -30.237293 -8.803506 34.223841 1.153731 1.830954 0.028899 -0.018093 -384454.000000 0 0 1
-14.473054 -30.598393 -9.605506 35.185177 1.128981 1.847305 0.039896 -0.018845 -350630.000000 0 0 1
-14.624454 -29.652093 -10.856906 34.799335 1.112602 1.888079 0.044457 -0.021257 -578960.000000 0 0 1
-14.961254 -28.245193 -10.752906 33.723212 1.083678 1.895320 0.049947 -0.022710 -149024.000000 0 0 1
-14.056254 -27.455993 -10.055806 32.442704 1.097630 1.885943 0.034633 -0.018895 -484733.000000 0 0 1
-14.650054 -26.035693 -9.748006 31.424592 1.058262 1.886203 0.033531 -0.006514 124912.000000 0 0 1
-14.811954 -25.235493 -10.869606 31.214939 1.040028 1.926466 0.036931 -0.017773 -70891.100000 0 0 1
-15.128554 -23.952193 -10.408206 30.181310 1.007455 1.922882 0.034418 -0.003341 -35696.700000 0 0 1
-15.887454 -23.080293 -11.489606 30.284025 0.967928 1.959939 0.039040 -0.000408 428617.000000 0 0 1
-17.242654 -23.499193 -11.555006 31.353458 0.937773 1.948234 0.044106 -0.007718 -33550.800000 0 0 1
-17.994154 -22.861693 -12.544806 31.683099 0.903979 1.977894 0.050713 -0.005376 453106.000000 0 0 1
-19.327254 -23.558693 -12.981706 33.122190 0.883747 1.973529 0.036709 -0.005041 281593.000000 0 0 1
-19.321054 -24.876493 -13.529006 34.280855 0.910438 1.976485 0.055405 -0.010020 -80012.100000 0 0 1
-18.905254 -25.849993 -12.564606 34.402036 0.939342 1.944675 0.057888 -0.010635 -1073300.000000 0 0 1
-19.098154 -27.342893 -12.927006 35.769830 0.961099 1.940559 0.055061 -0.015516 333477.000000 0 0 1
-18.249854 -27.922093 -13.967906 36.163557 0.991895 1.967351 0.063603 -0.021387 2354830.000000 0 0 1
-16.802654 -27.757793 -13.764006 35.245881 1.026466 1.971986 0.067602 -0.029980 1357770.000000 0 0 1
-16.034154 -28.983193 -14.330106 36.089770 1.065482 1.979117 0.060514 -0.026556 -317723.000000 0 0 1
-16.114154 -29.286493 -15.697406 36.929300 1.067781 2.009832 0.063215 -0.032639 -82909.700000 0 0 1
-15.357254 -30.395593 -16.156406 37.693060 1.102961 2.013773 0.058028 -0.023317 -107867.000000 0 0 1
-15.972854 -31.752493 -15.834606 38.911279 1.104718 1.989899 0.065054 -0.024784 -158691.000000 0 0 1
-16.049054 -31.956493 -14.429606 38.561679 1.105378 1.954325 0.066983 -0.026411 119562.000000 0 0 1
-16.326954 -33.295493 -14.105206 39.675132 1.114886 1.934264 0.055168 -0.023094 -856879.000000 0 0 1
-16.807954 -33.560193 -12.657106 39.610557 1.106485 1.896039 0.058035 -0.024193 1161880.000000 0 0 1
-18.161654 -33.220393 -12.266006 39.798179 1.070489 1.884102 0.059833 -0.022996 1262790.000000 0 0 1
-18.691254 -31.904593 -12.487006 39.028084 1.040847 1.896472 0.061718 -0.025420 -169598.000000 0 0 1
-18.223354 -30.788793 -11.450706 37.565397 1.036367 1.880546 0.066909 -0.024291 -203360.000000 0 0 1
-18.602754 -30.986493 -10.115506 37.530636 1.030119 1.843698 0.052841 -0.019109 77072.400000 0 0 1
-18.210854 -29.902493 -9.332306 36.233772 1.023780 1.831291 0.055548 -0.015466 -162910.000000 0 0 1
-18.488154 -30.158893 -7.831306 36.231202 1.020855 1.788664 0.050548 -0.009113 -73544.100000 0 0 1
-17.605454 -31.129393 -7.353906 36.511246 1.056087 1.773598 0.040292 -0.009988 -200253.000000 0 0 1
-17.683854 -31.284393 -5.974206 36.429700 1.056312 1.735533 0.048453 -0.012577 -224790.000000 0 0 1
-16.905154 -32.521993 -5.496006 37.063059 1.091429 1.719633 0.045919 -0.012978 495818.000000 0 0 1
-15.574154 -32.250293 -5.054306 36.168794 1.120910 1.710997 0.046109 -0.006513 491387.000000 0 0 1
-15.533054 -32.063693 -3.673306 35.816886 1.119671 1.673535 0.034097 -0.006578 -372466.000000 0 0 1
-14.233554 -31.455993 -3.145906 34.669443 1.145873 1.661661 0.035134 -0.006108 1137490.000000 0 0 1
-12.985454 -32.210493 -3.255806 34.881774 1.187583 1.664271 -0.000325 -0.005426 728597.000000 0 0 1
-12.003954 -31.562993 -2.521306 33.862582 1.207372 1.645322 0.007487 0.000369 -81031.100000 0 0 1
-10.655254 -32.302993 -2.355806 34.096446 1.252181 1.639944 0.013717 -0.003272 -362142.000000 0 0 1
-10.692154 -33.417193 -1.443806 35.115745 1.261130 1.611924 0.014023 -0.000418 33934.000000 0 0 1
-9.435454 -34.043893 -1.237706 35.348923 1.300427 1.605817 0.014933 -0.002728 12108.800000 0 0 1
-8.400754 -33.333293 -0.352706 34.377398 1.323915 1.581056 0.020466 -0.008529 -418627.000000 0 0 1
-8.827954 -33.113693 0.940594 34.283147 1.310261 1.543357 0.031924 -0.006651 336526.000000 0 0 1
-7.737154 -32.682993 1.779594 33.633444 1.338342 1.517860 0.030339 -0.005724 881393.000000 0 0 1
-6.964754 -33.878493 2.427594 34.672083 1.368041 1.500723 0.036747 -0.013048 -147999.000000 0 0 1
-7.692354 34.494532 3.428694 35.507760 -1.351384 1.474084 0.056408 -0.017861 146659.000000 0 0 1
-6.900554 33.599232 4.213794 34.558387 -1.368235 1.448560 0.053414 -0.010639 -133915.000000 0 0 1
-6.064054 34.210132 5.319194 35.148253 -1.395360 1.418877 0.058907 -0.008094 -528628.000000 0 0 1
-4.872354 -34.297893 4.841894 34.978983 1.429681 1.431927 0.051285 -0.018625 -964027.000000 0 0 1
-4.147754 -33.604393 5.772994 34.348021 1.447989 1.401921 0.034300 -0.019345 -655273.000000 0 0 1
-2.965654 -32.848593 5.193794 33.388631 1.480758 1.414606 0.034805 -0.016466 -521079.000000 0 0 1
-3.330554 -31.678493 4.455494 32.163192 1.466045 1.431822 0.023489 -0.008400 155330.000000 0 0 1
-3.446054 -31.913693 3.060394 32.244769 1.463233 1.475742 0.021166 -0.002334 -52406.700000 0 0 1
-4.147454 -30.750093 2.341594 31.116759 1.436729 1.495473 0.008277 0.000388 309981.000000 0 0 1
-3.343354 -29.593293 2.539594 29.889640 1.458297 1.485728 0.000074 -0.003686 194185.000000 0 0 1
-3.909254 -28.485793 1.863594 28.813116 1.434413 1.506072 -0.000646 -0.001353 213723.000000 0 0 1
-3.334254 -27.113093 2.333394 27.416816 1.448435 1.485585 0.003919 0.001601 157108.000000 0 0 1
-3.817654 -25.990293 1.618294 26.318980 1.424952 1.509270 0.008420 -0.002987 -271805.000000 0 0 1
-3.252154 -24.802493 2.096994 25.102541 1.440418 1.487162 -0.000024 -0.000591 -168148.000000 0 0 1
-4.103754 -24.145793 3.187394 24.698575 1.402448 1.441384 -0.009130 0.003959 -281689.000000 0 1 0
-4.182154 -24.851693 4.425294 25.586721 1.404074 1.396970 -0.001850 0.006835 58690.600000 0 0 1
-4.941554 -24.137993 5.396894 25.222770 1.368866 1.355160 -0.011441 0.015142 46350.800000 0 0 1
-5.510754 -25.155893 6.441994 26.545935 1.355139 1.325676 -0.003759 0.015356 -571689.000000 0 0 1
-4.642554 -25.565493 7.471794 27.036558 1.391159 1.290793 -0.009352 0.007223 119335.000000 0 0 1
-5.250754 -26.643493 8.247894 28.380872 1.376215 1.275927 -0.004542 0.003313 383306.000000 0 0 1
-4.397854 -27.104993 9.450294 29.040142 1.409946 1.239339 -0.003537 0.010967 -8088.170000 0 0 1
-4.011154 -26.258493 10.487694 28.558528 1.419212 1.194762 0.001719 0.006301 -161371.000000 0 0 1
-5.077654 -25.881093 11.330694 28.705368 1.377065 1.165029 0.000498 0.006439 -170.565000 0 0 1
-4.624254 -24.975093 12.447194 28.285538 1.387715 1.115136 -0.012331 0.005480 168300.000000 0 0 1
-3.742654 -25.650493 13.341194 29.153777 1.425909 1.095486 -0.014649 0.008509 -31263.600000 0 0 1
-2.996354 -24.686693 14.066594 28.570615 1.450012 1.056015 -0.012156 0.006175 -262976.000000 0 0 1
-2.138554 -25.322793 15.113194 29.567311 1.486545 1.034279 0.011768 -0.002424 -63606.000000 0 0 1
-2.900754 -25.729193 16.222594 30.554514 1.458529 1.011088 0.006903 0.000896 157382.000000 0 0 1
-2.056754 -26.637293 16.886194 31.605683 1.493736 1.007144 0.002801 0.009438 289652.000000 0 0 1
-2.572654 -27.075993 18.260494 32.759328 1.476065 0.979529 0.018667 -0.009100 -211995.000000 0 0 1
-2.756954 -26.004993 19.141494 32.407673 1.465175 0.938936 0.021567 -0.004735 -237630.000000 0 0 1
-2.627154 -26.359593 20.531194 33.515072 1.471458 0.911456 0.028714 -0.013557 48864.200000 0 0 1
-2.767054 -25.136893 21.465394 33.170516 1.461158 0.866992 0.028207 -0.018423 -8346.770000 0 0 1
-2.325654 -25.423493 22.805394 34.232275 1.479574 0.841700 0.001754 -0.020661 41372.500000 0 0 1
-2.464354 -24.418993 23.819794 34.201504 1.470217 0.800351 0.004729 -0.014888 70759.000000 0 0 1
-1.590554 -23.152093 23.580394 33.084502 1.502204 0.777410 0.009403 -0.013260 163350.000000 0 0 1
-2.141854 -22.192093 22.731894 31.840470 1.474580 0.775700 0.026418 -0.008287 -263692.000000 0 0 1
-1.109254 -21.314293 22.351794 30.905214 1.518801 0.762318 0.022648 -0.006332 -209574.000000 0 0 1
-1.601054 -20.005893 21.682294 29.545237 1.490937 0.746798 0.015081 0.004371 -388236.000000 0 0 1
-2.359254 -19.038393 22.400894 29.492822 1.447504 0.708195 0.019405 -0.001304 -308414.000000 0 0 1
-3.633454 -19.441193 22.810394 30.190662 1.386033 0.714311 0.020639 -0.004392 -418985.000000 0 0 1
-4.733654 -19.321093 21.677794 29.421742 1.330530 0.742479 0.021208 -0.001978 -280127.000000 0 0 1
-4.598354 -20.260693 20.572594 29.238197 1.347618 0.790316 0.030730 0.001634 -33850.300000 0 0 1
-5.149254 -21.553493 20.848094 30.425498 1.336286 0.815894 0.024848 0.001628 181147.000000 0 0 1
-4.898954 -22.279193 19.535394 30.033212 1.354352 0.862607 0.022832 0.001352 12489.900000 0 0 1
-5.372554 -23.584493 19.684694 31.186212 1.346818 0.887699 0.022499 -0.003500 -175729.000000 0 0 1
-5.286354 -24.243793 18.409794 30.897048 1.356107 0.932481 0.023192 -0.003859 -40398.900000 0 0 1
-5.974854 -25.642693 18.349694 32.092957 1.341877 0.962138 0.017073 -0.009087 145099.000000 0 0 1
-7.386054 -25.571693 18.305094 32.303897 1.289612 0.968359 0.033037 -0.009656 -104575.000000 0 0 1
-8.013554 -26.857293 18.089194 33.357910 1.280831 0.997653 0.038329 -0.011069 1720300.000000 0 0 1
-9.593454 -26.821593 18.167194 33.785783 1.227299 1.003069 0.029340 -0.010428 1434560.000000 0 0 1
-10.308154 -26.118193 17.115794 32.884167 1.194890 1.023375 0.040340 -0.008094 1677540.000000 0 0 1
-11.756654 -26.183193 17.096694 33.407716 1.148762 1.033566 0.034796 -0.012785 1607400.000000 0 0 1
-12.540154 -25.364493 18.126294 33.603207 1.111640 1.001046 0.044997 -0.016407 -582524.000000 0 0 1
-12.538154 -24.010993 17.735794 32.377330 1.089560 0.991083 0.042871 -0.017497 -60749.400000 0 0 1
-12.795954 -23.152393 18.886194 32.503201 1.065895 0.950770 0.033613 -0.008940 -267389.000000 0 0 1
-11.531354 -22.562393 19.527394 31.989886 1.098318 0.914201 0.016969 -0.010065 320345.000000 0 0 1
-10.793254 -23.508093 20.346894 32.910802 1.140376 0.904290 0.016061 -0.014070 615465.000000 0 0 1
-9.398054 -23.407493 20.098794 32.252065 1.189000 0.897996 0.018860 -0.014774 325533.000000 0 0 1
-8.454254 -24.276993 20.921594 33.144530 1.235689 0.887667 0.011430 -0.018067 -209539.000000 0 0 1
-8.465954 -23.934193 22.332794 33.812301 1.230813 0.849321 0.011245 -0.012539 -107797.000000 0 0 1
-7.734354 -24.803293 23.140494 34.792327 1.268524 0.843164 0.007037 -0.008813 -128137.000000 0 0 1
-7.550654 -24.324493 24.566994 35.386870 1.269813 0.803432 0.005217 -0.015223 -418037.000000 0 0 1
-6.799854 -25.129893 25.378594 36.356878 1.306536 0.798138 0.013205 -0.014926 -480960.000000 0 0 1
-6.728854 -24.596293 26.696994 36.918621 1.303758 0.762472 0.022082 -0.012957 -375954.000000 0 0 1
-5.578454 -25.140093 27.561794 37.719967 1.352440 0.751457 0.014803 -0.015137 -745246.000000 0 0 1
-4.381854 -24.526893 27.202194 36.888054 1.394006 0.741545 0.014793 -0.010372 -1076980.000000 0 0 1
-3.336954 -24.816993 28.083294 37.625654 1.437136 0.728180 0.020846 -0.002950 78420.800000 0 0 1
-2.029754 -24.191093 27.509894 36.689551 1.487087 0.723034 0.012214 -0.000947 -572066.000000 0 0 1
-2.043854 -22.759093 27.595594 35.828347 1.481233 0.691615 0.011331 -0.005016 139220.000000 0 0 1
-0.907554 -22.116693 27.034294 34.940304 1.529785 0.686091 0.008213 -0.007055 -68566.800000 0 0 1
0.269646 -21.982793 27.998594 35.598275 -1.558531 0.665650 0.007883 -0.000425 -595984.000000 0 0 1
0.820546 -23.265793 28.372494 36.701074 -1.535543 0.687130 0.013037 0.005904 186502.000000 0 0 1
1.750446 -22.987693 29.418694 37.375897 -1.494796 0.664698 0.005743 -0.001639 72720.600000 0 0 1
2.161246 -24.294493 30.139194 38.771954 -1.482070 0.680362 0.025619 -0.009331 -741808.000000 0 0 1
3.012946 -25.128193 29.359794 38.762114 -1.451463 0.711420 0.013408 -0.008995 174177.000000 0 0 1
3.765746 -26.011093 30.145694 39.994008 -1.427021 0.717038 0.007909 0.002696 -117182.000000 0 0 1
5.065446 -25.297893 30.698594 40.100447 -1.373178 0.698912 -0.003071 -0.004271 -435931.000000 0 0 1
6.023346 -24.834393 29.821194 39.272527 -1.332851 0.708498 0.009785 -0.008196 -170715.000000 0 0 1
6.614546 -25.729793 28.907094 39.260598 -1.319168 0.743229 0.006603 -0.000964 -277244.000000 0 0 1
7.796546 -25.130693 28.067894 38.472647 -1.269972 0.753126 0.016752 -0.004333 523829.000000 0 0 1
7.403546 -24.153293 27.090094 37.041426 -1.273366 0.750503 0.022449 -0.002588 435970.000000 0 0 1
8.534846 -23.829493 26.296894 36.499520 -1.226868 0.766313 0.024321 0.004973 191691.000000 0 0 1
8.351546 -22.535593 25.512294 35.049657 -1.215894 0.755557 0.031276 0.005852 401014.000000 0 0 1
7.408246 -22.791893 24.449394 34.236317 -1.256529 0.775407 0.015573 0.007883 498359.000000 0 0 1
7.366446 -21.761693 23.519194 32.878387 -1.244398 0.773687 0.021253 0.022935 -149438.000000 0 0 1
6.485746 -22.007493 22.311794 32.003294 -1.284203 0.799351 0.011382 0.017124 -24495.300000 0 0 1
7.132246 -23.005493 21.513094 32.294502 -1.270169 0.841757 0.008096 0.009790 653442.000000 0 0 1
6.568146 -22.968893 20.199694 31.284792 -1.292271 0.868894 0.008400 0.003108 -277837.000000 0 0 1
7.293346 -23.981393 19.334394 31.656262 -1.275559 0.913776 0.029343 -0.018592 -15223.800000 0 0 1
8.574446 -23.514893 18.993394 31.420063 -1.221140 0.921660 0.050107 -0.015010 -760515.000000 0 0 1
9.257146 -24.372093 18.143194 31.762701 -1.207802 0.962816 0.034491 -0.019221 543639.000000 0 0 1
10.650646 -23.826093 17.678494 31.522185 -1.150427 0.975412 0.046436 -0.019198 516271.000000 0 0 1
10.604246 -22.670793 16.908994 30.204784 -1.133281 0.976638 0.071520 -0.020894 -304132.000000 0 0 1
11.613446 -22.511693 15.912794 29.914302 -1.094522 1.009899 0.053608 -0.024363 -23177.700000 0 0 1
-12.350054 22.804732 11.184094 28.242939 -1.074459 1.163644 0.018737 0.000833 288426.000000 0 0 1
-13.241554 21.676632 11.102294 27.721401 -1.022424 1.158739 0.012881 -0.008222 609789.000000 0 0 1
-12.588354 20.593332 10.457894 26.304363 -1.022122 1.161926 0.023383 -0.012917 -23028.800000 0 0 1
-13.458054 19.925732 9.390694 25.813546 -0.976765 1.198464 0.031734 -0.017577 -598392.000000 0 0 1
-13.726054 20.774932 8.290494 26.243754 -0.986934 1.249388 0.033199 -0.017297 245856.000000 0 0 1
-14.505854 20.179332 7.243794 25.886247 -0.947533 1.287177 0.029882 -0.014487 334916.000000 0 0 1
-16.023654 20.048032 7.484194 26.733766 -0.896505 1.287051 0.021147 -0.013973 -376025.000000 0 0 1
-16.461454 19.074332 8.440994 26.571789 -0.858794 1.247528 0.016186 -0.016513 -73601.600000 0 0 1
-17.855354 19.119432 8.634494 27.548518 -0.819572 1.251995 0.017960 -0.011980 -91002.800000 0 0 1
-18.319154 17.938632 9.556394 27.362576 -0.774904 1.214025 0.010149 -0.010374 -118145.000000 0 0 1
-18.338254 16.670832 8.943194 26.347465 -0.737806 1.224482 0.009409 -0.017752 473909.000000 0 0 1
-18.986554 15.858032 9.921994 26.653562 -0.695853 1.189356 0.017491 -0.018288 112725.000000 0 0 1
-17.948254 15.209832 10.907194 25.931558 -0.702998 1.136674 0.025999 -0.010555 188979.000000 0 0 1
-17.157454 14.258532 10.284394 24.565275 -0.693383 1.138832 0.022028 -0.003374 45421.700000 0 1 0
-16.490254 13.282332 11.145894 23.928639 -0.678065 1.086261 0.017636 -0.003704 236241.000000 0 1 0
-17.419154 12.324532 11.898994 24.431682 -0.615760 1.062109 0.025554 -0.002861 -190254.000000 0 1 0
-18.271354 11.625232 11.018594 24.298103 -0.566652 1.100135 0.025764 -0.004539 -110267.000000 0 1 0
-19.123854 10.771832 11.748894 24.895595 -0.512972 1.079322 0.034179 -0.009013 124088.000000 0 1 0
-20.109954 10.008132 10.836294 24.939892 -0.461782 1.121317 0.040496 -0.012326 159718.000000 0 1 0
-19.378654 8.969132 10.116194 23.628689 -0.433477 1.128372 0.026594 -0.012460 907093.000000 0 1 0
-18.891754 9.391932 8.874094 22.887907 -0.461361 1.172640 0.032234 -0.006398 -678995.000000 0 1 0
-19.930254 9.450532 7.725394 23.371121 -0.442779 1.233907 0.047070 -0.015416 -81841.000000 0 1 0
-20.307154 8.243332 7.157394 23.055613 -0.385610 1.255140 0.024799 -0.022312 269667.000000 0 1 0
-21.103754 8.531932 6.033294 23.549160 -0.384195 1.311707 0.027507 -0.021382 -179477.000000 0 1 0
-21.571654 7.254932 5.315894 23.371543 -0.324434 1.341336 0.053579 -0.018183 -58825.300000 0 1 0
-22.461954 6.507632 6.139094 24.178030 -0.281997 1.314074 0.060874 -0.019357 460122.000000 0 1 0
-22.283254 5.114032 5.942994 23.622360 -0.225595 1.316480 0.060132 -0.017513 -309258.000000 0 1 0
-23.413554 4.287432 6.633694 24.709967 -0.181111 1.299000 0.092591 -0.010798 -301901.000000 0 1 0
-24.593954 4.379732 5.901794 25.668576 -0.176234 1.338798 0.094874 -0.021426 -305684.000000 0 0 1
-24.911754 3.101432 5.346494 25.667087 -0.123859 1.360958 0.057309 -0.025004 90611.800000 0 0 1
-26.073884 3.277632 4.315794 26.631116 -0.125050 1.408020 0.058071 -0.020482 222726.000000 0 0 1
-25.545744 3.395432 3.014094 25.946074 -0.132141 1.454366 0.048187 -0.016971 -438619.000000 0 0 1
-26.513064 3.324732 2.052594 26.799432 -0.124749 1.494130 0.040396 -0.014667 -976184.000000 0 0 1
-26.013174 3.149932 0.596694 26.209985 -0.120503 1.548028 0.046944 -0.014576 -174095.000000 0 0 1
-25.420714 4.348432 0.037394 25.789978 -0.169419 1.569346 0.044615 -0.017242 492876.000000 0 0 1
-25.578624 4.581732 -1.370406 26.021842 -0.177244 1.623484 0.069881 -0.009120 531144.000000 0 0 1
-27.007654 4.966032 -1.900206 27.526090 -0.181844 1.639884 0.060523 -0.021073 386399.000000 0 0 1
-27.931154 3.927632 -1.922906 28.271420 -0.139702 1.638865 0.039409 -0.014978 930741.000000 0 0 1
-29.250444 4.457632 -2.256006 29.674037 -0.151232 1.646896 0.028590 -0.007897 1358780.000000 0 0 1
-30.288314 3.273532 -2.280606 30.549945 -0.107661 1.645518 0.023015 -0.005655 -191524.000000 0 0 1
-30.344654 2.632332 -3.568506 30.666943 -0.086531 1.687424 0.023516 -0.007670 173440.000000 0 0 1
-31.101174 1.470732 -3.561906 31.339005 -0.047253 1.684700 0.038287 -0.013665 -500476.000000 0 0 1
-31.132564 0.932032 -4.996206 31.544687 -0.029929 1.729851 0.036925 -0.011905 -723731.000000 0 0 1
-29.848434 0.535432 -5.422306 30.341672 -0.017936 1.750470 0.042148 -0.012430 254920.000000 0 0 1
-29.845964 -0.188068 -6.604606 30.568574 0.006301 1.788572 0.041567 -0.009247 -247489.000000 0 0 1
-30.319684 0.474332 -7.900006 31.335576 -0.015643 1.825656 0.047707 -0.010266 -570496.000000 0 0 1
-31.704324 0.563332 -8.094106 32.726076 -0.017766 1.820719 0.048718 -0.011949 -86165.600000 0 0 1
-32.053414 1.360332 -9.168606 33.366677 -0.042414 1.849161 0.061181 -0.017681 -375885.000000 0 0 1
-33.568544 1.616432 -9.137606 34.827515 -0.048116 1.836271 0.068328 -0.020024 -214511.000000 0 0 1
-33.959904 2.467532 -8.079406 34.994865 -0.072533 1.803772 0.052652 -0.011549 -102324.000000 0 0 1
-35.331337 2.377132 -7.820406 36.264485 -0.067180 1.788153 0.056337 -0.012247 -619602.000000 0 0 1
35.039448 3.449932 -6.895606 35.877769 0.098142 1.764197 0.061125 -0.015334 -449409.000000 0 0 1
33.666899 3.257632 -6.668106 34.475149 0.096460 1.765441 0.066810 -0.016404 -157426.000000 0 0 1
33.210999 4.187232 -5.729906 33.960789 0.125418 1.740328 0.059944 -0.026779 -436610.000000 0 0 1
31.847579 3.707932 -5.238506 32.487828 0.115906 1.732749 0.063200 -0.025738 -386078.000000 0 0 1
32.013519 2.582232 -4.456206 32.425161 0.080486 1.708663 0.072462 -0.031455 -589338.000000 0 0 1
30.825699 1.871632 -4.381206 31.191693 0.060642 1.711723 0.078179 -0.027655 -689511.000000 0 0 1
30.890449 0.501032 -3.595406 31.103019 0.016218 1.686652 0.087521 -0.020752 -319539.000000 0 0 1
31.617299 -0.487368 -4.255106 31.906066 -0.015413 1.704558 0.064474 -0.025220 158838.000000 0 0 1
31.438629 -1.659668 -3.526606 31.679312 -0.052742 1.682350 0.065618 -0.012990 -96661.300000 0 0 1
32.686829 -2.544268 -3.657906 32.989125 -0.077681 1.681907 0.044519 -0.012380 -57292.400000 0 0 1
32.476109 -3.826068 -3.152506 32.852317 -0.117271 1.666904 0.043227 -0.011260 234538.000000 0 0 1
33.636939 -4.632868 -3.330106 34.117396 -0.136870 1.668559 0.048386 -0.015959 219519.000000 0 0 1
33.522639 -6.070968 -2.848206 34.186785 -0.179159 1.654206 0.048253 -0.013915 -148831.000000 0 0 1
33.451359 -6.150768 -1.407506 34.041246 -0.181841 1.612155 0.053445 -0.016148 -111479.000000 0 0 1
33.575219 -7.525068 -1.015606 34.423153 -0.220482 1.600304 0.051336 -0.014518 33306.600000 0 0 1
33.173839 -7.650368 0.526894 34.048632 -0.226652 1.555321 0.045697 -0.009576 923925.000000 0 0 1
31.775609 -7.337768 0.721394 32.619819 -0.226946 1.548679 0.049525 -0.021470 659577.000000 0 0 1
31.300119 -7.601868 1.998294 32.271954 -0.238257 1.508836 0.045682 -0.032563 -514043.000000 0 0 1
31.062339 -9.066468 2.445294 32.450720 -0.283990 1.495371 0.048083 -0.034781 358106.000000 0 0 1
30.022769 -9.905268 1.838594 31.667987 -0.318680 1.512705 0.045095 -0.040923 226001.000000 0 0 1
28.772979 -9.519368 2.290094 30.393210 -0.319508 1.495376 0.044447 -0.046767 -2835520.000000 0 0 1
27.677379 -10.573468 2.129194 29.704697 -0.364916 1.499056 0.052022 -0.041378 -694568.000000 0 0 1
26.396469 -10.271768 2.664894 28.449683 -0.371104 1.476988 0.062696 -0.039194 679385.000000 0 0 1
25.770439 -9.154468 2.052094 27.425005 -0.341328 1.495901 0.071732 -0.037218 -1579720.000000 0 0 1
25.128439 -9.425568 0.671594 26.846430 -0.358855 1.545778 0.058344 -0.030193 -631505.000000 0 0 1
26.016549 -9.528668 -0.456306 27.710369 -0.351081 1.587264 0.057098 -0.038327 560602.000000 0 0 1
25.342739 -9.627068 -1.696306 27.162701 -0.363038 1.633287 0.043054 -0.025600 -620480.000000 0 0 1
24.844739 -11.001268 -1.981406 27.243622 -0.416851 1.643590 0.036609 -0.015845 -992366.000000 0 0 1
23.587739 -11.205168 -1.432106 26.153167 -0.443483 1.625582 0.041249 -0.012107 -643728.000000 0 0 1
23.239939 -12.585768 -1.575806 26.476017 -0.496339 1.630350 0.033912 -0.006496 -1137200.000000 0 0 1
21.812739 -12.844968 -1.195906 25.342040 -0.532199 1.618004 0.045600 -0.002986 -1467760.000000 0 0 1
20.907739 -12.352168 -2.127006 24.376910 -0.533623 1.658162 0.032340 -0.000359 -227840.000000 0 1 0
19.607739 -12.785168 -1.773206 23.474842 -0.577813 1.646405 0.043780 0.007159 490635.000000 0 1 0
18.449939 -12.315568 -2.719806 22.348843 -0.588588 1.692797 0.034720 0.005470 424999.000000 0 1 0
18.500539 -12.975368 -3.962006 22.941831 -0.611632 1.744364 0.023862 -0.001926 308723.000000 0 1 0
17.567139 -12.352268 -4.817706 22.008934 -0.612834 1.791481 0.029081 -0.007073 -237762.000000 0 1 0
17.502539 -12.849068 -6.292106 22.605929 -0.633264 1.852860 0.019485 -0.008780 -416597.000000 0 1 0
16.768239 -14.039368 -6.512806 22.818728 -0.697051 1.860236 0.023542 -0.014515 198613.000000 0 1 0
16.690339 -14.293768 -7.926206 23.360307 -0.708203 1.916971 0.022395 -0.023012 -598253.000000 0 1 0
15.740939 -15.414368 -8.366606 23.566501 -0.774917 1.933733 0.022172 -0.021149 1985.180000 0 1 0
14.380539 -14.974868 -8.348906 22.377462 -0.805641 1.953138 0.023548 -0.016260 599044.000000 0 1 0
13.544639 -15.839368 -9.094606 22.738836 -0.863334 1.982269 0.022338 -0.017558 -71215.200000 0 1 0
13.409039 -15.614168 -10.666506 23.181435 -0.861231 2.048940 0.027165 -0.025712 -554592.000000 0 1 0
12.642039 -14.490368 -11.102806 22.205049 -0.853416 2.094410 0.006825 -0.025970 375787.000000 0 1 0
13.268839 -13.220768 -10.907506 21.675435 -0.783583 2.098117 0.020975 -0.015086 -191275.000000 0 1 0
13.275939 -12.264668 -12.123606 21.763604 -0.745824 2.161636 0.033954 -0.016604 -361217.000000 0 1 0
14.276739 -12.696668 -13.006006 23.112482 -0.726886 2.168477 0.023104 -0.009969 -117368.000000 0 1 0
14.214539 -11.959868 -14.204806 23.385211 -0.699470 2.223614 0.035311 -0.010266 -223608.000000 0 1 0
15.559939 -11.932668 -14.969206 24.669361 -0.654220 2.222817 0.025780 -0.014405 -41052.700000 0 1 0
16.022839 -13.194468 -15.315906 25.795394 -0.688894 2.206502 0.012702 -0.008332 -323375.000000 0 0 1
17.044239 -13.021968 -16.263406 26.917951 -0.652407 2.219538 0.012024 -0.001581 -478692.000000 0 0 1
18.144239 -14.092168 -16.187206 28.103883 -0.660355 2.184596 0.013146 0.002154 -613034.000000 0 0 1
18.852139 -14.091468 -14.995806 27.907827 -0.641882 2.138068 0.014215 -0.014292 -1173580.000000 0 0 1
19.958439 -14.883868 -15.089406 29.112866 -0.640771 2.115667 0.009520 -0.002168 -1024270.000000 0 0 1
20.920939 -14.542768 -13.912406 29.029861 -0.607450 2.070590 0.009938 -0.009782 -135299.000000 0 0 1
21.459639 -13.250568 -13.914806 28.804782 -0.553162 2.074957 0.005789 -0.012399 190150.000000 0 0 1
22.478739 -13.061668 -12.947006 29.043516 -0.526382 2.032841 0.011598 -0.003859 385600.000000 0 0 1
23.212639 -11.691068 -12.931906 29.030017 -0.466564 2.032492 0.021239 -0.008141 -290797.000000 0 0 1
22.384139 -10.588768 -12.559606 27.765363 -0.441854 2.040193 0.017827 -0.011685 491939.000000 0 0 1
22.978239 -9.292968 -12.793406 27.893188 -0.384315 2.047280 0.024385 -0.014038 146088.000000 0 0 1
24.252339 -8.976068 -11.969506 28.495874 -0.354478 2.004290 0.031038 -0.011182 103246.000000 0 0 1
25.409839 -9.739368 -12.251006 29.842961 -0.366020 1.993816 0.017044 -0.004762 447611.000000 0 0 1
26.438849 -9.347568 -11.324206 30.242807 -0.339838 1.954592 0.015506 -0.003490 -559657.000000 0 0 1
27.751139 -10.066468 -11.551506 31.700107 -0.347980 1.943784 0.013218 -0.000078 -695219.000000 0 0 1
28.382319 -9.558668 -12.710206 32.534190 -0.324852 1.972158 0.010066 -0.002066 -965901.000000 0 0 1
29.620399 -10.107968 -12.900806 33.852176 -0.328859 1.961774 0.010350 0.002004 -1110150.000000 0 0 1
30.266489 -9.627768 -14.247706 34.810220 -0.307978 1.992479 0.012194 0.003609 -245148.000000 0 0 1
29.659429 -10.198068 -15.402606 34.941703 -0.331176 2.027296 0.010549 -0.002333 547913.000000 0 0 1
30.286559 -9.736568 -16.613306 35.889808 -0.311046 2.052058 0.005802 -0.007272 130120.000000 0 0 1
29.670469 -10.412268 -17.874106 36.169541 -0.337503 2.087683 -0.000133 -0.004515 931808.000000 0 0 1
28.364589 -9.971968 -18.281006 35.187856 -0.338067 2.117092 0.000945 -0.005906 924333.000000 0 0 1
28.452519 -8.890268 -19.152206 35.431479 -0.302848 2.141878 0.006820 -0.005787 555323.000000 0 0 1
27.078679 -8.476968 -19.818006 34.610218 -0.303385 2.180477 -0.020959 0.000248 889879.000000 0 0 1
26.632149 -9.330568 -20.878606 35.103376 -0.336986 2.207782 -0.017232 0.005668 -561601.000000 0 0 1
25.285339 -9.111768 -21.075406 34.154728 -0.345872 2.235793 -0.005360 0.013320 -1027000.000000 0 0 1
24.675439 -9.790168 -22.289506 34.663334 -0.377708 2.269242 -0.000285 0.012158 -58827.900000 0 0 1
24.812739 -11.182468 -22.379206 35.235614 -0.423415 2.258974 -0.001542 0.015066 -369224.000000 0 0 1
23.873239 -11.630368 -23.274006 35.311136 -0.453332 2.290434 0.003990 0.012456 -1280500.000000 0 0 1
24.045839 -13.141468 -23.636606 36.188253 -0.500165 2.282542 0.002054 0.023844 1032630.000000 0 0 1
25.275339 -13.463068 -24.321606 37.571764 -0.489430 2.274882 0.003433 0.019674 605172.000000 0 0 1
26.474849 -13.305168 -23.602306 37.881578 -0.465693 2.243439 -0.004534 0.024287 -660799.000000 0 0 1
27.653509 -14.001968 -24.327806 39.403221 -0.468704 2.236238 -0.005365 0.020920 -108870.000000 0 0 1
28.003289 -13.329468 -25.501216 40.151848 -0.444261 2.258959 0.002943 -0.001242 1288070.000000 0 0 1
29.376119 -13.678668 -25.849496 41.451885 -0.435783 2.244139 -0.006308 -0.001095 1353870.000000 0 0 1
29.939289 -12.971868 -27.086876 42.406712 -0.408857 2.263656 0.002361 -0.001203 -55702.600000 0 0 1
29.562469 -13.527568 -28.321986 43.116929 -0.429150 2.287449 0.006010 -0.001290 189918.000000 0 0 1
30.483519 -13.181268 -29.340486 44.315402 -0.408127 2.294391 0.010523 -0.002550 162036.000000 0 0 1
30.468679 -14.169668 -30.520636 45.394153 -0.435304 2.308172 0.009003 -0.009428 218626.000000 0 0 1
31.256419 -15.350868 -30.400866 46.225810 -0.456524 2.288505 0.018113 -0.010678 -2046.260000 0 0 1
31.645169 -16.053568 -31.580276 47.502080 -0.469470 2.298048 -0.012059 -0.008800 27212.800000 0 0 1
30.516199 -16.737068 -32.392326 47.546089 -0.501664 2.320310 -0.013663 0.000279 112106.000000 0 0 1
29.642049 -15.899068 -33.104616 47.194778 -0.492318 2.348221 -0.013129 0.001993 -139252.000000 0 0 1
28.528949 -16.685568 -33.492326 47.053640 -0.529216 2.362840 -0.000171 0.003506 -100636.000000 0 0 1
27.497279 -15.948568 -34.357825 46.807236 -0.525588 2.395031 0.020103 -0.000091 -131758.000000 0 0 1
26.834789 -14.840868 -33.759236 45.607491 -0.505179 2.404183 0.026425 -0.007412 262812.000000 0 0 1
27.611699 -13.625568 -33.808526 45.728311 -0.458411 2.402878 0.022391 -0.004465 145600.000000 0 0 1
26.846459 -12.254368 -33.591946 44.713764 -0.428214 2.420775 0.029141 -0.005164 686702.000000 0 0 1
25.951259 -11.825568 34.220994 44.546474 -0.427571 0.694758 0.036502 -0.010230 155607.000000 0 0 1
25.412939 -10.598668 -34.313213 43.994838 -0.395124 2.465362 0.015948 -0.014447 -65748.400000 0 0 1
20.069746 -29.642793 9.537894 37.046745 -0.975638 1.310408 0.013732 0.004450 -116967.000000 0 0 1
20.463246 -29.468993 8.245694 36.812464 -0.963839 1.344888 0.000415 -0.003912 -394572.000000 0 0 1
21.727346 -30.040193 8.081494 37.944714 -0.944619 1.356172 0.022272 -0.003134 -420873.000000 0 0 1
22.256446 -29.952093 6.621494 37.898832 -0.931746 1.395180 0.022012 -0.003600 -56404.900000 0 0 1
22.706746 -28.656993 6.229894 37.089502 -0.900729 1.402027 0.032087 0.000076 131512.000000 0 0 1
23.311446 -28.647293 4.948394 37.263622 -0.887733 1.437609 0.029537 0.001571 42355.700000 0 0 1
23.438646 -27.157893 4.445294 36.148056 -0.858774 1.447510 0.019793 -0.000675 -30855.100000 0 0 1
24.323446 -26.366893 5.184794 36.245347 -0.825689 1.427257 0.022890 -0.002126 -21396.500000 0 0 1
24.086746 -24.998993 4.842994 35.051043 -0.803981 1.432183 0.017159 0.002371 -141037.000000 0 0 1
24.850046 -24.011293 5.735594 35.028047 -0.768234 1.406313 0.008569 0.004986 1053110.000000 0 0 1
26.191046 -23.713693 5.283894 35.724357 -0.735797 1.422344 0.001485 0.000219 861060.000000 0 0 1
27.070146 -23.107093 6.194994 36.126286 -0.706581 1.398463 0.019378 -0.004459 206997.000000 0 0 1
26.814746 -21.591393 6.528394 35.040531 -0.677907 1.383391 0.014506 0.009370 -171506.000000 0 0 1
27.044546 -20.735893 5.417294 34.506982 -0.654123 1.413153 0.016267 0.016653 121517.000000 0 0 1
26.473246 -19.456593 5.588694 33.326045 -0.633801 1.402303 0.010501 0.011517 -188042.000000 0 0 1
26.902246 -18.596793 4.362294 32.993957 -0.604845 1.438193 0.016085 0.017860 -111307.000000 0 0 1
28.212446 -18.121193 4.188894 33.791517 -0.570952 1.446514 0.021968 0.016540 -242290.000000 0 0 1
28.404846 -17.653893 2.876194 33.567361 -0.556086 1.485007 0.014506 0.011587 19402.500000 0 0 1
29.461546 -16.548593 2.773294 33.904717 -0.511783 1.488908 0.028049 -0.009074 128212.000000 0 0 1
29.062946 -15.380193 3.539194 33.071605 -0.486736 1.463575 0.031762 -0.015252 -477613.000000 0 0 1
30.082646 -14.477193 3.586394 33.577030 -0.448533 1.463781 0.035642 -0.020121 -647440.000000 0 0 1
29.614546 -13.210593 4.297594 32.711014 -0.419593 1.439035 0.042345 -0.020180 48108.000000 0 0 1
29.199646 -13.503093 5.578994 32.650851 -0.433151 1.399086 0.037795 -0.006636 -20237.400000 0 0 1
28.878946 -12.335193 6.305394 32.029807 -0.403677 1.372642 0.035026 -0.014089 -135219.000000 0 0 1
28.652846 -12.715993 7.801694 32.304002 -0.417682 1.326876 0.037947 -0.005870 25090.400000 0 0 1
27.297946 -13.099693 8.009894 31.319934 -0.447421 1.312179 0.030792 -0.001326 76207.500000 0 0 1
26.803646 -12.966793 9.304694 31.195360 -0.450579 1.267915 0.031780 0.002489 -75910.200000 0 0 1
27.008746 -14.063593 10.398494 32.177410 -0.480074 1.241728 0.032125 0.010258 1006180.000000 0 0 1
28.313146 -14.118993 11.040994 33.509458 -0.462585 1.235034 0.026411 0.007868 1285580.000000 0 0 1
28.607146 -15.476793 11.497094 34.497581 -0.495916 1.231024 0.022916 0.004340 197265.000000 0 0 1
29.431946 -15.508093 12.811994 35.649511 -0.484946 1.203185 0.027088 0.000583 -552699.000000 0 0 1
30.760046 -15.120093 12.816994 36.593346 -0.456865 1.212953 0.033893 -0.003278 -498013.000000 0 0 1
31.353946 -15.262893 14.114294 37.619665 -0.453027 1.186201 0.038228 -0.004759 345647.000000 0 0 1
32.895446 -15.143193 14.144694 38.878002 -0.431422 1.198428 0.035359 -0.011597 119863.000000 0 0 1
33.441346 -13.844793 13.947194 38.788222 -0.392519 1.202986 0.033903 -0.015743 -41773.500000 0 0 1
34.824346 -13.872893 14.177394 40.077310 -0.379098 1.209218 0.037519 -0.024582 -222110.000000 0 0 1
-35.346046 -12.526393 13.997294 40.027213 0.340583 1.213551 0.037582 -0.027473 52570.600000 0 0 1
-34.415446 -12.473893 12.926794 38.821681 0.347723 1.231336 0.040104 -0.024791 506150.000000 0 0 1
-33.704546 -11.223793 12.861694 37.780857 0.321455 1.223423 0.041807 -0.021226 233589.000000 0 0 1
-32.574246 -11.272393 11.783094 36.427869 0.333154 1.241409 0.041899 -0.017997 338302.000000 0 0 1
-31.406546 -11.986893 12.121294 35.734892 0.364604 1.224729 0.023928 -0.015257 12841.900000 0 0 1
-31.510646 -13.356393 11.857094 36.220226 0.400912 1.237287 0.016298 -0.015390 -158001.000000 0 0 1
-30.320746 -14.274293 12.260394 35.685016 0.439997 1.220078 0.003839 -0.010443 318664.000000 0 0 1
-29.138646 -14.150193 11.501494 34.374017 0.452074 1.229617 0.015148 -0.011759 288866.000000 0 0 1
-28.237346 -15.218893 11.864094 34.201157 0.494330 1.216541 0.017066 -0.006288 311505.000000 0 0 1
-26.890146 -15.296993 11.131994 32.878553 0.517215 1.225390 0.021618 -0.000266 -3771.590000 0 0 1
-27.040346 -15.382893 9.725394 32.594432 0.517228 1.267806 0.018597 -0.006338 -68740.300000 0 0 1
-25.803146 -15.048893 9.156594 31.242835 0.527989 1.273351 0.018984 -0.006832 -72327.700000 0 0 1
-25.943346 -14.832393 7.626994 30.841987 0.519368 1.320911 0.033576 0.002931 70471.100000 0 0 1
-26.183046 -16.115193 7.008894 31.533727 0.551726 1.346658 0.037674 0.006347 156059.000000 0 0 1
-26.098146 -15.893993 5.599694 31.065879 0.547017 1.389553 0.035085 0.005223 -462676.000000 0 0 1
-26.349546 -17.076993 4.650494 31.741918 0.575034 1.423758 0.019761 0.003327 -691198.000000 0 0 1
-27.697946 -17.420093 4.624694 33.045781 0.561421 1.430387 0.001835 -0.000664 -726374.000000 0 0 1
-27.949546 -18.416993 3.709094 33.676700 0.582632 1.460434 0.001389 0.002271 -655315.000000 0 0 1
-29.410646 -18.832893 3.819294 35.131908 0.569556 1.461868 0.014171 0.000370 -509748.000000 0 0 1
-30.266746 -17.850493 3.256094 35.289066 0.532865 1.478396 0.021438 -0.002464 -170420.000000 0 0 1
-31.613546 -18.210693 3.430494 36.644426 0.522616 1.477043 0.034223 -0.002680 13865.500000 0 0 1
-32.692246 -17.270593 2.846094 37.083104 0.486013 1.493972 0.044701 -0.014402 148676.000000 0 0 1
-32.706746 -17.279993 1.412694 37.017903 0.486055 1.532625 0.045934 -0.011651 -761836.000000 0 0 1
-33.565746 -16.336893 0.947694 37.342356 0.452962 1.545415 0.044921 -0.017429 -922884.000000 0 0 1
-34.160346 -16.836693 -0.333306 38.085622 0.457929 1.579548 0.042200 -0.016091 -204312.000000 0 0 1
-33.231246 -16.783793 -1.428306 37.256563 0.467688 1.609143 0.044843 -0.016897 623638.000000 0 0 1
-33.736046 -17.541293 -2.500006 38.106008 0.479485 1.636450 0.031115 -0.008724 40308.300000 0 0 1
-32.638946 -18.299093 -3.279306 37.562102 0.510985 1.658211 0.035444 -0.011123 -181131.000000 0 0 1
-33.181346 -19.183593 -4.221106 38.559431 0.524194 1.680486 0.040848 -0.015463 -210293.000000 0 0 1
-32.268646 -19.754993 -5.126106 38.181177 0.549345 1.705460 0.032325 -0.010026 -477232.000000 0 0 1
-32.865146 -20.876993 -5.995606 39.394339 0.565923 1.723585 0.049988 -0.010250 -193274.000000 0 0 1
-33.173546 -22.115393 -5.300606 40.220284 0.587996 1.702970 0.068138 -0.013016 3500.920000 0 0 1
-33.529946 -23.125593 -6.139506 41.191551 0.603779 1.720401 0.060784 -0.011258 -71008.500000 0 0 1
-33.929846 -24.483893 -5.508406 42.202346 0.625078 1.701693 0.057493 -0.016296 114917.000000 0 0 1
-32.876546 -25.349993 -5.099706 41.826982 0.656848 1.693024 0.058597 -0.013555 -154196.000000 0 0 1
-33.368346 -26.657493 -4.849506 42.983557 0.674061 1.683859 0.042482 0.000211 136599.000000 0 0 1
-32.345446 -27.634593 -4.208206 42.750528 0.707019 1.669392 0.021729 -0.003471 -746591.000000 0 0 1
-31.327146 -27.944393 -5.138006 42.292769 0.728388 1.692584 0.027330 -0.002189 502698.000000 0 0 1
-30.391946 -28.980493 -4.796106 42.267505 0.761630 1.684512 0.033484 0.000111 394382.000000 0 0 1
-29.579246 -28.860893 -3.501106 41.474579 0.773107 1.655313 0.032623 -0.004353 -1436960.000000 0 0 1
-30.286746 -28.858793 -2.295406 41.897325 0.761260 1.625610 0.022735 -0.009554 -33460.100000 0 0 1
-29.375346 -28.668593 -1.173406 41.063074 0.773223 1.599376 0.024722 -0.016634 296590.000000 0 0 1
-29.998746 -28.617793 0.209394 41.460182 0.761843 1.565746 0.013675 -0.008555 -280073.000000 0 0 1
-30.354346 -29.856493 0.763394 42.583791 0.777130 1.552868 0.020093 -0.004999 -263070.000000 0 0 1
-31.195146 -29.680893 1.895694 43.100884 0.760529 1.526799 0.019154 0.000619 106945.000000 0 0 1
-31.852246 -30.983293 2.479694 44.504819 0.771570 1.515050 0.014172 0.001624 -705281.000000 0 0 1
-32.791746 -30.696193 3.468794 45.050943 0.752403 1.493723 0.016850 0.002396 -215846.000000 0 0 1
-33.433546 -31.823993 3.986394 46.329903 0.760739 1.484646 0.015371 0.001379 -449941.000000 0 0 1
-34.621546 -32.418293 3.236094 47.540188 0.752545 1.502673 0.011057 0.005166 -548733.000000 0 0 1
-35.144446 -33.677793 3.741094 48.819275 0.764091 1.494090 0.016337 0.003434 528200.000000 0 0 1
34.692346 -34.117693 2.907994 48.744562 -0.777047 1.511103 0.016599 0.001151 433366.000000 0 0 1
33.545746 34.056732 3.529394 47.933649 0.792957 1.497099 0.014904 -0.000983 632554.000000 0 0 1
32.551446 -34.447793 4.408694 47.599199 -0.813695 1.478042 0.019693 -0.000724 621809.000000 0 0 1
31.881346 -33.240293 4.111994 46.241170 -0.806263 1.481754 0.026354 -0.001687 -238524.000000 0 0 1
30.932446 -33.169293 2.901894 45.447104 -0.820279 1.506901 0.026625 -0.001131 -490383.000000 0 0 1
31.592546 -33.438493 1.674894 46.032891 -0.813776 1.534404 0.027999 -0.001639 -186578.000000 0 0 1
30.762746 -33.195793 0.549294 45.261562 -0.823421 1.558660 0.022304 0.001956 -676132.000000 0 0 1
31.220146 -33.937693 -0.735906 46.119477 -0.827081 1.586754 0.018303 -0.005579 1286560.000000 0 0 1
32.452446 -33.627193 -1.436806 46.754827 -0.803174 1.601532 0.015867 -0.003615 2259610.000000 0 0 1
33.697746 -33.375293 -0.687606 47.433333 -0.780591 1.585293 0.014250 -0.002531 1587430.000000 0 0 1
34.878246 -33.128193 -1.691206 48.133454 -0.759670 1.605939 0.003534 0.000331 212057.000000 0 0 1
35.364046 -34.342593 -2.249306 49.346620 -0.770746 1.616394 -0.011571 -0.003796 89562.200000 0 0 1
-34.968046 -34.146493 -3.513606 49.000946 0.773512 1.642563 -0.003337 -0.000749 -680474.000000 0 0 1
-34.484146 33.543732 -4.077306 48.280045 -0.771575 1.655348 -0.011690 -0.008136 -1486720.000000 0 0 1
-33.360046 32.986432 -3.569806 47.050408 -0.779767 1.646741 -0.013859 -0.002728 -1104810.000000 0 0 1
-32.938446 31.943832 -4.459706 46.100310 -0.770070 1.667687 -0.011760 -0.013733 -572468.000000 0 0 1
-31.676446 31.233132 -4.010506 44.665310 -0.778351 1.660708 -0.003691 -0.017852 -682326.000000 0 0 1
-30.537346 32.037332 -4.161806 44.454930 -0.809365 1.664552 0.001302 -0.008282 38029.800000 0 0 1
-29.261246 31.556732 -3.760806 43.199439 -0.823124 1.657963 0.040777 -0.012711 866962.000000 0 0 1
-28.920946 31.473232 -2.206406 42.800160 -0.827633 1.622371 0.029337 -0.007787 -654971.000000 0 0 1
-29.807146 30.659432 -1.546406 42.788528 -0.799492 1.606945 0.013544 -0.001430 -738342.000000 0 0 1
-29.550446 30.486432 -0.186006 42.458050 -0.800987 1.575177 0.012841 0.010391 -2146.650000 0 0 1
-30.748546 29.788232 0.496494 42.814231 -0.769536 1.559200 0.009471 0.006589 -92060.900000 0 0 1
-30.969846 28.443432 0.130794 42.049700 -0.742901 1.567686 0.007797 0.007973 -723843.000000 0 0 1
-32.075846 28.265332 -0.673906 42.757959 -0.722332 1.586558 -0.006344 0.004467 -765222.000000 0 0 1
-32.331746 26.868632 -1.220006 42.056553 -0.693377 1.599809 -0.005644 0.004000 -234847.000000 0 0 1
-32.647046 25.902232 -0.264106 41.675232 -0.670705 1.577134 -0.009274 0.009317 111001.000000 0 0 1
-33.214046 24.669532 -0.774506 41.380654 -0.638841 1.589514 0.012688 0.011036 -6071.540000 0 0 1
-33.294146 23.573232 0.326394 40.795882 -0.616094 1.562796 0.006052 0.008961 -87895.800000 0 0 1
-32.034746 23.197232 0.831594 39.560436 -0.626736 1.549774 0.010948 0.002016 -114713.000000 0 0 1
-31.604646 23.810932 2.028194 39.622313 -0.645673 1.519586 0.005695 -0.003235 673800.000000 0 0 1
-30.037546 23.622432 2.198894 38.276737 -0.666412 1.513317 0.014932 -0.018526 894855.000000 0 0 1
-29.208046 24.416632 1.425994 38.096133 -0.696284 1.533356 0.030919 -0.012890 -325521.000000 0 0 1
-29.022546 25.706532 1.979694 38.820783 -0.724883 1.519778 0.019445 -0.006393 -519097.000000 0 0 1
-28.285946 26.687532 1.088494 38.903778 -0.756330 1.542814 0.022295 -0.000057 269075.000000 0 0 1
-26.913946 26.391632 0.876394 37.704732 -0.775600 1.547551 0.026916 -0.004428 -22430.400000 0 0 1
-26.432446 27.267032 -0.119906 37.976040 -0.800939 1.573954 0.031770 -0.000703 -27698.600000 0 0 1
-25.152546 26.918332 -0.861906 36.850917 -0.819296 1.594187 0.034598 0.001385 -512140.000000 0 0 1
-25.468646 25.881732 -1.792606 36.355597 -0.793442 1.620124 0.039347 -0.007329 527047.000000 0 0 1
-24.331946 25.256132 -2.413506 35.153105 -0.804033 1.639507 0.031723 -0.004196 1113020.000000 0 0 1
-23.408746 24.366432 -1.475906 33.821158 -0.805441 1.614449 0.021186 -0.001311 -143634.000000 0 0 1
-24.000646 23.140132 -1.143706 33.358729 -0.767146 1.605088 0.021618 0.001485 -519931.000000 0 0 1
-23.166346 22.195232 -0.544906 32.087456 -0.763993 1.587779 0.013169 -0.013172 -997241.000000 0 0 1
-23.837246 20.851532 -0.240806 31.671102 -0.718686 1.578400 0.020680 -0.014443 -361081.000000 0 0 1
-24.786846 20.749832 0.811594 32.335769 -0.696975 1.545695 -0.000339 -0.011448 1353990.000000 0 0 1
-26.112546 21.283432 0.584994 33.692607 -0.683860 1.553433 0.007550 -0.011360 831349.000000 0 0 1
-26.987746 20.695732 -0.534906 34.013790 -0.654202 1.586523 -0.002204 -0.013348 -785917.000000 0 0 1
-27.206246 19.308332 -0.446906 33.364521 -0.617208 1.584191 -0.000308 -0.013555 225653.000000 0 0 1
-28.004246 18.870732 -1.530406 33.803616 -0.592961 1.616085 0.005927 -0.006851 -70959.200000 0 0 1
-28.199046 17.391032 -1.417706 33.160882 -0.552626 1.613562 -0.013999 0.002255 153178.000000 0 0 1
-29.092046 16.950532 -0.382306 33.672152 -0.527566 1.582150 -0.000891 -0.003241 574744.000000 0 0 1
-29.344346 15.510932 -0.408806 33.194078 -0.486252 1.583112 0.004933 -0.011820 299283.000000 0 0 1
-28.208246 14.545232 0.106094 31.737678 -0.476079 1.567453 0.019634 -0.016345 131503.000000 0 0 1
-28.131446 14.653732 1.524294 31.755844 -0.480229 1.522777 0.033871 -0.020473 811809.000000 0 0 1
-26.893846 14.147832 2.057594 30.457738 -0.484279 1.503189 0.038889 -0.026609 667805.000000 0 0 1
-26.561846 12.623332 2.011894 29.477583 -0.443647 1.502492 0.053928 -0.022862 -272515.000000 0 0 1
-26.258646 12.179032 0.700694 28.954038 -0.434279 1.546594 0.031571 -0.022464 38869.800000 0 0 1
-25.497146 11.026632 0.703994 27.788247 -0.408177 1.545459 0.039343 -0.019497 -343601.000000 0 0 1
-25.431246 10.356232 -0.703706 27.468073 -0.386719 1.596418 0.030260 -0.017151 572011.000000 0 0 1
-26.706746 9.870132 -1.162406 28.495982 -0.354006 1.611600 0.027308 -0.023491 988442.000000 0 0 1
-26.581546 8.858532 -2.182306 28.103641 -0.321683 1.648527 0.032417 -0.024106 355307.000000 0 0 1
-27.984946 8.666932 -2.833006 29.432955 -0.300332 1.667198 0.034971 -0.024071 298570.000000 0 0 1
-28.014946 7.762232 -3.911306 29.332367 -0.270294 1.704539 0.040787 -0.015258 6159.820000 0 0 1
-29.274546 7.702532 -4.525606 30.607338 -0.257282 1.719201 0.042394 -0.011118 -336298.000000 0 0 1
-10.686154 18.022232 -19.404206 28.557275 -1.035582 2.317855 0.004224 -0.003171 -124396.000000 0 0 1
-11.140554 17.188032 -20.393906 28.904183 -0.995717 2.354023 -0.005034 0.001991 -193515.000000 0 0 1
-10.429854 17.385232 -21.593906 29.619671 -1.030431 2.387714 -0.012231 0.003553 -51423.700000 0 0 1
-10.751954 16.332932 -22.714006 29.971574 -0.988609 2.430810 -0.015547 0.007488 14845.400000 0 0 1
-10.170354 15.042032 -22.427606 28.856478 -0.976271 2.461019 -0.008784 0.008566 184637.000000 0 0 1
-10.340254 14.073232 -23.424506 29.217874 -0.937129 2.500961 -0.006282 0.005020 -401272.000000 0 0 1
-9.704454 12.755232 -23.049606 28.074129 -0.920405 2.534003 -0.017519 0.005121 -696069.000000 0 0 1
-8.311854 12.761232 -23.095806 27.665000 -0.993482 2.558636 -0.004597 0.003681 -677383.000000 0 0 1
-7.825054 11.454132 -22.834206 26.717589 -0.971459 2.595674 -0.003141 -0.000063 -1049570.000000 0 0 1
-6.337954 11.452332 -22.664506 26.172608 -1.065331 2.617869 0.003754 0.005133 -797884.000000 0 0 1
-5.481054 11.399032 -23.806706 26.958100 -1.122598 2.653226 -0.004904 -0.004669 -182824.000000 0 0 1
-4.154654 11.235632 -23.394006 26.282696 -1.216615 2.668342 0.012464 -0.006262 -46822.600000 0 0 1
-3.091054 10.870432 -24.459806 26.944443 -1.293755 2.708773 0.026653 -0.008782 85190.100000 0 0 1
-3.059654 9.525532 -24.894306 26.829531 -1.260000 2.759455 0.024101 -0.007694 84395.900000 0 0 1
-2.609354 9.582832 -26.263696 28.078838 -1.304947 2.780059 0.026351 -0.007521 -265785.000000 0 0 1
-2.205554 8.213132 -27.002146 28.309643 -1.308446 2.836484 0.031021 0.003342 1037970.000000 0 0 1
-1.053954 7.561132 -26.369866 27.452711 -1.432298 2.859791 0.027931 -0.001643 1126310.000000 0 0 1
-1.411054 6.530732 -25.430526 26.293596 -1.358004 2.884667 0.036582 -0.008420 95334.100000 0 0 1
-0.225654 5.779732 -24.737206 25.404440 -1.531774 2.911896 -0.011059 -0.000532 112510.000000 0 0 1
0.298646 6.538732 -23.688206 24.575909 1.525155 2.871999 0.001084 -0.009045 211322.000000 0 1 0
1.387246 5.823032 -23.109106 23.871802 1.336921 2.888132 0.005283 -0.005555 168991.000000 0 1 0
1.687246 6.387732 -21.720806 22.703377 1.312556 2.846315 0.009714 -0.007402 -136843.000000 0 1 0
2.458546 7.546132 -21.639806 23.049290 1.255839 2.790069 -0.001201 -0.007935 -223265.000000 0 1 0
2.425846 8.226832 -20.415206 22.143761 1.284053 2.743854 0.008109 -0.013674 -131334.000000 0 1 0
2.995046 9.658032 -20.493806 22.852658 1.270091 2.683234 0.003528 -0.017436 -356758.000000 0 1 0
2.720246 10.534032 -19.366906 22.213568 1.318083 2.629764 0.007177 -0.017977 -147277.000000 0 1 0
3.380146 11.760932 -19.379006 22.919223 1.290935 2.578363 0.008385 -0.013359 382019.000000 0 1 0
4.760946 11.728132 -18.649406 22.539211 1.185178 2.545295 0.004142 -0.018078 224183.000000 0 1 0
5.815246 11.104132 -19.315006 23.025818 1.088368 2.565947 0.016213 -0.007913 -389305.000000 0 1 0
6.833746 10.738532 -18.396406 22.370604 1.004058 2.536321 0.017187 -0.004476 61563.800000 0 1 0
7.851246 9.773932 -19.004706 22.767316 0.894056 2.558450 0.023434 0.002376 -263446.000000 0 1 0
7.362246 8.444832 -19.072006 22.119206 0.853779 2.610467 0.020743 -0.000467 10311.200000 0 1 0
6.659046 8.136932 -20.234406 22.803152 0.884952 2.662365 0.012901 -0.004095 -91835.100000 0 1 0
6.371246 6.668032 -20.309906 22.305778 0.808155 2.715342 0.020921 -0.004212 1394220.000000 0 1 0
7.605346 5.937332 -20.595806 22.743800 0.662848 2.703487 0.024390 0.005852 1407890.000000 0 1 0
7.239746 4.658632 -20.973106 22.671302 0.571778 2.752082 0.022805 0.006372 -97258.000000 0 1 0
7.090546 4.453432 -22.498306 24.005888 0.560811 2.785309 0.032431 -0.000414 96120.500000 0 1 0
6.061546 5.192932 -23.156706 24.493712 0.708371 2.809660 0.024783 0.000988 120521.000000 0 1 0
6.015246 4.950832 -24.525806 25.733424 0.688637 2.834023 0.030804 0.001031 -433084.000000 0 0 1
5.000046 5.878632 -25.203406 26.358499 0.865985 2.844452 0.024137 -0.003083 -181440.000000 0 0 1
5.338346 7.258632 -25.218396 26.779716 0.936674 2.798437 0.025539 -0.007818 204323.000000 0 0 1
5.020446 7.850432 -23.982506 25.729259 1.001829 2.770993 0.022615 -0.018264 -807933.000000 0 0 1
4.705746 9.348432 -24.161406 26.330795 1.104454 2.732822 0.025078 -0.025887 708559.000000 0 0 1
3.603546 9.774532 -24.987806 27.072449 1.217589 2.746595 0.028935 -0.021686 2215590.000000 0 0 1
2.271946 9.422432 -24.450206 26.301265 1.334192 2.764179 0.009695 -0.011601 1844490.000000 0 0 1
1.103246 9.958732 -25.357526 27.265319 1.460464 2.765287 0.008593 0.000332 200577.000000 0 0 1
1.033246 11.366332 -25.378906 27.827144 1.480141 2.718978 0.021562 -0.014869 103661.000000 0 0 1
0.163046 11.690032 -26.437936 28.907575 1.556850 2.725234 0.046930 -0.015635 -453993.000000 0 0 1
0.174546 13.214332 -26.700756 29.792271 1.557588 2.681995 0.045841 -0.017859 -992256.000000 0 0 1
-0.106454 14.025932 -25.582756 29.175598 -1.563207 2.640076 0.039433 -0.018253 -39965.100000 0 0 1
-0.394354 15.344632 -26.000986 30.193783 -1.545102 2.608298 0.046416 -0.029159 -285828.000000 0 0 1
-0.918254 16.177732 -24.813706 29.635826 -1.514097 2.563099 0.052822 -0.020784 -272873.000000 0 0 1
-2.136554 15.639932 -24.384306 29.047663 -1.435028 2.567082 0.047271 -0.012313 -548011.000000 0 0 1
-2.382854 16.225332 -23.081406 28.314143 -1.424979 2.523853 0.053807 -0.016609 579642.000000 0 0 1
-3.645554 15.704532 -22.295006 27.513445 -1.342702 2.515514 0.038049 -0.013121 1216320.000000 0 0 1
-4.943154 15.851232 -22.862506 28.255805 -1.268507 2.513460 0.033905 -0.010758 403327.000000 0 0 1
-5.372754 15.099132 -23.996606 28.856323 -1.228935 2.552759 0.036337 -0.009838 1057920.000000 0 0 1
-6.890054 15.359132 -24.385106 29.631220 -1.149110 2.537386 0.012311 -0.008169 1092590.000000 0 0 1
-7.189054 16.644632 -24.891606 30.794777 -1.163084 2.512066 0.006495 -0.010262 -1166620.000000 0 0 1
-8.458854 16.572132 -25.398586 31.484535 -1.098842 2.509343 -0.001654 -0.004266 -1173140.000000 0 0 1
-9.219854 17.850532 -25.829026 32.722863 -1.094034 2.480508 0.000709 -0.006845 69441.600000 0 0 1
-9.736354 18.570832 -24.744706 32.434131 -1.087912 2.438617 -0.000198 -0.009858 596757.000000 0 0 1
-10.849454 19.389332 -25.175226 33.577505 -1.060645 2.418503 0.000350 -0.009656 713706.000000 0 0 1
-11.419454 20.311132 -24.079906 33.508027 -1.058615 2.372628 0.001758 -0.010307 -242199.000000 0 0 1
-10.560654 21.365232 -23.705306 33.614611 -1.111726 2.353513 -0.004091 -0.014405 54619.100000 0 0 1
-10.965954 22.627832 -24.221406 34.913428 -1.119526 2.337488 -0.009347 -0.013850 -53575.600000 0 0 1
-10.523154 22.977932 -25.691286 36.038373 -1.141336 2.364403 -0.011766 -0.015618 -146640.000000 0 0 1
-11.182554 22.216032 -26.736626 36.516418 -1.104468 2.392315 -0.016881 -0.021407 161228.000000 0 0 1
-10.911154 22.752632 -27.965226 37.666821 -1.123638 2.407497 -0.001551 -0.014001 -95388.800000 0 0 1
-11.609054 22.054032 -29.186136 38.379434 -1.086259 2.434822 0.003181 -0.011940 -168439.000000 0 0 1
-10.905954 20.947232 -29.676166 37.926260 -1.090774 2.469419 0.010557 -0.015449 -77702.900000 0 0 1
-10.726454 19.837332 -28.851046 36.619113 -1.075105 2.478137 0.005992 -0.012521 -245273.000000 0 0 1
-9.718454 18.880532 -29.521896 36.365714 -1.095431 2.518034 0.003796 -0.016264 -1071950.000000 0 0 1
-8.402154 19.322532 -29.403446 36.173458 -1.160623 2.519818 0.002501 -0.017871 -891515.000000 0 0 1
-7.466354 18.656432 -30.191946 36.267927 -1.190115 2.554346 0.008914 -0.010782 -17916.500000 0 0 1
-6.881254 17.363832 -29.656376 35.047895 -1.193485 2.579548 0.021312 -0.020640 -11989.100000 0 0 1
-7.950454 16.391932 -29.618726 34.773180 -1.119202 2.590149 0.014222 -0.019933 833374.000000 0 0 1
-7.562154 15.258032 -28.866616 33.515298 -1.110661 2.608613 0.000012 -0.013974 -63360.900000 0 0 1
-8.726554 14.250832 -28.690356 33.202040 -1.021343 2.614184 0.000534 -0.005534 -584714.000000 0 0 1
-9.712554 14.787232 -27.918256 33.051852 -0.989641 2.576764 -0.003861 -0.001826 -1295880.000000 0 0 1
-10.911454 14.076032 -27.948396 33.140720 -0.911374 2.574237 0.022420 -0.003850 -25160.600000 0 0 1
-11.948954 14.557432 -26.912156 32.847534 -0.883492 2.530995 0.013007 0.000523 89724.000000 0 0 1
-12.376854 15.887432 -27.098786 33.763015 -0.908971 2.502467 -0.000602 -0.002899 -363936.000000 0 0 1
-13.260654 16.234232 -26.051236 33.437436 -0.885875 2.464031 0.000781 -0.002323 71223.400000 0 0 1
-14.302854 17.285832 -26.458536 34.690427 -0.879551 2.438280 -0.007727 -0.006393 -206071.000000 0 0 1
-13.820454 18.614632 -26.276976 35.042673 -0.932144 2.418641 -0.010276 -0.004715 -43011.200000 0 0 1
-14.594254 19.631532 -26.917926 36.372572 -0.931527 2.403958 -0.010695 -0.010040 -404518.000000 0 0 1
-14.163354 21.089432 -26.936296 37.026055 -0.979396 2.385461 -0.020406 -0.007851 -1062460.000000 0 0 1
-15.133154 21.938532 -27.478986 38.280624 -0.966950 2.371477 -0.036445 -0.006969 -215274.000000 0 0 1
-14.826454 23.292832 -27.495206 38.966217 -1.003953 2.354089 -0.025519 -0.008350 -212777.000000 0 0 1
-14.567054 24.007032 -26.097756 38.335747 -1.025404 2.319607 -0.051361 -0.006553 23290.100000 0 0 1
-14.049254 25.291332 -26.219156 39.044553 -1.063743 2.307053 -0.030440 -0.012637 -117971.000000 0 0 1
-13.577454 25.834732 -25.011806 38.436585 -1.086918 2.279341 -0.009967 -0.011729 -99551.600000 0 0 1
-12.994654 27.224532 -25.160446 39.282111 -1.125462 2.265954 0.015837 -0.014117 -366625.000000 0 0 1
-13.913754 28.125432 -25.712836 40.568244 -1.111395 2.257274 0.021951 -0.014269 -283549.000000 0 0 1
-14.435354 28.951132 -24.679806 40.689560 -1.108261 2.222497 0.030595 -0.012629 -124991.000000 0 0 1
-15.825554 29.530632 -25.008806 41.808453 -1.078841 2.212019 0.023843 -0.013184 551096.000000 0 0 1
-16.912654 28.595832 -24.780406 41.446688 -1.036696 2.211658 0.017809 -0.015183 122940.000000 0 0 1
-18.049854 29.144532 -25.414626 42.674397 -1.016290 2.208743 0.013064 -0.009925 516440.000000 0 0 1
-19.265154 28.132132 -25.387456 42.509833 -0.970338 2.210819 0.007607 -0.001203 580852.000000 0 0 1
-19.845754 27.932432 -24.091806 41.886630 -0.953064 2.183605 0.006116 -0.001944 157241.000000 0 0 1
-20.908354 26.982332 -24.118806 41.796200 -0.911555 2.185917 0.011955 -0.005216 14755.000000 0 0 1
-21.614054 26.928432 -22.752406 41.351901 -0.894443 2.153417 0.012600 0.001171 -500072.000000 0 0 1
-22.518454 28.015232 -22.651306 42.485476 -0.893747 2.133121 0.009592 0.005600 -286953.000000 0 0 1
-22.840254 28.285532 -21.297506 42.134692 -0.891506 2.100714 -0.002202 0.007638 56398.100000 0 0 1
-24.193454 29.031332 -21.110506 43.287353 -0.876044 2.080230 -0.003337 0.015165 -516963.000000 0 0 1
-25.249674 28.187632 -21.382106 43.465884 -0.840322 2.085100 -0.021389 0.017081 -1775100.000000 0 0 1
-26.429274 28.886232 -21.196606 44.522096 -0.829786 2.067002 -0.004882 0.020574 -4207.540000 0 0 1
-27.679284 28.011332 -21.608506 44.918871 -0.791360 2.072656 -0.010252 0.020754 444412.000000 0 0 1
-27.695944 27.654832 -22.973506 45.383224 -0.784655 2.101582 -0.007733 0.022576 241902.000000 0 0 1
-28.933644 27.068632 -23.376406 46.003510 -0.752108 2.103825 0.001655 0.018053 419352.000000 0 0 1
-29.236484 26.673132 -24.826406 46.718073 -0.739582 2.131059 -0.004016 0.028515 -297564.000000 0 0 1
-28.547414 25.484932 -25.160766 45.798480 -0.728780 2.152418 0.013271 0.027094 53026.700000 0 0 1
-28.561824 25.343832 -26.566556 46.517411 -0.725772 2.178654 0.028877 0.023170 -42449.100000 0 0 1
-28.660834 23.884032 -27.051976 46.083617 -0.694738 2.198169 0.028233 0.019767 341168.000000 0 0 1
-27.485284 23.095632 -26.882226 44.849784 -0.698830 2.213527 0.029479 0.005706 380676.000000 0 0 1
-27.845854 21.820132 -27.286476 44.677304 -0.664663 2.227798 0.039774 -0.004713 -517415.000000 0 0 1
-26.769074 20.762532 -27.167646 43.425189 -0.659695 2.246722 0.054370 -0.009278 -487029.000000 0 0 1
-26.564554 20.349932 -25.841046 42.279486 -0.653698 2.228367 0.049443 -0.010276 292243.000000 0 0 1
-25.878134 19.089332 -25.800286 41.227844 -0.635558 2.246950 0.040677 -0.016995 123727.000000 0 0 1
-26.815974 17.864932 -25.703416 41.217931 -0.587683 2.244133 0.037870 -0.009104 144049.000000 0 0 1
-27.575124 17.512132 -26.854536 42.287449 -0.565808 2.258866 0.031946 -0.005504 182347.000000 0 0 1
-28.320884 16.338532 -26.645856 42.178451 -0.523267 2.254593 0.014759 -0.013186 -261438.000000 0 0 1
-29.179534 15.973932 -27.889776 43.410267 -0.500873 2.268513 0.001302 -0.011270 292632.000000 0 0 1
-30.316954 16.791632 -28.130646 44.636418 -0.505809 2.252629 -0.006452 -0.006218 338790.000000 0 0 1
-31.104394 16.279332 -29.207746 45.668286 -0.482174 2.264726 0.001529 -0.006391 191756.000000 0 0 1
-32.414924 17.058132 -29.399446 46.968442 -0.484421 2.247133 0.010122 -0.005198 310194.000000 0 0 1
-33.445584 16.910932 -28.397606 47.021386 -0.468138 2.219219 -0.007738 -0.002839 961641.000000 0 0 1
-34.698630 17.255832 -29.006506 48.405950 -0.461490 2.213341 -0.011485 0.004360 525021.000000 0 0 1
35.022278 16.975132 -28.072966 47.987566 0.451329 2.195683 -0.005343 0.013060 -196473.000000 0 0 1
34.688469 18.074132 -27.253866 47.673235 0.480339 2.179349 -0.002383 0.004768 378564.000000 0 0 1
33.593019 17.672832 -26.422496 46.248981 0.484298 2.178897 0.007396 0.007198 360779.000000 0 0 1
32.988679 18.736032 -25.478656 45.699603 0.516522 2.162197 0.013032 0.006902 -312012.000000 0 0 1
32.209319 19.684332 -26.135116 45.912498 0.548569 2.176374 0.019025 0.000621 -80779.100000 0 0 1
31.795629 20.762432 -25.306086 45.633744 0.578479 2.158616 0.027248 -0.005277 -688691.000000 0 0 1
31.170039 21.902732 -26.139586 46.201504 0.612526 2.172167 0.026667 -0.010065 337391.000000 0 0 1
29.851459 21.765632 -26.627476 45.539816 0.630011 2.195316 0.025860 -0.009117 623921.000000 0 0 1
28.806659 21.915532 -25.638326 44.355810 0.650365 2.187090 0.012742 -0.005857 -264964.000000 0 0 1
27.423139 21.542732 -26.146456 43.586179 0.665879 2.214147 0.012570 -0.006025 -484336.000000 0 0 1
27.299669 20.186532 -26.457996 43.044088 0.636710 2.232766 0.009975 -0.011186 226779.000000 0 0 1
26.082369 19.916132 -27.153366 42.593985 0.652140 2.262036 0.000683 -0.005453 -92648.800000 0 0 1
25.744239 18.386232 -27.200676 41.721651 0.620185 2.280957 0.009019 -0.004598 -650722.000000 0 0 1
26.560329 17.495532 -27.908336 42.313354 0.582473 2.291034 0.010237 -0.007478 -385177.000000 0 0 1
27.643839 17.122032 -27.077986 42.315046 0.554548 2.265183 0.013632 0.000056 -189403.000000 0 0 1
28.652039 16.183032 -27.807086 43.082060 0.514144 2.272402 -0.000654 0.015880 -90436.800000 0 0 1
28.149819 14.944032 -28.362766 42.663601 0.488041 2.298022 0.005682 0.018785 82927.100000 0 0 1
27.590599 13.920332 -27.533146 41.389503 0.467266 2.298585 0.017521 0.005819 141016.000000 0 0 1
28.517289 13.108632 -26.550106 41.109368 0.430869 2.272920 0.009177 -0.002309 119759.000000 0 0 1
28.859859 13.931832 -25.426126 40.908132 0.449745 2.241506 0.010761 0.000759 137685.000000 0 0 1
29.782559 13.268732 -24.576506 40.829704 0.419122 2.216709 -0.000090 0.000887 -54656.900000 0 0 1
-14.831954 -31.597393 -24.210806 42.479939 1.131923 2.177223 0.047753 0.014412 83635.400000 0 0 1
-13.856154 -30.702593 -24.701506 41.770882 1.146860 2.203537 0.034148 0.006907 154087.000000 0 0 1
-14.189154 -30.300693 -26.031206 42.392072 1.132847 2.231989 0.030658 0.010867 73318.500000 0 0 1
-13.328854 -29.178693 -26.671836 41.718597 1.142301 2.264419 0.039599 -0.001486 -88202.400000 0 0 1
-13.706654 -27.837093 -26.300506 40.675456 1.113257 2.273907 0.051404 0.005762 49959.700000 0 0 1
-12.877154 -26.818693 -26.829296 40.060885 1.123150 2.304619 0.041473 -0.007256 -291930.000000 0 0 1
-13.307454 -25.392193 -26.506766 39.044339 1.088074 2.317045 0.027213 0.003589 -317488.000000 0 0 1
-13.018354 -24.866693 -25.239266 37.747192 1.088506 2.303174 0.023406 -0.010358 7776.780000 0 0 1
-13.409454 -23.513593 -25.080686 36.901806 1.052513 2.318096 0.024224 -0.002272 -94930.700000 0 0 1
-12.978754 -22.911693 -23.705006 35.430510 1.055397 2.303735 0.019236 0.005133 324313.000000 0 0 1
-11.581854 -22.872693 -23.467506 34.756629 1.102072 2.312026 0.019197 -0.014404 85350.000000 0 0 1
-11.444454 -22.072293 -22.328206 33.417218 1.092460 2.302536 0.002112 -0.003333 149002.000000 0 0 1
-9.948454 -21.793193 -22.096706 32.591094 1.142555 2.315832 0.010311 -0.005029 -196215.000000 0 0 1
-9.348854 -20.968693 -23.035806 32.522846 1.151400 2.357878 0.022836 -0.008808 -548402.000000 0 0 1
-7.960754 -21.058193 -22.869106 32.090764 1.209367 2.364048 0.036247 -0.004291 7413.810000 0 0 1
-7.062454 -19.969993 -23.538306 31.665924 1.230871 2.408835 0.023820 0.009421 325548.000000 0 0 1
-7.292854 -18.710093 -22.827806 30.403323 1.199130 2.420118 0.038950 0.005260 -19019.500000 0 0 1
-8.040354 -17.765393 -23.490406 30.529587 1.145795 2.448746 0.030555 -0.006552 -505642.000000 0 0 1
-7.151354 -16.880093 -24.389406 30.511023 1.170065 2.497032 0.042534 -0.011595 401285.000000 0 0 1
-6.725754 -17.551793 -25.600356 31.759714 1.204861 2.508267 0.031357 -0.012612 201293.000000 0 0 1
-5.747454 -16.796193 -26.291346 31.723496 1.241098 2.547695 0.027144 -0.014492 153474.000000 0 0 1
-5.406954 -17.455593 -27.653506 33.145879 1.270414 2.557653 0.025468 0.002001 -379279.000000 0 0 1
-6.461854 -17.138793 -28.506096 33.883496 1.210246 2.570475 0.041173 -0.001037 -226861.000000 0 0 1
-6.453954 -17.971793 -29.681486 35.293476 1.226024 2.569908 0.040032 -0.010298 3049.790000 0 0 1
-7.456354 -17.622793 -30.827656 36.283666 1.170529 2.586078 0.050445 -0.013120 156209.000000 0 0 1
-7.173554 -16.557593 -31.732486 36.504307 1.161960 2.624541 0.041772 -0.001119 -54541.100000 0 0 1
-7.051754 -15.251393 -31.064956 35.318037 1.137705 2.645770 0.028916 -0.000140 -212568.000000 0 0 1
-7.334954 -14.122293 -32.050186 35.783448 1.091759 2.680733 0.027050 -0.002104 375311.000000 0 0 1
-6.422054 -13.910693 -33.161296 36.529737 1.138286 2.708779 0.034875 -0.007443 407829.000000 0 0 1
-7.124254 -13.333593 -34.217892 37.408606 1.080080 2.725577 0.036640 -0.007056 -167829.000000 0 0 1
-7.605754 -11.836393 -34.066148 36.857158 0.999660 2.749928 0.018931 -0.001444 78245.700000 0 0 1
-6.612154 -10.829993 -34.018506 36.307962 1.022662 2.784575 0.012741 -0.004674 -297004.000000 0 0 1
-6.042254 -10.554793 33.592131 35.725954 1.050869 0.347366 0.016297 -0.009505 -200917.000000 0 0 1
-5.026054 -9.404993 33.607783 35.259016 1.080007 0.307251 0.033449 -0.013696 -30307.200000 0 0 1
-4.736654 -8.840593 32.326098 33.846249 1.078933 0.300845 0.031052 -0.008613 -216204.000000 0 0 1
-3.754754 -7.856193 32.429348 33.577978 1.124956 0.262315 0.025226 -0.018618 -625589.000000 0 0 1
-3.913054 -6.864693 31.200218 32.185239 1.052708 0.248041 0.032342 -0.012289 -192837.000000 0 0 1
-5.024554 -6.033693 31.167788 32.141603 0.876403 0.246787 0.021699 -0.011818 -69536.300000 0 0 1
-6.210754 -6.655193 30.636798 31.960577 0.819928 0.288819 0.021098 -0.009032 51018.800000 0 0 1
-7.359554 -5.632493 30.563938 31.938102 0.653241 0.294408 0.008019 -0.001911 -276981.000000 0 0 1
-8.500854 -6.287093 30.078588 31.882809 0.636801 0.338027 -0.001307 0.002399 -374689.000000 0 0 1
-9.674454 -5.495293 30.173608 32.159601 0.516574 0.353272 -0.004145 -0.002248 -217057.000000 0 0 1
-10.855554 -5.933093 29.366388 31.865803 0.500190 0.398705 -0.004251 -0.001035 -883423.000000 0 0 1
-10.457254 -5.799393 28.026258 30.470613 0.506353 0.403277 -0.005631 0.002823 876359.000000 0 0 1
-11.315054 -6.505893 27.093288 30.073300 0.521817 0.448938 -0.005049 -0.001645 335753.000000 0 0 1
-11.011854 -6.056193 25.627298 28.542894 0.502820 0.455930 -0.003208 0.000978 126916.000000 0 0 1
-9.934454 -6.731193 25.000198 27.731070 0.595507 0.447520 0.005964 0.001145 275234.000000 0 0 1
-9.537854 -6.220293 23.715518 26.307575 0.577899 0.447640 0.005970 -0.001158 -450412.000000 0 0 1
-10.487454 -6.405893 22.542118 25.674292 0.548334 0.499121 0.015739 -0.008844 -663616.000000 0 0 1
-11.669654 -5.678293 22.619818 26.078344 0.452859 0.520884 0.009338 -0.001113 -598110.000000 0 0 1
-12.462154 -5.837993 21.475218 25.506322 0.438097 0.569897 0.011984 0.000170 -327299.000000 0 0 1
-13.526454 -4.762193 21.238918 25.626843 0.338513 0.593879 -0.002050 0.006993 -176247.000000 0 0 1
-13.045054 -3.448593 21.052018 25.005073 0.258448 0.569984 -0.000999 0.002217 -363694.000000 0 0 1
-14.105654 -2.571593 20.795418 25.259295 0.180329 0.603635 -0.006544 0.003199 52691.500000 0 0 1
-13.632754 -1.181593 20.207718 24.404918 0.086457 0.595232 -0.011039 -0.005035 -13308.600000 0 1 0
-12.896754 -0.398593 21.118818 24.748528 0.030897 0.548445 -0.010375 0.002013 -89778.200000 0 1 0
-12.877454 1.034407 20.837618 24.517446 -0.080155 0.554982 -0.009000 -0.006918 -494948.000000 0 1 0
-12.357054 1.545407 19.449718 23.094947 -0.124417 0.569514 0.005617 -0.015210 191077.000000 0 1 0
-13.081554 1.269407 18.212118 22.459290 -0.096735 0.625117 0.005476 -0.009341 112008.000000 0 1 0
-14.423854 1.723407 18.248418 23.324289 -0.118919 0.672321 0.001636 -0.013913 695536.000000 0 1 0
-15.387154 0.966407 17.217818 23.111722 -0.062724 0.730288 0.014834 -0.013368 609111.000000 0 1 0
-15.634954 -0.378593 17.581218 23.530711 0.024210 0.727017 -0.004725 -0.009419 -78057.600000 0 1 0
-16.754754 -0.930593 16.949518 23.851078 0.055485 0.780390 -0.000412 -0.001544 -425083.000000 0 1 0
-16.861254 -2.446593 17.203018 24.212219 0.144096 0.780574 0.002332 0.002210 -367386.000000 0 1 0
-17.133954 -2.766593 18.582018 25.426714 0.160087 0.751293 -0.015778 0.011819 78369.800000 0 0 1
-16.985154 -4.135293 18.833918 25.696548 0.238819 0.748169 -0.013932 0.013442 21198.600000 0 0 1
-17.990454 -4.558993 19.933418 27.235675 0.248187 0.749710 -0.021696 0.013801 71146.200000 0 0 1
-17.568654 -4.096193 21.301218 27.913765 0.229061 0.702688 -0.016499 0.015124 51668.700000 0 0 1
-18.479854 -4.403193 22.313818 29.305283 0.233908 0.705286 -0.008526 0.013505 -590038.000000 0 0 1
-18.486154 -5.849793 22.857218 29.973495 0.306472 0.703503 -0.006819 0.012845 -542994.000000 0 0 1
-17.363554 -6.170693 23.594718 29.937955 0.341461 0.663047 0.002477 0.015800 -1065600.000000 0 0 1
-16.389054 -6.834893 22.906518 28.983192 0.395109 0.659436 -0.012737 0.014774 -612122.000000 0 0 1
-15.192154 -7.278793 23.788518 29.149202 0.446801 0.616175 -0.010556 0.008141 145736.000000 0 0 1
-15.561354 -8.429793 24.541808 30.257520 0.496459 0.624770 -0.010148 0.007984 -191743.000000 0 0 1
-14.562554 -8.868793 25.412798 30.602839 0.547021 0.590959 0.001934 0.011097 -427293.000000 0 0 1
-14.942054 -9.744993 26.568748 32.002004 0.577910 0.591292 0.001593 0.005205 -559275.000000 0 0 1
-15.039554 -11.127293 26.261878 32.244241 0.636985 0.618986 0.003213 -0.000268 -42469.800000 0 0 1
-14.565754 -11.855593 27.399378 33.218100 0.683181 0.600890 0.004123 -0.003851 -305123.000000 0 0 1
-14.423754 -13.361993 27.093928 33.476387 0.747204 0.627761 0.006271 -0.008873 -517902.000000 0 0 1
-15.570554 -14.089093 27.403078 34.523519 0.735491 0.653845 0.014921 -0.013672 -447687.000000 0 0 1
-15.557654 -15.424093 26.978558 34.753213 0.781087 0.682038 0.021018 -0.008058 658.077000 0 0 1
-14.683654 -16.473093 27.738588 35.445758 0.842769 0.672022 0.019353 -0.009524 400766.000000 0 0 1
-13.359554 -16.553393 27.243088 34.564120 0.891766 0.662934 0.013620 -0.011068 41755.200000 0 0 1
-12.471254 -17.190193 28.119848 35.238626 0.943169 0.646854 0.015618 -0.006190 247802.000000 0 0 1
-11.085954 -17.426193 27.459028 34.359406 1.004208 0.644882 0.018246 -0.008075 -135706.000000 0 0 1
-10.038654 -17.749093 28.312978 34.891684 1.056065 0.624161 0.024765 -0.010884 -25396.600000 0 0 1
-9.097454 -18.598393 27.652758 34.544738 1.115864 0.642682 0.010468 -0.007580 -86117.600000 0 0 1
-8.030954 -19.148093 28.575298 35.322703 1.173668 0.628384 0.021718 -0.013038 -675731.000000 0 0 1
-8.473154 -20.321293 29.150938 36.531171 1.175756 0.646870 0.017318 -0.009373 322578.000000 0 0 1
-7.391254 -21.025193 29.758908 37.179053 1.232748 0.642799 0.029212 -0.010589 90279.300000 0 0 1
-7.677154 -22.257193 30.653498 38.651757 1.238646 0.654966 0.022305 -0.008469 -43780.500000 0 0 1
-8.138954 -23.338893 29.893448 38.788719 1.235254 0.690899 0.021664 -0.010191 90160.100000 0 0 1
-8.419154 -24.514893 30.659308 40.147918 1.239986 0.701835 0.012650 -0.007433 -253472.000000 0 0 1
-8.332954 -25.786193 29.788668 40.270717 1.258233 0.738156 0.010181 -0.008487 -671543.000000 0 0 1
-9.376454 -25.945193 28.865378 39.928448 1.224007 0.762766 0.006777 -0.011386 51115.600000 0 0 1
-9.130354 -27.073293 28.097228 40.072195 1.245529 0.793766 0.005423 -0.012058 -349731.000000 0 0 1
-10.390954 -27.476093 27.279138 40.088140 1.209239 0.822380 0.007805 -0.013112 146633.000000 0 0 1
-10.575654 -26.683393 26.121458 38.809516 1.193450 0.832447 0.008391 -0.014120 224181.000000 0 0 1
-11.235854 -25.459693 26.402318 38.360433 1.155185 0.811695 0.001242 -0.010166 -613129.000000 0 0 1
-11.482554 -24.631693 25.141838 37.022714 1.134577 0.824271 0.005161 -0.017637 -143537.000000 0 0 1
-12.448754 -25.225793 24.293958 37.168650 1.112368 0.858446 0.010683 -0.020277 293921.000000 0 0 1
-12.206954 -24.922293 22.907718 35.984635 1.115341 0.880718 0.022186 -0.018782 -130285.000000 0 0 1
-13.521154 -24.864693 22.115018 35.918639 1.072734 0.907525 0.037302 -0.016041 -20384.000000 0 0 1
-14.131254 -26.113193 21.787818 36.827981 1.074770 0.937741 0.037655 -0.023625 291527.000000 0 0 1
-15.200054 -26.015893 20.869018 36.652207 1.042031 0.965045 0.041330 -0.023341 18527.100000 0 0 1
-15.801454 -27.364393 20.443218 37.635371 1.047126 0.996563 0.046648 -0.024595 -65729.800000 0 0 1
-14.982554 -27.993493 19.525618 37.274151 1.079375 1.019446 0.038051 -0.021385 104731.000000 0 0 1
-15.600854 -29.253093 19.222318 38.322678 1.080860 1.045359 0.040844 -0.021179 284274.000000 0 0 1
-14.937154 -30.027993 18.086318 38.103987 1.109198 1.076222 0.047353 -0.021529 25799.500000 0 0 1
-15.093454 -29.420593 16.800518 37.089635 1.096784 1.100702 0.037327 -0.024733 -230128.000000 0 0 1
-14.012054 -29.746593 15.958018 36.549361 1.130578 1.118963 0.046908 -0.020742 18171.500000 0 0 1
-14.122754 -29.156893 14.567618 35.521713 1.119730 1.148228 0.039046 -0.020839 -329683.000000 0 0 1
-13.797254 -27.787393 14.600618 34.288212 1.109929 1.130928 0.043913 -0.015317 -52135.600000 0 0 1
-13.921354 -27.072193 13.361018 33.244918 1.095829 1.157209 0.040096 -0.007289 94767.700000 0 0 1
-12.944554 -27.372093 12.196418 32.642696 1.129054 1.187873 0.039467 0.000553 113888.000000 0 0 1
-13.284154 -26.656793 11.063218 31.771814 1.108477 1.215137 0.028962 0.005356 476057.000000 0 0 1
-12.377954 -27.088293 10.020318 31.422860 1.142179 1.246242 0.032309 0.006888 463716.000000 0 0 1
-12.589854 -26.432893 8.641918 30.526792 1.126292 1.283779 0.016895 0.016762 -707026.000000 0 0 1
-13.734354 -26.845793 7.988918 31.195383 1.097910 1.311818 0.040492 0.003475 -661506.000000 0 0 1
-13.894454 -26.025493 6.841518 30.285120 1.080415 1.342926 0.028712 0.006988 -47147.400000 0 0 1
-14.958054 -26.565793 5.888918 31.050992 1.057984 1.379987 0.022425 -0.001728 -249095.000000 0 0 1
-14.564154 -27.690593 5.140618 31.706616 1.086597 1.407947 0.027071 -0.003773 4504.270000 0 0 1
-15.367754 -27.817493 3.973918 32.027688 1.066075 1.446398 0.040668 0.004628 -280298.000000 0 0 1
-15.020354 -29.031393 3.115718 32.835050 1.093339 1.475763 0.041003 0.003797 1273220.000000 0 0 1
-13.693654 -28.852193 2.526018 32.036635 1.127663 1.491867 0.037835 0.009037 1196500.000000 0 0 1
-13.410554 -29.981993 1.726818 32.889889 1.150201 1.518269 0.029729 0.005884 938130.000000 0 0 1
-11.995054 -29.986793 1.001418 32.312411 1.190280 1.539800 0.014087 0.005252 1174500.000000 0 0 1
-11.819154 -29.142693 -0.172282 31.448667 1.185505 1.576275 0.012302 0.012942 -56854.400000 0 0 1
-11.682654 -27.760893 0.076418 30.119054 1.172462 1.568259 0.010888 0.013888 -269787.000000 0 0 1
-11.524954 -26.924093 -1.227582 29.312767 1.166342 1.612687 0.012531 0.018877 1017160.000000 0 0 1
-10.328354 -27.296193 -1.955882 29.250342 1.209065 1.637713 0.007429 0.014239 478431.000000 0 0 1
-10.073754 -26.595793 -3.198882 28.619042 1.208722 1.682805 0.021300 0.010670 -79629.800000 0 0 1
-8.710054 -26.859293 -3.831882 28.495087 1.257212 1.705680 0.006740 0.011210 -161077.000000 0 0 1
-8.306154 -25.940693 -4.861382 27.668480 1.260914 1.747414 0.009859 0.005984 -62508.700000 0 0 1
-6.919054 -26.156993 -5.098482 27.532819 1.312199 1.757050 0.000463 0.009765 627784.000000 0 0 1
-6.416954 -24.965193 -5.987982 26.463070 1.319207 1.799050 0.004180 0.003204 -331490.000000 0 0 1
-7.002654 -24.853393 -7.249082 26.819349 1.296158 1.844494 -0.000279 0.000307 35543.800000 0 0 1
-6.382354 -23.724393 -7.863482 25.795651 1.307997 1.880564 0.002229 -0.001657 -119730.000000 0 0 1
-6.685754 -23.627493 -9.384982 26.287556 1.295040 1.935864 0.003260 -0.003728 87153.000000 0 0 1
-6.122154 -24.818793 -10.033482 27.461319 1.328950 1.944824 -0.011989 -0.002597 102904.000000 0 0 1
-6.282354 -24.984493 -11.450082 28.192149 1.324453 1.989027 -0.019396 0.002258 -299882.000000 0 0 1
-7.593154 -25.606893 -11.935782 29.254604 1.282528 1.991055 -0.026989 0.000531 -281654.000000 0 0 1
-7.760554 -25.411193 -13.313582 29.718789 1.274394 2.035307 -0.017261 -0.005469 -74339.800000 0 0 1
-8.929354 -26.030893 -13.800482 30.786264 1.240345 2.035623 -0.020361 -0.009163 -577934.000000 0 0 1
-9.170954 -25.781893 -15.316282 31.359223 1.229041 2.081068 -0.009992 -0.012976 253790.000000 0 0 1
-8.250654 -26.405993 -16.203382 32.060869 1.267954 2.100635 -0.008896 -0.014849 -690490.000000 0 0 1
-6.998954 -25.850993 -16.318882 31.361842 1.306393 2.118048 -0.008040 -0.009739 -590758.000000 0 0 1
-5.926154 -26.855693 -16.905182 32.282081 1.353610 2.121950 -0.003545 -0.010128 213757.000000 0 0 1
-6.140054 -27.087193 -18.250682 33.234074 1.347886 2.152150 0.012251 -0.016011 107100.000000 0 0 1
-5.199854 -28.021993 -18.734182 34.106307 1.387320 2.152308 0.003292 -0.019862 15822.500000 0 0 1
-24.475954 14.828032 -5.617106 29.163243 -0.544688 1.764617 0.014332 -0.008514 -48143.300000 0 0 1
-24.805754 13.631332 -4.943906 28.732922 -0.502477 1.743721 0.006697 -0.008117 -404325.000000 0 0 1
-23.722054 12.778432 -4.855306 27.378790 -0.494105 1.749077 0.026083 -0.007527 -779212.000000 0 0 1
-24.107054 11.306332 -4.563506 27.014973 -0.438546 1.740535 0.047996 -0.019782 -18010.600000 0 0 1
-24.504454 10.510332 -5.663306 27.258180 -0.405182 1.780086 0.041300 -0.015129 -887687.000000 0 0 1
-25.875364 10.431232 -5.828006 28.501065 -0.383205 1.776733 0.021181 -0.016668 -1021650.000000 0 0 1
-26.054404 9.939332 -7.271806 28.818422 -0.364443 1.825886 0.044841 -0.006222 -376647.000000 0 0 1
-25.865384 10.947932 -8.217606 29.264387 -0.400401 1.855430 0.066492 0.002706 -149994.000000 0 0 1
-25.886854 10.392232 -9.515206 29.473154 -0.381754 1.899528 0.066712 0.005133 -375251.000000 0 0 1
-26.183104 11.377932 -10.629406 30.463035 -0.409934 1.927223 0.061293 -0.000832 516819.000000 0 0 1
-25.145294 12.332932 -10.956206 30.073667 -0.455992 1.943691 0.060380 -0.001531 906657.000000 0 0 1
-25.556104 13.113832 -12.097906 31.168034 -0.474103 1.969421 0.063262 -0.006960 -31850.900000 0 0 1
-24.588854 14.265332 -12.398706 31.013535 -0.525699 1.982077 0.057259 -0.008396 -132688.000000 0 0 1
-24.568154 15.345332 -11.515306 31.171713 -0.558313 1.949176 0.049503 -0.001370 -67718.400000 0 0 1
-23.781054 16.380632 -12.025906 31.280761 -0.603176 1.965409 0.042792 -0.004887 -315627.000000 0 0 1
-23.775154 17.657332 -11.178906 31.654498 -0.638800 1.931736 0.027540 -0.005403 -107637.000000 0 0 1
-23.084754 17.604832 -9.913706 30.677639 -0.651527 1.899860 0.019767 0.000268 132247.000000 0 0 1
-22.792154 18.945832 -9.578206 31.147534 -0.693504 1.883372 -0.015179 0.006775 -574097.000000 0 0 1
-21.685754 18.901932 -8.531706 30.005749 -0.716918 1.859110 -0.019747 0.016865 -742165.000000 0 0 1
-21.927054 18.320732 -7.326706 29.497890 -0.696034 1.821805 -0.006571 0.012056 -207903.000000 0 0 1
-22.719554 19.180932 -6.533106 30.442860 -0.701145 1.787081 -0.009786 0.004275 99745.900000 0 0 1
-23.300354 18.553932 -5.230306 30.240883 -0.672477 1.744625 -0.009544 0.003317 171929.000000 0 0 1
-22.290454 18.493232 -4.254406 29.273946 -0.692559 1.716644 0.008857 -0.011881 123038.000000 0 0 1
-22.782954 18.003232 -3.036706 29.195906 -0.668741 1.674996 0.002196 -0.004921 -304901.000000 0 0 1
-21.636454 17.664032 -2.087306 28.009124 -0.684662 1.645388 0.023488 -0.021275 -678045.000000 0 0 1
-21.027554 18.802732 -1.595106 28.253232 -0.729599 1.627284 0.025842 -0.019214 -58876.800000 0 0 1
-20.093154 18.486132 -0.576806 27.309423 -0.743767 1.591919 0.068385 -0.035388 168014.000000 0 0 1
-19.391554 19.730632 0.065994 27.664681 -0.794065 1.568411 0.062901 -0.039280 219273.000000 0 0 1
-20.251754 20.553932 0.820294 28.866426 -0.792803 1.542376 0.048458 -0.032399 175768.000000 0 0 1
-19.587754 21.785532 0.955094 29.312143 -0.838469 1.538207 0.051859 -0.023010 148265.000000 0 0 1
-20.261854 22.690932 2.006594 30.486842 -0.841890 1.504930 0.029890 -0.009781 -98284.000000 0 0 1
-20.269954 22.275932 3.372194 30.306103 -0.832512 1.459294 0.033738 -0.013753 624801.000000 0 0 1
-21.556254 22.206032 4.011294 31.206897 -0.800245 1.441901 0.017825 -0.009865 637431.000000 0 0 1
-21.332854 21.782032 5.477394 30.976595 -0.795816 1.393038 0.020923 -0.009136 97396.900000 0 0 1
-20.802654 22.964632 6.109894 31.582519 -0.834755 1.376111 0.018187 -0.005161 317761.000000 0 0 1
-19.976954 22.727032 7.259894 31.117563 -0.849708 1.335321 0.017840 0.000139 -94348.700000 0 0 1
-20.622554 22.249032 8.571994 31.524407 -0.823318 1.295413 0.008473 -0.006949 -607903.000000 0 0 1
-21.387654 21.055032 8.432994 31.174693 -0.777561 1.296876 0.008918 -0.004275 583469.000000 0 0 1
-21.953154 20.485632 9.618094 31.529507 -0.750832 1.260805 0.012036 -0.005350 330396.000000 0 0 1
-22.717354 21.370332 10.654594 32.958908 -0.754854 1.241614 0.018049 -0.005322 -378818.000000 0 0 1
-23.947554 21.968132 10.275394 34.083249 -0.742315 1.264553 0.030867 -0.005515 532591.000000 0 0 1
-24.537654 22.551832 11.394894 35.221090 -0.743252 1.241344 0.042406 -0.005860 -297642.000000 0 0 1
-25.699714 23.495632 11.043694 36.530579 -0.740625 1.263677 0.055908 -0.009726 -355891.000000 0 0 1
-26.390584 23.890932 12.184494 37.625808 -0.735726 1.241018 0.060795 -0.008251 -138598.000000 0 0 1
-26.702934 25.246032 12.053294 38.674161 -0.757361 1.253854 0.058825 -0.008678 -209028.000000 0 0 1
-27.035964 25.982332 13.347194 39.801665 -0.765528 1.228827 0.056099 -0.004298 215579.000000 0 0 1
-25.969124 26.216032 14.243094 39.554285 -0.790130 1.202432 0.030892 -0.006900 336120.000000 0 0 1
-26.558654 26.882032 15.343194 40.785038 -0.791449 1.185108 0.042793 -0.000377 698038.000000 0 0 1
-25.575004 26.978632 16.560594 40.696200 -0.812100 1.151703 0.023737 -0.003310 236322.000000 0 0 1
-25.217074 25.721732 17.126594 39.885192 -0.795305 1.126971 0.036376 -0.007836 85191.500000 0 0 1
-24.365554 25.824132 18.252294 39.921326 -0.814451 1.095945 0.031584 -0.004855 -208132.000000 0 0 1
-23.756154 24.477732 18.600494 38.852189 -0.800357 1.071566 0.038046 -0.002004 -559389.000000 0 0 1
-22.950354 24.446132 19.733594 38.906900 -0.816947 1.038863 0.032773 -0.011339 140456.000000 0 0 1
-22.546354 23.100832 20.041494 37.995368 -0.797545 1.015174 0.038230 -0.010061 -167729.000000 0 0 1
-21.050554 22.871032 20.378594 37.168495 -0.826823 0.990495 0.048718 -0.012027 50983.200000 0 0 1
-20.186654 22.909932 19.234494 36.087834 -0.848504 1.008665 0.043394 -0.016658 426595.000000 0 0 1
-18.823154 22.797132 19.590494 35.465586 -0.880591 0.985579 0.034677 -0.019920 -2633.540000 0 0 1
-18.243554 21.381432 19.625694 34.280618 -0.864423 0.961243 0.033354 -0.004617 -756996.000000 0 0 1
-18.569654 20.591732 20.735694 34.623987 -0.836987 0.928692 0.042322 -0.005551 17979.900000 0 0 1
-17.739354 20.753132 21.867294 34.979361 -0.863534 0.895475 0.039039 0.000065 -89338.800000 0 0 1
-18.584954 20.538932 23.134794 36.089707 -0.835300 0.874949 0.017468 0.009522 585876.000000 0 0 1
-19.654754 21.506632 23.235594 37.265767 -0.830359 0.897572 0.022352 0.009281 633858.000000 0 0 1
-20.216554 21.427232 24.582794 38.368595 -0.814462 0.875386 0.030174 0.017817 -21078.500000 0 0 1
-21.491354 22.252332 24.716594 39.597406 -0.802793 0.896693 0.025466 0.013431 -786924.000000 0 0 1
-21.164354 23.616232 25.040894 40.406715 -0.840097 0.902409 0.030655 0.003190 81643.400000 0 0 1
-22.215954 24.557832 25.209794 41.619340 -0.835425 0.920122 0.024959 -0.000673 -26084.800000 0 0 1
-23.096754 24.856032 23.957894 41.536286 -0.822069 0.955997 0.018682 -0.004975 -267583.000000 0 0 1
-23.974954 23.810332 23.685294 41.264070 -0.781953 0.959422 0.015483 -0.003437 -205999.000000 0 0 1
-24.788354 24.194832 22.569094 41.342670 -0.773282 0.993330 0.017590 0.000672 -126336.000000 0 0 1
-25.846254 23.161032 22.159994 41.176784 -0.730661 1.002535 0.022264 0.006166 59356.400000 0 0 1
-26.997734 23.164732 23.003894 42.363446 -0.709135 0.996776 0.013583 -0.000818 461960.000000 0 0 1
-27.925424 22.207232 22.457394 42.158332 -0.671828 1.009018 0.012671 0.000896 57968.600000 0 0 1
-29.372524 22.528332 22.855994 43.504797 -0.654284 1.017650 0.025501 -0.000685 -812505.000000 0 0 1
-29.927634 23.550032 22.019094 43.989860 -0.666701 1.046563 0.020008 -0.000649 -274531.000000 0 0 1
-31.278564 23.884432 22.199694 45.184522 -0.652151 1.057201 0.016136 -0.006512 -288053.000000 0 0 1
-32.115384 22.984132 21.266894 44.854754 -0.621168 1.076823 0.019569 -0.012263 -1166940.000000 0 0 1
-32.128144 21.605832 21.632094 44.350615 -0.592023 1.061284 0.024687 -0.005624 190783.000000 0 0 1
-32.530184 20.665532 20.641094 43.718781 -0.565952 1.079087 0.019503 -0.006314 199978.000000 0 0 1
-34.053084 20.595732 20.342494 44.694672 -0.543951 1.098263 0.007093 -0.009398 49159.800000 0 0 1
-34.433663 19.642432 19.416994 44.142065 -0.518403 1.115337 0.016793 -0.005570 622287.000000 0 0 1
35.057681 19.725032 19.261494 44.599586 0.512500 1.124225 0.021590 -0.008311 736923.000000 0 0 1
34.537349 18.863332 18.057194 43.297991 0.499899 1.140605 0.033993 -0.015065 -131610.000000 0 0 1
34.693859 17.460932 18.233594 42.907015 0.466273 1.131883 0.054009 -0.016950 263121.000000 0 0 1
33.843149 16.798032 17.329894 41.567509 0.460723 1.140754 0.054368 -0.020291 119030.000000 0 0 1
34.095989 15.282232 17.299494 41.174696 0.421366 1.137187 0.054186 -0.020244 -142140.000000 0 0 1
33.109709 14.665732 16.532394 39.807745 0.416970 1.142517 0.046394 -0.030119 -109541.000000 0 0 1
33.384009 13.270432 16.382294 39.483870 0.378357 1.142951 0.034887 -0.032015 -18433.900000 0 0 1
32.400659 12.583832 15.425194 38.027518 0.370451 1.153126 0.033992 -0.032388 -259147.000000 0 0 1
32.439589 13.010432 14.066494 37.675782 0.381425 1.188172 0.050800 -0.035411 100927.000000 0 0 1
31.630849 12.261532 13.211394 36.405998 0.369810 1.199428 0.046622 -0.031310 -594443.000000 0 0 1
31.918229 12.660132 11.784694 36.303323 0.377609 1.240189 0.042442 -0.024812 -273514.000000 0 0 1
33.205479 12.302732 11.342194 37.183416 0.354822 1.260823 0.048203 -0.027099 60539.100000 0 0 1
33.429609 12.707032 10.031394 37.143455 0.363246 1.297329 0.039435 -0.019638 853504.000000 0 0 1
34.962040 12.657232 9.632594 38.410111 0.347350 1.317308 0.041879 -0.012137 754061.000000 0 0 1
-35.440509 11.355632 9.623094 38.439354 -0.310078 1.317760 0.051035 -0.009189 70598.100000 0 0 1
-34.098678 11.272132 9.185494 37.069584 -0.319265 1.320397 0.058547 -0.004407 75878.200000 0 0 1
-33.886734 11.156032 7.625694 36.481762 -0.318040 1.360216 0.068852 -0.019334 -368582.000000 0 0 1
-34.390336 12.290132 6.970894 37.179778 -0.343227 1.382189 0.051581 -0.022436 106451.000000 0 0 1
-34.047324 12.214332 5.549494 36.595178 -0.344445 1.418564 0.047136 -0.022708 285150.000000 0 0 1
-35.063676 13.035332 4.707994 37.703401 -0.355929 1.445600 0.035452 -0.023445 -119691.000000 0 0 1
34.560359 12.467032 4.698294 37.039428 0.346204 1.443608 0.022829 -0.024362 480946.000000 0 0 1
33.479929 13.419232 4.633994 36.365579 0.381208 1.443021 0.041563 -0.021861 514398.000000 0 0 1
33.211559 14.193432 5.948994 36.603985 0.403871 1.407549 0.023192 -0.015847 -1303060.000000 0 0 1
32.495579 15.388432 5.675694 36.400275 0.442268 1.414233 0.001716 -0.013285 59975.100000 0 0 1
32.121589 16.101432 6.840794 36.576619 0.464659 1.382662 -0.001132 -0.011848 -228252.000000 0 0 1
30.860979 15.560932 7.552194 35.377652 0.467023 1.355667 0.004606 -0.004664 -605845.000000 0 0 1
31.027229 14.452632 8.439894 35.253359 0.435919 1.329041 0.006782 -0.005732 -328655.000000 0 0 1
29.920939 13.605532 8.535294 33.959157 0.426769 1.316732 0.023501 -0.012995 -661865.000000 0 0 1
30.164609 12.236332 7.854894 33.486278 0.385369 1.334020 0.024790 -0.010964 -117039.000000 0 0 1
30.018459 12.364032 6.400694 33.089969 0.390706 1.376136 0.005506 -0.013237 258834.000000 0 0 1
30.359799 11.200932 5.679094 32.854686 0.353447 1.397069 0.030178 -0.020524 -273506.000000 0 0 1
30.154439 11.431532 4.159694 32.515737 0.362360 1.442516 0.023577 -0.027416 1271230.000000 0 0 1
28.772469 11.429632 3.697794 31.179563 0.378127 1.451920 0.017995 -0.020074 1362110.000000 0 0 1
28.667409 11.523432 2.265594 30.979715 0.382203 1.497599 0.032170 -0.019269 1315630.000000 0 0 1
27.158169 11.337332 1.784494 29.483651 0.395463 1.510234 0.039989 -0.009370 1303070.000000 0 0 1
26.695149 10.042532 1.821894 28.579761 0.359816 1.507005 0.042798 -0.010385 339629.000000 0 0 1
25.274239 9.959932 1.731194 27.221029 0.375388 1.507156 0.035252 -0.010618 417594.000000 0 0 1
24.785739 8.496932 1.654294 26.253903 0.330260 1.507743 0.036126 -0.013051 -80757.100000 0 0 1
25.122739 7.655332 2.731694 26.404891 0.295779 1.467157 0.041858 -0.009248 765573.000000 0 0 1
26.501319 7.286432 2.651394 27.612350 0.268316 1.474626 0.060599 -0.013686 172513.000000 0 0 1
27.012849 6.512032 3.866894 28.054473 0.236558 1.432521 0.069705 -0.016756 280852.000000 0 0 1
28.399069 6.171032 3.845294 29.315099 0.213971 1.439246 0.085163 -0.019845 665504.000000 0 0 1
28.723149 5.621532 5.109194 29.710684 0.193271 1.397972 0.079320 -0.014532 654953.000000 0 0 1
30.264049 5.641332 5.400894 31.255511 0.184289 1.397126 0.064499 -0.013239 654968.000000 0 0 1
30.734769 6.910232 5.758794 32.024070 0.221157 1.389986 0.060641 -0.015171 111839.000000 0 0 1
32.101079 6.827432 6.150094 33.390369 0.209563 1.385551 0.028562 -0.004002 296705.000000 0 0 1
32.519539 8.037232 6.975294 34.216549 0.242295 1.365500 0.017323 -0.009297 117893.000000 0 0 1
31.860989 8.053932 8.278294 33.889801 0.247597 1.324029 0.025602 -0.014048 344754.000000 0 0 1
32.315549 9.055932 9.182294 34.793953 0.273226 1.303728 0.030318 -0.012935 -24243.700000 0 0 1
31.805369 8.872432 10.658894 34.697458 0.272044 1.258552 0.040287 -0.018870 1033320.000000 0 0 1
30.398549 9.146132 10.866694 33.553071 0.292258 1.240984 0.040882 -0.021116 890190.000000 0 0 1
29.968129 8.725632 12.099394 33.475674 0.283331 1.200986 0.046932 -0.026435 225056.000000 0 0 1
28.466739 9.040532 12.401094 32.339969 0.307508 1.177256 0.039870 -0.027990 229123.000000 0 0 1
28.134349 10.387032 12.619994 32.537613 0.353671 1.172489 0.040326 -0.020956 81070.700000 0 0 1
28.193399 11.373332 11.563894 32.526052 0.383437 1.207318 0.038665 -0.025442 -457838.000000 0 0 1
27.106919 11.326032 10.454094 31.182561 0.395780 1.228921 0.025233 -0.017459 -14728.800000 0 0 1
27.169129 12.453832 9.609894 31.394419 0.429802 1.259701 0.009587 0.006026 -243256.000000 0 0 1
26.058729 12.522732 8.761694 30.209989 0.447973 1.276542 0.011857 0.001546 -443006.000000 0 0 1
26.060749 13.648932 7.731894 30.417728 0.482455 1.313786 0.002822 0.009858 -62783.700000 0 0 1
26.001209 14.939632 8.347594 31.127766 0.521514 1.299301 -0.003526 0.016409 226102.000000 0 0 1
26.407829 15.890832 7.417994 31.700451 0.541703 1.334604 0.000771 0.011126 -584002.000000 0 0 1
26.116549 17.355332 7.749994 32.300837 0.586525 1.328501 0.000477 0.004684 1690090.000000 0 0 1
24.774039 17.920632 7.931094 31.588041 0.626235 1.317002 0.011449 0.014336 2162480.000000 0 0 1
23.844639 17.340232 8.886494 30.793185 0.628760 1.278046 0.028888 0.017484 1071550.000000 0 0 1
22.606239 18.297832 9.052394 30.459786 0.680456 1.269046 0.040319 0.010297 321967.000000 0 0 1
21.873439 18.603532 7.888794 29.778714 0.704789 1.302682 0.046084 0.003229 494817.000000 0 0 1
20.856539 19.576332 8.220894 29.762579 0.753746 1.290942 0.083095 -0.008632 600401.000000 0 0 1
20.026439 19.912232 6.934994 29.080051 0.782539 1.329997 0.069116 -0.005778 111741.000000 0 0 1
20.593639 20.917432 6.074394 29.975577 0.793198 1.366738 0.045215 0.011072 412931.000000 0 0 1
19.785339 21.106932 4.909694 29.343948 0.817706 1.402690 0.053191 -0.000509 -16565.300000 0 0 1
16.978146 17.565132 33.148399 41.177757 0.802389 0.635108 0.046306 0.007499 32679.800000 0 0 1
16.451246 18.425332 32.140038 40.535397 0.841940 0.655262 0.023281 0.005019 445308.000000 0 0 1
15.948946 17.569032 31.077308 39.100369 0.833695 0.652104 0.034221 0.001587 172501.000000 0 0 1
15.495246 18.277632 29.786798 38.228626 0.867598 0.677447 0.028194 -0.000641 -377041.000000 0 0 1
16.587946 18.651032 29.036478 38.290182 0.843877 0.710054 0.018167 0.002394 -437057.000000 0 0 1
16.146946 18.861732 27.626828 37.144723 0.862789 0.732116 0.031537 -0.016231 -135684.000000 0 0 1
17.250846 19.227632 26.628628 37.099560 0.839536 0.770215 0.023323 -0.004311 -396925.000000 0 0 1
17.903146 20.448932 26.869588 38.218533 0.851680 0.791117 0.019209 -0.002768 218790.000000 0 0 1
18.888846 20.699132 25.875718 38.141780 0.831094 0.825202 0.014577 0.006967 668100.000000 0 0 1
19.892946 21.865332 26.249638 39.533095 0.832596 0.844652 0.031285 -0.000171 562344.000000 0 0 1
19.237946 23.103032 26.024418 39.763287 0.876431 0.857297 0.028253 -0.006844 146449.000000 0 0 1
20.028546 24.152132 26.494428 41.066079 0.878463 0.869556 0.048782 -0.009758 -374141.000000 0 0 1
19.531646 25.627332 26.380228 41.643268 0.919570 0.884752 0.048398 -0.013009 -168064.000000 0 0 1
19.371846 26.092632 25.026748 41.017460 0.932160 0.914548 0.045666 -0.009083 26849.300000 0 0 1
18.337846 27.023432 24.996228 41.126073 0.974584 0.917515 0.050631 -0.021870 -571674.000000 0 0 1
18.393846 27.847632 23.722918 40.946319 0.987063 0.952845 0.050275 -0.018441 507249.000000 0 0 1
19.645146 28.500532 23.452618 41.811929 0.967294 0.975315 0.049033 -0.020430 549972.000000 0 0 1
19.509146 29.498532 22.471318 41.901436 0.986477 1.004761 0.032729 -0.015962 -402403.000000 0 0 1
20.750146 30.348432 22.214718 42.954506 0.971073 1.027257 0.036099 -0.018300 -92154.400000 0 0 1
21.677146 29.686632 21.312418 42.490163 0.940089 1.045367 0.036576 -0.014321 627006.000000 0 0 1
22.787646 30.581532 21.121918 43.596357 0.930410 1.065018 0.036038 -0.024366 372255.000000 0 0 1
22.825346 31.063432 19.624418 43.255647 0.937096 1.099901 0.031193 -0.018528 412642.000000 0 0 1
21.760346 31.952332 19.228518 43.176384 0.972919 1.109233 0.012479 -0.012420 764440.000000 0 0 1
21.798646 32.219332 17.818618 42.787492 0.975969 1.141265 0.010979 -0.008582 -296243.000000 0 0 1
21.073646 33.546732 17.579218 43.341789 1.009908 1.153167 0.019008 0.002921 -71998.700000 0 0 1
21.924746 -34.314693 17.644118 44.379135 -1.002241 1.161922 0.014008 -0.002514 791943.000000 0 0 1
22.323346 -33.744193 16.398418 43.656735 -0.986347 1.185729 0.013054 -0.010829 320269.000000 0 0 1
23.519146 -34.471693 15.694318 44.584297 -0.972066 1.211074 0.006351 -0.010397 -308703.000000 0 0 1
23.163746 33.428832 14.910418 43.317047 0.964833 1.219393 0.013257 -0.018463 300903.000000 0 0 1
22.336146 33.716932 13.796718 42.732708 0.985711 1.242046 0.000786 -0.013171 -195897.000000 0 0 1
21.955946 32.489132 12.961018 41.298853 0.976502 1.251567 0.010488 -0.013353 -165200.000000 0 0 1
22.883346 31.934632 12.036118 41.089371 0.949037 1.273511 0.019780 -0.021728 59863.700000 0 0 1
22.324246 30.801232 11.429718 39.720603 0.943630 1.278917 0.026884 -0.015178 -466174.000000 0 0 1
23.392346 29.991132 10.639218 39.495099 0.908385 1.298046 0.026180 -0.011339 35063.700000 0 0 1
24.327346 29.326232 11.399318 39.771750 0.878300 1.280101 0.028288 -0.007759 122198.000000 0 0 1
25.425346 30.106832 11.890218 41.161230 0.869502 1.277751 0.032497 -0.009227 212068.000000 0 0 1
26.771946 29.390332 12.170718 41.577098 0.831986 1.273719 0.034616 -0.011551 553537.000000 0 0 1
26.653146 28.548532 13.275618 41.251072 0.819720 1.243140 0.037317 -0.008741 -370354.000000 0 0 1
27.933546 28.412432 13.814118 42.170833 0.793897 1.237060 0.031963 0.000389 -318002.000000 0 0 1
28.062646 27.299932 14.814718 41.860175 0.771622 1.209048 0.019507 -0.004422 132727.000000 0 0 1
29.303146 27.385332 15.497118 42.997575 0.751580 1.202080 0.017704 -0.018273 149193.000000 0 0 1
29.533246 26.303032 16.376418 42.804780 0.727611 1.178205 0.014455 -0.015430 -99111.400000 0 0 1
30.890346 26.415032 17.099118 44.094753 0.707460 1.172573 0.014186 -0.012140 -723117.000000 0 0 1
31.935246 26.500232 16.205418 44.550397 0.692656 1.198501 0.021943 -0.010219 -1261090.000000 0 0 1
33.127346 26.639032 16.928518 45.756244 0.677260 1.191818 0.021916 -0.012323 -175181.000000 0 0 1
34.347846 26.958332 16.038718 46.516306 0.665442 1.218773 0.026602 -0.014441 -9591.640000 0 0 1
34.383746 28.270932 15.529718 47.145093 0.688142 1.235125 0.033843 -0.016911 761551.000000 0 0 1
-35.161246 28.541632 15.161418 47.757791 -0.681856 1.247742 0.034615 -0.015428 916241.000000 0 0 1
-34.985946 29.812632 14.380418 48.162287 -0.705730 1.267589 0.025178 -0.011368 -97983.000000 0 0 1
-35.138746 31.021432 15.093818 49.243112 -0.723246 1.259265 0.021978 -0.016912 74508.600000 0 0 1
-35.369846 32.080832 14.238118 49.829006 -0.736675 1.281018 0.021994 -0.003970 -630232.000000 0 0 1
34.394046 33.004732 14.582318 49.848839 0.764788 1.273924 0.028533 -0.007058 -868100.000000 0 0 1
34.301546 34.190032 13.829818 50.366837 0.783770 1.292642 0.010077 -0.015265 487679.000000 0 0 1
33.187346 -34.038993 14.191518 49.613025 -0.798066 1.280700 0.013175 -0.009838 1097920.000000 0 0 1
31.788646 -34.422493 13.578418 48.783189 -0.825157 1.288729 0.024454 -0.008589 516069.000000 0 0 1
31.142646 33.620132 14.354218 48.023133 0.823634 1.267254 0.027053 -0.014483 -481156.000000 0 0 1
29.936946 33.246032 13.770018 46.809538 0.837723 1.272208 0.029505 -0.006866 -785825.000000 0 0 1
29.238646 32.051432 14.494718 45.741552 0.831259 1.248355 0.030508 -0.020852 -261874.000000 0 0 1
28.603546 32.327632 15.697618 45.930969 0.846442 1.222002 0.033668 -0.021054 -20597.600000 0 0 1
27.884146 31.217532 16.191518 44.880120 0.841739 1.201700 0.029567 -0.025149 3989.110000 0 0 1
26.992246 31.582832 17.386918 45.037335 0.863609 1.174444 0.012815 -0.020287 -128563.000000 0 0 1
26.887246 30.506432 18.327218 44.603288 0.848374 1.147362 0.003234 -0.010863 65578.300000 0 0 1
27.863246 30.593432 19.387318 45.696681 0.832069 1.132651 0.005599 -0.009587 354255.000000 0 0 1
27.954746 29.386232 20.405718 45.402773 0.810357 1.104661 0.010202 -0.005777 -20677.500000 0 0 1
26.783946 29.246132 21.182618 44.960197 0.829314 1.080212 0.013317 -0.011344 86862.300000 0 0 1
27.005046 28.179532 22.148318 44.876570 0.806678 1.054643 0.000581 -0.005163 281446.000000 0 0 1
25.878546 28.032532 23.209018 44.656249 0.825331 1.024266 0.007795 -0.013755 524339.000000 0 0 1
24.615646 27.708132 22.637618 43.429626 0.844432 1.022483 0.026993 -0.012087 466665.000000 0 0 1
23.475446 27.534032 23.460518 43.123258 0.864796 0.995559 0.040677 -0.019955 331623.000000 0 0 1
23.427046 26.380732 24.472618 42.938078 0.844630 0.964350 0.038018 -0.024599 -1049740.000000 0 0 1
24.363546 26.492832 25.478058 44.097437 0.827242 0.954806 0.024317 -0.021745 -346219.000000 0 0 1
23.987446 25.674832 26.567328 44.050170 0.819362 0.923395 0.047167 -0.023109 -397683.000000 0 0 1
25.122546 25.350832 27.574778 45.101834 0.789921 0.912981 0.049676 -0.026934 6330.830000 0 0 1
25.490646 26.503632 28.342958 46.427781 0.804878 0.914137 0.064263 -0.032179 755913.000000 0 0 1
26.385146 27.432632 27.694958 47.071605 0.804859 0.941770 0.043106 -0.019465 -260893.000000 0 0 1
26.652446 28.723832 28.440778 48.417861 0.822786 0.942951 0.019589 -0.013757 -622010.000000 0 0 1
27.140446 28.570232 29.734268 49.365866 0.811057 0.924386 0.029120 -0.002192 172100.000000 0 0 1
27.668046 29.732232 30.327418 50.688053 0.821344 0.929400 0.019823 -0.003875 752766.000000 0 0 1
29.219046 29.849932 30.199848 51.544175 0.796078 0.944803 0.008568 0.001433 624718.000000 0 0 1
29.787746 29.994632 28.873948 51.192701 0.788859 0.971545 -0.012582 0.003856 200224.000000 0 0 1
31.177446 30.260632 28.914448 52.189887 0.770477 0.983606 0.017043 -0.002443 173940.000000 0 0 1
31.728946 30.736432 27.598308 52.087627 0.769510 1.012380 0.011099 -0.001984 -367709.000000 0 0 1
31.383646 32.088432 27.370998 52.571592 0.796502 1.023193 0.007153 0.002012 55229.400000 0 0 1
31.907046 32.599432 26.209648 52.609203 0.796131 1.049280 0.006853 -0.002638 -381952.000000 0 0 1
31.583146 34.097932 26.022038 53.266411 0.823667 1.060396 0.009084 -0.006351 -444357.000000 0 0 1
32.376846 -34.101693 26.796708 54.122539 -0.811338 1.052833 0.037176 -0.015434 70822.200000 0 0 1
32.015446 -32.782293 26.540118 52.953238 -0.797232 1.045812 0.038630 -0.009430 -378262.000000 0 0 1
32.886246 -31.727693 27.240268 53.199473 -0.767470 1.033238 0.043121 -0.017676 -60874.200000 0 0 1
32.565546 -31.511793 28.585838 53.578522 -0.768955 1.008026 0.041057 -0.024511 817088.000000 0 0 1
33.697646 -30.838393 29.124538 54.173578 -0.741122 1.003190 0.047807 -0.032679 99291.700000 0 0 1
33.588446 -30.575093 30.656988 54.798458 -0.738469 0.977074 0.040103 -0.033715 -305068.000000 0 0 1
33.545446 -31.680993 31.603608 55.926473 -0.756822 0.970251 0.038350 -0.024573 137861.000000 0 0 1
32.313246 -32.350993 31.617268 55.591225 -0.785982 0.965816 0.036892 -0.024882 -395839.000000 0 0 1
32.256046 -33.283493 32.849201 56.809449 -0.801074 0.954233 0.031168 -0.013098 -194428.000000 0 0 1
32.197846 -32.720993 34.148809 57.214560 -0.793456 0.931220 0.030055 -0.015389 206933.000000 0 0 1
32.530146 -33.566293 -33.615286 57.575115 -0.801073 2.194260 0.024818 -0.009936 2783.850000 0 0 1
31.708846 34.174132 -33.411646 57.355561 0.822800 2.192641 0.017571 -0.005497 -135482.000000 0 0 1
32.030946 33.246432 34.421737 57.586133 0.804016 0.930113 0.026894 -0.003849 148005.000000 0 0 1
31.304546 32.042132 -34.309683 56.425413 0.797041 2.224403 0.029945 -0.000856 -109223.000000 0 0 1
31.499446 30.960932 33.453409 55.406904 0.776777 0.922566 0.024451 0.006041 -606558.000000 0 0 1
32.789446 30.421832 33.366330 55.802757 0.747960 0.929876 0.019452 0.000010 -209307.000000 0 0 1
32.889746 29.507432 32.322858 54.746608 0.731245 0.939232 0.021872 0.001312 87553.900000 0 0 1
34.324746 28.926432 32.264088 55.280178 0.700257 0.947584 0.024573 0.002868 162663.000000 0 0 1
34.452146 27.737932 33.068193 55.225435 0.677852 0.928812 0.019568 0.005174 -112426.000000 0 0 1
-35.113646 27.389732 33.162455 55.523995 -0.662446 0.930711 0.002871 0.004922 -457222.000000 0 0 1
-34.954246 26.093332 33.962592 55.282176 -0.641257 0.909235 -0.012152 0.007929 -75023.900000 0 0 1
35.400546 24.993332 33.336651 54.673555 0.614752 0.915064 -0.009893 0.005114 22556.700000 0 0 1
35.203446 23.858732 34.156847 54.545503 0.595629 0.894116 -0.012512 -0.003445 -187771.000000 0 0 1
34.881746 22.628332 33.298026 53.268529 0.575472 0.895540 -0.013146 -0.010810 -441446.000000 0 0 1
-34.991246 22.032432 32.586388 52.646824 -0.561940 0.903376 -0.001610 -0.010328 -30210.400000 0 0 1
35.439546 20.919632 31.824828 52.023189 0.533250 0.912534 0.007112 -0.012947 -111096.000000 0 0 1
-34.336746 20.199732 31.123248 50.553911 -0.531760 0.907592 0.008604 -0.020034 -163220.000000 0 0 1
-33.708946 20.830832 30.020968 49.713933 -0.553522 0.922443 0.001083 -0.012810 769560.000000 0 0 1
-32.616446 20.169932 29.369108 48.303243 -0.553837 0.917238 0.022783 -0.012816 412576.000000 0 0 1
-33.106346 19.199132 28.273028 47.581519 -0.525526 0.934523 0.026567 -0.001760 -405654.000000 0 0 1
-33.870646 18.115132 28.748848 47.977859 -0.491124 0.928281 0.022455 -0.006821 288913.000000 0 0 1
-34.184646 17.168332 27.767618 47.269253 -0.465425 0.942911 0.022544 -0.011787 -167673.000000 0 0 1
-35.078446 16.085632 28.335048 47.876089 -0.429951 0.937455 0.031967 -0.017242 -158856.000000 0 0 1
-34.244046 15.207432 29.063248 47.419332 -0.417928 0.911072 0.039909 -0.009273 664640.000000 0 0 1
-35.018746 14.252832 29.771208 48.122559 -0.386531 0.903768 0.050059 -0.017670 149298.000000 0 0 1
-34.221146 12.945332 30.068128 47.357796 -0.361647 0.882899 0.054314 -0.012293 207591.000000 0 0 1
-33.164546 13.137132 30.982298 47.248007 -0.377157 0.855637 0.043685 -0.004296 181374.000000 0 0 1
-32.449446 11.979332 31.356648 46.687368 -0.353649 0.834389 0.054274 -0.008251 -107895.000000 0 0 1
-30.938946 12.253332 31.461348 45.794967 -0.377096 0.813438 0.046446 -0.003335 -796069.000000 0 0 1
-30.233946 12.178932 30.242138 44.463522 -0.382938 0.822821 0.043782 -0.007235 -696510.000000 0 0 1
-28.920046 12.587332 30.340458 43.764751 -0.410517 0.804790 0.029393 0.002660 -741455.000000 0 0 1
-27.880646 11.525132 30.731428 43.064832 -0.391982 0.776161 0.021688 0.001842 -553718.000000 0 0 1
-27.559746 10.747832 29.605858 41.851671 -0.371841 0.784984 0.016017 0.001886 98118.300000 0 0 1
-26.366946 10.003032 29.849478 41.064192 -0.362603 0.757002 0.006233 0.001701 175469.000000 0 0 1
-25.998046 9.130632 28.630448 39.736248 -0.337748 0.766256 0.000779 0.002275 16184.600000 0 0 1
-26.645146 7.891332 28.425088 39.752014 -0.287934 0.774086 0.002066 -0.001747 -1621940.000000 0 0 1
-27.940746 7.984932 27.985028 40.343602 -0.278361 0.804229 0.013829 0.001720 -1157300.000000 0 0 1
-28.684046 6.601332 28.039548 40.651794 -0.226201 0.809654 0.008944 -0.000555 87538.200000 0 0 1
-29.147846 6.282932 29.333428 41.827290 -0.212306 0.793579 0.007334 -0.001950 177865.000000 0 0 1
-29.842946 5.016032 29.335978 42.146905 -0.166524 0.800927 0.004959 -0.004987 -72598.300000 0 0 1
-30.499546 4.843532 30.728698 43.565296 -0.157492 0.787882 0.004904 -0.004030 -842513.000000 0 0 1
-31.693946 5.543932 30.748698 44.505324 -0.173169 0.808064 0.017085 -0.011985 -657422.000000 0 0 1
-32.316246 5.321332 32.039138 45.816621 -0.163200 0.796392 0.023826 -0.012741 504113.000000 0 0 1
-33.856646 5.523632 32.048408 46.945537 -0.161723 0.819383 0.027097 -0.009365 341729.000000 0 0 1
-34.244846 6.867532 32.208958 47.510941 -0.197917 0.825857 0.035509 -0.005272 124076.000000 0 0 1
35.273746 7.066032 32.329648 48.367056 0.197703 0.838710 0.060495 -0.004119 445298.000000 0 0 1
34.904246 8.549532 32.670208 48.566896 0.240213 0.832965 0.047903 -0.008658 -184655.000000 0 0 1
35.418646 8.847132 33.936039 49.843826 0.244779 0.821877 0.038538 -0.010835 301100.000000 0 0 1
35.069846 10.147232 34.419938 50.175617 0.281652 0.814834 0.041892 -0.015956 -83145.000000 0 0 1
35.145446 10.299532 -32.942836 49.259651 0.285073 2.303335 0.033582 -0.015170 -173929.000000 0 0 1
34.035246 9.694232 -32.306486 47.917483 0.277481 2.310692 0.035128 -0.004993 118250.000000 0 0 1
34.047646 9.789232 -30.909986 47.015939 0.279964 2.288208 0.020418 0.004226 -597171.000000 0 0 1
32.759246 9.366032 -30.220166 45.542828 0.278476 2.296357 -0.003259 0.005364 -410796.000000 0 0 1
32.759746 8.040032 -29.936036 45.099993 0.240667 2.296645 -0.002568 0.000534 88221.300000 0 0 1
31.466046 7.592732 -29.599676 43.862313 0.236773 2.311533 -0.000930 0.002275 -176658.000000 0 0 1
33.967009 6.546632 -20.364606 40.141416 0.190400 2.102870 -0.014489 0.017095 -346724.000000 0 0 1
33.400509 7.217232 -19.227106 39.209234 0.212810 2.083313 -0.015808 0.008080 533953.000000 0 0 1
34.010039 8.500632 -18.928606 39.840126 0.244927 2.065890 -0.017755 0.009701 281245.000000 0 0 1
-35.447276 8.488532 -18.358606 40.811799 -0.235043 2.037378 -0.014252 0.005847 995894.000000 0 0 1
-34.435509 8.006232 -19.251306 40.255643 -0.228441 2.069430 -0.008159 -0.001495 371665.000000 0 0 1
-33.868024 8.893732 -20.200606 40.425314 -0.256802 2.094051 -0.003787 -0.001348 -494783.000000 0 0 1
-32.962574 8.110132 -21.186106 40.014455 -0.241249 2.128762 -0.000587 0.001288 -204888.000000 0 0 1
-33.512744 7.159732 -22.091206 40.772382 -0.210478 2.143395 -0.002558 0.010129 239875.000000 0 0 1
-34.294339 7.637432 -23.193206 42.099369 -0.219126 2.154257 -0.013810 0.013789 192457.000000 0 0 1
-34.476583 6.499032 -24.214706 42.628912 -0.186319 2.174912 -0.001938 0.006882 63105.000000 0 0 1
-33.238914 6.183332 -24.826006 41.945078 -0.183925 2.204172 0.012233 -0.004163 126994.000000 0 0 1
-33.175464 4.878932 -25.341616 42.031094 -0.146018 2.217959 0.028238 0.014913 649900.000000 0 0 1
-31.840054 4.694532 -26.135976 41.459823 -0.146386 2.252856 0.036379 0.010185 600007.000000 0 0 1
-30.625184 4.751032 -25.455956 40.105858 -0.153908 2.258441 0.028349 0.008339 -670533.000000 0 0 1
-29.534534 4.266832 -26.174116 39.693562 -0.143477 2.290823 0.026647 0.007273 624458.000000 0 0 1
-28.144474 4.644532 -25.536486 38.285705 -0.163551 2.300969 0.025046 -0.001486 613360.000000 0 0 1
-27.825934 6.032232 -25.644376 38.318461 -0.213481 2.303986 0.022685 -0.008255 770263.000000 0 0 1
-26.519694 6.254632 -25.082676 37.034514 -0.231616 2.314853 0.015123 -0.002858 690760.000000 0 0 1
-26.011174 7.717932 -25.257836 37.068935 -0.288441 2.320436 0.010614 -0.010207 -161491.000000 0 0 1
-26.762064 8.634632 -24.511606 37.303937 -0.312100 2.287733 0.032324 -0.024865 -247986.000000 0 0 1
-26.408404 10.045732 -24.741006 37.555797 -0.363496 2.289992 0.020338 -0.026053 -188633.000000 0 0 1
-25.150074 10.525032 -24.006806 36.326701 -0.396343 2.292758 0.036616 -0.016602 -238156.000000 0 0 1
-25.150114 10.418932 -22.567806 35.360829 -0.392747 2.262974 0.035179 -0.014931 -252648.000000 0 0 1
-23.847454 10.787532 -22.198206 34.319561 -0.424811 2.274189 0.061249 -0.015148 -327911.000000 0 0 1
-23.741854 11.309532 -20.772806 33.512544 -0.444553 2.239350 0.074165 -0.027324 -1037330.000000 0 0 1
-23.944254 12.695532 -20.528906 33.999115 -0.487524 2.219065 0.070029 -0.030756 990671.000000 0 0 1
-25.263814 13.261232 -20.492306 35.129121 -0.483377 2.193634 0.058012 -0.024370 1013380.000000 0 0 1
-26.423414 12.560432 -19.708206 35.275695 -0.443736 2.163603 0.047973 -0.018494 -200650.000000 0 0 1
-26.211584 12.749232 -18.355006 34.445555 -0.452706 2.132785 0.055433 -0.024486 206174.000000 0 0 1
-27.277564 12.224532 -17.606106 34.691204 -0.421317 2.103088 0.043237 -0.023882 -487702.000000 0 0 1
-26.826284 11.624432 -16.263706 33.455718 -0.408899 2.078448 0.059888 -0.023134 43667.700000 0 0 1
-26.040364 10.472232 -16.367806 32.491126 -0.382362 2.098745 0.076738 -0.020471 1065350.000000 0 0 1
-24.618154 10.698732 -16.397806 31.454799 -0.409963 2.119186 0.076815 -0.016237 851374.000000 0 0 1
-23.736154 9.423632 -16.204906 30.245806 -0.377931 2.136220 0.065768 -0.013753 -57859.800000 0 0 1
-22.347254 9.630532 -16.179506 29.221966 -0.406899 2.157569 0.059852 -0.009543 101005.000000 0 0 1
-21.672654 8.495932 -15.647706 28.048805 -0.373601 2.162619 0.046605 -0.004217 736210.000000 0 0 1
-20.119654 8.579632 -15.483706 26.798427 -0.403082 2.186808 0.066506 -0.013185 584385.000000 0 0 1
-19.437654 8.727832 -16.707606 27.076586 -0.422036 2.235785 0.072786 -0.019350 1000700.000000 0 0 1
-18.030654 8.938632 -16.447506 25.990846 -0.460239 2.255985 0.072252 -0.020033 856679.000000 0 0 1
-17.265454 9.417832 -17.725806 26.476322 -0.499361 2.304327 0.060946 -0.010669 -126940.000000 0 0 1
-17.164654 8.523332 -18.837106 26.872087 -0.460894 2.347583 0.090417 -0.017344 549624.000000 0 0 1
-16.327554 7.368732 -18.611306 25.831530 -0.423940 2.375302 0.086399 -0.022325 -233954.000000 0 0 1
-15.999554 6.656132 -19.953006 26.427491 -0.394240 2.426465 0.069058 -0.021715 403460.000000 0 0 1
-16.984454 5.789332 -20.589406 27.311384 -0.328510 2.424739 0.073029 -0.012066 822576.000000 0 0 1
-18.031754 6.538732 -21.230106 28.611476 -0.347876 2.406865 0.064825 -0.013204 -304228.000000 0 0 1
-18.928554 5.568132 -21.948306 29.513088 -0.286096 2.409355 0.065161 -0.010168 -385155.000000 0 0 1
-19.855454 4.872532 -21.110406 29.387580 -0.240645 2.372216 0.052638 -0.015141 372363.000000 0 0 1
-20.428654 3.770832 -21.769306 30.090725 -0.182531 2.379591 0.035996 -0.002822 -394648.000000 0 0 1
-21.465754 3.107332 -20.843906 30.081598 -0.143759 2.336317 0.050210 -0.001737 -306171.000000 0 0 1
-22.054254 1.989232 -21.476406 30.847742 -0.089954 2.340896 0.049049 0.001912 142895.000000 0 0 1
-22.851554 1.357032 -20.502006 30.730560 -0.059315 2.301178 0.057109 -0.005046 -140875.000000 0 0 1
-23.401054 -0.054168 -20.894506 31.371844 0.002315 2.299667 0.051293 0.007000 133131.000000 0 0 1
-22.299454 -0.929668 -20.971806 30.625913 0.041666 2.325089 0.058476 -0.009760 224708.000000 0 0 1
-22.614854 -2.321068 -21.177906 31.069642 0.102277 2.320780 0.044151 -0.009022 -287087.000000 0 0 1
-23.164354 -2.721468 -22.613206 32.486162 0.116949 2.340730 0.039261 -0.011923 482740.000000 0 0 1
-22.220754 -2.558468 -23.662906 32.561339 0.114634 2.384328 0.018963 -0.010561 -373520.000000 0 0 1
-21.111854 -3.394768 -23.684306 31.908951 0.159434 2.407213 0.013182 -0.018617 -168257.000000 0 0 1
-20.296554 -3.085068 -25.021206 32.365545 0.150845 2.454481 0.018740 -0.016821 134673.000000 0 0 1
-20.949554 -3.469568 -26.215736 33.737020 0.164126 2.460780 0.008811 -0.007697 221630.000000 0 0 1
-20.032454 -3.490268 -27.297416 34.038656 0.172499 2.501354 0.006360 -0.010040 -290628.000000 0 0 1
-20.741654 -3.621968 -28.659316 35.562498 0.172880 2.507967 -0.006723 -0.002606 231930.000000 0 0 1
-21.475854 -4.864268 -28.708946 36.181169 0.222741 2.487298 0.007710 0.003821 507643.000000 0 0 1
-22.256254 -4.890068 -29.897466 37.591383 0.216280 2.490344 -0.023001 -0.002961 -312059.000000 0 0 1
-22.056354 -6.217768 -30.732926 38.336094 0.274773 2.500881 0.006261 -0.001166 386196.000000 0 0 1
-20.805854 -6.246968 -31.427336 38.204523 0.291687 2.536778 -0.011390 -0.004070 199006.000000 0 0 1
-20.216854 -7.495068 -31.463266 38.142290 0.355025 2.540807 -0.000789 -0.003974 -701031.000000 0 0 1
-18.818854 -7.349868 -32.069596 37.902886 0.372341 2.579420 0.013585 -0.007177 -749063.000000 0 0 1
-18.856654 -6.916568 -33.429286 38.999096 0.351560 2.600567 0.019529 -0.015200 359179.000000 0 0 1
-19.095354 -7.896768 -34.406628 40.134867 0.392127 2.600750 0.013523 -0.012271 -578977.000000 0 0 1
-19.165454 -7.317168 33.048321 38.897906 0.364710 0.555538 0.016917 -0.005640 583694.000000 0 0 1
-17.923254 -6.944668 32.405998 37.677847 0.369656 0.535368 0.008682 -0.009268 1080410.000000 0 0 1
-17.183354 -5.814468 32.852927 37.528529 0.326284 0.504509 0.003826 -0.008963 225124.000000 0 0 1
-15.773054 -5.671768 32.232248 36.330098 0.345189 0.479545 -0.000190 -0.011143 142086.000000 0 0 1
-15.861554 -5.506668 30.854678 35.127246 0.334152 0.498358 -0.003762 -0.007909 992140.000000 0 0 1
-14.547254 -5.288468 30.288198 34.014195 0.348683 0.472447 -0.010265 -0.005996 968415.000000 0 0 1
-14.657154 -5.189968 28.745248 32.681145 0.340315 0.495846 -0.012128 0.010007 23426.100000 0 0 1
-15.378854 -4.006168 28.394638 32.539422 0.254835 0.510249 -0.026615 0.002852 23615.500000 0 0 1
-15.960954 -4.159868 27.111808 31.734944 0.254956 0.546555 -0.012321 0.007202 84447.500000 0 0 1
-15.061854 -3.711968 25.931868 30.217543 0.241633 0.539097 -0.007168 0.002162 199373.000000 0 0 1
-14.977854 -2.315568 25.708508 29.843347 0.153385 0.532681 -0.008618 0.010693 -194586.000000 0 0 1
-14.128554 -2.042768 24.626378 28.464846 0.143589 0.525346 -0.012882 0.017977 -243946.000000 0 0 1
-13.879154 -0.546368 24.511208 28.173192 0.039346 0.515556 -0.004890 0.011438 -245706.000000 0 0 1
-14.932254 0.207932 23.957158 28.230495 -0.013924 0.557412 -0.008928 0.010390 -292336.000000 0 0 1
-14.780654 1.580432 24.185438 28.388394 -0.106521 0.551102 -0.013263 0.008696 -55261.700000 0 0 1
-15.684154 2.483032 23.289718 28.188102 -0.157012 0.598423 -0.010497 0.003156 266974.000000 0 0 1
-14.945754 3.114132 22.250818 26.984668 -0.205423 0.601350 -0.016346 0.005788 850643.000000 0 0 1
-15.766154 4.058432 21.487818 26.958650 -0.251944 0.648376 -0.011940 0.001321 409617.000000 0 0 1
-14.891354 4.914932 20.565218 25.861886 -0.318795 0.651469 -0.006797 0.003889 -74891.100000 0 0 1
-13.981654 5.727732 21.272118 26.092079 -0.388807 0.617599 -0.002016 -0.002418 -183466.000000 0 0 1
-12.764754 5.682632 20.563018 24.860993 -0.418840 0.596833 -0.004224 -0.002247 10744.300000 0 1 0
-11.761854 6.826032 20.890818 24.927138 -0.525848 0.577051 -0.001405 -0.000643 210946.000000 0 1 0
-12.187254 8.116032 20.402218 25.112739 -0.587502 0.622497 0.008561 -0.003171 501929.000000 0 0 1
-11.153754 9.084732 20.383418 24.948393 -0.683520 0.614567 -0.004676 -0.002525 228487.000000 0 1 0
-11.806854 10.496132 20.341018 25.755147 -0.726697 0.660339 0.006420 -0.002531 -23104.000000 0 0 1
-12.210354 11.005632 19.095218 25.196111 -0.733553 0.710764 0.010847 0.000239 178689.000000 0 0 1
-12.756454 12.269232 19.374418 26.241746 -0.765932 0.740242 0.002156 0.005067 -328126.000000 0 0 1
-13.382354 13.038432 18.201718 26.084299 -0.772382 0.798470 0.012717 0.004192 398308.000000 0 0 1
-12.373654 13.656132 17.370518 25.324537 -0.834628 0.814934 0.009708 0.000744 742380.000000 0 0 1
-12.066854 14.950532 17.861918 26.233099 -0.891730 0.821816 0.014232 0.000829 -421846.000000 0 0 1
-12.980254 16.094732 17.349818 26.991546 -0.892110 0.872665 0.014607 0.006272 -144607.000000 0 0 1
-12.963454 16.337632 15.968518 26.267145 -0.900049 0.917349 0.004852 0.000681 -76268.700000 0 0 1
-13.632554 15.404432 15.157718 25.551898 -0.846344 0.935752 0.026892 -0.000274 -376412.000000 0 0 1
-13.922354 15.858632 13.737618 25.180355 -0.850324 0.993729 0.017698 -0.001288 42992.900000 0 0 1
-14.988754 16.791032 13.698518 26.348641 -0.842049 1.024069 0.016426 -0.000733 -53236.100000 0 0 1
-15.239154 17.446632 12.477118 26.311504 -0.852832 1.076732 0.003745 0.001628 25016.400000 0 0 1
-16.375154 18.484232 12.626518 27.735202 -0.845827 1.098141 0.011079 -0.002603 -220382.000000 0 0 1
-17.582654 17.923732 13.099918 28.319918 -0.795004 1.089906 0.017319 -0.004215 -780295.000000 0 0 1
-18.498354 18.967432 13.164418 29.584700 -0.797918 1.109651 0.014791 -0.007616 200614.000000 0 0 1
-19.939154 18.396632 13.439618 30.275886 -0.745183 1.110844 0.015344 -0.001894 554813.000000 0 0 1
-20.518554 17.838232 12.296718 29.839954 -0.715633 1.146051 0.010503 -0.001763 510703.000000 0 0 1
-21.751254 17.179132 12.687618 30.483032 -0.668490 1.141513 0.038425 -0.015144 785520.000000 0 0 1
-22.534954 16.602532 11.501818 30.261527 -0.634964 1.180913 0.037660 -0.012770 -400836.000000 0 0 1
-21.985554 15.397232 11.055018 29.028482 -0.610950 1.180099 0.036326 -0.008163 132133.000000 0 0 1
-22.725454 14.914432 9.955118 28.948073 -0.580783 1.219734 0.036058 -0.017660 317386.000000 0 0 1
-22.032854 13.575032 9.407118 27.535831 -0.552193 1.222144 0.055527 -0.012681 70879.000000 0 0 1
-22.181754 12.405832 10.239618 27.400450 -0.509941 1.187799 0.052496 -0.017369 -436572.000000 0 0 1
-23.450854 11.869132 10.463318 28.289572 -0.468538 1.191933 0.047970 -0.021933 -215177.000000 0 0 1
-24.233454 11.210032 9.281518 28.267856 -0.433270 1.236249 0.062423 -0.008490 68693.200000 0 0 1
-24.772354 12.160532 8.365018 28.836116 -0.456334 1.276477 0.075586 -0.018267 409119.000000 0 0 1
-25.941074 11.675132 7.708718 29.473248 -0.422907 1.306169 0.083869 -0.017081 91318.800000 0 0 1
-26.258124 12.579532 6.474718 29.827096 -0.446765 1.351979 0.064285 -0.015434 -644094.000000 0 0 1
-25.315954 12.374032 5.438818 28.698344 -0.454635 1.380126 0.060619 -0.027761 1480430.000000 0 0 1
-24.053754 13.109932 5.517618 27.944543 -0.499017 1.372041 0.061604 -0.034130 853828.000000 0 0 1
-24.020754 14.618332 5.643118 28.679906 -0.546698 1.372742 0.057412 -0.020350 -532400.000000 0 0 1
-22.726954 15.166832 5.885418 27.949693 -0.588476 1.358636 0.051905 -0.019274 503277.000000 0 0 1
-22.746954 16.486032 6.399118 28.812530 -0.627149 1.346834 0.045742 -0.018813 -1169330.000000 0 0 1
-21.401254 17.117532 6.634018 28.196343 -0.674642 1.333290 0.036245 -0.017511 -812119.000000 0 0 1
-20.802754 17.505032 5.400718 27.719099 -0.699525 1.374705 0.045963 -0.030586 -200620.000000 0 0 1
-19.517254 18.001332 5.591418 27.133653 -0.745016 1.363240 0.048557 -0.027915 -660066.000000 0 0 1
-18.942454 18.921632 4.479418 27.146084 -0.784848 1.405027 0.048265 -0.020367 -26307.700000 0 0 1
-17.626454 19.329932 4.822918 26.600727 -0.831460 1.388480 0.035733 -0.021100 393917.000000 0 0 1
-17.088354 20.184232 3.812118 26.719792 -0.868268 1.427638 0.033946 -0.027216 9705.430000 0 0 1
-17.183354 21.655832 4.213818 27.964244 -0.900047 1.419534 0.035127 -0.021438 -552724.000000 0 0 1
-16.450054 22.115932 5.295118 28.067009 -0.931269 1.380999 0.038018 -0.024592 -324111.000000 0 0 1
-16.624554 23.476232 5.572218 29.301175 -0.954625 1.379461 0.022621 -0.024481 -336568.000000 0 0 1
-16.017154 23.990332 6.885818 29.656361 -0.982113 1.336471 0.016230 -0.010129 -464311.000000 0 0 1
-16.683054 23.499832 7.975318 29.902710 -0.953442 1.300820 0.014048 -0.011602 -486393.000000 0 0 1
-15.934954 23.502532 9.115918 29.822671 -0.974982 1.260154 0.014179 -0.010578 10143.400000 0 0 1
-16.706954 22.738332 10.278218 30.029915 -0.937128 1.221469 0.010518 -0.005455 598115.000000 0 0 1
-17.818154 23.405932 10.815618 31.341695 -0.920124 1.218465 0.009992 -0.007085 198299.000000 0 0 1
-18.684254 22.618632 11.649018 31.565859 -0.880368 1.192822 0.007564 -0.005904 418922.000000 0 0 1
-19.784754 23.521132 12.263418 33.091865 -0.871464 1.191155 -0.003019 -0.008541 102621.000000 0 0 1
-20.730354 24.113432 11.347818 33.763562 -0.860697 1.228027 -0.003538 -0.002050 591008.000000 0 0 1
-20.293354 25.326132 10.742518 34.185302 -0.895275 1.251136 0.004680 -0.004854 72449.500000 0 0 1
-21.452254 26.275132 10.289118 35.446406 -0.886107 1.276285 0.017753 -0.006672 295981.000000 0 0 1
-21.965754 27.098032 11.307118 36.669450 -0.889623 1.257336 0.016086 -0.019719 176.586000 0 0 1
-23.009554 27.903932 10.823918 37.752168 -0.881235 1.280006 0.027237 -0.015407 -216442.000000 0 0 1
-23.795154 28.558332 11.969318 39.051917 -0.876129 1.259285 0.022077 -0.014746 -40195.700000 0 0 1
-23.000854 29.562032 12.589618 39.515206 -0.909581 1.246542 0.025784 -0.014042 682464.000000 0 0 1
-23.717254 30.310832 13.588218 40.815369 -0.906837 1.231399 0.028700 -0.008885 -4976.210000 0 0 1
8.064846 -33.144993 28.129718 44.214402 -1.332114 0.881218 0.009008 -0.014522 -183568.000000 0 0 1
9.401946 -33.271593 27.698468 44.301249 -1.295395 0.895370 0.015192 -0.027735 180289.000000 0 0 1
9.603946 -32.536393 26.474058 43.031714 -1.283772 0.908129 0.011245 -0.022307 409863.000000 0 0 1
11.135846 -32.404693 26.199278 43.133205 -1.239790 0.918008 0.018472 -0.019311 856303.000000 0 0 1
11.822546 -33.660993 25.998488 44.144722 -1.233032 0.941053 0.019977 -0.019277 778720.000000 0 0 1
13.219546 -33.510693 25.745218 44.277977 -1.195051 0.950292 0.025597 -0.017807 623793.000000 0 0 1
14.024146 34.214332 25.611448 44.980479 1.181792 0.965032 0.030169 -0.015568 -358293.000000 0 0 1
14.080746 33.647932 24.333248 43.846981 1.174467 0.982483 0.035216 -0.020899 366501.000000 0 0 1
14.896546 32.466532 24.416478 43.268316 1.140626 0.971207 0.039836 -0.013604 -174277.000000 0 0 1
15.448146 32.019132 23.040218 42.364156 1.121274 0.995765 0.046892 -0.024252 -467556.000000 0 0 1
14.598346 31.262432 22.222018 41.039852 1.133927 0.998607 0.032330 -0.018485 -354018.000000 0 0 1
14.817346 29.858232 22.243418 40.072901 1.110148 0.982345 0.040046 -0.019563 100994.000000 0 0 1
14.348846 28.968032 23.462218 39.943860 1.110889 0.942979 0.040837 -0.012044 -247542.000000 0 0 1
14.941746 29.388432 24.640588 41.159377 1.100433 0.928966 0.044365 -0.020310 -47493.300000 0 0 1
14.577446 28.607532 25.744618 41.154322 1.099525 0.894943 0.026198 -0.010158 -369344.000000 0 0 1
15.507946 28.753032 26.951168 42.350900 1.076166 0.881003 0.025970 -0.017325 -215866.000000 0 0 1
15.602046 30.088832 27.445488 43.612114 1.092433 0.890133 0.025858 -0.013132 297184.000000 0 0 1
16.460346 30.178632 28.567998 44.697017 1.071468 0.877407 0.034020 -0.019727 224192.000000 0 0 1
16.107346 31.589332 29.186628 45.925938 1.099261 0.882121 0.032219 -0.026806 109212.000000 0 0 1
16.789646 32.661432 28.584468 46.537439 1.095971 0.909393 0.027995 -0.016322 -78956.100000 0 0 1
16.166346 33.882232 28.911098 47.383626 1.125609 0.914547 0.028058 -0.003620 110504.000000 0 0 1
16.842046 -33.882993 28.293078 47.246270 -1.109500 0.928741 0.021234 -0.005769 -23017.600000 0 0 1
16.651246 -33.787393 26.886268 46.278757 -1.112906 0.950884 0.036513 -0.012311 -209641.000000 0 0 1
16.711146 -32.474993 26.357938 45.040299 -1.095549 0.945660 0.029643 -0.016061 -1017410.000000 0 0 1
18.029846 -31.783393 26.015378 44.855985 -1.054789 0.952098 0.027732 0.003350 -562053.000000 0 0 1
18.555346 -31.110893 27.132558 45.258858 -1.033009 0.927924 0.003241 0.004325 -62871.300000 0 0 1
19.625946 -30.262293 26.792378 44.931233 -0.995457 0.931915 0.010986 0.009646 -208071.000000 0 0 1
20.110446 -29.327793 27.898508 45.198189 -0.969724 0.905556 0.004906 0.012970 607181.000000 0 0 1
19.017546 -28.508893 28.396408 44.505955 -0.982512 0.878851 0.006955 0.010461 1121490.000000 0 0 1
19.458646 -27.734593 29.450308 44.890614 -0.958996 0.855229 0.024691 0.009073 -328652.000000 0 0 1
18.260246 -27.062493 30.128568 44.424608 -0.977223 0.825492 0.022752 0.002271 33979.400000 0 0 1
17.630546 -26.104493 29.311568 43.028465 -0.976783 0.821377 0.027455 0.008626 -394713.000000 0 0 1
16.375846 -25.691093 29.724938 42.564922 -1.003320 0.797716 0.025471 0.002527 -818300.000000 0 0 1
15.489946 -25.057693 28.652308 41.094783 -1.017123 0.799277 0.030202 0.006735 -792423.000000 0 0 1
15.001746 -25.941293 27.686488 40.798832 -1.046489 0.824928 0.031781 0.005464 549083.000000 0 0 1
14.170946 -25.427993 26.635728 39.457073 -1.062368 0.829756 0.044691 -0.001355 234303.000000 0 0 1
12.692046 -25.164093 27.023158 39.045751 -1.103658 0.806416 0.027628 0.005728 -241263.000000 0 0 1
11.713646 -26.115093 27.260008 39.526139 -1.149158 0.809763 0.020243 0.007926 110958.000000 0 0 1
11.392746 -26.874593 26.100248 39.156882 -1.169839 0.841217 0.023851 0.000256 -522002.000000 0 0 1
10.536846 -28.111893 26.501078 40.045110 -1.212185 0.847605 0.032257 -0.004770 -590130.000000 0 0 1
9.190046 -27.889993 26.733698 39.711450 -1.252490 0.832270 0.013886 -0.009250 -903802.000000 0 0 1
8.521946 -29.098893 26.956598 40.571263 -1.285901 0.844071 0.003504 -0.014732 -182700.000000 0 0 1
6.981746 -28.955193 27.063278 40.243869 -1.334190 0.833239 0.003974 -0.003459 -278710.000000 0 0 1
6.238946 -28.720893 25.891998 39.168989 -1.356893 0.848602 0.001002 -0.003088 -36034.200000 0 0 1
6.475146 -27.493493 25.203768 37.855642 -1.339496 0.842249 0.005441 -0.002623 -991711.000000 0 0 1
5.384646 -27.090593 24.183438 36.711488 -1.374589 0.851649 0.000506 0.003635 -719046.000000 0 0 1
5.187346 -28.035193 23.100218 36.694696 -1.387836 0.889855 -0.013294 0.005791 143148.000000 0 0 1
4.377246 -29.176693 23.396018 37.653863 -1.421881 0.900339 -0.008543 0.012665 806438.000000 0 0 1
2.872746 -28.893793 23.798418 37.542891 -1.471698 0.884212 0.000033 -0.000927 192434.000000 0 0 1
2.150046 -28.395393 22.642418 36.381316 -1.495222 0.899037 0.005222 -0.003316 -671903.000000 0 0 1
0.893646 -27.891393 22.869118 36.079426 -1.538767 0.884269 0.020609 -0.006455 -859559.000000 0 0 1
0.747846 -26.577593 23.713918 35.626923 -1.542666 0.842475 0.017973 -0.006704 -720753.000000 0 0 1
1.000446 -26.767393 25.093428 36.703874 -1.533438 0.818013 0.010009 -0.001928 188510.000000 0 0 1
0.950546 -25.625293 25.915108 36.457537 -1.533719 0.780119 0.006643 0.000719 697741.000000 0 0 1
2.408846 -25.078693 26.158748 36.318363 -1.475039 0.766616 0.002361 0.006936 590524.000000 0 0 1
3.077146 -24.502993 25.076708 35.195267 -1.445868 0.777738 0.004461 -0.000391 811379.000000 0 0 1
4.266446 -23.758193 25.447208 35.074417 -1.393112 0.759006 0.008466 -0.007830 859062.000000 0 0 1
4.002346 -22.314793 25.917958 34.434130 -1.393325 0.718670 -0.000422 0.007969 -205422.000000 0 0 1
3.769946 -21.446193 24.808988 33.009659 -1.396788 0.720361 0.001557 0.001719 11387.300000 0 0 1
3.177246 -20.227093 25.101808 32.393379 -1.414991 0.684231 0.003735 0.006179 -201295.000000 0 0 1
3.280546 -19.227393 23.954698 30.891458 -1.401805 0.683373 0.009398 0.004961 1431510.000000 0 0 1
4.672146 -18.837293 23.737118 30.661431 -1.327676 0.685396 0.021502 0.007245 1389730.000000 0 0 1
4.752646 -18.007393 22.606618 29.290153 -1.312753 0.689104 0.025361 0.005723 475002.000000 0 0 1
6.174346 -17.532393 22.180618 28.939371 -1.232191 0.697499 0.030680 0.005537 -258678.000000 0 0 1
6.993746 -18.525893 21.621718 29.319275 -1.209825 0.741498 0.026731 0.001696 -249085.000000 0 0 1
8.207646 -17.984093 21.138218 28.941619 -1.142646 0.751926 0.027485 -0.001390 -139637.000000 0 0 1
9.356146 -17.923093 22.131918 29.976600 -1.089691 0.740240 0.035265 0.008655 -1063010.000000 0 0 1
9.184346 -17.078793 23.227918 30.258446 -1.077396 0.695629 0.029780 0.023134 510194.000000 0 0 1
10.263146 -17.203793 24.183578 31.402996 -1.032908 0.691792 0.036126 0.024260 663132.000000 0 0 1
10.081546 -16.215193 25.375808 31.756916 -1.014549 0.645059 0.044019 0.007130 -67581.200000 0 0 1
10.422746 -14.855693 25.203928 31.057419 -0.958998 0.624036 0.044031 0.016223 172841.000000 0 0 1
10.393846 -14.190093 26.465788 31.777803 -0.938608 0.586580 0.037352 0.011127 -1520.870000 0 0 1
10.917446 -12.745993 26.427358 31.305850 -0.862518 0.565787 0.035011 0.009628 440466.000000 0 0 1
9.972446 -11.825093 25.829468 30.107208 -0.870188 0.539596 0.029626 0.013344 812993.000000 0 0 1
10.492646 -10.509193 25.801298 29.769880 -0.786186 0.522265 0.030917 0.007308 47787.800000 0 0 1
9.551846 -9.641293 24.937818 28.391673 -0.790058 0.498397 0.018045 0.008969 -192584.000000 0 0 1
8.430246 -9.147593 25.626478 28.486205 -0.826185 0.451920 0.005036 0.009876 162171.000000 0 0 1
7.508746 -8.579293 24.656288 27.164648 -0.851843 0.433120 0.004963 0.009449 476637.000000 0 0 1
6.041746 -8.665893 25.115868 27.247151 -0.961961 0.398151 0.003944 0.011543 -899336.000000 0 0 1
5.687046 -7.932093 26.282938 28.036645 -0.948774 0.355566 0.011700 0.012426 487337.000000 0 0 1
4.325246 -7.999693 26.685088 28.192140 -1.075139 0.328450 0.006982 0.013002 714977.000000 0 0 1
3.098746 -7.774893 25.793758 27.117691 -1.191534 0.313765 0.006621 0.014128 -479701.000000 0 0 1
3.037146 -6.515893 25.174788 26.181121 -1.134623 0.278159 0.012477 0.012227 238559.000000 0 0 1
1.899246 -6.509293 24.301688 25.229944 -1.286903 0.272102 0.027630 -0.003914 585386.000000 0 0 1
1.839746 -5.244593 23.436718 24.086722 -1.233419 0.232844 0.019411 -0.010403 -140932.000000 0 1 0
1.555046 -4.046093 24.105048 24.491680 -1.203869 0.177921 0.018486 -0.001637 -109898.000000 0 1 0
1.851446 -2.950593 23.300318 23.559259 -1.010414 0.148400 0.017246 -0.012856 -550572.000000 0 1 0
0.725146 -2.484593 22.305918 22.455579 -1.286827 0.115518 0.001307 -0.014404 706461.000000 0 1 0
-0.341454 -1.721593 22.843218 22.910545 1.375001 0.076683 0.005879 -0.012818 442872.000000 0 1 0
-1.155054 -2.287593 23.885278 24.022359 1.103220 0.106882 0.025134 -0.004545 -349665.000000 0 1 0
-2.089054 -1.198593 24.457028 24.575333 0.520894 0.098161 0.027135 0.003635 -302163.000000 0 1 0
-1.428354 -0.338593 25.309568 25.352102 0.232755 0.057934 0.033208 -0.007205 -71490.500000 0 0 1
-2.244954 0.689407 25.872108 25.978473 -0.297950 0.090522 0.030219 -0.003348 -69930.300000 0 0 1
-1.618054 1.298407 27.156408 27.235537 -0.676233 0.076246 0.043382 -0.015657 -205341.000000 0 0 1
-1.758354 0.530407 28.335688 28.395147 -0.292970 0.064726 0.049407 -0.016679 -126444.000000 0 0 1
-0.958554 -0.625593 28.454548 28.477561 0.578231 0.040205 0.053993 -0.016918 856973.000000 0 0 1
0.578446 -0.448593 28.843068 28.852356 -0.659631 0.025374 0.049762 -0.018468 717941.000000 0 0 1
1.417646 0.147407 27.842038 27.878496 0.103608 0.051147 0.045331 -0.024116 70710.700000 0 0 1
1.817046 -0.775593 26.858838 26.931402 -0.403431 0.073425 0.024126 -0.017016 -333566.000000 0 0 1
2.938846 -1.738593 27.308628 27.521277 -0.534213 0.124392 0.017076 -0.014757 -1023880.000000 0 0 1
2.489946 -2.644593 28.269528 28.501929 -0.815508 0.127789 0.025302 -0.011529 268425.000000 0 0 1
3.499646 -3.574593 28.735588 29.167778 -0.795992 0.172361 0.019075 -0.002987 936642.000000 0 0 1
4.237646 -4.489593 27.663138 28.343664 -0.814259 0.219575 0.015817 0.000876 35928.800000 0 0 1
5.189846 -3.795593 26.915488 27.672812 -0.631458 0.234490 0.005998 0.003229 -622379.000000 0 0 1
5.333846 -4.364293 25.639958 26.550036 -0.685756 0.262585 0.011014 0.006121 -1129810.000000 0 0 1
6.449946 -3.595593 24.922118 25.993116 -0.508553 0.288060 0.022376 -0.000344 1257090.000000 0 0 1
7.728946 -3.632593 25.677728 27.060637 -0.439360 0.321077 0.017566 0.000807 1643580.000000 0 0 1
8.450046 -4.877093 25.666068 27.457902 -0.523462 0.363263 0.017391 0.008912 91416.700000 0 0 1
9.312046 -4.919993 24.324618 26.506746 -0.486067 0.408604 0.024764 0.002826 -534460.000000 0 0 1
8.534846 -5.402693 23.260918 25.359476 -0.564343 0.409682 0.022213 -0.006358 8785.480000 0 0 1
9.129146 -5.294293 21.950118 24.355257 -0.525534 0.448156 0.027300 -0.007001 131989.000000 0 1 0
9.061346 -3.893593 21.364318 23.530877 -0.405839 0.432485 0.032368 -0.017502 -735673.000000 0 1 0
7.819446 -3.601593 20.861818 22.568356 -0.431629 0.391380 0.027999 -0.027806 -1256820.000000 0 1 0
7.854346 -2.466593 20.051618 21.675844 -0.304289 0.389583 0.020545 -0.030353 -328348.000000 0 1 0
6.505646 -1.723593 19.961118 21.065148 -0.258988 0.325191 0.034570 -0.019881 3033.100000 0 1 0
6.139646 -1.060593 21.192318 22.089239 -0.171057 0.285945 0.037364 -0.018366 361814.000000 0 1 0
4.823746 -0.530593 21.069418 21.621065 -0.109556 0.226378 0.015373 -0.008095 252420.000000 0 1 0
4.313046 -0.127593 22.461818 22.872515 -0.029574 0.189789 0.007927 -0.014449 796553.000000 0 1 0
2.994546 0.460407 22.362918 22.567219 0.152554 0.134660 0.005763 -0.009919 668524.000000 0 1 0
2.543146 0.818407 23.592018 23.742803 0.311343 0.112761 0.021553 -0.013191 156993.000000 0 1 0
1.102746 1.407407 23.591618 23.659275 0.906179 0.075644 0.019648 -0.010185 233557.000000 0 1 0
0.912946 2.736407 23.150718 23.329748 1.248779 0.123966 0.021900 -0.013088 59440.900000 0 1 0
-0.478354 2.879407 22.959418 23.144215 -1.406171 0.126453 0.008788 -0.013974 69746.100000 0 1 0
-0.920954 4.264407 22.450218 22.870191 -1.358100 0.191936 0.014154 -0.012261 -182846.000000 0 1 0
-0.737854 5.270407 23.459418 24.055476 -1.431701 0.223076 0.015802 -0.006693 -13021.000000 0 1 0
-1.696654 6.310407 23.324718 24.222765 -1.308142 0.273152 0.012013 -0.005466 45411.200000 0 1 0
-1.477654 7.543407 24.175488 25.368104 -1.377359 0.307849 0.019893 -0.000075 -128387.000000 0 0 1
-0.378554 8.341407 23.828928 25.249558 -1.525445 0.337044 0.010478 0.001696 -309259.000000 0 0 1
-0.529154 9.619407 24.307188 26.146747 -1.515843 0.377349 0.009764 0.002992 -1379830.000000 0 0 1
0.329346 10.643407 23.565018 25.859247 1.539863 0.424414 0.002678 -0.002533 953215.000000 0 0 1
1.756346 10.488407 23.721718 25.996372 1.404880 0.421439 0.001426 -0.001573 633214.000000 0 0 1
2.242246 10.608407 25.099448 27.341329 1.362497 0.407779 0.006236 -0.004758 -1212440.000000 0 0 1
3.429846 11.625407 25.190058 27.954480 1.283905 0.448474 0.007122 -0.004776 272002.000000 0 0 1
4.680546 11.297407 24.646568 27.513492 1.178021 0.460570 0.022107 -0.011331 -308443.000000 0 0 1
4.681346 10.881407 23.321018 26.157024 1.164517 0.469979 0.014131 -0.014381 -816056.000000 0 0 1
6.060046 10.369407 22.758118 25.732872 1.041915 0.485592 0.030169 -0.014004 867555.000000 0 0 1
6.885146 11.435407 22.318518 26.005577 1.028841 0.539004 0.027861 -0.012432 912913.000000 0 0 1
8.137946 10.893407 21.806318 25.698405 0.929184 0.557562 0.039484 -0.016730 1282420.000000 0 0 1
9.038246 11.944407 21.115618 25.888764 0.923026 0.616981 0.042535 -0.022311 -118356.000000 0 0 1
8.497546 12.403407 19.854418 24.904833 0.970142 0.648134 0.033191 -0.013764 459239.000000 0 1 0
9.229446 13.539407 19.311618 25.326603 0.972477 0.703623 0.043545 -0.013230 451382.000000 0 0 1
10.643746 13.230407 18.734318 25.284534 0.893323 0.736328 0.046714 -0.014523 460251.000000 0 0 1
11.665846 13.025407 19.696918 26.338599 0.840405 0.726002 0.042163 -0.023796 -479065.000000 0 0 1
12.870946 12.756407 19.057418 26.297763 0.780929 0.760229 0.029738 -0.020239 -221146.000000 0 0 1
14.101546 12.524407 19.962618 27.463075 0.726234 0.757015 0.033959 -0.012055 487918.000000 0 0 1
14.775746 13.727407 20.371018 28.666056 0.748635 0.780400 0.037542 -0.015222 -26695.500000 0 0 1
15.962546 13.426407 21.066718 29.645875 0.699316 0.780428 0.034200 -0.008798 195099.000000 0 0 1
16.704146 14.670407 21.578618 30.982029 0.720667 0.800305 0.045675 -0.000878 -236689.000000 0 0 1
16.085946 15.196407 22.747218 31.735223 0.756970 0.771621 0.035079 -0.006846 590851.000000 0 0 1
16.905346 16.269407 23.245218 33.027632 0.766231 0.790048 0.023137 -0.003164 -379138.000000 0 0 1
-20.500154 13.423132 -24.751706 34.829351 -0.579730 2.361227 0.033684 0.001844 94883.700000 0 0 1
-20.442454 13.165032 -26.149306 35.707117 -0.572149 2.392530 0.034933 -0.006026 193794.000000 0 0 1
-21.483954 13.896632 -26.770236 37.031368 -0.574149 2.378797 0.033929 -0.018069 87766.900000 0 0 1
-21.205054 13.891632 -28.294356 37.989503 -0.579959 2.411022 0.035871 -0.005325 584464.000000 0 0 1
-19.967254 14.504132 -28.663226 37.823823 -0.628223 2.430745 0.052004 -0.007486 202554.000000 0 0 1
-19.886154 14.690732 -30.068846 38.928296 -0.636257 2.453433 0.042071 -0.007166 437677.000000 0 0 1
-18.553954 15.293532 -30.671216 38.972616 -0.689368 2.476718 0.022502 -0.003430 553669.000000 0 0 1
-17.589254 14.282732 -30.516616 38.008448 -0.682024 2.502924 0.017164 -0.005881 -825162.000000 0 0 1
-16.272754 14.737732 -30.693246 37.736966 -0.735938 2.520678 0.008866 -0.002185 929432.000000 0 0 1
-15.185354 14.167532 -29.674286 36.219845 -0.750737 2.530955 0.026118 0.006747 716110.000000 0 0 1
-15.441054 14.534432 -28.360246 35.411572 -0.755162 2.499551 0.034854 0.001411 272794.000000 0 0 1
-16.396554 13.685732 -27.685386 34.966081 -0.695527 2.484511 0.040868 0.006110 149090.000000 0 0 1
-16.938354 14.281532 -26.376746 34.447100 -0.700502 2.442952 0.037454 0.000529 -253282.000000 0 0 1
-16.026354 14.475032 -25.325196 33.282670 -0.734581 2.435514 0.053260 -0.005556 15673.000000 0 0 1
-16.747354 14.816632 -24.142806 32.907165 -0.724306 2.394495 0.056261 -0.007261 53613.900000 0 0 1
-15.874654 15.231832 -22.937306 31.782595 -0.764736 2.377043 0.032490 -0.004513 -49626.300000 0 0 1
-15.266054 16.485532 -23.166106 32.272180 -0.823786 2.371484 0.011647 -0.006070 -158793.000000 0 0 1
-14.636154 17.072932 -22.065406 31.505303 -0.862095 2.346714 0.005640 -0.005715 -451010.000000 0 0 1
-14.332254 18.535632 -22.323506 32.362356 -0.912595 2.332007 0.003576 -0.004945 -83839.600000 0 0 1
-15.428154 19.429432 -22.420106 33.439377 -0.899687 2.305639 -0.010001 -0.006332 99096.500000 0 0 1
-16.145654 19.316732 -23.623206 34.523530 -0.874582 2.324390 -0.013349 0.000154 -185822.000000 0 0 1
-17.432054 20.166832 -23.769606 35.715148 -0.858006 2.299004 -0.006968 -0.003401 192094.000000 0 0 1
-17.275454 21.576332 -23.769406 36.454959 -0.895649 2.281043 -0.016725 -0.005604 -578518.000000 0 0 1
-18.555154 22.132532 -23.804306 37.427098 -0.873096 2.260123 0.011822 -0.009455 -334360.000000 0 0 1
-18.681654 23.695532 -24.021706 38.568443 -0.903166 2.243155 0.000557 -0.012706 -40831.400000 0 0 1
-18.074954 24.239732 -22.862206 37.907110 -0.930069 2.218192 0.002747 -0.010217 -342407.000000 0 0 1
-17.334654 25.380932 -23.232106 38.528076 -0.971585 2.218042 -0.004528 0.000336 168848.000000 0 0 1
-16.111154 25.642632 -22.271206 37.591495 -1.009831 2.204897 0.004431 -0.007391 584436.000000 0 0 1
-15.084254 24.633132 -22.278006 36.477876 -1.021341 2.227774 0.010639 -0.012315 300688.000000 0 0 1
-15.435954 23.325232 -21.846406 35.490852 -0.986191 2.233880 0.002320 -0.003198 -944827.000000 0 0 1
-14.225654 22.356432 -21.732006 34.270386 -1.004104 2.257684 0.011513 -0.008308 209805.000000 0 0 1
-13.346954 22.729732 -20.713606 33.523654 -1.039840 2.236840 0.023626 -0.017129 -149050.000000 0 0 1
-12.220254 21.864332 -20.589806 32.424123 -1.061136 2.258824 0.015958 -0.016857 546779.000000 0 0 1
-11.348754 22.175532 -19.310306 31.518825 -1.097778 2.230217 0.019831 -0.018567 -121341.000000 0 0 1
-11.967454 22.173632 -18.050806 30.995508 -1.075883 2.192435 0.034825 -0.014105 -397225.000000 0 0 1
-12.730954 23.331532 -17.775906 31.975309 -1.071296 2.160273 0.042337 -0.024444 -160870.000000 0 0 1
-13.612854 23.208732 -16.544406 31.585953 -1.040333 2.122090 0.057762 -0.022471 378663.000000 0 0 1
-12.801254 23.314032 -15.363406 30.715638 -1.068660 2.094605 0.066540 -0.031545 461090.000000 0 0 1
-13.673454 23.421132 -14.223406 30.623815 -1.042367 2.053816 0.069737 -0.024995 504016.000000 0 0 1
-13.013254 23.727032 -12.845006 29.955150 -1.069139 2.013969 0.085650 -0.025494 -37270.600000 0 0 1
-12.407254 25.016332 -12.719706 30.684650 -1.110381 1.998223 0.078459 -0.021803 472061.000000 0 0 1
-11.536754 25.016632 -11.590506 29.887596 -1.138698 1.969043 0.047906 -0.021010 -13698.100000 0 0 1
-11.104454 26.487832 -11.406106 30.903291 -1.173824 1.948826 0.060625 -0.020113 -83368.000000 0 0 1
-10.333154 26.996232 -12.474206 31.482955 -1.205237 1.978194 0.061510 -0.024096 52131.900000 0 0 1
-10.517254 28.390132 -12.646006 32.810573 -1.216017 1.966464 0.038790 -0.004038 -1059790.000000 0 0 1
-9.939854 28.812832 -13.975906 33.530671 -1.238601 2.000729 0.062593 -0.021708 385623.000000 0 0 1
-8.528154 28.966132 -14.015706 33.289732 -1.284468 2.005368 0.034603 -0.022647 376020.000000 0 0 1
-7.769654 27.771532 -14.003706 32.058217 -1.298001 2.022858 0.037302 -0.024157 -664963.000000 0 0 1
-6.373854 27.871532 -14.641206 32.121850 -1.345975 2.044069 0.032622 -0.022971 396115.000000 0 0 1
-5.466354 28.756132 -13.974906 32.436001 -1.382944 2.016226 0.023600 -0.021489 365793.000000 0 0 1
-4.253354 28.781232 -14.747706 32.618172 -1.424076 2.039950 0.027266 -0.018052 312079.000000 0 0 1
-3.146854 29.684732 -14.219806 33.064919 -1.465182 2.015352 0.015024 -0.008329 -503277.000000 0 0 1
-3.254454 31.092232 -14.454706 34.442080 -1.466505 2.003891 0.013713 -0.007825 299281.000000 0 0 1
-4.224654 31.751132 -13.619706 34.806299 -1.438518 1.972840 0.000479 -0.014131 396430.000000 0 0 1
-4.487154 33.237632 -13.869506 36.293773 -1.436605 1.962913 0.000807 -0.013375 61584.900000 0 0 1
-3.455154 34.060132 -13.355606 36.747828 -1.469699 1.942753 -0.006265 -0.013014 10885.000000 0 0 1
-3.673954 -33.621893 -13.690306 36.487726 1.461956 1.955412 -0.006516 -0.012451 -12544.000000 0 0 1
-2.882054 -32.648893 -12.846006 35.203357 1.482750 1.944331 -0.008436 -0.003604 -32717.500000 0 0 1
-3.269554 -32.635893 -11.450806 34.740646 1.470947 1.906685 -0.003198 -0.007719 200775.000000 0 0 1
-2.291354 -31.903893 -10.742006 33.741657 1.499099 1.894796 -0.011155 -0.005086 59798.300000 0 0 1
-2.551854 -31.868293 -9.184006 33.263284 1.490892 1.850531 -0.012339 -0.003531 -164013.000000 0 0 1
-1.518554 -31.303193 -8.414906 32.450062 1.522323 1.833113 -0.034553 -0.001088 -135432.000000 0 0 1
-1.889754 -31.408093 -7.029806 32.240621 1.510701 1.790604 -0.023923 -0.006939 -77317.800000 0 0 1
-0.852454 -30.764693 -6.133706 31.381768 1.543095 1.767517 -0.014468 -0.003644 -358438.000000 0 0 1
-1.101054 -30.850593 -4.754106 31.234163 1.535122 1.723599 -0.000072 -0.004785 -816866.000000 0 0 1
0.015246 -30.501593 -4.009206 30.763959 -1.570296 1.701490 0.003930 -0.004762 -700730.000000 0 0 1
-0.130054 -30.690493 -2.513506 30.793522 1.566559 1.652512 0.004666 -0.003084 -446820.000000 0 0 1
-0.127454 -32.096293 -2.096806 32.164964 1.566825 1.636032 0.013720 -0.009059 1272710.000000 0 0 1
1.075246 -32.877193 -2.425506 32.984073 -1.538103 1.644398 0.012220 -0.008504 1679740.000000 0 0 1
2.433146 -32.448493 -1.784006 32.588458 -1.495952 1.625567 0.022360 -0.010948 -351855.000000 0 0 1
2.457946 -32.543493 -0.338006 32.637933 -1.495411 1.581153 0.018670 -0.009477 -467678.000000 0 0 1
3.666546 -32.126493 0.214294 32.335755 -1.457160 1.564169 0.023328 -0.013702 -306504.000000 0 0 1
3.892846 -30.556293 0.258894 30.804356 -1.444080 1.562392 0.022424 -0.013632 -385673.000000 0 0 1
4.098946 -30.000793 -1.027606 30.296946 -1.435009 1.604721 0.032264 -0.018796 114842.000000 0 0 1
4.067146 -28.590993 -1.045406 28.897741 -1.429492 1.606980 0.034656 -0.010419 -98795.300000 0 0 1
3.505546 -27.991093 -2.359806 28.308282 -1.446207 1.654254 0.035770 -0.003106 1997630.000000 0 0 1
2.077846 -28.228093 -2.689506 28.431956 -1.497320 1.665532 0.023153 -0.007365 2187520.000000 0 0 1
1.492446 -27.328393 -3.618806 27.607322 -1.516239 1.702256 0.024313 -0.009905 217319.000000 0 0 1
2.114046 -27.394893 -5.065506 27.939376 -1.493780 1.753108 0.020294 -0.002900 41220.200000 0 0 1
1.780246 -28.530193 -5.845406 29.177217 -1.508478 1.772503 0.013232 -0.003063 243830.000000 0 0 1
2.418746 -28.372193 -7.152406 29.359642 -1.485751 1.816886 0.021543 -0.012817 76045.700000 0 0 1
1.611046 -29.068693 -8.279106 30.267606 -1.515431 1.847858 0.001957 -0.005385 328370.000000 0 0 1
0.364546 -28.382093 -8.427806 29.609188 -1.557953 1.859422 0.003932 -0.004960 -71842.300000 0 0 1
0.042146 -28.270293 -9.789706 29.917380 -1.569305 1.904161 0.009863 -0.006255 -85423.800000 0 0 1
-1.379754 -27.723593 -10.024706 29.512643 1.521069 1.917368 -0.006398 -0.011606 -954991.000000 0 0 1
-1.471354 -26.348993 -9.691106 28.113197 1.515013 1.922734 -0.001285 -0.005076 78497.400000 0 0 1
-2.823754 -25.907293 -9.646706 27.788853 1.462230 1.925319 0.001205 -0.011943 1181880.000000 0 0 1
-3.785254 -26.622193 -8.597506 28.230948 1.429559 1.880254 -0.000914 -0.007439 -944033.000000 0 0 1
-3.556954 -26.432193 -7.174306 27.618534 1.437031 1.833574 0.006096 -0.009836 -120250.000000 0 0 1
-2.629254 -27.418193 -6.683506 28.343245 1.475194 1.808844 0.008654 -0.007470 833324.000000 0 0 1
-2.045254 -27.117093 -5.286606 27.703213 1.495516 1.762804 0.011243 -0.003610 1099980.000000 0 0 1
-3.090354 -27.398493 -4.325106 27.909394 1.458478 1.726393 0.005739 -0.007994 623278.000000 0 0 1
-2.561554 -27.061093 -3.081306 27.356147 1.476419 1.683673 0.003008 -0.000543 366586.000000 0 0 1
-3.596054 -27.070993 -1.913506 27.375752 1.438732 1.640751 0.001074 -0.001003 1016790.000000 0 0 1
-4.701854 -26.164393 -2.129806 26.668689 1.392990 1.650743 -0.002277 0.000617 447624.000000 0 0 1
-5.573454 -26.125893 -1.028006 26.733546 1.360616 1.609260 0.009219 -0.002284 -548807.000000 0 0 1
-6.747254 -25.192393 -1.125706 26.104584 1.309109 1.613933 0.001680 0.003716 -517526.000000 0 0 1
-6.373454 -23.849193 -0.961206 24.704834 1.309659 1.609714 0.004228 -0.004687 -45946.000000 0 1 0
-6.598354 -23.307993 0.339494 24.226351 1.294921 1.556782 0.011727 0.004498 -213414.000000 0 1 0
-6.103854 -21.879293 0.595794 22.722576 1.298735 1.544573 -0.001473 -0.000887 -7535.730000 0 1 0
-4.820054 -21.768093 1.167794 22.325916 1.352885 1.518466 -0.011746 -0.007270 -217356.000000 0 1 0
-4.582754 -20.451193 1.558194 21.016206 1.350355 1.496586 -0.010974 -0.006303 -351863.000000 0 1 0
-3.569254 -20.257793 2.693194 20.745386 1.396395 1.440608 -0.007138 -0.003450 -269717.000000 0 1 0
-4.025154 -20.483593 4.013394 21.257629 1.376762 1.380859 -0.012003 0.015853 52188.800000 0 1 0
-3.062954 -20.169693 5.044794 21.015427 1.420089 1.328377 0.007559 0.007459 460641.000000 0 1 0
-2.118954 -21.322693 5.400694 22.097844 1.471746 1.323896 -0.004225 0.002130 -418072.000000 0 1 0
-1.354654 -21.767393 4.361494 22.241338 1.508643 1.373419 0.014459 -0.003025 -895425.000000 0 1 0
-0.739154 -23.007393 4.570994 23.468713 1.538681 1.374774 0.015006 -0.001103 -947502.000000 0 1 0
0.252246 -23.343293 3.425894 23.594697 -1.559991 1.425084 0.020531 -0.009408 -254608.000000 0 1 0
1.417946 -22.605293 3.465294 22.913274 -1.508152 1.418979 0.011236 -0.011532 43707.500000 0 1 0
2.385246 -22.967793 4.498594 23.525439 -1.467315 1.378389 0.034759 -0.012372 -15198.000000 0 1 0
3.591746 -22.020393 4.635594 22.787872 -1.409110 1.365943 0.044743 -0.019405 -459969.000000 0 1 0
4.299346 -21.857393 3.484494 22.547100 -1.376576 1.415632 0.039257 -0.013091 -693597.000000 0 1 0
5.466246 -21.125693 3.832494 22.155423 -1.317601 1.396940 0.044798 -0.007033 339745.000000 0 1 0
6.353846 -20.828093 2.607794 21.931289 -1.274703 1.451607 0.050072 0.002076 230922.000000 0 1 0
6.988746 -21.930693 1.984694 23.102746 -1.262296 1.484783 0.044940 0.001183 -107629.000000 0 1 0
6.589346 -21.919693 0.595094 22.896431 -1.278777 1.544803 0.043204 -0.005886 36187.200000 0 1 0
7.454546 -22.760893 -0.344106 23.953015 -1.254291 1.585163 0.040845 -0.001478 728361.000000 0 1 0
8.769246 -22.182893 -0.472106 23.857982 -1.194335 1.590586 0.030880 0.001440 -420827.000000 0 1 0
9.508046 -22.998193 -1.276106 24.918834 -1.178770 1.622029 0.024826 0.000763 -1086510.000000 0 1 0
10.808946 -22.357493 -1.703506 24.891620 -1.120468 1.639287 0.017867 0.000373 -764557.000000 0 1 0
10.778046 -21.223193 -2.542706 23.938579 -1.100894 1.677215 0.018674 -0.002007 -851441.000000 0 1 0
12.097546 -21.015393 -2.960706 24.428736 -1.048472 1.692293 0.008660 -0.013153 -396157.000000 0 1 0
12.375946 -19.809993 -3.926406 23.685788 -1.012389 1.737336 0.013160 -0.015979 -174466.000000 0 1 0
12.452346 -18.570293 -3.298206 22.600772 -0.980109 1.717253 0.025602 -0.016074 8356.980000 0 1 0
12.654946 -17.502693 -4.231006 22.008938 -0.944782 1.764241 0.031731 -0.013646 -990184.000000 0 1 0
13.272446 -16.131293 -3.756506 21.224698 -0.882321 1.748721 0.065524 -0.013575 1395850.000000 0 1 0
14.655046 -16.207893 -3.345806 22.105669 -0.835670 1.722735 0.049471 -0.009150 1253310.000000 0 1 0
15.568246 -16.427593 -4.419706 23.060137 -0.812250 1.763650 0.046819 -0.004398 -938073.000000 0 1 0
17.041646 -16.149193 -4.138606 23.839929 -0.758516 1.745280 0.039809 0.000279 -317831.000000 0 1 0
17.606646 -17.068993 -3.234006 24.734658 -0.769894 1.701920 0.039310 -0.013553 760101.000000 0 1 0
19.023746 -16.903193 -3.114806 25.638309 -0.726443 1.692587 0.025529 -0.003191 596729.000000 0 0 1
19.721346 -17.715893 -1.989706 26.584644 -0.731881 1.645711 0.033846 -0.018978 103869.000000 0 0 1
21.116346 -17.801393 -2.219106 27.707654 -0.700425 1.650972 0.033047 -0.015311 -61963.100000 0 0 1
21.723846 -18.364593 -1.129306 28.468564 -0.701797 1.610475 0.028761 -0.013132 -1572630.000000 0 0 1
23.217246 -18.391393 -1.204606 29.643464 -0.669932 1.611444 0.037478 -0.020842 -1240660.000000 0 0 1
23.845846 -17.126493 -1.093306 29.379184 -0.622848 1.608019 0.035439 -0.011933 836771.000000 0 0 1
25.234246 -17.236093 -0.744806 30.568036 -0.599255 1.595164 0.034683 -0.006339 738155.000000 0 0 1
25.879446 -15.878993 -0.363806 30.364791 -0.550342 1.582778 0.021478 -0.017201 -265885.000000 0 0 1
25.200746 -15.181693 0.641494 29.427418 -0.542205 1.548995 0.030397 -0.013128 63333.000000 0 0 1
25.932546 -14.084193 1.198694 29.534697 -0.497537 1.530199 0.023684 -0.019047 256623.000000 0 0 1
25.226246 -13.232493 2.335194 28.581734 -0.483096 1.489003 0.040348 -0.025574 77817.400000 0 0 1
24.787646 -13.952993 3.496194 28.658974 -0.512694 1.448499 0.051047 -0.012139 598472.000000 0 0 1
25.870346 -14.471293 4.267594 29.948381 -0.510014 1.427811 0.042478 -0.000609 281303.000000 0 0 1
25.381146 -15.224693 5.535094 30.110316 -0.540304 1.385918 0.041782 0.002655 570683.000000 0 0 1
24.373346 -16.218593 5.338594 29.759089 -0.587141 1.390426 0.041874 0.004117 85408.900000 0 0 1
23.742346 -16.380493 6.572594 29.584093 -0.603934 1.346760 0.024630 0.005490 -119869.000000 0 0 1
22.862046 -17.637293 6.705394 29.643036 -0.657098 1.342617 0.031376 0.002445 4259.190000 0 0 1
23.652546 -18.785393 6.581494 30.913589 -0.671208 1.356255 0.036856 0.006082 -207950.000000 0 0 1
22.845446 -19.935893 6.762694 31.065870 -0.717493 1.351350 0.022251 0.016825 -2646.310000 0 0 1
1.492646 23.188932 -3.123806 23.445953 1.506516 1.704428 0.013195 -0.015337 -58917.300000 0 1 0
2.095746 24.390632 -2.675806 24.626308 1.485083 1.679668 0.020343 -0.014216 -11000.100000 0 1 0
2.997746 24.918132 -3.638906 25.360233 1.451068 1.714782 0.027012 -0.016683 96782.400000 0 0 1
3.933946 26.045432 -3.152206 26.528793 1.420888 1.689900 0.019354 -0.010790 -161634.000000 0 0 1
4.970446 25.428332 -2.438506 26.024060 1.377761 1.664636 0.010229 -0.013657 -786744.000000 0 0 1
5.815346 26.363732 -1.831306 27.059533 1.353692 1.638525 0.009373 -0.012225 21176.300000 0 0 1
6.834646 25.679432 -0.863006 26.587411 1.310674 1.603261 0.007791 -0.019399 626319.000000 0 0 1
7.867346 25.045432 -1.607706 26.301208 1.266434 1.631961 0.023440 -0.017627 103671.000000 0 0 1
8.901446 24.398432 -0.897606 25.987015 1.220965 1.605344 0.019294 -0.028294 652419.000000 0 0 1
10.205646 24.082732 -1.677406 26.209672 1.169964 1.634840 0.029649 -0.023999 244530.000000 0 0 1
11.000746 25.260332 -1.984206 27.623140 1.160070 1.642690 0.036738 -0.014747 571267.000000 0 0 1
11.819246 25.308032 -3.158006 28.109857 1.133883 1.683379 0.049655 -0.013927 811777.000000 0 0 1
12.973646 24.263132 -3.274906 27.708123 1.079771 1.689266 0.040977 -0.019820 -192968.000000 0 0 1
12.551946 22.888532 -3.399606 26.324771 1.069187 1.700299 0.034918 -0.025917 -241161.000000 0 0 1
12.491446 22.393632 -4.772206 26.082272 1.061975 1.754800 0.033987 -0.025362 -188313.000000 0 0 1
11.692946 21.080932 -4.933606 24.606324 1.064375 1.772666 0.029107 -0.026691 -451643.000000 0 1 0
10.340646 21.402432 -4.769906 24.243454 1.120717 1.768839 0.025299 -0.022085 -937668.000000 0 1 0
9.585946 20.207132 -4.710406 22.856213 1.127850 1.778372 0.006500 -0.020827 -318656.000000 0 1 0
8.086646 20.530932 -4.713406 22.563892 1.195580 1.781238 0.002857 -0.018456 -233511.000000 0 1 0
7.661246 21.259132 -3.549106 22.874474 1.224909 1.726581 0.005540 -0.016656 -481740.000000 0 1 0
6.293546 21.533432 -3.601406 22.721522 1.286448 1.729970 0.004642 -0.013790 -163989.000000 0 1 0
5.730946 22.384832 -2.429806 23.234208 1.320161 1.675567 0.010421 -0.015653 190697.000000 0 1 0
5.498546 21.631232 -1.247706 22.353993 1.321874 1.626641 0.008460 -0.010377 -166858.000000 0 1 0
4.568546 22.297232 -0.418906 22.764307 1.368700 1.589199 0.012578 -0.003776 92745.500000 0 1 0
4.140446 21.402732 0.714094 21.811239 1.379703 1.538051 0.006762 -0.004353 -156258.000000 0 1 0
3.227846 21.959232 1.632994 22.255191 1.424849 1.497354 -0.000132 -0.002995 65365.100000 0 1 0
2.997446 21.028832 2.699894 21.412284 1.429210 1.444369 0.012577 -0.011455 110984.000000 0 1 0
2.164446 21.602732 3.907494 22.059723 1.470936 1.392724 0.014740 -0.007368 507156.000000 0 1 0
0.825346 21.806732 3.488494 22.099420 1.532966 1.412279 0.011784 -0.002974 -475757.000000 0 1 0
-0.008354 22.224332 4.517994 22.678917 -1.570420 1.370239 0.017516 -0.013450 -842789.000000 0 1 0
-1.405354 22.447632 3.994894 22.843607 -1.508272 1.395012 0.010855 -0.006902 -752313.000000 0 1 0
-2.377954 22.766632 4.985494 23.427107 -1.466725 1.356348 0.022839 -0.016057 93473.600000 0 1 0
-3.605154 22.996332 4.312594 23.673337 -1.415291 1.387602 0.020881 -0.013069 87329.700000 0 1 0
-4.875654 23.065732 5.163994 24.134350 -1.362482 1.355160 0.033766 -0.026390 -71275.700000 0 1 0
-4.962454 24.308732 5.885694 25.498663 -1.369420 1.337872 0.033387 -0.019078 -648013.000000 0 0 1
-6.236754 24.468032 6.410594 26.051438 -1.321217 1.322168 0.041201 -0.018701 -419805.000000 0 0 1
-6.419454 25.966432 6.746394 27.585844 -1.328435 1.323730 0.041451 -0.017480 -265342.000000 0 0 1
-5.495154 26.328232 7.754294 27.991098 -1.365033 1.290098 0.028975 -0.030283 112150.000000 0 0 1
-5.780454 27.571332 8.434894 29.406452 -1.364135 1.279872 0.043617 -0.020788 -86134.300000 0 0 1
-5.801454 28.893332 7.652394 30.447342 -1.372643 1.316740 0.052382 -0.021600 79271.400000 0 0 1
-6.924754 28.937532 6.800294 30.521746 -1.335913 1.346109 0.053336 -0.027671 -407026.000000 0 0 1
-6.980554 30.122332 6.039694 31.504935 -1.343076 1.377896 0.063484 -0.024916 19874.500000 0 0 1
-8.428154 30.496532 5.603594 32.132110 -1.301162 1.395508 0.054101 -0.024848 781264.000000 0 0 1
-9.337254 30.995732 6.569294 33.031430 -1.278199 1.370581 0.057950 -0.023146 107599.000000 0 0 1
-9.895954 30.014332 7.422294 32.463525 -1.252312 1.340121 0.038375 -0.018236 -239455.000000 0 0 1
-10.898254 30.537032 8.488894 33.516318 -1.228000 1.314731 0.031501 -0.017776 61524.000000 0 0 1
-10.253154 31.134132 9.596394 34.154826 -1.252660 1.285994 0.051126 -0.018001 302259.000000 0 0 1
-11.292854 31.436432 10.507294 35.016868 -1.225924 1.266037 0.047673 -0.012069 171543.000000 0 0 1
-10.771054 31.892132 11.875794 35.695352 -1.245091 1.231633 0.049347 -0.016790 -41688.800000 0 0 1
-10.217654 33.155832 11.953294 36.695925 -1.271861 1.239003 0.053297 -0.017258 111995.000000 0 0 1
-9.232954 33.372232 12.945894 36.966870 -1.300882 1.213009 0.054573 -0.022215 46132.700000 0 0 1
-8.931054 -34.207593 13.164994 37.725856 1.315413 1.214330 0.058899 -0.025921 164944.000000 0 0 1
-9.932354 -33.297193 13.671894 37.339997 1.280905 1.195932 0.049723 -0.009300 198993.000000 0 0 1
-9.527554 -31.938693 13.677494 36.026771 1.280893 1.181380 0.052092 -0.001953 -123405.000000 0 0 1
-10.498154 -30.985593 14.407494 35.747645 1.244127 1.155967 0.050301 -0.003706 -154277.000000 0 0 1
-10.635654 -31.203393 15.849594 36.578389 1.242297 1.122640 0.034614 -0.007442 498068.000000 0 0 1
-9.526854 -30.884293 16.701694 36.380587 1.271588 1.093834 0.035600 -0.006035 152997.000000 0 0 1
-9.831654 -31.188793 18.148594 37.400183 1.265426 1.064143 0.028430 -0.015376 81023.100000 0 0 1
-10.291754 -30.005693 18.856294 36.902868 1.240377 1.034482 0.037492 -0.019616 504056.000000 0 0 1
-11.039454 -30.433593 20.002294 38.054762 1.222818 1.017354 0.029205 -0.023524 268892.000000 0 0 1
-11.172054 -29.273393 21.062294 37.754027 1.206212 0.978965 0.022115 -0.027995 113769.000000 0 0 1
-10.128354 -29.410393 22.015694 38.108340 1.239137 0.954872 0.017197 -0.022531 323964.000000 0 0 1
-10.240854 -28.557893 23.139194 38.155611 1.226481 0.919217 0.009116 -0.020539 -1164720.000000 0 0 1
-8.999754 -28.661893 23.939194 38.413340 1.266548 0.897969 0.016196 -0.021820 -1226210.000000 0 0 1
-8.886454 -29.895893 24.576194 39.707969 1.281867 0.903425 0.002006 -0.016616 -465250.000000 0 0 1
-7.886954 -29.839093 25.534394 40.057219 1.312390 0.879615 0.009639 -0.015726 -449492.000000 0 0 1
-7.841054 -31.153793 26.351094 41.550224 1.324229 0.883825 0.012797 -0.011650 -291530.000000 0 0 1
-7.564354 -32.358893 25.692494 42.005020 1.341156 0.912648 0.023030 -0.004045 279212.000000 0 0 1
-7.726154 -33.439293 26.574194 43.405847 1.343731 0.911923 0.024395 -0.004375 -417511.000000 0 0 1
-7.525654 34.312632 25.791794 43.579913 -1.354889 0.937472 0.027721 -0.011041 -482684.000000 0 0 1
-6.139554 34.151632 25.599994 43.120619 -1.392923 0.935168 0.025796 -0.006163 18154.100000 0 0 1
-5.771654 32.910332 25.014694 41.738913 -1.397187 0.928153 0.024869 -0.002389 8504.700000 0 0 1
-6.496154 32.357032 23.712894 40.638392 -1.372665 0.947753 0.027177 -0.004847 209569.000000 0 0 1
-7.750154 31.738732 23.955594 40.512745 -1.331297 0.938114 0.031438 -0.007639 117898.000000 0 0 1
-8.361954 31.445932 22.720894 39.686370 -1.310896 0.961231 0.030699 -0.005203 491360.000000 0 0 1
-9.406454 30.275132 22.933794 39.128300 -1.269553 0.944537 0.035854 -0.016114 371085.000000 0 0 1
-8.759754 29.028032 23.004594 38.060101 -1.277718 0.921749 0.042285 -0.009982 177152.000000 0 0 1
-9.627854 27.928432 23.180994 37.550651 -1.238821 0.905457 0.039986 -0.011112 -226654.000000 0 0 1
-8.916454 26.601032 22.928994 36.233366 -1.247374 0.885614 0.035506 -0.003761 -300723.000000 0 0 1
-7.877554 26.258732 23.781494 36.292373 -1.279342 0.856249 0.020263 -0.003518 -467792.000000 0 0 1
-7.359954 24.988332 23.602494 35.152004 -1.284360 0.834645 0.017863 -0.005044 -292942.000000 0 0 1
-5.904354 24.887832 24.091594 35.137878 -1.337864 0.815327 0.006432 -0.000052 -509304.000000 0 0 1
-5.046554 25.337732 23.089694 34.649709 -1.374198 0.841460 0.006538 0.000807 334949.000000 0 0 1
-3.712454 25.389932 23.646394 34.893881 -1.425608 0.826212 0.008628 0.005624 1390740.000000 0 0 1
-2.606554 25.979732 22.706894 34.602654 -1.470801 0.855000 0.003624 0.009377 317919.000000 0 0 1
-2.164254 25.147132 21.645394 33.250343 -1.484944 0.861918 0.002760 0.012763 120529.000000 0 0 1
-1.280354 25.903432 20.815894 33.255504 -1.521409 0.894462 0.006073 0.012924 84810.000000 0 0 1
-0.845054 25.093832 19.598794 31.851644 -1.537133 0.908011 0.004494 0.004935 -673812.000000 0 0 1
-0.071254 24.003432 20.035394 31.266385 -1.567828 0.875261 0.011143 0.012027 -121460.000000 0 0 1
0.140646 23.013732 18.992894 29.839264 1.564685 0.880836 0.010237 0.003965 -225200.000000 0 0 1
1.250446 21.969132 19.221194 29.217472 1.513939 0.852814 0.014405 0.015901 912601.000000 0 0 1
2.590546 22.502232 19.241994 29.720628 1.456177 0.866590 0.017562 0.001872 898148.000000 0 0 1
3.506646 21.390932 19.251794 28.991380 1.408310 0.844571 0.023746 0.010256 200844.000000 0 0 1
4.983046 21.814932 19.249694 29.517329 1.346226 0.860381 0.019692 0.004381 -100809.000000 0 0 1
5.846446 20.737232 18.954294 28.696324 1.295999 0.849295 0.021752 0.003577 564931.000000 0 0 1
7.145146 21.240232 18.574694 29.107041 1.246291 0.878702 0.028192 0.002619 1311360.000000 0 0 1
8.231746 20.092032 18.338694 28.421103 1.181954 0.869447 0.027201 0.002323 554434.000000 0 0 1
8.712446 19.507232 19.507394 28.930559 1.150751 0.830803 0.038713 -0.001676 -14128.200000 0 0 1
9.564746 18.410432 19.211194 28.275402 1.091648 0.823809 0.027395 -0.004560 208281.000000 0 0 1
9.988946 17.641432 20.490494 28.824634 1.055585 0.780066 0.049220 -0.012711 -127849.000000 0 0 1
8.982146 16.756932 20.915194 28.265156 1.078745 0.737780 0.054452 -0.014089 -267178.000000 0 0 1
9.417746 16.040332 22.062794 28.857461 1.039894 0.700463 0.050624 -0.015842 132474.000000 0 0 1
8.322646 15.143332 22.664194 28.500046 1.068267 0.651404 0.045580 -0.013446 184470.000000 0 0 1
7.333146 15.918432 23.380994 29.220582 1.139105 0.643243 0.036119 -0.006356 329742.000000 0 0 1
6.156446 15.196732 23.709294 28.826604 1.185887 0.605040 0.036507 -0.005711 386123.000000 0 0 1
6.289746 13.960032 24.683494 29.046829 1.147482 0.555223 0.033313 -0.005206 -634700.000000 0 0 1
6.844446 14.374232 25.924694 30.422931 1.126401 0.550729 0.035305 -0.009845 118530.000000 0 0 1
7.267446 13.222032 26.676694 30.647739 1.068224 0.514722 0.036538 -0.012471 188353.000000 0 0 1
8.302846 13.588632 27.802494 32.040082 1.022318 0.520157 0.022524 -0.002990 80927.300000 0 0 1
9.631946 13.774632 27.410694 32.153709 0.960572 0.550067 0.042558 -0.005811 -462134.000000 0 0 1
10.027446 15.103832 27.008994 32.529390 0.984711 0.591159 0.036021 -0.006812 -283950.000000 0 0 1
11.379546 15.038632 26.300094 32.362779 0.923029 0.622086 0.043857 -0.012633 -329612.000000 0 0 1
11.298346 14.254432 25.116494 31.010962 0.900572 0.626775 0.047833 -0.016572 346658.000000 0 0 1
12.560346 13.767932 24.656394 30.907216 0.831233 0.647233 0.056211 -0.020350 90859.000000 0 0 1
12.367546 12.494232 23.789394 29.580353 0.790494 0.636418 0.055589 -0.027898 79144.100000 0 0 1
12.046546 11.323232 24.429094 29.497720 0.754457 0.594964 0.055219 -0.021648 613478.000000 0 0 1
10.662446 11.156332 24.781894 29.194071 0.808030 0.556957 0.059977 -0.020430 518961.000000 0 0 1
10.333646 9.714932 25.108694 28.837661 0.754547 0.514191 0.042316 -0.012206 -195686.000000 0 0 1
10.373646 8.905032 23.922894 27.553893 0.709367 0.519189 0.046293 -0.008535 68970.100000 0 0 1
10.050446 7.610232 24.234194 27.317087 0.648095 0.479677 0.040060 -0.018743 -188011.000000 0 0 1
10.478246 6.556332 23.210394 26.296417 0.559109 0.489337 0.035847 -0.026383 -278465.000000 0 0 1
11.871146 6.335432 23.259494 26.871284 0.490230 0.524470 0.039224 -0.017157 256524.000000 0 0 1
12.445946 5.308432 22.417994 26.184871 0.403157 0.543038 0.037015 -0.022677 227414.000000 0 0 1
12.119546 3.865932 22.736594 26.053436 0.308780 0.510110 0.016563 -0.023660 -466790.000000 0 0 1
12.779846 3.480732 23.928894 27.350173 0.265911 0.505550 0.024000 -0.008721 215812.000000 0 0 1
12.234546 2.331232 24.500794 27.484681 0.188288 0.470295 0.022253 -0.010271 -651961.000000 0 0 1
13.271646 1.689532 25.412994 28.719530 0.126623 0.484586 0.004458 0.001523 -186645.000000 0 0 1
14.267846 0.975432 24.720894 28.559508 0.068260 0.524464 0.016225 0.001962 73381.900000 0 0 1
15.586846 1.386832 25.082594 29.563653 0.088741 0.557790 0.002780 0.003086 -190165.000000 0 0 1
16.544246 0.673132 24.159494 29.289014 0.040664 0.600832 0.000032 -0.003704 -845282.000000 0 0 1
16.646646 -0.722868 24.343594 29.499897 -0.043397 0.600223 0.003408 -0.004259 424188.000000 0 0 1
17.660946 -1.289968 23.489394 29.416401 -0.072911 0.645975 0.013067 0.002299 476937.000000 0 0 1
18.026446 -2.704268 23.812394 29.988263 -0.148906 0.653342 0.012583 0.005651 -112758.000000 0 0 1
16.996746 -3.571768 23.389894 29.133041 -0.207130 0.638711 0.010529 0.001488 213323.000000 0 0 1
17.344046 -4.969768 23.624694 29.726095 -0.279063 0.652207 0.016964 0.001447 -158362.000000 0 0 1
16.495746 -6.086768 22.966194 28.924116 -0.353491 0.653410 0.019089 -0.003764 -168762.000000 0 0 1
16.708046 -6.332368 21.592094 28.026349 -0.362274 0.691295 0.009442 -0.003400 808579.000000 0 0 1
15.856746 -7.440468 21.115594 27.434746 -0.438730 0.692478 0.016482 -0.015634 591727.000000 0 0 1
16.377146 -8.888968 21.469094 28.427921 -0.497273 0.714820 0.024721 -0.015615 -248745.000000 0 0 1
16.162146 -9.362868 22.767394 29.448812 -0.525066 0.687055 0.020831 -0.002740 -277007.000000 0 0 1
16.950646 -10.470468 23.064694 30.478439 -0.553335 0.712462 0.006031 -0.010316 -375965.000000 0 0 1
16.288146 -11.393168 24.114894 31.251178 -0.610374 0.689369 0.016051 -0.018269 680178.000000 0 0 1
15.208346 -12.154168 23.505694 30.521062 -0.674239 0.691725 0.031557 -0.015598 604604.000000 0 0 1
14.665946 -13.056568 24.384694 31.307783 -0.727410 0.677934 0.035325 -0.001823 -311605.000000 0 0 1
13.566446 -13.912668 23.754894 30.690484 -0.797997 0.685638 0.038556 -0.004198 -130081.000000 0 0 1
14.136146 -14.890768 22.818794 30.696302 -0.811390 0.732698 0.047071 -0.004056 157114.000000 0 0 1
13.158446 -15.648068 22.174494 30.161481 -0.871610 0.744846 0.058200 0.008569 -515972.000000 0 0 1
13.639246 -16.528368 21.023094 30.019768 -0.880876 0.794967 0.041689 -0.005003 -388403.000000 0 0 1
14.343046 -17.684968 21.346794 31.211643 -0.889366 0.817651 0.050677 -0.008878 -31715.800000 0 0 1
14.694346 -18.275168 20.088894 30.878297 -0.893584 0.862445 0.037651 -0.010790 -1464.300000 0 0 1
-23.059654 -32.200693 26.436178 47.618314 0.949331 0.982231 0.024991 -0.019410 -269106.000000 0 0 1
-23.721954 -33.111193 27.331218 49.051786 0.949126 0.979797 0.030048 -0.018691 491982.000000 0 0 1
-24.920554 -33.646393 26.781648 49.702821 0.933299 1.001742 0.034130 -0.021746 506523.000000 0 0 1
-25.690224 34.380632 27.695628 51.078991 -0.929071 0.997729 0.033404 -0.019312 -382561.000000 0 0 1
-26.389424 -34.069193 28.716868 51.785810 0.911747 0.982996 0.059096 -0.017366 81213.200000 0 0 1
-25.529914 -33.513193 29.707048 51.550163 0.919794 0.956633 0.039919 -0.017208 -145297.000000 0 0 1
-26.341634 -32.801393 30.797338 52.137214 0.894190 0.938873 0.034438 -0.020048 -130839.000000 0 0 1
-27.037004 -31.683393 30.352648 51.537561 0.864361 0.941047 0.028189 -0.018541 325543.000000 0 0 1
-27.843774 -31.145793 31.413478 52.269903 0.841316 0.926062 0.026559 -0.005762 202662.000000 0 0 1
-28.173234 -29.634393 31.180658 51.421414 0.810669 0.919302 0.017938 -0.008794 -71570.700000 0 0 1
-28.826264 -29.313093 29.964818 50.873384 0.793771 0.940966 0.027194 0.002025 379696.000000 0 0 1
-29.234364 -27.963693 29.962138 50.342287 0.763187 0.933321 0.018197 0.002471 -243474.000000 0 0 1
-30.042544 -27.699293 28.671968 49.918804 0.744839 0.958959 0.018003 0.000517 -75114.700000 0 0 1
-29.262614 -27.524693 27.493348 48.680525 0.754804 0.970641 0.008497 -0.003953 384695.000000 0 0 1
-28.499034 -26.322093 27.432408 47.514046 0.745709 0.955312 0.004758 -0.000738 267754.000000 0 0 1
-27.460644 -26.363493 26.272428 46.253229 0.765017 0.966707 0.012394 -0.000583 287265.000000 0 0 1
-28.108274 -26.443293 24.992478 45.977677 0.754886 0.996102 -0.001761 -0.003099 702617.000000 0 0 1
-27.136954 -26.311693 23.939428 44.741655 0.769959 1.006219 0.023034 0.006686 -28194.300000 0 0 1
-27.629864 -26.524993 22.516018 44.429221 0.764999 1.039346 0.002020 0.014944 -208416.000000 0 0 1
-28.249974 -25.438593 21.833318 43.839216 0.733081 1.049469 -0.005336 0.007686 433148.000000 0 0 1
-28.762384 -25.829593 20.562018 43.786290 0.731728 1.081959 -0.015099 0.021892 -272326.000000 0 0 1
-29.465404 -24.633593 19.927618 43.268163 0.696320 1.092169 -0.015984 0.010554 95390.900000 0 0 1
-30.635974 -24.126193 20.554618 44.080930 0.667080 1.085701 -0.009614 0.008186 440262.000000 0 0 1
-31.198374 -23.020393 19.861418 43.563206 0.635694 1.097389 -0.003578 0.001463 -6092.380000 0 0 1
-32.675224 -22.653593 20.173418 44.585001 0.606212 1.101262 -0.002057 0.008716 -72039.500000 0 0 1
-33.484684 -23.621093 19.552318 45.403450 0.614361 1.125600 -0.007561 0.006165 -296282.000000 0 0 1
-34.854419 -23.324193 19.595818 46.290869 0.589747 1.133690 0.003517 0.000894 -425913.000000 0 0 1
35.179279 -24.337793 18.891618 46.763266 -0.605216 1.154928 0.014192 -0.005520 -328617.000000 0 0 1
35.150790 -25.655893 19.357118 47.628782 -0.630500 1.152268 0.011753 -0.006914 -61310.000000 0 0 1
34.557439 -26.484493 18.365018 47.253771 -0.653909 1.171634 0.015932 0.004875 -404896.000000 0 0 1
34.098539 -27.784393 19.002318 47.914204 -0.683716 1.162997 0.019467 0.009821 789090.000000 0 0 1
32.849849 -27.787993 19.737018 47.337459 -0.702114 1.140717 0.020844 0.000040 806877.000000 0 0 1
32.834769 -26.898793 20.897718 47.311539 -0.686349 1.113299 0.021256 -0.009266 -127480.000000 0 0 1
31.656859 -26.995893 21.956518 47.042785 -0.706098 1.085201 0.023129 -0.014266 791075.000000 0 0 1
30.416029 -26.553693 21.448818 45.719637 -0.717705 1.082482 0.028402 -0.009498 -20357.500000 0 0 1
29.494969 -26.136993 22.437918 45.349264 -0.725111 1.053214 0.027828 -0.015419 787783.000000 0 0 1
28.489189 -24.975893 21.962618 43.792530 -0.719781 1.045447 0.029527 -0.006277 356665.000000 0 0 1
29.088759 -23.783593 21.508818 43.294855 -0.685394 1.050890 0.032571 -0.001977 236963.000000 0 0 1
29.913939 -23.099893 22.465918 43.967787 -0.657566 1.034491 0.044602 -0.008944 66700.700000 0 0 1
30.807899 -21.960293 21.930118 43.729981 -0.619274 1.045477 0.035118 -0.015583 -346097.000000 0 0 1
30.140729 -20.755893 21.768318 42.580868 -0.603056 1.034189 0.037181 -0.022615 -370392.000000 0 0 1
30.874589 -19.749193 21.149218 42.315013 -0.569071 1.047424 0.031730 -0.008925 -441190.000000 0 0 1
30.133059 -18.395793 21.280718 41.222268 -0.548094 1.028338 0.018317 0.002598 -55781.800000 0 0 1
29.983749 -17.760493 22.563018 41.515661 -0.534766 0.996217 0.027605 -0.009523 530599.000000 0 0 1
29.011429 -18.336193 23.454318 41.569027 -0.563641 0.971301 0.038097 -0.005147 196699.000000 0 0 1
29.007569 -17.711793 24.874468 42.117524 -0.548171 0.938998 0.030550 0.000890 143193.000000 0 0 1
28.348109 -16.426393 24.990198 41.206209 -0.525174 0.919187 0.030203 -0.007955 454729.000000 0 0 1
28.441559 -15.970293 26.314678 41.909842 -0.511639 0.891960 0.028705 0.000222 -375358.000000 0 0 1
28.000049 -14.528893 26.585398 41.253786 -0.478644 0.870512 0.015620 -0.002692 831504.000000 0 0 1
26.657189 -14.223593 26.139338 39.952238 -0.490145 0.857586 0.040235 -0.005641 1032230.000000 0 0 1
26.353559 -12.872093 26.379138 39.446924 -0.454356 0.838304 0.027986 -0.009045 -206317.000000 0 0 1
27.140809 -11.769793 25.649178 39.153951 -0.409180 0.856501 0.036601 -0.020049 -365595.000000 0 0 1
26.689879 -11.509793 24.332708 37.906539 -0.407146 0.873806 0.027409 -0.007501 468380.000000 0 0 1
27.753609 -10.931493 23.579318 38.022948 -0.375216 0.901883 0.025279 0.001689 926769.000000 0 0 1
28.773429 -11.943293 22.920718 38.677019 -0.393439 0.936490 0.027767 -0.014262 274500.000000 0 0 1
28.207169 -12.769393 21.916118 37.934391 -0.425097 0.954842 0.019519 -0.014224 15914.700000 0 0 1
28.198209 -14.134393 22.391818 38.682213 -0.464648 0.953459 0.030053 -0.012058 -159655.000000 0 0 1
27.726299 -15.198593 21.473418 38.221101 -0.501433 0.974211 0.022288 -0.008126 -237762.000000 0 0 1
28.531839 -15.304093 20.295318 38.212315 -0.492331 1.010875 0.016946 -0.006521 22991.800000 0 0 1
27.995789 -16.265093 19.400118 37.744960 -0.526319 1.030979 0.019220 -0.012005 -160105.000000 0 0 1
28.605419 -16.337793 17.963518 37.521747 -0.518931 1.071566 0.018326 -0.012635 -165454.000000 0 0 1
28.175499 -17.366393 17.114218 37.260526 -0.552366 1.093575 0.014395 -0.008839 888307.000000 0 0 1
26.828999 -17.200193 16.590718 35.929010 -0.570096 1.090814 0.025127 -0.012901 630481.000000 0 0 1
26.573419 -16.167293 15.442418 34.727457 -0.546574 1.109985 0.014390 -0.006546 -465589.000000 0 0 1
26.655929 -16.535793 14.042318 34.367975 -0.555243 1.149891 0.028219 -0.008562 158916.000000 0 0 1
25.609439 -17.441693 13.765818 33.905070 -0.597905 1.152712 0.027993 -0.009825 -143039.000000 0 0 1
25.403239 -17.932493 12.327218 33.449352 -0.614684 1.193365 0.027626 0.005844 -202854.000000 0 0 1
25.217639 -16.854793 11.357218 32.388266 -0.589183 1.212522 0.023176 -0.003206 6466.610000 0 0 1
25.018339 -17.290993 10.002818 32.014873 -0.604750 1.253033 0.022978 -0.007218 -447244.000000 0 0 1
26.322579 -17.490893 9.239818 32.926946 -0.586489 1.286361 0.031416 -0.004109 -333728.000000 0 0 1
27.058099 -18.502693 9.889118 34.238648 -0.599780 1.277793 0.036167 -0.002004 -907336.000000 0 0 1
28.272529 -18.796893 9.260618 35.191166 -0.586741 1.304509 0.042584 0.005291 -187974.000000 0 0 1
29.137249 -19.707493 10.182518 36.620326 -0.594689 1.289026 0.053537 -0.006451 -3540.440000 0 0 1
29.361259 -19.147293 11.476618 36.883806 -0.577870 1.254387 0.049511 -0.010695 74192.800000 0 0 1
29.649069 -20.136993 12.414518 37.930015 -0.596614 1.237351 0.043940 -0.009482 -56229.800000 0 0 1
29.641539 -19.641793 13.885518 38.173662 -0.585213 1.198510 0.043748 -0.006252 133610.000000 0 0 1
29.478229 -20.676293 14.865718 38.954649 -0.611671 1.179252 0.048427 -0.006212 88866.000000 0 0 1
29.362069 -20.173593 16.186318 39.129297 -0.601991 1.144323 0.041317 -0.012434 39896.400000 0 0 1
29.156869 -21.232593 17.280718 39.994615 -0.629415 1.124003 0.037712 -0.008181 20235.100000 0 0 1
27.887099 -21.829993 17.202018 39.371923 -0.664164 1.118635 0.013903 -0.003415 -41859.700000 0 0 1
27.515479 -22.457993 18.485518 40.039698 -0.684538 1.090908 0.031112 -0.016729 648814.000000 0 0 1
26.228849 -23.348593 18.374818 39.632604 -0.727367 1.088710 0.032825 -0.009471 1018450.000000 0 0 1
24.999139 -22.635893 18.562018 38.495313 -0.735827 1.067645 0.037731 -0.006864 698393.000000 0 0 1
23.911839 -23.541893 18.561618 38.347496 -0.777602 1.065534 0.009714 -0.010092 -1268120.000000 0 0 1
22.594039 -23.050293 18.993718 37.450874 -0.795394 1.038906 -0.000605 0.000840 -1573370.000000 0 0 1
21.954539 -21.928293 18.449518 36.100368 -0.784800 1.034377 0.007873 0.002962 215979.000000 0 0 1
20.728039 -21.561993 19.072118 35.472762 -0.805115 1.003143 0.004840 -0.001599 438581.000000 0 0 1
20.843139 -20.736393 20.368718 35.767571 -0.782831 0.964930 0.004571 0.004378 -306990.000000 0 0 1
21.470939 -21.489893 21.367718 37.140222 -0.785839 0.957794 0.002436 0.002573 -154929.000000 0 0 1
21.627239 -20.776393 22.564418 37.530640 -0.765335 0.925761 0.008529 0.013269 -169246.000000 0 0 1
22.128539 -21.633093 23.730618 38.997502 -0.774077 0.916607 0.010865 0.009757 -145795.000000 0 0 1
21.267039 -22.670993 24.171318 39.376560 -0.817340 0.909867 0.017813 0.011129 18003.100000 0 0 1
21.578939 -23.085093 25.477998 40.591878 -0.819107 0.892249 0.018527 0.002670 -8356.980000 0 0 1
20.350739 -23.615393 26.283498 40.775748 -0.859516 0.870314 0.024372 0.001698 187377.000000 0 0 1
19.836239 -24.796793 25.708678 40.856988 -0.896085 0.890227 0.025724 0.014523 -321082.000000 0 0 1
18.646839 -25.114293 26.366488 40.909950 -0.932126 0.870426 0.030533 0.015618 -511628.000000 0 0 1
18.033439 -26.435893 25.764858 41.083930 -0.972146 0.892937 0.031072 0.009521 -159412.000000 0 0 1
17.281739 -26.095293 24.613998 39.817983 -0.985854 0.904393 0.032530 0.007907 157823.000000 0 0 1
16.884039 -27.226693 23.933218 39.989530 -1.015708 0.929185 0.039616 -0.009418 -267184.000000 0 0 1
15.803039 -26.928993 22.876518 38.707129 -1.040109 0.938479 0.045219 -0.011217 -28576.400000 0 0 1
14.510439 -26.530093 23.287018 38.166529 -1.070303 0.914556 0.040436 -0.006590 175611.000000 0 0 1
13.943239 -25.750693 22.289518 36.801287 -1.074525 0.920186 0.035114 0.001121 179634.000000 0 0 1
12.494039 -25.230693 22.462018 36.017095 -1.111002 0.897395 0.028263 0.000422 436705.000000 0 0 1
11.475539 -26.179793 22.629718 36.457835 -1.157685 0.901149 0.026383 -0.001931 814675.000000 0 0 1
10.157239 -25.620893 22.474818 35.562862 -1.193360 0.886698 0.026938 0.000843 1441700.000000 0 0 1
8.962039 -26.617493 22.437418 35.947835 -1.246021 0.896733 0.026152 -0.007862 294776.000000 0 0 1
8.891939 -27.358693 21.244318 35.761512 -1.256552 0.934705 0.018060 -0.005721 -356902.000000 0 0 1
7.711239 -28.091993 21.226418 36.044197 -1.302895 0.941100 0.005545 -0.003096 -664130.000000 0 0 1
7.525939 -28.878693 19.965618 35.906052 -1.315861 0.981169 0.005043 -0.002288 325763.000000 0 0 1
8.394539 -30.016393 19.883618 36.970399 -1.298098 1.002941 0.000171 -0.006569 574015.000000 0 0 1
7.910739 -30.761093 18.785718 36.901597 -1.319084 1.036685 0.000531 -0.008854 385459.000000 0 0 1
8.511739 -32.229093 18.634818 38.189273 -1.312591 1.061046 -0.003943 -0.009330 133879.000000 0 0 1
7.893239 -33.123993 19.550618 39.264855 -1.336865 1.049602 0.005016 -0.010307 576900.000000 0 0 1
8.638439 -34.363293 19.595418 40.489986 -1.324514 1.065625 0.005505 -0.016827 12423.800000 0 0 1
8.238339 33.637432 20.629018 40.310091 1.330608 1.033566 0.017836 -0.024887 -572753.000000 0 0 1
7.295339 32.694032 20.245518 39.140806 1.351253 1.027164 0.023049 -0.028694 -408160.000000 0 0 1
7.326639 31.581132 21.089918 38.675990 1.342835 0.994052 0.026607 -0.035341 -444133.000000 0 0 1
6.343839 30.468432 20.815218 37.441193 1.365519 0.981298 0.034727 -0.030087 -108129.000000 0 0 1
5.002939 30.686732 21.208118 37.636275 1.409186 0.972177 0.033491 -0.030283 -70231.000000 0 0 1
4.151039 29.697232 20.672318 36.421168 1.431917 0.967220 0.041473 -0.018606 -389103.000000 0 0 1
2.790539 29.612732 21.338518 36.606466 1.476839 0.948483 0.025986 -0.011856 -588330.000000 0 0 1
2.794739 29.295432 22.713518 37.174411 1.475686 0.913475 0.023973 -0.017195 -43096.700000 0 0 1
1.436839 29.127332 23.073318 37.186610 1.521507 0.901450 0.012346 -0.007496 156839.000000 0 0 1
1.237039 28.669832 24.517238 37.743668 1.527675 0.863775 0.026292 -0.006670 -177526.000000 0 0 1
1.658039 29.559132 25.537608 39.098092 1.514763 0.859036 0.030623 -0.012837 102593.000000 0 0 1
1.475739 29.079532 26.865638 39.617667 1.520091 0.825591 0.028548 -0.008984 -100139.000000 0 0 1
2.635039 28.314332 27.564408 39.603553 1.478000 0.800973 0.020167 -0.005160 -82014.100000 0 0 1
3.006339 27.128332 26.847458 38.285382 1.460428 0.793653 0.028371 -0.004720 353379.000000 0 0 1
3.918939 26.362432 27.613838 38.377858 1.423221 0.767678 0.014660 0.009858 -109877.000000 0 0 1
4.270639 25.069632 26.986998 37.081301 1.402065 0.755718 0.007808 0.020246 -126112.000000 0 0 1
3.210639 24.116032 26.972648 36.323752 1.438442 0.733908 0.021784 0.020809 312699.000000 0 0 1
3.710739 22.803932 26.703808 35.311220 1.409487 0.713247 0.023451 0.025640 165109.000000 0 0 1
2.566239 21.755632 26.638328 34.489037 1.453381 0.688231 0.017773 0.026630 -57646.600000 0 0 1
2.836739 20.372032 26.647138 33.662097 1.432439 0.657362 0.012690 0.027270 -193316.000000 0 0 1
3.468539 19.821332 25.512458 32.493099 1.397560 0.667833 0.009421 0.026076 -506904.000000 0 0 1
3.892739 18.378532 25.854398 31.958939 1.362072 0.628368 0.007457 0.017262 -188580.000000 0 0 1
5.081839 18.259832 26.595288 32.658168 1.299358 0.619182 0.018226 0.014094 -436536.000000 0 0 1
6.264539 18.244732 25.865098 32.266360 1.240048 0.640810 0.034505 0.008197 -643427.000000 0 0 1
7.560139 18.118232 26.738888 33.172190 1.175494 0.633326 0.022394 0.005311 493371.000000 0 0 1
7.954039 19.261732 27.512898 34.514354 1.179180 0.648247 0.011263 0.007499 119267.000000 0 0 1
8.334039 20.407032 26.757688 34.668098 1.183078 0.689091 0.008016 0.008885 -225740.000000 0 0 1
9.049139 21.482732 27.671748 36.181768 1.172125 0.700068 -0.003129 0.012501 -72671.400000 0 0 1
10.288739 21.070932 28.170208 36.652462 1.116560 0.694184 0.013373 -0.007740 -534710.000000 0 0 1
10.558339 21.909832 29.254068 38.043656 1.121734 0.693583 -0.001401 -0.005754 698343.000000 0 0 1
11.822839 21.491132 30.111988 38.837870 1.067856 0.683566 0.002557 -0.008581 692477.000000 0 0 1
13.024839 21.709932 29.425878 38.818164 1.030415 0.710487 0.007752 -0.007312 -585224.000000 0 0 1
14.080439 22.016932 30.310308 40.021480 1.001818 0.711549 0.009116 0.001986 -1243060.000000 0 0 1
15.353939 22.287532 29.622428 40.124379 0.967557 0.740302 0.007929 -0.004236 -1441270.000000 0 0 1
15.323339 23.479632 28.901018 40.266198 0.992580 0.770232 0.005488 0.001288 128527.000000 0 0 1
16.446139 23.637032 28.035658 40.189338 0.962909 0.798769 0.039503 -0.005977 251354.000000 0 0 1
-8.539254 16.742032 4.568794 19.341364 -1.099142 1.332324 -0.001576 -0.012245 -133747.000000 0 1 0
-8.592154 18.072732 5.063994 20.642015 -1.127005 1.322942 0.004884 -0.012384 959257.000000 0 1 0
-7.282454 18.517132 5.490794 20.641394 -1.196095 1.301546 0.003281 -0.001895 920104.000000 0 1 0
-7.183754 20.032932 5.807994 22.060315 -1.226483 1.304378 0.008748 -0.002855 -64642.800000 0 1 0
-7.306254 20.973032 4.716694 22.704551 -1.235580 1.361530 0.016211 -0.015995 454856.000000 0 1 0
-8.660354 21.236932 4.337794 23.341497 -1.183587 1.383869 0.013701 -0.021335 552975.000000 0 1 0
-8.844254 22.401332 3.266894 24.304590 -1.194773 1.435974 0.030450 -0.021583 233971.000000 0 1 0
-8.072554 22.249732 2.067894 23.759059 -1.222750 1.483650 0.015224 -0.020523 156994.000000 0 1 0
-8.609654 21.324632 1.113494 23.024030 -1.187068 1.522415 0.025624 -0.016757 -334327.000000 0 1 0
-7.666054 21.261432 -0.119206 22.601573 -1.224744 1.576071 0.002311 -0.003726 784872.000000 0 1 0
-6.408054 20.605932 -0.043306 21.579376 -1.269296 1.572803 0.000103 0.001273 -152286.000000 0 1 0
-5.435954 21.505032 0.433394 22.185667 -1.323207 1.551260 0.009921 -0.008638 714490.000000 0 1 0
-3.990454 21.261232 -0.198906 21.633383 -1.385268 1.579991 0.008186 -0.007124 902841.000000 0 1 0
-3.871054 21.523032 -1.581606 21.925498 -1.392843 1.642994 0.008793 -0.013880 -173646.000000 0 1 0
-2.546054 21.425932 -2.041806 21.673069 -1.452520 1.665146 0.003388 -0.010442 -65824.600000 0 1 0
-2.576254 21.873132 -3.520806 22.303970 -1.453555 1.729315 0.016363 -0.000661 1213030.000000 0 1 0
-1.302454 22.290032 -4.084106 22.698499 -1.512431 1.751710 0.016873 -0.001377 902305.000000 0 1 0
-1.534754 22.595832 -5.469506 23.298983 -1.502979 1.807761 0.024302 -0.007303 -35077.500000 0 1 0
-0.325754 23.160432 -6.239406 23.988370 -1.556732 1.833923 0.031864 -0.014053 -717962.000000 0 1 0
0.735446 22.272832 -6.264406 23.148709 1.537788 1.844829 0.031264 -0.004535 -453777.000000 0 1 0
1.834946 22.910632 -6.933006 24.006888 1.490875 1.863762 0.037400 -0.007505 276257.000000 0 1 0
3.073946 21.996832 -6.965706 23.277260 1.431951 1.874702 0.020322 0.001891 -146504.000000 0 1 0
2.911646 20.904732 -7.852906 22.520072 1.432405 1.926987 0.023903 -0.004649 -363967.000000 0 1 0
3.841646 19.908932 -7.610406 21.657380 1.380178 1.929863 0.014930 -0.006629 -120966.000000 0 1 0
3.667146 18.824032 -8.679906 21.050722 1.378394 1.995810 0.007429 -0.006977 154308.000000 0 1 0
4.232746 19.156532 -9.971606 22.007312 1.353335 2.041041 0.011697 -0.010035 926987.000000 0 1 0
3.165246 19.110132 -10.958106 22.255247 1.406655 2.085622 0.016488 -0.008565 479532.000000 0 1 0
3.534846 19.551432 -12.371306 23.405188 1.391931 2.127713 0.022335 -0.005913 -114816.000000 0 1 0
3.787246 20.937532 -12.639806 24.748499 1.391848 2.106830 0.053651 -0.006488 14873.200000 0 1 0
3.976346 21.139232 -14.038406 25.685702 1.384866 2.149030 0.048711 -0.001949 61092.200000 0 0 1
4.192446 22.606832 -14.437006 27.149081 1.387429 2.131483 0.036312 0.000734 113628.000000 0 0 1
3.002946 23.360032 -14.434306 27.623504 1.442947 2.120620 0.046325 -0.000815 -329588.000000 0 0 1
3.315546 24.685332 -14.726506 28.934900 1.437283 2.104764 0.030244 -0.002796 166078.000000 0 0 1
2.180446 25.541932 -15.376706 29.892938 1.485635 2.111096 0.026199 0.005097 605373.000000 0 0 1
1.083046 25.804732 -14.503506 29.621088 1.528850 2.082467 0.034201 -0.001363 317520.000000 0 0 1
1.152446 27.108532 -14.053206 30.556394 1.528310 2.048691 0.019594 0.003513 -519144.000000 0 0 1
0.133646 27.460032 -12.960706 30.365295 1.565929 2.011777 0.027528 -0.001438 644078.000000 0 0 1
-1.263654 27.355232 -13.225506 30.410846 -1.524635 2.020717 0.008928 -0.010961 653257.000000 0 0 1
-2.011154 26.160032 -13.410006 29.465578 -1.494068 2.043289 0.012071 -0.005337 43684.400000 0 0 1
-1.929854 25.045532 -12.352706 27.992720 -1.493894 2.027824 0.042480 -0.014269 -64355.900000 0 0 1
-2.557554 25.330332 -11.085806 27.768001 -1.470169 1.981473 0.045682 -0.014322 103923.000000 0 0 1
-2.501454 24.208532 -10.235106 26.402039 -1.467832 1.968892 0.059872 -0.011219 262154.000000 0 0 1
-3.415354 24.162832 -8.943406 25.990221 -1.430379 1.922083 0.040471 -0.012901 117757.000000 0 0 1
-2.923054 24.671032 -7.694906 26.007992 -1.452865 1.871159 0.039002 -0.012630 -162489.000000 0 0 1
-2.629654 26.063132 -7.726006 27.311044 -1.470241 1.857602 0.040505 -0.012921 -3623.940000 0 0 1
-2.327254 26.670232 -6.313306 27.505912 -1.483756 1.802386 0.031821 -0.011975 -270992.000000 0 0 1
-1.213954 26.143032 -5.669906 26.778343 -1.524395 1.784146 0.037322 -0.015571 -509640.000000 0 0 1
-1.115654 26.660432 -4.331406 27.033024 -1.528974 1.731716 0.035259 -0.014974 -137079.000000 0 0 1
-2.104454 25.980532 -3.389206 26.285043 -1.489972 1.700097 0.027846 -0.011111 128027.000000 0 0 1
-3.497854 26.066432 -3.585206 26.543315 -1.437403 1.706280 0.015046 -0.009273 -276681.000000 0 0 1
-4.142654 25.174732 -2.733106 25.659279 -1.407702 1.677514 0.015366 -0.007751 -656317.000000 0 0 1
-5.465254 24.703732 -3.304606 25.515952 -1.353071 1.700673 0.013342 -0.006686 -1057880.000000 0 0 1
-6.410654 25.664832 -3.569206 26.693057 -1.326021 1.704911 0.011576 -0.004034 -902048.000000 0 0 1
-7.509954 25.025432 -4.197406 26.462991 -1.279254 1.730083 0.015961 -0.002976 448943.000000 0 0 1
-8.783154 25.928332 -4.235006 27.701218 -1.244181 1.724280 0.009776 -0.002205 32898.000000 0 0 1
-9.251554 26.069032 -2.912206 27.814863 -1.229775 1.675688 0.011071 -0.002265 -1305330.000000 0 0 1
-10.393854 26.816632 -2.881506 28.904446 -1.201034 1.670653 0.018254 -0.000739 -836183.000000 0 0 1
-11.136054 27.015432 -1.544606 29.261426 -1.179808 1.623607 0.018464 0.001258 265343.000000 0 0 1
-11.725754 25.816232 -0.997706 28.371932 -1.144454 1.605969 0.023646 -0.006958 215282.000000 0 0 1
-10.779754 24.885632 -0.506006 27.124782 -1.162025 1.589452 0.028315 -0.011022 -19681.900000 0 0 1
-11.379354 23.478032 -0.283206 26.091912 -1.119479 1.581651 0.030135 -0.013300 -286567.000000 0 0 1
-12.102454 23.365732 0.886494 26.328933 -1.092886 1.537120 0.035837 -0.012621 -372511.000000 0 0 1
-12.455254 22.035132 1.155694 25.338035 -1.056324 1.525169 0.037061 -0.019555 -260204.000000 0 0 1
-13.486054 21.923932 2.302794 25.842510 -1.019327 1.481569 0.040315 -0.020410 -730.490000 0 0 1
-13.010254 21.940932 3.669594 25.770858 -1.035564 1.427918 0.039093 -0.029861 -6304.180000 0 0 1
-12.688254 23.220032 4.095894 26.775698 -1.070694 1.417223 0.030113 -0.025843 -136374.000000 0 0 1
-12.399154 23.195332 5.610794 26.893186 -1.079889 1.360620 0.028774 -0.026131 805122.000000 0 0 1
-11.092154 22.708132 5.985194 25.971478 -1.116418 1.338254 0.027834 -0.019710 778262.000000 0 0 1
-11.131054 22.349932 7.349394 26.027551 -1.108722 1.284533 0.020882 -0.020855 671243.000000 0 0 1
-9.734954 22.017532 8.008194 25.370696 -1.154493 1.249657 0.018177 -0.017368 624360.000000 0 0 1
-8.948854 23.145132 8.315794 26.171197 -1.201859 1.247445 0.020190 -0.018754 -326310.000000 0 0 1
-7.863454 22.840332 9.143594 25.828666 -1.239227 1.208942 0.020716 -0.017256 -431085.000000 0 0 1
-8.204854 22.685132 10.704094 26.391523 -1.223751 1.153174 0.017176 -0.017704 71747.400000 0 0 1
-8.966354 21.505332 11.017394 25.773199 -1.175775 1.129099 0.024848 -0.014297 191741.000000 0 0 1
-8.873054 21.235732 12.403694 26.144579 -1.175009 1.076483 0.014514 -0.004632 -60631.200000 0 0 1
-9.782254 20.082432 12.907394 25.799174 -1.117518 1.046848 0.019638 -0.000762 -133401.000000 0 0 1
-9.572354 18.837532 12.252494 24.425523 -1.100647 1.045318 0.026059 -0.010461 -195569.000000 0 1 0
-10.222054 17.727832 12.830694 24.153532 -1.047753 1.010764 0.021166 -0.005357 -243447.000000 0 1 0
-10.322854 16.540132 11.907994 22.845954 -1.012838 1.022505 0.017899 -0.005552 -279998.000000 0 1 0
-10.911054 15.431332 12.552094 22.687710 -0.955340 0.984529 0.016070 -0.000482 -61899.500000 0 1 0
-11.118554 14.398932 11.589894 21.570283 -0.913251 1.003554 0.013422 0.002971 66983.100000 0 1 0
-11.440454 13.036632 12.259294 21.239775 -0.850517 0.955518 0.005559 -0.007546 460500.000000 0 1 0
-12.583754 13.017132 13.145894 22.374340 -0.802325 0.942777 0.009495 0.000509 680337.000000 0 1 0
-12.931854 11.704932 13.499194 22.055986 -0.735639 0.912156 0.011164 0.002446 270172.000000 0 1 0
-13.957154 11.591032 14.658894 23.324608 -0.693048 0.891207 0.021190 -0.008021 1601890.000000 0 1 0
-15.274154 12.157732 14.390994 24.253060 -0.672277 0.935559 0.027959 -0.011901 759862.000000 0 1 0
-16.099454 12.052532 15.482894 25.380621 -0.642624 0.914700 0.031094 -0.017247 -576781.000000 0 0 1
-17.042654 13.217932 15.694194 26.673461 -0.659672 0.941740 0.034965 -0.012378 134903.000000 0 0 1
-18.248954 13.176832 14.932394 27.011657 -0.625378 0.985060 0.035517 -0.005512 423116.000000 0 0 1
-19.030554 14.368432 14.900394 28.118242 -0.646706 1.012291 0.042215 -0.007048 452870.000000 0 0 1
-20.313354 14.120032 14.062694 28.456405 -0.607437 1.053901 0.039223 -0.007605 582535.000000 0 0 1
-21.232054 13.206132 14.703494 29.006805 -0.556432 1.039214 0.036320 -0.000729 232745.000000 0 0 1
-22.281754 12.817932 13.857794 29.202986 -0.522034 1.076362 0.026728 -0.001751 -280265.000000 0 0 1
-23.235254 11.824432 14.514294 29.838883 -0.470743 1.062806 0.027638 -0.000614 257763.000000 0 0 1
-23.974754 12.414432 15.619394 31.190903 -0.477796 1.046311 0.021643 0.000415 1076890.000000 0 0 1
-24.983754 11.665932 16.323194 32.042606 -0.436852 1.036284 0.012506 0.003506 482892.000000 0 0 1
-25.787454 12.479232 17.326694 33.480417 -0.450706 1.026849 0.012952 -0.001715 -200676.000000 0 0 1
-26.761794 13.393332 16.877694 34.357408 -0.464019 1.057285 0.012230 -0.001201 25260.800000 0 0 1
-27.479464 13.835332 17.998194 35.643686 -0.466427 1.041475 0.017761 0.010718 -196112.000000 0 0 1
-28.327424 15.068432 17.586194 36.589272 -0.488870 1.069414 0.019594 0.003026 250713.000000 0 0 1
-27.591364 16.237532 17.153794 36.320703 -0.531921 1.078913 0.018573 0.003600 228469.000000 0 0 1
-28.514084 17.214632 16.670494 37.246502 -0.543153 1.106748 0.022299 0.007580 259203.000000 0 0 1
-28.024804 18.674532 16.837794 37.651548 -0.587788 1.107163 0.025331 -0.000174 -331814.000000 0 0 1
-27.704334 19.207932 18.140494 38.282532 -0.606228 1.077129 0.019396 -0.002395 -265155.000000 0 0 1
-28.633854 19.069332 19.168094 39.382138 -0.587521 1.062465 0.011970 0.002666 -919205.000000 0 0 1
-28.004734 19.330432 20.551194 39.752765 -0.604156 1.027483 0.011392 -0.002288 644110.000000 0 0 1
-27.367824 18.189532 21.220194 39.117176 -0.586593 0.997413 0.011589 0.002747 1009400.000000 0 0 1
-26.196354 17.586732 20.635694 37.701113 -0.591233 0.991602 0.023266 0.006194 208628.000000 0 0 1
-25.799084 16.229732 21.354394 37.215683 -0.561529 0.959657 0.021222 0.011458 34573.900000 0 0 1
-26.814694 15.249232 21.300694 37.487150 -0.517079 0.966463 0.001735 0.012433 302226.000000 0 0 1
-26.330804 14.020832 21.776694 36.933986 -0.489299 0.940219 0.001076 0.023167 145351.000000 0 0 1
-27.541194 13.067532 22.024394 37.607867 -0.443018 0.945136 0.008936 0.010630 311782.000000 0 0 1
-28.255154 12.765132 20.846994 37.361738 -0.424334 0.978850 0.012086 0.004661 327580.000000 0 0 1
-29.169104 11.696632 21.162194 37.887812 -0.381363 0.978161 0.033206 0.001981 596311.000000 0 0 1
-30.221354 11.334032 20.034794 37.989255 -0.358800 1.015282 0.042252 -0.000273 109441.000000 0 0 1
-29.778224 10.752332 18.823994 36.833382 -0.346512 1.034381 0.049435 -0.004250 87540.100000 0 0 1
-29.330404 9.369132 18.949994 36.154605 -0.309190 1.019094 0.042565 -0.000667 -211651.000000 0 0 1
-28.676784 8.801532 17.665694 34.812378 -0.297795 1.038568 0.030275 -0.010799 -82452.000000 0 0 1
-29.418124 8.596032 16.445794 34.781919 -0.284287 1.078301 0.033916 -0.002888 441042.000000 0 0 1
-30.025404 9.705332 15.758794 35.271205 -0.312637 1.107623 0.036723 -0.007944 -192671.000000 0 0 1
-29.127834 10.877832 15.253494 34.632745 -0.357412 1.114713 0.032464 -0.006287 -140568.000000 0 0 1
-28.430944 10.521332 14.080394 33.425656 -0.354438 1.135979 0.025788 -0.004177 162171.000000 0 0 1
-27.496884 11.513732 13.732194 32.820996 -0.396547 1.139117 0.022158 0.002020 -317926.000000 0 0 1
-27.158574 11.501632 12.205094 31.919273 -0.400599 1.178432 0.031079 -0.004904 -438759.000000 0 0 1
-26.455184 10.415732 11.644094 30.723755 -0.375074 1.182088 0.042879 -0.002074 322440.000000 0 0 1
-27.250604 9.283832 11.405994 30.965814 -0.328351 1.193572 0.038991 0.005086 -626490.000000 0 0 1
-26.605084 8.163232 10.557394 29.764533 -0.297711 1.208206 0.046884 -0.012691 -417736.000000 0 0 1
-26.587044 8.530132 9.157094 29.385139 -0.310463 1.253895 0.055979 -0.011810 225907.000000 0 0 1
-26.170664 7.448732 8.405894 28.478875 -0.277289 1.271171 0.068013 -0.016967 -72088.000000 0 0 1
-25.379334 7.734932 7.106094 27.467004 -0.295830 1.309106 0.076388 -0.014529 -252894.000000 0 0 1
-26.156524 8.387432 6.141394 28.146571 -0.310304 1.350834 0.062017 -0.013760 118774.000000 0 0 1
-25.393954 8.916432 5.058294 27.385069 -0.337676 1.385020 0.068375 -0.014737 39414.900000 0 0 1
-26.253214 9.120732 3.785594 28.049059 -0.334369 1.435420 0.049421 -0.013813 -484079.000000 0 0 1
-26.779334 7.938532 3.204094 28.114395 -0.288190 1.456582 0.052429 -0.022125 206656.000000 0 0 1
-25.932534 6.827532 2.849894 26.967265 -0.257438 1.464919 0.051683 -0.021399 -242153.000000 0 0 1
-24.902454 7.046532 1.744594 25.938956 -0.275756 1.503488 0.055500 -0.017521 -1187390.000000 0 0 1
-23.946354 7.975132 2.005694 25.319032 -0.321488 1.491496 0.051333 -0.013962 -320628.000000 0 0 1
-22.948454 7.888532 0.971994 24.285906 -0.331096 1.530763 0.051297 -0.003847 -772739.000000 0 1 0
-21.697254 8.620732 1.329194 23.384922 -0.378193 1.513926 0.038679 -0.004033 -1052850.000000 0 1 0
-21.946954 9.979832 1.139794 24.136382 -0.426776 1.523556 0.038951 -0.009698 613690.000000 0 1 0
-20.867454 10.782532 1.597894 23.542873 -0.476930 1.502872 0.048470 -0.009084 -322451.000000 0 1 0
-21.250854 12.157732 2.211594 24.582522 -0.519656 1.480708 0.041877 -0.014714 -126318.000000 0 1 0
-20.169854 13.019232 2.490294 24.135554 -0.573191 1.467433 0.049568 -0.016866 138929.000000 0 1 0
-20.647954 13.915132 3.450994 25.137189 -0.593009 1.433075 0.052985 -0.025615 -569592.000000 0 0 1
-19.592554 14.639432 4.269894 24.827669 -0.641703 1.397956 0.036071 -0.019357 -494771.000000 0 1 0
-18.966154 13.688032 5.127394 23.945091 -0.625147 1.354994 0.021424 -0.025313 -162766.000000 0 1 0
-18.241054 14.410732 6.046594 24.020128 -0.668624 1.316329 0.025518 -0.022960 -734579.000000 0 1 0
-17.797254 13.570932 7.187594 23.506891 -0.651472 1.260054 0.009717 -0.018757 -812.415000 0 1 0
-16.904954 12.491232 6.886694 22.118655 -0.636365 1.254181 0.019246 -0.018007 534562.000000 0 1 0
-16.400354 11.869632 8.039494 21.782865 -0.626483 1.192784 0.010795 -0.007912 -218758.000000 0 1 0
10.738446 -32.092893 -14.282806 36.732364 -1.247902 1.970162 0.049523 -0.010511 -484277.000000 0 0 1
11.928946 -32.605693 -13.767306 37.349293 -1.220067 1.948309 0.024902 -0.009593 -312329.000000 0 0 1
12.978746 -31.704693 -14.011006 37.012751 -1.182244 1.959021 0.006025 -0.012613 655904.000000 0 0 1
14.452946 -31.980793 -13.579006 37.630416 -1.146342 1.939977 0.045227 -0.006904 978015.000000 0 0 1
15.091646 -33.043693 -14.275306 39.031113 -1.142370 1.945226 0.018966 -0.007752 -271795.000000 0 0 1
16.494246 -33.013593 -14.342606 39.593785 -1.107453 1.941470 0.035692 -0.017451 20400.000000 0 0 1
17.023346 -34.391393 -14.684406 41.087638 -1.111166 1.936271 0.014040 -0.011512 -187291.000000 0 0 1
16.948246 33.793532 -13.590406 40.173934 1.105931 1.915895 0.007796 0.001712 -177621.000000 0 0 1
17.583446 32.584932 -13.945806 39.565653 1.075958 1.931008 0.002421 0.006796 -371646.000000 0 0 1
17.603846 31.495532 -12.912806 38.322376 1.061122 1.914474 -0.005686 0.003665 -316291.000000 0 0 1
18.449946 31.705832 -11.836706 38.545660 1.043784 1.882922 -0.006232 -0.002661 -330454.000000 0 0 1
18.214246 30.612832 -10.933706 37.261913 1.034071 1.868608 -0.001235 -0.004869 51157.700000 0 0 1
19.162946 30.723732 -9.734906 37.495795 1.013119 1.833432 0.000827 0.003826 -19984.000000 0 0 1
20.480846 30.399032 -10.095006 38.019408 0.977917 1.839542 0.007087 -0.000497 -48600.100000 0 0 1
21.392246 30.362632 -9.001906 38.217168 0.957018 1.808577 0.009767 -0.007909 -412221.000000 0 0 1
22.650546 29.581132 -9.199906 38.376150 0.917317 1.812884 0.001113 0.000397 -469168.000000 0 0 1
23.612346 30.128932 -10.100506 39.589338 0.906068 1.828781 -0.005421 0.002982 31983.800000 0 0 1
24.822246 29.413932 -9.994406 39.764450 0.869858 1.824861 -0.008636 0.013527 -340727.000000 0 0 1
25.875846 29.828032 -11.003706 40.992102 0.856229 1.842564 -0.006906 0.010502 -540494.000000 0 0 1
26.385646 31.115232 -10.680806 42.171550 0.867466 1.826856 -0.006891 0.002838 -215458.000000 0 0 1
27.460046 31.465732 -11.497806 43.316809 0.853272 1.839452 -0.012197 0.009641 -252335.000000 0 0 1
27.869646 32.944032 -11.293706 44.604644 0.868647 1.826779 -0.003939 0.005298 171332.000000 0 0 1
26.929346 33.874132 -11.838106 44.864098 0.899122 1.837824 0.013009 0.002448 617069.000000 0 0 1
27.431246 -33.864993 -11.511206 45.075702 -0.889977 1.829032 0.036977 -0.001028 761031.000000 0 0 1
26.348246 -32.776793 -11.867006 43.696385 -0.893701 1.845829 0.029751 -0.001816 990312.000000 0 0 1
25.202246 -32.800893 -10.990706 42.800087 -0.915660 1.830497 0.030423 -0.005507 -191931.000000 0 0 1
24.138246 -32.030193 -11.411406 41.699022 -0.924989 1.847994 0.027911 -0.006543 -409691.000000 0 0 1
24.298046 -30.550493 -11.093306 40.580650 -0.898903 1.847685 0.036114 -0.015314 -337258.000000 0 0 1
25.160146 -29.809393 -11.950006 40.797494 -0.869776 1.868066 0.019474 -0.008572 -35134.000000 0 0 1
25.426146 -28.563393 -11.356006 39.891293 -0.843441 1.859462 0.013796 -0.013363 -91158.000000 0 0 1
26.330346 -27.718993 -12.302306 40.161878 -0.811085 1.882119 0.004070 -0.004651 725196.000000 0 0 1
27.648046 -28.193693 -12.558506 41.436878 -0.795169 1.878715 -0.001999 0.005537 456593.000000 0 0 1
27.620446 -29.038293 -13.678906 42.346476 -0.810417 1.899719 0.005460 0.000892 65312.600000 0 0 1
29.008846 -29.677893 -13.985406 43.793631 -0.796798 1.895838 0.018163 0.005632 394004.000000 0 0 1
29.403646 -30.713293 -13.090306 44.488616 -0.807180 1.869456 0.016944 0.004297 -475928.000000 0 0 1
30.629646 -31.222093 -13.519706 45.779655 -0.794976 1.870588 0.027053 -0.003634 -291383.000000 0 0 1
31.092146 -32.528193 -12.740606 46.766740 -0.807966 1.846713 0.020913 0.000053 1135840.000000 0 0 1
32.304146 -33.152193 -13.258506 48.149909 -0.798353 1.849759 0.013218 -0.000895 1079900.000000 0 0 1
33.100946 -33.861593 -12.318706 48.928833 -0.796757 1.825303 0.013971 -0.000743 165165.000000 0 0 1
32.504146 33.914032 -11.612806 48.389445 0.806622 1.813148 0.002545 0.001761 125304.000000 0 0 1
31.597746 34.283532 -10.571306 47.807224 0.826143 1.793763 0.001881 -0.003090 58695.200000 0 0 1
31.247146 33.273532 -9.656506 46.655763 0.816795 1.779277 0.003785 0.001228 -282840.000000 0 0 1
30.484346 33.765132 -8.399106 46.259318 0.836417 1.753375 -0.012284 -0.001799 -260413.000000 0 0 1
29.153346 34.140532 -8.580506 45.706877 0.864030 1.759646 -0.004285 -0.008815 -641237.000000 0 0 1
28.550346 -34.365993 -7.429706 45.291769 -0.877571 1.735582 -0.007898 -0.009672 283208.000000 0 0 1
27.573246 -33.203893 -7.654706 43.833514 -0.877779 1.746328 0.010030 -0.014655 -493115.000000 0 0 1
28.215546 -31.991993 -8.042506 43.408370 -0.848040 1.757149 0.004006 -0.020183 67926.900000 0 0 1
27.385246 -30.901193 -8.422106 42.139854 -0.845647 1.772012 0.010201 -0.010668 90377.800000 0 0 1
26.335046 -30.474693 -7.359706 40.943948 -0.858138 1.751529 0.020056 -0.018148 79524.100000 0 0 1
25.656246 -29.282493 -7.795406 39.704858 -0.851308 1.768414 0.018723 -0.020072 -611404.000000 0 0 1
24.540046 -29.060393 -7.005606 38.675559 -0.869533 1.752940 0.025177 -0.032940 -367233.000000 0 0 1
23.588046 -28.059593 -7.769406 37.471327 -0.871761 1.779654 0.056047 -0.035865 218336.000000 0 0 1
22.618046 -28.764093 -8.562806 37.580191 -0.904447 1.800670 0.062530 -0.034199 544128.000000 0 0 1
21.873846 -27.819993 -9.339406 36.601116 -0.904488 1.828817 0.074774 -0.032093 -366726.000000 0 0 1
20.677646 -28.491693 -9.995706 36.595844 -0.943001 1.847450 0.054819 -0.014332 -638710.000000 0 0 1
20.965546 -29.328493 -11.145006 37.734941 -0.950172 1.870618 0.051331 -0.013046 -185895.000000 0 0 1
19.892946 -30.060593 -11.695806 37.896708 -0.986197 1.884542 0.039074 -0.006297 -82073.600000 0 0 1
19.559446 -31.429193 -11.069006 38.637922 -1.014117 1.861348 0.029372 -0.010689 -144810.000000 0 0 1
20.535046 -32.415193 -11.226506 39.980837 -1.006108 1.855421 0.025067 -0.009148 -177941.000000 0 0 1
20.108346 -33.652993 -10.657906 40.625860 -1.032202 1.836246 0.023233 -0.013919 578310.000000 0 0 1
21.287946 34.364232 -10.596806 41.789585 1.016176 1.827171 0.003238 -0.004596 1166700.000000 0 0 1
22.432146 -34.457493 -9.777006 42.262393 -0.993712 1.804252 0.004051 -0.003559 263892.000000 0 0 1
23.437046 33.630432 -9.999106 42.193403 0.962154 1.810055 0.015093 -0.005693 281641.000000 0 0 1
24.737546 33.804932 -9.167106 42.880712 0.939063 1.786241 0.021943 -0.007449 -134367.000000 0 0 1
24.678846 33.546832 -7.756806 42.362760 0.936540 1.754940 0.007598 -0.019132 44676.500000 0 0 1
25.034746 32.253032 -7.413306 41.496430 0.910738 1.750410 -0.002804 -0.006231 -447239.000000 0 0 1
25.071746 32.016432 -5.950406 41.098074 0.906452 1.716093 -0.007234 -0.001291 -473202.000000 0 0 1
26.117346 32.606732 -5.165506 42.095097 0.895458 1.693817 -0.002795 -0.012066 -482.999000 0 0 1
27.215446 31.766232 -4.927006 42.119466 0.862402 1.688042 -0.008504 -0.009461 -570109.000000 0 0 1
27.145046 30.553832 -3.897206 41.055796 0.844408 1.665864 0.000023 0.001953 -693781.000000 0 0 1
26.822046 30.950832 -2.550006 41.035091 0.856743 1.632978 -0.002337 0.001316 85493.700000 0 0 1
26.645846 29.853632 -1.701106 40.051645 0.842113 1.613282 -0.005105 0.008494 429100.000000 0 0 1
25.297346 29.046132 -1.690306 38.555034 0.854272 1.614652 0.006777 0.015847 533236.000000 0 0 1
24.209546 29.807932 -1.224506 38.420234 0.888670 1.602673 0.004849 0.014654 -335312.000000 0 0 1
22.947746 29.258532 -1.538206 37.215949 0.905696 1.612140 0.007535 0.013914 675555.000000 0 0 1
21.763246 30.031332 -0.885006 37.098558 0.943695 1.594654 0.029774 0.012592 404806.000000 0 0 1
21.591546 29.760632 0.497094 36.771418 0.943156 1.557277 0.034866 0.000111 590.202000 0 0 1
20.477546 30.448232 1.047494 36.708609 0.978741 1.542257 0.030301 0.000097 -92662.300000 0 0 1
19.847746 29.714632 2.283094 35.806493 0.981909 1.506991 0.039295 -0.014422 -132558.000000 0 0 1
19.236346 28.531332 1.789594 34.456880 0.977584 1.518836 0.057954 -0.014361 -52486.000000 0 0 1
18.637246 27.773332 2.782394 33.562578 0.979766 1.487799 0.084193 -0.020243 91789.700000 0 0 1
18.001546 26.415232 2.249494 32.044974 0.972606 1.500541 0.072372 -0.001063 377078.000000 0 0 1
18.952946 25.486632 1.731994 31.808527 0.931376 1.516319 0.064120 -0.004904 354952.000000 0 0 1
19.684346 24.784432 2.738294 31.768535 0.899588 1.484494 0.051147 0.004748 450098.000000 0 0 1
20.969746 24.038532 2.230594 31.977443 0.853475 1.500984 0.041616 0.007276 439584.000000 0 0 1
20.685746 23.022232 1.297594 30.977524 0.838804 1.528896 0.040578 0.012771 -525472.000000 0 0 1
21.823446 22.279432 1.127394 31.207482 0.795737 1.534663 0.024851 0.010298 -799912.000000 0 0 1
21.721546 21.259132 -0.018606 30.393694 0.774640 1.571408 0.033629 -0.000302 -192889.000000 0 0 1
21.573646 21.836632 -1.310706 30.724236 0.791456 1.613470 0.027370 0.002955 194493.000000 0 0 1
21.548846 20.796532 -2.337306 30.038501 0.767634 1.648685 0.055709 -0.012970 71431.100000 0 0 1
21.192246 21.366132 -3.710106 30.321408 0.789484 1.693463 0.045271 -0.005639 145113.000000 0 0 1
22.222446 22.240832 -4.141606 31.711900 0.785812 1.701771 0.034761 0.002094 534608.000000 0 0 1
21.818446 22.875332 -5.308906 32.054795 0.809041 1.737183 0.041987 -0.005177 368748.000000 0 0 1
22.895846 23.965432 -5.697606 33.630707 0.808219 1.741034 0.034787 0.009173 443475.000000 0 0 1
22.947846 25.183332 -4.978006 34.432316 0.831810 1.715878 0.009110 0.012904 -229840.000000 0 0 1
23.189446 25.234032 -3.582206 34.457786 0.827596 1.674944 0.021975 0.007985 -101106.000000 0 0 1
22.084746 24.848232 -2.552406 33.341947 0.844212 1.647424 0.020971 0.004874 -55543.200000 0 0 1
21.021046 25.787932 -2.411606 33.357423 0.886885 1.643155 0.032020 -0.001224 811034.000000 0 0 1
20.050446 25.546132 -1.400506 32.505179 0.905348 1.613895 0.051276 0.006858 502185.000000 0 0 1
18.991646 24.437032 -1.672806 30.994345 0.910134 1.624794 0.067689 -0.005113 -242217.000000 0 0 1
18.208546 24.668732 -2.833706 30.791677 0.934940 1.662955 0.053576 -0.005692 16719.800000 0 0 1
17.636246 23.503232 -3.405206 29.580983 0.927055 1.686167 0.058634 -0.013203 71731.300000 0 0 1
17.009146 23.955232 -4.728106 29.757674 0.953365 1.730360 0.054283 -0.018224 -389435.000000 0 0 1
16.317446 22.942832 -5.367306 28.660785 0.952578 1.759179 0.049998 -0.018718 -180606.000000 0 0 1
16.072046 23.303532 -6.722806 29.095728 0.967028 1.803961 0.045537 -0.012934 -66192.700000 0 0 1
15.230646 22.304932 -7.547906 28.043778 0.971682 1.843304 0.038346 -0.006742 -368803.000000 0 0 1
15.865946 21.096732 -7.694306 27.495503 0.925980 1.854422 0.039677 -0.010871 289619.000000 0 0 1
15.067946 20.256632 -8.539106 26.651275 0.931241 1.896950 0.036041 -0.008597 252525.000000 0 0 1
15.775446 18.940632 -8.963606 26.228963 0.876320 1.919569 0.027982 -0.006037 -371810.000000 0 0 1
16.978246 19.125232 -9.636006 27.329251 0.844796 1.931133 0.030269 -0.004624 -361697.000000 0 0 1
17.665646 17.912532 -9.778406 26.991686 0.792337 1.941504 0.028698 -0.005756 -44995.300000 0 0 1
19.017846 17.959632 -10.525406 28.195940 0.756788 1.953355 0.024304 -0.002326 -157923.000000 0 0 1
19.052146 18.265732 -11.892406 28.949103 0.764328 1.994132 0.025745 -0.003511 -12544.500000 0 0 1
20.322146 18.745832 -12.283406 30.253560 0.745072 1.988886 0.028823 0.003561 -72708.900000 0 0 1
20.428446 19.249332 -13.741806 31.252127 0.755690 2.026070 0.028006 -0.003593 -274881.000000 0 0 1
20.659546 18.143532 -14.646606 31.153293 0.720648 2.060253 0.025692 0.000113 300143.000000 0 0 1
20.692646 18.606932 -15.965506 32.082720 0.732376 2.091667 0.027826 -0.003686 -8753.450000 0 0 1
20.716146 17.456632 -16.982406 31.973346 0.700216 2.130745 0.025770 -0.006217 -225421.000000 0 0 1
21.816246 16.571732 -16.878706 32.178590 0.649620 2.122962 0.037474 -0.007275 6471.210000 0 0 1
21.906246 15.787832 -18.007106 32.456049 0.624484 2.158937 0.044355 -0.012864 -127362.000000 0 0 1
22.747646 16.488232 -19.180506 34.017775 0.627198 2.169822 0.041859 -0.008035 333124.000000 0 0 1
24.134646 16.350832 -18.873906 34.728305 0.595454 2.145366 0.047122 -0.007173 563642.000000 0 0 1
24.951246 16.924932 -19.864106 36.105411 0.596027 2.153364 0.053854 -0.008496 -554314.000000 0 0 1
26.407646 17.127432 -19.453706 37.002154 0.575375 2.124387 0.049948 -0.003827 -338392.000000 0 0 1
26.531846 18.493732 -19.090206 37.555199 0.608736 2.104034 0.045737 -0.010609 -284453.000000 0 0 1
27.835746 18.708332 -18.645306 38.372880 0.591753 2.078187 0.042215 -0.015225 -510962.000000 0 0 1
27.817946 19.794632 -17.474406 38.353885 0.618454 2.043853 0.037185 -0.015749 -165078.000000 0 0 1
27.042346 19.441032 -16.376106 37.113597 0.623305 2.027779 0.034201 -0.014821 -483562.000000 0 0 1
25.837946 20.147332 -16.370906 36.626780 0.662275 2.034167 0.036565 -0.008643 -237390.000000 0 0 1
24.753546 19.619732 -15.389406 35.135534 0.670214 2.024170 0.045221 -0.001290 143684.000000 0 0 1
25.164746 19.789832 -14.043806 34.958982 0.666400 1.984193 0.045220 -0.006335 314195.000000 0 0 1
24.145546 19.532532 -13.097806 33.705782 0.680174 1.969900 0.044477 -0.008530 -273203.000000 0 0 1
24.682646 19.694732 -11.668306 33.664000 0.673470 1.924752 0.050868 -0.005315 -115297.000000 0 0 1
24.722146 21.016432 -11.246406 34.341762 0.704555 1.904437 0.044652 -0.004040 317165.000000 0 0 1
25.300346 21.346732 -9.941306 34.563276 0.700844 1.862544 0.031940 0.002198 141162.000000 0 0 1
24.431146 21.096232 -8.697506 33.430204 0.712278 1.833994 0.039379 0.003120 -598792.000000 0 0 1
24.343746 19.733232 -8.254306 32.406049 0.681176 1.828349 0.049039 0.001033 295034.000000 0 0 1
23.521646 19.570532 -7.105006 31.412652 0.693964 1.798954 0.038536 0.000259 1484870.000000 0 0 1
21.954346 19.538632 -7.349006 30.294543 0.727244 1.815826 0.026791 -0.002429 935305.000000 0 0 1
21.353246 20.713332 -7.858506 30.769455 0.770187 1.829057 0.044328 0.002177 -740570.000000 0 0 1
19.985546 20.571432 -8.030606 29.784165 0.799843 1.843802 0.058933 -0.004568 -772294.000000 0 0 1
19.248846 21.930332 -7.991506 30.254284 0.850424 1.838113 0.032330 -0.004497 -692217.000000 0 0 1
19.524246 22.802332 -9.072106 31.359937 0.862691 1.864281 0.026893 -0.002022 78535.100000 0 0 1
19.067646 22.495432 -10.400606 31.269669 0.867684 1.909866 0.029011 0.007434 809888.000000 0 0 1
17.514546 22.702432 -10.590306 30.566556 0.913687 1.924599 0.027907 0.002746 701701.000000 0 0 1
17.252046 24.110332 -10.322706 31.392666 0.949713 1.905856 0.036861 -0.005326 726034.000000 0 0 1
15.857946 24.389132 -10.524906 30.936675 0.994277 1.917934 0.035328 -0.000115 747611.000000 0 0 1
15.450646 25.679832 -9.893806 31.560476 1.029154 1.889659 0.052560 -0.004245 -102630.000000 0 0 1
16.249246 26.789132 -10.253906 32.967229 1.025566 1.887076 0.041143 0.001166 72981.700000 0 0 1
16.502546 27.669032 -9.183006 33.499806 1.033008 1.848472 0.048428 -0.015659 -85384.900000 0 0 1
19.775446 29.236532 33.696070 48.798240 0.976089 0.808591 0.005143 0.006673 310194.000000 0 0 1
18.405746 29.616532 33.769974 48.541957 1.014740 0.801421 0.015494 -0.008771 113766.000000 0 0 1
17.508846 28.555432 33.851934 47.622745 1.020762 0.780111 0.010903 -0.004830 -686329.000000 0 0 1
16.048046 28.914832 34.067864 47.478697 1.064114 0.770532 0.019145 -0.010290 -520240.000000 0 0 1
15.577646 29.437132 32.828139 46.764244 1.084075 0.792605 0.019584 -0.014526 -81807.900000 0 0 1
14.220946 29.824832 32.951847 46.664549 1.125868 0.786760 0.027715 -0.016090 -382616.000000 0 0 1
13.503746 29.880332 31.647378 45.571284 1.146341 0.803129 0.024378 -0.014491 -610644.000000 0 0 1
13.146546 28.585732 31.186478 44.300928 1.139741 0.789826 0.016679 -0.016248 -585526.000000 0 0 1
11.754546 28.537132 31.117728 43.827506 1.180071 0.781292 0.008739 -0.001838 -829223.000000 0 0 1
11.200746 27.122932 30.937918 42.641118 1.179166 0.758975 -0.009087 0.010315 -161381.000000 0 0 1
11.344146 26.558532 29.633598 41.378683 1.167117 0.772517 -0.007096 0.012453 739119.000000 0 0 1
12.612046 25.912232 29.453698 41.207133 1.117828 0.774499 0.001911 0.008961 424189.000000 0 0 1
12.627046 25.000832 28.209128 39.752218 1.103105 0.781832 0.029849 0.010250 -284812.000000 0 0 1
12.380246 25.710532 26.998688 39.283981 1.122038 0.813073 0.021958 0.010086 84346.600000 0 0 1
12.464346 24.976132 25.789018 38.003165 1.107909 0.824939 0.029148 0.005189 370658.000000 0 0 1
11.472446 23.775432 25.543498 36.733615 1.121219 0.801860 0.030505 0.009374 28171.600000 0 0 1
11.677646 23.295332 24.253258 35.598602 1.106120 0.821262 0.034823 -0.001218 291254.000000 0 0 1
10.638046 22.388932 23.943218 34.463169 1.127228 0.802727 0.033781 -0.004882 98575.500000 0 0 1
10.767046 21.977732 22.473018 33.226293 1.115256 0.827983 0.040346 -0.000567 -151584.000000 0 0 1
10.573046 23.037832 21.551318 33.271464 1.140531 0.866180 0.039756 -0.005014 130029.000000 0 0 1
10.483146 22.503232 20.274518 32.052268 1.134839 0.885961 0.043030 -0.004450 -414428.000000 0 0 1
10.196746 23.623432 19.242118 32.129415 1.163318 0.928677 0.029175 -0.005586 646224.000000 0 0 1
8.864746 24.141532 19.157818 32.068977 1.218882 0.930549 0.041558 -0.008298 456552.000000 0 0 1
8.387246 24.987432 20.178418 33.194672 1.246954 0.917407 0.044123 -0.008533 -68556.600000 0 0 1
7.030546 25.664832 19.915318 33.237510 1.303419 0.928317 0.047812 -0.012357 11266.900000 0 0 1
7.193746 26.626332 18.870118 33.418452 1.306922 0.970773 0.045779 -0.019482 -343606.000000 0 0 1
5.970346 27.157532 18.459218 33.375430 1.354397 0.984742 0.039888 -0.023187 -751590.000000 0 0 1
6.039546 28.249432 17.426718 33.737176 1.360174 1.027987 0.041801 -0.022520 -129028.000000 0 0 1
6.348246 27.790332 16.153118 32.764707 1.346216 1.055258 0.042817 -0.015297 -83652.800000 0 0 1
6.735746 28.805532 15.271918 33.292048 1.341089 1.094236 0.034788 -0.014834 19999.700000 0 0 1
7.376046 28.254632 14.010218 32.388524 1.315439 1.123458 0.036362 -0.011235 -173600.000000 0 0 1
6.404846 27.873832 13.080318 31.449440 1.344937 1.141847 0.022778 -0.010925 -64992.900000 0 0 1
6.764046 26.692932 12.357118 30.182169 1.322618 1.148980 0.015226 -0.015323 -147205.000000 0 0 1
6.109746 26.808832 10.972018 29.604521 1.346723 1.191120 0.003071 -0.013893 -100663.000000 0 0 1
6.681246 27.685632 10.004418 30.186448 1.333999 1.232987 0.001945 -0.009978 88203.300000 0 0 1
6.477446 29.070232 10.293618 31.511812 1.351557 1.238030 0.010609 -0.009997 -169785.000000 0 0 1
6.887746 29.930132 9.096918 32.031356 1.344607 1.282833 0.006903 -0.000352 -581709.000000 0 0 1
6.067246 29.960132 7.952218 31.585737 1.370988 1.316292 -0.003118 -0.004691 -66602.700000 0 0 1
6.080346 28.723932 7.152018 30.218972 1.362193 1.331856 -0.000198 0.001110 359920.000000 0 0 1
4.617646 28.346532 6.760418 29.505115 1.409315 1.339616 -0.008033 0.001149 213854.000000 0 0 1
4.084046 29.225332 5.843318 30.082284 1.431952 1.375309 -0.021893 0.000087 -189833.000000 0 0 1
2.752846 28.801832 5.599818 29.470013 1.475507 1.379616 0.004894 -0.008834 -158814.000000 0 0 1
1.773646 29.756132 4.954218 30.217834 1.511261 1.406103 0.010975 -0.007817 -942136.000000 0 0 1
2.091146 30.119832 3.650418 30.412213 1.501480 1.450475 0.002191 -0.011376 451034.000000 0 0 1
0.991346 30.751132 2.976218 30.910722 1.538570 1.474363 0.005601 -0.014731 564521.000000 0 0 1
-0.220254 29.902632 2.605618 30.016748 -1.563431 1.483881 0.016778 -0.005699 -579571.000000 0 0 1
-0.051054 29.327132 1.293318 29.355680 -1.569055 1.526725 0.017850 -0.009054 -492313.000000 0 0 1
-0.728754 28.129032 1.146618 28.161823 -1.544895 1.530070 0.024021 -0.009895 -204018.000000 0 0 1
-1.126954 27.911332 -0.345882 27.936215 -1.530442 1.583178 0.018592 -0.013995 83511.600000 0 0 1
-2.051254 28.932732 -0.720482 29.014302 -1.500017 1.595631 0.026407 -0.010499 -90254.500000 0 0 1
-1.663654 29.756432 -1.818382 29.858324 -1.514945 1.631734 0.025874 -0.011153 -743501.000000 0 0 1
-2.737654 30.771132 -2.220782 30.972394 -1.482062 1.642560 0.031459 -0.010993 160710.000000 0 0 1
-3.921854 30.286932 -2.830282 30.670665 -1.442023 1.663208 0.010493 -0.013959 15610.800000 0 0 1
-3.722754 29.609632 -4.091882 30.121964 -1.445725 1.707061 0.006066 -0.012901 -982820.000000 0 0 1
-4.970254 29.328632 -4.925982 30.151905 -1.402924 1.734904 0.014990 -0.010606 -178015.000000 0 0 1
-5.616154 30.507032 -5.421182 31.489830 -1.388741 1.743815 0.015813 -0.006699 44025.100000 0 0 1
-6.533754 30.215632 -6.446082 31.578891 -1.357838 1.776367 0.012843 -0.005123 -124491.000000 0 0 1
-7.259654 31.472732 -6.983482 33.045491 -1.344097 1.783731 0.019851 -0.008121 307962.000000 0 0 1
-8.284354 31.988932 -6.133982 33.608749 -1.317388 1.754337 0.006403 -0.005149 153166.000000 0 0 1
-8.575154 33.337332 -6.465182 35.024414 -1.319030 1.756452 0.015232 -0.011137 113061.000000 0 0 1
-9.583954 34.059732 -5.515882 35.809810 -1.296502 1.725445 0.006037 -0.013177 473970.000000 0 0 1
-10.918654 33.774432 -5.891782 35.981139 -1.258119 1.735283 0.012931 -0.006034 -266220.000000 0 0 1
-11.823254 -34.233593 -5.597182 36.647738 1.238252 1.724126 0.011777 0.004580 292051.000000 0 0 1
-13.277654 34.442632 -5.979882 37.394518 -1.202852 1.731399 0.018714 -0.001219 161564.000000 0 0 1
-13.637754 34.478832 -7.341382 37.797805 -1.194141 1.766266 0.021303 -0.003052 -109297.000000 0 0 1
-15.018254 34.332832 -7.580282 38.232865 -1.158444 1.770385 0.035737 -0.004861 -799179.000000 0 0 1
-15.434554 34.361532 -9.085982 38.749134 -1.148624 1.807482 0.047456 -0.007856 -443231.000000 0 0 1
-16.743354 34.045032 -9.449782 39.098625 -1.113730 1.814904 0.061426 -0.015447 -990379.000000 0 0 1
-17.621854 -33.961193 -9.146982 39.339035 1.092157 1.805461 0.060316 -0.017799 -781802.000000 0 0 1
-19.090154 -34.479093 -9.260182 40.484476 1.065137 1.801573 0.059045 -0.013516 228213.000000 0 0 1
-19.573654 33.628832 -8.293482 39.784521 -1.043680 1.780796 0.053582 -0.017214 22722.300000 0 0 1
-19.484054 33.866232 -6.916282 39.678520 -1.048719 1.745999 0.041384 -0.020004 -664214.000000 0 0 1
-19.975354 32.837732 -5.920382 38.889360 -1.024293 1.723627 0.038259 -0.014419 -801790.000000 0 0 1
-19.926954 33.129632 -4.520982 38.924225 -1.029286 1.687207 0.041193 -0.013802 398273.000000 0 0 1
-21.145854 33.493132 -3.858282 39.797278 -1.007644 1.667897 0.048800 -0.005888 242783.000000 0 0 1
-21.792554 -34.230693 -4.212582 40.797078 1.003872 1.674238 0.052045 -0.011871 -251351.000000 0 0 1
-22.349254 -34.190093 -5.552982 41.222412 0.991841 1.705915 0.051951 -0.012024 450629.000000 0 0 1
-23.281354 -33.108193 -5.670582 40.869663 0.957933 1.709993 0.053431 -0.013733 315776.000000 0 0 1
-23.633854 -32.875693 -7.144382 41.114626 0.947508 1.745450 0.057845 -0.012569 92550.000000 0 0 1
-22.679454 -32.059793 -7.827782 40.043253 0.955114 1.767546 0.067365 -0.008093 138510.000000 0 0 1
-22.656054 -32.200293 -9.244882 40.442842 0.957660 1.801427 0.062468 -0.001739 -119456.000000 0 0 1
-23.863954 -31.801593 -10.130682 41.029993 0.927039 1.820286 0.040689 -0.005973 142155.000000 0 0 1
-25.049754 -32.510193 -9.733382 42.179871 0.914291 1.803654 0.023356 0.004178 565110.000000 0 0 1
-26.283364 -32.087393 -10.274782 42.731571 0.884506 1.813625 0.001394 0.006950 664140.000000 0 0 1
-26.839104 -30.618593 -10.007282 41.928289 0.851082 1.811799 0.001809 0.014047 -591597.000000 0 0 1
-26.109214 -29.622793 -10.658082 40.899824 0.848359 1.834430 0.007489 0.013517 -279284.000000 0 0 1
-26.235294 -29.506493 -12.090982 41.293046 0.844016 1.867960 0.012222 0.008266 -346811.000000 0 0 1
-25.304714 -28.430693 -12.666282 40.113184 0.843506 1.892058 0.018610 0.002564 36324.700000 0 0 1
-23.947654 -28.874593 -12.658082 39.591152 0.878403 1.896230 0.021310 -0.007013 106326.000000 0 0 1
-23.368654 -28.363093 -13.831182 39.266533 0.881645 1.930758 0.021545 -0.004041 -396264.000000 0 0 1
-22.034954 -29.062493 -14.174182 39.128955 0.922073 1.941469 0.034749 -0.014526 -316980.000000 0 0 1
-22.073254 -30.355893 -14.832382 40.357259 0.942081 1.947145 0.045267 -0.023504 23866.900000 0 0 1
-22.648154 -31.412893 -14.056082 41.198084 0.946126 1.918971 0.035794 -0.024864 -103559.000000 0 0 1
-22.812154 -32.696593 -14.901682 42.561975 0.961621 1.928493 0.036795 -0.019807 -71696.400000 0 0 1
-23.135654 -33.820993 -14.076782 43.327518 0.970847 1.901694 0.029712 -0.020984 11774.000000 0 0 1
-23.246654 34.066832 -14.904682 43.853227 -0.971991 1.917582 0.032725 -0.013785 26512.100000 0 0 1
-23.805254 32.811932 -14.081382 42.913847 -0.943157 1.905121 0.029985 -0.014714 126575.000000 0 0 1
-23.057654 32.337232 -12.958282 41.776417 -0.951374 1.886181 0.023167 -0.012950 145321.000000 0 0 1
-23.139354 33.185932 -11.797282 42.141567 -0.961909 1.854532 0.055062 -0.014676 -81140.600000 0 0 1
-22.354254 32.637932 -10.585782 40.951264 -0.970266 1.832262 0.054461 -0.015702 138178.000000 0 0 1
-23.038654 31.725332 -9.732582 40.398012 -0.942708 1.814107 0.045854 -0.017467 158929.000000 0 0 1
-22.165054 31.315832 -8.693982 39.338992 -0.954861 1.793638 0.034886 -0.015893 -12973.100000 0 0 1
-22.756854 30.193232 -7.799882 38.604971 -0.924927 1.774240 0.033422 -0.011279 -142889.000000 0 0 1
-23.140954 29.150632 -8.665182 38.214506 -0.899822 1.799537 0.033691 -0.006436 -143269.000000 0 0 1
-23.478154 27.908432 -8.063482 37.351359 -0.871400 1.788391 0.029016 -0.002248 -92805.000000 0 0 1
-22.534154 27.042632 -7.144682 35.918498 -0.876088 1.771046 0.028945 -0.003951 -280895.000000 0 0 1
-22.685254 27.389132 -5.770382 36.028913 -0.879061 1.731649 0.038076 -0.003415 190204.000000 0 0 1
-21.723954 26.751032 -4.929282 34.811574 -0.888733 1.712873 0.024392 0.001731 365032.000000 0 0 1
-20.388954 27.537732 -4.835982 34.603798 -0.933467 1.711008 0.011646 -0.008117 -159325.000000 0 0 1
-19.558254 27.436432 -5.957982 34.216672 -0.951493 1.745814 0.011239 -0.004621 57543.300000 0 0 1
-18.411554 28.276132 -5.813382 34.239164 -0.993624 1.741410 0.017112 -0.003156 632796.000000 0 0 1
-17.402054 28.256932 -7.009982 33.917923 -1.018803 1.778972 0.032509 -0.006494 -179299.000000 0 0 1
-17.714354 28.872332 -8.177282 34.846489 -1.020480 1.807671 0.040096 -0.008575 -134235.000000 0 0 1
-17.764954 30.274332 -8.126782 36.030173 -1.040140 1.798309 0.042437 -0.011553 -87985.600000 0 0 1
-17.889754 30.991832 -9.515082 37.028013 -1.047280 1.830682 0.053348 -0.016953 151315.000000 0 0 1
-16.673654 30.820832 -10.231982 36.505176 -1.074900 1.854891 0.053642 -0.012186 298144.000000 0 0 1
-16.626554 31.558432 -11.448082 37.462454 -1.085900 1.881352 0.070911 -0.015588 122438.000000 0 0 1
-15.159554 31.692232 -11.940382 37.105018 -1.124629 1.898426 0.068914 -0.018929 501671.000000 0 0 1
-14.798354 32.569932 -13.029582 38.073111 -1.144326 1.920081 0.070444 -0.020663 -159922.000000 0 0 1
-15.138254 31.977032 -14.297982 38.159266 -1.128646 1.954861 0.075096 -0.021350 88266.500000 0 0 1
-14.572154 32.743932 -15.527982 39.059326 -1.152080 1.979640 0.080903 -0.022554 -125847.000000 0 0 1
-13.210354 32.504232 -15.762382 38.464155 -1.184768 1.993025 0.078733 -0.018982 -316246.000000 0 0 1
-12.748554 33.146032 -16.966782 39.358058 -1.203620 2.016494 0.069319 -0.022573 421939.000000 0 0 1
-11.228354 32.904532 -17.210482 38.794134 -1.241946 2.030448 0.077974 -0.016995 94643.300000 0 0 1
-10.891754 31.538232 -17.274482 37.572571 -1.238269 2.048525 0.079510 -0.028203 -608503.000000 0 0 1
-9.603354 31.364832 -17.768582 37.305490 -1.273677 2.067238 0.071596 -0.023105 -543802.000000 0 0 1
-9.385054 31.326232 -19.261082 37.952619 -1.279715 2.103081 0.065766 -0.024413 -568849.000000 0 0 1
-10.153354 30.347532 -19.876782 37.671604 -1.247934 2.126608 0.067384 -0.032899 76862.900000 0 0 1
-9.724354 30.078032 -21.208382 38.066344 -1.258099 2.161737 0.054850 -0.027361 -256824.000000 0 0 1
-10.900254 29.596832 -22.099582 38.512070 -1.217920 2.181978 0.057655 -0.030873 599552.000000 0 0 1
-11.810654 30.584332 -22.578882 39.808276 -1.202272 2.173887 0.066928 -0.030886 729841.000000 0 0 1
-12.900954 30.885332 -21.699482 39.889922 -1.175121 2.145974 0.068949 -0.029978 113942.000000 0 0 1
-13.620254 32.208332 -22.024782 41.327702 -1.170723 2.132856 0.067082 -0.023715 -163012.000000 0 0 1
-14.476854 32.106332 -23.123282 42.131722 -1.147191 2.151764 0.049868 -0.019682 -370165.000000 0 0 1
-14.927854 33.437132 -23.438782 43.477110 -1.150902 2.140172 0.046323 -0.017210 167379.000000 0 0 1
-15.455454 33.485432 -24.871682 44.483095 -1.138373 2.164128 0.042116 -0.015919 214742.000000 0 0 1
-14.435954 33.241532 -25.839682 44.509385 -1.161096 2.190194 0.038369 -0.019502 179133.000000 0 0 1
-14.861654 33.440432 -27.170882 45.578373 -1.152591 2.209475 0.035914 -0.003149 41145.500000 0 0 1
-15.169654 -34.142493 -27.580682 46.438370 1.152689 2.206719 0.025708 0.007693 668841.000000 0 0 1
-16.498454 -33.699293 -27.294982 46.398894 1.115521 2.199712 0.024657 0.011538 254902.000000 0 0 1
-16.886454 -32.804793 -28.275982 46.484814 1.095414 2.224694 0.022444 0.013744 294929.000000 0 0 1
-18.284154 -32.154093 -28.028982 46.409264 1.053754 2.219247 0.044048 0.010863 900940.000000 0 0 1
-19.332754 -33.129093 -28.084682 47.539894 1.042554 2.202797 0.028493 0.008598 106882.000000 0 0 1
-20.554554 -32.619093 -27.544582 47.383530 1.008510 2.191136 0.036449 0.006105 553819.000000 0 0 1
-21.710954 -33.626293 -27.695682 48.673852 0.997482 2.176092 0.017543 0.006784 -85235.800000 0 0 1
-21.526754 34.118432 -27.106882 48.603000 -1.007935 2.162433 0.043858 -0.002837 -514330.000000 0 0 1
-22.693554 33.333132 -27.221382 48.652839 -0.973066 2.164582 0.029060 -0.000785 241123.000000 0 0 1
-22.549154 31.797132 -27.144182 47.500827 -0.953951 2.179064 0.040530 -0.002782 -223337.000000 0 0 1
-22.030754 31.200532 -25.984382 46.195405 -0.955987 2.168189 0.041682 -0.012948 -221494.000000 0 0 1
-22.453254 29.853832 -25.792282 45.394291 -0.925949 2.175093 0.033177 -0.013363 -144825.000000 0 0 1
30.576149 9.974732 -27.238086 42.146287 0.315340 2.273489 -0.022860 0.005058 -168068.000000 0 0 1
30.193199 8.702232 -26.730276 41.253676 0.280613 2.275685 -0.027713 0.010081 -929288.000000 0 0 1
28.842159 8.713832 -26.441386 40.086755 0.293402 2.291088 -0.017405 0.008384 -870732.000000 0 0 1
28.326289 7.354732 -25.939106 39.106367 0.254034 2.296011 -0.022364 0.016186 -35448.400000 0 0 1
28.754719 7.008532 -24.601806 38.486390 0.239074 2.264298 -0.031645 0.011365 195412.000000 0 0 1
28.201619 5.766232 -24.203606 37.608447 0.201685 2.269948 -0.023937 0.010518 -223378.000000 0 0 1
28.289369 5.524532 -22.668606 36.669804 0.192859 2.237224 -0.014477 0.014249 -1187970.000000 0 0 1
29.550609 5.423632 -22.155606 37.329950 0.181517 2.206206 -0.022935 0.012605 -1012300.000000 0 0 1
29.390759 5.049632 -20.817106 36.368495 0.170149 2.180219 -0.009264 0.007653 576942.000000 0 0 1
30.684829 4.539032 -20.072506 36.946814 0.146859 2.145137 -0.014846 0.009408 355976.000000 0 0 1
31.178749 3.266132 -20.405006 37.405164 0.104374 2.147798 -0.010114 0.019770 -532850.000000 0 0 1
32.176059 3.039032 -19.487406 37.739813 0.094171 2.113394 0.001086 0.015236 -906181.000000 0 0 1
32.664939 1.554632 -19.482406 38.065460 0.047557 2.108090 0.014014 0.008698 -126829.000000 0 0 1
31.868249 0.660632 -18.750606 36.981170 0.020727 2.102533 0.035575 0.001013 -321221.000000 0 0 1
32.326599 -0.633068 -18.988206 37.496156 -0.019581 2.101806 0.042034 0.001713 166976.000000 0 0 1
31.267089 -1.742768 -18.692906 36.470438 -0.055680 2.108948 0.030322 -0.001023 179552.000000 0 0 1
31.100319 -2.054868 -17.335006 35.664475 -0.065976 2.078370 0.040481 -0.000296 494265.000000 0 0 1
29.872179 -1.547568 -16.778206 34.296505 -0.051760 2.081980 0.025737 -0.003669 538689.000000 0 0 1
29.543039 -2.047268 -15.352006 33.356657 -0.069187 2.049060 0.039311 -0.008489 -113292.000000 0 0 1
29.071879 -3.399868 -15.321806 33.037721 -0.116418 2.053039 0.031252 -0.023837 548563.000000 0 0 1
28.431489 -3.739368 -14.108006 31.958853 -0.130771 2.028002 0.033371 -0.016566 -279386.000000 0 0 1
28.414429 -5.263768 -13.877106 32.057154 -0.183173 2.018489 0.026888 -0.017843 -352492.000000 0 0 1
27.574009 -5.862868 -14.809206 31.843551 -0.209503 2.054500 0.024244 -0.020295 241030.000000 0 0 1
27.167769 -7.112068 -14.335106 31.530373 -0.256038 2.042769 0.016445 -0.018780 -456341.000000 0 0 1
26.502519 -8.066368 -15.335606 31.664343 -0.295454 2.076380 0.006351 -0.011201 259524.000000 0 0 1
25.198839 -7.668168 -15.731106 30.679798 -0.295403 2.109183 0.011227 -0.016890 36299.500000 0 0 1
24.515739 -8.623668 -16.486006 30.776249 -0.338242 2.136101 -0.002397 -0.005418 75984.700000 0 0 1
23.106339 -8.220468 -16.947606 29.811077 -0.341803 2.175478 0.008719 -0.007469 -166616.000000 0 0 1
23.079539 -7.084668 -17.795206 29.992115 -0.297837 2.205985 0.004295 -0.003675 1363090.000000 0 0 1
21.746139 -6.814368 -18.349606 29.258131 -0.303668 2.248701 0.004125 0.001332 1538120.000000 0 0 1
21.605439 -7.081268 -19.834006 30.171628 -0.316721 2.288123 0.001285 0.009844 -312031.000000 0 0 1
22.357439 -6.139768 -20.567606 30.993197 -0.268012 2.296440 -0.002064 0.000966 258065.000000 0 0 1
22.232539 -6.453668 -21.944706 31.898366 -0.282516 2.329467 0.010088 0.000923 6915.870000 0 0 1
22.985439 -5.505368 -22.940006 32.937567 -0.235087 2.341262 0.008908 -0.000473 -33929.800000 0 0 1
22.874239 -6.010068 -24.276806 33.892699 -0.256937 2.369259 0.010559 -0.002841 316058.000000 0 0 1
23.129839 -4.957968 -25.231766 34.586311 -0.211158 2.388431 0.011255 -0.017414 -188744.000000 0 0 1
23.187739 -5.472268 -26.654536 35.750262 -0.231758 2.412195 0.020200 -0.020241 556783.000000 0 0 1
21.889639 -5.948468 -27.041116 35.295361 -0.265340 2.443606 0.017841 -0.016874 601196.000000 0 0 1
21.919539 -6.189168 -28.425446 36.424963 -0.275194 2.466075 0.015050 -0.017639 342172.000000 0 0 1
20.663339 -6.867668 -29.038636 36.295741 -0.320874 2.498185 0.003128 -0.020431 239465.000000 0 0 1
20.538139 -8.258068 -28.738086 36.275176 -0.382302 2.485242 -0.000634 -0.007208 49984.500000 0 0 1
19.346839 -8.808468 -29.248106 36.157171 -0.427246 2.513102 0.007473 -0.012014 -132432.000000 0 0 1
19.301739 -10.354568 -29.021946 36.359972 -0.492387 2.495071 0.017415 0.002038 -18617.700000 0 0 1
18.422839 -10.697868 -27.945226 35.139451 -0.526096 2.490243 0.021243 0.002063 348434.000000 0 0 1
18.600439 -12.000268 -27.379936 35.208574 -0.572966 2.461715 0.023093 -0.002105 -452510.000000 0 0 1
18.494739 -13.227568 -28.316086 36.315625 -0.620859 2.465018 0.025980 0.000956 -437278.000000 0 0 1
17.255239 -13.271968 -28.958746 36.228406 -0.655649 2.496989 0.025342 0.000082 -154522.000000 0 0 1
17.213939 -14.479268 -29.774336 37.315948 -0.699326 2.494597 0.023894 -0.003751 -71147.600000 0 0 1
16.065139 -14.631868 -30.794586 37.689346 -0.738741 2.527095 0.013325 -0.007368 516582.000000 0 0 1
14.818939 -15.104568 -30.259386 36.923967 -0.794943 2.531344 0.007391 -0.003280 656100.000000 0 0 1
13.990739 -15.533768 -31.312876 37.650165 -0.837613 2.552922 0.005609 -0.008055 191658.000000 0 0 1
12.753539 -16.356168 -30.812266 37.142600 -0.908532 2.549128 0.004892 -0.007614 369642.000000 0 0 1
13.038739 -17.704568 -30.431756 37.544004 -0.936016 2.515908 0.002118 -0.015028 135938.000000 0 0 1
11.941439 -18.178868 -29.687036 36.802029 -0.989596 2.509289 -0.003826 -0.010404 -1758.540000 0 0 1
12.246439 -19.488768 -28.933356 36.971968 -1.009767 2.469588 -0.003737 -0.001306 -20308.800000 0 0 1
13.034539 -19.277568 -27.777416 36.236841 -0.976257 2.444251 0.010307 -0.001079 -208881.000000 0 0 1
13.160139 -20.457668 -27.005526 36.345617 -0.999155 2.408368 0.008859 0.007339 15018.500000 0 0 1
13.987139 -20.413568 -25.694316 35.672842 -0.970080 2.374997 0.002102 0.008104 27753.900000 0 0 1
15.384939 -20.387368 -25.922436 36.391123 -0.924338 2.363607 0.007674 0.005308 351094.000000 0 0 1
16.052639 -20.626368 -24.672506 35.942549 -0.909454 2.327382 0.005074 0.017332 -484330.000000 0 0 1
17.566039 -20.823568 -24.745306 36.803762 -0.870050 2.308186 0.003143 0.014293 -352097.000000 0 0 1
18.084739 -22.174868 -24.937806 37.956247 -0.886645 2.287648 0.008527 0.014389 553612.000000 0 0 1
17.727239 -23.144968 -23.928506 37.716282 -0.917183 2.258073 0.014267 0.007567 -511256.000000 0 0 1
18.550139 -24.436568 -24.142406 39.039842 -0.921488 2.237507 0.003266 0.003695 631006.000000 0 0 1
19.927239 -24.373568 -23.742106 39.431628 -0.885430 2.216935 0.013577 0.005260 672574.000000 0 0 1
20.297939 -25.716208 -23.492606 40.314169 -0.902611 2.192890 0.017643 -0.004657 -257411.000000 0 0 1
20.549639 -26.141218 -22.061506 39.904398 -0.904588 2.156588 0.027592 -0.003646 253095.000000 0 0 1
19.376939 -26.428368 -21.257306 39.061457 -0.938143 2.146233 0.016669 0.001361 689337.000000 0 0 1
19.635239 -26.840048 -19.917306 38.763770 -0.939198 2.110419 0.006463 -0.004073 -438598.000000 0 0 1
18.397039 -27.392108 -19.182606 38.167407 -0.979374 2.097390 0.008949 -0.008323 -275378.000000 0 0 1
18.076839 -28.673718 -19.775706 39.243251 -1.008300 2.098935 0.014888 -0.005652 954877.000000 0 0 1
16.851139 -29.293398 -19.343206 38.938717 -1.048771 2.090658 0.002810 0.005851 1083600.000000 0 0 1
15.461339 -28.717958 -19.706306 38.106595 -1.076914 2.114298 0.013108 -0.004739 -147398.000000 0 0 1
14.945239 -27.688258 -18.895606 36.702094 -1.075843 2.111614 0.020681 -0.004643 -6616.010000 0 0 1
13.747439 -27.230988 -19.505506 36.207507 -1.103280 2.139707 0.026791 0.001439 403275.000000 0 0 1
12.797039 -26.421238 -18.575306 34.740294 -1.119750 2.134938 0.022690 -0.013285 37.566900 0 0 1
11.929539 -27.086018 -17.658506 34.464316 -1.155928 2.108739 0.029027 -0.012861 -16030.100000 0 0 1
11.045139 -26.147458 -17.102206 33.138650 -1.171115 2.113065 0.031211 -0.023033 -35799.000000 0 0 1
9.589339 -26.206578 -17.626606 33.006626 -1.220016 2.134159 0.041110 -0.022223 -415057.000000 0 0 1
8.935739 -27.287438 -16.981106 33.358802 -1.254335 2.104870 0.043582 -0.013520 736989.000000 0 0 1
7.506239 -27.177758 -17.130406 32.991286 -1.301324 2.116758 0.036175 -0.002850 1273130.000000 0 0 1
6.758039 -27.890308 -18.273006 34.021216 -1.333070 2.137799 0.041049 -0.002637 -158010.000000 0 0 1
6.989839 -27.332708 -19.514306 34.303687 -1.320430 2.175926 0.041821 -0.007350 -103685.000000 0 0 1
6.649839 -28.259608 -20.505606 35.543012 -1.339688 2.185754 0.031091 -0.001417 -76755.700000 0 0 1
6.620839 -27.553988 -21.863706 35.792170 -1.334981 2.227932 0.033166 -0.014515 -95216.800000 0 0 1
5.638139 -26.549468 -21.840106 34.837524 -1.361542 2.248381 0.037543 -0.018164 -48411.900000 0 0 1
5.671539 -25.759198 -23.016906 35.006865 -1.354079 2.288288 0.030818 -0.021307 -699021.000000 0 0 1
4.391139 -25.033588 -23.366906 34.524990 -1.397153 2.314219 0.020748 -0.022454 -905998.000000 0 0 1
3.264239 -25.806868 -23.643906 35.152297 -1.444977 2.308531 0.008424 -0.011066 -1243870.000000 0 0 1
2.174139 -25.012138 -23.942606 34.692684 -1.484091 2.332471 0.008172 -0.019418 -523985.000000 0 0 1
1.055439 -26.018118 -24.328806 35.636319 -1.530253 2.322244 -0.006880 -0.015262 -846247.000000 0 0 1
1.388239 -26.806848 -25.456586 36.994217 -1.519056 2.329696 -0.025804 -0.001229 -270116.000000 0 0 1
0.482539 -27.741108 -25.927456 37.974134 -1.553404 2.322338 -0.016090 -0.005878 -779822.000000 0 0 1
1.244839 -28.650218 -26.871206 39.299444 -1.527374 2.323693 -0.026565 0.005198 -424281.000000 0 0 1
1.458039 -28.095878 -28.184966 39.823317 -1.518948 2.357105 -0.025993 0.004526 101060.000000 0 0 1
1.880539 -29.039318 -29.102666 41.155602 -1.506128 2.356238 -0.021130 0.001674 732639.000000 0 0 1
3.418239 -29.389278 -29.155936 41.538929 -1.455008 2.348850 -0.025987 0.008922 672420.000000 0 0 1
3.850439 -30.314998 -28.148796 41.547319 -1.444458 2.315171 -0.033515 0.002945 -181965.000000 0 0 1
4.974839 -30.961498 -28.713966 42.518881 -1.411480 2.312199 -0.009971 0.004565 334234.000000 0 0 1
5.592539 -32.127218 -27.825626 42.868404 -1.398449 2.277189 0.016780 -0.005297 146024.000000 0 0 1
4.678739 -33.188308 -27.648766 43.448920 -1.430744 2.260555 0.004054 -0.009598 173285.000000 0 0 1
5.293939 -34.343606 -27.042886 44.032110 -1.417854 2.232121 0.031076 -0.015083 511190.000000 0 0 1
4.184539 33.657558 -26.734666 43.186618 1.447104 2.238329 0.025311 -0.018118 270504.000000 0 0 1
3.575139 33.115136 -27.866506 43.427365 1.463252 2.267484 0.015274 -0.017526 -139405.000000 0 0 1
2.271839 32.687227 -27.536286 42.800270 1.501406 2.269685 -0.003854 -0.018392 -88001.500000 0 0 1
1.267639 32.881217 -28.690406 43.656852 1.532263 2.287867 0.007817 -0.014053 -676553.000000 0 0 1
1.330639 31.979377 -29.752236 43.699505 1.529211 2.319701 0.026799 -0.025593 319274.000000 0 0 1
0.352839 32.200027 -30.777576 44.544645 1.559839 2.333582 0.022025 -0.022600 344623.000000 0 0 1
0.192639 31.060667 -31.833976 44.477007 1.564594 2.368480 0.033054 -0.025460 -348775.000000 0 0 1
1.331939 30.885737 -32.632526 44.950913 1.527698 2.383224 0.033914 -0.022487 -113016.000000 0 0 1
1.076739 29.950587 -33.668736 45.075280 1.534861 2.414251 0.038519 -0.023910 400846.000000 0 0 1
2.324239 29.647147 34.295974 45.393494 1.492560 0.714339 0.048912 -0.014564 442990.000000 0 0 1
2.658439 30.660537 33.354692 45.383602 1.484307 0.745203 0.051265 -0.015234 -125628.000000 0 0 1
3.534639 30.167297 32.356158 44.378829 1.454160 0.753805 0.025620 -0.012909 -260183.000000 0 0 1
2.948739 29.259337 31.210368 42.882292 1.470356 0.755666 0.030510 -0.005053 -227374.000000 0 0 1
2.696139 27.913497 31.536958 42.202041 1.474506 0.726829 0.026021 -0.008718 -250416.000000 0 0 1
3.832739 27.130907 31.839278 42.006138 1.430457 0.710605 0.029288 0.003259 -171395.000000 0 0 1
3.439939 25.652677 32.085068 41.223108 1.437495 0.678799 0.026448 -0.003236 -400131.000000 0 0 1
2.899639 24.987057 30.981868 39.907858 1.455267 0.681966 0.037180 0.007262 49586.200000 0 0 1
2.881939 23.629257 31.274668 39.303336 1.449431 0.650592 0.029613 0.009656 -502612.000000 0 0 1
2.091839 22.683257 30.304528 37.911349 1.478837 0.644580 0.025525 0.020839 662951.000000 0 0 1
0.735539 22.481457 30.706108 38.063395 1.538090 0.632233 0.017724 0.013464 -156825.000000 0 0 1
0.054039 21.825057 29.700958 36.857604 1.568320 0.633721 0.020201 0.019169 534371.000000 0 0 1
-1.412161 21.507957 30.167378 37.076369 -1.505233 0.620384 0.014057 0.022399 380655.000000 0 0 1
-2.249561 22.586057 30.453438 37.981606 -1.471524 0.640504 0.023178 0.012400 -492043.000000 0 0 1
-3.539261 22.066757 30.652588 37.934803 -1.411762 0.629990 0.002623 0.010761 -245956.000000 0 0 1
-4.611761 23.148957 30.877598 38.866035 -1.374150 0.652675 -0.009546 -0.001881 -204299.000000 0 0 1
-4.744661 23.784257 32.142908 40.266230 -1.373894 0.646396 -0.007826 -0.000559 -22861.800000 0 0 1
-4.358761 25.135867 32.177168 41.063132 -1.399096 0.670353 0.008540 -0.004736 -100917.000000 0 0 1
-4.676361 25.780837 33.545921 42.565817 -1.391358 0.663088 0.006993 0.000581 -742928.000000 0 0 1
-6.035661 25.901777 33.782813 42.995462 -1.341861 0.666921 0.000280 -0.003956 -875797.000000 0 0 1
-6.168461 26.176127 -33.702186 43.117014 -1.339366 2.468095 0.006399 -0.004626 350451.000000 0 0 1
-7.601661 26.447327 -33.150986 43.084037 -1.290914 2.448775 0.009209 0.004658 161487.000000 0 0 1
-8.118961 27.668567 -33.569806 44.253802 -1.285372 2.431919 0.009059 0.001754 -99919.400000 0 0 1
-9.370361 28.053317 -33.033806 44.339876 -1.248428 2.411351 0.008286 0.002306 149862.000000 0 0 1
-9.474361 28.472487 -31.530246 43.527031 -1.249566 2.380935 0.011523 0.001580 -402200.000000 0 0 1
-8.937061 29.718567 -31.247656 44.039531 -1.278676 2.359637 0.003657 0.001252 98488.500000 0 0 1
-9.018061 29.872307 -29.822696 43.163334 -1.277609 2.333566 0.011025 -0.006891 -190052.000000 0 0 1
-8.474061 31.295737 -29.427186 43.785753 -1.306364 2.307800 0.012293 -0.012005 631928.000000 0 0 1
-7.045761 31.335037 -29.346306 43.505551 -1.349622 2.311140 0.012284 -0.012802 306546.000000 0 0 1
-6.620461 32.615297 -29.092106 44.203379 -1.370531 2.289145 0.017924 -0.007976 -1512700.000000 0 0 1
-5.140061 32.735017 -28.866416 43.946235 -1.415048 2.287440 0.016497 -0.011501 -1520600.000000 0 0 1
-4.777561 34.057396 -28.498586 44.664312 -1.431426 2.262775 0.014807 -0.018483 -142916.000000 0 0 1
-4.644361 -33.986990 -29.491676 45.237645 1.434986 2.280920 0.021751 -0.011153 -114049.000000 0 0 1
-3.507861 -34.251198 -30.517456 46.008312 1.468736 2.296020 0.032938 -0.017117 -245994.000000 0 0 1
-3.802861 33.857477 -31.560846 46.442195 -1.458945 2.317976 0.041190 -0.015582 777089.000000 0 0 1
-4.697661 34.266422 -32.660056 47.570316 -1.434553 2.327549 0.048544 -0.016608 792367.000000 0 0 1
-4.137761 -33.736268 -33.724206 47.880883 1.448756 2.352283 0.019657 -0.015149 -301180.000000 0 0 1
-3.693261 -32.525878 -33.193656 46.619649 1.457732 2.363153 0.016144 -0.015857 79134.900000 0 0 1
-3.010061 -31.842328 -34.196263 46.822844 1.476546 2.389605 0.009198 -0.013139 -163365.000000 0 0 1
31.923229 19.635232 12.474618 39.500012 0.551432 1.249483 0.009892 0.000284 -22679.400000 0 0 1
32.700089 18.643632 13.122418 39.863250 0.518174 1.235355 0.026599 -0.012183 28990.100000 0 0 1
32.202119 17.363532 12.908318 38.795533 0.494517 1.231603 0.032781 -0.001075 -611912.000000 0 0 1
33.136569 16.287632 13.491918 39.310953 0.456849 1.220464 0.047475 -0.012388 1368490.000000 0 0 1
34.342249 16.006132 12.686018 39.956494 0.436143 1.247709 0.049613 -0.013373 1141880.000000 0 0 1
35.028341 15.030732 13.421518 40.410948 0.405340 1.232240 0.056487 -0.011724 -332571.000000 0 0 1
-34.813613 14.299732 12.576318 39.681655 -0.389740 1.248305 0.059472 -0.017076 531217.000000 0 0 1
-33.936434 13.559232 13.479418 38.951624 -0.380117 1.217433 0.053929 -0.014596 300640.000000 0 0 1
-34.426799 12.282432 13.953718 39.125041 -0.342693 1.206123 0.046955 -0.014947 30214.500000 0 0 1
-33.643744 11.621832 15.147018 38.683338 -0.332605 1.168465 0.042439 -0.020336 227152.000000 0 0 1
-33.885374 12.444932 16.290218 39.603865 -0.351973 1.146885 0.051690 -0.018705 -150402.000000 0 0 1
-33.230304 12.016132 17.399118 39.387432 -0.346973 1.113256 0.044918 -0.008854 -567706.000000 0 0 1
-33.313494 12.917132 18.607818 40.285134 -0.369897 1.090657 0.048622 -0.012236 223748.000000 0 0 1
-34.556912 13.003432 19.303018 41.663844 -0.359901 1.089077 0.043672 -0.019040 313752.000000 0 0 1
-34.599183 13.942832 20.389918 42.511819 -0.383074 1.070564 0.061192 -0.015746 63505.900000 0 0 1
34.927880 13.826632 21.054218 43.062892 0.376934 1.059947 0.054854 -0.020023 95938.100000 0 0 1
34.713329 12.608632 21.754818 42.863328 0.348405 1.038470 0.050692 -0.009120 -22051.900000 0 0 1
33.501759 12.374232 22.434418 42.175735 0.353817 1.009922 0.058017 -0.009603 -46168.000000 0 0 1
33.600229 10.968832 23.093718 42.220972 0.315544 0.992053 0.040457 -0.011739 -463980.000000 0 0 1
34.669719 10.689232 23.960308 43.478103 0.299069 0.987127 0.035475 -0.003715 -95627.800000 0 0 1
34.633099 11.385832 25.185118 44.310032 0.317625 0.966256 0.038489 -0.000872 -1163290.000000 0 0 1
-35.010653 11.130632 26.009118 45.012343 -0.307816 0.954739 0.047880 -0.004314 966074.000000 0 0 1
-33.988734 12.155032 25.763528 44.347922 -0.343447 0.950912 0.039622 -0.006219 1127220.000000 0 0 1
-33.366414 12.332632 24.476368 43.179902 -0.354039 0.968124 0.041959 -0.008197 -572521.000000 0 0 1
-32.591454 13.661432 24.430218 42.961298 -0.396924 0.965925 0.046285 -0.007707 422965.000000 0 0 1
-31.559184 13.777432 25.421418 42.802432 -0.411620 0.934868 0.041507 -0.009018 474601.000000 0 0 1
-32.011054 14.396832 26.631788 44.059374 -0.422642 0.921718 0.030868 -0.007637 -650408.000000 0 0 1
-30.898204 14.936032 27.527018 43.994554 -0.450275 0.894779 0.026259 -0.000402 -560957.000000 0 0 1
-30.319624 16.125832 27.062618 43.723076 -0.488811 0.903385 0.024677 0.002685 -138392.000000 0 0 1
-29.789254 16.960232 28.100388 44.324721 -0.517571 0.884125 0.025589 0.003717 -27676.500000 0 0 1
-29.109184 18.252632 27.618388 44.082633 -0.560065 0.893724 0.022286 0.009523 -301334.000000 0 0 1
-29.995884 19.205432 27.074208 44.739406 -0.569504 0.920838 0.028026 -0.010323 -70918.500000 0 0 1
-29.463404 20.456632 26.993558 44.891181 -0.606895 0.925656 0.018702 -0.012821 -195704.000000 0 0 1
-30.396094 21.369932 26.142248 45.431417 -0.612769 0.957676 0.022310 -0.005726 646032.000000 0 0 1
-31.645814 21.658932 26.804478 46.787252 -0.600191 0.960755 0.016804 -0.007936 1004560.000000 0 0 1
-32.499964 22.383032 25.911938 47.208858 -0.603108 0.989774 0.015685 -0.007165 -142787.000000 0 0 1
-32.251434 23.940132 25.809308 47.743118 -0.638553 0.999662 0.009918 -0.007713 -620672.000000 0 0 1
-33.148874 24.577632 24.956998 48.226130 -0.637995 1.026870 0.015651 -0.009991 -155802.000000 0 0 1
-33.198054 25.986132 25.112088 49.071446 -0.664140 1.033581 0.021531 -0.009807 142086.000000 0 0 1
-34.203620 26.535832 24.094008 49.543508 -0.659822 1.062923 0.031137 -0.006435 301411.000000 0 0 1
-33.667904 26.322132 22.790718 48.433451 -0.663555 1.080874 0.024691 -0.008230 278262.000000 0 0 1
-34.656333 26.742732 21.879118 48.938031 -0.657217 1.107300 0.023541 -0.012887 70724.700000 0 0 1
-34.356162 26.401332 20.394318 47.888458 -0.655211 1.130872 0.027135 -0.023975 75196.000000 0 0 1
-34.504509 25.080732 19.970818 47.100295 -0.628541 1.132932 0.024040 -0.015360 13271.800000 0 0 1
-33.980864 25.138432 18.664518 46.206105 -0.636929 1.154976 0.032623 -0.017614 -56590.700000 0 0 1
-34.285696 23.959632 17.720618 45.426790 -0.609936 1.170065 0.034985 -0.010901 271286.000000 0 0 1
35.317468 23.985932 17.194718 46.025067 0.596597 1.187915 0.017581 -0.018891 -234814.000000 0 0 1
35.282990 23.122332 16.091118 45.149260 0.580120 1.206386 0.017006 -0.005349 176582.000000 0 0 1
33.960619 22.925332 15.286618 43.732999 0.593788 1.213712 0.014972 0.003743 407.623000 0 0 1
33.046919 22.169332 16.011118 42.894452 0.590889 1.188267 0.016139 -0.009085 -589708.000000 0 0 1
31.831919 22.077132 15.295618 41.648851 0.606386 1.194744 0.015170 -0.001993 -1044900.000000 0 0 1
30.864099 21.101032 15.931818 40.640731 0.599686 1.167974 -0.001683 -0.005439 -22630.200000 0 0 1
30.093759 21.522432 17.057818 40.740871 0.620841 1.138793 -0.000816 -0.001911 341723.000000 0 0 1
29.101299 22.488232 16.713418 40.397333 0.657907 1.144254 0.015851 0.003731 -135087.000000 0 0 1
28.411579 23.108432 17.962418 40.790513 0.682826 1.114799 0.023405 0.005557 253525.000000 0 0 1
29.336809 23.969232 18.562618 42.187003 0.685043 1.115189 -0.000112 0.006003 -3557.000000 0 0 1
28.813689 24.348432 19.873218 42.638241 0.701602 1.085931 0.007122 0.009270 -23734.400000 0 0 1
29.769969 25.074932 20.801718 44.132921 0.700001 1.079984 -0.002352 0.007336 -343586.000000 0 0 1
30.078899 26.367632 20.401918 44.902455 0.719744 1.099142 0.012106 -0.005469 -341459.000000 0 0 1
30.927059 26.972232 21.307118 46.238269 0.717199 1.091887 0.013786 -0.006375 -831689.000000 0 0 1
32.064149 27.780032 20.642718 47.180098 0.713932 1.117946 0.024988 -0.012234 -946564.000000 0 0 1
33.014529 28.270532 21.477718 48.481692 0.708144 1.111847 0.029328 -0.009249 -653596.000000 0 0 1
32.606389 29.208332 22.455718 49.199213 0.730482 1.096824 0.015748 -0.003916 -619830.000000 0 0 1
33.598349 29.340632 23.653218 50.489568 0.717853 1.083230 0.012479 -0.003506 1439210.000000 0 0 1
34.876927 29.969132 23.376018 51.584757 0.709858 1.100492 0.024467 -0.004174 848245.000000 0 0 1
-35.396222 30.282632 24.585908 52.672547 -0.707697 1.085163 0.035781 -0.002064 -198478.000000 0 0 1
-34.164314 31.189732 24.450868 52.324418 -0.739915 1.084569 0.059742 -0.009420 314649.000000 0 0 1
-33.007134 30.463032 24.049358 50.949375 -0.745336 1.079210 0.055619 -0.014762 24897.500000 0 0 1
-31.814024 31.143732 24.314198 50.727156 -0.774752 1.070924 0.067205 -0.010901 545069.000000 0 0 1
-30.458314 30.507432 23.868708 49.276034 -0.786204 1.065133 0.055399 -0.013344 371138.000000 0 0 1
-30.346964 30.242432 22.492118 48.388411 -0.783673 1.087360 0.031607 -0.008473 -45409.400000 0 0 1
-31.000324 29.090432 21.982718 47.859306 -0.753625 1.093567 0.041463 -0.003140 -403081.000000 0 0 1
-30.630784 27.727632 22.533118 47.061746 -0.735692 1.071510 0.026952 -0.001788 -1233360.000000 0 0 1
-29.252654 27.581232 22.416518 46.031971 -0.755998 1.062171 0.003229 -0.000537 -442072.000000 0 0 1
-28.679344 26.544932 23.258418 45.476282 -0.746768 1.033936 -0.000708 0.002633 254070.000000 0 0 1
-28.459604 27.014332 24.729928 46.382028 -0.759351 1.008442 0.010826 0.004350 -643217.000000 0 0 1
-29.632204 27.016232 25.485238 47.512542 -0.739252 1.004643 0.016047 0.001954 -163561.000000 0 0 1
-29.398644 27.794332 26.628258 48.434175 -0.757355 0.988693 0.025430 -0.009886 -123466.000000 0 0 1
-30.694984 27.915132 27.441668 49.744163 -0.738004 0.986448 0.035922 -0.015652 -303508.000000 0 0 1
-31.170204 26.748332 28.014338 49.717784 -0.709200 0.972220 0.019781 -0.012183 -313259.000000 0 0 1
-32.054904 27.060432 29.048198 51.025304 -0.701111 0.965154 0.026255 -0.005287 -529992.000000 0 0 1
-32.678314 25.844832 29.673088 51.149973 -0.669159 0.951921 0.015505 -0.000151 -615559.000000 0 0 1
-31.851034 25.115332 30.499308 50.749148 -0.667705 0.926068 0.013226 -0.010203 -962803.000000 0 0 1
-32.409594 23.917532 30.847688 50.734702 -0.635762 0.917233 0.000109 -0.017990 -331786.000000 0 0 1
-31.702234 23.016832 31.895078 50.518335 -0.627984 0.887495 0.004357 -0.018432 -565622.000000 0 0 1
-30.435794 22.546732 31.497408 49.262353 -0.637585 0.877103 0.021515 -0.014677 -213827.000000 0 0 1
-29.831704 21.639532 32.395618 49.068075 -0.627562 0.849688 0.017072 -0.013556 -103809.000000 0 0 1
-29.076604 22.222032 33.593713 49.677008 -0.652564 0.828146 0.017129 -0.020039 -119727.000000 0 0 1
-30.041414 22.675832 -34.305343 50.926775 -0.646578 2.309894 0.035337 -0.026519 619521.000000 0 0 1
-29.733194 22.490032 -32.918516 49.734224 -0.647581 2.294132 0.020039 -0.016241 -416257.000000 0 0 1
-28.533084 23.174932 -32.244306 48.896928 -0.682143 2.290862 0.046503 -0.020391 -270488.000000 0 0 1
-28.630744 24.527832 -31.920336 49.398804 -0.708368 2.273360 0.034069 -0.017806 -17904.400000 0 0 1
-27.732044 24.839332 -30.854856 48.353705 -0.730429 2.262834 0.067049 -0.009701 -14313.900000 0 0 1
-28.052994 26.150732 -30.041066 48.716495 -0.750318 2.235278 0.039533 -0.003666 -112108.000000 0 0 1
-28.092004 27.406432 -30.723076 49.841555 -0.773046 2.234978 0.054756 -0.017354 782635.000000 0 0 1
-29.178064 27.563632 -31.656896 51.120175 -0.756954 2.238602 0.006613 -0.004103 320014.000000 0 0 1
-28.931144 28.909532 -32.396176 52.175515 -0.785025 2.240696 0.028494 -0.002858 121130.000000 0 0 1
-29.124354 30.060332 -31.559636 52.420055 -0.801211 2.216866 0.016536 -0.013939 53051.800000 0 0 1
-28.141754 31.000232 -31.914336 52.645014 -0.833693 2.222092 0.034286 -0.024929 -174778.000000 0 0 1
-28.359794 32.360732 -31.274326 53.193781 -0.851194 2.199296 0.029088 -0.010565 -17470.500000 0 0 1
-28.035034 32.329732 -29.925126 52.217697 -0.856424 2.181061 0.030675 -0.011056 136635.000000 0 0 1
-28.358184 33.629332 -29.440496 52.932611 -0.870230 2.160588 0.026043 -0.017345 -540089.000000 0 0 1
-27.849704 33.838332 -27.969406 51.989676 -0.882174 2.138835 -0.001400 -0.013671 750952.000000 0 0 1
-26.491034 34.316732 -27.829816 51.516130 -0.913390 2.141490 0.033954 -0.003717 612850.000000 0 0 1
-26.177684 -33.411993 -28.153716 50.933919 0.906209 2.156457 0.027267 0.009971 -371693.000000 0 0 1
-26.527194 -32.370193 -27.085326 49.851141 0.884281 2.145188 0.021933 0.014871 756325.000000 0 0 1
-27.854924 -31.817593 -26.999476 50.171981 0.851708 2.139023 0.006545 -0.007021 718971.000000 0 0 1
-27.957914 -31.101693 -25.787226 49.131876 0.838579 2.123344 0.010410 -0.000969 -624515.000000 0 0 1
-29.364764 -30.594493 -25.539096 49.503109 0.805905 2.112865 -0.003666 -0.003736 -642872.000000 0 0 1
-29.804394 -29.719693 -26.552236 49.765282 0.783975 2.133588 -0.007169 -0.009333 -607558.000000 0 0 1
-31.186704 -29.865393 -26.632676 50.733141 0.763759 2.123460 -0.010348 -0.005265 -982447.000000 0 0 1
-31.807154 -29.096493 -27.779766 51.283685 0.740920 2.143240 -0.005262 -0.005427 -674335.000000 0 0 1
-33.199264 -29.202193 -27.656216 52.151946 0.721431 2.129752 -0.003204 -0.002901 -489018.000000 0 0 1
-33.851364 -28.551993 -28.737586 52.791855 0.700680 2.146418 0.004379 -0.007925 834961.000000 0 0 1
-35.407235 -28.746193 -28.729516 53.901772 0.681939 2.132936 0.006549 -0.009038 967288.000000 0 0 1
34.864009 -28.003593 -27.664036 52.583260 -0.676703 2.124804 -0.005918 0.003090 833429.000000 0 0 1
33.450009 -28.241893 -27.812206 51.865465 -0.701176 2.136769 -0.000483 -0.001323 973560.000000 0 0 1
32.500379 -27.583093 -26.788766 50.346198 -0.703739 2.131865 0.010913 0.008272 37608.000000 0 0 1
32.576239 -28.229193 -25.548486 50.108121 -0.714029 2.105827 0.003159 0.014515 287388.000000 0 0 1
31.690899 -27.642893 -24.604506 48.721908 -0.717279 2.100177 0.010340 0.015388 121873.000000 0 0 1
31.497859 -28.360693 -23.235106 48.335434 -0.733036 2.072255 0.005307 0.018744 27815.300000 0 0 1
30.762539 -29.578693 -23.378306 48.659820 -0.765781 2.071957 0.013163 0.022218 52853.600000 0 0 1
30.303649 -30.213293 -22.212906 48.213768 -0.783905 2.049599 0.012937 0.012105 -950567.000000 0 0 1
31.281359 -30.484893 -21.101506 48.509027 -0.772504 2.020836 0.009947 0.015026 -2435470.000000 0 0 1
32.218349 -31.437793 -21.478406 49.876636 -0.773137 2.015988 0.001873 0.015972 16641.500000 0 0 1
33.417529 -31.426893 -20.721706 50.336567 -0.754709 1.995075 -0.012141 0.010662 303976.000000 0 0 1
34.296279 -30.178393 -20.768806 50.182801 -0.721617 1.997490 -0.009836 0.005392 -1642000.000000 0 0 1
33.758389 -29.041493 -20.159606 48.881969 -0.710429 1.995899 -0.005117 0.011117 -345988.000000 0 0 1
34.342009 -27.850393 -20.637906 48.794888 -0.681395 2.007497 -0.010334 0.004250 19275.600000 0 0 1
33.473459 -26.596793 -20.258606 47.310390 -0.671417 2.013303 -0.008932 0.006027 499507.000000 0 0 1
32.372969 -26.311593 -21.091406 46.745657 -0.682476 2.038900 0.001811 0.011849 -336545.000000 0 0 1
31.419689 -25.500293 -20.495506 45.359978 -0.681776 2.039624 0.019006 0.014136 -1106060.000000 0 0 1
30.218469 -25.264293 -21.368106 44.811118 -0.696342 2.067862 0.023467 0.014804 -884730.000000 0 0 1
29.408579 -26.389293 -21.449806 44.959465 -0.731340 2.068139 0.034839 0.015017 -424076.000000 0 0 1
28.242209 -26.200793 -22.207506 44.466586 -0.747919 2.093726 0.029455 0.011698 112780.000000 0 0 1
27.635029 -27.540593 -22.731506 45.154185 -0.783687 2.098348 0.026274 0.012866 -68272.200000 0 0 1
26.988999 -28.374093 -21.794506 44.816244 -0.810411 2.078656 0.017998 0.015302 -109434.000000 0 0 1
26.579619 -29.551793 -22.422406 45.634953 -0.838299 2.084427 0.022896 0.014672 -251296.000000 0 0 1
25.806339 -30.364993 -21.339506 45.203700 -0.866377 2.062439 0.029994 0.019705 -637382.000000 0 0 1
26.496279 -30.791593 -20.227906 45.379987 -0.860236 2.032803 0.036004 0.016769 104499.000000 0 0 1
27.260109 -32.029393 -20.451406 46.768104 -0.865666 2.023384 0.036767 0.018362 1110610.000000 0 0 1
28.338409 -32.504793 -19.400606 47.286473 -0.853769 1.993555 0.023891 0.011969 523920.000000 0 0 1
27.866169 -33.062193 -18.180206 46.905777 -0.870473 1.968812 0.024609 0.013364 -111933.000000 0 0 1
27.402939 -32.035693 -17.263206 45.554637 -0.863183 1.959464 0.014715 0.007095 -72860.200000 0 0 1
26.655669 -32.619093 -16.080706 45.090121 -0.885667 1.935460 0.018019 0.012090 506312.000000 0 0 1
25.295339 -33.032193 -16.291106 44.680869 -0.917273 1.944011 0.024269 0.013953 673498.000000 0 0 1
24.800039 -33.721993 -15.137506 44.512457 -0.936688 1.917791 0.019356 0.013472 -535637.000000 0 0 1
23.301439 -33.984993 -15.240906 43.934292 -0.969774 1.925063 0.019652 0.021945 -650418.000000 0 0 1
22.557139 -32.825893 -15.100006 42.595469 -0.968730 1.933173 0.029139 0.018773 391833.000000 0 0 1
21.251439 -33.055993 -14.559406 41.908217 -0.999434 1.925606 0.015344 0.013707 328119.000000 0 0 1
-0.582054 -7.323668 -28.814256 29.736110 1.491487 2.891942 0.012904 -0.003822 180266.000000 0 0 1
-0.169154 -8.696368 -28.935626 30.214663 1.551348 2.849587 0.014060 0.002746 -103449.000000 0 0 1
-0.549054 -9.329368 -30.120716 31.537218 1.512012 2.840742 0.008993 0.000027 -409967.000000 0 0 1
-0.300654 -10.849968 -30.179176 32.071714 1.543093 2.796341 0.016807 0.000156 -799987.000000 0 0 1
1.050346 -11.118968 -30.065046 32.072444 -1.476611 2.785914 0.006122 -0.001000 -927499.000000 0 0 1
1.294946 -12.347268 -29.377356 31.892961 -1.466301 2.741753 0.013549 0.000189 -1180800.000000 0 0 1
2.722846 -12.544468 -28.972896 31.689214 -1.357056 2.724530 0.015321 0.002997 -1386440.000000 0 0 1
3.507946 -12.939768 -30.078796 32.931402 -1.306061 2.722300 0.020145 0.000414 315959.000000 0 0 1
4.898446 -13.152368 -29.830806 32.967507 -1.214273 2.701835 0.030728 -0.002375 755981.000000 0 0 1
5.368846 -14.419668 -29.139276 32.952219 -1.214370 2.655765 0.028711 -0.006349 -977658.000000 0 0 1
5.057446 -14.532568 -27.790216 31.765853 -1.235897 2.635913 0.027136 -0.007968 -168065.000000 0 0 1
5.912046 -15.404068 -27.116336 31.741665 -1.204335 2.594965 0.027529 -0.005587 -381533.000000 0 0 1
5.547646 -16.930568 -27.240086 32.549083 -1.254151 2.562378 0.032029 -0.015797 -195170.000000 0 0 1
5.732446 -17.488368 -28.552726 33.970018 -1.254046 2.569052 0.030885 -0.024735 100157.000000 0 0 1
5.269246 -18.815168 -28.654366 34.682102 -1.297738 2.543126 0.025340 -0.028717 -749233.000000 0 0 1
5.337246 -19.446468 -30.097446 36.228546 -1.302934 2.551279 0.018043 -0.022991 913282.000000 0 0 1
6.678046 -19.463768 -30.646786 36.914226 -1.240280 2.550292 0.005236 -0.024627 934248.000000 0 0 1
6.747046 -20.073168 -31.958206 38.337731 -1.246537 2.556384 0.001810 -0.026070 -58382.100000 0 0 1
8.159546 -20.102068 -32.583746 39.145521 -1.185209 2.554175 0.001796 -0.019372 161563.000000 0 0 1
8.541046 -18.817868 -33.089596 39.012600 -1.144721 2.583331 0.008008 -0.017791 -462014.000000 0 0 1
9.756446 -18.867468 -33.763036 39.888748 -1.093559 2.580041 0.008878 -0.021272 -965419.000000 0 0 1
9.934646 -17.443468 -34.428777 39.853638 -1.053080 2.613720 0.014291 -0.012012 -227104.000000 0 0 1
9.076146 -17.236768 33.332409 38.607410 -1.086129 0.528889 0.021102 -0.011998 -182044.000000 0 0 1
9.325346 -15.957968 32.749248 37.604948 -1.041949 0.513814 0.020169 -0.006757 -100081.000000 0 0 1
8.244546 -15.484268 31.762018 36.284444 -1.081530 0.504613 0.018480 -0.006086 -142749.000000 0 0 1
8.257246 -16.277868 30.613688 35.641956 -1.101351 0.537634 0.025043 -0.003081 495676.000000 0 0 1
7.525546 -15.570268 29.574288 34.259387 -1.120575 0.529131 0.026029 0.003506 124785.000000 0 0 1
7.569346 -16.466568 28.284928 33.592857 -1.139922 0.569831 0.029869 0.014382 -113754.000000 0 0 1
6.945946 -17.719168 28.493658 34.265196 -1.197204 0.588881 0.032094 0.010517 234899.000000 0 0 1
6.958646 -18.482268 27.306358 33.699469 -1.210708 0.626149 0.028610 0.011993 -132074.000000 0 0 1
6.625346 -19.942868 27.756968 34.814688 -1.250051 0.648025 0.022605 0.010229 -225856.000000 0 0 1
7.496446 -20.552668 28.697448 36.085349 -1.221048 0.651350 0.024954 0.013199 335331.000000 0 0 1
6.909046 -21.667068 29.330258 37.114159 -1.262116 0.659545 0.015468 0.013628 -135884.000000 0 0 1
7.433246 -21.867268 30.777878 38.479973 -1.243124 0.643765 0.014033 0.004290 -216062.000000 0 0 1
6.907246 -21.005068 31.790058 38.723775 -1.253098 0.607734 0.028392 -0.006939 114736.000000 0 0 1
7.083146 -19.622768 31.696708 37.946084 -1.224386 0.582102 0.022292 -0.007154 -454049.000000 0 0 1
6.533146 -18.736768 32.822954 38.354854 -1.235297 0.543758 0.016243 -0.008037 -356317.000000 0 0 1
5.145346 -18.881368 33.049714 38.409169 -1.304747 0.534616 0.021426 -0.009991 -219934.000000 0 0 1
4.689046 -17.975268 34.028136 38.768692 -1.315622 0.499709 0.018455 -0.013599 931765.000000 0 0 1
3.219146 -18.129568 -34.303925 38.933320 -1.395065 2.648967 0.019294 -0.014332 835651.000000 0 0 1
3.072846 -19.205468 -33.376926 38.630449 -1.412143 2.613968 0.018619 -0.009714 -546591.000000 0 0 1
1.955546 -19.029668 -32.574346 37.776189 -1.468393 2.610587 0.024231 -0.022925 -562653.000000 0 0 1
1.466846 -20.209168 -31.717836 37.637524 -1.498340 2.573109 0.011283 -0.016144 -804712.000000 0 0 1
0.466646 -21.054168 -32.269246 38.533102 -1.548636 2.563383 0.003656 -0.005189 154894.000000 0 0 1
-0.115954 -21.928268 -31.308616 38.224231 1.565509 2.530598 0.004866 -0.002598 719568.000000 0 0 1
-0.924254 -21.152668 -30.143646 36.836517 1.527130 2.529259 0.013775 -0.008543 426418.000000 0 0 1
-2.128354 -20.476968 -30.604696 36.884733 1.467229 2.549436 0.024932 -0.016960 718382.000000 0 0 1
-2.582554 -19.410868 -29.795106 35.653888 1.438526 2.560159 0.041195 -0.004252 144155.000000 0 0 1
-1.847654 -18.046168 -29.891656 34.965542 1.468767 2.596133 0.023025 0.000478 -105792.000000 0 0 1
-2.586754 -17.093268 -29.195746 33.930262 1.420604 2.606975 0.029646 -0.006447 -233588.000000 0 0 1
-2.366254 -15.822568 -29.823086 33.843305 1.422347 2.649214 0.042584 -0.006470 41986.000000 0 0 1
-3.398454 -14.764168 -29.430776 33.101370 1.344555 2.666194 0.040527 0.001867 -74590.600000 0 0 1
-3.201754 -14.350068 -28.111446 31.724266 1.351274 2.659697 0.033970 -0.009362 92473.100000 0 0 1
-4.169454 -13.410668 -27.669666 31.029676 1.269365 2.671919 0.030803 -0.008699 -26305.700000 0 0 1
-3.988954 -13.055868 -26.160036 29.507879 1.274274 2.660617 0.022305 -0.014310 -360580.000000 0 0 1
-4.514154 -14.092168 -25.341436 29.345445 1.260793 2.613076 0.022197 -0.009267 184414.000000 0 0 1
-4.586054 -13.772268 -23.949406 28.005023 1.249353 2.596699 0.014547 -0.010709 123727.000000 0 0 1
-5.524754 -12.619368 -23.411906 27.164107 1.158134 2.609740 0.019982 -0.017736 429470.000000 0 0 1
-6.897054 -12.936268 -23.630806 27.808836 1.080977 2.586324 0.018178 -0.015747 242065.000000 0 0 1
-7.717254 -11.867768 -23.153506 27.138253 0.994231 2.592826 0.011185 -0.016864 -1463520.000000 0 0 1
-9.145054 -11.974668 -23.517106 27.929894 0.918585 2.571785 0.034650 -0.017783 -1943210.000000 0 0 1
-9.745054 -13.007268 -22.793206 27.994380 0.927807 2.522157 0.033110 -0.012819 -113212.000000 0 0 1
-10.736254 -13.709468 -23.544606 29.284213 0.906429 2.504794 0.028505 -0.007197 671190.000000 0 0 1
-11.636254 -14.662268 -22.693906 29.417646 0.899958 2.451895 0.030573 -0.006660 249433.000000 0 0 1
-10.860754 -15.772268 -22.252106 29.357735 0.967764 2.430982 0.041007 -0.006138 -288588.000000 0 0 1
-11.528954 -16.980268 -22.083406 30.148351 0.974330 2.392771 0.026804 0.001134 -322686.000000 0 0 1
-11.798254 -17.858168 -23.398706 31.711392 0.986961 2.400697 0.018810 0.010947 263369.000000 0 0 1
-12.962554 -17.311568 -24.002806 32.308712 0.928077 2.408219 0.017227 0.016265 200268.000000 0 0 1
-13.525254 -18.223268 -24.963106 33.736874 0.932308 2.403771 0.014660 0.008669 361827.000000 0 0 1
-14.887254 -17.755368 -25.545506 34.488495 0.873037 2.404903 0.019086 0.002107 312953.000000 0 0 1
-15.991554 -17.969768 -24.675206 34.460240 0.843581 2.368921 0.012987 0.008799 636481.000000 0 0 1
-17.216854 -17.517768 -25.264276 35.236003 0.794061 2.370288 -0.006707 0.006647 716508.000000 0 0 1
-17.828054 -16.174568 -24.746606 34.523190 0.736808 2.370014 0.008685 0.011321 -52317.100000 0 0 1
-18.437154 -16.184068 -23.451706 33.938698 0.720412 2.333671 0.000593 0.012438 369243.000000 0 0 1
-19.178554 -14.987468 -23.299006 33.693988 0.663340 2.334344 0.007212 0.010360 -177633.000000 0 0 1
-19.922354 -14.784168 -22.008506 33.163928 0.638419 2.296454 0.001914 0.005532 -73383.400000 0 0 1
-18.998154 -14.554968 -20.941006 31.800985 0.653742 2.289623 0.015302 0.005540 542384.000000 0 0 1
-19.491254 -14.760468 -19.568606 31.316301 0.648148 2.245761 0.014372 -0.002043 -221683.000000 0 0 1
-20.194954 -13.544268 -18.944806 30.825136 0.590773 2.232662 0.020832 -0.005268 -46631.600000 0 0 1
-21.503954 -13.272968 -19.386206 31.849909 0.552995 2.225184 0.023595 -0.007632 87260.800000 0 0 1
-22.048654 -12.111368 -18.702206 31.346465 0.502307 2.210090 0.038713 -0.006622 561750.000000 0 0 1
-23.497654 -11.751168 -19.128306 32.498027 0.463727 2.200121 0.059854 -0.001870 255094.000000 0 0 1
-23.726354 -11.346168 -20.475006 33.330185 0.446064 2.232305 0.042264 -0.013878 -92965.300000 0 0 1
-25.030154 -10.854368 -20.705206 34.249547 0.409176 2.219984 0.034131 -0.009653 -170579.000000 0 0 1
-25.280254 -9.796368 -21.775906 34.774274 0.369694 2.247475 0.034838 0.004360 -151450.000000 0 0 1
-25.119504 -10.226268 -23.135406 35.648465 0.386616 2.277049 0.012369 0.007537 49160.900000 0 0 1
-25.981784 -9.584968 -24.018406 36.657994 0.353422 2.285247 0.009494 0.014028 -484058.000000 0 0 1
-25.837464 -10.237068 -25.433436 37.672692 0.377235 2.311918 -0.001702 0.013486 883325.000000 0 0 1
-24.796254 -9.712368 -26.307076 37.433228 0.373319 2.350085 -0.011681 0.010368 719773.000000 0 0 1
-23.696554 -10.605768 -26.383196 37.014619 0.420828 2.364247 -0.008039 0.014615 53134.200000 0 0 1
-22.877654 -10.448568 -27.661836 37.386318 0.428424 2.403706 0.002563 0.003720 124431.000000 0 0 1
-23.574454 -10.903668 -28.806066 38.787037 0.433217 2.407849 0.004957 0.012034 440864.000000 0 0 1
-22.648654 -10.872068 -29.878776 39.037221 0.447546 2.442447 0.002656 0.011698 530702.000000 0 0 1
-23.307554 -11.300068 -31.215956 40.563154 0.451433 2.448955 0.005378 0.008373 193005.000000 0 0 1
-24.242554 -10.420268 -31.783786 41.309714 0.405958 2.448701 -0.002876 0.008466 -49169.900000 0 0 1
-23.622754 -9.351868 -32.489416 41.243837 0.376953 2.477928 -0.003501 0.009877 -828133.000000 0 0 1
-24.533654 -8.195268 -32.979876 41.913420 0.322388 2.476496 -0.000297 0.009475 -511885.000000 0 0 1
-25.430684 -8.578068 -34.044486 43.351239 0.325327 2.474005 0.010423 0.000167 1019960.000000 0 0 1
-26.579684 -9.339068 -33.727906 43.946210 0.337887 2.445700 0.012066 -0.002743 -711613.000000 0 0 1
-27.608974 -8.718368 -32.777136 43.733351 0.305870 2.418068 -0.004696 0.017301 -266995.000000 0 0 1
-28.902584 -9.368868 -32.856916 44.751670 0.313466 2.395292 -0.006740 0.013303 966031.000000 0 0 1
-29.742304 -8.829868 -31.880576 44.485305 0.288591 2.369789 -0.005447 0.020550 -491182.000000 0 0 1
-31.145244 -9.423968 -31.725816 45.446284 0.293823 2.343530 0.001167 0.018486 -313865.000000 0 0 1
-31.275494 -10.813068 -31.567696 45.733996 0.332871 2.332625 0.006496 0.009387 292322.000000 0 0 1
-32.635014 -11.207968 -31.500956 46.722295 0.330813 2.310700 0.011108 0.005488 6265.210000 0 0 1
-32.829224 -12.697868 -31.651096 47.336938 0.369063 2.303167 0.018838 -0.002195 1570450.000000 0 0 1
-34.229261 -13.127268 -31.573696 48.382494 0.366211 2.281788 -0.001344 -0.007743 1556090.000000 0 0 1
-34.290971 -14.514068 -31.564766 48.814581 0.400398 2.273949 -0.002936 -0.002136 -233900.000000 0 0 1
35.386800 -15.107168 -30.908726 49.353839 -0.403492 2.247553 0.015523 -0.010258 -359351.000000 0 0 1
35.313236 -14.814968 -29.523766 48.354531 -0.397229 2.227575 0.014699 -0.013111 -265043.000000 0 0 1
34.797609 -15.932068 -28.926896 47.973635 -0.429362 2.218021 0.019812 -0.015752 -264915.000000 0 0 1
35.034318 -15.844068 -27.413256 47.222077 -0.424719 2.190161 0.025548 -0.016938 996570.000000 0 0 1
-34.498547 -15.741268 -27.008896 46.555533 0.428071 2.189701 0.022558 -0.020089 965246.000000 0 0 1
-34.389210 -15.986668 -25.616936 45.764819 0.435155 2.164882 0.036457 -0.021065 18128.000000 0 0 1
-33.014744 -15.610968 -25.047906 44.284006 0.441691 2.171981 0.047082 -0.016701 38107.000000 0 0 1
-31.871404 -16.297968 -25.514496 43.959068 0.472699 2.190034 0.044675 -0.018938 385361.000000 0 0 1
-30.712404 -15.972268 -24.756606 42.558837 0.479566 2.191617 0.054863 -0.007303 890405.000000 0 0 1
-29.548474 -17.023568 -24.976406 42.269788 0.522678 2.202946 0.045770 -0.013210 516490.000000 0 0 1
-29.593724 -18.212668 -24.199106 42.344852 0.551683 2.179101 0.044469 -0.022121 127458.000000 0 0 1
-30.379564 -19.266468 -24.726406 43.652146 0.565182 2.172978 0.033376 -0.028136 -168252.000000 0 0 1
-30.206624 -20.566168 -23.974406 43.705601 0.597757 2.151417 0.029612 -0.034278 -128018.000000 0 0 1
-28.977014 -21.208268 -24.259906 43.335909 0.631816 2.164954 0.029146 -0.029112 211668.000000 0 0 1
-28.942054 -22.459668 -23.558806 43.555671 0.659948 2.142291 0.025983 -0.030961 -772077.000000 0 0 1
-27.639904 -23.288268 -23.733406 43.238666 0.700159 2.151836 0.029680 -0.029146 215175.000000 0 0 1
-26.430544 -22.801568 -23.201806 41.914305 0.711820 2.157421 0.035420 -0.030829 -5327.730000 0 0 1
-26.382604 -22.390568 -21.848806 40.923705 0.703731 2.133992 0.044340 -0.031956 -988992.000000 0 0 1
-26.430194 -23.575268 -20.826206 41.086242 0.728368 2.102369 0.044028 -0.025037 -209278.000000 0 0 1
-26.220824 -23.255168 -19.478406 40.096667 0.725528 2.078059 0.042937 -0.027354 79794.800000 0 0 1
-26.156084 -24.402068 -18.657206 40.344677 0.750719 2.051547 0.036406 -0.005818 20836.500000 0 0 1
-26.120584 -23.913868 -17.192406 39.366697 0.741323 2.022751 0.031071 -0.003041 316221.000000 0 0 1
-27.369554 -23.340568 -16.842606 39.718358 0.706113 2.008710 0.035372 -0.004221 215586.000000 0 0 1
-27.128474 -22.216868 -16.042906 38.560577 0.686190 1.999887 0.028514 -0.000078 -455694.000000 0 0 1
-28.376374 -21.650468 -15.395706 38.871443 0.651754 1.978026 0.023934 0.012999 -273147.000000 0 0 1
-29.268554 -21.032468 -16.329506 39.568494 0.623102 1.996201 0.022264 0.011750 800982.000000 0 0 1
-30.413354 -20.533768 -15.596206 39.872915 0.593857 1.972675 0.032167 0.007232 629243.000000 0 0 1
-31.493304 -19.945668 -16.535206 40.780766 0.564567 1.988285 0.034684 -0.011682 -27201.800000 0 0 1
-32.202224 -20.883568 -17.331306 42.112715 0.575329 1.994946 0.019445 -0.012090 131532.000000 0 0 1
-32.974994 -20.154568 -18.329006 42.772763 0.548620 2.013651 0.019923 -0.014354 433201.000000 0 0 1
-34.100245 -20.985168 -19.007906 44.322731 0.551664 2.014018 0.003378 -0.013819 42787.600000 0 0 1
-35.184589 -21.338868 -18.176006 44.985217 0.545173 1.986730 0.004461 -0.001946 -118122.000000 0 0 1
-34.923665 -22.383868 -17.269706 44.932646 0.569978 1.965296 0.029720 -0.010961 -815549.000000 0 0 1
35.123332 -23.628968 -17.432706 45.780736 -0.592197 1.961444 0.013076 0.004529 232075.000000 0 0 1
33.739929 -23.415168 -17.140806 44.502361 -0.606681 1.966184 0.013404 -0.002137 327842.000000 0 0 1
33.148599 -24.684968 -17.068106 44.715741 -0.640085 1.962434 0.000586 -0.004916 -209721.000000 0 0 1
31.659109 -24.650368 -16.683706 43.454411 -0.661567 1.964851 -0.000710 -0.006405 -70667.500000 0 0 1
30.753719 -24.192768 -17.661606 42.930334 -0.666555 1.994788 -0.008648 0.001078 -119171.000000 0 0 1
29.456039 -24.174268 -17.116006 41.773330 -0.687230 1.992960 0.004598 -0.007612 -38154.100000 0 0 1
28.302819 -23.869968 -18.074706 41.200970 -0.700637 2.024944 0.019818 0.000737 -173413.000000 0 0 1
27.927959 -22.503968 -18.218106 40.228085 -0.678259 2.040778 0.033733 0.003065 205185.000000 0 0 1
26.781079 -22.471768 -19.052606 39.814675 -0.698127 2.069779 0.029670 -0.004817 -201502.000000 0 0 1
34.064559 30.199532 -18.338306 49.078502 0.725328 1.953740 -0.005019 0.003168 177078.000000 0 0 1
33.100269 29.999032 -19.360706 48.686822 0.736289 1.979759 0.002203 -0.006595 148975.000000 0 0 1
33.584029 29.253432 -20.498006 49.028752 0.716590 2.002128 -0.000100 -0.004687 -170483.000000 0 0 1
32.676549 29.342332 -21.722506 48.995883 0.731689 2.030133 0.003726 -0.012516 -1059560.000000 0 0 1
31.431769 28.725332 -21.659106 47.772562 0.740439 2.041350 0.003508 -0.008166 -342351.000000 0 0 1
30.822919 28.673432 -22.935006 47.939885 0.749286 2.069642 0.012004 -0.005977 329983.000000 0 0 1
29.885619 29.898132 -23.282306 48.260898 0.785607 2.074218 0.016159 0.003693 -259994.000000 0 0 1
30.548479 31.093132 -23.247306 49.400705 0.794234 2.060752 0.011789 -0.001327 -570420.000000 0 0 1
29.586979 32.087032 -23.289506 49.470881 0.825913 2.060962 0.022545 0.013663 -360748.000000 0 0 1
30.116469 33.501132 -22.830906 50.503246 0.838551 2.039879 0.021582 0.013308 -76511.800000 0 0 1
30.299529 33.615932 -21.423306 50.070454 0.837239 2.012924 0.028213 0.016266 73051.100000 0 0 1
31.628549 33.292732 -21.063206 50.521577 0.811026 2.000845 0.030797 0.013914 -190816.000000 0 0 1
31.799969 33.388532 -19.524706 50.072410 0.809762 1.971351 0.017353 0.012113 -285212.000000 0 0 1
31.722349 -34.303393 -19.057906 50.460222 -0.824470 1.958088 0.025014 0.010611 167784.000000 0 0 1
31.689739 -34.251693 -17.673706 49.897675 -0.824231 1.932854 0.012973 -0.002093 -454510.000000 0 0 1
31.667759 -32.769193 -17.147306 48.689805 -0.802490 1.930690 0.014090 0.008876 102591.000000 0 0 1
32.811809 -31.931693 -17.295706 48.942714 -0.771805 1.931985 0.015425 -0.001500 -651557.000000 0 0 1
33.775479 -32.249593 -16.359106 49.481710 -0.762292 1.907745 0.017750 0.000333 -1262330.000000 0 0 1
35.009250 -31.396593 -16.617606 49.875229 -0.731049 1.910474 0.013930 0.003062 -923814.000000 0 0 1
-35.132026 -31.887193 -17.639206 50.618118 0.737019 1.926741 0.001981 0.000929 -612447.000000 0 0 1
-33.956094 -31.088893 -17.767306 49.347875 0.741346 1.939109 0.003583 0.002534 -28876.400000 0 0 1
-32.980314 -31.771093 -18.703006 49.466210 0.766726 1.958536 0.000325 -0.002860 -1751990.000000 0 0 1
-32.342104 -32.885593 -18.130606 49.559992 0.793730 1.945322 -0.002134 -0.008265 413820.000000 0 0 1
-31.341114 -33.508393 -18.953906 49.642002 0.818806 1.962552 -0.000229 -0.011786 324109.000000 0 0 1
-30.130654 -32.674093 -19.358106 48.478747 0.825874 1.981562 0.005679 -0.010153 -1745500.000000 0 0 1
-30.391534 -31.806293 -20.461006 48.517403 0.808140 2.006143 0.000005 -0.008151 1114470.000000 0 0 1
-29.230944 -31.193393 -21.128406 47.685274 0.817865 2.029828 0.017373 -0.006866 1473990.000000 0 0 1
-28.200604 -32.064993 -21.948206 48.012098 0.849433 2.045572 0.011641 0.002757 701080.000000 0 0 1
-28.834484 -32.673393 -23.077206 49.310602 0.847731 2.057819 0.006477 0.010140 338648.000000 0 0 1
-28.021854 -33.767393 -23.480106 49.767223 0.878118 2.062126 0.006834 0.012505 -44525.400000 0 0 1
-28.675204 34.410532 -24.574806 51.090832 -0.876062 2.072594 -0.001971 0.007778 621630.000000 0 0 1
-29.850624 33.737632 -24.054006 51.067433 -0.846450 2.061248 -0.021895 0.004165 1278240.000000 0 0 1
-30.715004 32.974832 -24.924306 51.497301 -0.820865 2.076008 -0.023209 0.004429 856470.000000 0 0 1
-31.522314 33.749132 -25.991076 52.992416 -0.819501 2.083423 -0.014101 -0.005005 33406.400000 0 0 1
-30.724424 34.353432 -27.018136 53.424041 -0.841105 2.101024 -0.012028 -0.012191 -110219.000000 0 0 1
-31.545644 -33.676093 -27.552396 53.743292 0.818051 2.109084 -0.013284 -0.018529 230303.000000 0 0 1
-30.853814 -32.803593 -28.596106 53.345767 0.816018 2.136550 -0.008785 -0.012698 -185890.000000 0 0 1
-30.627174 -33.454793 -29.813646 54.277992 0.829495 2.152295 0.000049 -0.020399 -506624.000000 0 0 1
-31.795944 -33.666293 -30.547696 55.475788 0.813962 2.153938 -0.000932 -0.011940 -454291.000000 0 0 1
-31.693214 34.451732 -31.811916 56.598407 -0.827078 2.167675 0.013711 -0.009809 -143683.000000 0 0 1
-30.898154 -34.078193 -32.846876 56.523769 0.834301 2.190896 0.021342 -0.018416 39477.800000 0 0 1
-31.282904 34.426932 -34.101706 57.678073 -0.833209 2.203394 0.029802 -0.019927 235855.000000 0 0 1
-30.235704 -34.212693 33.664189 56.727276 0.847028 0.935471 0.034467 -0.024173 692723.000000 0 0 1
-28.945684 34.286032 33.874598 56.221642 -0.869655 0.924143 0.029611 -0.023014 -38350.700000 0 0 1
-28.630664 33.052032 33.222600 54.917146 -0.856955 0.921082 0.038201 -0.025528 444854.000000 0 0 1
-27.114154 32.669132 33.227264 53.911971 -0.878051 0.906730 0.043181 -0.027306 443899.000000 0 0 1
-26.626004 32.368132 -34.320551 54.171397 -0.882426 2.256936 0.043032 -0.029421 280625.000000 0 0 1
-25.290764 31.886632 -34.259175 53.198413 -0.900248 2.270497 0.051040 -0.026458 151216.000000 0 0 1
-25.196074 30.391332 34.377018 52.347441 -0.878589 0.854350 0.050684 -0.024665 -441117.000000 0 0 1
-25.481794 29.597732 -33.377166 51.374923 -0.859987 2.277957 0.051395 -0.028293 91653.200000 0 0 1
-25.158874 28.257332 -33.562246 50.575390 -0.843339 2.296428 0.041548 -0.026490 -284388.000000 0 0 1
-25.100754 27.231932 -32.441956 49.235216 -0.826099 2.290175 0.062901 -0.028606 842786.000000 0 0 1
-23.930754 27.294832 -31.570046 48.107761 -0.850976 2.286616 0.058772 -0.025935 1072370.000000 0 0 1
-23.977254 28.337332 -30.635236 48.129313 -0.868549 2.260773 0.049653 -0.022016 54730.300000 0 0 1
-22.690754 28.224032 -29.784626 46.889127 -0.893651 2.259082 0.066744 -0.015847 244019.000000 0 0 1
-21.511254 28.553732 -30.500136 46.992637 -0.925148 2.277119 0.061253 -0.010025 551725.000000 0 0 1
-20.317754 28.511532 -29.706256 45.914924 -0.951654 2.274420 0.029582 -0.012963 746172.000000 0 0 1
-19.910054 29.821632 -28.970156 46.097830 -0.982122 2.250355 0.026481 -0.005856 -637431.000000 0 0 1
-19.452454 30.835132 -29.793476 47.083485 -1.007999 2.255934 0.023193 0.004513 33578.300000 0 0 1
-19.278854 32.086132 -29.148856 47.443123 -1.029754 2.232416 0.024768 0.001547 -86145.300000 0 0 1
-18.928454 33.204532 -30.176026 48.697226 -1.052685 2.239114 0.013792 0.014295 -281956.000000 0 0 1
-17.608354 33.146832 -30.624116 48.441749 -1.082484 2.255165 0.008324 0.016989 -693576.000000 0 0 1
-17.346754 34.226832 -31.494856 49.641836 -1.101710 2.258082 0.003734 0.022310 -509689.000000 0 0 1
-15.865654 34.299732 -31.836026 49.413795 -1.137547 2.270870 -0.000870 0.026147 -1077950.000000 0 0 1
-15.055754 -34.262693 -30.764846 48.446709 1.156774 2.258837 0.010888 0.019738 -757636.000000 0 0 1
-13.693154 -34.367493 -30.990296 48.259978 1.191641 2.268100 0.014992 0.023167 -337579.000000 0 0 1
-13.053854 33.253432 -31.060566 47.338701 -1.196723 2.286482 0.013237 0.014968 -1026950.000000 0 0 1
-12.962554 32.678632 -29.725396 46.038244 -1.193166 2.272693 0.027646 0.001226 33704.600000 0 0 1
-12.608354 31.289332 -29.806056 45.015485 -1.187741 2.294452 0.020387 -0.001765 -408324.000000 0 0 1
-12.431554 30.711632 -28.346676 43.603691 -1.186173 2.278510 0.018037 -0.015895 -535913.000000 0 0 1
-11.267054 31.151332 -27.728116 43.199542 -1.223747 2.267719 0.021602 -0.009827 -576452.000000 0 0 1
-11.302954 30.597332 -26.462596 42.002648 -1.216936 2.252378 0.022366 -0.017712 86555.300000 0 0 1
-10.052754 30.937732 -25.623546 41.409748 -1.256623 2.237986 0.034199 -0.012363 -290867.000000 0 0 1
-8.905654 30.312032 -26.083436 40.969203 -1.285038 2.260955 0.029196 -0.007435 -1400190.000000 0 0 1
-7.768254 30.929532 -25.582766 40.883489 -1.324726 2.246887 0.032543 -0.014829 -625434.000000 0 0 1
-6.481754 30.200232 -25.979866 40.361127 -1.359378 2.270101 0.023202 -0.016959 -445977.000000 0 0 1
-6.245854 28.919732 -25.427266 39.011632 -1.358091 2.280734 0.020601 -0.026872 -432839.000000 0 0 1
-5.091954 28.273832 -25.867286 38.658169 -1.392612 2.303832 0.022397 -0.032591 -308987.000000 0 0 1
-4.739754 26.940932 -25.109786 37.131933 -1.396647 2.313432 0.027782 -0.035699 -1285.420000 0 0 1
-5.600154 25.819932 -25.327776 36.599547 -1.357212 2.335086 0.038081 -0.031434 301620.000000 0 0 1
-5.260054 24.721832 -24.455006 35.169368 -1.361153 2.339703 0.041947 -0.034852 -390345.000000 0 0 1
-6.261054 23.575432 -24.582606 34.631002 -1.311213 2.360073 0.035078 -0.035512 -221857.000000 0 0 1
-6.315754 22.992332 -25.839576 35.159917 -1.302719 2.396339 0.039472 -0.034359 173486.000000 0 0 1
-7.165954 21.836132 -25.805346 34.555512 -1.253700 2.414003 0.036588 -0.037322 -306405.000000 0 0 1
-6.953554 20.893832 -27.042246 34.873876 -1.249522 2.458192 0.023926 -0.032661 -141482.000000 0 0 1
-5.772754 20.132032 -27.169706 34.304757 -1.291544 2.484890 0.038582 -0.035790 -366142.000000 0 0 1
-5.527954 19.110132 -26.193206 32.891328 -1.289214 2.492043 0.042458 -0.030074 -378715.000000 0 0 1
-4.271254 18.280732 -26.489856 32.467541 -1.341266 2.525058 0.047915 -0.033801 -83934.700000 0 0 1
-4.383054 17.471832 -27.673436 33.019617 -1.325005 2.564570 0.037097 -0.030845 -525531.000000 0 0 1
-3.393254 16.490532 -27.705296 32.419674 -1.367859 2.595543 0.041095 -0.028412 -560002.000000 0 0 1
-2.878454 16.267032 -29.130586 33.488698 -1.395659 2.625721 0.036977 -0.025692 -55326.500000 0 0 1
-2.277354 17.424032 -29.692616 34.502676 -1.440831 2.607221 0.041021 -0.032527 167386.000000 0 0 1
-1.978754 17.281332 -31.068816 35.606618 -1.456790 2.631209 0.037475 -0.034631 -140029.000000 0 0 1
-1.315054 18.504432 -31.716546 36.743471 -1.499849 2.612348 0.038196 -0.012472 361395.000000 0 0 1
0.066746 18.628632 -31.349096 36.466371 1.567213 2.605422 0.049800 -0.020211 603628.000000 0 0 1
0.670646 19.789132 -31.912986 37.556600 1.536920 2.586270 0.054717 -0.004524 375743.000000 0 0 1
0.277446 21.165932 -31.231166 37.728761 1.557689 2.545938 0.053952 -0.004400 -157703.000000 0 0 1
0.999746 21.355532 -30.035166 36.866915 1.524016 2.522993 0.064682 -0.029409 -160859.000000 0 0 1
0.758946 22.599232 -29.423796 37.108773 1.537226 2.486361 0.069805 -0.025061 298314.000000 0 0 1
1.797246 22.837032 -28.280696 36.394476 1.492259 2.460778 0.065683 -0.024003 717915.000000 0 0 1
3.126146 22.882332 -28.796056 36.913233 1.435019 2.465624 0.051614 -0.022940 759718.000000 0 0 1
4.135746 23.173132 -27.792256 36.421257 1.394184 2.438858 0.039604 -0.020790 732997.000000 0 0 1
4.451046 24.672632 -27.550956 37.250581 1.392312 2.403289 0.043977 -0.014324 -501227.000000 0 0 1
5.228746 25.215332 -28.576966 38.468113 1.366330 2.408150 0.041162 -0.015272 53091.400000 0 0 1
5.538146 26.577532 -28.382116 39.275702 1.365359 2.378408 0.031370 -0.019570 -489117.000000 0 0 1
6.305346 27.198632 -29.522046 40.633412 1.342995 2.384078 0.034821 -0.015637 -309010.000000 0 0 1
7.683346 26.877232 -29.521086 40.656044 1.292354 2.383455 0.028797 -0.006817 497434.000000 0 0 1
8.485646 27.718332 -30.359276 41.976157 1.273718 2.379294 0.039224 -0.014657 781112.000000 0 0 1
9.993746 27.802432 -29.984176 42.093954 1.225723 2.363588 0.036211 -0.018327 774595.000000 0 0 1
10.767646 28.769432 -30.733216 43.452882 1.212662 2.356435 0.044063 -0.020655 788563.000000 0 0 1
11.992346 29.071632 -30.025106 43.479687 1.179552 2.333052 0.040803 -0.020404 860854.000000 0 0 1
12.964146 29.849132 -30.960076 44.917325 1.161056 2.331275 0.047493 -0.021351 -195125.000000 0 0 1
12.459446 31.154732 -31.249326 45.851669 1.190358 2.320649 0.041905 -0.021495 483577.000000 0 0 1
13.361746 31.856132 -32.089556 47.149645 1.173644 2.319363 0.061848 -0.026157 7434.010000 0 0 1
12.982246 33.336532 -32.182746 48.120601 1.199435 2.303381 0.060980 -0.030066 -334550.000000 0 0 1
11.901646 33.512932 -33.039746 48.542668 1.229553 2.319423 0.053414 -0.029793 -205737.000000 0 0 1
11.147346 -34.397393 -32.616866 48.696036 -1.257401 2.304743 0.057232 -0.023665 302294.000000 0 0 1
9.920946 -34.039493 -33.507926 48.784151 -1.287198 2.327957 0.039915 -0.021226 327931.000000 0 0 1
10.219546 -33.277793 34.224694 48.817828 -1.272840 0.793900 0.033418 -0.008534 -500982.000000 0 0 1
9.094746 -33.298393 33.424759 48.049058 -1.304171 0.801488 0.031921 -0.012632 -551685.000000 0 0 1
9.218946 -32.633193 32.014068 46.634910 -1.295469 0.814155 0.033815 -0.009333 -36805.900000 0 0 1
9.298746 -31.207593 32.079508 45.710780 -1.281208 0.792885 0.019927 -0.020948 77373.900000 0 0 1
9.497546 -30.660293 30.790958 44.478535 -1.270403 0.806173 0.034092 -0.010073 -502439.000000 0 0 1
9.205946 -29.124193 30.875008 43.430798 -1.264642 0.780017 0.012516 -0.025826 1039550.000000 0 0 1
7.846046 -28.643493 31.019788 42.944585 -1.303434 0.763643 -0.001059 -0.015495 814871.000000 0 0 1
7.366546 -28.811093 32.298058 43.903413 -1.320475 0.744153 -0.001890 0.001893 -884897.000000 0 0 1
5.840746 -28.632193 32.355628 43.598205 -1.369565 0.734550 -0.011758 -0.005473 62189.100000 0 0 1
4.968546 -29.680393 31.914478 43.865090 -1.404933 0.756038 0.001680 -0.015106 324248.000000 0 0 1
5.042146 -30.314493 30.626098 43.386053 -1.405977 0.787107 -0.000968 -0.016365 -651919.000000 0 0 1
4.588746 -29.419993 29.428178 41.864188 -1.416069 0.791268 -0.006789 -0.011290 -547443.000000 0 0 1
3.191446 -29.479493 29.263108 41.659997 -1.462956 0.791995 0.007732 -0.014106 89344.700000 0 0 1
2.754746 -28.932793 28.008408 40.362930 -1.475871 0.803886 0.009205 -0.013567 -188877.000000 0 0 1
1.264146 -29.264893 27.779258 40.369781 -1.527626 0.811901 0.013370 -0.017095 -22962.300000 0 0 1
1.074746 -30.564793 27.262758 40.970961 -1.535648 0.842745 0.015092 -0.024762 91963.100000 0 0 1
0.954446 -31.500793 28.292548 42.351850 -1.540506 0.839230 0.038270 -0.024141 -840062.000000 0 0 1
1.123146 -33.003793 27.805308 43.169978 -1.536779 0.870965 0.035777 -0.022141 -99377.900000 0 0 1
2.410646 -33.380093 27.373978 43.236287 -1.498703 0.885212 0.015777 -0.017438 59980.500000 0 0 1
2.846546 -32.851493 26.114968 42.063226 -1.484363 0.900969 0.014992 -0.021874 -341027.000000 0 0 1
4.344746 -33.123493 25.888748 42.264286 -1.440373 0.911521 0.015248 -0.014415 -14773.900000 0 0 1
4.790346 -32.731893 24.574738 41.209732 -1.425477 0.931871 0.011066 -0.022280 535346.000000 0 0 1
6.174646 -32.405493 24.645188 41.177998 -1.382510 0.929164 0.002829 -0.021668 199298.000000 0 0 1
7.055846 -32.504893 23.395818 40.665924 -1.357042 0.957804 0.005967 -0.012175 199101.000000 0 0 1
8.322746 -31.912393 23.562418 40.532166 -1.315679 0.950438 0.018091 -0.011073 426270.000000 0 0 1
9.222846 -31.873093 22.452218 40.063164 -1.289128 0.975903 0.008491 -0.014635 549139.000000 0 0 1
10.147846 -30.626593 22.514818 39.343157 -1.250840 0.961528 0.013356 -0.007322 48231.100000 0 0 1
11.289546 -30.787393 23.338318 40.249156 -1.219328 0.952256 0.019613 -0.012435 381631.000000 0 0 1
12.155346 -29.632893 23.299918 39.607411 -1.181530 0.941876 0.014454 0.000708 640344.000000 0 0 1
13.527046 -29.925793 23.966708 40.656330 -1.146264 0.940363 0.047720 -0.010406 41044.400000 0 0 1
13.521446 -29.997193 25.394448 41.563675 -1.147313 0.913502 0.031382 -0.012437 -94194.400000 0 0 1
14.615846 -29.355693 25.978178 41.835935 -1.108840 0.900838 0.045100 -0.008565 -440771.000000 0 0 1
-10.601854 -13.821568 26.073398 31.356931 0.916471 0.588988 0.020059 -0.007118 146798.000000 0 0 1
-9.208354 -13.809768 25.824798 30.698920 0.982701 0.571245 0.020877 -0.009943 -197970.000000 0 0 1
-8.496554 -14.107368 27.020828 31.643868 1.028704 0.547355 0.022516 -0.004455 -843809.000000 0 0 1
-7.017954 -14.148568 26.703568 31.024413 1.110339 0.534099 0.035115 -0.006274 -770636.000000 0 0 1
-6.527054 -15.253068 25.877088 30.738936 1.166457 0.570124 0.028441 -0.006342 269616.000000 0 0 1
-6.658854 -14.987068 24.503018 29.484749 1.152687 0.589821 0.026145 -0.007496 -167761.000000 0 0 1
-6.059854 -16.185168 23.632718 29.277754 1.212545 0.631420 0.021366 -0.005806 433052.000000 0 0 1
-6.896054 -17.335468 23.471118 29.982785 1.192188 0.671612 0.024065 -0.004797 -190066.000000 0 0 1
-6.948554 -18.212368 24.603868 31.389856 1.206314 0.670009 0.026324 -0.004178 -253978.000000 0 0 1
-7.434654 -19.625368 24.297898 32.106339 1.208673 0.712401 0.020885 -0.003868 -831975.000000 0 0 1
-8.763854 -19.643468 23.895168 32.150428 1.151152 0.732911 0.006856 -0.005884 -898949.000000 0 0 1
-9.153254 -20.990468 23.584018 32.872294 1.159589 0.770671 0.003956 -0.009305 -109911.000000 0 0 1
-10.671154 -21.183568 23.736518 33.556510 1.104156 0.785041 -0.001856 -0.004759 -264694.000000 0 0 1
-11.067554 -21.202868 25.072878 34.651141 1.089717 0.761821 -0.004650 -0.010955 -671156.000000 0 0 1
-12.393854 -20.801068 25.173078 34.928153 1.033450 0.765970 0.012364 -0.003366 -809335.000000 0 0 1
-12.908354 -20.521968 26.581518 35.977130 1.009325 0.739442 0.017659 -0.003956 -419517.000000 0 0 1
-13.005554 -21.648068 27.385628 37.252596 1.029809 0.744933 0.011186 -0.006162 124115.000000 0 0 1
-11.962254 -21.573168 28.330908 37.565109 1.064507 0.716390 0.006565 -0.006729 -47623.500000 0 0 1
-11.558354 -22.907768 28.973228 38.701542 1.103507 0.724799 -0.000043 -0.001527 281624.000000 0 0 1
-12.578154 -23.592068 29.722528 39.977798 1.080980 0.732543 0.009908 -0.006222 117645.000000 0 0 1
-12.160754 -24.866268 30.127548 40.913132 1.115950 0.743095 0.005859 -0.005523 -395415.000000 0 0 1
-13.020254 -25.557118 31.184138 42.369137 1.099612 0.743638 0.020676 -0.014635 -161087.000000 0 0 1
-12.924454 -24.995638 32.446088 42.948481 1.093587 0.714432 0.023837 -0.012097 -431961.000000 0 0 1
-13.929654 -25.474548 33.283187 44.167391 1.070408 0.717321 0.032914 -0.020418 -372867.000000 0 0 1
-13.973854 -24.859968 -34.125983 44.473243 1.058709 2.445475 0.030398 -0.020191 -11234.400000 0 0 1
-14.154054 -23.487368 -33.943926 43.636955 1.028450 2.462067 0.036043 -0.024775 269064.000000 0 0 1
-15.460054 -23.016868 -34.268263 44.080646 0.979328 2.461317 0.036599 -0.033180 -309733.000000 0 0 1
-15.650754 -21.475168 -34.173916 43.289554 0.941012 2.480670 0.030461 -0.034515 -162814.000000 0 0 1
-15.651054 -21.060768 -32.821126 42.020682 0.931701 2.467175 0.028939 -0.032200 194799.000000 0 0 1
-15.667354 -19.653268 -32.643986 41.198868 0.897772 2.485450 0.019488 -0.028054 -365430.000000 0 0 1
-15.596454 -19.373168 -31.119896 39.837381 0.892981 2.467339 0.028916 -0.015073 349530.000000 0 0 1
-16.821154 -19.752968 -30.489416 40.034178 0.865388 2.436551 0.019329 -0.015178 590833.000000 0 0 1
-16.824654 -19.341568 -29.100796 38.781717 0.854879 2.419424 0.007294 -0.007956 6665.430000 0 0 1
-16.072954 -20.301868 -28.129036 38.232818 0.901138 2.397540 0.014796 -0.006473 411964.000000 0 0 1
-14.669354 -20.323168 -28.333466 37.828645 0.945586 2.417340 0.014696 -0.003834 273921.000000 0 0 1
-13.983854 -21.414468 -27.732716 37.725736 0.992308 2.396631 0.011756 -0.004468 1243380.000000 0 0 1
-12.417454 -21.372568 -27.903536 37.277166 1.044465 2.416657 0.027208 -0.009930 986195.000000 0 0 1
-11.777854 -20.352868 -27.078576 35.863719 1.046199 2.426513 0.031003 -0.010639 608260.000000 0 0 1
-10.359454 -20.274768 -27.057356 35.362197 1.098425 2.442069 0.025378 -0.017389 596508.000000 0 0 1
-9.619254 -21.361468 -26.260696 35.191853 1.147686 2.413155 0.032450 -0.014552 -606948.000000 0 0 1
-9.663354 -22.670468 -26.793916 36.403907 1.167865 2.397965 0.035987 -0.023505 169093.000000 0 0 1
-9.255854 -23.574568 -25.758876 36.124102 1.196668 2.364658 0.039618 -0.022518 -16342.900000 0 0 1
-9.554154 -25.036578 -26.181106 37.464148 1.206245 2.344558 0.046233 -0.026438 -361150.000000 0 0 1
-8.571454 -25.557568 -27.050206 38.188647 1.247206 2.357927 0.039074 -0.025731 41699.900000 0 0 1
-8.726454 -26.912168 -27.519126 39.467937 1.257237 2.342354 0.040932 -0.017585 -221018.000000 0 0 1
-8.525054 -28.141038 -26.641266 39.678100 1.276644 2.306940 0.042439 -0.020079 -578489.000000 0 0 1
-9.591354 -28.362058 -25.758506 39.495582 1.244694 2.281262 0.039256 -0.016301 -83881.900000 0 0 1
-9.424954 -29.451968 -24.868306 39.682248 1.261083 2.248089 0.058458 -0.007263 20641.800000 0 0 1
-10.656654 -29.473108 -23.935206 39.435041 1.223850 2.223017 0.049795 -0.003536 157166.000000 0 0 1
-10.612954 -28.360438 -23.076606 38.072023 1.212712 2.221983 0.042931 -0.015661 66895.500000 0 0 1
-11.438154 -27.248178 -23.441806 37.720191 1.173358 2.241409 0.030876 -0.012772 -161501.000000 0 0 1
-11.325654 -26.045588 -22.451806 36.203959 1.160621 2.239727 0.028951 -0.023180 -20280.900000 0 0 1
-11.766154 -26.325008 -21.105406 35.733550 1.150476 2.202639 0.021254 -0.023293 137813.000000 0 0 1
-11.586854 -25.239728 -20.196506 34.339451 1.140424 2.199557 0.012198 -0.017180 -425147.000000 0 0 1
-12.043654 -25.514688 -18.754806 33.879074 1.129775 2.157454 0.016962 -0.016435 52501.700000 0 0 1
-13.415654 -25.871338 -18.677906 34.614593 1.092417 2.140754 0.029874 -0.016697 163770.000000 0 0 1
-13.787154 -26.218178 -17.359506 34.334107 1.086674 2.100880 0.043006 -0.017670 285719.000000 0 0 1
-15.313154 -26.468908 -17.216206 35.092642 1.046310 2.083567 0.045867 -0.022610 34906.800000 0 0 1
-16.111154 -25.300868 -17.369006 34.661009 1.003769 2.095678 0.048058 -0.013524 238072.000000 0 0 1
-17.507454 -25.478748 -17.212006 35.382632 0.968754 2.078822 0.050290 -0.013670 199624.000000 0 0 1
-18.334854 -26.096208 -18.338906 36.789868 0.958336 2.092637 0.049854 -0.014327 -1014120.000000 0 0 1
-18.222354 -27.527588 -18.532706 37.858730 0.986054 2.082339 0.042715 -0.011827 -28527.300000 0 0 1
-18.556054 -28.416648 -17.460506 38.166769 0.992315 2.045955 0.047526 -0.022438 -1767200.000000 0 0 1
-19.950754 -28.912578 -17.254206 39.136650 0.966788 2.027365 0.054407 -0.016786 -949593.000000 0 0 1
-20.524054 -29.682608 -18.335306 40.478111 0.965831 2.040888 0.047520 -0.015497 378861.000000 0 0 1
-21.608754 -30.469178 -17.846806 41.398279 0.953922 2.016508 0.041760 -0.008748 370826.000000 0 0 1
-22.265954 -31.414968 -18.854706 42.873918 0.954209 2.026140 0.029914 -0.009284 -52885.300000 0 0 1
-21.409154 -32.496578 -19.130306 43.362980 0.988251 2.027695 0.020598 -0.014546 87481.600000 0 0 1
-21.852854 -33.339658 -20.161706 44.671852 0.990591 2.039051 0.029606 -0.003278 -67.762600 0 0 1
-21.379154 34.235070 -19.960606 45.028147 -1.012570 2.030064 0.019666 0.000622 -141832.000000 0 0 1
-22.050254 33.559265 -18.961406 44.406901 -0.989478 2.011960 0.027496 -0.001945 -116905.000000 0 0 1
-21.451054 32.297807 -18.731906 43.060195 -0.984528 2.020853 0.021415 -0.004561 -400551.000000 0 0 1
-22.468254 31.312857 -18.210606 42.625622 -0.948395 2.012214 0.018412 -0.010710 -186284.000000 0 0 1
-22.908654 31.483007 -16.865806 42.431611 -0.941752 1.979568 0.010785 -0.008265 -56578.700000 0 0 1
-23.688154 30.400497 -16.376606 41.874958 -0.908866 1.972605 0.007493 -0.006397 82350.800000 0 0 1
-22.926654 29.014607 -16.129806 40.344139 -0.902074 1.982101 0.005210 -0.020712 214131.000000 0 0 1
-22.496054 28.413917 -17.350606 40.180426 -0.901121 2.017303 -0.012204 -0.014602 -116886.000000 0 0 1
-21.606354 27.378537 -17.050306 38.821795 -0.902693 2.025498 -0.013969 -0.008833 -235415.000000 0 0 1
-21.055454 26.728707 -18.288106 38.629144 -0.903572 2.063974 0.006274 -0.001966 -683581.000000 0 0 1
-20.609054 25.399917 -18.029206 37.348911 -0.889153 2.074558 0.021786 -0.009589 -168387.000000 0 0 1
-19.997554 24.686897 -19.081406 37.060020 -0.889959 2.111662 0.028089 0.001210 -133229.000000 0 0 1
-18.549854 25.147517 -19.366706 36.763623 -0.935252 2.125616 0.026373 -0.001291 -249067.000000 0 0 1
-17.542054 24.762847 -18.430206 35.504855 -0.954454 2.116582 0.039306 -0.008945 415582.000000 0 0 1
-16.419354 25.611927 -18.290306 35.497905 -1.000716 2.112096 0.053796 -0.011315 41878.800000 0 0 1
-16.552454 26.825697 -17.439506 36.024133 -1.017944 2.076138 0.061999 -0.021393 -323905.000000 0 0 1
-17.490454 27.713337 -18.042306 37.409489 -1.007808 2.074066 0.046213 -0.014124 210088.000000 0 0 1
-17.524754 28.893607 -17.262206 37.946558 -1.025591 2.043066 0.061218 -0.021750 227521.000000 0 0 1
-18.575254 29.947557 -17.786806 39.474887 -1.015613 2.038217 0.044193 -0.021319 35683.200000 0 0 1
-18.485154 30.531347 -19.128406 40.493950 -1.026380 2.062782 0.050730 -0.017425 28182.600000 0 0 1
-18.816854 29.620617 -20.172506 40.476968 -1.004852 2.092514 0.020291 -0.007135 -215411.000000 0 0 1
-18.836154 30.268337 -21.560706 41.663377 -1.014137 2.114720 0.023263 -0.012249 474306.000000 0 0 1
-19.801854 31.315027 -21.747206 42.961440 -1.006934 2.101573 0.022457 -0.009296 335714.000000 0 0 1
-20.098154 31.442237 -23.097806 43.886885 -1.002045 2.125043 0.021386 -0.009847 112154.000000 0 0 1
-20.489754 32.874017 -23.549506 45.333324 -1.013434 2.117032 0.026184 -0.008517 -291584.000000 0 0 1
-19.411654 33.756153 -23.480606 45.471189 -1.048921 2.113420 0.011834 -0.000628 -246936.000000 0 0 1
-19.621754 -34.244889 -24.429006 46.416613 1.050479 2.125038 0.011634 -0.001824 -375302.000000 0 0 1
-18.521254 -33.177988 -24.398706 45.156534 1.061649 2.141607 0.028295 0.007906 -297646.000000 0 0 1
-18.488154 -32.305868 -23.290106 43.907972 1.051005 2.129904 0.014661 0.000309 152216.000000 0 0 1
-18.158354 -32.972368 -22.069806 43.634610 1.067405 2.101090 0.017657 -0.011889 -557235.000000 0 0 1
-17.954754 -32.120808 -20.864106 42.301660 1.061088 2.086586 0.042596 -0.016140 194303.000000 0 0 1
-16.843354 -31.214018 -20.921606 41.179207 1.075966 2.103730 0.032032 -0.012991 376743.000000 0 0 1
-16.781154 -30.349838 -19.792006 39.930481 1.065711 2.089393 0.041621 -0.016161 -171726.000000 0 0 1
-15.617054 -29.342768 -19.778706 38.679292 1.081700 2.107553 0.039310 -0.012633 -271081.000000 0 0 1
-14.337354 -29.888898 -19.872206 38.649845 1.123530 2.110824 0.051334 -0.018691 -343526.000000 0 0 1
-13.346354 -28.859428 -19.911906 37.516340 1.137628 2.130285 0.032976 -0.020613 -358087.000000 0 0 1
-11.955554 -29.397818 -20.320006 37.683811 1.184543 2.140311 0.039085 -0.014664 202482.000000 0 0 1
-11.244354 -30.020248 -19.237906 37.386465 1.212412 2.111301 0.036054 -0.005174 294926.000000 0 0 1
-10.674954 -29.160048 -18.265006 36.026011 1.219867 2.102491 0.022702 -0.012431 -119251.000000 0 0 1
-9.656154 -29.875718 -17.314406 35.855104 1.258184 2.074759 0.017715 -0.000265 176307.000000 0 0 1
-10.333054 -30.547128 -16.256106 36.113156 1.244613 2.037722 0.026914 -0.013356 267517.000000 0 0 1
-10.920354 -31.784028 -16.627806 37.496166 1.239852 2.030244 0.029135 -0.013223 -399226.000000 0 0 1
-11.953854 -32.261988 -15.612106 37.781852 1.215955 1.996780 0.054497 -0.026358 -710517.000000 0 0 1
-11.543954 -32.746938 -14.330406 37.563085 1.231878 1.962217 0.057039 -0.020263 -303798.000000 0 0 1
-12.552154 -33.487858 -13.637606 38.275024 1.212177 1.935107 0.065847 -0.015920 -196294.000000 0 0 1
-12.080154 -33.924158 -12.244206 38.035499 1.228704 1.898548 0.052295 -0.011840 -248890.000000 0 0 1
-12.137254 -32.929788 -11.252806 36.855251 1.217666 1.881075 0.027145 -0.009879 75581.200000 0 0 1
-11.798854 -33.442868 -9.979806 36.840669 1.231624 1.845115 0.029366 -0.012292 -910957.000000 0 0 1
-10.522154 -32.942288 -9.336106 35.820007 1.261627 1.834481 0.017777 -0.009468 -646986.000000 0 0 1
-9.429854 -33.592618 -9.958306 36.284349 1.297127 1.848816 0.013370 -0.008215 98622.600000 0 0 1
-8.209054 -33.059608 -9.412606 35.340110 1.327408 1.840394 0.000924 -0.012647 338144.000000 0 0 1
-6.954554 -33.559818 -10.119606 35.735607 1.366460 1.857904 0.004045 -0.017283 -190686.000000 0 0 1
-6.520154 34.172822 -9.717606 36.120992 -1.382263 1.843181 0.007972 -0.006342 58044.900000 0 0 1
-5.240154 33.922575 -10.275006 35.829821 -1.417534 1.861652 0.015359 -0.002875 373119.000000 0 0 1
-4.405254 32.822877 -9.562406 34.470091 -1.437381 1.851895 0.014210 -0.006426 -26717.100000 0 0 1
-4.021654 33.327136 -8.353906 34.592766 -1.450705 1.814700 0.023986 -0.010650 -216465.000000 0 0 1
-3.249554 32.394157 -7.601406 33.432356 -1.470818 1.800169 0.011372 -0.009274 142346.000000 0 0 1
-3.037554 32.933397 -6.181106 33.645824 -1.478823 1.755557 0.012615 -0.007290 107540.000000 0 0 1
-2.141854 34.078700 -6.242606 34.711892 -1.508029 1.751621 0.004008 -0.000298 350274.000000 0 0 1
-1.787254 -34.451561 -4.971606 34.854285 1.518965 1.713924 0.005211 -0.000472 248343.000000 0 0 1
-0.863854 33.691591 -4.053106 33.945504 -1.545162 1.690482 0.013622 -0.002418 868436.000000 0 0 1
0.450246 33.634131 -4.671306 33.959956 1.557411 1.708787 0.012234 -0.002397 494364.000000 0 0 1
1.307746 32.877247 -3.881006 33.131342 1.531041 1.688206 0.008660 -0.006944 520534.000000 0 0 1
2.834946 32.939597 -4.221406 33.329780 1.484943 1.697793 0.019164 -0.004262 636664.000000 0 0 1
3.452746 34.188056 -3.891406 34.581609 1.470145 1.683563 0.021175 -0.001924 -913056.000000 0 0 1
4.789846 33.982428 -4.255706 34.581195 1.430768 1.694173 0.040421 -0.003254 -373451.000000 0 0 1
5.604146 -33.834508 -3.791906 34.504477 -1.406653 1.680915 0.043873 0.001211 59136.600000 0 0 1
5.184846 -32.663138 -4.519206 33.379431 -1.413373 1.706602 0.034541 0.006629 -401310.000000 0 0 1
5.805946 -31.575258 -4.011006 32.354198 -1.388951 1.695088 0.036707 -0.002647 -395575.000000 0 0 1
5.560746 -30.254538 -4.771406 31.129171 -1.389026 1.724681 0.026597 0.000335 -202207.000000 0 0 1
6.261246 -30.062398 -5.969506 31.282359 -1.365457 1.762800 0.033832 0.001573 -246558.000000 0 0 1
6.054846 -28.788888 -6.519506 30.132461 -1.363499 1.788883 0.030415 -0.001281 37341.700000 0 0 1
6.688646 -27.601258 -5.758706 28.978097 -1.333048 1.770854 0.032797 -0.005836 343972.000000 0 0 1
5.908646 -27.213338 -4.621506 28.228287 -1.356992 1.735256 0.033617 -0.016225 -62807.600000 0 0 1
6.389946 -25.950118 -4.118706 27.040780 -1.329360 1.723706 0.028330 -0.013048 -35899.700000 0 0 1
5.447546 -25.248378 -3.104306 26.015247 -1.358296 1.690408 0.028439 -0.012163 -51783.400000 0 0 1
4.377046 -24.573668 -3.694906 25.232440 -1.394526 1.717760 0.025998 -0.013309 -176612.000000 0 0 1
3.462746 -23.973668 -2.752506 24.378344 -1.427349 1.683945 0.018470 -0.010152 161863.000000 0 1 0
2.401546 -23.171968 -3.479906 23.554559 -1.467525 1.719077 0.030766 -0.015195 -477254.000000 0 1 0
1.484546 -24.021668 -4.110506 24.415992 -1.509075 1.739955 0.027428 -0.015378 -768244.000000 0 1 0
0.449346 -23.245168 -4.660006 23.711925 -1.551468 1.768610 0.017714 -0.014930 -83118.700000 0 1 0
-15.214654 23.548932 18.108018 33.375713 -0.997177 0.997326 -0.004522 -0.003290 -261512.000000 0 0 1
-15.218054 22.885732 19.319818 33.594661 -0.983977 0.958087 0.009875 0.005009 168770.000000 0 0 1
-14.783054 23.817132 20.235018 34.572394 -1.015302 0.945554 0.011584 -0.000239 -984852.000000 0 0 1
-14.988954 23.337432 21.689418 35.209875 -0.999874 0.907137 0.025247 0.000061 281345.000000 0 0 1
-14.064354 22.334332 22.229718 34.507808 -1.008811 0.870827 0.011173 0.001370 1458830.000000 0 0 1
-12.684254 22.699232 22.358118 34.293307 -1.061225 0.860620 0.011961 -0.000813 528109.000000 0 0 1
-12.303054 23.892732 23.326118 35.585609 -1.095277 0.855961 0.021142 0.008526 -610039.000000 0 0 1
-12.347854 23.491532 24.656648 36.225293 -1.086856 0.822150 0.016215 0.009364 52148.400000 0 0 1
-12.128354 24.498432 25.600898 37.452318 -1.111103 0.818168 0.027123 0.004902 -170717.000000 0 0 1
-11.565054 23.947432 26.938778 37.854032 -1.120894 0.778954 0.025168 0.002519 471433.000000 0 0 1
-10.213954 23.514732 26.830258 37.109705 -1.161021 0.762664 0.011141 0.000339 12540.500000 0 0 1
-9.819154 22.853032 27.994728 37.448387 -1.164981 0.726423 0.006580 0.001862 -447380.000000 0 0 1
-8.330954 22.370332 27.985158 36.783225 -1.214298 0.706231 -0.000123 -0.005700 902468.000000 0 0 1
-7.406854 23.352132 28.450258 37.544650 -1.263653 0.710906 0.002689 -0.003479 61368.900000 0 0 1
-7.232754 24.455732 27.630748 37.601247 -1.283244 0.745372 0.002876 -0.005004 -1269750.000000 0 0 1
-6.105154 25.409032 28.070008 38.351234 -1.334991 0.749662 0.005560 -0.007883 -765247.000000 0 0 1
-4.846054 24.906232 27.774138 37.619242 -1.378625 0.740256 0.013736 -0.005760 -691269.000000 0 0 1
-3.845754 25.753632 28.339738 38.486103 -1.422563 0.743117 0.018476 -0.003652 -299517.000000 0 0 1
-2.421054 25.261832 28.325848 38.031242 -1.475250 0.730554 0.020196 -0.002861 -548213.000000 0 0 1
-1.761154 25.240832 27.052488 37.041036 -1.501135 0.751979 0.016524 -0.001078 -346241.000000 0 0 1
-0.507354 24.619332 27.158778 36.660171 -1.550191 0.736498 0.029738 0.006815 -161624.000000 0 0 1
0.055046 24.509332 25.755268 35.553400 1.568550 0.760617 0.025964 0.005500 -305828.000000 0 0 1
-0.511454 23.445532 25.051758 34.315378 -1.548985 0.752409 0.024245 0.011566 -149824.000000 0 0 1
-0.010254 23.345632 23.753718 33.305522 -1.570357 0.776734 0.019016 0.014736 -195038.000000 0 0 1
-0.394454 22.086832 23.025918 31.908880 -1.552939 0.764664 0.016165 0.014270 -5724.290000 0 0 1
0.314946 20.937532 23.413818 31.411564 1.555755 0.729679 0.021768 0.014396 126724.000000 0 0 1
-0.057154 19.833732 22.475118 29.975175 -1.567915 0.723050 0.015248 0.010874 50015.300000 0 0 1
0.810646 18.582532 22.699418 29.346741 1.527200 0.686467 0.012725 0.020325 -199236.000000 0 0 1
2.110246 18.816032 22.220718 29.193433 1.459112 0.705705 0.013028 0.015661 -702396.000000 0 0 1
2.961046 17.729332 22.382218 28.706458 1.405310 0.676621 0.004743 0.009757 63786.600000 0 0 1
4.386446 18.021832 21.847518 28.659054 1.332043 0.703898 0.014723 0.006670 -104552.000000 0 0 1
5.269646 18.639232 22.712818 29.850666 1.295269 0.706126 0.023397 0.008951 -125941.000000 0 0 1
6.473346 19.008632 22.029718 29.808401 1.242567 0.739146 0.028159 0.002850 1171510.000000 0 0 1
7.632446 19.579732 22.954318 31.121068 1.199102 0.741315 0.033419 -0.000742 414310.000000 0 0 1
7.440746 20.837832 23.562618 32.323009 1.227829 0.753975 0.021050 0.008045 62980.300000 0 0 1
7.057146 21.876832 22.646218 32.268410 1.258750 0.792864 0.028534 0.006271 -299152.000000 0 0 1
6.217446 22.912432 23.424918 33.352106 1.305820 0.792100 0.014785 0.011093 138716.000000 0 0 1
5.690346 23.977232 22.624718 33.453932 1.337784 0.828075 0.012081 0.000041 1955590.000000 0 0 1
4.340046 24.388632 23.038618 33.829267 1.394686 0.821633 0.004914 0.005012 1636240.000000 0 0 1
3.931846 25.774432 22.565218 34.481442 1.419415 0.857386 0.015231 0.002243 5987.910000 0 0 1
4.039046 26.086832 21.177018 33.842323 1.417185 0.894697 0.017926 -0.001173 674860.000000 0 0 1
2.934846 25.519532 20.435418 32.824780 1.456295 0.898786 0.025136 0.001531 268530.000000 0 0 1
2.600246 26.098832 19.089818 32.439659 1.471493 0.941629 0.015596 -0.005331 -201319.000000 0 0 1
1.696246 27.235932 19.239618 33.389162 1.508597 0.956696 0.010066 -0.007604 678122.000000 0 0 1
1.304546 27.607132 17.957918 32.959709 1.523577 0.994593 0.010229 -0.000662 193350.000000 0 0 1
0.177446 28.695732 17.918518 33.831196 1.564613 1.012615 -0.009535 0.013654 69633.800000 0 0 1
0.587446 29.829132 18.642018 35.180208 1.551105 1.012313 0.002654 0.006781 705695.000000 0 0 1
-0.402954 30.870632 18.818118 36.156325 -1.557744 1.023400 -0.005679 0.005694 397454.000000 0 0 1
0.226246 32.149632 19.386618 37.543188 1.563759 1.028176 -0.001616 0.017385 98221.300000 0 0 1
0.677246 31.993132 20.712818 38.118762 1.549631 0.996343 0.001194 0.014634 -269929.000000 0 0 1
1.382446 33.118632 21.112718 39.300150 1.529078 1.003662 0.006001 0.008524 -441672.000000 0 0 1
1.739946 33.178632 22.609118 40.187327 1.518403 0.973277 0.010567 -0.007964 281723.000000 0 0 1
0.658946 33.049532 23.541918 40.582357 1.550861 0.951942 0.007257 0.002075 618023.000000 0 0 1
1.174646 33.043132 24.837338 41.353618 1.535262 0.926534 0.011871 -0.008122 784703.000000 0 0 1
-0.025054 32.625632 25.787978 41.586684 -1.570028 0.901924 0.021718 -0.009107 75082.900000 0 0 1
-1.042854 33.577732 25.860698 42.394898 -1.539748 0.914741 0.023311 -0.009401 505979.000000 0 0 1
-2.072054 33.256632 26.848588 42.791865 -1.508572 0.892557 0.029841 -0.013756 667634.000000 0 0 1
-1.770454 33.515732 28.330218 43.920839 -1.518021 0.869735 0.046644 -0.023461 -704901.000000 0 0 1
-0.785554 32.629732 28.790998 43.522846 -1.546726 0.847960 0.052466 -0.025702 163889.000000 0 0 1
-0.249554 33.051832 30.033978 44.660113 -1.563246 0.833213 0.056435 -0.030808 227666.000000 0 0 1
1.131246 32.461432 30.446868 44.520064 1.535961 0.817714 0.045052 -0.025688 1470430.000000 0 0 1
2.376046 32.776932 29.770498 44.342479 1.498431 0.834732 0.024795 -0.028981 1303880.000000 0 0 1
2.555846 32.304632 28.435818 43.112845 1.491844 0.850554 0.021792 -0.026964 -587779.000000 0 0 1
4.009446 31.984732 28.050258 42.730735 1.446092 0.854704 0.007009 -0.020394 -93766.500000 0 0 1
4.610146 30.909332 28.723318 42.446075 1.422737 0.827523 0.009817 -0.024839 30052.100000 0 0 1
5.974546 30.759832 28.401428 42.290703 1.378953 0.834462 0.000280 -0.025445 -341250.000000 0 0 1
6.603746 29.670132 29.232498 42.171853 1.351794 0.804911 -0.008301 -0.006529 -254775.000000 0 0 1
6.699546 29.999932 30.618568 43.386364 1.351083 0.787359 0.002137 -0.016142 229924.000000 0 0 1
7.429946 29.025832 31.324068 43.346283 1.320200 0.763172 -0.005947 0.001201 -107803.000000 0 0 1
7.363846 29.267632 32.821581 44.587854 1.324309 0.743491 0.016135 -0.013469 -147187.000000 0 0 1
6.212946 28.721832 33.461788 44.533534 1.357764 0.720639 0.016439 -0.020286 106954.000000 0 0 1
6.056846 28.783732 -34.009566 44.964866 1.363396 2.428525 0.028219 -0.018386 -385589.000000 0 0 1
6.259146 27.441832 -33.408236 43.684566 1.346545 2.441466 0.020458 -0.013396 -457992.000000 0 0 1
7.401446 26.758132 -33.832076 43.765151 1.300938 2.454411 0.012874 -0.014304 -357740.000000 0 0 1
7.356346 25.351832 -33.565706 42.702317 1.288382 2.475172 0.017334 -0.008476 495203.000000 0 0 1
8.657346 24.549132 -33.936866 42.770555 1.231759 2.487275 0.007620 0.000106 198268.000000 0 0 1
8.938646 24.427932 33.530062 42.436875 1.220011 0.659798 -0.004260 0.005458 363143.000000 0 0 1
10.135946 23.675332 33.287642 42.087123 1.166284 0.658482 0.004684 0.000343 347297.000000 0 0 1
10.203446 22.211432 33.763666 41.682648 1.140171 0.626615 -0.004140 -0.001959 -904725.000000 0 0 1
9.482046 21.319532 32.909195 40.341626 1.152310 0.616750 -0.007352 0.000575 320473.000000 0 0 1
9.346646 20.022032 33.448175 40.087679 1.134045 0.583798 -0.006958 0.006803 15984.700000 0 0 1
8.070646 19.923732 34.314130 40.491357 1.185921 0.559646 0.013917 -0.006162 -360558.000000 0 0 1
8.074546 20.697232 -33.400396 40.114339 1.198830 2.554636 0.018681 -0.010612 -308053.000000 0 0 1
6.798346 20.801332 -32.834286 39.458881 1.254917 2.553705 0.023781 -0.009231 -507796.000000 0 0 1
6.893346 21.497832 -31.399066 38.672682 1.260501 2.518227 0.026719 -0.019981 -135804.000000 0 0 1
7.246446 22.889832 -31.433486 39.554007 1.264199 2.489306 0.020343 -0.011541 173601.000000 0 0 1
7.288246 23.423332 -30.172086 38.886062 1.269139 2.458953 0.009563 -0.013041 -634792.000000 0 0 1
8.669746 23.443532 -29.543506 38.698610 1.216580 2.439396 0.021233 -0.010807 -478477.000000 0 0 1
9.199946 22.188132 -29.151416 37.772441 1.177739 2.452407 0.020837 -0.010269 725985.000000 0 0 1
10.630946 22.228132 -29.089186 38.122010 1.124687 2.438823 0.038282 -0.012032 1045230.000000 0 0 1
11.431946 20.884132 -29.078746 37.582041 1.069952 2.455521 0.040243 -0.020082 -55092.500000 0 0 1
11.497746 20.066632 -30.185016 38.026347 1.050483 2.487815 0.026653 -0.016547 620726.000000 0 0 1
10.309746 19.439532 -30.723586 37.790541 1.083165 2.520077 0.016124 -0.011771 317005.000000 0 0 1
10.516346 18.501232 -31.944586 38.384186 1.053926 2.553920 0.016959 -0.009341 -735135.000000 0 0 1
11.077246 17.283432 -31.553816 37.643933 1.000833 2.564803 0.028870 -0.009671 94500.000000 0 0 1
11.283746 16.323432 -32.543626 38.116466 0.965960 2.594027 0.016897 -0.004012 -187002.000000 0 0 1
12.376746 16.495832 -33.637866 39.456335 0.927106 2.591611 0.014688 0.008087 -183967.000000 0 0 1
12.190446 17.786332 -34.303622 40.517886 0.969948 2.580415 0.015647 0.003435 46423.800000 0 0 1
12.770046 17.920632 33.268107 39.887217 0.951671 0.584380 0.021044 0.001271 58083.800000 0 0 1
11.992046 17.214432 32.113778 38.359361 0.962337 0.578686 0.022560 -0.004086 -544836.000000 0 0 1
12.424546 17.717732 30.837828 37.673054 0.959232 0.611889 0.018220 0.001910 303735.000000 0 0 1
11.667146 17.276832 29.682578 36.272120 0.976837 0.612296 0.015908 -0.001015 -25916.000000 0 0 1
10.194846 17.710532 29.592498 35.962672 1.048483 0.604358 0.004837 -0.005516 -297266.000000 0 0 1
9.492846 16.921432 30.542438 36.184106 1.059551 0.565941 0.017324 -0.000965 636346.000000 0 0 1
8.101546 17.286932 30.720258 36.169149 1.132541 0.556044 0.018451 -0.001729 1101300.000000 0 0 1
7.400746 16.416232 31.773318 36.521329 1.147262 0.515607 0.016559 0.002355 -104086.000000 0 0 1
7.940446 16.589132 33.082575 37.851113 1.124371 0.507384 0.026188 0.002369 343543.000000 0 0 1
7.438846 15.614132 33.971458 38.120828 1.126192 0.470918 0.030946 -0.005071 -154457.000000 0 0 1
7.698146 16.048332 -33.441616 37.883401 1.123532 2.652482 0.035404 -0.013706 -95143.500000 0 0 1
6.715646 16.979732 -33.021676 37.733835 1.194167 2.636482 0.032139 -0.017655 242862.000000 0 0 1
6.648646 16.977132 -31.623966 36.503462 1.197532 2.618599 0.039007 -0.026085 28329.200000 0 0 1
5.538846 17.909532 -31.068766 36.286339 1.270859 2.598687 0.034987 -0.027811 -350584.000000 0 0 1
5.625446 17.899932 -29.638476 35.078376 1.266298 2.577215 0.032096 -0.036143 253397.000000 0 0 1
4.858146 18.911332 -28.972756 34.937954 1.319343 2.548584 0.037507 -0.036722 736492.000000 0 0 1
3.302246 18.909232 -29.057036 34.824923 1.397903 2.557794 0.053994 -0.041054 -642852.000000 0 0 1
2.626746 17.958632 -28.258586 33.585115 1.425560 2.570669 0.057333 -0.033264 57700.500000 0 0 1
1.258746 17.758932 -28.559686 33.654417 1.500035 2.584160 0.062212 -0.034059 133421.000000 0 0 1
0.382846 18.907532 -28.034486 33.816767 1.550551 2.548134 0.058905 -0.039154 -1296890.000000 0 0 1
0.174146 18.941732 -26.658506 32.703142 1.561603 2.523813 0.073607 -0.047073 243761.000000 0 0 1
-0.474354 20.211832 -26.378786 33.235275 -1.547332 2.487661 0.085052 -0.049441 129583.000000 0 0 1
-0.975154 20.535832 -24.945306 32.325526 -1.523346 2.452291 0.061053 -0.050121 -286046.000000 0 0 1
-2.179254 19.936432 -24.581606 31.724845 -1.461918 2.457255 0.063201 -0.039727 -273555.000000 0 0 1
-2.612454 20.230832 -23.256306 30.934887 -1.442375 2.421557 0.062942 -0.031533 -410605.000000 0 0 1
-3.852954 19.493032 -22.815906 30.255398 -1.375654 2.425095 0.045407 -0.028227 -789184.000000 0 0 1
-5.094454 20.114232 -22.922406 30.918805 -1.322737 2.405912 0.040577 -0.029507 -811939.000000 0 0 1
-6.130154 19.265632 -22.560306 30.293741 -1.262735 2.410909 0.035078 -0.023151 -433515.000000 0 0 1
-7.481354 19.948632 -22.323006 30.858308 -1.211999 2.379515 0.016955 -0.020376 -265627.000000 0 0 1
-7.663654 20.749232 -21.215906 30.649256 -1.216991 2.335351 0.002251 -0.019708 -42958.500000 0 0 1
-7.237154 22.099032 -21.347506 31.566749 -1.254316 2.313478 0.014233 -0.023679 -324672.000000 0 0 1
-7.681554 23.087632 -20.270006 31.668883 -1.249604 2.265374 0.018597 -0.023593 -144184.000000 0 0 1
-7.049954 22.721632 -19.045806 30.474861 -1.269940 2.245887 0.031887 -0.021413 179408.000000 0 0 1
-7.171754 23.739432 -18.076006 30.687728 -1.277411 2.200655 0.031630 -0.017816 -694660.000000 0 0 1
-6.167254 23.666532 -16.929306 29.744599 -1.315876 2.176275 0.036123 -0.013746 -741161.000000 0 0 1
-4.902254 23.971432 -17.424606 30.037952 -1.369074 2.189631 0.040392 -0.017857 -957277.000000 0 0 1
-3.987454 24.043632 -16.329406 29.336761 -1.406450 2.161107 0.029912 -0.009033 46168.700000 0 0 1
-2.630954 24.623532 -16.749106 29.896033 -1.464353 2.165478 0.017305 0.000639 -178900.000000 0 0 1
-2.593754 26.038132 -16.769806 31.079547 -1.471510 2.140731 -0.001016 0.003095 11771.800000 0 0 1
-1.365854 26.558232 -17.254106 31.700306 -1.519413 2.146337 -0.006688 -0.003360 99786.800000 0 0 1
-1.145954 28.039232 -16.847206 32.731332 -1.529949 2.111468 -0.018047 -0.014635 -442326.000000 0 0 1
-1.967654 29.046432 -17.431406 33.932592 -1.503158 2.110296 -0.013326 -0.015661 -32343.200000 0 0 1
-1.713154 29.268832 -18.825306 34.842382 -1.512331 2.141589 -0.014326 -0.014088 -1017350.000000 0 0 1
-2.888554 29.770432 -19.676906 35.802276 -1.474071 2.152681 0.012667 -0.017478 -229126.000000 0 0 1
-3.530654 30.896832 -19.137706 36.514813 -1.457018 2.122464 0.008083 -0.005548 525198.000000 0 0 1
-4.624554 30.485332 -18.268206 35.839494 -1.420246 2.105659 0.003800 -0.010286 178470.000000 0 0 1
-5.108754 31.685332 -17.417106 36.515958 -1.410938 2.068003 0.007286 0.003374 184813.000000 0 0 1
-6.021154 32.535632 -18.094606 37.712550 -1.387803 2.071227 0.033119 0.002910 99966.900000 0 0 1
-6.204754 33.717132 -17.356706 38.426543 -1.388809 2.039450 0.029000 -0.007263 202756.000000 0 0 1
-7.047654 -34.287293 -18.156806 39.432949 1.368073 2.049296 0.026636 0.009543 -561613.000000 0 0 1
-8.324354 34.454632 -18.554406 40.008531 -1.333736 2.053032 0.040935 -0.007654 -834305.000000 0 0 1
-8.987854 -33.599793 -19.346106 39.799490 1.309419 2.078406 0.067452 -0.011590 396315.000000 0 0 1
28.811346 -20.461268 -26.712326 44.297918 -0.617526 2.218072 0.032446 0.009347 -108296.000000 0 0 1
28.089146 -21.579268 -26.304946 44.120462 -0.655074 2.209565 0.045581 0.000952 -1488080.000000 0 0 1
26.875846 -21.641468 -26.936886 43.775108 -0.677927 2.233623 0.044161 0.004706 -852597.000000 0 0 1
26.189946 -22.995068 -26.536826 43.805132 -0.720533 2.221558 0.036141 0.006263 78842.300000 0 0 1
26.804746 -24.120068 -27.106296 45.111233 -0.732728 2.215394 0.027867 0.015792 1091720.000000 0 0 1
28.047946 -24.560168 -26.462376 45.718120 -0.719198 2.188072 0.037988 0.014426 1112480.000000 0 0 1
28.499646 -25.874088 -27.030256 47.035444 -0.737148 2.183008 0.034894 0.013523 250158.000000 0 0 1
27.685746 -26.945618 -26.525486 46.863294 -0.771851 2.172464 0.040666 0.009132 96507.900000 0 0 1
28.115546 -28.206338 -26.971726 48.099433 -0.787010 2.166087 0.032248 0.010041 -69190.800000 0 0 1
27.076446 -28.912638 -27.829146 48.410081 -0.818182 2.183233 0.036869 0.000682 -343225.000000 0 0 1
26.764446 -28.452718 -29.158076 48.745114 -0.815964 2.212017 0.026979 -0.002415 255024.000000 0 0 1
27.826146 -28.460788 -30.114456 49.911836 -0.796673 2.218495 0.015536 0.003422 339111.000000 0 0 1
28.252546 -29.910038 -30.665566 51.314654 -0.813888 2.211299 0.016511 0.003784 185353.000000 0 0 1
28.884446 -30.845238 -29.705276 51.654074 -0.818214 2.183499 0.021692 0.004388 1544870.000000 0 0 1
30.243846 -30.653538 -29.232566 52.046830 -0.792126 2.167186 0.025018 0.011474 1353320.000000 0 0 1
31.389346 -30.536368 -30.263256 53.231809 -0.771625 2.175500 0.019214 0.004833 -404484.000000 0 0 1
31.381746 -29.185858 -30.766926 52.756346 -0.749159 2.193445 0.030937 -0.002137 55217.000000 0 0 1
32.428446 -28.975018 -31.702336 53.816298 -0.729216 2.200722 0.019956 -0.006971 772.889000 0 0 1
32.350746 -27.639938 -32.381896 53.470778 -0.707033 2.221316 0.011143 -0.002840 -286218.000000 0 0 1
32.294046 -26.488868 -31.499716 52.314412 -0.686961 2.216954 0.000159 0.010869 26184.000000 0 0 1
30.988746 -26.243128 -30.992036 51.083368 -0.702668 2.222693 0.023459 0.009868 132502.000000 0 0 1
30.865746 -24.933268 -30.193376 49.859825 -0.679477 2.221272 0.016634 0.010066 43855.500000 0 0 1
31.647446 -24.961468 -28.993366 49.651294 -0.667835 2.194370 0.013897 0.018997 185053.000000 0 0 1
31.748446 -23.661768 -28.445076 48.754133 -0.640479 2.193753 0.010446 0.015749 394860.000000 0 0 1
32.631546 -23.671368 -27.081576 48.565041 -0.627579 2.162331 0.006967 0.010692 207631.000000 0 0 1
32.089746 -24.188068 -25.904356 47.810565 -0.645905 2.143388 0.003501 0.011967 -111134.000000 0 0 1
31.201546 -23.315168 -25.216956 46.400737 -0.641735 2.145350 0.036586 0.010514 -316465.000000 0 0 1
31.786746 -22.206068 -24.313006 45.767117 -0.609783 2.130852 0.032033 0.009717 -82262.700000 0 0 1
32.278346 -21.093068 -25.072306 45.993801 -0.578814 2.147333 0.038238 -0.000303 127864.000000 0 0 1
32.190146 -19.957568 -24.256506 44.976529 -0.554988 2.140420 0.022333 -0.009711 32680.200000 0 0 1
32.374746 -18.622868 -24.969406 44.926681 -0.522006 2.160099 0.013584 -0.018151 -52109.100000 0 0 1
31.229146 -18.408468 -25.763996 44.473754 -0.532637 2.188676 0.020596 -0.006287 164713.000000 0 0 1
31.241746 -17.262668 -26.578226 44.502230 -0.504800 2.210844 0.018344 -0.000624 -1374140.000000 0 0 1
30.102546 -17.295468 -27.509676 44.295358 -0.521497 2.240879 0.010443 0.008816 -633304.000000 0 0 1
28.834146 -16.994168 -26.917296 42.950560 -0.532571 2.248113 0.012080 0.008477 135424.000000 0 0 1
27.905946 -16.733068 -27.900836 42.862502 -0.540143 2.279616 -0.003768 0.002736 20656.200000 0 0 1
26.431946 -16.455968 -27.469326 41.521206 -0.556856 2.293711 -0.004795 0.005636 680974.000000 0 0 1
25.836746 -17.547268 -26.789216 41.147371 -0.596602 2.279770 0.015948 0.015819 273818.000000 0 0 1
25.314146 -17.172868 -25.480826 39.811881 -0.596075 2.265335 0.015593 0.017955 141550.000000 0 0 1
24.953946 -18.341568 -24.473106 39.472085 -0.633843 2.239552 0.023455 0.020761 -1890.360000 0 0 1
24.747946 -17.892468 -23.155606 38.324709 -0.625988 2.219552 0.022761 0.023976 1600.280000 0 0 1
24.434346 -18.943168 -22.287906 38.113405 -0.659478 2.195404 0.033752 0.019505 -74418.200000 0 0 1
24.491646 -18.459068 -20.806006 37.060327 -0.645857 2.166884 0.029759 0.017903 149796.000000 0 0 1
23.550046 -17.447668 -20.452306 35.739651 -0.637636 2.180053 0.018655 0.014561 96418.100000 0 0 1
23.743946 -16.133568 -21.025806 35.583023 -0.596822 2.202963 0.015237 0.017912 623313.000000 0 0 1
25.043746 -15.288768 -20.692706 35.904369 -0.548092 2.185025 0.008837 0.017302 681491.000000 0 0 1
24.994346 -14.503968 -19.500406 34.861845 -0.525801 2.164413 0.009083 0.007216 243748.000000 0 0 1
26.148546 -13.699368 -19.393406 35.320297 -0.482589 2.152050 0.004911 0.009480 -335522.000000 0 0 1
26.093646 -12.641068 -18.246806 34.258151 -0.451130 2.132497 0.017930 0.007530 -306127.000000 0 0 1
26.364946 -13.074568 -16.984706 33.978448 -0.460368 2.094242 -0.000819 0.012371 87512.000000 0 0 1
26.014846 -12.215368 -15.981106 32.884391 -0.438995 2.078279 -0.004536 0.006803 -416980.000000 0 0 1
26.763246 -12.415668 -14.683306 32.954812 -0.434359 2.032595 0.000564 0.012646 -445322.000000 0 0 1
26.431146 -13.565468 -13.945106 32.819101 -0.474182 2.009657 0.012399 0.008894 329073.000000 0 0 1
27.031146 -13.517268 -12.669906 32.770809 -0.463698 1.967762 0.021248 0.005808 -81622.700000 0 0 1
26.655646 -14.798468 -11.904606 32.729769 -0.506805 1.943059 0.017301 -0.000024 -282400.000000 0 0 1
25.309446 -14.846368 -11.519206 31.522608 -0.530504 1.944888 0.012712 -0.005695 -176477.000000 0 0 1
24.957846 -16.138168 -11.022406 31.699022 -0.573993 1.925935 0.017813 -0.015200 310816.000000 0 0 1
23.427846 -16.271968 -10.778606 30.492938 -0.607063 1.932084 0.028235 -0.022416 338211.000000 0 0 1
23.053146 -15.742668 -9.501906 29.488394 -0.599147 1.898876 0.024877 -0.017568 -429695.000000 0 0 1
21.739246 -16.013768 -9.158506 28.511644 -0.634889 1.897814 0.026181 -0.013890 -870302.000000 0 0 1
21.402846 -15.889968 -7.671306 27.738454 -0.638634 1.851007 0.027928 -0.009901 -284194.000000 0 0 1
21.608946 -14.569668 -7.226306 27.045171 -0.593229 1.841276 0.016856 0.000354 387047.000000 0 0 1
21.306246 -14.285168 -5.837206 26.307701 -0.590630 1.794541 0.014063 -0.001359 -257363.000000 0 0 1
22.111146 -15.014968 -4.748506 27.145909 -0.596539 1.746626 0.020330 0.001368 -693315.000000 0 0 1
23.489646 -14.791368 -4.769206 28.165464 -0.561970 1.740944 0.021116 -0.000631 -128834.000000 0 0 1
24.131846 -15.400268 -3.632906 28.856754 -0.568015 1.697026 0.015923 -0.013331 -568998.000000 0 0 1
25.635846 -15.254868 -3.844006 30.077965 -0.536779 1.698948 0.012899 -0.011884 -776018.000000 0 0 1
26.138546 -13.956068 -3.579606 29.846424 -0.490419 1.691020 0.014823 -0.013928 -147088.000000 0 0 1
27.524146 -13.891468 -3.805106 31.064938 -0.467401 1.693593 0.020863 -0.033032 -251258.000000 0 0 1
28.117746 -12.587968 -3.232506 30.976018 -0.420929 1.675342 0.043165 -0.032484 -1005870.000000 0 0 1
28.531146 -12.672168 -1.835606 31.272665 -0.417980 1.629527 0.045021 -0.047719 424813.000000 0 0 1
29.020646 -11.462568 -1.308306 31.229794 -0.376171 1.612701 0.044379 -0.042683 -142103.000000 0 0 1
30.376646 -10.938268 -1.820006 32.337266 -0.345634 1.627108 0.041994 -0.034810 -850574.000000 0 0 1
30.403446 -10.545668 -3.172006 32.336393 -0.333873 1.669048 0.036923 -0.017510 -117664.000000 0 0 1
31.679846 -10.588568 -3.772406 33.614900 -0.322563 1.683257 0.053130 -0.022541 -192338.000000 0 0 1
31.609946 -10.336268 -5.348206 33.684276 -0.316034 1.730246 0.047848 -0.015393 -84936.800000 0 0 1
30.752046 -11.328268 -5.893206 33.297866 -0.352949 1.748718 0.033474 -0.017039 220150.000000 0 0 1
30.205546 -10.935868 -7.156206 32.911693 -0.347368 1.789984 0.026994 -0.006230 -598243.000000 0 0 1
28.953246 -11.736768 -7.447806 32.117161 -0.385127 1.804822 0.007150 -0.000168 -830551.000000 0 0 1
29.047846 -13.139368 -7.386706 32.725889 -0.424794 1.798473 0.008823 -0.002263 -803758.000000 0 0 1
27.879246 -13.789068 -7.766006 32.057786 -0.459318 1.815481 0.008397 0.000108 -572760.000000 0 0 1
27.910746 -15.301168 -7.943006 32.805897 -0.501474 1.815348 0.009332 -0.004484 -221408.000000 0 0 1
28.369446 -15.756368 -9.154406 33.717826 -0.506979 1.845748 0.012355 -0.011422 -27421.200000 0 0 1
28.598546 -17.145968 -9.110506 34.566782 -0.540081 1.837510 0.015472 -0.011505 -124517.000000 0 0 1
28.755546 -17.847368 -10.515706 35.439950 -0.555471 1.872051 0.013904 -0.011743 286024.000000 0 0 1
30.065846 -17.613768 -11.036606 36.551424 -0.529942 1.877531 0.017814 -0.001289 613020.000000 0 0 1
30.310846 -18.080068 -12.367906 37.397879 -0.537833 1.907854 0.012979 0.012898 -33473.000000 0 0 1
29.701146 -17.423168 -13.680106 37.052263 -0.530520 1.948956 0.015005 0.008349 -147479.000000 0 0 1
30.287846 -16.229068 -14.097406 37.141259 -0.491897 1.960119 0.006898 0.011479 14557.600000 0 0 1
29.518546 -15.561068 -15.076306 36.616750 -0.485141 1.995151 -0.004229 0.013300 -851382.000000 0 0 1
30.234246 -14.336468 -15.730106 36.974048 -0.442779 2.010240 -0.000039 0.009544 557708.000000 0 0 1
31.239346 -14.719768 -16.682006 38.351762 -0.440338 2.020805 -0.008098 0.013480 883687.000000 0 0 1
32.502446 -15.022168 -16.110206 39.263384 -0.432941 1.993592 0.000663 0.007228 -237098.000000 0 0 1
33.550146 -15.555368 -17.129306 40.755305 -0.434143 2.004568 0.004301 0.009300 885876.000000 0 0 1
34.885146 -15.687168 -16.602006 41.697569 -0.422588 1.980299 0.016498 0.005621 1058660.000000 0 0 1
-35.171246 -16.273768 -17.607206 42.566017 0.433366 1.997250 0.025161 -0.004605 -41639.800000 0 0 1
-33.674646 -16.038168 -17.324406 41.125900 0.444483 2.005623 0.030477 -0.010667 -262735.000000 0 0 1
-33.143646 -16.943068 -16.350006 40.655769 0.472568 1.984668 0.034142 -0.009896 148449.000000 0 0 1
-33.583746 -16.644268 -15.034906 40.384998 0.460125 1.952271 0.032468 -0.007870 -768295.000000 0 0 1
-32.938246 -17.470368 -13.864706 39.779038 0.487669 1.926813 0.037210 -0.011761 164245.000000 0 0 1
-31.583946 -17.111368 -13.615306 38.415116 0.496506 1.933096 0.040850 -0.015552 250361.000000 0 0 1
-31.119546 -17.884968 -12.532806 38.018015 0.521622 1.906734 0.042261 -0.004593 -502088.000000 0 0 1
-29.700646 -17.560768 -12.083606 36.558480 0.533967 1.907659 0.068357 -0.009710 -486745.000000 0 0 1
-29.620846 -16.217768 -11.595606 35.705302 0.500931 1.901553 0.063877 -0.019251 535805.000000 0 0 1
-28.399046 -15.884068 -10.923406 34.323902 0.509968 1.894674 0.077057 -0.025986 521146.000000 0 0 1
-28.523046 -15.847368 -9.401206 33.957119 0.507131 1.851316 0.078993 -0.022178 -255.272000 0 0 1
-28.461146 -17.186868 -8.942306 34.429495 0.543261 1.833537 0.067692 -0.015321 131888.000000 0 0 1
-28.898646 -17.289468 -7.564506 34.514913 0.539153 1.791756 0.072161 -0.020002 -88811.100000 0 0 1
-29.049646 -18.761168 -7.134006 35.309452 0.573439 1.774239 0.052841 -0.019470 -52590.100000 0 0 1
-30.187146 -19.439668 -7.633606 36.707444 0.572126 1.780283 0.050590 -0.015433 -37517.100000 0 0 1
-30.117046 -19.980968 -8.950306 37.234172 0.585768 1.813552 0.044411 -0.011588 291345.000000 0 0 1
-31.428146 -20.754768 -9.312706 38.797104 0.583643 1.813199 0.037031 -0.011818 -285380.000000 0 0 1
-32.508746 -19.918368 -9.474006 39.285070 0.549711 1.814358 0.033750 -0.013560 -236882.000000 0 0 1
-33.643346 -20.705168 -9.898206 40.725339 0.551689 1.816303 0.030201 -0.008144 538377.000000 0 0 1
-34.901646 -19.889468 -10.210206 41.448331 0.517972 1.819694 0.031159 -0.018641 -95562.700000 0 0 1
-34.903346 -19.424068 -11.563406 41.584256 0.507828 1.852582 0.023366 -0.022391 1083760.000000 0 0 1
34.679846 -18.999568 -11.932406 41.304451 -0.501196 1.863863 0.038256 -0.024638 948178.000000 0 0 1
34.451046 -18.714868 -13.390706 41.429843 -0.497631 1.899920 0.035663 -0.014941 -232055.000000 0 0 1
34.469146 -19.796068 -14.205306 42.211338 -0.521318 1.914024 0.030523 -0.012943 402630.000000 0 0 1
33.723846 -19.591068 -15.415906 41.937548 -0.526277 1.947215 0.021607 -0.009612 971423.000000 0 0 1
32.462246 -20.519668 -15.608906 41.454700 -0.563695 1.956843 0.020666 -0.015982 450067.000000 0 0 1
31.435546 -20.237868 -14.653406 40.155786 -0.571997 1.944337 0.026823 -0.009993 537734.000000 0 0 1
30.266446 -21.042568 -14.651406 39.667507 -0.607527 1.949112 0.025700 -0.008012 644651.000000 0 0 1
29.320346 -20.745968 -15.841306 39.255890 -0.615783 1.986178 0.028881 -0.009410 -675388.000000 0 0 1
28.676946 -19.475868 -15.804306 38.097937 -0.596593 1.998556 0.009132 0.005893 709864.000000 0 0 1
27.777146 -19.215268 -16.905406 37.770215 -0.605178 2.034860 0.014512 0.002396 487991.000000 0 0 1
27.123546 -17.832668 -16.817506 36.558437 -0.581602 2.048811 0.012253 0.001832 -198856.000000 0 0 1
26.245246 -17.591768 -15.750406 35.303804 -0.590503 2.033243 0.011685 0.001579 297954.000000 0 0 1
25.647546 -16.281268 -15.741406 34.215029 -0.565621 2.048874 0.008066 0.001891 -1029990.000000 0 0 1
24.261646 -16.286468 -15.057806 32.872694 -0.591193 2.046613 0.012253 -0.008263 434501.000000 0 0 1
23.163146 -16.918568 -15.704706 32.701790 -0.630844 2.071725 0.019064 -0.008543 654209.000000 0 0 1
22.862346 -16.360368 -16.975906 32.840979 -0.621121 2.114036 0.016292 0.004301 -945127.000000 0 0 1
21.896146 -17.223468 -17.858806 33.091177 -0.666515 2.140859 0.004059 0.009688 467700.000000 0 0 1
20.569746 -17.330368 -17.364006 32.015072 -0.700134 2.144052 0.009623 0.016530 59568.200000 0 0 1
19.787246 -17.988168 -18.332906 32.422288 -0.737808 2.171765 0.008448 0.009519 -274298.000000 0 0 1
18.294346 -18.110468 -18.045306 31.437322 -0.780347 2.182190 -0.001664 0.012394 -440152.000000 0 0 1
17.505646 -16.952268 -17.947106 30.264264 -0.769340 2.205592 0.001463 0.012304 -817074.000000 0 0 1
16.218746 -17.345768 -17.617606 29.568623 -0.818963 2.209084 0.009175 0.001423 -892637.000000 0 0 1
15.291146 -16.154668 -17.315506 28.188991 -0.812852 2.232250 0.015633 0.007584 -459403.000000 0 0 1
14.919446 -15.389768 -18.401306 28.249653 -0.800914 2.280200 0.021127 0.014031 -1140220.000000 0 0 1
13.734646 -14.800868 -18.087306 27.108243 -0.822746 2.301274 0.021988 0.011916 -1235370.000000 0 0 1
13.029146 -14.263268 -19.326306 27.325914 -0.830586 2.356400 0.023792 0.006502 873.010000 0 0 1
13.575846 -13.050168 -19.818506 27.338319 -0.765658 2.381736 0.020369 0.003198 146224.000000 0 0 1
12.756946 -12.623368 -20.884106 27.536067 -0.780135 2.431693 0.033945 0.011613 170073.000000 0 0 1
13.038646 -11.162268 -21.406306 27.437793 -0.708020 2.465743 0.022330 0.018899 -115025.000000 0 0 1
14.191746 -11.128868 -22.233506 28.628415 -0.665019 2.460085 0.005462 0.027825 -1802.620000 0 0 1
14.393546 -9.785568 -22.583706 28.512371 -0.597080 2.484984 0.001255 0.032665 -266177.000000 0 0 1
15.573346 -9.611268 -23.531606 29.810100 -0.552943 2.480601 -0.016832 0.030090 -201644.000000 0 0 1
15.277146 -10.046168 -24.828006 30.834179 -0.581696 2.506827 0.003281 0.029160 560647.000000 0 0 1
16.412046 -9.843068 -25.672936 32.020945 -0.540233 2.501021 0.004791 0.020158 -9842.410000 0 0 1
22.468346 5.052732 -6.707206 23.986315 0.221202 1.854201 0.078853 0.014169 -216350.000000 0 1 0
22.358946 6.436832 -6.767706 24.231325 0.280306 1.853857 0.043165 0.008536 61386.600000 0 1 0
21.417446 6.824532 -5.841906 23.225183 0.308472 1.825060 0.019909 0.005594 -633738.000000 0 1 0
21.010146 8.394532 -5.737706 23.341287 0.380115 1.819160 0.011522 0.001584 -550076.000000 0 1 0
20.317746 8.856032 -6.871106 23.204573 0.411047 1.871414 0.020848 -0.002043 274718.000000 0 1 0
20.160646 10.227532 -7.165806 23.715034 0.469472 1.877757 0.037429 0.000504 19497.200000 0 1 0
19.447346 11.109832 -6.064406 23.203549 0.519032 1.835224 0.034744 0.000439 -120462.000000 0 1 0
20.269846 11.465832 -4.966706 23.811765 0.514786 1.780921 0.022008 0.005950 23483.800000 0 1 0
19.707646 12.368232 -4.059006 23.618637 0.560456 1.743510 0.037244 -0.002539 -10172.600000 0 1 0
20.748246 12.746632 -2.976406 24.532129 0.550902 1.692423 0.033872 -0.012656 -37138.700000 0 1 0
21.997146 13.255432 -3.372506 25.902794 0.542327 1.701366 0.032941 -0.019649 722832.000000 0 0 1
22.909546 13.449632 -2.274906 26.662991 0.530862 1.656221 0.030118 -0.024011 668615.000000 0 0 1
23.769446 12.269832 -1.717606 26.804580 0.476525 1.634919 0.028406 -0.026917 -291377.000000 0 0 1
24.860946 11.817932 -2.518006 27.641826 0.443743 1.662017 0.019910 -0.017045 709735.000000 0 0 1
25.547846 10.773932 -1.777506 27.783621 0.399086 1.634817 0.031038 -0.021800 -664680.000000 0 0 1
26.926746 10.545932 -2.385606 29.016503 0.373290 1.653105 0.039349 -0.019083 -344127.000000 0 0 1
27.768046 11.685132 -2.142406 30.202593 0.398318 1.641790 0.036485 -0.027442 -981352.000000 0 0 1
29.087646 11.410032 -2.375106 31.335621 0.373820 1.646665 0.034729 -0.022638 -883411.000000 0 0 1
30.027046 12.540032 -1.802706 32.590269 0.395607 1.626139 0.015629 -0.013616 -290366.000000 0 0 1
30.269946 12.588932 -0.387206 32.785680 0.394128 1.582607 0.018897 -0.019682 311454.000000 0 0 1
31.115246 13.660732 -0.024706 33.981977 0.413699 1.571523 0.020431 -0.014504 -468974.000000 0 0 1
32.585446 13.222632 0.014894 35.166028 0.385482 1.570373 0.035071 -0.015479 29550.400000 0 0 1
33.570146 14.270132 0.191494 36.477775 0.401942 1.565547 0.032980 -0.016377 794633.000000 0 0 1
34.245346 14.750332 -0.976406 37.299724 0.406710 1.596977 0.032849 -0.007716 61028.300000 0 0 1
33.434146 15.717732 -1.929606 36.994765 0.439451 1.622979 -0.003339 0.016642 394061.000000 0 0 1
32.274646 15.172032 -2.550406 35.753992 0.439436 1.642189 0.009237 0.011738 -127227.000000 0 0 1
31.700546 16.170832 -3.337706 35.742982 0.471705 1.664313 0.000752 0.026481 224020.000000 0 0 1
30.250946 15.905232 -3.835506 34.391965 0.484055 1.682552 0.022010 0.008356 -22870.900000 0 0 1
30.245046 14.930432 -4.855506 34.077215 0.458554 1.713768 0.004914 0.011327 125598.000000 0 0 1
29.022646 14.861632 -5.550706 33.075557 0.473257 1.739413 0.012985 -0.000565 146191.000000 0 0 1
27.940146 13.906032 -4.953006 31.600028 0.461812 1.728186 0.021756 -0.013676 -98982.300000 0 0 1
26.925746 13.624232 -5.886506 30.745186 0.468430 1.763447 0.028386 -0.018682 967994.000000 0 0 1
25.823146 12.882032 -5.278106 29.336667 0.462732 1.751696 0.032328 -0.011474 690904.000000 0 0 1
24.677146 12.592332 -6.239406 28.398214 0.471840 1.792315 0.029342 -0.012050 -375055.000000 0 0 1
25.054546 11.615432 -7.248306 28.551471 0.434111 1.827474 0.021860 -0.002669 589799.000000 0 0 1
24.031446 11.304132 -8.194206 27.792784 0.439680 1.870076 0.019817 -0.008231 35895.300000 0 0 1
23.714546 12.355732 -9.275306 28.303271 0.480321 1.904677 0.032546 -0.003311 44861.800000 0 0 1
23.055446 13.576332 -8.902406 28.197930 0.532185 1.892003 0.033890 -0.010273 44620.700000 0 0 1
23.037146 14.492732 -9.989906 28.992199 0.561544 1.922579 0.031012 -0.011188 -879718.000000 0 0 1
22.309946 15.800632 -9.598506 28.974558 0.616230 1.908449 0.035750 -0.015820 827039.000000 0 0 1
20.918346 15.691832 -9.270306 27.744358 0.643595 1.911482 0.037717 -0.008521 692630.000000 0 0 1
20.810846 15.132432 -7.981806 26.940510 0.628711 1.871587 0.052456 -0.010734 -1600620.000000 0 0 1
19.566246 14.330332 -7.673906 25.437870 0.632142 1.877243 0.080181 -0.015408 -754271.000000 0 0 1
18.352346 14.998832 -7.797006 24.951290 0.685183 1.888609 0.074661 -0.024149 -109010.000000 0 1 0
17.179946 14.240232 -7.537606 23.553137 0.692108 1.896553 0.073310 -0.047934 770366.000000 0 1 0
16.350546 14.747932 -6.313606 22.906407 0.733910 1.850037 0.073027 -0.026691 3869.010000 0 1 0
17.038246 14.393332 -5.166006 22.894485 0.701448 1.798400 0.100618 -0.013704 612428.000000 0 1 0
16.313746 14.856332 -4.004406 22.425079 0.738675 1.750327 0.075301 -0.006948 152391.000000 0 1 0
15.995046 13.692932 -3.029006 21.272348 0.708009 1.713674 0.049055 -0.001097 -362612.000000 0 1 0
17.122946 13.182432 -2.361606 21.738192 0.656097 1.679650 0.052442 -0.004096 171093.000000 0 1 0
16.834846 12.459932 -1.160406 20.976380 0.637153 1.626144 0.041915 -0.007684 -113813.000000 0 1 0
16.729246 13.373232 0.128294 21.417924 0.674370 1.564806 0.041876 -0.009960 -263216.000000 0 1 0
15.715646 14.356932 0.044094 21.286263 0.740248 1.568725 0.040458 -0.011252 276581.000000 0 1 0
15.601646 15.050532 1.238094 21.713193 0.767420 1.513745 0.030309 -0.007809 -886376.000000 0 1 0
14.403046 15.962132 1.443394 21.548104 0.836698 1.503761 0.032328 -0.001932 -785560.000000 0 1 0
14.272846 16.971632 0.512294 22.181363 0.871561 1.547699 0.041240 -0.008201 195214.000000 0 1 0
13.400346 17.946332 1.040094 22.421461 0.929417 1.524391 0.039962 -0.016870 -94381.600000 0 1 0
13.382446 19.270532 0.324694 23.463774 0.963804 1.556958 0.038775 -0.019219 -124292.000000 0 1 0
12.998746 19.281232 -1.045106 23.277147 0.977620 1.615710 0.044541 -0.026036 70129.300000 0 1 0
12.461846 20.515132 -1.443906 24.046894 1.024919 1.630878 0.040597 -0.030428 545184.000000 0 1 0
10.913046 20.638132 -1.343406 23.384435 1.084390 1.628277 0.030928 -0.032376 484509.000000 0 1 0
10.351246 20.706632 -0.036506 23.149822 1.107229 1.572373 0.024920 -0.034464 905242.000000 0 1 0
8.921846 20.504532 -0.025306 22.361481 1.160389 1.571928 0.009434 -0.034067 1417870.000000 0 1 0
8.214046 20.545032 1.344094 22.166991 1.190456 1.510124 0.009871 -0.034139 164532.000000 0 1 0
8.115346 21.852232 1.934194 23.390596 1.215209 1.488011 0.012533 -0.020453 -237923.000000 0 1 0
7.104146 21.772532 2.888994 23.083724 1.255399 1.445314 0.007409 -0.020219 -179723.000000 0 1 0
6.736746 23.192032 3.440294 24.394461 1.288099 1.429297 0.002494 -0.008252 198043.000000 0 1 0
7.503346 23.459532 4.584994 25.053383 1.261237 1.386750 -0.005674 -0.007969 -74125.900000 0 0 1
7.021746 24.644532 5.142994 26.136340 1.293230 1.372728 -0.004020 -0.003187 -65533.900000 0 0 1
7.606946 24.898132 6.561394 26.848361 1.274281 1.323909 -0.004289 0.000024 127842.000000 0 0 1
7.102946 24.045232 7.603994 26.200110 1.283566 1.276332 0.001141 -0.015108 352085.000000 0 0 1
7.780946 24.296632 8.859094 27.006536 1.260868 1.236573 -0.002486 -0.019566 45292.700000 0 0 1
7.383146 23.265732 9.936994 26.354297 1.263508 1.184183 0.007942 -0.017774 538708.000000 0 0 1
6.062246 23.672632 10.341994 26.534905 1.320097 1.170436 0.005504 -0.016073 506088.000000 0 0 1
5.662046 22.853032 11.381994 26.150901 1.327928 1.120488 0.006157 -0.011224 719671.000000 0 0 1
4.285946 23.306932 12.022294 26.572880 1.388937 1.101311 0.017849 -0.019954 1251940.000000 0 0 1
3.226746 23.350232 11.055394 26.035878 1.433477 1.132253 0.015327 -0.018175 -490190.000000 0 0 1
2.129846 23.948032 11.643294 26.713494 1.482094 1.119805 0.011490 -0.017859 -140780.000000 0 0 1
0.883846 24.056732 10.698094 26.343059 1.534073 1.152607 0.027259 -0.013796 -59156.900000 0 0 1
1.013246 25.064732 9.779494 26.924078 1.530393 1.199070 0.023568 -0.014581 67583.400000 0 0 1
0.076746 24.988232 8.713394 26.463954 1.567725 1.235282 0.020189 -0.012551 986108.000000 0 0 1
-1.343654 25.577832 9.051094 27.165294 -1.518313 1.231116 0.021756 -0.021157 553846.000000 0 0 1
-2.113154 24.782632 9.949494 26.788742 -1.485735 1.190274 0.021989 -0.021261 382118.000000 0 0 1
-3.403954 25.390432 10.035194 27.513016 -1.437527 1.197439 0.030282 -0.025826 -7215.840000 0 0 1
-4.554454 24.570432 10.654994 27.165752 -1.387513 1.167751 0.029954 -0.022891 -13772.000000 0 0 1
-4.695954 24.731532 12.046794 27.907452 -1.383153 1.124454 0.023441 -0.012259 238703.000000 0 0 1
-5.470254 25.894532 12.341594 29.202147 -1.362606 1.134455 0.025017 -0.005671 -207353.000000 0 0 1
-6.000454 25.999732 13.803094 30.041919 -1.343979 1.093408 0.026274 -0.000325 40102.600000 0 0 1
-7.080454 25.146632 14.115394 29.693943 -1.296335 1.075420 0.021530 -0.003818 5250.570000 0 0 1
-7.480954 25.279932 15.466994 30.565790 -1.283083 1.040229 0.021390 0.012652 250455.000000 0 0 1
-8.660754 24.343632 15.847494 30.311122 -1.228990 1.020632 0.017067 0.001304 -590610.000000 0 0 1
-9.874154 24.688432 15.279494 30.667255 -1.190333 1.049235 0.023367 0.011495 -770128.000000 0 0 1
-10.842454 23.755032 15.780394 30.510346 -1.142610 1.027203 0.016862 0.003575 -45902.800000 0 0 1
-12.254054 24.272532 15.457094 31.276819 -1.103274 1.053879 0.014474 0.001444 -380820.000000 0 0 1
-12.643854 25.322532 16.366594 32.695001 -1.107699 1.046523 0.018180 -0.001055 521150.000000 0 0 1
-13.716354 26.069932 15.779694 33.418235 -1.086458 1.079025 0.012934 0.003785 11439.500000 0 0 1
-14.341854 27.160232 16.636394 34.930453 -1.084964 1.074386 0.022262 0.000634 -198333.000000 0 0 1
-15.439754 26.672532 17.374494 35.379132 -1.046063 1.057451 0.015473 -0.002576 -161067.000000 0 0 1
-15.740654 27.534032 18.444094 36.688904 -1.051461 1.044059 0.030011 -0.005964 -277871.000000 0 0 1
-17.034554 27.071632 19.105394 37.256749 -1.009154 1.032349 0.021287 -0.015371 411379.000000 0 0 1
-18.252354 27.227832 18.370994 37.576544 -0.980244 1.059973 0.021109 -0.015445 879361.000000 0 0 1
-19.393854 26.703532 19.064394 38.113663 -0.942659 1.046968 0.028988 -0.011371 695107.000000 0 0 1
-20.713554 26.946132 18.283494 38.593153 -0.915433 1.077253 0.020295 -0.014750 -256367.000000 0 0 1
-21.205854 28.256432 18.467394 39.864255 -0.926989 1.089130 0.016863 -0.017248 76203.600000 0 0 1
-21.842254 28.622832 17.284894 39.938930 -0.918960 1.123219 0.014014 -0.016392 -382437.000000 0 0 1
-22.618054 29.953032 17.317294 41.335810 -0.924028 1.138517 0.007763 -0.019852 620255.000000 0 0 1
-23.927054 29.944232 17.892194 42.300018 -0.896633 1.134061 0.004922 -0.008822 412775.000000 0 0 1
-24.848654 30.690532 17.186594 43.066731 -0.890198 1.160295 0.000447 -0.011249 342692.000000 0 0 1
-26.321864 30.592432 17.708694 44.071933 -0.860293 1.157300 0.002896 -0.007265 564841.000000 0 0 1
-27.046084 29.431332 17.411294 43.598705 -0.827607 1.159985 0.013278 -0.002324 532.330000 0 0 1
-28.345904 29.460832 17.981594 44.662832 -0.804683 1.156433 0.027188 -0.008126 243771.000000 0 0 1
-28.585814 28.311632 18.993894 44.491182 -0.780579 1.129719 0.021452 -0.003898 -378724.000000 0 0 1
-28.910124 27.051032 18.443694 43.677493 -0.752189 1.134848 0.027990 0.000218 249345.000000 0 0 1
-29.189704 26.010632 19.357894 43.627054 -0.727870 1.111059 0.022462 0.000275 -64232.000000 0 0 1
-29.149954 24.557832 18.739594 42.473277 -0.700104 1.113851 0.035703 -0.005530 1040970.000000 0 0 1
-30.291074 24.432432 17.843394 42.812143 -0.678745 1.140892 0.038630 -0.006122 1311660.000000 0 0 1
-29.917294 23.581132 16.708694 41.596811 -0.667511 1.157443 0.041576 -0.010024 151089.000000 0 0 1
-30.250184 22.035632 16.931394 41.076938 -0.629563 1.145943 0.040385 -0.012087 854613.000000 0 0 1
-31.667334 21.805932 16.967294 42.026275 -0.603030 1.155205 0.046369 -0.005310 668071.000000 0 0 1
-31.959864 20.427332 16.858594 41.508083 -0.568714 1.152557 0.042210 -0.007231 25017.800000 0 0 1
-33.404184 20.198332 16.379594 42.333240 -0.543842 1.173507 0.047270 -0.012923 -476333.000000 0 0 1
-33.528874 20.222732 14.973594 41.920792 -0.542728 1.205541 0.048965 -0.011897 -113039.000000 0 0 1
-34.688350 19.605532 14.467494 42.390646 -0.514431 1.222508 0.045666 -0.011425 9192.510000 0 0 1
-34.869710 20.090832 13.026294 42.299202 -0.522712 1.257752 0.042512 -0.004094 -33198.200000 0 0 1
-34.974788 21.509532 12.987094 43.064607 -0.551377 1.264455 0.030615 -0.005462 71411.100000 0 0 1
-35.107403 22.135032 11.672594 43.113094 -0.562541 1.296631 0.021785 -0.001027 199942.000000 0 0 1
-33.901034 21.830232 10.715094 41.721126 -0.572103 1.311059 0.037825 -0.005847 169664.000000 0 0 1
-33.955104 20.599532 10.046194 40.966032 -0.545309 1.323037 0.045437 -0.005230 1476260.000000 0 0 1
-32.770874 20.362732 9.194294 39.662401 -0.555982 1.336854 0.066343 -0.005321 1320680.000000 0 0 1
-31.904154 19.168032 9.709094 38.464984 -0.541008 1.315622 0.063723 -0.012243 58164.400000 0 0 1
-31.410884 19.380132 11.029394 38.521172 -0.552817 1.280412 0.067861 -0.017301 342836.000000 0 0 1
-30.673584 18.299432 11.542794 37.536303 -0.537905 1.258221 0.062859 -0.016079 28852.700000 0 0 1
-30.262444 18.371632 13.060294 37.734648 -0.545607 1.217376 0.043692 -0.017548 817224.000000 0 0 1
-29.190454 19.253632 13.510294 37.487504 -0.583085 1.202105 0.049694 -0.009816 665400.000000 0 0 1
-29.345894 20.665232 13.277194 38.269011 -0.613536 1.216486 0.052140 -0.006076 -363512.000000 0 0 1
-28.071734 21.509332 13.387194 37.813894 -0.653806 1.208921 0.058865 -0.014113 -288645.000000 0 0 1
-27.716554 21.653432 14.781494 38.151947 -0.663200 1.172946 0.048443 -0.002684 -326738.000000 0 0 1
-26.523174 22.380032 14.891394 37.763715 -0.700879 1.165457 0.048311 -0.003215 -369991.000000 0 0 1
-25.964174 22.239032 16.364794 37.901442 -0.708272 1.124340 0.042808 -0.007851 -341856.000000 0 0 1
-25.450044 20.981932 16.686694 36.964739 -0.689464 1.102438 0.050759 -0.016980 12784.300000 0 0 1
-24.855554 20.990732 17.966194 37.164412 -0.701297 1.066234 0.049681 -0.009379 125648.000000 0 0 1
-24.134054 19.647032 18.370194 36.137549 -0.683267 1.037539 0.047873 -0.007404 245906.000000 0 0 1
-23.463454 19.756032 19.596094 36.398370 -0.699826 1.002285 0.050175 -0.007614 -420595.000000 0 0 1
-22.695954 18.645632 19.848094 35.450144 -0.687738 0.976546 0.043863 -0.003278 -283371.000000 0 0 1
-22.126054 18.474032 21.276194 35.826367 -0.695689 0.934936 0.036809 -0.001703 -15948.200000 0 0 1
-23.134654 18.127332 22.190094 36.826792 -0.664634 0.924100 0.027776 0.006516 -72710.000000 0 0 1
-22.823154 18.465832 23.526894 37.621776 -0.680255 0.895212 0.039511 -0.001340 -162590.000000 0 0 1
-23.494354 17.597232 24.580494 38.286393 -0.642860 0.873671 0.025927 0.003333 -280832.000000 0 0 1
-22.924654 16.291932 24.803494 37.499068 -0.617853 0.848055 0.030343 -0.000460 357139.000000 0 0 1
-23.696454 15.509332 25.732394 38.265094 -0.579532 0.833246 0.027016 0.000477 239531.000000 0 0 1
19.937946 25.207832 33.878201 46.697848 0.901603 0.759070 0.038076 -0.008892 -314089.000000 0 0 1
20.894046 24.457332 33.172065 46.207231 0.863808 0.770019 0.035188 -0.018069 -52996.400000 0 0 1
20.820846 23.096432 33.573192 45.761469 0.837167 0.747109 0.039681 -0.015132 306613.000000 0 0 1
19.748646 22.161832 32.886799 44.302341 0.842914 0.734261 0.027680 -0.011310 389342.000000 0 0 1
20.174646 21.608732 31.643658 43.304443 0.819707 0.751412 0.026291 -0.010366 394000.000000 0 0 1
19.236546 20.617932 31.190588 42.047552 0.820045 0.735056 0.038291 -0.002963 26915.200000 0 0 1
19.441746 20.088332 29.741038 40.817300 0.801754 0.754465 0.021263 0.007470 -268492.000000 0 0 1
20.629446 19.341132 29.653668 40.975523 0.753178 0.761659 0.031778 0.001080 -296524.000000 0 0 1
20.816446 18.640832 28.474588 39.894952 0.730315 0.775974 0.021117 -0.001188 560177.000000 0 0 1
22.011946 17.608832 28.551368 40.122031 0.674721 0.779005 0.034421 0.004184 1420110.000000 0 0 1
23.282346 18.250532 28.769568 41.265453 0.664833 0.799336 0.049354 -0.002215 671733.000000 0 0 1
24.233646 17.339532 29.309598 41.796908 0.621063 0.793663 0.045200 0.001738 1428220.000000 0 0 1
25.692046 17.924332 29.566648 43.076091 0.609154 0.814294 0.041674 -0.014013 1063440.000000 0 0 1
26.478246 17.960732 28.395538 42.778406 0.596027 0.844932 0.043929 -0.008428 -1102930.000000 0 0 1
27.627946 18.667932 28.653368 43.963742 0.594224 0.860907 0.047768 -0.018384 -1159790.000000 0 0 1
28.694146 18.338632 27.606108 43.837845 0.568679 0.889588 0.040529 -0.006080 -558931.000000 0 0 1
28.500646 18.887432 26.335288 43.157495 0.585253 0.914466 0.043685 -0.011566 50965.200000 0 0 1
29.625546 18.623932 25.524678 43.313197 0.561216 0.940598 0.042623 -0.006284 314689.000000 0 0 1
30.356846 19.881632 25.000848 44.066539 0.579834 0.967520 0.047788 -0.007329 -96704.600000 0 0 1
29.443846 20.533932 24.145398 43.261793 0.608974 0.978674 0.047760 -0.009832 27027.800000 0 0 1
29.939146 21.449832 23.219218 43.538258 0.621680 1.008292 0.024969 -0.009121 -326774.000000 0 0 1
30.555046 20.804532 21.965518 42.999109 0.597783 1.034639 0.018897 -0.005088 -184466.000000 0 0 1
29.604246 20.207232 21.091818 41.588561 0.598938 1.038917 0.040960 -0.003243 299849.000000 0 0 1
30.148946 19.734632 19.847518 41.138044 0.579582 1.067334 0.026904 -0.002680 -203777.000000 0 0 1
31.060246 18.493832 19.860318 41.245521 0.537044 1.068414 0.023335 -0.014707 -399257.000000 0 0 1
30.456546 17.244232 20.117218 40.369137 0.515189 1.049123 0.019093 -0.011484 212666.000000 0 0 1
31.335746 16.103832 20.063618 40.543941 0.474716 1.053121 0.017768 -0.006439 -102060.000000 0 0 1
30.557646 14.810932 20.432118 39.630858 0.451323 1.029134 0.012908 -0.007945 327973.000000 0 0 1
30.186446 14.494732 21.786218 39.949444 0.447661 0.993996 0.003697 -0.010394 533970.000000 0 0 1
29.215546 15.356732 22.405418 39.892106 0.483945 0.974417 0.011003 -0.002976 388766.000000 0 0 1
28.555246 14.689832 23.693318 39.906974 0.475129 0.935130 0.006657 -0.006432 267503.000000 0 0 1
28.009946 13.414932 23.429618 38.903271 0.446654 0.924476 0.005929 -0.007148 -266703.000000 0 0 1
27.308446 12.937032 24.528798 38.920175 0.442418 0.888942 0.004343 -0.000075 -164312.000000 0 0 1
26.800246 11.510432 24.218238 37.911295 0.405667 0.877842 0.021780 0.000466 883996.000000 0 0 1
25.620046 11.471232 23.374318 36.528546 0.420977 0.876439 0.026641 0.001776 812711.000000 0 0 1
25.551546 10.207832 22.804218 35.736728 0.380075 0.878746 0.038955 0.000082 -330837.000000 0 0 1
24.363946 9.952032 21.872118 34.220380 0.387790 0.877398 0.033759 -0.009467 671271.000000 0 0 1
23.103146 9.808832 22.571018 33.755287 0.401504 0.838383 0.033829 -0.006202 1346840.000000 0 0 1
22.080546 9.286132 21.704118 32.324163 0.398102 0.834630 0.030378 0.000961 498622.000000 0 0 1
20.654346 9.368732 22.289518 31.799336 0.425840 0.794078 0.023207 0.002004 -174243.000000 0 0 1
20.381446 8.673732 23.446618 32.254936 0.402353 0.756976 0.018358 0.002995 384519.000000 0 0 1
18.961346 8.675932 23.581718 31.478594 0.429122 0.724041 0.023341 0.003589 527221.000000 0 0 1
18.367746 7.998432 24.863928 31.930611 0.410698 0.678227 0.015345 0.010551 -259878.000000 0 0 1
18.117446 6.633232 24.668578 31.317413 0.350966 0.663737 0.010203 0.004612 187075.000000 0 0 1
17.704146 5.939432 25.843998 31.884571 0.323684 0.625708 0.006015 -0.000513 -233397.000000 0 0 1
18.112346 4.436632 25.867298 31.888210 0.240221 0.624617 0.000999 -0.001286 -673003.000000 0 0 1
19.486446 4.250532 25.866868 32.663182 0.214764 0.656837 0.011101 -0.000031 -731278.000000 0 0 1
19.795546 2.888232 25.620498 32.505622 0.144881 0.662939 0.015508 0.004552 15482.000000 0 0 1
21.263446 2.536032 25.276448 33.128001 0.118706 0.702865 0.042405 -0.003617 490091.000000 0 0 1
22.132146 2.991632 26.330258 34.526284 0.134357 0.703450 0.045848 -0.015236 81720.300000 0 0 1
23.499146 2.914632 26.009318 35.173706 0.123401 0.738538 0.064478 -0.023344 174364.000000 0 0 1
24.424846 3.229632 27.213658 36.709492 0.131465 0.735754 0.059029 -0.024464 -563385.000000 0 0 1
24.490546 2.259732 28.259378 37.463125 0.092009 0.716171 0.055120 -0.024661 99876.000000 0 0 1
25.302246 2.664632 29.351918 38.843777 0.104925 0.714165 0.058792 -0.012107 1617740.000000 0 0 1
26.877246 2.734132 29.136738 39.734259 0.101378 0.747648 0.068929 -0.019772 295043.000000 0 0 1
27.218346 3.919932 28.477448 39.587489 0.143035 0.767923 0.073607 -0.015699 353950.000000 0 0 1
28.626446 4.036132 28.293548 40.451065 0.140070 0.796167 0.056915 -0.007768 556488.000000 0 0 1
29.339946 3.104432 27.280338 40.183166 0.105417 0.824533 0.063278 -0.009831 -687233.000000 0 0 1
29.040346 3.412832 25.982628 39.116315 0.116984 0.844319 0.066752 -0.008531 -176958.000000 0 0 1
29.355846 2.397532 25.127658 38.715799 0.081491 0.864490 0.053313 0.006811 -98480.300000 0 0 1
28.964246 2.710132 23.657118 37.495755 0.093297 0.888048 0.079064 -0.010138 662451.000000 0 0 1
29.798346 3.732632 23.057518 37.861896 0.124614 0.916010 0.066655 -0.006183 -291448.000000 0 0 1
30.972946 3.258532 22.489818 38.415275 0.104820 0.945374 0.060009 -0.002144 -556286.000000 0 0 1
31.846646 4.250032 21.760118 38.804309 0.132669 0.975486 0.046491 -0.006880 -547664.000000 0 0 1
31.386546 4.599632 20.437818 37.735611 0.145512 0.998450 0.045562 -0.012367 -51647.400000 0 0 1
31.884846 5.846532 19.964618 38.071135 0.181349 1.018782 0.032734 -0.002342 -791396.000000 0 0 1
33.379646 6.030232 19.676318 39.213798 0.178728 1.045152 0.015752 -0.002078 -572707.000000 0 0 1
34.155646 6.107532 20.844718 40.477307 0.176945 1.029820 0.019804 0.002240 -172007.000000 0 0 1
34.062546 7.283132 21.563318 40.966789 0.210645 1.016481 0.021811 -0.000160 -704818.000000 0 0 1
34.762546 7.091032 22.940618 42.249134 0.201224 0.996809 0.018391 -0.004185 182434.000000 0 0 1
34.148446 6.054032 23.684418 41.996659 0.175463 0.971624 0.016570 -0.004569 404954.000000 0 0 1
34.802146 5.953632 24.978708 43.250098 0.169431 0.955083 0.028052 -0.006201 291478.000000 0 0 1
34.045746 4.975232 25.874838 43.050819 0.145107 0.926007 0.020845 -0.004708 -1390.720000 0 0 1
34.153846 3.633532 25.456948 42.752123 0.105989 0.932965 0.013673 -0.001519 131425.000000 0 0 1
33.447446 2.842732 26.424358 42.720715 0.084787 0.903916 0.027829 -0.000947 156277.000000 0 0 1
33.431546 1.313532 26.252318 42.527378 0.039270 0.905485 0.010809 0.006182 -56952.700000 0 0 1
32.697246 0.904432 25.125998 41.246136 0.027654 0.915780 0.016978 0.002864 -103061.000000 0 0 1
32.605446 -0.499468 25.034258 41.110567 -0.015317 0.916061 0.027383 -0.003537 -19246.600000 0 0 1
31.614846 -1.032068 23.932628 39.665279 -0.032633 0.923083 0.040116 0.003276 597900.000000 0 0 1
30.273046 -1.008968 24.398788 38.894424 -0.033317 0.892705 0.043727 -0.001772 -220630.000000 0 0 1
29.445146 -1.760568 23.545318 37.742526 -0.059720 0.897149 0.051400 -0.003152 737110.000000 0 0 1
27.913946 -1.630868 23.808898 36.724811 -0.058359 0.865440 0.060852 -0.007078 674074.000000 0 0 1
27.310146 -0.391268 23.502518 36.032840 -0.014326 0.860244 0.053179 -0.001355 462768.000000 0 0 1
25.882946 -0.492168 23.528718 34.982420 -0.019013 0.833097 0.058565 -0.006192 976021.000000 0 0 1
25.110346 0.852132 23.365118 34.310121 0.033922 0.821672 0.069314 -0.000422 131242.000000 0 0 1
24.957546 1.439332 22.097418 33.365352 0.057607 0.846930 0.068581 -0.008162 266604.000000 0 0 1
23.954346 2.446332 22.147918 32.715830 0.101772 0.827147 0.054254 -0.001391 75928.400000 0 0 1
23.912946 3.488332 21.019918 32.028650 0.144855 0.854912 0.041844 -0.005293 -113760.000000 0 0 1
23.527546 3.018032 19.712118 30.841880 0.127580 0.877424 0.041206 -0.006195 319981.000000 0 0 1
23.145346 4.064432 18.832118 30.114371 0.173832 0.895212 0.045830 -0.011819 -36631.700000 0 0 1
22.960746 3.604932 17.360318 29.009861 0.155733 0.929259 0.043967 -0.015384 935993.000000 0 0 1
24.232446 3.437332 16.685218 29.621330 0.140908 0.972441 0.052122 -0.018429 1008080.000000 0 0 1
24.166546 3.278932 15.249418 28.763138 0.134857 1.011993 0.040058 -0.025330 -630300.000000 0 0 1
23.709146 1.959032 14.618318 27.922333 0.082440 1.019802 0.034394 -0.012643 -1137110.000000 0 0 1
22.331946 1.890832 14.554118 26.722901 0.084468 0.994847 0.051212 -0.012170 -703463.000000 0 0 1
21.972546 0.807432 13.682018 25.896764 0.036731 1.014165 0.045049 -0.013997 -334535.000000 0 0 1
20.463746 0.438632 13.690718 24.625050 0.021431 0.981270 0.054986 -0.023252 111766.000000 0 1 0
19.569946 1.077832 12.785018 23.400881 0.055020 0.992799 0.065923 -0.021941 711459.000000 0 1 0
19.825646 0.773632 11.430318 22.897750 0.039002 1.048133 0.073820 -0.023711 -1057540.000000 0 1 0
19.531046 -0.676668 10.856318 22.355744 -0.034632 1.063728 0.069708 -0.024090 487245.000000 0 1 0
20.474346 -1.726568 11.225018 23.413264 -0.084129 1.070791 0.065131 -0.029285 638977.000000 0 1 0
21.718946 -1.592068 10.578818 24.210715 -0.073172 1.118594 0.069807 -0.022258 -420902.000000 0 1 0
22.821846 -2.453668 11.222318 25.549904 -0.107103 1.116053 0.057836 -0.022639 -198428.000000 0 0 1
23.201046 -1.978668 12.495918 26.426344 -0.085078 1.078264 0.048240 -0.028204 3183.150000 0 0 1
24.045646 -2.902768 13.129818 27.550160 -0.120138 1.074037 0.031230 -0.017422 -154558.000000 0 0 1
24.402346 -2.454568 14.576318 28.530133 -0.100250 1.034554 0.033389 -0.019866 -737238.000000 0 0 1
25.403646 -1.515168 14.701318 29.389960 -0.059573 1.046949 0.016321 -0.016176 -552224.000000 0 0 1
25.502746 -1.098368 16.026718 30.140540 -0.043042 1.010151 0.021711 -0.021412 -236093.000000 0 0 1
26.695046 -0.148968 16.230518 31.242238 -0.005580 1.024524 0.041271 -0.012717 60110.700000 0 0 1
27.916746 -0.861668 16.062118 32.219231 -0.030856 1.048899 0.052639 -0.011179 367400.000000 0 0 1
29.019046 0.032132 16.271918 33.269827 0.001107 1.059751 0.051335 -0.008227 -76810.800000 0 0 1
30.359646 -0.689568 16.125318 34.383274 -0.022709 1.082653 0.042530 -0.002801 -411542.000000 0 0 1
30.571246 -1.302968 14.852518 34.013176 -0.042595 1.118903 0.052741 -0.002796 -39308.500000 0 0 1
31.678146 -2.158268 14.985918 35.110409 -0.068026 1.129820 0.051787 -0.000346 -33678.900000 0 0 1
32.267546 -2.725868 13.657218 35.144623 -0.084277 1.171684 0.046096 0.001999 130199.000000 0 0 1
32.678346 -1.671868 12.756318 35.119697 -0.051117 1.199070 0.042930 0.003146 99905.700000 0 0 1
33.043946 -2.103468 11.466118 35.039961 -0.063571 1.237426 0.040430 -0.000434 -279400.000000 0 0 1
32.714746 -1.113068 10.415218 34.350696 -0.034010 1.262745 0.051984 -0.000492 -179882.000000 0 0 1
33.513546 0.057432 10.354018 35.076585 0.001714 1.271149 0.031720 0.004976 319824.000000 0 0 1
32.685746 1.070932 9.814918 34.144363 0.032753 1.279229 0.036362 0.002250 -23807.100000 0 0 1
33.447646 2.286832 9.335418 34.801217 0.068264 1.299221 0.036213 0.003052 -302208.000000 0 0 1
33.979746 2.108232 8.039818 34.981516 0.061964 1.338893 0.017655 0.004408 95186.300000 0 0 1
34.369146 3.388632 7.525018 35.346102 0.098278 1.356259 0.014216 0.002576 -77040.200000 0 0 1
34.451146 3.296832 5.984218 35.122094 0.095405 1.399578 0.018740 0.002336 -119725.000000 0 0 1
34.880346 4.554332 5.511118 35.605518 0.129836 1.415389 0.016104 0.011278 195407.000000 0 0 1
34.783346 4.554332 4.149018 35.324743 0.130194 1.453071 0.022350 -0.006406 -208687.000000 0 0 1
35.246046 5.894232 3.517018 35.908149 0.165698 1.472694 0.038340 -0.016530 184963.000000 0 0 1
34.245346 6.843032 3.787718 35.127164 0.197226 1.462758 0.028841 -0.014519 -169815.000000 0 0 1
34.672246 8.075932 3.338718 35.756571 0.228842 1.477287 0.027382 -0.024875 -1233600.000000 0 0 1
33.650346 9.240132 3.446918 35.065754 0.267987 1.472339 0.038186 -0.020053 445946.000000 0 0 1
32.528746 9.247932 2.576218 33.915785 0.276992 1.494764 0.045822 -0.026517 456492.000000 0 0 1
31.642046 8.161332 2.791718 32.796648 0.252425 1.485571 0.038815 -0.017526 -276058.000000 0 0 1
30.366546 8.028532 1.858918 31.464902 0.258473 1.511683 0.055723 -0.027163 881903.000000 0 0 1
30.692546 7.886632 0.513918 31.693777 0.251515 1.554581 0.061853 -0.031346 247754.000000 0 0 1
29.495146 7.695832 -0.197482 30.483249 0.255228 1.577275 0.058127 -0.024661 37254.800000 0 0 1
29.882646 7.424032 -1.710182 30.838507 0.243509 1.626281 0.048448 -0.020235 155255.000000 0 0 1
28.805646 7.018132 -2.537382 29.756642 0.238981 1.656171 0.047813 -0.013515 774293.000000 0 0 1
29.317746 6.707332 -3.825282 30.317509 0.224910 1.697308 0.053693 -0.015416 184745.000000 0 0 1
28.209546 6.053232 -4.697582 29.231616 0.211376 1.732198 0.043028 -0.009015 -47269.000000 0 0 1
28.251046 4.649232 -4.691982 29.012957 0.163107 1.733230 0.054821 -0.010183 479077.000000 0 0 1
27.175846 4.101232 -5.404782 28.009970 0.149784 1.764973 0.050638 -0.009492 -406779.000000 0 0 1
27.092346 2.541532 -5.366782 27.735482 0.093536 1.765523 0.057251 -0.000838 -421121.000000 0 0 1
26.841646 2.056432 -4.024582 27.219481 0.076464 1.719197 0.053155 -0.011054 535681.000000 0 0 1
26.586646 0.666332 -4.076282 26.905573 0.025057 1.722885 0.048782 -0.013824 -138591.000000 0 0 1
26.532046 0.226532 -2.615782 26.661641 0.008538 1.669065 0.054534 -0.013864 -773861.000000 0 0 1
27.745246 0.419632 -1.986782 27.819455 0.015123 1.642274 0.069921 -0.014694 -477569.000000 0 0 1
27.808346 -0.030768 -0.653382 27.816038 -0.001106 1.594288 0.078554 -0.012936 -235450.000000 0 0 1
29.087746 0.413932 0.112018 29.090907 0.014230 1.566946 0.085437 -0.014546 792249.000000 0 0 1
30.258846 -0.198768 -0.472082 30.263181 -0.006569 1.586396 0.072227 -0.013922 414386.000000 0 0 1
31.388846 0.370132 0.141818 31.391349 0.011791 1.566279 0.053774 -0.016739 -380538.000000 0 0 1
-3.505354 -21.341568 -8.825106 23.358778 1.408000 1.958223 0.008571 0.009477 191611.000000 0 1 0
-3.708354 -21.747168 -7.507406 23.303484 1.401900 1.898805 0.002228 -0.002441 -48476.100000 0 1 0
-2.808154 -22.817468 -7.162706 24.079596 1.448342 1.872827 -0.002856 -0.003618 386455.000000 0 1 0
-3.210854 -23.465368 -5.804606 24.384965 1.434807 1.811144 -0.004903 0.000008 -444885.000000 0 1 0
-2.938554 -22.709668 -4.639706 23.364310 1.442115 1.770706 -0.006850 -0.004752 -416979.000000 0 1 0
-3.333654 -23.413568 -3.528906 23.911537 1.429366 1.718919 -0.008221 -0.003789 -111991.000000 0 1 0
-3.036454 -22.761168 -2.175206 23.065609 1.438174 1.665242 -0.015207 -0.009269 -570976.000000 0 1 0
-1.688454 -22.888468 -1.891106 23.028442 1.497161 1.653009 0.002809 -0.010638 -1348000.000000 0 1 0
-1.464354 -22.755368 -0.486906 22.807634 1.506533 1.592146 -0.001316 -0.010682 939619.000000 0 1 0
0.038646 -22.594368 -0.071706 22.594515 -1.569086 1.573970 0.020530 -0.016158 931327.000000 0 1 0
0.732446 -21.496768 -0.661906 21.519424 -1.536737 1.601560 0.015471 -0.016234 -265693.000000 0 1 0
1.921446 -21.243768 0.071394 21.330605 -1.480594 1.567449 0.016581 -0.013987 23290.300000 0 1 0
2.814946 -20.161168 -0.526006 20.363529 -1.432071 1.596630 0.021230 -0.013191 -14699.700000 0 1 0
3.450546 -20.624268 -1.657906 20.976543 -1.405026 1.649915 0.015265 -0.010578 -483737.000000 0 1 0
4.367046 -19.745168 -2.285306 20.351053 -1.353130 1.683328 0.024263 -0.002223 163635.000000 0 1 0
5.192046 -20.440168 -3.414006 21.363830 -1.322045 1.731287 0.020556 0.006908 -657180.000000 0 1 0
6.104346 -21.357668 -2.884906 22.399458 -1.292403 1.699949 0.025831 -0.002611 -395698.000000 0 1 0
6.910446 -21.942668 -3.882806 23.330476 -1.265697 1.738001 0.017476 0.001843 387046.000000 0 1 0
8.179746 -21.265368 -4.439506 23.212784 -1.203591 1.763235 0.018329 0.005691 -380042.000000 0 1 0
7.842546 -20.220868 -5.251906 22.315276 -1.200813 1.808375 0.007556 0.011076 -158056.000000 0 1 0
9.005946 -19.645868 -5.815206 22.380434 -1.140967 1.833647 0.012842 0.010623 -346504.000000 0 1 0
8.737046 -18.414568 -6.759506 21.473780 -1.127786 1.891021 0.002352 0.014084 -1116460.000000 0 1 0
9.678546 -18.069768 -7.685706 21.892027 -1.079060 1.929513 0.009375 0.012855 -627484.000000 0 1 0
9.380746 -16.847868 -8.249406 20.973835 -1.062754 1.975035 0.007113 0.009516 -61503.900000 0 1 0
9.860846 -16.623768 -9.703006 21.627165 -1.035408 2.036049 0.004386 0.002077 -325571.000000 0 1 0
9.225846 -17.432968 -10.675906 22.427652 -1.084048 2.066915 0.000656 0.003235 -16997.400000 0 1 0
8.919446 -16.613468 -11.771506 22.229084 -1.078081 2.128871 -0.004427 -0.005162 43047.300000 0 1 0
8.265946 -17.300668 -13.012106 23.172265 -1.125081 2.167040 -0.007652 -0.004417 -298794.000000 0 1 0
7.025346 -17.903368 -12.771006 23.086461 -1.196856 2.156975 -0.013606 -0.000221 -198746.000000 0 1 0
6.586246 -18.461568 -14.000506 24.087804 -1.228117 2.191033 -0.011583 0.003767 255126.000000 0 1 0
5.329846 -19.375168 -13.801506 24.377981 -1.302350 2.172620 -0.006488 0.015267 13363.100000 0 1 0
5.524846 -20.551668 -13.059906 24.969103 -1.308178 2.121213 -0.000169 -0.000980 -808637.000000 0 1 0
4.339146 -21.258268 -13.039806 25.313607 -1.369447 2.111956 0.008338 0.003668 -731099.000000 0 0 1
4.575946 -22.714468 -12.653006 26.400472 -1.372002 2.070621 0.010285 -0.005252 -402913.000000 0 0 1
5.259946 -23.403968 -13.671106 27.609996 -1.349724 2.088804 0.013510 -0.011070 -68507.500000 0 0 1
4.705546 -24.695268 -13.927006 28.739518 -1.382509 2.076696 0.017270 -0.009911 732441.000000 0 0 1
3.206146 -24.875168 -14.307906 28.875068 -1.442614 2.089219 0.020604 -0.017030 463939.000000 0 0 1
2.214646 -24.592268 -13.311206 28.051248 -1.480984 2.065228 0.021361 -0.013547 -157553.000000 0 0 1
0.917746 -24.813468 -13.806706 28.410836 -1.533827 2.078265 0.019179 -0.022780 1204.510000 0 0 1
0.340346 -26.148098 -13.263506 29.321655 -1.557781 2.040189 0.013598 -0.018508 -651587.000000 0 0 1
0.968746 -27.249158 -13.888206 30.599630 -1.535260 2.041898 0.009244 -0.012553 53635.700000 0 0 1
0.529546 -28.513168 -13.424606 31.519854 -1.552226 2.010763 -0.001915 0.001926 574632.000000 0 0 1
-0.917354 -28.994678 -13.839106 32.141153 1.539168 2.015924 -0.001812 -0.005008 906839.000000 0 0 1
-1.927654 -28.254278 -13.191706 31.241658 1.502677 2.006719 -0.004336 -0.013123 -902660.000000 0 0 1
-3.180954 -28.619938 -13.668206 31.875369 1.460106 2.013962 -0.010434 0.002649 -260121.000000 0 0 1
-4.415454 -27.883528 -13.067406 31.108591 1.413747 2.004305 -0.014338 -0.005745 533647.000000 0 0 1
-4.819754 -28.209818 -11.731906 30.929945 1.401577 1.959842 -0.019398 -0.004056 109392.000000 0 0 1
-5.353254 -29.532558 -11.478206 32.133760 1.391477 1.936066 -0.010560 -0.008052 -385210.000000 0 0 1
-5.572854 -29.857378 -9.980706 31.970834 1.386270 1.888285 -0.006242 -0.010683 1061140.000000 0 0 1
-6.800754 -29.318878 -9.392206 31.528723 1.342869 1.873282 -0.002485 -0.003505 748698.000000 0 0 1
-6.944354 -27.910288 -9.285106 30.222862 1.326938 1.883068 -0.004820 -0.003467 -157105.000000 0 0 1
-8.415154 -27.527008 -8.766506 30.089909 1.274114 1.866428 -0.005241 -0.000573 1824000.000000 0 0 1
-9.446954 -27.677008 -9.738406 30.823664 1.241867 1.892243 -0.005803 -0.001771 82793.900000 0 0 1
-9.713754 -29.046608 -10.027106 32.227400 1.248068 1.887185 0.001407 -0.012502 -1280750.000000 0 0 1
-10.954554 -29.107508 -10.940406 32.968800 1.210844 1.909051 0.007257 -0.010460 -411018.000000 0 0 1
-10.729854 -28.673808 -12.271506 32.983433 1.212724 1.952014 0.012686 -0.019183 -366377.000000 0 0 1
-11.760254 -29.134758 -13.073606 34.030234 1.187147 1.965112 0.017609 -0.022125 -701350.000000 0 0 1
-11.907954 -28.309678 -14.391206 33.916722 1.172631 2.008996 0.023863 -0.019516 321938.000000 0 0 1
-12.901454 -27.246388 -14.444306 33.428298 1.128564 2.017614 0.022658 -0.030255 642384.000000 0 0 1
-12.886954 -26.266458 -13.415206 32.186459 1.114678 2.000715 0.030991 -0.020985 -305047.000000 0 0 1
-13.851854 -25.105158 -13.696106 31.776188 1.066608 2.016417 0.047089 -0.017268 -153103.000000 0 0 1
-13.474654 -24.323368 -14.833006 31.515244 1.064903 2.060836 0.039350 -0.013754 -142263.000000 0 0 1
-14.382554 -23.278468 -14.995806 31.202870 1.017357 2.072124 0.048781 -0.007923 -489897.000000 0 0 1
-14.303954 -22.613668 -16.339706 31.352305 1.006796 2.119011 0.037929 -0.004707 8238.330000 0 0 1
-13.104654 -21.869468 -16.445606 30.339142 1.030950 2.143682 0.031961 -0.001784 322683.000000 0 0 1
-12.966354 -21.160368 -17.666106 30.462744 1.021043 2.189433 0.014607 0.007415 -293928.000000 0 0 1
-13.241154 -19.658968 -17.640106 29.546176 0.978049 2.210597 0.020042 0.014660 -756621.000000 0 0 1
-12.241954 -18.875768 -17.112306 28.266430 0.995438 2.221056 0.027588 0.017277 -394814.000000 0 0 1
-12.406754 -17.547468 -17.595306 27.774736 0.955361 2.256865 0.028312 0.018805 753157.000000 0 0 1
-11.058854 -16.772568 -17.849106 26.873925 0.987882 2.297192 0.042364 0.006643 812689.000000 0 0 1
-10.412254 -16.309168 -16.653906 25.529523 1.002598 2.281463 0.039949 0.010708 986423.000000 0 0 1
-9.114454 -15.749268 -16.915406 24.844389 1.046169 2.319725 0.038604 0.007435 589305.000000 0 1 0
-8.367854 -15.019168 -15.751006 23.317173 1.062484 2.312454 0.024648 0.005871 245315.000000 0 1 0
-8.019254 -15.864568 -14.647106 23.033251 1.102773 2.259985 0.029087 0.008141 1196580.000000 0 1 0
-6.884654 -16.783068 -14.903706 23.477442 1.181516 2.258558 0.034956 0.013321 726089.000000 0 1 0
-6.374054 -17.481968 -13.654306 23.080031 1.221168 2.203847 0.021649 0.006785 -706059.000000 0 1 0
-5.754854 -16.740668 -12.646106 21.755282 1.239687 2.191108 0.018130 0.003382 141735.000000 0 1 0
-5.409354 -17.463768 -11.503906 21.600559 1.270421 2.132436 0.004687 -0.001026 305355.000000 0 1 0
-4.289554 -18.572368 -11.564006 22.294828 1.343812 2.116109 0.012289 -0.000852 988922.000000 0 1 0
-2.975854 -18.062668 -11.805806 21.782854 1.407512 2.143584 0.022377 0.007211 488783.000000 0 1 0
-1.904154 -18.986368 -11.635906 22.349548 1.470840 2.118388 0.003573 0.005802 18025.500000 0 1 0
-0.602454 -18.467968 -12.191706 22.137445 1.538186 2.154032 0.008039 0.009514 -1376350.000000 0 1 0
-0.544154 -18.194968 -13.590006 22.716541 1.540898 2.212103 0.010948 0.006623 400492.000000 0 1 0
0.667646 -17.579168 -14.085206 22.535881 -1.532835 2.245944 0.015121 0.006403 1707100.000000 0 1 0
1.949746 -18.507468 -14.098806 23.347467 -1.465834 2.219142 0.019508 0.004533 -140282.000000 0 1 0
1.954146 -19.523968 -15.072806 24.742544 -1.471039 2.225830 0.029584 0.001561 -79863.900000 0 1 0
1.140946 -20.630568 -14.769106 25.397807 -1.515549 2.191381 0.012967 0.000516 -747212.000000 0 0 1
0.944746 -21.652068 -15.949306 26.908827 -1.527191 2.205224 0.017092 -0.006166 82243.700000 0 0 1
2.061946 -22.455068 -16.285506 27.815453 -1.479228 2.196273 0.016918 -0.006030 298512.000000 0 0 1
3.110746 -21.762868 -16.945906 27.757213 -1.428820 2.227494 0.019668 -0.008907 -67165.700000 0 0 1
4.447646 -22.486468 -17.151206 28.628424 -1.375525 2.213169 0.023277 -0.013484 57158.600000 0 0 1
4.317546 -23.531668 -18.075806 29.985252 -1.389336 2.217831 0.029963 -0.018378 302304.000000 0 0 1
5.620346 -23.964568 -18.419406 30.743509 -1.340432 2.213212 0.038930 -0.018918 274254.000000 0 0 1
6.081046 -23.794068 -19.909406 31.615206 -1.320582 2.252017 0.041085 -0.017870 -185351.000000 0 0 1
6.371346 -22.501068 -20.262706 30.943002 -1.294862 2.284767 0.044205 -0.024426 236618.000000 0 0 1
6.906546 -22.386768 -21.589106 31.858394 -1.271550 2.315370 0.034146 -0.022404 -11792.000000 0 0 1
7.234346 -20.909868 -21.890806 31.125002 -1.237709 2.350852 0.026133 -0.023888 -581831.000000 0 0 1
6.103046 -20.175468 -22.215006 30.623572 -1.277049 2.382443 0.035578 -0.021346 -690606.000000 0 0 1
6.269946 -18.793168 -22.533706 30.004388 -1.248780 2.420392 0.034386 -0.019156 -324966.000000 0 0 1
4.955346 -18.000668 -22.674906 29.372281 -1.302163 2.452752 0.027204 -0.014758 -935068.000000 0 0 1
4.284846 -18.473968 -23.813306 30.442092 -1.342886 2.469065 0.030918 -0.012132 -563983.000000 0 0 1
3.257046 -17.694968 -24.319606 30.251669 -1.388768 2.504636 0.038648 -0.004402 1205320.000000 0 0 1
1.914346 -17.584468 -23.433606 29.360043 -1.462358 2.495008 0.033084 0.002092 822146.000000 0 0 1
2.077746 -16.876068 -22.194106 27.958845 -1.448295 2.487850 0.033184 0.000234 -309257.000000 0 0 1
1.174946 -15.782368 -22.216006 27.276630 -1.496487 2.522612 0.025096 -0.006263 224064.000000 0 0 1
1.223346 -14.788268 -21.022306 25.731825 -1.488260 2.526945 0.024986 -0.010131 -657987.000000 0 0 1
2.331746 -13.978568 -20.962506 25.303440 -1.405509 2.547122 0.031391 -0.003778 -915964.000000 0 0 1
2.323346 -13.366168 -19.690206 23.911432 -1.398693 2.538286 0.032288 -0.009498 420128.000000 0 1 0
3.474546 -12.338768 -19.451906 23.295800 -1.296308 2.558922 0.039361 -0.013518 -498179.000000 0 1 0
4.725646 -12.904468 -19.240506 23.644325 -1.219761 2.521367 0.035545 -0.016211 -711350.000000 0 1 0
5.793446 -12.015968 -19.462906 23.595597 -1.121534 2.540739 0.035875 -0.007929 321893.000000 0 1 0
6.196346 -10.932668 -18.402006 22.283441 -1.055166 2.542443 0.036203 -0.012177 -572449.000000 0 1 0
5.322946 -9.844368 -18.387206 21.525210 -1.075114 2.594840 0.021964 -0.001989 -24730.600000 0 1 0
5.684946 -8.784468 -19.293706 21.948407 -0.996421 2.644658 0.032490 -0.004584 -289953.000000 0 1 0
5.054446 -8.870068 -20.688506 23.070323 -1.052855 2.683185 0.044741 -0.015541 -44731.400000 0 1 0
3.654246 -8.682868 -20.601606 22.653297 -1.172440 2.712710 0.040455 -0.016763 78613.100000 0 1 0
3.052346 -9.113868 -21.840506 23.861834 -1.247625 2.727024 0.043143 -0.020754 -125774.000000 0 1 0
1.529246 -9.008568 -21.883406 23.714475 -1.402645 2.746048 0.040049 -0.018986 -165574.000000 0 1 0
1.056846 -7.652968 -21.983606 23.301583 -1.433568 2.803649 0.031147 -0.014810 -38422.000000 0 1 0
-0.354054 -7.540868 -21.953006 23.214748 1.523879 2.810381 0.025861 -0.015366 255281.000000 0 1 0
-0.851054 -6.448368 -22.870206 23.777133 1.439575 2.864509 0.036391 -0.015946 -14418.100000 0 1 0
-0.438854 -6.877568 -24.185806 25.148494 1.507073 2.864007 0.032296 -0.010463 -178367.000000 0 0 1
-1.054854 -6.212568 -25.285056 26.058449 1.402607 2.897350 0.032697 -0.012174 -17827.600000 0 0 1
-0.618854 -4.750568 -25.633856 26.077681 1.441256 2.956834 0.040786 -0.015617 -223388.000000 0 0 1
-1.133954 -4.158068 -26.812316 27.156503 1.304559 2.982212 0.028378 -0.015860 -277813.000000 0 0 1
-0.587854 -2.927468 -27.220936 27.384211 1.372626 3.032338 0.019785 -0.013230 -935247.000000 0 0 1
-1.060954 -1.736068 -26.378266 26.456615 1.022237 3.064614 0.029605 -0.016616 62228.500000 0 0 1
-2.460154 -1.622568 -26.294686 26.459320 0.583052 3.029981 0.026906 -0.016801 -268780.000000 0 0 1
-3.200754 -1.191568 -27.405236 27.617234 0.356382 3.017608 0.033091 -0.013290 336537.000000 0 0 1
-4.728354 -1.195068 -27.039996 27.476297 0.247561 2.963147 0.036585 -0.019178 854339.000000 0 0 1
-5.311854 -0.083668 -26.369366 26.899187 0.015750 2.942789 0.036770 -0.016654 349611.000000 0 0 1
-6.711454 -0.283468 -26.227616 27.074191 0.042211 2.890862 0.044397 -0.024693 348364.000000 0 0 1
-7.492454 0.920332 -25.639806 26.727954 -0.122222 2.855267 0.050181 -0.017937 -713431.000000 0 0 1
-7.639254 2.138732 -26.443836 27.608130 -0.272977 2.850141 0.048330 -0.017299 558893.000000 0 0 1
-8.602154 2.180032 -27.520006 28.915399 -0.248203 2.829660 0.048833 -0.019643 366435.000000 0 0 1
-10.051254 1.919332 -27.089186 28.957478 -0.188683 2.780416 0.047320 -0.017794 -679563.000000 0 0 1
-11.125754 2.328132 -27.901006 30.127541 -0.206280 2.754728 0.050912 -0.026611 -384962.000000 0 0 1
-12.366254 1.910332 -27.459496 30.176108 -0.153268 2.714019 0.025511 -0.015250 36789.500000 0 0 1
-13.554154 2.506532 -28.330836 31.506095 -0.182861 2.688774 0.013928 -0.006385 -15567.800000 0 0 1
-14.805254 2.286132 -27.702996 31.494093 -0.153204 2.645870 0.020406 -0.007200 -381374.000000 0 0 1
-15.841054 2.711632 -28.525376 32.741243 -0.169534 2.628513 0.019589 -0.006703 -313503.000000 0 0 1
-16.251654 4.134532 -28.128246 32.747654 -0.249122 2.603991 0.008972 0.001661 -714696.000000 0 0 1
-15.296654 5.116132 -28.548686 32.790088 -0.322765 2.627318 0.027529 0.000603 129512.000000 0 0 1
-15.300754 5.693732 -29.844336 34.017878 -0.356244 2.641031 0.010968 0.003891 -611120.000000 0 0 1
-16.572954 6.297932 -30.464846 35.248171 -0.363158 2.614545 -0.006915 0.013521 -144421.000000 0 0 1
-17.224754 7.270332 -29.649136 35.051692 -0.399400 2.578988 -0.006487 0.013461 1136170.000000 0 0 1
-18.163254 8.055032 -30.489516 36.392278 -0.417418 2.564041 -0.010720 0.011226 415236.000000 0 0 1
-18.838854 9.154532 -29.661066 36.310972 -0.452336 2.526747 0.004012 0.011240 -504098.000000 0 0 1
-17.950154 10.104932 -29.102886 35.655233 -0.512727 2.525652 -0.001306 0.013967 216998.000000 0 0 1
-18.618854 11.117032 -28.385496 35.720953 -0.538273 2.489220 0.029511 0.005146 -301652.000000 0 0 1
-8.199154 24.872932 31.106638 40.663396 -1.252372 0.699788 0.007375 -0.001851 -428954.000000 0 0 1
-9.208054 25.852032 31.108968 41.483536 -1.228624 0.722868 0.008019 -0.004706 9084.910000 0 0 1
-8.904354 26.952332 32.011838 42.784033 -1.251711 0.725422 0.010814 -0.001523 329944.000000 0 0 1
-7.691554 27.861232 31.621488 42.840714 -1.301439 0.740520 0.009839 -0.004416 284891.000000 0 0 1
-7.756454 28.761432 30.487288 42.624609 -1.307380 0.773813 0.013331 0.004008 -572851.000000 0 0 1
-6.451054 29.146032 30.218308 42.476504 -1.352972 0.779291 0.012624 0.002847 -662743.000000 0 0 1
-6.230254 30.341632 29.316028 42.648097 -1.368275 0.812902 0.025230 -0.002860 -290654.000000 0 0 1
-6.526854 31.612232 29.852028 43.966767 -1.367191 0.824440 0.021474 -0.001778 387330.000000 0 0 1
-5.987254 32.637832 29.044108 44.098022 -1.389368 0.851805 0.027095 0.002591 -28350.000000 0 0 1
-6.277754 33.969732 29.842128 45.649814 -1.388054 0.858308 0.028959 -0.004528 -2231.660000 0 0 1
-5.548454 34.032732 31.107078 46.439881 -1.409185 0.836809 0.051310 -0.013304 192971.000000 0 0 1
-6.063454 -34.184293 32.082858 47.271991 1.395247 0.824824 0.047849 -0.015638 -27514.400000 0 0 1
-7.260654 34.328632 32.938358 48.125955 -1.362364 0.816989 0.008329 -0.008470 51345.000000 0 0 1
-7.010754 33.304632 33.947986 48.070937 -1.363322 0.786671 0.015984 -0.006761 59891.000000 0 0 1
-6.747554 32.017832 33.341905 46.715669 -1.363092 0.776001 0.022726 0.000837 -331267.000000 0 0 1
-6.675254 30.984032 -34.417202 46.787958 -1.358598 2.397348 0.022111 -0.003250 -11296.500000 0 0 1
-5.499254 31.035832 -33.636186 46.096178 -1.395426 2.388673 0.029918 -0.005457 -34918.300000 0 0 1
-5.738954 30.528332 -32.356226 44.853540 -1.384977 2.376582 0.027225 -0.007846 -468609.000000 0 0 1
-4.420054 30.330932 -31.573036 44.004078 -1.426087 2.371006 0.035537 -0.009063 603325.000000 0 0 1
-3.637754 29.182132 -31.929046 43.408456 -1.446779 2.397273 0.038343 -0.005397 368738.000000 0 0 1
-2.954954 29.243232 -33.183186 44.328571 -1.470091 2.416704 0.041784 -0.015658 -785401.000000 0 0 1
-2.410254 27.888432 -33.529766 43.678589 -1.484586 2.445959 0.036604 -0.007903 -24277.600000 0 0 1
-1.347354 27.403232 -32.647336 42.645059 -1.521668 2.442707 0.052628 -0.008374 1064170.000000 0 0 1
-0.908154 26.083932 -32.986866 42.063400 -1.535994 2.472231 0.058201 -0.007517 173656.000000 0 0 1
-0.222654 25.868032 -34.373457 43.020219 -1.562189 2.496438 0.047327 0.001412 -745149.000000 0 0 1
-1.073654 25.523432 33.422550 42.067389 -1.528756 0.652612 0.047087 0.002906 -140557.000000 0 0 1
-0.504454 25.312732 32.132708 40.908432 -1.550870 0.667327 0.045157 0.006888 -128378.000000 0 0 1
-0.057954 26.647232 31.423898 41.201210 -1.568621 0.703329 0.039118 0.001133 -780042.000000 0 0 1
-1.223554 27.346232 31.159818 41.475870 -1.526083 0.720803 0.045630 -0.002690 -488359.000000 0 0 1
-0.952054 28.544132 30.582848 41.844767 -1.537455 0.751209 0.045029 -0.008393 510149.000000 0 0 1
-2.142554 29.588532 30.539918 42.576500 -1.498511 0.770884 0.048740 -0.010717 603624.000000 0 0 1
-2.277854 30.137132 31.813948 43.881233 -1.495357 0.759760 0.055228 -0.013282 -74603.100000 0 0 1
-3.200054 31.187732 31.821808 44.671495 -1.468548 0.777953 0.052856 -0.013077 -326500.000000 0 0 1
-2.887154 32.082932 33.040559 46.144650 -1.481048 0.772710 0.058076 -0.010593 299613.000000 0 0 1
-1.513754 32.430632 32.982701 46.280621 -1.524154 0.777503 0.056598 -0.026913 109204.000000 0 0 1
-0.990254 33.049532 34.139147 47.526135 -1.540843 0.769407 0.045246 -0.018739 1141260.000000 0 0 1
0.510846 33.527332 33.982623 47.740566 1.555561 0.778712 0.048193 -0.025900 1060030.000000 0 0 1
0.677546 -34.311193 33.235817 47.773807 -1.551052 0.801415 0.059340 -0.025931 831208.000000 0 0 1
2.064946 -33.963393 33.129652 47.490525 -1.510072 0.798746 0.036998 -0.022138 633305.000000 0 0 1
2.188446 -32.519493 32.656898 46.138701 -1.503601 0.784420 0.039473 -0.023333 -84058.100000 0 0 1
1.791546 -31.496693 33.611379 46.097463 -1.513977 0.753736 0.031704 -0.010176 315705.000000 0 0 1
1.649846 -30.223593 33.022060 44.795581 -1.516262 0.741920 0.021039 0.000071 -90942.900000 0 0 1
1.270946 -29.122593 34.038257 44.814548 -1.527183 0.708197 0.018372 0.005120 785204.000000 0 0 1
-0.077254 -29.169493 -34.333194 45.051454 1.568148 2.437329 0.015748 0.007651 759945.000000 0 0 1
-0.286754 -28.328893 -33.192306 43.638717 1.560674 2.435058 0.007228 0.013547 1645070.000000 0 0 1
-1.739454 -27.643593 -33.092386 43.154374 1.507955 2.444695 0.009917 0.023810 1610500.000000 0 0 1
-1.918554 -27.011093 -31.819386 41.782213 1.499887 2.436503 0.016020 0.015331 -227629.000000 0 0 1
-3.045454 -26.187093 -31.817676 41.320735 1.455020 2.449664 0.020323 -0.002570 -581058.000000 0 0 1
-3.549254 -25.964893 -30.418566 40.150492 1.434944 2.430446 0.012081 -0.007686 -692943.000000 0 0 1
-3.827754 -27.197593 -29.731826 40.476441 1.430976 2.395794 0.006372 -0.007743 64337.700000 0 0 1
-4.183554 -27.062393 -28.374296 39.433183 1.417421 2.373956 0.009773 -0.017041 -282521.000000 0 0 1
-3.091054 -26.692693 -27.350486 38.341930 1.455508 2.365036 0.005061 -0.025760 -199646.000000 0 0 1
-2.825454 -25.305193 -27.336186 37.357771 1.459602 2.391668 0.005239 -0.012598 733239.000000 0 0 1
-1.710454 -24.885893 -26.526756 36.412939 1.502172 2.386923 0.009041 -0.013564 -377318.000000 0 0 1
-0.956754 -23.602493 -27.123186 35.967489 1.530282 2.425083 0.013958 -0.012900 499506.000000 0 0 1
-0.216254 -23.781893 -28.322146 36.983363 1.561703 2.443093 0.000735 -0.015304 180806.000000 0 0 1
0.894046 -24.648193 -28.116626 37.401570 -1.534540 2.421508 0.011003 -0.014072 -676869.000000 0 0 1
1.809046 -24.813393 -29.332646 38.462725 -1.498019 2.438158 -0.013558 -0.010911 -218142.000000 0 0 1
2.506646 -23.681793 -29.771546 38.124212 -1.465342 2.466916 -0.011624 -0.011920 194207.000000 0 0 1
3.321346 -24.077693 -30.888426 39.304726 -1.433719 2.474899 -0.005244 -0.003245 -520651.000000 0 0 1
4.280546 -22.937493 -31.312746 39.050477 -1.386301 2.501186 0.003880 -0.008125 -639211.000000 0 0 1
5.447546 -22.769493 -30.549636 38.489035 -1.335963 2.487702 0.004867 -0.013728 755428.000000 0 0 1
6.500546 -23.752393 -30.603266 39.280952 -1.303658 2.464004 0.007313 -0.006541 1283.160000 0 0 1
7.174346 -24.077193 -31.940086 40.636825 -1.281200 2.475090 0.003102 0.000345 -780696.000000 0 0 1
6.407746 -25.050993 -32.605956 41.614419 -1.320377 2.471116 -0.008600 0.007326 69348.000000 0 0 1
6.695546 -25.193893 -34.037206 42.872998 -1.311040 2.488005 0.001392 0.010478 -64665.200000 0 0 1
6.291446 -23.994593 33.900315 42.006597 -1.314366 0.631702 0.003218 0.007473 1861380.000000 0 0 1
4.905746 -23.536393 34.111253 41.732550 -1.365306 0.613952 0.001823 0.004734 1698950.000000 0 0 1
4.489346 -22.500593 33.243176 40.392322 -1.373861 0.604111 0.014415 -0.003256 -312585.000000 0 0 1
3.100146 -21.887093 33.545551 40.174118 -1.430090 0.582656 0.009335 -0.008425 136036.000000 0 0 1
1.947746 -22.660293 33.404103 40.411839 -1.485053 0.597771 0.014081 -0.000062 -244616.000000 0 0 1
1.781046 -23.742093 34.296296 41.750390 -1.495920 0.606829 0.008701 0.002121 -367815.000000 0 0 1
0.501346 -24.610393 34.083186 42.042673 -1.550428 0.625482 0.017819 0.004483 446019.000000 0 0 1
0.536146 -25.398393 32.932836 41.592518 -1.549690 0.657051 0.025076 -0.000464 362630.000000 0 0 1
-0.770754 -25.748093 32.478608 41.453810 1.540871 0.670535 0.034671 -0.018641 244963.000000 0 0 1
-0.783454 -26.833193 31.381178 41.296639 1.541607 0.707642 0.040640 -0.021560 -278279.000000 0 0 1
-2.022554 -27.008593 30.743798 40.972380 1.496050 0.722199 0.041960 -0.030565 -61874.100000 0 0 1
-2.109354 -28.168693 29.953448 41.172002 1.496053 0.756096 0.042207 -0.032683 -771494.000000 0 0 1
-3.381554 -28.305293 29.135028 40.761187 1.451893 0.774496 0.041532 -0.025231 -976200.000000 0 0 1
-4.414654 -28.750493 29.952408 41.751967 1.418436 0.770749 0.041047 -0.021337 33178.500000 0 0 1
-5.577654 -29.092093 29.181578 41.581542 1.381371 0.792887 0.011952 -0.015764 20253.600000 0 0 1
-6.755654 -29.504193 30.064568 42.661628 1.345704 0.788766 0.002320 -0.008477 -1152170.000000 0 0 1
-7.828354 -30.016093 29.339818 42.697470 1.315674 0.813229 0.013530 -0.009624 -34918.600000 0 0 1
-8.959354 -30.305193 30.161638 43.685228 1.283347 0.808712 0.012880 -0.005220 -2137.710000 0 0 1
-8.860354 -31.602793 31.054948 45.184646 1.297448 0.813045 -0.012752 0.003200 -651775.000000 0 0 1
-8.813454 -32.831193 30.404878 45.607245 1.308532 0.841067 -0.002057 0.000954 360316.000000 0 0 1
-10.078654 -33.201693 29.891548 45.797777 1.276078 0.859673 0.003758 0.000460 -116431.000000 0 0 1
-9.988454 34.401132 29.409528 46.347896 -1.288214 0.883385 0.012487 0.002787 -563172.000000 0 0 1
-10.114954 33.428332 30.442918 46.330734 -1.276969 0.853860 0.005074 0.009093 357963.000000 0 0 1
-9.804154 32.129232 29.995678 45.034983 -1.274624 0.841892 0.009260 0.005146 -227191.000000 0 0 1
-10.365454 31.101632 31.001858 45.120609 -1.249097 0.813322 0.012513 0.012829 -51130.000000 0 0 1
-11.772054 31.000432 31.046338 45.425578 -1.207878 0.818311 0.000922 0.018645 -104642.000000 0 0 1
-12.267154 29.800332 31.562538 45.108055 -1.180292 0.795805 0.008051 0.013461 -69006.700000 0 0 1
-12.174254 29.619132 33.109264 46.062228 -1.180820 0.768730 0.008703 0.004434 -251370.000000 0 0 1
-13.146854 30.393932 33.798836 47.317990 -1.162549 0.775185 0.008362 0.017895 417519.000000 0 0 1
-13.202454 30.022232 -33.708826 47.031098 -1.156494 2.369905 0.006729 0.013408 -318626.000000 0 0 1
-14.593754 30.222232 -33.096036 47.135003 -1.120937 2.349215 0.003732 0.016456 -360585.000000 0 0 1
-14.710254 29.739932 -31.771026 45.937492 -1.111454 2.334518 0.000462 0.007842 -326490.000000 0 0 1
-15.901354 30.214132 -31.204616 46.254458 -1.086340 2.311259 0.004417 0.009667 -234899.000000 0 0 1
-16.035554 29.636832 -29.779456 44.969954 -1.074836 2.294558 0.017115 -0.002621 -210386.000000 0 0 1
-16.174254 28.247932 -29.630866 44.017501 -1.050781 2.309271 0.013717 -0.008314 107873.000000 0 0 1
-16.108354 27.901832 -28.249146 42.848635 -1.047218 2.290654 0.012559 -0.009606 -185830.000000 0 0 1
-16.686954 26.512132 -27.941216 41.976888 -1.009033 2.299138 -0.001791 -0.015401 -239862.000000 0 0 1
-18.089754 26.465532 -27.970126 42.543995 -0.971216 2.288213 0.002701 -0.013838 -340660.000000 0 0 1
-18.582654 25.157332 -27.746326 41.809867 -0.934594 2.296459 -0.005980 -0.012267 -50060.100000 0 0 1
-20.065754 24.950632 -28.087936 42.592261 -0.893489 2.290898 0.022493 -0.014535 -405384.000000 0 0 1
-20.971954 25.481232 -27.159076 42.740279 -0.882166 2.259380 0.023215 -0.015283 213495.000000 0 0 1
-22.284354 25.132132 -27.572916 43.456670 -0.845385 2.258148 0.041797 -0.021217 283540.000000 0 0 1
-23.473454 25.243332 -26.602706 43.542311 -0.821712 2.228072 0.059044 -0.021551 -41157.100000 0 0 1
-23.815754 26.547932 -26.383996 44.363251 -0.839594 2.207722 0.034870 -0.004899 -149559.000000 0 0 1
-24.923554 26.722732 -25.513796 44.567272 -0.820221 2.180322 0.032650 0.005499 190315.000000 0 0 1
-24.791854 26.377032 -24.004906 43.435232 -0.816368 2.156349 0.015384 0.011184 -1015450.000000 0 0 1
-24.505554 24.966532 -23.742206 42.279336 -0.794716 2.167061 0.015593 0.005914 -227976.000000 0 0 1
-25.629074 24.169132 -23.453006 42.320679 -0.756089 2.158166 0.019713 0.006550 -296565.000000 0 0 1
-26.223244 24.224632 -21.990206 41.929232 -0.745802 2.122877 0.001478 0.011836 413933.000000 0 0 1
-25.441614 23.656432 -20.898506 40.541954 -0.749055 2.112362 -0.005387 0.007057 -122474.000000 0 0 1
-24.380954 24.458132 -20.531706 40.176885 -0.786978 2.107182 -0.002543 0.015794 -667972.000000 0 0 1
-23.513954 24.011432 -19.338106 38.773925 -0.795865 2.092941 -0.001527 0.005400 -556392.000000 0 0 1
-24.174954 24.149732 -18.096306 38.666707 -0.784876 2.057831 -0.002677 -0.001839 302317.000000 0 0 1
-23.359854 23.853332 -16.948406 37.442124 -0.795850 2.040538 -0.001319 -0.004180 102133.000000 0 0 1
-24.135054 24.066632 -15.638006 37.500011 -0.783979 2.000953 -0.007022 -0.000658 -384553.000000 0 0 1
-24.521854 25.405332 -15.320806 38.489990 -0.803092 1.980183 0.000486 -0.006517 76578.900000 0 0 1
-25.102054 25.399832 -14.008006 38.359990 -0.791294 1.944614 -0.018234 -0.006327 94486.900000 0 0 1
-25.201714 26.767232 -13.351306 39.113533 -0.815513 1.919146 -0.015202 -0.009225 -712448.000000 0 0 1
-23.934354 27.268432 -13.105706 38.576939 -0.850422 1.917425 -0.002837 -0.008976 -697630.000000 0 0 1
-24.002154 28.409232 -12.361706 39.191831 -0.869287 1.891691 0.005510 -0.005916 844255.000000 0 0 1
-22.529554 28.848632 -12.027706 38.529081 -0.907775 1.888275 0.021009 -0.015358 1040390.000000 0 0 1
-21.794554 27.852132 -11.274406 37.119484 -0.906812 1.879404 0.011966 -0.018449 -88288.600000 0 0 1
-20.671754 28.382432 -10.625206 36.684859 -0.941309 1.864641 0.017421 -0.017857 -948639.000000 0 0 1
-19.871054 27.280932 -10.018206 35.206143 -0.941272 1.859342 0.043363 -0.015783 -674211.000000 0 0 1
-19.263954 26.553232 -11.063106 34.620317 -0.943171 1.896056 0.038620 -0.019376 -3855.830000 0 0 1
-18.607554 25.397632 -10.501506 33.189794 -0.938493 1.892737 0.037837 -0.007578 -72630.000000 0 0 1
-17.939054 24.545032 -11.602406 32.540499 -0.939656 1.935372 0.033964 -0.009681 -314252.000000 0 0 1
-17.504354 23.312832 -11.051406 31.177301 -0.926754 1.933143 0.013890 -0.008423 -12508.800000 0 0 1
-17.154454 22.317832 -12.035406 30.613917 -0.915470 1.974835 0.037121 -0.000295 66245.900000 0 0 1
-16.800954 20.938632 -11.476606 29.196076 -0.894600 1.974783 0.023746 0.008241 530751.000000 0 0 1
-17.930554 20.107032 -11.231006 29.187891 -0.842555 1.965769 0.011804 0.016497 311514.000000 0 0 1
-17.423354 18.896132 -10.766106 27.866577 -0.825927 1.967462 0.031593 0.007441 -509578.000000 0 0 1
-18.506654 17.830432 -10.462406 27.746756 -0.766791 1.957425 0.016565 0.018890 431916.000000 0 0 1
-19.190654 17.276332 -11.614106 28.313253 -0.732952 1.993470 0.008572 0.021197 331665.000000 0 0 1
-20.027854 18.144432 -12.341406 29.709353 -0.736098 1.999184 0.008736 0.019156 -848503.000000 0 0 1
-20.659954 17.569632 -13.600206 30.339599 -0.704738 2.035621 0.022140 0.006431 -45611.800000 0 0 1
-19.663554 17.273632 -14.554906 29.947938 -0.720786 2.078311 0.038778 0.000408 327491.000000 0 0 1
-20.291554 17.130532 -15.850406 30.926326 -0.701129 2.108915 0.047450 -0.001054 683309.000000 0 0 1
-19.317554 16.786532 -17.062106 30.758267 -0.715409 2.158818 0.060874 -0.004662 -17514.800000 0 0 1
-18.552454 17.920732 -17.324806 31.072417 -0.768080 2.162243 0.047125 -0.010433 188132.000000 0 0 1
-17.705754 17.581132 -18.448506 31.031231 -0.781867 2.207458 0.047190 -0.005254 -212413.000000 0 0 1
-16.750154 18.668732 -18.955206 31.438655 -0.839514 2.217961 0.037871 -0.002374 -421247.000000 0 0 1
-15.699754 18.837032 -18.021006 30.431443 -0.875988 2.204563 0.042011 -0.004837 -68715.100000 0 0 1
-14.964454 19.941632 -18.512306 31.053326 -0.927031 2.209488 0.027202 -0.006420 -129326.000000 0 0 1
31.885809 31.311032 2.166194 44.741233 0.776303 1.522361 0.019028 -0.011887 -118066.000000 0 0 1
33.089079 30.974832 1.513594 45.349954 0.752408 1.537414 0.020499 -0.015842 -172185.000000 0 0 1
33.280649 31.986432 0.497594 46.162550 0.765571 1.560017 0.004767 -0.002778 -588851.000000 0 0 1
34.630799 31.895232 -0.205706 47.081210 0.744301 1.575166 -0.008213 -0.004554 -309619.000000 0 0 1
-35.158785 32.387232 0.472094 47.804768 -0.744389 1.560921 -0.015835 -0.005912 339519.000000 0 0 1
-34.027144 32.388632 -0.410306 46.979127 -0.760733 1.579530 -0.009552 -0.001777 91158.400000 0 0 1
-33.011424 33.468232 -0.076706 47.009388 -0.792269 1.572428 -0.002460 -0.004053 -413498.000000 0 0 1
-32.442204 33.248632 1.186794 46.469093 -0.797674 1.545254 -0.007807 -0.002696 -208050.000000 0 0 1
-31.919724 34.452232 1.726594 46.997938 -0.823536 1.534050 -0.008425 -0.005159 -164500.000000 0 0 1
-31.096724 34.186532 3.001194 46.311255 -0.832692 1.505946 0.009260 0.004313 -176735.000000 0 0 1
-30.840574 -33.636993 3.712694 45.786159 0.828741 1.489620 -0.002364 0.008083 -395361.000000 0 0 1
-30.177014 -33.823593 4.912394 45.594070 0.842314 1.462845 0.013140 -0.003714 -648851.000000 0 0 1
-30.001724 -32.539293 5.720894 44.627768 0.825950 1.442251 0.019823 -0.004146 427484.000000 0 0 1
-31.123574 -32.007293 6.447294 45.107774 0.799395 1.427374 0.013072 -0.005400 442540.000000 0 0 1
-31.590454 -32.827393 7.558794 46.181488 0.804598 1.406381 0.021235 -0.012293 -274194.000000 0 0 1
-32.765024 -32.107293 8.366594 46.630730 0.775260 1.390397 0.031269 -0.010585 1701150.000000 0 0 1
-34.073939 -31.954693 7.804394 47.360788 0.753313 1.405255 0.023955 -0.005981 806663.000000 0 0 1
-34.643483 -33.200893 7.341194 48.542387 0.764138 1.418981 0.017723 -0.007886 -1798460.000000 0 0 1
34.776759 -33.166893 7.108594 48.579809 -0.761708 1.423941 0.014402 -0.002105 -533051.000000 0 0 1
34.063619 -33.197893 8.375694 48.296817 -0.772528 1.396494 0.013211 0.003228 -97913.000000 0 0 1
32.764949 -32.710793 8.182794 47.015912 -0.784571 1.395862 0.007960 0.012424 -595632.000000 0 0 1
31.906249 -32.923293 9.426194 46.806037 -0.801085 1.368021 0.008917 -0.000206 262332.000000 0 0 1
30.512779 -32.690593 9.198994 45.654420 -0.819842 1.367916 0.007794 -0.003166 1019970.000000 0 0 1
29.644099 -32.619993 10.336594 45.273411 -0.833157 1.340450 0.013329 -0.005122 356721.000000 0 0 1
29.848989 -31.364293 11.253994 44.736265 -0.810148 1.316501 0.014087 -0.006450 -742880.000000 0 0 1
29.363899 -30.134693 10.872094 43.457344 -0.798352 1.317932 0.020431 -0.013707 -105595.000000 0 0 1
29.985199 -29.579393 9.721894 43.226935 -0.778585 1.343952 0.027199 -0.017588 -167951.000000 0 0 1
29.208979 -28.349093 9.251094 41.742284 -0.770460 1.347317 0.028475 -0.018908 -356090.000000 0 0 1
29.721979 -27.864493 8.081094 41.534685 -0.753154 1.374985 0.030860 -0.020839 -529941.000000 0 0 1
29.017569 -26.737193 7.734694 40.208485 -0.744521 1.377225 0.027316 -0.022388 -357272.000000 0 0 1
29.246489 -26.230993 6.291294 39.786964 -0.731096 1.412005 0.027455 -0.015523 -550075.000000 0 0 1
30.475549 -25.627893 6.098994 40.283318 -0.699207 1.418809 0.039491 -0.013587 -969936.000000 0 0 1
30.681509 -25.273493 4.726294 40.030517 -0.689048 1.452453 0.031337 -0.008844 584966.000000 0 0 1
32.161009 -24.796993 4.512594 40.860554 -0.656823 1.460132 0.040392 -0.009376 308016.000000 0 0 1
33.060399 -25.838893 4.568794 42.207964 -0.663399 1.462339 0.028395 -0.009087 -862024.000000 0 0 1
34.371619 -25.387593 4.297194 42.946524 -0.636179 1.470569 0.037573 -0.008329 -142280.000000 0 0 1
35.269650 -26.598793 4.112894 44.366202 -0.646155 1.477960 0.040294 -0.006986 -579873.000000 0 0 1
35.283025 -27.285393 5.330194 44.919879 -0.658265 1.451856 0.026745 0.003630 -81783.400000 0 0 1
-35.307065 -28.636793 5.065594 45.741830 0.681460 1.459826 0.019881 -0.000465 -189438.000000 0 0 1
34.846970 -29.595193 6.066594 46.119305 -0.704082 1.438873 0.021525 -0.002660 868081.000000 0 0 1
33.487119 -29.903393 5.836994 45.273287 -0.728924 1.441508 0.019394 0.002114 402916.000000 0 0 1
32.501649 -28.862693 6.035094 43.884332 -0.726167 1.432836 0.020776 -0.007560 540435.000000 0 0 1
31.105089 -29.498493 5.736894 43.250429 -0.758894 1.437761 0.018545 -0.006265 -246184.000000 0 0 1
30.924379 -29.902993 4.375694 43.239483 -0.768608 1.469426 0.009044 -0.008325 283997.000000 0 0 1
29.825469 -29.287893 3.703794 41.964954 -0.776304 1.482422 0.020731 -0.007399 430066.000000 0 0 1
28.413559 -29.828093 3.992294 41.388210 -0.809681 1.474186 0.029619 -0.005928 -191733.000000 0 0 1
28.299189 -31.100193 3.413394 42.186697 -0.832519 1.489796 0.029751 -0.008843 -471608.000000 0 0 1
27.016619 -31.684393 3.430894 41.780013 -0.864749 1.488586 0.024171 -0.006122 -306225.000000 0 0 1
26.998959 -33.195993 3.028394 42.896258 -0.887986 1.500139 0.019295 0.001066 -488646.000000 0 0 1
27.231399 -33.316793 1.656794 43.061616 -0.885567 1.532312 0.016321 0.004175 83817.800000 0 0 1
27.263069 34.410632 1.192794 43.917984 0.900777 1.543633 0.003244 0.004223 -84501.400000 0 0 1
26.946199 34.322632 -0.326906 43.637685 0.905216 1.578288 -0.006196 -0.003714 564731.000000 0 0 1
28.045119 -34.244093 -1.116206 44.276772 -0.884591 1.596009 0.003633 -0.004398 425704.000000 0 0 1
27.654539 -34.307593 -2.444006 44.133407 -0.892361 1.626202 0.009892 -0.008323 -338139.000000 0 0 1
28.721469 -33.866393 -3.464506 44.540523 -0.867417 1.648658 0.006555 -0.004206 -118650.000000 0 0 1
28.962839 -32.467693 -3.468806 43.646647 -0.842390 1.650355 0.006553 -0.013562 341293.000000 0 0 1
29.765709 -31.997893 -4.566206 43.939877 -0.821523 1.674904 0.010627 -0.011054 -13331.400000 0 0 1
30.024949 -30.501193 -4.546806 43.040606 -0.793266 1.676634 0.020465 -0.008227 -752560.000000 0 0 1
28.873549 -29.708993 -4.780206 41.703195 -0.799658 1.685673 0.009962 -0.024984 36685.800000 0 0 1
29.035559 -28.312993 -4.861206 40.845080 -0.772799 1.690095 0.015997 -0.021930 -590527.000000 0 0 1
29.953959 -27.757293 -5.972606 41.272012 -0.747353 1.716019 0.025000 -0.016752 -397316.000000 0 0 1
31.277009 -27.744793 -5.463106 42.164800 -0.725624 1.700727 0.028537 -0.015033 267870.000000 0 0 1
32.282539 -27.256593 -6.376606 42.728741 -0.701184 1.720590 0.028152 -0.017057 569432.000000 0 0 1
32.602239 -28.137593 -7.658406 43.741071 -0.712026 1.746788 0.037384 -0.005586 -153277.000000 0 0 1
31.569839 -28.223193 -8.685006 43.227684 -0.729486 1.773086 0.029989 -0.014711 430749.000000 0 0 1
31.730209 -29.219193 -9.692806 44.209930 -0.744223 1.791837 0.018145 -0.003507 98393.600000 0 0 1
31.595969 -30.702893 -9.200406 45.006893 -0.771064 1.776670 0.009252 -0.000861 138908.000000 0 0 1
32.739339 -31.151393 -8.509306 45.985671 -0.760549 1.756911 0.016989 -0.002666 -517818.000000 0 0 1
32.580379 -32.452793 -7.985406 46.673671 -0.783436 1.742732 0.007855 -0.006903 1121420.000000 0 0 1
33.846179 -33.031293 -7.208406 47.839223 -0.773214 1.722052 0.005599 -0.004567 966297.000000 0 0 1
33.555489 -34.312593 -6.674806 48.454906 -0.796553 1.708989 0.002596 -0.007613 66376.300000 0 0 1
32.909219 -34.259293 -5.401206 47.810970 -0.805495 1.684008 0.006042 -0.004924 -252625.000000 0 0 1
32.786169 33.430432 -4.660206 47.055756 0.795127 1.669995 -0.013305 -0.002986 -836180.000000 0 0 1
31.721999 32.679432 -5.123006 45.830947 0.800264 1.682811 -0.008374 -0.008952 -340360.000000 0 0 1
31.844929 31.399832 -4.579406 44.955755 0.778361 1.672838 -0.011295 -0.002732 -98154.700000 0 0 1
30.680009 30.524532 -5.041306 43.570917 0.782858 1.686760 -0.008315 -0.011910 -525125.000000 0 0 1
30.545949 30.301332 -6.426206 43.503125 0.781378 1.719057 -0.020571 -0.002376 -583716.000000 0 0 1
29.379059 29.644132 -6.786006 42.284200 0.789889 1.731979 -0.027992 0.002599 -724254.000000 0 0 1
29.041939 29.501732 -8.275506 42.216945 0.793252 1.768097 -0.023483 0.005466 -112723.000000 0 0 1
29.396339 28.222632 -8.842006 41.699434 0.765031 1.784460 -0.012328 0.002989 85758.100000 0 0 1
29.613039 28.213732 -10.252106 42.166959 0.761205 1.816389 -0.029787 0.004034 1102170.000000 0 0 1
30.936369 28.880332 -10.848706 43.690124 0.751039 1.821732 -0.007979 -0.000068 1148110.000000 0 0 1
32.169119 28.278532 -10.376206 44.070322 0.721124 1.808474 -0.018593 -0.007603 897927.000000 0 0 1
33.296019 28.881232 -10.988206 45.425666 0.714514 1.815114 -0.001980 -0.010260 47054.800000 0 0 1
33.689279 30.304432 -10.514906 46.517624 0.732554 1.798808 0.004579 -0.017680 -986911.000000 0 0 1
34.305659 30.263532 -9.240606 46.670638 0.722878 1.770109 -0.010812 -0.013853 185372.000000 0 0 1
34.099889 31.536132 -8.596206 47.235842 0.746358 1.753801 -0.007507 -0.015524 -991570.000000 0 0 1
35.063787 31.901432 -7.418506 47.981296 0.738209 1.726032 0.007106 -0.007289 812268.000000 0 0 1
-34.498585 32.114632 -7.806106 47.774860 -0.749625 1.734926 0.003651 -0.012765 381567.000000 0 0 1
-33.718894 30.989732 -8.113806 46.509796 -0.743247 1.746147 0.004931 -0.012661 -618336.000000 0 0 1
-32.323354 31.323632 -8.713506 45.846421 -0.769692 1.762018 0.021777 -0.011899 -489546.000000 0 0 1
-31.465054 31.762832 -7.716506 45.370382 -0.790108 1.741705 0.017041 -0.009585 -1271810.000000 0 0 1
-30.157144 32.029732 -8.037506 44.720896 -0.815501 1.751504 0.031869 -0.021700 -935895.000000 0 0 1
-29.921864 33.301432 -8.901706 45.645851 -0.838802 1.767071 0.021582 -0.010951 -786231.000000 0 0 1
-29.941144 -34.511993 -8.229206 46.424881 0.856197 1.748996 0.007772 -0.008117 -904581.000000 0 0 1
-28.820104 -34.206593 -7.488606 45.351611 0.870655 1.736679 0.022890 -0.012908 -768441.000000 0 0 1
-28.899944 -32.871393 -6.718106 44.281691 0.849603 1.723097 0.015091 -0.006632 139459.000000 0 0 1
-29.825154 -32.741393 -5.631006 44.645793 0.831975 1.697259 0.010552 -0.009804 26525.200000 0 0 1
-29.557924 -33.505093 -4.458606 44.901462 0.847907 1.670258 0.019537 -0.011248 -227731.000000 0 0 1
-30.801394 -33.485393 -3.570306 45.637096 0.827124 1.649109 0.007625 -0.006326 -229457.000000 0 0 1
-31.133434 -32.186393 -3.019306 44.881742 0.802026 1.638120 0.004557 -0.005412 232302.000000 0 0 1
-32.178364 -32.259793 -2.045406 45.610580 0.786662 1.615656 0.001007 -0.004824 148472.000000 0 0 1
-32.536404 -30.801993 -1.720606 44.836825 0.758022 1.609181 0.010630 -0.000203 -142350.000000 0 0 1
-33.433004 -30.698993 -0.616006 45.393539 0.742793 1.584367 0.026883 0.005232 -570877.000000 0 0 1
-34.117045 -29.491293 -0.693306 45.101993 0.712804 1.586169 0.036895 0.004532 -347384.000000 0 0 1
-34.967440 -29.365293 0.577594 45.665916 0.698536 1.558148 0.027226 0.005257 -640935.000000 0 0 1
34.780079 -30.145093 0.496794 46.028549 -0.714129 1.560003 0.020702 0.005114 -434620.000000 0 0 1
33.911829 -30.030193 1.592794 45.325066 -0.724767 1.535648 0.009539 0.001833 314761.000000 0 0 1
32.853489 -28.901893 1.497494 43.782572 -0.721497 1.536587 0.015653 0.006310 -199704.000000 0 0 1
31.712879 -29.137193 0.682094 43.071429 -0.743095 1.554959 0.006875 0.000054 380294.000000 0 0 1
31.087109 -27.913593 0.359694 41.781652 -0.731662 1.562187 0.005283 -0.003560 517228.000000 0 0 1
29.786289 -27.962893 -0.517706 40.858468 -0.753834 1.583467 0.003938 -0.010150 738953.000000 0 0 1
28.608479 -28.478293 0.096394 40.366664 -0.783118 1.568408 0.011013 -0.001300 379482.000000 0 0 1
28.255479 -29.813093 -0.032906 41.075463 -0.812215 1.571597 0.018518 0.001980 -273049.000000 0 0 1
27.753719 -30.380093 -1.378806 41.171836 -0.830546 1.604292 0.001752 -0.018078 631949.000000 0 0 1
26.414159 -29.942393 -1.714306 39.964904 -0.847922 1.613705 0.012986 -0.018170 905091.000000 0 0 1
26.132509 -30.456893 -3.002006 40.243539 -0.861667 1.645462 0.008959 -0.018215 -430894.000000 0 0 1
24.658039 -30.824393 -3.187306 39.602033 -0.896085 1.651367 0.009731 -0.020412 -329023.000000 0 0 1
23.865339 -29.650393 -3.285906 38.203369 -0.893080 1.656914 0.027855 -0.014536 -391074.000000 0 0 1
22.517139 -30.049193 -3.365506 37.700162 -0.927716 1.660186 0.027678 -0.015940 184026.000000 0 0 1
21.522439 -28.833993 -3.492906 36.149895 -0.929587 1.667570 0.029765 -0.017657 244531.000000 0 0 1
21.634539 -28.150693 -4.681306 35.811024 -0.915544 1.701894 0.036336 -0.019587 299742.000000 0 0 1
20.912439 -26.909693 -4.529406 34.379895 -0.910154 1.702926 0.042606 -0.025543 131727.000000 0 0 1
20.547639 -26.284593 -5.911406 33.882592 -0.907291 1.746161 0.053717 -0.040155 28183.400000 0 0 1
19.225939 -26.557093 -6.324606 33.390366 -0.944178 1.761362 0.054410 -0.033123 -370932.000000 0 0 1
18.843139 -25.774993 -7.437506 32.783085 -0.939526 1.799659 0.063131 -0.029453 -27583.400000 0 0 1
17.348639 -26.000193 -7.772306 32.208602 -0.982390 1.814513 0.054217 -0.022909 191780.000000 0 0 1
16.638039 -25.374093 -6.709906 31.075582 -0.990418 1.788432 0.038728 -0.023941 -976004.000000 0 0 1
15.260439 -25.497893 -6.846506 30.494232 -1.031482 1.797245 0.028044 -0.019542 -629131.000000 0 0 1
14.479639 -24.644693 -5.841906 29.174453 -1.039592 1.772400 0.006478 -0.010057 -500100.000000 0 0 1
14.692139 -25.061993 -4.513906 29.399622 -1.040562 1.724942 0.002057 -0.007022 -64854.300000 0 0 1
14.021139 -24.257293 -3.595806 28.247804 -1.046697 1.698438 -0.003167 -0.008200 -216858.000000 0 0 1
13.897139 -24.813393 -2.140906 28.520491 -1.060258 1.645933 0.005436 -0.009063 -116223.000000 0 0 1
13.108639 -25.971193 -2.026306 29.162394 -1.103366 1.640336 -0.000150 -0.005130 351826.000000 0 0 1
13.935739 -27.145193 -1.854806 30.569701 -1.096504 1.631508 0.010304 -0.008035 298592.000000 0 0 1
13.139939 -28.453193 -2.141706 31.413836 -1.138166 1.639026 0.004365 -0.002900 41337.300000 0 0 1
12.224239 -28.711093 -1.101606 31.224548 -1.168276 1.606084 0.030312 -0.016598 -315861.000000 0 0 1
11.631139 -29.999193 -1.170706 32.196359 -1.200925 1.607166 0.031164 -0.012789 -490462.000000 0 0 1
12.441739 -31.209093 -0.714706 33.605285 -1.191448 1.592066 0.032574 -0.005991 -632072.000000 0 0 1
13.573439 -31.381593 -1.527006 34.225347 -1.162566 1.615427 0.032729 -0.002667 -691652.000000 0 0 1
14.053139 -32.700993 -1.379406 35.619495 -1.164912 1.609532 0.031821 0.000040 -1136370.000000 0 0 1
15.385039 -32.896693 -2.090206 36.376652 -1.133340 1.628288 0.025489 0.000771 -1258260.000000 0 0 1
16.272939 -32.027293 -1.493906 35.955359 -1.100693 1.612357 0.018219 0.006287 -1102440.000000 0 0 1
17.387439 -31.931693 -2.353506 36.434806 -1.072170 1.635436 0.015500 0.007683 10072.000000 0 0 1
18.368139 -30.797293 -1.866506 35.907459 -1.033013 1.622801 0.022386 0.002002 -103238.000000 0 0 1
17.840939 -29.518293 -1.827906 34.539397 -1.027146 1.623743 0.029293 -0.010032 36141.700000 0 0 1
18.495339 -28.656093 -0.880606 34.117806 -0.997644 1.596610 0.024926 -0.003060 2932.680000 0 0 1
17.906539 -27.209393 -0.910806 32.585653 -0.988747 1.598751 0.017806 -0.003822 46134.600000 0 0 1
18.247239 -26.425793 -2.085506 32.181262 -0.966469 1.635647 0.030333 -0.011436 169888.000000 0 0 1
17.484139 -26.729893 -3.237106 32.103912 -0.991541 1.671800 0.034072 -0.012960 -341242.000000 0 0 1
31.564249 -29.132793 13.914194 45.151149 -0.745361 1.257528 0.013588 -0.011935 -213475.000000 0 0 1
32.316269 -29.642493 14.994594 46.344973 -0.742271 1.241325 0.024333 -0.006647 357030.000000 0 0 1
31.488469 -30.253593 15.988594 46.502029 -0.765400 1.219808 0.038220 -0.003150 513247.000000 0 0 1
32.355759 -30.876893 17.161294 47.903942 -0.762015 1.204410 0.024828 0.001937 257736.000000 0 0 1
31.639649 -31.423493 18.255394 48.184673 -0.781971 1.182229 0.013319 0.002674 585389.000000 0 0 1
32.474119 -31.498993 19.442594 49.241948 -0.770157 1.164905 0.003154 0.012025 -551.769000 0 0 1
33.251469 -32.780193 19.613294 50.644670 -0.778261 1.173125 0.011801 0.009274 -405386.000000 0 0 1
34.250349 -32.878393 18.612094 50.994953 -0.764963 1.197186 0.015345 0.011308 -57462.900000 0 0 1
34.748649 -34.205793 18.565694 52.174610 -0.777526 1.206986 0.027038 -0.000675 -1013160.000000 0 0 1
-35.003257 -34.420593 17.642194 52.165623 0.777006 1.225797 0.018486 0.000828 -884149.000000 0 0 1
-33.910354 -33.697893 18.172194 51.143804 0.782256 1.207545 0.021021 0.003388 291308.000000 0 0 1
-32.841034 -33.602993 17.209394 50.038564 0.796865 1.219705 0.024333 0.004683 164333.000000 0 0 1
-31.582854 -32.928293 17.878194 49.003867 0.806251 1.197344 0.012063 -0.002667 67637.800000 0 0 1
-30.501994 -32.693793 17.031594 47.846953 0.820067 1.206855 0.012912 -0.003948 -218400.000000 0 0 1
-30.763994 -31.656593 16.104894 46.988624 0.799697 1.220964 0.023294 -0.004164 -1151330.000000 0 0 1
-29.779984 -31.691693 14.941394 45.983215 0.816487 1.239857 0.020172 -0.012739 -759482.000000 0 0 1
-28.520254 -31.457293 15.467894 45.190949 0.834328 1.221455 0.010535 -0.006947 -498224.000000 0 0 1
-27.537794 -31.208793 14.444794 44.056452 0.847806 1.236748 0.015838 -0.006998 1346100.000000 0 0 1
-26.094774 -30.812293 14.881894 43.032609 0.868108 1.217675 0.016299 -0.010355 757292.000000 0 0 1
-25.076484 -30.787893 13.933694 42.081733 0.887281 1.233316 0.013418 -0.004443 32755.100000 0 0 1
-23.859254 -30.251893 14.452094 41.149776 0.902992 1.211936 0.012014 -0.005669 -217867.000000 0 0 1
-22.674954 -30.320793 13.522194 40.203902 0.928682 1.227768 0.016830 -0.006442 -639889.000000 0 0 1
-22.232254 -31.637293 13.347794 40.906662 0.958245 1.238411 0.008578 -0.014915 -162686.000000 0 0 1
-21.033154 -31.550893 12.611394 39.961227 0.982811 1.249717 0.003591 -0.017891 -157352.000000 0 0 1
-20.425854 -32.950393 12.400394 40.702748 1.015875 1.261218 -0.007682 -0.010031 -463644.000000 0 0 1
-21.209754 -33.737593 11.563794 41.494580 1.009564 1.288375 -0.008854 -0.007189 -124092.000000 0 0 1
-20.936754 33.919532 11.512294 41.489941 -1.017791 1.289635 -0.008259 0.002067 1270.480000 0 0 1
-21.818554 33.201632 10.451394 41.080765 -0.989409 1.313558 -0.008633 0.000293 123641.000000 0 0 1
-21.569854 33.700732 9.161494 41.047910 -1.001454 1.345710 -0.008085 -0.002708 175129.000000 0 0 1
-22.783454 33.427432 8.464394 41.329468 -0.972540 1.364534 0.008603 -0.004060 -54606.000000 0 0 1
-22.736454 33.758032 6.919194 41.284698 -0.978069 1.402405 0.012307 0.000935 -127290.000000 0 0 1
-21.916754 32.952432 6.038194 40.033319 -0.983877 1.419389 0.008893 0.001891 598573.000000 0 0 1
-20.505254 32.988332 6.231194 39.338572 -1.014652 1.411727 -0.001658 -0.003279 152206.000000 0 0 1
-19.808854 34.298332 5.731894 40.020256 -1.047051 1.427077 -0.011172 0.000032 -629350.000000 0 0 1
-19.839854 -33.650093 6.623694 39.620978 1.038064 1.402831 -0.005140 -0.006850 21874.200000 0 0 1
-19.276854 -33.924093 7.892694 39.808740 1.054061 1.371209 -0.007640 -0.010606 -937093.000000 0 0 1
-19.259554 -32.743793 8.879094 39.011853 1.039106 1.341184 -0.004444 -0.013598 -543624.000000 0 0 1
-18.417154 -31.689093 8.404994 37.603645 1.044328 1.345377 0.013647 -0.019975 114650.000000 0 0 1
-18.405854 -30.511593 9.213694 36.805230 1.027997 1.317768 0.018330 -0.018564 -109610.000000 0 0 1
-17.886554 -30.626493 10.665794 37.036064 1.042208 1.278675 0.004700 -0.014789 388418.000000 0 0 1
-16.479754 -30.876693 10.632894 36.578831 1.080532 1.275854 0.012308 -0.022943 70300.100000 0 0 1
-15.983054 -30.953493 11.936394 36.824642 1.094149 1.240692 0.029513 -0.024144 -184711.000000 0 0 1
-14.682154 -31.774893 11.954994 36.988260 1.137952 1.241676 0.048974 -0.027557 155030.000000 0 0 1
-13.684254 -31.241893 11.094694 35.866515 1.157958 1.256305 0.043613 -0.021169 -196766.000000 0 0 1
-12.693854 -32.169493 10.717894 36.206125 1.194960 1.270269 0.054279 -0.019261 386382.000000 0 0 1
-11.583654 -31.452393 9.874594 34.941976 1.217920 1.284293 0.065902 -0.015418 148685.000000 0 0 1
-10.846054 -30.535393 10.602594 34.094899 1.229500 1.254580 0.069340 -0.010347 -839815.000000 0 0 1
-9.899754 -29.831393 9.878294 32.946894 1.250375 1.266287 0.060564 -0.006068 -221167.000000 0 0 1
-8.877154 -29.106393 10.791794 32.286976 1.274768 1.229991 0.047693 0.005558 -4169.600000 0 0 1
-9.311054 -27.991293 11.520894 31.669216 1.249669 1.198465 0.045472 0.003877 -677013.000000 0 0 1
-8.504654 -27.751393 12.631194 31.654637 1.273425 1.160336 0.042687 0.010149 -134015.000000 0 0 1
-8.900854 -26.428093 13.459994 30.965154 1.245933 1.121111 0.040887 0.006749 -17894.200000 0 0 1
-8.632054 -25.176593 12.999594 29.620308 1.240496 1.116451 0.018062 0.005547 72219.900000 0 0 1
-9.409454 -24.750093 11.873894 29.018861 1.207493 1.149243 0.020650 0.007676 182468.000000 0 0 1
-9.035954 -23.322493 11.483694 27.522034 1.201168 1.140374 0.005213 0.007905 -226403.000000 0 0 1
-7.820754 -23.194893 10.812294 26.759540 1.245592 1.154852 -0.007901 0.007915 -507346.000000 0 0 1
-7.587254 -21.848793 10.420994 25.367958 1.236563 1.147472 -0.012538 0.011728 -674561.000000 0 0 1
-6.455954 -21.736893 9.415094 24.552309 1.282090 1.177245 -0.019569 0.009452 -107666.000000 0 1 0
-5.223454 -22.201693 9.928194 24.875062 1.339726 1.160237 -0.008882 0.009249 -91023.900000 0 1 0
-4.193554 -22.309193 8.950194 24.400655 1.384990 1.195228 -0.015500 0.008514 575153.000000 0 1 0
-2.927054 -23.006193 9.478794 25.053944 1.444247 1.182799 0.005525 0.005394 217564.000000 0 0 1
-2.135954 -22.373593 10.479494 24.798382 1.475617 1.134498 0.015052 -0.001024 -421280.000000 0 1 0
-1.142454 -23.252993 10.918494 25.714206 1.521704 1.132266 0.016071 0.002264 -101832.000000 0 0 1
-0.186754 -22.588193 11.927994 25.544831 1.562529 1.084965 0.019709 -0.003441 25363.300000 0 0 1
-0.823954 -22.258893 13.182394 25.882673 1.533796 1.036409 0.017321 -0.009233 476288.000000 0 0 1
0.090146 -22.105393 14.291194 26.322894 -1.566718 0.996887 0.023042 -0.005903 498719.000000 0 0 1
1.053046 -20.917093 14.369294 25.399022 -1.520495 0.969463 0.028185 -0.010443 -196966.000000 0 0 1
2.069446 -20.852193 13.416694 24.881806 -1.471877 1.001289 0.037344 -0.015424 -538289.000000 0 1 0
2.357846 -19.535693 13.036394 23.604032 -1.450683 0.985681 0.031777 -0.015762 1087370.000000 0 1 0
3.856346 -19.340393 12.557494 23.379753 -1.373984 1.003789 0.040247 -0.015502 975309.000000 0 1 0
4.125946 -20.110993 11.435094 23.499720 -1.368445 1.062596 0.047896 -0.006724 -1561050.000000 0 1 0
5.478746 -20.084993 11.220594 23.650060 -1.304497 1.076466 0.055149 -0.011021 -1223710.000000 0 1 0
5.903546 -20.934793 10.048594 23.960210 -1.295937 1.138027 0.051580 -0.016084 -537464.000000 0 1 0
5.609446 -20.464393 8.753894 22.954040 -1.303260 1.179523 0.052356 -0.011814 -326518.000000 0 1 0
5.845246 -21.426893 7.724994 23.514978 -1.304477 1.236067 0.050669 -0.014115 448050.000000 0 1 0
7.319246 -21.928493 7.470794 24.294916 -1.248646 1.258227 0.049586 -0.010543 112378.000000 0 1 0
8.144846 -21.029793 6.807094 23.556894 -1.201286 1.277652 0.041543 -0.014529 -194376.000000 0 1 0
8.788046 -19.995293 7.563194 23.113706 -1.156704 1.237440 0.052008 -0.009721 399259.000000 0 1 0
9.756846 -20.403093 8.713694 24.236558 -1.124737 1.203036 0.038805 -0.004350 -53406.700000 0 1 0
9.069646 -20.431793 9.956294 24.471298 -1.153028 1.151787 0.050961 -0.008056 -421341.000000 0 1 0
9.922046 -20.115193 11.016794 24.988753 -1.112554 1.114228 0.047392 -0.000297 255908.000000 0 1 0
9.179946 -20.323193 12.392694 25.512398 -1.146531 1.063573 0.045357 -0.005373 264118.000000 0 0 1
8.890446 -21.640693 12.814394 26.675238 -1.180997 1.069702 0.039245 -0.018412 -97071.400000 0 0 1
8.106446 -21.618493 13.991494 26.996956 -1.212045 1.025979 0.042564 -0.018077 197348.000000 0 0 1
8.287946 -22.963793 14.769294 28.533452 -1.224432 1.026737 0.034339 -0.017402 -203119.000000 0 0 1
7.694846 -24.070093 14.079994 28.927950 -1.261379 1.062458 0.032338 -0.012842 -77797.500000 0 0 1
7.935746 -25.264893 14.730894 30.303302 -1.266453 1.063158 0.029825 -0.015668 219926.000000 0 0 1
7.756646 -26.587393 13.887194 30.982401 -1.286933 1.106014 0.033716 -0.016101 748474.000000 0 0 1
8.936046 -26.862193 13.127794 31.205277 -1.249650 1.136589 0.029072 -0.014322 432697.000000 0 0 1
8.562346 -27.854993 12.199794 31.591920 -1.272574 1.174322 0.024292 -0.007038 117638.000000 0 0 1
9.808446 -28.410793 11.510994 32.185117 -1.238371 1.205047 0.021693 -0.011331 73723.400000 0 0 1
10.731146 -29.172293 12.262294 33.414728 -1.218305 1.195044 0.013293 -0.008170 183482.000000 0 0 1
11.981446 -29.219293 11.589294 33.639766 -1.181654 1.219078 0.029215 -0.008786 182563.000000 0 0 1
12.995546 -30.094893 12.344494 35.028179 -1.163164 1.210645 0.024973 -0.011414 -685384.000000 0 0 1
13.410846 -29.534293 13.602694 35.173265 -1.144557 1.173709 0.019659 -0.012672 543803.000000 0 0 1
14.367246 -30.277693 14.395094 36.474309 -1.127743 1.165094 0.022676 -0.007639 405127.000000 0 0 1
15.780346 -30.370093 13.833794 36.915251 -1.091591 1.186675 0.028944 0.000161 -696672.000000 0 0 1
16.486946 -29.120593 13.733794 36.172440 -1.055630 1.181351 0.022568 -0.014300 1471410.000000 0 0 1
17.786946 -29.277093 13.100994 36.676419 -1.024853 1.205523 0.023533 -0.014636 1081000.000000 0 0 1
18.683346 -27.997593 13.188594 36.150680 -0.982342 1.197354 0.010447 -0.012522 -920398.000000 0 0 1
19.891646 -28.232993 12.588494 36.759348 -0.957021 1.221266 0.001655 -0.016290 -839066.000000 0 0 1
20.643646 -27.029793 12.411694 36.205248 -0.918562 1.220885 -0.003150 -0.018092 52189.600000 0 0 1
22.048346 -27.153993 11.802494 36.915685 -0.888796 1.245368 -0.003413 -0.016839 -164078.000000 0 0 1
22.961446 -27.756493 12.679894 38.189405 -0.879661 1.232345 -0.002653 -0.019613 -611532.000000 0 0 1
24.179446 -27.942193 12.039194 38.863273 -0.857465 1.255831 -0.009350 -0.020127 -1316600.000000 0 0 1
25.228046 -28.831293 12.733294 40.371210 -0.851953 1.249913 0.004004 -0.019905 -452593.000000 0 0 1
26.208446 -28.117093 13.440194 40.719681 -0.820517 1.234423 -0.001437 -0.016827 183541.000000 0 0 1
27.329446 -27.949693 12.562294 41.059654 -0.796618 1.259858 -0.003353 -0.011898 603095.000000 0 0 1
28.561346 -27.157593 13.223094 41.570850 -0.760210 1.247087 0.023249 -0.024150 821141.000000 0 0 1
28.360946 -25.765693 13.276294 40.552117 -0.737487 1.237258 0.033208 -0.024766 52662.900000 0 0 1
27.540046 -25.298693 14.325094 40.046053 -0.743005 1.204976 0.031667 -0.017123 -443516.000000 0 0 1
28.272046 -25.034693 15.666594 40.883819 -0.724742 1.177540 0.022836 -0.003981 -317658.000000 0 0 1
28.618846 -26.273393 16.323594 42.140115 -0.742696 1.173025 0.020492 -0.014168 286129.000000 0 0 1
29.083046 -25.927693 17.625194 42.763493 -0.728102 1.145978 0.023561 0.006488 -389113.000000 0 0 1
29.635746 -27.060393 18.481794 44.182791 -0.740006 1.139220 0.020149 0.016284 98958.600000 0 0 1
28.648346 -27.926793 19.043694 44.309094 -0.772645 1.126534 -0.005312 0.009573 183845.000000 0 0 1
29.259346 -28.976693 19.811694 45.697498 -0.780545 1.122379 0.010076 0.012118 -184629.000000 0 0 1
28.289946 -30.012893 20.371894 46.001184 -0.814941 1.112015 -0.002254 0.027515 35925.900000 0 0 1
27.383046 -29.476893 21.404294 45.572604 -0.822206 1.081874 -0.012052 0.025065 1479140.000000 0 0 1
26.352846 -30.339593 21.896894 45.765024 -0.855605 1.071892 -0.021979 0.019386 681855.000000 0 0 1
25.209446 -30.828893 21.003394 45.023099 -0.885343 1.085464 0.010297 0.008791 -688012.000000 0 0 1
25.633546 -31.841093 20.114894 45.558126 -0.892986 1.113503 -0.008465 0.013419 -127275.000000 0 0 1
24.730246 -32.238593 19.115594 44.903429 -0.916440 1.131056 0.011468 0.009505 -520452.000000 0 0 1
24.715046 -31.239693 17.899294 43.670776 -0.901480 1.148486 0.003476 0.006957 641789.000000 0 0 1
25.943246 -31.358993 17.141194 44.161737 -0.879630 1.172177 -0.005191 -0.001373 843929.000000 0 0 1
26.073746 -30.399293 16.173594 43.191925 -0.861844 1.186983 -0.006844 -0.020719 -35760.400000 0 0 1
27.387546 -30.666393 15.406594 43.907499 -0.841818 1.212278 0.010967 -0.016095 -82344.200000 0 0 1
27.226246 -31.657393 14.446694 44.183323 -0.860509 1.237699 0.011224 -0.009669 417155.000000 0 0 1
27.550646 -32.941093 14.961794 45.475367 -0.874274 1.235543 -0.003699 -0.013127 -109625.000000 0 0 1
26.760846 -34.055093 14.185494 45.575438 -0.904768 1.254285 0.021461 -0.015446 -264328.000000 0 0 1
27.055246 -34.123993 12.783994 45.385722 -0.900430 1.285258 0.030726 -0.017600 579599.000000 0 0 1
26.343546 33.783332 12.280994 44.565892 0.908507 1.291614 0.035912 -0.015818 -178214.000000 0 0 1
26.944446 33.304832 10.955594 44.218097 0.890576 1.320426 0.031993 -0.012258 -538624.000000 0 0 1
28.216646 32.769832 11.157294 44.660119 0.859919 1.318295 0.029124 -0.011850 -502321.000000 0 0 1
28.690746 32.089132 10.023294 44.196581 0.841253 1.342017 0.026376 -0.008185 -509855.000000 0 0 1
30.177946 31.766232 10.158694 44.977784 0.811033 1.342970 0.018811 -0.008165 -461238.000000 0 0 1
30.497946 30.851832 11.202694 44.804694 0.791166 1.318081 0.015422 -0.001981 970259.000000 0 0 1
31.917746 30.627932 11.259694 45.646396 0.764779 1.321552 0.017881 -0.003104 854033.000000 0 0 1
32.307446 29.560432 12.261394 45.474521 0.741026 1.297785 0.010231 0.008081 -108549.000000 0 0 1
31.979946 28.227732 11.865394 44.275381 0.723157 1.299489 0.003961 0.002406 269977.000000 0 0 1
32.198646 27.400832 13.023194 44.239824 0.705070 1.271993 0.005209 -0.004756 -32990.800000 0 0 1
31.861146 25.914632 12.772794 43.009825 0.682835 1.269274 -0.000070 0.002070 244611.000000 0 0 1
32.821346 25.463532 11.820194 43.189689 0.659824 1.293578 -0.001304 0.009238 137262.000000 0 0 1
32.752946 24.039532 11.676094 42.272754 0.633160 1.290949 -0.009764 0.004163 -423357.000000 0 0 1
31.590546 23.450332 10.852194 40.812385 0.638569 1.301654 -0.010116 0.006376 119273.000000 0 0 1
30.491646 23.044132 11.650294 39.956249 0.647172 1.274922 -0.005947 0.000306 -118830.000000 0 0 1
29.450346 22.569032 10.816094 38.648053 0.653878 1.287147 -0.003398 0.011939 -635317.000000 0 0 1
28.190446 22.236432 11.591494 37.729603 0.667870 1.258520 -0.003438 0.014772 -718062.000000 0 0 1
27.623646 23.364132 12.236594 38.192705 0.702052 1.244654 0.008824 0.009678 123450.000000 0 0 1
26.873146 23.035932 13.394194 37.844743 0.708665 1.209032 0.031075 0.005793 -62902.400000 0 0 1
23.790746 10.001532 26.223588 36.792755 0.397964 0.777403 0.034556 -0.002590 -484770.000000 0 0 1
23.376046 8.724732 26.592158 36.465098 0.357221 0.753572 0.036606 -0.009602 -804012.000000 0 0 1
21.996246 8.728232 26.668768 35.654454 0.377749 0.725785 0.030793 -0.008901 -842165.000000 0 0 1
21.289746 7.536832 27.376458 35.489824 0.340245 0.689775 0.038595 -0.019664 -39575.100000 0 0 1
21.427546 7.475032 28.771798 36.644675 0.335651 0.667848 0.036215 -0.014591 -596915.000000 0 0 1
22.561846 6.790032 29.152588 37.483528 0.292330 0.679728 0.037370 -0.013006 -878649.000000 0 0 1
22.803746 6.679932 30.713878 38.832649 0.284959 0.658470 0.030499 -0.009376 -268884.000000 0 0 1
23.085446 7.882232 31.395178 39.758328 0.329026 0.660557 0.037599 -0.009966 267790.000000 0 0 1
22.925146 7.739932 32.843215 40.793942 0.325601 0.634952 0.033269 -0.003948 -35259.500000 0 0 1
23.132946 9.039432 33.652760 41.825265 0.372516 0.635789 0.041942 -0.008214 -154453.000000 0 0 1
24.416246 9.594332 33.527870 42.571380 0.374413 0.663943 0.028800 -0.013266 -445067.000000 0 0 1
24.736646 10.355732 -34.157701 43.426851 0.396471 2.476010 0.032519 -0.010204 -75785.500000 0 0 1
25.888146 11.317432 34.377506 44.498240 0.412131 0.687935 0.002382 -0.006151 -367185.000000 0 0 1
25.493346 12.503932 33.715108 44.079106 0.456001 0.699945 -0.001945 -0.000358 274859.000000 0 0 1
25.254446 13.502332 -34.176676 44.588622 0.490983 2.444152 0.001355 -0.004968 -708407.000000 0 0 1
24.900046 14.851632 34.090164 44.751789 0.537805 0.704769 0.010303 -0.000325 -646685.000000 0 0 1
25.904646 15.600932 33.445816 45.089493 0.542068 0.735098 0.000844 -0.004167 20323.200000 0 0 1
25.445646 16.941232 33.324726 45.221938 0.587389 0.742301 0.019103 -0.010023 110342.000000 0 0 1
25.943146 18.021032 34.396383 46.700274 0.607117 0.742863 0.006821 -0.010887 -346037.000000 0 0 1
25.477246 17.771532 -33.170256 45.444288 0.609077 2.388987 0.006515 -0.014796 641806.000000 0 0 1
26.403846 17.055032 -32.324686 45.087942 0.573509 2.370178 0.004297 -0.007326 64702.600000 0 0 1
25.753546 16.707432 -30.971996 43.607889 0.575491 2.360633 -0.002428 0.000160 -18030.000000 0 0 1
24.930946 15.577932 -31.081386 42.781732 0.558487 2.384027 0.007686 0.006981 -142958.000000 0 0 1
24.300446 15.198132 -29.886306 41.408770 0.558906 2.377107 0.018641 -0.004632 -36750.200000 0 0 1
23.798946 13.748832 -30.143416 40.792717 0.523867 2.402294 0.028421 -0.009717 -703290.000000 0 0 1
22.861546 13.805532 -31.186216 41.058776 0.543264 2.433418 0.027502 -0.013796 -212305.000000 0 0 1
22.304246 12.655032 -31.686666 40.763636 0.516090 2.461202 0.034344 -0.002789 213844.000000 0 0 1
21.339246 11.929932 -30.674086 39.224817 0.509773 2.468676 0.036451 -0.005326 -179084.000000 0 0 1
20.208846 12.674132 -30.278426 38.546260 0.560149 2.474314 0.042148 0.000500 580918.000000 0 0 1
19.228546 11.894032 -29.572166 37.225233 0.553956 2.488835 0.039579 0.002320 231119.000000 0 0 1
18.007246 12.670432 -29.063066 36.461796 0.613158 2.493245 0.042676 -0.003798 -685197.000000 0 0 1
17.154046 12.869132 -30.132096 36.984038 0.643635 2.523064 0.026471 0.004997 29665.200000 0 0 1
15.919946 13.392332 -29.633066 36.206600 0.699380 2.529494 0.029023 -0.004228 573987.000000 0 0 1
14.757146 13.634632 -30.663426 36.659545 0.745882 2.561547 0.022718 -0.003042 896966.000000 0 0 1
14.120646 12.463832 -31.258006 36.493872 0.723156 2.599300 0.010369 -0.001334 -311242.000000 0 0 1
13.097646 11.958732 -30.444796 35.234148 0.739975 2.614098 0.015419 -0.002054 -1055910.000000 0 0 1
12.148846 11.247532 -31.391906 35.490185 0.746894 2.656268 0.014762 0.001096 -369696.000000 0 0 1
11.575146 12.211432 -32.288306 36.409309 0.812142 2.661202 0.021815 0.000238 -376887.000000 0 0 1
10.595946 11.569732 -33.055326 36.589443 0.829302 2.698457 0.023777 0.007207 -286583.000000 0 0 1
10.049846 12.382632 -34.218137 37.751952 0.889017 2.705464 0.024579 -0.000506 -79545.200000 0 0 1
10.947546 12.491232 33.567364 37.451937 0.851164 0.459491 0.017018 0.002335 -178085.000000 0 0 1
10.375246 13.210332 32.524208 36.605775 0.905028 0.476732 0.023318 0.002035 -580435.000000 0 0 1
11.124746 13.136232 31.159818 35.598523 0.868119 0.504715 0.023473 0.001298 -146374.000000 0 0 1
11.115746 11.859832 30.552668 34.607528 0.817773 0.488936 0.018019 0.001418 56260.900000 0 0 1
11.419346 11.929532 29.166938 33.517540 0.807245 0.515190 0.026281 0.005856 -354383.000000 0 0 1
12.092346 10.633532 28.733428 32.937923 0.721294 0.510806 0.017236 0.007810 -672410.000000 0 0 1
11.357546 9.483632 28.995448 32.552560 0.695725 0.471854 0.016920 -0.000483 -283251.000000 0 0 1
11.970946 8.262532 28.593898 32.080898 0.604129 0.470579 -0.002694 -0.002982 -240941.000000 0 0 1
11.032846 7.021232 28.583208 31.432804 0.566750 0.429094 0.005444 -0.004555 101317.000000 0 0 1
10.091146 6.980132 27.502678 30.115624 0.605140 0.419639 0.018999 -0.012237 440303.000000 0 0 1
9.218946 5.827732 27.687038 29.757747 0.563722 0.375254 0.008209 -0.020162 310506.000000 0 0 1
9.802646 4.396232 27.465108 29.491540 0.421584 0.372864 0.010129 -0.015492 -154899.000000 0 0 1
10.596946 3.860832 28.524748 30.673483 0.349387 0.376525 0.003471 -0.011229 362850.000000 0 0 1
11.025246 2.551432 28.215608 30.400434 0.227414 0.381434 -0.007417 -0.003732 -8349.390000 0 0 1
11.649346 1.801432 29.403208 31.678085 0.153423 0.381284 -0.004180 -0.000201 360840.000000 0 0 1
10.579746 1.431432 30.267388 32.095090 0.134483 0.339103 0.000982 -0.012287 225542.000000 0 0 1
10.537546 0.088232 30.659828 32.420252 0.008373 0.331055 0.002020 -0.008889 902862.000000 0 0 1
9.301946 -0.083468 31.626698 32.966365 -0.008973 0.286062 0.009946 -0.000620 790539.000000 0 0 1
9.528046 0.731932 32.745668 34.111555 0.076668 0.283943 0.008529 -0.001497 -454141.000000 0 0 1
8.334646 1.133832 33.353557 34.397844 0.135208 0.247038 0.019861 -0.007486 -462469.000000 0 0 1
8.497046 2.397532 34.196461 35.317785 0.275011 0.252662 0.021705 -0.005712 -397192.000000 0 0 1
8.565546 3.685532 33.517144 34.790095 0.406329 0.271348 0.014466 -0.007715 252686.000000 0 0 1
9.546946 3.838932 32.484268 34.075053 0.382325 0.306766 0.003503 -0.003341 172369.000000 0 0 1
9.589446 5.249732 31.850958 33.674927 0.500882 0.330636 -0.001361 -0.004071 50509.700000 0 0 1
9.720946 6.280232 32.790488 34.772895 0.573594 0.339294 -0.001455 -0.007372 137153.000000 0 0 1
10.030146 7.541732 32.194468 34.553804 0.644720 0.371676 0.001536 -0.007002 -307920.000000 0 0 1
10.268246 8.723632 33.178769 35.810185 0.704247 0.385747 0.027512 -0.011034 -281710.000000 0 0 1
9.150046 9.376232 33.748014 36.201733 0.797606 0.370294 0.030287 -0.012343 -345943.000000 0 0 1
8.557946 8.522632 -34.172018 36.243627 0.783331 2.801855 0.026374 -0.017014 -669163.000000 0 0 1
7.230946 9.061732 -33.625696 35.568090 0.897297 2.809584 0.026645 -0.015942 -354203.000000 0 0 1
6.646546 8.160332 -32.734276 34.384596 0.887279 2.830514 0.035129 -0.009571 -13565.100000 0 0 1
5.376046 8.655532 -32.334616 33.902028 1.014998 2.836325 0.029755 -0.006774 63260.900000 0 0 1
4.784746 7.869832 -31.179896 32.511751 1.024526 2.854371 0.037120 -0.005354 -599019.000000 0 0 1
5.475146 7.978132 -29.947626 31.472021 0.969345 2.829078 0.037958 -0.008208 -73320.200000 0 0 1
5.001846 7.191432 -28.860486 30.160617 0.963078 2.846906 0.036898 -0.005188 974448.000000 0 0 1
3.516446 7.361332 -28.329836 29.481082 1.125154 2.861210 0.023135 -0.000882 1418810.000000 0 0 1
2.528146 6.774132 -29.187956 30.070204 1.213599 2.898759 0.028158 -0.000029 149580.000000 0 0 1
1.236846 6.988732 -28.654286 29.520167 1.395633 2.898791 0.037152 0.005911 -37.721300 0 0 1
0.102646 6.502632 -29.579906 30.286393 1.555012 2.925176 0.034500 0.001066 -163586.000000 0 0 1
0.165246 7.225432 -30.829036 31.664864 1.547930 2.911319 0.037328 -0.001416 156124.000000 0 0 1
-0.365654 6.523832 -31.923816 32.585643 -1.514806 2.939704 0.055382 -0.005612 -448801.000000 0 0 1
-0.383554 7.404432 -33.230096 34.047203 -1.519042 2.922067 0.062883 -0.012571 594534.000000 0 0 1
0.919046 7.678932 -33.761846 34.636294 1.451679 2.916410 0.052719 -0.012168 939368.000000 0 0 1
1.670446 6.582832 -34.352936 35.017828 1.322284 2.946413 0.053173 -0.013874 201965.000000 0 0 1
1.466346 6.324932 33.003925 33.636498 1.342985 0.194244 0.063548 -0.019885 973688.000000 0 0 1
0.259946 5.571732 32.667358 33.140128 1.524176 0.169114 0.062226 -0.017025 807004.000000 0 0 1
0.102846 5.445432 31.280508 31.751118 1.551912 0.172387 0.068415 -0.017498 248871.000000 0 0 1
0.993446 4.365132 30.588328 30.914190 1.347021 0.145323 0.078082 -0.022941 91923.000000 0 0 1
0.847546 4.459532 29.155028 29.506295 1.382983 0.154457 0.068133 -0.025153 -134567.000000 0 0 1
1.720046 3.696232 28.371408 28.662824 1.135250 0.142719 0.051348 -0.021676 -532443.000000 0 0 1
1.611246 3.938232 26.849918 27.184994 1.182445 0.157170 0.050926 -0.021276 -80732.600000 0 0 1
2.160246 5.151432 26.449578 27.033019 1.173722 0.208137 0.045449 -0.015146 -56257.700000 0 0 1
2.009046 5.410732 25.040768 25.697322 1.215267 0.226535 0.031728 -0.015842 -890404.000000 0 0 1
2.436046 6.866032 24.736988 25.787503 1.229855 0.286416 0.030034 -0.009868 324606.000000 0 0 1
3.813046 7.161732 24.968668 26.253840 1.081551 0.314186 0.029646 -0.008624 -43216.800000 0 0 1
4.509146 6.792632 23.826638 25.182949 0.984761 0.329693 0.039214 -0.014019 -2375710.000000 0 0 1
6.006246 6.932032 23.893598 25.593595 0.856830 0.366528 0.038736 -0.013008 -861049.000000 0 0 1
6.756846 5.985632 24.650998 26.251752 0.724949 0.351019 0.034794 -0.018010 45490.500000 0 0 1
6.624746 4.591832 24.418708 25.714694 0.606103 0.318835 0.041180 -0.016262 -994387.000000 0 0 1
6.958946 4.029132 23.038218 24.401236 0.524825 0.335817 0.040352 -0.016390 -54443.000000 0 1 0
5.992346 4.237932 22.032718 23.223026 0.615558 0.321557 0.035537 -0.015606 95631.800000 0 1 0
4.759046 3.537132 22.163418 22.942906 0.639163 0.261416 0.030577 -0.015537 -94717.400000 0 1 0
3.634346 3.933832 21.231318 21.896401 0.824949 0.247100 0.014250 -0.008431 -418875.000000 0 1 0
3.281146 5.243332 21.466218 22.339583 1.011640 0.280544 0.009202 -0.008316 631879.000000 0 1 0
2.107746 5.454132 20.632518 21.445068 1.202026 0.276158 0.003411 -0.005559 1025160.000000 0 1 0
1.456046 6.849332 20.722318 21.873452 1.361332 0.325869 0.001194 0.001077 -300468.000000 0 1 0
2.297146 7.740832 20.103418 21.664367 1.282317 0.381926 -0.005420 0.001341 -280982.000000 0 1 0
1.743146 9.066832 20.211318 22.220337 1.380859 0.428509 0.002389 0.000419 249963.000000 0 1 0
2.671446 10.180132 19.670818 22.309478 1.314165 0.491291 0.001056 -0.006439 -763997.000000 0 1 0
2.778546 10.248532 18.308418 21.164851 1.306044 0.525569 0.001211 -0.001912 -78638.800000 0 1 0
3.604046 11.300832 17.813718 21.401554 1.262075 0.587451 -0.004459 -0.002932 638484.000000 0 1 0
5.138446 11.040632 17.918918 21.665337 1.135200 0.596908 0.004428 -0.008026 11554.300000 0 1 0
5.597846 10.084532 16.974618 20.522459 1.064052 0.596825 0.010695 -0.007679 353589.000000 0 1 0
6.852446 9.516532 17.384518 20.970023 0.946736 0.593448 0.006333 -0.002437 415158.000000 0 1 0
6.748846 8.198032 18.215118 21.084240 0.882052 0.527792 0.011228 0.006434 -434939.000000 0 1 0
6.502146 8.344532 19.592318 22.265850 0.908861 0.495088 0.024063 0.008598 -190954.000000 0 1 0
6.658946 7.127232 20.323418 22.542855 0.819353 0.447467 0.022846 0.004966 1772810.000000 0 1 0
8.147546 6.540032 20.493818 23.003285 0.676385 0.471455 0.041128 -0.006025 1368930.000000 0 1 0
8.683646 6.132332 19.267818 22.005909 0.614870 0.504172 0.027073 -0.005504 -1025940.000000 0 1 0
9.997946 5.685832 19.314218 22.479472 0.517087 0.537105 0.023103 -0.009529 -545750.000000 0 1 0
10.235746 4.139732 19.272418 22.211123 0.384327 0.520256 0.034149 -0.009676 -259397.000000 0 1 0
9.817346 3.501432 20.441018 22.945055 0.342594 0.471544 0.044793 -0.013198 19834.000000 0 1 0
9.930646 2.077932 20.300118 22.694280 0.206268 0.463476 0.042441 -0.022775 -424765.000000 0 1 0
9.040546 1.338132 21.249018 23.130993 0.146948 0.406176 0.052560 -0.024077 -275983.000000 0 1 0
9.430146 1.516732 22.615718 24.549926 0.159473 0.399609 0.035194 -0.019963 453505.000000 0 1 0
8.595346 0.651432 23.413418 24.949800 0.075644 0.352765 0.045040 -0.024184 -209262.000000 0 1 0
8.947546 0.502032 24.873808 26.438929 0.056050 0.345806 0.034334 -0.012862 -685032.000000 0 0 1
10.236446 -0.022068 25.044268 27.055511 -0.002156 0.388014 0.030864 -0.013999 -277330.000000 0 0 1
10.306546 -1.416768 24.885978 26.973024 -0.136607 0.395965 0.027927 -0.014678 478012.000000 0 0 1
11.780446 -1.892268 25.164618 27.849912 -0.159267 0.442743 0.026717 -0.008500 922644.000000 0 0 1
11.812646 -3.301968 25.060568 27.901141 -0.272571 0.455158 0.029527 -0.005579 -304216.000000 0 0 1
13.128246 -3.775468 25.216618 28.678962 -0.280027 0.496464 0.025181 -0.001196 -132164.000000 0 0 1
13.209646 -5.303568 25.265648 28.999579 -0.381792 0.513070 0.029683 -0.003469 -186505.000000 0 0 1
13.022546 -5.850768 24.032158 27.952868 -0.422255 0.536039 0.023485 -0.009851 209333.000000 0 0 1
12.947146 -7.254168 24.245848 28.427323 -0.510710 0.549269 0.029856 -0.005202 19287.800000 0 0 1
12.723346 -8.092868 22.979618 27.485285 -0.566516 0.580716 0.040481 -0.003552 -240277.000000 0 0 1
12.289146 -9.401268 23.227318 27.909054 -0.653036 0.587642 0.038739 0.001763 -296725.000000 0 0 1
12.237846 -10.155068 22.014218 27.157248 -0.692654 0.625586 0.030062 -0.003741 29733.000000 0 0 1
11.665046 -11.599368 22.098918 27.549607 -0.782575 0.639909 0.035122 0.001073 -733010.000000 0 0 1
10.280446 -11.561968 22.100618 26.977843 -0.844002 0.610758 0.036577 0.003123 -895196.000000 0 0 1
9.657746 -12.783368 22.526618 27.642994 -0.923789 0.618218 0.035425 0.008253 -162018.000000 0 0 1
8.154446 -12.689668 22.801318 27.339034 -0.999637 0.584441 0.017089 0.016101 58418.500000 0 0 1
7.464846 -12.248668 21.591818 25.922199 -1.023463 0.586384 0.016096 0.004693 240276.000000 0 0 1
6.062546 -12.201568 21.810618 25.716450 -1.109659 0.558371 0.008297 0.005652 468103.000000 0 0 1
5.347946 -11.076168 21.060818 24.389344 -1.120976 0.528577 0.005486 0.000074 17369.800000 0 1 0
5.878646 -9.821868 21.416018 24.283192 -1.031461 0.490860 0.014129 0.003491 -319238.000000 0 1 0
5.095446 -8.740668 20.995318 23.305927 -1.043002 0.449056 0.012636 -0.000978 -226352.000000 0 1 0
5.498146 -7.395568 21.566218 23.452629 -0.931508 0.403824 0.022782 -0.010182 -90914.100000 0 1 0
4.570846 -6.378368 21.280118 22.680821 -0.949005 0.353280 0.012972 -0.006264 -274326.000000 0 1 0
5.091546 -5.117968 21.494018 22.674000 -0.787986 0.324034 0.035922 -0.024922 -207056.000000 0 1 0
-8.222154 -15.263768 -20.341006 26.727195 1.076692 2.435742 0.033885 0.004025 35637.600000 0 0 1
-7.700054 -14.452668 -19.304106 25.314402 1.081272 2.438079 0.038274 -0.009469 259919.000000 0 0 1
-6.804854 -13.429568 -19.761406 24.842957 1.101798 2.490551 0.022989 -0.018152 168784.000000 0 1 0
-5.832954 -12.942668 -18.697606 23.476296 1.147380 2.492192 0.011249 -0.016477 172948.000000 0 1 0
-4.968554 -13.968768 -18.164806 23.447242 1.229061 2.457052 0.022500 -0.008895 -265425.000000 0 1 0
-4.345854 -13.516668 -17.058506 22.194129 1.259717 2.447453 0.026129 -0.013363 -380314.000000 0 1 0
-3.343554 -14.581168 -16.535806 22.298491 1.345387 2.406198 0.025561 -0.002300 -893478.000000 0 1 0
-2.170654 -14.594868 -17.250106 22.699957 1.423151 2.433983 0.014849 -0.009694 -1718120.000000 0 1 0
-1.229154 -15.393468 -16.680406 22.731160 1.491116 2.394713 0.020457 0.001649 -1387280.000000 0 1 0
0.072746 -15.428568 -17.446306 23.289903 -1.566081 2.417488 0.013846 0.008710 -711341.000000 0 1 0
0.016746 -16.269468 -18.611806 24.720340 -1.569767 2.423245 0.020455 -0.002477 5297.650000 0 1 0
0.279946 -17.665168 -18.447606 25.543114 -1.554950 2.377795 0.027116 0.006580 -168000.000000 0 0 1
-0.024554 -18.384668 -19.722906 26.962745 1.569461 2.391297 0.040591 -0.004833 1490220.000000 0 0 1
-1.452854 -18.439068 -20.012106 27.250585 1.492167 2.395539 0.036902 0.001842 1432850.000000 0 0 1
-1.682554 -18.726768 -21.388306 28.477754 1.481189 2.420452 0.047969 -0.000300 -431369.000000 0 0 1
-2.851854 -17.933968 -21.943106 28.482629 1.413097 2.450269 0.039756 0.002136 -312811.000000 0 0 1
-2.614954 -16.526968 -22.034106 27.667318 1.413874 2.492107 0.028657 0.007221 23443.200000 0 0 1
-3.318154 -15.797868 -21.014206 26.498672 1.363768 2.486561 0.018952 0.004052 31143.900000 0 0 1
-2.658954 -14.523168 -20.455606 25.227450 1.389718 2.516394 0.025444 -0.006053 -339073.000000 0 0 1
-2.510554 -13.525868 -21.447306 25.480167 1.387274 2.571268 0.022101 -0.017744 262160.000000 0 0 1
-1.955154 -12.362568 -20.810906 24.284759 1.413944 2.600125 0.027769 -0.022157 19132.000000 0 1 0
-1.679654 -11.345168 -21.916806 24.736218 1.423814 2.659488 0.035123 -0.024780 -245741.000000 0 1 0
-2.858354 -10.839568 -22.481106 25.121038 1.312969 2.679029 0.023025 -0.016282 -311640.000000 0 0 1
-2.606354 -10.074468 -23.616106 25.807139 1.317638 2.726551 0.017603 -0.010379 -163771.000000 0 0 1
-3.614654 -8.935468 -23.855806 25.729512 1.186392 2.757601 0.007819 -0.008796 -451266.000000 0 0 1
-4.955454 -9.306968 -23.907806 26.129664 1.081530 2.726225 0.016912 -0.015096 -321231.000000 0 0 1
-5.828054 -8.259268 -23.695806 25.761850 0.956296 2.738372 0.023707 -0.017610 -1171650.000000 0 0 1
-7.320454 -8.502468 -23.461706 26.006396 0.859962 2.695527 0.014663 -0.020330 87911.700000 0 0 1
-8.148354 -8.781968 -24.590806 27.353727 0.822806 2.688261 0.024724 -0.013635 279757.000000 0 0 1
-8.267254 -7.731268 -25.515776 27.913703 0.751908 2.724067 0.032858 -0.017132 -620181.000000 0 0 1
-9.288254 -8.008768 -26.645516 29.332500 0.711561 2.710227 0.034919 -0.019862 58172.600000 0 0 1
-9.668754 -6.834368 -27.349426 29.802424 0.615309 2.733026 0.051752 -0.025655 135302.000000 0 0 1
-10.410654 -7.282468 -28.479406 31.184814 0.610404 2.721978 0.053698 -0.020456 -80150.600000 0 0 1
-11.290854 -6.295768 -29.236766 31.967304 0.508659 2.725273 0.060744 -0.021427 296310.000000 0 0 1
-10.540854 -5.292068 -29.974806 32.211870 0.465289 2.766713 0.031267 -0.016242 455251.000000 0 0 1
-11.338954 -4.744468 -31.036866 33.382164 0.396286 2.764513 0.054095 -0.019647 -123153.000000 0 0 1
-10.695854 -3.764168 -31.964796 33.916345 0.338391 2.800710 0.038262 -0.024608 -517472.000000 0 0 1
-9.698054 -4.290368 -32.802796 34.474381 0.416511 2.828912 0.033397 -0.019525 -37376.200000 0 0 1
-9.187454 -3.240568 -33.607096 34.990677 0.339093 2.859441 0.025360 -0.017062 -268189.000000 0 0 1
-8.125854 -3.684568 34.210520 35.354847 0.425709 0.255120 0.024137 -0.016653 -345267.000000 0 0 1
-6.925954 -3.854568 -33.959606 34.872358 0.507850 2.912293 0.026373 -0.015228 -588011.000000 0 0 1
-5.917054 -4.318968 34.000941 34.781159 0.630525 0.212210 0.019928 -0.015068 1340340.000000 0 0 1
-4.437854 -4.026768 -34.394707 34.912824 0.736871 2.969098 0.030003 -0.016429 966078.000000 0 0 1
-4.197454 -2.654968 34.342720 34.699999 0.563988 0.143624 0.037457 -0.021199 -582518.000000 0 0 1
-2.871354 -2.426668 -34.150595 34.356899 0.701660 3.031950 0.035390 -0.023328 -281944.000000 0 0 1
-2.597454 -1.008868 -33.621536 33.736809 0.370472 3.058903 0.048700 -0.025294 -130627.000000 0 0 1
-3.295754 -0.755968 -32.432406 32.608196 0.225476 3.037710 0.032332 -0.030136 36632.400000 0 0 1
-3.302754 0.587832 -31.938786 32.114479 -0.176138 3.036942 0.038129 -0.032564 -652024.000000 0 0 1
-3.783954 0.576632 -30.490036 30.729352 -0.151225 3.016709 0.063304 -0.027113 975303.000000 0 0 1
-5.001354 -0.116368 -30.199416 30.610975 0.023263 2.977428 0.042782 -0.025860 1154810.000000 0 0 1
-6.279854 0.442832 -30.524866 31.167292 -0.070400 2.938204 0.047998 -0.026482 335951.000000 0 0 1
-7.386954 -0.596868 -30.519456 31.406377 0.080625 2.903374 0.040905 -0.026014 -321960.000000 0 0 1
-7.754354 -1.116468 -29.267966 30.298355 0.142997 2.880049 0.040019 -0.027142 -685879.000000 0 0 1
-8.747454 -2.056768 -29.341876 30.687032 0.230933 2.844410 0.048507 -0.027911 -701553.000000 0 0 1
-9.245254 -2.663668 -28.019236 29.625115 0.280515 2.810825 0.051681 -0.023065 -13699.800000 0 0 1
-10.099254 -1.792668 -27.299466 29.162809 0.175675 2.782186 0.047981 -0.020551 223115.000000 0 0 1
-10.477754 -2.348168 -26.063786 28.188972 0.220467 2.750805 0.042562 -0.017915 263968.000000 0 0 1
-11.330854 -1.559268 -25.023106 27.513186 0.136754 2.712864 0.045628 -0.012680 460984.000000 0 0 1
-10.579954 -0.540668 -24.404006 26.604196 0.051059 2.732040 0.051929 -0.014795 136688.000000 0 0 1
-11.418654 0.212032 -23.546406 26.169903 -0.018567 2.689996 0.048875 -0.011960 86706.700000 0 0 1
-10.743054 1.432132 -22.874506 25.312195 -0.132526 2.699119 0.054019 -0.019069 57710.700000 0 0 1
-10.507154 2.478132 -23.748706 26.087209 -0.231619 2.714945 0.028877 -0.017279 -46323.400000 0 0 1
-9.856854 3.517432 -23.041706 25.307116 -0.342765 2.715248 0.028856 -0.018690 -229503.000000 0 0 1
-9.702154 4.785732 -23.929106 26.260943 -0.458245 2.716996 0.036925 -0.028784 793871.000000 0 0 1
-10.937454 5.480532 -24.224006 27.137918 -0.464511 2.673933 0.041793 -0.024290 868436.000000 0 0 1
-11.514954 5.053932 -25.457576 28.394094 -0.413586 2.682782 0.037451 -0.019261 526099.000000 0 0 1
-12.843354 5.774632 -25.881516 29.464402 -0.422538 2.643299 0.033943 -0.010460 482888.000000 0 0 1
-12.731554 7.079332 -26.384996 30.139300 -0.507473 2.637131 0.022469 -0.008065 -329787.000000 0 0 1
-13.938754 7.579232 -26.878926 31.212342 -0.498034 2.608350 0.023838 -0.003683 -472056.000000 0 0 1
-14.073254 9.060432 -26.974806 31.745678 -0.572008 2.586242 0.024199 0.004003 -123649.000000 0 0 1
-13.929654 9.699132 -25.735366 30.828842 -0.608234 2.558533 0.047460 -0.004570 183512.000000 0 0 1
-14.305454 11.037732 -25.751026 31.457795 -0.657167 2.529748 0.041027 0.001360 -220275.000000 0 0 1
-13.979154 11.728532 -24.400406 30.468919 -0.698074 2.499475 0.026108 0.001189 -96105.200000 0 0 1
-14.648454 11.234432 -23.284806 29.714842 -0.654253 2.471250 0.038796 0.002039 -10884.400000 0 0 1
-14.116754 11.899332 -22.181706 28.860092 -0.700371 2.447437 0.029062 0.005127 127469.000000 0 0 1
-14.988554 11.731332 -20.898406 28.267017 -0.664094 2.402858 0.043130 0.004410 68315.300000 0 0 1
-16.291354 12.232232 -21.025506 29.276400 -0.644040 2.371969 0.049943 0.001280 -283736.000000 0 0 1
-16.684554 12.931632 -19.845206 28.972981 -0.659351 2.325339 0.049802 0.001626 748302.000000 0 0 1
-18.170354 13.438632 -19.948006 30.144345 -0.636806 2.293946 0.063634 -0.007524 671477.000000 0 0 1
-18.387554 14.615332 -20.671806 31.289513 -0.671592 2.292497 0.065522 -0.009191 892391.000000 0 0 1
-19.780654 14.964432 -20.603506 32.244580 -0.647660 2.263962 0.049321 -0.014274 765802.000000 0 0 1
-20.188554 16.291932 -21.228406 33.520889 -0.678988 2.256592 0.048994 -0.012963 -271888.000000 0 0 1
-20.215054 16.270032 -22.640506 34.437695 -0.677690 2.288204 0.059356 -0.018199 160561.000000 0 0 1
-20.595654 17.516532 -23.122906 35.576377 -0.704782 2.278316 0.041846 -0.006462 -144266.000000 0 0 1
-20.578054 17.488132 -24.665106 36.574014 -0.704403 2.310933 0.030360 -0.007294 -291960.000000 0 0 1
-19.331054 17.667032 -25.273626 36.394640 -0.740453 2.338427 0.030776 -0.004257 -218909.000000 0 0 1
-19.282954 17.201532 -26.617086 37.097093 -0.728410 2.371000 0.022311 -0.010927 -323528.000000 0 0 1
-18.406854 17.977432 -27.588346 37.724225 -0.773596 2.391046 0.005405 -0.007442 -322951.000000 0 0 1
-18.912954 19.255932 -27.972356 38.870856 -0.794384 2.374055 0.000873 -0.018873 292497.000000 0 0 1
-18.328354 20.368532 -27.330596 38.700996 -0.838071 2.354911 -0.006907 -0.022150 -1374650.000000 0 0 1
-19.221554 21.597332 -27.485426 39.891873 -0.843535 2.330902 0.024144 -0.018172 117754.000000 0 0 1
-20.249554 21.868532 -26.557806 39.919847 -0.823818 2.298663 0.036246 -0.012237 204064.000000 0 0 1
-21.303554 20.923832 -26.603606 39.992499 -0.776406 2.298578 0.073385 -0.023542 -927678.000000 0 0 1
-22.435554 21.303332 -25.635736 40.179310 -0.759518 2.262738 0.061210 -0.012360 27916.700000 0 0 1
-21.971654 21.083032 -24.319806 38.970512 -0.764762 2.244720 0.024435 -0.000167 -46412.600000 0 0 1
-22.811554 21.698932 -23.391506 39.222101 -0.760407 2.209787 0.023620 -0.007530 -435113.000000 0 0 1
-22.671754 21.363332 -21.858606 38.055210 -0.755694 2.182657 0.026470 0.000214 81699.500000 0 0 1
-21.422954 21.792432 -21.348206 37.277325 -0.793948 2.180575 0.021326 0.001943 406864.000000 0 0 1
-20.425454 20.840332 -20.971506 35.934978 -0.795452 2.193946 0.021570 0.000918 329232.000000 0 0 1
-20.701954 19.901332 -19.746706 34.850628 -0.765683 2.173182 0.032650 -0.012406 -555008.000000 0 0 1
-21.731554 18.921832 -20.016406 35.084935 -0.716394 2.177926 0.055968 -0.016729 1017100.000000 0 0 1
-22.541854 18.587532 -18.885206 34.789115 -0.689549 2.144621 0.053381 -0.013755 -214387.000000 0 0 1
-23.481554 19.649332 -18.352406 35.697205 -0.696780 2.110770 0.014325 -0.009027 -1155810.000000 0 0 1
-24.532554 19.888932 -19.271206 36.997232 -0.681241 2.118681 0.013937 -0.004683 -273361.000000 0 0 1
-25.424854 20.846632 -18.812806 37.880429 -0.686777 2.090516 0.007568 -0.009092 -1011470.000000 0 0 1
-26.865894 20.658432 -19.404506 39.052297 -0.655517 2.090802 -0.004924 -0.001075 244334.000000 0 0 1
-27.585254 19.568332 -18.908606 38.747919 -0.616991 2.080582 0.002641 -0.007518 58301.400000 0 0 1
-27.767814 19.565932 -17.501506 38.212300 -0.613824 2.046548 -0.007215 -0.012918 -1642300.000000 0 0 1
-28.793784 18.498432 -17.162506 38.286102 -0.571046 2.035625 -0.009233 -0.008190 -246574.000000 0 0 1
-28.192344 17.220232 -16.978606 37.143205 -0.548332 2.045542 0.000792 -0.011743 1134.320000 0 0 1
-29.160834 16.398532 -16.416806 37.266306 -0.512274 2.026982 0.000720 -0.008120 -76347.000000 0 0 1
-28.616924 15.127232 -15.643106 35.950914 -0.486274 2.020972 0.033041 -0.007469 -347949.000000 0 0 1
-27.955914 15.408732 -14.438706 35.034816 -0.503748 1.995581 0.031718 -0.006275 173643.000000 0 0 1
-28.810074 15.677532 -13.317906 35.400169 -0.498355 1.956499 0.010945 -0.003267 281031.000000 0 0 1
-28.056494 16.277332 -12.124606 34.628376 -0.525706 1.928512 0.014578 -0.002208 -79116.200000 0 0 1
-27.490524 17.577032 -12.231706 34.846744 -0.568877 1.929450 0.014189 0.002683 -23986.700000 0 0 1
-28.416924 18.637132 -12.291206 36.137764 -0.580474 1.917842 -0.003310 -0.003077 -89265.800000 0 0 1
-27.721384 20.058032 -12.411506 36.398424 -0.626362 1.918766 0.005290 -0.010858 392597.000000 0 0 1
-27.069294 20.490932 -11.252506 35.766519 -0.647954 1.890842 -0.005451 -0.017332 -126563.000000 0 0 1
-25.942994 21.311332 -11.434806 35.467825 -0.687695 1.899059 -0.009836 -0.013277 97353.600000 0 0 1
-25.613924 21.957332 -10.098806 35.216238 -0.708683 1.861645 -0.015044 -0.005331 214052.000000 0 0 1
-26.400034 23.114732 -9.793206 36.430200 -0.719145 1.842965 -0.006458 -0.015527 325954.000000 0 0 1
-25.689874 24.308932 -10.070506 36.773753 -0.757786 1.848191 0.016962 -0.018387 307951.000000 0 0 1
-26.250964 25.404932 -9.133506 37.655605 -0.769021 1.815794 0.038254 0.001421 83779.500000 0 0 1
-25.819484 25.357832 -7.782206 37.016592 -0.776378 1.782612 0.023326 0.000731 -75847.800000 0 0 1
-26.794194 25.832832 -6.888306 37.851193 -0.767133 1.753800 0.039731 -0.008399 -3778.990000 0 0 1
-26.744034 25.079632 -5.559106 37.082812 -0.753293 1.721274 0.041931 -0.002964 106205.000000 0 0 1
-27.070144 23.702532 -5.725306 36.433252 -0.719168 1.728595 0.033476 -0.007013 -78500.300000 0 0 1
-26.955054 23.063632 -4.476606 35.756762 -0.707755 1.696322 0.030097 -0.008285 -244610.000000 0 0 1
-27.127204 21.556432 -4.453506 34.934205 -0.671466 1.698627 0.015508 -0.004361 -78767.200000 0 0 1
-26.220374 20.769932 -5.195506 33.851017 -0.669923 1.724887 0.009051 -0.012779 -153575.000000 0 0 1
-26.172874 20.885932 -6.624106 34.133858 -0.673520 1.766098 0.005880 -0.008396 -92238.000000 0 0 1
-27.125794 19.923232 -7.445006 34.469870 -0.633491 1.788498 0.006524 -0.010203 124081.000000 0 0 1
-26.644864 18.613432 -7.595206 33.378073 -0.609769 1.800358 -0.004292 -0.007599 215917.000000 0 0 1
-26.841004 18.152332 -8.895606 33.601762 -0.594636 1.838727 -0.013619 -0.008082 -210630.000000 0 0 1
-26.595464 16.642132 -9.040906 32.649919 -0.559139 1.851367 0.008700 -0.002530 -74353.400000 0 0 1
-27.518494 15.779232 -8.398706 32.814477 -0.520635 1.829622 -0.010299 -0.003056 122320.000000 0 0 1
-27.248274 14.429332 -8.771906 32.056518 -0.487007 1.847970 0.003226 -0.009453 353105.000000 0 0 1
-27.960874 13.383732 -7.829406 31.972400 -0.446430 1.818192 -0.006281 -0.010311 1415320.000000 0 0 1
-29.390334 13.193132 -7.978106 33.188863 -0.421933 1.813559 0.010343 0.000274 1018920.000000 0 0 1
-29.879154 12.379132 -6.931906 33.076548 -0.392779 1.781933 0.023925 -0.005366 -164329.000000 0 0 1
-30.406164 11.000232 -7.410806 33.173181 -0.347127 1.796095 0.029205 -0.001767 -98490.000000 0 0 1
-29.404564 10.071832 -7.792006 32.043494 -0.330001 1.816429 0.035589 0.007151 441833.000000 0 0 1
-29.997484 8.823032 -8.091606 32.298127 -0.286059 1.824023 0.025480 0.012855 213048.000000 0 0 1
-28.847824 7.828132 -8.481506 31.071088 -0.264979 1.847276 0.046561 0.005780 337537.000000 0 0 1
-28.578294 8.048832 -9.875806 31.289521 -0.274530 1.891913 0.048653 0.009846 1049950.000000 0 0 1
-27.492924 7.156132 -10.241706 30.198735 -0.254640 1.916803 0.061454 -0.007683 595805.000000 0 0 1
-26.931874 7.338632 -11.662306 30.252119 -0.266030 1.966550 0.055832 -0.006887 -90965.000000 0 0 1
-26.436644 8.611732 -11.956506 30.265758 -0.314910 1.976919 0.070597 -0.016209 661968.000000 0 0 1
-25.518444 8.562732 -13.069606 29.921998 -0.323745 2.022823 0.069722 -0.008082 347647.000000 0 0 1
-30.894974 25.724632 34.357978 52.884088 -0.694334 0.863627 -0.016440 0.019462 -149415.000000 0 0 1
-31.286284 27.076632 34.287637 53.736558 -0.713394 0.878808 -0.016410 0.013469 383136.000000 0 0 1
-31.334094 27.523332 32.937155 53.143348 -0.720743 0.902335 -0.007735 0.007757 -377227.000000 0 0 1
-31.577334 29.079832 32.808951 54.029547 -0.744247 0.918213 0.006557 -0.005658 -66859.300000 0 0 1
-31.351154 29.540632 31.495888 53.362297 -0.755673 0.939456 0.019268 -0.006321 242392.000000 0 0 1
-31.597594 30.895932 31.435008 54.232152 -0.774171 0.952512 0.025897 -0.011533 -19770.200000 0 0 1
-31.537844 31.484032 29.985178 53.712110 -0.784544 0.978512 0.051382 -0.013830 -677767.000000 0 0 1
-30.273944 31.380232 29.432058 52.606812 -0.803340 0.977047 0.044386 -0.014789 -561835.000000 0 0 1
-30.133974 32.250532 28.257598 52.408444 -0.819313 1.001333 0.036636 -0.010950 761406.000000 0 0 1
-28.697914 32.264732 27.614698 51.255778 -0.843840 1.001829 0.044700 -0.012717 291933.000000 0 0 1
-28.416724 31.098432 26.868628 49.965446 -0.830427 1.003037 0.052567 -0.015172 299127.000000 0 0 1
-27.108964 30.996832 26.334248 48.879363 -0.852209 1.001832 0.034858 -0.003138 20352.200000 0 0 1
-26.866774 31.713332 24.980718 48.493249 -0.867944 1.029628 0.035557 -0.006928 -506622.000000 0 0 1
-27.047144 33.115332 25.121798 49.591108 -0.885922 1.039584 0.028900 -0.010013 564611.000000 0 0 1
-28.086524 33.677332 24.302128 50.135905 -0.875671 1.064748 0.024755 -0.003536 255466.000000 0 0 1
-28.454044 -34.000593 24.893718 50.846535 0.873975 1.059182 0.039167 -0.005471 -273701.000000 0 0 1
-29.111434 -34.086293 26.135418 51.888448 0.863955 1.042938 0.048800 -0.016777 305681.000000 0 0 1
-29.205524 -32.893093 26.820968 51.519730 0.844711 1.023247 0.044003 -0.021995 -272087.000000 0 0 1
-29.645564 -33.093093 28.272098 52.662357 0.840294 1.004090 0.064214 -0.020805 -548255.000000 0 0 1
-30.966294 -33.472793 28.501608 53.774352 0.824276 1.012169 0.063836 -0.022238 -520902.000000 0 0 1
-31.168114 -33.433593 29.861638 54.598296 0.820452 0.992099 0.057584 -0.023439 109818.000000 0 0 1
-32.638864 -33.760993 30.199978 55.831342 0.802296 0.999272 0.066960 -0.026338 40522.300000 0 0 1
-32.875614 -33.752693 31.582888 56.723268 0.798561 0.980281 0.056606 -0.023663 82714.500000 0 0 1
-34.280469 -33.904893 31.695318 57.699961 0.779890 0.989255 0.052887 -0.023860 212374.000000 0 0 1
-34.813277 -34.358593 33.077987 59.047696 0.778825 0.976180 0.041833 -0.009384 -28270.000000 0 0 1
-34.365511 33.387332 33.422614 58.418947 -0.770962 0.961709 0.022419 -0.001162 -258.987000 0 0 1
-35.069328 33.033632 -34.289182 59.133972 -0.755516 2.189348 0.019063 0.002295 168045.000000 0 0 1
-34.744047 31.603432 -33.713366 57.814503 -0.738098 2.193372 -0.001949 0.003504 308558.000000 0 0 1
-33.702074 31.601532 -32.752306 56.632148 -0.753243 2.187482 -0.005460 -0.004271 -221329.000000 0 0 1
-33.328194 30.308032 -32.434916 55.510081 -0.737974 2.194822 -0.015950 0.004434 255149.000000 0 0 1
-32.455624 30.116032 -31.163376 54.143318 -0.748025 2.184100 -0.020266 0.005938 131430.000000 0 0 1
-33.106734 30.361532 -29.910796 53.967899 -0.742172 2.158238 -0.022324 0.004857 -345324.000000 0 0 1
-33.441294 31.674432 -29.666236 54.787547 -0.758271 2.142990 -0.023386 0.011660 111257.000000 0 0 1
-34.378982 31.931832 -28.462526 54.878700 -0.748511 2.116061 -0.024207 0.011593 478656.000000 0 0 1
-33.832864 31.599232 -27.176806 53.681961 -0.751275 2.101634 -0.039189 0.004411 -478955.000000 0 0 1
-34.914214 31.338032 -26.345656 53.806767 -0.731472 2.082467 -0.013753 0.000383 -659968.000000 0 0 1
-34.643762 30.931232 -24.887606 52.690837 -0.728844 2.062732 -0.010588 0.003813 -352533.000000 0 0 1
-34.148871 32.026532 -24.171506 52.688764 -0.753338 2.047396 -0.009223 -0.000148 -44382.600000 0 0 1
-33.865374 31.815232 -22.760906 51.741003 -0.754194 2.026284 -0.011082 0.005324 -433940.000000 0 0 1
-35.101107 31.730332 -21.827306 52.108857 -0.735004 2.003007 -0.018665 0.005726 -412904.000000 0 0 1
35.116156 32.905432 -21.795106 52.829334 0.752909 1.996056 -0.014499 -0.000091 -433779.000000 0 0 1
-35.203144 33.973232 -21.012606 53.244450 -0.767621 1.976477 -0.009054 -0.004143 -12313.700000 0 0 1
-35.002889 33.872032 -19.519906 52.474218 -0.768981 1.951949 -0.012041 -0.001478 -46544.800000 0 0 1
-34.075638 32.951432 -19.019306 51.075238 -0.768627 1.952367 -0.007259 -0.001261 -277171.000000 0 0 1
-33.914964 32.930132 -17.603406 50.443020 -0.770666 1.927275 0.002701 0.006091 80911.300000 0 0 1
-32.832164 31.882232 -17.241906 48.905123 -0.770720 1.931100 -0.002276 0.012157 148249.000000 0 0 1
-32.820374 31.480732 -15.847506 48.159702 -0.764567 1.906106 0.004650 0.010068 -91478.400000 0 0 1
-31.617074 30.791532 -15.586006 46.804715 -0.772171 1.910281 0.007239 0.012376 94078.400000 0 0 1
-31.442644 30.568132 -14.067206 46.053630 -0.771297 1.881210 0.013386 0.005225 119421.000000 0 0 1
-32.470514 29.773232 -13.469906 46.067537 -0.742091 1.867526 0.013481 -0.003239 267772.000000 0 0 1
-32.115894 29.311232 -12.195906 45.158821 -0.739771 1.844259 0.026350 -0.011896 -374305.000000 0 0 1
-33.125224 28.450932 -11.408406 45.131892 -0.709633 1.826348 0.035032 -0.012714 -157814.000000 0 0 1
-32.651304 28.144732 -10.125206 44.280395 -0.711407 1.801498 0.037071 -0.013650 133827.000000 0 0 1
-33.382924 27.056132 -9.606906 44.031199 -0.681098 1.790750 0.050987 -0.015137 -238186.000000 0 0 1
-32.578764 26.291032 -8.454206 42.709107 -0.678994 1.770061 0.034686 -0.014763 429796.000000 0 0 1
-32.221184 27.009932 -7.332506 42.679114 -0.697642 1.743458 0.036442 -0.018182 -361283.000000 0 0 1
-31.027024 27.716632 -7.528606 42.279638 -0.729105 1.749818 0.043358 -0.018590 -916977.000000 0 0 1
-30.491664 28.300132 -6.245006 42.067079 -0.748139 1.719801 0.048007 -0.015271 -396356.000000 0 0 1
-29.860104 27.345632 -5.396006 40.847598 -0.741472 1.703285 0.057487 -0.015546 155185.000000 0 0 1
-29.987584 27.679132 -4.059306 41.010578 -0.745389 1.669941 0.050980 -0.013847 226812.000000 0 0 1
-29.145234 26.761032 -3.094306 39.688439 -0.742778 1.648840 0.050295 -0.008824 212797.000000 0 0 1
-29.832814 25.553732 -2.841306 39.383537 -0.708293 1.643004 0.039325 0.001197 -99963.200000 0 0 1
-29.146324 24.752732 -1.940306 38.287997 -0.704063 1.621495 0.005209 0.009843 -228531.000000 0 0 1
-29.863624 23.434732 -1.688406 37.998334 -0.665357 1.615245 0.012171 0.001669 -248051.000000 0 0 1
-29.759094 22.456232 -2.694606 37.378428 -0.646439 1.642949 -0.000653 0.009423 572463.000000 0 0 1
-30.839434 21.523232 -2.480906 37.689190 -0.609324 1.636669 0.005634 0.011980 576910.000000 0 0 1
-31.172064 20.543432 -3.622706 37.508054 -0.582699 1.667532 0.005889 0.013363 -636814.000000 0 0 1
-30.105864 19.734832 -3.976206 36.216527 -0.580242 1.680808 -0.003426 0.009787 -473342.000000 0 0 1
-30.429134 18.924732 -5.048806 36.187955 -0.556387 1.710769 0.004968 0.005022 -174938.000000 0 0 1
-29.289264 17.958432 -5.387006 34.776229 -0.550026 1.726327 0.009030 0.005307 -264692.000000 0 0 1
-29.134244 16.880632 -4.409206 33.958813 -0.525141 1.701004 0.004054 0.002049 356253.000000 0 0 1
-28.416434 15.860232 -5.113306 32.942170 -0.509068 1.726647 0.004628 -0.003479 -80192.000000 0 0 1
-28.091274 14.656732 -4.219406 31.964712 -0.480899 1.703185 0.006047 -0.006234 -668871.000000 0 0 1
-29.161244 13.856832 -3.869206 32.517083 -0.443595 1.690069 0.025352 -0.009452 -133061.000000 0 0 1
-28.675524 12.642532 -3.305506 31.512627 -0.415246 1.675884 0.034005 -0.013512 -262510.000000 0 0 1
-29.804444 11.775132 -2.782906 32.166802 -0.376258 1.657419 0.032632 -0.019625 -802128.000000 0 0 1
-30.706814 11.320832 -3.741206 32.940344 -0.353214 1.684617 0.015515 -0.012885 205280.000000 0 0 1
-31.734694 10.622732 -3.038306 33.603043 -0.323012 1.661338 0.032098 -0.018940 310441.000000 0 0 1
-32.913264 10.171332 -3.960906 34.676039 -0.299725 1.685272 0.022491 -0.010900 191974.000000 0 0 1
-32.436824 9.266632 -4.915306 34.090735 -0.278270 1.715484 0.026182 -0.012813 359668.000000 0 0 1
-33.481854 8.578932 -5.593906 35.013203 -0.250830 1.731250 0.018957 -0.002991 -109355.000000 0 0 1
-33.094584 7.668632 -6.770006 34.639463 -0.227700 1.767504 0.024426 -0.004629 -570341.000000 0 0 1
-32.472254 6.475732 -6.311106 33.707750 -0.196841 1.759138 0.017579 -0.006508 605248.000000 0 0 1
-32.056764 5.560132 -7.370206 33.359723 -0.171738 1.793566 0.021771 0.002311 -168866.000000 0 0 1
-30.984254 4.541132 -6.941006 32.075277 -0.145526 1.788919 0.033241 -0.000434 -94336.600000 0 0 1
-29.697694 5.093332 -6.775906 30.883781 -0.169853 1.791996 0.030134 0.000254 324162.000000 0 0 1
-28.779724 4.099332 -6.331406 29.751701 -0.141486 1.785244 0.022108 -0.001594 414951.000000 0 0 1
-27.303724 4.562832 -6.239706 28.376869 -0.165584 1.792495 0.038070 -0.000977 433085.000000 0 0 1
-26.651524 4.848232 -7.479206 28.102448 -0.179944 1.840183 0.048816 -0.000086 1067030.000000 0 0 1
-25.224304 4.827132 -7.344006 26.711442 -0.189082 1.849322 0.064278 -0.008055 864011.000000 0 0 1
-24.399754 5.138232 -8.633706 26.387313 -0.207553 1.904126 0.061395 -0.003273 173250.000000 0 0 1
-24.560654 4.208632 -9.697106 26.738963 -0.169708 1.941915 0.065491 -0.019068 686393.000000 0 0 1
-23.696554 4.657932 -10.761206 26.439110 -0.194091 1.989984 0.065660 -0.019947 62624.100000 0 0 1
-23.916854 3.940932 -12.094906 27.089363 -0.163309 2.033626 0.063477 -0.021323 -212294.000000 0 0 1
-25.061554 4.561532 -12.621006 28.428486 -0.180042 2.030805 0.068990 -0.009950 -115888.000000 0 0 1
-25.386434 3.955132 -13.856406 29.190993 -0.154555 2.065398 0.060186 -0.012309 -68822.700000 0 0 1
-26.242104 4.947732 -14.717006 30.491283 -0.186354 2.074489 0.046412 -0.011300 -330499.000000 0 0 1
-25.590864 5.828232 -15.602406 30.533517 -0.223927 2.107136 0.043570 -0.005490 -111006.000000 0 0 1
-26.430204 6.711632 -16.319906 31.779569 -0.248682 2.110095 0.065700 -0.009276 -29707.000000 0 0 1
-27.262534 6.107032 -17.490406 32.961430 -0.220370 2.130143 0.035670 -0.008810 567815.000000 0 0 1
-28.448264 5.407832 -17.092406 33.625863 -0.187852 2.104019 0.040095 -0.015743 260005.000000 0 0 1
-29.144424 4.769532 -18.103006 34.639063 -0.162214 2.120715 0.034893 -0.005342 -567834.000000 0 0 1
-30.495414 4.260332 -17.575506 35.454465 -0.138806 2.089461 0.035960 -0.007254 -342711.000000 0 0 1
-30.458024 3.093032 -16.765906 34.904923 -0.101204 2.071828 0.030631 -0.012652 205002.000000 0 0 1
-30.236414 1.907432 -17.478406 34.976759 -0.063000 2.094066 0.035269 -0.007051 -132765.000000 0 0 1
-30.390054 0.623232 -16.576506 34.622599 -0.020505 2.070058 0.032755 -0.010830 -228961.000000 0 0 1
-29.832294 -0.548768 -17.153606 34.416756 0.018393 2.092558 0.027287 -0.001348 359047.000000 0 0 1
-29.846554 -1.584968 -16.227006 34.009478 0.053054 2.068185 0.030844 -0.011239 -31852.000000 0 0 1
-29.593014 -3.032068 -16.716106 34.122838 0.102103 2.082749 0.039713 -0.003008 -56747.800000 0 0 1
-30.627494 -3.442168 -17.599606 35.491379 0.111919 2.089649 0.031384 -0.006059 407906.000000 0 0 1
-30.375864 -4.653068 -18.239906 35.735673 0.152002 2.106460 0.044287 -0.000356 118186.000000 0 0 1
-31.485774 -4.921168 -19.304306 37.258933 0.155044 2.115439 0.053699 -0.003930 22043.800000 0 0 1
-31.230144 -5.939668 -20.197906 37.663735 0.187946 2.136807 0.049608 -0.000466 -670654.000000 0 0 1
-32.230814 -6.034068 -21.161506 39.026205 0.185072 2.143895 0.045176 -0.004076 -822505.000000 0 0 1
-32.098664 -7.147968 -22.248006 39.703796 0.219112 2.165604 0.052519 -0.002321 -727837.000000 0 0 1
-30.990054 -7.016068 -23.067306 39.264605 0.222644 2.198742 0.040889 -0.001977 -592422.000000 0 0 1
-30.800114 -8.088768 -23.990306 39.869913 0.256822 2.216442 0.032093 0.004673 -245793.000000 0 0 1
-29.419994 -8.190568 -24.655306 39.249274 0.271526 2.249998 0.029638 0.010223 -508921.000000 0 0 1
-29.012934 -7.045068 -25.408766 39.204447 0.238214 2.275895 0.023323 0.015507 97224.100000 0 0 1
-29.186134 -7.134468 -26.845236 40.291410 0.239746 2.300001 0.010689 0.018873 415057.000000 0 0 1
-30.644114 -7.049768 -27.408096 41.712884 0.226119 2.287716 0.021636 0.017112 209856.000000 0 0 1
-31.441474 -8.134568 -27.125936 42.314937 0.253170 2.266660 0.022023 0.012267 124557.000000 0 0 1
-32.728114 -8.112568 -27.772366 43.683492 0.242980 2.259793 0.026775 0.014810 786920.000000 0 0 1
-33.668474 -9.211968 -27.330076 44.332376 0.267072 2.235062 0.037877 0.003322 -755603.000000 0 0 1
-33.146034 -10.446968 -27.687676 44.434290 0.305325 2.243516 0.030906 0.004040 -204802.000000 0 0 1
-34.054964 -11.501768 -27.622406 45.332422 0.325712 2.226012 0.023499 -0.000656 20007.800000 0 0 1
-35.263119 -11.523468 -28.605856 46.846268 0.315846 2.227655 0.019980 0.000392 430919.000000 0 0 1
34.592859 -10.638268 -28.244576 45.908547 -0.298349 2.233481 0.017383 0.002612 399340.000000 0 0 1
33.698669 -10.368568 -29.303536 45.845444 -0.298492 2.264229 0.019061 -0.003942 610927.000000 0 0 1
32.458259 -9.450868 -29.037546 44.564970 -0.283336 2.280459 0.011884 -0.000767 945206.000000 0 0 1
31.433509 -9.994568 -28.194906 43.392506 -0.307850 2.278071 0.001324 0.000347 577075.000000 0 0 1
30.475849 -8.988868 -27.864276 42.261034 -0.286818 2.290733 0.008881 0.000374 -333191.000000 0 0 1
29.539559 -9.425668 -26.788716 40.976384 -0.308874 2.283339 0.008365 0.005642 -734331.000000 0 0 1
30.109899 -9.540568 -25.500756 40.594544 -0.306850 2.250011 -0.002764 0.012745 85588.700000 0 0 1
29.135709 -9.978268 -24.560106 39.391042 -0.329956 2.244001 -0.016700 0.012583 42295.700000 0 0 1
29.507659 -9.960468 -23.079806 38.763260 -0.325546 2.208565 -0.022914 0.010339 -302145.000000 0 0 1
30.338639 -11.004668 -22.672606 39.440877 -0.347968 2.183218 -0.028981 0.009917 -143157.000000 0 0 1
30.787829 -10.723068 -21.379706 38.986747 -0.335150 2.151227 -0.018037 0.005652 -356984.000000 0 0 1
31.511729 -11.921968 -20.748206 39.567795 -0.361691 2.122773 -0.004888 0.001363 -11443.300000 0 0 1
32.791619 -12.154968 -21.315106 40.955674 -0.354972 2.118166 0.003065 -0.001290 381711.000000 0 0 1
33.600249 -12.951868 -20.445506 41.409496 -0.367918 2.087181 0.021372 -0.001670 219196.000000 0 0 1
35.061851 -13.044268 -20.931306 42.867306 -0.356169 2.080916 0.031903 -0.014323 -235531.000000 0 0 1
-35.034991 -11.872668 -20.984606 42.529572 0.326734 2.086805 0.039045 -0.014425 456124.000000 0 0 1
-35.138190 -10.945668 -22.085206 42.921514 0.301977 2.111277 0.044624 -0.002089 -577756.000000 0 0 1
-34.592151 -11.348668 -23.475106 43.318469 0.317007 2.143515 0.037968 -0.000170 224091.000000 0 0 1
-35.388518 -12.331768 -24.135206 44.574969 0.335309 2.142960 0.036618 -0.000276 1089520.000000 0 0 1
34.226329 -11.937968 -24.599006 43.807166 -0.335601 2.167029 0.036718 -0.000602 627302.000000 0 0 1
33.534689 -12.998968 -25.526656 44.103953 -0.369795 2.188033 0.029921 -0.015107 28684.900000 0 0 1
33.447209 -14.329368 -25.072926 44.189345 -0.404762 2.174138 0.023768 -0.023626 552191.000000 0 0 1
32.649289 -14.561268 -23.894006 42.999187 -0.419515 2.159983 0.015192 -0.015266 34590.100000 0 0 1
-29.129014 9.112232 -19.099806 36.004650 -0.303179 2.129965 0.027119 -0.003398 -92499.100000 0 0 1
-28.039614 8.293432 -19.395306 35.088158 -0.287577 2.156468 0.025347 -0.004900 69074.400000 0 0 1
-27.182784 8.847132 -20.434506 35.138931 -0.314655 2.191410 0.038975 -0.018080 620673.000000 0 0 1
-25.910424 8.002332 -20.663306 34.093395 -0.299553 2.221919 0.032546 -0.009062 545658.000000 0 0 1
-24.949054 8.090432 -19.585106 32.733572 -0.313579 2.212197 0.044891 -0.011734 631906.000000 0 0 1
-23.815554 7.258332 -19.774206 31.794389 -0.295830 2.242014 0.049272 -0.011390 147691.000000 0 0 1
-22.483654 7.864532 -19.340906 30.682832 -0.336487 2.252800 0.053735 -0.011453 -196912.000000 0 0 1
-21.929454 8.789632 -20.248206 31.115083 -0.381208 2.279371 0.062125 -0.011496 867285.000000 0 0 1
-20.593054 9.157732 -19.815506 30.009868 -0.418438 2.292014 0.058345 -0.001318 1437290.000000 0 0 1
-19.757554 9.987332 -20.867506 30.423026 -0.468033 2.326652 0.066091 -0.000408 375631.000000 0 0 1
-19.255254 9.297232 -22.015206 30.689943 -0.449827 2.370777 0.066516 -0.008131 329322.000000 0 0 1
-18.516754 10.194132 -22.874506 31.145361 -0.503254 2.395643 0.071438 -0.007669 394813.000000 0 0 1
-17.686154 9.494932 -23.974606 31.268762 -0.492697 2.444524 0.064835 -0.004770 -318641.000000 0 0 1
-18.487654 8.791032 -24.849106 32.195553 -0.443863 2.452492 0.060889 -0.007170 -294297.000000 0 0 1
-17.711054 8.003632 -25.755516 32.265867 -0.424433 2.495144 0.048164 -0.001053 254946.000000 0 0 1
-18.608454 7.025132 -26.598586 33.213127 -0.360981 2.499502 0.019106 0.002286 159602.000000 0 0 1
-19.020254 5.937732 -25.798256 32.597189 -0.302593 2.483934 0.030633 0.000824 199044.000000 0 0 1
-19.784954 5.013432 -26.589256 33.519657 -0.248173 2.486914 0.014121 0.000553 -459903.000000 0 0 1
-20.113554 3.732832 -25.722486 32.865413 -0.183500 2.469726 0.011391 0.002553 414736.000000 0 0 1
-19.042654 2.843232 -25.386086 31.861575 -0.148214 2.492714 0.018854 0.002184 541271.000000 0 0 1
-17.897654 3.367232 -24.727106 30.709836 -0.185964 2.506784 0.027049 -0.002655 -14256.300000 0 0 1
-17.021654 2.153332 -24.235706 29.694157 -0.125837 2.525561 0.025509 -0.005633 114135.000000 0 0 1
-17.446954 1.362232 -23.076506 28.961647 -0.077920 2.492769 0.028660 -0.006108 816748.000000 0 0 1
-18.681154 0.625432 -23.238006 29.822501 -0.033467 2.464201 0.018804 -0.002817 761008.000000 0 0 1
-18.982954 -0.365868 -22.074206 29.116266 0.019271 2.431252 0.054975 -0.013404 150000.000000 0 0 1
-18.169954 -1.526268 -22.021706 28.590772 0.083803 2.450011 0.051520 -0.016432 220189.000000 0 0 1
-18.469854 -2.182468 -20.796506 27.899701 0.117618 2.411935 0.065930 -0.014754 -177681.000000 0 0 1
-17.947254 -3.626668 -20.634006 27.586570 0.199389 2.415799 0.041574 -0.024757 -423730.000000 0 0 1
-18.432954 -4.518668 -21.530706 28.701279 0.240400 2.419108 0.042106 -0.026500 73392.700000 0 0 1
-18.516754 -5.739668 -20.890906 28.499893 0.300580 2.393543 0.051418 -0.016254 -234738.000000 0 0 1
-18.622554 -6.846768 -21.980406 29.611079 0.352320 2.407298 0.022618 -0.014853 -33580.500000 0 0 1
-17.457854 -6.973668 -22.794606 29.546620 0.380038 2.451959 0.033807 -0.009574 76626.700000 0 0 1
-17.545354 -7.581568 -24.055306 30.724214 0.407880 2.470179 0.036461 -0.011324 212194.000000 0 0 1
-16.138954 -7.855968 -24.665606 30.505314 0.453008 2.512510 0.048659 -0.016586 -261005.000000 0 0 1
-16.073154 -8.566268 -25.888686 31.653614 0.489663 2.528504 0.045014 -0.026151 956456.000000 0 0 1
-14.738054 -8.572568 -26.437066 31.458188 0.526827 2.568794 0.061780 -0.023053 1062450.000000 0 0 1
-13.607254 -9.359368 -25.760016 30.599568 0.602506 2.571484 0.073346 -0.025990 -649950.000000 0 0 1
-13.084654 -8.829168 -24.578606 29.210790 0.593594 2.570706 0.060617 -0.032319 -95068.000000 0 0 1
-12.170054 -9.713368 -23.981106 28.592887 0.673604 2.565704 0.038226 -0.030114 -159527.000000 0 0 1
-11.286554 -9.142468 -22.872406 27.094611 0.680828 2.575808 0.037533 -0.028604 -379378.000000 0 0 1
-12.052954 -8.619768 -21.820106 26.375957 0.620827 2.545032 0.026855 -0.024774 -143711.000000 0 0 1
-11.272854 -8.336468 -20.697406 24.999131 0.636758 2.546194 0.024930 -0.025927 -825727.000000 0 1 0
-12.066254 -8.170268 -19.374206 24.242682 0.595203 2.496722 0.017485 -0.022488 76196.700000 0 1 0
-12.833954 -7.004968 -19.132406 24.079637 0.499625 2.489058 0.016497 -0.019425 1218390.000000 0 1 0
-14.122354 -6.981968 -19.794506 25.298443 0.459151 2.469370 0.029709 -0.025547 434703.000000 0 0 1
-14.906354 -5.729068 -19.465806 25.178149 0.366932 2.454547 0.036829 -0.022914 -547044.000000 0 0 1
-15.165054 -5.537468 -18.088306 24.245190 0.350104 2.412918 0.028237 -0.018462 340940.000000 0 1 0
-14.816854 -4.233868 -17.675206 23.449471 0.278330 2.424557 0.025987 -0.023627 -648778.000000 0 1 0
-14.883754 -4.038568 -16.150606 22.331104 0.264961 2.379270 0.032817 -0.020063 -139683.000000 0 1 0
-16.090554 -3.910168 -15.432906 22.635590 0.238389 2.321014 0.045797 -0.021738 -131549.000000 0 1 0
-16.769654 -2.680868 -15.687806 23.119593 0.158523 2.316584 0.033412 -0.022843 -101497.000000 0 1 0
-17.925754 -2.452668 -14.683406 23.301301 0.135979 2.252548 0.037232 -0.023078 -50727.700000 0 1 0
-17.537154 -2.341268 -13.303106 22.136077 0.132719 2.215510 0.040615 -0.034900 317455.000000 0 1 0
-18.456954 -1.528268 -12.624706 22.413789 0.082613 2.169118 0.034027 -0.026569 -360326.000000 0 1 0
-17.870854 -0.211168 -12.076406 21.569691 0.011816 2.165035 0.028418 -0.020078 -237814.000000 0 1 0
-17.545354 0.702732 -13.098006 21.906415 -0.040031 2.211684 0.040048 -0.017038 699248.000000 0 1 0
-16.793754 1.814032 -12.547306 21.041762 -0.107601 2.209687 0.049970 -0.014263 -320247.000000 0 1 0
-16.169654 2.751332 -13.647806 21.337529 -0.168540 2.264794 0.046481 -0.008219 753508.000000 0 1 0
-15.318754 2.131732 -14.632906 21.291558 -0.138270 2.328511 0.032186 -0.019875 774793.000000 0 1 0
-14.143454 1.466932 -14.207006 20.100452 -0.103349 2.355761 0.033861 -0.017008 -361836.000000 0 1 0
-13.577154 0.445032 -15.243106 20.417870 -0.032766 2.413668 0.028399 -0.018378 -7039.900000 0 1 0
-13.189954 1.043832 -16.441306 21.104052 -0.078974 2.463960 0.024751 -0.018020 274527.000000 0 1 0
-12.678354 0.022632 -17.313906 21.459555 -0.001785 2.509539 0.006979 -0.010381 135755.000000 0 1 0
-12.024054 0.665832 -18.574406 22.136616 -0.055319 2.566387 0.020562 -0.015061 -68766.300000 0 1 0
-10.823654 1.373432 -18.351006 21.349408 -0.126217 2.605196 0.012231 -0.008540 -318964.000000 0 1 0
-10.442354 2.196932 -19.407606 22.147786 -0.207363 2.638877 0.011096 -0.008324 -598517.000000 0 1 0
-9.042454 2.752832 -19.318006 21.506497 -0.295520 2.686546 0.006076 -0.005493 -1148890.000000 0 1 0
-8.021554 1.808132 -19.601306 21.256196 -0.221704 2.744387 0.012386 -0.000307 607100.000000 0 1 0
-6.681654 2.292732 -19.463906 20.706153 -0.330549 2.793444 0.012863 0.004622 966624.000000 0 1 0
-6.228954 3.496532 -20.376706 21.592493 -0.511504 2.804421 0.020802 0.005976 -964211.000000 0 1 0
-6.053654 3.032632 -21.705006 22.736553 -0.464414 2.839213 0.016859 0.008702 214123.000000 0 1 0
-5.572554 4.042332 -22.531706 23.559957 -0.627571 2.845062 0.006812 0.002686 -730638.000000 0 1 0
-5.034054 3.547732 -23.856906 24.638995 -0.613904 2.888961 0.019000 -0.007627 148800.000000 0 1 0
-3.922754 2.653432 -23.724706 24.192775 -0.594725 2.944564 0.029141 -0.017474 353684.000000 0 1 0
-3.595354 2.170232 -25.044906 25.394562 -0.543078 2.975456 0.044840 -0.017022 -513210.000000 0 0 1
-2.245354 1.449932 -25.117866 25.259674 -0.573380 3.035581 0.026707 -0.014393 -191751.000000 0 0 1
-1.150054 2.334432 -24.879006 25.014738 -1.113047 3.037372 0.023463 -0.012823 379240.000000 0 0 1
0.116946 1.715532 -24.944106 25.003303 1.502732 3.072767 0.030688 -0.013430 317864.000000 0 0 1
0.716746 0.965632 -23.710806 23.741282 0.932270 3.090918 0.027984 -0.021006 -519920.000000 0 1 0
0.320246 -0.342668 -23.683106 23.687750 -0.819208 3.121791 0.027434 -0.023254 232938.000000 0 1 0
1.122546 -1.051868 -22.764506 22.816425 -0.752905 3.074118 0.022576 -0.017227 -99439.900000 0 1 0
0.480646 -2.490168 -22.733806 22.874831 -1.380123 3.030494 0.031417 -0.025363 670492.000000 0 1 0
-0.754654 -2.538568 -22.013306 22.172043 1.281841 3.021861 0.028275 -0.022079 275284.000000 0 1 0
-1.905254 -2.548868 -22.832206 23.052903 0.928903 3.003109 0.032808 -0.021085 -89652.100000 0 1 0
-2.698754 -1.216568 -22.786506 22.977993 0.423510 3.012402 0.033204 -0.021168 -712295.000000 0 1 0
-3.381354 -1.006468 -21.563406 21.850103 0.289302 2.979421 0.030171 -0.019325 327347.000000 0 1 0
-4.324054 0.052032 -21.509606 21.939993 -0.012033 2.943194 0.019341 -0.018586 2057720.000000 0 1 0
-5.705354 -0.105068 -22.347106 23.064155 0.018414 2.891586 0.028482 -0.005939 1402510.000000 0 1 0
-6.496654 -1.142368 -21.755906 22.733916 0.174060 2.847205 0.036766 -0.001221 257381.000000 0 1 0
-7.832754 -1.032768 -22.232806 23.594836 0.131096 2.800155 0.022027 0.007965 613703.000000 0 1 0
-8.754954 -2.250568 -21.915506 23.706617 0.251614 2.750379 0.022315 0.003598 117718.000000 0 1 0
-8.509754 -3.300868 -22.819906 24.577627 0.370025 2.761103 0.035868 -0.001928 -8889.440000 0 1 0
-8.906054 -4.533868 -22.319606 24.454827 0.470883 2.720608 0.016518 -0.002891 -844461.000000 0 1 0
-9.935254 -5.259168 -23.141506 25.727367 0.486846 2.689397 0.024340 -0.013917 -24776.700000 0 0 1
-11.239354 -4.685268 -23.070906 26.087191 0.394958 2.655954 0.025431 -0.017677 870646.000000 0 0 1
-12.185654 -5.507268 -23.832606 27.327884 0.424472 2.630271 0.027105 -0.025323 444510.000000 0 0 1
-13.632854 -5.073368 -23.560406 27.689104 0.356263 2.588475 0.024088 -0.025023 -278799.000000 0 0 1
-14.018754 -3.749968 -23.909006 27.968344 0.261377 2.596076 0.026685 -0.025267 668919.000000 0 0 1
-15.457154 -3.722868 -23.826606 28.644205 0.236349 2.553161 0.038610 -0.022423 966170.000000 0 0 1
-16.035254 -2.388268 -24.267706 29.184837 0.147852 2.552630 0.029194 -0.019353 -373329.000000 0 0 1
-15.779554 -2.104268 -25.634436 30.175264 0.132572 2.585868 0.025268 -0.014159 271665.000000 0 0 1
-16.270554 -0.827468 -26.111106 30.776703 0.050813 2.583761 0.011985 -0.011509 -196344.000000 0 0 1
-17.686654 -0.908968 -26.697136 32.037182 0.051348 2.555878 0.008459 -0.005318 -780548.000000 0 0 1
-17.918954 -1.475068 -27.979466 33.258311 0.082134 2.570438 0.017194 -0.015764 -104935.000000 0 0 1
-17.210554 -0.861668 -29.066136 33.790322 0.050024 2.606441 0.009684 -0.009971 -165926.000000 0 0 1
-17.383554 -1.569468 -30.428906 35.079474 0.090041 2.620805 0.007569 -0.005023 450362.000000 0 0 1
-18.726554 -1.733868 -30.879926 36.156050 0.092326 2.594563 -0.005462 -0.005204 245059.000000 0 0 1
-18.734654 -2.442668 -32.098256 37.245831 0.129651 2.609593 -0.000181 -0.010131 360055.000000 0 0 1
-20.184454 -2.786468 -32.622376 38.462917 0.137183 2.583282 -0.022070 -0.004642 1184340.000000 0 0 1
-21.138554 -1.751768 -32.873686 39.122709 0.082682 2.568580 -0.019720 -0.009694 525469.000000 0 0 1
-21.609154 -1.150668 -31.655296 38.344978 0.053199 2.541954 -0.024827 0.002595 -767403.000000 0 0 1
-22.717354 -0.113868 -31.900986 39.163300 0.005012 2.522772 -0.012676 0.002068 28617.200000 0 0 1
-22.172854 1.063732 -32.482386 39.343009 -0.047938 2.542097 -0.013201 -0.004197 571161.000000 0 0 1
-23.256954 1.835132 -32.978186 40.395722 -0.078744 2.525908 -0.014571 -0.002823 254932.000000 0 0 1
-22.883754 3.223532 -33.540846 40.731385 -0.139945 2.538287 -0.012308 -0.001365 -736556.000000 0 0 1
-22.437554 4.270132 -32.688006 39.877106 -0.188063 2.531716 -0.020587 -0.007251 322861.000000 0 0 1
-23.340554 4.809632 -31.741976 39.692153 -0.203219 2.497598 -0.022978 -0.010837 -118452.000000 0 0 1
-24.606254 5.600032 -32.249486 40.949450 -0.223774 2.477609 -0.010294 -0.015211 -125254.000000 0 0 1
-25.513704 4.661132 -32.736406 41.765386 -0.180699 2.471585 -0.008873 -0.016410 -655330.000000 0 0 1
-26.160554 5.103832 -33.894986 43.119529 -0.192676 2.475222 -0.004815 -0.019338 -23363.300000 0 0 1
-27.617624 4.596532 -34.090588 44.113824 -0.164923 2.454017 0.011434 -0.017623 132322.000000 0 0 1
-27.647624 3.208732 -34.399388 44.249350 -0.115541 2.461316 0.009207 -0.018856 368301.000000 0 0 1
-28.742784 2.954932 33.612614 44.324791 -0.102446 0.710056 0.007826 -0.011032 21230.900000 0 0 1
-28.792314 1.446032 33.188959 43.961294 -0.050181 0.715205 0.010362 0.008885 -321298.000000 0 0 1
-28.908034 0.646132 34.304836 44.865507 -0.022348 0.700353 -0.002386 0.012755 225357.000000 0 0 1
-28.762834 -0.725368 34.011935 44.549282 0.025214 0.702131 0.005146 0.010818 -418233.000000 0 0 1
-28.370974 -1.628368 -33.626036 44.025834 0.057333 2.439945 -0.026476 0.018970 1334220.000000 0 0 1
-26.994364 -1.548668 -33.159476 42.786036 0.057307 2.457522 -0.021646 0.014474 1684880.000000 0 0 1
-26.540604 -0.324768 -32.541846 41.993819 0.012236 2.457385 -0.021304 0.021119 -489388.000000 0 0 1
-26.702984 -0.225268 -30.993366 40.910742 0.008436 2.430402 -0.001095 0.024770 -676000.000000 0 0 1
-25.824694 -0.975068 -30.233066 39.773155 0.037739 2.434321 -0.004153 0.017861 -3814.020000 0 0 1
-25.683554 -0.471668 -28.965926 38.715530 0.018363 2.416101 0.001158 0.012341 356093.000000 0 0 1
-24.682654 -1.309268 -28.042876 37.381151 0.052994 2.419142 0.001346 0.012998 407189.000000 0 0 1
-25.046954 -2.637268 -27.669296 37.415171 0.104906 2.403154 -0.007679 0.016182 -191395.000000 0 0 1
-24.145754 -3.162368 -26.735756 36.163775 0.130229 2.402822 0.006317 0.011039 -320625.000000 0 0 1
-24.525554 -4.552368 -26.037006 36.057628 0.183529 2.377621 0.006068 0.004615 290194.000000 0 0 1
-25.427614 -4.484768 -24.940506 35.898545 0.174578 2.338868 0.012055 0.011076 65404.000000 0 0 1
-25.758254 -5.682368 -24.300806 35.865110 0.217126 2.315238 0.006011 0.013345 160525.000000 0 0 1
-26.750404 -5.472268 -23.136906 35.788912 0.201784 2.273761 0.019274 0.012779 -27279.400000 0 0 1
-27.040584 -6.621668 -22.358906 35.706587 0.240153 2.247446 0.024902 0.006979 -198479.000000 0 0 1
-28.074604 -6.258868 -21.487106 35.903378 0.219350 2.212387 0.028446 0.011551 -488729.000000 0 0 1
-28.584604 -7.387868 -20.569506 35.982839 0.252921 2.179309 0.027773 0.003500 -425374.000000 0 0 1
-27.629424 -7.931868 -19.668206 34.830129 0.279562 2.170853 0.023921 0.000308 526715.000000 0 0 1
-28.255784 -8.884068 -18.776906 35.069761 0.304629 2.135796 0.034368 -0.000969 330165.000000 0 0 1
-29.022214 -8.279068 -17.586906 34.930375 0.277886 2.098423 0.040624 -0.008210 -168773.000000 0 0 1
-28.195894 -7.612568 -16.664606 33.625417 0.263701 2.089317 0.041382 -0.006000 491577.000000 0 0 1
-28.942864 -6.821968 -15.701106 33.626676 0.231480 2.056606 0.041028 -0.007131 -46365.000000 0 0 1
-28.036204 -6.026468 -14.781706 32.262143 0.211731 2.046737 0.035688 -0.005488 -35675.800000 0 0 1
-27.247354 -5.114368 -15.554506 31.788641 0.185543 2.082095 0.027807 -0.006331 492364.000000 0 0 1
-26.303124 -4.452268 -14.709006 30.463615 0.167678 2.074690 0.029949 -0.016940 156635.000000 0 0 1
-14.199054 22.206632 -4.596406 26.755833 -1.001905 1.743444 0.038699 -0.008341 49160.500000 0 0 1
-14.038354 21.317532 -5.671606 26.147269 -0.988444 1.789444 0.065729 -0.019544 -302198.000000 0 0 1
-14.857754 20.238632 -5.447206 25.690993 -0.937531 1.784446 0.044017 -0.017600 -470744.000000 0 0 1
-15.189954 19.431232 -6.747806 25.570302 -0.907296 1.837852 0.075985 -0.014994 -620135.000000 0 0 1
-14.118354 18.914632 -7.506806 24.767789 -0.929587 1.878727 0.071388 -0.015942 -389013.000000 0 1 0
-14.361954 17.913332 -8.473506 24.473526 -0.894991 1.924347 0.058906 -0.022018 -664323.000000 0 1 0
-14.953654 16.571532 -8.069706 23.734944 -0.836673 1.917705 0.051820 -0.003345 1694740.000000 0 1 0
-16.389454 16.641732 -7.790006 24.622056 -0.793036 1.892711 0.058757 0.010995 1552670.000000 0 1 0
-16.827354 15.654232 -6.859206 23.984652 -0.749297 1.860829 0.073988 0.013108 -211144.000000 0 1 0
-18.348754 15.699632 -6.650306 25.047590 -0.707750 1.839526 0.071380 0.008082 294394.000000 0 0 1
-19.179854 15.170132 -7.679906 25.631634 -0.669193 1.875097 0.076705 0.004813 273302.000000 0 0 1
-20.533354 15.579032 -7.564306 26.861563 -0.649058 1.856261 0.046071 0.000730 -155210.000000 0 0 1
-21.416454 14.696632 -8.412306 27.302424 -0.601425 1.884008 0.046802 0.007319 -502860.000000 0 0 1
-21.500954 13.348532 -7.939906 26.523884 -0.555598 1.874807 0.067212 0.003149 65582.200000 0 0 1
-22.255454 12.637132 -8.899406 27.096157 -0.516423 1.905446 0.068429 0.002350 55748.500000 0 0 1
-22.618454 11.309932 -8.230106 26.594053 -0.463673 1.885434 0.050985 -0.007547 -502434.000000 0 0 1
-21.543754 10.420832 -8.191506 25.294818 -0.450527 1.900583 0.056216 -0.004024 30828.600000 0 0 1
-22.052054 9.301632 -7.535806 25.091867 -0.399160 1.875833 0.061730 -0.010067 492966.000000 0 0 1
-20.888154 8.352032 -7.083206 23.584809 -0.380373 1.875834 0.050573 -0.001581 90378.200000 0 1 0
-20.393854 7.626732 -8.168806 23.255230 -0.357869 1.929721 0.032226 -0.002778 857554.000000 0 1 0
-19.522654 6.597032 -7.598906 21.963565 -0.325870 1.924077 0.030424 -0.000183 377451.000000 0 1 0
-19.248254 5.394432 -8.535806 21.736033 -0.273246 1.974365 0.017371 -0.015531 -660296.000000 0 1 0
-20.292954 4.477832 -8.460006 22.437171 -0.217179 1.957409 0.029970 -0.014412 69323.800000 0 1 0
-20.179754 3.473132 -9.433206 22.544855 -0.170440 2.002501 0.027574 -0.018532 -611516.000000 0 1 0
-21.135854 2.290032 -9.420906 23.253430 -0.107927 1.987929 0.024755 -0.015386 -398026.000000 0 1 0
-20.911654 1.475332 -8.315406 22.552602 -0.070434 1.948419 0.035809 -0.018616 216149.000000 0 1 0
-21.861854 0.427332 -8.166006 23.341099 -0.019544 1.928213 0.043061 -0.011560 -152821.000000 0 1 0
-21.714254 -0.799168 -9.111506 23.561983 0.036787 1.967851 0.024722 -0.021036 -836547.000000 0 1 0
-20.656554 -1.616468 -8.790106 22.507158 0.078095 1.972022 0.031230 -0.016592 -350184.000000 0 1 0
-20.631254 -2.930968 -9.322606 22.828714 0.141120 1.991466 0.021834 -0.013511 -285436.000000 0 1 0
-21.553254 -3.963568 -8.667806 23.566575 0.181865 1.947439 0.020129 -0.008410 -449519.000000 0 1 0
-21.076454 -4.198468 -7.362606 22.716778 0.196628 1.900861 -0.000607 -0.005896 467097.000000 0 1 0
-21.902554 -4.894968 -6.412306 23.340956 0.219875 1.849098 0.001172 -0.007208 -230191.000000 0 1 0
-22.224854 -6.419268 -6.735806 24.094028 0.281180 1.854136 0.010236 -0.004474 288702.000000 0 1 0
-21.064854 -7.195768 -6.491106 23.187100 0.329173 1.854533 0.002912 -0.004436 823692.000000 0 1 0
-21.367454 -8.497368 -6.856406 23.995492 0.378503 1.860572 0.015170 -0.000342 480363.000000 0 1 0
-20.321454 -9.555668 -6.288006 23.319762 0.439546 1.843818 0.014062 0.000797 1211980.000000 0 1 0
-18.997354 -9.475168 -6.859706 22.309949 0.462657 1.883333 0.009334 0.002586 802158.000000 0 1 0
-18.143554 -10.189968 -5.998606 21.656575 0.511728 1.851454 0.019615 0.003028 -444569.000000 0 1 0
-17.451154 -11.416468 -6.545806 21.856946 0.579319 1.874948 0.012796 0.000114 -281023.000000 0 1 0
-16.269854 -11.303968 -7.326306 21.122561 0.607214 1.925004 0.008459 -0.004066 504884.000000 0 1 0
-16.454154 -10.718368 -8.641006 21.454360 0.577364 1.985329 -0.002810 -0.007781 -277212.000000 0 1 0
-15.351954 -11.149268 -9.645706 21.284461 0.628123 2.041127 -0.004244 -0.005553 393033.000000 0 1 0
-15.566754 -12.437568 -10.061506 22.321533 0.674120 2.038405 0.000331 -0.003507 550814.000000 0 1 0
-14.588554 -12.748068 -11.073506 22.315055 0.718173 2.090053 0.009287 0.006617 375662.000000 0 1 0
-14.740154 -14.005868 -11.835906 23.527115 0.759860 2.097950 0.015002 0.003962 306707.000000 0 1 0
-15.789454 -14.051568 -12.841006 24.731455 0.727226 2.116732 0.014446 0.006617 858823.000000 0 1 0
-15.815054 -15.325168 -13.473506 25.816895 0.769668 2.119858 0.005698 0.011134 146941.000000 0 0 1
-16.436254 -15.062968 -14.901406 26.815953 0.741828 2.159991 0.028854 0.012274 162448.000000 0 0 1
-16.746554 -16.276368 -15.591706 28.079681 0.771161 2.159480 0.030973 0.015741 289036.000000 0 0 1
-16.908154 -16.138868 -16.966306 28.882594 0.762124 2.198667 0.022360 0.012978 -257157.000000 0 0 1
-16.956954 -17.509968 -17.612706 30.072324 0.801442 2.196513 0.020938 0.006371 -964271.000000 0 0 1
-18.065054 -18.282968 -17.378306 31.026095 0.791393 2.165326 0.013564 0.007383 -864562.000000 0 0 1
-18.818254 -18.396668 -18.580206 32.214719 0.774070 2.185555 0.014630 0.010250 301434.000000 0 0 1
-20.356154 -18.203968 -18.472606 32.969601 0.729642 2.165535 0.012076 0.004370 211128.000000 0 0 1
-20.714454 -16.964168 -17.941406 32.229887 0.686191 2.161168 0.016430 0.008476 215100.000000 0 0 1
-21.210054 -17.157168 -16.587206 31.927577 0.680154 2.117092 0.021562 0.003481 -205846.000000 0 0 1
-20.941054 -15.924768 -15.665606 30.619229 0.650160 2.107873 0.022942 0.000038 306214.000000 0 0 1
-21.816054 -14.798168 -15.862206 30.765818 0.596024 2.112479 0.042379 0.000147 488209.000000 0 0 1
-21.522954 -13.759968 -14.944206 29.595668 0.568828 2.100115 0.041852 -0.002543 -496620.000000 0 0 1
-22.688354 -12.933168 -14.410806 29.827832 0.518095 2.075026 0.052710 -0.009217 -885617.000000 0 0 1
-23.522954 -13.465968 -13.456606 30.261227 0.519924 2.031615 0.068623 -0.009922 256933.000000 0 0 1
-24.324554 -12.414168 -12.873606 30.191476 0.471898 2.011304 0.100278 -0.016866 442992.000000 0 0 1
-25.611594 -12.950068 -12.166606 31.171851 0.468144 1.971762 0.083212 -0.015237 273198.000000 0 0 1
-26.412614 -11.958768 -11.547906 31.208852 0.425153 1.949827 0.074791 -0.025915 252335.000000 0 0 1
-27.217294 -12.503068 -10.511806 31.742808 0.430627 1.908324 0.072976 -0.024427 381895.000000 0 0 1
-28.080134 -11.339668 -9.835706 31.840589 0.383806 1.884837 0.079517 -0.024214 716976.000000 0 0 1
-27.295144 -10.381568 -9.052106 30.573558 0.363448 1.871378 0.072393 -0.024169 658728.000000 0 0 1
-28.035224 -9.267668 -8.565506 30.744615 0.319264 1.853134 0.077309 -0.025086 415396.000000 0 0 1
-27.089604 -8.322768 -7.737506 29.376591 0.298078 1.837331 0.060428 -0.015351 502722.000000 0 0 1
-26.491174 -8.833768 -6.542206 28.681321 0.321865 1.800922 0.041835 -0.015781 235625.000000 0 0 1
-25.683484 -7.904968 -5.843606 27.500501 0.298583 1.784920 0.030399 -0.011711 -331360.000000 0 0 1
-26.446374 -6.752468 -5.159006 27.778082 0.249986 1.757603 0.038999 -0.015285 -566522.000000 0 0 1
-27.107764 -7.109368 -3.941106 28.300288 0.256487 1.710511 0.029353 -0.014614 348819.000000 0 0 1
-26.342064 -7.248168 -2.749506 27.459061 0.268511 1.671096 0.045083 -0.005854 -325144.000000 0 0 1
-25.831054 -5.934668 -2.146206 26.590784 0.225830 1.651597 0.040085 -0.001910 -124427.000000 0 0 1
-26.885814 -5.168968 -1.609106 27.425434 0.189939 1.629502 0.034902 -0.010500 233070.000000 0 0 1
-26.391294 -4.010568 -0.916806 26.710027 0.150812 1.605127 0.014664 -0.005667 -423474.000000 0 0 1
-27.444594 -3.072568 -0.273706 27.617410 0.111491 1.580707 0.017114 -0.013152 -326324.000000 0 0 1
-28.266484 -3.463668 0.787594 28.488794 0.121928 1.543147 0.017185 -0.010649 -214317.000000 0 0 1
-27.608104 -3.678168 2.022794 27.925401 0.132448 1.498297 0.007441 -0.003840 -512147.000000 0 0 1
-28.456974 -3.942868 3.269794 28.914306 0.137679 1.457468 0.008278 0.000206 -386184.000000 0 0 1
-29.002714 -5.252468 3.237194 29.651733 0.179161 1.461404 0.016595 0.000556 144571.000000 0 0 1
-29.919144 -5.443368 4.304694 30.713447 0.179968 1.430177 0.027290 -0.001482 -473685.000000 0 0 1
-30.803594 -6.665568 4.182894 31.792889 0.213104 1.438847 0.023199 -0.001732 -417150.000000 0 0 1
-30.110914 -7.920668 4.252394 31.424305 0.257223 1.435058 0.024362 0.000274 138517.000000 0 0 1
-30.936604 -9.021868 3.905094 32.461012 0.283755 1.450203 0.035430 -0.006676 -43682.100000 0 0 1
-30.260304 -10.365468 4.235694 32.265616 0.330017 1.439141 0.019480 -0.000972 23641.200000 0 0 1
-30.029544 -10.649868 5.609094 32.352050 0.340808 1.396539 0.019183 0.001979 470444.000000 0 0 1
-29.163664 -11.755468 5.849694 31.983265 0.383164 1.386862 0.025363 0.001405 -158598.000000 0 0 1
-29.341804 -12.194768 7.273294 32.596850 0.393891 1.345773 0.033351 -0.018049 -186058.000000 0 0 1
-28.983234 -11.175368 8.145694 32.113377 0.368014 1.314340 0.046150 -0.013665 332067.000000 0 0 1
-29.046724 -11.458068 9.518894 32.643664 0.375730 1.274897 0.043401 -0.017866 -272247.000000 0 0 1
-28.889924 -10.225868 10.403894 32.364133 0.340198 1.243521 0.035697 -0.018036 348589.000000 0 0 1
-27.658144 -9.494768 10.370894 31.027068 0.330685 1.229984 0.035626 -0.012023 666600.000000 0 0 1
-27.654804 -8.607468 11.492694 31.160210 0.301743 1.193051 0.043061 -0.007707 4137.230000 0 0 1
-26.649234 -7.443268 11.531194 29.975862 0.272364 1.175932 0.043578 0.004606 -155146.000000 0 0 1
-27.194554 -6.347268 10.795194 29.939402 0.229297 1.201919 0.032215 0.003947 956388.000000 0 0 1
-26.316494 -5.186868 10.811594 28.919751 0.194601 1.187642 0.033174 -0.001035 99416.300000 0 0 1
-26.562014 -4.250468 9.638594 28.574631 0.158675 1.226735 0.032328 -0.010849 -121583.000000 0 0 1
-26.101404 -4.775668 8.395994 27.831331 0.180964 1.264348 0.026320 -0.002249 318887.000000 0 0 1
-26.236134 -3.789468 7.418094 27.526767 0.143445 1.297936 0.012149 -0.016327 -269240.000000 0 0 1
-25.636154 -4.213468 6.070994 26.680005 0.162900 1.341237 0.008956 -0.002684 -320008.000000 0 0 1
-24.257454 -3.942968 6.017594 25.301828 0.161137 1.330663 0.027137 -0.020408 -147933.000000 0 0 1
-23.726254 -4.277468 4.794994 24.580964 0.178368 1.374468 0.041504 -0.010492 141696.000000 0 1 0
-22.228454 -3.893168 4.619294 23.034730 0.173385 1.368891 0.047224 -0.018712 414565.000000 0 1 0
-22.066354 -2.507768 4.496894 22.659102 0.113161 1.371011 0.033103 -0.015672 -224034.000000 0 1 0
-20.708754 -2.269168 4.277094 21.267231 0.109140 1.368303 0.025207 -0.009574 -889546.000000 0 1 0
-20.327454 -0.766468 4.685694 20.874592 0.037688 1.344398 0.010019 -0.020553 -747066.000000 0 1 0
-20.645854 0.324932 3.834294 21.001397 -0.015737 1.387193 0.020974 -0.015615 -71444.000000 0 1 0
-21.993554 0.673832 3.854294 22.338891 -0.030628 1.397391 0.022604 -0.026911 -845650.000000 0 1 0
-22.306254 1.916332 2.973494 22.585016 -0.085700 1.438755 0.058072 -0.016834 -212655.000000 0 1 0
-21.579054 3.070232 3.385094 22.057669 -0.141330 1.416722 0.030476 -0.021910 309340.000000 0 1 0
-21.795754 4.147532 2.584694 22.336910 -0.188043 1.454822 0.046153 -0.006102 181800.000000 0 1 0
-20.561254 4.446832 1.699594 21.105167 -0.212992 1.490179 0.035900 0.000184 -16331.200000 0 1 0
-20.863354 5.393232 0.655194 21.559122 -0.252965 1.540401 0.053467 -0.003230 388865.000000 0 1 0
-21.635954 4.763332 -0.384306 22.157426 -0.216701 1.588142 0.053114 -0.002528 -263051.000000 0 1 0
-21.045154 3.801232 -1.415406 21.432481 -0.178696 1.636885 0.043328 0.001082 -773544.000000 0 1 0
-20.704854 2.545532 -0.882706 20.879413 -0.122330 1.613085 0.005688 0.001496 398530.000000 0 1 0
-20.441254 1.511132 -1.850606 20.580406 -0.073791 1.660839 0.014800 -0.000672 -531354.000000 0 1 0
-19.678654 0.392432 -1.172906 19.717483 -0.019939 1.630317 0.015175 -0.003764 -87964.700000 0 1 0
-20.556154 -0.436468 -0.396506 20.564610 0.021230 1.590079 0.023652 -0.004630 1035160.000000 0 1 0
-19.874554 -1.026968 0.703894 19.913513 0.051627 1.535441 0.021592 -0.008548 -118810.000000 0 1 0
-19.186254 -2.409768 0.398994 19.341109 0.124944 1.550166 0.019157 -0.004619 -30138.200000 0 1 0
-18.592554 -3.048568 1.500594 18.900492 0.162521 1.491318 0.032940 -0.005111 214913.000000 0 1 0
-17.773654 -4.101368 1.075894 18.272425 0.226786 1.511882 0.018338 -0.001420 -481595.000000 0 1 0
-18.471754 -5.377768 0.643594 19.249423 0.283304 1.537356 0.005921 -0.000001 -503805.000000 0 1 0
-19.285354 -5.853568 1.674094 20.223544 0.294687 1.487922 0.043106 -0.008009 196508.000000 0 1 0
-20.125154 -6.915668 1.297494 21.319751 0.330991 1.509900 0.013681 -0.002681 -288002.000000 0 1 0
-20.916554 -7.407368 2.518794 22.331942 0.340357 1.457767 0.025101 0.000093 -31869.400000 0 1 0
-20.048954 -8.054868 3.441894 21.878941 0.382023 1.412825 0.025898 -0.002098 954018.000000 0 1 0
-20.790254 -8.603268 4.543094 22.954097 0.392357 1.371560 0.031333 -0.006261 457773.000000 0 1 0
-19.924954 -9.449368 5.529294 22.734718 0.442835 1.325123 0.026054 -0.002277 -122374.000000 0 1 0
-19.396454 -10.612868 5.021194 22.673063 0.500656 1.347484 0.022810 0.004465 -53462.300000 0 1 0
-18.463554 -11.178368 5.896694 22.374756 0.544402 1.304104 0.023733 -0.000346 -327244.000000 0 1 0
-17.937754 -12.532468 5.374094 22.532347 0.609829 1.329969 0.017681 0.002278 -138261.000000 0 1 0
-18.755254 -13.647268 5.643194 23.871596 0.629043 1.332139 0.023804 0.004185 137330.000000 0 1 0
-18.180954 -14.814568 5.058894 23.991893 0.683724 1.358343 0.023977 0.004959 -44365.800000 0 1 0
-18.905854 -16.197368 5.480394 25.491582 0.708393 1.354116 0.032067 0.004115 236727.000000 0 0 1
-18.313454 -17.374168 4.990894 25.732340 0.759085 1.375605 0.029262 0.004388 -130383.000000 0 0 1
-18.876154 -18.462068 5.607694 26.992654 0.774308 1.361523 0.032981 0.007045 -138922.000000 0 0 1
-17.986954 -19.727868 5.427894 27.243005 0.831525 1.370214 0.028360 0.005876 -196492.000000 0 0 1
-17.788254 -20.145868 4.095394 27.185478 0.847469 1.419574 0.027178 0.007437 -65013.200000 0 0 1
-17.028554 -21.290968 3.862894 27.535412 0.896176 1.430044 0.022884 0.008833 911829.000000 0 0 1
-15.464954 -21.120768 4.015794 26.483546 0.938775 1.418576 0.026874 0.011328 1230470.000000 0 0 1
-14.806954 -22.439368 4.089594 27.193674 0.987517 1.419836 0.025087 0.009983 -149650.000000 0 0 1
-13.409354 -22.313468 4.060594 26.347486 1.029676 1.416063 0.019891 0.017798 -121963.000000 0 0 1
-12.702454 -23.702368 4.100594 27.202379 1.078831 1.419476 0.024294 0.020615 -167981.000000 0 0 1
-12.737454 -24.475968 2.937094 27.747833 1.090957 1.464748 0.022212 0.022636 197575.000000 0 0 1
-12.241654 -25.788118 3.234594 28.728865 1.127592 1.457967 0.024470 0.009816 -20500.700000 0 0 1
18.521346 19.644132 -24.452306 36.425917 0.814809 2.306742 0.046882 -0.010471 -435609.000000 0 0 1
17.469346 19.979832 -25.328916 36.686861 0.852335 2.332850 0.036000 -0.013551 77352.400000 0 0 1
17.689146 19.502132 -26.601086 37.428022 0.834107 2.361327 0.047381 -0.011800 193988.000000 0 0 1
16.531746 19.936832 -27.549436 37.812000 0.878499 2.387057 0.044651 -0.012837 265355.000000 0 0 1
16.452246 21.253132 -27.929336 38.761061 0.912043 2.375394 0.044662 -0.003706 -108569.000000 0 0 1
15.536846 21.319632 -28.976446 39.186155 0.941029 2.403059 0.037204 -0.001639 -404519.000000 0 0 1
15.212546 22.754132 -29.496766 40.239673 0.981483 2.393558 0.040170 0.004997 -122196.000000 0 0 1
14.322446 23.457132 -28.659036 39.707806 1.022634 2.377121 0.045059 -0.002162 260307.000000 0 0 1
14.077846 24.764132 -29.115726 40.732953 1.053878 2.367128 0.044163 0.001004 -30793.700000 0 0 1
13.370946 25.688632 -28.107146 40.357152 1.090883 2.341249 0.039410 -0.006582 336739.000000 0 0 1
12.000946 25.361232 -27.945466 39.600049 1.128817 2.354197 0.039652 -0.005613 -50814.200000 0 0 1
11.386546 26.111432 -26.947396 39.212530 1.159582 2.328443 0.030649 0.000696 329589.000000 0 0 1
9.859146 25.851732 -26.711916 38.458306 1.206450 2.338616 0.028679 0.000670 890457.000000 0 0 1
9.088546 26.601632 -25.816116 38.167006 1.241576 2.313658 0.033977 -0.001384 187562.000000 0 0 1
8.792946 27.941632 -26.254986 39.336688 1.265918 2.301566 0.037698 -0.002293 -379378.000000 0 0 1
8.492646 28.900932 -25.061966 39.185342 1.284988 2.264742 0.046864 -0.005962 239755.000000 0 0 1
9.660046 29.384532 -24.426406 39.413405 1.253180 2.239219 0.044474 0.000162 490214.000000 0 0 1
9.118446 30.057432 -23.299106 39.108102 1.276253 2.209010 0.067054 -0.010656 -59446.100000 0 0 1
10.165746 30.476932 -22.278806 39.096432 1.248846 2.177110 0.048468 -0.000527 -776034.000000 0 0 1
11.011546 31.478632 -22.699306 40.341256 1.234291 2.168423 0.033615 -0.003599 103006.000000 0 0 1
11.867346 31.847332 -21.587706 40.263079 1.214103 2.136685 0.028273 -0.001131 184510.000000 0 0 1
13.175946 32.544632 -21.974606 41.420308 1.186109 2.130019 0.014887 0.010432 -75823.700000 0 0 1
14.086146 31.731232 -22.686506 41.472499 1.153010 2.149603 0.009624 0.011012 245051.000000 0 0 1
15.223046 32.486032 -23.116706 42.678631 1.132580 2.143190 0.001613 0.011055 109232.000000 0 0 1
16.423946 31.687932 -23.600206 42.788325 1.092614 2.155026 -0.008716 0.016956 -348981.000000 0 0 1
17.235746 31.207432 -22.558506 42.188398 1.066192 2.134959 0.002443 0.019071 -769495.000000 0 0 1
18.386846 30.665732 -23.093806 42.565093 1.030679 2.144269 0.012033 0.014829 -372196.000000 0 0 1
19.368946 29.974332 -22.073806 41.962716 0.997108 2.124727 0.016989 0.018471 270031.000000 0 0 1
20.037746 30.857332 -21.210106 42.468280 0.994866 2.093742 0.019029 0.026277 -500129.000000 0 0 1
20.873446 30.129532 -20.409806 41.952946 0.964926 2.078867 0.022064 0.017146 -500058.000000 0 0 1
21.571546 30.875532 -19.263606 42.305042 0.960969 2.043562 0.022298 0.015989 619026.000000 0 0 1
22.584246 31.828532 -19.681206 43.708735 0.953683 2.037876 0.023699 0.020236 685732.000000 0 0 1
23.165946 32.444932 -18.527406 43.961341 0.950731 2.005837 0.025073 0.022276 472031.000000 0 0 1
24.513846 33.164232 -18.872406 45.353750 0.934266 1.999966 0.033417 0.022154 332820.000000 0 0 1
25.582246 32.304832 -19.144606 45.437533 0.901013 2.005718 0.040519 0.021410 -399977.000000 0 0 1
26.801246 33.003632 -18.955406 46.549479 0.888739 1.990193 0.034725 0.021830 301814.000000 0 0 1
28.060446 32.236432 -19.410506 46.939791 0.854545 1.997112 0.037671 0.011937 -29037.300000 0 0 1
28.314546 31.046532 -18.703506 45.993715 0.831389 1.989584 0.037789 0.013639 285729.000000 0 0 1
29.614446 30.614432 -19.110406 46.684757 0.802000 1.992538 0.027148 0.003638 298804.000000 0 0 1
30.067846 29.428232 -18.248306 45.859534 0.774648 1.980042 0.012101 -0.003792 -229294.000000 0 0 1
30.326646 29.798032 -16.912606 45.756578 0.776606 1.949398 0.004320 0.004562 162328.000000 0 0 1
30.687546 28.702832 -16.053706 44.981102 0.751992 1.935742 0.002809 -0.008451 -322997.000000 0 0 1
30.955046 29.008532 -14.547506 44.847963 0.752948 1.901146 -0.000054 -0.003902 682505.000000 0 0 1
32.195046 29.690432 -14.248606 46.055027 0.744948 1.885340 -0.008040 0.001183 614781.000000 0 0 1
32.302746 31.031532 -14.648406 47.127478 0.765329 1.886857 0.002344 0.001485 -98556.900000 0 0 1
33.763446 31.535732 -14.712506 48.486395 0.751296 1.879093 0.000342 -0.003041 454185.000000 0 0 1
34.273846 31.935532 -13.420406 48.730709 0.750096 1.849801 0.002842 -0.003683 430146.000000 0 0 1
-35.254846 32.240732 -13.562106 49.661854 -0.740771 1.847399 0.012324 -0.006862 709154.000000 0 0 1
-34.373246 32.465132 -12.303506 48.855717 -0.756858 1.825371 0.008275 0.000405 -11973.700000 0 0 1
-34.627746 33.711632 -11.743206 49.733870 -0.771994 1.809168 0.017511 -0.008823 462474.000000 0 0 1
-33.803746 33.966332 -10.590806 49.077186 -0.787797 1.788306 -0.000180 -0.006262 -42990.100000 0 0 1
-34.201846 -33.837093 -9.750706 49.089626 0.780037 1.770757 -0.000440 -0.001839 -418988.000000 0 0 1
-33.229846 -33.336293 -8.886806 47.901007 0.786997 1.757402 0.004358 0.000530 -377508.000000 0 0 1
-33.145746 -33.992593 -7.641106 48.088703 0.798011 1.730369 0.008979 -0.004793 -9856.060000 0 0 1
-32.813746 -32.929793 -6.585406 46.951899 0.787163 1.711519 0.022105 -0.004323 -310135.000000 0 0 1
-33.951046 -32.122593 -6.354206 47.168957 0.757732 1.705919 0.010114 -0.001066 -122768.000000 0 0 1
-33.798446 -31.096293 -5.466406 46.251443 0.743783 1.689262 0.015198 0.001932 -171406.000000 0 0 1
-35.126646 -30.332793 -5.341206 46.717107 0.712295 1.685378 0.020924 0.003191 4336.650000 0 0 1
34.770846 -31.115693 -4.740206 46.900615 -0.729978 1.672038 0.014747 -0.000487 1017800.000000 0 0 1
33.516546 -30.479993 -4.409306 45.517369 -0.737985 1.667819 0.021366 0.006532 464174.000000 0 0 1
33.564146 -29.477293 -3.206406 44.785531 -0.720661 1.642452 0.020864 0.008220 -501092.000000 0 0 1
34.336346 -28.312793 -3.357606 44.630398 -0.689545 1.646099 0.033010 -0.000037 229409.000000 0 0 1
33.861646 -27.336693 -2.442406 43.587512 -0.679180 1.626860 0.021680 0.000893 126363.000000 0 0 1
34.260546 -25.908693 -2.904806 43.052100 -0.647473 1.638320 0.025904 -0.003069 145978.000000 0 0 1
33.595346 -25.581493 -4.128906 42.427679 -0.650795 1.668267 0.036634 -0.017598 185496.000000 0 0 1
33.352546 -24.204993 -4.209406 41.424548 -0.627787 1.672588 0.030326 -0.016441 -142185.000000 0 0 1
32.917146 -23.696693 -5.635706 40.949151 -0.623950 1.708861 0.026205 -0.014231 545221.000000 0 0 1
33.983746 -23.925493 -6.596206 42.081281 -0.613424 1.728195 0.034033 -0.017526 642353.000000 0 0 1
33.536046 -23.576893 -7.866206 41.742227 -0.612758 1.760377 0.020237 -0.021918 -456973.000000 0 0 1
34.570046 -23.569093 -9.011506 42.799504 -0.598391 1.782936 0.028954 -0.030804 -160586.000000 0 0 1
35.088746 -24.853393 -9.437406 44.022448 -0.616275 1.786850 0.040233 -0.011069 -473986.000000 0 0 1
-34.791246 -24.630893 -10.309206 43.856487 0.616050 1.808084 0.044844 -0.013688 -518679.000000 0 0 1
-34.092946 -25.881993 -10.888806 44.167552 0.649338 1.819899 0.041824 -0.004927 92950.600000 0 0 1
-33.400346 -26.833093 -10.109606 44.020474 0.676797 1.802521 0.032373 -0.002372 373590.000000 0 0 1
-34.263746 -27.683593 -9.361906 45.033664 0.679573 1.780210 0.031862 -0.006642 164088.000000 0 0 1
-33.504146 -28.849193 -8.680506 45.057241 0.710882 1.764664 0.025748 -0.002312 -70006.700000 0 0 1
-32.884146 -29.718193 -9.554206 45.341162 0.734869 1.783106 0.021690 0.003150 303442.000000 0 0 1
-31.709546 -30.288193 -8.964806 44.757544 0.762476 1.772457 0.005880 -0.009625 404576.000000 0 0 1
-31.059546 -31.233593 -10.016606 45.172615 0.788192 1.794396 -0.001858 -0.006014 -85196.900000 0 0 1
-30.482246 -30.644693 -11.174906 44.644631 0.788056 1.823795 0.000319 0.008771 177847.000000 0 0 1
-30.029846 -31.613393 -12.096606 45.249599 0.811081 1.841418 -0.008658 0.010644 5821.490000 0 0 1
-30.139946 -31.047393 -13.512706 45.331559 0.800228 1.873483 -0.008223 0.013813 -175044.000000 0 0 1
-29.209446 -30.019293 -13.699506 44.068426 0.799071 1.886903 -0.010513 0.011507 81759.200000 0 0 1
-29.610146 -29.401793 -14.914106 44.313167 0.781867 1.914059 -0.002176 0.011839 179148.000000 0 0 1
-28.618246 -28.296493 -15.367106 43.079502 0.779745 1.935546 0.000965 -0.000309 -345202.000000 0 0 1
-27.417846 -28.864693 -15.770606 42.820799 0.811099 1.947969 0.012798 -0.005570 -884009.000000 0 0 1
-26.508346 -27.949893 -16.281006 41.820570 0.811863 1.970675 0.038123 0.000350 -136630.000000 0 0 1
-25.176346 -28.519893 -16.827706 41.598130 0.847586 1.987262 0.046208 -0.007899 -133899.000000 0 0 1
-25.272646 -29.416393 -17.961706 42.739370 0.861023 2.004530 0.037483 -0.007122 -128408.000000 0 0 1
-25.561946 -28.763293 -19.218406 43.012641 0.844259 2.033991 0.030750 -0.004032 753550.000000 0 0 1
-24.390346 -27.943293 -19.933206 42.107592 0.853184 2.063929 0.045687 -0.006523 971769.000000 0 0 1
-23.935446 -26.764693 -19.234806 40.733673 0.841144 2.062591 0.039773 -0.006595 366284.000000 0 0 1
-22.511246 -26.659293 -19.284206 39.866712 0.869559 2.075693 0.040066 -0.019974 450149.000000 0 0 1
-21.996446 -25.584693 -18.372806 38.418487 0.860669 2.069433 0.034772 -0.015096 -446793.000000 0 0 1
-22.376846 -25.774293 -17.037306 38.148489 0.855839 2.033764 0.043384 -0.009309 264136.000000 0 0 1
-22.036646 -24.616993 -16.262106 36.824804 0.840650 2.028186 0.044895 -0.009242 -1862.820000 0 0 1
-22.428146 -24.683993 -14.769206 36.475344 0.833244 1.987676 0.028593 -0.003727 381844.000000 0 0 1
-23.808146 -24.538593 -14.446106 37.116847 0.800506 1.970566 0.014528 0.009315 378138.000000 0 0 1
-24.012146 -24.397093 -13.035506 36.629575 0.793350 1.934645 0.004329 0.012823 -440769.000000 0 0 1
-25.497446 -24.274493 -12.683506 37.419809 0.760832 1.916599 -0.004358 0.018010 -792614.000000 0 0 1
-26.121846 -25.480793 -13.110706 38.775150 0.772976 1.915716 0.012714 0.013090 327435.000000 0 0 1
-27.472246 -25.647093 -12.715206 39.675864 0.751052 1.897029 0.009434 0.013990 665183.000000 0 0 1
-28.635746 -24.780593 -13.360006 40.156861 0.713351 1.909957 0.014341 0.014637 -239208.000000 0 0 1
-28.724846 -23.471093 -12.833106 39.251721 0.685082 1.903864 0.018332 0.020411 236896.000000 0 0 1
-29.279046 -23.274793 -11.531406 39.140157 0.671642 1.869852 0.024644 0.015571 601288.000000 0 0 1
-30.795446 -23.653093 -11.338806 40.452402 0.654967 1.854903 0.017270 0.007888 488006.000000 0 0 1
-31.813246 -22.915593 -11.956106 40.989700 0.624231 1.866785 0.042715 -0.004120 78607.900000 0 0 1
-32.017346 -23.036993 -13.365406 41.646700 0.623704 1.897501 0.045055 0.005936 814185.000000 0 0 1
-33.510746 -22.672793 -13.789706 42.745545 0.594836 1.899271 0.025055 -0.007739 1570160.000000 0 0 1
-34.528846 -23.547293 -13.299706 43.858847 0.598516 1.878886 0.030259 -0.002857 53046.500000 0 0 1
35.143546 -23.029693 -13.731206 44.203865 -0.580095 1.886656 0.036266 -0.016204 -147820.000000 0 0 1
33.997946 -23.906993 -13.181006 43.602105 -0.612863 1.877903 0.026200 -0.008557 -446097.000000 0 0 1
33.969646 -25.120593 -13.968606 44.498349 -0.636748 1.890108 0.005209 0.000507 83088.900000 0 0 1
33.308046 -26.144993 -13.270906 44.374582 -0.665494 1.874509 0.011385 -0.009111 -41258.900000 0 0 1
33.201546 -27.456293 -14.162906 45.351721 -0.690964 1.888399 0.008401 -0.013620 238659.000000 0 0 1
32.452946 -27.288893 -15.351306 45.094789 -0.699173 1.918163 0.008262 -0.017585 -96334.100000 0 0 1
32.383746 -28.468193 -16.118106 46.031928 -0.721141 1.928528 0.006309 0.001881 247579.000000 0 0 1
31.510446 -28.368793 -17.423006 45.839479 -0.732980 1.960687 0.004740 -0.002282 844873.000000 0 0 1
30.096746 -28.394593 -17.234906 44.823086 -0.756305 1.965473 0.009436 0.000187 475300.000000 0 0 1
29.423646 -27.948993 -18.397606 44.557481 -0.759701 1.996428 0.017464 0.001133 296188.000000 0 0 1
27.877946 -28.013093 -18.305806 43.554745 -0.787816 2.004566 0.019974 -0.005184 392330.000000 0 0 1
27.387446 -27.055393 -17.372706 42.235973 -0.779299 1.994703 0.018384 -0.013919 -23916.300000 0 0 1
26.116846 -27.376893 -16.833106 41.411803 -0.808949 1.989395 0.021724 -0.013062 74569.300000 0 0 1
25.744146 -26.329993 -15.746506 40.049745 -0.796648 1.974877 0.018326 -0.013096 -213685.000000 0 0 1
25.404746 -25.017993 -16.161006 39.146893 -0.777728 1.996355 0.032983 -0.020776 161700.000000 0 0 1
25.506046 -24.077893 -15.077206 38.178862 -0.756603 1.976766 0.033296 -0.015018 -413963.000000 0 0 1
25.061546 -22.664193 -15.475106 37.164844 -0.735208 2.000269 0.035076 -0.021334 324234.000000 0 0 1
23.716646 -22.477993 -15.897706 36.338362 -0.758591 2.023603 0.030784 -0.019475 250529.000000 0 0 1
23.461146 -21.110793 -16.024906 35.396166 -0.732715 2.040621 0.034998 -0.018670 1161840.000000 0 0 1
21.949446 -20.618393 -16.098806 34.147736 -0.754139 2.061726 0.021479 -0.014642 1232420.000000 0 0 1
21.383446 -20.477593 -14.775706 33.089350 -0.763762 2.033691 0.027994 -0.020404 132164.000000 0 0 1
20.170146 -19.762293 -14.863606 31.910967 -0.775185 2.055316 0.030225 -0.021957 31877.100000 0 0 1
20.156646 -18.475693 -13.976606 30.708096 -0.741914 2.043330 0.026768 -0.009921 -102599.000000 0 0 1
20.069346 -18.718993 -12.570806 30.186165 -0.750599 2.000325 0.038049 -0.023528 30658.900000 0 0 1
19.555246 -17.636093 -11.922406 28.906456 -0.733842 1.995936 0.032659 -0.025197 -183578.000000 0 0 1
18.643546 -17.967193 -10.682306 28.009168 -0.766926 1.962092 0.037075 -0.013255 97300.700000 0 0 1
19.341746 -18.444393 -9.537106 28.377019 -0.761654 1.913554 0.042673 -0.032449 185225.000000 0 0 1
18.412846 -18.608093 -8.496006 27.522285 -0.790672 1.884618 0.039684 -0.041150 -176715.000000 0 0 1
18.890546 -19.439193 -7.308806 28.074074 -0.799711 1.834171 0.043722 -0.043049 -402522.000000 0 0 1
19.852346 -18.742693 -6.574906 28.082621 -0.756655 1.807117 0.042110 -0.040520 -444251.000000 0 0 1
20.545346 -19.631493 -5.766606 28.995871 -0.762656 1.771008 0.040258 -0.029936 -499638.000000 0 0 1
21.903646 -19.068793 -5.310606 29.522722 -0.716319 1.751663 0.043473 -0.027892 -602279.000000 0 0 1
22.818746 -19.034193 -6.364906 30.389270 -0.695218 1.781805 0.028733 -0.030376 -574328.000000 0 0 1
23.882846 -18.258293 -5.903106 30.636617 -0.652713 1.764690 0.020758 -0.028082 -122609.000000 0 0 1
25.035446 -17.872193 -6.910106 31.526789 -0.619978 1.791772 0.022352 -0.031497 984438.000000 0 0 1
25.924046 -18.983593 -7.211506 32.930819 -0.632062 1.791575 0.033562 -0.034871 606488.000000 0 0 1
25.526646 -19.828993 -8.276706 33.366188 -0.660431 1.821470 0.037359 -0.039464 -495910.000000 0 0 1
26.440646 -21.046293 -8.369506 34.815268 -0.672286 1.813572 0.039133 -0.041487 278407.000000 0 0 1
27.800146 -20.833293 -8.724906 35.818965 -0.643114 1.816855 0.019644 -0.024689 -141258.000000 0 0 1
28.421446 -22.008793 -8.434906 36.923072 -0.658918 1.801277 0.027819 -0.030069 -488343.000000 0 0 1
-29.700754 30.712832 4.108494 42.921935 -0.802149 1.474929 0.028372 0.011762 155255.000000 0 0 1
-28.752034 31.445832 3.394494 42.743916 -0.830117 1.491298 0.017200 0.016545 -108709.000000 0 0 1
-27.563434 31.751432 4.125394 42.248257 -0.855887 1.472994 0.021602 0.017494 550223.000000 0 0 1
-26.815564 32.893032 3.439494 42.577648 -0.886834 1.489927 0.021342 0.012251 -470064.000000 0 0 1
-26.247534 32.704332 2.123194 41.988264 -0.894490 1.520208 0.032896 0.018304 271546.000000 0 0 1
-25.678484 33.873832 1.524294 42.534039 -0.922155 1.534952 0.030715 0.002186 380798.000000 0 0 1
-24.363654 34.402932 2.206894 42.213976 -0.954598 1.518494 0.041906 0.000487 -101194.000000 0 0 1
-23.315354 33.497432 1.897794 40.856888 -0.962737 1.524330 0.039912 -0.000534 -792405.000000 0 0 1
-22.169454 33.921332 2.601494 40.606763 -0.991926 1.506687 0.020693 0.001881 688110.000000 0 0 1
-20.810354 33.412832 2.004994 39.414568 -1.013762 1.519905 0.019185 -0.001110 535394.000000 0 0 1
-20.468054 33.918232 0.776194 39.623101 -1.027842 1.551206 0.032899 -0.003863 -43701.700000 0 0 1
-19.173054 33.467532 0.411694 38.572674 -1.050553 1.560123 0.029403 -0.003558 -261193.000000 0 0 1
-18.565554 34.340632 -0.703606 39.044255 -1.075176 1.588818 0.036404 -0.006752 -115300.000000 0 0 1
-18.321654 -33.367393 -0.437906 38.069117 1.068653 1.582299 0.037664 -0.005239 68353.000000 0 0 1
-17.360054 -33.095993 0.562794 37.376904 1.087713 1.555738 0.037038 -0.005241 -499123.000000 0 0 1
-17.229454 -31.562193 0.768294 35.966879 1.071115 1.549434 0.039427 -0.000974 -284530.000000 0 0 1
-16.499454 -30.918693 -0.222306 35.046355 1.080600 1.577140 0.030430 0.007500 -126115.000000 0 0 1
-16.819454 -29.544393 -0.352606 33.998375 1.053261 1.581168 0.022268 0.000005 -346772.000000 0 0 1
-15.806854 -28.762093 -1.161406 32.839968 1.068281 1.606169 0.022391 0.009108 -214870.000000 0 0 1
-16.101954 -28.820193 -2.556406 33.112107 1.061295 1.648078 0.021456 0.003547 545970.000000 0 0 1
-15.095154 -28.129193 -3.323306 32.096098 1.078271 1.674525 0.021827 0.008103 434330.000000 0 0 1
-15.389254 -28.141293 -4.844806 32.438151 1.070370 1.720712 0.022894 -0.003579 394689.000000 0 0 1
-16.461054 -27.238893 -5.139706 32.238799 1.027205 1.730906 0.021858 0.002659 -71296.500000 0 0 1
-16.944954 -27.328993 -6.440406 32.794575 1.015775 1.768467 0.021788 0.000746 80016.100000 0 0 1
-17.900654 -26.157693 -6.827306 32.423301 0.970661 1.782952 0.007801 -0.005314 -110784.000000 0 0 1
-17.307554 -24.872993 -6.887906 31.075078 0.962870 1.794306 0.012647 0.005898 -153794.000000 0 0 1
-18.064054 -23.716293 -7.249606 30.681092 0.919866 1.809341 0.003150 0.009554 -209643.000000 0 0 1
-17.176554 -22.477493 -7.031206 29.149778 0.918290 1.814408 -0.000423 0.005620 642259.000000 0 0 1
-16.012554 -22.402493 -7.856206 28.635529 0.950228 1.848712 0.016475 -0.002809 -121426.000000 0 0 1
-15.121754 -21.488193 -7.270906 27.263088 0.957576 1.840758 0.051749 -0.011735 -508241.000000 0 0 1
-13.933354 -21.216093 -8.158906 26.661371 0.989701 1.881806 0.061958 -0.014317 -567550.000000 0 0 1
-14.217854 -20.357793 -9.249006 26.497759 0.961146 1.927352 0.056034 -0.008606 -578704.000000 0 0 1
-13.130254 -20.272693 -10.126906 26.190454 0.996053 1.967808 0.056099 -0.010773 -19666.200000 0 0 1
-13.398654 -19.456293 -11.463606 26.258056 0.967726 2.022584 0.056120 -0.009799 40407.400000 0 0 1
-14.523654 -19.938293 -12.162806 27.502834 0.941243 2.028889 0.044912 -0.002875 -135997.000000 0 0 1
-14.542354 -19.078093 -13.331806 27.444321 0.919499 2.078048 0.041054 -0.000850 130362.000000 0 0 1
-15.695754 -19.564793 -14.230706 28.838357 0.894688 2.086865 0.040795 0.000993 380701.000000 0 0 1
-16.991054 -19.351493 -13.690906 29.165341 0.850257 2.059434 0.035773 0.003522 -179481.000000 0 0 1
-17.965954 -19.855093 -14.542406 30.470999 0.835306 2.068324 0.024911 0.006533 25251.700000 0 0 1
-19.407754 -19.448893 -14.099506 30.882299 0.786457 2.044917 0.006858 0.016145 1031550.000000 0 0 1
-20.456754 -20.142193 -14.792306 32.295496 0.777650 2.046574 0.021245 0.004729 950635.000000 0 0 1
-21.787854 -19.871293 -14.320906 32.782117 0.739425 2.022891 0.012852 0.005727 541648.000000 0 0 1
-22.740754 -20.693993 -15.177606 34.289108 0.738310 2.029333 0.019573 0.003197 -591151.000000 0 0 1
-23.033954 -20.188893 -16.473006 34.778073 0.719670 2.064239 0.017785 -0.004723 348796.000000 0 0 1
-23.363254 -21.202293 -17.425106 36.041825 0.736947 2.075410 0.033142 -0.012574 -99176.900000 0 0 1
-23.819054 -20.675993 -18.812006 36.725136 0.714877 2.108585 0.036470 -0.016272 -238830.000000 0 0 1
-22.773354 -20.301393 -19.663506 36.296359 0.728073 2.143313 0.022263 -0.013459 53419.800000 0 0 1
-23.249454 -19.964693 -20.953006 37.123504 0.709533 2.170519 0.021268 -0.015091 -122747.000000 0 0 1
-22.179554 -19.259993 -21.821406 36.593083 0.715061 2.209713 0.007977 -0.008241 83547.100000 0 0 1
-21.035054 -20.025193 -22.086906 36.487166 0.760809 2.220981 0.002627 -0.003000 -281366.000000 0 0 1
-20.062454 -19.344993 -22.838206 36.032131 0.767194 2.257290 -0.006044 0.001439 275696.000000 0 0 1
-18.668854 -20.015893 -22.860806 35.662004 0.820205 2.266650 0.000813 0.004749 35275.400000 0 0 1
-18.673754 -21.112493 -23.727706 36.843595 0.846618 2.270527 0.000893 0.006133 437659.000000 0 0 1
-17.435554 -21.826793 -23.701706 36.635752 0.896779 2.274382 0.002542 0.009740 362011.000000 0 0 1
-17.320854 -23.058793 -24.605106 37.909513 0.926553 2.277129 0.012091 0.007988 -228382.000000 0 0 1
-17.336954 -22.817693 -26.000336 38.694115 0.921051 2.307629 0.011790 0.004704 272328.000000 0 0 1
-17.515054 -23.986393 -26.655756 39.908063 0.940083 2.302219 0.021058 -0.002498 -139630.000000 0 0 1
-17.434354 -23.907993 -28.168096 40.853280 0.940723 2.331587 0.030588 0.003762 -592918.000000 0 0 1
-16.129654 -23.749493 -28.622906 40.539794 0.974196 2.354694 0.025017 -0.003194 -521807.000000 0 0 1
-16.041954 -23.619593 -30.036066 41.441461 0.974181 2.381516 0.044941 -0.012584 -1052610.000000 0 0 1
-14.636354 -23.620093 -30.619236 41.348147 1.016048 2.404644 0.026187 -0.012704 -670632.000000 0 0 1
-14.042354 -24.905293 -30.432656 41.756531 1.057397 2.387381 0.034103 -0.008039 -991047.000000 0 0 1
-12.689854 -24.703693 -30.636286 41.350778 1.096263 2.405188 0.031535 -0.009481 -1010130.000000 0 0 1
-11.812154 -25.909693 -30.331706 41.603504 1.143049 2.387753 0.025499 -0.003730 -747257.000000 0 0 1
-12.096554 -27.007193 -31.185456 42.991252 1.149689 2.382398 0.021738 0.006477 127564.000000 0 0 1
-11.332354 -28.163493 -30.926616 43.336592 1.188242 2.365473 0.018817 0.006723 1115150.000000 0 0 1
-9.846054 -28.189593 -31.480686 43.389302 1.234763 2.382615 0.030395 0.000210 1349440.000000 0 0 1
-9.031954 -27.208893 -30.768656 42.054848 1.250293 2.391509 0.038643 -0.011233 1190480.000000 0 0 1
-7.818254 -26.947793 -31.540816 42.215302 1.288423 2.414548 0.033820 -0.007727 734801.000000 0 0 1
-6.983454 -25.795593 -31.012096 40.938141 1.306411 2.430326 0.043014 -0.012421 -900425.000000 0 0 1
-7.558154 -24.519293 -31.041396 40.272692 1.271785 2.450861 0.045511 -0.010761 -267577.000000 0 0 1
-8.476954 -24.203693 -30.029746 39.490039 1.233913 2.434784 0.036522 -0.004136 -291651.000000 0 0 1
-8.904354 -22.655193 -29.967966 38.608604 1.196306 2.459411 0.035341 -0.014262 -215859.000000 0 0 1
-9.643354 -22.270193 -31.104436 39.451764 1.162156 2.479027 0.027316 -0.015243 85434.500000 0 0 1
-10.134554 -20.930493 -30.968806 38.728048 1.119868 2.497505 0.029269 -0.019784 -180090.000000 0 0 1
-10.929054 -20.425293 -32.134066 39.613571 1.079484 2.516978 0.022802 -0.021591 -358915.000000 0 0 1
-11.277454 -19.082493 -31.991286 38.919981 1.037032 2.535668 0.023911 -0.020429 159492.000000 0 0 1
-11.997054 -18.678993 -33.157076 39.902704 0.999871 2.551606 0.027063 -0.016852 -311156.000000 0 0 1
-12.855454 -17.392093 -32.998486 39.454375 0.934272 2.561425 0.025794 -0.012080 -248353.000000 0 0 1
-12.264154 -16.090293 -33.104796 38.797352 0.919528 2.593029 0.039498 -0.009538 -748667.000000 0 0 1
-11.411054 -15.782993 -32.083186 37.531931 0.944802 2.596007 0.030539 -0.003544 -526598.000000 0 0 1
-11.092354 -14.263693 -32.013446 36.760767 0.909824 2.627744 0.029686 0.000931 -75023.800000 0 0 1
-10.349654 -13.642593 -33.058766 37.230602 0.921796 2.663656 0.036612 -0.005496 -26645.000000 0 0 1
-10.929454 -13.764693 -34.330945 38.568556 0.899712 2.668422 0.031981 -0.009140 -502321.000000 0 0 1
-11.525054 -12.490793 33.919265 37.938942 0.825589 0.464493 0.024106 -0.005767 -370151.000000 0 0 1
-12.807954 -12.152793 34.343358 38.616063 0.759157 0.474866 0.025846 -0.003465 -752243.000000 0 0 1
-13.445554 -11.221093 33.481901 37.785362 0.695461 0.481918 0.022590 -0.015571 -200231.000000 0 0 1
-14.496054 -10.453193 34.231474 38.616041 0.624751 0.481163 0.039089 -0.014382 -669903.000000 0 0 1
-14.089754 -9.335993 -33.960956 37.934529 0.585188 2.679792 0.052195 -0.013239 -263216.000000 0 0 1
-15.106954 -8.764493 -33.153976 37.472957 0.525706 2.656741 0.054467 -0.010978 535542.000000 0 0 1
-14.415754 -7.800693 -32.108566 36.050309 0.496002 2.669591 0.064369 -0.023851 31384.500000 0 0 1
-14.075654 -6.489193 -32.515856 36.021029 0.431982 2.696779 0.054486 -0.028074 625864.000000 0 0 1
-15.240554 -5.665293 -32.643476 36.468706 0.355896 2.679472 0.048220 -0.025648 590619.000000 0 0 1
-15.726854 -5.044193 -31.292406 35.383506 0.310372 2.655957 0.047543 -0.027830 -63502.000000 0 0 1
-16.283354 -6.034593 -30.437076 35.042539 0.354907 2.623116 0.058525 -0.031492 -137856.000000 0 0 1
-16.859954 -5.483593 -29.270616 34.221291 0.314452 2.596990 0.061329 -0.033597 -155722.000000 0 0 1
-15.889054 -4.932893 -28.204736 32.746032 0.301024 2.608654 0.060016 -0.032246 91052.800000 0 0 1
-15.145754 -3.845593 -28.690246 32.669751 0.248651 2.642861 0.041821 -0.029230 -289212.000000 0 0 1
-13.924754 -3.571593 -28.060846 31.528814 0.251080 2.668156 0.042706 -0.024139 -34873.200000 0 0 1
-13.322254 -2.260593 -28.591236 31.623591 0.168084 2.700091 0.021668 0.000253 -141836.000000 0 0 1
-13.148454 -2.326593 -29.997966 32.835542 0.175135 2.722804 0.022477 -0.010630 91005.200000 0 0 1
-13.016354 -1.008593 -30.494326 33.171473 0.077332 2.737078 0.018396 -0.013960 -72835.200000 0 0 1
-13.208854 -1.034593 -32.037846 34.669407 0.078166 2.749459 0.013173 -0.016381 -189438.000000 0 0 1
-14.528154 -1.163593 -32.543296 35.657921 0.079922 2.720524 -0.008412 -0.011772 274842.000000 0 0 1
-14.440254 -1.377593 -33.956156 36.924778 0.095112 2.737866 -0.011883 -0.006184 -810404.000000 0 0 1
-15.702354 -1.274593 34.096622 37.560194 0.080995 0.432821 -0.021790 -0.006920 -812362.000000 0 0 1
-15.613254 -1.712593 32.768568 36.338488 0.109252 0.446974 -0.023470 -0.006886 492442.000000 0 0 1
-16.877854 -1.546593 32.116738 36.314443 0.091379 0.485575 -0.016515 -0.001549 583765.000000 0 0 1
-16.850054 -1.558593 30.604858 34.971572 0.092235 0.505081 -0.010370 0.003538 -52051.800000 0 0 1
-16.299454 -0.423593 30.003978 34.148065 0.025982 0.497782 -0.012511 0.012737 -195779.000000 0 0 1
-16.386054 -0.495593 28.584418 32.951742 0.030236 0.520716 -0.014233 0.007778 -148532.000000 0 0 1
-15.770754 0.793407 27.965068 32.115280 -0.050266 0.514027 -0.009739 0.005192 3907.270000 0 0 1
-16.312754 2.101407 28.293658 32.726945 -0.128114 0.526568 -0.000516 0.010594 760664.000000 0 0 1
-17.684854 2.270407 27.872578 33.087602 -0.127683 0.569098 0.012907 0.000175 888721.000000 0 0 1
-17.910054 2.991407 26.560758 32.174406 -0.165496 0.599666 0.015045 -0.004203 -496251.000000 0 0 1
-17.556654 4.330407 26.611988 32.174313 -0.241826 0.596834 0.012271 -0.004307 35677.100000 0 0 1
-18.170954 5.015407 25.551478 31.752416 -0.269307 0.635610 0.019227 -0.001242 -532866.000000 0 0 1
-18.346154 6.549407 25.768048 32.302761 -0.342889 0.647318 0.030645 -0.002267 243987.000000 0 0 1
-17.169454 7.333407 25.660758 31.733949 -0.403664 0.628991 0.016000 -0.005095 15643.200000 0 0 1
-16.536554 7.285407 24.395418 30.359038 -0.414979 0.637538 0.017270 -0.000143 -819714.000000 0 0 1
-15.356954 8.182407 24.103278 29.728031 -0.489553 0.625291 0.018356 -0.003014 29018.900000 0 0 1
-14.189054 7.795407 24.837348 29.647790 -0.502379 0.577652 -0.011549 -0.000816 307904.000000 0 0 1
-13.057254 8.393407 24.215938 28.763741 -0.571308 0.570018 0.006793 0.010805 -182488.000000 0 0 1
-11.706754 8.036407 24.837198 28.609759 -0.601592 0.519359 -0.001201 0.015402 -346894.000000 0 0 1
-10.689854 8.766407 24.187718 27.859802 -0.686858 0.519245 -0.003718 0.013960 189746.000000 0 0 1
-9.379354 8.585407 24.705358 27.785540 -0.741232 0.475324 -0.004839 0.010080 428812.000000 0 0 1
-8.947354 9.838407 25.536198 28.791436 -0.832795 0.480125 0.007430 0.000387 -552955.000000 0 0 1
-9.819854 10.014407 26.640688 30.107211 -0.795207 0.484601 0.007798 -0.002254 238490.000000 0 0 1
-9.798454 11.266407 27.276038 31.095400 -0.854973 0.500854 0.006880 -0.003355 -270710.000000 0 0 1
-10.351754 12.532407 26.501048 31.088995 -0.880402 0.550190 0.006971 -0.006815 -260312.000000 0 0 1
-11.726254 12.431407 26.235638 31.310599 -0.814580 0.577343 0.011804 -0.011370 -104263.000000 0 0 1
-12.082854 11.941407 24.942488 30.178142 -0.779511 0.597920 0.005973 -0.005233 11856.600000 0 0 1
-13.594354 11.934407 24.605768 30.539816 -0.720467 0.633949 0.017078 -0.006515 233749.000000 0 0 1
-14.172154 13.158407 24.124188 30.918766 -0.748323 0.675740 0.006959 -0.008726 -365462.000000 0 0 1
-15.450054 12.964407 23.586318 31.033762 -0.698142 0.707451 0.008177 0.004372 -281364.000000 0 0 1
-15.617154 12.282407 22.159718 29.762495 -0.666436 0.730933 0.011737 0.005644 -396711.000000 0 0 1
-15.577654 10.870407 22.055218 29.107760 -0.609262 0.711001 0.014351 0.002093 1723.440000 0 0 1
-15.588554 10.375407 20.763718 27.960402 -0.587249 0.733835 0.014359 -0.000771 -302623.000000 0 0 1
-16.026454 8.896407 20.641518 27.605535 -0.506756 0.726158 0.003306 -0.004421 251756.000000 0 0 1
-17.428054 8.745407 20.726918 28.457413 -0.465087 0.754887 0.009092 0.001553 -353827.000000 0 0 1
-17.778154 7.427407 20.468518 28.110307 -0.395742 0.755177 0.010169 0.005387 -549961.000000 0 0 1
-19.283454 7.332407 20.703618 29.227651 -0.363360 0.783628 0.019756 0.004505 -421007.000000 0 0 1
-19.657654 7.535407 22.056318 30.490767 -0.366055 0.762116 0.013977 -0.000286 85545.500000 0 0 1
-21.033654 7.757407 22.305418 31.624731 -0.353332 0.787928 -0.004196 -0.000920 28303.800000 0 0 1
-21.222354 8.380407 23.712318 32.907348 -0.376090 0.766160 -0.005549 -0.001570 -387638.000000 0 0 1
-21.064754 9.790407 23.777618 33.240804 -0.435074 0.773723 0.001816 -0.000459 120879.000000 0 0 1
-19.793054 10.396407 23.594718 32.504784 -0.483647 0.758477 0.011518 -0.000143 160670.000000 0 0 1
-18.711954 10.188407 24.670678 32.597288 -0.498600 0.712343 0.016576 -0.008143 -607630.000000 0 0 1
-19.124754 10.441407 25.985758 33.912222 -0.499738 0.697788 0.014320 -0.005340 -215201.000000 0 0 1
-18.178654 10.051407 26.963748 34.037302 -0.505085 0.656420 0.019969 -0.005339 61760.400000 0 0 1
-30.030854 -14.312168 21.225018 39.461269 0.444738 1.002888 0.022955 -0.003624 -186174.000000 0 0 1
-29.561284 -15.613968 21.468918 39.731347 0.485944 0.999941 0.025367 -0.001847 6568.340000 0 0 1
-30.036784 -16.684368 20.639218 40.081839 0.507029 1.029874 0.021566 0.000644 -99133.800000 0 0 1
-29.652054 -16.621668 19.153718 39.017804 0.510912 1.057677 0.014996 -0.002837 -147196.000000 0 0 1
-30.289084 -15.606968 18.379318 38.714408 0.475787 1.076127 0.022469 -0.012359 93055.600000 0 0 1
-29.779644 -15.447168 17.036418 37.625546 0.478508 1.100906 0.016367 -0.008914 -1265020.000000 0 0 1
-30.359484 -14.312968 16.250718 37.291355 0.440548 1.119895 0.014415 -0.008632 11767.900000 0 0 1
-31.665314 -14.499968 15.722618 38.211803 0.429415 1.146741 0.034955 -0.013262 931213.000000 0 0 1
-32.764684 -14.448968 16.650118 39.490804 0.415338 1.135565 0.038125 -0.017489 -58430.000000 0 0 1
-33.270584 -13.026868 17.107418 39.614325 0.373195 1.124254 0.034972 -0.019663 -446513.000000 0 0 1
-34.530866 -13.147368 17.716018 40.976716 0.363796 1.123706 0.031668 -0.018654 -98058.200000 0 0 1
-35.136858 -11.905868 17.982018 41.227436 0.326701 1.119462 0.026825 -0.010120 43147.700000 0 0 1
34.718629 -11.947868 19.072718 41.375153 -0.331440 1.091708 0.030834 0.005756 -66638.500000 0 0 1
35.361810 -12.261568 20.299118 42.577668 -0.333773 1.073837 0.032613 -0.002761 138259.000000 0 0 1
34.516869 -11.988068 21.386918 42.338260 -0.334277 1.041248 0.032602 -0.002589 -1010530.000000 0 0 1
35.065797 -12.443268 22.747018 43.610456 -0.340993 1.022076 0.027487 -0.006011 1328360.000000 0 0 1
-34.619776 -11.736268 23.140818 43.263915 0.326846 1.006436 0.030627 -0.004433 1485030.000000 0 0 1
-33.465154 -12.400368 22.667318 42.278753 0.354860 1.004939 0.024440 -0.005121 -326599.000000 0 0 1
-32.121254 -11.654968 22.782818 41.069088 0.348070 0.982741 0.035147 -0.007823 108672.000000 0 0 1
-32.061944 -10.575468 21.884318 40.233470 0.318608 0.995679 0.044831 -0.011524 -434145.000000 0 0 1
-30.763714 -10.082468 21.740018 38.996034 0.316707 0.979433 0.049528 -0.018048 -751030.000000 0 0 1
-30.783104 -8.712868 20.976718 38.256192 0.275826 0.990440 0.061611 -0.005587 39614.600000 0 0 1
-31.047124 -8.705768 19.596618 37.732502 0.273384 1.024699 0.056541 -0.005758 853548.000000 0 0 1
-32.413264 -9.003968 19.253518 38.760664 0.270955 1.050971 0.059433 -0.014084 449855.000000 0 0 1
-32.747104 -8.517868 17.825918 38.245133 0.254472 1.085923 0.058348 -0.010535 -317527.000000 0 0 1
-34.066694 -8.853568 17.482218 39.300805 0.254264 1.109811 0.029712 -0.007068 -113602.000000 0 0 1
-34.393830 -8.487568 16.163318 38.938762 0.241942 1.142748 0.038657 -0.010124 94951.700000 0 0 1
34.999833 -8.616968 15.929618 39.408034 -0.241399 1.154668 0.039495 -0.011811 306122.000000 0 0 1
34.375689 -9.915568 15.977718 39.182827 -0.280824 1.150782 0.031601 -0.006927 -1146690.000000 0 0 1
33.030909 -9.724968 15.805618 37.887115 -0.286330 1.140460 0.030661 -0.005174 -1101370.000000 0 0 1
32.170139 -11.023568 15.738718 37.471911 -0.330125 1.137336 0.018471 0.001760 12321.000000 0 0 1
32.005909 -11.580468 17.036918 38.062344 -0.347168 1.106710 0.001719 -0.000129 240537.000000 0 0 1
31.002419 -12.590968 16.980218 37.523463 -0.385778 1.101204 0.004862 0.007149 122272.000000 0 0 1
30.690129 -13.146268 18.407418 38.125338 -0.404709 1.066932 0.001350 0.004598 -167277.000000 0 0 1
31.750309 -13.869568 18.979818 39.505449 -0.411850 1.069645 0.008669 -0.001703 -100865.000000 0 0 1
31.627079 -13.858168 20.395818 40.103745 -0.412976 1.037266 0.018219 -0.004844 -1619.930000 0 0 1
32.295399 -15.152068 20.954918 41.372534 -0.438682 1.039683 0.012700 0.007830 166195.000000 0 0 1
32.494469 -15.020868 22.358518 42.206875 -0.433002 1.012507 0.016047 0.004604 -170115.000000 0 0 1
32.970409 -16.215968 22.929918 43.310352 -0.457093 1.012865 0.009942 0.014371 -80013.000000 0 0 1
33.375349 -16.055368 24.388558 44.345130 -0.448377 0.988466 0.022873 0.007467 426140.000000 0 0 1
34.582969 -15.337768 24.628978 45.142169 -0.417441 0.993707 0.025819 0.005319 322001.000000 0 0 1
34.775549 -15.143668 26.038988 46.007591 -0.410704 0.969185 0.028442 0.005948 703512.000000 0 0 1
-34.918842 -14.182768 26.335208 45.978469 0.385809 0.960912 0.024428 -0.002604 194695.000000 0 0 1
-33.662674 -14.665968 26.005868 44.995237 0.410877 0.954558 0.008371 0.003421 -622392.000000 0 0 1
-32.644674 -13.750268 26.329678 44.136114 0.398656 0.931593 0.019879 -0.005692 203174.000000 0 0 1
-31.221764 -14.347068 26.196898 43.207804 0.430744 0.919397 0.019021 -0.002673 -67579.800000 0 0 1
-30.781314 -14.520968 24.818818 42.122696 0.440790 0.940724 0.019404 -0.000876 -205771.000000 0 0 1
-29.489174 -15.035268 24.676878 41.287031 0.471502 0.930179 0.020755 -0.013366 -331220.000000 0 0 1
-29.166584 -16.510068 25.003678 41.814541 0.515090 0.929835 0.022265 -0.005891 -668095.000000 0 0 1
-29.267114 -16.846368 26.379848 42.851610 0.522291 0.907637 0.019809 -0.005497 162203.000000 0 0 1
-29.062834 -18.227768 26.651888 43.442180 0.560169 0.910308 0.027806 -0.011409 -382470.000000 0 0 1
-28.637604 -18.385568 28.131138 44.153170 0.570736 0.880032 0.027444 -0.018149 617258.000000 0 0 1
-27.501274 -17.535768 28.421588 43.262107 0.567633 0.854013 0.032746 -0.017030 558160.000000 0 0 1
-26.800994 -18.074168 29.534038 43.786165 0.593327 0.830501 0.050543 -0.018208 237304.000000 0 0 1
-25.661774 -17.123468 29.983868 43.020601 0.588424 0.799639 0.023067 -0.008305 -198151.000000 0 0 1
-26.146504 -15.969868 30.668208 43.349917 0.548311 0.784903 0.040440 -0.012254 465899.000000 0 0 1
-25.275454 -14.887568 30.324038 42.190467 0.532302 0.768806 0.026170 -0.012007 142235.000000 0 0 1
-25.386234 -13.629168 31.154988 42.436404 0.492709 0.746372 0.029610 -0.001845 105607.000000 0 0 1
-24.852054 -13.791468 32.491258 43.168403 0.506630 0.718699 0.032480 -0.000990 316956.000000 0 0 1
-24.523354 -12.507468 33.005386 42.978915 0.471634 0.695172 0.034203 -0.001818 -126587.000000 0 0 1
-23.667354 -12.513768 34.282114 43.497142 0.486371 0.663005 0.032799 -0.000929 556290.000000 0 0 1
-22.320854 -12.996268 34.233579 42.884280 0.527264 0.646366 0.009508 -0.001245 634177.000000 0 0 1
-22.103054 -14.418368 34.249828 43.237542 0.578008 0.656503 0.010267 0.001004 -309016.000000 0 0 1
-22.019254 -14.961668 -33.149816 42.515989 0.596822 2.464987 0.007292 0.003520 -540485.000000 0 0 1
-20.869954 -14.610968 -32.409086 41.223588 0.610790 2.475397 -0.006078 0.006387 64826.300000 0 0 1
-20.692254 -15.539268 -31.359616 40.657886 0.644122 2.451685 0.003156 0.002893 -54583.700000 0 0 1
-19.468054 -15.327468 -30.445006 39.253468 0.666957 2.458462 0.006747 0.008802 -207777.000000 0 0 1
-19.482454 -14.280068 -29.497646 38.126073 0.632513 2.455436 -0.003866 0.012378 420279.000000 0 0 1
-20.157154 -14.584168 -28.237066 37.634302 0.626340 2.419314 -0.004731 0.017236 310097.000000 0 0 1
-19.939454 -13.342568 -27.344326 36.377439 0.589723 2.421408 -0.000569 0.017674 -98436.200000 0 0 1
-18.654554 -13.153768 -26.812186 35.212317 0.614156 2.436333 0.011597 0.010212 -263656.000000 0 0 1
-18.572354 -11.937868 -26.129366 34.208022 0.571280 2.440034 0.009660 0.004714 100195.000000 0 0 1
-17.251954 -11.703668 -25.368186 32.835204 0.596079 2.453708 0.026773 0.003441 -323555.000000 0 0 1
-17.194354 -12.533068 -24.215006 32.234921 0.629864 2.420681 0.041013 -0.002914 373393.000000 0 0 1
-15.922854 -12.703768 -23.597306 31.172999 0.673418 2.429474 0.042189 -0.010682 746551.000000 0 0 1
-14.884654 -13.602068 -24.374606 31.633694 0.740405 2.450463 0.031335 -0.005636 -355117.000000 0 0 1
-14.042954 -12.891668 -25.226216 31.619007 0.742680 2.494464 0.052688 -0.015687 -288330.000000 0 0 1
-13.500054 -13.755368 -26.200326 32.525662 0.794765 2.507362 0.044906 -0.009960 -51806.300000 0 0 1
-12.461254 -13.084368 -27.129036 32.595523 0.809786 2.554028 0.049626 -0.007335 12111.300000 0 0 1
-12.948154 -12.098868 -27.980986 33.120581 0.751503 2.577028 0.068683 -0.010511 194405.000000 0 0 1
-11.858254 -11.615868 -28.786226 33.229405 0.775073 2.618519 0.080876 -0.011509 729000.000000 0 0 1
-12.229754 -11.083068 -30.216186 34.429917 0.736251 2.641659 0.057229 -0.010871 2400.950000 0 0 1
-11.294054 -10.102368 -30.585366 34.133240 0.729760 2.681605 0.065490 -0.010753 10743.800000 0 0 1
-11.382754 -9.753468 -31.937066 35.279929 0.708465 2.702758 0.053449 0.001602 -256123.000000 0 0 1
-10.551754 -8.502668 -32.169726 34.907394 0.678271 2.742911 0.036079 -0.002300 677500.000000 0 0 1
-9.128154 -8.587568 -32.072586 34.434289 0.754893 2.769076 0.021054 -0.001455 629838.000000 0 0 1
-8.494954 -7.444568 -32.636236 34.535630 0.719595 2.808397 0.019889 -0.007811 -275867.000000 0 0 1
-7.003754 -7.376668 -32.276926 33.841805 0.811324 2.836300 0.025408 -0.003643 -704316.000000 0 0 1
-6.663654 -7.165268 -30.894806 32.407320 0.821655 2.834869 0.012678 0.001018 -226238.000000 0 0 1
-7.098354 -5.922268 -30.322796 31.700660 0.695318 2.845676 0.026387 -0.009433 -365550.000000 0 0 1
-6.384154 -4.599668 -30.707226 31.699339 0.624340 2.890745 0.022706 -0.010810 1354830.000000 0 0 1
-4.948454 -4.580768 -30.465996 31.203326 0.746832 2.923769 0.020689 -0.006709 1297280.000000 0 0 1
-4.375254 -3.325568 -30.822286 31.308394 0.649925 2.965145 0.027922 -0.015558 -1365740.000000 0 0 1
-2.966254 -3.278268 -30.345486 30.665848 0.835323 2.996920 0.016493 -0.011548 -1835570.000000 0 0 1
-2.113954 -4.118368 -31.134196 31.476466 1.096566 2.993988 0.008897 -0.009276 780012.000000 0 0 1
-0.713254 -3.974868 -30.868346 31.131384 1.393245 3.011506 0.014387 -0.008792 1089110.000000 0 0 1
0.012746 -2.626968 -31.175826 31.286311 -1.565944 3.057527 0.015795 -0.009264 -913747.000000 0 0 1
-0.148454 -1.540068 -30.269676 30.309192 1.474699 3.090523 0.015523 -0.013561 -152524.000000 0 0 1
0.548246 -0.388168 -30.688276 30.695627 -0.616087 3.119707 0.023175 -0.014174 -55625.000000 0 0 1
0.682346 0.679832 -29.628126 29.643779 0.783552 3.109094 0.029030 -0.015086 28557.000000 0 0 1
-0.540254 1.263232 -29.237306 29.269569 -1.166662 3.094636 0.028038 -0.013338 -239476.000000 0 0 1
-0.338754 2.535732 -28.661676 28.775621 -1.437991 3.052571 0.037604 -0.009509 -833795.000000 0 0 1
-1.620854 3.168832 -28.215286 28.438900 -1.097992 3.016107 0.028762 -0.009531 -636368.000000 0 0 1
-2.518254 3.434832 -29.303086 29.610986 -0.938165 2.997258 0.024791 -0.010668 -23405.500000 0 0 1
-3.702854 4.021332 -28.823566 29.337351 -0.826606 2.954166 0.043597 -0.014071 74774.100000 0 0 1
-4.825554 4.122632 -29.896646 30.562911 -0.707005 2.932406 0.054351 -0.018811 235013.000000 0 0 1
-4.338054 4.798232 -31.103846 31.769340 -0.835724 2.936550 0.057966 -0.015971 -72467.100000 0 0 1
-5.360254 5.247532 -31.930756 32.800032 -0.774772 2.910854 0.060265 -0.012212 -714784.000000 0 0 1
-4.827954 5.901432 -33.236886 34.100244 -0.885117 2.916090 0.065775 -0.004613 -40434.000000 0 0 1
-4.340854 5.150932 -34.325603 34.980311 -0.870537 2.947814 0.066174 -0.002438 -192319.000000 0 0 1
-3.105754 4.546332 -34.036896 34.479344 -0.971480 2.981219 0.062336 -0.007072 -645449.000000 0 0 1
-2.399854 3.852632 33.657174 33.961853 -1.013699 0.134050 0.059962 -0.016137 -334134.000000 0 0 1
-3.084654 2.686232 33.276286 33.526738 -0.716468 0.122307 0.056523 -0.021495 -58751.500000 0 0 1
-2.652154 1.974932 32.083488 32.253442 -0.640070 0.102703 0.062428 -0.021699 -228738.000000 0 0 1
-2.636854 2.754532 30.728438 30.964130 -0.807222 0.123462 0.064812 -0.017651 -435526.000000 0 0 1
-3.903954 3.188232 30.348988 30.764700 -0.684822 0.164579 0.055630 -0.014022 -488988.000000 0 0 1
-3.761854 4.129532 29.262078 29.790498 -0.831957 0.188630 0.045921 -0.020561 -200800.000000 0 0 1
-4.874554 5.158432 29.234848 30.084000 -0.813685 0.238159 0.047565 -0.006865 -283674.000000 0 0 1
-4.997654 5.652432 27.942928 28.943631 -0.846802 0.263724 0.046756 0.002839 -491621.000000 0 0 1
-5.953854 6.660532 27.814278 29.213783 -0.841361 0.310783 0.026890 0.003602 -480067.000000 0 0 1
-6.015754 7.379132 26.404338 28.068309 -0.886832 0.346058 0.023579 0.001575 516730.000000 0 0 1
-4.936854 8.332132 26.234068 27.964679 -1.035904 0.353651 0.017376 0.005697 483858.000000 0 0 1
-5.150254 9.124232 25.133638 27.230066 -1.056920 0.394964 0.017788 0.005267 -102663.000000 0 0 1
-4.286254 10.375732 25.139548 27.532248 -1.179045 0.419986 0.016155 -0.001500 -399891.000000 0 0 1
-4.605754 11.114732 24.005628 26.851823 -1.177953 0.464594 0.024576 -0.002923 272652.000000 0 0 1
-4.189854 12.496332 24.202488 27.558549 -1.247289 0.498667 0.020661 0.006116 282709.000000 0 0 1
-2.670954 12.905332 24.009878 27.388973 -1.366713 0.501992 0.004343 0.004105 1273840.000000 0 0 1
-1.716254 12.498232 24.995918 27.999058 -1.434330 0.467403 0.003636 0.005939 266353.000000 0 0 1
-1.988554 13.119332 26.227268 29.392870 -1.420367 0.468381 0.012133 0.008889 -1263000.000000 0 0 1
-1.144754 12.552132 27.360838 30.124441 -1.479848 0.431689 0.014953 0.011311 -1211180.000000 0 0 1
0.210346 12.662632 27.164378 29.971485 1.554186 0.436254 0.005186 0.019136 -1548070.000000 0 0 1
0.817546 12.339632 28.402928 30.978399 1.504639 0.410648 0.012022 0.002932 889985.000000 0 0 1
2.366146 12.613432 28.439558 31.201054 1.385362 0.423896 0.016653 0.004111 928058.000000 0 0 1
2.694846 13.972132 28.560988 31.909446 1.380263 0.462222 0.013172 0.004780 292287.000000 0 0 1
4.111246 14.110732 28.607748 32.162375 1.287289 0.474593 0.017227 0.003816 264697.000000 0 0 1
4.602746 15.548732 28.806058 33.056578 1.282994 0.512713 0.017252 0.005245 -264434.000000 0 0 1
4.311546 16.096932 30.116948 34.419925 1.309090 0.505390 0.020024 0.011467 612195.000000 0 0 1
3.178346 16.961532 30.195078 34.778416 1.385559 0.519207 0.013309 0.013789 288368.000000 0 0 1
3.445246 18.381232 29.614038 35.024715 1.385513 0.563261 0.018155 0.016839 -113477.000000 0 0 1
4.298846 19.204032 30.354188 36.175291 1.350576 0.575195 0.042284 0.017902 112959.000000 0 0 1
5.183446 19.997132 29.569188 36.070629 1.317169 0.609808 0.030478 0.011734 9658.770000 0 0 1
6.045846 20.903732 30.466148 37.439344 1.289256 0.620226 0.032662 0.014910 -173530.000000 0 0 1
5.412346 21.911732 31.229858 38.532085 1.328637 0.625809 0.017218 0.003521 191520.000000 0 0 1
6.434446 22.709332 31.836448 39.631746 1.294694 0.637969 0.001318 0.005292 268612.000000 0 0 1
6.826246 24.052232 31.216758 39.994918 1.294259 0.675302 -0.007917 0.016957 -196863.000000 0 0 1
7.350846 23.957132 29.883998 39.000416 1.273082 0.697815 -0.018655 0.017385 229918.000000 0 0 1
7.663146 25.242632 29.448628 39.536515 1.276059 0.730492 -0.018398 0.013425 -148549.000000 0 0 1
8.287446 25.218132 28.032978 38.606785 1.253284 0.758141 -0.004179 0.006374 -78466.700000 0 0 1
7.483146 24.741632 26.976708 37.361593 1.277092 0.764044 -0.004204 0.006983 117802.000000 0 0 1
8.069246 25.220032 25.789588 36.963030 1.261135 0.798596 0.008634 0.010331 -258386.000000 0 0 1
28.840559 1.865732 6.860894 29.704051 0.064601 1.337717 0.065136 -0.000049 47272.000000 0 0 1
28.984169 2.491432 8.140894 30.208665 0.085748 1.297934 0.058307 -0.002186 -1119650.000000 0 0 1
27.821769 2.515232 8.841394 29.300981 0.090160 1.264275 0.064411 -0.002833 -1419710.000000 0 0 1
27.837269 3.424132 10.072794 29.800997 0.122391 1.226003 0.049511 -0.006194 -208648.000000 0 0 1
27.751709 4.816732 9.851294 29.839676 0.171853 1.234344 0.059484 -0.014339 -64441.400000 0 0 1
28.908099 5.412532 9.304994 30.847311 0.185089 1.264377 0.053595 -0.017476 -153439.000000 0 0 1
28.789479 6.940432 9.208294 31.012842 0.236561 1.269332 0.040287 -0.016953 152182.000000 0 0 1
27.831049 7.372532 8.252594 29.950406 0.258955 1.291643 0.061193 -0.017866 108392.000000 0 0 1
28.178189 8.667232 7.842794 30.506404 0.298402 1.310790 0.048946 -0.021441 -28008.400000 0 0 1
27.467379 9.135932 6.582794 29.685945 0.321100 1.347190 0.039363 -0.018300 174546.000000 0 0 1
26.056309 9.299932 6.710694 28.468463 0.342823 1.332833 0.045895 -0.011455 364633.000000 0 0 1
25.701239 9.927632 5.493394 28.094287 0.368615 1.373994 0.047141 -0.019953 -358280.000000 0 0 1
24.188039 10.150832 5.417194 26.785194 0.397342 1.367146 0.032192 -0.013392 -278596.000000 0 0 1
23.876739 11.442332 5.905694 27.127529 0.446890 1.351338 0.023779 -0.005296 745564.000000 0 0 1
22.482439 11.763632 5.793894 26.027146 0.482064 1.346306 0.025246 -0.010077 659169.000000 0 0 1
22.045339 13.074732 6.392094 26.415989 0.535318 1.326392 0.028267 -0.005949 -198943.000000 0 0 1
22.546939 14.206732 5.730394 27.258634 0.562255 1.358993 0.035557 0.006277 216339.000000 0 0 1
22.042539 15.358132 6.313594 27.597232 0.608541 1.339976 0.047828 -0.003846 -249642.000000 0 0 1
21.828539 16.441632 5.297594 27.836610 0.645557 1.379318 0.046819 -0.000130 -764023.000000 0 0 1
20.589639 16.445232 4.681594 26.763711 0.673956 1.394969 0.069070 -0.005391 -347284.000000 0 0 1
20.628239 17.370732 3.621394 27.209944 0.699881 1.437309 0.059677 -0.004753 438866.000000 0 0 1
19.216339 17.402332 2.951494 26.092531 0.735901 1.457437 0.069404 -0.006432 894416.000000 0 0 1
18.232239 18.011632 3.795394 25.908270 0.779312 1.423774 0.066720 -0.006641 612125.000000 0 0 1
16.887739 17.908132 3.323294 24.838301 0.814715 1.436597 0.072799 -0.015700 172308.000000 0 1 0
16.152439 19.061032 4.044694 25.309757 0.867810 1.410300 0.065345 -0.021945 598129.000000 0 0 1
14.749339 19.002832 3.713294 24.340073 0.910759 1.417639 0.053378 -0.021364 515844.000000 0 1 0
14.042639 20.019032 4.262294 24.821855 0.959088 1.398226 0.047743 -0.029297 -901074.000000 0 1 0
12.539839 20.078232 4.011494 24.009895 1.012521 1.402932 0.032493 -0.023336 -862017.000000 0 1 0
11.940239 19.192432 4.891194 23.126663 1.014262 1.357691 0.024268 -0.023353 -991884.000000 0 1 0
10.597039 19.133432 4.527194 22.335643 1.065003 1.366693 0.023244 -0.020094 -424748.000000 0 1 0
9.631939 18.536332 5.586794 21.623647 1.091572 1.309467 0.020910 -0.020562 -568664.000000 0 1 0
9.270539 19.457932 6.571394 22.533025 1.126174 1.274862 0.017921 -0.019777 -436512.000000 0 1 0
8.804639 18.782132 7.695594 22.124925 1.132437 1.215546 0.020869 -0.019248 -1120360.000000 0 1 0
7.976939 19.607632 8.624294 22.857586 1.184417 1.183911 0.007268 -0.021422 1459990.000000 0 1 0
6.607339 19.986432 8.241294 22.606046 1.251516 1.197634 0.014708 -0.020099 1650290.000000 0 1 0
6.522539 21.035732 7.379494 23.227192 1.270127 1.247484 0.014530 -0.018036 -917777.000000 0 1 0
5.210739 20.984432 6.546494 22.591033 1.327405 1.276796 0.015279 -0.017998 160734.000000 0 1 0
3.974439 21.136732 7.180094 22.674024 1.384932 1.248584 0.019835 -0.021388 -323594.000000 0 1 0
3.778639 22.236732 8.102294 23.966592 1.402476 1.225935 0.012201 -0.016982 -1145780.000000 0 1 0
3.769539 23.704932 7.499594 25.147110 1.413098 1.267960 0.006511 -0.005093 261899.000000 0 0 1
2.721239 23.922432 6.537694 24.948534 1.457531 1.305653 0.019756 -0.011804 404326.000000 0 1 0
2.958639 25.019432 5.704494 25.831507 1.453089 1.348126 0.017379 -0.004655 -315463.000000 0 0 1
1.787939 25.396332 4.784494 25.904860 1.500511 1.385035 0.012415 -0.012616 -314583.000000 0 0 1
0.720939 26.044932 5.455394 26.619909 1.543123 1.364397 0.031901 -0.016589 99212.400000 0 0 1
-0.296961 26.295632 4.472594 26.674942 -1.559504 1.402330 0.030261 -0.011221 -708747.000000 0 0 1
-1.555961 26.775932 5.140694 27.309308 -1.512751 1.381427 0.029461 -0.014269 -1304010.000000 0 0 1
-2.459461 27.215632 4.175594 27.643718 -1.480672 1.419166 0.051626 -0.012432 -998480.000000 0 0 1
-3.500861 27.867932 4.800294 28.494219 -1.445828 1.401524 0.032974 -0.011769 -1086310.000000 0 0 1
-4.566661 28.377232 3.839594 28.997658 -1.411237 1.437996 0.027753 -0.014580 -589709.000000 0 0 1
-4.182061 29.457232 3.050894 29.908629 -1.429768 1.468611 0.035362 -0.010264 -13525.100000 0 0 1
-5.209861 29.964232 2.216194 30.494415 -1.398648 1.498057 0.047132 -0.014929 -474759.000000 0 0 1
-4.677561 30.828032 1.080994 31.199610 -1.420214 1.536142 0.037427 -0.005543 57949.700000 0 0 1
-4.176161 32.141732 1.314694 32.438552 -1.441591 1.530256 0.030042 -0.003161 -379227.000000 0 0 1
-3.059961 32.177932 2.148994 32.394457 -1.475986 1.504409 0.034448 -0.011799 -1321010.000000 0 0 1
-2.397761 33.545332 2.019994 33.691526 -1.499439 1.510805 0.022498 -0.013721 -605165.000000 0 0 1
-1.711761 33.753432 0.794694 33.806151 -1.520126 1.547287 0.011492 -0.005649 210596.000000 0 0 1
-0.815561 -34.204093 0.671394 34.220402 1.546957 1.551175 0.014722 -0.008039 890362.000000 0 0 1
0.507739 -34.273493 1.516394 34.310779 -1.555983 1.526586 0.009921 -0.007263 -122890.000000 0 0 1
0.372339 -33.984493 2.922694 34.111971 -1.559841 1.485012 0.007772 -0.009967 71558.800000 0 0 1
1.489939 -34.458393 3.649894 34.683173 -1.527584 1.465366 -0.005294 -0.012518 190172.000000 0 0 1
1.140839 -34.465393 5.149794 34.866678 -1.537707 1.422554 -0.004519 -0.014937 368630.000000 0 0 1
0.106639 33.709932 5.597094 34.171602 1.567633 1.406261 -0.000371 -0.020001 113764.000000 0 0 1
-0.333261 33.976932 6.927194 34.677500 -1.560988 1.369683 0.013222 -0.020286 -578328.000000 0 0 1
0.693139 33.756232 7.995594 34.697164 1.550266 1.338267 0.014989 -0.012794 -690917.000000 0 0 1
1.079139 32.380132 8.045794 33.382215 1.537481 1.327379 0.012947 -0.013667 -780306.000000 0 0 1
2.172039 32.332732 8.886394 33.601954 1.503719 1.303152 0.013169 -0.003197 -921251.000000 0 0 1
2.692339 30.866532 9.034694 32.274095 1.483791 1.287068 0.008072 -0.013321 486142.000000 0 0 1
1.894339 30.118532 9.985694 31.787239 1.507983 1.251244 0.018733 -0.022631 718800.000000 0 0 1
2.308039 28.786132 9.909994 30.531564 1.490789 1.240227 0.021937 -0.018216 38128.400000 0 0 1
2.030539 27.955032 11.202894 30.184628 1.498288 1.190554 0.017946 -0.017802 -226570.000000 0 0 1
2.724239 28.441932 12.344894 31.124932 1.475305 1.162960 0.025225 -0.011239 -221998.000000 0 0 1
2.821739 27.615532 13.468994 30.854394 1.468970 1.119054 0.021300 -0.011446 -1126570.000000 0 0 1
1.593539 27.056932 14.256094 30.624388 1.511969 1.086581 0.018139 -0.010794 270526.000000 0 0 1
0.740239 28.024732 14.835494 31.717904 1.544389 1.084073 0.013949 -0.008346 -37953.200000 0 0 1
0.061339 28.805832 13.930594 31.997518 1.568667 1.120353 0.020572 -0.010755 -1734520.000000 0 0 1
-0.579261 30.081832 14.630694 33.456081 -1.551543 1.118191 0.004965 -0.005873 -208315.000000 0 0 1
-1.793761 29.736932 15.231094 33.458765 -1.510548 1.098177 -0.004550 0.001826 -413010.000000 0 0 1
-2.477361 30.907732 15.617194 34.717747 -1.490814 1.104218 -0.003795 0.002445 -138165.000000 0 0 1
-3.785661 30.553732 16.375294 34.871364 -1.447523 1.081968 0.001058 0.006528 471023.000000 0 0 1
-4.802261 30.065232 15.460894 34.147022 -1.412406 1.100922 0.013862 -0.003326 123620.000000 0 0 1
-5.922861 29.771432 16.231594 34.422131 -1.374416 1.079754 0.014703 0.008510 -1021570.000000 0 0 1
-7.134061 29.323832 15.410894 33.886245 -1.332147 1.098668 0.019010 -0.000429 -949795.000000 0 0 1
-8.253161 29.028532 16.150794 34.228913 -1.293794 1.079412 0.031326 0.003392 -927750.000000 0 0 1
-9.306961 28.606032 15.338194 33.766622 -1.256248 1.099276 0.031412 0.000256 -761859.000000 0 0 1
-10.499761 28.037232 16.075694 33.981750 -1.212470 1.078026 0.036589 0.003776 -546533.000000 0 0 1
-11.389661 28.973232 16.677694 35.317390 -1.196244 1.078985 0.036682 -0.004139 651926.000000 0 0 1
-10.931561 29.541932 17.920494 36.240432 -1.216385 1.053550 0.038877 -0.010386 -447487.000000 0 0 1
-11.862261 30.681332 18.371494 37.677170 -1.201870 1.061454 0.049396 -0.013537 -1065550.000000 0 0 1
-12.881961 30.256132 19.166194 38.062074 -1.168279 1.043092 0.052777 -0.014931 -338289.000000 0 0 1
-13.870161 31.296832 19.304894 39.300789 -1.153628 1.057319 0.064787 -0.021174 649119.000000 0 0 1
-14.814061 31.044132 20.502994 40.044566 -1.125560 1.033280 0.057827 -0.025150 31676.900000 0 0 1
-14.071361 31.070832 21.676594 40.413791 -1.145550 1.004671 0.053973 -0.020662 278126.000000 0 0 1
-14.907061 30.748232 22.794194 41.076143 -1.119374 0.982523 0.042881 -0.012651 -161216.000000 0 0 1
-14.220361 30.852932 24.142994 41.677407 -1.138908 0.952948 0.028561 -0.005177 -694881.000000 0 0 1
-13.102261 29.969232 24.292794 40.742655 -1.158646 0.931975 0.031286 -0.004865 814252.000000 0 0 1
-12.351261 30.014732 25.477594 41.261914 -1.180410 0.905286 0.023600 -0.002975 266570.000000 0 0 1
-11.777561 31.375532 25.954294 42.388210 -1.211698 0.911830 0.015381 0.003263 -1058260.000000 0 0 1
-12.858761 32.100232 26.426994 43.521933 -1.189789 0.918251 0.009125 -0.000919 101410.000000 0 0 1
-12.442461 33.237332 27.100094 44.653669 -1.212594 0.918648 0.005469 -0.002368 -187812.000000 0 0 1
-13.698761 34.059532 27.503094 45.870775 -1.188394 0.927823 0.006750 0.000048 553108.000000 0 0 1
-14.422161 33.525832 28.647094 46.396510 -1.164546 0.905311 -0.010219 -0.002651 386917.000000 0 0 1
-13.801561 33.677532 29.883194 47.092086 -1.181857 0.883345 -0.005505 0.010704 -926895.000000 0 0 1
-14.490861 32.879532 30.956394 47.427281 -1.155681 0.859637 -0.008378 0.006087 -386324.000000 0 0 1
-15.794061 33.350032 31.210594 48.329889 -1.128503 0.868749 -0.007999 0.012787 -120009.000000 0 0 1
-16.237961 32.772032 32.478494 48.913495 -1.110769 0.844643 -0.012357 0.013509 545117.000000 0 0 1
-17.685861 33.155732 32.908894 49.950851 -1.080773 0.851540 -0.009507 0.012271 429607.000000 0 0 1
-17.888861 -34.507393 33.155394 51.088665 1.092532 0.864557 -0.000913 0.009594 -19085.200000 0 0 1
-19.259061 -34.247093 33.380894 51.556366 1.058516 0.866544 0.004853 0.004008 -238956.000000 0 0 1
-19.581361 -32.745493 33.599394 50.839122 1.031859 0.848784 0.005985 0.002022 -356918.000000 0 0 1
-19.137761 -32.126893 -34.121430 50.622753 1.033550 2.310452 0.014503 0.008618 44981.900000 0 0 1
-19.952761 -32.465193 -32.995330 50.406282 1.019718 2.284433 0.018655 0.006464 166789.000000 0 0 1
-19.599361 -31.616193 -31.771030 48.919495 1.015862 2.277664 0.034738 0.006935 36099.300000 0 0 1
-20.061661 -30.292093 -31.909330 48.355832 0.985841 2.291463 0.035960 0.004036 68131.300000 0 0 1
-19.754761 -29.489493 -30.747830 46.960727 0.980564 2.284656 0.030781 0.009773 -34223.700000 0 0 1
-20.177461 -28.011093 -30.890030 46.324348 0.946551 2.300731 0.043030 -0.004005 266929.000000 0 0 1
-21.546261 -27.760993 -30.631930 46.617907 0.910778 2.287742 0.039299 -0.001616 -7351.940000 0 0 1
-21.879461 -26.413393 -30.839030 46.124006 0.879008 2.303136 0.048485 -0.009678 700006.000000 0 0 1
-23.074661 -26.006193 -29.891830 45.850666 0.845056 2.280935 0.050145 -0.015287 178424.000000 0 0 1
-22.776961 -26.149093 -28.461930 44.862529 0.854212 2.258061 0.052562 -0.009154 143043.000000 0 0 1
-22.242261 -24.970693 -27.923930 43.566037 0.843124 2.266540 0.060656 -0.010418 -255372.000000 0 0 1
-21.790561 -25.190993 -26.479330 42.550789 0.857650 2.242473 0.054225 -0.010431 -315810.000000 0 0 1
-22.898561 -25.233593 -25.632130 42.639001 0.833873 2.215727 0.045452 -0.021938 -7094.080000 0 0 1
-22.539961 -25.394993 -24.264830 41.734129 0.844888 2.191263 0.042581 -0.011652 -116260.000000 0 0 1
-23.756561 -25.192693 -23.295030 41.733732 0.814729 2.162990 0.029722 -0.016898 1836660.000000 0 0 1
-24.967961 -26.003593 -23.449630 43.005478 0.805713 2.147508 0.031869 -0.011932 1246990.000000 0 0 1
-24.801361 -27.393793 -23.494130 43.789286 0.835025 2.137112 0.047511 -0.001325 -688988.000000 0 0 1
-26.145461 -28.187393 -23.583730 45.103288 0.822962 2.121026 0.028565 0.000867 587498.000000 0 0 1
-26.944961 -28.156493 -22.436830 44.969216 0.807382 2.093169 0.021516 0.003726 13358.600000 0 0 1
-27.980961 -27.185693 -22.559230 45.065674 0.770983 2.095071 0.017546 0.002836 -109578.000000 0 0 1
-28.587761 -26.781593 -21.214230 44.548371 0.752789 2.067132 0.015318 0.004583 -330367.000000 0 0 1
-29.304661 -27.812293 -20.592030 45.346648 0.759276 2.042161 0.018581 0.002470 309497.000000 0 0 1
-29.913061 -27.363993 -19.367930 44.929902 0.740923 2.016475 0.025463 -0.002065 295351.000000 0 0 1
-30.954561 -28.348093 -18.707030 45.953805 0.741474 1.990055 0.017745 -0.001157 837445.000000 0 0 1
-32.243261 -28.610393 -19.301830 47.230744 0.725770 1.991794 0.008061 0.002958 1229010.000000 0 0 1
-33.228361 -27.602093 -19.164630 47.257619 0.693170 1.988361 0.008352 0.003041 -243396.000000 0 0 1
-33.753361 -27.299293 -17.739330 46.895891 0.680076 1.958724 0.021556 0.001757 -529624.000000 0 0 1
-32.986961 -26.250993 -17.081430 45.486586 0.672174 1.955761 0.018979 0.003902 435312.000000 0 0 1
-33.431561 -25.928393 -15.848330 45.178761 0.659664 1.929213 0.022755 0.003490 -599031.000000 0 0 1
-32.960161 -26.796393 -14.705230 44.951782 0.682614 1.904065 0.040379 0.000557 -174026.000000 0 0 1
-33.502061 -28.117593 -14.591630 46.107514 0.698237 1.892802 0.033843 -0.005995 179189.000000 0 0 1
-33.098361 -28.710593 -13.371630 45.810481 0.714528 1.866999 0.022883 -0.001963 -389758.000000 0 0 1
-33.843561 -29.944293 -12.857630 46.982614 0.724345 1.848001 0.022433 0.007493 -261478.000000 0 0 1
-33.584161 -31.029893 -13.745430 47.746068 0.745888 1.862815 0.010327 0.004827 198043.000000 0 0 1
-34.086461 -32.245993 -13.287730 48.767353 0.757659 1.846757 -0.002023 -0.004731 -398290.000000 0 0 1
-33.598861 -33.408993 -14.139130 49.446530 0.782565 1.860792 -0.015379 0.010704 -476248.000000 0 0 1
-32.199561 -33.500293 -14.150630 48.572850 0.805194 1.866411 -0.011189 0.006549 -489113.000000 0 0 1
-31.845061 -34.199393 -15.349130 49.186403 0.821031 1.888157 -0.012150 -0.002882 -1723780.000000 0 0 1
-30.407061 -34.389493 -15.621230 48.489684 0.846782 1.898802 -0.012168 0.005746 -1568550.000000 0 0 1
-30.128061 33.653732 -16.582530 48.117087 -0.840619 1.922640 -0.007636 0.007562 829503.000000 0 0 1
-28.686061 33.524532 -16.700430 47.177205 -0.863018 1.932634 0.001805 0.003416 1236000.000000 0 0 1
9.305646 20.366032 -8.782106 24.051938 1.142203 1.944570 0.004653 -0.000183 -1675820.000000 0 1 0
7.932646 20.266232 -8.766606 23.462745 1.197707 1.953726 0.008638 -0.007255 -1131820.000000 0 1 0
7.371846 20.183232 -10.071706 23.730702 1.220604 2.009114 0.010241 -0.012444 181187.000000 0 1 0
7.459346 18.854032 -10.811206 22.978219 1.194057 2.060651 0.004960 -0.010042 202180.000000 0 1 0
8.646546 18.689732 -11.615806 23.643092 1.137484 2.084376 0.009233 -0.000770 485347.000000 0 1 0
8.551246 17.418732 -12.283406 22.965585 1.114437 2.135140 0.004000 -0.011450 -317259.000000 0 1 0
9.719346 17.159932 -13.225106 23.745155 1.055451 2.161518 0.011028 -0.000080 -271727.000000 0 1 0
9.590746 15.949532 -13.933706 23.249046 1.029408 2.213452 0.013072 -0.011402 196153.000000 0 1 0
10.645646 15.694232 -14.854406 24.089252 0.974772 2.235264 0.022852 -0.005902 11340.900000 0 1 0
10.425446 14.386132 -15.630706 23.663679 0.943693 2.292328 0.024799 -0.012555 -348830.000000 0 1 0
10.512546 13.215932 -14.804006 22.457361 0.898839 2.290557 0.027811 -0.016395 371497.000000 0 1 0
11.804346 12.798232 -14.380106 22.581514 0.825774 2.261149 0.039241 -0.011743 412287.000000 0 1 0
12.716846 12.094732 -15.465406 23.391868 0.760330 2.293140 0.039308 -0.008815 270333.000000 0 1 0
13.176846 12.904632 -16.571206 24.794428 0.774961 2.302777 0.029932 -0.007328 6365.280000 0 1 0
14.014546 12.208632 -17.454406 25.497343 0.716640 2.324793 0.029936 -0.008145 -90147.600000 0 0 1
14.678946 13.183832 -18.444806 27.009179 0.731790 2.322533 0.024233 -0.009392 -218430.000000 0 0 1
15.740246 13.896632 -17.893506 27.587122 0.723271 2.276564 0.016942 -0.005945 -641544.000000 0 0 1
16.540446 14.481832 -18.865106 28.968984 0.719136 2.279984 0.017585 -0.009337 -371992.000000 0 0 1
17.675046 15.364332 -18.326006 29.737392 0.715574 2.234783 0.016660 -0.001156 -337693.000000 0 0 1
17.279446 16.672632 -17.821106 29.902303 0.767527 2.209279 0.018561 -0.002130 373149.000000 0 0 1
16.839146 17.540832 -18.874506 30.781238 0.805805 2.230879 0.019524 0.001250 -111498.000000 0 0 1
16.544846 18.975132 -18.416906 31.192467 0.853712 2.202385 0.022067 0.003791 -891819.000000 0 0 1
17.696446 19.691432 -18.245006 32.152713 0.838707 2.174200 0.016614 0.008380 -809249.000000 0 0 1
17.391946 20.982532 -17.811406 32.557528 0.878694 2.149662 0.010975 0.009507 -263771.000000 0 0 1
18.459046 22.059532 -18.054606 33.960685 0.874026 2.131323 0.019486 0.002360 115246.000000 0 0 1
19.576146 21.954132 -17.181306 34.064743 0.842595 2.099451 0.026205 -0.000297 -97732.500000 0 0 1
19.572646 23.005632 -16.226906 34.287900 0.865852 2.063778 0.031223 0.002548 -865677.000000 0 0 1
20.864446 23.253632 -15.493406 34.872656 0.839500 2.031173 0.025773 0.001899 -2017270.000000 0 0 1
21.181546 22.310832 -14.498206 34.009250 0.811357 2.011197 0.029697 0.001411 -9842.860000 0 0 1
22.063846 22.858432 -13.506506 34.521688 0.803084 1.972783 0.022645 0.003871 241384.000000 0 0 1
23.530146 22.899232 -13.975806 35.684251 0.771810 1.973223 0.026928 0.000727 -1003150.000000 0 0 1
23.759446 23.690632 -15.103806 36.795140 0.783948 1.993781 0.013665 0.002227 538821.000000 0 0 1
25.156046 24.004932 -15.282006 37.981616 0.761987 1.984882 0.018732 0.002927 826826.000000 0 0 1
25.421546 24.782732 -16.604006 39.193518 0.772675 2.008258 0.012593 -0.003872 -121337.000000 0 0 1
25.966346 23.824032 -17.548006 39.367095 0.742398 2.032812 0.023943 -0.012595 507635.000000 0 0 1
26.340546 24.436132 -18.779506 40.541569 0.747910 2.052417 0.021174 -0.011415 -809982.000000 0 0 1
26.721346 23.435332 -19.798506 40.684469 0.719977 2.079031 0.013223 -0.016329 461411.000000 0 0 1
28.108146 23.070732 -19.699806 41.357090 0.687287 2.067277 0.004537 -0.010867 576783.000000 0 0 1
28.443146 22.309032 -20.844906 41.727875 0.665118 2.093869 0.002405 -0.010164 320586.000000 0 0 1
29.971246 22.334232 -21.118106 42.930967 0.640415 2.085077 0.023464 -0.011604 291193.000000 0 0 1
30.389146 23.512232 -21.781906 44.167598 0.658500 2.086520 0.013440 -0.011938 -242140.000000 0 0 1
31.759946 23.758832 -21.632506 45.178995 0.642268 2.070104 0.024535 -0.010024 -365855.000000 0 0 1
32.146246 25.109232 -22.386006 46.529431 0.663106 2.072722 0.026596 -0.011108 -230303.000000 0 0 1
32.022446 25.301132 -23.774506 47.231467 0.668679 2.098281 0.022933 -0.010040 -10907.600000 0 0 1
30.730346 25.112232 -24.291406 46.530106 0.685129 2.120058 0.010690 -0.009456 -880482.000000 0 0 1
30.507446 25.609132 -25.746136 47.427792 0.698331 2.144622 0.014528 -0.004638 -304879.000000 0 0 1
30.680146 26.977332 -25.973926 48.411700 0.721265 2.137106 0.019104 -0.008119 279603.000000 0 0 1
29.621546 27.641432 -26.675796 48.508585 0.750833 2.153064 0.018485 -0.004468 284994.000000 0 0 1
29.445446 27.312132 -28.195186 49.070922 0.747829 2.182888 0.019026 0.001947 205909.000000 0 0 1
28.818546 26.014232 -28.289176 48.036719 0.734300 2.200503 0.013497 -0.008935 193816.000000 0 0 1
28.411546 25.754332 -29.593666 48.438483 0.736380 2.228061 0.024767 -0.014180 -609400.000000 0 0 1
27.802746 24.399932 -29.841916 47.527774 0.720306 2.249627 0.018520 -0.012196 -578028.000000 0 0 1
26.539046 24.237632 -29.268406 46.351088 0.740105 2.254218 0.017496 -0.009388 -534222.000000 0 0 1
25.954646 23.057532 -29.771436 45.734362 0.726357 2.279650 0.022070 -0.013752 -1119740.000000 0 0 1
24.576446 22.890132 -29.193436 44.499624 0.749887 2.286353 0.007075 -0.008512 -1263600.000000 0 0 1
24.550646 22.700432 -27.816166 43.494631 0.746261 2.264684 -0.000406 0.004351 -906772.000000 0 0 1
23.311546 22.777532 -27.223496 42.466020 0.773812 2.266682 0.000207 -0.007270 -1232050.000000 0 0 1
23.271446 23.199832 -25.754246 41.750133 0.783857 2.235551 0.003840 -0.006855 -246534.000000 0 0 1
23.696346 22.167232 -24.852706 40.872485 0.752070 2.224404 -0.001301 -0.011319 486679.000000 0 0 1
24.061046 22.706632 -23.570306 40.621231 0.756446 2.189827 -0.000012 -0.005363 -155404.000000 0 0 1
24.576946 21.617832 -22.587806 39.768907 0.721428 2.174842 0.014543 -0.007190 1123740.000000 0 0 1
25.877346 21.048032 -22.889106 40.454516 0.682844 2.172198 -0.007353 -0.005643 1156280.000000 0 0 1
25.822646 19.622032 -22.711706 39.593621 0.649792 2.181715 0.021669 -0.007958 -459836.000000 0 0 1
27.033546 18.910132 -23.263306 40.368145 0.610394 2.184964 0.035079 -0.011671 -639671.000000 0 0 1
28.227146 19.031732 -22.534906 40.826469 0.593224 2.155519 0.047101 -0.020538 -565473.000000 0 0 1
29.308546 18.707132 -23.364406 41.890848 0.568094 2.162463 0.032574 -0.012500 -408932.000000 0 0 1
30.566746 18.314232 -22.579306 42.184857 0.539798 2.135596 0.031358 -0.004169 -152009.000000 0 0 1
31.368146 19.416932 -22.194906 43.053359 0.554274 2.112412 0.024350 -0.006375 273875.000000 0 0 1
32.636646 18.971832 -21.699706 43.542604 0.526559 2.092497 0.031917 -0.004899 720078.000000 0 0 1
33.252446 20.050032 -20.736106 44.019485 0.542596 2.061296 0.034469 -0.012704 -116993.000000 0 0 1
32.417046 20.278432 -19.633606 42.983231 0.558994 2.045161 0.033151 -0.005177 -28406.200000 0 0 1
32.893346 21.288432 -18.744506 43.434158 0.574401 2.017019 0.019573 0.003567 -265247.000000 0 0 1
32.266846 21.221432 -17.298506 42.317099 0.581759 1.991916 0.027856 -0.006554 86574.000000 0 0 1
32.690446 20.082832 -16.593006 41.800876 0.550892 1.978992 0.029767 -0.017078 420001.000000 0 0 1
32.276846 20.065232 -15.203806 40.933654 0.556194 1.951340 0.047502 -0.016333 -128677.000000 0 0 1
32.597746 18.678332 -14.520306 40.278188 0.520326 1.939601 0.030420 -0.009186 -744195.000000 0 0 1
33.970546 18.417532 -14.507906 41.275693 0.496805 1.929956 0.015684 -0.011877 -310275.000000 0 0 1
34.360746 17.291032 -13.701606 40.833500 0.466221 1.912983 0.003158 0.000115 -12929.400000 0 0 1
34.313646 17.521232 -12.171906 40.405138 0.472107 1.876796 0.004820 -0.009588 -433417.000000 0 0 1
35.266146 18.490132 -11.725906 41.510034 0.482900 1.857179 0.001608 -0.014100 378402.000000 0 0 1
35.060446 18.930332 -10.393206 41.177799 0.495082 1.825954 0.001783 -0.015070 -19716.600000 0 0 1
33.980946 20.066432 -10.288606 40.782617 0.533420 1.825831 0.005126 -0.013408 -403554.000000 0 0 1
32.701146 19.621732 -10.548306 39.568221 0.540443 1.840645 0.039452 -0.024204 -1753760.000000 0 0 1
31.771946 20.595832 -10.256406 39.228035 0.575137 1.835327 0.037036 -0.005804 -582323.000000 0 0 1
30.354646 20.045532 -10.503306 37.862215 0.583636 1.851892 0.024210 -0.002978 -263364.000000 0 0 1
30.065746 19.851332 -11.862406 37.930742 0.583557 1.888871 0.038215 -0.010631 346482.000000 0 0 1
28.786046 19.232132 -11.990806 36.637287 0.588998 1.904224 0.045572 -0.013926 435313.000000 0 0 1
28.588346 18.521232 -13.400806 36.604797 0.574869 1.945605 0.056340 -0.016180 -292559.000000 0 0 1
29.531146 17.544632 -13.675406 36.971874 0.536074 1.949683 0.048555 -0.012213 -35359.000000 0 0 1
28.969446 16.690732 -14.651006 36.502895 0.522698 1.983804 0.042539 -0.011029 1004090.000000 0 0 1
30.083546 15.761132 -15.330106 37.261846 0.482594 1.994803 0.046174 -0.024412 853689.000000 0 0 1
30.666146 14.777032 -14.484306 36.994166 0.449037 1.973089 0.044550 -0.024222 140525.000000 0 0 1
31.934346 14.478032 -15.031606 38.149247 0.425652 1.975799 0.038803 -0.015796 -301899.000000 0 0 1
32.706146 13.456732 -14.187206 38.105806 0.390332 1.952294 0.021160 -0.029648 -1232700.000000 0 0 1
33.511246 14.133132 -13.260006 38.711456 0.399109 1.920410 0.018422 -0.010018 -73074.200000 0 0 1
34.050246 13.229832 -12.293106 38.543069 0.370587 1.895412 0.006908 -0.010231 -151428.000000 0 0 1
34.996446 13.877632 -11.274906 39.299662 0.377524 1.861781 0.013825 -0.003612 -478567.000000 0 0 1
-34.753446 14.356832 -11.849906 39.425131 -0.391753 1.876084 -0.004350 -0.000618 -1057990.000000 0 0 1
-33.929146 15.024532 -10.969406 38.694333 -0.416868 1.858226 -0.018139 0.001823 -817283.000000 0 0 1
-32.548946 15.245932 -11.634906 37.778875 -0.438050 1.883859 0.000478 -0.015526 137923.000000 0 0 1
-31.804646 14.117232 -12.087906 36.836792 -0.417747 1.905138 0.004068 -0.006637 377489.000000 0 0 1
-31.413146 13.121432 -11.111006 35.810783 -0.395676 1.886273 0.015533 -0.000170 -547678.000000 0 0 1
-30.433246 12.046932 -11.632206 34.736426 -0.376922 1.912264 0.017517 -0.000643 -52699.500000 0 0 1
-30.841246 11.312832 -12.769906 35.245328 -0.351570 1.941547 0.002213 0.007041 -8344.570000 0 0 1
-30.010246 10.201432 -12.830506 34.195116 -0.327677 1.955425 0.039270 -0.003414 -215773.000000 0 0 1
-29.958346 9.703932 -14.304106 34.587227 -0.313249 1.997164 0.046201 -0.010551 275759.000000 0 0 1
-31.159946 9.042332 -14.670306 35.607919 -0.282433 1.995439 0.014745 -0.001376 691652.000000 0 0 1
-30.836646 8.041032 -15.626406 35.492837 -0.255082 2.026695 0.036768 -0.018059 -259877.000000 0 0 1
-32.102846 7.413232 -16.191906 36.711396 -0.226943 2.027575 0.030740 -0.018436 -715117.000000 0 0 1
-32.862646 6.705432 -15.284906 36.858441 -0.201281 1.998401 0.025752 -0.012992 -1114960.000000 0 0 1
-33.746146 5.947232 -15.958806 37.800204 -0.174443 2.006654 0.007491 -0.016108 -1080010.000000 0 0 1
-34.691846 5.214332 -14.990606 38.150121 -0.149187 1.974620 0.010285 -0.006332 424895.000000 0 0 1
35.222646 4.333132 -15.536506 38.740081 0.122406 1.983453 0.014625 -0.002147 379280.000000 0 0 1
34.299146 3.962132 -14.569706 37.475409 0.115007 1.970104 0.022800 -0.000607 -20664.400000 0 0 1
33.487446 2.694032 -15.012006 36.797109 0.080276 1.991023 0.032662 0.005352 101860.000000 0 0 1
34.310046 1.555332 -14.990806 37.474293 0.045301 1.982345 0.029238 -0.002843 177276.000000 0 0 1
33.530546 0.399432 -15.066006 36.761959 0.011912 1.993060 0.037584 -0.000578 -10610.500000 0 0 1
32.749546 0.052532 -13.770006 35.526731 0.001604 1.968818 0.044268 -0.014493 -157521.000000 0 0 1
33.570746 -0.471268 -12.727606 35.905557 -0.014037 1.933148 0.051802 -0.014590 306067.000000 0 0 1
33.131146 -0.313168 -11.412806 35.043160 -0.009452 1.902526 0.055159 -0.009798 -409834.000000 0 0 1
33.362746 1.131832 -10.816206 35.090514 0.033912 1.884136 0.057600 -0.015752 -128148.000000 0 0 1
32.425146 2.054232 -11.315906 34.404356 0.063268 1.905945 0.057136 -0.005514 210572.000000 0 0 1
32.649146 3.287032 -10.753906 34.531404 0.100339 1.887487 0.059758 -0.009059 -711849.000000 0 0 1
31.791046 4.465332 -11.184006 33.995467 0.139546 1.906025 0.057396 -0.010396 -411110.000000 0 0 1
31.998446 4.965832 -12.528006 34.720469 0.153962 1.939948 0.049039 0.001175 474544.000000 0 0 1
30.995846 5.926832 -12.790806 34.051058 0.188933 1.955879 0.046506 -0.002697 -9305.300000 0 0 1
31.141646 6.455432 -14.212306 34.834816 0.204398 1.991049 0.028095 -0.001433 -139042.000000 0 0 1
30.776246 5.564732 -15.246306 34.793583 0.178880 2.024384 0.018832 0.005612 375295.000000 0 0 1
31.233046 6.021932 -16.557806 35.859835 0.190469 2.050749 0.013743 0.008584 -595099.000000 0 0 1
30.327146 7.067932 -17.251706 35.599337 0.228969 2.076711 0.024491 0.002662 788245.000000 0 0 1
29.143046 6.581832 -17.907906 34.832898 0.222119 2.110765 0.012585 0.007469 962303.000000 0 0 1
28.069046 6.237032 -17.029106 33.417995 0.218651 2.105492 0.016998 0.010697 -856394.000000 0 0 1
26.749146 6.116932 -17.777906 32.695376 0.224812 2.145688 0.001143 0.007040 -675345.000000 0 0 1
26.636346 5.089332 -18.738806 32.962693 0.188792 2.175460 0.006486 0.001754 83055.500000 0 0 1
25.603046 5.360732 -19.657406 32.721049 0.206397 2.215244 0.005615 0.000090 -229509.000000 0 0 1
25.274146 4.162332 -20.598306 32.869404 0.163222 2.248070 0.008251 0.013064 -344780.000000 0 0 1
24.547746 3.233632 -19.869106 31.746332 0.130974 2.247044 0.020045 0.004003 -90593.500000 0 0 1
24.212546 2.022732 -20.451906 31.758767 0.083347 2.270481 0.018251 0.002048 -321522.000000 0 0 1
23.303946 1.102632 -19.629006 30.489139 0.047280 2.270255 0.017333 -0.002810 -738559.000000 0 0 1
22.024546 1.595532 -19.477706 29.444989 0.072317 2.293606 0.019685 -0.003103 -829119.000000 0 0 1
21.154246 0.784932 -18.707006 28.250139 0.037088 2.294536 0.020074 -0.002652 527437.000000 0 0 1
19.805446 1.565732 -18.557006 27.185836 0.078892 2.322109 0.014452 -0.005080 -795115.000000 0 0 1
19.085046 1.697232 -19.781606 27.539636 0.088697 2.372146 0.016804 -0.008246 244808.000000 0 0 1
18.125346 2.744932 -19.771206 26.962259 0.150300 2.393947 -0.001228 -0.008506 542101.000000 0 0 1
16.818346 2.473532 -18.957706 25.463106 0.146027 2.410607 0.010120 -0.012283 -797470.000000 0 0 1
17.041946 2.232232 -17.615206 24.611101 0.130243 2.368483 0.006274 -0.010759 566350.000000 0 1 0
15.887646 2.171732 -16.741406 23.182071 0.135851 2.377731 -0.006804 -0.006720 1308310.000000 0 1 0
14.916546 3.389832 -16.459206 22.469975 0.223458 2.392780 0.002918 -0.008705 345812.000000 0 1 0
14.269346 3.866232 -17.626106 23.005252 0.264594 2.443668 0.008187 -0.005838 1608.880000 0 1 0
13.241546 4.732932 -17.258206 22.261736 0.343279 2.457893 0.014989 -0.015366 -978058.000000 0 1 0
-18.993254 -22.030868 -17.616506 34.006530 0.859308 2.115346 0.029065 -0.005535 37872.800000 0 0 1
-18.891254 -22.648368 -18.898106 35.028081 0.875599 2.140655 0.029460 -0.005993 -42461.700000 0 0 1
-20.070154 -22.405968 -19.655606 35.933011 0.840334 2.149581 0.032835 -0.004716 144125.000000 0 0 1
-20.074554 -23.118868 -21.042306 37.151694 0.855763 2.172914 0.030189 -0.004548 -164043.000000 0 0 1
-19.981754 -24.511468 -20.933206 37.924684 0.886855 2.155519 0.026964 -0.002070 115238.000000 0 0 1
-19.509754 -25.126018 -22.123006 38.747576 0.910565 2.178461 0.028006 -0.004858 -125651.000000 0 0 1
-19.333754 -26.673188 -21.956806 39.589826 0.943594 2.158687 0.024691 0.006918 -236349.000000 0 0 1
-20.540954 -27.383078 -21.807006 40.587058 0.927210 2.138017 0.034956 0.011192 -112008.000000 0 0 1
-20.283354 -28.761428 -21.527306 41.256019 0.956570 2.119754 0.043883 -0.003885 534679.000000 0 0 1
-21.536054 -29.651068 -21.862706 42.672771 0.942626 2.108697 0.048406 -0.004289 570808.000000 0 0 1
-22.146654 -29.430148 -23.137706 43.496682 0.925687 2.131688 0.048943 0.001674 225236.000000 0 0 1
-21.332354 -29.696178 -24.275006 43.888589 0.947858 2.156883 0.037253 0.002814 -650541.000000 0 0 1
-21.935654 -29.134728 -25.591126 44.552340 0.925439 2.182674 0.034291 0.012179 665389.000000 0 0 1
-23.161154 -29.781168 -25.999296 45.818341 0.909795 2.174193 0.040046 0.012267 815534.000000 0 0 1
-23.680654 -29.177838 -27.167506 46.370173 0.889024 2.196766 0.034178 0.016211 -239439.000000 0 0 1
-23.127754 -29.598578 -28.540456 47.175486 0.907512 2.220543 0.038152 0.007193 -522167.000000 0 0 1
-23.525054 -30.875298 -28.968946 48.434616 0.919699 2.211930 0.032624 0.015258 244841.000000 0 0 1
-23.305654 -31.021278 -30.365886 49.270277 0.926477 2.234848 0.045292 0.012758 -103018.000000 0 0 1
-24.026454 -32.264588 -30.943836 50.752292 0.930715 2.226482 0.024508 0.004338 -120832.000000 0 0 1
-23.349654 -33.484198 -30.708306 51.082266 0.961862 2.215741 0.032574 -0.009562 282739.000000 0 0 1
-24.125754 34.468783 -31.228326 52.396158 -0.960117 2.209312 0.031363 -0.008561 314079.000000 0 0 1
-23.459254 33.077734 -31.052506 51.075740 -0.953912 2.224297 0.045143 -0.013130 359550.000000 0 0 1
-22.371754 32.788437 -31.917156 50.934093 -0.972044 2.248026 0.052614 -0.014045 93989.100000 0 0 1
-22.008254 31.431447 -31.835236 49.857611 -0.959937 2.263374 0.051351 -0.005687 6576.490000 0 0 1
-20.791954 31.033147 -32.715066 49.655182 -0.980495 2.290079 0.043915 0.010100 147403.000000 0 0 1
-21.097854 30.889087 -34.080548 50.603744 -0.971558 2.309701 0.033340 0.010831 11565.300000 0 0 1
-20.172354 30.037157 34.174904 49.770260 -0.979400 0.813921 0.014123 0.011573 -272704.000000 0 0 1
-20.333554 29.927457 32.632638 48.723661 -0.974011 0.836925 0.015241 0.005249 -202778.000000 0 0 1
-19.728154 30.915017 31.862458 48.581422 -1.002803 0.855479 0.012718 0.005126 199650.000000 0 0 1
-20.033854 30.736147 30.456288 47.682822 -0.993156 0.877954 0.023773 0.005655 -92484.800000 0 0 1
-19.322554 31.875187 29.662718 47.636808 -1.025835 0.898627 0.021674 -0.005692 -103746.000000 0 0 1
-20.033154 33.092698 29.662138 48.747270 -1.026441 0.916642 0.026889 -0.004625 138451.000000 0 0 1
-19.222254 34.145856 29.186958 48.860138 -1.058069 0.930595 0.015087 -0.018122 -232677.000000 0 0 1
-20.025654 -33.612398 29.041978 48.726344 1.033484 0.932258 0.007460 -0.022281 -245176.000000 0 0 1
-20.363054 -33.162298 30.384498 49.372155 1.020116 0.907881 0.004456 -0.010000 1247850.000000 0 0 1
-21.647854 -32.477628 30.437978 49.496428 0.982877 0.908470 0.029460 -0.014622 1164100.000000 0 0 1
-21.478154 -30.923268 30.276538 48.313853 0.963729 0.893532 0.026208 -0.020490 -722306.000000 0 0 1
-20.976954 -30.556848 29.021758 47.074579 0.969196 0.906499 0.034144 -0.016440 29853.200000 0 0 1
-20.950354 -29.163728 28.800518 46.031622 0.947847 0.894809 0.037782 -0.022826 -107077.000000 0 0 1
-22.350454 -28.686818 28.286198 46.071524 0.908918 0.909725 0.034307 -0.019108 87100.700000 0 0 1
-23.282054 -28.499238 29.354878 47.074085 0.885814 0.897471 0.028248 -0.020034 924354.000000 0 0 1
-24.381454 -29.436088 29.334648 48.181533 0.879045 0.916204 0.021399 -0.006207 840800.000000 0 0 1
-25.478384 -29.464718 28.178398 48.076395 0.857825 0.944538 0.010905 -0.006510 71320.700000 0 0 1
-24.994554 -29.743688 26.897738 47.253603 0.871942 0.965238 0.021025 -0.000281 118385.000000 0 0 1
-26.047374 -29.877498 25.945808 47.374207 0.853778 0.991210 0.021872 -0.002428 88543.500000 0 0 1
-25.520904 -30.253118 24.549598 46.575213 0.870042 1.015617 0.017481 -0.010728 -535847.000000 0 0 1
-25.119944 -29.124128 23.806718 45.232579 0.859082 1.016532 0.005702 -0.006701 417895.000000 0 0 1
-24.590554 -29.328518 22.517518 44.406035 0.873045 1.039000 0.020893 -0.011208 267581.000000 0 0 1
-23.365554 -30.252188 22.219818 44.213847 0.913138 1.044247 0.016237 -0.013753 -211279.000000 0 0 1
-23.653054 -31.651328 22.270518 45.356912 0.929025 1.057552 0.012062 -0.018435 715405.000000 0 0 1
-22.547154 -32.444038 21.830118 45.139160 0.963464 1.066013 0.018154 -0.012291 89432.900000 0 0 1
-21.682554 -33.152038 22.875918 45.743834 0.991591 1.047097 0.018646 -0.006882 -54813.300000 0 0 1
-20.853654 -32.252388 23.595018 45.075673 0.996831 1.019897 0.031376 -0.012698 321245.000000 0 0 1
-19.979454 -32.970848 24.437738 45.644917 1.025996 1.005829 0.036635 -0.017803 -282334.000000 0 0 1
-19.338454 -32.056508 25.520138 45.308641 1.027982 0.972481 0.038215 -0.018219 -813902.000000 0 0 1
-18.279554 -31.282988 25.059368 44.053823 1.041979 0.965707 0.039691 -0.019271 93105.900000 0 0 1
-17.575454 -30.506538 26.046918 43.794833 1.048120 0.933843 0.042302 -0.014558 437696.000000 0 0 1
-16.602454 -31.122498 27.080138 44.470049 1.080744 0.916057 0.028750 -0.019913 -393090.000000 0 0 1
-17.232054 -32.071448 27.904718 45.871503 1.077754 0.916850 0.019417 -0.018456 -66640.400000 0 0 1
-16.363454 -32.550988 28.897608 46.501626 1.104989 0.900227 0.016706 -0.017491 -458313.000000 0 0 1
-16.812154 -32.101968 30.287088 47.228091 1.088360 0.874613 0.026254 -0.019107 -146414.000000 0 0 1
-16.647754 -30.677428 30.441898 46.313729 1.073597 0.853569 0.026606 -0.015011 542284.000000 0 0 1
-17.328354 -30.166498 31.632018 47.019932 1.049395 0.832895 0.026691 -0.010802 376236.000000 0 0 1
-17.144254 -28.646008 31.689638 46.029907 1.031490 0.811436 0.031463 -0.014894 119264.000000 0 0 1
-17.845854 -27.840638 30.693258 45.118197 1.000774 0.822644 0.041648 -0.017618 390819.000000 0 0 1
-17.695454 -27.990468 29.291578 44.210767 1.007039 0.846586 0.044397 -0.015462 -472536.000000 0 0 1
-16.315454 -27.576168 28.706478 43.019774 1.036539 0.840238 0.041824 -0.012182 202107.000000 0 0 1
-16.167354 -26.171718 28.494798 41.932036 1.017434 0.823651 0.041313 -0.012446 -146652.000000 0 0 1
-15.104554 -26.039848 27.595448 40.837850 1.045171 0.828839 0.026222 -0.003448 -357071.000000 0 0 1
-15.091154 -24.648168 26.853938 39.451351 1.021409 0.822099 0.031749 0.005215 -485077.000000 0 0 1
-15.985154 -24.523968 25.791738 39.014919 0.993144 0.848547 0.056914 -0.008484 -148751.000000 0 0 1
-15.770054 -23.308268 25.052218 37.677362 0.975958 0.843417 0.040395 -0.008231 -34970.200000 0 0 1
-16.230054 -21.971668 25.667558 37.483228 0.934579 0.816502 0.057057 -0.009067 -399462.000000 0 0 1
-15.875854 -20.809468 24.917448 36.138012 0.919081 0.809987 0.032229 -0.004255 -32067.900000 0 0 1
-16.385054 -19.625668 25.423688 36.055523 0.875147 0.788195 0.054224 -0.002631 -244850.000000 0 0 1
-16.008654 -18.464268 24.517838 34.616912 0.856511 0.783763 0.020193 -0.004256 870810.000000 0 0 1
-14.649854 -17.993968 24.619908 33.831065 0.887485 0.755789 0.015630 -0.001731 686851.000000 0 0 1
-14.486654 -16.924168 23.695918 32.523640 0.862844 0.754557 0.019432 0.002029 431673.000000 0 0 1
-13.025754 -16.394768 23.840838 31.730809 0.899414 0.720696 0.009853 -0.000455 300924.000000 0 0 1
-12.010754 -17.300768 23.406918 31.487436 0.963952 0.732697 0.001727 0.003709 165734.000000 0 0 1
-10.748054 -16.666168 23.542118 30.781701 0.998013 0.700052 0.008129 -0.000633 -26950.300000 0 0 1
-10.248354 -15.960868 22.262118 29.246880 1.000000 0.705667 0.013535 -0.002084 -694129.000000 0 0 1
-9.977054 -16.787768 21.135418 28.776321 1.034575 0.745907 0.017773 -0.001159 263728.000000 0 0 1
-8.708954 -17.437768 21.197518 28.796812 1.107604 0.743496 0.016504 -0.001076 -174731.000000 0 0 1
-8.537954 -18.690068 20.249718 28.849027 1.142287 0.792706 0.016067 0.004326 -159305.000000 0 0 1
-8.362454 -18.333868 18.905718 27.631278 1.142864 0.817270 0.018850 -0.001434 -248143.000000 0 0 1
-7.892254 -19.589968 18.408018 28.016239 1.187816 0.853900 0.022660 0.000871 124980.000000 0 0 1
-7.430154 -19.313668 16.967218 26.760259 1.203540 0.884023 0.021905 -0.006409 -346550.000000 0 0 1
-6.329254 -18.468068 16.838918 25.781353 1.240628 0.859068 0.014973 -0.003115 -725295.000000 0 0 1
-6.163154 -18.214268 15.493818 24.694178 1.244520 0.892551 0.017144 -0.011956 247404.000000 0 1 0
-5.431054 -16.843068 15.198518 23.327671 1.258872 0.861206 0.014167 -0.012143 514784.000000 0 1 0
-6.126754 -15.705568 15.693018 23.031995 1.198853 0.821181 0.010935 -0.017102 -429559.000000 0 1 0
-5.347554 -14.601668 15.524918 21.973350 1.219737 0.786208 0.014002 -0.019851 -476664.000000 0 1 0
-5.673854 -13.480868 16.518218 22.063045 1.172419 0.724724 0.003075 -0.013377 -66979.400000 0 1 0
-5.163854 -13.700268 17.836118 23.075741 1.210347 0.687338 0.009509 -0.008948 -7678.400000 0 1 0
-5.932654 -14.534868 18.697318 24.414104 1.183269 0.698448 0.019346 -0.006526 1341.170000 0 1 0
-7.206754 -13.910068 19.290918 24.850892 1.092777 0.682074 0.022405 -0.011917 -199527.000000 0 1 0
-6.903654 -12.996368 20.303118 25.075538 1.082502 0.627193 0.023774 -0.013435 15228.600000 0 0 1
-8.049454 -12.731768 21.075718 25.905164 1.007012 0.620527 0.026959 -0.002847 152615.000000 0 0 1
-7.657054 -11.857868 22.255018 26.353849 0.997424 0.565223 0.025432 0.001505 -414878.000000 0 0 1
-7.282654 -10.567668 21.848918 25.339453 0.967393 0.531103 0.023747 -0.002438 181696.000000 0 0 1
-7.050654 -9.670268 22.891618 25.831221 0.940802 0.481719 0.028256 -0.005004 933413.000000 0 0 1
-5.593354 -9.835468 23.496818 26.079158 1.053715 0.448772 0.047532 -0.003439 819184.000000 0 0 1
-5.283554 -11.070268 24.155848 27.091913 1.125494 0.469873 0.043505 0.001587 -331273.000000 0 0 1
-4.024254 -11.147268 24.767298 27.456789 1.224349 0.446309 0.045449 -0.001681 -341201.000000 0 0 1
-3.788454 -12.517268 25.451888 28.615258 1.276903 0.474652 0.042638 0.000144 272829.000000 0 0 1
-2.492254 -12.719768 26.032848 29.081145 1.377312 0.461962 0.040932 0.001139 768313.000000 0 0 1
-2.472754 -13.938368 26.846228 30.349837 1.395217 0.485248 0.032247 0.000710 -40463.600000 0 0 1
-2.386754 -15.292968 26.136498 30.375780 1.415977 0.534666 0.024312 -0.009361 -183366.000000 0 0 1
-1.137454 -15.646568 25.593098 30.018587 1.498227 0.549903 0.016787 -0.003507 37209.500000 0 0 1
-1.304254 -16.763968 24.762378 29.931707 1.493152 0.596519 0.011945 0.000575 59356.400000 0 0 1
-0.051954 -17.693968 24.778698 30.447711 1.567860 0.620115 0.012815 -0.002818 258862.000000 0 0 1
0.294746 -18.416668 25.968388 31.837364 -1.554793 0.616931 0.016688 -0.007444 195093.000000 0 0 1
0.932846 -17.598368 26.937868 32.190395 -1.517838 0.579330 0.017182 -0.002720 -444938.000000 0 0 1
1.372646 -18.145868 28.290028 33.637514 -1.495295 0.571619 0.011208 0.001760 -373540.000000 0 0 1
2.583746 -18.920568 28.129048 33.998632 -1.435078 0.596408 0.008760 0.000723 714469.000000 0 0 1
3.103146 -19.239068 29.404918 35.276344 -1.410880 0.585277 0.008230 -0.001308 -108566.000000 0 0 1
3.952946 -18.082368 29.936628 35.196584 -1.355574 0.553757 0.020305 0.002829 -1347280.000000 0 0 1
3.184646 -16.971768 30.347418 34.916310 -1.385310 0.517321 0.005875 -0.004837 249822.000000 0 0 1
4.000446 -15.858468 30.765788 34.842909 -1.323692 0.488611 0.007780 -0.013906 -32418.700000 0 0 1
3.137946 -14.714768 31.291068 34.720341 -1.360692 0.448193 0.002379 -0.013868 -183747.000000 0 0 1
2.464146 -15.174368 32.417928 35.878343 -1.409813 0.442809 0.013736 -0.014370 -286607.000000 0 0 1
1.545046 -14.317068 33.041078 36.042731 -1.463296 0.411005 0.010091 -0.003115 -90578.000000 0 0 1
0.947146 -14.920668 34.333969 37.447895 -1.507403 0.410688 0.010253 -0.001426 112250.000000 0 0 1
1.851046 -15.081468 -33.465726 36.753665 -1.448671 2.715388 0.017648 -0.001520 -155564.000000 0 0 1
1.125046 -15.390668 -32.319766 35.814880 -1.497827 2.696131 0.022810 -0.012269 602117.000000 0 0 1
2.093546 -15.603068 -31.113216 34.869340 -1.437418 2.673167 0.014270 -0.010121 344395.000000 0 0 1
1.366046 -16.175368 -30.048636 34.153025 -1.486544 2.646287 0.033957 -0.015242 58728.700000 0 0 1
2.121446 -16.354168 -28.872676 33.250425 -1.441798 2.622642 0.021448 -0.012701 39681.900000 0 0 1
1.469046 -17.450968 -27.946336 32.980177 -1.486813 2.581805 0.043009 -0.022062 251080.000000 0 0 1
1.846046 -18.784368 -28.404736 34.104096 -1.472835 2.555094 0.045674 -0.023215 245887.000000 0 0 1
1.455646 -19.811568 -27.496996 33.921998 -1.497454 2.515963 0.056044 -0.032521 -1117340.000000 0 0 1
2.255746 -21.103668 -27.702716 34.898333 -1.464312 2.487848 0.052346 -0.033332 958830.000000 0 0 1
3.620446 -21.024268 -27.216236 34.581078 -1.400266 2.476771 0.044402 -0.034896 998730.000000 0 0 1
3.714646 -21.052268 -25.818226 33.519806 -1.396145 2.450010 0.038482 -0.033153 -1385990.000000 0 0 1
5.161346 -21.382068 -25.450456 33.638639 -1.333941 2.428869 0.025046 -0.029720 -330392.000000 0 0 1
5.685946 -22.676068 -25.700436 34.742574 -1.325115 2.403479 0.029393 -0.032194 240669.000000 0 0 1
5.860346 -23.108068 -27.037186 36.046302 -1.322427 2.418962 0.029577 -0.025707 -917710.000000 0 0 1
5.172246 -24.433368 -27.287026 36.990855 -1.362188 2.400408 0.009292 -0.022232 -310739.000000 0 0 1
5.743146 -25.589898 -26.711566 37.434401 -1.350024 2.365358 0.021105 -0.009863 -51067.100000 0 0 1
4.941946 -26.742498 -26.901716 38.252926 -1.388060 2.350768 0.011387 -0.005432 27329.300000 0 0 1
5.147346 -27.859798 -25.857636 38.357279 -1.388098 2.310577 0.018251 -0.008422 -556131.000000 0 0 1
6.487846 -28.224058 -25.815816 38.796211 -1.344852 2.298854 0.028462 -0.006291 -850277.000000 0 0 1
6.751246 -29.448998 -25.207006 39.347375 -1.345438 2.266111 0.028036 0.000309 849724.000000 0 0 1
8.176746 -30.049588 -25.529706 40.269130 -1.305120 2.257481 0.025972 -0.000406 1004980.000000 0 0 1
8.337446 -30.239318 -26.922306 41.336907 -1.301765 2.280079 0.022171 0.001631 54959.800000 0 0 1
9.706446 -30.456298 -27.231886 41.992580 -1.262272 2.276399 0.052391 0.000333 353442.000000 0 0 1
10.107846 -30.458208 -28.677906 43.038277 -1.250373 2.300079 0.062019 -0.010919 -63931.700000 0 0 1
9.504046 -31.514748 -29.432496 44.156291 -1.277896 2.300371 0.052419 -0.016088 217612.000000 0 0 1
9.597046 -31.138478 -30.805196 44.840475 -1.271829 2.328142 0.061609 -0.011090 -117582.000000 0 0 1
-34.306503 -5.012768 -5.851406 35.161100 0.145090 1.737991 0.065728 -0.021189 -271182.000000 0 0 1
-34.074258 -4.287368 -4.635506 34.654357 0.125166 1.704962 0.067473 -0.027388 883919.000000 0 0 1
-32.964294 -3.371668 -4.695106 33.467250 0.101928 1.711550 0.060032 -0.031754 15992.900000 0 0 1
-33.309774 -1.938968 -5.187806 33.767054 0.058145 1.725042 0.078251 -0.024177 18031.400000 0 0 1
-34.075025 -1.078768 -4.299006 34.362079 0.031648 1.696234 0.053786 -0.021096 618191.000000 0 0 1
-34.560285 0.021432 -5.018106 34.922702 -0.000620 1.714987 0.046714 -0.026173 -412433.000000 0 0 1
35.263341 0.793032 -4.217506 35.523506 0.022485 1.689801 0.060487 -0.024542 18805.800000 0 0 1
-35.182248 1.713132 -3.278006 35.376132 -0.048655 1.663591 0.055894 -0.017146 232817.000000 0 0 1
34.709449 2.547532 -2.735006 34.910113 0.073265 1.649221 0.053187 -0.023374 -339119.000000 0 0 1
35.249212 3.895832 -2.153006 35.529141 0.110076 1.631432 0.039564 -0.025232 35093.100000 0 0 1
-35.092453 4.863232 -3.038506 35.557894 -0.137706 1.656353 0.062631 -0.024081 1208280.000000 0 0 1
-33.754844 4.484332 -3.459206 34.226668 -0.132077 1.672037 0.036106 -0.017943 466354.000000 0 0 1
-32.857044 5.756432 -3.267506 33.517136 -0.173436 1.668439 0.022566 -0.021224 -426418.000000 0 0 1
-32.443034 5.913832 -1.914606 33.033158 -0.180304 1.628789 0.025719 -0.027410 346896.000000 0 0 1
-32.176794 7.303432 -1.731306 33.040635 -0.223197 1.623220 0.043425 -0.032593 -309178.000000 0 0 1
-31.484514 7.529732 -0.376906 32.374581 -0.234747 1.582439 0.043726 -0.038010 -1538750.000000 0 0 1
-30.153744 7.176832 -0.408706 30.998745 -0.233661 1.583981 0.038058 -0.035196 -478018.000000 0 0 1
-29.424524 7.364032 0.826494 30.343280 -0.245231 1.543555 0.046144 -0.033043 475448.000000 0 0 1
-29.069574 8.848832 1.181494 30.409503 -0.295490 1.531934 0.051379 -0.037143 -55064.900000 0 0 1
-30.259254 9.598532 1.514694 31.781261 -0.307170 1.523118 0.065799 -0.040682 769463.000000 0 0 1
-30.042524 10.994732 1.577294 32.030067 -0.350833 1.521532 0.065939 -0.025988 -88952.300000 0 0 1
-31.363064 11.798732 1.646194 33.549393 -0.359821 1.521709 0.055924 -0.035181 -293547.000000 0 0 1
-32.055444 11.819232 0.398494 34.167302 -0.353247 1.559133 0.051478 -0.027348 -439244.000000 0 0 1
-33.290704 12.419532 0.532094 35.535881 -0.357071 1.555822 0.049504 -0.004696 -189103.000000 0 0 1
-34.517862 11.481232 0.815694 36.386355 -0.321106 1.548377 0.061006 -0.025028 187119.000000 0 0 1
-34.818548 10.589132 -0.269006 36.394139 -0.295235 1.578188 0.059175 -0.017780 647429.000000 0 0 1
34.764359 10.077732 -0.158306 36.195944 0.282153 1.575170 0.071493 -0.025746 767779.000000 0 0 1
34.494399 8.873532 -1.083506 35.633932 0.251786 1.601208 0.069380 -0.033439 83317.700000 0 0 1
34.182069 9.194032 -2.403706 35.478470 0.262754 1.638599 0.065077 -0.026181 89854.800000 0 0 1
33.846619 8.092032 -3.146006 34.942409 0.234674 1.660952 0.056299 -0.033447 -22288.100000 0 0 1
33.197639 8.339332 -4.539206 34.528714 0.246110 1.702640 0.043896 -0.016015 836914.000000 0 0 1
31.881109 8.915532 -4.454306 33.402585 0.272684 1.704547 0.051101 -0.024214 946702.000000 0 0 1
31.503089 9.528932 -5.694606 33.401702 0.293727 1.742122 0.038078 -0.012916 1306970.000000 0 0 1
30.024319 10.102732 -5.845806 32.213326 0.324584 1.753279 0.045433 -0.008718 1257610.000000 0 0 1
28.967339 9.170732 -5.850306 30.942449 0.306605 1.761012 0.034060 -0.006984 398501.000000 0 0 1
27.787639 9.760032 -6.340006 30.126513 0.337776 1.782828 0.032010 0.000180 -808633.000000 0 0 1
26.548099 8.926832 -6.453606 28.742632 0.324374 1.797258 0.036424 0.005375 -871146.000000 0 0 1
26.674619 7.992732 -7.494706 28.837297 0.291125 1.833711 0.034326 -0.001917 590062.000000 0 0 1
25.521039 7.149832 -7.572306 27.564168 0.273152 1.849090 0.037339 -0.007374 187408.000000 0 0 1
25.488939 6.071532 -8.664206 27.597427 0.233845 1.890147 0.034589 -0.005765 -310281.000000 0 0 1
26.432469 5.047532 -8.440906 28.202870 0.188688 1.874747 0.046244 -0.007765 350754.000000 0 0 1
26.551789 4.125432 -9.536406 28.512449 0.154141 1.911833 0.035936 -0.003591 -531372.000000 0 0 1
27.553999 3.006532 -9.131206 29.182889 0.108684 1.889037 0.036738 -0.002863 -1644690.000000 0 0 1
28.819519 3.461732 -9.441606 30.523633 0.119545 1.885275 0.076328 -0.005958 -493157.000000 0 0 1
29.827619 3.067132 -8.521406 31.172239 0.102468 1.847686 0.056353 -0.015812 -187121.000000 0 0 1
30.182369 1.593132 -8.303606 31.344271 0.052735 1.838913 0.055605 -0.015089 -1101720.000000 0 0 1
29.222239 0.969532 -7.460806 30.175203 0.033166 1.820637 0.064558 -0.018887 435061.000000 0 0 1
29.455389 -0.384168 -7.027406 30.284517 -0.013042 1.804977 0.060278 -0.020521 -519869.000000 0 0 1
29.241969 -1.512368 -8.029006 30.361899 -0.051673 1.838423 0.051419 -0.014921 -677197.000000 0 0 1
30.204319 -1.651568 -9.018106 31.565088 -0.054625 1.860532 0.053510 -0.021889 -79669.000000 0 0 1
29.851269 -2.800468 -9.856106 31.560794 -0.093540 1.888398 0.039904 -0.015479 -113721.000000 0 0 1
30.748529 -3.164768 -11.068006 32.832736 -0.102563 1.914634 0.041088 -0.021287 -1007130.000000 0 0 1
32.049389 -3.449668 -10.723206 33.971322 -0.107223 1.891943 0.055363 -0.017243 -531217.000000 0 0 1
32.870829 -3.957368 -11.776806 35.140366 -0.119815 1.912546 0.048086 -0.028829 430626.000000 0 0 1
34.318419 -4.311868 -11.355306 36.404520 -0.124988 1.888010 0.044483 -0.018977 38998.600000 0 0 1
34.397739 -5.433868 -10.501106 36.373130 -0.156677 1.863670 0.040977 -0.016764 -120921.000000 0 0 1
-35.181678 -5.656468 -10.146106 37.049825 0.159415 1.848190 0.045313 -0.012628 -312580.000000 0 0 1
-34.983198 -6.966368 -9.328706 36.869760 0.196563 1.826595 0.045611 -0.017496 -267571.000000 0 0 1
35.324998 -6.908268 -8.073906 36.888584 -0.193126 1.791455 0.041964 -0.010395 395879.000000 0 0 1
34.916998 -8.244468 -7.688606 36.691725 -0.231869 1.781907 0.041112 -0.010856 -264841.000000 0 0 1
34.691759 -8.482368 -6.220406 36.251374 -0.239802 1.743241 0.051490 -0.011609 241309.000000 0 0 1
-34.991609 -8.474168 -5.463106 36.415240 0.237603 1.721387 0.036568 -0.003052 1159990.000000 0 0 1
-35.005706 -9.235268 -4.233306 36.450110 0.257945 1.687199 0.058992 -0.023198 -499891.000000 0 0 1
-34.743096 -10.721068 -4.560306 36.644514 0.299311 1.695567 0.056870 -0.019044 -571841.000000 0 0 1
35.198960 -11.454468 -5.272206 37.389407 -0.314612 1.712276 0.028707 -0.017765 50909.100000 0 0 1
-35.133389 -12.289368 -6.271506 37.745402 0.336489 1.737723 0.035154 -0.015102 -323904.000000 0 0 1
34.941287 -12.462768 -7.514306 37.850745 -0.342611 1.770649 0.040362 -0.022510 -530245.000000 0 0 1
35.038298 -11.426468 -8.467806 37.814683 -0.315239 1.796640 0.052422 -0.022598 84043.400000 0 0 1
34.462119 -11.832368 -9.708706 37.708110 -0.330733 1.831199 0.052213 -0.013106 -107066.000000 0 0 1
34.749609 -10.969168 -10.966906 38.054316 -0.305764 1.863133 0.027969 -0.012084 -192310.000000 0 0 1
34.132739 -9.679668 -11.112606 37.178352 -0.276334 1.874336 0.023509 -0.009834 473466.000000 0 0 1
34.398369 -9.185468 -12.442606 37.715236 -0.260944 1.907004 0.026595 -0.013671 -358526.000000 0 0 1
33.380429 -8.112168 -12.881106 36.687644 -0.238400 1.929544 0.030054 -0.016844 -292235.000000 0 0 1
33.533799 -7.739168 -14.229906 37.241115 -0.226816 1.962866 0.037100 -0.010666 853695.000000 0 0 1
32.498929 -6.806468 -14.556506 36.254658 -0.206453 1.983958 0.038366 -0.021926 210524.000000 0 0 1
32.829249 -6.045868 -15.826906 36.943241 -0.182120 2.013530 0.042610 -0.025353 -1206290.000000 0 0 1
33.883719 -5.192668 -15.821106 37.754173 -0.152067 2.003202 0.054899 -0.027623 -788466.000000 0 0 1
33.535969 -3.833168 -15.623906 37.194903 -0.113806 2.004302 0.060071 -0.020628 -478437.000000 0 0 1
34.806169 -2.986668 -15.700306 38.299989 -0.085599 1.993173 0.062485 -0.020252 -348745.000000 0 0 1
35.432507 -2.895168 -16.974606 39.395200 -0.081528 2.016264 0.055654 -0.016550 784912.000000 0 0 1
-34.135047 -2.415668 -16.987006 38.204649 0.070650 2.031560 0.041984 -0.010218 708353.000000 0 0 1
-33.986834 -0.872368 -16.700906 37.878571 0.025662 2.027405 0.034208 -0.004749 -568071.000000 0 0 1
-34.500664 0.027932 -17.650206 38.753404 -0.000810 2.043673 0.022051 -0.000210 223283.000000 0 0 1
-34.246073 1.305032 -17.134106 38.315456 -0.038089 2.034412 0.027463 -0.004880 -311169.000000 0 0 1
-34.559840 2.497932 -18.039806 39.064777 -0.072153 2.050811 0.011446 0.002268 -225279.000000 0 0 1
-33.684224 2.688832 -19.110706 38.821074 -0.079656 2.085500 0.008928 0.010216 192711.000000 0 0 1
-34.056984 3.901632 -19.689706 39.532081 -0.114065 2.092167 0.005467 0.012997 -358569.000000 0 0 1
-33.244144 4.138032 -20.934906 39.504008 -0.123837 2.129331 0.010102 0.017193 -453222.000000 0 0 1
-31.900044 4.454132 -20.666506 38.269525 -0.138731 2.141263 0.013522 0.013226 318179.000000 0 0 1
-31.207594 4.746832 -21.906906 38.423415 -0.150948 2.177478 0.014206 0.010992 435494.000000 0 0 1
-29.716764 5.166032 -21.997906 37.332048 -0.172122 2.200926 0.034586 -0.000230 547131.000000 0 0 1
-28.830124 4.118632 -21.636706 36.280659 -0.141899 2.209768 0.032858 0.011188 -475684.000000 0 0 1
-27.501694 4.539732 -21.681306 35.313331 -0.163596 2.231876 0.025703 -0.000547 -184683.000000 0 0 1
-26.591284 3.446132 -21.001206 34.059108 -0.128878 2.235226 0.040232 0.007953 126938.000000 0 0 1
-26.651984 3.555732 -19.587006 33.265933 -0.132630 2.200371 0.037359 0.013482 28120.100000 0 0 1
-25.937074 2.503132 -18.947506 32.218092 -0.096210 2.199506 0.040756 0.009571 -388419.000000 0 0 1
-25.116614 2.911332 -17.742606 30.888836 -0.115398 2.182670 0.039913 0.000447 716563.000000 0 0 1
-23.867054 3.566532 -18.060606 30.142029 -0.148336 2.213277 0.041158 -0.002090 1077060.000000 0 0 1
-23.123154 3.858732 -16.861606 28.877046 -0.165354 2.194333 0.049450 -0.009950 -484285.000000 0 0 1
-21.907854 4.760232 -17.060106 28.171991 -0.213958 2.221278 0.053248 -0.010476 -698250.000000 0 0 1
-20.921354 3.916432 -17.580606 27.606506 -0.185056 2.261174 0.058110 -0.013363 -967371.000000 0 0 1
-19.733654 4.610232 -17.801206 26.973214 -0.229506 2.291560 0.053663 -0.014291 -432579.000000 0 0 1
-18.548854 3.728232 -18.252206 26.288832 -0.198352 2.338236 0.070247 -0.021759 22048.600000 0 0 1
-17.951654 2.967032 -17.170706 25.017959 -0.163798 2.327234 0.076561 -0.021932 -464410.000000 0 0 1
-16.842454 2.335932 -17.712806 24.553377 -0.137814 2.376618 0.067910 -0.017801 -1387830.000000 0 1 0
-16.805254 0.819532 -17.309506 24.139328 -0.048728 2.370381 0.055185 -0.024746 -80837.300000 0 1 0
-17.755154 -0.045468 -17.886206 25.202458 0.002561 2.359870 0.058563 -0.024741 415392.000000 0 0 1
-19.101854 0.287232 -17.567406 25.953363 -0.015036 2.314317 0.055600 -0.027607 -466586.000000 0 0 1
-20.182254 -0.705868 -17.996606 27.049943 0.034960 2.298706 0.058348 -0.026686 -372718.000000 0 0 1
-20.221454 -1.983668 -17.352306 26.719743 0.097784 2.277616 0.042487 -0.023132 790595.000000 0 0 1
-21.404154 -2.673068 -17.780206 27.953869 0.124242 2.260172 0.057586 -0.008771 473503.000000 0 0 1
-21.702054 -3.838068 -16.805106 27.715005 0.175043 2.222264 0.061437 -0.009016 17064.000000 0 0 1
-22.124454 -3.371468 -15.506506 27.227008 0.151223 2.176726 0.053355 -0.013789 472242.000000 0 0 1
-22.026954 -4.414968 -14.559306 26.770357 0.197814 2.145825 0.047871 -0.024043 -170245.000000 0 0 1
-22.374954 -3.855068 -13.175106 26.250400 0.170619 2.096592 0.037831 -0.016334 -357186.000000 0 0 1
-23.665154 -3.354768 -12.958006 27.188304 0.140822 2.067582 0.035153 -0.019032 132017.000000 0 0 1
-23.820654 -2.837768 -11.658006 26.671812 0.118572 2.023158 0.034562 -0.022985 -7592.180000 0 0 1
-25.074074 -1.935068 -11.397406 27.610768 0.077021 1.996310 0.046739 -0.022983 -12351.400000 0 0 1
-25.134904 -1.449568 -10.069706 27.115745 0.057608 1.951270 0.037125 -0.028361 683112.000000 0 0 1
-25.702544 -0.129668 -10.057806 27.600671 0.005045 1.943789 0.042351 -0.026221 -396202.000000 0 0 1
-26.162994 0.280332 -8.650406 27.557401 -0.010714 1.890099 0.051505 -0.017426 604965.000000 0 0 1
-25.052754 0.436732 -7.716406 26.217821 -0.017431 1.869539 0.048611 -0.021968 1347180.000000 0 0 1
-25.533534 0.859232 -6.459406 26.351917 -0.033638 1.818441 0.046673 -0.013935 135201.000000 0 0 1
-24.410254 1.179732 -5.428906 25.034482 -0.048292 1.789390 0.033554 -0.009807 111273.000000 0 0 1
-23.945854 2.503132 -5.496406 24.695750 -0.104155 1.795241 0.049555 -0.011113 946521.000000 0 1 0
-22.582554 2.700432 -5.100706 23.308395 -0.119015 1.791417 0.037093 -0.004652 592573.000000 0 1 0
-22.036354 4.134432 -5.140406 23.002569 -0.185463 1.796170 0.049275 -0.002817 -287268.000000 0 1 0
-22.653454 5.018732 -4.225606 23.584367 -0.218022 1.750939 0.056962 -0.005702 560547.000000 0 1 0
-22.542054 6.355232 -4.736106 23.894850 -0.274795 1.770324 0.077142 -0.013023 -641122.000000 0 1 0
-23.035554 7.413632 -3.767006 24.490590 -0.311366 1.725224 0.065194 -0.013217 -105467.000000 0 1 0
-22.399154 7.424832 -2.458906 23.725439 -0.320080 1.674623 0.064122 -0.010570 812261.000000 0 1 0
-21.020954 7.724832 -2.352606 22.518621 -0.352164 1.675461 0.069189 -0.012801 -48247.000000 0 1 0
-20.592054 9.200432 -2.545606 22.697153 -0.420186 1.683188 0.073526 -0.017274 -563878.000000 0 1 0
-20.337354 9.619632 -3.847006 22.824214 -0.441818 1.740154 0.046510 -0.014176 447677.000000 0 1 0
-19.949254 10.955532 -3.832706 23.079992 -0.502206 1.737631 0.072630 -0.009452 -404007.000000 0 1 0
-19.679054 11.470732 -5.258106 23.377137 -0.527744 1.797663 0.064769 -0.011091 194014.000000 0 1 0
-18.489754 11.007632 -5.893906 22.310918 -0.536984 1.838141 0.042579 -0.004325 402586.000000 0 1 0
-18.371754 11.663532 -7.114206 22.894786 -0.565660 1.886762 0.032619 0.003136 367919.000000 0 1 0
-17.058054 11.384532 -7.904906 21.978906 -0.588510 1.938698 0.026363 0.001248 -59633.100000 0 1 0
-16.870954 10.053432 -8.379206 21.352088 -0.537401 1.974069 0.020112 -0.000669 463432.000000 0 1 0
-17.839654 9.569532 -9.318506 22.285954 -0.492357 2.002186 0.035628 0.000052 144796.000000 0 1 0
-17.891954 10.150232 -10.762406 23.215913 -0.516034 2.052826 0.035653 0.005082 -390285.000000 0 1 0
-16.799954 9.684632 -11.486606 22.538249 -0.522937 2.105574 0.034633 -0.001527 -448306.000000 0 1 0
-16.738754 10.516332 -12.610506 23.447899 -0.560942 2.138633 0.027320 0.001074 58350.400000 0 1 0
-15.577254 10.190132 -13.570206 23.035627 -0.579299 2.200737 0.018905 -0.002484 -379321.000000 0 1 0
-15.601354 8.961332 -14.278706 22.969309 -0.521379 2.241635 0.019198 -0.006714 58437.100000 0 1 0
-15.710654 7.713532 -13.526806 22.120074 -0.456401 2.228773 0.021062 -0.010248 -312176.000000 0 1 0
-15.592954 6.449932 -14.436006 22.206758 -0.392213 2.278476 0.028255 -0.011031 172647.000000 0 1 0
-14.390654 6.435532 -15.214306 21.908494 -0.420525 2.338449 0.037092 -0.018068 918483.000000 0 1 0
-14.243954 5.229532 -15.967706 22.027389 -0.351862 2.381689 0.018008 -0.020508 -204921.000000 0 1 0
31.448239 -16.032368 28.303068 45.244803 -0.471458 0.894955 0.010349 0.012145 -402161.000000 0 0 1
30.916569 -14.813668 28.745708 44.739186 -0.446829 0.873017 0.017478 0.014154 -116418.000000 0 0 1
29.929119 -14.933568 29.753248 44.766275 -0.462819 0.843791 0.019167 0.012979 -78304.500000 0 0 1
30.335899 -14.962868 31.223968 46.033579 -0.458225 0.825368 0.021863 0.000849 -199540.000000 0 0 1
30.652539 -13.674368 31.586338 46.089730 -0.419613 0.815750 0.014583 0.000625 -90198.300000 0 0 1
30.838239 -13.526768 32.990737 47.141905 -0.413364 0.795654 -0.001346 -0.004124 -86470.200000 0 0 1
31.022989 -12.109968 33.538654 47.264347 -0.372164 0.781870 0.016466 -0.008378 9348.470000 0 0 1
30.994009 -12.115968 -33.903536 47.506579 -0.372648 2.365505 -0.003883 -0.015689 143064.000000 0 0 1
31.181979 -10.796068 -33.334806 46.905012 -0.333310 2.361271 0.009395 -0.004555 -208205.000000 0 0 1
30.451589 -10.569668 -31.994016 45.416233 -0.334087 2.352461 0.014163 -0.006729 -292309.000000 0 0 1
29.070279 -10.340168 -32.061836 44.496758 -0.341740 2.375382 0.044878 -0.013065 -279176.000000 0 0 1
28.587549 -9.960668 -30.806956 43.191798 -0.335273 2.364934 0.045223 -0.007705 -854045.000000 0 0 1
27.077599 -9.870568 -30.672816 42.088551 -0.349559 2.387318 0.012955 0.016268 -436581.000000 0 0 1
26.568859 -9.635068 -29.349036 40.744383 -0.347895 2.375061 0.002948 0.002761 439738.000000 0 0 1
25.894839 -10.723668 -28.762966 40.160278 -0.392622 2.369145 0.002528 0.003691 -814025.000000 0 0 1
25.759339 -10.522968 -27.201556 38.912736 -0.387822 2.344850 0.011650 0.008451 -1125400.000000 0 0 1
24.933439 -9.511768 -26.688446 37.741532 -0.364445 2.356238 0.005312 0.002843 439465.000000 0 0 1
23.568539 -9.436968 -27.064986 37.108569 -0.380856 2.388162 0.001980 0.003929 70257.200000 0 0 1
22.657539 -10.636768 -26.844306 36.703156 -0.438917 2.391154 0.008828 0.015374 -1788100.000000 0 0 1
22.956339 -11.640668 -27.761416 37.857560 -0.469294 2.393977 0.017121 0.008227 -242117.000000 0 0 1
22.384839 -12.880668 -27.510246 37.733357 -0.522149 2.387758 0.012782 -0.000574 -691581.000000 0 0 1
23.138039 -13.933068 -28.252986 39.086192 -0.542015 2.378697 0.019981 0.013742 -310153.000000 0 0 1
23.107539 -13.992468 -29.664006 40.121076 -0.544481 2.402919 0.022244 0.005289 380326.000000 0 0 1
24.284439 -14.588068 -30.204906 41.411134 -0.540946 2.388228 0.022196 0.009998 245112.000000 0 0 1
24.316439 -14.621368 -31.726296 42.563264 -0.541372 2.411918 0.042158 0.000510 -110416.000000 0 0 1
23.268339 -15.400068 -32.288346 42.674524 -0.584658 2.428923 0.050782 0.003471 198966.000000 0 0 1
23.437539 -15.677868 -33.661016 43.911021 -0.589562 2.444284 0.065189 -0.000732 -169121.000000 0 0 1
23.552739 -14.586168 34.156825 43.979274 -0.554489 0.681454 0.045718 -0.004902 -169865.000000 0 0 1
22.495339 -13.699368 33.874096 42.908826 -0.547001 0.660894 0.050905 -0.005078 -248137.000000 0 0 1
22.748539 -12.972368 32.719928 41.909093 -0.518258 0.674954 0.041158 -0.007428 63856.500000 0 0 1
21.880339 -11.592268 32.681928 41.002906 -0.487205 0.648379 0.058813 -0.015106 2524860.000000 0 0 1
20.426739 -11.679568 32.607308 40.210702 -0.519410 0.625089 0.039536 -0.006349 1608760.000000 0 0 1
19.899839 -12.327968 31.504898 39.249726 -0.554635 0.639024 0.029655 -0.009484 76162.700000 0 0 1
18.337139 -12.523068 31.553448 38.583649 -0.599181 0.613230 0.032578 -0.008422 1132640.000000 0 0 1
17.633939 -11.293668 31.543868 37.861833 -0.569633 0.586051 0.035548 -0.016857 -147926.000000 0 0 1
16.642939 -11.174468 32.533908 38.214020 -0.591289 0.552223 0.026106 -0.000979 -167657.000000 0 0 1
15.944239 -9.836868 32.596618 37.596838 -0.552793 0.521638 0.035755 -0.007816 -550975.000000 0 0 1
14.973239 -9.627768 31.566698 36.240147 -0.571437 0.513476 0.045654 -0.018106 223538.000000 0 0 1
14.180139 -8.456268 31.770258 35.804108 -0.537728 0.479262 0.056261 -0.012443 850366.000000 0 0 1
13.009239 -8.596368 32.813274 36.329723 -0.583923 0.443612 0.053494 -0.013085 -914870.000000 0 0 1
12.203639 -9.676968 32.440688 35.985702 -0.670432 0.447600 0.045673 -0.012583 83658.200000 0 0 1
11.046339 -9.931068 33.231871 36.400618 -0.732283 0.420346 0.032134 -0.003769 571828.000000 0 0 1
9.799039 -9.115768 32.837793 35.460387 -0.749290 0.387010 0.017444 0.003308 -599832.000000 0 0 1
10.105039 -7.742768 32.982656 35.354178 -0.653807 0.368355 0.041994 -0.004764 -94491.900000 0 0 1
9.156839 -6.932668 32.331288 34.310666 -0.648031 0.341330 0.020483 0.004511 -318706.000000 0 0 1
9.595239 -5.437268 32.194418 34.031060 -0.515546 0.330037 0.023942 0.006956 -24158.800000 0 0 1
9.844239 -4.777768 33.430945 35.176188 -0.451848 0.316323 0.032019 0.000478 294737.000000 0 0 1
10.177639 -3.464568 33.057764 34.762096 -0.328106 0.314434 0.015551 -0.003692 -257160.000000 0 0 1
10.299839 -2.554968 34.317833 35.921139 -0.243151 0.299900 0.020926 -0.002151 -361759.000000 0 0 1
9.026939 -2.275868 -34.027786 35.278257 -0.246973 2.874545 0.020087 0.006719 -281626.000000 0 0 1
9.028539 -1.518968 -32.853796 34.105625 -0.166680 2.869816 0.029895 0.003986 -604681.000000 0 0 1
7.633839 -1.209968 -32.352766 33.263208 -0.157193 2.907086 0.033907 0.003546 -145711.000000 0 0 1
6.803039 -0.421668 -33.234356 33.926119 -0.061903 2.939306 0.030214 0.004238 372942.000000 0 0 1
5.439439 -0.412168 -32.838966 33.288963 -0.075629 2.976981 0.032256 0.005906 399395.000000 0 0 1
4.645839 0.524732 -33.776516 34.098566 0.112470 3.004046 0.036756 0.000995 -70239.800000 0 0 1
5.225139 1.832832 -33.721726 34.173325 0.337362 2.978840 0.034928 -0.005042 -48992.600000 0 0 1
4.573939 2.804132 34.376371 34.792513 0.549972 0.154820 0.031923 -0.009847 49933.900000 0 0 1
5.417139 4.122432 34.306505 34.975365 0.650503 0.195883 0.029058 -0.010978 95894.100000 0 0 1
5.031239 4.993332 33.227597 33.975284 0.781617 0.210181 0.042544 -0.020245 -143417.000000 0 0 1
6.001939 5.980732 33.054499 34.123194 0.783628 0.250933 0.039188 -0.021868 -184513.000000 0 0 1
5.510139 7.103032 32.065568 33.301882 0.911021 0.273337 0.051536 -0.021063 -1031970.000000 0 0 1
4.488939 7.815632 32.636408 33.858084 1.049448 0.269449 0.050818 -0.023327 -680571.000000 0 0 1
4.140339 9.108432 32.106568 33.629417 1.144156 0.302090 0.041493 -0.023602 19795.800000 0 0 1
3.665639 9.138732 30.656698 32.199169 1.189333 0.310778 0.043149 -0.020907 461188.000000 0 0 1
2.334239 8.688632 30.355648 31.660802 1.308339 0.288130 0.057134 -0.019659 490825.000000 0 0 1
2.085939 8.675732 28.979178 30.321811 1.334841 0.298698 0.034836 -0.009310 -614522.000000 0 0 1
0.793139 8.006432 28.567298 29.678655 1.472056 0.274526 0.040836 -0.014276 -979124.000000 0 0 1
-0.321961 8.825532 28.753888 30.079557 -1.534332 0.297992 0.041200 -0.006872 -915199.000000 0 0 1
-1.385261 8.255032 28.023118 29.246532 -1.404537 0.290262 0.039551 -0.004650 -962591.000000 0 0 1
-2.733761 8.650132 28.531398 29.938920 -1.264692 0.307851 0.032712 0.000753 -1240320.000000 0 0 1
-2.952261 10.028732 28.588538 30.440037 -1.284503 0.350575 0.037581 0.004996 -648295.000000 0 0 1
-4.257261 10.316032 28.991238 31.065040 -1.179404 0.367459 0.029393 0.013602 -437512.000000 0 0 1
-4.379561 11.664532 29.587658 32.104071 -1.211623 0.398570 0.024270 0.012301 -203310.000000 0 0 1
-4.351761 12.808932 28.748298 31.772177 -1.243287 0.439825 0.014559 0.007600 268183.000000 0 0 1
-5.555061 13.041632 28.020788 31.402348 -1.168123 0.468348 0.014122 0.005651 246664.000000 0 0 1
-5.711161 14.449032 27.524998 31.607237 -1.194381 0.513878 0.002383 0.004382 330924.000000 0 0 1
-4.708061 14.721932 26.557138 30.727556 -1.261276 0.527084 -0.007514 0.008440 -12131.000000 0 0 1
-4.919861 16.033332 26.095988 31.020531 -1.273065 0.571207 0.001828 0.008404 -560963.000000 0 0 1
-3.758661 16.628832 25.349728 30.549211 -1.348499 0.592048 0.008208 0.007669 -787417.000000 0 0 1
-3.551161 16.129632 24.049888 29.174868 -1.354090 0.601768 -0.000222 0.006142 -271099.000000 0 0 1
-2.593661 16.895032 23.368218 28.952423 -1.418469 0.631531 -0.001664 0.007605 -181882.000000 0 0 1
-2.474161 16.550932 21.877418 27.544078 -1.422407 0.652992 0.003914 0.008070 -138782.000000 0 0 1
-1.766961 15.381032 21.575818 26.555870 -1.456418 0.622422 0.005479 0.006734 -157435.000000 0 0 1
-1.757361 15.296032 20.131718 25.344486 -1.456408 0.652903 0.001470 0.004179 271347.000000 0 0 1
-1.005561 14.002932 19.680918 24.175024 -1.499109 0.619616 0.004851 -0.003244 -16221.700000 0 1 0
-1.765361 12.820432 19.744318 23.607585 -1.433958 0.580197 0.007151 -0.005135 -200766.000000 0 1 0
-0.944461 11.751832 19.384618 22.688345 -1.490602 0.546427 0.011806 -0.004014 -598074.000000 0 1 0
-1.684561 10.438032 19.227718 21.943004 -1.410789 0.502757 -0.001252 -0.002889 -569066.000000 0 1 0
-2.026761 9.668332 20.429518 22.692501 -1.364160 0.450393 0.004274 -0.004966 348009.000000 0 1 0
-3.062661 10.192732 21.250618 23.766793 -1.278904 0.464310 0.014266 0.000967 553616.000000 0 1 0
-4.537161 9.954732 20.800618 23.502090 -1.143147 0.484186 0.016136 0.001420 172627.000000 0 1 0
-5.096061 8.696032 21.062418 23.349867 -1.040719 0.446333 0.009603 -0.002718 657753.000000 0 1 0
-6.521461 8.841432 21.162018 23.843896 -0.935277 0.478854 0.009302 0.005047 720867.000000 0 1 0
-7.343561 7.574532 21.260818 23.734444 -0.800880 0.460615 0.007797 0.003348 -57961.300000 0 1 0
-7.060861 6.886932 22.469918 24.539414 -0.772929 0.413633 0.003594 0.002448 62693.700000 0 1 0
-7.811561 5.701132 22.448918 24.443349 -0.630469 0.406764 0.008001 -0.001129 96470.900000 0 1 0
-7.767861 4.891432 23.689618 25.405979 -0.561973 0.369681 0.006264 -0.005457 -210248.000000 0 0 1
-8.684361 5.357932 24.630748 26.660820 -0.552799 0.392762 -0.011495 0.003223 -58524.200000 0 0 1
-8.471561 4.651132 25.795068 27.546069 -0.502097 0.358473 -0.000268 0.010583 -397596.000000 0 0 1
-9.386861 5.146032 26.900908 28.952611 -0.501473 0.378728 -0.006936 0.012257 -634684.000000 0 0 1
-9.164361 6.440032 27.346468 29.551461 -0.612553 0.388747 -0.000026 0.013370 391688.000000 0 0 1
-10.027561 6.614632 28.516028 30.942999 -0.583126 0.398700 0.004156 0.009280 659268.000000 0 0 1
-9.711861 7.855032 29.432468 31.973301 -0.680089 0.401355 0.014404 0.007708 -658808.000000 0 0 1
-8.540061 7.710732 30.142838 32.264202 -0.734409 0.364646 0.017490 0.008454 -676845.000000 0 0 1
-8.262861 8.817432 30.987358 33.260162 -0.817855 0.371825 0.024414 0.006844 824913.000000 0 0 1
-7.181461 8.493132 32.110128 33.981863 -0.868885 0.333447 0.041774 0.007314 811743.000000 0 0 1
-5.864861 8.323032 31.651908 33.249252 -0.956953 0.311227 0.040663 0.006709 -345707.000000 0 0 1
-5.022061 7.671132 32.588648 33.853912 -0.991145 0.274260 0.064418 0.002445 1503130.000000 0 0 1
-3.483361 7.610832 32.219838 33.289286 -1.141570 0.254163 0.051558 0.003194 1499460.000000 0 0 1
-2.882761 8.907332 32.296048 33.625669 -1.257796 0.282153 0.047476 0.004501 158913.000000 0 0 1
-1.478461 8.895932 32.041198 33.286061 -1.406106 0.274352 0.047457 -0.000566 725016.000000 0 0 1
-1.106461 10.379632 31.637778 33.315312 -1.464598 0.318690 0.037160 0.000234 -4266.490000 0 0 1
-1.275961 11.371132 32.660798 34.607202 -1.459053 0.336981 0.038033 -0.004740 -50613.900000 0 0 1
-1.437561 12.676732 32.121008 34.561905 -1.457877 0.378077 0.036099 -0.001396 6227.180000 0 0 1
-1.456061 13.763832 33.185759 35.956332 -1.465399 0.395131 0.023302 -0.007249 -81497.300000 0 0 1
-0.225761 13.910632 33.870597 36.616581 -1.554568 0.389742 0.043199 -0.008099 -350791.000000 0 0 1
-0.313061 14.873132 -33.986976 37.100170 -1.549751 2.729006 0.043440 -0.010770 319231.000000 0 0 1
1.130039 15.147832 -33.491866 36.775520 1.496334 2.715798 0.038713 -0.010610 472005.000000 0 0 1
1.876139 15.938532 34.396387 37.956135 1.453625 0.436554 0.033992 -0.004787 616529.000000 0 0 1
3.109639 16.311932 -33.880036 37.730701 1.382421 2.685871 0.034111 -0.006457 102266.000000 0 0 1
3.933239 17.309532 34.165111 38.501235 1.347361 0.479172 0.040961 -0.003435 125442.000000 0 0 1
3.333439 18.610632 34.257869 39.128877 1.393561 0.504298 0.032733 -0.001667 484387.000000 0 0 1
4.122139 19.493332 33.517618 38.992471 1.362402 0.536326 0.028023 0.013752 -28731.700000 0 0 1
3.602339 20.934232 33.712486 39.846589 1.400386 0.562251 0.036991 0.003114 -25526.900000 0 0 1
3.703939 21.340032 -33.766716 40.116172 1.398941 2.571263 0.038380 -0.013580 170818.000000 0 0 1
3.127039 22.634732 -33.617226 40.647600 1.433513 2.544619 0.038556 -0.006089 45517.000000 0 0 1
3.462339 23.436732 -32.327316 40.078967 1.424126 2.509158 0.044629 -0.012903 -86204.400000 0 0 1
2.973639 24.749632 -32.459056 40.926484 1.451221 2.486689 0.047062 -0.018108 73313.100000 0 0 1
3.114439 25.356432 -31.187916 40.315437 1.448582 2.455295 0.058446 -0.013495 -196049.000000 0 0 1
2.647939 26.767532 -30.928096 40.988529 1.472194 2.425772 0.056446 -0.019162 -304802.000000 0 0 1
3.506539 27.764532 -31.381446 42.047119 1.445166 2.413342 0.043642 -0.022378 92223.200000 0 0 1
3.047139 28.911032 -30.630606 42.229928 1.465787 2.382309 0.033172 -0.024498 -509688.000000 0 0 1
3.986539 30.077832 -30.718796 43.176532 1.439024 2.362384 0.032210 -0.028321 -865140.000000 0 0 1
5.099439 29.934332 -29.893486 42.610903 1.402062 2.348360 0.034410 -0.029425 -752984.000000 0 0 1
5.738839 31.156932 -29.676276 43.409331 1.388647 2.323532 0.047449 -0.037172 -1569800.000000 0 0 1
6.785139 30.947732 -28.609726 42.688601 1.354966 2.305269 0.052596 -0.029598 -613511.000000 0 0 1
7.969339 30.479132 -29.238886 42.981395 1.315053 2.318925 0.042831 -0.030484 883237.000000 0 0 1
9.080139 31.410032 -29.405946 43.974410 1.289384 2.303263 0.054965 -0.027534 623946.000000 0 0 1
8.804439 32.694932 -30.284906 45.427439 1.307746 2.300522 0.065057 -0.029033 -1460760.000000 0 0 1
8.104739 33.652332 -29.473336 45.462554 1.334460 2.276145 0.057925 -0.028072 355636.000000 0 0 1
7.572339 -34.262093 -30.178876 46.281702 -1.353281 2.281107 0.050781 -0.023140 61558.700000 0 0 1
6.386939 34.454732 -31.128126 46.870905 1.387505 2.297119 0.016770 -0.016421 -705075.000000 0 0 1
6.627239 33.673932 -32.249906 47.094696 1.376474 2.325110 0.019855 -0.020246 -21380.800000 0 0 1
5.467939 33.720432 -33.050646 47.532211 1.410040 2.339677 0.034291 -0.020640 -169753.000000 0 0 1
5.538939 32.979832 -34.427240 47.995667 1.404400 2.370714 0.031430 -0.016407 298233.000000 0 0 1
6.482939 33.611432 33.555922 47.934922 1.380257 0.795356 0.030138 -0.022391 635282.000000 0 0 1
6.429239 33.037932 32.263358 46.623646 1.378597 0.806547 0.032498 -0.022961 54069.700000 0 0 1
5.371639 33.633832 31.295348 46.254600 1.412424 0.827676 0.026344 -0.028300 134362.000000 0 0 1
5.733039 -34.149393 30.729798 46.296537 -1.404466 0.844961 0.029002 -0.023425 -82230.600000 0 0 1
4.782939 -33.738693 29.800748 45.268759 -1.429971 0.852229 0.011215 -0.024207 -379399.000000 0 0 1
17.595546 -21.453468 30.111598 40.945853 -0.883875 0.744539 0.043430 0.001918 -571113.000000 0 0 1
16.383846 -20.701868 29.999788 39.962295 -0.901310 0.721672 0.044964 0.006586 -304487.000000 0 0 1
15.304446 -21.532268 30.164978 40.097264 -0.952880 0.719257 0.035481 0.006801 -892243.000000 0 0 1
14.816046 -21.864968 31.553838 41.148958 -0.975252 0.696925 0.027520 -0.000699 -945307.000000 0 0 1
15.649346 -22.711468 32.297878 42.471941 -0.967457 0.706787 0.027215 -0.013291 101575.000000 0 0 1
14.990846 -22.967368 33.475246 43.276062 -0.992524 0.686407 0.032205 -0.003646 -84358.200000 0 0 1
15.696346 -24.111768 34.199807 44.692051 -0.993731 0.699394 0.040339 -0.012762 -176368.000000 0 0 1
15.642146 -25.380268 33.546019 44.879507 -1.018469 0.726553 0.036966 -0.014536 -222401.000000 0 0 1
16.242646 -26.358178 34.331560 46.230219 -1.018530 0.733820 0.037969 -0.018315 -104165.000000 0 0 1
15.921846 -27.862738 33.871697 46.659717 -1.051643 0.758410 0.024829 -0.009557 524805.000000 0 0 1
16.695746 -28.326658 32.752598 46.409915 -1.038207 0.787352 0.012747 -0.009501 614118.000000 0 0 1
16.153146 -29.614238 32.561998 46.885082 -1.071452 0.803062 0.017989 -0.004333 -18200.000000 0 0 1
16.696046 -30.358268 31.342048 46.719443 -1.067978 0.835433 0.018542 -0.006919 191526.000000 0 0 1
17.881746 -31.111648 31.576968 47.799544 -1.049142 0.849162 0.014307 -0.014921 45707.400000 0 0 1
18.518846 -31.381218 30.379698 47.441064 -1.037669 0.875820 0.004077 -0.011037 134357.000000 0 0 1
19.685346 -32.436018 30.521178 48.694460 -1.025320 0.893370 -0.011940 -0.009371 800654.000000 0 0 1
20.862146 -31.879288 31.106058 49.184398 -0.991327 0.886100 -0.009702 -0.008227 557370.000000 0 0 1
21.874046 -32.852858 31.376358 50.420829 -0.983381 0.899132 -0.003081 -0.009786 257768.000000 0 0 1
23.094246 -32.093668 31.967328 50.845431 -0.947044 0.890896 -0.002028 -0.022461 -296735.000000 0 0 1
23.956646 -31.542878 31.029538 50.316064 -0.921246 0.906262 -0.003754 -0.011196 -731971.000000 0 0 1
24.696146 -30.451628 31.411028 50.237974 -0.889386 0.895351 0.002658 -0.003987 -829333.000000 0 0 1
25.693746 -30.139178 30.332738 49.886007 -0.864851 0.917206 0.002123 -0.002200 -1192140.000000 0 0 1
26.804346 -30.972278 30.407818 51.013629 -0.857412 0.932196 0.004695 -0.000485 -911432.000000 0 0 1
27.556046 -30.736258 29.263798 50.600624 -0.839900 0.954118 0.001791 -0.022563 372432.000000 0 0 1
28.833946 -31.633498 29.144248 51.782834 -0.831664 0.973007 0.011976 -0.019888 735793.000000 0 0 1
28.372546 -32.935958 28.862418 52.180628 -0.859695 0.984685 0.001164 -0.014709 600235.000000 0 0 1
29.453546 -33.845598 29.035488 53.442450 -0.854673 0.996429 0.008572 -0.017994 -126549.000000 0 0 1
28.917246 33.791997 29.500778 53.370424 0.862978 0.985130 -0.005906 -0.013596 -431017.000000 0 0 1
28.529946 33.696540 30.867978 53.872505 0.868237 0.960657 0.002267 -0.009036 713759.000000 0 0 1
27.572146 -34.417858 31.460788 54.171888 -0.895385 0.951136 -0.006891 -0.003725 273451.000000 0 0 1
26.161346 -34.439749 30.851878 53.125801 -0.921163 0.951168 -0.005219 -0.005280 -575113.000000 0 0 1
25.489046 33.348514 31.121768 52.253032 0.918191 0.932787 -0.002922 -0.010872 416368.000000 0 0 1
24.157846 33.341811 30.612448 51.306919 0.943782 0.931472 -0.012727 -0.014769 341200.000000 0 0 1
23.643646 31.892987 30.617598 50.136035 0.932859 0.913864 0.000584 -0.026748 -362819.000000 0 0 1
24.120346 31.010157 29.611568 49.196198 0.909726 0.924909 0.002815 -0.024321 479032.000000 0 0 1
23.342346 29.793517 29.627278 48.065522 0.906216 0.906642 0.026821 -0.038777 112214.000000 0 0 1
22.856646 29.295447 28.240918 46.671179 0.908239 0.920900 0.023316 -0.034267 -907765.000000 0 0 1
21.780046 30.035557 27.807848 46.365737 0.943395 0.927608 0.033611 -0.039237 -703224.000000 0 0 1
21.295246 29.595587 26.546618 45.101100 0.947075 0.941467 0.029821 -0.028926 -289022.000000 0 0 1
19.887846 30.136597 26.266678 44.650636 0.987477 0.941877 0.057723 -0.026410 -403864.000000 0 0 1
19.790646 31.475767 25.955978 45.344310 1.009499 0.961342 0.048352 -0.025058 -876532.000000 0 0 1
18.520846 31.851887 25.544558 44.834015 1.044115 0.964584 0.049995 -0.021344 -967583.000000 0 0 1
18.433846 33.306214 24.939788 45.509380 1.065296 0.990808 0.057288 -0.021398 -283025.000000 0 0 1
19.070346 33.490845 23.663118 45.224529 1.053166 1.020152 0.062515 -0.019016 391370.000000 0 0 1
20.406846 33.950532 23.784418 46.203642 1.029586 1.030053 0.052605 -0.017439 57465.100000 0 0 1
21.025646 34.175552 22.401218 45.954986 1.019257 1.061618 0.058184 -0.018410 -139036.000000 0 0 1
20.633246 -33.610828 21.814518 45.069855 -1.020228 1.065558 0.062997 -0.013397 360652.000000 0 0 1
21.272546 -33.381528 20.589318 44.618019 -1.003433 1.091159 0.070752 -0.017053 -50849.800000 0 0 1
20.876346 -31.983558 20.044818 43.134262 -0.992511 1.087492 0.057220 -0.016381 74584.900000 0 0 1
21.556646 -30.974058 20.843018 43.110471 -0.962788 1.066171 0.050049 -0.009209 656348.000000 0 0 1
21.319746 -29.624448 20.377718 41.801805 -0.946992 1.061590 0.054914 -0.013840 -29713.300000 0 0 1
22.069846 -29.148778 19.083218 41.241952 -0.922738 1.089742 0.034170 -0.009960 -346436.000000 0 0 1
21.547046 -29.727928 17.922018 40.856133 -0.943614 1.116688 0.015885 -0.027335 190715.000000 0 0 1
21.854446 -28.964648 16.763618 39.969821 -0.924408 1.138004 0.014522 -0.028397 -380408.000000 0 0 1
21.271346 -29.692898 15.497718 39.677672 -0.949163 1.169523 0.010228 -0.022363 135943.000000 0 0 1
22.073546 -30.799468 15.094918 40.788543 -0.948959 1.191704 0.017069 -0.018756 216529.000000 0 0 1
22.431946 -30.881498 13.721918 40.560451 -0.942579 1.225678 0.017782 -0.014538 58090.900000 0 0 1
21.292946 -31.066468 12.653018 39.731774 -0.969937 1.246691 0.002721 -0.016496 102628.000000 0 0 1
20.627646 -32.293448 12.806318 40.402579 -1.002366 1.248266 0.003026 -0.004720 -169285.000000 0 0 1
19.588846 -32.548488 11.913318 39.812738 -1.029028 1.266907 0.015525 0.004831 -397799.000000 0 0 1
18.632546 -33.643898 12.449918 40.423806 -1.065028 1.257722 0.039160 0.006846 -140222.000000 0 0 1
17.879246 -33.179288 13.551018 40.052000 -1.076540 1.225649 0.035232 0.006216 324171.000000 0 0 1
18.188746 -33.904138 14.741518 41.202347 -1.078396 1.204903 0.017437 -0.001253 -577241.000000 0 0 1
18.122546 -32.941038 15.968818 40.847788 -1.067837 1.169149 0.034758 -0.012334 684671.000000 0 0 1
16.821246 -32.421488 16.306418 40.000081 -1.092198 1.150907 0.040376 -0.020928 1538570.000000 0 0 1
15.844946 -33.309138 16.928018 40.584711 -1.126782 1.140540 0.038141 -0.010374 52361.500000 0 0 1
16.148346 -33.928828 18.370718 41.826041 -1.126575 1.116069 0.036031 -0.016281 493468.000000 0 0 1
17.145146 34.037034 18.360618 42.303523 1.104177 1.121845 0.023997 -0.007709 947513.000000 0 0 1
17.400246 33.448807 19.602018 42.495063 1.091115 1.091362 0.031504 -0.011046 195236.000000 0 0 1
18.346446 32.234367 19.567418 41.934835 1.053364 1.085337 0.030856 -0.005849 -204529.000000 0 0 1
17.653046 31.061527 19.287018 40.600956 1.053993 1.075789 0.004609 -0.000993 -50195.600000 0 0 1
18.562146 30.005057 18.984918 40.065994 1.016788 1.077149 0.008862 -0.008913 394708.000000 0 0 1
17.958646 28.528357 18.820718 38.608284 1.008966 1.061596 0.006615 0.000355 107281.000000 0 0 1
17.672346 27.891257 20.036518 38.622482 1.006025 1.025375 0.012153 -0.012661 -23581.300000 0 0 1
17.152446 26.632397 19.669118 37.287601 0.998619 1.015144 0.016026 -0.006158 -709242.000000 0 0 1
17.096146 25.673577 20.857218 37.234854 0.983322 0.976226 0.033241 0.000131 129209.000000 0 0 1
15.927746 25.764627 21.660418 37.238191 1.017100 0.950013 0.029188 0.003409 45487.600000 0 0 1
14.893246 24.928227 21.187618 35.946355 1.032258 0.940452 0.023484 0.007303 -491840.000000 0 0 1
13.573646 25.129607 21.936418 36.013157 1.075550 0.915843 0.028980 -0.001274 -71533.800000 0 0 1
12.858946 26.265587 21.491718 36.292252 1.115524 0.937029 0.036060 -0.004639 -1035290.000000 0 0 1
11.633046 26.503217 22.067618 36.396814 1.157187 0.919389 0.026948 -0.008283 -1121920.000000 0 0 1
10.924746 27.578097 21.294818 36.515350 1.193623 0.948165 0.022709 -0.019519 -594285.000000 0 0 1
11.422446 28.919927 21.425518 37.760923 1.194635 0.967452 0.015816 -0.017506 98992.100000 0 0 1
10.842446 29.828377 20.478718 37.771267 1.222151 0.997770 0.014211 -0.018293 -127100.000000 0 0 1
11.381246 31.271497 20.588718 39.132271 1.221749 1.016751 0.015793 -0.028555 -264132.000000 0 0 1
10.810846 32.118707 21.577518 40.175553 1.246117 1.003824 0.007046 -0.029802 -412292.000000 0 0 1
11.300546 31.816837 22.844518 40.766230 1.229519 0.975954 0.002551 -0.023782 -264190.000000 0 0 1
10.727446 32.723417 23.915178 41.926554 1.254014 0.963796 0.000926 -0.024865 914191.000000 0 0 1
9.323646 32.539407 24.172568 41.593947 1.291739 0.950648 0.006202 -0.029077 572424.000000 0 0 1
9.092446 32.902837 25.499758 42.608766 1.301183 0.929215 0.005182 -0.020767 -277171.000000 0 0 1
7.700646 32.537917 26.107958 42.422182 1.338405 0.907863 0.030675 -0.030695 -440324.000000 0 0 1
6.598046 33.280805 25.671908 42.546364 1.375080 0.923055 0.024464 -0.024586 -223760.000000 0 0 1
6.047046 32.961617 24.437368 41.475534 1.389357 0.940728 0.021988 -0.033768 -108443.000000 0 0 1
5.139146 31.654747 24.449588 40.326371 1.409851 0.919406 0.024875 -0.035582 -58620.100000 0 0 1
5.898946 30.518827 24.862548 39.803803 1.379862 0.896142 0.013736 -0.026419 -107926.000000 0 0 1
5.293446 29.246277 24.565508 38.559428 1.391739 0.880090 0.016025 -0.020935 -410247.000000 0 0 1
6.297246 28.049487 24.821268 37.980579 1.349953 0.858564 0.004618 -0.011115 1052060.000000 0 0 1
7.359746 27.921207 23.819818 37.431850 1.313069 0.881037 -0.005831 -0.006703 1161990.000000 0 0 1
8.393246 28.891747 23.877608 38.409892 1.288072 0.899946 0.002617 -0.006064 18406.100000 0 0 1
9.533746 28.675127 24.950418 39.187736 1.249819 0.880599 0.005659 -0.006966 -312886.000000 0 0 1
9.199746 28.806497 26.302828 40.078528 1.261671 0.854915 0.000364 0.002622 -158048.000000 0 0 1
10.257746 28.631747 27.220178 40.815884 1.226778 0.840753 0.006883 0.008127 1033040.000000 0 0 1
11.330046 29.833507 27.339718 42.022236 1.207845 0.862420 0.006088 -0.001084 821641.000000 0 0 1
10.760146 30.973487 27.943718 43.081191 1.236441 0.865014 0.010442 -0.006230 358914.000000 0 0 1
11.679046 32.060677 27.895448 44.073157 1.221457 0.885458 0.019728 -0.001801 50693.700000 0 0 1
11.143846 33.314789 28.678278 45.348695 1.247995 0.886156 0.016541 -0.008763 -154885.000000 0 0 1
11.256846 33.161360 30.098978 46.177277 1.243545 0.860823 0.023020 -0.020539 114219.000000 0 0 1
10.539746 32.113497 30.726938 45.678307 1.253670 0.832970 0.022052 -0.013693 -342004.000000 0 0 1
10.536646 32.276247 32.270858 46.842132 1.255252 0.810787 0.043189 -0.023788 -191773.000000 0 0 1
10.308846 31.058107 32.924544 46.420943 1.250317 0.782348 0.045416 -0.028062 220906.000000 0 0 1
10.462646 31.188477 34.341812 47.555737 1.247128 0.763908 0.062690 -0.022584 -124067.000000 0 0 1
10.321546 29.823817 -33.836716 46.270052 1.237614 2.391004 0.051668 -0.017009 -680772.000000 0 0 1
11.440646 29.093667 -34.181198 46.321530 1.196135 2.400767 0.050565 -0.001201 -331107.000000 0 0 1
11.211746 27.726027 -33.845326 45.165716 1.186523 2.417889 0.044320 -0.006592 -642132.000000 0 0 1
12.395846 26.913157 -34.279222 45.310486 1.139173 2.428803 0.022281 -0.005948 -634935.000000 0 0 1
12.357346 25.543077 -34.110005 44.369418 1.120205 2.447716 0.021216 -0.004116 -218363.000000 0 0 1
12.770846 25.140137 -32.781846 43.240842 1.100780 2.431225 0.033900 -0.003001 32106.300000 0 0 1
12.579446 23.593857 -32.539796 42.115922 1.080969 2.453761 0.031041 -0.009930 -406846.000000 0 0 1
13.499246 22.831657 -33.245126 42.529433 1.036835 2.468178 0.020141 -0.000540 -287628.000000 0 0 1
13.552646 21.463857 -32.996926 41.631341 1.007596 2.485855 0.019793 0.005784 -1093820.000000 0 0 1
14.781746 20.844557 -33.577086 42.194980 0.953961 2.491058 0.029107 -0.000458 -668720.000000 0 0 1
15.971646 21.182257 -32.878776 42.246839 0.924733 2.462677 0.035089 -0.006596 221981.000000 0 0 1
17.078446 20.536257 -33.484046 42.832144 0.877068 2.468264 0.030542 -0.002146 950785.000000 0 0 1
18.408846 20.549157 -32.614276 42.718199 0.840282 2.439473 0.029047 -0.005475 656693.000000 0 0 1
19.033746 21.792757 -32.652536 43.627925 0.852874 2.416491 0.028419 -0.004367 -726655.000000 0 0 1
20.068846 21.895157 -31.734476 43.465313 0.828892 2.389280 0.019435 -0.000702 -433505.000000 0 0 1
19.691646 22.157457 -30.218836 42.330744 0.844252 2.365812 0.017978 -0.005752 -57068.500000 0 0 1
19.152446 23.448457 -29.998966 42.621407 0.885902 2.351596 0.019864 -0.001757 25083.800000 0 0 1
18.782646 23.747557 -28.661306 41.691783 0.901611 2.328778 0.027787 0.007031 -370817.000000 0 0 1
19.921146 24.284297 -27.799786 41.945289 0.883781 2.295299 0.017717 0.001587 4901.830000 0 0 1
20.630646 25.458077 -28.294016 43.293055 0.889760 2.283057 0.016254 0.002344 439997.000000 0 0 1
19.859746 26.669307 -28.308256 43.669427 0.930717 2.276067 0.017262 0.006532 -295747.000000 0 0 1
20.654946 27.811117 -28.961296 45.153535 0.931992 2.267113 0.012427 0.013722 -418751.000000 0 0 1
20.726746 27.852607 -30.399316 46.146334 0.931044 2.289964 0.013316 0.012314 301540.000000 0 0 1
21.386946 26.712057 -31.056286 46.210696 0.895661 2.307781 0.013617 0.003903 549119.000000 0 0 1
22.872446 26.371517 -30.738986 46.513342 0.856335 2.292766 0.022834 0.002268 -151834.000000 0 0 1
23.769146 27.339897 -31.137396 47.770072 0.855150 2.280776 0.022267 0.002216 292455.000000 0 0 1
25.139846 26.940937 -30.991096 48.148458 0.819967 2.270064 0.022691 -0.002583 734553.000000 0 0 1
26.180346 27.936707 -31.562836 49.619379 0.817842 2.260228 0.023176 0.007444 -24741.200000 0 0 1
26.349546 29.123637 -30.801376 49.912019 0.835364 2.235865 0.022612 0.010833 209236.000000 0 0 1
27.439546 29.921657 -31.243256 51.228657 0.828643 2.226704 0.024145 0.007496 409529.000000 0 0 1
27.435346 31.136337 -30.296046 51.381126 0.848502 2.201402 0.024274 0.015919 143248.000000 0 0 1
27.890746 30.806037 -28.994046 50.671100 0.835024 2.179983 0.033326 0.006965 124137.000000 0 0 1
26.981846 31.331367 -28.075476 49.979065 0.859849 2.167290 0.032562 0.009139 -502424.000000 0 0 1
27.538846 31.329057 -26.625576 49.485545 0.849694 2.138915 0.042680 0.010606 -121876.000000 0 0 1
27.560146 30.058627 -25.933146 48.328157 0.828733 2.137205 0.034197 0.019875 777841.000000 0 0 1
26.284146 29.583877 -25.472436 47.062800 0.844393 2.142712 0.039258 0.017578 487352.000000 0 0 1
25.866046 29.833747 -24.047006 46.231627 0.856512 2.117813 0.039794 0.020256 -119673.000000 0 0 1
25.616746 31.209607 -23.765106 46.851228 0.883502 2.102783 0.051401 0.023311 238713.000000 0 0 1
24.956246 31.350287 -22.519406 45.964969 0.898471 2.082801 0.040530 0.029662 196180.000000 0 0 1
2.581946 -26.169238 -20.322106 33.233770 -1.472451 2.228738 0.025997 -0.010944 -94349.300000 0 0 1
2.441046 -27.148698 -19.314106 33.407263 -1.481124 2.187245 0.014421 -0.003776 102659.000000 0 0 1
2.889746 -26.538708 -18.097206 32.251551 -1.462336 2.166543 0.027134 -0.006863 -211415.000000 0 0 1
2.654546 -27.367118 -16.849806 32.247817 -1.474101 2.120588 0.022601 -0.019306 138089.000000 0 0 1
3.765946 -28.216768 -16.631206 32.969158 -1.438116 2.099538 0.033331 -0.020133 127905.000000 0 0 1
3.568246 -29.049748 -15.501606 33.119783 -1.448576 2.057875 0.034297 -0.030010 136287.000000 0 0 1
4.765246 -29.999008 -15.193306 33.962989 -1.413266 2.034595 0.079325 -0.018658 585600.000000 0 0 1
5.858546 -29.306308 -14.578906 33.252470 -1.373490 2.024648 0.054315 -0.009311 -1104830.000000 0 0 1
7.025346 -30.010388 -14.619306 34.113091 -1.340840 2.013688 0.067534 -0.004642 -936449.000000 0 0 1
7.353646 -30.778768 -13.349706 34.345645 -1.336273 1.970002 0.063188 -0.004776 -522084.000000 0 0 1
7.946446 -29.895978 -12.368006 33.314908 -1.311000 1.951146 0.050229 -0.000591 127874.000000 0 0 1
8.189146 -30.436738 -11.034206 33.394773 -1.307966 1.907542 0.058348 -0.005089 274710.000000 0 0 1
9.356246 -31.440388 -10.836806 34.546689 -1.281555 1.889869 0.058663 -0.000015 -26297.300000 0 0 1
10.463646 -30.908768 -10.160906 34.177242 -1.244373 1.872660 0.059803 -0.001414 -259261.000000 0 0 1
11.533946 -31.849418 -10.174906 35.368716 -1.223348 1.862601 0.050350 -0.003280 430024.000000 0 0 1
12.644046 -31.465358 -9.143406 35.121824 -1.188705 1.834164 0.039964 0.001782 132065.000000 0 0 1
13.428946 -30.383068 -9.573006 34.570361 -1.154625 1.851377 0.034966 -0.004534 -430125.000000 0 0 1
14.595346 -30.263238 -8.825206 34.738624 -1.121425 1.827657 0.019717 -0.005073 -375341.000000 0 0 1
15.772346 -29.545708 -9.521106 34.819064 -1.080453 1.847769 0.016377 -0.008678 -60979.700000 0 0 1
15.655446 -28.158918 -9.799106 33.675512 -1.063383 1.866054 0.027521 -0.010216 56626.700000 0 0 1
14.831146 -27.759388 -10.904106 33.308348 -1.080106 1.904314 0.018286 -0.009738 -37409.800000 0 0 1
14.506146 -26.243588 -10.970206 31.929604 -1.065844 1.921517 0.023805 -0.011427 -1169290.000000 0 0 1
13.578346 -25.835408 -10.015606 30.856963 -1.086902 1.901366 0.014140 -0.012658 -186084.000000 0 0 1
13.091446 -24.485468 -10.127106 29.554735 -1.079805 1.920539 0.002638 -0.004545 286730.000000 0 0 1
12.423246 -24.115268 -11.470906 29.452757 -1.095094 1.970850 -0.009932 -0.000721 -876993.000000 0 0 1
13.317946 -23.970268 -12.519506 30.144311 -1.063662 1.999090 -0.003877 -0.010455 -792314.000000 0 0 1
12.662746 -23.938068 -13.777606 30.384185 -1.084235 2.041425 0.001000 -0.012439 -80748.900000 0 0 1
13.366146 -23.346168 -15.046706 30.823705 -1.050828 2.080769 0.003929 -0.011018 684729.000000 0 0 1
14.532046 -24.065868 -15.494006 32.100009 -1.027555 2.074508 0.004250 -0.012890 609718.000000 0 0 1
14.995746 -23.580568 -16.715306 32.562510 -1.004371 2.109857 0.002670 -0.014849 -494548.000000 0 0 1
16.023446 -24.569468 -17.333706 34.071498 -0.992898 2.104523 0.006322 -0.017389 1091080.000000 0 0 1
17.296846 -24.735168 -16.688906 34.489549 -0.960553 2.075883 0.026776 -0.017370 705158.000000 0 0 1
18.251046 -23.707068 -16.878106 34.351073 -0.914708 2.084426 0.024181 -0.018446 -1029620.000000 0 0 1
19.626846 -24.081068 -16.398206 35.128508 -0.886956 2.056472 0.016210 -0.014200 -805604.000000 0 0 1
20.329846 -24.910568 -17.260506 36.493343 -0.886307 2.063463 0.025430 -0.008730 -607080.000000 0 0 1
21.665846 -25.075918 -16.865306 37.183990 -0.858225 2.041556 0.035296 0.004751 280093.000000 0 0 1
22.486146 -26.159678 -17.673706 38.759714 -0.860771 2.044271 0.021109 0.002796 -138843.000000 0 0 1
22.745246 -25.655498 -19.001806 39.199738 -0.845454 2.076866 0.031912 0.004765 4728.250000 0 0 1
23.390446 -26.660648 -19.797206 40.618130 -0.850643 2.079904 0.023794 -0.000995 -335017.000000 0 0 1
24.379946 -26.211518 -20.880506 41.441778 -0.821586 2.098848 0.018442 0.002535 -337805.000000 0 0 1
23.940646 -25.086668 -21.599606 40.853867 -0.808769 2.127869 0.026662 0.003513 -221858.000000 0 0 1
24.261146 -23.881268 -20.999006 39.998455 -0.777508 2.123506 0.037576 0.008121 -636771.000000 0 0 1
23.410446 -22.693268 -21.483806 39.045964 -0.769844 2.153422 0.064518 0.004976 -554645.000000 0 0 1
23.593546 -22.242868 -22.843306 39.663803 -0.755939 2.184529 0.061684 0.006316 -10191.300000 0 0 1
22.931346 -23.016468 -23.831506 40.293239 -0.787251 2.203654 0.030691 0.000691 -17165.000000 0 0 1
22.283346 -22.193268 -25.002506 40.177282 -0.783373 2.242480 0.024617 -0.005748 17916.900000 0 0 1
23.204746 -21.533268 -25.812486 40.846375 -0.748054 2.254851 0.035612 0.002684 -24616.000000 0 0 1
22.456446 -20.601668 -26.602366 40.452523 -0.742349 2.288451 0.026513 0.008750 373906.000000 0 0 1
23.136046 -19.925068 -27.851876 41.328101 -0.710968 2.310300 0.030509 0.009380 130817.000000 0 0 1
22.231846 -19.003068 -28.457836 40.807107 -0.707256 2.342524 0.026740 0.009511 364991.000000 0 0 1
22.696546 -18.433368 -29.675696 41.660163 -0.682115 2.363606 0.034953 0.002366 -8736.830000 0 0 1
21.658346 -17.455068 -30.309336 41.139023 -0.678345 2.399053 0.048949 0.001514 -494992.000000 0 0 1
20.506646 -18.085568 -30.740946 41.141416 -0.722745 2.414638 0.045433 0.003395 -452542.000000 0 0 1
19.564146 -17.186568 -31.281326 40.702031 -0.720793 2.447360 0.048432 -0.002581 -120066.000000 0 0 1
18.317046 -17.823568 -31.895526 40.871975 -0.771745 2.466064 0.041926 -0.008739 -266776.000000 0 0 1
18.599946 -18.549068 -33.058326 42.224150 -0.784029 2.470149 0.043351 -0.003887 511405.000000 0 0 1
17.444446 -19.238968 -33.510456 42.395722 -0.834278 2.482292 0.038989 -0.012205 4807.540000 0 0 1
17.757146 -20.104868 34.139025 43.416529 -0.847326 0.665976 0.052832 -0.010380 -437621.000000 0 0 1
18.589446 -21.134068 -34.354424 44.412192 -0.849369 2.455198 0.056845 -0.014048 -262718.000000 0 0 1
18.876346 -21.970968 33.430631 44.234003 -0.861014 0.713971 0.045965 -0.017271 -195632.000000 0 0 1
19.645546 -23.260168 33.815248 45.502241 -0.869445 0.733022 0.035077 -0.014058 -284850.000000 0 0 1
19.009246 -24.142468 -34.177298 45.959742 -0.903799 2.409288 0.038421 -0.018497 -306659.000000 0 0 1
19.118746 -23.871168 -32.766936 44.822218 -0.895498 2.390645 0.049830 -0.017399 -314181.000000 0 0 1
18.251046 -24.784568 -31.892856 44.323016 -0.936064 2.373958 0.048401 -0.014207 -347325.000000 0 0 1
18.488346 -26.183168 -31.920456 45.235967 -0.955978 2.354127 0.046335 -0.021789 -112555.000000 0 0 1
19.729146 -26.630438 -31.431766 45.676858 -0.933177 2.329710 0.042968 -0.021260 -113327.000000 0 0 1
19.740946 -28.136548 -31.534306 46.645286 -0.958989 2.313178 0.034680 -0.023114 -345768.000000 0 0 1
18.909346 -28.769458 -30.627476 46.079143 -0.989326 2.297850 0.037254 -0.025024 -455051.000000 0 0 1
18.907646 -30.203998 -30.838306 47.125171 -1.011480 2.284174 0.032541 -0.018175 -394259.000000 0 0 1
17.623646 -30.952528 -30.445566 46.857063 -1.053198 2.278057 0.054085 -0.016956 171004.000000 0 0 1
16.505446 -30.792498 -31.333016 46.929368 -1.078748 2.301862 0.052089 -0.021193 322950.000000 0 0 1
16.503246 -31.491478 -32.550116 48.203531 -1.088091 2.312119 0.041886 -0.015843 238769.000000 0 0 1
15.047646 -31.891898 -32.988646 48.288462 -1.129935 2.322875 0.046091 -0.022766 885347.000000 0 0 1
14.326346 -30.842638 -33.631306 47.828624 -1.135951 2.350632 0.053556 -0.020851 282722.000000 0 0 1
13.162946 -31.426688 -34.242799 48.305995 -1.174150 2.358695 0.027415 -0.018956 516765.000000 0 0 1
12.185646 -30.381788 34.036341 47.223040 -1.189356 0.765902 0.036913 0.000635 -83233.800000 0 0 1
11.660646 -29.548208 -33.844286 46.416624 -1.194927 2.387863 0.051826 -0.009262 -602181.000000 0 0 1
10.758846 -28.689708 -34.402439 46.069295 -1.212019 2.413965 0.029015 0.001224 -519958.000000 0 0 1
9.741246 -27.960368 -33.508726 44.715867 -1.235552 2.417906 0.034307 0.000666 -243953.000000 0 0 1
8.765546 -28.729818 -32.901456 44.550455 -1.274665 2.401671 0.032647 0.005418 -592324.000000 0 0 1
7.919746 -27.906938 -32.123346 43.283125 -1.294275 2.407096 -0.000242 0.009216 257166.000000 0 0 1
6.832046 -28.707878 -31.320816 43.032693 -1.337157 2.385960 -0.004590 0.013105 661136.000000 0 0 1
5.774946 -29.236158 -32.123526 43.818077 -1.375779 2.393682 -0.004583 0.014155 547658.000000 0 0 1
6.124646 -30.537918 -32.639226 45.115350 -1.372864 2.379600 0.007346 0.010987 -564603.000000 0 0 1
4.854346 -31.281918 -32.979196 45.713788 -1.416844 2.376658 0.015426 -0.003452 -137928.000000 0 0 1
4.114546 -31.796088 -31.869366 45.205942 -1.442107 2.353194 0.005837 -0.004659 118742.000000 0 0 1
3.052146 -32.638978 -32.215816 45.961694 -1.477555 2.347493 0.025436 -0.019122 -706649.000000 0 0 1
2.293746 -33.121178 -30.936306 45.379827 -1.501654 2.320906 0.017511 -0.028354 645792.000000 0 0 1
1.252046 -32.366438 -30.289516 44.346462 -1.532132 2.322686 0.005788 -0.023054 1436550.000000 0 0 1
0.013846 -32.346248 -31.040626 44.830798 -1.570368 2.335600 0.001551 0.008862 682907.000000 0 0 1
-0.896554 -31.135898 -30.640076 43.692816 1.542009 2.347961 -0.012579 0.008926 -53966.500000 0 0 1
-1.458654 -31.340918 -29.397036 42.994959 1.524288 2.323661 -0.005064 0.002273 -395250.000000 0 0 1
-1.995754 -30.211218 -28.814486 41.796834 1.504832 2.331448 -0.001810 0.000348 -240129.000000 0 0 1
-2.589854 -30.490228 -27.411496 41.082252 1.486059 2.301286 0.002161 -0.007562 -126599.000000 0 0 1
-1.679754 -30.675298 -26.354366 40.476513 1.516092 2.279833 -0.010110 -0.002627 -152217.000000 0 0 1
-2.350154 -30.570218 -25.108136 39.629281 1.494070 2.256962 -0.001543 -0.008274 486102.000000 0 0 1
-1.344454 -30.961328 -23.998106 39.195924 1.527400 2.229712 -0.012581 -0.000579 455379.000000 0 0 1
-1.903954 -30.780188 -22.686806 38.284934 1.509019 2.205052 0.000498 -0.010761 -261836.000000 0 0 1
-0.953454 -31.032268 -21.685406 37.870405 1.540081 2.180496 -0.002659 -0.002472 -89700.500000 0 0 1
-1.520154 -30.806928 -20.264906 36.905882 1.521492 2.152080 -0.020513 0.010837 -231192.000000 0 0 1
-1.676554 -29.521918 -19.776506 35.573370 1.514067 2.160285 -0.006093 -0.008841 273640.000000 0 0 1
-0.505454 -28.799468 -19.366906 34.709392 1.553247 2.162738 0.012371 -0.013347 206387.000000 0 0 1
-0.738054 -27.324448 -18.868306 33.214201 1.543792 2.174967 0.018627 -0.022757 -346538.000000 0 0 1
-1.401154 -27.300218 -17.604706 32.514471 1.519517 2.142948 0.016120 -0.015373 123662.000000 0 0 1
-1.464254 -25.982808 -17.092106 31.135035 1.514501 2.151924 0.023292 -0.024209 -256238.000000 0 0 1
-2.552854 -25.737268 -16.047306 30.437478 1.471931 2.126124 0.014707 -0.018081 -464445.000000 0 0 1
-2.530254 -24.373168 -15.508606 28.999489 1.467354 2.135054 0.017542 -0.017162 104789.000000 0 0 1
-3.514254 -24.382168 -14.513706 28.591743 1.427650 2.103215 0.005549 -0.012778 -76595.200000 0 0 1
-3.163854 -23.271068 -13.486406 27.082018 1.435668 2.092069 0.009690 -0.009875 -85256.100000 0 0 1
-2.113054 -23.599668 -12.617206 26.844054 1.481497 2.060108 0.016900 -0.014672 -483953.000000 0 0 1
-1.580354 -22.485968 -12.038306 25.554590 1.500630 2.061313 0.017136 -0.009544 -215059.000000 0 0 1
-0.344354 -22.735468 -11.160506 25.329370 1.555651 2.027080 0.012585 -0.009122 147474.000000 0 0 1
0.229746 -21.462668 -10.820606 24.037147 -1.560092 2.037743 0.012695 0.000620 418610.000000 0 1 0
1.415846 -21.621668 -10.017406 23.871522 -1.505407 2.003843 0.015295 -0.001179 930339.000000 0 1 0
1.975046 -20.243268 -9.581006 22.483024 -1.473539 2.011022 0.008555 0.003527 -731141.000000 0 1 0
2.446646 -19.396468 -10.659806 22.267477 -1.445320 2.069988 0.004676 0.010889 -10758.100000 0 1 0
3.098546 -18.212568 -10.239206 21.122025 -1.402278 2.076890 -0.004570 0.006010 459080.000000 0 1 0
4.559846 -18.405468 -9.729206 21.312224 -1.327942 2.044863 -0.001158 -0.007855 122064.000000 0 1 0
4.431046 -19.120568 -8.510406 21.392926 -1.343074 1.979929 0.000114 -0.002826 -1291560.000000 0 1 0
5.591146 -19.721068 -8.083506 22.034621 -1.294535 1.946422 -0.000284 -0.002813 -1138070.000000 0 1 0
5.421046 -20.938668 -7.110806 22.767941 -1.317458 1.888427 0.007548 -0.003429 -205968.000000 0 1 0
4.707346 -22.026668 -7.684406 23.798809 -1.360252 1.899578 0.016559 -0.005565 73101.300000 0 1 0
4.549846 -23.143868 -6.792006 24.545286 -1.376682 1.851168 0.025367 -0.009621 -118393.000000 0 1 0
3.328046 -23.979368 -7.184306 25.252727 -1.432889 1.859277 0.029368 -0.014765 -149924.000000 0 0 1
3.548246 -24.715368 -8.397106 26.342947 -1.428206 1.895218 0.023349 -0.009637 117872.000000 0 0 1
2.365146 -25.292908 -8.919006 26.923480 -1.477557 1.908448 0.016147 -0.002782 393230.000000 0 0 1
2.709746 -25.845958 -10.331206 27.965874 -1.466336 1.949183 0.018772 -0.002288 128737.000000 0 0 1
3.460346 -27.026078 -10.142206 29.073136 -1.443452 1.927142 0.010144 0.000627 -186269.000000 0 0 1
3.948546 -27.570968 -11.345706 30.074480 -1.428550 1.957625 0.020669 0.001962 184439.000000 0 0 1
4.190246 -29.090528 -11.266006 31.476021 -1.427739 1.936839 0.028261 0.003990 -623491.000000 0 0 1
3.045346 -29.827388 -11.449306 32.094140 -1.469050 1.935574 0.031001 0.007829 -761634.000000 0 0 1
3.304746 -31.139968 -11.226906 33.266535 -1.465067 1.915039 0.027088 0.005473 157750.000000 0 0 1
2.085446 -31.981238 -11.663806 34.105616 -1.505680 1.919831 0.013342 -0.000424 113851.000000 0 0 1
1.924446 -31.952798 -13.057806 34.571536 -1.510641 1.958112 0.018305 -0.009972 411092.000000 0 0 1
1.177446 -33.116078 -13.481306 35.774385 -1.535256 1.957181 0.002589 -0.006347 126327.000000 0 0 1
0.556546 -32.929628 -14.883606 36.141277 -1.553897 1.995244 0.005464 -0.007099 318261.000000 0 0 1
-0.575454 -32.057138 -14.932006 35.368857 1.552847 2.006645 0.013748 -0.004793 238568.000000 0 0 1
-0.955954 -31.981298 -16.294406 35.905779 1.540914 2.041833 -0.006273 -0.001161 -242794.000000 0 0 1
-2.017754 -30.907778 -16.611906 35.147084 1.505606 2.063080 0.001011 0.007346 419523.000000 0 0 1
-3.267854 -31.290698 -16.035906 35.311994 1.466738 2.042181 -0.006855 0.006236 42233.400000 0 0 1
-4.355654 -30.847498 -16.834406 35.410974 1.430524 2.066216 -0.003859 0.007656 -86302.000000 0 0 1
-5.690754 -31.110488 -16.147506 35.510408 1.389876 2.042861 -0.004270 0.003482 -705476.000000 0 0 1
-5.952654 -30.216048 -15.138406 34.316395 1.376284 2.027667 -0.022687 0.007772 -399208.000000 0 0 1
-7.272554 -30.181018 -14.654006 34.329634 1.334340 2.011816 -0.014693 0.005402 -77581.100000 0 0 1
-7.751154 -31.301228 -13.724606 35.045857 1.328049 1.973186 -0.013209 -0.002480 -207705.000000 0 0 1
-7.930054 -32.533088 -14.331606 36.423653 1.331705 1.975199 -0.005008 -0.002128 -213069.000000 0 0 1
-8.680154 -33.391058 -13.510606 37.051913 1.316471 1.944042 0.004366 -0.000499 -552392.000000 0 0 1
-8.953754 34.251379 -14.081106 38.099924 -1.315105 1.949357 0.029994 -0.001591 219438.000000 0 0 1
-7.788854 33.421579 -13.981806 37.056161 -1.341834 1.957690 0.022552 -0.004091 562634.000000 0 0 1
-8.030854 32.119877 -14.440606 36.120801 -1.325792 1.982080 0.040245 -0.018175 -214701.000000 0 0 1
-7.926254 -21.923768 -3.394606 23.558447 1.223881 1.715393 0.030184 -0.007171 145127.000000 0 1 0
-7.498654 -20.891368 -4.290806 22.607301 1.226183 1.761752 0.023382 -0.015461 -586798.000000 0 1 0
-6.331954 -21.281868 -4.924506 22.743401 1.281609 1.789050 0.012691 -0.004771 -467589.000000 0 1 0
-5.997354 -20.228868 -6.003306 21.936614 1.282577 1.847999 0.008112 -0.010522 -362393.000000 0 1 0
-6.981454 -20.265968 -6.984506 22.544034 1.239037 1.885796 0.018837 -0.014741 -414764.000000 0 1 0
-6.856254 -19.252468 -7.978906 21.939204 1.228677 1.943014 0.008979 -0.013720 -943545.000000 0 1 0
-7.768354 -19.548268 -9.119706 22.927083 1.192539 1.979881 0.009815 -0.016476 -372552.000000 0 1 0
-7.257454 -20.400368 -10.141906 23.910330 1.229007 2.008835 0.003186 -0.003858 295217.000000 0 1 0
-8.121654 -20.321968 -11.311406 24.635169 1.190593 2.047842 0.018377 -0.010230 458718.000000 0 1 0
-7.626354 -21.218168 -12.456106 25.759008 1.225749 2.075517 0.012827 -0.008869 -461672.000000 0 0 1
-6.558954 -20.658068 -13.184106 25.369200 1.263362 2.117284 0.015466 -0.005173 -216001.000000 0 0 1
-6.416354 -21.335768 -14.418506 26.538235 1.278668 2.145172 0.012789 -0.006605 -348103.000000 0 0 1
-5.478554 -20.607068 -15.383206 26.292752 1.310949 2.195768 0.018296 -0.001673 -351568.000000 0 0 1
-4.149054 -20.721168 -14.911406 25.863710 1.373177 2.185281 0.013510 0.002330 802058.000000 0 0 1
-3.070754 -20.016668 -15.572906 25.546270 1.418573 2.226347 0.021635 0.009404 848868.000000 0 0 1
-3.135454 -18.481768 -15.567506 24.367069 1.402745 2.263831 0.029400 0.010644 -229553.000000 0 1 0
-4.215654 -17.875068 -16.303406 24.557908 1.339189 2.296786 0.029298 0.005968 647564.000000 0 1 0
-4.016154 -17.977968 -17.679406 25.532298 1.351012 2.335652 0.039905 -0.001710 247529.000000 0 0 1
-5.412454 -17.793368 -18.346106 26.124284 1.275506 2.349367 0.034903 0.012834 876728.000000 0 0 1
-6.219854 -18.977868 -18.208706 27.025969 1.254086 2.310066 0.023014 0.017173 -289609.000000 0 0 1
-7.515354 -18.866668 -18.697006 27.604524 1.191722 2.314906 0.023961 0.020097 -199664.000000 0 0 1
-8.584254 -19.680668 -17.925006 27.970054 1.159497 2.266420 0.033040 0.005093 72353.700000 0 0 1
-8.429354 -21.035568 -18.352106 29.160743 1.189670 2.251504 0.016557 0.008471 -266809.000000 0 0 1
-9.187454 -21.929268 -17.686606 29.633058 1.174054 2.210371 0.021089 0.005202 -607367.000000 0 0 1
-8.724554 -23.332268 -18.106206 30.795247 1.212967 2.199324 0.014846 -0.007485 -688086.000000 0 0 1
-8.786254 -23.563068 -19.515806 31.832108 1.213883 2.230757 0.007061 -0.014486 584340.000000 0 0 1
-8.003754 -24.708768 -19.967306 32.760900 1.257538 2.226208 0.012890 -0.025127 -212105.000000 0 0 1
-6.485554 -24.533668 -19.907006 32.252940 1.312355 2.235995 0.031909 -0.020279 -1169390.000000 0 0 1
-5.896454 -23.598468 -20.791706 31.999233 1.325944 2.278060 0.033201 -0.017064 139754.000000 0 0 1
-5.633454 -22.301768 -20.221306 30.626881 1.323371 2.291944 0.032118 -0.012675 -251237.000000 0 0 1
-4.608754 -22.243168 -19.078806 29.664793 1.366489 2.269397 0.039525 0.001096 1010870.000000 0 0 1
-3.267954 -22.662868 -19.466506 30.053784 1.427585 2.275387 0.031385 -0.013097 1553140.000000 0 0 1
-2.288854 -22.500268 -18.447906 29.186061 1.469419 2.255030 0.020368 -0.006570 365387.000000 0 0 1
-0.867254 -22.962168 -18.819706 29.701761 1.533045 2.257023 0.030306 -0.010460 -134337.000000 0 0 1
-0.196754 -22.172868 -19.749506 29.693733 1.561923 2.298433 0.037587 -0.015159 -295963.000000 0 0 1
0.995246 -22.836868 -20.110706 30.445912 -1.527243 2.292332 0.028957 -0.018137 248633.000000 0 0 1
1.941446 -22.142168 -21.127506 30.666208 -1.483339 2.330837 0.049595 -0.021354 132885.000000 0 0 1
1.536346 -22.246068 -22.459106 31.649002 -1.501844 2.359770 0.036646 -0.026333 -197960.000000 0 0 1
0.789846 -21.167068 -22.976506 31.250415 -1.533499 2.396815 0.041538 -0.022418 -344965.000000 0 0 1
0.223446 -21.516068 -24.345306 32.491307 -1.560412 2.417781 0.044639 -0.029435 -227627.000000 0 0 1
-0.286554 -20.435068 -25.123936 32.386514 1.556775 2.458704 0.052791 -0.027638 439055.000000 0 0 1
-1.700354 -20.260368 -25.014906 32.235372 1.487067 2.459108 0.044404 -0.023316 406703.000000 0 0 1
-2.043254 -18.924368 -25.763556 32.032287 1.463244 2.505292 0.032555 -0.002702 -45272.100000 0 0 1
-1.369054 -17.781168 -25.255096 30.917052 1.493953 2.526753 0.047105 -0.011345 175718.000000 0 0 1
-1.692354 -16.573368 -25.947786 30.835502 1.469036 2.570833 0.039636 -0.004123 -85325.000000 0 0 1
-1.110354 -15.256468 -25.336856 29.596435 1.498145 2.598429 0.030361 -0.008601 196422.000000 0 0 1
0.271046 -15.050668 -25.597376 29.695483 -1.552789 2.609990 0.041512 -0.019536 120600.000000 0 0 1
0.790946 -13.780868 -25.158286 28.696294 -1.513465 2.639773 0.042529 -0.015646 462309.000000 0 0 1
0.293846 -12.496568 -25.917226 28.774175 -1.547286 2.692201 0.036535 -0.004781 -95938.100000 0 0 1
0.923046 -11.363168 -25.389566 27.831702 -1.489743 2.719548 0.030078 -0.001743 199146.000000 0 0 1
0.530546 -10.243868 -26.181726 28.119408 -1.519051 2.768188 0.023911 0.000713 -171435.000000 0 0 1
1.485246 -9.030168 -25.940706 27.507637 -1.407780 2.802439 0.029463 -0.003668 913734.000000 0 0 1
2.842746 -9.021468 -26.380486 28.024956 -1.265536 2.797320 0.046215 -0.006992 288138.000000 0 0 1
3.117946 -9.346968 -27.711036 29.410694 -1.248825 2.799962 0.040604 -0.001902 340437.000000 0 0 1
4.574846 -9.088668 -28.260656 30.036607 -1.104467 2.795997 0.047825 0.003851 602818.000000 0 0 1
4.795446 -7.690268 -28.505496 29.911533 -1.013224 2.833763 0.041753 -0.004721 229026.000000 0 0 1
6.069246 -7.234968 -28.923296 30.425936 -0.872795 2.826002 0.048838 -0.001881 271793.000000 0 0 1
7.243946 -7.232568 -27.875216 29.695327 -0.784612 2.789657 0.059176 -0.004608 438633.000000 0 0 1
7.798746 -8.454768 -27.388516 29.705797 -0.825738 2.743991 0.045285 0.000127 196282.000000 0 0 1
8.645646 -9.091068 -28.297096 30.953519 -0.810506 2.724277 0.042604 0.001945 -585802.000000 0 0 1
9.098946 -10.517568 -27.884736 31.160368 -0.857590 2.678955 0.039489 0.000675 383321.000000 0 0 1
8.001846 -11.419168 -28.008096 31.287064 -0.959575 2.679670 0.036854 0.003601 416095.000000 0 0 1
8.174446 -12.689968 -27.357226 31.245394 -0.998533 2.637391 0.028823 0.004934 -45357.500000 0 0 1
9.172646 -13.670268 -28.057346 32.530422 -0.979805 2.610977 0.018276 -0.004757 -102901.000000 0 0 1
8.689046 -14.154668 -29.263876 33.648605 -1.020245 2.625372 0.024290 -0.015078 -1707.530000 0 0 1
9.216246 -15.448468 -29.593376 34.631810 -1.032895 2.595411 0.011216 -0.012618 211231.000000 0 0 1
8.365246 -16.231868 -30.681116 35.704086 -1.094937 2.604728 0.017898 -0.019819 224628.000000 0 0 1
8.220946 -15.532768 -31.903246 36.423453 -1.084012 2.638091 0.026309 -0.014606 287604.000000 0 0 1
7.129146 -16.031168 -32.644386 37.060478 -1.152354 2.648432 0.024924 -0.017613 14063.700000 0 0 1
6.122046 -14.923568 -33.133676 36.851497 -1.181505 2.688536 0.021242 -0.010191 167366.000000 0 0 1
6.626946 -14.009468 -34.048596 37.409738 -1.128954 2.714450 0.030495 -0.005060 -110467.000000 0 0 1
5.617046 -13.331068 34.060449 37.005172 -1.172021 0.401633 0.012898 -0.005297 172440.000000 0 0 1
6.042446 -12.079668 33.259281 35.897205 -1.106976 0.385755 0.034614 -0.001020 -552947.000000 0 0 1
6.512146 -12.363568 31.952278 34.874259 -1.086001 0.412269 0.030958 0.000990 55951.300000 0 0 1
6.901546 -11.262268 31.223228 33.902212 -1.021016 0.400210 0.026739 0.004082 -513335.000000 0 0 1
7.506746 -11.770968 29.904668 33.002971 -1.003092 0.436775 0.010441 0.009783 291008.000000 0 0 1
6.537646 -12.169368 28.956278 32.082712 -1.077817 0.445139 0.015417 0.012845 510253.000000 0 0 1
7.170546 -11.892368 27.742878 31.024385 -1.028208 0.464092 0.002378 0.014609 159747.000000 0 0 1
6.410446 -12.488268 26.548338 30.031066 -1.096552 0.486383 0.007356 0.014540 -26283.400000 0 0 1
6.488846 -13.951368 26.511118 30.652654 -1.135453 0.525869 0.014313 0.014549 -133218.000000 0 0 1
5.915446 -14.614568 25.417088 29.909973 -1.186190 0.555216 0.000630 0.015181 2009470.000000 0 0 1
4.334646 -14.911668 25.552038 29.900730 -1.287904 0.546089 -0.000625 0.002620 2260930.000000 0 0 1
3.437546 -13.804968 25.394598 29.108066 -1.326752 0.510655 -0.004835 0.005006 -454185.000000 0 0 1
2.140246 -14.256268 25.192978 29.025988 -1.421782 0.519746 -0.001565 0.007086 -291084.000000 0 0 1
1.178346 -13.073168 24.866318 28.118144 -1.480905 0.485694 0.017170 0.008049 -117166.000000 0 0 1
1.543746 -12.443268 23.604618 26.728189 -1.447364 0.488291 0.010904 0.008888 677810.000000 0 0 1
0.632846 -11.366968 23.239218 25.877977 -1.515180 0.455524 0.022749 0.009104 1958860.000000 0 0 1
-0.832054 -11.805668 22.790518 25.680223 1.500434 0.478962 0.030875 0.005608 777210.000000 0 0 1
-0.922354 -12.568568 21.592518 25.001130 1.497542 0.528307 0.027810 0.004297 -65360.200000 0 0 1
-2.099254 -13.356268 21.575318 25.461562 1.414898 0.559787 0.036937 0.004771 127125.000000 0 0 1
-2.472454 -13.874668 20.209418 24.638182 1.394448 0.608952 0.031356 -0.002068 -50011.500000 0 1 0
-1.527054 -14.755768 19.595418 24.577327 1.467675 0.647993 0.031352 -0.015395 -226564.000000 0 1 0
-1.860154 -15.387168 18.379518 24.042292 1.450490 0.700584 0.030900 -0.014710 23550.300000 0 1 0
-2.605754 -16.733568 18.547518 25.115985 1.416317 0.739991 0.020901 -0.012408 211526.000000 0 0 1
-2.551454 -17.615468 17.424818 24.908611 1.426955 0.796029 0.015401 -0.012409 -81202.000000 0 1 0
-3.262154 -18.850768 17.715118 26.073330 1.399442 0.823805 0.012130 -0.000228 85185.400000 0 0 1
-2.888054 -20.103368 16.879618 26.408479 1.428112 0.877372 0.010418 -0.001606 627728.000000 0 0 1
-1.700454 -20.656368 17.469018 27.106156 1.488660 0.870471 0.008122 -0.001494 167636.000000 0 0 1
-1.770654 -22.078368 17.551618 28.260376 1.490769 0.900692 0.004500 -0.013189 -700342.000000 0 0 1
-0.691454 -22.865868 18.263018 29.272237 1.540566 0.897070 0.008470 0.000332 -6286.220000 0 0 1
0.466146 -23.066668 17.465018 28.936401 -1.550590 0.922831 0.025330 -0.005691 -711139.000000 0 0 1
1.400846 -23.866168 18.096718 29.984122 -1.512168 0.922859 0.016172 -0.009181 -531685.000000 0 0 1
2.725246 -23.851968 17.305518 29.594329 -1.457033 0.946215 0.030551 -0.014611 -141493.000000 0 0 1
3.236746 -22.516868 17.308318 28.584327 -1.428027 0.920380 0.023244 -0.009890 -400876.000000 0 0 1
4.310346 -22.410268 16.402918 28.104358 -1.380779 0.947588 0.018746 -0.011329 61386.400000 0 0 1
5.055446 -21.055268 16.616618 27.294575 -1.335153 0.916264 0.026170 -0.012564 -134039.000000 0 0 1
5.837646 -21.103668 17.833018 28.239325 -1.300927 0.887315 0.025796 -0.009486 603558.000000 0 0 1
6.502446 -19.831868 18.231618 27.712393 -1.253963 0.852787 0.041079 -0.014664 811524.000000 0 0 1
7.553046 -19.203768 17.301218 26.928895 -1.196070 0.873069 0.046085 -0.016400 -792138.000000 0 0 1
6.967946 -18.548468 16.216618 25.604231 -1.211446 0.884913 0.028111 -0.009873 -181615.000000 0 0 1
7.899446 -18.036668 15.305218 24.939373 -1.157995 0.910062 0.043574 -0.013103 -168720.000000 0 1 0
7.239446 -16.951068 14.397718 23.388941 -1.167166 0.907677 0.026837 -0.008365 -232819.000000 0 1 0
6.245146 -17.374868 13.537418 22.894313 -1.225740 0.938126 0.022978 -0.009639 -295338.000000 0 1 0
5.750046 -16.325868 12.703318 21.470242 -1.232159 0.937666 0.023526 -0.012596 47129.900000 0 1 0
6.381146 -16.474568 11.301918 20.972930 -1.201257 1.001688 0.030438 -0.009359 -1483030.000000 0 1 0
7.727846 -16.282068 11.266918 21.254853 -1.127656 1.012093 0.030043 0.001479 -1711190.000000 0 1 0
8.243146 -16.659768 10.026318 21.119289 -1.111323 1.076120 0.027367 0.006458 -665900.000000 0 1 0
9.685746 -16.256468 9.850818 21.333660 -1.033464 1.090829 0.024157 0.008888 -498760.000000 0 1 0
10.345246 -16.810468 8.721018 21.579437 -1.019127 1.154763 0.025883 0.009387 -739500.000000 0 1 0
11.691046 -16.441368 8.705818 21.972492 -0.952676 1.163406 0.028609 0.013239 -251752.000000 0 1 0
12.539846 -17.468368 7.913218 22.913111 -0.948184 1.218176 0.022991 0.006055 26247.800000 0 1 0
12.871946 -18.764668 8.489918 24.287414 -0.969551 1.213694 0.025358 -0.000965 1272.800000 0 1 0
13.588646 -19.605368 7.643918 25.048977 -0.964711 1.260691 0.021866 -0.005925 -260853.000000 0 0 1
14.037746 -20.853768 8.402718 26.505540 -0.978318 1.248213 0.021463 -0.006507 -302838.000000 0 0 1
12.980646 -21.683868 8.834418 26.771893 -1.031384 1.234505 0.025932 -0.002272 -249712.000000 0 0 1
13.494746 -22.822968 9.359918 28.117683 -1.036814 1.231436 0.018623 -0.006237 -372506.000000 0 0 1
12.431946 -23.696568 10.002218 28.567901 -1.087639 1.213096 0.030291 -0.014375 -273948.000000 0 0 1
12.150346 -23.148068 11.264618 28.466745 -1.087430 1.163954 0.040020 -0.020165 -345404.000000 0 0 1
11.242546 -23.830968 12.122818 29.004700 -1.129993 1.139597 0.051812 -0.016466 -177182.000000 0 0 1
11.550146 -25.221058 12.606618 30.470223 -1.141346 1.144243 0.038668 -0.018056 -285479.000000 0 0 1
12.489546 -25.286828 13.676318 31.344124 -1.112028 1.119283 0.032681 -0.017430 51874.100000 0 0 1
12.536346 -26.512118 14.341118 32.645368 -1.129101 1.115977 0.019596 -0.022432 396780.000000 0 0 1
13.797646 -26.632478 15.261218 33.653658 -1.092793 1.100132 0.021789 -0.016543 360557.000000 0 0 1
13.753046 -25.717708 16.318818 33.419315 -1.079722 1.060650 0.023855 -0.012448 214875.000000 0 0 1
14.577146 -26.036378 17.422618 34.553347 -1.060402 1.042313 0.033684 -0.010561 -253537.000000 0 0 1
14.316846 -25.128338 18.640718 34.407584 -1.052917 0.998264 0.038208 -0.003823 77569.700000 0 0 1
14.756146 -23.768368 18.504118 33.542235 -1.015200 0.986436 0.023911 -0.023438 1533230.000000 0 0 1
16.124746 -23.587668 18.989218 34.307083 -0.971156 0.984227 0.028940 -0.015132 1350980.000000 0 0 1
16.592546 -22.132468 19.135618 33.635259 -0.927492 0.965610 0.014535 -0.019202 -142091.000000 0 0 1
16.883546 -21.419068 17.919618 32.633469 -0.903262 0.989488 0.009072 -0.013320 32198.300000 0 0 1
15.785146 -20.756168 17.339318 31.315193 -0.920607 0.983992 0.012416 -0.003298 -592510.000000 0 0 1
16.220946 -19.838968 16.172318 30.302601 -0.885397 1.007834 -0.008421 0.000240 -81255.100000 0 0 1
17.050946 -18.753868 16.461918 30.223122 -0.832924 0.994789 -0.015069 0.004667 493429.000000 0 0 1
18.451346 -19.084368 16.480518 31.245364 -0.802261 1.015194 0.004506 -0.002222 -46435.900000 0 0 1
19.240246 -17.915768 16.937018 31.273382 -0.749767 0.998482 0.016830 0.002151 -1220010.000000 0 0 1
19.195246 -17.552968 18.326418 31.818576 -0.740738 0.957011 0.000394 -0.000946 169361.000000 0 0 1
19.604446 -16.188868 18.550918 31.473010 -0.690261 0.940452 -0.000934 0.000999 -328052.000000 0 0 1
19.670246 -15.878268 20.034618 32.255603 -0.679129 0.900625 0.003423 0.003909 292780.000000 0 0 1
20.922046 -16.368268 20.499118 33.553928 -0.663883 0.913561 0.005147 0.001870 132811.000000 0 0 1
20.882246 -16.396668 21.885518 34.407773 -0.665649 0.881411 -0.001349 0.006143 82475.000000 0 0 1
33.084529 -1.132468 -7.457406 33.933486 -0.034216 1.792370 0.067227 -0.021000 -278072.000000 0 0 1
34.141999 -1.181368 -8.401406 35.180326 -0.034588 1.811936 0.053342 -0.019569 59701.300000 0 0 1
35.079950 -2.173568 -8.053006 36.057984 -0.061881 1.796031 0.055582 -0.027471 224802.000000 0 0 1
-34.476093 -1.986968 -8.792106 35.634957 0.057570 1.820098 0.037181 -0.016805 446105.000000 0 0 1
-33.593634 -3.061168 -8.557506 34.801349 0.090872 1.819240 0.045444 -0.016190 853029.000000 0 0 1
-32.233394 -2.859268 -8.980406 33.582954 0.088474 1.841500 0.068965 -0.018138 990707.000000 0 0 1
-31.240464 -3.911468 -8.412006 32.588771 0.124557 1.831878 0.068422 -0.015587 7795.470000 0 0 1
-30.988814 -3.801668 -7.005306 31.997399 0.122069 1.791518 0.059047 -0.020414 1444300.000000 0 0 1
-29.780614 -4.560068 -6.655206 30.854026 0.151942 1.788205 0.054821 -0.022236 1113860.000000 0 0 1
-29.470264 -4.442468 -5.203406 30.254048 0.149618 1.743646 0.043823 -0.025347 -363746.000000 0 0 1
-28.987254 -3.095768 -4.956006 29.570368 0.106394 1.739191 0.040018 -0.024752 541723.000000 0 0 1
-28.990324 -2.888968 -3.554106 29.349901 0.099325 1.692189 0.032969 -0.026086 -333888.000000 0 0 1
-28.820754 -1.419568 -3.098006 29.021521 0.049215 1.677749 0.043624 -0.022550 -208392.000000 0 0 1
-27.475174 -0.977868 -3.133206 27.670533 0.035576 1.684272 0.032875 -0.012348 594151.000000 0 0 1
-27.343574 0.236432 -2.373106 27.447378 -0.008646 1.657365 0.041624 -0.016968 -95496.300000 0 0 1
-25.881254 0.481732 -1.940406 25.958361 -0.018611 1.645617 0.036753 -0.008049 -7881.750000 0 0 1
-25.578414 -0.224368 -0.745506 25.590259 0.008772 1.599933 0.029812 -0.014870 294712.000000 0 0 1
-24.181454 -0.163268 -0.527306 24.187753 0.006752 1.592599 0.019964 -0.011861 57472.900000 0 1 0
-23.743454 -1.157768 0.558194 23.778217 0.048723 1.547319 0.007736 -0.009903 -416098.000000 0 1 0
-23.734354 -2.462668 0.067994 23.861871 0.103390 1.567947 0.010653 -0.005823 190421.000000 0 1 0
-22.960654 -3.366868 0.834494 23.221193 0.145599 1.534852 0.005836 -0.002003 -426861.000000 0 1 0
-23.224354 -4.876568 0.768094 23.743241 0.206970 1.538441 0.013450 0.001059 -398027.000000 0 1 0
-24.442654 -5.218068 1.412094 25.033289 0.210325 1.514358 0.006053 0.000517 172509.000000 0 0 1
-24.696354 -6.583368 1.140394 25.584197 0.260514 1.526207 0.011220 0.006735 -315677.000000 0 0 1
-25.798784 -7.205368 2.013694 26.861674 0.272351 1.495761 0.009799 0.007103 -283519.000000 0 0 1
-25.801204 -7.186268 3.423194 27.001163 0.271640 1.443675 0.013963 0.007945 1015950.000000 0 0 1
-26.999144 -7.881568 3.905694 28.395903 0.284027 1.432815 0.018470 0.009730 912678.000000 0 0 1
-27.036394 -8.045768 5.452494 28.730309 0.289245 1.379856 0.031926 0.007282 296460.000000 0 0 1
-26.046874 -9.026168 5.878694 28.186351 0.333585 1.360689 0.023811 0.015049 652781.000000 0 0 1
-26.028744 -9.196268 7.283994 28.550366 0.339622 1.312816 0.019020 0.006051 156792.000000 0 0 1
-25.374474 -7.975968 8.030894 27.784442 0.304552 1.277569 0.029063 0.008338 -637335.000000 0 0 1
-23.990654 -7.906668 7.846494 26.450602 0.318362 1.269617 0.028646 0.003794 -499088.000000 0 0 1
-23.564154 -6.708668 8.458594 25.919556 0.277360 1.238367 0.026960 -0.004208 -420557.000000 0 0 1
-22.208654 -6.184068 7.957294 24.388225 0.271574 1.238435 0.028483 -0.006107 -21217.100000 0 1 0
-21.120554 -6.916868 8.480194 23.787277 0.316487 1.206276 0.028326 -0.012914 -702552.000000 0 1 0
-19.928954 -6.582368 7.862694 22.412334 0.319011 1.212350 0.027393 -0.018590 -462078.000000 0 1 0
-18.716654 -6.795168 8.814994 21.775940 0.348257 1.154032 0.020457 -0.018482 -96073.900000 0 1 0
-18.730154 -5.847568 9.861194 21.960325 0.302612 1.105099 0.023478 -0.015437 11309.000000 0 1 0
-17.865054 -6.201468 10.899594 21.827036 0.334114 1.047934 0.021955 -0.011443 -384942.000000 0 1 0
-17.563554 -5.011268 11.799894 21.744625 0.277937 0.997198 0.014973 -0.010690 201624.000000 0 1 0
-18.631554 -4.557568 12.632894 22.967286 0.239905 0.988386 0.020560 -0.010225 465266.000000 0 1 0
-18.372654 -3.316468 13.241494 22.888655 0.178588 0.953886 0.009887 -0.005570 1029540.000000 0 1 0
-19.572254 -3.001568 14.255894 24.399038 0.152173 0.946803 0.011397 -0.007683 1170260.000000 0 1 0
-19.496554 -3.919968 15.313094 25.099255 0.198414 0.914608 0.008799 -0.002736 514735.000000 0 0 1
-20.704654 -3.854668 16.057594 26.483721 0.184067 0.919372 0.018298 -0.001159 212831.000000 0 0 1
-20.738954 -5.032868 17.074494 27.330794 0.238075 0.896005 0.009170 0.008961 148195.000000 0 0 1
-21.571854 -4.618568 18.167994 28.578874 0.210917 0.881863 0.016423 0.006191 434468.000000 0 0 1
-21.405054 -5.504868 19.256494 29.313691 0.251721 0.854082 0.015137 0.008665 -380718.000000 0 0 1
-22.108854 -5.085368 20.580094 30.630094 0.226083 0.834037 0.000082 0.011535 -395300.000000 0 0 1
-21.685954 -3.814268 21.025394 30.444974 0.174106 0.808474 0.003443 0.013951 559963.000000 0 0 1
-22.397354 -3.321968 22.200594 31.710303 0.147246 0.795249 0.011672 0.008036 179323.000000 0 0 1
-22.235354 -1.792068 22.479594 31.669459 0.080422 0.781555 0.014324 0.004058 236863.000000 0 0 1
-23.124054 -1.003768 21.678894 31.712834 0.043381 0.818113 0.034636 -0.008168 148680.000000 0 0 1
-23.092654 0.345132 22.097294 31.963732 -0.014944 0.807477 0.032192 -0.007362 -470062.000000 0 0 1
-24.348854 1.152032 21.770594 32.682604 -0.047278 0.841799 0.045439 -0.016195 -551497.000000 0 0 1
-25.391734 0.722232 22.583394 33.989284 -0.028436 0.844070 0.044627 -0.014634 -164891.000000 0 0 1
-26.627034 1.391732 22.342894 34.787077 -0.052220 0.873333 0.040498 -0.016337 1238140.000000 0 0 1
-27.710434 1.304432 23.491694 36.351470 -0.047039 0.868152 0.029001 -0.012591 441091.000000 0 0 1
-27.334714 2.118932 24.614594 36.845009 -0.077363 0.839201 0.021498 -0.008106 184815.000000 0 0 1
-28.296614 1.917032 25.614694 38.216304 -0.067644 0.836243 0.015109 -0.002823 -288697.000000 0 0 1
-27.987154 2.711532 26.929394 38.933603 -0.096583 0.806991 0.018256 -0.001547 125282.000000 0 0 1
-26.985934 2.118232 27.748394 38.764686 -0.078333 0.773004 0.009566 -0.001803 207434.000000 0 0 1
-26.552954 3.118232 28.663694 39.196812 -0.116899 0.750605 0.006903 -0.002906 -688060.000000 0 0 1
-25.370474 2.794732 29.540894 39.040183 -0.109715 0.712578 0.018097 -0.005822 -625604.000000 0 0 1
-25.676484 1.901532 30.614094 40.001505 -0.073922 0.699252 0.017786 -0.001340 -333707.000000 0 0 1
-24.584754 1.702032 31.450294 39.955325 -0.069121 0.664644 0.016381 -0.011186 -256446.000000 0 0 1
-24.656154 0.443232 32.311094 40.646392 -0.017975 0.651902 0.009869 -0.017078 -33687.500000 0 0 1
-24.715554 -0.712668 31.472394 40.023469 0.028827 0.665920 0.015286 -0.009697 -98295.400000 0 0 1
-25.201544 -1.917568 32.075794 40.836888 0.075943 0.667355 0.011729 -0.001179 -393058.000000 0 0 1
-25.988034 -2.789468 31.016394 40.560766 0.106927 0.700237 0.019944 0.006366 965763.000000 0 0 1
-27.335714 -2.328968 30.824494 41.265176 0.084993 0.727280 0.010354 0.005929 623930.000000 0 0 1
-27.359714 -1.281468 29.901994 40.550282 0.046804 0.741575 0.014794 0.001669 -723829.000000 0 0 1
-28.749144 -0.733868 29.508194 41.204191 0.025521 0.772532 0.022672 -0.007353 410310.000000 0 0 1
-29.466094 -0.169168 30.595594 42.477873 0.005741 0.766603 0.019393 -0.007743 -717266.000000 0 0 1
-30.816984 0.017832 30.292994 43.212872 -0.000579 0.793973 0.010435 -0.008967 -360391.000000 0 0 1
-31.666034 0.270532 31.525694 44.684228 -0.008543 0.787637 0.008529 0.005003 -600691.000000 0 0 1
-31.702504 -0.929968 32.350294 45.304030 0.029326 0.775500 0.020170 0.011180 174083.000000 0 0 1
-32.695554 -0.795668 33.365294 46.721250 0.024331 0.775408 0.026025 0.012106 197140.000000 0 0 1
-32.849964 -2.172968 34.068094 47.375911 0.066052 0.768288 0.021467 0.011144 -111678.000000 0 0 1
-33.585474 -3.091868 33.288894 47.388756 0.091801 0.791943 0.032566 0.000325 -137889.000000 0 0 1
-33.692694 -4.341668 33.942994 48.022646 0.128155 0.785815 0.016849 0.007367 216103.000000 0 0 1
-35.004482 -5.131268 33.664894 48.836142 0.145552 0.810213 0.017994 0.010873 277069.000000 0 0 1
34.763879 -4.610368 34.279694 49.039578 -0.131850 0.796769 0.033177 0.001317 -493676.000000 0 0 1
33.581869 -5.202368 33.810794 47.937213 -0.153694 0.787930 0.035233 -0.005693 -516440.000000 0 0 1
32.372739 -4.789168 -34.187730 47.325799 -0.146873 2.378050 0.057115 -0.005312 -345618.000000 0 0 1
32.158559 -5.479968 -32.960230 46.374343 -0.168783 2.361350 0.043746 -0.001248 213086.000000 0 0 1
31.744389 -6.830268 -32.934930 46.250064 -0.211933 2.363289 0.053338 -0.005855 72861.900000 0 0 1
30.356089 -7.251768 -33.507930 45.791502 -0.234495 2.391682 0.038550 0.004056 688547.000000 0 0 1
29.198009 -6.655168 -32.918330 44.502039 -0.224104 2.403427 0.034059 -0.005121 755507.000000 0 0 1
28.040269 -7.169668 -33.589030 44.338288 -0.250328 2.430367 0.022166 -0.008266 90343.100000 0 0 1
26.762039 -6.678668 -32.910130 42.940517 -0.244562 2.444033 0.024323 -0.014316 -226031.000000 0 0 1
25.564039 -7.397368 -33.149830 42.510615 -0.281673 2.465145 0.023841 -0.012116 -223450.000000 0 0 1
24.518439 -6.779368 -32.479830 41.255946 -0.269761 2.477176 0.029647 -0.012382 -1023770.000000 0 0 1
23.129739 -7.313068 -32.844730 40.831876 -0.306230 2.505443 0.018430 -0.019158 -368318.000000 0 0 1
22.898339 -8.717568 -32.613530 40.791816 -0.363765 2.497278 0.031248 -0.025529 165361.000000 0 0 1
22.866039 -9.090868 -31.269130 39.790176 -0.378410 2.474867 0.029919 -0.024550 -487273.000000 0 0 1
22.527039 -10.627768 -31.138030 39.874727 -0.440816 2.466896 0.036405 -0.012834 630494.000000 0 0 1
21.285839 -10.926368 -31.810430 39.804220 -0.474244 2.496713 0.040875 -0.018748 861113.000000 0 0 1
21.188839 -12.336868 -32.029130 40.336465 -0.527254 2.488238 0.037687 -0.008168 -90968.600000 0 0 1
20.050939 -12.782568 -33.017930 40.689285 -0.567541 2.517451 0.038721 -0.006499 -209791.000000 0 0 1
18.760339 -12.526568 -32.606230 39.648852 -0.588728 2.536369 0.024623 0.003141 -1159110.000000 0 0 1
18.256139 -11.243968 -32.889430 39.261024 -0.552029 2.563876 0.026345 -0.006099 -1634500.000000 0 0 1
16.849739 -11.038868 -32.432130 38.178703 -0.579977 2.585800 0.028754 -0.003249 -1195580.000000 0 0 1
15.858239 -11.586168 -33.260830 38.626492 -0.630975 2.608203 0.020938 0.003699 -21597.800000 0 0 1
14.586739 -11.443468 -32.632530 37.531426 -0.665225 2.624929 0.020436 -0.003808 750658.000000 0 0 1
13.376539 -11.897168 -33.502230 37.985179 -0.726931 2.650847 0.021810 -0.008848 -229947.000000 0 0 1
13.148939 -13.298368 -33.518730 38.382893 -0.791048 2.632676 0.025161 -0.004682 130484.000000 0 0 1
11.867639 -13.679668 -33.956330 38.483848 -0.856208 2.651635 0.015837 -0.009633 -138729.000000 0 0 1
10.683239 -13.568568 -33.013930 37.257982 -0.903815 2.659637 0.007712 -0.004664 -649904.000000 0 0 1
10.175139 -12.277268 -32.769730 36.443380 -0.878752 2.688724 0.031238 -0.002285 -470841.000000 0 0 1
9.270339 -12.226968 -31.722330 35.238390 -0.922076 2.691073 0.025209 -0.002442 -543334.000000 0 0 1
8.089939 -11.319168 -32.008530 34.901528 -0.950265 2.731565 0.031269 -0.002499 -323230.000000 0 0 1
8.587839 -9.954668 -31.982530 34.579309 -0.858978 2.751578 0.035476 0.000219 636279.000000 0 0 1
7.672439 -9.045768 -32.578330 34.670446 -0.867360 2.792423 0.037113 -0.001049 54904.800000 0 0 1
8.269739 -7.658068 -32.846130 34.726112 -0.747014 2.811038 0.045965 0.002619 -218526.000000 0 0 1
8.376739 -6.944268 -31.646730 33.465029 -0.692172 2.810432 0.046041 -0.002143 228968.000000 0 0 1
9.011339 -5.712668 -31.863530 33.602431 -0.565004 2.818477 0.045805 -0.002141 -543416.000000 0 0 1
9.131339 -4.892268 -30.574830 32.282129 -0.491850 2.814913 0.043527 0.001244 322341.000000 0 0 1
7.900039 -4.397468 -30.047530 31.378375 -0.507926 2.849305 0.041344 0.000399 324783.000000 0 0 1
8.102639 -3.500268 -29.036130 30.348006 -0.407777 2.846490 0.052533 -0.004572 42087.000000 0 0 1
6.771739 -2.905468 -28.542930 29.478756 -0.405303 2.888946 0.051061 -0.007148 -804993.000000 0 0 1
6.139039 -2.159868 -29.535830 30.244307 -0.338300 2.924719 0.046983 -0.000135 -344207.000000 0 0 1
4.991539 -1.488668 -29.100930 29.563419 -0.289840 2.964477 0.045834 -0.007078 1460060.000000 0 0 1
3.629839 -2.342068 -28.951130 29.271641 -0.573012 2.993474 0.033290 -0.007197 944041.000000 0 0 1
3.741939 -3.290868 -27.882930 28.324719 -0.721348 2.964742 0.043268 -0.019661 -718361.000000 0 0 1
2.881239 -4.365568 -27.925530 28.411177 -0.987429 2.956431 0.042255 -0.016785 -399497.000000 0 0 1
3.117139 -5.330968 -26.726430 27.430601 -1.041686 2.914517 0.043771 -0.022037 94843.900000 0 0 1
2.830739 -4.793568 -25.437630 26.039670 -1.037370 2.926141 0.037805 -0.027486 63375.500000 0 0 1
3.142839 -5.784668 -24.467230 25.337426 -1.073108 2.878752 0.046993 -0.031761 -31701.000000 0 0 1
3.047539 -5.229968 -23.059630 23.840860 -1.043189 2.884886 0.049767 -0.034747 81166.700000 0 1 0
3.969739 -4.187568 -22.799330 23.518163 -0.812095 2.893714 0.043932 -0.033223 48387.900000 0 1 0
3.755739 -3.715768 -21.496530 22.136244 -0.780048 2.900598 0.038353 -0.033368 -293891.000000 0 1 0
4.754939 -2.623868 -21.057430 21.746482 -0.504239 2.889186 0.041017 -0.035128 -489574.000000 0 1 0
6.082539 -3.017968 -20.925730 21.999809 -0.460578 2.827826 0.035740 -0.030837 -1006330.000000 0 1 0
6.844439 -1.917868 -20.528230 21.724014 -0.273202 2.808255 0.040578 -0.020077 389246.000000 0 1 0
8.356139 -2.243068 -20.303030 22.069650 -0.262251 2.738756 0.038739 -0.018770 -1474440.000000 0 1 0
8.997339 -2.499168 -21.525830 23.464000 -0.270937 2.732289 0.041441 -0.029935 135832.000000 0 1 0
10.285139 -3.052568 -21.285730 23.836622 -0.288513 2.674729 0.030630 -0.031410 780514.000000 0 1 0
11.365039 -2.198168 -20.549830 23.585834 -0.191056 2.628598 0.009850 -0.021242 -1466850.000000 0 1 0
11.174139 -2.147268 -19.155330 22.280009 -0.189850 2.605584 0.013681 -0.016500 196926.000000 0 1 0
12.204239 -1.528668 -18.372030 22.109088 -0.124608 2.551649 0.006681 -0.021189 113232.000000 0 1 0
12.498539 -0.049668 -18.514130 22.338061 -0.003974 2.547784 0.005982 -0.015803 -107466.000000 0 1 0
13.074939 0.405032 -19.721630 23.665603 0.030968 2.555930 0.012715 -0.020623 208026.000000 0 1 0
12.854539 1.826632 -19.752830 23.637894 0.141155 2.560098 0.015407 -0.025246 -5291.980000 0 1 0
13.160339 2.446232 -21.099430 24.987287 0.183782 2.576253 0.014992 -0.022219 -91161.700000 0 1 0
14.532839 2.589732 -21.404630 26.001314 0.176348 2.537844 0.013557 -0.020499 35537.000000 0 0 1
14.577239 3.756432 -22.262330 26.874114 0.252205 2.547029 0.022192 -0.023619 -118894.000000 0 0 1
16.000439 4.077432 -22.793030 28.145368 0.249522 2.514663 0.017265 -0.017208 365924.000000 0 0 1
16.557839 3.176632 -23.712330 29.095148 0.189548 2.523513 0.008644 -0.017510 50865.400000 0 0 1
17.069039 1.942832 -23.219430 28.883709 0.113334 2.504609 0.007976 -0.014681 -790056.000000 0 0 1
9.308646 26.696832 3.239494 28.458146 1.235298 1.456715 0.000771 0.002935 -44917.000000 0 0 1
9.132246 27.148032 4.574594 29.005870 1.246300 1.412422 0.000716 0.002543 -320199.000000 0 0 1
10.181646 27.952832 5.017794 30.169604 1.221489 1.403700 0.025565 0.001700 -513143.000000 0 0 1
10.015746 28.618132 6.375194 30.983153 1.234140 1.363553 0.014738 0.003203 -50646.300000 0 0 1
10.260146 27.608932 7.377794 30.363721 1.214989 1.325359 0.007045 -0.005186 58955.000000 0 0 1
10.162346 28.121932 8.669494 31.133205 1.224031 1.288601 0.008243 0.000942 -660056.000000 0 0 1
10.188046 27.009332 9.678594 30.446272 1.210094 1.247292 0.006961 0.003784 -65962.000000 0 0 1
11.366946 26.312932 9.994694 30.355754 1.163019 1.235285 0.014365 0.001424 -294952.000000 0 0 1
12.092746 25.738932 8.952294 29.813935 1.131580 1.265818 0.012728 -0.003274 -1192780.000000 0 0 1
13.338846 25.050932 9.473394 29.920214 1.081512 1.248630 0.020780 -0.004134 -631356.000000 0 0 1
14.380746 25.963532 9.722394 31.231968 1.064977 1.254240 0.025411 -0.002974 483009.000000 0 0 1
15.593246 25.347632 10.182194 31.453598 1.019293 1.241137 0.014745 0.002214 119174.000000 0 0 1
16.569346 26.238132 10.845994 32.872761 1.007537 1.234558 0.016935 0.003560 -1069980.000000 0 0 1
17.166146 27.203232 9.996394 33.684125 1.007870 1.269489 0.022154 -0.003140 1233670.000000 0 0 1
18.606846 27.255632 10.097094 34.511382 0.971790 1.273880 0.035791 -0.012767 1315640.000000 0 0 1
19.255746 27.894632 11.371294 35.751931 0.966608 1.247113 0.025711 0.001341 -697505.000000 0 0 1
19.316246 29.290232 11.460894 36.910529 0.987787 1.255072 0.018772 -0.007546 248350.000000 0 0 1
18.062346 29.952232 11.554494 36.836000 1.028146 1.251737 0.010436 0.003863 32138.900000 0 0 1
18.293846 31.510232 11.477094 38.200566 1.044787 1.265639 0.005753 0.011614 -623283.000000 0 0 1
18.606746 32.023132 10.151394 38.402380 1.044434 1.303274 0.018898 -0.006607 279540.000000 0 0 1
17.613346 32.008232 9.125294 37.656711 1.067742 1.326031 0.036080 -0.007631 -43781.700000 0 0 1
16.286946 32.718632 9.396994 37.736945 1.108920 1.319135 0.035826 -0.008084 -614205.000000 0 0 1
16.341046 34.104332 9.397594 38.967294 1.123968 1.327229 0.036289 -0.010021 -843437.000000 0 0 1
15.128746 -34.356093 9.700494 38.772667 -1.155995 1.317921 0.039334 0.000134 -695462.000000 0 0 1
15.181946 -32.836093 9.880894 37.501101 -1.137715 1.304166 0.037367 0.002277 44485.100000 0 0 1
15.185146 -32.154093 8.604094 36.585582 -1.129585 1.333395 0.030740 -0.004601 -47997.100000 0 0 1
15.293846 -30.738593 8.852094 35.455922 -1.109114 1.318462 0.050605 -0.007906 -397290.000000 0 0 1
15.953046 -29.981693 7.746594 34.834054 -1.081805 1.346536 0.034579 -0.006748 -287077.000000 0 0 1
15.302146 -30.007293 6.454994 34.296651 -1.099222 1.381456 0.046514 -0.000143 -329059.000000 0 0 1
16.072146 -29.563193 5.377794 34.076633 -1.072838 1.412319 0.037125 0.002185 -293866.000000 0 0 1
15.538846 -29.836593 3.932494 33.869493 -1.090649 1.454427 0.039910 -0.007229 -174716.000000 0 0 1
15.908046 -31.136093 3.468494 35.136202 -1.098451 1.471920 0.030038 -0.005972 81965.400000 0 0 1
16.141446 -31.197493 2.072694 35.187014 -1.093329 1.511857 0.026418 -0.003735 -126062.000000 0 0 1
16.584946 -32.575193 1.576994 36.588121 -1.099873 1.527682 0.038023 -0.007381 -84762.500000 0 0 1
17.866646 -33.055593 1.919194 37.624096 -1.075274 1.519764 0.034742 0.002019 -76247.400000 0 0 1
17.989346 -34.390093 1.438294 38.837659 -1.088842 1.533754 0.048463 -0.000610 628189.000000 0 0 1
19.423546 34.044832 1.634794 39.230056 1.052329 1.529112 0.047546 -0.000469 697051.000000 0 0 1
19.768546 33.807732 2.967894 39.275521 1.041677 1.495158 0.043688 -0.016503 -871373.000000 0 0 1
20.996346 33.233332 3.201094 39.440435 1.007332 1.489544 0.023487 -0.004498 -805155.000000 0 0 1
21.336246 33.277732 4.783094 39.818599 1.000663 1.450383 0.016055 0.005979 -142916.000000 0 0 1
20.854146 32.226332 5.582294 38.789095 0.996452 1.426381 0.027566 -0.007903 240538.000000 0 0 1
21.702746 31.068832 5.459594 38.289538 0.961053 1.427722 0.015627 -0.014394 177570.000000 0 0 1
21.263946 29.877932 6.322594 37.213189 0.952265 1.400066 0.040195 -0.021406 444980.000000 0 0 1
20.025546 29.391832 5.816294 36.037919 0.972711 1.408694 0.037192 -0.025110 -177447.000000 0 0 1
19.087646 29.071032 6.803594 35.436592 0.989805 1.377603 0.038013 -0.033216 -436721.000000 0 0 1
17.658646 29.099432 6.257394 34.608665 1.025364 1.388992 0.059558 -0.033488 -564585.000000 0 0 1
17.137046 30.430232 6.030994 35.440800 1.057907 1.399793 0.054610 -0.038512 -333494.000000 0 0 1
17.573046 31.180932 4.915494 36.127892 1.057584 1.434315 0.061024 -0.034810 -508431.000000 0 0 1
17.373046 32.732132 5.335694 37.439082 1.082841 1.427793 0.056031 -0.022894 945519.000000 0 0 1
16.009146 33.171032 5.378494 37.222820 1.121146 1.425794 0.060549 -0.022268 467916.000000 0 0 1
16.122746 -34.459193 5.374994 38.422253 -1.133174 1.430443 0.051844 -0.021220 1141570.000000 0 0 1
14.725446 -33.705793 5.507794 37.192137 -1.158905 1.422159 0.044315 -0.016182 1356560.000000 0 0 1
13.862746 -33.839093 4.381994 36.830176 -1.181985 1.451535 0.041492 -0.011739 240875.000000 0 0 1
12.823646 -32.862593 4.424994 35.552447 -1.198749 1.446009 0.038288 -0.011314 697459.000000 0 0 1
11.676946 -33.042493 3.381094 35.207801 -1.231103 1.474616 0.037203 -0.015687 704051.000000 0 0 1
10.640946 -32.058393 3.432994 33.952257 -1.250315 1.469511 0.030161 -0.017854 173887.000000 0 0 1
10.072946 -31.988993 2.120294 33.604398 -1.265738 1.507659 0.033318 -0.008819 -186334.000000 0 0 1
9.240946 -30.648193 2.014494 32.074367 -1.277949 1.507948 0.039150 -0.013447 66297.800000 0 0 1
8.740746 -30.231893 0.785794 31.479922 -1.289348 1.545832 0.049077 -0.011807 200534.000000 0 0 1
7.772746 -31.079093 0.142194 32.036633 -1.325728 1.566358 0.035344 -0.014555 -167940.000000 0 0 1
8.122146 -31.594393 -1.253406 32.645765 -1.319169 1.609200 0.041589 -0.011681 693698.000000 0 0 1
9.307846 -32.432893 -1.139806 33.761335 -1.291320 1.604563 0.042183 -0.010017 682924.000000 0 0 1
9.498846 -33.149693 -2.360606 34.564472 -1.291730 1.639145 0.042505 0.004018 -250412.000000 0 0 1
10.770646 -33.999793 -2.387906 35.744858 -1.264012 1.637650 0.042517 0.002306 -334530.000000 0 0 1
10.797746 34.076132 -1.392506 35.773079 1.263934 1.609732 0.040721 -0.004558 -279384.000000 0 0 1
12.014746 33.382832 -1.455006 35.508938 1.225322 1.611784 0.049114 -0.003443 -402373.000000 0 0 1
12.297346 32.451332 -0.279206 34.704346 1.208569 1.578842 0.052741 -0.008694 -513073.000000 0 0 1
12.444546 33.169332 0.983094 35.440624 1.211866 1.543054 0.054345 -0.012830 448810.000000 0 0 1
13.744946 33.618332 1.377094 36.345731 1.182682 1.532899 0.060947 -0.005375 688693.000000 0 0 1
14.815046 32.512632 1.636994 35.766417 1.143237 1.525011 0.065175 -0.010476 -297113.000000 0 0 1
15.479746 32.081832 0.473394 35.624298 1.121240 1.557507 0.067938 -0.012816 -358196.000000 0 0 1
16.522346 31.206332 0.738894 35.318112 1.083863 1.549874 0.074582 -0.014513 -675058.000000 0 0 1
17.167846 30.547732 -0.476506 35.044628 1.058786 1.584394 0.068026 -0.002572 -333237.000000 0 0 1
18.189846 31.338032 -1.038706 36.249437 1.044883 1.599455 0.057445 0.007422 -332737.000000 0 0 1
17.770746 32.461232 -1.823806 37.052089 1.069917 1.620039 0.039126 0.007165 -370604.000000 0 0 1
18.883146 33.178132 -2.608406 38.264415 1.053374 1.639017 0.033755 0.006056 -143696.000000 0 0 1
19.795146 33.857332 -1.778806 39.259787 1.041730 1.616120 0.023835 0.004083 -239166.000000 0 0 1
20.606846 -34.347893 -2.575506 40.137926 -1.030417 1.635007 0.018669 0.005309 -1346520.000000 0 0 1
21.787946 -33.711493 -1.836706 40.181499 -0.997022 1.616522 0.012969 0.006132 -448134.000000 0 0 1
22.845846 34.515232 -1.327106 41.412500 0.986097 1.602848 0.011043 0.004913 939321.000000 0 0 1
23.536946 33.693332 -2.304706 41.164792 0.961035 1.626813 0.025192 0.005727 -85052.000000 0 0 1
24.183846 34.450432 -3.552706 42.241122 0.958736 1.655001 0.002151 0.001455 -1053680.000000 0 0 1
23.173546 -34.247993 -4.450806 41.590239 -0.975921 1.678017 0.008604 -0.010842 -212698.000000 0 0 1
23.745846 -33.380593 -5.419706 41.321936 -0.952482 1.702333 0.008194 -0.015837 -322476.000000 0 0 1
22.887546 -32.937193 -6.624106 40.651903 -0.963512 1.734473 0.011200 -0.022055 -396089.000000 0 0 1
21.950446 -32.013593 -6.085906 39.290336 -0.969759 1.726318 0.022124 -0.020019 8703.620000 0 0 1
21.164546 -31.470693 -7.109806 38.586162 -0.978755 1.756113 0.028787 -0.023040 -272239.000000 0 0 1
20.161546 -30.376393 -6.730806 37.074479 -0.984834 1.753357 0.047528 -0.030420 -350432.000000 0 0 1
18.898746 -30.824793 -6.330406 36.707009 -1.020799 1.744121 0.031638 -0.014899 -931594.000000 0 0 1
18.109846 -29.680693 -6.240306 35.324942 -1.022943 1.748383 0.048620 -0.026507 -338308.000000 0 0 1
16.895946 -29.792793 -5.291606 34.656668 -1.054908 1.724082 0.035259 -0.009871 -559936.000000 0 0 1
15.954246 -30.605193 -5.891306 35.013188 -1.090260 1.739860 0.030860 -0.007866 -1245970.000000 0 0 1
14.824946 -30.573593 -5.070106 34.354470 -1.119307 1.718920 0.017404 -0.004747 -195482.000000 0 0 1
13.697646 -31.595593 -5.386906 34.855785 -1.161723 1.725967 0.020707 0.002718 -104375.000000 0 0 1
13.922946 -32.946093 -5.095106 36.128294 -1.170962 1.712296 0.025181 0.003783 20876.700000 0 0 1
12.947746 -33.800593 -5.691006 36.640303 -1.204976 1.726749 0.029180 0.007614 163374.000000 0 0 1
13.271046 33.722032 -5.596606 36.669035 1.195869 1.724020 0.028622 0.012592 62520.500000 0 0 1
13.457246 33.281832 -4.287206 36.154640 1.186552 1.689656 0.034967 0.001171 27374.800000 0 0 1
14.036346 31.953532 -4.215306 35.154175 1.156898 1.690995 0.045468 -0.002832 771938.000000 0 0 1
13.105146 30.680732 -4.541706 33.670154 1.167110 1.706097 0.043420 -0.000278 288881.000000 0 0 1
12.114046 30.293032 -3.645906 32.828502 1.190380 1.682085 0.044507 -0.005159 -318949.000000 0 0 1
12.570546 29.490332 -2.561406 32.159899 1.167859 1.650527 0.053038 -0.009380 -101670.000000 0 0 1
11.497046 28.641432 -1.839906 30.917616 1.189072 1.630341 0.051930 -0.006227 252252.000000 0 0 1
10.523646 29.370332 -1.127906 31.219156 1.226739 1.606933 0.039857 -0.004940 -12496.800000 0 0 1
9.333546 28.627632 -0.894406 30.124016 1.255631 1.600491 0.025353 -0.005032 511971.000000 0 0 1
8.346346 29.499032 -0.048806 30.657084 1.295067 1.572388 0.020316 0.000553 574848.000000 0 0 1
7.322246 28.733032 0.594094 29.657299 1.321270 1.550763 0.007499 -0.000173 -290000.000000 0 0 1
6.314146 29.574832 1.044894 30.259394 1.360457 1.536258 0.011994 0.004669 -458212.000000 0 0 1
5.096946 28.872032 1.666794 29.365819 1.396061 1.514006 0.001125 0.003180 -104488.000000 0 0 1
4.392146 28.110432 0.732594 28.460921 1.415803 1.545053 -0.003376 -0.003507 -57101.700000 0 0 1
3.351646 27.379032 1.369494 27.617394 1.448986 1.521188 0.001238 -0.003570 436837.000000 0 0 1
2.865446 26.109332 0.574194 26.272375 1.461486 1.548939 0.004909 -0.007281 -232986.000000 0 0 1
1.909746 25.316132 1.208994 25.416832 1.495503 1.523212 0.012933 -0.013413 -198986.000000 0 0 1
1.312546 24.475032 0.218494 24.511175 1.517220 1.561882 0.003140 -0.011406 982008.000000 0 1 0
-0.170154 24.047232 0.523894 24.053540 -1.563721 1.549014 0.005730 -0.005623 1066910.000000 0 1 0
-1.182254 25.022832 0.420794 25.054279 -1.523584 1.554000 0.013724 -0.011160 -186647.000000 0 0 1
-2.412954 24.479132 0.831394 24.611816 -1.472542 1.537010 0.018051 -0.006013 -425468.000000 0 1 0
-3.543454 25.441932 1.188794 25.715000 -1.432410 1.524550 0.035180 -0.017481 25518.700000 0 0 1
-4.636354 24.630432 1.661394 25.118005 -1.384737 1.504604 0.026185 -0.015966 584320.000000 0 0 1
-5.789154 25.262732 2.183094 26.009341 -1.345528 1.486762 0.026094 -0.013782 492723.000000 0 0 1
-6.889054 25.706232 1.208794 26.640770 -1.308957 1.525407 0.032992 -0.013789 -447814.000000 0 0 1
-6.509354 26.875832 0.562594 27.658607 -1.333171 1.550454 0.034058 -0.016408 106566.000000 0 0 1
-7.178554 26.991232 -0.708106 27.938498 -1.310855 1.596144 0.023623 -0.009028 -48065.800000 0 0 1
-6.854054 28.194132 -1.568306 29.057645 -1.332320 1.624795 0.025702 -0.003339 -13657.600000 0 0 1
-7.343854 29.357332 -0.981506 30.277855 -1.325673 1.603219 0.033553 -0.014778 -178666.000000 0 0 1
-7.309354 30.388232 -1.950206 31.315725 -1.334748 1.633112 0.031610 -0.008420 -79264.000000 0 0 1
-7.383054 31.788032 -1.292406 32.659742 -1.342584 1.610378 0.026319 -0.007560 -435455.000000 0 0 1
-7.685154 32.883432 -2.199906 33.841118 -1.341208 1.635849 0.020471 0.001154 -254359.000000 0 0 1
-6.788554 33.091932 -3.284206 33.940336 -1.368461 1.667712 0.012251 -0.000841 301949.000000 0 0 1
-5.347054 33.545832 -2.899306 34.092812 -1.412731 1.655941 0.021965 0.001059 -83134.900000 0 0 1
-5.239554 -34.157493 -2.586206 34.653654 1.418589 1.645496 0.020955 -0.002976 -330941.000000 0 0 1
-4.147254 -33.887593 -1.753706 34.185438 1.449019 1.622119 0.023214 -0.007796 -163970.000000 0 0 1
-3.945854 -32.406293 -1.555306 32.682665 1.449631 1.618402 0.012217 -0.004393 199878.000000 0 0 1
-5.129254 -31.876993 -0.996006 32.302383 1.411256 1.601635 0.012515 -0.006197 -48903.700000 0 0 1
-5.299954 -30.523693 -1.358906 31.010192 1.398876 1.614632 0.008399 -0.002276 -405306.000000 0 0 1
-6.647754 -29.915893 -1.002906 30.662014 1.352134 1.603511 0.015637 -0.007103 -376465.000000 0 0 1
-6.752554 -29.414593 0.312194 30.181331 1.345141 1.560452 0.006523 -0.002967 -778539.000000 0 0 1
-8.001754 -28.846493 0.517994 29.940216 1.300209 1.553495 0.013044 0.005290 -530909.000000 0 0 1
-8.081954 -28.218193 1.853994 29.411251 1.291854 1.507718 0.013047 -0.000551 504316.000000 0 0 1
-7.290854 -26.996293 1.843094 28.024157 1.307020 1.504981 0.017093 0.005837 142229.000000 0 0 1
-7.138454 -26.408493 3.105994 27.532040 1.306797 1.457742 0.015063 0.007824 392280.000000 0 0 1
-8.243254 -25.398693 3.601894 26.944730 1.256968 1.436718 -0.001314 0.016628 632261.000000 0 0 1
-7.966954 -24.129693 3.077694 25.596614 1.251893 1.450266 0.003159 0.011206 -522771.000000 0 0 1
-8.974954 -23.246993 3.460794 25.158489 1.202356 1.432799 -0.002500 0.009951 -321236.000000 0 0 1
-8.472754 -21.799493 3.650294 23.671293 1.200097 1.415971 -0.003966 0.016985 279729.000000 0 1 0
-7.828654 -21.780193 4.932294 23.664153 1.225737 1.360828 -0.012726 0.016140 -113350.000000 0 1 0
-7.083254 -20.619093 5.207594 22.415140 1.239898 1.336329 -0.022940 0.010842 513942.000000 0 1 0
-7.918254 -19.594993 6.086194 21.993278 1.186764 1.290407 -0.010678 0.009285 589358.000000 0 1 0
-8.356154 -20.042493 7.385094 22.936139 1.175788 1.242971 -0.002880 0.007248 39783.400000 0 1 0
-8.868854 -19.056993 8.240294 22.577157 1.135222 1.197181 -0.009583 0.006094 -691219.000000 0 1 0
-27.045084 29.510632 -5.973106 40.472113 -0.828966 1.718923 0.055739 -0.004310 -411595.000000 0 0 1
-26.406624 30.195332 -4.970306 40.419943 -0.852234 1.694075 0.059285 -0.010662 -1252920.000000 0 0 1
-25.188744 29.633532 -4.668306 39.171573 -0.866298 1.690256 0.049685 0.000769 -476108.000000 0 0 1
-24.196254 30.539932 -3.896706 39.157764 -0.900779 1.670474 0.039993 0.003605 -162109.000000 0 0 1
-24.715154 30.877132 -2.629306 39.637726 -0.895790 1.637178 0.037819 -0.004450 -75064.500000 0 0 1
-23.965254 31.816332 -1.872706 39.876301 -0.925226 1.617776 0.038348 0.000006 -152047.000000 0 0 1
-22.837354 31.160732 -1.057906 38.647834 -0.938337 1.598173 0.035459 0.006630 -477557.000000 0 0 1
-21.832054 30.660432 -1.887406 37.686376 -0.952022 1.620899 0.036555 -0.004783 -722863.000000 0 0 1
-20.657154 30.590932 -1.098806 36.928722 -0.976861 1.600555 0.025208 0.004324 262604.000000 0 0 1
-19.387154 30.125332 -1.868806 35.873246 -0.998969 1.622915 0.021285 0.000069 745134.000000 0 0 1
-18.174154 30.379732 -1.170706 35.420312 -1.031677 1.603854 0.020811 0.003680 452005.000000 0 0 1
-17.080754 29.576732 -1.630106 34.193457 -1.047080 1.618487 0.016455 0.002584 736857.000000 0 0 1
-15.741654 29.959932 -0.954406 33.857172 -1.087017 1.598989 0.013779 -0.002291 58374.400000 0 0 1
-15.571654 29.637732 0.359094 33.481346 -1.087036 1.560071 0.010466 -0.004042 1288630.000000 0 0 1
-14.290354 30.099232 0.918994 33.332005 -1.127532 1.543222 0.014628 -0.009097 1509340.000000 0 0 1
-13.809454 29.349532 2.145294 32.506897 -1.131012 1.504753 0.022609 -0.009158 -221389.000000 0 0 1
-14.740554 29.335232 3.220694 32.988068 -1.105162 1.473008 0.013899 -0.009665 -141806.000000 0 0 1
-14.331254 28.689632 4.428794 32.374280 -1.107527 1.433566 0.017027 -0.016279 38402.200000 0 0 1
-13.146954 29.330032 5.188294 32.557819 -1.149405 1.410758 0.026817 -0.013384 92114.600000 0 0 1
-13.344754 30.472332 5.969894 33.797709 -1.158025 1.393229 0.022660 -0.021065 -433973.000000 0 0 1
-13.355054 31.682432 5.276394 34.784685 -1.171870 1.418521 0.025413 -0.018055 -141922.000000 0 0 1
-13.196354 32.891932 6.235494 35.984779 -1.189253 1.396636 0.035562 -0.028132 -48617.900000 0 0 1
-14.317754 33.154532 7.047494 36.795220 -1.163139 1.378073 0.035310 -0.028999 -72648.400000 0 0 1
-14.116054 34.395432 7.778694 37.984428 -1.181353 1.364551 0.055125 -0.028884 -771302.000000 0 0 1
-15.308254 -34.130593 8.514794 38.363286 1.149174 1.346981 0.035189 -0.023445 -967294.000000 0 0 1
-15.587554 34.170432 9.653094 38.778505 -1.142823 1.319222 0.014727 -0.024001 -128756.000000 0 0 1
-16.690454 -34.384293 10.369294 39.602691 1.118889 1.305875 0.027804 -0.023665 -1262240.000000 0 0 1
-16.874954 33.836932 11.695994 39.579013 -1.108178 1.270807 0.032571 -0.020992 208486.000000 0 0 1
-15.967954 34.097332 12.755894 39.753194 -1.132825 1.244141 0.039301 -0.028769 481117.000000 0 0 1
-14.625054 33.647532 12.564694 38.780409 -1.160777 1.240846 0.042807 -0.021047 -109037.000000 0 0 1
-13.821754 33.789332 13.823294 39.036435 -1.182507 1.208831 0.047164 -0.021364 -667194.000000 0 0 1
-14.167554 32.949832 14.962794 38.862530 -1.164721 1.175568 0.041499 -0.016251 -337997.000000 0 0 1
-13.653754 31.613232 14.980194 37.552998 -1.163096 1.160471 0.037356 -0.008148 -321607.000000 0 0 1
-14.325554 30.554732 14.110794 36.577693 -1.132379 1.174748 0.036641 -0.013974 -193997.000000 0 0 1
-14.049654 30.571432 12.705994 35.964531 -1.140014 1.209708 0.032552 -0.011195 674268.000000 0 0 1
-15.066354 29.884432 11.939994 35.533614 -1.103831 1.228109 0.023403 -0.011145 570346.000000 0 0 1
-14.731354 29.833032 10.395694 34.858185 -1.112126 1.267960 0.011539 -0.007262 -137131.000000 0 0 1
-13.818454 28.812932 10.085294 33.508922 -1.123608 1.265083 0.007587 -0.001780 37173.800000 0 0 1
-13.790254 28.647532 8.698694 32.962395 -1.122158 1.303736 0.011436 -0.004506 -839246.000000 0 0 1
-13.195254 27.294632 8.285594 31.428693 -1.120486 1.304011 0.026880 -0.009502 40342.300000 0 0 1
-11.801954 27.420532 8.104894 30.933170 -1.164356 1.305689 0.020565 -0.008287 70421.000000 0 0 1
-11.060354 26.199032 7.936594 29.524739 -1.171328 1.298637 0.030174 -0.012935 346239.000000 0 0 1
-10.046854 26.380832 6.787894 29.033826 -1.206916 1.334820 0.037462 -0.020310 -562856.000000 0 0 1
-10.664254 26.509332 5.556894 29.109278 -1.188323 1.378720 0.033800 -0.024484 -161419.000000 0 0 1
-9.801854 26.124932 4.543194 28.270639 -1.211858 1.409393 0.049861 -0.010947 -351814.000000 0 0 1
-10.147454 26.697732 3.147494 28.734064 -1.207574 1.461037 0.045979 -0.014850 25331.800000 0 0 1
-9.876254 28.089632 3.117494 29.938046 -1.232699 1.466476 0.044980 -0.011598 30905.400000 0 0 1
-9.991654 28.646732 1.842094 30.395094 -1.235201 1.510154 0.041287 -0.010547 82592.500000 0 0 1
-9.587454 30.120332 1.707994 31.655504 -1.262632 1.516814 0.049804 -0.020497 451653.000000 0 0 1
-10.601654 30.994832 2.220294 32.832977 -1.241225 1.503121 0.041307 -0.023007 232385.000000 0 0 1
-10.270654 32.403532 2.159994 34.060840 -1.263853 1.507338 0.047755 -0.015716 -250685.000000 0 0 1
-11.173054 33.345532 3.000094 35.295357 -1.247484 1.485694 0.050353 -0.008916 578487.000000 0 0 1
-12.414154 33.821632 2.489294 36.113856 -1.219016 1.501813 0.038515 -0.013814 190447.000000 0 0 1
-12.276754 -34.477993 1.291594 36.621290 1.228720 1.535520 0.028069 -0.010785 -354229.000000 0 0 1
-13.638354 -34.038793 0.690994 36.675900 1.189712 1.551955 0.027436 -0.008151 463143.000000 0 0 1
-14.371354 33.888732 0.138594 36.810341 -1.169710 1.567031 0.021184 -0.008519 57179.100000 0 0 1
-14.533854 33.804032 -1.256806 36.817456 -1.164745 1.604939 0.020016 -0.005174 -139829.000000 0 0 1
-13.228454 33.610932 -2.056306 36.178932 -1.195840 1.627664 0.018652 -0.006923 120823.000000 0 0 1
-12.870054 32.235932 -2.296006 34.785992 -1.190940 1.636848 0.018594 -0.004351 780321.000000 0 0 1
-11.454154 32.059132 -2.474806 34.133711 -1.227649 1.643363 0.012172 0.001012 1075790.000000 0 0 1
-10.974154 30.557332 -2.626306 32.574224 -1.226008 1.651509 -0.003273 -0.005981 41907.500000 0 0 1
-11.408254 29.949232 -3.843406 32.278112 -1.206846 1.690151 0.004282 -0.002675 -122527.000000 0 0 1
-10.356954 29.927832 -4.789506 32.029377 -1.237632 1.720894 0.009420 -0.000195 16139.100000 0 0 1
-10.650054 29.220932 -6.125706 31.698751 -1.221292 1.765267 0.015694 -0.001925 -263782.000000 0 0 1
-10.954954 27.878832 -6.001306 30.549238 -1.196383 1.768529 0.013114 -0.001647 -2614.760000 0 0 1
-10.855454 27.227432 -7.222006 30.188264 -1.191415 1.812371 0.013779 -0.001941 -221229.000000 0 0 1
-11.369954 25.796232 -7.179606 29.090689 -1.155653 1.820174 0.030523 -0.012802 352095.000000 0 0 1
-10.522154 24.859432 -6.479606 27.761347 -1.170395 1.806373 0.013012 -0.006754 278609.000000 0 0 1
-10.944054 23.565832 -6.766306 26.849649 -1.136029 1.825550 0.042554 -0.016131 -28888.800000 0 0 1
-10.371154 22.416132 -5.878406 25.388963 -1.137460 1.804450 0.033118 -0.013062 1070170.000000 0 0 1
-8.946254 22.192832 -5.966606 24.660852 -1.187608 1.815168 0.034457 -0.019402 917262.000000 0 1 0
-8.378154 21.144832 -5.228406 23.337387 -1.193547 1.796750 0.040212 -0.014738 -335573.000000 0 1 0
-8.263454 21.166332 -3.714806 23.023859 -1.198588 1.732851 0.024486 -0.013886 188351.000000 0 1 0
-9.530054 21.072232 -3.079406 23.331173 -1.146067 1.703169 0.030729 -0.015731 279336.000000 0 1 0
-10.126654 19.752632 -3.156706 22.420535 -1.097061 1.712061 0.034481 -0.015450 325349.000000 0 1 0
-11.416054 19.711432 -2.251306 22.889631 -1.045842 1.669310 0.031399 -0.014925 414211.000000 0 1 0
-11.256154 19.559232 -0.836006 22.582371 -1.048593 1.607825 0.022009 -0.023992 -34740.600000 0 1 0
-10.932454 18.254432 -0.429706 21.282093 -1.031191 1.590989 0.021116 -0.025296 -372190.000000 0 1 0
-10.598754 18.197532 1.087294 21.087104 -1.043398 1.519211 0.013318 -0.023778 200362.000000 0 1 0
-11.734854 18.708832 1.750794 22.153836 -1.010591 1.491685 0.027185 -0.015816 172671.000000 0 1 0
-11.419654 18.790932 3.115194 22.208378 -1.024719 1.430061 0.023786 -0.011872 951713.000000 0 1 0
-12.704154 18.834732 4.062594 23.079153 -0.977386 1.393846 0.035520 -0.018688 1012560.000000 0 1 0
-13.334954 17.603032 4.182094 22.476157 -0.922489 1.383638 0.011619 -0.013212 -556548.000000 0 1 0
-14.541154 17.577332 4.866194 23.325685 -0.879649 1.360633 0.027244 -0.024019 -426754.000000 0 1 0
-14.998454 16.118532 5.159794 22.613805 -0.821378 1.340599 0.012304 -0.022933 -235584.000000 0 1 0
-14.376254 15.479832 6.274294 22.037891 -0.822345 1.282098 0.017403 -0.020842 89576.900000 0 1 0
-14.987054 15.948832 7.442994 23.116556 -0.816478 1.242980 0.024079 -0.017728 -1222120.000000 0 1 0
-14.049254 15.837932 8.673094 22.878903 -0.845175 1.181987 0.014623 -0.005638 69713.400000 0 1 0
-13.031754 16.790232 8.619094 22.935285 -0.910768 1.185536 0.019304 -0.017382 323793.000000 0 1 0
-11.921854 16.373432 7.766194 21.691787 -0.941445 1.204645 0.012204 -0.010687 -107204.000000 0 1 0
-10.748854 17.386032 7.768694 21.866974 -1.017068 1.207593 0.021347 -0.012045 212034.000000 0 1 0
-9.821854 17.302832 8.836594 21.770214 -1.054508 1.152830 0.018801 -0.003297 -142790.000000 0 1 0
-9.086654 18.496132 8.838494 22.423050 -1.114155 1.165632 0.015732 -0.003926 294237.000000 0 1 0
-7.762754 18.488932 9.688594 22.270380 -1.173288 1.120709 0.016894 -0.001987 -40585.300000 0 1 0
-6.790954 17.673932 9.056294 20.988125 -1.203953 1.124646 0.007636 -0.001869 161631.000000 0 1 0
-5.476954 17.855032 9.581994 20.990803 -1.273162 1.096755 0.002705 -0.005431 572633.000000 0 1 0
-4.656754 19.079232 9.115794 21.651793 -1.331402 1.136229 0.002440 -0.003209 -1270400.000000 0 1 0
-5.113254 20.417532 9.358894 23.034971 -1.325409 1.152405 0.010211 -0.006700 -136670.000000 0 1 0
-4.477754 21.386432 8.520694 23.452761 -1.364404 1.198975 0.020299 -0.015255 1316000.000000 0 1 0
-2.949754 21.788832 8.666794 23.634034 -1.436235 1.195328 0.026160 -0.016317 1156260.000000 0 1 0
-2.002154 20.769032 8.414394 22.498074 -1.474692 1.187473 0.022310 -0.007079 303329.000000 0 1 0
-0.772354 21.439032 8.076294 22.922809 -1.534786 1.210741 0.026632 -0.013601 707028.000000 0 1 0
0.427346 20.488732 7.885694 21.958027 1.549942 1.203465 0.024912 -0.013264 137019.000000 0 1 0
0.824546 19.844032 9.068494 21.833531 1.529269 1.142472 0.024095 -0.015964 -380508.000000 0 1 0
2.029346 19.088332 9.013894 21.206908 1.464881 1.131785 0.012868 -0.025415 736860.000000 0 1 0
2.888346 19.106232 10.360794 21.925709 1.420759 1.078625 0.012519 -0.024099 199205.000000 0 1 0
4.043146 18.304632 10.390194 21.432749 1.353406 1.064683 0.026076 -0.015729 -310147.000000 0 1 0
4.673046 18.444332 11.630894 22.300414 1.322658 1.022124 0.021564 -0.010993 -1498890.000000 0 1 0
6.135846 18.780832 11.516494 22.869147 1.255020 1.043056 0.018770 -0.012703 -1047620.000000 0 1 0
6.846146 17.656532 10.955994 21.878223 1.200903 1.046306 0.012288 -0.013705 -166100.000000 0 1 0
7.551846 17.036732 12.016194 22.173623 1.153554 0.998084 0.012012 -0.002178 -704039.000000 0 1 0
8.750846 16.221532 11.496394 21.722856 1.076082 1.013103 0.007593 -0.003231 261309.000000 0 1 0
9.838646 17.003932 11.047794 22.538554 1.046253 1.058508 0.012614 -0.015821 -114980.000000 0 1 0
10.971146 16.335932 10.546594 22.326204 0.979389 1.078800 0.011389 -0.017676 194099.000000 0 1 0
11.763746 17.421432 9.757094 23.175265 0.976878 1.136234 0.018839 -0.016426 136482.000000 0 1 0
12.769946 16.829532 8.924794 22.933744 0.921698 1.171082 0.022696 -0.014016 465257.000000 0 1 0
13.483246 17.889632 8.203094 23.856396 0.924937 1.219779 0.034289 -0.008064 258681.000000 0 1 0
14.597546 17.344732 7.324794 23.823952 0.871192 1.258279 0.044820 -0.015709 -364378.000000 0 1 0
15.744846 16.831832 7.925894 24.372742 0.818753 1.239578 0.055210 -0.012660 -96785.800000 0 1 0
16.825346 16.643432 7.037794 24.690619 0.779963 1.281749 0.072484 -0.008371 1424480.000000 0 1 0
18.245246 16.554032 7.757094 25.828231 0.736837 1.265754 0.061185 -0.005145 1044250.000000 0 0 1
18.423846 15.431332 8.565094 25.513231 0.697236 1.228435 0.060639 -0.004850 83853.100000 0 0 1
19.604246 15.581032 9.321194 26.720398 0.671549 1.214461 0.063183 -0.002876 -95431.900000 0 0 1
19.796946 14.480632 10.437494 26.656126 0.631528 1.168469 0.044892 -0.001861 -183007.000000 0 0 1
20.258046 13.336732 9.826694 26.169081 0.582218 1.185852 0.043056 -0.005472 130137.000000 0 0 1
20.148346 12.172232 10.672394 25.846065 0.543451 1.145137 0.036708 -0.014924 -483974.000000 0 0 1
21.004946 11.021132 10.177394 25.811867 0.483206 1.165500 0.030892 -0.010233 -663925.000000 0 0 1
22.399246 11.267932 10.277594 27.098367 0.466084 1.181789 0.027741 -0.013544 927558.000000 0 0 1
23.180746 10.399832 9.411594 27.093940 0.421723 1.216032 0.041754 -0.013627 60929.800000 0 0 1
23.280146 8.876732 9.743194 26.752410 0.364283 1.198024 0.048573 -0.022676 -731002.000000 0 0 1
22.107746 8.118432 9.483194 25.388823 0.351933 1.187997 0.050639 -0.024832 372200.000000 0 0 1
22.087746 6.728932 9.848794 25.102705 0.295713 1.167622 0.065756 -0.032345 118874.000000 0 0 1
23.248246 5.813632 9.274294 25.696144 0.245042 1.201540 0.065876 -0.024535 666792.000000 0 0 1
23.233546 5.712132 7.880294 25.189783 0.241076 1.252618 0.062034 -0.018393 430287.000000 0 0 1
24.477046 5.215332 7.417794 26.102666 0.209931 1.282648 0.069344 -0.015493 128249.000000 0 0 1
24.333646 4.781532 5.930094 25.498145 0.194027 1.336077 0.081200 -0.020053 -88130.500000 0 0 1
23.361346 3.768432 5.773294 24.357432 0.159933 1.331495 0.074878 -0.017277 562273.000000 0 1 0
23.036846 3.570232 4.375694 23.718970 0.153756 1.385253 0.068809 -0.015431 -249301.000000 0 1 0
22.012246 2.452632 4.174594 22.538448 0.110964 1.384500 0.052183 -0.011258 -282451.000000 0 1 0
22.533846 1.136832 4.411994 22.989831 0.050407 1.377688 0.060734 -0.012682 739964.000000 0 1 0
21.649146 0.134332 3.902994 21.998567 0.006205 1.392432 0.044513 -0.013199 -109695.000000 0 1 0
22.147346 -1.313768 4.233294 22.586538 -0.059250 1.382256 0.049431 -0.014756 -472202.000000 0 1 0
22.104546 -1.602568 5.613394 22.862401 -0.072373 1.322730 0.045969 -0.016826 633230.000000 0 1 0
22.356746 -2.969568 5.898994 23.311812 -0.132054 1.314967 0.042530 -0.016510 -415672.000000 0 1 0
22.099346 -3.363668 7.379794 23.540534 -0.151047 1.251927 0.054251 -0.014931 -89254.500000 0 1 0
22.276546 -4.728368 7.574494 23.999478 -0.209154 1.249696 0.049814 -0.019610 493891.000000 0 1 0
22.206146 -5.156168 8.898294 24.471997 -0.228153 1.198655 0.059490 -0.019643 -54991.800000 0 1 0
22.010246 -6.688068 9.026994 24.711694 -0.294996 1.196849 0.063832 -0.023315 432532.000000 0 1 0
20.686146 -7.087068 8.695494 23.531995 -0.330067 1.192306 0.060917 -0.025764 529829.000000 0 1 0
20.495546 -8.459268 8.938594 23.906591 -0.391438 1.187589 0.065901 -0.029051 -299012.000000 0 1 0
-25.865314 -33.184593 5.156094 42.388878 0.908720 1.448856 0.013773 -0.015291 447256.000000 0 0 1
-26.606154 -34.206093 5.895794 43.734479 0.909727 1.435576 0.014244 -0.006477 518526.000000 0 0 1
-26.559924 -33.951693 7.306194 43.721019 0.906951 1.402899 0.022217 0.000404 -72880.600000 0 0 1
-27.319214 33.915232 7.960294 44.271308 -0.892702 1.390006 0.037087 0.002709 188759.000000 0 0 1
-28.719904 33.945932 7.755394 45.136519 -0.868601 1.398119 0.032483 -0.001566 -245937.000000 0 0 1
-29.241484 32.650732 7.834894 44.525501 -0.840426 1.393911 0.035229 -0.006723 -736460.000000 0 0 1
-30.755394 32.679832 7.784294 45.546250 -0.815726 1.399043 0.029527 -0.005792 -958076.000000 0 0 1
-31.324034 32.902032 6.542694 45.897120 -0.809963 1.427758 0.018627 -0.004978 1141780.000000 0 0 1
-32.763964 32.713132 6.699394 46.781494 -0.784622 1.427096 0.012461 -0.003716 1509110.000000 0 0 1
-33.527614 32.794032 5.354494 47.204025 -0.774338 1.457119 0.011663 -0.005808 -289476.000000 0 0 1
-33.262604 31.631332 4.673494 46.138742 -0.760266 1.469330 0.006228 -0.003444 287716.000000 0 0 1
-33.871824 31.551532 3.372894 46.413102 -0.749947 1.498061 0.007544 0.001167 -237471.000000 0 0 1
-33.634564 30.250332 2.546994 45.308428 -0.732474 1.514552 0.002387 -0.002515 -225239.000000 0 0 1
-33.985434 29.120432 3.274994 44.874657 -0.708458 1.497750 0.007471 -0.006651 318152.000000 0 0 1
-33.603524 27.987632 2.469094 43.801835 -0.694469 1.514397 -0.002880 -0.002464 -287513.000000 0 0 1
-33.782334 26.650632 3.221794 43.149533 -0.667931 1.496061 0.008608 -0.001223 -1019640.000000 0 0 1
-35.120314 26.309632 3.298694 44.005847 -0.642943 1.495766 0.006730 0.001548 -1057990.000000 0 0 1
-35.347842 25.216332 4.165594 43.619783 -0.619647 1.475153 0.010883 0.001041 242371.000000 0 0 1
34.122329 24.709032 3.942494 42.313270 0.626738 1.477487 0.025406 -0.002641 -152995.000000 0 0 1
33.857329 23.952932 2.751394 41.564791 0.615720 1.504553 0.017406 -0.007697 88153.700000 0 0 1
34.207979 22.585832 2.964794 41.098609 0.583547 1.498595 0.013187 -0.004508 -222934.000000 0 0 1
33.433129 21.556832 2.053794 39.833267 0.572693 1.519214 0.020205 -0.003193 1588910.000000 0 0 1
32.070479 21.238632 2.484594 38.545665 0.584938 1.506293 0.019513 -0.017079 1704860.000000 0 0 1
31.954559 20.283432 3.533794 38.013144 0.565586 1.477699 0.008902 -0.007065 -342255.000000 0 0 1
32.190969 18.845332 3.068294 37.427523 0.529632 1.488725 0.005389 -0.005250 -690714.000000 0 0 1
31.262949 18.369332 2.139294 36.323283 0.531233 1.511866 0.006072 -0.019283 145142.000000 0 0 1
31.658109 17.106132 1.696794 36.024085 0.495396 1.523677 -0.000781 -0.012770 -236948.000000 0 0 1
31.301999 15.886532 2.688394 35.205461 0.469649 1.494359 -0.003377 -0.008299 179789.000000 0 0 1
29.886529 15.907132 2.824594 33.973810 0.489114 1.487560 -0.009556 -0.008979 293054.000000 0 0 1
29.427959 14.903632 3.663294 33.189497 0.468790 1.460196 -0.005541 -0.011492 -88328.800000 0 0 1
27.896219 14.961632 3.868094 31.890620 0.492289 1.449204 -0.009777 -0.006823 63095.500000 0 0 1
27.185379 14.711732 2.672594 31.026161 0.496034 1.484549 0.003049 -0.015560 -271349.000000 0 0 1
25.823239 15.027832 2.805694 30.009121 0.527042 1.477165 -0.004198 -0.007212 -75038.200000 0 0 1
24.995539 14.457632 1.594194 28.919570 0.524392 1.515643 0.020241 -0.020558 -204321.000000 0 0 1
25.254639 14.982132 0.304094 29.365857 0.535436 1.560441 0.026970 -0.022198 464440.000000 0 0 1
26.443369 14.438932 -0.262006 30.129772 0.499792 1.579492 0.029349 -0.020684 -730251.000000 0 0 1
26.897619 15.127332 -1.574906 30.899812 0.512317 1.621787 0.046197 -0.022892 -88958.500000 0 0 1
27.296109 16.491932 -1.493406 31.926347 0.543492 1.617590 0.029784 -0.025392 448162.000000 0 0 1
28.283729 16.756432 -0.507606 32.878640 0.534843 1.586236 0.026691 -0.027208 -787355.000000 0 0 1
28.872209 18.194832 -0.652206 34.133294 0.562319 1.589905 0.032672 -0.018656 -511230.000000 0 0 1
29.866629 18.196532 -1.639306 35.011664 0.547200 1.617635 0.026985 -0.011150 77983.300000 0 0 1
30.679129 19.364832 -1.683406 36.318584 0.563049 1.617164 0.023707 0.001671 150198.000000 0 0 1
30.046389 20.593932 -2.332006 36.501148 0.600863 1.634728 0.028400 0.002898 -609817.000000 0 0 1
30.969419 21.628132 -2.348106 37.846989 0.609632 1.632878 -0.004188 0.014953 121301.000000 0 0 1
30.410069 22.681632 -3.097006 38.063370 0.640846 1.652251 0.015492 0.012486 171215.000000 0 0 1
31.446359 23.842832 -3.320906 39.602810 0.648733 1.654750 -0.007339 0.013590 370757.000000 0 0 1
31.686029 24.682032 -2.226806 40.226432 0.661777 1.626181 -0.006539 0.014564 76476.900000 0 0 1
32.764049 24.166932 -1.468706 40.739178 0.635521 1.606856 0.005834 0.023858 -239453.000000 0 0 1
33.018539 24.871032 -0.103706 41.337669 0.645574 1.573305 0.002443 0.004590 144141.000000 0 0 1
33.383449 26.204532 -0.408906 42.441717 0.665500 1.580431 0.013715 0.007056 158256.000000 0 0 1
34.390499 26.757732 0.428094 43.575979 0.661216 1.560972 0.010082 0.005615 76794.500000 0 0 1
34.606629 28.233632 -0.058906 44.662739 0.684328 1.572115 -0.004054 -0.007520 17976.700000 0 0 1
35.338616 28.294932 -1.261406 45.288101 0.675156 1.598653 -0.015760 -0.003103 -95485.400000 0 0 1
34.442469 28.471932 -2.318806 44.747195 0.690782 1.622640 -0.019873 0.002060 -127432.000000 0 0 1
34.858073 27.929032 -3.708406 44.820401 0.675485 1.653630 -0.016382 0.001502 211744.000000 0 0 1
-35.158843 28.780632 -4.429606 45.651839 -0.685973 1.667979 -0.017470 0.003241 194474.000000 0 0 1
-34.738506 28.327432 -5.709306 45.186318 -0.684090 1.697485 -0.009706 -0.001123 -142266.000000 0 0 1
35.166579 28.133132 -6.863106 45.555061 0.674739 1.722027 -0.022304 0.006061 -294372.000000 0 0 1
34.183309 27.182432 -6.656706 44.177992 0.671805 1.722052 -0.019191 0.012340 285866.000000 0 0 1
32.905379 27.452932 -7.268906 43.465670 0.695308 1.738819 -0.026642 0.010456 1523630.000000 0 0 1
31.762089 26.428032 -6.930106 41.896271 0.693988 1.736971 -0.021549 0.014528 -12809.900000 0 0 1
31.960569 25.054432 -7.211406 41.245690 0.664857 1.746540 -0.021730 0.012715 -1046950.000000 0 0 1
33.074549 24.452132 -6.651906 41.666298 0.636620 1.731130 -0.015173 0.013039 -527772.000000 0 0 1
33.209889 22.941632 -6.962406 40.959618 0.604530 1.741608 -0.006714 0.014018 314653.000000 0 0 1
32.287149 22.132632 -6.252206 39.640932 0.600924 1.729179 -0.006431 0.021149 215914.000000 0 0 1
32.702019 20.807632 -6.423506 39.289197 0.566669 1.735027 0.016984 0.017740 -115287.000000 0 0 1
31.710009 19.731632 -5.909206 37.812441 0.556621 1.727716 0.029537 0.008432 -371665.000000 0 0 1
30.512979 19.852032 -6.629606 37.001307 0.576804 1.750941 0.017060 0.004481 -166954.000000 0 0 1
29.516089 19.010832 -6.038306 35.624042 0.572205 1.741120 0.057177 -0.008220 -177326.000000 0 0 1
28.262319 18.892332 -6.881006 34.684681 0.589246 1.770509 0.039352 -0.008448 -500164.000000 0 0 1
28.385659 18.004832 -7.989906 34.550806 0.565254 1.804160 0.032486 -0.008148 352824.000000 0 0 1
27.069249 17.878232 -8.510506 33.538100 0.583695 1.827358 0.042623 -0.011031 386843.000000 0 0 1
27.139699 16.940032 -9.771706 33.451669 0.558009 1.867233 0.045640 -0.011382 -535443.000000 0 0 1
26.058939 16.948932 -10.638506 32.855934 0.576662 1.900532 0.049893 -0.012954 -448800.000000 0 0 1
26.262869 16.029632 -11.684306 32.912162 0.547998 1.933726 0.046957 -0.014154 -164574.000000 0 0 1
25.376739 16.213332 -12.922306 32.769452 0.568536 1.976146 0.047015 -0.007968 -376780.000000 0 0 1
24.045239 15.765432 -12.765906 31.459350 0.580342 1.988640 0.033798 -0.009452 276907.000000 0 0 1
23.304139 15.927932 -13.984506 31.501561 0.599553 2.030777 0.030303 -0.009927 -97953.200000 0 0 1
23.175039 14.562832 -14.742806 31.088725 0.561029 2.064871 0.029168 -0.015688 -245236.000000 0 0 1
24.378539 13.948232 -15.183606 31.928173 0.519691 2.066391 0.036724 -0.019826 322703.000000 0 0 1
24.831039 14.455932 -16.433906 33.100268 0.527207 2.090345 0.038126 -0.017948 -802239.000000 0 0 1
26.125449 13.769232 -16.861806 34.006637 0.485047 2.089597 0.050605 -0.015179 -450249.000000 0 0 1
26.048909 12.387632 -17.251806 33.609878 0.443899 2.109817 0.051130 -0.015040 163896.000000 0 0 1
27.302719 11.814732 -17.596106 34.563699 0.408401 2.104926 0.040257 -0.009858 155593.000000 0 0 1
27.248499 10.334232 -17.997006 34.251559 0.362499 2.124024 0.038640 -0.002163 -315288.000000 0 0 1
26.636179 10.187632 -19.259806 34.412411 0.365307 2.164791 0.027426 -0.006135 253817.000000 0 0 1
27.191589 9.108232 -20.003706 34.964134 0.323218 2.179886 0.012409 -0.002916 565010.000000 0 0 1
28.662409 9.155532 -20.523706 36.422245 0.309183 2.169405 0.004033 0.001431 -230447.000000 0 0 1
28.915499 10.116432 -21.592106 37.478892 0.336552 2.184762 0.005108 -0.002094 46470.700000 0 0 1
29.572619 9.617132 -22.715906 38.510277 0.314416 2.201689 -0.021251 0.008290 -595945.000000 0 0 1
31.038019 9.171332 -22.702106 39.532993 0.287311 2.182493 -0.024939 0.009689 -1172980.000000 0 0 1
31.913969 10.233532 -22.647706 40.449291 0.310301 2.165066 -0.020709 0.011263 -272860.000000 0 0 1
33.214189 9.686632 -22.892306 41.485791 0.283771 2.155330 -0.030766 0.014246 -250493.000000 0 0 1
34.292359 10.643932 -22.447806 42.345757 0.300959 2.129524 -0.007503 0.009973 -776222.000000 0 0 1
34.252929 10.888332 -21.058706 41.656788 0.307779 2.100791 -0.007593 0.007225 164150.000000 0 0 1
35.087587 12.000732 -20.825906 42.530867 0.329550 2.082503 -0.021545 0.015324 -39974.200000 0 0 1
34.666459 12.803932 -19.587606 41.825571 0.353805 2.058181 -0.028608 0.016955 -84576.600000 0 0 1
35.223531 12.169432 -18.490906 41.601752 0.332653 2.031384 -0.026595 0.015674 141612.000000 0 0 1
34.727859 12.770532 -17.355406 40.869558 0.352383 2.009376 -0.014514 0.007567 -145532.000000 0 0 1
35.446985 12.340332 -16.056306 40.823737 0.335012 1.975023 -0.022323 0.009664 -499846.000000 0 0 1
35.042553 11.016932 -15.772106 39.976401 0.304603 1.976359 -0.014873 0.004466 413996.000000 0 0 1
-35.103896 10.529532 -14.707906 39.490214 -0.291414 1.952438 0.000037 -0.007729 -31450.500000 0 0 1
35.360413 9.105132 -14.250506 39.196162 0.252020 1.942892 0.010020 -0.011993 618587.000000 0 0 1
34.044599 9.043432 -13.698406 37.795035 0.259639 1.941680 0.021122 -0.001335 830523.000000 0 0 1
34.101019 8.659332 -12.336306 37.283347 0.248676 1.908032 0.021525 -0.003601 -903356.000000 0 0 1
32.840709 9.097632 -11.614006 36.002281 0.270246 1.899262 0.036288 -0.007986 -725779.000000 0 0 1
32.624099 10.493632 -11.465906 36.137448 0.311201 1.893663 0.027967 -0.011476 72972.200000 0 0 1
31.611169 10.857732 -10.547006 35.048476 0.330853 1.876460 0.023865 -0.009182 -554410.000000 0 0 1
31.915309 10.568032 -9.055306 34.817651 0.319764 1.833899 0.039092 -0.011209 254468.000000 0 0 1
33.044039 11.234532 -8.459506 35.912205 0.327727 1.808592 0.028534 -0.005701 547858.000000 0 0 1
32.829689 12.581132 -8.140806 36.088032 0.365961 1.798337 0.027102 -0.007257 -699107.000000 0 0 1
32.475209 12.906632 -6.684406 35.579511 0.378289 1.759792 0.022867 -0.002306 80942.300000 0 0 1
33.592729 12.606532 -5.853606 36.354653 0.359012 1.732514 0.034994 0.000173 544126.000000 0 0 1
33.358369 12.777732 -4.475606 36.001143 0.365804 1.695437 0.040036 0.001118 -476896.000000 0 0 1
34.645779 12.642132 -3.665406 37.061958 0.349884 1.669858 0.051866 0.003918 336567.000000 0 0 1
-35.324710 13.738632 -3.872706 38.099645 -0.370922 1.672619 0.038761 0.015812 621497.000000 0 0 1
-34.162145 13.428232 -3.117906 36.838714 -0.374521 1.655534 0.028014 0.000535 -103130.000000 0 0 1
-33.067774 14.525432 -3.225506 36.261132 -0.413889 1.659866 0.022797 0.000984 147107.000000 0 0 1
-33.376904 15.682232 -2.515406 36.963189 -0.439240 1.638901 0.040759 -0.001831 352126.000000 0 0 1
-32.303644 16.607432 -2.586706 36.414602 -0.474867 1.641891 0.029116 0.004940 173152.000000 0 0 1
-32.481014 17.736132 -1.559206 37.040758 -0.499803 1.612903 0.028665 0.011674 -346468.000000 0 0 1
-33.609894 18.510432 -1.824906 38.413426 -0.503414 1.618321 0.010089 0.014668 -240341.000000 0 0 1
-33.982214 19.249032 -0.695506 39.061488 -0.515381 1.588603 -0.009552 0.018322 -46218.300000 0 0 1
-35.251161 20.137732 -0.747806 40.604578 -0.519022 1.589214 -0.015914 0.028240 75500.600000 0 0 1
-35.214741 21.347832 -1.483306 41.206894 -0.544979 1.606801 -0.003518 0.025730 -115042.000000 0 0 1
-35.283954 21.185232 -2.909706 41.258185 -0.540729 1.641379 -0.035206 0.033579 -68113.800000 0 0 1
-35.141243 22.550832 -3.693806 41.917672 -0.570532 1.659031 -0.003289 -0.003506 -549845.000000 0 0 1
-33.784154 22.774232 -3.873606 40.927247 -0.593138 1.665584 0.009324 0.011122 -831806.000000 0 0 1
-33.520284 23.987032 -4.592406 41.473815 -0.621118 1.681754 0.015456 -0.002703 233260.000000 0 0 1
-32.061574 24.248332 -5.024606 40.511391 -0.647524 1.695146 0.022823 -0.006646 142275.000000 0 0 1
-31.606154 23.368832 -6.033906 39.767566 -0.636667 1.723114 0.017626 -0.003256 -414261.000000 0 0 1
-30.312474 23.725932 -6.449906 39.030337 -0.664110 1.736812 0.022783 0.000147 -344988.000000 0 0 1
-29.852394 22.944232 -7.659806 38.422335 -0.655293 1.771499 0.024221 -0.015997 -269428.000000 0 0 1
-30.676004 23.094832 -8.776506 39.388012 -0.645331 1.795504 0.024532 -0.025871 -369091.000000 0 0 1
-30.027994 22.696532 -9.974306 38.939694 -0.647232 1.829831 0.002842 -0.021295 172333.000000 0 0 1
-30.925584 22.661532 -11.258106 39.958500 -0.632386 1.856409 0.003519 -0.011966 -99806.900000 0 0 1
-31.319724 23.971632 -11.691006 41.136892 -0.653275 1.858966 0.018754 -0.018455 -47741.400000 0 0 1
-31.947844 23.874232 -12.938006 41.928936 -0.641763 1.884485 0.008915 -0.011672 -612148.000000 0 0 1
-32.515574 25.254732 -13.400706 43.297147 -0.660369 1.885469 0.034158 -0.015844 -196408.000000 0 0 1
-31.587954 26.297632 -13.506406 43.264157 -0.694259 1.888288 0.022986 -0.010624 -266014.000000 0 0 1
-30.684214 26.205632 -14.590506 42.908495 -0.706836 1.917753 0.012705 -0.009508 -4504.940000 0 0 1
-29.273484 26.765232 -14.317606 42.169993 -0.740669 1.917204 0.005885 -0.001352 -1782.490000 0 0 1
-28.316654 26.072332 -13.547506 40.806057 -0.744157 1.909217 0.017163 -0.008380 92575.500000 0 0 1
-28.640594 25.823132 -12.142206 40.429580 -0.733713 1.875835 0.026636 -0.010534 -618953.000000 0 0 1
-28.987874 27.087532 -11.272706 41.244456 -0.751522 1.847633 0.031260 -0.001614 -382977.000000 0 0 1
-27.856354 27.840832 -10.989306 40.888302 -0.785119 1.842906 0.029893 0.005115 -412446.000000 0 0 1
-28.150994 28.825132 -9.997906 41.512947 -0.797230 1.814026 0.022567 -0.005503 333085.000000 0 0 1
-26.978744 29.833932 -9.830606 41.407209 -0.835612 1.810498 0.036562 -0.009015 315714.000000 0 0 1
-27.215234 31.001832 -9.096806 42.243750 -0.850349 1.787837 0.027559 -0.011068 -278590.000000 0 0 1
-26.019014 31.711032 -8.825806 41.957997 -0.883678 1.782728 0.047549 -0.013353 -234283.000000 0 0 1
33.723349 -24.897268 33.596362 53.720143 -0.635958 0.895157 0.011791 0.001644 -558952.000000 0 0 1
33.304959 -23.648468 34.087369 53.201683 -0.617445 0.875361 0.008279 -0.008147 280172.000000 0 0 1
32.149739 -23.796968 -33.954806 52.467421 -0.637194 2.274649 -0.009422 -0.000109 402697.000000 0 0 1
31.681609 -22.408768 -33.423396 51.215238 -0.615616 2.281816 -0.014476 -0.003779 19126.400000 0 0 1
31.154409 -21.657068 34.380626 51.202082 -0.607465 0.834607 -0.018626 -0.003592 -23809.300000 0 0 1
30.806799 -20.338968 -34.046896 50.218757 -0.583520 2.315796 -0.022232 0.008369 161937.000000 0 0 1
30.518679 -19.494868 33.566709 49.377764 -0.568451 0.823315 -0.020774 0.009112 961836.000000 0 0 1
31.700389 -19.392068 32.721178 49.514063 -0.549000 0.848851 -0.005665 -0.002999 1131440.000000 0 0 1
31.418169 -18.678368 31.543458 48.280146 -0.536372 0.858806 0.002178 0.003495 -199991.000000 0 0 1
32.671149 -18.519868 30.659368 48.480783 -0.515693 0.886146 -0.003542 0.006084 564799.000000 0 0 1
33.604559 -17.476868 31.066658 48.988208 -0.479578 0.883867 -0.002685 -0.007164 974158.000000 0 0 1
34.619539 -17.315668 30.076438 49.019761 -0.463784 0.910239 0.019036 -0.006874 -123203.000000 0 0 1
-35.300871 -16.212568 30.457488 49.362510 0.430535 0.905850 0.024647 -0.008278 -636035.000000 0 0 1
-34.368391 -15.896368 29.421788 47.953336 0.433224 0.910247 0.032886 -0.008990 273719.000000 0 0 1
-33.236874 -15.281968 29.976788 47.295202 0.430965 0.884310 0.030497 -0.013747 -303153.000000 0 0 1
-32.078404 -16.169468 30.479698 47.111439 0.466891 0.867192 0.039211 -0.012251 -1085300.000000 0 0 1
-31.092874 -15.317368 30.979488 46.487818 0.457736 0.841426 0.035934 -0.008548 -353674.000000 0 0 1
-30.020094 -16.069068 31.516298 46.397177 0.491469 0.824026 0.036822 -0.011459 -125976.000000 0 0 1
-29.060544 -15.107768 32.261218 45.973319 0.479419 0.792962 0.031262 -0.007551 -186111.000000 0 0 1
-29.572734 -14.347068 33.365495 46.836324 0.451693 0.777905 0.036849 -0.011253 157552.000000 0 0 1
-28.544744 -13.580368 33.952898 46.389957 0.444066 0.749687 0.030388 -0.011459 -114034.000000 0 0 1
-28.856724 -12.961068 -33.525416 46.093962 0.422149 2.385216 0.022729 -0.001288 -204100.000000 0 0 1
-28.747214 -13.934268 -32.504906 45.575597 0.451347 2.364861 0.039679 0.001674 165553.000000 0 0 1
-28.894144 -13.239768 -31.284506 44.596898 0.429666 2.348290 0.040811 0.006235 -268868.000000 0 0 1
-28.995134 -14.220168 -30.066336 44.123866 0.455965 2.320480 0.048801 0.007189 114546.000000 0 0 1
-30.246164 -14.881068 -30.020676 45.138870 0.457226 2.298389 0.046225 0.004939 -23283.200000 0 0 1
-30.431624 -15.460068 -28.758986 44.633807 0.470048 2.270946 0.052823 -0.004834 143352.000000 0 0 1
-31.724804 -16.293868 -28.826406 45.857551 0.474469 2.250558 0.040402 -0.011329 -339317.000000 0 0 1
-31.613394 -17.481468 -29.556446 46.675388 0.505126 2.256521 0.048477 -0.004949 -104062.000000 0 0 1
-32.774384 -18.245968 -29.563606 47.760678 0.507984 2.238258 0.030111 -0.005403 -465543.000000 0 0 1
-32.417194 -19.571268 -30.254746 48.469151 0.543158 2.244911 0.027753 -0.009045 -113053.000000 0 0 1
-33.559094 -20.313568 -30.576326 49.736963 0.544313 2.232879 0.003095 -0.008490 -143816.000000 0 0 1
-33.224854 -21.483668 -31.297506 50.447723 0.573991 2.240042 0.002700 -0.001666 -576717.000000 0 0 1
-34.453578 -22.311568 -31.584126 51.792008 0.574675 2.226638 0.007629 -0.003488 -471587.000000 0 0 1
-35.118749 -22.874068 -30.449126 51.804428 0.577313 2.199097 -0.011477 0.004352 556592.000000 0 0 1
34.778779 -23.838868 -30.809366 52.221376 -0.600889 2.201826 -0.002030 0.002624 449232.000000 0 0 1
35.206648 -25.277348 -31.257216 53.436560 -0.622685 2.195603 -0.007269 0.007461 -527191.000000 0 0 1
-34.943382 -25.338268 -32.405306 53.973805 0.627389 2.214784 0.008036 -0.001241 -355839.000000 0 0 1
-34.267426 -26.612458 -32.460466 54.186356 0.660316 2.213113 -0.002366 0.000469 211003.000000 0 0 1
-34.641199 -27.351468 -33.790866 55.587211 0.668345 2.224196 0.013715 -0.012883 -201303.000000 0 0 1
34.989858 -27.900818 -33.799996 56.081954 -0.673152 2.217663 0.020714 -0.007812 -890541.000000 0 0 1
34.818999 -29.023158 34.139342 56.746816 -0.694862 0.925284 0.018968 -0.008376 -164593.000000 0 0 1
35.409199 -30.359308 -34.281504 57.885408 -0.708766 2.204621 0.016789 -0.008443 -233715.000000 0 0 1
34.875753 -30.885868 -33.123366 57.161284 -0.724801 2.188877 0.020082 -0.011276 -442382.000000 0 0 1
-35.075278 -31.639958 -32.416636 57.290491 0.733951 2.172235 0.020136 -0.015241 -39873.000000 0 0 1
-35.415204 -32.088758 -30.919916 56.920701 0.736160 2.145052 0.009208 -0.016230 158679.000000 0 0 1
34.521159 -33.120058 -30.824946 56.910684 -0.764687 2.143180 0.014130 -0.010653 277597.000000 0 0 1
34.258539 -33.480318 -29.479086 56.245850 -0.773910 2.122468 0.010973 -0.006123 52021.800000 0 0 1
33.046909 -34.420001 -29.332236 56.010845 -0.805747 2.121971 0.010382 -0.005877 -219796.000000 0 0 1
31.792319 -33.917188 -29.712086 55.171870 -0.817724 2.139496 0.017769 -0.004700 -386821.000000 0 0 1
30.832899 34.107980 -29.427436 54.589339 0.835787 2.140128 0.025229 -0.004326 736988.000000 0 0 1
29.413209 34.461427 -29.981656 54.328874 0.864267 2.155383 0.027065 0.003505 407618.000000 0 0 1
29.273879 34.051527 -31.343756 54.762191 0.860701 2.180179 0.030648 0.006462 116516.000000 0 0 1
28.072749 -34.519887 -31.937916 54.769812 -0.888038 2.193372 0.029833 0.009124 178502.000000 0 0 1
27.822239 34.107165 -33.356096 55.226849 0.886537 2.219286 0.027296 -0.006451 -87425.700000 0 0 1
27.648659 32.732207 -33.416726 54.337126 0.869391 2.233168 0.018207 -0.000202 65326.300000 0 0 1
27.296309 32.253017 34.165228 54.337910 0.868444 0.890845 0.019674 -0.007241 -72173.100000 0 0 1
27.338449 30.733027 33.951146 53.334699 0.843787 0.880757 0.010268 -0.004369 -196083.000000 0 0 1
28.586999 30.085087 34.012919 53.658249 0.810926 0.884236 0.022463 0.000971 -590538.000000 0 0 1
28.416609 28.675267 34.109020 52.850732 0.789929 0.869270 0.021510 -0.005277 572549.000000 0 0 1
29.763809 27.959967 -34.432013 53.415425 0.754159 2.271307 0.037104 -0.010125 535905.000000 0 0 1
30.325499 28.294717 -33.162596 53.103528 0.750769 2.245274 0.035056 -0.007382 -230527.000000 0 0 1
31.433009 27.457937 -32.941596 53.170679 0.718002 2.238958 0.038152 -0.008632 32593.900000 0 0 1
32.167239 27.638807 -31.567276 52.868969 0.709824 2.210659 0.029399 -0.005911 -232452.000000 0 0 1
33.087259 28.717637 -31.553446 53.991567 0.714815 2.194954 0.018599 0.002801 -170120.000000 0 0 1
32.634099 30.035927 -31.400676 54.342836 0.743964 2.186858 0.021706 -0.001194 -141477.000000 0 0 1
31.656899 30.418937 -30.242536 53.311181 0.765458 2.173999 0.023344 0.001865 344723.000000 0 0 1
32.237089 30.417167 -28.928716 52.927352 0.756359 2.149064 0.013658 -0.001838 -113213.000000 0 0 1
31.293689 30.861127 -27.960336 52.091118 0.778439 2.137387 0.016202 0.004263 99510.600000 0 0 1
31.959509 31.249887 -26.620316 52.025060 0.774172 2.107938 0.013922 0.003596 48819.700000 0 0 1
32.526559 32.566497 -26.598146 53.160278 0.786012 2.094786 0.010341 0.003559 211595.000000 0 0 1
32.939949 32.853337 -25.263476 52.939826 0.784082 2.068275 0.002307 0.001086 -291874.000000 0 0 1
33.187599 34.372056 -25.091136 53.966842 0.802928 2.054359 0.008944 0.002604 199320.000000 0 0 1
31.950219 -33.970408 -24.982906 52.905110 -0.816034 2.062605 0.021975 0.007237 461481.000000 0 0 1
32.081479 -32.580808 -24.842206 52.037155 -0.793120 2.068482 0.011504 0.005881 -1048350.000000 0 0 1
32.320659 -31.896368 -26.193516 52.422357 -0.778791 2.094006 0.009349 0.007945 293750.000000 0 0 1
33.602779 -31.854008 -26.813396 53.504979 -0.758688 2.095710 0.010884 0.003561 488618.000000 0 0 1
34.586629 -31.212888 -26.002096 53.353428 -0.734170 2.079855 0.014002 0.002391 136027.000000 0 0 1
-34.822389 -31.545388 -26.265426 53.829201 0.736062 2.080525 -0.008566 0.000458 412157.000000 0 0 1
-34.489410 -32.883998 -25.857076 54.216834 0.761574 2.067943 -0.008216 -0.005858 -143200.000000 0 0 1
-34.271363 -33.135028 -24.485406 53.590965 0.768542 2.045297 0.000715 -0.008063 249903.000000 0 0 1
-32.934234 -32.585368 -23.862106 52.114010 0.780074 2.046408 -0.012862 -0.000671 610331.000000 0 0 1
-32.918994 -31.161868 -23.879106 51.234108 0.757985 2.055649 -0.015986 -0.007600 -348397.000000 0 0 1
-32.412264 -30.738198 -22.599106 50.061075 0.758895 2.039164 0.004216 -0.013665 -598230.000000 0 0 1
-32.518604 -29.223078 -22.406506 49.127379 0.732073 2.044393 0.006566 -0.006253 -398558.000000 0 0 1
-33.828614 -28.755708 -22.463806 49.758300 0.704518 2.039196 -0.006492 0.000327 -811835.000000 0 0 1
-34.082166 -28.355268 -23.802306 50.320622 0.693932 2.063504 0.009070 -0.007347 -290188.000000 0 0 1
-35.191809 -27.357028 -24.151406 50.696753 0.660789 2.067340 -0.005655 0.001333 -178722.000000 0 0 1
-34.923174 -26.072448 -23.686806 49.603078 0.641300 2.068634 -0.014602 0.005481 -347081.000000 0 0 1
35.438715 -25.048288 -24.491706 49.831345 -0.615279 2.084598 -0.010161 0.014068 -293787.000000 0 0 1
-34.957013 -24.702668 -25.926876 50.044155 0.615181 2.115401 -0.011727 0.011323 65457.700000 0 0 1
-33.906444 -23.732868 -25.843446 48.793234 0.610693 2.128987 -0.014895 0.007214 106662.000000 0 0 1
-33.839704 -23.049368 -27.063956 49.080104 0.597952 2.154867 -0.013368 0.001422 -236495.000000 0 0 1
-32.750894 -21.973568 -27.073316 47.837466 0.590949 2.172374 -0.005031 -0.011633 -812236.000000 0 0 1
-32.850004 -20.828568 -26.192816 46.893663 0.565081 2.163442 0.008019 -0.011850 240794.000000 0 0 1
-33.956024 -19.948268 -26.476326 47.454618 0.531158 2.162685 0.004163 -0.012611 266806.000000 0 0 1
-35.027739 -20.095968 -25.376126 47.694216 0.520869 2.131827 0.012490 -0.012178 -511387.000000 0 0 1
-34.716234 -19.726068 -24.014006 46.594067 0.516716 2.112256 0.011159 -0.016853 -464184.000000 0 0 1
-33.866214 -20.588568 -23.324006 45.987159 0.546236 2.102712 -0.002041 -0.016108 -601393.000000 0 0 1
-34.498768 -21.885268 -22.808506 46.790575 0.565315 2.079974 0.016867 -0.006664 347659.000000 0 0 1
35.341547 -21.573768 -21.934906 46.857150 -0.548058 2.057962 0.009751 -0.002762 197639.000000 0 0 1
34.648769 -22.669168 -21.337806 46.580364 -0.579361 2.046637 0.007901 0.003414 422511.000000 0 0 1
33.550749 -22.194668 -20.340306 45.077534 -0.584435 2.038939 0.001113 0.004243 341745.000000 0 0 1
32.439179 -21.511468 -20.929606 44.193800 -0.585552 2.064155 0.022637 0.012407 181914.000000 0 0 1
31.397999 -21.381068 -19.989906 42.925293 -0.597839 2.055211 0.025757 0.011012 -736577.000000 0 0 1
30.104709 -20.886368 -20.569906 42.019697 -0.606547 2.082347 0.024079 0.020876 -1280840.000000 0 0 1
29.476769 -21.767668 -21.473506 42.471434 -0.636080 2.100872 0.025690 0.020377 -295929.000000 0 0 1
28.266679 -21.358368 -22.025806 41.717157 -0.647077 2.127016 0.045544 0.015339 -464458.000000 0 0 1
28.306579 -20.153568 -22.980206 41.659556 -0.618718 2.155100 0.035522 0.006403 -752360.000000 0 0 1
28.635219 -18.959468 -22.328606 40.963445 -0.584837 2.147288 0.032964 0.016167 103590.000000 0 0 1
28.796939 -17.871168 -23.253106 41.101694 -0.555424 2.172134 0.022649 0.012365 -340522.000000 0 0 1
29.358309 -16.616168 -22.614906 40.613314 -0.515028 2.161367 0.018684 0.009182 -111261.000000 0 0 1
28.525479 -15.942068 -21.596106 39.169430 -0.509629 2.154779 0.003325 0.003305 767742.000000 0 0 1
29.216749 -15.223268 -20.569506 38.839038 -0.480342 2.128936 -0.006299 0.001604 417615.000000 0 0 1
30.225209 -16.068868 -19.642306 39.466340 -0.488636 2.091739 0.005379 0.000103 2325210.000000 0 0 1
31.393989 -16.547268 -20.431406 40.949200 -0.485079 2.093178 0.009742 -0.001617 1533600.000000 0 0 1
32.197159 -17.496768 -19.739106 41.622425 -0.497782 2.064899 0.009233 0.009405 -173926.000000 0 0 1
33.297459 -18.133968 -20.598106 43.149085 -0.498692 2.068456 0.016010 -0.005560 20625.200000 0 0 1
34.303819 -17.154368 -20.823406 43.642165 -0.463705 2.068193 0.010480 -0.013593 239134.000000 0 0 1
35.406700 -17.695368 -21.546406 45.066707 -0.463467 2.069287 0.015402 -0.017152 -56164.300000 0 0 1
-34.555642 -16.608268 -21.997906 44.202204 0.448027 2.091701 0.023479 -0.024260 -396616.000000 0 0 1
-33.686744 -16.162868 -20.958106 42.840135 0.447357 2.081988 0.033978 -0.031092 -51926.800000 0 0 1
-32.982694 -15.046768 -21.462506 42.129591 0.427999 2.105330 0.039432 -0.025497 -623817.000000 0 0 1
-31.646574 -14.709668 -20.766506 40.609454 0.435102 2.107576 0.040880 -0.020904 23093.900000 0 0 1
-30.567174 -15.617368 -20.832706 40.152907 0.472345 2.116283 0.050468 -0.029407 199009.000000 0 0 1
-30.736504 -16.889968 -20.233206 40.489336 0.502466 2.094068 0.037045 -0.032253 -418598.000000 0 0 1
-29.421404 -17.717968 -20.222806 39.856082 0.542046 2.102956 0.033460 -0.036870 251907.000000 0 0 1
-29.729774 -18.962668 -19.662006 40.373713 0.567775 2.079448 0.034141 -0.042387 910703.000000 0 0 1
-28.695824 -19.920868 -19.975406 40.240628 0.606828 2.090242 0.041794 -0.040312 387022.000000 0 0 1
-29.034664 -21.279168 -19.415806 40.899734 0.632459 2.065439 0.032758 -0.019635 -211098.000000 0 0 1
-30.035074 -21.873668 -20.214506 42.298809 0.629449 2.069056 0.033217 -0.023710 277315.000000 0 0 1
-30.591904 -23.064068 -19.629206 43.047898 0.646010 2.044275 0.021598 -0.006661 536193.000000 0 0 1
-31.587664 -23.815168 -20.596706 44.600079 0.646017 2.050830 0.006403 -0.011247 460264.000000 0 0 1
-30.958314 -24.188268 -21.802006 44.931247 0.663245 2.077423 0.006795 -0.019692 262453.000000 0 0 1
-31.734754 -25.211908 -22.380406 46.299217 0.671352 2.075315 0.001281 -0.010727 -159158.000000 0 0 1
-31.659344 -25.345388 -23.937006 47.092282 0.675086 2.104006 -0.002881 -0.006843 44626.900000 0 0 1
-30.355124 -25.585748 -24.459206 46.629570 0.700346 2.122974 0.006122 -0.011303 251295.000000 0 0 1
-30.365614 -25.796278 -25.862466 47.501427 0.704217 2.146537 0.002933 -0.000391 -43962.500000 0 0 1
-28.962294 -26.139218 -26.400546 47.106921 0.734209 2.165712 0.010497 -0.003969 -105204.000000 0 0 1
-28.126764 -25.013938 -26.347236 45.945498 0.726888 2.181502 0.016000 -0.006617 192807.000000 0 0 1
-26.748814 -25.381268 -26.454666 45.382344 0.759171 2.193125 0.012234 -0.008575 849058.000000 0 0 1
-25.836774 -24.206868 -26.939516 44.488750 0.752840 2.221235 0.030557 -0.011929 -195370.000000 0 0 1
-25.944044 -23.740568 -28.266556 45.118800 0.741078 2.247840 0.031809 -0.019628 -112710.000000 0 0 1
-25.170004 -22.588968 -28.526916 44.244497 0.731408 2.271501 0.030738 -0.022660 -51313.000000 0 0 1
-25.055654 -22.126168 -29.975036 44.898284 0.723388 2.301805 0.032485 -0.024031 107909.000000 0 0 1
-24.410854 -23.040668 -30.859146 45.596590 0.756531 2.314185 0.037303 -0.021964 127155.000000 0 0 1
-23.989954 -22.437668 -32.021786 45.873321 0.751976 2.343464 0.038033 -0.019763 -314281.000000 0 0 1
-23.519654 -23.509868 -33.036156 46.875106 0.785190 2.352895 0.033788 -0.024223 701046.000000 0 0 1
-24.597654 -24.212568 -33.705756 48.242834 0.777509 2.344331 0.000837 -0.016799 625734.000000 0 0 1
-24.136054 -25.430938 -34.214645 48.989015 0.811516 2.343976 0.024598 -0.016601 58263.000000 0 0 1
-19.423354 -14.616368 -11.880906 27.056622 0.645109 2.025407 0.005709 0.014663 -92404.900000 0 0 1
-19.916154 -14.270268 -10.648206 26.714753 0.621726 1.980774 0.013872 0.007066 -64507.700000 0 0 1
-19.043954 -14.637268 -9.596106 25.865170 0.655302 1.950887 -0.008310 0.002065 -140398.000000 0 0 1
-19.366154 -14.013068 -8.190406 25.268493 0.626380 1.900894 0.011878 -0.014146 -67600.600000 0 0 1
-20.511854 -14.573468 -7.578506 26.278430 0.617732 1.863344 0.037191 -0.013307 201203.000000 0 0 1
-20.737954 -14.107768 -6.285706 25.857338 0.597373 1.816348 0.028055 -0.020901 471608.000000 0 0 1
-22.002454 -14.669968 -5.529106 27.016420 0.588055 1.776910 0.038930 -0.019614 247119.000000 0 0 1
-22.011654 -16.034168 -5.105406 27.706905 0.629559 1.756120 0.031792 -0.022714 -7504.060000 0 0 1
-21.295054 -16.303268 -3.938106 27.106909 0.653404 1.716593 0.029123 -0.019047 -339124.000000 0 0 1
-21.151154 -17.724368 -3.423306 27.807257 0.697478 1.694218 0.011866 -0.011975 137784.000000 0 0 1
-22.376454 -18.262568 -2.993806 29.037733 0.684512 1.674080 0.018465 -0.016078 223387.000000 0 0 1
-21.988954 -19.384668 -2.254006 29.400000 0.722536 1.647539 0.005929 -0.004662 547394.000000 0 0 1
-23.148654 -20.391568 -1.952406 30.910971 0.722160 1.634001 -0.003171 -0.014594 211625.000000 0 0 1
-23.416554 -21.171068 -3.049806 31.715145 0.735079 1.667108 -0.013964 -0.020250 226614.000000 0 0 1
-24.450254 -22.097868 -2.759206 33.071799 0.734904 1.654324 0.000604 -0.018805 125351.000000 0 0 1
-24.350554 -23.131668 -3.873106 33.808645 0.759733 1.685608 0.003957 -0.013432 453169.000000 0 0 1
-23.195554 -23.982868 -3.720606 33.571633 0.802085 1.681850 -0.000249 -0.007564 237680.000000 0 0 1
-23.017054 -24.776168 -4.871106 34.166810 0.822188 1.713852 0.002376 -0.006036 460205.000000 0 0 1
-21.640954 -24.640168 -5.631706 33.274387 0.850112 1.740865 0.001156 -0.003157 670643.000000 0 0 1
-21.369354 -23.382268 -6.224606 32.281968 0.830348 1.764832 -0.004472 -0.000575 36627.600000 0 0 1
-21.121254 -22.318968 -5.321306 31.185894 0.812963 1.742267 -0.014256 0.001387 -788306.000000 0 0 1
-21.197054 -20.947768 -5.943606 30.388329 0.779483 1.767654 -0.003624 0.000568 324266.000000 0 0 1
-20.078054 -20.694668 -6.798606 29.624628 0.800520 1.802352 -0.022492 0.005406 44297.900000 0 0 1
-20.075754 -19.524868 -7.570606 29.009833 0.771488 1.834820 -0.026872 0.005234 -331693.000000 0 0 1
-18.793354 -19.154668 -8.308306 28.091269 0.794919 1.871049 -0.006438 0.001231 -381487.000000 0 0 1
-18.781554 -19.829468 -9.537606 28.929578 0.812532 1.906765 -0.016169 0.006555 99468.600000 0 0 1
-17.563454 -19.628268 -10.239406 28.259321 0.840859 1.941571 0.014961 0.005496 95510.500000 0 0 1
-17.254054 -18.242568 -10.919706 27.381264 0.813239 1.981007 0.015439 0.009269 -253146.000000 0 0 1
-16.884354 -17.144868 -10.063506 26.082600 0.793054 1.966906 0.010926 -0.001199 -428322.000000 0 0 1
-15.618654 -17.195568 -9.496206 25.095972 0.833417 1.958859 0.037088 -0.005844 -997237.000000 0 0 1
-15.404154 -16.075368 -8.525906 23.841067 0.806717 1.936508 0.019238 -0.009182 57076.800000 0 1 0
-15.947054 -16.345868 -7.212206 23.948107 0.797747 1.876705 -0.003772 -0.009757 186941.000000 0 1 0
-16.076954 -15.186568 -6.467106 23.041783 0.756926 1.855287 0.002975 -0.011318 -209778.000000 0 1 0
-16.907354 -15.423768 -5.198806 23.468677 0.739543 1.794170 0.012844 -0.010478 -236146.000000 0 1 0
-17.337654 -14.276968 -4.570806 22.919824 0.688887 1.771568 0.019778 -0.005483 72363.100000 0 1 0
-17.743254 -14.596268 -3.251006 23.204377 0.688393 1.711362 0.017295 -0.006409 -224298.000000 0 1 0
-18.531654 -13.515868 -2.475406 23.070078 0.630147 1.678303 0.018207 -0.001498 -111314.000000 0 1 0
-19.823854 -13.366068 -3.035206 24.100818 0.593229 1.697070 0.027826 -0.011705 114828.000000 0 1 0
-20.518054 -12.444268 -2.231306 24.100395 0.545188 1.663513 0.028977 -0.002051 434669.000000 0 1 0
-22.052954 -12.435568 -2.571706 25.447785 0.513449 1.672027 0.020838 -0.003252 653566.000000 0 0 1
-22.456554 -11.765368 -3.732606 25.625242 0.482598 1.716978 0.026851 -0.007991 -187450.000000 0 0 1
-23.806554 -11.919368 -4.062206 26.931856 0.464188 1.722207 0.021717 -0.000892 -339107.000000 0 0 1
-24.232954 -11.127468 -5.339106 27.194901 0.430468 1.768407 0.030685 -0.010203 -312742.000000 0 0 1
-23.626054 -11.658368 -6.449706 27.123913 0.458397 1.810883 0.037022 -0.022402 -178951.000000 0 0 1
-24.176054 -11.199068 -7.640906 27.717939 0.433801 1.850079 0.046577 -0.024389 -538031.000000 0 0 1
-23.431454 -11.597268 -8.890906 27.614812 0.459595 1.898597 0.062974 -0.028229 -803303.000000 0 0 1
-22.148854 -11.060568 -8.895806 26.306715 0.463147 1.915754 0.041893 -0.017250 -269505.000000 0 0 1
-21.411954 -11.395968 -10.089306 26.270400 0.489094 1.964982 0.027638 -0.011653 1300090.000000 0 0 1
-20.026754 -10.597468 -10.126506 24.817802 0.486707 1.991096 0.007721 -0.002482 918677.000000 0 1 0
-20.198254 -9.234968 -10.494106 24.563801 0.428839 2.012210 0.016008 -0.011110 197811.000000 0 1 0
-19.132354 -8.465768 -10.035806 23.204172 0.416586 2.018060 0.008882 -0.003842 -488577.000000 0 1 0
-19.044654 -7.125268 -10.787506 23.018222 0.358012 2.058559 -0.004185 -0.010437 -135692.000000 0 1 0
-18.875554 -7.239068 -12.182406 23.603001 0.366215 2.113132 0.027090 -0.009081 465516.000000 0 1 0
-18.685854 -5.964968 -12.836206 23.441633 0.308999 2.150268 0.032039 -0.018023 -209453.000000 0 1 0
-17.994954 -6.178168 -14.171506 23.723821 0.330718 2.210993 0.042063 -0.013473 -114885.000000 0 1 0
-18.891754 -6.713768 -15.121606 25.112467 0.341460 2.216994 0.041831 -0.019071 477717.000000 0 0 1
-18.320554 -6.577268 -16.420506 25.466373 0.344679 2.271547 0.050721 -0.025812 -18276.100000 0 0 1
-18.992454 -7.386168 -17.558206 26.899059 0.370901 2.281998 0.047529 -0.019072 -609895.000000 0 0 1
-20.212854 -6.845168 -17.967806 27.897273 0.326532 2.270604 0.060470 -0.028895 -216690.000000 0 0 1
-20.766954 -7.779368 -18.891506 29.132009 0.358423 2.276381 0.057945 -0.024687 923618.000000 0 0 1
-22.259054 -7.361068 -19.258806 30.340606 0.319379 2.258486 0.058819 -0.019151 294544.000000 0 0 1
-22.320454 -6.232568 -20.122106 30.691150 0.272296 2.285816 0.061851 -0.019452 867822.000000 0 0 1
-23.601854 -5.981068 -20.726106 31.974867 0.248190 2.276014 0.042342 -0.016362 470310.000000 0 0 1
-24.723654 -5.584368 -19.784206 32.153678 0.222144 2.233565 0.040769 -0.010638 -1264930.000000 0 0 1
-24.553154 -4.346268 -19.180506 31.458532 0.175200 2.226488 0.040030 -0.008617 305698.000000 0 0 1
-25.754244 -4.026068 -18.503406 31.966644 0.155071 2.188095 0.056728 0.000217 -137133.000000 0 0 1
-25.733394 -2.542468 -17.896006 31.447396 0.098481 2.176180 0.038175 0.000786 -10741.500000 0 0 1
-26.137534 -1.499068 -18.789406 32.225140 0.057290 2.193295 0.047159 -0.000421 497935.000000 0 0 1
-27.490324 -1.522768 -19.232206 33.584438 0.055336 2.180534 0.041811 0.006595 1797.340000 0 0 1
-27.791264 -0.433468 -20.297506 34.417016 0.015596 2.201548 0.038703 0.006944 -67473.300000 0 0 1
-27.162084 -0.515968 -21.581006 34.695602 0.018994 2.242103 0.042372 0.006065 335737.000000 0 0 1
-27.729964 -1.540868 -22.412906 35.688423 0.055510 2.249798 0.037968 0.011167 252096.000000 0 0 1
-27.082894 -1.486168 -23.846706 36.115886 0.054820 2.291992 0.031772 0.010597 -189579.000000 0 0 1
-27.397974 -0.451668 -24.770706 36.938338 0.016484 2.305808 0.030856 0.017162 95128.600000 0 0 1
-26.918724 0.880432 -24.436206 36.366482 -0.032695 2.307626 0.040639 0.014534 -800301.000000 0 0 1
-25.494854 1.211532 -24.057606 35.074546 -0.047485 2.326635 0.040413 0.011485 -1817310.000000 0 0 1
-24.637054 1.079232 -25.088956 35.179609 -0.043777 2.364803 0.026068 0.005054 -316850.000000 0 0 1
-23.309854 0.965532 -24.552306 33.868824 -0.041398 2.381720 0.020992 0.002780 404930.000000 0 0 1
-22.278054 0.351232 -25.490446 33.855544 -0.015765 2.423281 0.010922 0.004287 -301127.000000 0 0 1
-22.062854 1.105432 -26.708506 34.660291 -0.050062 2.450546 -0.010289 0.002703 485115.000000 0 0 1
-21.087454 0.469732 -27.559726 34.705041 -0.022272 2.488343 -0.020466 0.000992 344315.000000 0 0 1
-20.837954 1.248132 -28.868476 35.625371 -0.059826 2.515519 -0.022907 0.004053 -139269.000000 0 0 1
-20.130054 2.505432 -28.807706 35.233225 -0.123825 2.528077 -0.019074 0.001340 450654.000000 0 0 1
-20.052254 3.225332 -29.993036 36.222615 -0.159480 2.546363 -0.024329 0.003872 -223592.000000 0 0 1
-19.444854 2.572932 -31.219486 36.869752 -0.131555 2.580644 -0.024755 0.006626 -889866.000000 0 0 1
-18.062754 2.420032 -31.125756 36.068439 -0.133186 2.611903 -0.024222 0.013110 -560528.000000 0 0 1
-17.471554 1.893832 -32.298156 36.769725 -0.107974 2.643279 -0.021592 0.012858 414599.000000 0 0 1
-15.917354 1.870132 -32.282056 36.041513 -0.116954 2.680779 -0.010211 0.002998 478670.000000 0 0 1
-15.271154 3.173332 -32.378386 35.939366 -0.204883 2.692674 -0.001915 0.003625 -863476.000000 0 0 1
-14.033954 2.869832 -32.910786 35.893002 -0.201711 2.731073 -0.004907 0.004124 -1249460.000000 0 0 1
-13.350254 4.186632 -33.312996 36.131882 -0.303886 2.743968 0.004872 0.012391 -366741.000000 0 0 1
-13.084854 4.991732 -32.200476 35.114120 -0.364448 2.731349 0.020397 -0.001452 6147.410000 0 0 1
-12.597454 6.182732 -32.708626 35.591800 -0.456254 2.736316 0.014324 0.004598 -300389.000000 0 0 1
-12.213654 7.217932 -31.608106 34.645984 -0.533755 2.719702 0.027217 -0.004543 -361162.000000 0 0 1
-11.040254 6.962332 -30.858106 33.504984 -0.562639 2.741437 0.040532 -0.013161 266677.000000 0 0 1
-11.157254 5.972632 -29.825346 32.399196 -0.491498 2.740304 0.036213 -0.013635 97624.700000 0 0 1
-9.834154 5.183932 -29.563536 31.584591 -0.485120 2.781918 0.045074 -0.023111 232306.000000 0 0 1
-9.415554 4.300432 -30.635496 32.336975 -0.428442 2.815755 0.039106 -0.019573 35005.000000 0 0 1
-10.176054 3.139432 -30.852906 32.639086 -0.299247 2.809232 0.041831 -0.014748 -327087.000000 0 0 1
-9.644554 2.290732 -32.032236 33.531016 -0.233195 2.841475 0.034707 -0.015507 -378201.000000 0 0 1
-10.407854 1.159832 -32.280056 33.936273 -0.110980 2.827886 0.037056 -0.016464 -159858.000000 0 0 1
-10.083454 0.376232 -33.419686 34.909784 -0.037295 2.848364 0.031741 -0.007411 -424728.000000 0 0 1
-10.468454 0.959132 34.073894 35.658642 -0.091366 0.299250 0.026795 -0.002600 137388.000000 0 0 1
-11.869254 0.993632 33.853119 35.887326 -0.083520 0.338310 -0.006119 0.002969 3551.960000 0 0 1
-12.150854 1.222832 32.481778 34.701650 -0.100300 0.359622 -0.012235 0.008614 -345678.000000 0 0 1
-13.641154 1.183032 32.115948 34.912960 -0.086509 0.403006 -0.017190 0.019780 -411385.000000 0 0 1
-14.366954 2.345832 32.375938 35.498080 -0.161851 0.422547 -0.016552 0.024769 -456960.000000 0 0 1
-15.533954 2.286332 31.614858 35.299154 -0.146134 0.460959 -0.020619 0.017731 -291225.000000 0 0 1
-16.437654 3.519832 31.400808 35.617361 -0.210947 0.491523 -0.005117 0.011685 164885.000000 0 0 1
-17.240054 3.945832 32.466288 36.970920 -0.225000 0.498800 -0.010044 0.010472 83251.900000 0 0 1
-16.585854 4.990732 33.187792 37.435645 -0.292285 0.481008 -0.008414 0.015700 165806.000000 0 0 1
-17.269754 5.209132 -34.308327 38.761331 -0.292955 2.657542 -0.005808 0.019318 1063160.000000 0 0 1
-18.584154 5.757432 34.338467 39.467064 -0.300426 0.515485 -0.019824 0.014376 781566.000000 0 0 1
-19.364154 5.814732 -33.322596 38.976621 -0.291717 2.596228 -0.019351 0.018982 580218.000000 0 0 1
-20.558254 6.806832 -33.363786 39.775834 -0.319739 2.565863 -0.019749 0.007807 -78982.800000 0 0 1
-20.240654 8.196132 -33.361516 39.872941 -0.384753 2.562018 -0.026790 0.010465 181151.000000 0 0 1
-19.666054 8.740432 34.304444 40.496219 -0.418223 0.560287 -0.031834 0.008894 -60791.200000 0 0 1
-19.424754 10.236232 -34.251289 40.684792 -0.484989 2.571534 -0.022046 0.006776 -504969.000000 0 0 1
-18.332254 10.449132 -33.378566 39.489043 -0.518058 2.577851 -0.017551 0.014276 20716.500000 0 0 1
-18.151054 11.825432 -33.058776 39.524477 -0.577430 2.561502 -0.001393 0.008124 64555.200000 0 0 1
-17.522654 12.714732 -34.211643 40.486347 -0.627712 2.577393 -0.007238 -0.000294 -1076110.000000 0 0 1
-18.375754 12.895332 33.583695 40.395823 -0.611905 0.589236 -0.011100 0.001532 -527297.000000 0 0 1
-17.774254 12.875032 32.319528 39.067153 -0.626891 0.596545 -0.006679 0.001132 39835.000000 0 0 1
-18.752754 12.313132 31.193288 38.422652 -0.581004 0.623489 -0.017649 -0.003553 178123.000000 0 0 1
-18.929254 10.892132 31.157698 38.049407 -0.522144 0.611349 -0.019817 -0.004603 881651.000000 0 0 1
-17.759754 10.177132 30.646528 36.853664 -0.520364 0.588862 -0.020392 -0.013988 1215280.000000 0 0 1
-17.829854 8.653032 30.823408 36.645070 -0.451828 0.571420 -0.012210 -0.000389 368982.000000 0 0 1
-18.739354 8.021632 29.910608 36.196056 -0.404463 0.598201 -0.008043 -0.007703 282664.000000 0 0 1
-18.903854 6.686932 30.319778 36.350512 -0.339997 0.584306 -0.000054 -0.001509 -176996.000000 0 0 1
-19.514954 5.933132 29.123198 35.555536 -0.295150 0.610973 0.010270 -0.003976 -744565.000000 0 0 1
-20.846954 6.236432 28.889748 36.167750 -0.290680 0.645547 0.017715 -0.006822 -1150530.000000 0 0 1
-21.367854 5.305832 27.996998 35.616975 -0.243387 0.666391 0.010480 -0.002989 86782.000000 0 0 1
-22.895154 5.288732 27.750708 36.362901 -0.227016 0.702607 -0.007744 0.003214 281886.000000 0 0 1
-23.380054 6.304932 26.861298 36.165017 -0.263406 0.733639 -0.016501 0.001440 -370869.000000 0 0 1
-24.751254 6.203132 26.642018 36.890385 -0.245561 0.763827 -0.000120 0.000197 -592859.000000 0 0 1
-25.354544 6.987932 25.403648 36.565413 -0.268932 0.802731 0.000070 -0.002993 -98991.800000 0 0 1
-25.149704 6.454832 24.124218 35.442211 -0.251234 0.822128 0.007383 -0.000840 168170.000000 0 0 1
-25.607154 5.140932 23.842298 35.363974 -0.198128 0.830919 0.008023 -0.001579 -236523.000000 0 0 1
-25.433824 4.768832 22.398118 34.224214 -0.185348 0.857338 0.021302 0.004021 232513.000000 0 0 1
-26.326664 5.518532 21.567018 34.477292 -0.206626 0.894969 0.020327 0.001980 252169.000000 0 0 1
-26.421764 4.841032 20.344418 33.696299 -0.181211 0.922589 0.027297 -0.000824 -325638.000000 0 0 1
-27.360894 5.504832 19.326318 33.947434 -0.198543 0.965141 0.029007 -0.002584 -203114.000000 0 0 1
-28.685214 5.515732 19.800418 35.289111 -0.189966 0.975093 0.030388 0.000082 -104617.000000 0 0 1
-29.656064 5.503032 18.742518 35.511230 -0.183475 1.014798 0.029886 -0.001129 234708.000000 0 0 1
-31.069504 5.448632 19.347418 37.004381 -0.173604 1.020616 0.021726 -0.001499 -152725.000000 0 0 1
-31.360344 6.705132 19.978618 37.783265 -0.210638 1.013647 0.027757 -0.008778 -510873.000000 0 0 1
-32.731984 6.857032 20.185818 39.062372 -0.206504 1.027736 0.026110 -0.006568 -176903.000000 0 0 1
-33.147654 8.107832 21.010618 40.074306 -0.239887 1.018913 0.025969 -0.006933 -49398.100000 0 0 1
-32.459124 8.010032 22.236918 40.152657 -0.241939 0.983864 0.026424 -0.003112 177788.000000 0 0 1
-32.708404 9.103232 23.101418 41.065606 -0.271445 0.973331 0.041662 0.000583 16665.700000 0 0 1
-0.051754 32.526032 11.864994 34.622587 -1.569205 1.221012 0.027640 -0.005290 -117420.000000 0 0 1
-0.508454 32.898532 13.121194 35.422276 -1.555342 1.191333 0.023499 -0.003357 48042.000000 0 0 1
-0.339154 34.278532 13.293194 36.767401 -1.560903 1.200868 0.024584 -0.009996 -522181.000000 0 0 1
-0.249854 -34.379993 14.808894 37.434606 1.563529 1.164082 0.016051 0.000985 1309450.000000 0 0 1
-1.504354 34.499932 15.534194 37.865810 -1.527219 1.148076 0.007395 0.011250 1006050.000000 0 0 1
-1.296154 -34.079893 16.855994 38.042656 1.532782 1.111763 0.001046 0.006220 163370.000000 0 0 1
-2.571754 -33.853893 17.700694 38.288570 1.494976 1.090212 -0.001975 0.009504 -112561.000000 0 0 1
-3.156154 33.966532 18.105594 38.619932 -1.478143 1.082848 -0.006177 0.011894 355692.000000 0 0 1
-3.993554 34.154832 19.257094 39.412393 -1.454400 1.060306 -0.003080 0.005051 65040.700000 0 0 1
-4.914754 33.015932 19.723194 38.771265 -1.423021 1.037115 -0.002101 0.002686 -481746.000000 0 0 1
-5.830654 32.789432 18.722194 38.205548 -1.394815 1.058662 0.005095 -0.003122 -247282.000000 0 0 1
-6.967754 32.085032 19.204194 38.036823 -1.356952 1.041548 0.024256 -0.018391 59791.400000 0 0 1
-8.115154 31.913532 18.208194 37.628016 -1.321788 1.065691 0.019941 -0.017873 -343910.000000 0 0 1
-8.776254 33.125632 17.859094 38.642947 -1.311808 1.090371 0.026999 -0.018054 -360297.000000 0 0 1
-9.649754 32.992132 16.795294 38.258077 -1.286247 1.116311 0.035524 -0.010796 -686926.000000 0 0 1
-10.514254 34.242732 16.636194 39.495280 -1.272884 1.136006 0.062638 -0.022951 -822311.000000 0 0 1
-11.558154 34.279432 17.539994 40.203504 -1.245593 1.119336 0.056285 -0.022372 -704038.000000 0 0 1
-12.461454 -33.733893 17.245994 39.883426 1.216940 1.123632 0.040792 -0.021113 -586638.000000 0 0 1
-13.809554 -33.974893 17.909494 40.813565 1.184730 1.116520 0.054934 -0.026455 -528705.000000 0 0 1
-13.654254 -33.827993 19.273594 41.258250 1.187158 1.084737 0.055106 -0.024882 463162.000000 0 0 1
-14.928154 -33.700593 19.895394 41.885635 1.153809 1.075840 0.045904 -0.030443 190337.000000 0 0 1
-14.862354 -33.322893 21.364094 42.281548 1.151265 1.041088 0.046614 -0.038716 -221192.000000 0 0 1
-14.720354 -31.941393 21.533194 41.238572 1.138952 1.021413 0.062904 -0.032352 158124.000000 0 0 1
-14.788754 -31.691093 22.966594 41.838942 1.134180 0.989714 0.040938 -0.021551 178443.000000 0 0 1
-14.555954 -30.177593 23.184594 40.744181 1.121374 0.965473 0.053770 -0.025078 -85213.700000 0 0 1
-14.580854 -29.709393 24.573594 41.220272 1.114550 0.932095 0.042700 -0.028916 -93029.700000 0 0 1
-14.515454 -28.286193 24.698894 40.259688 1.096673 0.910325 0.029174 -0.012579 232356.000000 0 0 1
-15.714254 -27.465293 24.117094 39.785856 1.051107 0.919557 0.046833 -0.008806 -288571.000000 0 0 1
-16.863754 -27.512993 24.899794 40.759670 1.020918 0.913608 0.060406 -0.008660 -562921.000000 0 0 1
-17.868654 -26.758593 24.265294 40.300317 0.982029 0.924653 0.064104 0.000127 141707.000000 0 0 1
-19.034454 -26.355593 25.290194 41.188853 0.945315 0.909671 0.057670 -0.006927 806958.000000 0 0 1
-19.811354 -27.406093 25.838794 42.558512 0.944878 0.918345 0.059964 -0.014682 129458.000000 0 0 1
-20.630554 -28.145393 24.951594 42.899475 0.938265 0.950066 0.054959 -0.014574 150759.000000 0 0 1
-22.103754 -27.603193 24.975494 43.293042 0.895587 0.955875 0.054536 -0.006123 232468.000000 0 0 1
-22.245054 -26.280593 24.537094 42.279794 0.868370 0.951637 0.070223 -0.005291 383988.000000 0 0 1
-23.348754 -26.154193 23.640694 42.285796 0.842010 0.977533 0.050509 -0.003739 120059.000000 0 0 1
-23.784554 -24.622493 23.390794 41.462048 0.802707 0.971393 0.052666 0.002191 66750.100000 0 0 1
-24.316154 -23.968793 24.519094 42.035275 0.778204 0.948013 0.046828 -0.001381 107056.000000 0 0 1
-24.801454 -22.668593 24.291594 41.461534 0.740498 0.944828 0.029830 0.000530 97516.500000 0 0 1
-25.232024 -21.962193 25.576894 42.109031 0.716224 0.918017 0.035537 0.001046 636973.000000 0 0 1
-26.482894 -22.445293 26.095994 43.429664 0.703064 0.926195 0.028886 0.003317 877653.000000 0 0 1
-26.797794 -21.822893 27.352294 44.073897 0.683432 0.901288 0.020509 -0.001744 -367151.000000 0 0 1
-28.130174 -22.218293 28.067394 45.527331 0.668514 0.906512 0.013654 -0.004217 1291680.000000 0 0 1
-29.415854 -21.725093 27.632094 45.834537 0.636133 0.923708 0.017716 -0.005522 1305460.000000 0 0 1
-29.786684 -22.211993 26.361994 45.558467 0.640745 0.953735 0.023882 0.001695 -471289.000000 0 0 1
-30.932914 -23.278293 26.305194 46.804779 0.645126 0.973971 -0.000394 0.002940 139495.000000 0 0 1
-31.452544 -23.455993 25.021894 46.535377 0.640781 1.003094 -0.017917 0.009069 268102.000000 0 0 1
-30.989954 -24.741593 24.517194 46.622060 0.673749 1.017057 -0.016962 0.009856 -209907.000000 0 0 1
-31.597624 -25.167093 23.186094 46.576683 0.672595 1.049731 -0.020154 0.011322 -59913.700000 0 0 1
-32.991804 -25.394893 23.325494 47.722514 0.656011 1.060113 -0.016596 0.014829 163255.000000 0 0 1
-33.407414 -25.939993 22.075594 47.710275 0.660230 1.089757 -0.005725 0.007086 284961.000000 0 0 1
-34.567285 -26.994793 22.179094 49.148024 0.663007 1.102607 0.013141 0.002559 22541.000000 0 0 1
-34.308208 -28.123693 23.027494 49.982604 0.686660 1.092001 0.019124 0.001596 1060050.000000 0 0 1
-33.148724 -28.943493 22.702294 49.517248 0.717776 1.094521 0.011798 0.004174 425602.000000 0 0 1
-33.330924 -30.089293 21.743394 49.890793 0.734329 1.119847 0.018153 0.003399 -279199.000000 0 0 1
-33.636024 -29.678293 20.364394 49.263493 0.722970 1.144637 0.000111 0.011850 523036.000000 0 0 1
-34.049194 -30.844893 19.660094 49.972736 0.736061 1.166452 0.004404 0.010499 -362492.000000 0 0 1
-34.596291 -30.601493 18.234194 49.657231 0.724203 1.194798 -0.003048 0.010332 -325519.000000 0 0 1
-33.639034 -30.222493 17.212894 48.386645 0.731950 1.207094 0.009466 0.011647 497571.000000 0 0 1
-34.160202 -29.637893 16.008194 47.974851 0.714632 1.230593 0.008274 0.009481 -1275.690000 0 0 1
-34.744687 -30.689993 15.023394 48.731625 0.723512 1.257403 0.006341 0.003485 249365.000000 0 0 1
-33.697664 -31.460793 14.467694 48.317991 0.751082 1.266705 0.013332 -0.000250 301923.000000 0 0 1
-34.108856 -32.196393 13.314694 48.757593 0.756563 1.294204 0.022466 -0.005423 -43166.600000 0 0 1
-34.356872 -31.405793 11.959694 48.059887 0.740554 1.319304 0.022574 -0.005440 -633053.000000 0 0 1
35.392532 -30.683193 11.894794 48.327795 -0.714247 1.322114 0.019148 -0.004338 -817618.000000 0 0 1
35.164846 -30.003993 10.695994 47.446921 -0.706371 1.343411 0.016953 0.002673 -465125.000000 0 0 1
33.869009 -29.218493 10.703194 45.993352 -0.711816 1.335931 0.045102 0.010970 -592467.000000 0 0 1
34.008989 -28.193193 9.703694 45.228632 -0.692171 1.354568 0.043570 -0.025717 109569.000000 0 0 1
32.947239 -27.269893 9.672094 43.848797 -0.691395 1.348389 0.046287 -0.022971 -411887.000000 0 0 1
33.083649 -26.099893 8.673494 43.022805 -0.667940 1.367803 0.056364 -0.019125 -70429.000000 0 0 1
33.995989 -25.075493 9.022294 43.196174 -0.635519 1.360379 0.054517 -0.020971 57881.900000 0 0 1
34.351309 -24.463093 7.805994 42.888097 -0.618830 1.387768 0.057356 -0.024030 348817.000000 0 0 1
35.186172 -23.149993 7.896894 42.852652 -0.581929 1.385457 0.067872 -0.025390 300172.000000 0 0 1
34.315909 -22.122893 8.357894 41.675633 -0.572629 1.368881 0.061436 -0.020758 -220176.000000 0 0 1
34.880608 -20.863993 8.393594 41.501993 -0.539061 1.367146 0.070481 -0.018890 -395284.000000 0 0 1
34.060149 -19.685293 8.948194 40.344451 -0.524054 1.347141 0.067582 -0.011903 -111450.000000 0 0 1
34.095429 -19.712893 10.349494 40.721106 -0.524212 1.313822 0.060799 -0.014965 -252000.000000 0 0 1
33.317859 -18.672893 10.866994 39.709548 -0.510829 1.293598 0.069001 -0.004770 -131668.000000 0 0 1
33.620189 -18.592593 12.374594 40.362510 -0.505158 1.259192 0.052189 -0.017355 -411730.000000 0 0 1
34.872762 -18.102893 12.734394 41.303620 -0.478821 1.257378 0.017425 -0.009274 -470063.000000 0 0 1
35.181981 -18.384793 14.070594 42.115959 -0.481534 1.230155 0.016081 -0.004859 -260428.000000 0 0 1
-34.421841 -17.744793 14.531594 41.363124 0.475978 1.211818 0.026274 -0.014150 -704846.000000 0 0 1
-33.247084 -18.209893 13.969794 40.399554 0.501086 1.217715 0.017174 -0.008524 -1000440.000000 0 0 1
-32.152534 -17.717793 14.649994 39.526294 0.503652 1.191099 0.010345 -0.013439 -707123.000000 0 0 1
-30.789784 -17.749293 13.955994 38.181382 0.522936 1.196607 0.020479 -0.011043 -239883.000000 0 0 1
-30.323884 -19.009293 13.527894 38.260882 0.559947 1.209412 0.008272 -0.010458 885793.000000 0 0 1
-29.150594 -18.894493 12.675994 36.978910 0.575087 1.220911 -0.020907 -0.000034 926708.000000 0 0 1
-28.481414 -20.270793 12.425094 37.100929 0.618549 1.229297 -0.041257 -0.006521 -383306.000000 0 0 1
-29.209414 -21.105693 11.557994 37.844780 0.625710 1.260432 -0.032057 -0.003786 -54106.300000 0 0 1
-28.341644 -21.994693 10.842994 37.477804 0.659969 1.277282 -0.033036 -0.002062 -405008.000000 0 0 1
-29.038694 -22.862993 9.773594 38.229378 0.666967 1.312269 -0.027251 -0.004351 172361.000000 0 0 1
-29.670034 -24.028393 10.253894 39.532479 0.680721 1.308417 -0.019892 -0.001167 -19587.800000 0 0 1
-30.902814 -23.799593 10.930694 40.507834 0.656269 1.297568 -0.000157 -0.009742 -235134.000000 0 0 1
-31.758164 -25.106093 11.026794 41.958158 0.668946 1.304869 0.016281 -0.016170 124722.000000 0 0 1
-32.076934 -25.567093 9.701894 42.151307 0.672943 1.338546 0.015921 -0.013239 -292658.000000 0 0 1
-32.790734 -26.739393 9.777994 43.426219 0.684094 1.343686 0.028264 -0.009253 -281310.000000 0 0 1
-32.835034 -27.460893 8.385194 43.618248 0.696504 1.377352 0.028907 -0.011071 270805.000000 0 0 1
-31.585474 -27.844893 7.840594 42.830540 0.722541 1.386697 0.012834 -0.012834 -81799.500000 0 0 1
-31.775504 -28.635093 6.648494 43.288031 0.733460 1.416599 0.011592 -0.010523 -346325.000000 0 0 1
-30.529484 -28.915893 5.818794 42.450402 0.758261 1.433291 0.016668 -0.010159 -192285.000000 0 0 1
-30.066854 -27.845993 5.008594 41.285603 0.747069 1.449181 0.021093 -0.007363 -155850.000000 0 0 1
-28.783854 -28.158693 4.493494 40.516833 0.774420 1.459663 0.023909 -0.011419 -29696.200000 0 0 1
-28.164634 -26.945893 3.817894 39.165087 0.763287 1.473159 0.007839 -0.006540 -270248.000000 0 0 1
-28.586174 -26.686693 2.514994 39.187678 0.751046 1.506574 0.015544 -0.005352 -377984.000000 0 0 1
-27.762534 -25.755393 1.875194 37.915893 0.747912 1.521319 0.016384 -0.012424 -442234.000000 0 0 1
-28.195384 -25.271793 0.483994 37.866574 0.730772 1.558014 0.020599 -0.013902 -286176.000000 0 0 1
-27.559334 -25.934093 -0.617106 37.848050 0.755025 1.587102 0.025718 -0.015988 66572.600000 0 0 1
-27.652494 -25.224693 -1.839606 37.474387 0.739516 1.619906 0.032491 -0.018778 657813.000000 0 0 1
-29.117764 -25.126293 -2.381406 38.533698 0.711947 1.632636 0.044281 -0.016061 744465.000000 0 0 1
-29.957674 -24.112493 -1.878206 38.501977 0.677713 1.619598 0.045897 -0.009292 370822.000000 0 0 1
-31.243254 -24.098093 -2.502006 39.536300 0.656998 1.634122 0.057056 -0.007938 780182.000000 0 0 1
-32.073464 -22.794193 -2.239506 39.411898 0.617862 1.627650 0.051378 -0.013454 80646.700000 0 0 1
-32.375424 -22.624193 -0.876906 39.506849 0.609925 1.592994 0.055377 -0.019132 -447814.000000 0 0 1
-33.141934 -21.501993 -0.846306 39.515057 0.575521 1.592215 0.056523 -0.006487 -771681.000000 0 0 1
-33.331544 -20.968393 0.607294 39.383171 0.561532 1.555376 0.051068 -0.016293 -425057.000000 0 0 1
-34.152330 -21.713093 1.456094 40.496423 0.566308 1.534832 0.053391 -0.013381 -9829.450000 0 0 1
-34.272531 -21.147393 2.726394 40.363992 0.552852 1.503200 0.051915 -0.013025 -464230.000000 0 0 1
-35.203370 -21.947093 3.675394 41.646857 0.557475 1.482430 0.065293 -0.002229 907456.000000 0 0 1
34.332269 -22.039293 3.321094 40.932442 -0.570689 1.489571 0.046701 -0.003438 752845.000000 0 0 1
33.585429 -20.896393 3.756294 39.733488 -0.556573 1.476118 0.044033 -0.008419 -357556.000000 0 0 1
32.223179 -20.636793 3.117094 38.391754 -0.569620 1.489515 0.033262 -0.001705 619844.000000 0 0 1
31.179409 -21.610193 3.325794 38.081713 -0.606075 1.483352 0.038689 -0.000060 247262.000000 0 0 1
29.924939 -21.183293 2.861194 36.775268 -0.615996 1.492915 0.013488 0.003655 260010.000000 0 0 1
28.831439 -22.305493 2.964694 36.572890 -0.658467 1.489645 0.006794 0.022587 221121.000000 0 0 1
28.981619 -23.415893 2.020894 37.313835 -0.679574 1.516610 -0.002258 0.006579 -757322.000000 0 0 1
28.065719 -24.403693 2.254494 37.260000 -0.715718 1.510252 0.000300 0.011781 -576135.000000 0 0 1
27.866589 -25.431393 1.144194 37.744029 -0.739740 1.540477 0.000338 0.014615 -259885.000000 0 0 1
27.365099 -24.927093 -0.064206 37.016385 -0.738809 1.572531 0.001977 0.004337 -56998.400000 0 0 1
26.639219 -25.973593 -0.704706 37.212527 -0.772747 1.589735 0.007986 -0.007652 -536137.000000 0 0 1
25.849509 -25.262893 -1.804806 36.189338 -0.773922 1.620688 0.030411 -0.014991 -558160.000000 0 0 1
26.592809 -24.762393 -2.894306 36.451757 -0.749771 1.650281 0.007067 -0.021915 -152502.000000 0 0 1
26.840289 -25.735193 -3.848406 37.383305 -0.764382 1.673924 0.014494 -0.023068 -70423.700000 0 0 1
25.668039 -26.186193 -4.809706 36.982404 -0.795390 1.701220 0.019980 -0.033142 454516.000000 0 0 1
25.323839 -25.143093 -5.710406 36.139738 -0.781817 1.729470 0.023883 -0.043634 936467.000000 0 0 1
24.114339 -24.458093 -5.307206 34.754368 -0.792475 1.724102 0.048598 -0.044127 323720.000000 0 0 1
23.550639 -23.387993 -6.254306 33.774949 -0.781933 1.757047 0.053146 -0.051123 -137905.000000 0 0 1
22.789339 -24.055193 -7.277806 33.925989 -0.812414 1.786997 0.047455 -0.046601 1011750.000000 0 0 1
21.663139 -23.280293 -7.776306 32.737357 -0.821365 1.810625 0.051291 -0.045862 574725.000000 0 0 1
21.831639 -21.889493 -8.338406 32.020296 -0.786721 1.834243 0.043963 -0.044214 -703382.000000 0 0 1
22.322039 -21.808893 -9.674106 32.672459 -0.773771 1.871397 0.044735 -0.036483 320734.000000 0 0 1
22.428239 -20.500193 -10.149606 32.035891 -0.740515 1.893171 0.045969 -0.036059 -320074.000000 0 0 1
23.013339 -20.359393 -11.548306 32.825021 -0.724285 1.930305 0.031623 -0.027326 -623355.000000 0 0 1
24.359739 -20.687393 -11.631206 34.009559 -0.704056 1.919839 0.037611 -0.029639 -701409.000000 0 0 1
25.008839 -20.068493 -12.727206 34.498815 -0.676237 1.948640 0.029194 -0.028931 840873.000000 0 0 1
26.559039 -20.304193 -12.772306 35.787912 -0.652712 1.935732 0.015305 -0.017640 583515.000000 0 0 1
26.831629 -21.623793 -13.092406 36.863747 -0.678332 1.933878 0.013715 -0.020376 282920.000000 0 0 1
27.554509 -22.283693 -12.033906 37.424976 -0.680031 1.898160 0.018930 -0.031092 4494.030000 0 0 1
27.898519 -23.766093 -12.399306 38.689757 -0.705582 1.897033 0.010656 -0.028468 -77861.000000 0 0 1
28.745679 -23.906793 -13.553506 39.768660 -0.693753 1.918573 0.017541 -0.035740 470525.000000 0 0 1
28.934779 -25.244393 -13.896406 40.836392 -0.717389 1.918027 0.012965 -0.025819 -194374.000000 0 0 1
-4.104854 -9.330668 -27.419656 29.253183 1.156347 2.785661 0.020266 -0.000765 260094.000000 0 0 1
-3.592354 -8.004668 -27.171126 28.552580 1.148955 2.829253 0.004506 0.005803 544596.000000 0 0 1
-4.521254 -7.068168 -27.713226 28.955546 1.001721 2.847604 0.006710 0.002193 243209.000000 0 0 1
-4.328254 -5.639768 -27.223796 28.136735 0.916219 2.886158 0.010674 -0.005069 -128287.000000 0 0 1
-4.774454 -5.510468 -25.869716 26.877553 0.856839 2.866878 0.005582 -0.008919 219006.000000 0 0 1
-4.470954 -4.316368 -25.239356 25.993183 0.767808 2.900171 0.019076 -0.014710 -454569.000000 0 0 1
-5.218654 -4.192268 -23.947506 24.865488 0.676764 2.869022 0.016368 -0.009764 -433103.000000 0 1 0
-4.729154 -5.119068 -23.040006 24.070971 0.824970 2.847860 0.012469 -0.019966 472538.000000 0 1 0
-5.294354 -4.965668 -21.734306 22.914364 0.753374 2.819267 0.011161 -0.012842 -337605.000000 0 1 0
-4.598654 -5.908768 -20.772006 22.080249 0.909443 2.795633 0.000481 -0.014457 -710003.000000 0 1 0
-5.041554 -7.278168 -20.813106 22.618010 0.964990 2.739389 -0.005928 -0.015801 234514.000000 0 1 0
-4.373154 -8.084168 -19.897006 21.917324 1.074926 2.708855 0.006878 -0.026482 -1110370.000000 0 1 0
-4.993254 -9.502868 -19.931406 22.638419 1.086999 2.647552 0.010254 -0.026937 267031.000000 0 1 0
-6.181854 -9.756168 -19.197006 22.403642 1.006011 2.599963 0.011056 -0.019521 368067.000000 0 1 0
-7.338454 -9.074268 -19.675706 22.876377 0.890767 2.606239 0.004539 -0.018207 -1432250.000000 0 1 0
-8.394354 -9.180568 -18.617806 22.391309 0.830103 2.552553 -0.002769 -0.013372 -1378070.000000 0 1 0
-8.940654 -10.486068 -18.615706 23.161119 0.864782 2.504365 0.013003 -0.012137 -149651.000000 0 1 0
-9.591854 -10.685768 -17.399006 22.559138 0.839293 2.451618 0.005536 -0.004092 -10734.900000 0 1 0
-10.550554 -11.919568 -17.461106 23.627960 0.846249 2.402384 0.021193 0.003107 -217538.000000 0 1 0
-11.669254 -11.908768 -18.278106 24.740238 0.795556 2.402085 0.025358 -0.006099 -104447.000000 0 1 0
-11.350754 -12.229068 -19.605006 25.743853 0.822630 2.436484 0.033115 -0.011529 -782049.000000 0 0 1
-12.577854 -11.955368 -20.485306 26.847365 0.760030 2.438782 0.031864 -0.012928 583987.000000 0 0 1
-13.614254 -12.925768 -20.638006 27.898937 0.759463 2.403483 0.026861 -0.002275 315723.000000 0 0 1
-14.389754 -13.217668 -19.478506 27.589562 0.742968 2.354645 0.022034 0.003493 -423268.000000 0 0 1
-15.550454 -14.111168 -19.983606 28.987690 0.736913 2.331433 0.019126 0.009089 88929.800000 0 0 1
-15.131154 -15.459268 -20.176706 29.581079 0.796124 2.321402 0.017854 0.018999 688424.000000 0 0 1
-15.961054 -16.029368 -21.245506 31.033327 0.787534 2.324855 0.022764 0.016501 654726.000000 0 0 1
-15.477354 -17.405468 -21.593606 31.761338 0.843967 2.318383 0.015448 0.016980 -73721.200000 0 0 1
-15.871354 -18.363068 -20.623406 31.850071 0.858054 2.275116 0.019359 0.021495 290384.000000 0 0 1
-15.247754 -19.647368 -20.839206 32.446657 0.910817 2.268240 0.012087 0.016187 93831.700000 0 0 1
-15.978154 -20.896468 -20.215006 33.175446 0.917995 2.226020 0.013011 0.008819 -5856.490000 0 0 1
-15.386054 -22.149768 -20.541006 33.900970 0.963679 2.221708 0.010585 0.012863 76331.800000 0 0 1
-16.182454 -23.193768 -20.073506 34.680950 0.961611 2.188059 0.017428 0.008848 -668988.000000 0 0 1
-15.679754 -24.547168 -20.547206 35.645558 1.002363 2.185151 0.016726 0.002747 9041.640000 0 0 1
-15.937154 -24.854768 -21.956906 36.794810 1.000624 2.210228 0.012229 0.006748 468897.000000 0 0 1
-15.268754 -26.123608 -22.206206 37.532563 1.041866 2.203902 0.015553 0.004590 92174.900000 0 0 1
-15.442754 -26.613028 -23.700906 38.838960 1.045010 2.227154 0.028136 0.002980 783483.000000 0 0 1
-16.774354 -26.977888 -24.132606 39.894461 1.014515 2.220451 0.031319 0.004513 847796.000000 0 0 1
-16.945054 -28.374598 -23.956306 40.818589 1.032445 2.198017 0.034664 0.008794 165376.000000 0 0 1
-17.958654 -29.160668 -24.891006 42.336981 1.018802 2.199289 0.036541 0.004864 -217030.000000 0 0 1
-17.684454 -29.278098 -26.324086 43.161377 1.027429 2.226730 0.037154 0.013314 -5670.170000 0 0 1
-17.659954 -28.065648 -27.121396 42.838355 1.009156 2.256361 0.051633 0.003710 -157728.000000 0 0 1
-16.589754 -27.951478 -28.236336 43.055728 1.035155 2.286050 0.058180 0.002192 -276116.000000 0 0 1
-16.907954 -28.130938 -29.570466 44.177381 1.029609 2.304140 0.051369 0.001117 -45609.400000 0 0 1
-15.780154 -27.724778 -30.325436 44.014868 1.053353 2.330879 0.036796 0.008900 227096.000000 0 0 1
-15.989754 -28.002188 -31.831576 45.310528 1.051960 2.349729 0.042158 0.004343 81990.400000 0 0 1
-15.909454 -29.409448 -32.043876 46.312378 1.074917 2.334924 0.020857 0.008575 156817.000000 0 0 1
-16.212054 -29.738518 -33.383376 47.556912 1.071682 2.348952 0.023470 0.004902 -261182.000000 0 0 1
-16.170354 -31.241068 -33.786676 48.775241 1.093169 2.336024 0.009776 0.007443 -506885.000000 0 0 1
-14.933754 -31.807538 -34.173205 49.015757 1.131842 2.342264 0.007519 0.005968 -367846.000000 0 0 1
-15.130754 -32.841328 33.769687 49.476098 1.139061 0.819556 -0.002811 0.007258 -179342.000000 0 0 1
-13.845954 -33.491768 33.236129 49.173664 1.178780 0.828621 -0.017189 0.005260 -36723.000000 0 0 1
-13.091454 -34.281065 34.148748 50.126985 1.206002 0.821335 -0.003080 0.008130 837069.000000 0 0 1
-11.957054 34.166443 33.471177 49.301488 -1.234153 0.824522 -0.004967 0.007649 507193.000000 0 0 1
-11.094854 33.333731 -34.429052 49.189359 -1.249488 2.346094 -0.003153 0.007735 -41763.900000 0 0 1
-10.436954 34.194187 -33.497226 48.992210 -1.274552 2.323652 -0.004971 0.011232 -23711.400000 0 0 1
-9.691254 33.447752 -32.557566 47.672504 -1.288776 2.322579 0.000906 0.002673 -133822.000000 0 0 1
-8.863454 34.350109 -31.637366 47.533291 -1.318272 2.299071 -0.009344 0.000032 -22652.700000 0 0 1
-9.691854 -34.011637 -30.684406 46.821536 1.293197 2.285440 0.004006 0.002311 177213.000000 0 0 1
-9.158954 -32.763608 -30.281266 45.544434 1.298208 2.298120 0.004551 0.002277 -470586.000000 0 0 1
-9.927954 -32.036898 -29.164806 44.446743 1.270290 2.286534 0.013104 0.009978 -101071.000000 0 0 1
-9.908754 -32.543598 -27.832916 43.953844 1.275238 2.256516 0.034259 0.004546 -3005.000000 0 0 1
-10.533354 -33.829868 -27.699746 44.974297 1.268948 2.234326 0.036153 -0.000332 -150688.000000 0 0 1
-10.617154 -34.353504 -26.256736 44.523066 1.271052 2.201525 0.031583 -0.004525 239477.000000 0 0 1
-9.409954 34.474253 -25.533346 43.920077 -1.304331 2.191195 0.045140 -0.005077 -146375.000000 0 0 1
-9.711254 34.229122 -24.154506 43.004435 -1.294348 2.167205 0.044008 -0.007151 405467.000000 0 0 1
-8.515954 34.056175 -23.174406 42.064208 -1.325765 2.154274 0.058838 -0.003794 -18991.300000 0 0 1
-7.736354 32.909187 -23.204506 41.003840 -1.339907 2.172334 0.047693 -0.014380 -417094.000000 0 0 1
-6.928654 32.850837 -22.062206 40.173682 -1.362930 2.152168 0.046804 -0.011391 -617338.000000 0 0 1
-6.009754 31.660777 -22.075606 39.062186 -1.383211 2.171399 0.041092 -0.019999 -279234.000000 0 0 1
-4.910554 31.780407 -22.966506 39.516683 -1.417494 2.190981 0.023199 -0.027319 47898.000000 0 0 1
-4.047454 30.644277 -22.839406 38.432956 -1.439478 2.207149 0.019161 -0.018068 1380640.000000 0 0 1
-2.544854 30.940487 -23.267006 38.796180 -1.488731 2.213953 0.015485 -0.025264 618384.000000 0 0 1
-2.181754 31.175867 -24.603806 39.774892 -1.500928 2.237726 0.018415 -0.028405 -143656.000000 0 0 1
-2.830354 32.260457 -25.256956 41.068989 -1.483286 2.233168 0.011089 -0.032113 -315245.000000 0 0 1
-2.273854 32.620277 -26.663366 42.192274 -1.501202 2.254862 0.018598 -0.022297 109148.000000 0 0 1
-1.107554 33.384947 -26.913456 42.896567 -1.537633 2.249011 0.015690 -0.024350 -138804.000000 0 0 1
-1.380954 -34.342186 -26.749126 43.552365 1.530606 2.232147 -0.007201 -0.011787 -142313.000000 0 0 1
-0.212154 -33.382088 -27.074896 42.982075 1.564441 2.252235 -0.018102 -0.003361 104378.000000 0 0 1
0.742146 -33.255238 -26.005126 42.222366 -1.548483 2.234335 -0.024117 -0.003323 367697.000000 0 0 1
1.660446 -32.259718 -26.473326 41.764620 -1.519371 2.257343 -0.020226 0.002673 -213436.000000 0 0 1
2.756646 -31.904338 -25.483726 40.925618 -1.484607 2.242964 -0.020754 -0.000848 -564162.000000 0 0 1
2.248446 -31.155638 -24.423206 39.651258 -1.498753 2.234388 -0.016783 -0.002677 255821.000000 0 0 1
3.329546 -30.494908 -23.831206 38.845227 -1.462043 2.231270 -0.017347 0.003371 -380777.000000 0 0 1
3.016046 -29.923388 -22.491106 37.554701 -1.470343 2.212910 -0.009631 0.001857 -225025.000000 0 0 1
3.183246 -30.868208 -21.410406 37.701257 -1.468036 2.174744 -0.008827 0.003070 425124.000000 0 0 1
3.066546 -30.209348 -20.146306 36.440116 -1.469633 2.156590 0.004532 -0.004732 -346814.000000 0 0 1
2.921946 -31.226308 -18.954606 36.645561 -1.477495 2.114421 0.004259 -0.001319 -272225.000000 0 0 1
1.634046 -31.761428 -18.713306 36.900491 -1.519394 2.102647 0.015785 -0.005838 334910.000000 0 0 1
1.291346 -33.004518 -19.322106 38.266298 -1.531690 2.100106 0.021393 0.004370 -297684.000000 0 0 1
1.872446 -34.235029 -18.530506 38.973362 -1.516157 2.066290 0.005105 -0.011724 -383768.000000 0 0 1
3.171146 34.477937 -18.951806 39.470942 1.479078 2.071617 0.019041 -0.001054 -372595.000000 0 0 1
3.664946 33.535214 -18.033706 38.252542 1.461942 2.061717 0.036306 -0.016158 279257.000000 0 0 1
4.913346 32.721417 -18.441706 37.880452 1.421753 2.079264 0.040082 -0.015061 654728.000000 0 0 1
6.136846 33.402089 -18.654006 38.747031 1.389096 2.073083 0.056467 -0.021239 76374.400000 0 0 1
7.076546 32.621117 -19.349806 38.582766 1.357175 2.096144 0.058061 -0.030126 216589.000000 0 0 1
8.480146 33.204292 -19.605606 39.481865 1.320748 2.090442 0.056867 -0.025838 365658.000000 0 0 1
9.287446 33.356941 -18.440906 39.230208 1.299248 2.060165 0.062490 -0.027297 226934.000000 0 0 1
10.472346 34.103682 -18.689306 40.274326 1.272863 2.053358 0.065900 -0.011181 -243531.000000 0 0 1
11.294846 34.267156 -17.467806 40.086604 1.252399 2.021670 0.042005 -0.011191 -453884.000000 0 0 1
12.212646 33.238576 -17.155006 39.347756 1.218684 2.021928 0.028890 -0.018848 -76424.700000 0 0 1
12.901046 33.485094 -15.942306 39.266343 1.203046 1.988874 0.016592 -0.013631 -260210.000000 0 0 1
14.045646 32.493977 -15.829706 38.777807 1.162798 1.991295 0.009997 -0.010893 -336701.000000 0 0 1
13.688646 31.234207 -15.224006 37.346019 1.157750 1.990672 0.023556 -0.011445 283624.000000 0 0 1
14.783446 30.328557 -15.425506 37.098759 1.117245 1.999614 0.012065 -0.005591 462453.000000 0 0 1
14.932346 29.093187 -14.512406 35.777066 1.096598 1.988469 0.032140 -0.008351 -640735.000000 0 0 1
15.206746 29.389257 -13.147306 35.606534 1.093306 1.948986 0.040158 -0.018092 -234451.000000 0 0 1
14.080246 29.640667 -12.326306 35.053678 1.127322 1.930120 0.027699 -0.016090 185478.000000 0 0 1
13.337846 28.359537 -11.911506 33.526787 1.131179 1.934013 0.023314 -0.013045 -405249.000000 0 0 1
12.639746 27.626967 -12.896906 33.005192 1.141711 1.972247 0.028487 -0.004988 16965.600000 0 0 1
12.066346 26.378687 -12.575706 31.616139 1.141783 1.979873 0.037138 -0.002638 779387.000000 0 0 1
11.048346 26.290357 -11.373706 30.701955 1.172962 1.950296 0.023288 0.003520 76520.100000 0 0 1
9.820846 26.975237 -11.424706 30.897190 1.221643 1.949553 0.026580 0.003886 -224250.000000 0 0 1
9.164446 26.919737 -10.203406 30.212064 1.242667 1.915296 0.013176 0.011574 -145962.000000 0 0 1
8.020446 27.968117 -10.214306 30.836264 1.291520 1.908417 0.021144 0.012524 114749.000000 0 0 1
8.479446 29.280237 -10.491306 32.238189 1.288911 1.902264 0.026747 0.008231 334780.000000 0 0 1
7.409046 30.222917 -10.415206 32.814558 1.330391 1.893778 0.030674 0.012444 428422.000000 0 0 1
7.923846 31.584947 -10.879206 34.332978 1.324995 1.893227 0.058872 0.003092 179863.000000 0 0 1
8.837946 32.168197 -9.930606 34.806884 1.302670 1.860122 0.045961 -0.000330 104883.000000 0 0 1
9.398946 33.394041 -10.365906 36.207101 1.296438 1.861154 0.064427 -0.003474 -39971.400000 0 0 1
10.392546 33.403815 -11.543106 36.838339 1.269171 1.889510 0.056991 -0.011714 -1043800.000000 0 0 1
11.696446 33.507817 -11.056006 37.172785 1.234954 1.872788 0.036966 -0.001499 -943238.000000 0 0 1
12.559346 33.871657 -12.109506 38.100741 1.215720 1.894235 0.044808 -0.009792 -9709.120000 0 0 1
14.042246 33.545533 -11.827706 38.241105 1.174357 1.885246 0.026344 -0.002217 -51382.800000 0 0 1
14.466646 34.262158 -10.740406 38.710924 1.171271 1.851937 0.031119 0.001428 -318240.000000 0 0 1
15.878046 34.242234 -10.682506 39.227017 1.136610 1.846605 0.008188 -0.005212 363008.000000 0 0 1
16.583246 -33.833578 -9.687206 38.904460 -1.115066 1.822444 0.023667 -0.003345 9166.700000 0 0 1
16.383846 -34.355882 -8.340006 38.965533 -1.125810 1.786501 0.024427 -0.001842 94524.200000 0 0 1
16.842546 -33.394998 -7.439806 38.134603 -1.103680 1.767149 0.023170 -0.002784 -1424210.000000 0 0 1
16.998746 -33.938138 -5.989406 38.426912 -1.106449 1.727299 0.028700 -0.000503 218395.000000 0 0 1
18.027346 34.150870 -5.808806 39.051368 1.085099 1.720098 0.021463 -0.011674 427738.000000 0 0 1
19.337846 -34.480449 -6.211106 40.017890 -1.059672 1.726635 0.029478 -0.018685 -887815.000000 0 0 1
20.040746 33.493359 -7.066406 39.665737 1.031591 1.749901 0.024357 -0.011889 -38933.200000 0 0 1
20.276046 32.291447 -6.361306 38.656459 1.010109 1.736108 0.032728 -0.004030 -696084.000000 0 0 1
21.410846 32.302897 -5.553606 39.150275 0.985465 1.713130 0.018684 0.002989 -1093150.000000 0 0 1
21.828546 30.951597 -4.971306 38.199486 0.956557 1.701307 0.008087 0.006212 -494287.000000 0 0 1
22.487846 30.050037 -5.838006 37.984079 0.928354 1.725104 0.000941 0.005571 -77838.200000 0 0 1
22.842446 28.906567 -5.106306 37.194641 0.902049 1.708517 0.004056 0.011842 -113092.000000 0 0 1
23.798646 27.962427 -5.898406 37.189570 0.865668 1.730073 -0.003404 0.017933 -450931.000000 0 0 1
25.068046 28.546467 -6.047606 38.469225 0.850186 1.728658 -0.008260 0.014823 -253608.000000 0 0 1
25.987046 27.707487 -6.727106 38.578302 0.817428 1.746068 -0.021880 0.018224 131268.000000 0 0 1
26.772346 26.697947 -5.871606 38.262445 0.784007 1.724861 -0.015967 0.018896 -690019.000000 0 0 1
27.662046 27.344237 -5.017506 39.218255 0.779621 1.699086 -0.017117 0.011672 -276699.000000 0 0 1
28.632346 26.492407 -4.475206 39.264314 0.746598 1.685021 -0.014480 0.017196 450200.000000 0 0 1
29.802646 27.115037 -3.630506 40.454957 0.738214 1.660659 -0.018432 0.011197 336618.000000 0 0 1
29.405546 27.776157 -2.488906 40.526482 0.756911 1.632249 -0.006858 -0.000358 -150568.000000 0 0 1
30.502546 27.963377 -1.607506 41.411833 0.741996 1.609624 0.002396 -0.005208 232470.000000 0 0 1
30.466646 29.283067 -0.768706 42.264707 0.765592 1.588985 0.002409 -0.010434 12602.100000 0 0 1
30.731946 30.404847 -1.562306 43.259081 0.780048 1.606919 -0.015246 0.004769 3618.860000 0 0 1
30.145946 31.596727 -1.039506 43.683084 0.808891 1.594595 0.006777 -0.008483 -206234.000000 0 0 1
32.523249 22.421632 19.426818 44.021501 0.603579 1.113746 0.014313 -0.007116 -22798.100000 0 0 1
32.910049 22.395032 20.837118 44.930995 0.597513 1.088564 0.007928 -0.006948 -206486.000000 0 0 1
33.683759 23.537632 21.053518 46.172138 0.609909 1.097325 0.006429 -0.004373 -79532.300000 0 0 1
33.827899 24.016332 22.547818 47.217741 0.617377 1.072957 0.011923 0.002338 167374.000000 0 0 1
32.530829 24.360932 22.984918 46.690645 0.642769 1.056088 0.000177 0.006462 283384.000000 0 0 1
32.509069 24.288632 24.390398 47.346264 0.641664 1.029614 -0.002189 0.004706 340340.000000 0 0 1
31.240149 24.942232 25.039678 47.170407 0.673766 1.011211 0.018841 0.000940 511267.000000 0 0 1
31.178989 26.347132 24.978048 47.856072 0.701601 1.021671 0.007417 0.001201 -1221460.000000 0 0 1
29.921449 26.780932 25.239078 47.429131 0.730069 1.009667 0.004578 -0.002546 -1501130.000000 0 0 1
29.612699 28.254532 25.492018 48.219016 0.761932 1.013762 -0.002386 0.000511 -213771.000000 0 0 1
29.635139 29.103332 24.336608 48.140585 0.776345 1.040798 -0.004376 -0.003727 328581.000000 0 0 1
29.182039 30.412232 24.712878 48.859202 0.806038 1.040490 -0.010157 0.003792 -56255.000000 0 0 1
29.345369 31.466532 23.582018 49.065313 0.820265 1.069429 -0.010922 0.003106 -642911.000000 0 0 1
30.697459 31.719932 23.371718 49.947225 0.801778 1.083851 -0.018631 -0.000507 -597070.000000 0 0 1
30.765969 32.521032 22.206618 49.972955 0.813123 1.110322 -0.019044 -0.000713 309594.000000 0 0 1
32.208989 32.986532 21.899418 51.040325 0.797324 1.127343 -0.008249 -0.012647 375738.000000 0 0 1
32.702789 34.011332 22.783218 52.395784 0.805010 1.120948 0.003742 0.001079 314468.000000 0 0 1
34.067369 34.295332 22.521818 53.329051 0.788733 1.134795 0.008709 0.004195 224845.000000 0 0 1
34.481499 -33.452493 23.272018 53.381925 -0.770252 1.119699 0.021033 0.004759 -329276.000000 0 0 1
33.773749 -32.258793 22.912518 52.021912 -0.762460 1.114708 0.002765 0.011994 491882.000000 0 0 1
34.133709 -31.213793 23.820238 52.027058 -0.740745 1.095229 0.017197 0.010660 129669.000000 0 0 1
33.143829 -29.992693 23.728418 50.607439 -0.735530 1.082783 0.008977 -0.002430 1008270.000000 0 0 1
31.769759 -30.134393 24.060778 49.963189 -0.758987 1.068351 0.004174 0.008812 1147330.000000 0 0 1
30.870759 -30.570693 23.016418 49.166315 -0.780514 1.083619 0.007342 0.015402 404275.000000 0 0 1
30.245759 -32.018793 23.114518 49.742236 -0.813866 1.087516 0.008301 0.023381 281524.000000 0 0 1
29.224099 -32.166093 24.096078 49.692318 -0.833284 1.064541 -0.007128 0.014661 296545.000000 0 0 1
28.805939 -33.471793 24.168918 50.341630 -0.860179 1.070030 -0.008504 0.017127 -251757.000000 0 0 1
27.908279 -33.660493 25.403448 50.569121 -0.878555 1.044481 -0.016840 0.013482 -36657.700000 0 0 1
27.540809 34.034432 25.699268 50.767028 0.890468 1.040001 -0.020956 0.004020 626137.000000 0 0 1
26.564029 33.810032 26.729398 50.628318 0.904845 1.014607 -0.022065 -0.000248 -342477.000000 0 0 1
26.428649 32.319932 27.046598 49.745050 0.885344 0.995952 -0.016923 -0.003529 336305.000000 0 0 1
25.786439 31.515132 26.015548 48.321349 0.885042 1.002275 -0.018225 0.007031 80015.700000 0 0 1
24.408239 31.787732 25.941588 47.740842 0.915968 0.996334 -0.009805 0.002991 -975997.000000 0 0 1
24.025339 31.661532 24.417278 46.646254 0.921676 1.019894 0.006188 -0.012810 -157610.000000 0 0 1
24.407939 32.656232 23.480218 47.047823 0.928948 1.048270 0.017153 -0.012945 948555.000000 0 0 1
25.785339 32.622632 23.060718 47.549096 0.901929 1.064447 -0.005793 -0.008472 485193.000000 0 0 1
25.955169 33.518932 21.827818 47.682735 0.911897 1.095309 0.002863 -0.003003 1094240.000000 0 0 1
27.295299 33.669432 21.287718 48.289035 0.889574 1.114262 0.006072 0.000684 1405380.000000 0 0 1
27.122079 34.282232 20.002218 48.072522 0.901481 1.141662 -0.007263 -0.004288 -293162.000000 0 0 1
28.471569 -34.353693 19.397618 48.652585 -0.878753 1.160701 0.006231 -0.004524 -135304.000000 0 0 1
29.224319 33.551932 19.030718 48.393814 0.854226 1.166636 0.017961 -0.017737 -4388.550000 0 0 1
30.323069 33.963532 18.243918 49.049471 0.841966 1.189688 0.026870 -0.005361 485298.000000 0 0 1
31.222029 32.861732 17.536018 48.602680 0.810979 1.201667 0.020729 -0.016856 648444.000000 0 0 1
32.120489 32.134932 18.372318 49.009405 0.785623 1.186536 0.019170 -0.003370 173309.000000 0 0 1
32.922729 31.231732 17.633618 48.685436 0.759046 1.200175 0.027442 -0.017950 -184646.000000 0 0 1
33.841009 30.493432 18.586718 49.198876 0.733411 1.183391 0.027304 -0.020629 -283157.000000 0 0 1
34.622019 31.402532 19.341718 50.585623 0.736675 1.178452 0.039991 -0.018165 -385914.000000 0 0 1
-35.439020 30.765532 20.218418 51.100162 -0.714923 1.164007 0.032759 -0.014133 -187565.000000 0 0 1
-34.266152 31.599132 20.782618 51.035199 -0.744928 1.151387 0.047141 -0.011002 268366.000000 0 0 1
-33.247124 31.910332 19.816518 50.163083 -0.764885 1.164683 0.040066 -0.014949 326555.000000 0 0 1
-32.069964 32.499332 20.311918 49.972624 -0.792048 1.152219 0.032311 -0.012462 80539.400000 0 0 1
-32.165034 33.861832 21.056718 51.230835 -0.811091 1.147228 0.029639 -0.003870 -691466.000000 0 0 1
-32.651274 33.852532 22.372018 52.082692 -0.803459 1.126804 0.047386 -0.007466 222823.000000 0 0 1
-32.555574 -33.961493 23.012018 52.371761 0.806531 1.115869 0.042228 -0.003815 -172358.000000 0 0 1
-32.761714 -33.991693 24.550668 53.211845 0.803822 1.091251 0.053074 -0.014816 -415809.000000 0 0 1
-34.048374 -34.210593 25.040768 54.375514 0.787775 1.092220 0.050728 -0.012642 -660859.000000 0 0 1
-33.907714 34.520032 26.420108 55.130643 -0.794346 1.071022 0.059322 -0.010398 290216.000000 0 0 1
-35.238961 34.438032 27.196198 56.279620 -0.773904 1.066452 0.053954 -0.015852 44395.200000 0 0 1
-35.142039 33.698932 28.409868 56.371106 -0.764438 1.042597 0.063879 -0.012899 -222669.000000 0 0 1
34.490929 33.464132 28.939148 56.097652 0.770289 1.028772 0.061186 -0.020319 -216923.000000 0 0 1
34.544529 32.405532 30.014238 56.074036 0.753460 1.005980 0.055894 -0.005055 -91586.200000 0 0 1
34.620409 31.019532 29.692418 55.158171 0.730595 1.002361 0.042262 -0.003329 749774.000000 0 0 1
-35.188491 30.572432 28.884948 54.838342 -0.715319 1.016048 0.038310 -0.004622 142482.000000 0 0 1
-35.359641 29.170932 28.415408 53.932206 -0.689787 1.015879 0.039650 -0.001627 -202581.000000 0 0 1
34.564229 29.006832 27.414258 52.797952 0.698200 1.024847 0.030850 -0.004290 371878.000000 0 0 1
34.340409 27.682432 26.928648 51.679133 0.678460 1.022688 0.032481 -0.005271 -167870.000000 0 0 1
33.752349 26.554932 27.761838 51.138099 0.666614 0.996934 0.021983 -0.004765 1399.140000 0 0 1
34.705239 25.887532 28.624478 51.903552 0.640888 0.986643 0.015737 -0.003029 501156.000000 0 0 1
34.275369 24.614132 29.151798 51.288242 0.622790 0.966247 0.014700 -0.006279 -74938.400000 0 0 1
34.821389 23.418632 28.403078 50.672441 0.592055 0.975779 0.005747 -0.002370 -229788.000000 0 0 1
34.192639 23.224832 27.118848 49.436437 0.596653 0.990155 0.007411 -0.003491 44976.400000 0 0 1
34.624269 22.162032 26.244798 48.772791 0.569364 1.002611 0.002465 -0.006806 -397928.000000 0 0 1
34.579549 20.737332 26.642808 48.328267 0.540198 0.986889 0.006439 -0.012441 -390290.000000 0 0 1
33.254219 20.257032 26.600718 47.157063 0.547125 0.971468 0.026878 -0.014796 -19111.200000 0 0 1
33.102369 19.160732 27.486208 47.099810 0.524710 0.947674 0.028086 -0.015542 -280101.000000 0 0 1
33.221309 19.478832 29.018588 48.219900 0.530311 0.925047 0.019571 -0.024609 -129841.000000 0 0 1
32.123569 20.186832 29.583778 48.110620 0.561049 0.908522 0.025603 -0.020894 456686.000000 0 0 1
31.922609 21.510532 29.187468 48.308014 0.592948 0.922041 0.029245 -0.021078 -1224410.000000 0 0 1
30.773939 22.195632 29.927458 48.325295 0.624844 0.902956 0.052220 -0.030228 -186065.000000 0 0 1
29.451439 21.906232 29.489158 47.083763 0.639527 0.893982 0.061926 -0.035962 454057.000000 0 0 1
28.921799 22.556732 28.359278 46.362973 0.662377 0.912615 0.051476 -0.030178 -409463.000000 0 0 1
28.867919 24.124032 28.401008 47.137490 0.696115 0.924149 0.052852 -0.022428 154050.000000 0 0 1
30.133089 24.809632 28.434538 48.291240 0.688809 0.941206 0.049210 -0.020868 599858.000000 0 0 1
30.019029 26.043132 29.111778 49.263399 0.714597 0.938571 0.028310 -0.013621 10689.000000 0 0 1
30.160399 25.913332 30.674178 50.220072 0.709802 0.913732 0.030859 -0.020638 -471766.000000 0 0 1
31.440399 25.473232 31.024798 50.989434 0.680934 0.916683 0.020953 -0.004474 -467637.000000 0 0 1
31.793619 25.336232 32.407728 51.990573 0.672846 0.897791 0.029199 -0.002181 -90910.100000 0 0 1
31.108659 24.296132 33.292031 51.637293 0.663053 0.870128 0.033269 -0.005923 -375749.000000 0 0 1
31.632739 24.477932 -34.272205 52.672416 0.658570 2.279259 0.026701 -0.021743 392231.000000 0 0 1
31.301779 23.368932 -33.455926 51.431579 0.641302 2.279031 0.018289 -0.023338 -238691.000000 0 0 1
31.968019 23.422032 -32.072316 50.982147 0.632318 2.251177 0.005313 -0.020985 -242859.000000 0 0 1
31.357999 24.394932 -31.263526 50.555364 0.661150 2.237504 -0.002307 -0.017643 301971.000000 0 0 1
31.699579 24.092932 -29.915476 49.802293 0.649895 2.215154 0.007246 -0.016661 -222772.000000 0 0 1
33.089839 24.478432 -29.364556 50.560936 0.636913 2.190477 0.007872 0.000855 -49341.500000 0 0 1
33.450789 23.642332 -28.272516 49.771983 0.615261 2.174920 0.005539 -0.001152 -607331.000000 0 0 1
34.422159 24.345232 -27.571006 50.375944 0.615578 2.149937 0.014601 -0.000415 -576849.000000 0 0 1
34.885769 23.402732 -26.456636 49.645325 0.590886 2.132836 0.014397 -0.001715 -538913.000000 0 0 1
-35.166703 22.405932 -26.919166 49.632291 -0.567278 2.144054 0.007616 0.003068 -97835.500000 0 0 1
-35.258043 21.150632 -26.233736 48.771792 -0.540332 2.138726 0.000239 0.013332 -57264.100000 0 0 1
-34.081922 20.177032 -26.568986 47.692777 -0.534528 2.161669 0.002695 0.023445 -402245.000000 0 0 1
-32.924464 20.457232 -25.857026 46.595112 -0.555962 2.159075 0.004822 0.018197 -793083.000000 0 0 1
-31.977654 19.427932 -26.035326 45.583474 -0.545950 2.178711 -0.009078 0.009012 57960.700000 0 0 1
-30.601004 19.692932 -25.410256 44.383714 -0.571820 2.180364 0.003076 0.006410 -12753.600000 0 0 1
-30.774434 19.713632 -24.031306 43.740104 -0.569728 2.152456 0.008579 -0.004833 1050420.000000 0 0 1
-29.476054 19.534132 -23.418006 42.412534 -0.585260 2.155735 0.016179 0.000925 1004880.000000 0 0 1
-29.489584 19.824232 -21.921706 41.751610 -0.591855 2.123571 0.001743 0.006124 312697.000000 0 0 1
-30.238854 18.907632 -21.063406 41.419245 -0.558798 2.104286 -0.016088 0.001718 180109.000000 0 0 1
-30.827954 19.533032 -19.978506 41.605802 -0.564770 2.071663 -0.014085 0.003130 -1698230.000000 0 0 1
-31.952094 18.781232 -19.330106 41.801004 -0.531396 2.051532 -0.019901 -0.004661 -502624.000000 0 0 1
-32.579974 19.335332 -18.166306 42.015764 -0.535606 2.017915 -0.014527 -0.012899 317359.000000 0 0 1
-33.241934 20.573932 -18.427806 43.219172 -0.554212 2.011284 -0.019686 -0.014647 -687367.000000 0 0 1
-34.337618 20.802432 -17.340406 43.732172 -0.544688 1.978512 0.002708 -0.017482 158827.000000 0 0 1
-33.866374 21.259232 -16.089306 43.101647 -0.560566 1.953346 0.003025 -0.028226 -192780.000000 0 0 1
-34.975183 21.030732 -15.260006 43.570895 -0.541378 1.928617 0.008473 -0.015123 -498282.000000 0 0 1
-34.977104 21.934532 -13.951806 43.579518 -0.560116 1.896680 0.009125 -0.016135 -220053.000000 0 0 1
-35.295261 23.329032 -14.099806 44.596005 -0.584047 1.892483 0.015608 -0.025523 302307.000000 0 0 1
34.256979 23.624332 -14.320706 44.008321 0.603726 1.902241 0.020949 -0.017494 -27218.600000 0 0 1
33.965609 25.092532 -14.620406 44.688410 0.636270 1.904096 0.014546 -0.018765 -318899.000000 0 0 1
34.141709 25.977532 -13.557106 44.992039 0.650424 1.876875 0.016782 -0.013797 -40616.400000 0 0 1
34.302929 27.306332 -13.954306 46.011405 0.672319 1.878928 0.008811 -0.008196 52798.200000 0 0 1
-35.275437 27.752332 -14.614906 47.203219 -0.666598 1.885586 0.024402 -0.001746 89169.800000 0 0 1
-35.177712 27.273332 -15.888106 47.262437 -0.659498 1.913641 0.028738 -0.001238 -613788.000000 0 0 1
-33.961954 27.704932 -16.398606 46.796280 -0.684279 1.928822 0.032727 -0.003338 -914083.000000 0 0 1
-33.754574 27.449132 -17.873806 47.035083 -0.682737 1.960604 0.018778 -0.004953 -254838.000000 0 0 1
-33.394024 26.178032 -18.290206 46.205863 -0.664855 1.977781 0.020347 -0.009384 1119630.000000 0 0 1
-31.987714 25.853932 -18.161706 44.960952 -0.679749 1.986620 0.022473 -0.006342 1139270.000000 0 0 1
-31.542874 24.544832 -18.899506 44.210779 -0.661270 2.012507 0.023158 -0.002668 -162729.000000 0 0 1
-31.155334 24.644832 -20.228906 44.578371 -0.669248 2.041802 0.021749 -0.004997 140175.000000 0 0 1
-30.801254 23.403132 -20.766306 43.905162 -0.649751 2.063467 0.020263 -0.005552 -138030.000000 0 0 1
-30.686004 23.458032 -22.298206 44.599552 -0.652688 2.094354 0.013752 0.006487 500250.000000 0 0 1
-31.854384 23.892532 -23.022006 45.995300 -0.643536 2.095007 0.017230 0.008662 712955.000000 0 0 1
-31.751574 23.774832 -24.443506 46.592811 -0.642718 2.123065 0.019826 0.010923 -155391.000000 0 0 1
-32.685124 24.764432 -25.176286 48.119017 -0.648390 2.121408 -0.000776 0.014839 -282254.000000 0 0 1
-32.350174 26.107632 -25.130496 48.576579 -0.679014 2.114533 -0.007920 0.026421 -487062.000000 0 0 1
-33.034944 26.869732 -26.090226 49.939863 -0.682842 2.120498 -0.010887 0.015791 -573682.000000 0 0 1
-32.453614 28.262732 -26.384086 50.479095 -0.716484 2.120780 -0.019738 0.019711 -316183.000000 0 0 1
-31.303824 28.195732 -27.176956 50.134974 -0.733208 2.143702 -0.015554 0.016947 -639861.000000 0 0 1
-30.809894 29.472532 -27.462726 50.715688 -0.763217 2.143021 -0.011957 0.009895 1094280.000000 0 0 1
-29.377624 29.484432 -28.143656 50.243824 -0.787213 2.165353 0.006042 0.004627 354682.000000 0 0 1
-28.335174 29.116732 -27.293486 48.944872 -0.799001 2.162333 -0.003406 0.005697 -274792.000000 0 0 1
-27.045554 29.119832 -27.870546 48.540642 -0.822313 2.182385 0.012087 0.002808 480800.000000 0 0 1
-26.327934 30.490632 -27.969876 49.042356 -0.858531 2.177693 0.013416 -0.006588 -803570.000000 0 0 1
-25.738924 31.114232 -26.813406 48.472119 -0.879665 2.156963 0.016664 0.000019 254182.000000 0 0 1
-26.537534 31.338232 -25.625356 48.404384 -0.868157 2.128691 0.003536 0.013381 457168.000000 0 0 1
-25.656094 31.803832 -24.391006 47.588234 -0.891984 2.108940 -0.018417 0.013167 600779.000000 0 0 1
-25.181204 33.131932 -24.446806 48.264524 -0.920908 2.101937 -0.003481 0.009943 -188642.000000 0 0 1
-24.306354 33.503432 -23.428306 47.562215 -0.943168 2.085851 0.024604 0.012359 -192482.000000 0 0 1
-23.877654 -34.072993 -23.469006 47.769294 0.959547 2.084377 0.027785 0.020319 315017.000000 0 0 1
-24.946254 -33.214393 -23.075006 47.518074 0.926612 2.077851 0.013821 0.006762 325516.000000 0 0 1
-24.559354 -31.852393 -23.228206 46.446597 0.913967 2.094517 0.026583 0.001077 -81965.800000 0 0 1
16.332146 8.486132 -25.460886 31.416718 0.479202 2.515673 0.029101 -0.016282 -637914.000000 0 0 1
15.091446 8.035132 -25.020106 30.303808 0.489253 2.542136 0.031537 -0.015069 -480015.000000 0 0 1
14.917946 6.686632 -25.405976 30.211253 0.421379 2.569822 0.024188 -0.016625 -30647.500000 0 0 1
13.433946 6.269032 -25.440776 29.444945 0.436618 2.613980 0.025041 -0.021474 -8528.170000 0 0 1
12.938946 6.001632 -24.143906 28.042185 0.434305 2.608000 0.042774 -0.033993 -1093010.000000 0 0 1
11.629646 5.594832 -24.222006 27.445517 0.448400 2.652052 0.046221 -0.030394 -1478810.000000 0 0 1
10.898746 5.788232 -22.909106 26.021403 0.488210 2.647490 0.051501 -0.033891 -489801.000000 0 0 1
11.241946 4.889332 -21.841006 25.046287 0.410242 2.630122 0.030852 -0.029484 -116982.000000 0 0 1
10.870846 5.200732 -20.515606 23.793129 0.446228 2.610490 0.036354 -0.024248 -615518.000000 0 1 0
11.316046 6.471132 -19.859406 23.755514 0.519467 2.560733 0.034566 -0.025340 -394546.000000 0 1 0
10.984846 6.593632 -18.510406 22.511729 0.540602 2.536160 0.022855 -0.013699 -490981.000000 0 1 0
11.102546 7.930232 -18.085006 22.654416 0.620240 2.495262 0.018537 -0.010272 -838517.000000 0 1 0
12.494546 8.457432 -17.851306 23.373296 0.595047 2.439896 0.007028 -0.004935 -990296.000000 0 1 0
13.048746 7.938332 -16.682306 22.618272 0.546544 2.400244 0.010788 -0.003355 897922.000000 0 1 0
14.442046 8.258932 -16.504606 23.434690 0.519477 2.352206 0.008428 0.000852 753981.000000 0 1 0
14.976246 8.137332 -15.072406 22.752616 0.497723 2.294877 0.014166 -0.006529 -819924.000000 0 1 0
16.371946 8.080232 -14.960306 23.603846 0.458467 2.257263 0.013312 -0.012821 29886.100000 0 1 0
16.791446 8.247932 -13.631506 23.147333 0.456582 2.200496 0.009689 -0.010829 -293734.000000 0 1 0
17.009446 9.749932 -13.333906 23.710240 0.520486 2.168044 0.015194 -0.017879 -872925.000000 0 1 0
15.911646 10.641732 -13.250906 23.281183 0.589479 2.176290 0.015829 -0.014854 293637.000000 0 1 0
16.358946 11.929032 -13.088306 24.108519 0.630059 2.144672 0.037008 -0.023354 -95523.600000 0 1 0
15.120046 12.788432 -12.744706 23.549678 0.702047 2.142641 0.039311 -0.019960 162956.000000 0 1 0
14.589146 12.647532 -11.457806 22.451828 0.714232 2.106363 0.045973 -0.017879 81023.000000 0 1 0
15.124546 13.642532 -10.589806 22.956798 0.733926 2.050248 0.050149 -0.015896 -108493.000000 0 1 0
14.670046 15.117432 -10.702006 23.627948 0.800416 2.040855 0.044491 -0.012276 -718678.000000 0 1 0
13.432546 15.343732 -10.118206 22.764918 0.851716 2.031373 0.050808 -0.017898 -848777.000000 0 1 0
13.050946 16.665832 -10.503206 23.630372 0.906448 2.031389 0.043001 -0.017906 190629.000000 0 1 0
11.806146 17.120032 -9.713506 22.952838 0.967078 2.007764 0.034281 -0.015182 156309.000000 0 1 0
12.186546 17.049632 -8.352906 22.560428 0.950227 1.950070 0.034062 -0.012937 -52878.200000 0 1 0
11.134146 17.334632 -7.496106 21.923738 0.999849 1.919753 0.030055 -0.009962 -508229.000000 0 1 0
11.552746 17.063732 -6.017706 21.467410 0.975650 1.854922 0.029952 -0.013263 -143161.000000 0 1 0
12.637746 17.840632 -5.651306 22.581808 0.954476 1.823744 0.035740 -0.014364 -288190.000000 0 1 0
13.299846 17.357232 -4.484806 22.322027 0.916981 1.773087 0.049081 -0.023059 74737.200000 0 1 0
14.317646 18.361332 -3.906806 23.609249 0.908512 1.737039 0.047857 -0.022160 1071990.000000 0 1 0
15.646046 18.289332 -4.498106 24.485330 0.863133 1.755552 0.054538 -0.026046 1110780.000000 0 1 0
16.231546 19.555232 -4.411006 25.793937 0.878007 1.742650 0.048058 -0.018504 -214005.000000 0 0 1
17.555146 19.820432 -5.197206 26.982284 0.845933 1.764623 0.045214 -0.012627 665319.000000 0 0 1
18.689346 19.093032 -4.755506 27.137619 0.796082 1.746942 0.044118 -0.020977 173720.000000 0 0 1
18.662946 17.739532 -5.130206 26.254820 0.760037 1.767462 0.039015 -0.023038 -850535.000000 0 0 1
19.868146 17.061932 -4.474706 26.568322 0.709557 1.740026 0.051175 -0.020518 375571.000000 0 0 1
21.189046 17.438432 -4.859606 27.869165 0.688605 1.746064 0.043128 -0.022893 281850.000000 0 0 1
22.059646 16.622432 -4.127606 27.927950 0.645751 1.719135 0.038736 -0.026296 496130.000000 0 0 1
23.572346 16.681632 -4.533506 29.231576 0.615860 1.726514 0.038217 -0.020377 1041640.000000 0 0 1
24.299446 17.828032 -4.113806 30.417515 0.632975 1.706457 0.044767 -0.020372 646740.000000 0 0 1
25.716946 17.770732 -4.094706 31.526606 0.604669 1.701045 0.040377 -0.011385 619666.000000 0 0 1
26.382346 19.087932 -3.465606 32.747332 0.626332 1.676824 0.050775 -0.017666 39192.200000 0 0 1
26.293446 20.223432 -4.275606 33.445677 0.655641 1.698984 0.050468 -0.014954 189955.000000 0 0 1
26.448146 21.322432 -3.425806 34.145083 0.678509 1.671296 0.063692 0.002161 -315502.000000 0 0 1
26.131646 22.685832 -4.132106 34.850885 0.714929 1.689641 0.028874 0.001199 -77403.800000 0 0 1
27.136446 23.256032 -4.948406 36.079308 0.708546 1.708384 0.015215 0.012395 5328.600000 0 0 1
27.273346 22.588232 -6.191106 35.949874 0.691711 1.743874 0.026834 0.003391 70178.400000 0 0 1
28.394846 23.134732 -7.101406 37.308352 0.683671 1.762308 0.008706 0.011616 -60824.000000 0 0 1
28.051346 24.273532 -7.887006 37.924758 0.713324 1.780290 -0.002602 0.014335 599718.000000 0 0 1
29.137346 24.911832 -8.596606 39.287224 0.707378 1.791395 -0.019315 0.015668 359459.000000 0 0 1
29.975646 24.215232 -9.728006 39.743565 0.679497 1.818078 -0.008117 0.009296 253917.000000 0 0 1
29.304546 24.006632 -10.959806 39.435925 0.686346 1.852418 -0.002083 0.010029 793988.000000 0 0 1
30.259546 23.540232 -11.972106 40.163590 0.661147 1.873481 -0.000597 0.005996 711022.000000 0 0 1
29.625546 23.024032 -13.281506 39.801727 0.660663 1.911013 0.006328 0.006949 -54517.300000 0 0 1
29.474346 24.047232 -14.241006 40.617887 0.684343 1.929018 0.008079 -0.002499 155336.000000 0 0 1
29.112846 23.567932 -15.486306 40.531851 0.680529 1.962840 0.018723 -0.007888 -231993.000000 0 0 1
29.195346 24.579032 -16.630806 41.630287 0.699762 1.981755 0.019248 -0.009312 -1021210.000000 0 0 1
30.495546 24.965332 -16.927106 42.892576 0.686013 1.976472 0.011518 -0.007983 -635153.000000 0 0 1
30.661046 25.636232 -18.151806 43.895378 0.696379 1.997118 0.015330 -0.015315 -1492610.000000 0 0 1
32.075746 26.017932 -18.409306 45.218236 0.681497 1.990096 0.008917 -0.015712 -1370040.000000 0 0 1
32.894746 24.844532 -18.442906 45.160335 0.646868 1.991483 0.014226 -0.009904 -1146840.000000 0 0 1
34.207846 25.292132 -18.340606 46.327600 0.636661 1.977833 0.015832 -0.008427 -1425910.000000 0 0 1
35.075546 24.020632 -18.265306 46.269927 0.600469 1.976598 0.016160 -0.018317 -669522.000000 0 0 1
35.149846 23.186832 -19.390206 46.358613 0.583134 2.002331 0.015081 -0.014557 -66496.400000 0 0 1
-35.041746 23.760232 -20.456806 47.020777 -0.595845 2.020900 0.013241 -0.005550 -301763.000000 0 0 1
-35.141246 22.814632 -21.694506 47.181206 -0.575831 2.048580 0.019538 -0.009455 1945.350000 0 0 1
-34.625346 21.523232 -21.446106 46.066252 -0.556153 2.055051 0.008680 -0.012756 154505.000000 0 0 1
-34.160246 21.062532 -22.690306 46.102090 -0.552522 2.085383 0.004209 -0.006004 -320559.000000 0 0 1
-33.805146 19.569032 -22.634806 45.144982 -0.524743 2.095990 -0.004535 0.000213 -713824.000000 0 0 1
-34.842346 18.674932 -22.386006 45.429896 -0.492019 2.086054 -0.001713 -0.001703 -441528.000000 0 0 1
-34.542046 17.303332 -22.651206 44.784321 -0.464396 2.101087 -0.011665 -0.002063 70830.700000 0 0 1
35.179546 16.318932 -22.476006 44.822749 0.434333 2.096061 -0.018687 -0.005411 308995.000000 0 0 1
34.120646 16.438132 -23.414506 44.527180 0.448953 2.124508 0.016453 0.000627 126950.000000 0 0 1
33.083146 15.497032 -23.379006 43.373154 0.438072 2.140070 0.022528 0.003592 -221622.000000 0 0 1
33.323346 14.023232 -23.870406 43.323120 0.398327 2.154341 -0.011352 0.002183 -722641.000000 0 0 1
33.341646 13.970532 -25.276546 44.110599 0.396787 2.180990 -0.008924 0.013638 232156.000000 0 0 1
33.640646 12.665032 -25.748436 44.216265 0.360068 2.192388 -0.011686 0.011055 -385176.000000 0 0 1
33.487146 12.709632 -27.312126 45.043045 0.362743 2.222266 0.000689 0.015063 210637.000000 0 0 1
32.152046 12.776732 -27.799716 44.382690 0.378250 2.247676 -0.007413 0.018297 455687.000000 0 0 1
31.748046 14.052832 -28.332906 44.812656 0.416713 2.255253 0.002005 0.016383 -114141.000000 0 0 1
32.145846 14.166032 -29.845416 46.095344 0.415076 2.275058 0.006415 0.008141 251865.000000 0 0 1
33.561646 14.255232 -29.963316 47.195297 0.401657 2.258649 0.006093 0.006503 -32779.400000 0 0 1
33.821846 14.326532 -31.381256 48.310972 0.400674 2.277812 0.012678 -0.001487 -653220.000000 0 0 1
35.317946 14.426332 -31.742716 49.629391 0.387787 2.264768 0.023989 -0.002255 -18532.000000 0 0 1
-34.749946 13.375232 -31.360296 48.681863 -0.367421 2.270758 0.028153 -0.006277 54699.100000 0 0 1
-34.579946 13.153932 -29.972766 47.614759 -0.363489 2.251686 0.009664 -0.000323 -1208800.000000 0 0 1
-33.555846 12.076132 -29.586636 46.337855 -0.345451 2.263342 0.019686 -0.015577 -109811.000000 0 0 1
-33.910446 10.779632 -29.990016 46.535147 -0.307783 2.271112 0.027048 -0.013564 -97267.500000 0 0 1
-32.855046 9.895232 -29.726396 45.398549 -0.292538 2.284698 0.025600 -0.017391 -328893.000000 0 0 1
-33.000746 8.424132 -30.203846 45.522385 -0.249933 2.296276 0.027213 -0.010778 -888062.000000 0 0 1
-33.013846 8.326532 -31.659986 46.493009 -0.247061 2.319872 0.030850 -0.014171 497301.000000 0 0 1
-33.605946 7.134132 -32.236366 47.110920 -0.209182 2.324392 0.020465 -0.010120 176452.000000 0 0 1
-34.896346 6.522932 -31.655026 47.564107 -0.184791 2.298991 0.030511 -0.003612 -430788.000000 0 0 1
-34.688946 5.803332 -30.469206 46.533581 -0.165761 2.284686 0.027195 -0.002092 301087.000000 0 0 1
34.996046 5.345032 -29.968486 46.383217 0.151561 2.273268 0.018510 0.006340 -191082.000000 0 0 1
35.229646 4.748332 -28.561666 45.600914 0.133975 2.247645 0.013968 0.015289 325711.000000 0 0 1
-34.714546 3.686832 -28.560336 45.104160 -0.105808 2.256488 0.008579 0.026465 693744.000000 0 0 1
-35.215446 2.376032 -28.789286 45.547735 -0.067369 2.255016 0.001156 0.030949 269610.000000 0 0 1
-34.131046 1.288332 -28.460406 44.458777 -0.037729 2.265493 0.021947 0.029477 409434.000000 0 0 1
-33.750446 1.285932 -27.078766 43.289789 -0.038083 2.246598 0.048357 0.013771 -209360.000000 0 0 1
-32.815946 0.268032 -26.858616 42.406879 -0.008168 2.256677 0.053989 0.016416 508190.000000 0 0 1
-31.646946 0.702732 -25.872736 40.883022 -0.022202 2.256022 0.045711 0.023451 498433.000000 0 0 1
-32.016946 0.706132 -24.538006 40.344730 -0.022051 2.224598 0.040233 0.020330 -86220.400000 0 0 1
-30.989646 1.118132 -23.649406 38.998754 -0.036065 2.222340 0.054937 0.020974 4569.070000 0 0 1
-31.260546 0.797532 -22.199206 38.349218 -0.025507 2.188138 0.034704 0.021528 -397728.000000 0 0 1
-31.139346 -0.565068 -21.934806 38.093489 0.018144 2.184397 0.038088 0.009085 257212.000000 0 0 1
-31.671246 -1.098968 -20.693206 37.848175 0.034685 2.149265 0.025733 0.006801 793378.000000 0 0 1
-33.222846 -1.064568 -20.458306 39.031181 0.032032 2.122516 0.022166 0.008957 620945.000000 0 0 1
-33.872246 -2.272568 -20.878106 39.854597 0.066992 2.122169 0.030740 0.000767 963336.000000 0 0 1
-35.242646 -2.205168 -20.440006 40.800744 0.062490 2.095517 0.025664 0.002954 843755.000000 0 0 1
34.912246 -3.529968 -20.224206 40.501162 -0.100767 2.093643 0.039927 0.001408 -456564.000000 0 0 1
34.521646 -4.251768 -21.361006 40.818062 -0.122545 2.121542 0.033603 0.006403 -71452.500000 0 0 1
-35.440446 -4.856068 -22.211206 42.106345 0.136173 2.126455 0.027744 -0.004653 -730243.000000 0 0 1
34.869246 -5.755768 -23.301106 42.331250 -0.163592 2.153696 0.031972 -0.010400 -732612.000000 0 0 1
34.423546 -7.007068 -22.785106 41.871716 -0.200811 2.146189 0.046199 -0.011220 345819.000000 0 0 1
33.864846 -7.836268 -23.805006 42.129719 -0.227396 2.171279 0.039434 -0.004096 1101360.000000 0 0 1
32.400546 -7.433268 -24.253806 41.149678 -0.225516 2.201118 0.022646 -0.000604 306386.000000 0 0 1
32.312846 -6.338768 -25.088326 41.397151 -0.193709 2.221869 0.022232 -0.003582 256075.000000 0 0 1
30.952746 -6.043168 -25.384956 40.484421 -0.192813 2.248531 0.013054 -0.003324 385685.000000 0 0 1
30.803746 -4.680168 -26.096046 40.642076 -0.150782 2.268023 0.021213 -0.017488 50363.600000 0 0 1
31.173546 -4.683968 -27.493426 41.828436 -0.149139 2.288014 0.033236 -0.019262 275156.000000 0 0 1
30.732046 -3.561568 -28.182706 41.849831 -0.115376 2.309628 0.028937 -0.014268 -288348.000000 0 0 1
30.699646 -3.749868 -29.773856 42.930319 -0.121545 2.337186 0.038201 -0.007530 -151719.000000 0 0 1
29.944846 -2.760068 -30.375196 42.743003 -0.091912 2.361214 0.023339 -0.003055 -148715.000000 0 0 1
29.575246 -3.206068 -31.675266 43.454534 -0.107982 2.387552 0.032683 -0.009012 -692271.000000 0 0 1
29.297346 -2.024868 -32.675226 43.932960 -0.069005 2.409462 0.047563 -0.007182 954051.000000 0 0 1
28.124046 -1.183968 -32.454876 42.961410 -0.042073 2.427126 0.035261 -0.002725 1486570.000000 0 0 1
26.850346 -1.810068 -32.326826 42.062348 -0.067311 2.447361 0.036453 -0.006796 -32295.100000 0 0 1
26.176246 -2.150468 -33.691886 42.719592 -0.081969 2.479448 0.042795 -0.012165 -584145.000000 0 0 1
26.644446 -3.295868 -34.403377 43.639221 -0.123073 2.478934 0.040798 -0.013618 386862.000000 0 0 1
25.874046 -3.454668 33.270425 42.288559 -0.132734 0.665274 0.026115 -0.013748 -217929.000000 0 0 1
26.205446 -4.745368 32.424248 41.959216 -0.179142 0.687624 0.017976 -0.016219 598239.000000 0 0 1
27.544346 -4.836268 31.913998 42.433286 -0.173809 0.719556 0.022554 -0.011282 671617.000000 0 0 1
27.842546 -4.122668 30.733378 41.674264 -0.147003 0.741485 0.036315 -0.012699 -841257.000000 0 0 1
28.280346 -2.680268 30.848668 41.935691 -0.094493 0.744217 0.032876 -0.011396 -602832.000000 0 0 1
29.567046 -2.723568 31.428028 43.235969 -0.091856 0.757006 0.035791 -0.008330 -149984.000000 0 0 1
29.867646 -1.496068 32.106178 43.876203 -0.050048 0.749918 0.041933 -0.009975 297262.000000 0 0 1
31.280246 -1.518368 32.746268 45.310896 -0.048503 0.763093 0.041113 -0.010157 446526.000000 0 0 1
32.385846 -1.730168 31.885878 45.481268 -0.053373 0.793889 0.044864 -0.011040 187416.000000 0 0 1
33.583546 -1.331968 32.551738 46.789362 -0.039641 0.801391 0.044362 -0.004904 -766361.000000 0 0 1
34.784846 -1.981268 31.965738 47.283394 -0.056896 0.828413 0.031412 0.001556 -1501440.000000 0 0 1
35.146046 -1.413668 30.721888 46.702007 -0.040201 0.852865 0.019500 0.001343 -3880.530000 0 0 1
-34.835846 -2.215268 30.020038 46.039617 0.063506 0.860514 0.020583 -0.005029 100921.000000 0 0 1
-34.496746 -1.728368 28.645858 44.873132 0.050060 0.878412 0.017132 -0.005758 519096.000000 0 0 1
35.316546 -1.757368 27.727288 44.934945 -0.049719 0.905803 0.012789 -0.012777 417637.000000 0 0 1
-35.082146 -1.802768 26.398248 43.941717 0.051342 0.926350 0.023083 -0.005326 -191986.000000 0 0 1
-25.828514 14.947832 12.384194 32.309721 -0.524636 1.177434 0.026565 -0.010130 387964.000000 0 0 1
-27.133694 14.445232 12.680594 33.252060 -0.489209 1.179543 0.014050 0.000529 515796.000000 0 0 1
-27.937964 15.404932 13.307194 34.567661 -0.503916 1.175631 0.024767 -0.004760 -39699.300000 0 0 1
-29.312194 14.751732 13.635794 35.535238 -0.466254 1.176969 0.034263 -0.000414 -45676.100000 0 0 1
-30.170094 15.605732 14.352294 36.874948 -0.477359 1.171017 0.044927 -0.010984 -379212.000000 0 0 1
-31.263134 14.863332 14.843694 37.664803 -0.443797 1.165708 0.050653 -0.012464 -85559.200000 0 0 1
-32.287824 15.623032 15.673994 39.144052 -0.450659 1.158823 0.048497 -0.009703 -226601.000000 0 0 1
-31.707804 16.010832 16.899394 39.336002 -0.467599 1.126728 0.035698 -0.003881 342709.000000 0 0 1
-32.622834 16.508332 17.883094 40.701098 -0.468465 1.115892 0.040416 -0.009615 -1395.580000 0 0 1
-31.842314 16.894332 19.099094 40.793710 -0.487797 1.083558 0.032904 -0.003513 145949.000000 0 0 1
-31.183744 15.700432 19.617094 40.046970 -0.466429 1.058876 0.035469 -0.003661 190042.000000 0 0 1
-30.214674 15.946332 20.636394 39.913316 -0.485614 1.027418 0.026310 0.001400 37195.000000 0 0 1
-30.644894 16.351732 22.035994 41.134823 -0.490155 1.005458 0.030083 -0.009253 -259092.000000 0 0 1
-31.324354 17.619632 22.006594 42.142102 -0.512382 1.021368 0.030949 -0.005859 270523.000000 0 0 1
-31.535474 18.358632 23.214794 43.248724 -0.527197 1.004187 0.030166 -0.009393 -773829.000000 0 0 1
-32.348554 17.673532 24.336094 44.170444 -0.500034 0.987284 0.016518 -0.006600 -943632.000000 0 0 1
-33.632934 17.281632 24.079494 44.829132 -0.474651 1.003754 0.030596 -0.010409 -636878.000000 0 0 1
-34.658458 18.272032 23.888094 45.888091 -0.485172 1.023275 0.016714 -0.014338 -56235.700000 0 0 1
34.906661 17.557132 23.642594 45.669466 0.466024 1.026648 0.005433 -0.019269 -232652.000000 0 0 1
34.522419 16.928932 24.810894 45.759880 0.455918 0.997746 0.011488 -0.013500 289861.000000 0 0 1
33.482779 15.983632 24.456194 44.437354 0.445379 0.988010 0.019692 -0.007810 409490.000000 0 0 1
33.045059 15.184732 25.628394 44.490073 0.430739 0.956911 0.024024 -0.014032 -931876.000000 0 0 1
32.268449 16.033232 26.430894 44.686793 0.461141 0.937916 0.021464 -0.016912 -159816.000000 0 0 1
31.973869 15.560632 27.741794 45.100651 0.452925 0.908273 0.021672 -0.009851 540565.000000 0 0 1
30.966019 14.331532 27.731994 43.969883 0.433459 0.888336 0.020680 -0.000953 62755.900000 0 0 1
31.596039 13.088932 27.432994 43.842890 0.392738 0.894753 0.018307 -0.001263 65280.800000 0 0 1
30.701289 12.013332 27.637594 43.020064 0.372982 0.873125 0.021348 0.000892 -182666.000000 0 0 1
31.215989 10.655832 27.166394 42.731694 0.328955 0.881825 0.029781 -0.001713 756127.000000 0 0 1
32.245099 10.070532 28.018894 43.888728 0.302714 0.878369 0.037046 -0.006188 599419.000000 0 0 1
32.697409 8.884232 27.446394 43.604526 0.265306 0.889965 0.034117 -0.001791 681330.000000 0 0 1
33.925519 8.208332 28.185394 44.863504 0.237389 0.891497 0.043457 -0.004232 1268460.000000 0 0 1
35.141099 8.950932 28.212894 45.945439 0.249410 0.909612 0.044237 -0.001811 304219.000000 0 0 1
-34.812614 8.365732 29.066494 46.116858 -0.235836 0.888884 0.049020 -0.003574 -150879.000000 0 0 1
-33.450584 9.043732 29.037494 45.209586 -0.264048 0.873319 0.062551 -0.004999 -293726.000000 0 0 1
-32.704784 9.071832 27.835994 43.894687 -0.270583 0.883882 0.056587 -0.002620 -201751.000000 0 0 1
-31.527784 9.786832 28.050294 43.319767 -0.300988 0.866474 0.049550 -0.001271 -363847.000000 0 0 1
-30.805054 10.443032 26.869194 42.189594 -0.326845 0.880368 0.034731 0.000333 4428.670000 0 0 1
-30.167614 9.488632 26.060994 40.979195 -0.304734 0.881549 0.023517 -0.000759 -152857.000000 0 0 1
-29.507424 10.072732 24.992094 39.959389 -0.328959 0.895104 0.034402 0.000978 141986.000000 0 0 1
-28.770444 9.030132 24.055894 38.574185 -0.304131 0.897423 0.019129 0.004425 560253.000000 0 0 1
-27.858014 9.575232 23.107494 37.439421 -0.331065 0.905621 0.018878 0.005881 -88107.300000 0 0 1
-27.118524 8.508832 22.560194 36.287421 -0.304037 0.899874 -0.001537 0.006490 -348034.000000 0 0 1
-26.092204 9.004132 21.552294 35.019693 -0.332293 0.907860 0.000708 0.010031 -798192.000000 0 0 1
-24.895654 9.577132 22.093694 34.635911 -0.367240 0.879049 0.003053 0.002822 1246380.000000 0 0 1
-23.928654 10.099232 21.148994 33.494102 -0.399374 0.887408 0.008073 0.004898 750824.000000 0 0 1
-23.488754 9.183932 20.002094 32.189283 -0.372717 0.900281 0.014927 0.002045 -1841210.000000 0 0 1
-24.428754 9.010832 18.997994 32.231706 -0.353378 0.940456 0.012502 0.006111 -236426.000000 0 0 1
-24.088954 8.012832 17.981494 31.109762 -0.321122 0.954519 0.018115 0.001678 -270355.000000 0 0 1
-23.837854 6.599432 18.469994 30.869669 -0.270082 0.929391 0.024554 -0.004406 105985.000000 0 0 1
-22.550954 6.315832 19.052594 30.190008 -0.273073 0.887840 0.018019 -0.003005 1069990.000000 0 0 1
-22.420454 5.032632 19.670794 30.248046 -0.220806 0.862796 0.017991 -0.008109 -340041.000000 0 0 1
-22.544954 3.770932 18.806294 29.600195 -0.165729 0.882343 0.031267 -0.009160 -477938.000000 0 0 1
-23.895154 3.478032 18.488294 30.412039 -0.144539 0.917349 0.043740 -0.018488 403668.000000 0 0 1
-24.013354 2.599932 17.391094 29.763248 -0.107850 0.946761 0.051393 -0.013813 -188878.000000 0 0 1
-23.755654 1.100632 17.714094 29.653526 -0.046298 0.930580 0.048299 -0.010249 49985.000000 0 0 1
-22.390354 0.860132 18.018594 28.753043 -0.038396 0.893527 0.023665 -0.005638 421709.000000 0 0 1
-22.311954 -0.318268 18.695594 29.110991 0.014263 0.873408 0.029662 -0.010444 455055.000000 0 0 1
-20.862854 -0.903268 18.890694 28.159064 0.043268 0.835433 0.030589 -0.002569 498250.000000 0 0 1
-20.053554 -0.203968 19.801694 28.183217 0.010171 0.791743 0.005504 -0.001996 -632245.000000 0 0 1
-19.166454 -1.159368 20.269794 27.920631 0.060416 0.758339 -0.019704 0.004469 -1166570.000000 0 0 1
-18.249454 -0.826668 21.383694 28.124514 0.045267 0.706987 -0.011406 0.005326 -285733.000000 0 0 1
-18.889654 -0.670768 22.645294 29.497089 0.035495 0.695532 -0.007077 0.005654 -119247.000000 0 0 1
-17.917554 -0.751668 23.671994 29.697930 0.041927 0.648332 -0.003790 0.012271 -752376.000000 0 0 1
-18.284554 -0.752068 25.195894 31.140385 0.041108 0.628166 -0.000533 0.018894 20532.300000 0 0 1
-19.046054 0.332832 25.720094 32.006033 -0.017473 0.637474 0.004899 0.007016 -210743.000000 0 0 1
-20.418054 0.308232 25.427394 32.612027 -0.015095 0.676620 0.033756 -0.004400 -402144.000000 0 0 1
-21.276454 1.494732 25.907394 33.557634 -0.070138 0.688772 0.032529 -0.010486 -246556.000000 0 0 1
-21.008154 2.725232 25.239694 32.951655 -0.129002 0.698261 0.027319 -0.005943 472064.000000 0 0 1
-22.148954 3.242032 24.562694 33.232708 -0.145342 0.739045 0.019997 -0.008318 -370122.000000 0 0 1
-21.667654 4.439032 23.693994 32.412923 -0.202073 0.751003 0.017585 -0.001010 319821.000000 0 0 1
-21.132054 4.148132 22.371394 31.052374 -0.193831 0.766359 0.022795 -0.003742 578424.000000 0 0 1
-19.990154 3.303832 22.399494 30.203624 -0.163792 0.735320 0.011341 0.001003 -570332.000000 0 0 1
-19.548554 2.732232 21.028394 28.841019 -0.138867 0.753770 0.004038 -0.002090 -113700.000000 0 0 1
-19.004654 3.598232 20.032794 27.846669 -0.187119 0.767863 0.000925 -0.004301 422954.000000 0 0 1
-18.909054 2.819832 18.856194 26.852557 -0.148035 0.792296 0.012068 -0.011343 -263404.000000 0 0 1
-18.466754 3.690332 17.684894 25.833990 -0.197238 0.816798 0.008427 -0.015233 -867465.000000 0 0 1
-17.126554 4.026232 17.605494 24.889411 -0.230895 0.785056 0.008451 -0.017176 -802880.000000 0 1 0
-16.767254 4.877732 16.509494 24.031156 -0.283095 0.813439 0.011543 -0.015004 -1076990.000000 0 1 0
-15.270354 5.105432 16.415494 22.993860 -0.322653 0.775733 0.021411 -0.019087 -759194.000000 0 1 0
-14.806754 5.946332 17.510694 23.690150 -0.381881 0.738981 0.013824 -0.019898 10042.200000 0 1 0
-15.268154 7.293332 17.568294 24.391682 -0.445635 0.766623 0.016070 -0.028277 -559055.000000 0 1 0
-14.779754 8.311732 16.402494 23.591690 -0.512293 0.802007 0.008892 -0.018603 41987.600000 0 1 0
-15.206754 8.064032 15.032494 22.852786 -0.487587 0.852906 0.008999 -0.016776 861614.000000 0 1 0
-16.572454 8.416932 14.760494 23.735272 -0.469937 0.899655 0.013998 -0.010460 668602.000000 0 1 0
-17.133654 7.746932 13.534994 23.168364 -0.424638 0.946900 0.013764 -0.010062 -218264.000000 0 1 0
-16.921554 6.303032 13.602494 22.607411 -0.356564 0.925190 0.010154 -0.011675 226989.000000 0 1 0
-17.387254 5.695832 12.381194 22.091923 -0.316570 0.975880 0.001749 -0.009981 -24312.700000 0 1 0
-17.250854 4.189432 12.363194 21.633119 -0.238241 0.962471 0.010301 -0.008837 -939.857000 0 1 0
-17.809854 3.538932 13.477494 22.613221 -0.196151 0.932285 0.006074 -0.003881 83663.300000 0 1 0
-17.444254 2.195132 13.474094 22.151113 -0.125179 0.916904 -0.001023 -0.010239 11915.800000 0 1 0
-18.317754 1.331032 14.483894 23.390061 -0.072536 0.903031 0.008161 -0.012927 1243210.000000 0 1 0
-19.707754 1.315032 14.107294 24.272219 -0.066628 0.950580 0.027059 -0.006700 402252.000000 0 1 0
-20.466554 0.810232 15.151594 25.477580 -0.039567 0.933900 0.024576 -0.012716 -312121.000000 0 0 1
-21.914254 0.578432 14.667194 26.376044 -0.026389 0.981134 0.036632 -0.018963 -386981.000000 0 0 1
-21.889654 -0.488268 13.793194 25.877549 0.022302 1.008633 0.035362 -0.014672 77802.300000 0 0 1
-23.174754 -0.933168 13.455394 26.813945 0.040245 1.045111 0.057686 -0.024126 -429685.000000 0 0 1
-23.200954 -2.179668 12.475894 26.432615 0.093672 1.079251 0.045546 -0.019798 -354110.000000 0 0 1
-22.796254 -3.424268 12.969594 26.450050 0.149097 1.058313 0.043424 -0.016454 193652.000000 0 0 1
-22.814254 -4.430068 11.960994 26.137732 0.191793 1.095486 0.043796 -0.010842 -147691.000000 0 0 1
-22.561954 -5.814168 12.588694 26.482476 0.252211 1.075424 0.039685 -0.005878 -17065.000000 0 0 1
-23.636754 -6.309568 13.352494 27.871058 0.260856 1.071189 0.044499 -0.005234 135625.000000 0 0 1
-23.656954 -7.735268 13.555994 28.341680 0.316019 1.072072 0.051063 -0.007454 -114587.000000 0 0 1
-24.534254 -8.078368 14.802894 29.771048 0.318088 1.050399 0.054217 -0.001133 439598.000000 0 0 1
-25.917644 -7.955668 14.533694 30.761098 0.297829 1.078705 0.051224 -0.012349 652112.000000 0 0 1
-26.767234 -8.501468 15.584194 32.118949 0.307531 1.064202 0.048758 -0.004986 1648230.000000 0 0 1
-28.289774 -8.057968 15.480894 33.240039 0.277488 1.086337 0.051105 -0.013858 1480100.000000 0 0 1
-29.116234 -8.644168 14.449094 33.634105 0.288596 1.126750 0.045802 -0.011361 911921.000000 0 0 1
-29.568654 -10.006068 14.401094 34.377583 0.326305 1.138552 0.050169 -0.011608 -341119.000000 0 0 1
-29.898354 -10.765368 15.734094 35.459363 0.345614 1.111049 0.048419 -0.006807 -837699.000000 0 0 1
-28.859534 -10.937268 16.648094 35.066445 0.362258 1.076107 0.054589 -0.009420 -361250.000000 0 0 1
-29.300454 -11.373068 17.899194 36.169661 0.370252 1.053114 0.054265 -0.000529 -20329.100000 0 0 1
-28.129404 -11.329568 18.927194 35.747184 0.382889 1.012816 0.051433 0.010170 228408.000000 0 0 1
-27.157694 -12.274068 18.520194 35.088326 0.424479 1.014769 0.046622 0.010002 -760532.000000 0 0 1
-26.072754 -12.155768 19.374994 34.683448 0.436264 0.978071 0.030049 0.010037 -157713.000000 0 0 1
-24.781554 -12.912368 18.936594 33.755729 0.480344 0.975216 0.039314 0.008054 360032.000000 0 0 1
-24.130254 -12.452968 17.758194 32.445323 0.476423 0.991630 0.031015 0.014314 53893.500000 0 0 1
-23.239354 -13.465268 17.363294 31.982260 0.525147 0.996905 0.028512 0.001376 -187023.000000 0 0 1
-22.752654 -13.330768 15.868894 30.776849 0.529987 1.029075 0.036423 0.000567 305975.000000 0 0 1
-21.749954 -12.358068 15.565594 29.463028 0.516700 1.014188 0.041792 -0.005401 189751.000000 0 0 1
-21.662954 -12.155968 14.195794 28.610692 0.511356 1.051613 0.046668 -0.002724 -355180.000000 0 0 1
-20.456554 -11.332568 13.804994 27.156501 0.505895 1.037529 0.021358 -0.004978 -834316.000000 0 0 1
-20.622454 -9.911168 13.913894 26.778971 0.448008 1.024434 0.016601 -0.005206 -62903.400000 0 0 1
-19.412954 -9.205568 13.781694 25.525288 0.442793 1.000451 0.010070 -0.000435 -316368.000000 0 0 1
-18.859354 -9.064268 12.381694 24.313423 0.448027 1.036479 0.001433 0.007320 -547367.000000 0 1 0
-18.402554 -10.262568 11.845494 24.172092 0.508713 1.058651 -0.004051 -0.005325 89081.400000 0 1 0
-17.973954 -10.078968 10.481694 23.119570 0.511062 1.100255 -0.007747 0.000092 -978120.000000 0 1 0
-17.463454 -11.329068 9.727494 22.977035 0.575482 1.133648 -0.011568 -0.012345 636696.000000 0 1 0
-16.055654 -11.578168 9.764794 22.072363 0.624765 1.112524 -0.005135 -0.018041 820528.000000 0 1 0
-15.615054 -11.848668 11.104094 22.528243 0.649108 1.055381 0.003432 -0.016052 -496791.000000 0 1 0
-14.099254 -12.231168 11.128394 21.730890 0.714569 1.033168 0.003879 -0.014700 570747.000000 0 1 0
-13.927254 -13.598168 10.830694 22.275154 0.773443 1.063034 0.007672 -0.019258 460671.000000 0 1 0
-12.545754 -13.919068 10.711394 21.584030 0.837244 1.051505 0.019025 -0.023561 389545.000000 0 1 0
-12.129954 -15.410668 10.591494 22.289105 0.903962 1.075620 0.020530 -0.025010 -171602.000000 0 1 0
-12.561554 -16.046268 9.434794 22.456417 0.906611 1.137199 0.013677 -0.018203 -52226.600000 0 1 0
-12.253854 -17.422868 9.516394 23.329702 0.957846 1.150634 0.015475 -0.016007 239675.000000 0 1 0
-12.656454 -18.196268 8.281594 23.661673 0.963062 1.213225 0.005067 -0.003461 41928.100000 0 1 0
-11.862154 -17.805368 7.190094 22.570761 0.983108 1.246589 0.012136 -0.009659 -99134.500000 0 1 0
-12.211554 -18.572068 6.099594 23.048835 0.989151 1.302968 0.002872 0.004486 176793.000000 0 1 0
-11.255054 -18.272168 4.913294 22.015649 1.018719 1.345728 0.013925 -0.001277 -71868.000000 0 1 0
-11.553554 -19.117368 3.830494 22.663430 1.027185 1.400965 0.012806 0.007576 325051.000000 0 1 0
-10.896854 -18.825868 2.568894 21.903286 1.046093 1.453242 0.022838 -0.008781 88861.400000 0 1 0
-11.342654 -19.731768 1.473294 22.807215 1.049081 1.506154 0.034065 -0.004233 -156053.000000 0 1 0
-11.089954 -21.111968 1.683594 23.906835 1.087120 1.500315 0.018798 -0.001419 -172055.000000 0 1 0
-11.577654 -22.090568 0.710894 24.950764 1.088056 1.542301 0.029556 0.002960 39350.200000 0 1 0
-10.739454 -22.381968 -0.576706 24.831853 1.123418 1.594023 0.043213 0.003319 130811.000000 0 1 0
-10.748054 -21.238168 -1.420106 23.845275 1.102302 1.630387 0.047933 -0.017905 -151825.000000 0 1 0
-11.748154 -21.310068 -2.416706 24.453601 1.066959 1.669786 0.062746 -0.012878 263191.000000 0 1 0
-12.846254 -20.206968 -2.256106 24.050734 1.004515 1.664741 0.064371 -0.015235 67305.200000 0 1 0
-13.577954 -20.427668 -1.081506 24.552395 0.984167 1.614859 0.055878 -0.005493 -862566.000000 0 1 0
-14.432654 -19.353668 -0.962006 24.161776 0.930032 1.610622 0.052605 -0.003922 -351552.000000 0 1 0
26.230446 -20.959968 -4.255906 33.844783 -0.674174 1.696878 0.044730 -0.015178 -437596.000000 0 0 1
24.870946 -20.965468 -3.918006 32.763785 -0.700399 1.690667 0.072905 -0.021213 -289294.000000 0 0 1
24.684246 -21.713468 -2.731506 32.988602 -0.721457 1.653693 0.046842 -0.025636 -306445.000000 0 0 1
23.295146 -21.709868 -2.076806 31.910740 -0.750188 1.635924 0.042499 -0.030591 -770415.000000 0 0 1
22.339246 -22.341668 -2.831406 31.720796 -0.785452 1.660176 0.056264 -0.034457 -390601.000000 0 0 1
21.143846 -22.487668 -2.072106 30.936242 -0.816188 1.637826 0.054913 -0.033845 242498.000000 0 0 1
19.971946 -23.237768 -2.716906 30.761243 -0.860835 1.659234 0.059625 -0.040792 18466.800000 0 0 1
19.317546 -22.494468 -3.743706 29.886184 -0.861234 1.696392 0.053001 -0.043470 360738.000000 0 0 1
18.257846 -23.283868 -4.335406 29.904568 -0.905800 1.716284 0.051788 -0.038746 1354810.000000 0 0 1
17.219446 -22.495168 -5.263706 28.814033 -0.917466 1.754506 0.029191 -0.016787 740980.000000 0 0 1
16.339646 -21.514468 -4.647206 27.412641 -0.921260 1.741147 0.022384 -0.016425 762866.000000 0 0 1
16.952246 -20.573568 -3.775606 26.924070 -0.881602 1.711492 0.027688 -0.020615 -616256.000000 0 0 1
15.947246 -20.091168 -2.717006 25.794414 -0.899882 1.676325 0.034444 -0.011462 -213959.000000 0 0 1
15.561046 -21.068468 -1.816806 26.255043 -0.934635 1.640050 0.033756 -0.017140 -42866.000000 0 0 1
14.813746 -20.400768 -0.813106 25.224979 -0.942743 1.603036 0.033967 -0.007746 -536231.000000 0 0 1
14.363146 -21.245068 0.386494 25.647656 -0.976312 1.555726 0.026502 -0.009950 215580.000000 0 0 1
13.498946 -22.371168 0.140894 26.128731 -1.027875 1.565404 0.019669 -0.010857 104191.000000 0 0 1
13.135446 -22.878668 1.403794 26.418630 -1.049612 1.517635 0.026012 -0.002948 367896.000000 0 0 1
12.028246 -23.994168 1.475694 26.880783 -1.106110 1.515871 0.023728 -0.009244 207616.000000 0 0 1
12.464646 -25.261348 1.187894 28.194223 -1.112420 1.528651 0.020002 -0.004262 -470106.000000 0 0 1
11.445846 -26.235008 1.196094 28.648101 -1.159409 1.529033 0.025802 -0.013544 -302988.000000 0 0 1
11.643246 -27.634218 1.928394 30.048858 -1.172035 1.506577 0.032695 -0.009822 -134547.000000 0 0 1
11.670046 -27.483948 3.351394 30.046451 -1.169253 1.459023 0.039373 -0.017427 115177.000000 0 0 1
11.859546 -28.772728 3.926094 31.367705 -1.179834 1.445304 0.035893 -0.017305 -88682.800000 0 0 1
11.587246 -28.823028 5.445194 31.538569 -1.188555 1.397275 0.039883 -0.017708 -125863.000000 0 0 1
11.553546 -30.135458 5.951194 32.818394 -1.204693 1.388450 0.029558 -0.012671 -181444.000000 0 0 1
11.726646 -30.193948 7.363494 33.217612 -1.200349 1.347265 0.034670 -0.006712 133789.000000 0 0 1
11.310546 -31.574708 7.931194 34.464394 -1.226822 1.338588 0.026639 -0.001776 -1655.280000 0 0 1
11.436646 -31.667468 9.340794 34.941034 -1.224225 1.300175 0.016054 0.004050 -202513.000000 0 0 1
10.946146 -32.892318 9.749994 36.010902 -1.249537 1.296623 0.011852 0.005701 -5969.620000 0 0 1
10.937246 -33.126498 11.327394 36.678305 -1.251899 1.256833 0.000359 0.008822 50742.600000 0 0 1
12.143646 -33.726648 11.780494 37.732413 -1.225187 1.253276 0.015316 0.006561 114726.000000 0 0 1
12.193146 -34.195101 13.171094 38.619366 -1.228275 1.222764 0.006177 0.004972 -537495.000000 0 0 1
11.190546 33.840476 13.682394 38.178712 1.251431 1.204267 0.000092 0.004446 -450957.000000 0 0 1
11.218046 32.619357 12.947194 36.844224 1.239559 1.211726 0.008104 0.003261 -127037.000000 0 0 1
10.059246 31.883947 13.220394 35.952098 1.265185 1.194238 0.007630 0.007244 -479656.000000 0 0 1
9.891246 30.696817 12.269694 34.506184 1.259077 1.207262 0.020124 0.006391 -219205.000000 0 0 1
9.520046 30.864587 10.905694 34.090881 1.271609 1.245172 0.007376 0.003002 -246994.000000 0 0 1
10.370346 31.713257 10.218094 34.895332 1.254753 1.273620 -0.001856 0.004723 -471621.000000 0 0 1
9.935746 31.977317 8.766894 34.613961 1.269541 1.314731 0.004471 0.001281 -81235.600000 0 0 1
8.774846 32.757327 8.612794 34.988865 1.309067 1.322082 0.004214 -0.000982 -207175.000000 0 0 1
8.309846 32.801697 7.271194 34.610333 1.322680 1.359132 0.002501 -0.001293 -184833.000000 0 0 1
8.719246 34.108929 6.531194 35.806435 1.320526 1.387367 0.014289 -0.000827 -291871.000000 0 0 1
7.947146 -33.821568 6.806794 35.403221 -1.340010 1.377327 0.009792 0.000288 -460523.000000 0 0 1
8.466746 -32.679188 6.145194 34.312950 -1.317284 1.390732 0.027326 -0.008574 -568914.000000 0 0 1
7.663546 -31.389448 6.310194 32.921815 -1.331337 1.377931 0.007436 -0.005565 -219971.000000 0 0 1
7.724846 -30.841978 7.581394 32.686058 -1.325380 1.336719 0.019546 -0.003696 -8269.350000 0 0 1
7.112346 -29.558368 7.651394 31.350062 -1.334665 1.324243 0.015218 -0.000418 147572.000000 0 0 1
8.106946 -28.405588 7.365594 30.444244 -1.292788 1.326434 0.037798 -0.009090 -151430.000000 0 0 1
8.629246 -27.838158 8.545094 30.371789 -1.270210 1.285596 0.028100 -0.011417 247014.000000 0 0 1
9.502246 -26.707068 8.293194 29.535356 -1.228968 1.286181 0.038198 -0.012820 301938.000000 0 0 1
9.107946 -25.473048 7.390894 28.043826 -1.227409 1.304098 0.036737 -0.014660 -443796.000000 0 0 1
9.065846 -25.818108 6.017294 28.017353 -1.233104 1.354340 0.047708 -0.014840 70156.000000 0 0 1
8.226346 -24.888568 5.319594 26.747181 -1.251573 1.370577 0.049230 -0.008711 254785.000000 0 0 1
7.754546 -25.417578 3.901994 26.859110 -1.274680 1.425004 0.048040 -0.007928 282547.000000 0 0 1
6.897746 -26.564118 3.814494 27.708873 -1.316743 1.432694 0.033753 -0.008845 -58035.300000 0 0 1
7.487146 -27.837328 3.990094 29.101461 -1.308053 1.433253 0.034778 -0.006253 420613.000000 0 0 1
6.471646 -28.986238 3.598694 29.917132 -1.351133 1.450216 0.029277 -0.008308 640416.000000 0 0 1
5.338446 -29.107898 4.454694 29.926795 -1.389410 1.421388 0.009434 -0.001932 417940.000000 0 0 1
4.339946 -30.013958 3.945894 30.581741 -1.427194 1.441408 0.010256 0.000255 382432.000000 0 0 1
4.528546 -31.568778 4.055294 32.148731 -1.428318 1.444318 0.013467 -0.002510 140392.000000 0 0 1
5.708346 -32.100418 3.427694 32.783702 -1.394808 1.466050 0.021775 -0.001912 435706.000000 0 0 1
5.786446 -33.515208 3.679794 34.209546 -1.399830 1.463022 0.014466 -0.003689 -20763.900000 0 0 1
7.035846 -34.211413 3.112394 35.065808 -1.367966 1.481921 0.012792 -0.004509 -41007.500000 0 0 1
6.889946 -34.285123 1.696194 35.011685 -1.372478 1.522331 0.024135 -0.005537 -24092.800000 0 0 1
7.846046 33.903059 1.093494 34.816284 1.343374 1.539384 0.026686 -0.008064 -341035.000000 0 0 1
7.382546 33.511856 -0.325306 34.316939 1.353963 1.580276 0.033921 -0.004186 1027200.000000 0 0 1
6.176246 32.750847 -0.378406 33.330275 1.384403 1.582150 0.019713 0.000326 1548.880000 0 0 1
4.955346 33.428467 -0.234206 33.794567 1.423631 1.577727 0.022043 -0.005992 -563844.000000 0 0 1
3.785846 32.498367 0.093594 32.718271 1.454826 1.567936 0.017657 -0.007643 -101171.000000 0 0 1
3.542346 31.601217 -0.966706 31.813828 1.459167 1.601187 0.021332 -0.005416 -16726.700000 0 0 1
2.380346 30.835927 -0.703906 30.935674 1.493755 1.593552 0.015486 -0.011861 361009.000000 0 0 1
2.172846 29.612757 -1.672506 29.739434 1.497552 1.627065 0.015648 -0.012088 -40531.500000 0 0 1
1.881146 30.048997 -2.971806 30.254133 1.508275 1.669183 0.024430 -0.011015 -84874.700000 0 0 1
1.740746 28.928877 -3.861906 29.237381 1.510695 1.703271 0.032440 -0.013387 -168672.000000 0 0 1
1.432946 29.397857 -5.280106 29.902623 1.522092 1.748304 0.034197 -0.014197 -334756.000000 0 0 1
0.118446 29.815967 -5.531006 30.324874 1.566824 1.754215 0.033179 -0.009587 -289922.000000 0 0 1
0.029046 30.773667 -6.556006 31.464276 1.569852 1.780698 0.026040 0.001315 -134912.000000 0 0 1
0.160446 30.156987 -7.992006 31.198426 1.565476 1.829851 0.025954 -0.000573 -324961.000000 0 0 1
-1.027054 29.494587 -8.383806 30.680185 -1.535989 1.847581 0.035044 -0.003184 56977.800000 0 0 1
-1.132854 29.064197 -9.752806 30.677812 -1.531838 1.894321 0.030806 -0.004677 -76180.400000 0 0 1
-1.352754 30.200957 -10.807106 32.104849 -1.526034 1.914120 0.017372 -0.011984 -208359.000000 0 0 1
-0.205954 30.987467 -11.061906 32.903363 -1.564150 1.913669 0.015040 -0.009787 -224659.000000 0 0 1
-0.443954 32.249637 -11.726506 34.318321 -1.557031 1.919520 0.001264 -0.010132 -20359.700000 0 0 1
-0.712754 33.504384 -10.827806 35.217796 -1.549526 1.883311 -0.000239 -0.001001 -23884.700000 0 0 1
0.320146 33.688380 -9.903306 35.115309 1.561293 1.856698 0.003636 -0.007996 -561538.000000 0 0 1
-0.134854 -34.518429 -8.874506 35.641226 1.566890 1.822439 0.006394 0.002240 -774264.000000 0 0 1
0.824246 -34.028159 -7.833406 34.927886 -1.546579 1.796994 0.012295 -0.000414 -1403330.000000 0 0 1
1.850446 -33.302888 -8.355606 34.384919 -1.515289 1.816256 0.008664 0.003838 -876212.000000 0 0 1
2.721346 -32.764258 -7.353206 33.689345 -1.487928 1.790833 0.023698 0.000912 -219806.000000 0 0 1
4.014246 -32.158188 -7.974606 33.374505 -1.446611 1.812074 0.006849 0.005792 372674.000000 0 0 1
4.839446 -33.050738 -8.696606 34.516698 -1.425405 1.825495 0.016460 0.008741 218744.000000 0 0 1
5.574646 -33.914528 -7.815506 35.247043 -1.407880 1.794390 0.037977 0.011783 -977900.000000 0 0 1
5.936346 33.740852 -8.503606 35.298678 1.396639 1.814094 0.037378 0.010674 479435.000000 0 0 1
4.877246 32.801787 -8.700206 34.284667 1.423189 1.827366 0.027242 0.011237 384081.000000 0 0 1
3.898046 33.112813 -9.709106 34.726358 1.453615 1.854162 0.021161 0.005325 860074.000000 0 0 1
3.034846 31.867897 -9.964406 33.527042 1.475851 1.872560 0.022802 -0.001387 -38786.800000 0 0 1
3.894846 31.025547 -10.679706 33.042556 1.445913 1.899917 0.030752 0.002253 -42678.700000 0 0 1
3.378846 29.734627 -10.846706 31.831049 1.457648 1.918520 0.023846 -0.000013 172165.000000 0 0 1
4.192746 28.812077 -11.803306 31.417081 1.426290 1.955945 0.026536 -0.000062 176327.000000 0 0 1
3.792646 29.045177 -13.116706 32.094462 1.440953 1.991815 0.025463 0.001444 -363802.000000 0 0 1
4.869546 28.905897 -13.979906 32.476163 1.403901 2.015806 0.029239 -0.007245 -540511.000000 0 0 1
4.630246 29.461787 -15.378506 33.554948 1.414910 2.046887 0.036136 -0.006043 -214203.000000 0 0 1
3.597246 28.756307 -16.010706 33.109033 1.446349 2.075531 0.012313 -0.003356 -62551.200000 0 0 1
3.309346 29.321797 -17.300306 34.205557 1.458409 2.101076 0.047031 -0.007330 508526.000000 0 0 1
2.294846 28.474227 -18.147106 33.843247 1.490376 2.136738 0.036292 -0.012357 77764.900000 0 0 1
2.917546 27.361847 -18.739806 33.292088 1.464569 2.168675 0.045934 0.003725 3647.450000 0 0 1
2.121246 26.721977 -19.721206 33.278968 1.491580 2.205083 0.015692 -0.002186 86631.700000 0 0 1
2.856646 25.536487 -20.394306 32.805492 1.459394 2.241674 0.028806 -0.001746 212933.000000 0 0 1
2.812446 24.354007 -19.579106 31.374654 1.455824 2.244701 0.027944 -0.003553 4569.180000 0 0 1
3.999246 23.603457 -19.759006 31.040868 1.402956 2.260811 0.028865 -0.008979 225371.000000 0 0 1
4.357046 22.518957 -18.708506 29.598910 1.379674 2.255015 0.030327 -0.002390 -206819.000000 0 0 1
3.523546 21.414157 -18.686006 28.638232 1.407715 2.281655 0.049518 -0.007447 -678447.000000 0 0 1
4.302446 20.365957 -18.163206 27.625809 1.362601 2.288256 0.044357 0.001671 -11570.900000 0 0 1
3.529446 19.097857 -17.824106 26.360651 1.388050 2.313339 0.039525 -0.009078 178837.000000 0 0 1
2.728946 19.274657 -16.641606 25.610596 1.430149 2.278109 0.032085 -0.009524 447063.000000 0 0 1
1.739346 18.223957 -16.464706 24.621626 1.475642 2.303268 0.022861 -0.006346 656946.000000 0 1 0
2.119546 16.995957 -15.594606 23.163479 1.446728 2.309380 0.021140 -0.006073 1277950.000000 0 1 0
3.296346 16.265357 -16.103906 23.124955 1.370844 2.341146 0.018942 -0.012615 861748.000000 0 1 0
3.053946 15.183357 -16.912606 22.932448 1.372307 2.400153 0.017489 -0.019495 -179672.000000 0 1 0
2.838546 15.444057 -18.418906 24.203974 1.389030 2.435629 0.018652 -0.015261 141767.000000 0 1 0
4.101746 15.857357 -18.911006 25.018118 1.317679 2.427812 0.020983 -0.017481 13593.700000 0 0 1
3.947046 16.378357 -20.240706 26.334691 1.334314 2.447438 0.018068 -0.011683 -508029.000000 0 0 1
4.399646 15.375457 -21.330206 26.659694 1.292096 2.498245 0.006970 -0.018147 -341212.000000 0 0 1
3.610046 14.268357 -21.495106 26.051066 1.322986 2.541201 0.006778 -0.017529 -5185.880000 0 0 1
2.279746 14.492057 -21.956706 26.406702 1.414765 2.552567 0.023209 -0.021037 172362.000000 0 0 1
1.481246 13.340757 -22.535506 26.230115 1.460218 2.604395 0.032899 -0.015770 -56766.700000 0 0 1
0.980246 12.448057 -21.570606 24.924006 1.492212 2.616854 0.019517 -0.015370 -156834.000000 0 1 0
0.142646 11.475557 -22.145006 24.942134 1.558367 2.663459 0.027830 -0.008481 -181376.000000 0 1 0
-0.549554 10.643657 -21.029206 23.575770 -1.519210 2.672511 0.016987 -0.010148 93242.300000 0 1 0
-1.700054 11.228657 -20.366106 23.318473 -1.420534 2.632915 0.012555 -0.007159 758188.000000 0 1 0
-2.115154 10.394357 -19.332606 22.051444 -1.370047 2.639765 0.004685 -0.003861 -26581.900000 0 1 0
-3.219554 9.409357 -19.730006 22.094675 -1.241118 2.674710 0.006295 -0.006334 -1161440.000000 0 1 0
-2.654154 8.328557 -20.352406 22.150165 -1.262290 2.735921 0.003065 -0.011254 -226043.000000 0 1 0
-3.598654 7.467957 -20.967006 22.546309 -1.121750 2.765081 0.007498 -0.000058 341396.000000 0 1 0
-2.831254 6.259857 -21.688906 22.751054 -1.146042 2.834824 0.004817 -0.010844 258543.000000 0 1 0
-2.232654 5.319857 -20.864606 21.647573 -1.173438 2.871819 0.011512 -0.014220 -58280.100000 0 1 0
-1.979554 4.214757 -21.754206 22.246984 -1.131704 2.930725 0.021398 -0.013967 -764936.000000 0 1 0
-1.164954 3.062657 -21.181506 21.433459 -1.207323 2.988111 0.018355 -0.005191 325934.000000 0 1 0
0.174546 3.439657 -20.867306 21.149614 1.520095 2.978020 0.006348 -0.008502 373300.000000 0 1 0
0.856846 2.438157 -20.128406 20.293633 1.232846 3.013899 0.008820 -0.005698 -826876.000000 0 1 0
2.356446 2.503757 -20.224906 20.515079 0.815699 2.973201 0.007620 -0.005709 -1119880.000000 0 1 0
2.908346 2.063757 -21.425406 21.720166 0.617139 2.976659 0.020560 -0.004102 -816552.000000 0 1 0
4.296846 2.088057 -21.280606 21.810251 0.452345 2.920762 0.033549 -0.005055 -652706.000000 0 1 0
4.982846 1.223757 -22.341206 22.922823 0.240828 2.915846 0.034409 -0.008900 -1011970.000000 0 1 0
6.357446 1.118657 -22.231006 23.149215 0.174177 2.858998 0.031508 -0.014414 -926364.000000 0 1 0
6.884746 0.586757 -23.395306 24.394351 0.085020 2.854411 0.035396 -0.017175 36124.700000 0 1 0
8.439846 0.601057 -23.441306 24.921619 0.071097 2.795193 0.028427 -0.021756 203068.000000 0 1 0
8.904646 1.869557 -23.579706 25.274305 0.206947 2.773323 0.025597 -0.021652 -1179920.000000 0 0 1
10.283646 1.921457 -23.589906 25.805601 0.184716 2.724175 0.020062 -0.015307 -1249760.000000 0 0 1
13.619346 -20.939068 22.181118 33.405586 -0.994121 0.844648 0.069465 0.013677 -367594.000000 0 0 1
12.590846 -21.882168 22.512618 33.825681 -1.048667 0.842568 0.058653 0.018331 951686.000000 0 0 1
11.237746 -21.453268 22.390818 32.983002 -1.088271 0.824588 0.043619 0.008230 707891.000000 0 0 1
10.801546 -21.259068 20.907118 31.713230 -1.100697 0.850968 0.055197 -0.010499 -736832.000000 0 0 1
11.291946 -20.104368 20.178518 30.640925 -1.059040 0.851909 0.056171 -0.013451 6907.300000 0 0 1
10.838346 -20.141268 18.855718 29.642512 -1.077123 0.881358 0.077355 -0.023762 158446.000000 0 0 1
11.266746 -18.816068 18.086218 28.427017 -1.031272 0.881190 0.074069 -0.025219 141658.000000 0 0 1
10.581346 -17.689868 18.612018 27.772352 -1.031732 0.836367 0.090007 -0.029541 -139034.000000 0 0 1
10.838346 -16.474968 17.970018 26.679878 -0.988910 0.831806 0.080921 -0.025639 -646299.000000 0 0 1
9.916346 -15.395568 18.456818 26.000223 -0.998577 0.781481 0.063366 -0.011695 -412451.000000 0 0 1
8.587146 -15.567968 18.054818 25.339242 -1.066733 0.777707 0.047899 -0.012880 -829065.000000 0 0 1
7.716646 -14.749068 18.763818 25.083112 -1.088765 0.725654 0.032257 -0.000743 -187618.000000 0 0 1
6.218146 -14.906268 18.457918 24.526657 -1.175594 0.718847 0.009700 0.003997 -308353.000000 0 1 0
5.923446 -14.730068 17.077218 23.317236 -1.188453 0.748977 0.007583 -0.003667 -259197.000000 0 1 0
4.579346 -15.011268 16.747218 22.951643 -1.274703 0.752951 -0.003684 -0.002827 -88499.200000 0 1 0
4.105746 -16.493368 16.762118 23.871677 -1.326822 0.792347 -0.008504 0.003303 -1041030.000000 0 1 0
2.828146 -16.432768 16.230718 23.269518 -1.400362 0.798880 0.011798 -0.002644 -1160530.000000 0 1 0
2.094246 -17.600668 16.376418 24.132063 -1.452366 0.824919 0.005134 -0.008375 497970.000000 0 1 0
0.586146 -17.495468 16.011118 23.723214 -1.537306 0.829949 0.010510 -0.002131 451343.000000 0 1 0
0.332246 -17.401268 14.666318 22.759952 -1.551705 0.870569 0.016162 -0.007066 315783.000000 0 1 0
-1.022154 -17.787068 14.415418 22.917872 1.513393 0.890526 0.013613 0.005141 494212.000000 0 1 0
-1.576854 -17.671768 12.928918 21.953013 1.481802 0.941055 0.010910 -0.024340 -160503.000000 0 1 0
-2.911054 -18.092768 12.855918 22.385199 1.411268 0.959042 0.005872 -0.021189 -407318.000000 0 1 0
-3.005954 -19.383168 12.335518 23.171275 1.416941 1.009407 0.011736 -0.018842 -779454.000000 0 1 0
-4.437754 -19.767468 12.021918 23.557864 1.349960 1.035246 0.005686 -0.016965 -515370.000000 0 1 0
-5.217054 -20.088968 13.161618 24.576665 1.316712 1.005657 0.003435 -0.016294 -116989.000000 0 1 0
-5.541554 -21.445568 13.163118 25.766041 1.317927 1.034599 -0.026581 -0.003217 -316355.000000 0 0 1
-6.287254 -22.011368 14.374518 27.030661 1.292568 1.010089 -0.007310 -0.001311 469517.000000 0 0 1
-7.616954 -21.540168 14.568818 27.096998 1.230904 1.003144 0.003930 -0.002870 221066.000000 0 0 1
-8.357654 -22.449468 15.355918 28.454054 1.214406 1.000746 0.009777 -0.005544 905937.000000 0 0 1
-9.886454 -22.083768 15.403618 28.682856 1.149874 1.003881 0.026832 -0.004618 898196.000000 0 0 1
-10.075154 -20.926068 16.253118 28.347361 1.122087 0.960201 0.020715 -0.007757 -282084.000000 0 0 1
-11.294654 -20.256768 15.999118 28.175834 1.062157 0.966928 0.034873 -0.011965 174720.000000 0 0 1
-11.673354 -19.139968 17.015118 28.144623 1.023133 0.921583 0.027559 -0.005971 -278277.000000 0 0 1
-11.915254 -19.621868 18.331118 29.377217 1.025068 0.896957 0.024457 -0.003613 -109174.000000 0 0 1
-12.112254 -18.543768 19.198118 29.311188 0.992195 0.856646 0.015240 -0.004918 -237909.000000 0 0 1
-12.522954 -19.052268 20.598118 30.726141 0.989310 0.836079 0.012894 -0.006477 358810.000000 0 0 1
-13.786154 -19.715768 20.530018 31.626748 0.960577 0.864350 0.027076 -0.006752 376149.000000 0 0 1
-14.042454 -20.521768 21.664318 32.979936 0.970705 0.854105 0.023079 0.003313 -595025.000000 0 0 1
-15.365854 -21.264968 21.672418 34.029429 0.945070 0.880361 0.028117 -0.001234 -1196390.000000 0 0 1
-15.462154 -22.279868 20.716418 34.126832 0.964111 0.918463 0.027234 -0.006104 -293216.000000 0 0 1
-16.694054 -22.460168 20.087818 34.448092 0.931614 0.948216 0.037128 -0.002879 -395538.000000 0 0 1
-17.784854 -23.168368 20.913518 35.922828 0.916104 0.949390 0.045307 -0.009570 -642611.000000 0 0 1
-18.254154 -22.346968 21.949518 36.254413 0.885864 0.920490 0.046683 -0.002724 -632320.000000 0 0 1
-19.264554 -22.943868 22.679718 37.575440 0.872349 0.922815 0.057558 -0.004194 -512741.000000 0 0 1
-19.715954 -22.111768 23.906008 38.067655 0.842614 0.891832 0.055537 -0.004279 -177046.000000 0 0 1
-20.553254 -21.086968 23.389818 37.605585 0.798215 0.899531 0.055758 0.000730 104973.000000 0 0 1
-20.744654 -19.968368 24.274248 37.660530 0.766333 0.870356 0.049413 -0.001717 342757.000000 0 0 1
-21.848654 -19.037568 23.700818 37.436900 0.716752 0.885261 0.045346 0.003775 122780.000000 0 0 1
-21.385254 -18.410168 22.555918 36.125238 0.710777 0.896457 0.053487 0.007256 373388.000000 0 0 1
-22.287254 -17.379768 22.075218 35.862143 0.662307 0.907703 0.039462 0.008013 164832.000000 0 0 1
-21.836054 -16.756168 20.754718 34.472318 0.654521 0.924706 0.040457 0.007656 -417443.000000 0 0 1
-21.055854 -15.631868 20.834318 33.492881 0.638619 0.899435 0.042586 0.007056 -634863.000000 0 0 1
-20.592154 -15.375168 19.540018 32.283818 0.641355 0.920707 0.034069 0.005224 -152094.000000 0 0 1
-19.801154 -14.093068 19.281518 31.023817 0.618555 0.900131 0.030416 0.000384 -102741.000000 0 0 1
-19.156554 -14.141068 18.045118 29.875904 0.635896 0.922283 0.027849 -0.004464 -166050.000000 0 0 1
-18.688354 -12.892368 17.601818 28.727891 0.603889 0.911313 0.030459 -0.009645 -616887.000000 0 0 1
-17.869054 -13.093768 16.310618 27.509746 0.632377 0.936137 0.012080 -0.013027 -158263.000000 0 0 1
-17.491754 -11.927668 15.584118 26.288694 0.598476 0.936257 0.005929 -0.010259 211129.000000 0 0 1
-16.412454 -11.274768 16.235818 25.692233 0.601923 0.886749 -0.001432 -0.015060 -492637.000000 0 0 1
-15.802954 -10.164768 15.398218 24.293229 0.571594 0.884278 -0.002114 -0.015558 -246885.000000 0 1 0
-16.474554 -8.989768 15.667918 24.448119 0.499517 0.875173 0.001506 -0.013942 -67627.500000 0 1 0
-15.965654 -7.900068 14.909418 23.229376 0.459492 0.873908 -0.017311 -0.003989 -895462.000000 0 1 0
-16.336354 -6.494768 15.485918 23.428020 0.378406 0.848646 -0.005634 0.000307 90801.800000 0 1 0
-15.718654 -6.156068 16.714618 23.756088 0.373280 0.790355 -0.007670 -0.001242 1093050.000000 0 1 0
-14.298554 -5.964668 16.520918 22.648767 0.395204 0.753293 0.001466 -0.006551 489344.000000 0 1 0
-13.441554 -5.964668 17.815018 23.100379 0.417643 0.690072 0.004280 -0.000509 -38570.300000 0 1 0
-13.411454 -7.123868 18.622518 24.029456 0.488278 0.684102 -0.000610 -0.006905 102290.000000 0 1 0
-12.956754 -8.286768 17.970518 23.653488 0.569009 0.707882 -0.001933 -0.010270 -880486.000000 0 1 0
-12.928154 -9.579768 18.873418 24.801513 0.637716 0.705976 0.001619 -0.009649 401368.000000 0 1 0
-14.204354 -10.193268 19.158118 25.936458 0.622451 0.739722 0.006791 -0.007367 483623.000000 0 0 1
-14.942154 -9.524768 20.102918 26.797695 0.567497 0.722472 -0.000509 0.001364 -1514670.000000 0 0 1
-16.337754 -10.093668 20.451018 28.054384 0.553414 0.753969 0.004010 0.005147 508667.000000 0 0 1
-17.312554 -9.994968 19.410718 27.863953 0.523580 0.800114 0.014398 -0.000726 446624.000000 0 0 1
-17.755354 -8.672268 19.173918 27.533615 0.454350 0.800452 0.006396 -0.001466 -935095.000000 0 0 1
-18.778654 -8.634968 17.995918 27.405357 0.430998 0.854419 0.019730 -0.007398 -63607.500000 0 0 1
-20.025954 -9.100668 18.422518 28.692336 0.426543 0.873600 0.022112 0.002136 -360531.000000 0 0 1
-21.023554 -9.186768 17.413118 28.802833 0.411970 0.921580 0.034503 0.003377 -652770.000000 0 0 1
-22.362954 -9.479168 18.019718 30.243455 0.400920 0.932507 0.039569 0.008999 -1002930.000000 0 0 1
-22.960654 -8.357568 18.686618 30.760856 0.349088 0.917912 0.036008 0.009302 59264.100000 0 0 1
-24.268854 -8.676768 19.068718 32.060561 0.343364 0.933815 0.038384 0.012431 -453829.000000 0 0 1
-25.050954 -7.483868 19.669718 32.717830 0.290306 0.925804 0.043264 0.007955 -252982.000000 0 0 1
-24.902554 -7.237968 21.062418 33.408843 0.282858 0.888671 0.030614 0.007062 289212.000000 0 0 1
-25.657574 -6.160168 21.598918 34.099443 0.235632 0.884845 0.037978 0.005596 -560277.000000 0 0 1
-25.532614 -6.041768 23.165118 35.000572 0.232356 0.847513 0.026927 0.000430 385382.000000 0 0 1
-24.286654 -5.619968 23.740018 34.424033 0.227399 0.809811 0.009112 0.000343 804824.000000 0 0 1
-23.307454 -6.660368 23.769618 33.949855 0.278343 0.795204 0.009023 0.006820 -222881.000000 0 0 1
-22.214454 -6.447668 24.812148 33.921926 0.282485 0.750352 0.010083 0.007224 -65026.200000 0 0 1
-21.516354 -5.197668 24.719828 33.181910 0.237027 0.730293 0.007115 0.010119 597918.000000 0 0 1
-20.705954 -4.987068 25.897828 33.530656 0.236350 0.688244 0.007667 0.007873 429991.000000 0 0 1
-20.210054 -3.507068 26.070928 33.172867 0.171820 0.666628 0.002970 0.003614 574684.000000 0 0 1
-19.253054 -3.200868 27.104548 33.400332 0.164746 0.624073 0.001278 0.010663 450994.000000 0 0 1
-19.800154 -3.189968 28.415628 34.780309 0.159736 0.614601 0.004463 0.005674 148881.000000 0 0 1
-20.617754 -1.972368 28.871008 35.531917 0.095373 0.622304 0.021242 -0.003274 -665020.000000 0 0 1
-21.840954 -1.811868 28.291458 35.787103 0.082768 0.659091 0.026072 -0.006646 -1395260.000000 0 0 1
-22.756654 -0.972468 28.980018 36.859903 0.042707 0.666127 0.040513 -0.010687 388340.000000 0 0 1
-24.052954 -0.775568 28.173758 37.052756 0.032233 0.706916 0.032964 -0.006654 -898472.000000 0 0 1
-23.869154 -0.186868 26.917978 35.977062 0.007829 0.725454 0.027508 -0.012599 -152499.000000 0 0 1
-25.021054 0.145232 26.155158 36.196222 -0.005804 0.763249 0.030110 -0.016740 -427560.000000 0 0 1
-25.820234 -1.055868 25.643218 36.405686 0.040870 0.789255 0.029765 -0.014318 -247986.000000 0 0 1
-26.615194 -1.741968 26.627608 37.688626 0.065357 0.786234 0.029719 -0.015369 185100.000000 0 0 1
-26.917274 -3.108168 26.325958 37.779047 0.114962 0.799814 0.024420 -0.016752 42131.000000 0 0 1
-25.730954 -4.101368 26.354208 37.060052 0.158065 0.779704 0.025050 -0.013068 119187.000000 0 0 1
-25.267704 -4.476868 27.661518 37.731403 0.175358 0.747903 0.022468 -0.009292 -90243.000000 0 0 1
-24.406854 -5.584268 27.641538 37.295217 0.224928 0.736007 0.024095 -0.008183 -11537.900000 0 0 1
-23.939854 -6.097668 29.027438 38.116798 0.249405 0.705112 0.016006 -0.005815 370208.000000 0 0 1
-25.116284 -6.528168 29.699868 39.440168 0.254291 0.718132 0.015419 -0.003126 467197.000000 0 0 1
-24.909554 -7.221168 30.886268 40.331039 0.282161 0.698483 0.019486 0.000534 -1161650.000000 0 0 1
-26.251874 -7.428168 31.519198 41.686909 0.275749 0.713473 0.000753 -0.000887 -877091.000000 0 0 1
-26.987014 -8.462268 30.912228 41.898386 0.303858 0.741005 0.001085 0.000202 318040.000000 0 0 1
-28.179484 -8.817868 31.605008 43.251759 0.303266 0.751417 0.009197 0.002270 -116530.000000 0 0 1
-29.133134 -9.716268 30.875208 43.547949 0.321912 0.782727 0.005755 -0.011160 -469563.000000 0 0 1
-28.626824 -11.039868 30.605298 43.336567 0.368073 0.786647 0.014512 -0.009823 985021.000000 0 0 1
-29.647594 -11.661868 29.802768 43.625497 0.374760 0.818729 0.009189 -0.006070 426511.000000 0 0 1
-29.100004 -12.893168 29.035018 43.082204 0.417071 0.831261 0.016941 -0.008073 35781.000000 0 0 1
-28.228794 -12.342368 28.039388 41.658206 0.412181 0.832428 0.026275 -0.007881 286116.000000 0 0 1
-27.330724 -13.366268 27.578118 41.063100 0.454855 0.834426 0.023195 -0.006578 513261.000000 0 0 1
-25.956674 -12.724368 27.201688 39.693706 0.455790 0.815795 0.026548 -0.008560 -96934.600000 0 0 1
-25.196704 -12.046668 28.180798 39.675603 0.445979 0.780900 0.012527 -0.002396 159894.000000 0 0 1
-25.630574 -10.715568 28.619048 39.884829 0.395993 0.770529 0.019247 0.001357 -698662.000000 0 0 1
-25.636724 -9.568868 27.606488 38.870593 0.357234 0.780992 0.019967 0.000422 -559706.000000 0 0 1
-24.367954 -9.248868 27.133308 37.623864 0.362754 0.765303 0.011743 0.000250 -443767.000000 0 0 1
-23.726054 -10.133568 26.233498 36.794174 0.403654 0.777058 0.008834 -0.000059 -354596.000000 0 0 1
-24.279954 -10.090268 24.771348 36.124083 0.393865 0.815191 0.021475 0.006316 -350921.000000 0 0 1
-25.429394 -10.856768 24.530358 36.962981 0.403511 0.845113 0.025738 0.000359 -303119.000000 0 0 1
-25.875004 -10.718668 23.173718 36.351436 0.392728 0.879559 0.024836 0.009379 -661460.000000 0 0 1
-27.149004 -11.524868 22.876718 37.326066 0.401451 0.911085 0.031091 0.003179 792500.000000 0 0 1
-28.380264 -11.071568 23.480218 38.462184 0.371956 0.914136 0.034860 -0.003250 583634.000000 0 0 1
-28.475824 -11.119668 24.905018 39.430692 0.372286 0.887162 0.029269 -0.004446 -1261220.000000 0 0 1
-29.804944 -10.750868 25.574158 40.717974 0.346182 0.891713 0.022584 -0.003612 -645706.000000 0 0 1
-30.202454 -9.439168 25.267638 40.493699 0.302912 0.896959 0.025172 -0.010547 2097800.000000 0 0 1
-31.621784 -9.204068 25.634108 41.734393 0.283242 0.909399 0.030796 -0.009328 2134300.000000 0 0 1
-32.135014 -9.175668 27.098358 43.025260 0.278134 0.889469 0.020607 -0.010072 -486237.000000 0 0 1
-32.567504 -10.414968 27.577108 43.927335 0.309518 0.892087 0.017874 -0.014996 -97395.000000 0 0 1
-33.150074 -10.257968 28.837628 45.119420 0.300095 0.877417 0.023625 -0.012407 -754944.000000 0 0 1
-33.626034 -11.611368 29.534538 46.236598 0.332490 0.877898 0.026290 -0.003626 1482190.000000 0 0 1
-34.929344 -12.158668 29.177798 47.108769 0.334975 0.902855 0.014136 0.001005 77907.100000 0 0 1
34.914889 -11.460968 29.566738 47.165615 -0.317173 0.893266 0.028177 0.000780 -917631.000000 0 0 1
33.542579 -12.014168 29.028348 45.957479 -0.343940 0.887136 0.030127 0.002218 804968.000000 0 0 1
33.236369 -11.673868 27.677138 44.799100 -0.337777 0.904847 0.034455 0.002748 -873861.000000 0 0 1
32.224029 -12.355668 27.073118 43.863473 -0.366141 0.905600 0.029406 0.011682 -926015.000000 0 0 1
32.223389 -11.912268 25.561168 42.820816 -0.354096 0.931123 0.032124 0.000140 53921.900000 0 0 1
31.834979 -10.584468 25.465298 42.118621 -0.320982 0.921521 0.036830 -0.011027 -65250.500000 0 0 1
32.011679 -10.119268 24.112098 41.334495 -0.306172 0.947961 0.030887 -0.011351 -165560.000000 0 0 1
31.633989 -8.667568 23.791718 40.520141 -0.267432 0.943253 0.031427 0.003437 223039.000000 0 0 1
30.230109 -8.483268 23.688518 39.331555 -0.273586 0.924445 0.034059 -0.004705 54152.700000 0 0 1
29.921689 -7.175668 23.188718 38.529396 -0.235370 0.924987 0.028673 0.002926 138654.000000 0 0 1
28.433049 -6.771768 23.127618 37.271730 -0.233810 0.901399 0.033011 0.006402 158249.000000 0 0 1
27.739629 -7.327468 22.031318 36.173993 -0.258253 0.915950 0.016717 0.011470 -32772.300000 0 0 1
26.341579 -7.174368 22.180618 35.175704 -0.265909 0.888514 0.024476 -0.006921 -66270.200000 0 0 1
13.987546 -17.072368 26.191638 34.250826 -0.884392 0.700219 0.022511 0.014273 -137302.000000 0 0 1
13.424646 -18.297768 25.814558 34.371803 -0.937824 0.721162 0.023463 0.022646 378931.000000 0 0 1
14.396146 -19.341568 25.882628 35.373093 -0.930946 0.749978 0.032759 0.018056 -622867.000000 0 0 1
13.828746 -20.813968 25.832218 35.941049 -0.984366 0.768810 0.032432 0.006457 181452.000000 0 0 1
13.224246 -21.247268 27.078918 36.872685 -1.014071 0.746029 0.032101 0.004637 1227110.000000 0 0 1
11.979646 -20.555868 27.323618 36.230315 -1.043131 0.716415 0.034824 0.009861 -123887.000000 0 0 1
11.177046 -20.974668 28.567218 37.161122 -1.081190 0.693929 0.023556 0.012737 -39833.700000 0 0 1
11.773246 -20.637468 29.801738 38.113751 -1.052366 0.673063 0.020592 0.005539 182617.000000 0 0 1
11.026546 -19.709768 30.659048 38.079350 -1.060730 0.634892 0.019663 0.006229 140227.000000 0 0 1
10.939746 -18.185768 30.292698 36.987130 -1.029234 0.611119 0.027070 0.006937 -80735.400000 0 0 1
12.160446 -17.512068 30.114228 36.897367 -0.963836 0.616059 0.015700 0.016003 -232280.000000 0 0 1
11.825146 -16.149768 29.658058 35.780574 -0.938773 0.593681 0.012303 0.015067 -481766.000000 0 0 1
12.933846 -15.163768 29.787628 35.840299 -0.864596 0.589676 0.009870 0.010249 -861136.000000 0 0 1
12.562146 -13.867668 29.444408 34.886859 -0.834754 0.566104 0.029877 0.004882 172874.000000 0 0 1
13.514946 -12.907668 29.903768 35.263253 -0.762419 0.558568 0.028210 0.004460 170284.000000 0 0 1
12.995246 -11.394768 29.905738 34.540850 -0.719872 0.524034 0.027654 0.004055 119314.000000 0 0 1
12.938946 -10.898268 28.565258 33.198834 -0.699997 0.534684 0.047275 0.001838 -157373.000000 0 0 1
14.224746 -10.632968 28.074698 33.220357 -0.641898 0.564034 0.040930 -0.003735 -715269.000000 0 0 1
14.242346 -9.578068 27.036188 32.024042 -0.592035 0.565638 0.038490 -0.003860 40112.100000 0 0 1
14.540146 -8.255968 27.333098 32.041772 -0.516410 0.549002 0.044629 -0.007432 -1161290.000000 0 0 1
15.827446 -8.052068 27.741948 32.938724 -0.470616 0.569392 0.043692 -0.016577 -1949320.000000 0 0 1
16.182646 -6.557968 27.965148 32.968690 -0.385021 0.558155 0.043032 -0.019727 -346054.000000 0 0 1
17.546046 -6.267068 28.115758 33.728856 -0.343055 0.585236 0.039306 -0.022185 -182365.000000 0 0 1
17.884446 -4.940368 27.605158 33.261170 -0.269517 0.591776 0.035758 -0.016571 -842747.000000 0 0 1
19.372646 -4.722468 27.438698 33.918775 -0.239106 0.628427 0.036748 -0.015097 -1732450.000000 0 0 1
19.858646 -5.565568 26.428358 33.523119 -0.273249 0.662654 0.031979 -0.011496 246238.000000 0 0 1
21.238246 -5.493068 26.104218 34.097905 -0.253094 0.698875 0.024942 -0.006773 503079.000000 0 0 1
22.304046 -5.676268 27.199438 35.630043 -0.249205 0.702259 0.032423 -0.012462 -928157.000000 0 0 1
22.805446 -4.440368 27.718718 36.168116 -0.192300 0.697601 0.040178 -0.017023 248829.000000 0 0 1
23.670646 -4.662268 28.829268 37.592060 -0.194475 0.696803 0.042561 -0.022424 9653.450000 0 0 1
24.290446 -3.374868 29.360888 38.255422 -0.138054 0.695870 0.052029 -0.019962 -318343.000000 0 0 1
25.216246 -2.766568 28.488108 38.145580 -0.109277 0.727520 0.046507 -0.016927 130360.000000 0 0 1
25.316846 -1.397668 28.779458 38.355618 -0.055151 0.722232 0.043614 -0.022713 -349084.000000 0 0 1
26.321246 -0.758368 27.804178 38.294327 -0.028804 0.758214 0.060355 -0.021770 269045.000000 0 0 1
27.652046 -1.160668 28.050278 39.405595 -0.041949 0.778689 0.063835 -0.024056 -441219.000000 0 0 1
28.588846 -0.613768 27.181628 39.453007 -0.021465 0.810740 0.060096 -0.012681 -519020.000000 0 0 1
30.039346 -0.741168 27.630908 40.821303 -0.024668 0.827288 0.046391 -0.012062 -531257.000000 0 0 1
30.375446 0.196332 28.610808 41.728703 0.006463 0.815316 0.044202 -0.010500 -1262630.000000 0 0 1
31.610346 0.034032 29.165478 43.009770 0.001077 0.825604 0.041832 -0.007868 -1072790.000000 0 0 1
31.976146 1.191432 30.172558 43.980413 0.037243 0.814757 0.043816 -0.013698 -148304.000000 0 0 1
32.165746 2.450832 29.554568 43.750592 0.076047 0.829121 0.038145 -0.012294 130910.000000 0 0 1
32.101446 3.530232 30.458918 44.392692 0.109531 0.814648 0.049997 -0.014570 -181178.000000 0 0 1
32.445246 4.801032 29.678678 44.233108 0.146907 0.835293 0.041612 -0.013666 -15756.700000 0 0 1
32.273346 6.110132 30.263398 44.662914 0.187110 0.826308 0.052455 -0.012962 -82986.500000 0 0 1
30.977746 6.412032 30.716368 44.093426 0.204106 0.800121 0.055219 -0.019103 -271038.000000 0 0 1
30.965246 7.512432 31.766248 44.993084 0.238010 0.786927 0.041538 -0.017790 -182454.000000 0 0 1
31.337246 7.043932 33.034540 46.075165 0.221103 0.771349 0.042173 -0.009050 68604.700000 0 0 1
31.187746 8.096132 33.979602 46.827729 0.253987 0.758847 0.052375 -0.009044 -329056.000000 0 0 1
31.598246 7.619632 -33.530976 46.699404 0.236624 2.371746 0.042594 -0.003677 -624212.000000 0 0 1
30.785646 6.640632 -32.915276 45.555125 0.212450 2.378262 0.030160 -0.011112 -174160.000000 0 0 1
31.029946 5.257532 -33.244716 45.778929 0.167840 2.383576 0.042018 -0.006105 11280.500000 0 0 1
32.404446 4.596732 -32.978946 46.462770 0.140915 2.360001 0.044111 -0.006997 -121483.000000 0 0 1
32.333446 3.200932 -33.043486 46.341878 0.098676 2.364617 0.050822 -0.016056 113071.000000 0 0 1
32.585946 2.655632 -31.774096 45.590454 0.081317 2.341927 0.034397 -0.000502 -277938.000000 0 0 1
32.570146 1.135632 -31.761306 45.506974 0.034853 2.343318 0.033177 0.005221 -771700.000000 0 0 1
33.534646 0.592932 -32.588156 46.764431 0.017679 2.341803 0.049114 -0.000840 -488497.000000 0 0 1
33.685646 -0.830568 -32.478606 46.800347 -0.024651 2.337802 0.037966 -0.005763 600704.000000 0 0 1
34.542346 -1.356068 -31.279956 46.620256 -0.039238 2.306288 0.029863 -0.002585 -24419.600000 0 0 1
33.727246 -1.322668 -30.165326 45.268350 -0.039197 2.300122 0.025805 -0.001403 -198727.000000 0 0 1
34.453546 -1.559568 -29.019096 45.073130 -0.045235 2.270280 0.023473 -0.000322 -349779.000000 0 0 1
33.560146 -1.385568 -27.784686 43.591192 -0.041263 2.261905 0.030025 0.001995 -182693.000000 0 0 1
33.297546 -0.016368 -27.641736 43.275772 -0.000492 2.263649 0.006629 0.005281 -120512.000000 0 0 1
32.377246 0.238832 -26.630216 41.922685 0.007376 2.259092 0.012438 0.005130 -385855.000000 0 0 1
32.062646 1.766432 -26.505706 41.637555 0.055038 2.260854 -0.005869 0.006849 475498.000000 0 0 1
31.034846 2.132032 -27.434376 41.477129 0.068590 2.293525 0.005152 -0.002564 372918.000000 0 0 1
30.628446 3.484232 -27.474806 41.292936 0.113271 2.298777 -0.007857 0.008474 88102.500000 0 0 1
29.616346 3.691232 -28.617916 41.348982 0.123996 2.335200 0.010552 0.000189 67838.400000 0 0 1
28.980246 4.978432 -28.584746 41.008867 0.170127 2.342055 -0.008939 0.004416 343449.000000 0 0 1
28.251346 5.302232 -29.757966 41.373769 0.185522 2.373514 0.007181 0.002015 -349249.000000 0 0 1
27.007046 6.148932 -29.427476 40.412452 0.223863 2.386457 0.011631 -0.002687 -603043.000000 0 0 1
26.159746 5.361132 -28.625806 39.147297 0.202139 2.390925 0.019828 -0.001398 -459591.000000 0 0 1
25.194746 6.211132 -28.085876 38.238329 0.241705 2.395719 0.023246 -0.008132 -422756.000000 0 0 1
23.823946 5.598632 -27.726176 36.981968 0.230812 2.418437 0.027250 -0.004391 -244918.000000 0 0 1
23.024946 5.217632 -28.773176 37.219182 0.222844 2.454469 0.042059 -0.005330 -770751.000000 0 0 1
21.771746 4.789332 -28.347916 36.063153 0.216530 2.475211 0.044621 -0.006422 -392851.000000 0 0 1
20.900946 4.303032 -29.548906 36.448642 0.203040 2.516143 0.033166 -0.001557 -25492.700000 0 0 1
21.182346 3.018232 -30.059356 36.896699 0.141535 2.522990 0.028619 -0.005295 387828.000000 0 0 1
20.211446 2.620132 -31.036406 37.129855 0.128917 2.560545 0.012721 -0.004726 230598.000000 0 0 1
20.172146 3.285432 -32.461366 38.359482 0.161452 2.579686 0.024966 -0.001138 420202.000000 0 0 1
21.392946 3.076132 -33.179686 39.598135 0.142813 2.564240 0.012734 0.000655 273721.000000 0 0 1
21.320846 3.597632 34.376791 40.611393 0.167163 0.561455 0.014587 -0.001124 170315.000000 0 0 1
22.586046 3.341132 33.508343 40.547524 0.146864 0.598118 0.022462 0.002999 129406.000000 0 0 1
22.850346 1.963132 33.383526 40.502494 0.085702 0.601949 0.028101 -0.005763 -488947.000000 0 0 1
24.163846 1.985332 32.895874 40.865285 0.081977 0.635149 0.044757 -0.010912 -505392.000000 0 0 1
24.713446 0.546832 32.624488 40.931781 0.022123 0.648409 0.043696 -0.018691 -106679.000000 0 0 1
24.131246 -0.126668 31.476938 39.662712 -0.005249 0.654068 0.038274 -0.017431 429819.000000 0 0 1
22.801246 -0.595968 31.598158 38.970445 -0.026132 0.625238 0.032632 -0.018903 27945.000000 0 0 1
22.352246 -1.684468 32.614748 39.575019 -0.075218 0.602141 0.031855 -0.020502 -507001.000000 0 0 1
22.525546 -2.980368 32.099988 39.328006 -0.131547 0.615973 0.037216 -0.023874 200275.000000 0 0 1
21.895946 -3.900568 32.944053 39.748680 -0.176292 0.593821 0.040796 -0.024712 -358619.000000 0 0 1
21.697046 -5.315068 32.502088 39.438528 -0.240236 0.602149 0.046062 -0.022008 176613.000000 0 0 1
22.962346 -5.897468 32.219148 40.001537 -0.251398 0.634366 0.037996 -0.021935 377103.000000 0 0 1
22.887046 -7.287468 31.996238 40.008541 -0.308260 0.643942 0.050712 -0.030611 -391341.000000 0 0 1
24.293846 -7.842868 31.750868 40.740879 -0.312271 0.677190 0.031795 -0.023076 -70214.300000 0 0 1
24.784846 -7.651168 30.443288 39.995284 -0.299422 0.705678 0.042177 -0.020557 52160.800000 0 0 1
26.146646 -8.021868 30.282388 40.804663 -0.297686 0.734553 0.033954 -0.004595 233350.000000 0 0 1
26.526146 -7.776068 28.837288 39.946125 -0.285158 0.764246 0.036839 -0.012936 -269655.000000 0 0 1
25.862146 -8.528868 27.829888 38.937063 -0.318551 0.774544 0.030747 -0.013391 -257218.000000 0 0 1
26.275146 -8.103568 26.576898 38.241112 -0.299156 0.802401 0.039719 -0.011149 -78690.500000 0 0 1
25.416946 -8.744968 25.433028 37.004521 -0.331374 0.813038 0.017367 -0.001643 -548424.000000 0 0 1
24.107746 -8.318668 25.324828 35.940654 -0.332269 0.788896 0.016484 -0.003485 -601025.000000 0 0 1
23.388546 -9.203068 24.419708 35.043440 -0.374878 0.799813 0.016590 -0.006393 3487.200000 0 0 1
21.937846 -8.870168 24.073448 33.756183 -0.384235 0.776805 0.007855 -0.005600 -760029.000000 0 0 1
21.137746 -9.121668 25.177948 34.116539 -0.407392 0.740697 0.005390 -0.005138 -1088460.000000 0 0 1
19.864146 -8.649468 24.833938 32.956367 -0.410673 0.717366 0.009239 0.000877 -230708.000000 0 0 1
18.811946 -8.702468 25.966688 33.224858 -0.433285 0.673659 0.020989 -0.007579 -456376.000000 0 0 1
18.328146 -9.940168 26.450688 33.680362 -0.496947 0.667544 0.021272 -0.004934 498128.000000 0 0 1
19.254046 -10.828368 27.132578 34.987836 -0.512309 0.683312 0.008920 -0.008768 -220962.000000 0 0 1
18.510546 -11.872468 27.971588 35.580972 -0.570298 0.666260 0.016806 -0.010405 115023.000000 0 0 1
17.556446 -12.568168 27.161178 34.697511 -0.621299 0.671645 0.019183 -0.005343 326667.000000 0 0 1
16.737546 -13.384168 27.971858 35.237853 -0.674527 0.653762 0.009848 -0.003539 -295795.000000 0 0 1
17.390646 -14.711768 28.426228 36.426929 -0.702143 0.675550 0.025278 0.004098 -407029.000000 0 0 1
16.432146 -15.647468 28.946868 36.780156 -0.760943 0.664826 0.027658 0.004965 555555.000000 0 0 1
16.964446 -16.845068 29.501288 37.972026 -0.781867 0.681035 0.027086 0.009410 -564864.000000 0 0 1
17.308146 -17.978868 28.489498 37.874307 -0.804403 0.719384 0.020436 0.016162 -149314.000000 0 0 1
18.313946 -17.470668 27.646648 37.482823 -0.761837 0.741314 0.031357 0.008931 -145157.000000 0 0 1
18.855246 -18.472568 26.901348 37.688707 -0.775147 0.775919 0.023207 0.018330 -199728.000000 0 0 1
20.065546 -18.100468 26.018268 37.512709 -0.733956 0.804342 0.018888 0.011874 691698.000000 0 0 1
21.343046 -17.973568 26.675498 38.602551 -0.699906 0.807884 0.024630 0.012416 347218.000000 0 0 1
22.218946 -17.392268 25.748988 38.199253 -0.664145 0.831091 0.017430 0.011761 -257967.000000 0 0 1
23.644946 -17.434168 26.366378 39.474290 -0.635344 0.839362 0.023020 0.002548 275248.000000 0 0 1
24.267746 -18.748568 26.436008 40.488206 -0.657791 0.859348 0.036229 0.002553 1228960.000000 0 0 1
25.700646 -18.720768 26.507868 41.396346 -0.629544 0.875851 0.026882 -0.003462 522877.000000 0 0 1
26.300846 -20.090868 26.719308 42.535855 -0.652330 0.891611 0.012480 -0.010422 -357576.000000 0 0 1
26.206246 -20.612768 28.010368 43.545772 -0.666492 0.872074 0.014171 0.002302 74007.500000 0 0 1
26.605546 -21.953668 28.153218 44.524402 -0.689892 0.886265 0.018929 -0.020119 -707335.000000 0 0 1
25.683546 -22.782568 28.981148 44.928798 -0.725614 0.869713 0.025259 -0.010661 -687442.000000 0 0 1
25.823046 -22.556568 30.377168 45.808305 -0.717983 0.845795 0.024428 -0.008287 -142847.000000 0 0 1
25.177746 -23.540668 31.140768 46.452442 -0.751808 0.836076 0.031279 -0.000801 -655804.000000 0 0 1
24.849346 -23.096468 32.580478 47.036416 -0.748855 0.805619 0.027561 -0.008083 -51700.000000 0 0 1
24.271146 -24.150168 33.335907 47.787047 -0.782900 0.798764 0.022597 -0.008999 79547.600000 0 0 1
23.941446 -23.896768 -34.206160 48.107273 -0.784464 2.361771 0.032765 -0.008136 -127039.000000 0 0 1
23.616246 -25.289928 -33.535396 48.186412 -0.819607 2.340540 0.027278 -0.003535 537188.000000 0 0 1
22.380446 -25.944768 -33.815266 48.140291 -0.859022 2.349605 0.033812 -0.010468 107124.000000 0 0 1
22.241646 -26.555748 33.764599 48.372996 -0.873577 0.798188 0.028493 -0.013594 -313568.000000 0 0 1
21.015046 -27.461728 33.658993 48.256673 -0.917607 0.798895 0.028344 -0.009902 -64239.600000 0 0 1
21.140446 -28.795748 34.031227 49.337998 -0.937516 0.809643 0.025159 -0.012768 169952.000000 0 0 1
19.855346 -29.376248 33.893290 49.050523 -0.976430 0.807942 0.027788 -0.011836 199793.000000 0 0 1
19.882346 -30.883048 34.081605 50.106149 -0.998796 0.822777 0.010339 -0.011653 -198186.000000 0 0 1
20.281046 -31.271148 -33.490776 50.108259 -0.995438 2.302809 0.003194 -0.013231 61852.800000 0 0 1
21.227646 -32.302048 -33.579376 51.201658 -0.989403 2.286073 -0.006359 -0.007667 -450809.000000 0 0 1
21.814946 -32.654608 -32.194066 50.780638 -0.981836 2.257489 0.003498 -0.004504 -980179.000000 0 0 1
22.808346 -33.633398 -32.459036 52.009760 -0.974889 2.244769 -0.003561 -0.002509 625443.000000 0 0 1
23.516146 -34.119048 -31.296606 51.928760 -0.967330 2.217656 0.008389 0.005198 -46502.400000 0 0 1
24.451146 -33.156468 -30.638676 51.341391 -0.935377 2.210258 0.012851 0.000688 -1037860.000000 0 0 1
25.146046 -33.640328 -29.477176 51.311784 -0.928899 2.182755 0.030484 0.013539 36202.700000 0 0 1
25.998646 -32.631438 -28.991716 50.806102 -0.898049 2.178075 0.031720 0.013613 82463.600000 0 0 1
26.582646 -32.981868 -27.570686 50.542887 -0.892421 2.147771 0.032423 0.010980 673450.000000 0 0 1
27.507046 -34.080598 -27.522606 51.726382 -0.891731 2.131852 0.029819 0.020401 -68519.300000 0 0 1
28.244846 -34.114391 -26.353096 51.536867 -0.879246 2.107545 0.028603 0.020121 -95580.800000 0 0 1
-26.116054 -30.726893 9.339694 41.393479 0.866336 1.343205 0.007979 0.000532 -324934.000000 0 0 1
-26.140794 -32.035493 9.837594 42.501673 0.886378 1.337214 0.011907 -0.005719 417980.000000 0 0 1
-25.117834 -32.257293 10.825494 42.292196 0.909197 1.311946 0.005841 -0.004191 562120.000000 0 0 1
-25.252014 -33.535793 11.641094 43.564076 0.925386 1.300292 0.009187 -0.010208 109027.000000 0 0 1
-25.297634 34.313932 10.850194 43.990259 -0.935511 1.321574 0.012835 -0.005494 -2919.440000 0 0 1
-25.449514 33.148232 11.628694 43.378676 -0.916032 1.299403 0.015301 -0.008587 -107057.000000 0 0 1
-25.372054 31.903132 10.672194 42.136049 -0.898938 1.314728 0.016851 -0.008500 -788886.000000 0 0 1
-26.347864 31.690732 9.723994 42.344639 -0.877197 1.339089 0.023916 -0.010184 -741063.000000 0 0 1
-26.480394 30.369832 9.214494 41.333338 -0.853707 1.345976 0.032608 -0.006037 -108571.000000 0 0 1
-25.538214 30.003332 8.050294 40.214519 -0.865618 1.369251 0.031777 0.002874 84888.100000 0 0 1
-24.160454 29.990432 8.317394 39.399652 -0.892647 1.358093 0.032121 0.000941 -193098.000000 0 0 1
-23.364354 29.881832 7.174094 38.604204 -0.907195 1.383873 0.018223 0.004680 902613.000000 0 0 1
-21.941154 29.209732 7.282194 37.251215 -0.926554 1.374041 0.047413 0.003187 835698.000000 0 0 1
-21.930754 27.815232 7.508094 36.207963 -0.903142 1.361920 0.031617 -0.004789 106926.000000 0 0 1
-22.267954 27.000732 6.408694 35.580509 -0.881165 1.389690 0.027051 -0.005430 -395305.000000 0 0 1
-22.677754 25.476932 6.680494 34.756058 -0.843462 1.377382 0.021913 0.000954 -797076.000000 0 0 1
-23.830054 25.346632 7.460494 35.580643 -0.816228 1.359550 0.041653 -0.007796 -98069.400000 0 0 1
-24.257854 24.058332 7.779294 35.039467 -0.781269 1.346916 0.037943 -0.005569 -179983.000000 0 0 1
-24.726354 23.175432 6.584294 34.523125 -0.753032 1.378899 0.032797 -0.017213 -907762.000000 0 0 1
-26.061634 23.360532 6.189494 35.541990 -0.730799 1.395758 0.039203 -0.019394 -133026.000000 0 0 1
-26.378634 22.583632 5.006594 35.084451 -0.708044 1.427606 0.037831 -0.016740 68201.200000 0 0 1
-26.149354 23.341832 3.684894 35.244975 -0.728731 1.466054 0.033377 -0.017718 -672087.000000 0 0 1
-24.791054 23.571832 3.489294 34.386084 -0.760194 1.469147 0.031867 -0.015646 -373855.000000 0 0 1
-24.492454 24.345832 2.284294 34.609505 -0.782396 1.504746 0.031080 -0.000277 135602.000000 0 0 1
-23.181754 25.134432 2.492494 34.283318 -0.825791 1.498029 0.034653 0.005262 64282.500000 0 0 1
-22.802454 25.878532 1.352594 34.517819 -0.848503 1.531601 0.018492 -0.001077 845851.000000 0 0 1
-21.469554 26.427632 1.497294 34.082303 -0.888546 1.526850 0.014597 -0.004780 403838.000000 0 0 1
-20.991554 27.261332 0.281894 34.407921 -0.914610 1.562604 0.019294 -0.004391 188424.000000 0 0 1
-20.527554 26.667532 -0.901706 33.665276 -0.914769 1.597584 0.017172 0.002276 -141830.000000 0 0 1
-19.633054 25.593932 -0.819206 32.267278 -0.916442 1.596187 0.020236 -0.003443 -671391.000000 0 0 1
-19.382654 24.827632 -2.122906 31.569056 -0.907942 1.638094 0.024796 -0.016585 549564.000000 0 0 1
-20.497254 24.019632 -2.599306 31.683379 -0.864358 1.652929 0.012181 -0.019294 650387.000000 0 0 1
-20.154454 22.783932 -3.244606 30.591454 -0.846560 1.677059 0.011483 -0.017251 -549839.000000 0 0 1
-21.348054 22.316132 -4.040806 31.146063 -0.807566 1.700900 0.008399 -0.014819 -322198.000000 0 0 1
-21.536054 22.930532 -5.295706 31.900712 -0.816748 1.737574 0.005205 -0.001029 -285232.000000 0 0 1
-22.841654 22.646532 -5.738106 32.673115 -0.781109 1.747334 0.012420 0.001981 101036.000000 0 0 1
-23.263154 23.091532 -7.162706 33.551416 -0.781696 1.785937 0.005473 0.005728 -73857.000000 0 0 1
-22.593254 22.350532 -8.153906 32.809870 -0.779998 1.821948 -0.007681 0.000657 -41908.000000 0 0 1
-21.733054 23.185532 -8.898206 33.001100 -0.817723 1.843809 -0.001235 -0.012569 -186019.000000 0 0 1
-20.996954 22.379032 -10.016406 32.280358 -0.817250 1.886299 -0.003773 -0.019366 160197.000000 0 0 1
-21.822754 22.133432 -11.142406 33.019307 -0.792466 1.915004 -0.008099 -0.006340 101415.000000 0 0 1
-21.063954 21.465432 -12.103206 32.418243 -0.794838 1.953409 -0.012777 -0.000730 -164446.000000 0 0 1
-21.711754 21.242632 -13.480606 33.232159 -0.774477 1.988486 -0.012319 -0.003532 -136421.000000 0 0 1
-22.743354 20.279032 -13.514306 33.333703 -0.728181 1.988240 -0.018127 0.006756 297156.000000 0 0 1
-23.522054 20.483332 -14.734306 34.495705 -0.716454 2.012118 -0.004285 -0.010916 820441.000000 0 0 1
-24.666854 19.419632 -14.758906 34.690072 -0.666934 2.010256 0.020820 -0.017871 109777.000000 0 0 1
-24.185754 18.215732 -15.330806 33.938138 -0.645520 2.039498 0.022123 -0.014729 47143.800000 0 0 1
-25.091194 17.137432 -15.340606 34.038122 -0.599229 2.038333 0.047823 -0.019289 -206388.000000 0 0 1
-24.833054 16.256532 -16.590106 34.002750 -0.579625 2.080484 0.058333 -0.014749 -177737.000000 0 0 1
-23.642154 15.543332 -16.418806 32.712747 -0.581589 2.096600 0.074142 -0.011944 -286826.000000 0 0 1
-23.151154 15.145132 -17.698506 32.841864 -0.579311 2.139928 0.077907 -0.017910 -69360.000000 0 0 1
-22.367154 13.823132 -17.657706 31.672750 -0.553557 2.162173 0.078138 -0.019751 -286041.000000 0 0 1
-21.218654 13.931332 -16.879606 30.483346 -0.580973 2.157636 0.073967 -0.021280 -390708.000000 0 0 1
-20.350654 12.818032 -16.951406 29.424500 -0.562085 2.184744 0.067310 -0.009371 30481.900000 0 0 1
-19.155154 12.936532 -15.988706 28.105382 -0.593994 2.175945 0.053031 -0.009691 -54714.900000 0 0 1
-18.106354 13.742332 -16.496506 28.086054 -0.649223 2.198584 0.049520 -0.004043 -309130.000000 0 0 1
-17.050154 13.777632 -15.592906 26.901108 -0.679639 2.189081 0.050230 0.010091 -910916.000000 0 0 1
-16.052454 14.836332 -15.943406 27.055318 -0.746048 2.200975 0.024182 0.008955 -747674.000000 0 0 1
-15.340354 14.682932 -17.145106 27.292299 -0.763505 2.250038 0.035801 -0.000728 356006.000000 0 0 1
-14.401354 15.745932 -17.372906 27.516381 -0.829969 2.254110 0.031490 0.002651 473645.000000 0 0 1
-13.551854 15.464032 -18.659106 27.766009 -0.851204 2.307719 0.014947 0.003058 177497.000000 0 0 1
-12.751354 14.319632 -18.499406 26.643515 -0.843266 2.338286 0.008553 0.007881 492783.000000 0 0 1
-11.709254 14.300832 -19.525406 26.886091 -0.884708 2.383614 -0.001890 0.008221 888026.000000 0 0 1
-10.803454 13.072432 -19.517006 25.855688 -0.880146 2.426212 0.000236 0.001898 258428.000000 0 0 1
-11.455454 11.887332 -19.991706 25.926905 -0.803898 2.451331 0.013007 0.001369 461219.000000 0 0 1
-10.511054 10.832832 -19.968306 25.031295 -0.800473 2.494324 0.001078 0.010444 -29573.500000 0 0 1
-11.034454 9.619632 -20.765906 25.407073 -0.717004 2.527554 0.010454 0.001605 -38386.900000 0 0 1
-10.902754 9.921132 -22.140106 26.598556 -0.738294 2.554185 0.010179 0.004767 -60264.400000 0 0 1
-11.101054 8.822232 -22.960706 26.986278 -0.671513 2.588357 0.019457 0.009735 -125404.000000 0 0 1
-10.941854 9.142132 -24.400106 28.260713 -0.696027 2.612753 0.018971 -0.001702 510022.000000 0 0 1
-9.562154 9.071932 -24.779306 28.066862 -0.759096 2.652729 0.004264 0.000574 388045.000000 0 0 1
-9.391454 8.367232 -26.068986 28.944810 -0.727788 2.692047 -0.006824 -0.009419 -354262.000000 0 0 1
-9.531454 9.297132 -27.302626 30.376284 -0.772954 2.687852 0.010169 -0.004953 571502.000000 0 0 1
-8.359554 10.080032 -27.616156 30.563724 -0.878432 2.698803 0.004787 -0.010842 666655.000000 0 0 1
-8.166654 11.178532 -26.762456 30.131095 -0.939850 2.664210 -0.004444 -0.002782 268106.000000 0 0 1
-6.691854 11.680232 -26.678816 29.882569 -1.050526 2.674294 0.010763 -0.003777 567511.000000 0 0 1
-6.177554 12.273532 -27.912546 31.111284 -1.104494 2.684148 0.017215 -0.016242 59425.900000 0 0 1
-4.820354 12.600732 -27.766096 30.870218 -1.205427 2.689297 0.035292 -0.018455 -93082.400000 0 0 1
-4.039954 12.675532 -29.113706 32.009346 -1.262254 2.712967 0.042392 -0.016524 575982.000000 0 0 1
-2.628254 12.836032 -29.000566 31.823015 -1.368832 2.717246 0.045682 -0.017808 479772.000000 0 0 1
-2.017054 12.733332 -30.288336 32.917921 -1.413694 2.739175 0.046965 -0.017030 330481.000000 0 0 1
-0.476454 12.599632 -30.211216 32.736758 -1.532999 2.746220 0.043183 -0.018054 177863.000000 0 0 1
0.009346 11.303832 -29.892496 31.958380 1.569969 2.780064 0.037906 -0.007811 28805.900000 0 0 1
1.402646 11.138332 -30.029636 32.059459 1.445526 2.783839 0.041280 -0.011375 121256.000000 0 0 1
1.871546 10.477932 -31.343546 33.101475 1.394042 2.814227 0.043256 -0.011389 -341511.000000 0 0 1
1.646246 11.290132 -32.500526 34.445049 1.426004 2.803977 0.050733 -0.018085 250639.000000 0 0 1
1.919346 10.597332 -33.708696 35.387336 1.391623 2.832348 0.050563 -0.017338 -41739.800000 0 0 1
1.932046 11.526732 33.948660 35.904176 1.404726 0.331562 0.053520 -0.014655 -205513.000000 0 0 1
3.140346 12.240332 33.856742 36.138158 1.319656 0.357228 0.048967 -0.021317 -498400.000000 0 0 1
3.249346 12.967532 32.662248 35.292175 1.325276 0.388492 0.044718 -0.012818 -536357.000000 0 0 1
4.664446 13.479632 32.411758 35.411575 1.237657 0.414576 0.039482 -0.010266 -307749.000000 0 0 1
5.461346 12.362232 32.011448 34.747430 1.154802 0.399486 0.037538 -0.019612 -1412610.000000 0 0 1
6.771446 12.627632 31.741828 34.826043 1.078578 0.424027 0.031226 -0.008705 -1426380.000000 0 0 1
7.446846 11.335432 31.282808 34.096358 0.989549 0.409092 0.018863 -0.003606 -262952.000000 0 0 1
6.957646 10.812032 30.069258 32.702739 0.998997 0.404061 0.027772 -0.011403 408138.000000 0 0 1
7.879446 9.839032 29.546118 32.122661 0.895546 0.403250 0.025515 -0.010521 475245.000000 0 0 1
7.236946 9.043732 28.415498 30.685551 0.895923 0.387062 0.020494 -0.010172 -346681.000000 0 0 1
6.286446 8.142332 28.845838 30.625143 0.913320 0.342552 0.025960 -0.017644 -527834.000000 0 0 1
5.806746 7.396532 27.739818 29.290348 0.905230 0.326834 0.044100 -0.020846 52541.100000 0 0 1
4.943046 6.184332 28.136148 29.228796 0.896491 0.274291 0.049707 -0.023390 61889.300000 0 0 1
5.726046 5.207232 28.780708 29.803222 0.737981 0.262705 0.034330 -0.018485 -198924.000000 0 0 1
4.938246 4.470232 29.644078 30.383229 0.735695 0.221029 0.034209 -0.017825 -1281360.000000 0 0 1
5.610946 3.362432 30.405358 31.101037 0.539877 0.211907 0.036886 -0.016612 -222212.000000 0 0 1
5.903846 2.174232 29.691538 30.350785 0.352861 0.208806 0.036103 -0.017668 18943.600000 0 0 1
7.028146 2.214732 28.836378 29.763007 0.305273 0.250186 0.037281 -0.015545 -319988.000000 0 0 1
7.180546 0.973732 27.985418 28.908338 0.134785 0.253366 0.029565 -0.021753 -4394.790000 0 0 1
7.382946 -0.243068 28.724288 29.658923 -0.032911 0.251713 0.008837 -0.000936 113628.000000 0 0 1
7.514646 -1.388068 27.915808 28.942857 -0.182656 0.267198 0.007979 0.003573 -80246.400000 0 0 1
7.916746 -2.670768 28.746858 29.936428 -0.325367 0.282852 0.005429 0.008054 122558.000000 0 0 1
9.281746 -2.617268 29.096498 30.653012 -0.274844 0.320044 0.012488 -0.000909 -442866.000000 0 0 1
10.000346 -3.704268 28.630018 30.551702 -0.354744 0.356567 0.013363 0.001420 249720.000000 0 0 1
11.537246 -3.633168 28.961238 31.385686 -0.305077 0.395632 0.016802 -0.007789 975497.000000 0 0 1
12.286246 -4.678268 28.376498 31.274010 -0.363822 0.433858 0.026796 -0.009698 27955.500000 0 0 1
12.367346 -5.791468 29.220638 32.254272 -0.437957 0.437187 0.032524 -0.009637 -825837.000000 0 0 1
11.538046 -6.999968 28.862348 31.861595 -0.545321 0.437376 0.034954 -0.003742 -453173.000000 0 0 1
10.159346 -6.793768 29.052618 31.518601 -0.589423 0.398199 0.013289 -0.000891 -204195.000000 0 0 1
9.495746 -8.041968 28.805708 31.378516 -0.702693 0.407770 0.004863 0.003916 -752738.000000 0 0 1
7.996146 -8.120068 28.637538 30.821785 -0.793087 0.378735 0.009639 0.005566 -1023060.000000 0 0 1
7.470146 -7.788468 29.878058 31.767305 -0.806257 0.346613 0.014660 0.005860 -465086.000000 0 0 1
6.070246 -7.650168 29.798858 31.358331 -0.900044 0.316697 0.006347 0.009813 -136021.000000 0 0 1
5.428846 -6.939668 31.029928 32.256593 -0.906947 0.276665 -0.002077 0.008170 37030.100000 0 0 1
5.649046 -7.713468 32.206308 33.595470 -0.938680 0.288575 0.003487 0.015298 166611.000000 0 0 1
5.145146 -7.046868 33.382474 34.503920 -0.940132 0.255654 0.002113 0.007641 -48954.500000 0 0 1
5.842846 -5.779268 33.895450 34.877505 -0.779928 0.237867 0.006777 0.007621 -187599.000000 0 0 1
5.631546 -4.697268 32.990804 33.796032 -0.695190 0.218730 0.007168 0.010139 29936.700000 0 0 1
6.389346 -3.581468 33.411357 34.204816 -0.510897 0.215813 0.010483 0.010918 -242886.000000 0 0 1
6.292046 -2.454268 32.341798 33.039449 -0.371907 0.205866 0.016371 0.007296 353540.000000 0 0 1
5.016446 -1.824968 32.284818 32.723153 -0.348913 0.163861 0.017651 0.004364 159614.000000 0 0 1
5.075946 -0.737768 31.342238 31.759179 -0.144335 0.162216 0.018323 -0.007306 -188273.000000 0 0 1
3.678546 -0.253468 30.932598 31.151590 -0.068796 0.118643 0.023974 -0.005023 -213806.000000 0 0 1
2.981946 0.171532 32.073148 32.211927 0.057460 0.092859 0.028087 -0.002244 -1031430.000000 0 0 1
1.772146 0.791132 31.794098 31.853274 0.419878 0.060965 0.035113 -0.013485 -466325.000000 0 0 1
0.827246 0.952832 33.008404 33.032514 0.855832 0.038209 0.035007 -0.014595 -105324.000000 0 0 1
1.244546 1.900732 33.991436 34.067278 0.991074 0.066739 0.033827 -0.005101 354264.000000 0 0 1
0.450046 1.789632 -33.663626 33.714167 1.324431 3.086830 0.029946 -0.013139 442446.000000 0 0 1
0.858546 2.913132 -32.676626 32.817455 1.284194 3.048917 0.038210 -0.010357 931183.000000 0 0 1
2.062546 2.611332 -31.940096 32.112971 0.902278 3.037784 0.026627 -0.005843 600411.000000 0 0 1
2.531046 3.780932 -31.295216 31.624234 0.980887 2.997218 0.032182 -0.002285 546624.000000 0 0 1
3.619946 3.479632 -30.171166 30.586126 0.765637 2.976682 0.032234 0.005820 560885.000000 0 0 1
3.188346 2.800832 -29.011236 29.319994 0.720786 2.996340 0.034292 0.000561 -513422.000000 0 0 1
4.240246 2.618932 -28.125036 28.563196 0.553287 2.966211 0.042609 -0.006501 -517896.000000 0 0 1
3.899546 2.014532 -26.726466 27.084475 0.476845 2.978820 0.037660 -0.011014 -73397.500000 0 0 1
4.034246 0.603132 -26.825486 27.133846 0.148404 2.990689 0.045893 -0.015279 148598.000000 0 0 1
3.792046 0.035332 -25.521696 25.801896 0.009317 2.994084 0.057326 -0.020221 -363343.000000 0 0 1
4.153946 -1.451268 -25.368146 25.746928 -0.336114 2.969849 0.050491 -0.021032 522081.000000 0 0 1
5.568746 -1.605368 -25.259706 25.916035 -0.280672 2.916058 0.048529 -0.024666 432207.000000 0 0 1
5.955646 -2.904368 -24.731706 25.603952 -0.453732 2.879822 0.054055 -0.034609 -43280.800000 0 0 1
7.454846 -3.084568 -24.426406 25.724280 -0.392318 2.822584 0.059294 -0.036270 234997.000000 0 0 1
8.245446 -3.219768 -25.595696 27.083093 -0.372282 2.808636 0.048751 -0.024271 -970176.000000 0 0 1
9.559746 -3.492668 -25.225296 27.201159 -0.350285 2.758094 0.033415 -0.020391 -587587.000000 0 0 1
-28.861304 -4.687868 18.339018 34.514787 0.161021 1.010617 0.067860 -0.008135 -617436.000000 0 0 1
-30.206804 -4.394368 18.490918 35.688591 0.144463 1.026147 0.058260 -0.002588 -825392.000000 0 0 1
-30.756694 -5.261668 19.478218 36.783969 0.169434 1.012750 0.053115 -0.008743 49271.300000 0 0 1
-32.213874 -4.932068 19.837218 38.151988 0.151924 1.024001 0.048644 -0.002034 535864.000000 0 0 1
-33.219214 -5.344568 18.887318 38.585118 0.159521 1.059283 0.043188 -0.002412 770734.000000 0 0 1
-34.529464 -5.019568 19.311418 39.879955 0.144359 1.065303 0.037032 0.002769 346439.000000 0 0 1
35.354654 -5.095568 18.139718 40.062024 -0.143142 1.100903 0.038003 0.002002 1231180.000000 0 0 1
33.988259 -4.954968 18.583418 39.052489 -0.144765 1.074858 0.024772 0.001185 1187980.000000 0 0 1
33.058449 -4.879968 17.474218 37.709726 -0.146558 1.088982 0.026234 -0.002520 913873.000000 0 0 1
31.680499 -5.498768 17.873318 36.787851 -0.171857 1.063463 0.024617 0.003633 -85633.600000 0 0 1
30.986099 -4.626868 18.705818 36.489092 -0.148226 1.032538 0.029443 0.007378 -236845.000000 0 0 1
29.804329 -5.282768 19.116518 35.800097 -0.175426 1.007496 0.022582 0.003508 143803.000000 0 0 1
29.090369 -4.516768 20.283918 35.750358 -0.154037 0.967480 0.022129 0.007989 403740.000000 0 0 1
28.337069 -3.301868 20.074018 34.883492 -0.115998 0.957631 0.037564 0.004174 707499.000000 0 0 1
29.130349 -2.171668 19.685818 35.225343 -0.074412 0.977793 0.041724 0.001353 -233597.000000 0 0 1
28.371419 -0.841468 19.846418 34.634171 -0.029650 0.960598 0.056603 -0.001830 -67790.100000 0 0 1
28.981059 0.383332 19.429818 34.893646 0.013226 0.980232 0.060733 -0.007889 124255.000000 0 0 1
28.053439 1.418832 19.703418 34.310832 0.050533 0.959094 0.072267 -0.011410 395857.000000 0 0 1
28.439179 2.813532 19.130618 34.390164 0.098611 0.980892 0.064626 -0.014284 132754.000000 0 0 1
28.409999 2.674932 17.724418 33.592236 0.093878 1.014983 0.052535 -0.013376 2058.530000 0 0 1
28.210199 3.854732 17.038418 33.181048 0.135802 1.031539 0.056330 -0.020502 129336.000000 0 0 1
27.937769 3.626332 15.525118 32.166730 0.129079 1.067124 0.056994 -0.020770 -154657.000000 0 0 1
27.649379 4.823232 14.805418 31.732509 0.172705 1.085388 0.058303 -0.022205 142631.000000 0 0 1
27.051649 4.590632 13.546318 30.600136 0.168097 1.112202 0.054816 -0.018315 -188243.000000 0 0 1
26.423259 5.895532 12.993718 30.029696 0.219523 1.123316 0.058941 -0.014531 -148037.000000 0 0 1
25.380039 6.394332 13.790118 29.583800 0.246807 1.085876 0.050835 -0.022469 -202058.000000 0 0 1
24.963039 7.694232 13.413618 29.364599 0.298985 1.096407 0.062806 -0.027340 -446237.000000 0 0 1
23.767839 8.176532 14.245218 28.891038 0.331335 1.055185 0.059813 -0.026881 1065030.000000 0 0 1
22.431439 7.649232 14.098518 27.576229 0.328639 1.034150 0.059784 -0.020992 1221840.000000 0 0 1
22.254939 6.264532 14.350918 27.211680 0.274389 1.015281 0.057206 -0.022196 -142663.000000 0 0 1
20.789239 5.814932 14.021918 25.741408 0.272739 0.994738 0.062956 -0.018830 481621.000000 0 0 1
20.549739 5.759032 12.587518 24.777083 0.273239 1.037899 0.056353 -0.018156 -85791.400000 0 1 0
19.671839 4.704132 12.510118 23.782623 0.234722 1.016883 0.054633 -0.015591 -916669.000000 0 1 0
19.311739 4.367532 11.055018 22.676685 0.222418 1.061565 0.051123 -0.015063 -476692.000000 0 1 0
20.348939 3.773932 10.335318 23.133108 0.183377 1.107638 0.055777 -0.017078 329459.000000 0 1 0
19.935039 3.534832 8.975918 22.146510 0.175493 1.153492 0.053746 -0.015261 -52226.900000 0 1 0
21.077139 2.887132 8.185018 22.794206 0.136132 1.203511 0.061121 -0.012242 -916839.000000 0 1 0
21.372339 1.591332 8.642218 23.108378 0.074320 1.187493 0.060828 -0.016267 41501.800000 0 1 0
22.226239 0.883732 7.828418 23.581154 0.039740 1.232397 0.055744 -0.009859 299185.000000 0 1 0
23.766839 1.219132 7.881518 25.069249 0.051251 1.250982 0.060018 -0.011947 603244.000000 0 0 1
24.550339 0.734832 8.965818 26.146606 0.029923 1.220788 0.053417 -0.006002 447046.000000 0 0 1
24.356739 1.444632 10.233018 26.458502 0.059242 1.173684 0.055598 -0.007029 -392799.000000 0 0 1
25.046639 0.831232 11.490718 27.569216 0.033175 1.140879 0.044056 -0.012467 297462.000000 0 0 1
26.467449 0.800332 11.374318 28.819117 0.030229 1.165077 0.047552 -0.012492 433237.000000 0 0 1
27.024739 0.146532 12.513418 29.781599 0.005422 1.137161 0.038567 -0.017538 150086.000000 0 0 1
28.568109 0.235232 12.572318 31.213064 0.008234 1.156233 0.051137 -0.016096 199248.000000 0 0 1
29.026889 1.552432 12.920018 31.810332 0.053432 1.152551 0.049021 -0.013356 -38173.700000 0 0 1
30.432549 1.579732 12.915718 33.097604 0.051863 1.169914 0.040723 -0.008208 -139432.000000 0 0 1
31.033219 2.932932 13.318118 33.897419 0.094230 1.167019 0.038040 -0.010095 -581098.000000 0 0 1
30.941119 3.909432 12.293418 33.522599 0.125685 1.195315 0.038575 -0.008346 161968.000000 0 0 1
31.648209 5.083332 12.647118 34.458656 0.159260 1.194990 0.033611 -0.014902 602713.000000 0 0 1
33.143859 5.038632 12.205218 35.677311 0.150868 1.221645 0.028278 -0.011233 26819.300000 0 0 1
33.942759 4.069132 12.825118 36.512359 0.119313 1.211886 0.021316 -0.007297 11792.500000 0 0 1
35.248667 4.094432 12.281918 37.551011 0.115640 1.237592 0.018127 -0.001193 548193.000000 0 0 1
-34.587884 3.164432 12.949518 37.067848 -0.091236 1.213923 0.031691 0.008127 -160662.000000 0 0 1
-34.598713 1.773332 12.744018 36.913759 -0.051209 1.218304 0.025981 0.005230 -320190.000000 0 0 1
35.198148 0.991232 13.049318 37.552322 0.028154 1.215896 0.034544 0.009122 -444963.000000 0 0 1
34.902699 0.721432 14.533818 37.814689 0.020667 1.176300 0.036206 0.009183 188302.000000 0 0 1
-35.080979 -0.171168 15.132618 38.206027 0.004879 1.163553 0.022538 0.011202 426221.000000 0 0 1
35.351522 -0.433868 16.461318 38.998633 -0.012272 1.135036 0.026720 0.004125 158851.000000 0 0 1
-34.660876 -1.329168 17.378918 38.796518 0.038329 1.106325 0.016761 0.004718 395249.000000 0 0 1
-33.479534 -0.614968 17.746118 37.896993 0.018366 1.083462 0.030000 0.003426 432370.000000 0 0 1
-32.542574 -1.319468 18.546518 37.479774 0.040524 1.053145 0.024175 -0.001917 206858.000000 0 0 1
-32.847034 -1.216868 20.068418 38.511684 0.037030 1.022658 0.029900 -0.008132 -49461.800000 0 0 1
-33.891554 -1.994768 20.630018 39.726744 0.058790 1.024767 0.027437 -0.016033 142463.000000 0 0 1
-34.044324 -1.711468 22.002118 40.571398 0.050229 0.997617 0.027674 -0.012205 77927.900000 0 0 1
-34.586647 -2.871668 22.804618 41.527500 0.082838 0.989456 0.024444 -0.008277 -550694.000000 0 0 1
-33.651254 -3.922668 22.819018 40.847298 0.116045 0.978049 0.038211 -0.019026 -3037.860000 0 0 1
-34.003414 -5.154268 23.496618 41.652007 0.150436 0.971432 0.045606 -0.024733 -213838.000000 0 0 1
-33.802194 -5.263468 25.021268 42.383443 0.154473 0.939298 0.037433 -0.022284 -532190.000000 0 0 1
-32.481754 -4.950568 25.332358 41.488562 0.151247 0.913995 0.041530 -0.018631 -809239.000000 0 0 1
-32.223064 -4.999868 26.676318 42.130161 0.153937 0.885131 0.043263 -0.022960 233060.000000 0 0 1
-31.088544 -4.069468 27.164148 41.484323 0.130159 0.856872 0.025776 -0.018658 -102583.000000 0 0 1
-31.481384 -2.681068 27.056228 41.596937 0.084959 0.862635 0.024367 -0.010775 209306.000000 0 0 1
-31.290784 -2.246468 25.709428 40.560257 0.071670 0.884266 0.017068 -0.014684 -302819.000000 0 0 1
-31.202294 -0.738868 25.440798 40.266155 0.023675 0.886903 0.023062 -0.006633 -432768.000000 0 0 1
-32.401104 -0.043068 25.588328 41.286752 0.001329 0.902346 0.023440 -0.019356 -483706.000000 0 0 1
-32.217424 1.312332 25.223818 40.938070 -0.040711 0.906957 0.014896 -0.004655 498730.000000 0 0 1
-33.517434 2.059432 24.755378 41.719161 -0.061366 0.935543 0.010666 -0.003505 536375.000000 0 0 1
-34.039854 1.545332 23.560918 41.427244 -0.045367 0.965835 0.000310 0.002389 -77002.200000 0 0 1
-35.090943 2.243732 22.917218 41.971508 -0.063854 0.993192 -0.000167 0.008082 286090.000000 0 0 1
-34.627252 3.538132 22.160918 41.263437 -0.101824 1.003849 0.001422 0.007743 -342126.000000 0 0 1
-33.935614 3.305132 20.951118 40.018735 -0.097088 1.019804 -0.005835 0.005721 -1111290.000000 0 0 1
-34.746615 3.260632 19.870018 40.159390 -0.093566 1.053216 0.012735 0.003942 -829365.000000 0 0 1
-34.179247 2.455432 18.673618 39.025044 -0.071717 1.071847 0.002989 0.008005 -278530.000000 0 0 1
-33.124304 3.121832 18.030018 37.842395 -0.093968 1.074184 0.010496 0.002765 -125541.000000 0 0 1
-32.683574 2.448032 16.906418 36.878664 -0.074761 1.094564 0.026073 0.008829 -211050.000000 0 0 1
-31.787624 3.346532 16.023618 35.754841 -0.104891 1.106099 0.021186 0.006835 -136053.000000 0 0 1
-32.446234 4.313832 15.209318 36.092805 -0.132178 1.135814 0.024818 0.002853 165489.000000 0 0 1
-31.546374 5.140932 14.480218 35.089594 -0.161544 1.145419 0.024784 0.002215 112391.000000 0 0 1
-32.263094 6.406932 13.953518 35.730333 -0.196034 1.169597 0.041503 -0.003088 -284995.000000 0 0 1
-31.338664 7.116732 13.238118 34.756402 -0.223304 1.180045 0.040372 -0.000308 -235841.000000 0 0 1
-31.813864 8.426132 12.918418 35.355440 -0.258912 1.196748 0.051994 -0.005566 -567949.000000 0 0 1
-30.943444 9.137932 11.922418 34.396839 -0.287149 1.216838 0.049700 -0.007394 -503648.000000 0 0 1
-31.328944 10.515032 11.820018 35.096744 -0.323819 1.227297 0.051007 -0.005020 117910.000000 0 0 1
-30.617594 11.196732 10.827418 34.351664 -0.350589 1.250136 0.044396 -0.013785 -406035.000000 0 0 1
-30.856824 12.753332 10.873218 35.114355 -0.391925 1.255970 0.049124 -0.011229 67504.600000 0 0 1
-30.052324 13.459632 9.958518 34.401685 -0.421084 1.277115 0.030486 -0.006551 80300.300000 0 0 1
-30.282524 14.856932 10.048818 35.195716 -0.456108 1.281255 0.037516 -0.008008 232161.000000 0 0 1
-29.458444 15.589432 8.932218 34.505287 -0.486734 1.308949 0.036905 -0.013161 -383845.000000 0 0 1
-28.075774 15.480232 9.066718 33.318044 -0.503897 1.295194 0.042638 -0.008715 -459448.000000 0 0 1
-27.467634 16.562132 8.343618 33.141984 -0.542600 1.316304 0.036666 -0.023723 799372.000000 0 0 1
-25.914834 16.651932 8.616518 31.986088 -0.571130 1.298044 0.041327 -0.016273 690449.000000 0 0 1
-25.596354 17.197132 9.883418 32.382042 -0.591588 1.260634 0.036054 -0.018266 250488.000000 0 0 1
-25.858564 18.577732 10.033718 33.383723 -0.622992 1.265520 0.034659 -0.023873 -547274.000000 0 0 1
-25.819114 18.922732 11.539318 34.027229 -0.632465 1.224815 0.042662 -0.010244 -1136310.000000 0 0 1
-24.608054 18.955932 12.194818 33.370605 -0.656376 1.196695 0.028401 -0.003035 -858837.000000 0 0 1
-24.609354 19.440232 13.531018 34.155986 -0.668585 1.163472 0.041150 -0.007974 -162971.000000 0 0 1
-25.120134 18.481532 14.653118 34.457249 -0.634303 1.131553 0.030305 -0.005645 -100369.000000 0 0 1
-24.239954 17.408832 14.927818 33.368886 -0.622828 1.106988 0.038404 -0.010150 2054.580000 0 0 1
-24.788754 16.503332 15.841018 33.730997 -0.587374 1.081927 0.033152 -0.006511 -192467.000000 0 0 1
-23.700154 15.547032 16.409318 32.751690 -0.580574 1.046017 0.037205 0.003853 211642.000000 0 0 1
-22.852654 16.243332 17.315618 32.953304 -0.617928 1.017542 0.037688 0.003475 24896.700000 0 0 1
-21.737754 15.456032 17.718518 32.021317 -0.618085 0.984433 0.031164 0.002860 243732.000000 0 0 1
-22.022554 14.268932 18.715918 32.231675 -0.574914 0.951247 0.035718 0.007044 -383451.000000 0 0 1
-22.008654 14.702932 20.109718 33.240906 -0.588961 0.921069 0.035495 0.007526 -73308.700000 0 0 1
-22.569254 13.770532 20.931918 33.721565 -0.547846 0.901125 0.028746 0.007590 -812216.000000 0 0 1
-22.290354 14.206532 22.355018 34.618380 -0.567424 0.868784 0.030634 0.013692 380227.000000 0 0 1
-20.950554 14.077232 22.837318 34.038761 -0.591635 0.835346 0.032495 0.006057 257234.000000 0 0 1
-20.255454 15.298332 22.611518 33.994163 -0.646865 0.843090 0.030608 0.009367 -437961.000000 0 0 1
-18.733654 15.104832 22.817618 33.162470 -0.678567 0.811990 0.035007 0.005770 406693.000000 0 0 1
-17.919254 14.595332 21.769818 31.749777 -0.683523 0.815275 0.025123 0.000754 -33242.100000 0 0 1
-17.738754 15.447332 20.624818 31.283647 -0.716460 0.850930 0.033460 0.009505 -699154.000000 0 0 1
-16.494954 14.994032 19.827618 29.833520 -0.737769 0.843826 0.034161 0.010373 1547840.000000 0 0 1
-15.226754 14.928532 20.535418 29.604366 -0.775509 0.804236 0.028670 0.010595 1061220.000000 0 0 1
-14.558754 16.102732 20.933218 30.157170 -0.835711 0.803576 0.020342 0.007679 -16460.400000 0 0 1
-13.299154 15.820332 21.805618 30.043891 -0.871763 0.758611 0.003258 0.012509 891828.000000 0 0 1
-12.215254 15.119332 21.147418 28.723160 -0.891243 0.743285 0.010509 0.012807 40211.500000 0 0 1
-11.345154 14.672232 22.120518 28.867009 -0.912587 0.697749 0.019370 0.007338 -658432.000000 0 0 1
-10.143654 13.892632 21.625118 27.632312 -0.940123 0.671961 0.012004 0.007550 -870723.000000 0 0 1
-9.719954 12.851332 22.516618 27.688126 -0.923251 0.621127 0.026063 0.003213 1842390.000000 0 0 1
-8.459354 12.180732 22.128418 26.638277 -0.963780 0.590432 0.020646 0.011476 2393400.000000 0 0 1
-7.120854 12.962332 22.343518 26.794802 -1.068452 0.584705 0.015102 0.013284 -197802.000000 0 0 1
-6.858554 13.941032 21.302418 26.366364 -1.113594 0.630150 0.014153 0.016377 -190724.000000 0 0 1
-6.091354 15.093132 21.639318 27.077063 -1.187204 0.644874 0.009538 0.019593 63375.800000 0 0 1
-6.802454 16.211932 22.511218 28.563177 -1.173512 0.663047 0.011493 0.005910 853397.000000 0 0 1
-7.920254 16.837832 21.869018 28.714055 -1.131121 0.704997 -0.000753 0.005091 251684.000000 0 0 1
-7.464754 17.812632 20.888518 28.448947 -1.173958 0.746241 0.003865 0.008430 -733132.000000 0 0 1
-8.606554 18.218432 19.950518 28.355021 -1.129464 0.790349 0.012071 0.017504 719635.000000 0 0 1
-9.640654 19.093832 20.397118 29.556033 -1.103229 0.809146 0.001639 0.018525 478998.000000 0 0 1
-10.581654 18.448232 21.294918 30.096216 -1.050025 0.784755 0.003033 0.013687 -612390.000000 0 0 1
-11.920854 19.182532 21.294518 31.040825 -1.014759 0.814796 -0.003842 0.009732 -398438.000000 0 0 1
-12.628154 19.008232 20.067018 30.388622 -0.984398 0.849516 -0.002703 0.013216 -532589.000000 0 0 1
-13.775754 19.797232 20.097218 31.394266 -0.962866 0.876095 -0.006913 0.009413 -310691.000000 0 0 1
-14.522054 19.714832 18.746518 30.838233 -0.935923 0.917385 0.001920 0.013337 -34324.300000 0 0 1
-15.063254 18.494732 18.257818 30.038386 -0.887299 0.917489 0.017076 0.011340 -78045.800000 0 0 1
-15.816054 18.655932 17.113718 29.850807 -0.867595 0.960258 0.038413 0.000508 -1297460.000000 0 0 1
-16.650654 17.417932 16.686318 29.309757 -0.807916 0.965131 0.038876 -0.000345 233947.000000 0 0 1
-17.673354 16.991432 17.567418 30.160742 -0.765729 0.949045 0.038786 -0.001323 430720.000000 0 0 1
-18.799354 17.891632 17.533818 31.320297 -0.760664 0.976624 0.032440 -0.000041 -251598.000000 0 0 1
33.722089 -9.845868 11.886894 37.086637 -0.284074 1.244521 0.034186 -0.015341 69610.700000 0 0 1
32.318689 -10.035668 11.858194 35.858459 -0.301082 1.233757 0.030237 -0.014015 403000.000000 0 0 1
31.913569 -11.393768 12.216294 36.021267 -0.342915 1.224793 0.035301 -0.014760 953275.000000 0 0 1
30.362779 -11.664368 12.186494 34.734226 -0.366783 1.212318 0.021067 -0.004677 917365.000000 0 0 1
29.625479 -10.810668 13.098294 34.148277 -0.349896 1.177136 0.024286 0.001481 1468750.000000 0 0 1
28.242379 -11.237368 13.186094 33.132816 -0.378686 1.161486 0.014483 -0.000587 1148960.000000 0 0 1
27.988049 -12.126068 14.439394 33.747126 -0.408845 1.128661 0.001934 0.003117 -677907.000000 0 0 1
27.882649 -11.352268 15.602894 33.908205 -0.386650 1.092631 0.003624 0.007160 -141520.000000 0 0 1
27.224149 -11.928968 16.695694 34.091066 -0.412978 1.059007 0.000878 0.002925 706590.000000 0 0 1
25.658039 -11.775168 16.672394 32.786556 -0.430253 1.037339 -0.000553 -0.006196 500180.000000 0 0 1
25.240539 -10.465868 16.836194 32.094807 -0.393067 1.018578 -0.004363 -0.006034 -265633.000000 0 0 1
24.925439 -9.739268 15.641394 30.996517 -0.372495 1.041857 0.007160 -0.008800 -236114.000000 0 0 1
24.425339 -8.327268 16.045894 30.387683 -0.328570 1.014506 0.022031 -0.015668 438556.000000 0 0 1
25.507639 -7.394168 16.209094 31.113471 -0.282147 1.022813 0.008760 -0.012547 639362.000000 0 0 1
25.087239 -6.083068 16.605094 30.693687 -0.237885 0.999178 0.017420 -0.014338 -29113.700000 0 0 1
26.323019 -5.169068 16.526994 31.508128 -0.193903 1.018632 0.023281 -0.011486 130123.000000 0 0 1
26.673249 -4.886168 15.208694 31.090854 -0.181177 1.059659 0.031668 -0.009674 -404268.000000 0 0 1
27.854709 -4.162868 15.126694 31.969222 -0.148351 1.077917 0.034168 -0.005930 -720222.000000 0 0 1
28.179959 -3.629668 13.763394 31.570803 -0.128098 1.119699 0.047833 -0.005879 -199897.000000 0 0 1
28.793699 -4.515068 12.835394 31.846668 -0.155541 1.155963 0.033119 -0.003262 459089.000000 0 0 1
28.948659 -3.827868 11.582494 31.413876 -0.131467 1.193179 0.042291 -0.009519 -1244.560000 0 0 1
29.478369 -4.787268 10.437194 31.635853 -0.160994 1.234581 0.044180 -0.009082 -950592.000000 0 0 1
30.836569 -5.053868 10.408794 32.935977 -0.162448 1.249253 0.058782 -0.010912 -705734.000000 0 0 1
31.137529 -5.827768 9.278694 33.009131 -0.185022 1.285862 0.059412 -0.016882 -710112.000000 0 0 1
32.545939 -6.395168 9.392294 34.472475 -0.194025 1.294850 0.048855 -0.015197 -498626.000000 0 0 1
33.576639 -5.481368 9.077994 35.211448 -0.161822 1.310038 0.046310 -0.013331 556550.000000 0 0 1
34.839939 -6.166168 9.135394 36.541735 -0.175172 1.318117 0.055559 -0.018476 1212780.000000 0 0 1
-34.816337 -5.388868 8.628894 36.272235 0.153561 1.330601 0.044726 -0.012538 523605.000000 0 0 1
-34.936438 -4.818368 7.353694 36.025660 0.137054 1.365228 0.046803 -0.014995 -279905.000000 0 0 1
-33.749564 -4.184668 6.972094 34.715336 0.123362 1.368585 0.032077 -0.000074 -535002.000000 0 0 1
-33.680174 -3.476968 5.567094 34.313786 0.102870 1.407835 0.047334 -0.013115 -475728.000000 0 0 1
-33.506014 -4.269168 4.393394 34.061425 0.126732 1.441452 0.039739 -0.014276 244958.000000 0 0 1
-33.175874 -3.432068 3.263894 33.512247 0.103084 1.473248 0.045314 -0.009350 93289.700000 0 0 1
-32.371234 -4.070668 2.076694 32.692197 0.125093 1.507231 0.041410 -0.011897 -64416.000000 0 0 1
-33.058944 -5.043468 1.351094 33.468728 0.151393 1.530417 0.047729 -0.006138 11047.600000 0 0 1
-34.203245 -4.656768 0.603994 34.524082 0.135318 1.553301 0.041168 -0.007999 -251987.000000 0 0 1
-34.045404 -4.921868 -0.938106 34.412125 0.143573 1.598061 0.061631 -0.009634 -707054.000000 0 0 1
-34.008804 -6.313468 -1.230806 34.611754 0.183553 1.606364 0.068043 -0.015870 160337.000000 0 0 1
-33.411964 -6.703568 -2.466106 34.166926 0.198005 1.643037 0.052527 -0.014232 -279140.000000 0 0 1
-31.886274 -6.496568 -2.543706 32.640623 0.200991 1.648806 0.031598 -0.012382 -338466.000000 0 0 1
-31.233794 -7.230168 -1.497606 32.094673 0.227479 1.617475 0.027183 -0.011689 168699.000000 0 0 1
-29.870674 -6.938668 -1.290506 30.693121 0.228243 1.612854 0.033554 -0.021907 -31821.500000 0 0 1
-29.139974 -7.769868 -0.229006 30.158935 0.260577 1.578390 0.019964 -0.011550 -257092.000000 0 0 1
-28.915094 -9.110968 -0.554206 30.321602 0.305246 1.589075 0.028666 -0.005613 84947.100000 0 0 1
-28.293694 -9.771768 0.460894 29.937150 0.332543 1.555400 0.029872 -0.001789 -513619.000000 0 0 1
-27.871564 -11.192568 0.071194 30.035025 0.381865 1.568426 0.022466 -0.002466 753914.000000 0 0 1
-26.708424 -11.225768 -0.808806 28.982959 0.397890 1.598706 0.021874 0.002866 1050770.000000 0 0 1
-26.205994 -12.476168 -1.111106 29.045541 0.444330 1.609060 0.018431 0.005546 -673172.000000 0 0 1
-26.998124 -13.374768 -2.020006 30.197078 0.459958 1.637740 0.018618 0.001207 -864578.000000 0 0 1
-28.046094 -14.054068 -1.397306 31.401475 0.464532 1.615309 0.029280 -0.011241 11242.300000 0 0 1
-28.554004 -15.093568 -2.209806 32.373294 0.486263 1.639110 0.032204 -0.010254 -275541.000000 0 0 1
-29.468794 -16.105468 -1.548806 33.618368 0.500172 1.616883 0.040012 -0.012921 -111094.000000 0 0 1
-28.757054 -17.005868 -0.713506 33.416714 0.534045 1.592150 0.016909 -0.005688 321269.000000 0 0 1
-29.626684 -17.734968 0.130794 34.529503 0.539400 1.567008 0.016035 0.000523 129031.000000 0 0 1
-29.958324 -19.208468 -0.270306 35.588474 0.570145 1.578392 0.026776 -0.003000 211073.000000 0 0 1
-28.817214 -20.022168 0.009894 35.090157 0.607227 1.570514 0.027090 -0.009488 661950.000000 0 0 1
-29.006074 -21.429668 -0.144806 36.063887 0.636294 1.574812 0.038843 -0.013458 161063.000000 0 0 1
-29.819284 -22.160968 0.980494 37.165300 0.639119 1.544411 0.043152 -0.010411 -190673.000000 0 0 1
-29.033484 -22.341168 2.133894 36.696382 0.655863 1.512614 0.036272 -0.007891 -113924.000000 0 0 1
-29.822394 -22.657568 3.251994 37.594095 0.649712 1.484185 0.034549 -0.005387 -140040.000000 0 0 1
-29.018534 -22.801268 4.554994 37.184958 0.665990 1.447992 0.016596 -0.004946 -435736.000000 0 0 1
-28.553724 -21.586168 5.023694 36.145751 0.647320 1.431361 0.007830 -0.001997 -355810.000000 0 0 1
-27.864274 -21.665768 6.218594 35.839840 0.660899 1.396403 -0.003067 -0.001548 -339581.000000 0 0 1
-27.408014 -20.336868 6.765094 34.793015 0.638364 1.375112 -0.001359 0.000393 -408636.000000 0 0 1
-26.867844 -20.366368 8.019594 34.655214 0.648614 1.337269 -0.008956 0.000631 -470253.000000 0 0 1
-26.448644 -19.090868 8.431994 33.691104 0.625213 1.317833 -0.000139 -0.006625 426424.000000 0 0 1
-25.369014 -19.189068 9.575294 33.218872 0.647583 1.278399 0.009472 -0.003326 304610.000000 0 0 1
-25.827214 -19.678468 10.797594 34.218052 0.651091 1.249757 -0.002130 -0.008343 -711928.000000 0 0 1
-24.785654 -20.002068 11.666694 33.919362 0.678996 1.219672 0.015981 -0.007269 -427259.000000 0 0 1
-24.422454 -18.872668 12.654194 33.358094 0.657908 1.181709 0.009774 -0.011555 -678424.000000 0 0 1
-23.745554 -17.743368 12.078894 32.009032 0.641725 1.183854 0.007103 -0.014148 165641.000000 0 0 1
-23.362654 -16.745468 12.992394 31.544042 0.621887 1.146279 0.014530 -0.006715 208168.000000 0 0 1
-22.470454 -17.185768 14.161494 31.635736 0.652916 1.106669 0.023727 -0.010942 -382022.000000 0 0 1
-23.303954 -17.680268 15.226494 32.977451 0.649034 1.090858 0.015263 -0.013057 175487.000000 0 0 1
-22.539854 -18.083868 16.339294 33.197045 0.676146 1.056191 0.029190 -0.011017 -268129.000000 0 0 1
-23.360354 -18.785168 17.457994 34.689627 0.677265 1.043426 0.030312 0.001160 -179725.000000 0 0 1
-24.161954 -17.797968 18.035294 35.011991 0.634877 1.029651 0.031534 0.000098 -178586.000000 0 0 1
-25.120844 -18.365468 18.918594 36.417858 0.631285 1.024546 0.022197 0.005261 189419.000000 0 0 1
-25.939854 -17.306868 19.726194 36.898867 0.588366 1.006760 0.019743 0.006682 51920.700000 0 0 1
-25.170454 -16.617068 20.694394 36.577816 0.583499 0.969437 0.022621 0.008669 156567.000000 0 0 1
-25.980274 -15.693668 21.423794 37.151646 0.543400 0.956164 0.026166 0.005085 210042.000000 0 0 1
-25.245434 -15.009768 22.610494 37.065611 0.536405 0.914720 0.025046 0.005608 -528685.000000 0 0 1
-24.261154 -14.162568 22.147894 35.773050 0.528389 0.903172 0.029239 0.008487 -838609.000000 0 0 1
-23.474954 -13.682368 23.200294 35.728620 0.527713 0.864070 0.027554 0.012976 -453604.000000 0 0 1
-22.393454 -12.777268 22.618494 34.297545 0.518507 0.850672 0.026363 0.014585 -438453.000000 0 0 1
-22.980654 -11.738868 21.846994 33.811279 0.472262 0.868274 0.030353 0.015802 631491.000000 0 0 1
-21.987654 -10.943468 21.196794 32.442572 0.461814 0.858777 0.026606 0.014388 -145327.000000 0 0 1
-21.680354 -9.645168 22.013994 32.367931 0.418588 0.822874 0.020445 0.015214 -187239.000000 0 0 1
-21.114254 -9.780468 23.285194 32.919136 0.433790 0.785061 0.012003 0.013084 762556.000000 0 0 1
-19.683354 -9.793368 23.253394 32.001012 0.461682 0.757370 0.003446 0.014610 781730.000000 0 0 1
-18.912754 -9.759868 24.623894 32.546635 0.476403 0.712741 -0.002139 0.016374 318129.000000 0 0 1
-19.007254 -11.031268 25.268394 33.488152 0.525862 0.715832 0.006747 0.017650 392623.000000 0 0 1
-18.294354 -11.098868 26.532394 34.085718 0.545319 0.678680 0.008586 0.012637 -737714.000000 0 0 1
-18.467754 -12.451068 27.266394 35.207148 0.593204 0.684941 0.022718 -0.004068 -297584.000000 0 0 1
-19.671354 -12.759668 27.918194 36.458152 0.575420 0.698574 0.018389 -0.000863 -235448.000000 0 0 1
-20.740654 -13.105368 27.036994 36.509238 0.563523 0.736905 0.005759 0.003573 530903.000000 0 0 1
-22.066354 -13.407768 27.811494 37.949590 0.545997 0.748290 0.001017 0.001624 272951.000000 0 0 1
-22.085154 -14.647068 28.564294 38.964208 0.585605 0.747941 0.007165 -0.002229 398199.000000 0 0 1
-21.185954 -14.779068 29.715394 39.373470 0.609105 0.715590 0.001547 -0.004386 540251.000000 0 0 1
-21.645454 -15.777668 30.830594 40.840984 0.629869 0.715305 0.000877 -0.005203 -535505.000000 0 0 1
-21.491154 -17.142668 30.515894 41.072625 0.673313 0.733293 0.007334 -0.008215 -36874.100000 0 0 1
-21.835754 -18.059768 31.538094 42.398193 0.691032 0.731977 0.014424 -0.014607 445198.000000 0 0 1
-23.262854 -18.193468 32.177894 43.675846 0.663720 0.742555 0.019305 -0.015218 142478.000000 0 0 1
-23.574454 -17.288668 33.197894 44.235202 0.632769 0.721999 0.022416 -0.001278 -125501.000000 0 0 1
-24.905654 -17.509068 33.621994 45.357442 0.612747 0.735840 0.029838 -0.016079 -60280.100000 0 0 1
-25.577894 -16.358468 34.422094 45.898896 0.568997 0.722803 0.028137 -0.003237 -226586.000000 0 0 1
-25.110964 -16.150668 -33.147830 44.611470 0.571560 2.408388 0.031426 -0.003637 -131074.000000 0 0 1
-25.780374 -15.087068 -32.519430 44.156094 0.529477 2.398627 0.054023 -0.008364 -408073.000000 0 0 1
-25.121184 -14.707868 -31.175730 42.653504 0.529672 2.390446 0.050209 -0.003027 -142731.000000 0 0 1
-25.594294 -15.517268 -30.131330 42.470584 0.545023 2.359533 0.048696 0.002414 55109.000000 0 0 1
-24.951554 -15.226168 -28.914830 41.115491 0.547907 2.350767 0.049990 0.011434 -68963.400000 0 0 1
-25.534714 -16.026168 -27.638830 40.899445 0.560483 2.312812 0.041505 0.010734 1899280.000000 0 0 1
-26.800124 -15.556868 -27.033930 41.122939 0.525941 2.288150 0.047128 0.008104 1901780.000000 0 0 1
-26.683854 -14.240068 -26.505430 40.216233 0.490211 2.290382 0.044487 0.004600 -526149.000000 0 0 1
-25.728324 -14.059968 -25.305230 38.729627 0.500135 2.282839 0.026859 0.006386 118740.000000 0 0 1
-24.405154 -13.724968 -25.730730 38.027053 0.512298 2.313990 0.004711 0.020267 1323760.000000 0 0 1
-23.372954 -14.140868 -24.802530 36.897488 0.544095 2.307974 0.008476 0.016559 574875.000000 0 0 1
-22.909554 -15.592068 -24.730330 37.142287 0.597582 2.299398 0.000422 0.020587 -675842.000000 0 0 1
-22.103454 -16.044468 -25.794630 37.567946 0.627885 2.327616 -0.008426 0.027435 198186.000000 0 0 1
-22.015254 -17.428468 -25.842330 38.160830 0.669631 2.314740 0.015534 0.019032 -423264.000000 0 0 1
-21.177454 -17.951568 -27.004830 38.729888 0.703142 2.342365 0.010728 0.017128 -347304.000000 0 0 1
-21.697854 -17.872368 -28.315030 39.899365 0.689022 2.359814 0.019495 0.008984 -145135.000000 0 0 1
-22.691154 -18.822568 -28.550430 41.040280 0.692478 2.340146 0.038997 -0.003823 -648591.000000 0 0 1
-23.309454 -18.795168 -29.955530 42.354725 0.678590 2.356402 0.032747 -0.004528 -277548.000000 0 0 1
-22.390954 -19.112468 -30.965730 42.726077 0.706569 2.381468 0.031858 -0.015908 -58768.300000 0 0 1
-22.901954 -18.776368 -32.210730 43.755944 0.686733 2.398154 0.028744 -0.009200 -626076.000000 0 0 1
-22.091754 -19.136868 -33.478230 44.441616 0.713850 2.423874 0.029439 -0.014987 -905779.000000 0 0 1
-20.866754 -18.470468 -33.671430 43.707491 0.724557 2.450235 0.023127 -0.013276 281626.000000 0 0 1
-19.714354 -19.171368 -33.218130 43.123558 0.771435 2.450110 0.025418 -0.024388 118424.000000 0 0 1
-19.293254 -20.404668 -34.056230 44.140763 0.813388 2.452050 0.027965 -0.027763 -1252280.000000 0 0 1
-18.968454 -20.008868 33.509894 43.394355 0.812085 0.688472 0.022674 -0.026984 72778.700000 0 0 1
-18.921154 -21.020268 32.486294 43.072277 0.837905 0.716320 0.024652 -0.031414 271132.000000 0 0 1
-20.310954 -21.580468 32.050794 43.652089 0.815694 0.746260 0.033518 -0.024092 54819.400000 0 0 1
-21.005354 -22.293268 33.096894 45.095666 0.815134 0.746712 0.030871 -0.025557 781421.000000 0 0 1
-22.270454 -22.781468 32.600594 45.582531 0.796740 0.773887 0.027368 -0.024502 465148.000000 0 0 1
-22.206854 -23.960968 31.579994 45.437521 0.823374 0.802348 0.038632 -0.017416 -912622.000000 0 0 1
-21.627654 -25.036918 32.271594 46.217512 0.858328 0.797840 0.038343 -0.012058 103558.000000 0 0 1
-21.437254 -26.155518 31.426494 46.165913 0.884214 0.822038 0.043927 -0.006398 -89054.200000 0 0 1
-20.880754 -27.354538 32.198494 47.127695 0.918814 0.818636 0.039185 -0.010690 818623.000000 0 0 1
-21.945654 -28.007438 32.930494 48.481396 0.906157 0.824070 0.025025 -0.014721 1021330.000000 0 0 1
-21.354954 -29.061888 33.615994 49.301749 0.937088 0.820519 0.023652 -0.016005 -568595.000000 0 0 1
-22.368854 -29.766168 -34.354330 50.661725 0.926345 2.315987 0.023012 -0.011902 -704654.000000 0 0 1
-23.355554 -30.490458 33.806494 51.166678 0.917136 0.849028 0.017842 -0.011252 900925.000000 0 0 1
-24.556654 -29.795718 33.429994 51.072287 0.881492 0.857193 0.018357 -0.006454 381637.000000 0 0 1
-25.485184 -29.279048 -34.283430 51.789099 0.854564 2.294256 0.009568 -0.004998 -1170100.000000 0 0 1
-26.504654 -28.528698 34.022894 51.710159 0.822160 0.852698 0.014232 -0.001594 -862218.000000 0 0 1
-27.397984 -28.124518 -33.850930 51.841330 0.798483 2.282298 0.006309 0.005129 -967335.000000 0 0 1
-28.456684 -27.256918 34.420694 52.321187 0.763867 0.852805 0.002015 -0.003521 -1033480.000000 0 0 1
-29.352434 -27.898538 33.580594 52.607510 0.760008 0.878478 0.011949 -0.002763 72755.300000 0 0 1
-30.514344 -27.099458 33.335294 52.694854 0.726195 0.885878 0.012688 -0.005978 496432.000000 0 0 1
