# x y z rho theta phi s1 s2 stress_xx np intf bulk
-0.961225 -10.751249 -14.352529 17.958518 1.481627 2.496767 -0.010182 0.005358 -1910270.000000 1 0 0
2.028075 -13.283249 -13.147129 18.799063 -1.419287 2.345284 0.001345 0.006115 -378991.000000 1 0 0
1.928275 -11.068749 -14.837329 18.611334 -1.398318 2.493472 -0.006024 0.006843 1163820.000000 1 0 0
-5.724725 -6.343749 -16.504129 18.584991 0.836646 2.663851 -0.015516 0.003763 -1261880.000000 1 0 0
4.437975 -14.015949 -11.580729 18.715120 -1.264147 2.237998 -0.003843 0.002774 210166.000000 1 0 0
13.973375 -10.528049 -8.063329 19.264275 -0.645697 2.002660 0.011488 0.000514 -881733.000000 1 0 0
6.905275 10.844651 -10.896629 16.853065 1.003796 2.273871 0.006078 -0.004416 -708731.000000 1 0 0
5.626875 -4.156349 -12.645929 14.451867 -0.636204 2.636310 -0.003624 0.002311 1635360.000000 1 0 0
13.553275 0.564751 -10.238429 16.995165 0.041645 2.217341 -0.003060 0.002734 867035.000000 1 0 0
13.951275 5.124251 -10.530729 18.215166 0.352000 2.187231 0.009471 0.006394 3466.640000 1 0 0
4.012375 4.457551 -13.485529 14.759011 0.837910 2.723131 0.003810 0.000756 3482580.000000 1 0 0
10.046975 -4.914949 -13.835929 17.791328 -0.454968 2.461761 0.002922 -0.001290 -842939.000000 1 0 0
2.365875 -7.481749 -12.006129 14.342979 -1.264526 2.562708 -0.003920 0.001667 1846970.000000 1 0 0
-5.577425 -2.043849 -15.096529 16.223137 0.351254 2.766723 -0.001129 -0.000795 545301.000000 1 0 0
10.588575 0.169851 -9.797729 14.427136 0.016040 2.317357 0.000911 0.002977 1088690.000000 1 0 0
-1.788325 -9.448649 -16.937029 19.476602 1.383741 2.625206 -0.008260 -0.001254 866591.000000 1 0 0
8.271475 1.922951 -18.182329 20.067688 0.228422 2.704651 -0.007437 0.007038 -388033.000000 1 0 0
16.446975 -5.835649 -9.043129 19.655430 -0.340959 2.048885 0.013913 0.000893 19795.100000 1 0 0
10.005775 7.691851 -10.001029 16.102816 0.655388 2.240908 0.013021 0.001490 757840.000000 1 0 0
13.698675 -2.269049 -10.829729 17.609239 -0.164150 2.233186 0.001612 0.003790 215013.000000 1 0 0
7.061375 -1.810349 -13.805829 15.612216 -0.250968 2.655782 -0.000525 0.002799 165899.000000 1 0 0
-3.005925 6.615151 -13.779329 15.577731 -1.144289 2.656331 -0.000214 0.000892 77035.300000 1 0 0
11.012975 1.860151 -14.066329 17.961274 0.167326 2.470508 -0.004495 0.006790 70780.700000 1 0 0
-2.514025 10.680351 -12.868829 16.911445 -1.339617 2.435578 -0.002868 -0.000880 -2188090.000000 1 0 0
2.716175 -1.042149 -15.385229 15.657872 -0.366361 2.954706 -0.001060 -0.001003 735955.000000 1 0 0
-9.193825 0.489651 -15.235929 17.801677 -0.053208 2.598028 -0.001128 0.006623 -1598380.000000 1 0 0
2.127075 -1.941049 -18.083129 18.310971 -0.739702 2.983676 0.002020 -0.007141 2404990.000000 1 0 0
0.786675 7.783451 -13.179729 15.326651 1.470068 2.605914 0.003400 -0.005047 -1217130.000000 1 0 0
9.328775 -9.084849 -9.956129 16.391614 -0.772152 2.223569 0.005989 0.000684 -1033560.000000 1 0 0
3.734675 7.367451 -13.583629 15.897865 1.101632 2.595251 -0.000236 -0.000709 1355690.000000 1 0 0
-2.863725 9.086751 -15.467929 18.166640 -1.265495 2.589534 -0.008943 0.000791 289181.000000 1 0 0
5.329975 -7.635249 -15.299429 17.910281 -0.961364 2.594857 0.004896 -0.006714 -175548.000000 1 0 0
4.034775 7.280251 -16.496729 18.477649 1.064728 2.674306 0.007027 -0.004765 163817.000000 1 0 0
-0.468325 5.018151 -13.475829 14.387464 -1.477740 2.783699 0.008299 -0.005504 2278390.000000 1 0 0
8.655575 4.432151 -16.716829 19.339475 0.473247 2.614730 0.005642 0.007352 411621.000000 1 0 0
5.184675 0.354351 -14.481429 15.385649 0.068240 2.797049 0.001033 0.004032 -385891.000000 1 0 0
6.079375 7.954951 -11.622229 15.340021 0.918253 2.430487 -0.001315 -0.000912 338320.000000 1 0 0
2.575375 -8.234849 -15.010629 17.313702 -1.267692 2.619906 0.003818 -0.007784 118973.000000 1 0 0
3.907075 11.332751 -13.889229 18.346857 1.238798 2.429561 -0.009946 -0.006007 -2475490.000000 1 0 0
0.465575 -4.414249 -13.773629 14.471185 -1.465714 2.829838 0.001043 -0.003050 1246110.000000 1 0 0
8.379575 0.015751 -11.801729 14.474057 0.001880 2.524166 -0.006435 0.004338 -123636.000000 1 0 0
-1.112725 -5.012049 -16.275329 17.065905 1.352330 2.836021 -0.005879 -0.008237 650010.000000 1 0 0
4.420075 1.049951 -11.818829 12.661918 0.233219 2.774613 -0.003079 0.001052 801831.000000 1 0 0
-3.052825 -7.190749 -15.574929 17.424265 1.169308 2.676688 -0.017778 0.000878 2025600.000000 1 0 0
11.154075 -3.654549 -11.488829 16.424442 -0.316620 2.345488 0.005187 0.000030 692532.000000 1 0 0
6.395875 -6.953449 -12.579429 15.732123 -0.827142 2.497428 0.001364 0.000592 -1025220.000000 1 0 0
3.275875 -3.972849 -14.683629 15.560329 -0.881255 2.804312 0.002374 -0.002308 3123330.000000 1 0 0
-0.788725 -1.583449 -18.292629 18.377967 1.108665 3.045186 0.003648 -0.006463 -145080.000000 1 0 0
14.778175 2.958651 -8.678529 17.391519 0.197592 2.093251 -0.001666 -0.000188 -789701.000000 1 0 0
6.831875 4.486251 -14.371129 16.532704 0.581046 2.624489 0.002093 0.003761 2570970.000000 1 0 0
9.887575 -9.596249 -14.211329 19.794292 -0.770447 2.371650 0.012209 -0.004907 -230541.000000 1 0 0
8.787375 -3.190049 -15.802829 18.360930 -0.348232 2.607394 -0.000425 0.000521 -82399.800000 1 0 0
-5.302025 -2.240449 -17.980929 18.879748 0.399806 2.831786 -0.024103 0.012389 389595.000000 1 0 0
4.905575 -9.016749 -11.138629 15.147127 -1.072532 2.396998 -0.004355 0.003656 3166690.000000 1 0 0
-2.710925 4.067851 -17.135729 17.819364 -0.982960 2.863698 -0.007720 0.009237 2399740.000000 1 0 0
9.051775 9.622351 -14.662929 19.736407 0.815943 2.408245 0.020784 0.000003 -290774.000000 1 0 0
9.634275 10.098651 -11.709029 18.218215 0.808927 2.268827 0.022764 -0.002515 1082570.000000 1 0 0
11.884275 -5.907149 -9.841329 16.522171 -0.461290 2.208863 0.010765 0.000124 623480.000000 1 0 0
7.895075 7.116751 -13.785829 17.407741 0.733597 2.484771 0.009691 0.000947 38658.200000 1 0 0
3.824975 -4.258449 -17.628729 18.534748 -0.838972 2.827632 0.009895 -0.009636 955205.000000 1 0 0
9.203975 -7.465449 -12.414429 17.162870 -0.681480 2.379410 0.011351 -0.006713 -1049530.000000 1 0 0
11.902975 -8.583949 -8.953629 17.191057 -0.624787 2.118620 0.011679 0.003368 -30919.800000 1 0 0
-2.956025 -2.453849 -13.868729 14.391007 0.692837 2.871357 -0.003987 -0.007444 -2211390.000000 1 0 0
-0.598925 6.211751 -17.642529 18.713722 -1.474675 2.801605 0.001128 0.005380 2513260.000000 1 0 0
0.941175 -8.245549 -17.401229 19.278943 -1.457145 2.696574 -0.002149 -0.010801 397290.000000 1 0 0
-0.125625 8.545851 -16.004629 18.143745 -1.556097 2.651102 -0.002303 0.001483 617025.000000 1 0 0
1.527375 3.436551 -14.912329 15.379217 1.152568 2.894557 0.011005 -0.001864 2143450.000000 1 0 0
-2.056325 -0.356449 -15.840529 15.977418 0.171637 3.010597 0.001502 -0.002818 1664730.000000 1 0 0
14.049675 -4.296449 -8.676329 17.062576 -0.296773 2.104239 0.007684 0.002044 -38901.800000 1 0 0
0.441875 0.610751 -14.550929 14.570443 0.944476 3.089832 0.002605 -0.005457 719986.000000 1 0 0
8.677275 2.901651 -12.639829 15.603844 0.322707 2.515027 -0.002017 0.005752 1904150.000000 1 0 0
5.688475 1.118851 -17.246129 18.194492 0.194208 2.817300 0.004087 0.006651 -1616790.000000 1 0 0
15.119575 1.675551 -12.551629 19.721876 0.110370 2.260660 -0.003508 0.005360 92961.300000 1 0 0
8.681275 -11.199449 -12.026329 18.585606 -0.911391 2.274541 0.010767 -0.002917 1396350.000000 1 0 0
-4.790825 0.817751 -15.113929 15.876132 -0.169062 2.830470 -0.000617 0.000570 1503420.000000 1 0 0
2.125175 5.095951 -17.294529 18.154498 1.175694 2.832567 0.008196 -0.001770 1188670.000000 1 0 0
5.809275 -11.585349 -12.398929 17.936037 -1.106003 2.334063 0.003480 -0.002981 846272.000000 1 0 0
12.693175 7.210251 -8.771529 17.030682 0.516589 2.111854 0.012070 0.007816 260933.000000 1 0 0
-5.266325 3.670651 -15.695129 16.957150 -0.608713 2.753350 -0.004237 0.008081 1202150.000000 1 0 0
-0.827825 -4.375549 -19.106029 19.618131 1.383813 2.912604 0.002765 -0.010420 -1536820.000000 1 0 0
9.679475 4.505551 -10.336229 14.860345 0.435648 2.339992 -0.002453 0.003543 2211680.000000 1 0 0
13.105475 3.731251 -12.986029 18.823194 0.277370 2.332140 -0.002574 0.002685 940561.000000 1 0 0
-6.526825 5.863551 -17.089929 19.210579 -0.731918 2.667287 -0.010124 0.011739 1078290.000000 1 0 0
-10.463125 3.069551 -15.317329 18.802120 -0.285362 2.522938 0.005267 0.007281 -159859.000000 1 0 0
10.608375 13.600551 -8.394229 19.182692 0.908373 2.023717 0.027684 0.001118 1043110.000000 1 0 0
7.149475 13.512151 -12.341429 19.646987 1.084129 2.249981 0.015948 -0.003754 1161260.000000 1 0 0
4.952975 15.151651 -11.190929 19.476688 1.254853 2.182888 0.001479 -0.009886 902160.000000 1 0 0
14.052575 9.429451 -9.995729 19.654618 0.591005 2.104318 0.031321 0.002161 -1755760.000000 1 0 0
8.314875 -17.344849 -2.173029 19.357246 -1.123776 1.683293 0.007367 0.011392 863308.000000 1 0 0
0.795675 -15.968549 -0.095929 15.988647 -1.521010 1.576796 0.009218 -0.004505 3621240.000000 1 0 0
-9.133325 -11.797049 7.558971 16.725012 0.911984 1.101839 -0.009212 -0.001315 428042.000000 1 0 0
2.088075 -15.918449 -2.751629 16.288908 -1.440368 1.740537 0.009220 -0.001661 1734620.000000 1 0 0
-1.410025 -11.037249 -9.449029 14.597711 1.443733 2.274827 -0.011276 0.005232 1600780.000000 1 0 0
-4.763325 -12.746649 -12.979629 18.805241 1.213173 2.332580 -0.010337 0.002842 -497378.000000 1 0 0
-8.564425 -17.728349 -1.600929 19.753650 1.120766 1.651930 -0.001723 0.001991 -682491.000000 1 0 0
-11.496825 -7.114949 -8.755729 16.107833 0.554173 2.145480 0.014995 -0.005285 827715.000000 1 0 0
-13.548225 -11.500849 -4.560429 18.347246 0.703845 1.821992 -0.001236 -0.001053 -691029.000000 1 0 0
-5.669725 -13.417949 9.649571 17.472875 1.171005 0.985724 -0.012396 -0.003801 -542299.000000 1 0 0
0.149275 -13.993049 -3.780429 14.495493 -1.560129 1.834647 0.004437 -0.003308 365184.000000 1 0 0
-14.649425 -11.553549 2.023771 18.766614 0.667794 1.462747 -0.016621 -0.004517 537231.000000 1 0 0
-3.926325 -16.403949 -7.473329 18.448745 1.335864 1.987869 -0.014840 -0.003634 77960.100000 1 0 0
0.467575 -15.286849 -9.308629 17.904104 -1.540219 2.117549 -0.000792 0.005215 1067230.000000 1 0 0
4.487375 -14.203149 -2.650529 15.129153 -1.264779 1.746899 0.001276 0.004320 329073.000000 1 0 0
-3.638425 -18.017549 -2.339429 18.529520 1.371538 1.697388 -0.010540 -0.003943 1222440.000000 1 0 0
-0.869525 -13.448549 0.640871 13.491859 1.506230 1.523278 0.009377 -0.006060 3214120.000000 1 0 0
-8.322825 -11.255149 -10.512829 17.506209 0.934070 2.214948 0.004703 -0.009228 2939230.000000 1 0 0
-3.708425 -14.140449 -0.460129 14.625882 1.314316 1.602261 0.008217 -0.004209 3458920.000000 1 0 0
-1.515525 -14.853849 -7.290229 16.615687 1.469119 2.025010 -0.008500 -0.000973 291116.000000 1 0 0
-14.280425 -7.897549 -1.808729 16.418688 0.505169 1.681183 0.001150 -0.002529 1525050.000000 1 0 0
-10.757825 -7.407849 -11.497729 17.401287 0.603035 2.292601 0.010293 -0.007280 -974033.000000 1 0 0
-9.402825 -14.847849 6.899471 18.880531 1.006266 1.196704 -0.021028 0.004712 -965201.000000 1 0 0
-2.513225 -14.479449 -12.414129 19.237498 1.398937 2.272224 -0.005502 0.005321 445263.000000 1 0 0
2.313075 -17.914849 -4.851029 18.703598 -1.442392 1.833159 0.012275 0.003116 294262.000000 1 0 0
-6.421425 -9.645049 -9.141429 14.758976 0.983412 2.238750 0.000794 -0.003699 528773.000000 1 0 0
-11.031225 -15.257449 0.585471 18.836678 0.944796 1.539710 -0.015333 -0.001491 -1546490.000000 1 0 0
-12.597725 -10.990349 4.036771 17.198429 0.717360 1.333868 -0.007135 -0.000875 759806.000000 1 0 0
-17.126325 -8.751249 -1.408829 19.284195 0.472395 1.643918 -0.002955 -0.000912 -11862.400000 1 0 0
-1.578825 -19.214649 -3.904829 19.670869 1.488813 1.770632 -0.007270 -0.003456 -880010.000000 1 0 0
3.189775 -14.216349 -8.898929 17.072497 -1.350078 2.119104 -0.000909 0.007185 1603870.000000 1 0 0
-4.436425 -8.034549 -13.077729 15.976947 1.066290 2.529657 -0.008452 0.004480 222891.000000 1 0 0
5.476275 -16.779149 1.186971 17.690062 -1.255322 1.503648 0.012631 0.007878 2287430.000000 1 0 0
-2.781125 -13.780149 -3.244529 14.427547 1.371650 1.797621 0.002054 -0.004540 -1888070.000000 1 0 0
-0.438625 -13.998149 3.606971 14.462047 1.539472 1.318726 0.003889 -0.002275 -1174200.000000 1 0 0
1.160475 -16.235949 7.033071 17.731802 -1.499442 1.162947 0.015617 -0.005257 997466.000000 1 0 0
-5.538825 -10.431949 -14.652729 18.820377 1.082698 2.463159 -0.012235 0.006223 -358913.000000 1 0 0
-0.472025 -17.308849 -5.841829 18.274190 1.543532 1.896184 -0.003211 -0.000914 -145097.000000 1 0 0
-6.451725 -13.378949 -1.328629 14.912621 1.121466 1.660009 0.006789 -0.004582 2364340.000000 1 0 0
-1.745425 -17.644449 -0.102129 17.730863 1.472195 1.576556 -0.001227 -0.001647 2442660.000000 1 0 0
-9.504625 -9.743749 -4.856929 14.452276 0.797821 1.913534 0.017835 -0.009490 1739110.000000 1 0 0
-0.869625 -16.649149 4.815571 17.353389 1.518611 1.289605 0.008179 -0.006428 1827460.000000 1 0 0
-6.756125 -9.856549 -6.249129 13.485117 0.969906 2.052635 0.012711 -0.007623 3629510.000000 1 0 0
-5.997325 -14.503049 -8.528329 17.861655 1.178688 2.068565 -0.009186 -0.004772 -1372840.000000 1 0 0
-5.613725 -12.196049 -10.252729 16.893074 1.139418 2.222975 -0.009545 -0.003653 1376760.000000 1 0 0
-10.612125 -12.091849 -8.691729 18.285955 0.850481 2.066127 0.013746 -0.020969 58127.100000 1 0 0
3.954975 -17.231549 6.570871 18.861189 -1.345184 1.214953 0.021285 -0.003132 2001300.000000 1 0 0
-6.724025 -14.360149 -4.103429 16.378782 1.132876 1.824027 0.000373 -0.004087 1217890.000000 1 0 0
-2.873525 -12.201049 -7.043929 14.378444 1.339497 2.082766 -0.001683 0.000017 2801680.000000 1 0 0
-7.099025 -12.833549 4.290171 15.280762 1.065529 1.286214 0.000176 -0.001739 2866170.000000 1 0 0
2.629475 -16.502149 2.344071 16.873936 -1.412783 1.431429 0.012205 0.001850 1736410.000000 1 0 0
-6.194425 -12.001249 7.109871 15.262737 1.094314 1.086222 -0.004428 -0.003990 1939540.000000 1 0 0
-11.293925 -12.835649 -0.936129 17.122586 0.849205 1.625496 -0.004512 0.000727 775981.000000 1 0 0
-14.174925 -8.689749 4.643371 17.262709 0.549950 1.298460 -0.011257 -0.000846 -709400.000000 1 0 0
-7.997725 -15.551949 4.499371 18.057438 1.095807 1.318973 -0.013023 0.001630 515576.000000 1 0 0
-16.464825 -9.193449 1.377971 18.907902 0.509246 1.497854 -0.009051 -0.000676 -1048080.000000 1 0 0
-6.640525 -17.062349 2.358671 18.460326 1.199642 1.442676 -0.005127 -0.000910 2198230.000000 1 0 0
-11.523425 -14.853449 -4.803129 19.403204 0.910982 1.820940 0.004579 -0.006528 317093.000000 1 0 0
-10.009325 -10.056249 -12.502729 18.911186 0.787737 2.293119 0.007080 -0.002552 892365.000000 1 0 0
-4.365825 -15.959449 -4.504929 17.148143 1.303772 1.836622 -0.007644 -0.004267 -689338.000000 1 0 0
-11.836825 -8.220449 -0.022429 14.411340 0.607012 1.572353 0.004569 -0.005222 1525910.000000 1 0 0
-9.594525 -11.140549 3.403271 15.091355 0.859821 1.343328 -0.005704 -0.001136 1867870.000000 1 0 0
-14.192425 -12.896449 -0.503029 19.183231 0.737593 1.597022 -0.015408 0.001840 747204.000000 1 0 0
5.548775 -14.781549 -7.244129 17.371254 -1.211688 2.000958 -0.001826 0.003293 1191540.000000 1 0 0
-7.498125 -10.551449 -1.367929 13.016381 0.952975 1.676084 0.008995 -0.007653 2227270.000000 1 0 0
-11.749325 -8.181749 -5.875129 15.475942 0.608278 1.960192 0.012491 -0.007796 379576.000000 1 0 0
-14.508525 -6.591549 -9.222829 18.412126 0.426443 2.095447 0.004869 -0.003306 3132210.000000 1 0 0
-3.919425 -16.315249 1.483571 16.844887 1.335033 1.482610 0.002507 -0.006463 906582.000000 1 0 0
-8.061925 -15.377449 0.206771 17.363851 1.087922 1.558888 -0.002442 -0.001324 2534280.000000 1 0 0
0.966375 -18.608549 3.717871 19.000909 -1.518911 1.373858 0.014515 -0.004050 1309620.000000 1 0 0
-14.263525 -8.717049 -4.578329 17.331941 0.548572 1.838125 0.006826 -0.005406 635842.000000 1 0 0
-3.264125 -14.451149 11.119671 18.523965 1.348651 0.926938 -0.010455 -0.005579 399641.000000 1 0 0
-10.839925 -12.100749 -3.737429 16.670347 0.840303 1.796915 0.009742 -0.007714 332569.000000 1 0 0
-10.015025 -10.654749 0.466071 14.630161 0.816338 1.538934 0.002917 -0.002400 870358.000000 1 0 0
-0.148825 -13.125049 -11.256829 17.291768 1.559458 2.279689 -0.002758 0.002136 1013190.000000 1 0 0
-5.910025 -12.641349 -6.249929 15.290314 1.133472 1.991881 -0.001718 -0.007848 1552350.000000 1 0 0
1.594275 -16.001549 9.855571 18.860635 -1.471492 1.020961 0.010313 0.001630 633908.000000 1 0 0
-8.940125 -15.685949 -5.594929 18.901800 1.052769 1.871298 0.002765 -0.002632 -1635500.000000 1 0 0
-3.365325 -15.501349 5.886571 16.919484 1.357015 1.215448 -0.003237 -0.003700 -795764.000000 1 0 0
-17.439925 -5.506749 -6.371029 19.366602 0.305848 1.906009 -0.008708 0.001224 -782855.000000 1 0 0
18.769875 5.692751 -3.041329 19.848559 0.294474 1.724629 -0.010773 0.014085 -1016460.000000 1 0 0
12.720475 -12.362749 -6.065129 18.746568 -0.771138 1.900257 0.014118 0.003760 -1844560.000000 1 0 0
11.065875 -13.595249 -1.778929 17.619562 -0.887606 1.671932 0.014205 0.009856 2694020.000000 1 0 0
18.600975 -2.992949 4.258171 19.315435 -0.159535 1.348516 0.002872 -0.010670 -985813.000000 1 0 0
8.746075 -17.074149 4.780871 19.770612 -1.097404 1.326558 0.004925 -0.005094 1388150.000000 1 0 0
18.127975 -1.107049 6.513971 19.294581 -0.060993 1.226424 0.027662 -0.007437 -325239.000000 1 0 0
17.952375 -4.051549 -4.998729 19.070660 -0.221965 1.836011 0.012241 -0.008953 -277188.000000 1 0 0
5.407875 -11.915249 14.858871 19.799099 -1.144736 0.722005 0.001131 0.011040 -704071.000000 1 0 0
15.879075 -8.901949 -0.925529 18.227625 -0.510952 1.621594 0.014740 -0.001336 -962047.000000 1 0 0
13.896875 -12.656949 -1.739429 18.877158 -0.738737 1.663072 0.022703 0.013061 -1209010.000000 1 0 0
11.249875 -2.106449 13.816771 17.941571 -0.185099 0.691801 0.000869 0.002130 -712122.000000 1 0 0
16.909975 -6.150449 -1.663029 18.070443 -0.348842 1.662957 0.006862 -0.006299 -1236010.000000 1 0 0
17.762375 3.680151 -1.094129 18.172578 0.204297 1.631040 0.001113 0.002682 24098.500000 1 0 0
9.809275 -11.191349 9.407071 17.605713 -0.851114 1.007094 0.001083 0.000695 1103540.000000 1 0 0
8.997775 -11.077949 4.131471 14.857656 -0.888646 1.289012 -0.001160 -0.003910 -970052.000000 1 0 0
14.128175 -10.116249 6.608471 18.590742 -0.621406 1.207378 0.015429 -0.010652 -364436.000000 1 0 0
16.238575 -0.475749 -4.832929 16.949184 -0.029289 1.859951 0.006508 -0.002787 -621988.000000 1 0 0
15.686975 -0.356649 -1.868329 15.801868 -0.022731 1.689308 0.007295 -0.003572 478875.000000 1 0 0
12.884175 -5.069549 -0.334929 13.849710 -0.374865 1.594982 0.006285 -0.006112 511026.000000 1 0 0
14.200375 -7.489449 0.942971 16.082030 -0.485336 1.512128 0.015869 -0.003522 2305480.000000 1 0 0
15.532775 2.447751 3.504471 16.110242 0.156301 1.351513 0.009355 -0.004891 494920.000000 1 0 0
15.988375 -7.108749 4.832171 18.152474 -0.418371 1.301349 0.018855 -0.011495 -1224190.000000 1 0 0
13.605175 -12.108049 3.066471 18.469133 -0.727240 1.403992 0.008252 0.000966 909103.000000 1 0 0
13.993375 -1.047949 9.065171 16.705989 -0.074749 0.997231 0.013222 -0.004023 877850.000000 1 0 0
14.158875 -2.759849 -1.685629 14.523493 -0.192506 1.687121 0.007255 -0.003098 -13963.500000 1 0 0
14.971075 1.767951 9.054071 17.585077 0.117547 1.029938 0.010472 0.000449 -2960680.000000 1 0 0
14.303075 -10.069449 -3.137029 17.771119 -0.613409 1.748250 0.017298 0.001478 -830534.000000 1 0 0
7.294975 -12.667149 5.948871 15.781710 -1.048288 1.184298 -0.004704 -0.002787 16823.700000 1 0 0
12.400075 -4.674049 6.869071 14.926243 -0.360468 1.092575 0.006860 -0.007427 2691100.000000 1 0 0
14.914775 -8.931049 -5.809029 18.329183 -0.539541 1.893285 0.018294 0.001891 -1194660.000000 1 0 0
14.259275 -4.648749 4.547171 15.672094 -0.315150 1.276419 0.014200 -0.009268 971045.000000 1 0 0
17.029375 -4.282049 0.747071 17.575371 -0.246344 1.528277 0.003421 -0.011867 -683996.000000 1 0 0
10.222375 -14.547749 0.979471 17.807114 -0.958276 1.515764 0.008059 0.001287 1066820.000000 1 0 0
16.435675 -2.625849 8.335171 18.614552 -0.158426 1.106519 0.018242 -0.008046 2421870.000000 1 0 0
15.935275 -2.679949 3.030671 16.440805 -0.166618 1.385398 0.011247 -0.010183 566831.000000 1 0 0
7.794175 -15.354249 2.552171 17.407346 -1.101069 1.423651 0.001260 -0.001842 3115520.000000 1 0 0
16.754975 -7.068549 7.706671 19.750603 -0.399223 1.169948 0.026216 -0.008260 -1606180.000000 1 0 0
10.222175 -8.566849 4.985471 14.238633 -0.697524 1.213079 0.004519 -0.006289 1005870.000000 1 0 0
10.803875 -11.936149 2.013971 16.225025 -0.835149 1.446348 0.002784 -0.001772 -176489.000000 1 0 0
12.377075 -7.329449 11.806371 18.609223 -0.534649 0.883517 -0.003280 -0.008563 18137.600000 1 0 0
15.155775 -9.827949 4.048071 18.511428 -0.575293 1.350335 0.014181 -0.002553 144117.000000 1 0 0
7.354675 -10.433649 7.783471 14.951076 -0.956790 1.023247 -0.006501 0.002425 979139.000000 1 0 0
15.158975 -3.238949 -4.465529 16.131530 -0.210500 1.851279 0.006187 -0.002681 1190230.000000 1 0 0
11.831375 -9.018749 9.641571 17.727920 -0.651310 0.995762 -0.002519 -0.007388 -1693660.000000 1 0 0
16.931775 -6.683549 2.171371 18.332203 -0.375959 1.452072 0.015491 -0.008866 132281.000000 1 0 0
17.557675 3.862551 1.910771 18.078780 0.216543 1.464907 0.008315 0.001873 1291810.000000 1 0 0
14.812375 -5.023349 8.534271 17.817807 -0.326960 1.071310 0.014466 -0.009796 667057.000000 1 0 0
12.755175 -12.601349 5.914871 18.880523 -0.779332 1.252152 -0.002307 0.000890 -934982.000000 1 0 0
18.111075 0.770151 -0.915029 18.150522 0.042498 1.621231 0.007101 -0.008554 936230.000000 1 0 0
11.736575 -2.195949 10.947771 16.199477 -0.184964 0.828733 0.001746 0.000539 494406.000000 1 0 0
5.848375 -12.592449 10.543871 17.434061 -1.136003 0.921300 -0.002738 0.003878 -916504.000000 1 0 0
10.825175 -5.085149 10.887071 16.173171 -0.439158 0.832328 0.000730 -0.005821 -266685.000000 1 0 0
17.861275 1.292351 4.990871 18.590430 0.072229 1.298998 0.022459 -0.006025 -570735.000000 1 0 0
12.280375 -7.786549 7.017571 16.145719 -0.565091 1.121158 0.007937 -0.008908 -614226.000000 1 0 0
10.783675 -7.958749 14.156271 19.494341 -0.635801 0.758057 0.001109 -0.010178 943289.000000 1 0 0
14.198475 -0.293249 3.679871 14.670519 -0.020651 1.317254 0.005839 -0.003572 1853890.000000 1 0 0
11.563075 -7.743349 2.353671 14.113962 -0.590073 1.403252 0.006462 -0.003212 737393.000000 1 0 0
9.304775 6.056951 3.449971 11.626169 0.577043 1.269517 -0.001855 0.000029 1444160.000000 1 0 0
-4.020225 14.750251 -9.849929 18.186622 -1.304706 2.143139 -0.005845 -0.000674 1439450.000000 1 0 0
8.897375 -6.509949 9.113271 14.303651 -0.631667 0.880029 -0.001509 -0.002663 -1113720.000000 1 0 0
5.819175 -10.519149 -8.536029 14.743781 -1.065501 2.188246 -0.008343 -0.001128 962118.000000 1 0 0
5.468375 1.039651 0.504071 5.589104 0.187878 1.480485 -0.000678 0.001321 2776130.000000 1 0 0
-0.426725 9.831251 11.051371 14.797581 -1.527419 0.727504 0.000390 0.002351 -587019.000000 1 0 0
-6.274025 -5.210549 1.048671 8.222708 0.693061 1.442914 0.006187 -0.004277 1615830.000000 1 0 0
-1.146325 3.934451 -10.808729 11.559524 -1.287289 2.779195 0.010646 -0.005633 1288870.000000 1 0 0
10.975175 5.756951 1.247871 12.456088 0.483089 1.470446 0.002164 0.000570 1321710.000000 1 0 0
-10.132825 -1.841349 -13.532429 17.005627 0.179760 2.491061 0.001547 -0.002109 1678190.000000 1 0 0
7.375175 10.942051 -6.064629 14.522445 0.977719 2.001603 0.008211 -0.003610 108226.000000 1 0 0
-12.477125 -2.884449 -9.531529 15.963983 0.227188 2.210633 0.000021 -0.001295 650356.000000 1 0 0
-3.886925 -8.636249 2.457771 9.784356 1.147883 1.316883 0.006578 -0.004664 -1184570.000000 1 0 0
7.953975 -6.622449 -6.036329 11.981644 -0.694303 2.098786 -0.006774 -0.000270 1526160.000000 1 0 0
14.347875 3.191351 -4.388029 15.339525 0.218864 1.860909 0.007574 0.000258 1911730.000000 1 0 0
-2.327125 -4.988549 9.821971 11.259318 1.134311 0.510825 -0.003638 0.003047 2378350.000000 1 0 0
3.478675 -1.850349 -4.557529 6.024619 -0.488850 2.428717 -0.006502 -0.000993 -780365.000000 1 0 0
-4.019125 8.453751 -3.415129 9.964055 -1.127001 1.920634 -0.001093 0.000753 383846.000000 1 0 0
5.888375 -0.037349 11.722571 13.118423 -0.006343 0.465503 0.002685 -0.000560 269383.000000 1 0 0
7.212075 4.653451 12.409471 15.088526 0.573015 0.605102 0.001312 0.000429 504685.000000 1 0 0
1.231975 -14.662749 12.428971 19.261186 -1.486972 0.869399 0.001299 0.005126 384748.000000 1 0 0
2.935175 8.739351 -9.114929 12.964314 1.246776 2.350514 -0.000511 -0.001439 1377980.000000 1 0 0
-4.409125 -8.796949 -4.544129 10.838625 1.106181 2.003419 0.012717 -0.006509 1225720.000000 1 0 0
5.658075 -6.533249 -4.099429 9.565692 -0.857062 2.013690 -0.006394 -0.002751 2478400.000000 1 0 0
-3.119925 3.483651 8.651771 9.834781 -0.840423 0.495541 -0.003518 0.000210 2475140.000000 1 0 0
-3.873325 3.117551 -11.176129 12.232237 -0.677708 2.723000 0.008837 -0.009061 1210180.000000 1 0 0
3.047575 -6.141449 8.429071 10.865282 -1.110169 0.682846 -0.005422 0.004899 308917.000000 1 0 0
-5.007625 -8.716649 10.500971 14.537079 1.049346 0.763591 0.004498 -0.001300 1020690.000000 1 0 0
-13.062925 -2.559249 6.660671 14.884701 0.193466 1.106846 -0.009151 0.001984 -274958.000000 1 0 0
3.918075 -5.865549 -8.391129 10.962071 -0.981884 2.442567 -0.006610 0.000007 2908350.000000 1 0 0
3.007075 -0.614849 12.329971 12.706248 -0.201687 0.243971 0.000525 -0.000288 2723710.000000 1 0 0
1.468975 -1.464849 -7.626529 7.903645 -0.783992 2.876004 -0.001076 -0.004934 -676960.000000 1 0 0
3.671475 -3.529549 3.392871 6.119560 -0.765692 0.983118 -0.000549 0.000036 2189190.000000 1 0 0
1.498675 0.457351 -11.827029 11.930373 0.296194 3.009875 0.005107 -0.005489 1068450.000000 1 0 0
4.055275 3.671751 -10.639329 11.963374 0.735805 2.666663 -0.003746 0.000550 4026000.000000 1 0 0
2.874075 3.181451 3.321571 5.423539 0.836114 0.911658 -0.007275 0.003224 -630522.000000 1 0 0
-5.192225 0.921951 2.510971 5.840734 -0.175732 1.126407 -0.006235 -0.001784 2290630.000000 1 0 0
-9.466925 -9.320849 5.700971 14.456900 0.777623 1.165444 -0.002740 0.000434 -899837.000000 1 0 0
-2.979425 3.892951 -0.553629 4.933412 -0.917551 1.683253 -0.003887 -0.002409 -803823.000000 1 0 0
-15.832225 -6.442849 5.055671 17.824968 0.386479 1.283220 -0.000153 -0.001233 903634.000000 1 0 0
0.946775 6.706551 -8.052629 10.522312 1.430551 2.442289 0.002349 -0.002341 -29355.900000 1 0 0
-1.712625 6.498651 -9.374829 11.534859 -1.313119 2.519634 0.006130 -0.002883 1468370.000000 1 0 0
2.113875 -0.310949 5.240871 5.659672 -0.146051 0.387113 -0.001361 0.001660 3640580.000000 1 0 0
-3.389625 -0.673149 -6.258529 7.149257 0.196040 2.637079 0.013888 -0.011216 1112740.000000 1 0 0
1.850775 -1.115749 -2.451129 3.267766 -0.542516 2.418999 0.002341 -0.001447 1567380.000000 1 0 0
2.482375 -8.545049 -7.739329 11.793102 -1.288074 2.286646 -0.005583 0.001151 2750600.000000 1 0 0
-2.446925 14.042051 -5.534529 15.290443 -1.398272 1.941166 -0.001260 0.003477 1568120.000000 1 0 0
6.816875 -5.089949 -8.216029 11.827108 -0.641366 2.338768 -0.007996 0.001603 2654470.000000 1 0 0
-14.215725 -4.930149 -2.012129 15.180312 0.333830 1.703736 0.001596 -0.001994 -124368.000000 1 0 0
-2.759125 6.876051 -6.705529 9.992846 -1.189199 2.306397 0.004180 -0.001275 -1510960.000000 1 0 0
-5.699125 -1.177649 -8.059529 9.940970 0.203769 2.516209 0.017771 -0.013582 1056360.000000 1 0 0
-5.696325 -10.657949 3.409871 12.556560 1.079957 1.295782 0.006141 -0.004500 -2454350.000000 1 0 0
8.065675 -7.714349 6.604371 12.968577 -0.763138 1.036472 -0.002603 -0.004396 -141661.000000 1 0 0
8.966475 -6.061849 13.025871 16.935672 -0.594476 0.693305 0.007273 -0.004279 641725.000000 1 0 0
-4.797625 9.573251 -0.640929 10.727308 -1.106230 1.630579 -0.004434 0.001787 779574.000000 1 0 0
2.855775 6.536351 12.166671 14.103447 1.158884 0.530264 -0.003623 0.000233 1167250.000000 1 0 0
6.077975 -2.939849 10.886571 12.810227 -0.450514 0.555125 0.001753 0.000373 -585538.000000 1 0 0
-9.642825 -6.466349 -1.120429 11.664180 0.590711 1.667002 0.011057 -0.007660 -249390.000000 1 0 0
0.962875 -13.342249 6.203071 14.745196 -1.498754 1.136597 0.002008 -0.000601 878817.000000 1 0 0
-0.446825 -3.139249 8.733471 9.291289 1.429411 0.348273 -0.002814 0.003121 1019300.000000 1 0 0
4.251975 0.677251 3.269371 5.406177 0.157952 0.921348 -0.002330 0.002110 2770970.000000 1 0 0
-10.115825 5.497451 8.288771 14.186459 -0.497801 0.946812 -0.010492 -0.008498 832830.000000 1 0 0
9.373575 7.979051 -0.000029 12.309718 0.705207 1.570799 0.001711 -0.001991 -799318.000000 1 0 0
4.352575 2.784251 8.261471 9.744171 0.569086 0.558903 -0.006315 0.004104 3973310.000000 1 0 0
1.332175 2.673751 -9.778529 10.224640 1.108556 2.845107 0.006442 -0.006471 1569610.000000 1 0 0
-1.378425 -10.192349 2.962671 10.703338 1.436371 1.290335 0.006020 -0.004891 -1184730.000000 1 0 0
-9.829225 9.449051 9.091471 16.387590 -0.765680 0.982700 -0.002456 -0.006933 3317360.000000 1 0 0
9.751375 -1.844949 -7.749529 12.591598 -0.186989 2.233756 0.002075 0.002578 1230240.000000 1 0 0
-5.156125 -1.908249 6.680871 8.652230 0.354462 0.688569 -0.005413 0.001227 -705594.000000 1 0 0
3.213475 -7.885049 -4.968029 9.858079 -1.183807 2.098968 -0.007099 -0.002611 1214010.000000 1 0 0
-5.290425 4.931551 -13.039629 14.911094 -0.750305 2.635183 -0.002972 -0.004138 2808660.000000 1 0 0
-5.576225 9.663651 5.479671 12.430094 -1.047437 1.114263 -0.003995 -0.000199 1148380.000000 1 0 0
-0.482725 -1.709649 -9.395029 9.561511 1.295607 2.954711 0.007566 -0.009365 548606.000000 1 0 0
-16.564525 0.218151 6.435771 17.772176 -0.013169 1.200248 -0.004828 -0.002320 -144069.000000 1 0 0
-5.967125 -2.952449 4.022371 7.778368 0.459468 1.027310 -0.007492 -0.000766 210789.000000 1 0 0
1.076775 -5.720049 -5.158529 7.777456 -1.384728 2.295972 0.001829 -0.003396 1722060.000000 1 0 0
-7.045225 1.364551 -8.469129 11.100601 -0.191316 2.438650 0.010064 -0.008226 533488.000000 1 0 0
7.981075 2.005151 4.766371 9.509810 0.246144 1.045805 -0.005427 0.001963 934369.000000 1 0 0
0.555275 -8.076049 -0.540129 8.113115 -1.502149 1.637420 0.000248 -0.002136 -139368.000000 1 0 0
5.492875 5.576851 -3.389829 8.530175 0.792984 1.979470 0.000690 -0.002185 -1081880.000000 1 0 0
-0.844425 -0.378949 -1.267529 1.569486 0.421826 2.510880 0.003543 -0.002285 795605.000000 1 0 0
9.095675 6.420551 -6.333929 12.809115 0.614668 2.088040 -0.000140 -0.001741 562467.000000 1 0 0
-14.941125 -7.009149 2.507671 16.692927 0.438638 1.420002 -0.009391 -0.002434 985526.000000 1 0 0
-6.314025 6.735251 8.965371 12.868893 -0.817667 0.800051 -0.004081 -0.003876 117394.000000 1 0 0
-9.518125 -3.166649 -9.558729 13.856106 0.321177 2.332088 0.009889 -0.003717 1509500.000000 1 0 0
14.832875 3.512151 -1.385829 15.305878 0.232500 1.661463 -0.001667 -0.001449 1227370.000000 1 0 0
11.945875 1.810451 -5.826329 13.413715 0.150410 2.020120 0.002722 0.001293 -325275.000000 1 0 0
1.823675 -9.513049 12.601171 15.893816 -1.381392 0.655350 -0.004603 -0.000378 -143881.000000 1 0 0
-3.503625 6.341451 7.950171 10.756143 -1.066039 0.739021 -0.003154 0.001321 1435150.000000 1 0 0
-4.155625 13.125851 -12.281129 18.449480 -1.264182 2.299178 -0.008417 -0.003074 738047.000000 1 0 0
-10.133625 7.736851 6.560071 14.338193 -0.652075 1.095587 -0.006675 -0.007406 594931.000000 1 0 0
8.071675 -9.267049 -7.185529 14.235938 -0.854232 2.099884 -0.003292 0.000627 355344.000000 1 0 0
5.886875 -3.842949 -0.385929 7.040773 -0.578341 1.625637 -0.003520 -0.000595 -1961140.000000 1 0 0
-1.649025 -4.498649 4.121071 6.319838 1.219445 0.860465 -0.002191 0.001371 1694590.000000 1 0 0
9.869275 -2.036349 -2.659229 10.422130 -0.203477 1.828801 -0.001220 0.000479 -1748260.000000 1 0 0
13.601875 7.052051 1.404271 15.385526 0.478308 1.479397 0.000004 0.001782 -400260.000000 1 0 0
5.409675 -3.664549 -3.281829 7.311901 -0.595401 2.036256 -0.005689 -0.002015 -1893690.000000 1 0 0
-12.233225 -5.897749 1.932671 13.717524 0.449233 1.429435 -0.003080 -0.000436 1226990.000000 1 0 0
3.755975 -5.801149 -0.279329 6.916552 -0.996213 1.611193 -0.003070 -0.001545 65467.100000 1 0 0
-5.218025 3.738751 -8.719229 10.827327 -0.621719 2.506975 0.009179 -0.007091 342110.000000 1 0 0
-1.604625 -9.384949 7.227971 11.953897 1.401455 0.921465 0.001554 -0.003347 1267850.000000 1 0 0
-7.357425 -7.398349 2.539971 10.738656 0.788172 1.332007 0.008180 -0.004943 -5326370.000000 1 0 0
-5.798125 13.134251 -8.399729 16.633769 -1.155075 2.100156 0.003208 -0.003805 1939970.000000 1 0 0
9.175275 -13.995449 -4.286929 17.275300 -0.990502 1.821570 0.007868 0.012289 1876950.000000 1 0 0
-6.703025 -5.080549 -6.659229 10.727901 0.648569 2.240482 0.013847 -0.009859 1017110.000000 1 0 0
3.338075 0.392851 -6.298729 7.139402 0.117149 2.651414 -0.002685 -0.003775 1316980.000000 1 0 0
-3.585125 5.728251 5.038971 8.429544 -1.011574 0.930074 -0.004439 0.001381 290279.000000 1 0 0
-2.580425 -10.786449 -2.889929 11.461141 1.335981 1.825698 0.009295 -0.006038 660137.000000 1 0 0
-12.455625 -0.434949 1.853871 12.600342 0.034906 1.423132 -0.007784 -0.004105 -129699.000000 1 0 0
8.425375 -11.991549 -6.132929 15.887007 -0.958321 1.967125 0.004099 0.000796 79545.100000 1 0 0
6.088575 4.004451 0.981171 7.353167 0.581769 1.436962 -0.002239 0.001458 -1019500.000000 1 0 0
3.285175 -4.742749 -10.941529 12.369442 -0.965005 2.656349 -0.005081 0.000527 628090.000000 1 0 0
-7.525325 4.180551 8.532271 12.120527 -0.507080 0.789850 -0.006151 -0.002516 1214730.000000 1 0 0
8.171075 8.726051 4.061271 12.625544 0.818231 1.243303 0.000578 0.000667 1369420.000000 1 0 0
0.213975 10.493651 -6.302729 12.242830 1.550408 2.111582 -0.000860 0.000688 1248680.000000 1 0 0
5.370975 8.028051 3.270271 10.197630 0.981162 1.244339 -0.002499 0.001264 2689520.000000 1 0 0
8.092375 6.774151 -3.748329 11.199358 0.696959 1.912074 -0.001008 -0.002167 2390990.000000 1 0 0
10.427675 2.578951 -8.318129 13.585973 0.242453 2.229710 -0.003816 0.001598 132906.000000 1 0 0
3.307075 -12.507349 -0.309529 12.940878 -1.312301 1.594717 -0.002916 -0.001088 -1525080.000000 1 0 0
0.714475 2.091951 5.293071 5.736143 1.241683 0.395620 -0.004826 0.002717 825382.000000 1 0 0
-4.820625 13.409951 1.467071 14.325415 -1.225700 1.468206 -0.000763 0.006111 1773070.000000 1 0 0
8.119375 4.120451 -8.082329 12.174827 0.469617 2.296759 -0.008071 0.003185 142907.000000 1 0 0
-13.916625 -0.457949 -3.471929 14.350487 0.032895 1.815159 -0.007036 -0.003691 148574.000000 1 0 0
-8.465325 0.061051 -0.437029 8.476819 -0.007212 1.622375 -0.002189 -0.003770 -371340.000000 1 0 0
1.792175 -3.892549 -1.178229 4.444327 -1.139318 1.839113 0.000986 -0.000560 -1416250.000000 1 0 0
8.074475 -5.669749 -0.303129 9.870921 -0.612189 1.601510 -0.003166 -0.001118 2088750.000000 1 0 0
-2.306425 -1.151549 7.395971 7.832372 0.463070 0.335389 -0.002352 0.002245 999459.000000 1 0 0
-5.960825 8.822151 -11.564829 15.719639 -0.976589 2.397486 -0.004872 -0.000655 -1288810.000000 1 0 0
-6.223525 9.206551 -8.692229 14.108427 -0.976368 2.234581 -0.006411 0.002568 126735.000000 1 0 0
-1.508725 14.000151 -8.389029 16.390738 -1.463446 2.108093 -0.002827 0.000332 -804548.000000 1 0 0
-1.351625 7.144151 9.803271 12.205323 -1.383813 0.638155 -0.003728 0.001168 -292590.000000 1 0 0
9.931875 2.497351 -4.108229 11.034330 0.246341 1.952297 -0.004094 0.001560 -1446010.000000 1 0 0
-2.985825 -7.424349 -6.992129 10.626663 1.188424 2.288929 0.011065 -0.005314 2581230.000000 1 0 0
-5.502425 -5.044649 -1.562429 7.626687 0.742022 1.777120 0.010924 -0.006698 255378.000000 1 0 0
5.609275 7.419051 -8.765229 12.780279 0.923426 2.326554 -0.003338 0.001416 869069.000000 1 0 0
-9.698225 5.212851 -7.417529 13.275885 -0.493200 2.163640 -0.003494 0.001570 779726.000000 1 0 0
-0.477425 6.082451 -5.277729 8.067129 -1.492465 2.283956 0.004129 -0.001938 -293608.000000 1 0 0
-8.327025 2.760051 -6.316329 10.809868 -0.320061 2.194828 0.004042 -0.002588 1858900.000000 1 0 0
3.702875 1.416951 -2.020229 4.449759 0.365472 2.042055 -0.003410 -0.002111 2779900.000000 1 0 0
-6.708525 12.513351 -3.463229 14.614453 -1.078680 1.810045 -0.002141 0.002656 1013670.000000 1 0 0
-6.518325 3.166051 -2.413629 7.637935 -0.452155 1.892313 -0.001761 -0.002733 -399569.000000 1 0 0
12.117375 4.100551 -0.903729 12.824274 0.326306 1.641325 -0.000418 -0.000831 -811901.000000 1 0 0
2.150975 12.313851 -5.528629 13.668334 1.397862 1.987211 -0.004002 0.000314 1120220.000000 1 0 0
-9.295725 -1.367149 -4.221529 10.300530 0.146026 1.993071 0.001069 -0.006456 -424359.000000 1 0 0
-1.096625 5.779951 3.458971 6.824581 -1.383296 1.039281 -0.006718 0.002384 1465160.000000 1 0 0
11.702875 2.513151 12.053471 16.987035 0.211534 0.781910 0.002914 0.004869 1001580.000000 1 0 0
-7.270825 -2.275249 -5.774729 9.559767 0.303275 2.219389 0.011379 -0.010142 472138.000000 1 0 0
7.544875 -7.439749 10.730871 15.080669 -0.778383 0.779074 -0.004591 0.000984 -2095460.000000 1 0 0
-5.538325 -1.953649 -10.922529 12.401267 0.339123 2.648259 0.013898 -0.008844 333809.000000 1 0 0
0.825275 -6.246849 4.544571 7.768998 -1.439446 0.945963 -0.002600 0.000034 1821780.000000 1 0 0
-4.707525 -9.407349 7.366171 12.842098 1.106821 0.959908 0.001883 -0.002505 3134920.000000 1 0 0
-8.653825 9.289251 1.816171 12.824873 -0.820797 1.428705 -0.006824 -0.001691 1408700.000000 1 0 0
-8.233625 7.249751 -8.938029 14.150613 -0.721940 2.254457 -0.003694 0.003159 -1054710.000000 1 0 0
-1.219925 -10.671349 -0.114829 10.741466 1.456973 1.581487 0.006829 -0.005830 -249424.000000 1 0 0
-3.876125 10.372951 7.815371 13.553689 -1.213187 0.956207 -0.001028 0.001786 2046080.000000 1 0 0
-7.454825 11.999451 2.083371 14.279415 -1.014888 1.424373 -0.009869 0.000807 864743.000000 1 0 0
-8.176525 -8.160549 -2.872529 11.903846 0.784420 1.814513 0.019843 -0.009606 -238836.000000 1 0 0
5.355375 4.653251 -8.014429 10.703451 0.715361 2.417002 -0.001830 0.001275 535701.000000 1 0 0
-9.007925 -0.162849 -10.145929 13.568681 0.018076 2.415457 0.007378 -0.006229 -65657.100000 1 0 0
-15.239125 -2.226649 -1.406729 15.465051 0.145087 1.661884 -0.000651 -0.003233 708334.000000 1 0 0
-7.028725 -5.807849 8.769871 12.650878 0.690574 0.804846 0.001867 0.000782 100680.000000 1 0 0
8.127075 3.556751 -1.005429 8.928085 0.412530 1.683650 -0.000680 -0.000152 1566290.000000 1 0 0
11.863675 7.347251 -5.951229 15.170564 0.554495 1.973914 0.002409 0.002637 803470.000000 1 0 0
3.539275 13.240051 -9.520129 16.687069 1.309588 2.177922 -0.010182 -0.006588 1416140.000000 1 0 0
-9.674425 5.440051 -0.411029 11.106647 -0.512247 1.607812 -0.006937 -0.000813 798553.000000 1 0 0
11.199375 -1.158149 -5.269029 12.431008 -0.103046 2.008501 0.006107 -0.000953 326997.000000 1 0 0
10.546875 1.769951 -1.325029 10.776131 0.166268 1.694068 -0.001704 -0.000069 735425.000000 1 0 0
14.566375 5.009551 4.748671 16.119080 0.331241 1.271760 0.004900 -0.004857 261170.000000 1 0 0
0.834275 -0.825249 10.323971 10.390449 -0.779959 0.113180 0.001234 0.001837 837467.000000 1 0 0
-8.079325 1.374751 -12.542029 14.982254 -0.168542 2.562804 -0.001231 -0.000212 -526653.000000 1 0 0
3.139975 -11.544949 -7.906729 14.340908 -1.305242 2.154767 -0.003829 0.001932 514166.000000 1 0 0
2.845575 5.042551 -6.717729 8.868624 1.057031 2.430228 0.002230 -0.001258 -999973.000000 1 0 0
6.510675 8.030351 0.540471 10.352176 0.889530 1.518564 0.001578 -0.002285 -272889.000000 1 0 0
-8.993625 -5.493049 6.718271 12.497762 0.548302 1.003258 -0.000564 0.000245 -955062.000000 1 0 0
-0.476225 -6.789549 -11.836329 13.653697 1.500770 2.619737 -0.006477 0.002841 2532650.000000 1 0 0
6.427975 -13.430049 -4.691129 15.610629 -1.124393 1.876022 -0.002916 0.004683 3508480.000000 1 0 0
-3.104525 -0.291149 10.036971 10.510168 0.093508 0.301213 -0.004050 0.002373 -367471.000000 1 0 0
8.653475 8.438751 7.000271 13.967782 0.772836 1.045843 -0.006230 0.003881 -824252.000000 1 0 0
-7.904225 5.705851 -2.667029 10.106758 -0.625256 1.837845 -0.003605 -0.001295 352927.000000 1 0 0
-5.390625 5.775951 -6.447829 10.197792 -0.819892 2.255285 0.003911 -0.000741 -1341690.000000 1 0 0
3.339075 -13.719849 2.520571 14.343533 -1.332062 1.394150 0.005609 -0.005869 -2072070.000000 1 0 0
-11.238525 -7.041049 6.506371 14.772058 0.559684 1.114695 -0.003973 0.001055 90292.500000 1 0 0
-12.957925 -3.634449 -6.632329 15.003494 0.273454 2.028682 0.005307 -0.005485 1022650.000000 1 0 0
6.052975 0.439551 -7.321529 9.509810 0.072490 2.449469 -0.006323 0.000951 429875.000000 1 0 0
-1.427225 2.162351 -2.538329 3.627099 -0.987400 2.345946 0.002584 -0.004102 3496200.000000 1 0 0
7.485375 1.028451 -4.952829 9.034327 0.136540 2.151035 -0.004457 0.001796 7752.510000 1 0 0
3.757275 -4.662049 10.819471 12.365790 -0.892451 0.505460 -0.002034 0.002045 214682.000000 1 0 0
6.012875 -2.545649 1.986271 6.824973 -0.400486 1.275493 -0.000780 -0.001114 -265538.000000 1 0 0
-6.299425 7.733651 1.249571 10.052540 -0.887248 1.446170 -0.007385 0.000682 384646.000000 1 0 0
6.106275 -3.495849 7.898071 10.577669 -0.519954 0.727748 -0.000044 -0.000807 -187818.000000 1 0 0
6.767075 -2.178249 -7.911829 10.636498 -0.311416 2.409590 -0.008449 0.001321 1223070.000000 1 0 0
12.016575 -8.078249 -5.969829 15.661897 -0.591864 1.961857 0.009818 0.000479 1451690.000000 1 0 0
5.647975 -9.712649 9.982171 15.029268 -1.044085 0.844397 -0.007031 0.005061 180647.000000 1 0 0
-6.639225 7.549351 -4.467229 11.001280 -0.849455 1.988940 0.001615 -0.000184 813904.000000 1 0 0
-1.183225 -7.595049 9.702471 12.378317 1.416250 0.669990 0.002113 -0.001365 -1776920.000000 1 0 0
10.017775 -9.315549 0.585271 13.692253 -0.749092 1.528039 0.003671 -0.002514 309249.000000 1 0 0
11.078475 6.015951 9.811571 15.974705 0.497477 0.909432 -0.007411 0.001308 2514020.000000 1 0 0
-15.325125 -4.220349 -4.843329 16.617119 0.268726 1.866556 -0.004949 -0.002042 1144590.000000 1 0 0
-4.568525 -4.705949 7.817271 10.204269 0.800214 0.698079 0.000553 0.001307 -720496.000000 1 0 0
2.811175 10.829351 -11.211329 15.838922 1.316814 2.357224 -0.008918 -0.002383 -555279.000000 1 0 0
9.904175 -1.441749 1.493871 10.119435 -0.144554 1.422631 -0.005292 0.000670 -972299.000000 1 0 0
-1.568025 -2.693349 0.639171 3.181410 1.043580 1.368511 -0.000675 -0.001411 1358240.000000 1 0 0
1.524775 2.924351 0.850871 3.405988 1.090171 1.318306 -0.004086 0.000187 -874167.000000 1 0 0
-8.894225 -2.379849 4.330471 10.174670 0.261448 1.131157 -0.003151 -0.001701 3318920.000000 1 0 0
9.971875 5.012251 -2.773329 11.500100 0.465756 1.814354 -0.003488 -0.000371 921946.000000 1 0 0
2.532075 8.406051 2.578871 9.150065 1.278220 1.285083 -0.008084 0.001768 962903.000000 1 0 0
-8.046325 -0.077249 2.511871 8.429639 0.009600 1.268220 -0.008377 -0.003210 1739650.000000 1 0 0
7.011475 1.957551 13.756071 15.563492 0.272260 0.486728 0.003986 -0.003095 -654714.000000 1 0 0
6.826575 4.406051 3.752571 8.949704 0.573153 1.138127 -0.004420 0.002995 -254207.000000 1 0 0
-0.229025 3.367751 7.784271 8.484638 -1.502895 0.409162 -0.005796 0.002051 377039.000000 1 0 0
2.803975 -10.374849 9.142071 14.109473 -1.306836 0.865921 -0.003912 0.000241 2665040.000000 1 0 0
1.357175 -4.470949 6.896071 8.329892 -1.276082 0.595496 -0.004065 0.002769 -460670.000000 1 0 0
-0.136725 10.798651 -1.937629 10.971963 -1.558136 1.748326 0.000807 0.000160 1328140.000000 1 0 0
8.772875 5.498451 7.986071 13.075689 0.559861 0.913780 -0.006488 0.002425 -612832.000000 1 0 0
2.542175 11.407351 -2.895929 12.040628 1.351525 1.813691 0.000270 -0.004155 789118.000000 1 0 0
1.479175 2.471651 -6.739329 7.329091 1.031513 2.737683 0.002573 -0.004902 374549.000000 1 0 0
-13.487425 -2.207849 3.675271 14.152486 0.162258 1.308094 -0.005319 -0.000711 1171720.000000 1 0 0
-0.913525 -10.605949 -5.331729 11.905797 1.484875 2.035129 0.002481 -0.002153 1859970.000000 1 0 0
-5.597525 2.855651 0.400971 6.296651 -0.471745 1.507073 -0.004325 -0.002146 519017.000000 1 0 0
3.762475 7.284951 -5.026129 9.617105 1.094058 2.120722 0.002624 -0.003792 -635907.000000 1 0 0
2.967275 9.760951 -6.490829 12.091805 1.275679 2.137431 0.000237 -0.001856 978614.000000 1 0 0
-12.120925 1.725151 -2.448129 12.485444 -0.141379 1.768154 -0.002189 -0.003432 -587034.000000 1 0 0
-2.556225 9.640651 -5.670629 11.473120 -1.311610 2.087772 -0.003068 -0.000070 1846720.000000 1 0 0
-1.303925 3.360351 1.750971 4.007254 -1.200649 1.118591 -0.005277 -0.001017 -1348090.000000 1 0 0
12.813175 3.688551 9.541871 16.396041 0.280293 0.949657 0.002474 0.002797 -913335.000000 1 0 0
-2.469725 -9.583849 11.564471 15.221258 1.318587 0.707856 -0.002734 -0.006888 1219410.000000 1 0 0
-0.396725 -8.882749 -7.529729 11.651499 1.526164 2.273451 -0.001659 0.001441 3062050.000000 1 0 0
2.337375 7.632551 -0.455829 7.995433 1.273627 1.627838 0.000241 -0.001514 2293870.000000 1 0 0
-11.905025 -1.242849 -5.414029 13.137199 0.104020 1.995570 0.002155 -0.002342 -1519150.000000 1 0 0
-6.202125 -7.142249 -10.870229 14.409717 0.855733 2.425487 0.003960 -0.001862 1212040.000000 1 0 0
-4.703825 -2.362749 -1.416829 5.451234 0.465489 1.833725 0.003088 -0.005460 -1335090.000000 1 0 0
-10.369925 3.655851 4.644171 11.936035 -0.338939 1.171155 -0.005202 -0.004102 3614280.000000 1 0 0
6.755675 9.413551 -3.535729 12.114267 0.948320 1.866972 0.006240 -0.003426 443775.000000 1 0 0
1.203475 -2.573549 -11.589529 11.932673 -1.133376 2.901195 0.002467 -0.002868 -601764.000000 1 0 0
1.340375 8.762751 7.562571 11.652249 1.419010 0.864498 -0.010213 0.008736 1470030.000000 1 0 0
10.436775 0.331651 10.431271 14.759664 0.031767 0.785914 -0.001756 0.002972 1426240.000000 1 0 0
-5.359525 -0.898949 -3.963929 6.726466 0.166182 2.200993 0.006670 -0.008681 506714.000000 1 0 0
11.726775 5.562251 5.359271 14.041997 0.442894 1.179205 -0.000416 -0.000089 2574070.000000 1 0 0
9.906275 -3.577349 3.603971 11.131950 -0.346546 1.241106 0.003298 -0.006229 -1374030.000000 1 0 0
7.265175 -1.641549 -3.488229 8.224669 -0.222216 2.008784 -0.004914 0.001392 -3972610.000000 1 0 0
2.464375 9.154651 10.436771 14.099893 1.307836 0.737425 -0.007120 0.004907 1706840.000000 1 0 0
2.531675 -10.885849 6.259071 12.809647 -1.342293 1.060287 -0.005864 0.001108 940119.000000 1 0 0
5.929275 -7.584749 -1.281329 9.712184 -0.907291 1.703112 -0.006920 -0.003152 1249770.000000 1 0 0
-0.225625 -5.653949 -2.393929 6.144016 1.530912 1.971032 0.005251 -0.002108 1331050.000000 1 0 0
7.734375 -5.124749 2.588771 9.632514 -0.585178 1.298698 -0.001962 -0.003865 951349.000000 1 0 0
-2.743125 -12.499449 4.655571 13.617463 1.354761 1.221877 0.004496 -0.004320 -640304.000000 1 0 0
4.868475 -10.362749 -1.266329 11.519210 -1.131595 1.680951 -0.006920 -0.004910 1394000.000000 1 0 0
0.872475 0.137251 1.069771 1.387249 0.156034 0.690158 -0.003719 0.001883 -1417470.000000 1 0 0
-1.497825 8.553951 2.480371 9.031379 -1.397450 1.292582 -0.005957 0.004356 -33424.100000 1 0 0
-7.518125 0.640151 -3.016729 8.126048 -0.084943 1.951142 0.002164 -0.005574 20578.200000 1 0 0
4.529875 -6.504849 12.860271 15.106932 -0.962501 0.552371 0.003077 -0.000466 -1037270.000000 1 0 0
-5.027925 13.022351 8.665071 16.430007 -1.202330 1.015267 0.001514 -0.005670 1750860.000000 1 0 0
0.769675 6.070651 8.191071 10.224425 1.444683 0.641619 -0.007995 0.006304 488328.000000 1 0 0
7.962775 -0.578749 -0.825929 8.026387 -0.072554 1.673880 -0.002074 0.000146 4056280.000000 1 0 0
2.441575 -9.289249 -2.418429 9.904556 -1.313771 1.817463 -0.008112 -0.002531 1546740.000000 1 0 0
-7.117225 12.138051 4.944771 14.914354 -1.040469 1.232856 -0.002131 -0.001445 -374087.000000 1 0 0
-14.891225 0.273751 0.321971 14.897221 -0.018381 1.549182 -0.007885 -0.002200 1171490.000000 1 0 0
6.924075 -0.525349 3.822571 7.926591 -0.075728 1.067579 -0.002807 0.001365 322590.000000 1 0 0
-4.168525 -5.077849 5.101471 8.317822 0.883427 0.910541 -0.001609 0.000184 156270.000000 1 0 0
3.025875 4.971951 6.818971 8.965188 1.024085 0.706551 -0.009504 0.004431 -1551650.000000 1 0 0
2.022575 -7.219349 1.774871 7.704542 -1.297639 1.338342 -0.002785 -0.002608 694697.000000 1 0 0
-2.491325 6.475051 -1.748029 7.154621 -1.203499 1.817616 -0.003403 0.000265 2141880.000000 1 0 0
2.709775 -3.788149 -6.522729 8.014920 -0.949856 2.521498 -0.005675 -0.003044 -660769.000000 1 0 0
-5.258025 0.898051 -12.190129 13.306110 -0.169164 2.729114 0.009075 -0.005198 309534.000000 1 0 0
-7.624325 6.431351 -11.791729 15.444659 -0.700726 2.439485 -0.003723 -0.000303 3155600.000000 1 0 0
-1.089025 11.214351 -8.963829 14.397843 -1.473990 2.242833 -0.003305 0.001063 822268.000000 1 0 0
4.657375 5.919851 -0.641829 7.559611 0.904194 1.655801 -0.002017 -0.001738 565261.000000 1 0 0
-2.644525 13.388051 3.676971 14.133420 -1.375778 1.307607 -0.000430 0.006785 1298800.000000 1 0 0
1.573175 -7.996949 10.111071 12.986910 -1.376555 0.678430 -0.007912 0.003307 -363652.000000 1 0 0
12.917675 -0.246849 -1.162929 12.972265 -0.019107 1.660564 0.003916 -0.003709 129352.000000 1 0 0
-0.968825 3.062251 -5.413429 6.294539 -1.264383 2.606105 0.005569 -0.006208 1009460.000000 1 0 0
6.631075 1.011651 7.281071 9.899929 0.151395 0.744441 -0.004446 0.002115 720166.000000 1 0 0
5.534075 -6.137849 6.749671 10.670390 -0.837081 0.885941 -0.005530 0.000552 1065930.000000 1 0 0
12.142675 -4.955149 2.539071 13.358328 -0.387450 1.379559 0.005691 -0.005089 -1220720.000000 1 0 0
4.489375 -9.290349 13.937771 17.341468 -1.120655 0.637267 -0.001827 0.003970 283072.000000 1 0 0
-2.672225 -4.393049 -1.400929 5.329378 1.024307 1.836791 0.007966 -0.005155 2458680.000000 1 0 0
-9.481925 -5.206349 -7.524829 13.177102 0.502138 2.178585 0.016486 -0.008881 1928660.000000 1 0 0
-10.424225 -3.202349 7.901171 13.466552 0.298051 0.943787 -0.005709 0.000073 165457.000000 1 0 0
12.042675 -0.651549 1.615771 12.168042 -0.054051 1.437615 0.001356 -0.001560 1467290.000000 1 0 0
-7.443325 4.696651 4.405871 9.842425 -0.562894 1.106671 -0.004936 -0.005051 2371210.000000 1 0 0
-0.992025 10.584551 7.032971 12.746746 -1.477345 0.986340 -0.004349 0.007465 1138850.000000 1 0 0
7.336675 -10.074649 1.755171 12.585943 -0.941373 1.430885 -0.002722 -0.003263 3259820.000000 1 0 0
-4.297925 -1.726049 1.602671 4.901016 0.381885 1.237661 -0.005323 -0.000110 1125490.000000 1 0 0
6.576275 -15.124349 -1.020329 16.523752 -1.160643 1.632585 0.003700 0.008309 -769553.000000 1 0 0
-10.299525 1.655351 2.464371 10.718840 -0.159358 1.338811 -0.007719 -0.002755 441292.000000 1 0 0
-3.115925 8.277751 -11.345029 14.385404 -1.210780 2.479404 0.000017 0.000427 -1435320.000000 1 0 0
-1.138825 -5.117249 -6.991729 8.738846 1.351818 2.498216 0.003926 -0.006018 -815400.000000 1 0 0
12.892275 -0.474749 6.342671 14.375869 -0.036808 1.113858 0.004563 -0.002791 1362100.000000 1 0 0
5.990875 -13.324649 3.591471 15.044451 -1.148268 1.329745 0.001857 -0.002934 874863.000000 1 0 0
-5.643725 3.462751 -5.013029 8.304983 -0.550329 2.218826 0.002746 -0.003718 1915110.000000 1 0 0
-4.300225 8.005351 3.400371 9.702583 -1.077858 1.212734 -0.006211 0.001493 -90676.000000 1 0 0
14.049375 6.170851 -4.082129 15.878542 0.413858 1.830801 0.006397 0.004379 387536.000000 1 0 0
-6.693425 -8.527649 5.256871 12.048130 0.905325 1.119289 0.005506 -0.001838 766381.000000 1 0 0
1.724075 11.365651 2.751671 11.820413 1.420252 1.335851 -0.003881 0.002748 1358560.000000 1 0 0
-7.251925 7.287751 6.058071 11.933230 -0.787862 1.038325 -0.005483 -0.006946 338934.000000 1 0 0
-17.341525 -4.005349 5.439071 18.610610 0.226988 1.274211 0.008289 -0.004847 -1595090.000000 1 0 0
7.580275 -12.987549 -8.632129 17.339280 -1.042480 2.091899 -0.001055 0.004679 -6124.910000 1 0 0
-2.263725 12.866251 -2.804629 13.361543 -1.396636 1.782272 -0.002501 0.001693 2725600.000000 1 0 0
-5.480325 14.001151 -5.647329 16.061087 -1.197709 1.930093 0.000308 0.003875 2759900.000000 1 0 0
-5.552925 2.366651 7.344571 9.506774 -0.402886 0.687930 -0.003735 -0.001796 789894.000000 1 0 0
-7.348425 5.033751 1.462971 9.026533 -0.600595 1.408004 -0.003991 -0.001995 891950.000000 1 0 0
10.654875 -5.598649 -5.124929 13.081900 -0.483803 1.973337 0.004025 -0.000914 3103360.000000 1 0 0
-9.441425 -0.743649 6.874171 11.702468 0.078602 0.942939 -0.004681 -0.001877 -1133130.000000 1 0 0
-11.286625 -4.495349 -2.416629 12.386935 0.379031 1.767151 0.003103 -0.004702 871264.000000 1 0 0
6.609575 -4.442149 13.467271 15.645656 -0.591739 0.534021 0.008113 -0.004032 -706289.000000 1 0 0
0.088975 10.210751 -11.650229 15.491778 1.562083 2.421928 -0.004203 -0.001002 -1751940.000000 1 0 0
-11.676225 -3.135349 1.473071 12.179269 0.262336 1.449550 -0.000705 -0.003499 4078960.000000 1 0 0
5.273775 5.948951 5.419271 9.621394 0.845487 0.972480 -0.008149 0.005212 -4994500.000000 1 0 0
-7.033825 -0.053549 8.080871 10.713452 0.007613 0.716250 -0.004843 0.000398 -242458.000000 1 0 0
1.732375 2.070851 9.701571 10.070255 0.874162 0.271429 -0.002202 0.000476 2987450.000000 1 0 0
10.429075 -4.907449 -2.098529 11.715480 -0.439815 1.750893 0.000054 0.000493 610234.000000 1 0 0
-9.566525 -2.362849 -1.641229 9.989749 0.242145 1.735836 0.002566 -0.005715 -1130510.000000 1 0 0
-2.034325 -5.049249 -9.877129 11.277902 1.187795 2.637877 0.006740 -0.005216 568039.000000 1 0 0
7.699075 -1.641349 6.463471 10.185590 -0.210043 0.883344 -0.000674 -0.001072 1443580.000000 1 0 0
1.472275 -11.886149 -2.616429 12.259438 -1.447559 1.785872 -0.002996 -0.002125 -4201460.000000 1 0 0
-0.753925 -1.466349 4.768571 5.045578 1.095892 0.332898 -0.001963 0.000963 2886870.000000 1 0 0
7.744175 1.427851 9.883871 12.637322 0.182330 0.672740 -0.000847 0.002567 951720.000000 1 0 0
-3.849125 10.768151 -7.895629 13.896395 -1.227496 2.175087 -0.002528 0.002998 2956650.000000 1 0 0
-9.419425 12.592951 6.619671 17.062475 -0.928582 1.172372 -0.003425 -0.005850 -35489.300000 1 0 0
-2.536925 -2.291249 -11.076329 11.591845 0.734558 2.842240 0.011114 -0.009872 -1831090.000000 1 0 0
1.259375 -12.032049 11.067271 16.396363 -1.466508 0.829854 -0.002113 0.003090 1777230.000000 1 0 0
1.416075 3.424351 -1.994429 4.208230 1.178680 2.064551 -0.002309 -0.001979 3277750.000000 1 0 0
-2.043325 -9.384149 -12.032629 15.395505 1.356401 2.467971 -0.009396 0.006746 2088900.000000 1 0 0
1.374575 -2.689649 1.545271 3.392864 -1.098339 1.097922 0.001498 -0.000203 2206950.000000 1 0 0
-1.027425 -2.249149 -6.657429 7.101805 1.142297 2.785964 0.007570 -0.010708 -503041.000000 1 0 0
1.889975 5.727651 4.049571 7.264780 1.252072 0.979515 -0.011330 0.004682 -214082.000000 1 0 0
-10.846125 8.583351 3.736371 14.327345 -0.669460 1.306960 -0.004357 -0.003878 117771.000000 1 0 0
-16.255925 -1.557149 4.050371 16.825140 0.095498 1.327675 0.001290 -0.001725 -77635.700000 1 0 0
-12.102925 0.236051 6.892671 13.930019 -0.019501 1.053184 -0.009321 -0.001609 365692.000000 1 0 0
-5.040325 2.999751 4.612671 7.461912 -0.536846 0.904394 -0.005669 -0.001475 186302.000000 1 0 0
5.250475 -6.087849 3.842471 8.910329 -0.859118 1.124932 -0.008545 -0.001197 -850473.000000 1 0 0
9.958575 3.359351 6.284471 12.245531 0.325346 1.031881 -0.007348 0.004561 1043190.000000 1 0 0
-12.019025 5.892251 3.373971 13.804321 -0.455812 1.323881 -0.004043 -0.001622 792551.000000 1 0 0
-4.865625 12.344651 -1.291829 13.331675 -1.195345 1.667848 -0.001488 0.002379 812742.000000 1 0 0
-1.647225 -12.211149 10.304471 16.062616 1.436711 0.874320 0.000886 -0.003891 1164190.000000 1 0 0
5.271375 6.257551 13.926171 16.151860 0.870730 0.531195 -0.001393 -0.002175 264268.000000 1 0 0
12.816575 -3.623049 -6.089329 14.644828 -0.275496 1.999619 0.003175 -0.001124 1733570.000000 1 0 0
3.606875 -2.600649 6.361171 7.761277 -0.624698 0.610077 -0.003464 0.004238 1083690.000000 1 0 0
7.197775 -11.967049 -0.734729 13.984207 -1.029299 1.623360 -0.001424 0.002835 -1003630.000000 1 0 0
-6.100125 -6.478749 -4.134729 9.812324 0.815489 2.005764 0.019546 -0.009579 1368700.000000 1 0 0
0.349475 -9.057249 4.992571 10.348026 -1.532230 1.067328 -0.000782 -0.003057 1679740.000000 1 0 0
-10.182325 2.482951 -0.285729 10.484581 -0.239181 1.598052 -0.007454 0.000034 -1832450.000000 1 0 0
-1.890725 8.992251 -0.338529 9.195109 -1.363554 1.607621 -0.003598 0.001941 2340970.000000 1 0 0
-3.570825 2.232751 -6.679229 7.896079 -0.558798 2.579031 0.015269 -0.010781 1791280.000000 1 0 0
-12.594925 2.995651 6.499471 14.486173 -0.233507 1.105523 -0.010386 -0.005359 331969.000000 1 0 0
11.390275 1.548151 7.928271 13.963976 0.135091 0.967007 0.001148 0.001467 -3058320.000000 1 0 0
6.010075 2.725551 -3.196829 7.332758 0.425758 2.021907 -0.002350 -0.001086 514593.000000 1 0 0
10.539375 -2.355949 6.278171 12.491771 -0.219922 1.044211 0.005103 -0.003897 2529190.000000 1 0 0
-0.848525 11.014151 4.102971 11.784138 -1.493909 1.215170 -0.000794 0.005765 917669.000000 1 0 0
-1.548725 -12.310349 7.408271 14.450803 1.445647 1.032523 -0.001909 -0.000254 -73930.800000 1 0 0
8.048775 8.740051 -7.820429 14.224288 0.826550 2.152914 0.006374 -0.001382 2535220.000000 1 0 0
-4.741625 -5.713149 -8.666629 11.411991 0.878058 2.433236 0.012981 -0.005394 2072510.000000 1 0 0
-8.574825 -5.405449 -11.465529 15.303753 0.562463 2.417646 0.009040 -0.002165 1340760.000000 1 0 0
6.051075 -0.545349 -10.021029 11.718956 -0.089881 2.596565 -0.006878 0.005122 209429.000000 1 0 0
-11.290525 -5.420249 -5.227029 13.571179 0.447577 1.966174 0.007875 -0.009632 -478874.000000 1 0 0
3.886275 8.937451 -2.678229 10.107130 1.160629 1.838984 0.004969 -0.005560 587053.000000 1 0 0
11.643875 -10.376149 -4.159629 16.141462 -0.727890 1.831436 0.013783 0.001608 143503.000000 1 0 0
4.002275 -11.337849 3.812471 12.613483 -1.231450 1.263740 -0.004181 -0.001044 21876.500000 1 0 0
-0.960225 0.875951 3.202671 3.456360 -0.739534 0.385522 -0.003624 0.000766 -1390890.000000 1 0 0
-10.492925 -5.134849 4.497871 12.517947 0.455102 1.203264 -0.003486 -0.000596 3213620.000000 1 0 0
4.527475 -8.722749 2.686171 10.188223 -1.092031 1.303987 -0.008960 -0.000769 5174520.000000 1 0 0
-3.669225 -5.801849 2.574371 7.331579 1.006877 1.212014 0.001367 -0.000547 1923620.000000 1 0 0
10.085775 4.921451 12.382171 16.711125 0.453969 0.736307 -0.000952 0.003612 -700317.000000 1 0 0
1.671775 -12.362249 -5.346029 13.572032 -1.436380 1.975668 -0.002540 -0.001489 933573.000000 1 0 0
9.882975 -10.844949 -1.855629 14.789505 -0.831774 1.696597 0.003981 -0.001944 1529000.000000 1 0 0
9.569575 -4.348949 -9.197629 13.967336 -0.426553 2.289633 0.001664 0.001282 1617480.000000 1 0 0
-7.441925 -3.165049 -13.051029 15.353473 0.402124 2.586853 0.004890 -0.002812 3567300.000000 1 0 0
0.468475 6.194251 -2.530829 6.707706 1.495309 1.957677 -0.000188 -0.001736 2360420.000000 1 0 0
-5.939925 -9.495449 0.937871 11.239478 1.011798 1.487255 0.009771 -0.006912 167844.000000 1 0 0
-8.912525 -4.089349 0.536571 9.820580 0.430174 1.516132 -0.000470 -0.003926 810310.000000 1 0 0
1.952475 3.720751 12.205671 12.908701 1.087543 0.331552 -0.003265 -0.003671 133301.000000 1 0 0
6.743075 4.214851 9.642271 12.498297 0.558645 0.689622 -0.005642 0.004721 2286070.000000 1 0 0
-8.259025 9.848651 -3.484829 13.317337 -0.872961 1.835555 -0.004971 0.004086 1678640.000000 1 0 0
16.347075 2.160451 -6.221029 17.623723 0.131400 1.931563 0.005899 0.002081 -579162.000000 1 0 0
-11.013325 2.686251 -4.998929 12.389454 -0.239238 1.986116 -0.002866 -0.001203 1753320.000000 1 0 0
-13.568025 4.069351 1.602271 14.255462 -0.291385 1.458161 -0.006421 0.001936 -1030330.000000 1 0 0
-17.463925 10.659751 3.491671 20.755981 -0.548022 1.401768 0.030202 0.003180 -2782.130000 1 0 0
-14.183025 2.809551 -1.035629 14.495665 -0.195561 1.642301 -0.008160 0.000854 78409.900000 1 0 0
-14.226325 5.197651 5.294671 16.044858 -0.350288 1.234501 -0.003975 -0.001686 1472260.000000 1 0 0
-17.468725 7.630351 3.283271 19.343177 -0.411823 1.400233 0.015997 0.008993 -1346560.000000 1 0 0
-14.990425 12.816951 -3.168329 19.975620 -0.707395 1.730079 0.029533 0.000436 -23053.100000 1 0 0
-8.564125 12.549851 -9.470129 17.903250 -0.971975 2.128173 -0.004916 -0.006871 1894400.000000 1 0 0
-12.424725 8.885051 -9.773429 18.133887 -0.620795 2.139998 -0.003456 0.011717 -1631750.000000 1 0 0
-14.057525 -3.445249 -12.084229 18.855035 0.240345 2.266469 0.007887 0.001366 919360.000000 1 0 0
-14.922625 5.895951 -7.484629 17.704990 -0.376276 2.007264 0.003722 0.011595 519293.000000 1 0 0
-10.917525 13.723651 -8.271929 19.389579 -0.898789 2.011546 0.004484 0.001655 90323.000000 1 0 0
-10.774825 13.653551 4.144271 17.879914 -0.902701 1.336885 0.005727 -0.002931 -384674.000000 1 0 0
-15.106825 3.392851 3.176071 15.805538 -0.220925 1.368472 -0.007569 0.001260 -374655.000000 1 0 0
-11.188025 9.512551 -12.345329 19.185090 -0.704636 2.269839 -0.005742 0.004521 176488.000000 1 0 0
-13.054925 11.657451 -8.831929 19.604342 -0.728909 2.038132 -0.002680 -0.003013 406867.000000 1 0 0
-8.824125 14.577251 -3.418329 17.379483 -1.026463 1.768775 0.000372 -0.003706 1866260.000000 1 0 0
-16.695825 8.417551 -3.776829 19.075382 -0.466979 1.770108 0.020851 0.011186 -1468850.000000 1 0 0
-16.745425 6.754451 0.428371 18.061434 -0.383400 1.547077 0.010431 0.010086 964304.000000 1 0 0
-10.610725 2.794751 -12.455229 16.599122 -0.257540 2.419395 0.000705 -0.000867 1076580.000000 1 0 0
-16.778125 0.952951 2.498471 16.989878 -0.056736 1.423205 -0.003372 -0.004388 1190900.000000 1 0 0
-12.706825 1.277351 -6.875729 14.504161 -0.100188 2.064684 -0.001574 -0.002852 810413.000000 1 0 0
-12.281025 8.975451 -5.295229 16.106575 -0.631125 1.905789 0.002657 0.005052 -1438570.000000 1 0 0
-9.599425 13.864251 1.432071 16.923867 -0.965198 1.486077 0.004079 -0.002732 83598.300000 1 0 0
-12.151225 11.160251 3.044971 16.777227 -0.742914 1.388291 0.005285 -0.004417 -574331.000000 1 0 0
-12.533725 6.851551 -3.491129 14.704625 -0.500267 1.810502 -0.003066 0.005529 1170210.000000 1 0 0
-15.882625 3.682151 -9.261529 18.750785 -0.227811 2.087397 0.001140 0.002754 -1724880.000000 1 0 0
-15.168125 6.006551 -4.503229 16.924236 -0.377052 1.840122 0.012310 0.007471 1265630.000000 1 0 0
-17.595825 5.295451 7.789271 19.958147 -0.292327 1.169860 -0.002816 -0.003096 -1799680.000000 1 0 0
-15.759525 10.302751 -1.819429 18.916121 -0.579005 1.667129 0.028676 0.005137 -971954.000000 1 0 0
-8.793425 9.975451 -8.163529 15.603755 -0.848293 2.121371 -0.002703 -0.002202 656587.000000 1 0 0
-16.832325 4.184851 -1.108329 17.380119 -0.243679 1.634610 -0.002488 0.004787 -23410.700000 1 0 0
-10.250125 5.329751 -4.453329 12.381577 -0.479495 1.938715 -0.004381 0.000621 758339.000000 1 0 0
-17.960325 2.824051 6.266771 19.230730 -0.155961 1.238862 0.003515 -0.007440 -775672.000000 1 0 0
-10.368125 10.123951 -5.553229 15.518723 -0.773483 1.936751 -0.001834 0.000428 1375710.000000 1 0 0
-15.398225 0.591751 -5.830829 16.475863 -0.038411 1.932535 -0.003005 -0.000979 -776985.000000 1 0 0
-16.372025 -4.109849 -8.674629 18.978494 0.245947 2.045502 -0.014108 -0.005013 -827188.000000 1 0 0
-9.906425 9.593651 -0.942329 13.822568 -0.769360 1.639022 -0.006649 0.002940 2175240.000000 1 0 0
-17.370325 -2.943249 -3.146129 17.896621 0.167847 1.747509 -0.003339 -0.000076 119796.000000 1 0 0
-12.127325 5.148751 -11.499229 17.487536 -0.401496 2.288381 -0.000640 0.005100 -226455.000000 1 0 0
-16.237325 7.100751 6.002671 18.711052 -0.412251 1.244213 0.003127 0.002883 -402628.000000 1 0 0
-12.233125 6.027551 -8.780629 16.219746 -0.457810 2.142843 0.002439 0.007421 1259630.000000 1 0 0
-14.418625 8.553251 0.069771 16.764836 -0.535411 1.566635 0.015773 0.000444 449854.000000 1 0 0
-14.870625 11.996551 4.121971 19.545930 -0.678830 1.358315 0.010457 -0.003125 1767040.000000 1 0 0
-17.279125 4.202651 -3.902029 18.205941 -0.238589 1.786799 0.009131 0.004416 -1133150.000000 1 0 0
-13.707525 13.536351 -0.597329 19.273969 -0.779115 1.601793 0.021139 -0.006861 -1118760.000000 1 0 0
-10.182425 6.896951 -13.061229 17.940051 -0.595355 2.386267 -0.011549 0.004037 1749070.000000 1 0 0
-15.872825 -1.158049 -8.231629 17.917795 0.072829 2.048128 -0.008415 -0.003953 -766323.000000 1 0 0
-11.496325 11.911051 0.187771 16.555177 -0.803114 1.559454 0.005115 -0.002146 1411180.000000 1 0 0
-11.924325 7.384551 -0.803229 14.048712 -0.554479 1.628002 -0.004376 0.005014 1892430.000000 1 0 0
-11.523125 0.099451 -11.650229 16.386584 -0.008630 2.361661 0.000230 -0.005175 -905419.000000 1 0 0
-19.045325 -1.129749 -4.671329 19.642354 0.059250 1.810916 -0.009929 0.002725 -1258000.000000 1 0 0
-17.927025 1.585951 -5.058629 18.694470 -0.088237 1.844807 -0.002433 0.005434 -3267870.000000 1 0 0
-13.394125 -0.060749 -9.407829 16.368064 0.004535 2.183116 -0.000719 -0.003577 92868.900000 1 0 0
-6.211925 11.231751 -13.170429 18.390227 -1.065600 2.369088 -0.013902 -0.001873 -903573.000000 1 0 0
16.252475 5.702951 7.035871 18.605646 0.337474 1.182991 0.009608 -0.006429 -289487.000000 1 0 0
14.855475 9.995651 -5.532629 18.740548 0.592278 1.870485 0.017925 0.003280 838648.000000 1 0 0
2.477575 17.001351 4.524071 17.766585 1.426087 1.313322 0.005676 -0.003366 2069660.000000 1 0 0
-3.851025 18.254551 -5.738629 19.518988 -1.362882 1.869208 0.005981 0.000647 1713330.000000 1 0 0
5.497475 14.575351 5.704371 16.589242 1.210119 1.219772 -0.002369 0.000792 -1127940.000000 1 0 0
10.086075 5.944751 15.078871 19.090347 0.532590 0.660201 0.013134 -0.001357 -937738.000000 1 0 0
4.622075 12.688151 -1.156429 13.553232 1.221455 1.656225 -0.000710 -0.004261 1636100.000000 1 0 0
3.773775 13.490251 13.120471 19.193098 1.298028 0.818108 -0.006691 -0.000537 -360267.000000 1 0 0
-0.616325 12.379451 9.307171 15.500133 -1.521051 0.926723 0.003700 -0.000250 1129880.000000 1 0 0
-7.693925 13.949351 8.618971 18.112635 -1.066755 1.074861 0.003172 -0.009685 2081150.000000 1 0 0
11.417875 12.937551 -4.270829 17.776053 0.847713 1.813427 0.021566 0.001636 310459.000000 1 0 0
-5.781725 16.168451 0.903071 17.194845 -1.227373 1.518252 0.000984 0.005465 1638580.000000 1 0 0
3.235975 10.671151 6.756771 13.038365 1.276365 1.026025 -0.009113 0.009529 1883490.000000 1 0 0
-1.140525 15.611351 2.625571 15.871632 -1.497868 1.404607 0.003138 0.002579 -1314960.000000 1 0 0
9.911675 8.760351 9.524071 16.300092 0.723816 0.946785 -0.003539 0.006552 387656.000000 1 0 0
7.279375 12.179851 6.206471 15.487361 1.032101 1.158467 -0.005958 0.002692 699331.000000 1 0 0
11.880575 14.080351 -1.514529 18.485079 0.869930 1.652821 0.003361 0.000375 -335671.000000 1 0 0
9.641875 15.910751 -1.249029 18.646121 1.025979 1.637833 -0.001896 -0.001545 1510060.000000 1 0 0
10.105575 13.719051 2.997271 17.300828 0.935921 1.396673 0.006097 -0.001767 1965320.000000 1 0 0
-5.975225 14.517651 6.426571 16.963677 -1.180344 1.182250 -0.005296 -0.006084 -253324.000000 1 0 0
-0.932325 18.222151 -6.103929 19.239906 -1.519677 1.893628 0.009533 0.005093 1333670.000000 1 0 0
-3.465725 15.679251 5.636671 17.018291 -1.353255 1.233208 -0.003883 0.000766 1713390.000000 1 0 0
7.141075 12.204651 10.576271 17.658029 1.041397 0.928607 -0.010156 0.004787 1370060.000000 1 0 0
1.511675 14.687751 6.361271 16.077344 1.468237 1.164003 -0.002242 0.000857 -380175.000000 1 0 0
17.425775 7.723551 -1.440229 19.115050 0.417206 1.646213 -0.007952 0.012530 -251117.000000 1 0 0
2.138475 16.137251 -3.342029 16.617855 1.439046 1.773288 -0.003571 0.000534 1781520.000000 1 0 0
6.699675 11.172551 0.538771 13.038475 1.030631 1.529463 0.005704 -0.003128 1396090.000000 1 0 0
12.699875 9.257851 3.162271 16.031051 0.629907 1.372235 0.004673 0.003243 -1621370.000000 1 0 0
5.988375 14.272551 -3.464929 15.861024 1.173532 1.791028 -0.005166 -0.001546 -237482.000000 1 0 0
3.215175 16.550151 1.725471 16.947629 1.378918 1.468808 0.005735 -0.008431 -1397940.000000 1 0 0
2.878075 18.828551 -2.444529 19.203473 1.419113 1.698439 0.012952 -0.011383 -865327.000000 1 0 0
4.027075 11.898251 10.725471 16.517308 1.244439 0.864070 -0.010791 0.003418 3614340.000000 1 0 0
7.976875 11.511951 3.341171 14.398576 0.964837 1.336613 -0.001367 0.001066 2031530.000000 1 0 0
0.735175 12.520051 0.252071 12.544150 1.512144 1.550700 0.002659 -0.001115 -942166.000000 1 0 0
11.982175 9.988451 -4.666029 16.282306 0.694901 1.861442 0.014118 0.002991 365293.000000 1 0 0
-1.200025 16.420551 10.232071 19.384784 -1.497845 1.014741 0.007451 -0.005382 -1195230.000000 1 0 0
7.946775 14.783051 -8.054629 18.616307 1.077554 2.018243 0.023234 -0.000507 1841630.000000 1 0 0
14.500175 7.569051 -1.390129 16.415787 0.481090 1.655580 0.000493 0.001364 105888.000000 1 0 0
12.417475 8.209351 5.913071 16.017226 0.584148 1.192681 0.001000 0.003017 -2267910.000000 1 0 0
-2.909125 14.164451 10.357171 17.786672 -1.368231 0.949242 0.003015 -0.010133 1388650.000000 1 0 0
-4.573525 17.243051 -3.035629 18.095718 -1.311528 1.739347 0.012312 0.003188 958665.000000 1 0 0
-7.152925 16.454051 -1.653729 18.017629 -1.160721 1.662710 0.009008 0.006553 554390.000000 1 0 0
8.397675 11.309251 -1.915729 14.215841 0.932081 1.705968 0.007812 -0.003234 -446448.000000 1 0 0
8.514375 12.953351 -4.194729 16.058631 0.989299 1.835075 0.015950 -0.002132 3727370.000000 1 0 0
2.386775 14.750951 -7.296729 16.629177 1.410382 2.025049 -0.021782 0.002845 -432983.000000 1 0 0
11.346575 11.221751 9.687971 18.668938 0.779867 1.025191 0.007806 0.006316 -21511.600000 1 0 0
8.663275 15.707151 1.369171 17.990041 1.066764 1.494615 0.000037 -0.002845 1017780.000000 1 0 0
6.022875 9.878551 7.740671 13.920445 1.023281 0.981153 -0.008295 0.011236 2682050.000000 1 0 0
14.445475 11.335251 2.528871 18.535233 0.665337 1.433934 0.009103 0.004785 2100340.000000 1 0 0
12.066475 12.592051 1.106971 17.475267 0.806709 1.507409 0.009085 -0.000051 914514.000000 1 0 0
5.420675 15.781951 8.343071 18.656381 1.239948 1.107168 0.003337 0.002900 -1495720.000000 1 0 0
11.417375 15.112251 5.139571 19.625284 0.923782 1.305821 0.012966 0.000234 590409.000000 1 0 0
6.046075 16.846351 1.941271 18.003419 1.226219 1.462758 -0.004103 -0.010285 -134204.000000 1 0 0
-0.654625 16.133451 -4.133729 16.667468 -1.530243 1.821424 0.002760 -0.000455 943462.000000 1 0 0
16.079675 6.356551 2.575671 17.481298 0.376462 1.422919 -0.003630 0.001220 -925382.000000 1 0 0
7.605775 16.708951 -3.166129 18.629580 1.143633 1.741577 -0.003336 -0.002731 826058.000000 1 0 0
14.743475 8.125651 7.429571 18.400945 0.503715 1.155173 0.007818 -0.000358 -141055.000000 1 0 0
2.192875 12.928751 8.670071 15.720415 1.402783 0.986615 -0.004669 0.003530 330077.000000 1 0 0
15.931575 7.322251 -6.013129 18.536131 0.430814 1.901174 0.004547 0.009971 -907473.000000 1 0 0
-2.932025 17.047751 0.771471 17.315247 -1.400474 1.526227 -0.002865 0.003478 1334580.000000 1 0 0
-2.942525 18.479251 4.806171 19.319433 -1.412888 1.319382 -0.000930 0.003379 1237500.000000 1 0 0
-0.800225 18.988451 0.972171 19.030154 -1.528679 1.519688 0.007167 -0.003332 86729.500000 1 0 0
6.887575 16.846951 -6.041829 19.177126 1.182699 1.891310 0.005616 0.001767 998147.000000 1 0 0
11.005575 10.062951 0.717571 14.929855 0.740687 1.522715 0.009046 -0.001803 -1981510.000000 1 0 0
9.172375 8.630351 14.301271 19.056279 0.754961 0.722015 0.008623 -0.003950 1137430.000000 1 0 0
6.175775 12.332351 -8.396829 16.147254 1.106526 2.117666 0.004588 -0.005197 599237.000000 1 0 0
6.381775 8.929451 13.314471 17.255066 0.950280 0.689402 -0.005549 -0.002663 -345940.000000 1 0 0
16.666075 9.392351 2.833371 19.339139 0.513195 1.423757 0.006207 0.003255 -1048030.000000 1 0 0
2.662175 14.703651 -0.667629 14.957616 1.391681 1.615446 0.000323 -0.003873 1916280.000000 1 0 0
9.149375 12.781751 8.258671 17.756404 0.949535 1.087038 0.001026 0.003089 747949.000000 1 0 0
7.209875 9.267551 10.517171 15.763270 0.909634 0.840360 -0.009753 0.004068 1492440.000000 1 0 0
4.273875 15.671051 -5.341029 17.098960 1.304547 1.888472 -0.008305 -0.001209 1330670.000000 1 0 0
0.181175 16.401451 -8.113729 18.299536 1.559751 2.030167 -0.014834 0.007071 464869.000000 1 0 0
-2.481825 15.721451 -1.886229 16.027519 -1.414226 1.688757 0.003555 0.004303 382808.000000 1 0 0
13.195275 10.451951 7.587371 18.464202 0.669904 1.147330 0.010408 0.004792 1626990.000000 1 0 0
-0.945025 15.943351 7.277471 17.551214 -1.511592 1.143247 0.006667 -0.002624 1328590.000000 1 0 0
13.298575 13.282851 6.628171 19.930351 0.784807 1.231772 0.018923 0.000933 -214127.000000 1 0 0
5.453775 17.447351 4.720271 18.879478 1.267834 1.318094 0.000319 -0.005348 2436850.000000 1 0 0
10.744675 9.541051 -1.950529 14.501181 0.726134 1.705714 0.009033 -0.000355 -479303.000000 1 0 0
3.246975 12.879051 4.778971 14.115643 1.323830 1.225412 -0.006314 0.005564 1750250.000000 1 0 0
-0.152425 18.064351 3.750871 18.450286 -1.562359 1.366073 0.008201 0.000129 1654570.000000 1 0 0
-7.692125 15.966351 -5.678029 18.610029 -1.121838 1.880846 0.013606 -0.006380 157936.000000 1 0 0
-12.339025 -9.129349 8.297871 17.448531 0.636990 1.075193 -0.006665 -0.000129 271059.000000 1 0 0
-13.145925 -11.721649 6.833271 18.891956 0.728186 1.200703 -0.010956 0.001166 -249355.000000 1 0 0
-6.471825 -12.253349 12.181271 18.450269 1.084869 0.849682 -0.001576 -0.007347 -415913.000000 1 0 0
-1.630725 -10.791549 14.307871 17.995332 1.420820 0.651644 -0.000387 -0.001755 757129.000000 1 0 0
-8.759625 2.773351 10.913771 14.266496 -0.306621 0.699766 -0.005627 -0.003105 2484430.000000 1 0 0
0.654775 9.941851 15.291171 18.250728 1.505031 0.577484 -0.001234 -0.001224 -896541.000000 1 0 0
1.187775 -6.894249 16.606571 18.019980 -1.400186 0.398705 0.002189 -0.007338 629508.000000 1 0 0
6.087675 2.274951 17.769171 18.920323 0.357629 0.350626 0.008713 -0.008452 1251340.000000 1 0 0
-5.006925 -2.956649 17.649471 18.582651 0.533414 0.318257 0.010929 -0.006115 282026.000000 1 0 0
-4.161625 8.068251 13.049971 15.897093 -1.094587 0.607806 -0.008950 -0.004342 430537.000000 1 0 0
0.162675 -4.982449 18.570471 19.227940 -1.538158 0.262260 0.007389 -0.013212 -461608.000000 1 0 0
-11.560825 2.003451 11.338471 16.316477 -0.171592 0.802503 -0.006425 -0.003773 1121870.000000 1 0 0
-3.293525 -6.157449 14.409371 16.012229 1.079632 0.451261 0.010916 -0.006486 1232300.000000 1 0 0
-7.325825 -2.252349 14.689471 16.568686 0.298280 0.480897 0.004238 0.000861 1867830.000000 1 0 0
-6.023025 -1.072949 10.554771 12.199641 0.176292 0.525306 -0.003511 0.001730 622713.000000 1 0 0
-3.821525 2.393451 11.173371 12.048937 -0.559539 0.383575 -0.005672 0.002094 2440180.000000 1 0 0
-6.297925 6.148451 13.590871 16.191946 -0.773389 0.574692 -0.014532 -0.006298 891424.000000 1 0 0
-8.805825 5.349451 12.533771 16.225123 -0.545909 0.688041 -0.015113 -0.008263 -150310.000000 1 0 0
-12.062625 -2.105949 15.919371 20.084032 0.172843 0.655672 -0.001928 0.007132 565296.000000 1 0 0
-3.352325 -7.708349 16.936171 18.907422 1.160574 0.460699 0.011387 -0.010193 -1918880.000000 1 0 0
-0.378625 -5.442349 14.398171 15.397073 1.501338 0.362188 0.003844 -0.000996 1758850.000000 1 0 0
-14.029725 -2.180649 13.806871 19.804497 0.154197 0.799370 -0.009583 0.005943 98625.700000 1 0 0
-6.391325 1.435351 12.168971 13.820027 -0.220913 0.493814 -0.006949 0.000894 1996890.000000 1 0 0
2.256875 -2.321949 14.504371 14.861417 -0.799609 0.219644 -0.000899 0.000564 1211360.000000 1 0 0
-12.492625 3.943151 9.269371 16.047909 -0.305741 0.955003 -0.009952 -0.005556 45915.000000 1 0 0
-8.929025 -2.990649 12.579171 15.713275 0.323192 0.642594 0.000635 0.004280 2025740.000000 1 0 0
-7.006625 -7.261649 15.187271 18.233967 0.803270 0.586449 0.016851 -0.008547 -631156.000000 1 0 0
-3.142625 6.171551 19.531171 20.722712 -1.099807 0.340761 0.001076 -0.005591 -159618.000000 1 0 0
0.757475 5.331251 16.209171 17.080200 1.429659 0.320736 0.003875 -0.004979 355940.000000 1 0 0
3.495375 1.423051 16.796971 17.215718 0.386633 0.221010 0.005446 -0.004515 747435.000000 1 0 0
-11.645025 11.368951 7.959671 18.116734 -0.773403 1.115916 -0.002912 -0.010232 -112488.000000 1 0 0
0.804875 -9.543249 15.310871 18.059463 -1.486656 0.558967 -0.006430 -0.001754 -1547660.000000 1 0 0
-2.427025 -3.679549 18.837271 19.346119 0.987703 0.229863 0.011092 -0.016356 2491310.000000 1 0 0
-12.741825 2.383851 13.942071 19.037285 -0.184951 0.749021 -0.008379 -0.006421 761151.000000 1 0 0
-5.261325 -0.547049 15.867971 16.726426 0.103603 0.321771 0.002805 0.003583 383971.000000 1 0 0
-4.368925 -6.011249 11.692271 13.853946 0.942315 0.566160 0.003785 -0.001163 28787.300000 1 0 0
2.522975 1.759751 14.048271 14.381101 0.609040 0.215561 -0.000607 -0.002285 289593.000000 1 0 0
0.161375 3.221451 14.369471 14.727033 1.520744 0.220808 0.005337 -0.003460 336546.000000 1 0 0
-12.836125 6.956251 12.291671 19.085092 -0.496625 0.871021 -0.008553 -0.006498 276909.000000 1 0 0
0.947775 1.261051 18.288371 18.356281 0.926288 0.086044 0.007185 -0.003157 1452810.000000 1 0 0
-1.856725 6.334251 12.560371 14.189189 -1.285659 0.483857 -0.001364 -0.000607 1863270.000000 1 0 0
-13.342525 -2.709149 10.963171 17.480091 0.200323 0.892868 -0.006564 0.005612 278381.000000 1 0 0
-2.515825 3.509751 13.558471 14.229542 -0.948877 0.308337 -0.001480 0.001876 -51802.200000 1 0 0
3.603675 5.907951 16.352771 17.756787 1.023078 0.400334 -0.000078 -0.007772 -815807.000000 1 0 0
-3.627325 12.200251 12.452971 17.806744 -1.281804 0.796322 0.001040 -0.012046 1157970.000000 1 0 0
3.817275 -1.604649 16.966671 17.464662 -0.397938 0.239377 0.013932 -0.008485 -278015.000000 1 0 0
-15.665125 0.417251 9.158871 18.150900 -0.026629 1.041882 -0.004890 -0.003621 28265.300000 1 0 0
-4.572025 4.597851 15.309871 16.626359 -0.788215 0.400620 -0.003356 -0.001332 -222819.000000 1 0 0
-7.932425 -8.209149 10.487471 15.501630 0.802540 0.827743 0.002803 0.000786 3139720.000000 1 0 0
-2.539625 -0.450249 14.828571 15.051211 0.175466 0.172214 0.004371 0.001386 2140560.000000 1 0 0
-1.883425 0.931251 17.350171 17.476927 -0.459194 0.120511 0.000242 -0.001960 803965.000000 1 0 0
-0.687525 -2.577649 14.405871 14.650805 1.310139 0.183111 0.001760 -0.000386 546728.000000 1 0 0
5.267875 -8.317949 16.464671 19.183956 -1.006241 0.538942 0.007686 -0.001467 -46334.100000 1 0 0
-4.387525 9.901951 10.683571 15.213077 -1.153698 0.792226 -0.004190 -0.007977 -790529.000000 1 0 0
-6.150925 2.088051 15.242971 16.569309 -0.327263 0.402838 -0.000780 0.000206 -657.428000 1 0 0
-4.933925 6.812351 17.329071 19.262618 -0.943972 0.451894 -0.004115 0.002250 497585.000000 1 0 0
-4.090525 9.114351 15.749371 18.650643 -1.148940 0.565275 -0.007831 0.002816 -465684.000000 1 0 0
-4.620425 -9.978549 18.291571 21.342477 1.137155 0.541280 0.020957 -0.006438 -915540.000000 1 0 0
-6.694425 -4.058249 11.109171 13.590379 0.544975 0.613863 0.003877 0.001330 630650.000000 1 0 0
-2.246625 -0.870149 19.709171 19.855879 0.369522 0.121637 0.003546 -0.001935 -915974.000000 1 0 0
-5.580325 -4.552149 15.335971 16.942671 0.684271 0.439020 0.011215 -0.002457 1577350.000000 1 0 0
-12.825825 -0.029849 9.850471 16.172027 0.002327 0.915864 -0.013268 -0.000046 667410.000000 1 0 0
-14.131325 8.828651 10.496671 19.693135 -0.558425 1.008640 -0.013712 -0.003338 -1817050.000000 1 0 0
-8.275225 10.408451 12.947571 18.559494 -0.899082 0.798719 -0.014486 -0.007559 -1853780.000000 1 0 0
-10.341325 7.078251 10.822871 16.558357 -0.600222 0.858439 -0.010820 -0.005273 -1495060.000000 1 0 0
-9.776925 -6.514549 14.844571 18.931162 0.587762 0.669497 0.010223 0.000568 -17343.700000 1 0 0
-0.664825 -13.489449 14.457771 19.784700 1.521551 0.751369 -0.006068 0.003130 2042290.000000 1 0 0
3.942975 -5.742749 16.852671 18.235645 -0.969120 0.391963 0.013571 -0.010455 2707600.000000 1 0 0
-7.183225 9.221351 10.469471 15.692096 -0.909006 0.840378 -0.009696 -0.007837 1533880.000000 1 0 0
-10.226525 -6.754649 11.948571 17.116526 0.583723 0.798095 0.002407 0.001368 3656100.000000 1 0 0
-10.775525 -3.976649 10.719371 15.710843 0.353539 0.819904 -0.007105 0.004930 332551.000000 1 0 0
-9.989325 -10.254149 9.796871 17.346840 0.798479 0.970649 -0.006221 -0.001971 281204.000000 1 0 0
-9.730625 -3.619049 15.273071 18.467520 0.356071 0.597004 0.006375 -0.001354 1364500.000000 1 0 0
5.750275 -3.445649 16.006671 17.353722 -0.539842 0.396607 0.012857 -0.005913 -238296.000000 1 0 0
-11.050225 0.586351 15.508671 19.051776 -0.053013 0.619743 -0.001764 -0.002844 585418.000000 1 0 0
-3.093325 3.233351 18.801671 19.326822 -0.807527 0.233650 0.002091 -0.004382 -535730.000000 1 0 0
0.626675 7.239951 14.070071 15.835925 1.484454 0.476751 0.000489 -0.001135 1629920.000000 1 0 0
-13.128225 -7.532549 12.198471 19.439452 0.520908 0.892444 -0.005995 0.004835 553793.000000 1 0 0
-1.482825 -1.104249 12.187071 12.326510 0.640095 0.150555 -0.000884 0.002456 -265950.000000 1 0 0
2.165975 -5.000549 13.070371 14.160916 -1.162045 0.395019 -0.001322 -0.001634 1011610.000000 1 0 0
-14.517925 -4.051549 8.667471 17.387072 0.272148 1.048928 -0.011450 -0.000737 -342576.000000 1 0 0
8.072275 0.796851 16.121671 18.047295 0.098396 0.466159 0.005506 -0.003765 1105040.000000 1 0 0
-1.094625 11.222251 13.482471 17.575954 -1.473563 0.696492 -0.001969 -0.002193 770145.000000 1 0 0
2.703875 -12.084749 -13.925129 18.634948 -1.350679 2.414724 0.000280 0.006817 -293341.000000 1 0 0
0.548675 -10.627449 -14.131829 17.690458 -1.519214 2.496159 -0.007457 0.009049 -3263800.000000 1 0 0
3.164275 -14.158749 -12.527929 19.168510 -1.350924 2.283086 -0.003244 0.003806 -1355620.000000 1 0 0
-5.095025 -10.304449 -16.221029 19.881215 1.111599 2.525076 -0.027207 0.006773 -724992.000000 1 0 0
-1.362525 -12.098949 -15.135629 19.424940 1.458654 2.464161 -0.012542 0.006489 -45898.500000 1 0 0
5.625575 -14.903549 -12.139029 20.027952 -1.209866 2.221950 -0.002753 0.005990 -270660.000000 1 0 0
1.700375 -11.832349 -16.244829 20.169041 -1.428068 2.507203 -0.008312 0.007553 -415813.000000 1 0 0
1.240175 -14.191549 -14.190729 20.107582 -1.483630 2.354264 -0.003780 0.012643 -787493.000000 1 0 0
-1.381225 -10.626549 -15.934929 19.202950 1.441542 2.549576 -0.006570 -0.001007 -44677.000000 1 0 0
-6.128725 -5.588549 -15.153029 17.274473 0.739330 2.640778 -0.006400 0.002272 43309.100000 1 0 0
-6.465025 -7.731149 -16.491229 19.326868 0.874350 2.593040 -0.018136 0.005080 -249192.000000 1 0 0
4.836475 -12.499149 -11.475829 17.644116 -1.201595 2.278914 -0.003810 0.002463 129554.000000 1 0 0
-1.865225 -15.635549 -13.301229 20.612427 1.452064 2.272214 -0.003423 0.008040 -540458.000000 1 0 0
15.918375 -7.336549 -8.875629 19.646791 -0.431869 2.039533 0.011214 0.005941 316392.000000 1 0 0
19.190675 -3.462949 -4.147729 19.936842 -0.178528 1.780371 -0.000936 -0.009369 -28249.800000 1 0 0
14.737775 -11.443049 -9.144429 20.778978 -0.660211 2.026485 0.005923 -0.002289 3567.030000 1 0 0
17.977775 -3.443049 -6.487529 19.420170 -0.189226 1.911406 0.036148 -0.001465 610182.000000 1 0 0
9.231475 -9.144649 -15.645129 20.337521 -0.780673 2.448501 0.010433 -0.005611 199080.000000 1 0 0
1.160875 1.896851 -15.142629 15.305061 1.021599 2.995772 0.008545 -0.003517 -64084.700000 1 0 0
4.694175 -4.284149 -13.971729 15.349215 -0.739761 2.714700 -0.000547 0.000610 908383.000000 1 0 0
13.126775 -5.540149 -8.902129 16.800397 -0.399369 2.129251 0.012754 0.005261 -839526.000000 1 0 0
2.890375 1.104851 -12.270829 12.654967 0.365113 2.894572 0.004266 -0.004180 -1786330.000000 1 0 0
0.346075 6.275651 -12.960229 14.403857 1.515707 2.690050 0.009929 -0.004850 -213144.000000 1 0 0
2.951975 -1.206949 -16.964629 17.261793 -0.388122 2.955771 0.007492 -0.002712 -394619.000000 1 0 0
12.906175 4.473351 -11.568629 17.900095 0.333648 2.273507 0.002669 0.002770 913647.000000 1 0 0
-3.901425 9.405151 -16.614529 19.486420 -1.177582 2.591777 -0.012414 0.004518 -961211.000000 1 0 0
-0.406625 -4.980949 -17.713829 18.405296 1.489341 2.866614 -0.002389 -0.006948 239486.000000 1 0 0
-0.613025 -8.498749 -17.499829 19.464032 1.498790 2.688472 -0.009153 -0.006261 -1662520.000000 1 0 0
5.418275 -10.064449 -12.250629 16.754961 -1.076935 2.390823 0.002807 0.000668 571857.000000 1 0 0
1.575175 -9.620049 -17.957329 20.432625 -1.408498 2.644255 -0.001630 -0.010285 -505184.000000 1 0 0
10.564475 9.176051 -14.941929 20.471182 0.715180 2.388973 0.013246 0.002327 -478662.000000 1 0 0
10.693275 -3.676049 -13.008429 17.235970 -0.331116 2.426032 0.004997 -0.003423 238328.000000 1 0 0
4.725875 7.464551 -12.339429 15.176130 1.006387 2.520222 -0.007869 0.001336 -69342.600000 1 0 0
9.537975 -5.948949 -12.727329 16.980808 -0.557673 2.418122 0.012493 -0.000756 -1448310.000000 1 0 0
-3.423925 0.487751 -15.884229 16.256380 -0.141502 2.927207 0.001241 0.000312 -785808.000000 1 0 0
-0.948525 10.690651 -12.785329 16.692943 -1.482303 2.443255 -0.007601 -0.001838 -1991260.000000 1 0 0
6.604975 -5.389449 -12.446529 15.086017 -0.684402 2.541065 -0.001321 0.002198 -63711.100000 1 0 0
17.922175 -5.655849 -8.406029 20.587722 -0.305687 1.991391 0.009683 -0.002816 585306.000000 1 0 0
12.729375 4.859951 -14.070829 19.586841 0.364710 2.372270 -0.004970 -0.000866 210689.000000 1 0 0
14.059475 0.833151 -11.697129 18.308080 0.059190 2.263871 0.007316 0.001885 -198698.000000 1 0 0
14.902975 6.182951 -11.236329 19.661705 0.393268 2.179108 0.007736 0.004614 -248481.000000 1 0 0
8.228775 1.624251 -11.811729 14.486817 0.194882 2.524118 -0.005846 0.008329 226711.000000 1 0 0
9.880275 1.410951 -9.156329 13.544333 0.141846 2.313153 -0.004783 0.002700 -318157.000000 1 0 0
-0.296525 -5.657449 -13.007829 14.187962 1.518431 2.730842 -0.006345 -0.001684 601051.000000 1 0 0
10.567475 -5.582649 -9.000129 14.961277 -0.486019 2.216251 0.006292 0.000009 -867111.000000 1 0 0
10.066875 8.602551 -11.330929 17.428018 0.707124 2.278586 0.017067 -0.000111 502147.000000 1 0 0
7.982675 8.444251 -14.700629 18.738649 0.813490 2.472699 0.015308 0.001144 283353.000000 1 0 0
8.476875 10.704851 -10.783429 17.399241 0.901031 2.239239 0.024013 -0.001890 -1776560.000000 1 0 0
6.679375 1.981351 -18.107929 19.401981 0.288369 2.774300 -0.003528 0.008776 -1499690.000000 1 0 0
11.931175 2.610951 -13.029129 17.858561 0.215438 2.388494 -0.004556 0.005812 -585292.000000 1 0 0
2.430575 -1.209049 -19.494029 19.682140 -0.461592 3.003225 0.005777 -0.003798 -530431.000000 1 0 0
10.074475 -2.224849 -15.871429 18.930062 -0.217352 2.565182 -0.003273 0.009345 -21407.200000 1 0 0
8.115375 -0.782649 -13.206929 15.520786 -0.096143 2.588528 -0.003833 0.003867 -3257.670000 1 0 0
0.255875 4.357951 -14.711329 15.345371 1.512149 2.853128 0.009570 -0.000678 -876346.000000 1 0 0
3.810975 -7.495149 -15.681529 17.793570 -1.100405 2.649409 0.008516 -0.011388 -2144640.000000 1 0 0
11.129975 -5.746049 -14.597929 19.235200 -0.476577 2.432445 0.000055 -0.003593 -1746370.000000 1 0 0
-6.105425 4.333551 -16.875629 18.461927 -0.617264 2.724023 -0.002869 0.010813 -18789.400000 1 0 0
11.326275 7.947451 -9.179129 16.604303 0.611854 2.156536 0.017286 0.001365 -1427440.000000 1 0 0
9.326275 6.414051 -13.717929 17.784854 0.602450 2.451719 0.014540 0.005456 -1249990.000000 1 0 0
11.979475 0.649351 -10.371829 15.858887 0.054152 2.283666 0.003488 0.002416 -2511870.000000 1 0 0
5.369475 -7.209649 -13.752229 16.429671 -0.930656 2.562640 0.003372 -0.003078 -551851.000000 1 0 0
8.571175 -10.187049 -10.796529 17.140771 -0.871328 2.252188 0.006170 -0.000018 -451840.000000 1 0 0
10.029075 4.651051 -15.917229 19.379700 0.434235 2.534544 0.017041 0.000884 -795833.000000 1 0 0
9.783575 -0.214249 -11.105929 14.802226 -0.021895 2.419294 -0.003420 0.004992 -1379470.000000 1 0 0
-1.947625 5.442751 -13.997229 15.143949 -1.227156 2.749938 0.000811 -0.000556 346665.000000 1 0 0
1.215275 -0.650049 -15.015429 15.078546 -0.491175 3.050063 0.004952 -0.005973 -1277060.000000 1 0 0
11.236175 -10.403849 -14.556429 21.127738 -0.746955 2.330867 0.006237 -0.001430 -10710.700000 1 0 0
9.269375 -7.751749 -10.846429 16.237485 -0.696472 2.302297 0.007942 -0.002367 -693188.000000 1 0 0
13.937575 -0.970449 -9.948929 17.151645 -0.069516 2.189595 -0.000986 0.001122 611355.000000 1 0 0
3.866075 11.013551 -12.356329 16.997756 1.233205 2.384650 -0.006821 -0.005917 -1258340.000000 1 0 0
-1.521925 2.921651 -17.095729 17.410234 -1.090559 2.951230 -0.001441 0.004568 1090770.000000 1 0 0
5.855175 -0.383649 -17.832229 18.772816 -0.065429 2.823700 0.001295 0.008361 93775.200000 1 0 0
6.297375 -6.605149 -16.069029 18.479681 -0.809247 2.625089 0.010136 -0.005469 -19893.300000 1 0 0
-2.002925 -5.326249 -19.687129 20.493015 1.211107 2.860220 0.002487 -0.016506 -661114.000000 1 0 0
-0.181725 -4.250849 -15.220629 15.804122 1.528072 2.869013 -0.003637 -0.006484 -228093.000000 1 0 0
0.402775 0.649951 -12.958029 12.980569 1.016018 3.082653 0.003904 -0.007961 346172.000000 1 0 0
15.555375 0.695951 -13.731229 20.760556 0.044710 2.293493 0.004114 0.000781 501716.000000 1 0 0
-0.312925 7.037051 -16.334929 17.788983 -1.526357 2.734462 0.003864 0.000118 -636600.000000 1 0 0
-4.934425 -0.658749 -18.252629 18.919328 0.132716 2.875330 -0.019923 0.008395 -121857.000000 1 0 0
10.166775 -8.368649 -13.250429 18.680777 -0.688691 2.359313 0.009801 -0.011624 -298259.000000 1 0 0
4.056575 8.576651 -17.403029 19.821205 1.128998 2.642465 0.008050 -0.005496 -533375.000000 1 0 0
8.987275 0.764151 -17.316829 19.525050 0.084822 2.661394 -0.003072 0.011176 -149625.000000 1 0 0
3.058375 4.786851 -18.576529 19.425628 1.002256 2.844835 0.007557 -0.000059 -128409.000000 1 0 0
1.311475 -7.874349 -15.917829 17.807375 -1.405761 2.676745 -0.004221 -0.006643 -104852.000000 1 0 0
4.273975 7.819951 -15.004529 17.451487 1.070608 2.605645 0.004547 0.000268 166228.000000 1 0 0
-5.796025 -0.459849 -15.189229 16.264011 0.079173 2.776013 -0.004571 -0.000152 329160.000000 1 0 0
2.704175 3.535451 -13.799129 14.499239 0.917844 2.829568 0.007710 -0.002033 1603810.000000 1 0 0
-2.573925 -10.151749 -18.153829 20.958163 1.322484 2.618331 -0.003447 0.001457 109346.000000 1 0 0
5.905075 -9.111849 -15.423229 18.861911 -0.995782 2.528186 -0.000078 -0.008232 -190173.000000 1 0 0
-2.030825 5.503051 -17.256729 18.226424 -1.217264 2.813930 -0.006230 0.001836 1253110.000000 1 0 0
9.951275 -12.163749 -11.907229 19.717169 -0.885110 2.219183 0.015151 0.002735 -184865.000000 1 0 0
10.810975 3.739051 -9.377929 14.791999 0.332979 2.257494 0.000430 0.000044 -601428.000000 1 0 0
4.838975 -0.286249 -11.056629 12.072558 -0.059086 2.728411 -0.005618 0.001157 383416.000000 1 0 0
6.318875 9.524651 -11.559829 16.256593 0.985043 2.361837 0.000832 -0.003591 -124529.000000 1 0 0
10.788475 -9.516849 -9.539029 17.261363 -0.722855 2.156305 0.013774 0.001465 -2526110.000000 1 0 0
3.060775 -2.376649 -14.588429 15.094338 -0.660238 2.881957 0.002968 -0.000063 -122984.000000 1 0 0
8.928575 -4.521749 -14.927229 17.971862 -0.468783 2.550961 0.001337 0.001298 216681.000000 1 0 0
-4.163825 -6.537149 -16.538429 18.264484 1.003651 2.703345 -0.019120 0.002878 -1542610.000000 1 0 0
5.786675 -7.669449 -11.306029 14.836857 -0.924415 2.437228 -0.003727 0.002681 511947.000000 1 0 0
5.236375 6.420151 -17.002529 18.913592 0.886606 2.688182 0.008885 -0.008885 -1950560.000000 1 0 0
8.546775 1.508051 -19.718029 21.543496 0.174649 2.726964 -0.012670 0.010175 340791.000000 1 0 0
12.989375 5.816351 -9.459129 17.088854 0.421004 2.157389 0.007033 0.005223 601300.000000 1 0 0
-1.784925 -0.775349 -17.383829 17.492416 0.409795 3.030111 0.000490 -0.000866 -330449.000000 1 0 0
-0.586725 -0.626649 -19.542529 19.561374 0.818289 3.097694 -0.000472 -0.005568 -356785.000000 1 0 0
2.629775 6.486051 -16.688829 18.097005 1.185600 2.744495 0.007976 0.001562 -167531.000000 1 0 0
7.534875 3.917151 -15.657829 17.812524 0.479417 2.644630 -0.000210 0.006193 -27336.400000 1 0 0
2.835675 -9.780249 -15.001529 18.131193 -1.288595 2.545237 0.003728 -0.000071 -118226.000000 1 0 0
8.841175 -10.578749 -13.512829 19.304736 -0.874634 2.346159 0.015076 -0.003778 -12259.900000 1 0 0
3.688575 0.122751 -14.889629 15.340199 0.033267 2.898624 -0.001856 0.001540 -2661110.000000 1 0 0
-1.424525 -2.876049 -18.963829 19.233505 1.110911 2.973938 0.003111 -0.002907 -95379.300000 1 0 0
9.143675 10.289351 -13.202129 19.072854 0.844285 2.335322 0.027091 -0.005465 132931.000000 1 0 0
4.710475 2.272251 -10.852829 12.047223 0.449455 2.692537 -0.007315 0.001415 63449.400000 1 0 0
-0.651925 7.180651 -18.958829 20.283588 -1.480255 2.778177 0.003539 0.003189 -205091.000000 1 0 0
0.579475 -1.874949 -17.562229 17.671534 -1.271047 3.030311 0.005342 -0.012332 -869143.000000 1 0 0
-4.483825 -2.111149 -13.936629 14.791594 0.440046 2.799931 0.000607 -0.009500 -3265690.000000 1 0 0
9.977575 6.112251 -10.413029 15.663422 0.549632 2.298021 0.007157 0.004475 -65093.500000 1 0 0
8.274475 5.924351 -17.270129 20.045504 0.621370 2.609104 0.018870 -0.004151 -563705.000000 1 0 0
11.288775 0.327151 -13.624229 17.696414 0.028972 2.449459 -0.005547 0.008235 248480.000000 1 0 0
6.538375 12.135951 -11.755129 18.116697 1.076623 2.276876 0.009311 -0.003916 -178797.000000 1 0 0
-1.023225 0.610051 -15.134729 15.181540 -0.537624 3.063043 0.002451 -0.002956 -1622320.000000 1 0 0
-4.336025 -3.205549 -18.907029 19.660936 0.636607 2.863769 -0.023658 0.013071 103092.000000 1 0 0
5.644275 -11.885349 -13.941729 19.170059 -1.127435 2.385126 0.005303 -0.001277 -126985.000000 1 0 0
1.999275 -4.748649 -14.087829 15.000456 -1.172302 2.790973 0.001355 -0.001614 -546152.000000 1 0 0
11.700975 2.006851 -15.508829 19.531104 0.169859 2.488253 0.006679 0.005219 545953.000000 1 0 0
9.512375 2.345251 -13.910729 17.014519 0.241727 2.527992 0.001711 0.005295 -618941.000000 1 0 0
-2.401225 -4.059749 -16.386129 17.051471 1.036671 2.861321 -0.010369 -0.004967 -1290560.000000 1 0 0
-3.100125 10.010751 -14.170529 17.624693 -1.270483 2.504814 -0.008339 -0.007045 -456809.000000 1 0 0
3.406275 5.876251 -13.830829 15.408597 1.045461 2.685101 0.001326 0.000768 19297.600000 1 0 0
-5.071925 -2.642349 -16.472229 17.436764 0.480287 2.807425 -0.012132 0.003530 -3493.040000 1 0 0
-4.506025 6.222251 -13.518229 15.548736 -0.944026 2.624804 -0.004957 0.002395 -1172770.000000 1 0 0
5.717475 -1.071449 -14.124129 15.275095 -0.185250 2.750914 -0.002022 0.005600 -1989850.000000 1 0 0
6.595575 -2.932149 -12.756929 14.657364 -0.418323 2.626694 -0.003205 0.002034 552749.000000 1 0 0
2.608075 -3.460449 -18.264829 18.771807 -0.924943 2.908655 0.005141 -0.012239 -358106.000000 1 0 0
7.312875 -12.030849 -12.100629 18.564608 -1.024629 2.280767 0.004553 0.002206 -860960.000000 1 0 0
-6.215425 -5.450349 -17.705329 19.540125 0.719909 2.704772 -0.009289 0.007224 87334.900000 1 0 0
0.400775 8.639951 -11.885529 14.699496 1.524443 2.512509 0.000243 -0.002602 39912.900000 1 0 0
0.107875 8.477051 -14.419029 16.726638 1.558072 2.610077 -0.004024 -0.002524 -695369.000000 1 0 0
7.560675 -2.376249 -15.201529 17.143420 -0.304515 2.661012 0.001522 0.000203 -188118.000000 1 0 0
14.183775 1.533251 -9.122029 16.933450 0.107681 2.139688 -0.004183 -0.000143 446136.000000 1 0 0
2.754275 10.706451 -14.775729 18.453625 1.319002 2.499251 -0.005158 0.003022 -1130770.000000 1 0 0
5.973975 1.009951 -15.698629 16.827220 0.167475 2.773265 0.001902 0.005914 149397.000000 1 0 0
16.519075 -5.417749 -10.554729 20.337997 -0.316915 2.116437 0.017880 -0.002110 357987.000000 1 0 0
4.782175 -4.248849 -11.281729 12.969168 -0.726412 2.625772 -0.009632 0.004725 -453367.000000 1 0 0
8.517275 -3.748449 -17.314029 19.656308 -0.414590 2.648426 -0.006384 -0.003416 41533.600000 1 0 0
13.211075 -9.515649 -9.013029 18.609534 -0.624206 2.076386 0.014622 0.003550 -240562.000000 1 0 0
2.130975 -7.877149 -13.527829 15.798502 -1.306594 2.598806 -0.000810 -0.001785 292044.000000 1 0 0
-6.855325 -2.486349 -18.331529 19.728719 0.347934 2.762984 -0.023317 0.009631 -516848.000000 1 0 0
-1.670625 -6.417949 -15.773429 17.110877 1.316142 2.743588 -0.013977 -0.003561 -124920.000000 1 0 0
1.419675 -7.105549 -18.403729 19.778815 -1.373595 2.766509 0.007925 -0.015279 -342098.000000 1 0 0
5.214175 10.698551 -14.499229 18.758312 1.117302 2.454273 0.002659 -0.014899 -1416820.000000 1 0 0
5.171275 -3.346249 -17.586529 18.633987 -0.574322 2.804704 0.004592 -0.006291 229608.000000 1 0 0
3.933875 12.905051 -14.172829 19.567442 1.274912 2.380825 -0.012202 -0.004184 -335483.000000 1 0 0
8.670675 10.781651 -15.762529 20.973362 0.893496 2.421205 0.018686 -0.004753 156093.000000 1 0 0
2.257575 3.947651 -16.250829 16.875131 1.051312 2.868735 0.009481 -0.002084 428079.000000 1 0 0
16.502575 1.906451 -11.748029 20.346639 0.115015 2.186330 -0.003876 0.008533 373555.000000 1 0 0
9.882675 -3.494649 -10.541929 14.866475 -0.339890 2.359028 0.004784 0.002445 -314520.000000 1 0 0
14.490375 -2.153849 -12.223029 19.079110 -0.147560 2.266141 0.002524 0.008595 65513.200000 1 0 0
-2.880925 -8.629249 -16.146829 18.533314 1.248576 2.628504 -0.017273 0.006814 -690341.000000 1 0 0
13.946575 8.132151 -9.046129 18.505980 0.527895 2.081535 0.027389 0.005501 -118748.000000 1 0 0
-8.388225 0.342051 -16.589629 18.592878 -0.040755 2.673116 -0.011652 0.007848 -368182.000000 1 0 0
-3.714725 3.983451 -15.896429 16.803676 -0.820292 2.811490 -0.002245 0.005594 -995145.000000 1 0 0
14.902475 3.998751 -9.905829 18.335736 0.262153 2.141527 0.004403 0.007806 341649.000000 1 0 0
5.253875 1.246651 -13.157229 14.222166 0.232974 2.752151 -0.003948 0.005872 151511.000000 1 0 0
7.743675 -7.665049 -12.949129 16.923280 -0.780296 2.442096 0.010036 -0.001032 -3803740.000000 1 0 0
3.067775 -6.030749 -11.923629 13.709635 -1.100222 2.625444 -0.002639 0.000246 -515373.000000 1 0 0
-3.460625 3.923651 -18.543729 19.267611 -0.848021 2.866611 -0.003256 0.012812 -381617.000000 1 0 0
0.621575 5.225851 -17.753129 18.516735 1.452410 2.853408 0.007896 -0.002402 -2003980.000000 1 0 0
6.232475 7.236351 -10.198629 13.972135 0.859794 2.389010 -0.005759 0.000252 204707.000000 1 0 0
9.588175 3.913351 -11.823129 15.717308 0.387507 2.422246 0.003198 0.006906 -664843.000000 1 0 0
4.240375 1.675951 -17.518329 18.101973 0.376393 2.886968 0.007896 -0.002247 -1487000.000000 1 0 0
2.337875 8.051151 -13.272829 15.698875 1.288191 2.578229 -0.001325 -0.002611 -2006480.000000 1 0 0
14.266975 -3.489949 -10.017229 17.778391 -0.239906 2.169352 0.006918 0.002850 42304.400000 1 0 0
-1.440125 9.423051 -16.182829 18.781688 -1.419140 2.609265 -0.007816 0.003727 -768494.000000 1 0 0
-5.498825 2.084051 -15.752729 16.814542 -0.362272 2.784313 -0.006398 0.006612 432036.000000 1 0 0
4.360375 4.524151 -11.937729 13.490374 0.803830 2.657091 -0.000274 -0.001657 307246.000000 1 0 0
8.826475 3.364751 -17.885829 20.226989 0.364205 2.655694 -0.000418 0.011422 388344.000000 1 0 0
-4.318725 14.369951 -13.275329 20.034501 -1.278845 2.295112 -0.012923 -0.003039 -291142.000000 1 0 0
15.484175 -4.800449 -8.227429 18.179509 -0.300627 2.040437 0.009358 -0.003607 -56774.200000 1 0 0
1.055975 9.199151 -16.939229 19.304842 1.456506 2.641337 0.001096 0.001684 -203291.000000 1 0 0
0.419875 -3.107149 -12.868429 13.244891 -1.436478 2.902600 0.000360 -0.003764 -209502.000000 1 0 0
7.389275 3.816951 -13.024229 15.453188 0.476802 2.573295 -0.002761 0.006259 324482.000000 1 0 0
-3.145725 7.532751 -15.066429 17.135787 -1.175205 2.645056 -0.004135 0.002999 420540.000000 1 0 0
11.888575 -4.996649 -11.191629 17.075048 -0.397874 2.285558 0.008942 0.000268 -1729010.000000 1 0 0
0.390775 -4.386649 -20.141829 20.617678 -1.481948 2.926330 0.009721 -0.009115 -663793.000000 1 0 0
3.400175 -4.593349 -16.120529 17.103552 -0.933572 2.800905 0.009863 -0.011810 766701.000000 1 0 0
-5.905725 4.150951 -14.282829 16.003349 -0.612649 2.673632 -0.004396 0.004613 733644.000000 1 0 0
12.150775 -7.439249 -10.064429 17.443522 -0.549374 2.185813 0.008012 0.003001 135997.000000 1 0 0
-2.134925 -1.733449 -15.006229 15.256135 0.681984 2.960344 0.000139 -0.003891 156383.000000 1 0 0
6.859375 6.050251 -14.366529 17.030963 0.722804 2.574662 0.004366 0.003106 -311045.000000 1 0 0
4.202075 -5.518949 -18.583129 19.835546 -0.920045 2.784337 0.017097 -0.012242 225109.000000 1 0 0
7.414675 7.479451 -12.320529 16.208486 0.789747 2.434307 0.005450 -0.000851 -563302.000000 1 0 0
12.128175 -2.407149 -11.217029 16.694572 -0.195930 2.307563 0.005155 0.003182 108824.000000 1 0 0
7.410875 -0.691449 -10.812529 13.126688 -0.093033 2.538712 -0.006289 0.004942 -2140330.000000 1 0 0
5.264575 4.123551 -14.453229 15.925302 0.664452 2.708242 -0.001591 0.002361 209163.000000 1 0 0
14.522775 3.048151 -13.157229 19.832168 0.206885 2.296188 -0.007899 0.002797 -415473.000000 1 0 0
-6.818325 6.614051 -15.705429 18.354720 -0.770192 2.597624 -0.008544 0.007189 166664.000000 1 0 0
-11.592325 3.637651 -16.318229 20.344510 -0.304067 2.501591 0.009331 0.004977 -100586.000000 1 0 0
-5.313325 6.543151 -17.883429 19.770212 -0.888755 2.701153 -0.010593 0.013944 -198856.000000 1 0 0
-10.355825 1.511451 -15.489529 18.693665 -0.144929 2.547395 0.001324 0.004464 -1099280.000000 1 0 0
-7.897925 5.924251 -18.021529 20.548710 -0.643567 2.640410 -0.016337 0.016174 1243790.000000 1 0 0
-9.079625 3.799751 -15.689229 18.521058 -0.396346 2.581305 -0.001294 0.016694 -668189.000000 1 0 0
8.715675 13.755251 -11.988829 20.221324 1.006019 2.205427 0.025438 -0.004548 24859.200000 1 0 0
13.635875 9.055651 -11.532929 20.023745 0.586227 2.184578 0.020189 -0.003161 601595.000000 1 0 0
8.167375 16.005751 -9.111129 20.147028 1.098961 2.040062 0.028840 0.001455 93628.100000 1 0 0
6.995075 13.567051 -13.948829 20.677664 1.094752 2.311198 0.006102 -0.005094 -110922.000000 1 0 0
4.184975 15.965151 -12.344729 20.610493 1.314432 2.212990 0.015333 -0.012100 -120127.000000 1 0 0
10.914275 11.093751 -11.566929 19.390373 0.793553 2.209966 0.025898 -0.004038 584506.000000 1 0 0
15.575475 9.907551 -10.102729 21.043291 0.566541 2.071557 0.029995 0.011018 -316287.000000 1 0 0
13.209075 10.689551 -9.510529 19.472964 0.680361 2.081048 0.046206 0.001168 18240.500000 1 0 0
10.192475 12.086651 -8.544829 17.971861 0.870214 2.066279 0.021761 0.008010 165859.000000 1 0 0
5.038675 16.064651 -9.858129 19.510099 1.266864 2.100507 0.001615 -0.010819 -389413.000000 1 0 0
6.451875 14.786151 -11.694529 19.925335 1.159355 2.198043 0.004962 0.008043 83714.600000 1 0 0
10.774675 14.294551 -9.812329 20.413466 0.924893 2.072225 0.042107 0.009693 -132404.000000 1 0 0
8.169975 -18.812849 -1.476729 20.563377 -1.161095 1.642672 0.011048 0.016831 10427.700000 1 0 0
7.559375 -17.324349 -3.577829 19.237413 -1.159357 1.757868 0.022031 0.005892 -229778.000000 1 0 0
4.527475 -18.309949 5.534871 19.656730 -1.328390 1.285360 0.020079 0.004046 200847.000000 1 0 0
9.895075 -17.139849 -2.508329 19.949402 -1.047225 1.696865 0.017321 0.010814 230578.000000 1 0 0
-9.579325 -12.068949 -9.908629 18.319496 0.899898 2.142278 0.012136 -0.016184 224177.000000 1 0 0
-5.354125 -7.038449 -12.256429 15.113784 0.920484 2.516560 -0.001740 0.003551 398568.000000 1 0 0
-10.854025 -9.426449 -5.604629 15.429830 0.715122 1.942532 0.013517 -0.008375 -1419460.000000 1 0 0
-4.613225 -11.480049 -13.917729 18.621937 1.188699 2.414911 -0.013083 0.003261 -550708.000000 1 0 0
-2.975125 -15.447549 7.437371 17.400937 1.380531 1.129168 -0.003360 -0.004692 -110528.000000 1 0 0
-4.655425 -12.178049 -11.497929 17.383332 1.205658 2.293526 -0.013648 0.003358 -126947.000000 1 0 0
-14.310025 -12.759949 -4.015129 19.588629 0.728199 1.777232 -0.008697 -0.003281 -380613.000000 1 0 0
-3.180425 -12.218349 -3.250729 13.037269 1.316148 1.822796 0.006992 -0.006457 616474.000000 1 0 0
-2.559325 -17.326649 -1.428829 17.572833 1.424146 1.652195 -0.006050 -0.000643 -938202.000000 1 0 0
-5.784225 -12.217149 3.590371 13.985948 1.128612 1.311177 0.004169 -0.003655 647062.000000 1 0 0
-8.600925 -10.723249 -11.969229 18.227079 0.894787 2.287195 -0.001879 -0.001614 1801570.000000 1 0 0
-9.744325 -12.126949 -7.333429 17.198661 0.893909 2.011300 0.008386 -0.009416 150659.000000 1 0 0
-10.822025 -15.301849 6.344071 19.786613 0.955230 1.244408 -0.018865 -0.001749 -1194620.000000 1 0 0
-9.509525 -15.258949 0.858171 18.000084 1.013485 1.523102 -0.006645 -0.003180 -2981010.000000 1 0 0
-14.923225 -7.840049 -8.312329 18.795314 0.483728 2.028908 0.001398 -0.001306 182069.000000 1 0 0
-2.428725 -16.521149 5.077571 17.453618 1.424835 1.275610 0.001002 -0.004226 -924784.000000 1 0 0
4.262675 -15.796849 5.975671 17.418940 -1.307230 1.220628 0.013144 -0.001221 -803889.000000 1 0 0
4.129075 -14.559049 -10.122929 18.206835 -1.294444 2.160357 -0.001888 0.005961 -510403.000000 1 0 0
-7.436725 -13.937549 -0.169929 15.798387 1.080651 1.581553 0.004676 -0.004560 1341630.000000 1 0 0
2.887675 -15.030949 9.683571 18.111864 -1.380994 1.006699 0.009688 0.000127 -15739.000000 1 0 0
2.138775 -17.500549 10.215771 20.376593 -1.449188 1.045640 0.017863 0.006054 -173734.000000 1 0 0
-8.119625 -17.055249 -5.836229 19.770467 1.126469 1.870460 -0.006322 -0.001381 -43831.100000 1 0 0
-6.329125 -9.123449 -7.615929 13.464676 0.964297 2.171985 0.008698 -0.006011 324489.000000 1 0 0
-6.185925 -13.001549 -4.715329 15.150586 1.126709 1.887284 0.004539 -0.008422 377798.000000 1 0 0
2.139975 -19.515549 -4.898629 20.234443 -1.461578 1.815319 0.006675 0.000738 247112.000000 1 0 0
-5.401525 -12.957549 8.118071 16.216585 1.175838 1.046501 -0.005536 -0.001188 1021040.000000 1 0 0
2.206575 -17.551049 3.488771 18.029970 -1.445729 1.376070 0.014647 -0.002028 1442850.000000 1 0 0
-17.705425 -9.830049 -2.411929 20.394346 0.506827 1.689338 0.000413 -0.004786 246075.000000 1 0 0
-3.636425 -15.253649 2.626971 15.899634 1.336768 1.404813 0.005190 -0.006413 -104378.000000 1 0 0
-10.046825 -10.358749 -14.100029 20.175559 0.800683 2.344608 0.000144 -0.004156 -285367.000000 1 0 0
6.053775 -14.528749 -5.738129 16.752876 -1.175998 1.920390 -0.002402 0.003841 179117.000000 1 0 0
-7.159325 -12.319649 -10.715529 17.828411 1.044367 2.215594 -0.003533 -0.009066 -799740.000000 1 0 0
-7.111225 -14.326649 3.962371 16.477948 1.110062 1.327951 -0.002938 -0.001100 1052320.000000 1 0 0
3.276275 -15.010449 -3.340429 15.722786 -1.355900 1.784886 0.005527 -0.000842 -261884.000000 1 0 0
-7.568125 -11.445049 7.751471 15.759155 0.986548 1.056559 -0.008135 -0.001736 -94308.600000 1 0 0
-12.784325 -12.256049 -0.971529 17.736786 0.764304 1.625599 -0.007216 0.000917 -506562.000000 1 0 0
-1.927325 -13.657349 4.019971 14.366556 1.430602 1.287195 -0.000038 -0.002731 -2822840.000000 1 0 0
-3.190225 -14.002549 5.265571 15.296246 1.346788 1.219368 -0.003223 -0.001525 408859.000000 1 0 0
-14.476225 -10.255649 -4.267929 18.247045 0.616373 1.806880 -0.002463 -0.002156 436220.000000 1 0 0
-6.015025 -8.593449 -10.239729 14.658783 0.960101 2.344150 -0.005346 -0.001096 -101340.000000 1 0 0
0.720175 -19.440049 2.383271 19.598830 -1.533767 1.448892 0.014131 -0.005614 234320.000000 1 0 0
6.413475 -13.995249 -8.312929 17.495840 -1.141094 2.065917 -0.001578 0.006232 -1592850.000000 1 0 0
-3.938125 -16.698749 -5.873829 18.134467 1.339195 1.900650 -0.012169 -0.004193 -82115.900000 1 0 0
-3.627925 -13.765549 -13.321829 19.496751 1.313105 2.323048 -0.009003 0.005256 -1628410.000000 1 0 0
-8.225825 -14.660549 -4.651529 17.442265 1.059482 1.840744 0.004552 -0.002693 -453775.000000 1 0 0
-4.490425 -14.357949 10.123571 18.132879 1.267685 0.978462 -0.009521 0.000195 -1208830.000000 1 0 0
-0.422225 -12.150449 -10.053629 15.776157 1.536061 2.261743 -0.007172 0.006061 794484.000000 1 0 0
2.360275 -17.260649 6.880371 18.730734 -1.434896 1.194659 0.019093 -0.005999 224817.000000 1 0 0
-2.977125 -19.177349 -3.167229 19.663807 1.416784 1.732570 -0.014127 -0.002144 -1269670.000000 1 0 0
0.686575 -15.354849 -3.241729 15.708328 -1.526112 1.778660 0.005823 -0.003545 -534154.000000 1 0 0
5.975775 -18.111249 0.518171 19.078672 -1.252095 1.543633 0.016102 0.004180 -341826.000000 1 0 0
-7.113925 -16.733149 3.847071 18.585106 1.168807 1.362291 -0.009632 0.000901 775610.000000 1 0 0
-5.171225 -13.519249 -9.438029 17.279700 1.205459 2.148607 -0.013425 -0.003308 -317978.000000 1 0 0
5.606275 -15.279049 -2.268529 16.432464 -1.219123 1.709290 0.003599 0.008668 -894998.000000 1 0 0
-8.945225 -10.286649 -0.651529 13.647589 0.855035 1.618554 0.005557 -0.006455 551729.000000 1 0 0
-7.650725 -18.206049 -2.769329 19.941489 1.172973 1.710119 -0.004206 0.001025 -492065.000000 1 0 0
7.825175 -16.121349 -1.237429 17.962808 -1.118903 1.639739 0.005217 0.010400 247675.000000 1 0 0
-7.900125 -10.020649 -9.532329 15.927670 0.903178 2.212394 0.006280 -0.006966 -1509920.000000 1 0 0
-9.207725 -15.082149 -7.058029 19.028116 1.022688 1.950803 0.006848 -0.005144 -312213.000000 1 0 0
-11.337225 -10.747949 -11.996729 19.697019 0.758722 2.225675 0.013331 0.004912 -1145070.000000 1 0 0
6.541275 -16.388149 2.340571 17.799943 -1.191026 1.438921 0.009838 0.002372 1016260.000000 1 0 0
-2.258825 -11.114449 -6.065629 12.861769 1.370294 2.061902 0.002285 -0.002033 337742.000000 1 0 0
-12.326325 -15.231449 -3.418729 19.890275 0.890430 1.743533 -0.008028 -0.006261 313566.000000 1 0 0
-0.454225 -19.624349 -2.857229 19.836460 1.547654 1.715338 0.002705 -0.004561 -439979.000000 1 0 0
-5.872125 -15.547649 -4.753829 17.286125 1.209673 1.849395 -0.009159 -0.001665 -2597340.000000 1 0 0
2.009075 -15.943949 -1.166729 16.112329 -1.445448 1.643272 0.014005 -0.004075 798565.000000 1 0 0
-13.221725 -11.865549 5.211871 18.514018 0.731392 1.285430 -0.001039 -0.001702 -25450.800000 1 0 0
2.014275 -15.292349 -8.904129 17.810018 -1.439832 2.094338 0.002310 0.008390 -1366400.000000 1 0 0
-11.544125 -16.749149 0.354771 20.345188 0.967331 1.553358 -0.013662 0.004487 273222.000000 1 0 0
-8.049825 -16.310849 -1.089829 18.221723 1.112341 1.630641 -0.003150 -0.004132 248233.000000 1 0 0
-2.959525 -14.455949 -1.835029 14.869451 1.368860 1.694521 0.005434 -0.003742 581849.000000 1 0 0
-2.032225 -10.517549 -13.185329 16.988280 1.379926 2.459322 -0.009513 0.004954 -353999.000000 1 0 0
1.541575 -19.655349 4.728371 20.274779 -1.492526 1.335414 0.018940 -0.004782 194847.000000 1 0 0
-17.400925 -9.277549 2.658771 19.898095 0.489826 1.436776 -0.004484 -0.001033 -452390.000000 1 0 0
-2.714725 -15.520949 -8.045029 17.691582 1.397641 2.042874 -0.011219 -0.003217 -979654.000000 1 0 0
-10.444525 -12.157849 0.215271 16.029589 0.861056 1.557366 -0.001014 -0.000496 271812.000000 1 0 0
-6.851725 -11.393549 -6.526529 14.810627 1.029371 2.027136 0.008360 -0.009597 219517.000000 1 0 0
-2.133025 -13.520449 -6.665829 15.224507 1.414323 2.023986 -0.010209 -0.000380 189321.000000 1 0 0
-14.323925 -14.379749 -1.031529 20.322796 0.787343 1.621575 -0.005835 0.001184 18121.000000 1 0 0
-9.634825 -11.288349 -4.356029 15.467115 0.864263 1.856290 0.015737 -0.010446 79978.600000 1 0 0
9.433175 -15.260249 -5.272129 18.699072 -1.017136 1.856618 0.011183 0.012181 352306.000000 1 0 0
-5.407525 -10.937549 -9.267229 15.321646 1.111639 2.220368 -0.004353 -0.003105 102605.000000 1 0 0
-10.317725 -15.906649 -4.908929 19.585058 0.995376 1.824144 0.001998 -0.007034 -1949460.000000 1 0 0
2.256975 -17.395149 -3.313829 17.851235 -1.441770 1.757515 0.013299 0.000483 660166.000000 1 0 0
-0.273825 -14.475249 -8.198629 16.638068 1.551882 2.086059 0.000431 0.000625 -560989.000000 1 0 0
-0.775625 -18.281849 -7.079429 19.620038 1.528396 1.939950 -0.010217 -0.001381 -131819.000000 1 0 0
-1.878125 -9.906749 -10.527829 14.577592 1.383439 2.377763 -0.005710 0.006302 487194.000000 1 0 0
-5.046125 -17.252549 2.147371 18.103177 1.286247 1.451898 -0.004318 -0.003074 299173.000000 1 0 0
0.196975 -12.791849 -2.733429 13.082118 -1.555399 1.781291 0.003410 -0.004263 -2284630.000000 1 0 0
2.720675 -15.050849 3.050871 15.596087 -1.391962 1.373909 0.011330 -0.000444 -556452.000000 1 0 0
-9.374225 -13.231549 6.830371 17.595566 0.954405 1.172133 -0.015165 -0.000151 -525847.000000 1 0 0
-1.253125 -17.784049 -4.534729 18.395828 1.500449 1.819872 -0.002647 -0.004337 -167191.000000 1 0 0
-10.061025 -17.539349 -2.196329 20.339047 1.049995 1.678993 0.002416 0.000591 208369.000000 1 0 0
1.400075 -16.311349 1.346371 16.426595 -1.485172 1.488741 0.009832 -0.002131 159941.000000 1 0 0
-0.453125 -18.091449 4.247571 18.588913 1.545755 1.340259 0.016064 -0.004284 469920.000000 1 0 0
-17.404925 -9.210749 0.094571 19.692086 0.486737 1.565994 -0.009965 -0.002929 669936.000000 1 0 0
-14.926425 -7.004149 -10.692029 19.651355 0.438742 2.146096 0.011077 -0.010604 84539.700000 1 0 0
2.725675 -12.654949 -8.975329 15.752255 -1.358653 2.177035 -0.002100 0.004489 477261.000000 1 0 0
-11.805825 -14.642049 1.853871 18.899840 0.892228 1.472549 -0.015933 0.001670 -65624.100000 1 0 0
-2.308025 -15.589149 10.468671 18.919345 1.423811 0.984438 -0.001429 -0.003219 -104268.000000 1 0 0
-6.988225 -15.947749 1.311871 17.461013 1.157803 1.495594 -0.000774 -0.001239 -670504.000000 1 0 0
-12.587425 -14.961849 -6.002429 20.453101 0.871374 1.868654 0.002637 -0.004733 179824.000000 1 0 0
0.963975 -13.735949 -5.179529 14.711664 -1.500732 1.930578 0.002767 -0.001359 345778.000000 1 0 0
5.872475 -16.355249 -7.611429 18.971398 -1.226075 1.983629 0.008623 0.002518 309591.000000 1 0 0
-6.597225 -12.867149 5.808871 15.583000 1.097026 1.188804 -0.003572 -0.003074 -28943.300000 1 0 0
-2.511425 -13.562849 0.513571 13.802966 1.387701 1.533580 0.010161 -0.006698 3158920.000000 1 0 0
-4.256325 -15.467549 0.169271 16.043379 1.302265 1.560245 0.003695 -0.004235 -352573.000000 1 0 0
-17.786625 -7.307949 -1.712729 19.305533 0.389840 1.659630 -0.008034 0.005202 635970.000000 1 0 0
1.147075 -12.678649 -12.001529 17.495731 -1.480569 2.326731 -0.001715 0.005211 -1441800.000000 1 0 0
1.108275 -17.301049 -5.659229 18.236815 -1.506825 1.886325 0.002744 0.002949 -1471850.000000 1 0 0
-12.885225 -6.396449 -9.107929 17.026390 0.460777 2.135221 0.006890 -0.001053 947851.000000 1 0 0
-11.577225 -13.373449 -8.808429 19.760306 0.857265 2.032824 0.017906 -0.019790 392032.000000 1 0 0
-4.315325 -9.813549 3.504071 11.278576 1.156515 1.254884 0.006456 -0.003412 -2995300.000000 1 0 0
-7.025625 -14.213249 9.640471 18.555714 1.111718 1.024482 -0.015089 -0.003936 -1744820.000000 1 0 0
-5.309825 -15.822449 -8.013229 18.513669 1.247018 2.018423 -0.014015 -0.007725 -899781.000000 1 0 0
-0.260425 -13.393349 2.111671 13.561296 1.551354 1.414447 0.004063 -0.006377 660470.000000 1 0 0
-10.999325 -13.346149 -4.713829 17.925541 0.881498 1.836893 0.008085 -0.009483 -968132.000000 1 0 0
-9.723325 -10.628849 6.620571 15.853941 0.829862 1.139996 -0.007058 0.000268 -607717.000000 1 0 0
-15.754325 -8.246049 -4.898329 18.444232 0.482204 1.839597 0.010705 -0.000397 -478265.000000 1 0 0
-14.530625 -7.364949 5.526571 17.202457 0.469118 1.243730 -0.001918 0.001035 954581.000000 1 0 0
-1.610825 -19.231749 0.043671 19.299140 1.487233 1.568533 0.004973 -0.002284 -79237.500000 1 0 0
-15.357625 -12.020149 -1.223629 19.540673 0.664092 1.633457 -0.012497 0.001230 665398.000000 1 0 0
-4.391325 -12.179649 -6.478629 14.477576 1.224757 2.034757 -0.000889 -0.001795 -1429.950000 1 0 0
-7.395925 -18.472649 2.125471 20.011399 1.189970 1.464383 -0.009208 0.003779 139192.000000 1 0 0
-2.619525 -11.654149 -8.567929 14.700017 1.349699 2.193030 -0.006583 0.003258 70224.900000 1 0 0
-1.593225 -20.357549 -5.003729 21.023926 1.492693 1.811104 -0.007744 0.004509 -46965.300000 1 0 0
-5.394725 -8.985849 -13.929329 17.432003 1.030114 2.496537 -0.014162 0.008193 339622.000000 1 0 0
-8.560425 -18.800449 -0.457029 20.662687 1.143518 1.592917 -0.010529 0.003816 -270585.000000 1 0 0
-17.064925 -7.256649 5.632271 19.380225 0.402072 1.275922 0.002428 -0.001344 -978821.000000 1 0 0
-3.518625 -14.662949 -4.329129 15.688344 1.335282 1.850370 -0.002288 -0.004624 -2135070.000000 1 0 0
-3.042325 -15.019949 -11.044129 18.889875 1.370948 2.195256 -0.011538 0.003504 -413380.000000 1 0 0
-0.188725 -16.572749 6.286271 17.725936 1.559409 1.208271 0.011250 -0.011226 -921475.000000 1 0 0
-11.112025 -11.521049 3.782271 16.447408 0.803468 1.338758 -0.011114 -0.001224 -531577.000000 1 0 0
-0.123525 -14.609349 -0.183529 14.611023 1.562341 1.583358 0.008002 -0.002020 1503770.000000 1 0 0
-7.362825 -9.459349 -2.533729 12.251949 0.909387 1.779102 0.013984 -0.009359 -759390.000000 1 0 0
-11.311525 -14.396549 -0.726229 18.323172 0.904829 1.610441 -0.004594 -0.002460 -194364.000000 1 0 0
0.277475 -14.519149 -10.668229 18.019261 -1.551688 2.204391 -0.003370 0.001908 20541.300000 1 0 0
-1.420825 -14.133049 -3.894829 14.728595 1.470601 1.838419 -0.001558 -0.002579 -3387280.000000 1 0 0
-11.414925 -7.982949 -7.439229 15.791457 0.610285 2.061325 0.013387 -0.010978 567568.000000 1 0 0
-0.233225 -17.180049 -0.341829 17.185032 1.557222 1.590689 0.011183 -0.004434 330757.000000 1 0 0
-12.766525 -9.453749 4.548971 16.524245 0.637400 1.291904 -0.008292 -0.001357 -865314.000000 1 0 0
3.978675 -17.003549 1.647871 17.540410 -1.340941 1.476710 0.013614 0.002397 -739763.000000 1 0 0
-3.625925 -17.821249 -8.127029 19.919659 1.370075 1.991048 -0.017326 -0.002605 37791.500000 1 0 0
-13.237225 -11.087749 2.586171 17.459971 0.697262 1.422129 -0.015639 -0.004808 -795530.000000 1 0 0
-8.585425 -12.242549 3.957171 15.467667 0.959213 1.312085 -0.007807 -0.002588 639998.000000 1 0 0
-8.269025 -9.438949 -5.866929 13.852487 0.851370 2.008134 0.016203 -0.009989 1044800.000000 1 0 0
3.732075 -17.585449 -5.524729 18.806887 -1.361674 1.868955 -0.000247 0.014564 107637.000000 1 0 0
-2.459125 -13.093749 11.364171 17.511080 1.385150 0.864566 -0.006179 -0.001816 250008.000000 1 0 0
0.033375 -16.777149 -9.440129 19.250711 -1.568807 2.083320 -0.001243 0.002696 -250667.000000 1 0 0
-7.095125 -10.843249 -14.554229 19.486981 0.991379 2.414138 -0.014858 0.008975 -814903.000000 1 0 0
-4.753125 -18.843949 -1.506829 19.492489 1.323714 1.648177 -0.002673 -0.000720 89219.000000 1 0 0
-2.488025 -17.005649 1.178871 17.227074 1.425521 1.502311 0.005649 -0.006369 976864.000000 1 0 0
3.983475 -14.522949 -7.496629 16.822115 -1.303092 2.032687 -0.004619 0.004554 158254.000000 1 0 0
-0.935425 -15.843249 -6.192629 17.036202 1.511822 1.942817 -0.005191 -0.001778 -179930.000000 1 0 0
-9.246525 -15.341649 8.407571 19.787664 1.028388 1.131956 -0.026068 0.002360 -816111.000000 1 0 0
-7.221125 -12.067749 -1.834329 14.182382 1.031567 1.700498 0.008566 -0.007297 1047400.000000 1 0 0
-7.224525 -15.041749 -9.389129 19.146898 1.123034 2.083314 -0.003804 -0.007579 -633809.000000 1 0 0
-4.966425 -13.210149 -0.701929 14.130326 1.211188 1.620492 0.011356 -0.005495 450849.000000 1 0 0
-6.466225 -13.680649 -7.263029 16.784630 1.129263 2.018303 -0.001451 -0.007823 94069.600000 1 0 0
5.624575 -15.536849 0.194171 16.524745 -1.223458 1.559046 0.004459 0.007496 171845.000000 1 0 0
-14.413025 -12.804249 1.042971 19.307301 0.726358 1.516750 -0.016854 -0.003462 806992.000000 1 0 0
0.772175 -15.466249 11.116471 19.062451 -1.520911 0.948182 0.008898 0.001067 -101188.000000 1 0 0
-9.377425 -10.659649 1.912971 14.325630 0.849304 1.436861 0.000802 -0.001204 -142638.000000 1 0 0
-9.469625 -8.743349 -3.596129 13.381035 0.745542 1.842889 0.014276 -0.009371 -938086.000000 1 0 0
-12.213425 -7.335649 -12.123029 18.706879 0.540877 2.275820 0.008886 -0.007149 -1165000.000000 1 0 0
-13.239325 -8.472249 -0.693729 15.733404 0.569264 1.614903 -0.000604 -0.002756 -440338.000000 1 0 0
-11.285125 -9.713849 0.376971 14.894798 0.710711 1.545485 0.004792 -0.004162 14280.200000 1 0 0
-15.564625 -12.124849 3.227571 19.992167 0.661804 1.408645 -0.016186 0.003239 -628321.000000 1 0 0
-10.510525 -12.537649 -2.289329 16.519830 0.873124 1.709824 0.007596 -0.005170 519000.000000 1 0 0
-3.561425 -8.844749 -12.048729 15.365064 1.187999 2.472144 -0.007382 0.006047 -653198.000000 1 0 0
-0.259625 -15.616549 3.779671 16.069534 1.554173 1.333365 0.008972 -0.000867 -639485.000000 1 0 0
-15.679725 -7.770749 1.334671 17.550489 0.460115 1.494675 -0.012303 -0.000702 296918.000000 1 0 0
-6.149825 -13.501449 -13.275429 19.908452 1.143383 2.300735 -0.005477 -0.001417 -469611.000000 1 0 0
-15.401125 -10.380249 1.223571 18.612935 0.593057 1.505011 -0.004703 -0.003085 192545.000000 1 0 0
-9.958325 -8.484249 -12.363729 18.000347 0.705640 2.327957 0.011248 -0.003067 195874.000000 1 0 0
-13.317625 -11.634849 -6.119829 18.713128 0.718061 1.903960 0.010348 -0.007461 -211743.000000 1 0 0
-12.176325 -11.237249 -3.788129 16.996722 0.745311 1.795558 0.000170 -0.005109 -1810100.000000 1 0 0
-11.448625 -10.740649 -8.810229 18.001463 0.753503 2.082218 0.003113 -0.024019 182340.000000 1 0 0
-13.312425 -8.476349 -5.850129 16.831315 0.566986 1.925779 0.010387 -0.003924 -883935.000000 1 0 0
-13.655425 -8.068949 -3.240329 16.188833 0.533699 1.772316 0.011452 -0.006273 43381.500000 1 0 0
-4.429125 -16.932249 -3.259429 17.802867 1.314950 1.754919 -0.006632 -0.005487 704359.000000 1 0 0
-15.563125 -8.768049 -1.709129 17.944656 0.513062 1.666185 -0.005572 -0.000027 -2492040.000000 1 0 0
-9.390925 -15.492049 3.725271 18.495153 1.025847 1.367990 -0.013465 -0.003682 -1121000.000000 1 0 0
4.817275 -17.434949 7.923971 19.747731 -1.301222 1.157904 0.023043 -0.008440 529613.000000 1 0 0
-8.226025 -15.567249 6.100071 18.633775 1.084673 1.237281 -0.016488 0.006552 -318094.000000 1 0 0
0.713475 -16.008049 8.534771 18.155137 -1.526256 1.081390 0.013938 -0.005654 424131.000000 1 0 0
-11.056525 -7.957849 -10.033529 16.918800 0.623853 2.205626 0.015008 -0.003462 906430.000000 1 0 0
-4.850725 -16.101349 5.836171 17.800108 1.278182 1.236745 -0.003616 -0.001678 -553722.000000 1 0 0
-1.481325 -13.287349 -12.142129 18.060433 1.459771 2.308115 -0.010617 0.006551 -326396.000000 1 0 0
-6.542525 -14.434249 -2.544529 16.050757 1.145231 1.729998 0.005467 -0.003934 236678.000000 1 0 0
-17.594225 -6.965749 -7.007729 20.178867 0.376976 1.925466 -0.012652 -0.001497 -139617.000000 1 0 0
-17.357025 -4.120849 -9.965429 20.434224 0.233101 2.080230 -0.008471 -0.007221 709863.000000 1 0 0
-15.250225 -5.264549 -8.685429 18.322705 0.332402 2.064653 -0.012847 -0.009220 -501292.000000 1 0 0
-16.150425 -5.433849 -5.454129 17.891631 0.324555 1.880569 -0.004381 0.000500 -644913.000000 1 0 0
-15.558025 -4.089549 -12.088729 20.122473 0.257043 2.215245 0.022052 -0.007257 12299.100000 1 0 0
-18.630825 -5.185349 -5.348829 20.065031 0.271451 1.840634 -0.015685 0.004974 -569507.000000 1 0 0
-17.356125 -4.330149 -7.408329 19.361524 0.244497 1.963439 -0.020728 -0.004576 842127.000000 1 0 0
12.247775 -7.900949 8.605671 16.926032 -0.572918 1.037438 0.006626 -0.006847 326982.000000 1 0 0
15.896975 -3.497749 1.642171 16.359853 -0.216575 1.470249 0.009456 -0.010763 735832.000000 1 0 0
12.120275 -2.299249 12.499971 17.562371 -0.187475 0.778814 0.003536 0.001272 -117813.000000 1 0 0
9.742075 -10.076849 5.073271 14.906005 -0.802288 1.223506 0.001679 -0.003770 174220.000000 1 0 0
16.881275 -2.002549 6.955471 18.367532 -0.118074 1.182423 0.015417 -0.011632 255961.000000 1 0 0
5.176475 -13.010649 9.146371 16.725100 -1.192132 0.992181 -0.001752 0.005668 -179109.000000 1 0 0
15.116375 -9.033049 -2.314729 17.761158 -0.538629 1.701493 0.012823 -0.000119 42695.200000 1 0 0
11.055275 -8.529349 6.363271 15.344709 -0.657131 1.143196 0.008349 -0.008897 -2398750.000000 1 0 0
19.876175 -3.387749 3.406471 20.448550 -0.168820 1.403429 -0.004398 -0.008293 -311109.000000 1 0 0
13.615275 -8.587249 6.647671 17.415742 -0.562693 1.179156 0.012013 -0.010017 -673239.000000 1 0 0
8.361675 -11.256549 8.716771 16.510893 -0.931901 1.014622 -0.003990 0.005506 -388297.000000 1 0 0
16.672075 0.090151 -0.736329 16.688570 0.005407 1.614932 0.006635 -0.006342 -933658.000000 1 0 0
12.310675 -12.389949 2.171271 17.600510 -0.788608 1.447117 0.003624 -0.001788 -1521630.000000 1 0 0
10.233875 -11.746849 3.440771 15.954922 -0.854122 1.353433 0.000990 0.000405 -510454.000000 1 0 0
16.322175 2.872051 2.184171 16.716240 0.174177 1.439760 0.006808 -0.002790 -187639.000000 1 0 0
18.134275 -3.177249 0.311771 18.413148 -0.173446 1.553864 -0.007793 -0.009896 446107.000000 1 0 0
13.592675 -11.923249 -0.361029 18.084662 -0.720064 1.590761 0.021864 0.008528 -450158.000000 1 0 0
16.871575 -7.651349 -1.040329 18.554661 -0.425765 1.626894 0.012506 -0.005447 232965.000000 1 0 0
10.176775 -5.691549 9.609571 15.109743 -0.509931 0.881512 0.003636 -0.006263 -458747.000000 1 0 0
11.277475 -13.147249 6.015771 18.336332 -0.861802 1.236527 -0.001992 -0.000237 -1367480.000000 1 0 0
13.010975 -1.806749 10.059271 16.545052 -0.137981 0.917266 0.007135 -0.002215 -76164.800000 1 0 0
15.518475 -1.899049 -1.619829 15.717929 -0.121768 1.674036 0.005701 -0.007735 -291973.000000 1 0 0
10.577775 -12.555349 8.999371 18.722040 -0.870678 1.069363 -0.004028 -0.003013 115542.000000 1 0 0
14.506175 1.239851 3.232071 14.913505 0.085263 1.352342 0.005295 -0.003951 944607.000000 1 0 0
15.053875 -5.874349 5.196371 16.974374 -0.372048 1.259671 0.015633 -0.010853 -367972.000000 1 0 0
14.245875 -3.368349 -3.162929 14.976476 -0.232180 1.783592 0.005319 -0.006415 1100480.000000 1 0 0
14.048775 0.523951 9.459671 16.944851 0.037278 0.978506 0.008418 0.000077 -356156.000000 1 0 0
15.248575 -3.436149 4.242171 16.196363 -0.221640 1.305784 0.010883 -0.007615 -571258.000000 1 0 0
18.321175 4.956951 -4.386029 19.480094 0.264232 1.797898 -0.019842 0.002841 503724.000000 1 0 0
18.187975 -5.665949 -5.109829 19.723482 -0.301993 1.832859 0.028048 -0.007605 759964.000000 1 0 0
17.423275 0.105551 5.880071 18.389042 0.006058 1.245321 0.027843 -0.004731 281165.000000 1 0 0
17.115975 -6.725049 3.749771 18.768155 -0.374380 1.369648 0.018480 -0.010667 973573.000000 1 0 0
9.742475 -6.788649 14.199671 18.510328 -0.608581 0.696454 -0.000841 -0.005746 -885411.000000 1 0 0
8.546875 -12.248349 5.082371 15.776616 -0.961550 1.242801 -0.005150 -0.003279 -1896730.000000 1 0 0
16.705475 -10.203149 -0.623529 19.584839 -0.548299 1.602639 0.010188 0.007615 -292374.000000 1 0 0
14.770975 -8.773449 0.155571 17.180783 -0.535971 1.561741 0.019741 -0.004701 -632742.000000 1 0 0
9.899875 -13.078149 1.431171 16.464924 -0.922844 1.483764 0.002915 -0.003186 -153361.000000 1 0 0
16.934875 -8.337549 8.621971 20.751942 -0.457493 1.142328 0.016588 -0.002228 592946.000000 1 0 0
19.044975 -0.162149 -1.831729 19.133546 -0.008514 1.666677 0.010535 -0.005526 238769.000000 1 0 0
13.397375 -1.292649 7.618371 15.466097 -0.096187 1.055738 0.006522 -0.005855 -384385.000000 1 0 0
12.751675 -9.812149 -3.194829 16.403975 -0.655852 1.766808 0.011029 0.002055 -2796980.000000 1 0 0
8.823175 -15.294449 1.310771 17.705555 -1.047545 1.496697 0.005112 0.003868 804452.000000 1 0 0
11.421575 -8.365249 11.012371 17.936055 -0.632147 0.909704 -0.002812 -0.004937 417171.000000 1 0 0
13.951275 -3.956549 -0.621429 14.514769 -0.276342 1.613623 0.008656 -0.008265 -1376400.000000 1 0 0
7.229775 -13.407049 10.646571 18.584081 -1.076243 0.960773 0.003477 0.008245 -455213.000000 1 0 0
15.411375 -6.749349 1.722071 16.912413 -0.412785 1.468797 0.016041 -0.007477 -1004290.000000 1 0 0
15.842075 -6.160349 -2.855629 17.235888 -0.370866 1.737243 0.011601 -0.004490 55662.300000 1 0 0
11.127775 -8.596749 3.673171 14.533535 -0.657777 1.315288 0.009944 -0.006813 232180.000000 1 0 0
10.743675 -14.575549 -0.545729 18.115490 -0.935601 1.600926 0.017892 0.008552 915887.000000 1 0 0
13.377075 -12.896649 4.426971 19.101512 -0.767115 1.336910 0.001633 0.002776 807218.000000 1 0 0
12.880875 -11.097849 6.460471 18.188372 -0.711176 1.207671 0.004194 -0.004879 -141159.000000 1 0 0
10.729475 -10.558149 1.249671 15.104893 -0.777350 1.487969 0.001625 0.000311 -58880.800000 1 0 0
13.949975 -7.604749 11.539371 19.636473 -0.499108 0.942645 0.004716 -0.010971 -35333.600000 1 0 0
15.315275 -1.762449 -5.064829 16.227025 -0.114574 1.888223 0.007011 -0.002654 179719.000000 1 0 0
12.891375 -11.254349 -7.178329 18.557379 -0.717704 1.967975 0.012752 0.000550 -428155.000000 1 0 0
17.708175 -5.375949 1.697071 18.583873 -0.294743 1.479349 0.006922 -0.009044 564271.000000 1 0 0
10.621575 -9.850449 9.069271 17.090959 -0.747749 1.011432 -0.006970 -0.002918 -1202870.000000 1 0 0
16.249075 1.759751 9.965771 19.142773 0.107878 1.023240 0.013351 0.004224 -547394.000000 1 0 0
18.139675 3.914451 0.415671 18.561883 0.212536 1.548401 -0.002581 0.002433 741876.000000 1 0 0
13.202275 -4.116449 5.603371 14.921226 -0.302246 1.185828 0.011617 -0.012883 -1645300.000000 1 0 0
12.151075 -6.240449 6.527571 15.139386 -0.474446 1.125013 0.011202 -0.010342 -299770.000000 1 0 0
16.533275 -10.100649 3.249571 19.645152 -0.548416 1.404619 0.011333 -0.002326 391655.000000 1 0 0
16.221275 -8.102249 -5.615929 18.981961 -0.463234 1.871148 0.014359 -0.000543 -1026780.000000 1 0 0
14.062875 -0.366049 5.281571 15.026424 -0.026024 1.211639 0.006927 -0.002986 -133311.000000 1 0 0
18.068175 -4.259949 5.079171 19.245885 -0.231542 1.303723 0.000312 -0.008698 -76606.400000 1 0 0
13.659275 -13.505549 6.938471 20.423467 -0.779739 1.224166 0.003155 0.001380 503963.000000 1 0 0
15.001475 -13.773049 -1.519429 20.421796 -0.742733 1.645267 0.024141 0.014727 -74074.400000 1 0 0
17.963775 -6.048449 7.907771 20.538105 -0.324780 1.175557 0.034379 -0.005930 -450330.000000 1 0 0
14.242375 3.219251 9.086171 17.197887 0.222298 1.014163 0.000744 -0.001820 -1126780.000000 1 0 0
18.834375 3.638851 2.890671 19.399250 0.190851 1.421230 0.020426 -0.002056 673410.000000 1 0 0
14.881475 -10.482249 7.972671 19.872074 -0.613661 1.157970 0.016107 -0.009258 -321148.000000 1 0 0
14.963475 -4.898349 10.121271 18.717359 -0.316359 0.999477 0.010383 -0.011653 147260.000000 1 0 0
17.788775 -7.937449 1.694271 19.552855 -0.419694 1.484037 0.014631 -0.004267 56202.300000 1 0 0
18.415975 -5.828249 -2.102029 19.430263 -0.306505 1.679192 0.006060 -0.004368 -107995.000000 1 0 0
14.138275 -12.879649 -5.616429 19.932898 -0.738847 1.856431 0.009920 0.002156 -1525560.000000 1 0 0
15.524975 -1.499549 9.122971 18.069369 -0.096291 1.041546 0.013477 -0.005918 443597.000000 1 0 0
13.008275 -10.071849 10.078671 19.293443 -0.658851 1.021147 -0.005498 -0.007364 -536455.000000 1 0 0
16.531875 2.100751 4.632071 17.296593 0.126395 1.299685 0.014127 -0.008357 -1444490.000000 1 0 0
14.900975 2.464451 -0.181129 15.104482 0.163905 1.582788 0.002883 -0.001348 -1374050.000000 1 0 0
14.978875 -9.687649 -7.202629 19.237855 -0.574090 1.954545 0.013656 0.002416 64962.600000 1 0 0
16.098375 0.018251 -3.324629 16.438101 0.001134 1.774453 0.002240 -0.000652 -78155.200000 1 0 0
12.306175 2.532951 13.517471 18.454804 0.202993 0.748863 0.015197 -0.000488 -368250.000000 1 0 0
17.716975 -3.203249 9.204571 20.220686 -0.178869 1.098193 0.024869 -0.011523 1374930.000000 1 0 0
7.833575 -18.318249 4.298671 20.381406 -1.166694 1.358289 0.013378 -0.003898 -265377.000000 1 0 0
6.763775 -11.268849 6.584471 14.700029 -1.030216 1.106356 -0.003410 0.000131 220733.000000 1 0 0
17.962075 2.188651 -1.637729 18.168888 0.121251 1.661058 0.005656 -0.002147 335349.000000 1 0 0
17.448775 -2.367949 3.313771 17.917812 -0.134885 1.384783 0.005155 -0.009870 -1395850.000000 1 0 0
12.624575 -13.501549 -2.206929 18.615645 -0.818952 1.689628 0.021291 0.014187 -383641.000000 1 0 0
15.076475 -8.209649 4.166271 17.665113 -0.498637 1.332706 0.019035 -0.007357 -594497.000000 1 0 0
11.739875 -3.178849 14.953671 19.275425 -0.264433 0.682831 -0.004804 0.003049 200719.000000 1 0 0
11.883275 -13.539249 -6.800429 19.255371 -0.850444 1.931754 0.010527 0.004432 124916.000000 1 0 0
10.783075 -12.064049 -1.395829 16.240822 -0.841407 1.656848 0.010261 0.001147 -1474400.000000 1 0 0
13.095975 -7.953549 1.974771 15.448728 -0.545790 1.442618 0.013692 -0.002746 -1307570.000000 1 0 0
8.770375 -7.937049 9.867471 15.403999 -0.735562 0.875545 -0.003563 0.000926 -1915690.000000 1 0 0
15.636475 -3.889649 7.805571 17.904068 -0.243806 1.119685 0.019013 -0.013855 -879861.000000 1 0 0
10.277275 -17.539849 5.088071 20.956076 -1.040780 1.325548 -0.003666 -0.001700 808443.000000 1 0 0
15.358575 -6.461449 8.150271 18.548937 -0.398228 1.115874 0.020586 -0.006966 -416537.000000 1 0 0
16.532275 -5.038649 -0.585629 17.292977 -0.295833 1.604668 0.008812 -0.008974 -892815.000000 1 0 0
13.904275 -10.514649 3.305871 17.743040 -0.647468 1.383382 0.012458 -0.002865 657184.000000 1 0 0
14.915675 -9.959149 -4.594529 18.514094 -0.588715 1.821581 0.020945 -0.001089 412157.000000 1 0 0
13.598275 -6.497549 -0.198329 15.072178 -0.445748 1.583955 0.011261 -0.006013 130994.000000 1 0 0
17.809375 -0.624649 -5.114229 18.539670 -0.035060 1.850274 0.008989 -0.004029 -225128.000000 1 0 0
14.257275 0.304151 -1.741029 14.366404 0.021330 1.692282 0.003925 -0.002899 -2882890.000000 1 0 0
4.899775 -12.978449 11.805671 18.215976 -1.209808 0.865717 -0.001353 0.005746 61480.000000 1 0 0
12.153075 -7.491149 13.351671 19.546909 -0.552391 0.818855 0.001098 -0.007619 1943830.000000 1 0 0
12.124775 -5.856049 11.309871 17.584557 -0.449941 0.872164 0.001096 -0.007635 -496043.000000 1 0 0
13.289875 -4.723249 8.195871 16.312638 -0.341479 1.044396 0.012742 -0.008633 -1423620.000000 1 0 0
15.232375 -1.253849 2.891871 15.555073 -0.082130 1.383797 0.012090 -0.006025 295817.000000 1 0 0
15.176675 -10.435849 5.498571 19.221672 -0.602372 1.280683 0.016511 -0.005700 -454232.000000 1 0 0
13.624875 -7.989949 -5.826729 16.835298 -0.530377 1.924209 0.014055 -0.000034 -193293.000000 1 0 0
9.678875 -2.268349 13.535071 16.793575 -0.230206 0.633489 0.002380 0.000309 -496167.000000 1 0 0
10.067075 -9.228849 13.497971 19.201897 -0.741985 0.791260 0.003275 -0.002987 -178682.000000 1 0 0
20.229775 6.355651 -3.201329 21.444967 0.304408 1.720638 -0.008618 0.012741 106330.000000 1 0 0
11.331375 -3.619149 10.458771 15.839324 -0.309151 0.849573 0.003153 0.000600 746846.000000 1 0 0
10.231675 -14.119749 -3.061129 17.703812 -0.943727 1.744578 0.012144 0.010208 978289.000000 1 0 0
14.849275 -12.706549 2.284671 19.676815 -0.707795 1.454424 0.011456 0.009414 -354916.000000 1 0 0
11.488675 -0.696449 14.523271 18.531058 -0.060546 0.670154 0.011789 0.003782 266471.000000 1 0 0
18.893475 -1.937149 5.395871 19.744147 -0.102173 1.293985 0.011691 -0.011777 165657.000000 1 0 0
19.124975 -0.764649 7.765671 20.655629 -0.039960 1.185365 0.039141 -0.007336 591041.000000 1 0 0
18.939375 0.860151 0.468071 18.964674 0.045385 1.546113 0.008292 -0.008568 597322.000000 1 0 0
18.523675 0.634151 3.673271 18.895015 0.034221 1.375146 0.018290 -0.009165 205270.000000 1 0 0
16.596675 -3.832649 -4.209129 17.545813 -0.226950 1.813053 0.002335 -0.007145 -1589930.000000 1 0 0
11.207375 -8.507049 15.555371 20.974859 -0.649273 0.735314 0.003841 -0.006140 92983.100000 1 0 0
16.678275 -7.554649 6.188471 19.327047 -0.425316 1.244858 0.020411 -0.007364 567532.000000 1 0 0
18.884575 2.264151 5.737071 19.866241 0.119325 1.277839 0.027811 -0.009740 173997.000000 1 0 0
15.475175 1.598851 7.550271 17.292887 0.102952 1.118968 0.020714 -0.002902 -30833.400000 1 0 0
8.752475 -15.860049 3.718171 18.492478 -1.066529 1.368352 -0.001051 -0.005832 521465.000000 1 0 0
11.408475 -15.202749 1.856471 19.097731 -0.927025 1.473434 0.004204 0.005449 561801.000000 1 0 0
7.981375 -16.317049 5.999271 19.129550 -1.115872 1.251801 -0.000601 -0.000885 464534.000000 1 0 0
14.474675 -11.610449 -2.748529 18.758282 -0.676033 1.717849 0.013774 0.008660 412344.000000 1 0 0
13.600675 -5.014449 3.135371 14.830833 -0.353228 1.357780 0.010579 -0.007261 -1699340.000000 1 0 0
-1.049625 10.141751 -5.445029 11.558770 -1.467668 2.061304 -0.003328 0.002021 -1050770.000000 1 0 0
8.251575 -1.601649 -8.171129 11.722675 -0.191718 2.342052 -0.006202 0.002252 -3405180.000000 1 0 0
3.146175 -10.286149 7.574171 13.155658 -1.273967 0.957294 -0.006260 0.001727 865369.000000 1 0 0
-6.176725 1.244851 8.271571 10.398100 -0.198875 0.650983 -0.006143 0.000288 -656867.000000 1 0 0
7.091775 -6.324149 -7.339529 12.006532 -0.728243 2.228492 -0.009205 0.002834 43928.600000 1 0 0
-11.353925 -4.396449 -3.981429 12.809846 0.369439 1.886841 0.003915 -0.007212 129578.000000 1 0 0
2.159375 -3.213149 2.874771 4.821984 -0.979081 0.932062 0.000859 0.000493 1372680.000000 1 0 0
-3.464425 -4.374849 8.890771 10.497017 0.901016 0.560516 -0.003668 0.003096 -1811290.000000 1 0 0
-4.845725 -1.188049 -2.511129 5.585542 0.240432 2.037088 0.003744 -0.003172 -131636.000000 1 0 0
4.918975 -5.136249 -3.761629 8.045322 -0.807003 2.057319 -0.004383 -0.001518 172970.000000 1 0 0
2.471375 14.216051 -8.816029 16.909352 1.398673 2.119252 -0.012949 -0.001063 -92057.500000 1 0 0
5.573575 -5.649849 13.668171 15.805203 -0.792194 0.526066 0.006440 -0.002987 -842152.000000 1 0 0
-4.622825 -0.756749 9.905771 10.957531 0.162259 0.441727 -0.002590 0.002562 -2763740.000000 1 0 0
-0.905125 12.057251 -2.575929 12.362523 -1.495868 1.780700 -0.001283 0.000178 64539.600000 1 0 0
3.045675 9.408751 -10.573329 14.477431 1.257735 2.389604 -0.001859 -0.000727 -363374.000000 1 0 0
-10.485525 2.689151 1.246171 10.896363 -0.251052 1.456180 -0.008172 -0.000911 23039.300000 1 0 0
5.712875 -9.095749 -0.800929 10.770843 -1.009984 1.645226 -0.007610 -0.002887 747227.000000 1 0 0
-6.845625 5.314651 9.395871 12.782429 -0.660158 0.745039 -0.003981 -0.002442 -32479.400000 1 0 0
-5.397825 -1.987149 5.114671 7.697086 0.352742 0.843979 -0.004341 -0.001378 685595.000000 1 0 0
6.621475 -3.717149 -7.389929 10.595856 -0.511537 2.342609 -0.008091 0.000651 362112.000000 1 0 0
6.350975 4.762951 11.089371 13.637989 0.643473 0.621298 -0.001515 0.002219 258425.000000 1 0 0
3.698075 -9.976249 3.125271 11.089121 -1.215811 1.285093 -0.010021 0.000026 1029730.000000 1 0 0
-6.553925 6.664651 -5.796929 10.998904 -0.793775 2.125917 -0.003089 -0.000645 -620616.000000 1 0 0
-10.929625 8.386651 5.336671 14.774055 -0.654502 1.201221 -0.004311 -0.006226 113338.000000 1 0 0
-9.084625 -5.566349 5.119671 11.820562 0.549721 1.122850 -0.003353 0.000409 -1555600.000000 1 0 0
3.219575 9.797951 -8.051029 13.083752 1.253315 2.233621 -0.004441 -0.000996 614762.000000 1 0 0
-8.063225 -8.638149 6.068071 13.283625 0.819808 1.096392 0.002265 0.000172 -1017700.000000 1 0 0
-7.912025 -5.701449 -7.514529 12.311572 0.624422 2.227315 0.016166 -0.009163 1435090.000000 1 0 0
9.286275 -1.565149 6.854571 11.647735 -0.166975 0.941607 -0.000748 -0.003343 1378800.000000 1 0 0
-4.169825 -0.433149 -4.900829 6.449278 0.103506 2.433961 0.012681 -0.010461 -719100.000000 1 0 0
8.968075 1.260351 -4.459829 10.094797 0.139623 2.028395 -0.004227 0.001514 -2651030.000000 1 0 0
-1.784325 -10.689149 10.665971 15.205415 1.405393 0.793354 -0.005468 -0.004822 186707.000000 1 0 0
-12.826925 0.325151 -2.628829 13.097575 -0.025344 1.772880 -0.005606 -0.004617 -1037620.000000 1 0 0
-9.950425 -5.200049 -6.022029 12.740341 0.481560 2.063119 0.011654 -0.008539 -1665310.000000 1 0 0
-5.798125 8.445351 -0.096429 10.244585 -0.969157 1.580209 -0.006790 0.002356 729411.000000 1 0 0
6.272275 9.600351 0.319471 11.472151 0.992078 1.542945 0.005579 -0.003341 675953.000000 1 0 0
-0.447525 -12.067349 -0.026429 12.075673 1.533728 1.572985 0.006650 -0.005443 -652431.000000 1 0 0
6.162775 4.766351 2.361771 8.140999 0.658316 1.276456 -0.003532 0.001568 203852.000000 1 0 0
3.534275 -7.436349 -8.339929 11.719419 -1.127128 2.362617 -0.003818 -0.001230 865589.000000 1 0 0
-6.522825 -9.910049 4.527871 12.698737 0.988676 1.206212 0.004181 -0.002464 -2149280.000000 1 0 0
-0.139325 6.394451 -9.152529 11.165895 -1.549011 2.531659 0.004956 -0.002679 -1470360.000000 1 0 0
-17.199125 -2.780849 4.436871 17.978567 0.160298 1.321433 0.006431 -0.004790 503223.000000 1 0 0
-8.363125 0.920651 -9.185829 12.456682 -0.109643 2.400042 0.008061 -0.005014 -78076.800000 1 0 0
-10.070425 -5.932049 -11.604729 16.470349 0.532334 2.352632 0.008045 -0.001756 -594749.000000 1 0 0
2.187875 9.541151 6.356171 11.671387 1.345384 0.994891 -0.010104 0.009398 249396.000000 1 0 0
-11.245025 1.612751 -1.112229 11.414404 -0.142448 1.668392 -0.000765 -0.003762 -1862260.000000 1 0 0
-6.014125 -5.282649 -3.066829 8.572136 0.720737 1.936672 0.018577 -0.008637 510520.000000 1 0 0
-6.923525 -8.314249 1.316271 10.899289 0.876414 1.449734 0.009247 -0.006014 -364918.000000 1 0 0
-0.024125 11.050951 -7.772929 13.510830 -1.568613 2.183781 -0.003026 0.000572 680813.000000 1 0 0
-2.972325 9.275751 -4.211329 10.611766 -1.260694 1.978884 -0.000338 -0.000321 -879017.000000 1 0 0
3.536475 -4.873749 9.248371 11.035962 -0.943084 0.577150 -0.001488 0.001711 -923900.000000 1 0 0
-8.849525 1.643751 -0.365229 9.008297 -0.183652 1.611351 -0.004929 -0.002004 -2145660.000000 1 0 0
2.401475 3.594751 -10.513229 11.367379 0.981836 2.751462 0.001974 -0.003649 1694980.000000 1 0 0
-13.554025 0.498851 1.193071 13.615575 -0.036788 1.483058 -0.008594 -0.001792 -118467.000000 1 0 0
9.430575 -12.617549 -5.102729 16.558264 -0.928950 1.884063 0.010757 0.005553 -3040740.000000 1 0 0
-4.762825 9.523951 -8.155929 13.413028 -1.107077 2.224411 -0.001148 0.002414 -1447870.000000 1 0 0
-2.210125 7.088151 8.488771 11.277667 -1.268544 0.718633 -0.004194 0.003217 -1686080.000000 1 0 0
-10.843425 -1.168549 -4.263229 11.709846 0.107351 1.943433 0.002426 -0.006583 -3898060.000000 1 0 0
2.820175 -7.309449 9.462471 12.284941 -1.202568 0.691564 -0.005315 0.005337 -1027930.000000 1 0 0
-16.107825 -6.471649 3.461771 17.701077 0.382032 1.373959 0.000273 -0.003515 -4728.780000 1 0 0
-10.628525 0.063951 6.309271 12.360281 -0.006017 1.035092 -0.007153 -0.002793 -2475600.000000 1 0 0
-8.271925 9.838451 9.448771 15.953030 -0.871682 0.936902 -0.006494 -0.007743 1815450.000000 1 0 0
0.236075 -6.162649 -3.838329 7.264072 -1.532508 2.127510 0.001793 -0.001750 677013.000000 1 0 0
4.960075 1.507051 -2.986029 5.982467 0.294973 2.093391 -0.004510 -0.000105 -207534.000000 1 0 0
0.345175 5.281251 3.915271 6.583321 1.505531 0.933872 -0.007750 0.004580 -547474.000000 1 0 0
6.102375 -11.327149 -1.642729 12.970807 -1.076640 1.697786 -0.006483 -0.002174 -1215060.000000 1 0 0
6.210975 -13.552149 5.148871 15.771741 -1.141060 1.238238 0.002496 -0.003798 164364.000000 1 0 0
8.152875 -8.185349 -6.013929 13.024463 -0.787386 2.050753 -0.005390 0.000245 544114.000000 1 0 0
-13.230825 -1.275049 -4.623029 14.073126 0.096073 1.905512 -0.003868 -0.003022 -3591480.000000 1 0 0
-6.891225 -1.517649 -7.089929 10.002966 0.216769 2.358567 0.013941 -0.009773 -667840.000000 1 0 0
-5.605325 12.859851 -4.533229 14.742646 -1.159748 1.883351 -0.000705 0.002600 -159770.000000 1 0 0
-4.342425 6.872351 -6.715029 10.544073 -1.007273 2.261206 0.004569 -0.000641 -3144410.000000 1 0 0
-9.506925 -3.665149 -8.034829 12.975878 0.367965 2.238536 0.012285 -0.006435 294496.000000 1 0 0
-2.018625 -6.383249 9.155471 11.342106 1.264510 0.631385 0.000854 0.001147 -401982.000000 1 0 0
7.553775 -6.075349 9.866371 13.831654 -0.677345 0.776575 -0.000835 -0.000641 -141945.000000 1 0 0
9.827275 -5.053149 12.140071 16.416180 -0.474940 0.738441 0.006190 -0.000159 -436041.000000 1 0 0
-6.456925 2.804651 -8.969229 11.401974 -0.409775 2.476141 0.008504 -0.006702 -905221.000000 1 0 0
7.467175 5.428251 8.868171 12.801136 0.628584 0.805481 -0.008324 0.003995 -824269.000000 1 0 0
12.768475 3.294251 11.097471 17.234846 0.252493 0.871215 0.005578 0.006522 768271.000000 1 0 0
-7.511325 -7.215249 -3.992929 11.154519 0.765296 1.936884 0.019767 -0.012102 -676715.000000 1 0 0
2.255175 1.435451 -5.795229 6.382085 0.566837 2.709392 0.000480 -0.004745 -351948.000000 1 0 0
12.733475 7.050251 -7.215429 16.245302 0.505663 2.031027 0.006961 0.007799 -64511.500000 1 0 0
0.832275 -7.907449 0.996071 8.013275 -1.465930 1.446171 -0.001287 -0.002852 -203290.000000 1 0 0
-10.411025 -6.056349 -8.496329 14.739620 0.526873 2.185147 0.015340 -0.005029 -1505570.000000 1 0 0
-6.552825 0.207551 3.073771 7.240902 -0.031663 1.132385 -0.007564 -0.002502 864430.000000 1 0 0
10.730475 -7.983249 1.065571 13.416810 -0.639637 1.491292 0.001965 -0.003188 -672994.000000 1 0 0
6.373075 0.944851 10.552771 12.364053 0.147185 0.548123 -0.000061 0.001495 -157473.000000 1 0 0
-12.713925 5.364651 2.024871 13.947168 -0.399285 1.425100 -0.002437 0.001164 -159679.000000 1 0 0
2.068375 7.322051 3.704671 8.462576 1.295484 1.117678 -0.010715 0.003761 -171843.000000 1 0 0
10.093475 -9.493649 -1.001729 13.892842 -0.754784 1.642963 0.000033 -0.002628 765497.000000 1 0 0
6.876775 -11.608749 -9.129829 16.291312 -1.036000 2.165678 -0.004753 -0.000636 197816.000000 1 0 0
10.368875 3.400451 12.068171 16.270138 0.316896 0.735139 -0.003548 0.003325 -773939.000000 1 0 0
-10.983525 -3.038549 -1.832129 11.542413 0.269896 1.730201 0.000085 -0.004305 -1029240.000000 1 0 0
12.468975 1.003051 6.887571 14.280059 0.080271 1.067494 0.001623 0.000696 -634504.000000 1 0 0
-9.469925 9.235951 3.227771 13.616196 -0.772891 1.331464 -0.004682 -0.003053 122983.000000 1 0 0
-6.736325 7.670151 -8.689329 13.405735 -0.850127 2.275988 -0.002876 0.001762 -1859960.000000 1 0 0
8.603275 5.358551 12.197371 15.858949 0.557052 0.693340 0.000594 0.004013 -3874840.000000 1 0 0
1.327175 4.828951 -2.720229 5.699106 1.302582 2.068385 -0.000169 -0.002620 623199.000000 1 0 0
1.235975 0.524051 9.494771 9.589210 0.401022 0.140461 0.000850 0.001493 783746.000000 1 0 0
2.507575 12.588851 -3.993929 13.443161 1.374180 1.872448 -0.000026 -0.002399 300858.000000 1 0 0
2.231175 0.594051 13.037771 13.240639 0.260214 0.175276 0.000640 -0.003693 147425.000000 1 0 0
-12.167925 -1.722649 0.903771 12.322448 0.140638 1.497387 -0.003695 -0.003387 -69665.300000 1 0 0
3.191575 8.770051 -1.222029 9.412402 1.221777 1.700996 0.002229 -0.002249 307550.000000 1 0 0
3.668575 -2.753949 -5.832529 7.420314 -0.643940 2.475144 -0.005904 -0.001889 -1368740.000000 1 0 0
-7.726425 -7.197749 9.302571 14.072777 0.749989 0.848602 0.001344 0.000560 589849.000000 1 0 0
-7.070925 10.944951 -3.453429 13.480212 -0.997207 1.829870 -0.002013 0.003046 571685.000000 1 0 0
0.418775 0.516551 2.487071 2.574436 0.889558 0.261263 -0.003544 0.002059 -2061070.000000 1 0 0
-7.062925 4.577051 -1.973329 8.644556 -0.574995 1.801101 -0.002182 -0.002237 -878489.000000 1 0 0
-7.264525 -3.819249 -5.908829 10.113073 0.484027 2.194784 0.010426 -0.010857 -502675.000000 1 0 0
3.076975 -6.245849 13.412571 15.112097 -1.113051 0.478821 -0.000599 -0.000245 -1967220.000000 1 0 0
-5.592825 -0.597349 -11.774229 13.048716 0.106403 2.695938 0.012889 -0.010724 -773700.000000 1 0 0
11.831175 2.521351 -0.805629 12.123652 0.209970 1.637296 -0.002147 -0.001713 -1578460.000000 1 0 0
6.146675 -11.006249 10.765971 16.577854 -1.061472 0.863976 -0.002433 0.004187 481922.000000 1 0 0
-8.337825 6.412151 -10.323229 14.737845 -0.655578 2.346834 -0.004291 0.001761 619371.000000 1 0 0
2.942775 7.776551 11.130271 13.893078 1.209034 0.641602 -0.006304 0.004863 582121.000000 1 0 0
-6.265825 -10.195949 -0.458429 11.976147 1.019754 1.609084 0.014508 -0.008812 -198352.000000 1 0 0
11.326675 4.163851 6.040871 13.495308 0.352280 1.106686 -0.002763 0.000993 314448.000000 1 0 0
-7.775725 10.575651 1.500071 13.211984 -0.936804 1.457012 -0.010070 0.000547 38869.200000 1 0 0
4.320875 -2.560849 -3.439029 6.087267 -0.535012 2.171174 -0.005281 -0.001719 -5396210.000000 1 0 0
6.413475 6.478051 6.316271 11.090225 0.790407 0.964856 -0.006780 0.004948 -5414050.000000 1 0 0
-0.372125 10.375351 -10.145329 14.515994 -1.534945 2.344664 -0.005674 0.002330 136540.000000 1 0 0
14.027875 6.545551 -2.532129 15.685573 0.436581 1.732936 0.003869 0.001907 580976.000000 1 0 0
1.424475 9.460251 -6.244629 11.424573 1.421344 2.149090 -0.000887 -0.001872 -1165010.000000 1 0 0
0.741375 7.324551 7.292571 10.362446 1.469922 0.790134 -0.010582 0.008630 297722.000000 1 0 0
12.309875 6.296551 1.900271 13.956740 0.472808 1.434218 0.003022 -0.000513 -1298670.000000 1 0 0
-6.748925 6.617351 -3.161829 9.966669 -0.775555 1.893614 -0.000540 -0.003195 -369081.000000 1 0 0
1.137275 9.683951 11.179571 14.834255 1.453893 0.717226 -0.000948 0.001779 -1544090.000000 1 0 0
-3.678025 13.563551 -10.860529 17.760881 -1.305995 2.228734 -0.007987 0.001023 -380786.000000 1 0 0
-10.054125 -5.495649 -2.279929 11.682708 0.500234 1.767211 0.006538 -0.005270 -305004.000000 1 0 0
-4.184725 3.868751 -12.541829 13.775944 -0.746184 2.715083 0.003115 -0.004795 -142601.000000 1 0 0
-3.067225 8.317851 2.484971 9.207041 -1.217514 1.297508 -0.005709 0.003406 -2766690.000000 1 0 0
7.101475 8.854951 7.125171 13.401835 0.894851 1.010241 -0.006256 0.005963 85819.500000 1 0 0
-1.385625 -2.228449 -8.216529 8.625386 1.014509 2.832462 0.009834 -0.010510 -2026230.000000 1 0 0
0.865375 -1.300049 4.835171 5.081130 -0.983499 0.312416 -0.001521 0.001311 1284210.000000 1 0 0
2.872875 -8.776349 -6.203229 11.124646 -1.254447 2.162302 -0.005567 -0.001748 490686.000000 1 0 0
5.357675 3.867551 8.907071 11.090471 0.625254 0.638269 -0.005507 0.004573 451472.000000 1 0 0
6.138075 -7.344749 -2.809429 9.975679 -0.874657 1.856286 -0.005628 -0.003082 678156.000000 1 0 0
1.749275 2.286051 -8.267329 8.754126 0.917641 2.806538 0.003269 -0.004917 -179686.000000 1 0 0
-5.421925 11.010151 -0.641929 12.289540 -1.113209 1.623054 -0.003019 0.001555 495644.000000 1 0 0
-5.388625 3.205251 -3.513429 7.187148 -0.536601 2.081566 0.001715 -0.000634 -4199.380000 1 0 0
1.854775 13.587351 -6.350329 15.112345 1.435127 2.004471 -0.016997 -0.000950 506940.000000 1 0 0
-5.281625 -2.567149 2.588271 6.417551 0.452428 1.155664 -0.008481 -0.000400 582234.000000 1 0 0
10.267475 -3.333149 -1.848029 10.951992 -0.313899 1.740347 -0.004545 0.000806 137371.000000 1 0 0
2.370275 -3.257049 7.057071 8.125812 -0.941696 0.518677 -0.003204 0.002832 -1944720.000000 1 0 0
-3.035325 9.829251 -11.620229 15.519572 -1.271281 2.416966 -0.001563 0.001174 -2681230.000000 1 0 0
0.550775 -2.025549 9.289371 9.523582 -1.305302 0.222235 -0.001273 0.001763 -273607.000000 1 0 0
9.438275 2.684251 4.964971 10.997144 0.277085 1.102375 -0.006223 0.001027 308026.000000 1 0 0
13.387075 2.160251 -5.226129 14.532477 0.159989 1.938654 0.004805 0.000030 -1268470.000000 1 0 0
-6.423725 3.705851 7.494471 10.543466 -0.523262 0.780138 -0.003837 -0.004291 -266992.000000 1 0 0
10.552575 -0.019149 1.810871 10.706841 -0.001815 1.400847 -0.003890 0.002835 1614280.000000 1 0 0
15.424875 6.564851 -4.735229 17.419714 0.402380 1.846092 0.009873 0.002593 -1220760.000000 1 0 0
8.061875 -4.901349 -9.192129 13.172406 -0.546257 2.343163 -0.003280 0.005030 -124876.000000 1 0 0
4.480375 5.684851 -2.198329 7.564651 0.903338 1.865656 -0.000546 -0.003590 -243829.000000 1 0 0
-1.611725 -10.484849 1.434471 10.704551 1.418271 1.436386 0.006496 -0.004516 -932489.000000 1 0 0
-3.038925 12.190751 -12.919629 18.021273 -1.326494 2.370156 -0.009587 -0.001222 -616524.000000 1 0 0
8.238975 4.219451 -9.668929 13.385539 0.473307 2.377978 -0.008270 0.004017 -1007880.000000 1 0 0
4.022675 7.613551 -8.876329 12.366782 1.084721 2.371370 0.000682 -0.002357 -1434770.000000 1 0 0
-1.738425 -5.115649 -2.535329 5.968239 1.243215 2.009541 0.008660 -0.005788 792617.000000 1 0 0
-3.163425 -9.180449 6.990371 11.964664 1.238956 0.946839 0.004949 -0.001428 -792421.000000 1 0 0
1.032475 7.204451 -1.395829 7.410699 1.428455 1.760281 0.000805 -0.002395 1604250.000000 1 0 0
0.336475 -0.657449 -2.273629 2.390573 -1.097762 2.827512 0.002201 -0.001568 -1431410.000000 1 0 0
4.141475 -6.634649 7.325371 10.715943 -1.012759 0.818119 -0.003944 0.002937 -185351.000000 1 0 0
-13.791325 3.919351 6.097571 15.580191 -0.276889 1.168680 -0.011087 -0.002077 -960636.000000 1 0 0
4.341375 6.214851 12.628771 14.729487 0.961045 0.540638 -0.002526 0.001660 -1931100.000000 1 0 0
8.233675 10.209351 -7.206529 14.965237 0.892114 2.073220 0.013431 -0.002810 56380.500000 1 0 0
12.469475 5.236251 9.352871 16.443306 0.397565 0.965756 0.000916 0.002033 1608630.000000 1 0 0
7.501775 4.099351 0.331271 8.555177 0.500114 1.532065 -0.000151 0.001232 -1981610.000000 1 0 0
-10.793625 -7.527149 -0.996529 13.196719 0.608959 1.646382 0.006916 -0.004669 -1494940.000000 1 0 0
10.458375 6.847051 0.208771 12.502132 0.579669 1.554097 0.001189 -0.001577 -466995.000000 1 0 0
14.651275 3.629151 3.970771 15.607614 0.242815 1.313556 0.006855 -0.004682 -69872.800000 1 0 0
2.269875 5.496251 8.151471 10.089975 1.179146 0.630253 -0.010424 0.005644 -367564.000000 1 0 0
4.341675 -0.025749 11.622571 12.407053 -0.005930 0.357509 0.002969 -0.000357 -2083760.000000 1 0 0
-1.471925 -1.648649 -0.562029 2.280457 0.841969 1.819817 0.004705 -0.003277 -1224010.000000 1 0 0
2.975575 -5.149849 -9.436829 11.154762 -1.046861 2.579217 -0.006453 0.000339 128348.000000 1 0 0
-3.935525 -5.390349 -1.303429 6.800231 0.940149 1.763664 0.007310 -0.005690 483509.000000 1 0 0
-1.132225 -8.706749 8.562771 12.264194 1.441482 0.797926 -0.000079 0.000822 -481933.000000 1 0 0
3.960475 8.605951 -5.911129 11.166432 1.139491 2.128649 0.003192 -0.003586 583857.000000 1 0 0
-14.292825 -1.741249 -2.612429 14.633577 0.121229 1.750281 -0.006205 -0.003818 -321782.000000 1 0 0
8.853075 -10.559049 -6.693229 15.318934 -0.873055 2.022974 -0.003191 0.000871 -68687.900000 1 0 0
14.880575 6.116251 1.578071 16.165715 0.389972 1.473022 -0.004248 0.001045 -1016210.000000 1 0 0
-5.815825 0.348151 -8.474829 10.284345 -0.059791 2.539322 0.015104 -0.011775 -12842.300000 1 0 0
-8.096925 -4.665549 -12.823229 15.867033 0.522745 2.511831 0.005237 -0.004877 821618.000000 1 0 0
1.010875 -10.765749 12.005971 16.157554 -1.477174 0.733171 -0.002967 -0.000096 -168468.000000 1 0 0
0.316275 11.789451 3.374271 12.266903 1.543976 1.292133 -0.001859 0.003784 -1494040.000000 1 0 0
5.097575 -13.180949 -3.737529 14.618201 -1.201775 1.829344 -0.003393 0.003725 1747410.000000 1 0 0
-7.651225 1.494051 -6.975529 10.460948 -0.192843 2.300724 0.002749 -0.004400 870958.000000 1 0 0
1.538175 2.700651 4.071771 5.122384 1.053062 0.651957 -0.006302 0.002647 -1327080.000000 1 0 0
17.302975 5.429851 2.290971 18.279080 0.304078 1.445133 0.000453 0.002906 -675406.000000 1 0 0
2.377575 -8.426149 -3.747429 9.523448 -1.295780 1.975226 -0.009131 -0.001766 654869.000000 1 0 0
-0.283325 -9.440949 -0.580029 9.462992 1.540795 1.632129 0.007646 -0.002951 -958713.000000 1 0 0
0.648775 11.779651 -5.463929 13.001370 1.515776 2.004526 -0.005473 0.000722 -359524.000000 1 0 0
6.138675 -5.066749 7.696971 11.072427 -0.690027 0.802171 -0.002747 0.000532 -1021870.000000 1 0 0
-6.026025 -1.906449 -9.420629 11.344416 0.306406 2.550657 0.016234 -0.009841 -529551.000000 1 0 0
2.084675 -1.298449 11.196171 11.462377 -0.557055 0.215939 0.001087 0.000652 -329249.000000 1 0 0
17.951175 2.128551 -6.144429 19.092653 0.118023 1.898449 0.002065 0.007185 -292142.000000 1 0 0
-8.782725 4.761351 7.757071 12.648276 -0.496778 0.910576 -0.006400 -0.008763 -618707.000000 1 0 0
11.394975 -6.984749 -4.977329 14.262046 -0.549900 1.927291 0.006392 -0.001098 171029.000000 1 0 0
10.859275 0.404051 8.882471 14.035149 0.037191 0.885538 -0.001482 0.001578 -297930.000000 1 0 0
-8.377425 -7.338749 -1.549429 11.244519 0.719404 1.709030 0.015139 -0.008242 -1003980.000000 1 0 0
10.251875 -10.477349 -3.328429 15.031773 -0.796275 1.794073 0.006538 0.000530 875413.000000 1 0 0
7.638275 -13.954049 -3.810029 16.357721 -1.069961 1.805875 0.001747 0.005762 -1405420.000000 1 0 0
1.785075 -1.071849 -11.587729 11.773309 -0.540751 2.963804 0.002221 -0.005578 131066.000000 1 0 0
-11.862425 -2.519549 -6.278729 13.656050 0.209287 2.048540 0.004310 -0.004057 13305.000000 1 0 0
2.742275 -12.200249 -6.493629 14.090186 -1.349699 2.049762 -0.003726 0.000764 83322.700000 1 0 0
-5.280625 1.435451 1.051971 5.572447 -0.265420 1.380876 -0.008363 -0.001377 728179.000000 1 0 0
0.123175 6.791051 -3.963529 7.864039 1.552661 2.099028 0.003092 -0.002063 997392.000000 1 0 0
5.500775 -11.814649 3.447671 13.480760 -1.135054 1.312175 -0.006561 -0.004141 -2239330.000000 1 0 0
-4.380925 -9.284849 1.101471 10.325413 1.129933 1.463917 0.009242 -0.005108 -1310240.000000 1 0 0
7.039875 -6.157749 -4.815529 10.519839 -0.718658 2.046267 -0.004071 -0.002427 -51408.300000 1 0 0
-6.953925 -5.958849 2.206471 9.419844 0.708489 1.334363 0.002541 -0.003298 -500217.000000 1 0 0
-6.213825 -0.876749 7.049271 9.437825 0.140171 0.727383 -0.006538 0.000417 -2425190.000000 1 0 0
4.253575 -5.040149 3.133371 7.301644 -0.869832 1.127264 -0.003949 0.000181 -475407.000000 1 0 0
-2.501725 10.546651 -8.775629 13.946403 -1.337895 2.251371 -0.002926 0.000912 -514660.000000 1 0 0
-2.297125 -4.962949 2.749771 6.121183 1.137304 1.104902 -0.001444 0.001543 38742.400000 1 0 0
14.991975 4.998251 6.301171 17.013130 0.321806 1.191388 0.005908 -0.004380 549313.000000 1 0 0
6.853675 0.303551 -0.002129 6.860394 0.044261 1.571107 -0.000292 0.000501 3096220.000000 1 0 0
-9.687325 9.165751 0.597071 13.349598 -0.757740 1.526056 -0.009653 -0.000922 -1117840.000000 1 0 0
7.204075 10.569751 -2.577529 13.048448 0.972544 1.769639 0.004515 -0.003383 -969564.000000 1 0 0
1.611975 -4.260849 -5.401029 7.065720 -1.209116 2.440905 -0.001730 -0.003314 -304250.000000 1 0 0
0.936975 -8.083049 -7.929729 11.361963 -1.455393 2.343284 -0.007975 0.000883 826589.000000 1 0 0
-10.555725 0.136251 -10.393629 14.814500 -0.012907 2.348415 -0.001573 -0.004964 -3620750.000000 1 0 0
5.809675 -2.471549 0.424771 6.327820 -0.402226 1.503618 -0.003051 0.000666 32755.100000 1 0 0
-3.329625 5.350151 -1.034129 6.385918 -1.014110 1.733452 -0.002823 -0.001722 733370.000000 1 0 0
-0.389425 4.514351 -5.111529 6.830721 -1.484745 2.416314 0.003644 -0.003542 -1313460.000000 1 0 0
4.088575 -9.810649 9.975571 14.576601 -1.175935 0.817077 -0.006779 0.004927 -2210010.000000 1 0 0
7.140275 -13.573349 -0.786029 15.356990 -1.086526 1.622002 0.000949 0.005734 607638.000000 1 0 0
12.929875 -0.016149 0.422771 12.936795 -0.001249 1.538111 0.000771 -0.003605 672057.000000 1 0 0
9.263975 2.504451 -0.647129 9.618330 0.264032 1.638128 -0.001114 -0.000690 252783.000000 1 0 0
-0.747825 -5.835449 4.512971 7.414756 1.443339 0.916442 -0.002653 0.001524 1373300.000000 1 0 0
11.435075 -3.760449 3.262971 12.471924 -0.317712 1.306091 0.004361 -0.005933 -1994140.000000 1 0 0
1.869975 -8.268649 11.622271 14.385567 -1.348385 0.630196 -0.007345 0.002864 287017.000000 1 0 0
9.311475 -5.820949 -5.997729 12.512384 -0.558698 2.070703 -0.003327 -0.000551 -777109.000000 1 0 0
3.218875 6.364451 -0.161029 7.133956 1.102553 1.593370 -0.002685 -0.000217 -1357250.000000 1 0 0
6.466175 -1.497549 11.454171 13.238282 -0.227585 0.525185 0.002815 0.002229 450378.000000 1 0 0
-4.918725 -7.518449 -3.777929 9.746470 0.991460 1.968845 0.014804 -0.008617 283133.000000 1 0 0
-3.441825 -8.370849 -5.768129 10.732594 1.180700 2.138195 0.011876 -0.002822 64013.600000 1 0 0
9.761275 5.295351 2.144771 11.310317 0.497056 1.380011 -0.000410 -0.001280 -70130.100000 1 0 0
8.860775 -1.477849 0.222671 8.985930 -0.165264 1.546014 -0.003680 0.000671 1360860.000000 1 0 0
-3.882425 9.587051 9.226571 13.860534 -1.186017 0.842402 -0.001016 -0.000471 165521.000000 1 0 0
-14.438725 -3.508149 -5.950829 16.006132 0.238349 1.951727 -0.006405 -0.002010 383004.000000 1 0 0
10.613175 6.309851 -5.911229 13.689278 0.536388 2.017300 0.000026 -0.000918 -853857.000000 1 0 0
-1.752725 4.539051 2.711871 5.570393 -1.202292 1.062332 -0.006290 0.000637 341219.000000 1 0 0
6.993775 -3.739449 2.480171 8.309489 -0.491007 1.267702 -0.002468 -0.003199 -1474600.000000 1 0 0
8.393475 -11.441149 -1.693429 14.290486 -0.937860 1.689576 -0.000450 -0.002494 -455228.000000 1 0 0
4.582975 0.431351 1.672071 4.897504 0.093844 1.222377 -0.002247 0.001997 -67408.500000 1 0 0
-10.674025 2.320451 3.851871 11.582583 -0.214062 1.231783 -0.008917 -0.001887 106022.000000 1 0 0
-0.922525 -3.081149 4.383871 5.437174 1.279881 0.632964 -0.001691 0.002005 308328.000000 1 0 0
8.630975 -8.647949 -8.586029 14.933206 -0.786381 2.183354 -0.004314 0.001931 -769426.000000 1 0 0
12.040775 -4.799849 0.964571 12.998046 -0.379327 1.496519 0.002140 -0.003463 205303.000000 1 0 0
2.983175 4.780551 3.372671 6.567185 1.012900 1.031463 -0.009055 0.002143 -190609.000000 1 0 0
6.045775 7.477151 1.980071 9.817325 0.890854 1.367712 -0.002302 0.000538 -187179.000000 1 0 0
-1.544725 -1.203749 -10.442629 10.624673 0.661968 2.956210 0.013098 -0.011528 47413.200000 1 0 0
-0.939525 -8.797849 5.911571 10.641030 1.464409 0.981778 -0.001031 -0.000567 -424734.000000 1 0 0
-4.137725 -0.279849 2.274371 4.729889 0.067531 1.069171 -0.006493 0.000073 665489.000000 1 0 0
-8.642225 6.321051 -7.731129 13.206593 -0.631500 2.196169 -0.003908 0.002102 -1035710.000000 1 0 0
6.391275 11.140251 -9.407529 15.920276 1.049932 2.202989 -0.000506 -0.004734 -125923.000000 1 0 0
-11.129725 -5.768249 3.130871 12.920752 0.478160 1.326047 0.000185 -0.000852 1113930.000000 1 0 0
1.562975 -6.328649 3.059171 7.200917 -1.328673 1.132021 -0.004946 -0.000467 896975.000000 1 0 0
10.139775 2.078951 7.161671 12.586763 0.202227 0.965526 -0.005449 0.003251 -1710270.000000 1 0 0
-4.030425 -2.314649 -10.613229 11.586309 0.521303 2.728826 0.013099 -0.011649 -2786590.000000 1 0 0
-8.164325 11.791651 6.109571 15.589295 -0.965202 1.168092 -0.003119 -0.005501 -824880.000000 1 0 0
6.928875 6.039351 -2.956729 9.655326 0.716913 1.882024 0.002659 -0.002191 -3551800.000000 1 0 0
3.910475 -9.925449 -2.415529 10.938058 -1.195486 1.793469 -0.009052 -0.004322 -1613170.000000 1 0 0
8.524975 -12.940749 -7.376329 17.162412 -0.988281 2.015063 0.002111 0.004335 239869.000000 1 0 0
-1.127725 9.508851 3.697371 10.264530 -1.452750 1.202305 -0.005854 0.005269 -132413.000000 1 0 0
0.518375 -13.191449 4.668571 14.002806 -1.531520 1.230886 0.002308 -0.001883 -355715.000000 1 0 0
-11.333425 -6.968349 -4.929129 14.188049 0.551267 1.925608 0.008442 -0.008166 -50340.200000 1 0 0
3.507675 10.288751 -3.330129 11.368903 1.242230 1.868071 0.002486 -0.003011 -1054130.000000 1 0 0
11.587475 -7.992549 -7.505929 15.952723 -0.603819 2.060666 0.010373 0.003216 37780.800000 1 0 0
11.633475 -4.688749 -6.000829 13.904389 -0.383124 2.017038 0.005523 -0.001380 -315643.000000 1 0 0
1.260575 -10.365149 -2.570029 10.753158 -1.449774 1.812135 -0.006401 -0.001476 -788897.000000 1 0 0
2.353475 -12.064949 -3.954729 12.912850 -1.378148 1.882061 -0.003042 -0.000282 -2348270.000000 1 0 0
-7.543525 -5.781149 7.265571 11.963067 0.653897 0.918097 -0.001522 0.001679 -1621400.000000 1 0 0
-7.201925 -0.794149 9.520071 11.963702 0.109825 0.650557 -0.004568 0.000968 312223.000000 1 0 0
16.040675 2.667051 -7.743029 18.010300 0.164761 2.015203 -0.001244 0.001824 -357598.000000 1 0 0
-2.072025 6.299051 -5.400629 8.552083 -1.253003 2.254281 0.003997 -0.000576 34933.300000 1 0 0
7.767875 1.064051 8.381371 11.476910 0.136134 0.752063 -0.000063 0.000748 -619376.000000 1 0 0
7.885375 8.341951 -3.564129 12.019580 0.813527 1.871850 0.006028 -0.001027 -983242.000000 1 0 0
8.048175 0.587251 4.004371 9.008494 0.072838 1.110168 -0.004945 0.001432 425830.000000 1 0 0
-6.898325 5.876251 5.407771 10.552782 -0.705560 1.032761 -0.004317 -0.006530 -349060.000000 1 0 0
-6.164825 -2.124949 -4.627529 7.995905 0.331936 2.187976 0.011450 -0.009853 -314294.000000 1 0 0
-15.030025 -2.183249 3.249771 15.531557 0.144250 1.360002 0.001824 -0.003900 -1025830.000000 1 0 0
1.031175 1.355351 -10.581129 10.717303 0.920408 2.982012 0.005046 -0.008274 538285.000000 1 0 0
1.569175 -9.360049 9.331671 13.309880 -1.404695 0.793845 -0.006243 0.000047 -292935.000000 1 0 0
-0.127425 -6.779349 -1.199929 6.885901 1.552002 1.745949 0.001440 -0.001078 297156.000000 1 0 0
-0.419725 -10.237449 -8.457029 13.285438 1.529820 2.260831 -0.005399 0.002441 205767.000000 1 0 0
-4.331925 6.498451 3.908771 8.733495 -0.982834 1.106760 -0.005694 0.000214 -690166.000000 1 0 0
10.747475 -1.033849 -8.759629 13.903530 -0.095899 2.252387 0.006868 0.001508 662461.000000 1 0 0
3.126675 -1.064449 6.244871 7.064528 -0.328134 0.486498 -0.002270 0.002324 1078040.000000 1 0 0
2.214775 -12.407549 6.564071 14.210543 -1.394155 1.090643 0.000403 -0.000465 916410.000000 1 0 0
2.947175 -4.965349 -1.397929 5.940937 -1.035134 1.808328 -0.002177 -0.000964 -1255290.000000 1 0 0
-1.038425 9.517151 -1.648929 9.714601 -1.462115 1.741359 -0.001107 -0.000678 637182.000000 1 0 0
4.521775 -2.538649 2.521671 5.766282 -0.511574 1.118187 -0.001133 -0.000034 -1463710.000000 1 0 0
17.635975 6.717151 -2.658729 19.058241 0.363914 1.710758 -0.010201 0.008814 -77444.700000 1 0 0
-7.192125 3.459251 -5.441829 9.659534 -0.448314 2.169248 0.002325 -0.004304 -928690.000000 1 0 0
-13.786225 -5.894449 2.317671 15.171557 0.404038 1.417432 -0.002254 -0.002477 417739.000000 1 0 0
6.595575 -6.112349 3.084971 9.506811 -0.747391 1.240312 -0.006033 -0.003371 -2076520.000000 1 0 0
-4.494325 2.035751 3.451471 6.021287 -0.425313 0.960376 -0.005797 -0.001855 479487.000000 1 0 0
6.931575 -12.085249 -5.470329 14.967447 -1.050047 1.944947 -0.002792 0.003458 644777.000000 1 0 0
2.949275 -12.397749 3.327371 13.170945 -1.337249 1.315399 0.000650 -0.005406 -1090760.000000 1 0 0
3.287875 11.286751 -6.111829 13.249729 1.287337 2.050233 -0.003704 0.000106 581272.000000 1 0 0
-5.537825 -8.429649 6.387171 11.938276 0.989554 1.006269 0.002873 0.000851 157341.000000 1 0 0
-3.905025 6.530551 6.393871 9.938758 -1.031876 0.871960 -0.001506 -0.000270 294217.000000 1 0 0
4.251875 4.294651 -6.990329 9.240518 0.790403 2.428721 -0.000483 -0.000281 -1472640.000000 1 0 0
-0.221525 -2.788449 1.575171 3.210247 1.491519 1.057938 -0.001820 0.000482 265573.000000 1 0 0
-13.051425 -0.988449 6.656471 14.684187 0.075591 1.100322 -0.010104 0.001050 -636521.000000 1 0 0
-0.522325 -9.244049 -5.950029 11.005821 1.514352 2.141977 -0.001940 -0.001698 317788.000000 1 0 0
2.008375 -1.656249 -3.918029 4.704006 -0.689604 2.555147 0.000501 -0.001393 -55178.400000 1 0 0
11.342975 -2.036449 1.077871 11.574628 -0.177641 1.477538 -0.000771 -0.000489 761354.000000 1 0 0
0.572175 -4.357449 -2.061229 4.854215 -1.440234 2.009346 0.001380 -0.001304 -1994740.000000 1 0 0
0.958875 -7.255849 -11.290129 13.454880 -1.439406 2.566442 -0.005835 0.002724 -844264.000000 1 0 0
-4.540925 4.096651 -10.085629 11.795019 -0.734008 2.596492 0.006519 -0.006730 -306411.000000 1 0 0
-1.039525 5.861951 -2.109929 6.316240 -1.395287 1.911392 -0.000471 -0.001198 -310492.000000 1 0 0
-11.335225 1.722351 -3.802329 12.079385 -0.150793 1.891019 -0.002105 -0.003261 -783232.000000 1 0 0
-1.854925 -11.240249 4.132571 12.118667 1.407245 1.222807 0.006144 -0.003876 7189.420000 1 0 0
-3.541225 -5.022149 -9.469729 11.288845 0.956641 2.565977 0.005880 0.001773 -1923870.000000 1 0 0
-12.924225 -3.738049 -8.211929 15.762119 0.281545 2.118808 0.000345 -0.001877 -317745.000000 1 0 0
11.442475 4.577451 0.382771 12.330037 0.380541 1.539748 0.001966 -0.000854 -248433.000000 1 0 0
-8.867225 -2.365249 -3.068329 9.676607 0.260671 1.893453 0.006805 -0.007737 -359678.000000 1 0 0
-2.300325 -6.081549 -6.506129 9.198176 1.209182 2.356508 0.006771 -0.007250 -566332.000000 1 0 0
0.015975 2.624451 -1.973629 3.283780 1.564710 2.215577 0.000716 -0.002781 72921.300000 1 0 0
8.043275 6.163151 -5.218929 11.398067 0.653820 2.046404 0.001583 -0.002047 -1006350.000000 1 0 0
-9.638425 -0.938049 -0.917029 9.727287 0.097018 1.665210 -0.001816 -0.005672 -282349.000000 1 0 0
6.156075 0.663651 -8.929829 10.866441 0.107390 2.535325 -0.006614 0.003110 413072.000000 1 0 0
-4.089425 2.486251 7.879771 9.219308 -0.546260 0.545818 -0.005997 0.000599 -1868790.000000 1 0 0
-10.033425 -3.308849 1.409071 10.658498 0.318551 1.438207 -0.003776 -0.003649 2272870.000000 1 0 0
-1.821225 -8.171749 -7.857529 11.481946 1.351512 2.324491 0.000566 -0.002327 1659340.000000 1 0 0
-9.408925 -9.773049 4.182171 14.196158 0.804378 1.271761 -0.001143 -0.002326 -607675.000000 1 0 0
-1.068325 -10.853649 7.306971 13.127636 1.472682 0.980497 0.001050 -0.001535 -234015.000000 1 0 0
9.386975 3.934251 -3.818829 10.870928 0.396878 1.929743 -0.003400 -0.000230 -874147.000000 1 0 0
12.799575 -0.730249 3.017371 13.170683 -0.056991 1.339646 0.002628 -0.004391 -479618.000000 1 0 0
6.438175 11.883751 -6.868129 15.160634 1.074299 2.040951 0.002745 -0.003176 -515558.000000 1 0 0
-11.924325 -0.015649 -6.410829 13.538409 0.001312 2.064089 -0.002068 -0.002606 335203.000000 1 0 0
-7.708525 -6.716549 -11.133029 15.115479 0.716739 2.398725 0.010470 -0.007764 -2208170.000000 1 0 0
4.213375 5.865651 6.553371 9.752183 0.947885 0.833903 -0.010624 0.007148 -4753180.000000 1 0 0
-4.249625 -1.431449 -7.369329 8.626434 0.324904 2.594947 0.015622 -0.013794 425428.000000 1 0 0
9.600575 9.332651 0.782071 13.411974 0.771248 1.512452 0.007454 -0.001171 -1877930.000000 1 0 0
-8.785525 3.916851 4.927871 10.807918 -0.419381 1.097357 -0.007940 -0.003898 2045710.000000 1 0 0
-7.127925 7.902451 -12.002229 16.040871 -0.836883 2.416183 -0.005243 -0.002282 -1694470.000000 1 0 0
11.186275 -3.579349 7.091671 13.719923 -0.309682 1.027584 0.005990 -0.005110 645459.000000 1 0 0
11.891375 6.760651 6.426971 15.113476 0.516961 1.131561 0.001330 0.000700 -103938.000000 1 0 0
-9.832325 -0.919949 -14.852829 17.836128 0.093292 2.554832 -0.011377 0.009758 479455.000000 1 0 0
1.821675 -13.246849 11.931971 17.921201 -1.434136 0.842228 0.002898 0.001759 71891.300000 1 0 0
3.043375 2.972751 13.127071 13.799253 0.773660 0.313408 -0.001777 -0.002600 -702330.000000 1 0 0
-2.505325 -1.355249 11.014571 11.376912 0.495866 0.253059 -0.000434 0.003621 -1068610.000000 1 0 0
2.571775 -10.050849 -8.315329 13.295799 -1.320295 2.246453 -0.005364 0.002900 -989754.000000 1 0 0
13.730375 3.650051 -7.695729 16.157670 0.259828 2.067226 0.002766 0.000371 -2354480.000000 1 0 0
7.367775 -1.567949 4.885971 8.978601 -0.209684 0.995385 -0.003188 -0.000645 422476.000000 1 0 0
-1.116425 8.704051 10.153771 13.420357 -1.443228 0.712707 -0.002068 0.002340 102438.000000 1 0 0
-12.170325 -4.557549 0.954771 13.030720 0.358315 1.497460 0.000796 -0.004735 -290025.000000 1 0 0
-4.926225 4.838851 -5.283729 8.694824 -0.776451 2.223941 0.004251 -0.003288 -317406.000000 1 0 0
-11.142925 0.374451 2.043871 11.335008 -0.033592 1.389490 -0.007490 -0.001663 -2930550.000000 1 0 0
-1.385325 2.219251 -4.106829 4.869317 -1.012750 2.574395 0.004285 -0.005661 988464.000000 1 0 0
3.315875 -9.850049 12.991371 16.637133 -1.246077 0.674745 -0.001132 0.001447 -1834850.000000 1 0 0
8.947075 4.805551 -1.596729 10.280711 0.492892 1.726741 -0.000485 -0.002159 -1143540.000000 1 0 0
4.119475 2.273251 3.657671 5.959556 0.504247 0.909996 -0.005955 0.003410 -402774.000000 1 0 0
-5.334625 -3.351849 7.412371 9.728122 0.560983 0.704473 -0.003000 0.001210 -197527.000000 1 0 0
1.725775 -5.797449 7.693671 9.786791 -1.281471 0.666277 -0.006873 0.002761 -1582340.000000 1 0 0
-5.741825 -5.995449 -9.877529 12.902695 0.807003 2.442677 0.014721 -0.004431 -271848.000000 1 0 0
-11.650425 -5.765849 5.509571 14.118527 0.459563 1.169907 -0.001789 0.000141 -957535.000000 1 0 0
10.529875 6.126651 4.458171 12.972641 0.526956 1.219985 -0.001636 0.000603 -850831.000000 1 0 0
1.514975 -3.758749 0.381971 4.070533 -1.187661 1.476820 0.003507 -0.001161 -920178.000000 1 0 0
8.801875 4.301851 6.948671 12.010951 0.454601 0.953874 -0.005801 0.004744 812257.000000 1 0 0
-7.838625 12.121651 3.588071 14.874567 -0.996770 1.327172 -0.010280 0.000108 -869896.000000 1 0 0
-6.216525 13.355251 -6.915029 16.273462 -1.135149 2.009677 0.003425 -0.001406 252234.000000 1 0 0
4.471575 -7.027449 -0.976329 8.386491 -1.004111 1.687478 -0.005932 -0.002542 -858026.000000 1 0 0
-1.823625 -8.182149 11.071271 13.886908 1.351502 0.648078 -0.001613 -0.004530 -150880.000000 1 0 0
11.523675 8.968251 -5.839929 15.726709 0.661335 1.951246 0.010456 0.003458 577359.000000 1 0 0
-3.327625 -3.056749 -1.915829 4.907871 0.742995 1.971817 0.008351 -0.006527 -2412410.000000 1 0 0
-2.007325 5.994751 4.785371 7.928819 -1.247684 0.922861 -0.007032 0.002872 708381.000000 1 0 0
0.418975 -11.433449 -5.675729 12.771577 -1.534168 2.031304 -0.003190 -0.003402 443995.000000 1 0 0
-8.888025 6.260451 -1.570329 10.984361 -0.613652 1.714248 -0.003067 -0.000430 -699195.000000 1 0 0
2.865875 -0.011149 3.833771 4.786561 -0.003890 0.641925 -0.001711 0.002600 907343.000000 1 0 0
-9.997725 3.956151 -0.954129 10.794258 -0.376798 1.659304 -0.001773 -0.001691 -21968.800000 1 0 0
6.597275 5.475051 13.624371 16.097320 0.692706 0.561654 0.006824 -0.000429 -1293880.000000 1 0 0
-8.756925 -1.562549 5.714971 10.572899 0.176577 0.999729 -0.006590 -0.002020 -531910.000000 1 0 0
12.899575 -1.811549 -1.562029 13.119477 -0.139522 1.690141 0.004542 -0.004022 -2109920.000000 1 0 0
5.407875 -5.442149 5.310471 9.330766 -0.788557 0.965342 -0.008598 -0.000355 -72638.300000 1 0 0
-8.946725 -1.207849 3.244771 9.593296 0.134193 1.225758 -0.006685 -0.002144 417915.000000 1 0 0
2.062375 5.297651 5.530171 7.931034 1.199548 0.799197 -0.008960 0.005027 -503187.000000 1 0 0
9.189575 3.105351 -7.472029 12.244293 0.325874 2.227167 -0.006304 0.001516 -1288440.000000 1 0 0
2.245275 -2.398049 -1.587429 3.648537 -0.818288 2.020930 -0.000351 -0.000015 28609.000000 1 0 0
-6.310525 0.351051 -3.966129 7.461645 -0.055572 2.131209 0.002324 -0.003900 -2497280.000000 1 0 0
-3.995025 4.161551 5.072971 7.682042 -0.805812 0.849488 -0.004914 -0.001759 436113.000000 1 0 0
-6.584325 1.825451 -12.320929 14.088680 -0.270449 2.635256 0.001957 -0.001928 -1887280.000000 1 0 0
-0.078525 3.067051 6.242471 6.955675 -1.545199 0.456809 -0.006909 0.002264 1032220.000000 1 0 0
-8.669625 9.460451 -1.987329 12.985069 -0.828990 1.724447 -0.009111 0.005041 600707.000000 1 0 0
-1.249725 -3.734949 -6.167729 7.317960 1.247903 2.573300 0.003361 -0.006542 267012.000000 1 0 0
-3.340925 7.019851 -2.984829 8.327623 -1.126593 1.937377 -0.000425 0.001256 795391.000000 1 0 0
6.918775 -0.339649 -4.319829 8.163683 -0.049051 2.128397 -0.005448 0.001645 -253973.000000 1 0 0
-5.158225 -10.847149 6.820171 13.812409 1.126910 1.054375 0.001562 -0.002040 100891.000000 1 0 0
9.782075 8.369951 -1.488929 12.960015 0.707760 1.685937 0.006373 -0.001878 -664057.000000 1 0 0
13.686275 4.651251 -4.428629 15.118234 0.327602 1.868089 0.002615 -0.001480 786354.000000 1 0 0
4.626875 1.095551 -6.940329 8.412869 0.232498 2.540938 -0.005480 -0.000499 216562.000000 1 0 0
8.909275 -4.833649 3.601471 10.756855 -0.497099 1.229396 -0.001239 -0.005309 -459508.000000 1 0 0
-8.668425 -3.297049 -0.746129 9.304237 0.363454 1.651075 0.003623 -0.005576 -72460.500000 1 0 0
-8.601025 -4.227449 -10.372629 14.122336 0.456829 2.395702 0.010755 -0.003699 102048.000000 1 0 0
10.493075 -1.240349 10.716071 15.049162 -0.117660 0.778353 -0.000863 0.001629 249217.000000 1 0 0
2.271375 -11.710749 9.851171 15.470822 -1.379219 0.880510 -0.000918 0.000256 545285.000000 1 0 0
-6.419625 -10.553949 2.018271 12.516822 1.024320 1.408845 0.011151 -0.004691 -536231.000000 1 0 0
-3.700325 -1.334149 6.718771 7.785515 0.346041 0.529651 -0.003827 0.003219 -2992340.000000 1 0 0
4.724175 -7.597049 3.785471 9.714050 -1.014470 1.170501 -0.009184 -0.000442 138597.000000 1 0 0
11.464875 -9.495049 -5.490129 15.866342 -0.691693 1.924126 0.011620 0.002597 115458.000000 1 0 0
11.477975 1.074951 11.444571 16.244311 0.093381 0.789039 0.000814 0.003504 525640.000000 1 0 0
-10.091725 -3.531149 4.346771 11.541506 0.336590 1.184651 -0.002806 -0.002768 812251.000000 1 0 0
2.257175 8.717451 8.922371 12.676652 1.317435 0.790003 -0.009972 0.007251 142172.000000 1 0 0
6.553475 8.746451 4.077371 11.665050 0.927761 1.213719 -0.003511 0.002814 353499.000000 1 0 0
-4.184625 3.576551 0.449071 5.523086 -0.707210 1.489398 -0.003292 -0.002196 -1061490.000000 1 0 0
4.876875 6.925551 4.232771 9.469082 0.957267 1.107377 -0.005824 0.003535 -1726530.000000 1 0 0
-8.200125 13.112151 1.237871 15.514603 -1.011921 1.490924 -0.010678 0.003489 -217268.000000 1 0 0
8.755975 8.317051 -9.209629 15.187419 0.759695 2.222320 0.002563 -0.002992 -920194.000000 1 0 0
7.057375 1.960851 6.074171 9.515620 0.271009 0.878461 -0.005091 0.002587 -500233.000000 1 0 0
11.368775 -6.277049 2.775671 13.279862 -0.504478 1.360230 0.005341 -0.004668 -319314.000000 1 0 0
11.430375 4.741351 -2.185329 12.566206 0.393202 1.745590 -0.002085 -0.000424 -439356.000000 1 0 0
-3.936525 14.387451 -5.895329 16.039012 -1.303724 1.947182 0.000580 0.004480 -1144780.000000 1 0 0
7.171675 -3.071149 6.798871 10.348407 -0.404606 0.853968 -0.000959 -0.001320 -556987.000000 1 0 0
-7.932325 -0.476449 0.975471 8.006268 0.059992 1.448654 -0.004540 -0.002706 324057.000000 1 0 0
-2.932025 1.162951 10.691071 11.146669 -0.377604 0.286896 -0.004052 0.003546 239999.000000 1 0 0
7.014575 -1.230649 -1.964429 7.387674 -0.173674 1.839940 -0.000589 0.001397 -1036220.000000 1 0 0
-7.653725 5.254951 2.980271 9.750695 -0.601667 1.260178 -0.003911 -0.002412 685022.000000 1 0 0
9.446775 -2.256749 2.793571 10.106360 -0.234496 1.290732 -0.006337 -0.001689 -1787660.000000 1 0 0
0.236975 3.395451 1.600771 3.761345 1.501118 1.131188 -0.004490 0.001309 -5126030.000000 1 0 0
-7.508525 -3.117849 3.942671 9.035684 0.393576 1.119264 -0.003899 -0.001837 -1950860.000000 1 0 0
-2.281825 8.400951 -6.645929 10.952218 -1.305580 2.222839 -0.000319 -0.000712 -328034.000000 1 0 0
4.500975 9.776351 7.278371 12.992710 1.139332 0.976183 -0.012720 0.011772 267822.000000 1 0 0
-11.706125 -3.273549 7.003971 14.028724 0.272679 1.048053 -0.006602 -0.001364 -2593690.000000 1 0 0
-4.874225 2.267451 -5.745029 7.867958 -0.435416 2.389382 0.008193 -0.008133 -140622.000000 1 0 0
-2.656225 2.971451 -1.827929 4.384790 -0.841353 2.000806 0.001322 -0.002138 1609710.000000 1 0 0
2.403975 5.116251 11.527771 12.839184 1.131542 0.455915 -0.002964 -0.000832 215357.000000 1 0 0
-0.591925 1.619651 4.492571 4.812156 -1.220412 0.366498 -0.004772 0.000612 374458.000000 1 0 0
5.204975 1.517951 7.741871 9.451588 0.283765 0.610942 -0.001994 0.003792 -457546.000000 1 0 0
3.251275 -8.233949 1.855871 9.045051 -1.194727 1.364148 -0.006042 -0.002693 830398.000000 1 0 0
5.084875 6.420651 -4.671129 9.428688 0.900979 2.089111 0.002212 -0.002604 -1618090.000000 1 0 0
-4.047925 2.880551 -8.014529 9.429525 -0.618477 2.586667 0.014995 -0.011258 591529.000000 1 0 0
-8.724225 -2.155349 -12.814229 15.651265 0.242203 2.530000 0.004968 -0.004765 1508190.000000 1 0 0
-7.793225 7.998451 1.609071 11.282672 -0.798393 1.427694 -0.004093 -0.001360 -2692770.000000 1 0 0
7.310375 0.919151 -6.494829 9.821874 0.125076 2.293296 -0.006850 0.001276 -260410.000000 1 0 0
8.868575 8.923551 5.464671 13.716560 0.788488 1.161025 -0.000327 0.003481 162300.000000 1 0 0
9.439375 -1.005349 -1.495729 9.609876 -0.106106 1.727077 -0.002586 0.000334 957176.000000 1 0 0
5.457375 0.055651 4.121971 6.839348 0.010197 0.923935 -0.002341 0.002247 -594960.000000 1 0 0
-4.228925 -7.055949 -7.926729 11.423802 1.030861 2.337657 0.014287 -0.008470 -216276.000000 1 0 0
-2.200925 7.500651 -0.608029 7.840507 -1.285377 1.648424 -0.004377 0.001055 245623.000000 1 0 0
13.167075 -3.451949 -7.642829 15.610914 -0.256395 2.082407 0.002166 0.002127 1150580.000000 1 0 0
-4.784325 -5.087549 1.601271 7.164984 0.816104 1.345407 0.003404 -0.003158 292640.000000 1 0 0
-8.745925 1.323151 2.586171 9.215759 -0.150149 1.286351 -0.008430 -0.002410 -1069460.000000 1 0 0
-0.972025 11.147051 10.244271 15.170586 -1.483816 0.829463 0.002388 -0.000863 586838.000000 1 0 0
-8.479025 0.314951 7.551871 11.358865 -0.037128 0.843512 -0.006737 -0.001423 -1200090.000000 1 0 0
-6.119325 12.911451 -2.046029 14.433917 -1.128209 1.713027 -0.003840 0.002763 -221011.000000 1 0 0
-12.861725 -0.783349 3.372071 13.319477 0.060830 1.314842 -0.006919 -0.002993 524503.000000 1 0 0
-6.612725 12.760551 8.935271 16.923324 -1.092682 1.014569 0.001374 -0.006544 1539130.000000 1 0 0
-8.226825 0.932851 -14.062429 16.318786 -0.112909 2.609471 -0.003357 0.003569 -418930.000000 1 0 0
7.240475 2.914551 3.718171 8.645454 0.382691 1.126223 -0.004426 0.003838 -471491.000000 1 0 0
-1.793425 0.685651 -2.005229 2.776227 -0.365167 2.377898 0.004795 -0.004332 729420.000000 1 0 0
-6.242425 9.648651 -10.221529 15.379987 -0.996551 2.297754 -0.006259 0.000431 -177565.000000 1 0 0
-9.955425 13.683251 5.535771 17.804118 -0.941810 1.254629 -0.004290 -0.005251 596073.000000 1 0 0
-5.551625 8.341751 2.483371 10.323395 -0.983586 1.327856 -0.006897 0.001247 -1471310.000000 1 0 0
-2.361725 -10.724349 -1.293729 11.057266 1.354035 1.688068 0.009476 -0.005246 580099.000000 1 0 0
-2.188925 -12.483349 8.836771 15.450369 1.397213 0.961921 -0.002207 -0.002214 189400.000000 1 0 0
-14.770225 -6.341349 -1.569329 16.150389 0.405535 1.668120 0.008834 -0.001495 696282.000000 1 0 0
-2.659925 -9.281349 3.218371 10.177256 1.291689 1.249042 0.005337 -0.003218 -175620.000000 1 0 0
4.741475 -2.805449 7.490271 9.298187 -0.534281 0.634172 -0.001024 0.002928 -1473510.000000 1 0 0
-15.017225 -1.233549 -0.172829 15.068795 0.081958 1.582266 -0.004169 -0.005236 240022.000000 1 0 0
5.472075 8.908451 -2.704629 10.799034 1.019960 1.823942 0.003244 -0.001631 -1063830.000000 1 0 0
-5.471525 -5.786749 8.493071 11.642865 0.813390 0.753256 0.001403 -0.000124 -2647460.000000 1 0 0
3.518575 3.469451 7.035471 8.597402 0.778369 0.612305 -0.006756 0.003169 503378.000000 1 0 0
3.321175 2.241651 9.413271 10.230585 0.593720 0.402433 -0.002474 0.000285 1256760.000000 1 0 0
9.916675 -3.238949 5.133171 11.626722 -0.315693 1.113529 0.005855 -0.005715 -762613.000000 1 0 0
6.537675 10.048251 -4.975029 12.979193 0.993980 1.964172 0.003552 -0.002487 413698.000000 1 0 0
-4.513125 12.172551 -8.300229 15.408865 -1.215746 2.139649 -0.003092 -0.003390 -352476.000000 1 0 0
-3.275125 -7.261949 2.026271 8.219983 1.147113 1.321723 0.005356 -0.002954 1088720.000000 1 0 0
-7.422425 -4.074049 1.091571 8.537084 0.501986 1.442583 0.001589 -0.003394 979030.000000 1 0 0
-2.046425 -3.822449 -10.927029 11.755804 1.079254 2.763853 0.007890 -0.006004 -862628.000000 1 0 0
-5.275125 8.341251 -4.381629 10.798245 -1.006883 1.988620 0.000145 -0.000320 -1599730.000000 1 0 0
-11.020025 -3.198249 -10.113929 15.295794 0.282462 2.293244 0.007428 -0.001511 -438827.000000 1 0 0
4.717175 -11.422249 -7.873329 14.652945 -1.179150 2.138053 -0.005683 0.000698 -2550440.000000 1 0 0
-9.224625 -3.997149 7.185571 12.357319 0.408891 0.950246 -0.001937 0.000474 106789.000000 1 0 0
-5.676325 -9.580049 -5.073729 12.236859 1.035898 1.998329 0.014436 -0.009181 -199014.000000 1 0 0
4.815675 4.506851 -9.501529 11.566394 0.752284 2.534793 -0.000127 0.001313 293567.000000 1 0 0
-3.575325 -7.151949 -14.055229 16.170429 1.107221 2.624365 -0.014606 0.002386 -381246.000000 1 0 0
0.640175 -0.742949 -8.775629 8.830258 -0.859568 3.030300 0.004944 -0.010933 171860.000000 1 0 0
-7.714025 2.205751 -2.879829 8.524373 -0.278509 1.915412 -0.000911 -0.003958 -279287.000000 1 0 0
-2.450425 7.537151 -12.595629 14.881636 -1.256462 2.579961 -0.000066 -0.001347 -468177.000000 1 0 0
-9.651225 8.831351 7.640571 15.149827 -0.741068 1.042186 -0.003912 -0.006142 -95099.900000 1 0 0
-10.585725 -3.254849 -14.103029 17.931733 0.298301 2.475892 -0.002098 -0.001952 -589476.000000 1 0 0
-3.187825 4.849551 7.984271 9.870611 -0.989275 0.628529 -0.003850 0.000450 54675.700000 1 0 0
8.666475 -2.266749 -3.657429 9.675883 -0.255823 1.958425 -0.003417 0.002378 -5072610.000000 1 0 0
1.945975 -8.348649 -1.259029 8.664404 -1.341797 1.716623 -0.004431 -0.000872 -1104440.000000 1 0 0
-13.450625 -2.851049 5.148571 14.681811 0.208873 1.212503 -0.007054 -0.000118 408552.000000 1 0 0
7.077775 2.842451 -2.013029 7.888391 0.381887 1.828839 -0.002672 -0.001347 118385.000000 1 0 0
-11.039325 4.442851 8.979171 14.907419 -0.382623 0.924381 -0.008842 -0.006192 -3000280.000000 1 0 0
-1.746925 -2.485649 8.017471 8.573800 0.958191 0.362219 -0.003090 0.002682 218524.000000 1 0 0
2.814175 11.934051 -10.047829 15.852445 1.339216 2.257297 -0.008663 -0.002968 444355.000000 1 0 0
3.584575 -5.031649 -7.088029 9.402490 -0.951793 2.424692 -0.008662 -0.001268 -23450.300000 1 0 0
8.455875 -13.627649 -9.813629 18.802179 -1.015444 2.119921 0.005503 0.005816 90461.800000 1 0 0
-6.293425 -5.833049 -0.448129 8.592583 0.747452 1.622973 0.011183 -0.005878 -1018160.000000 1 0 0
-0.989725 -4.063049 9.884971 10.733153 1.331858 0.400219 -0.004118 0.002769 1161470.000000 1 0 0
2.801875 3.160051 1.757571 4.574438 0.845403 1.176438 -0.007165 0.001683 -412287.000000 1 0 0
-9.019225 13.248751 8.025171 17.924263 -0.973100 1.106575 -0.005324 -0.016722 -39368.200000 1 0 0
4.027575 -11.075149 -0.118329 11.785341 -1.222006 1.580837 -0.005645 -0.002658 -392088.000000 1 0 0
-12.621425 -1.397349 -8.971729 15.548147 0.110263 2.185882 -0.000179 -0.002845 67058.500000 1 0 0
-4.491225 1.011951 -13.556329 14.316745 -0.221617 2.814207 0.003817 -0.004329 38287.600000 1 0 0
4.018175 -3.113149 4.904071 7.063097 -0.659164 0.803317 -0.001467 0.003500 -88018.700000 1 0 0
1.724675 -1.216649 1.050771 2.357723 -0.614365 1.108871 -0.001007 0.001020 473833.000000 1 0 0
8.151875 -9.190749 7.276471 14.278304 -0.845230 1.036056 -0.001097 -0.002202 -1215740.000000 1 0 0
-0.047825 2.272051 -6.402829 6.794168 -1.549750 2.800533 0.004912 -0.007815 -1951950.000000 1 0 0
-3.652425 -9.653449 -3.377929 10.860004 1.209088 1.887087 0.014263 -0.005443 955033.000000 1 0 0
-9.500425 2.262651 -5.367329 11.143872 -0.233807 2.073321 0.001620 -0.002911 -433722.000000 1 0 0
8.899575 -7.685749 5.172871 12.846469 -0.712342 1.156366 0.000426 -0.003855 1137280.000000 1 0 0
-5.518825 -4.354649 4.652271 8.429948 0.668031 0.986186 -0.001968 -0.000207 -311438.000000 1 0 0
-0.088225 -12.512249 10.351471 16.239369 1.563745 0.879637 0.000658 -0.000108 -1560960.000000 1 0 0
-14.188125 -8.219949 3.130171 16.693365 0.525100 1.382170 -0.012501 -0.003794 -2017080.000000 1 0 0
10.962675 -1.499749 -3.679729 11.660613 -0.135961 1.891853 0.005289 0.001775 -611738.000000 1 0 0
-13.574525 3.082551 2.880571 14.215047 -0.223297 1.366741 -0.005718 0.000579 -1659800.000000 1 0 0
-6.222025 6.125551 1.113071 8.801983 -0.777585 1.444000 -0.005513 -0.000349 676593.000000 1 0 0
7.083575 -6.904749 -0.398129 9.900055 -0.772615 1.611022 -0.004236 -0.004046 -364339.000000 1 0 0
-6.782425 7.707351 10.114671 14.412187 -0.849145 0.792856 -0.008972 -0.002628 135979.000000 1 0 0
-12.650425 -5.056749 -1.834129 13.746563 0.380273 1.704620 0.000548 -0.005174 -2073760.000000 1 0 0
-9.450125 -5.580249 0.235571 10.977228 0.533401 1.549335 0.006138 -0.006111 -1065600.000000 1 0 0
-1.755825 1.865351 2.215971 3.387180 -0.815635 0.857641 -0.002411 0.000424 -293678.000000 1 0 0
-7.025225 7.303251 7.640871 12.691501 -0.804799 0.924735 -0.005562 -0.006124 -156590.000000 1 0 0
5.652775 7.159251 -0.447629 9.132859 0.902444 1.619829 0.000055 -0.002184 -1413040.000000 1 0 0
-0.031225 -4.106749 7.512471 8.561751 1.563193 0.500286 -0.004516 0.003454 -1691740.000000 1 0 0
6.452275 0.604051 13.094371 14.610246 0.093346 0.459564 0.002512 0.000056 811486.000000 1 0 0
5.801375 6.155751 -7.798929 11.505325 0.815027 2.315636 -0.002629 0.000054 -917961.000000 1 0 0
9.969375 5.216051 9.034271 14.429611 0.482041 0.894264 -0.006525 0.002088 -2129690.000000 1 0 0
-1.036425 -4.950249 -8.583329 9.962563 1.364409 2.609128 0.014030 -0.006198 1094040.000000 1 0 0
9.862675 -3.406849 -7.931729 13.106918 -0.332596 2.220758 0.002403 -0.000368 -103453.000000 1 0 0
8.430075 -5.552549 1.201371 10.165640 -0.582439 1.452340 -0.001145 -0.004084 876245.000000 1 0 0
15.783775 3.156651 -5.126029 16.892843 0.197389 1.879101 0.009017 0.000573 296293.000000 1 0 0
-6.829425 3.582151 1.087971 7.788231 -0.483068 1.430644 -0.005859 -0.002991 -77908.400000 1 0 0
-1.672825 3.823351 0.271171 4.182092 -1.158362 1.505910 -0.000758 -0.003114 -1837170.000000 1 0 0
-2.495525 10.081951 7.005071 12.527746 -1.328149 0.977419 -0.003526 0.004083 11656.000000 1 0 0
5.450575 -5.586649 -8.868829 11.814209 -0.797726 2.419905 -0.008207 -0.001771 -133962.000000 1 0 0
-1.255025 -0.934549 6.205571 6.399811 0.640065 0.247005 -0.000356 0.000538 384052.000000 1 0 0
-5.675625 5.005451 -7.857429 10.909008 -0.722736 2.374987 0.005271 -0.003066 96456.200000 1 0 0
6.790175 -1.229649 2.402371 7.306839 -0.179151 1.235781 -0.002565 0.000544 -1581260.000000 1 0 0
8.740575 7.521851 3.185871 11.963514 0.710597 1.301245 0.000192 0.000106 -121460.000000 1 0 0
-5.533125 -4.723149 -7.668129 10.569948 0.706588 2.382506 0.011255 -0.009490 580498.000000 1 0 0
-2.339625 7.849151 -10.040029 12.957052 -1.281108 2.457305 0.001473 -0.000659 341192.000000 1 0 0
-2.850125 -2.377149 1.566871 4.028540 0.695161 1.171313 -0.003763 0.001484 -269296.000000 1 0 0
5.925775 -1.959049 -9.286229 11.188687 -0.319287 2.549843 -0.008551 0.003094 1218060.000000 1 0 0
1.152075 -7.683049 5.118571 9.303563 -1.421955 0.988225 -0.005511 0.000859 537979.000000 1 0 0
1.771775 11.946151 1.285171 12.145015 1.423556 1.464779 -0.000494 -0.001040 116436.000000 1 0 0
-0.944525 7.059851 2.518271 7.554821 -1.437798 1.230960 -0.006671 0.003753 423426.000000 1 0 0
8.697575 7.910451 -6.668929 13.516570 0.738039 2.086778 0.007612 -0.002538 -123277.000000 1 0 0
3.807175 -10.937749 5.336371 12.751697 -1.235836 1.139022 -0.003351 0.002471 250993.000000 1 0 0
8.036875 -7.117649 12.219071 16.265238 -0.724816 0.720860 -0.001158 -0.002281 675738.000000 1 0 0
-8.796825 0.068351 -3.808929 9.586279 -0.007770 1.979403 0.003396 -0.007032 -458342.000000 1 0 0
-3.048925 -5.231549 11.237171 12.764759 1.043123 0.494244 0.001247 -0.001412 458826.000000 1 0 0
-8.309825 0.143651 -11.534429 14.216782 -0.017285 2.517211 0.004514 -0.005697 -1972410.000000 1 0 0
1.463875 -5.089049 5.392471 7.557783 -1.290706 0.776317 -0.003413 0.002451 -355228.000000 1 0 0
6.637075 3.780651 -7.663829 10.820275 0.517786 2.357861 -0.007065 0.001802 -1303600.000000 1 0 0
16.300175 4.198051 -1.450229 16.894452 0.252068 1.656743 0.000732 0.001845 -360646.000000 1 0 0
7.911875 7.515351 0.093471 10.912699 0.759701 1.562231 0.002246 -0.002564 -4355570.000000 1 0 0
5.523575 -10.518849 14.097171 18.436005 -1.087261 0.700292 -0.000454 0.007811 371657.000000 1 0 0
-5.089525 -9.270849 8.957771 13.859782 1.068735 0.868052 0.002483 -0.002285 642294.000000 1 0 0
-12.490325 -3.154349 2.902371 13.205374 0.247371 1.349200 -0.003718 -0.001660 73705.500000 1 0 0
-2.017925 -1.364249 -5.840329 6.327925 0.594481 2.746459 0.012429 -0.012088 -881214.000000 1 0 0
-2.498925 12.972251 -4.378129 13.917325 -1.380491 1.890812 -0.001900 0.004805 431219.000000 1 0 0
3.900175 -0.389049 -5.052229 6.394352 -0.099423 2.481782 -0.004633 0.000517 -324767.000000 1 0 0
-8.957625 3.799151 -7.386729 12.216234 -0.401129 2.220142 -0.001212 -0.001277 351876.000000 1 0 0
-4.648025 7.943951 -11.285529 14.562749 -1.041403 2.457446 -0.001104 -0.000997 -2181950.000000 1 0 0
-10.077525 -6.419049 7.444571 14.077725 0.567158 1.013588 -0.001479 0.001587 -1081970.000000 1 0 0
8.115375 5.282751 4.085471 10.509893 0.577047 1.171548 -0.005082 0.003410 -1979580.000000 1 0 0
-6.681825 -7.573249 3.986871 10.857994 0.847851 1.194818 0.006392 -0.001413 -846495.000000 1 0 0
-4.038125 11.903151 8.279971 15.051558 -1.243732 0.988304 0.002411 -0.001462 -740447.000000 1 0 0
-7.234025 10.019551 -7.794529 14.610859 -0.945463 2.133500 -0.002477 -0.001655 -1299580.000000 1 0 0
13.096475 5.467151 4.552071 14.903984 0.395460 1.260410 -0.001096 -0.002573 -2256090.000000 1 0 0
5.367775 4.041251 -3.711229 7.675802 0.645337 2.075442 -0.000079 -0.001173 142544.000000 1 0 0
-2.883325 -4.154449 5.078471 7.166860 0.964086 0.783277 -0.003445 0.001971 -1523050.000000 1 0 0
12.364575 -2.104049 -5.706729 13.779567 -0.168553 1.997799 0.005935 -0.008766 -1275170.000000 1 0 0
-5.155025 9.887851 7.021271 13.177334 -1.090215 1.008856 -0.002454 0.000375 -617811.000000 1 0 0
1.685075 3.799351 -0.456729 4.181286 1.153347 1.680246 -0.003712 -0.002002 552087.000000 1 0 0
0.000775 9.578751 7.766771 12.331878 1.570715 0.889484 -0.006594 0.007020 -827176.000000 1 0 0
-5.492625 1.978551 5.805571 8.233362 -0.345750 0.788193 -0.004517 -0.003252 695690.000000 1 0 0
8.968275 0.883951 10.737971 14.018393 0.098247 0.698214 0.001492 0.003212 -1111270.000000 1 0 0
0.455875 -2.795949 -10.208229 10.594012 -1.409170 2.870896 0.003573 -0.006886 -1597310.000000 1 0 0
1.183675 10.565151 -2.747429 10.980523 1.459226 1.823693 0.000706 -0.000714 -1990310.000000 1 0 0
2.376575 -4.478449 11.547471 12.611451 -1.082915 0.413715 -0.002480 0.001756 -872441.000000 1 0 0
6.713875 -3.118749 9.358371 11.932385 -0.434865 0.669256 -0.001122 0.000294 1129520.000000 1 0 0
-10.625025 -8.248549 5.642371 14.586503 0.660142 1.173614 -0.002185 0.001905 -1721130.000000 1 0 0
-3.048525 0.735451 -6.894929 7.574592 -0.236725 2.714734 0.015212 -0.011468 699581.000000 1 0 0
11.010975 2.823251 -5.149429 12.479140 0.250996 1.996150 -0.000622 -0.000317 -2902180.000000 1 0 0
-1.839225 -4.155649 -0.069629 4.544999 1.154126 1.586117 0.003348 -0.002070 842428.000000 1 0 0
-1.515625 -6.329849 -10.675429 12.503155 1.335780 2.594074 -0.002504 -0.000767 1269290.000000 1 0 0
0.276775 6.794851 -6.548029 9.440513 1.530086 2.337284 0.003602 0.000204 -2659770.000000 1 0 0
1.972575 3.870751 -6.237029 7.600940 1.099490 2.533187 0.001191 -0.002696 -2842600.000000 1 0 0
1.598075 -14.808249 6.437871 16.226036 -1.463294 1.162810 0.011206 -0.000768 44254.900000 1 0 0
-1.845825 5.298251 -10.400329 11.817165 -1.235562 2.646877 0.007301 -0.001422 -478985.000000 1 0 0
13.669475 4.420151 -0.898929 14.394455 0.312747 1.633287 -0.000231 -0.001899 -1865840.000000 1 0 0
-2.399925 3.214051 -6.125429 7.321929 -0.929412 2.561819 0.010350 -0.006843 599207.000000 1 0 0
5.692975 7.757951 14.171971 17.130106 0.937728 0.596488 -0.004279 -0.004010 543728.000000 1 0 0
15.787075 0.690651 -5.851429 16.850755 0.043720 1.925434 -0.001729 -0.001282 109977.000000 1 0 0
6.254075 -8.356749 10.596471 14.873934 -0.928329 0.777857 -0.006686 0.006803 61376.500000 1 0 0
0.148575 -5.878949 -6.448929 8.727703 -1.545529 2.402238 -0.000116 -0.003623 -938980.000000 1 0 0
8.579975 5.585051 -7.595129 12.747343 0.577036 2.209083 -0.004498 0.002231 -486252.000000 1 0 0
-15.885125 -0.811449 5.426871 16.806147 0.051038 1.241994 -0.004307 -0.002094 -195357.000000 1 0 0
-0.461825 4.020551 -12.257829 12.908620 -1.456431 2.822705 0.007528 -0.005585 516559.000000 1 0 0
-11.191925 3.617451 6.001371 13.204605 -0.312621 1.098996 -0.006872 -0.005333 -252531.000000 1 0 0
5.203375 -9.548049 -9.664429 14.547904 -1.071825 2.297377 -0.005816 0.000611 75754.300000 1 0 0
1.361975 11.049551 -11.843329 16.254599 1.448154 2.387093 -0.010467 0.000570 -3010160.000000 1 0 0
5.994975 2.391651 1.169471 6.559526 0.379595 1.391552 -0.001435 0.001724 -163533.000000 1 0 0
5.737775 4.531051 4.890271 8.795865 0.668421 0.981262 -0.007368 0.004105 -611871.000000 1 0 0
0.405975 -1.590249 -6.435129 6.641128 -1.320845 2.891871 0.005094 -0.006737 -1264170.000000 1 0 0
12.828375 6.999351 -4.712729 15.354736 0.499470 1.882755 0.004071 0.003515 227905.000000 1 0 0
7.466575 3.092151 12.781571 15.122159 0.392630 0.563817 0.002009 0.000908 -559806.000000 1 0 0
-2.328325 -0.173049 8.638371 8.948324 0.074187 0.263969 -0.005059 0.001490 640480.000000 1 0 0
2.321775 -15.451349 13.278071 20.504682 -1.421649 0.866415 -0.003085 0.006974 -313698.000000 1 0 0
18.785175 4.611951 -1.863229 19.432563 0.240749 1.666826 -0.004815 0.007250 534878.000000 1 0 0
-0.272925 -13.272649 7.158171 15.082344 1.550236 1.076280 -0.004888 0.000696 -970696.000000 1 0 0
4.435175 1.582051 -0.618329 4.749315 0.342636 1.701360 -0.002446 -0.000316 945339.000000 1 0 0
2.746775 -0.542649 -7.433729 7.943523 -0.195047 2.781382 -0.007475 -0.002506 -212345.000000 1 0 0
7.225575 -11.393649 0.782471 13.514304 -1.005626 1.512864 -0.004569 -0.001648 346524.000000 1 0 0
-11.891425 -7.277549 1.294371 14.001575 0.549196 1.478219 0.000619 -0.003436 -102342.000000 1 0 0
0.256175 -7.072749 9.978571 12.233613 -1.534592 0.616913 -0.005003 0.000716 -2280790.000000 1 0 0
-4.583225 -7.162849 10.649071 13.627732 1.001582 0.673848 0.004651 -0.001208 -965821.000000 1 0 0
11.807575 0.828151 -1.772729 11.968593 0.070023 1.719458 -0.000866 -0.000345 1334580.000000 1 0 0
6.527275 -9.614449 -7.389229 13.771116 -0.974370 2.137169 -0.009586 -0.000348 -321128.000000 1 0 0
-10.863425 4.858751 3.742971 12.475228 -0.420571 1.266070 -0.006282 -0.003741 26733.500000 1 0 0
5.919575 -9.216149 1.895071 11.116207 -0.999850 1.399481 -0.009725 -0.002649 4262410.000000 1 0 0
11.642075 -1.276349 5.769171 13.055662 -0.109196 1.113091 0.004885 -0.003445 -173563.000000 1 0 0
-6.353425 3.602551 4.100571 8.376101 -0.515820 1.059216 -0.005181 -0.003094 -3194880.000000 1 0 0
9.615775 6.445551 -3.237029 12.020258 0.590521 1.843460 0.000697 -0.001679 1565360.000000 1 0 0
-2.122425 6.475151 10.975571 12.918802 -1.254052 0.555606 -0.002670 -0.001085 -253429.000000 1 0 0
1.837675 9.794751 3.008671 10.409914 1.385334 1.277594 -0.007489 0.002348 -545572.000000 1 0 0
2.853275 6.106251 -5.563029 8.739266 1.133673 2.260820 0.001617 -0.001737 -1788560.000000 1 0 0
11.895375 0.283951 -5.390429 13.062821 0.023866 1.996162 0.003213 -0.002271 633796.000000 1 0 0
-2.611325 -12.478949 6.264071 14.204991 1.364514 1.114110 0.000915 -0.001644 -520081.000000 1 0 0
10.780875 1.992151 -2.862029 11.330805 0.182725 1.826151 -0.001773 0.000740 336822.000000 1 0 0
-8.776725 5.323251 0.879971 10.302537 -0.545199 1.485279 -0.007195 -0.002468 -1456880.000000 1 0 0
1.211575 -10.186349 5.685371 11.728301 -1.452411 1.064711 -0.003571 -0.001897 -724822.000000 1 0 0
9.362975 -5.774249 -1.285629 11.075201 -0.552616 1.687140 -0.000655 -0.001106 667122.000000 1 0 0
-7.793025 8.639351 -4.422629 12.447059 -0.836856 1.934048 -0.003952 0.001286 -858985.000000 1 0 0
-7.366225 -0.031749 -1.558229 7.529300 0.004310 1.779258 -0.001109 -0.004700 -1965640.000000 1 0 0
4.079175 8.871851 2.772371 10.150638 1.139832 1.294159 -0.002119 0.000511 999175.000000 1 0 0
-1.280725 -10.487749 -3.749729 11.211315 1.449282 1.911828 0.006088 -0.003289 -1426510.000000 1 0 0
3.219675 7.821851 -3.627629 9.203660 1.180308 1.975940 0.002960 -0.004828 -168225.000000 1 0 0
-4.464425 1.664551 -11.068729 12.050667 -0.356883 2.735107 0.009638 -0.009414 -701053.000000 1 0 0
1.324175 2.673751 11.138571 11.531269 1.110956 0.261725 -0.001026 -0.000897 665320.000000 1 0 0
2.083675 5.630251 -7.979129 9.985386 1.216341 2.496561 0.003689 -0.002460 -847848.000000 1 0 0
15.536075 6.091251 4.061271 17.174600 0.373653 1.332066 0.004524 -0.004520 242011.000000 1 0 0
-4.410525 9.103251 4.571071 11.100298 -1.119625 1.146371 -0.004089 0.003806 -417824.000000 1 0 0
-1.044725 -8.176849 -12.396529 14.887116 1.443719 2.554766 -0.011474 0.004233 -21336.300000 1 0 0
14.215575 -4.074849 -5.432629 15.754377 -0.279162 1.922857 0.003262 -0.003675 1105990.000000 1 0 0
-6.037325 -6.181749 -5.674429 10.337430 0.797217 2.151869 0.017414 -0.009843 700940.000000 1 0 0
-9.042625 2.604951 -12.194129 15.402974 -0.280481 2.484340 -0.002296 -0.000357 -386795.000000 1 0 0
10.694575 5.328351 13.771771 18.232579 0.462230 0.714626 0.013983 -0.000271 459956.000000 1 0 0
-0.393425 10.930751 5.595271 12.285893 -1.534819 1.097950 -0.002760 0.007066 436655.000000 1 0 0
0.414575 11.195251 -0.535029 11.215694 1.533782 1.618518 0.000843 0.000128 -212102.000000 1 0 0
-1.478825 -0.551449 3.646171 3.973108 0.356925 0.408513 -0.002814 0.001326 202489.000000 1 0 0
-4.728625 6.698351 8.927471 12.121368 -0.956096 0.742905 -0.001603 -0.003268 -1084180.000000 1 0 0
3.324975 -8.567249 -11.266229 14.538952 -1.200588 2.457353 -0.004583 0.003075 2168840.000000 1 0 0
6.736575 -3.917149 11.940771 14.258594 -0.526687 0.578207 0.005708 -0.001294 -514926.000000 1 0 0
-2.370925 -1.798249 -12.583029 12.930104 0.648893 2.909371 0.003970 -0.010246 901419.000000 1 0 0
-15.983825 -4.891849 5.473071 17.588842 0.296998 1.254375 0.000184 -0.003120 931916.000000 1 0 0
-8.830325 7.251051 5.797471 12.812614 -0.687507 1.101250 -0.004051 -0.005539 -2315340.000000 1 0 0
-12.756425 1.517351 6.116371 14.228097 -0.118392 1.126437 -0.010386 -0.004314 479982.000000 1 0 0
-3.439425 3.601051 10.208371 11.358172 -0.808351 0.453843 -0.003687 0.000629 599288.000000 1 0 0
2.033275 -12.288349 -1.199829 12.513085 -1.406818 1.666830 -0.000817 -0.002317 -3218060.000000 1 0 0
10.199775 -5.135649 -3.676929 11.997087 -0.466449 1.882295 0.003661 0.000397 629639.000000 1 0 0
3.040475 -13.417449 1.000271 13.793946 -1.347954 1.498217 0.000866 -0.001402 362875.000000 1 0 0
9.894675 -1.389249 -6.227829 11.773719 -0.139492 2.128171 0.003148 0.000086 1003450.000000 1 0 0
11.883075 -5.229849 -1.592029 13.080265 -0.414598 1.692811 0.007382 -0.003755 -1203720.000000 1 0 0
1.496075 0.926751 6.004271 6.256867 0.554602 0.285116 -0.002167 0.001607 53455.500000 1 0 0
-10.642825 11.628151 6.731471 17.140488 -0.829612 1.167205 -0.006014 -0.008110 -834824.000000 1 0 0
4.825275 -14.113849 2.911071 15.197313 -1.241372 1.378053 0.003892 -0.002614 -3817010.000000 1 0 0
5.332475 -3.482249 -1.751229 6.605160 -0.578500 1.839135 -0.004538 0.000064 -1547320.000000 1 0 0
2.107675 -2.920449 -7.737829 8.534946 -0.945658 2.705965 -0.006844 -0.003157 -42327.500000 1 0 0
-2.880425 14.711851 -8.746229 17.356035 -1.377453 2.098939 -0.002555 -0.004517 -1788060.000000 1 0 0
-2.359425 6.060551 -7.990029 10.302317 -1.199540 2.458392 0.006739 -0.004161 -637407.000000 1 0 0
2.560975 -3.412549 -11.374129 12.148040 -0.927002 2.782720 -0.005370 0.001949 -674249.000000 1 0 0
14.608175 2.844451 -2.848129 15.152607 0.192310 1.759884 0.005606 0.000813 675967.000000 1 0 0
-3.467325 13.270851 2.315371 13.910384 -1.315236 1.403569 -0.003414 0.005122 -744507.000000 1 0 0
7.981775 -5.112149 13.860571 16.791612 -0.569652 0.599804 0.004757 -0.005012 -1080680.000000 1 0 0
-11.242125 7.221951 3.030071 13.701215 -0.571015 1.347799 -0.000703 -0.000958 534100.000000 1 0 0
-2.201325 11.909851 4.093271 12.784571 -1.388027 1.244885 -0.000826 0.005422 668167.000000 1 0 0
1.686575 1.382551 0.592871 2.259973 0.686662 1.305355 -0.004264 0.001093 -1134060.000000 1 0 0
-6.773625 8.619051 5.312871 12.181816 -0.904719 1.119501 -0.006700 -0.004731 -952416.000000 1 0 0
-1.069225 9.153451 1.054071 9.275774 -1.454512 1.456913 -0.004645 0.003150 647176.000000 1 0 0
4.668475 12.773351 -8.480029 16.026979 1.220393 2.128347 -0.006431 -0.007777 -1895050.000000 1 0 0
8.964475 6.842951 7.119271 13.336859 0.651985 1.007703 -0.009125 0.003414 -1647070.000000 1 0 0
7.321975 -13.788349 2.790271 15.859240 -1.082637 1.393936 0.001349 -0.003069 249468.000000 1 0 0
4.041975 -13.530549 -1.286129 14.179825 -1.280505 1.661622 -0.003488 0.005786 -2820160.000000 1 0 0
11.992275 -11.833449 -4.769229 17.509732 -0.778732 1.846658 0.011635 0.006995 -1728250.000000 1 0 0
2.951675 -0.022249 -1.972929 3.550398 -0.007537 2.159992 -0.002145 -0.002537 1424350.000000 1 0 0
-13.637925 -3.026649 -10.626829 17.552296 0.218389 2.221113 -0.003362 -0.002102 389631.000000 1 0 0
-6.505825 13.606951 5.219771 15.959978 -1.124801 1.237612 -0.003517 -0.002808 356383.000000 1 0 0
7.344375 -4.330049 -0.673829 8.552380 -0.532718 1.649667 -0.004792 0.000706 -2312400.000000 1 0 0
11.612375 2.029951 -7.385729 13.911037 0.173061 2.130489 0.002487 -0.000313 -993898.000000 1 0 0
-7.354625 -4.586349 9.733371 13.033174 0.557592 0.727536 0.005430 0.000242 499699.000000 1 0 0
1.070375 2.999351 8.626271 9.195345 1.228016 0.353656 -0.002901 0.001719 -1602020.000000 1 0 0
1.544375 7.989651 -8.758429 11.955321 1.379854 2.392925 0.001312 -0.001893 305308.000000 1 0 0
-8.792925 -1.839149 -5.663529 10.619490 0.206190 2.133310 0.007917 -0.007943 -1125650.000000 1 0 0
6.734875 -0.525949 6.995071 9.724514 -0.077935 0.767968 -0.000869 0.000984 -183385.000000 1 0 0
-10.801525 6.407851 7.158771 14.456193 -0.535431 1.052726 -0.007046 -0.006773 425576.000000 1 0 0
-5.910825 11.120851 4.889971 13.510108 -1.082261 1.200438 -0.006602 0.000310 -402945.000000 1 0 0
6.037975 -1.111049 -6.967429 9.286368 -0.181974 2.419290 -0.008858 0.001905 -484423.000000 1 0 0
4.639675 -5.937549 11.403071 13.667886 -0.907492 0.583941 -0.000310 -0.001442 -768553.000000 1 0 0
-8.895425 -7.365749 2.639271 11.846881 0.691605 1.346129 0.008297 -0.003222 -3696040.000000 1 0 0
-1.276225 12.727951 -9.363029 15.852312 -1.470861 2.202650 -0.004850 0.001963 365218.000000 1 0 0
-4.716125 9.204751 -2.224229 10.579059 -1.097311 1.782625 -0.002395 -0.000766 518875.000000 1 0 0
-3.320925 9.708751 -0.064429 10.261216 -1.241217 1.577075 -0.003841 0.002710 -185806.000000 1 0 0
-3.470225 10.777551 -6.366529 12.989641 -1.259293 2.083028 -0.001468 0.001641 587811.000000 1 0 0
4.914975 -4.893549 0.292871 6.941871 -0.783214 1.528595 -0.003695 -0.001959 -1369290.000000 1 0 0
-2.299825 2.887251 -10.923629 11.530442 -0.898166 2.815724 0.011954 -0.005754 -822849.000000 1 0 0
-3.577725 12.072451 -2.219829 12.785611 -1.282687 1.745300 -0.001806 0.002122 1118840.000000 1 0 0
-0.300425 0.342151 0.010571 0.455450 -0.850243 1.547584 -0.001894 -0.000269 -1284120.000000 1 0 0
-4.748825 -1.689949 0.055571 5.040869 0.341892 1.559772 -0.001838 -0.002710 182664.000000 1 0 0
2.651975 2.540251 -2.558129 4.475474 0.763884 2.179237 -0.008083 -0.001100 1290890.000000 1 0 0
6.073875 -9.820049 8.502071 14.339126 -1.016872 0.936106 -0.005268 0.001936 -403207.000000 1 0 0
-4.088525 -5.578049 6.561571 9.533356 0.938286 0.811688 0.001493 0.000030 211671.000000 1 0 0
-6.438925 5.322351 -11.957229 14.586381 -0.690745 2.531776 -0.004582 -0.001270 1092750.000000 1 0 0
-12.822425 3.024251 8.062271 15.445417 -0.231623 1.021620 -0.013386 -0.005306 524521.000000 1 0 0
4.774875 -7.594249 -4.969329 10.255061 -1.009506 2.076672 -0.010163 -0.002759 -374839.000000 1 0 0
-5.857625 2.508351 -1.105329 6.467252 -0.404595 1.742551 -0.002304 -0.003326 -546539.000000 1 0 0
-6.838625 -2.836049 -14.530529 16.307858 0.393123 2.670370 -0.000936 0.000474 -56547.500000 1 0 0
2.686875 -6.164249 0.821871 6.774417 -1.159746 1.449177 -0.000833 -0.001021 -509890.000000 1 0 0
5.028475 -8.010149 13.104471 16.160916 -1.010213 0.625152 -0.001023 0.000398 187793.000000 1 0 0
-9.885725 -1.724049 8.100871 12.896667 0.172661 0.891640 -0.006578 0.001212 -221297.000000 1 0 0
-4.430625 13.290451 -0.072429 14.009703 -1.249014 1.575966 -0.001126 0.005889 435196.000000 1 0 0
6.751775 2.320951 -4.513929 8.446824 0.331100 2.134587 -0.004060 0.001751 -1951900.000000 1 0 0
4.963275 4.529051 0.014971 6.719124 0.739685 1.568568 -0.003545 -0.000696 -854243.000000 1 0 0
-5.905025 12.327851 1.925171 13.804040 -1.124090 1.430876 -0.005791 0.005420 -697048.000000 1 0 0
6.534175 -7.394349 6.469671 11.799512 -0.847076 0.990466 -0.005696 -0.001970 -1239100.000000 1 0 0
-0.169225 4.951251 7.569571 9.046653 -1.536631 0.579519 -0.007735 0.003844 -672195.000000 1 0 0
-5.769325 -3.514649 -1.487229 6.917349 0.547154 1.787488 0.007116 -0.006399 -1279760.000000 1 0 0
2.438275 -6.549849 -5.106029 8.655474 -1.214426 2.201755 -0.004052 -0.001646 -760602.000000 1 0 0
-14.401125 -4.698749 -3.607429 15.571904 0.315386 1.804583 -0.002093 -0.001842 -93533.300000 1 0 0
-12.523225 -5.082449 -6.181929 14.861988 0.385532 1.999790 0.006966 -0.006519 -1394650.000000 1 0 0
-14.853225 -3.746649 -1.115029 15.359003 0.247090 1.643458 0.003340 -0.004163 365256.000000 1 0 0
11.705775 2.857051 8.809971 14.926604 0.239392 0.939466 -0.002757 0.004027 -1604700.000000 1 0 0
8.722175 -6.587749 7.537371 13.277301 -0.646876 0.967101 0.001654 -0.006227 -26620.900000 1 0 0
-8.851225 -1.688349 -9.623829 13.183808 0.188483 2.389079 0.009365 -0.006141 -38939.000000 1 0 0
-8.765325 5.081351 -3.873329 10.846831 -0.525367 1.935950 -0.002425 -0.002152 -163398.000000 1 0 0
-4.169825 -6.245249 4.033471 8.524052 0.982093 1.077891 0.001379 -0.000021 -1459650.000000 1 0 0
-0.091425 -9.388049 3.439571 9.998723 1.561058 1.219622 0.000221 -0.004080 98563.600000 1 0 0
7.892275 -10.377549 3.196571 13.423844 -0.920600 1.330360 -0.002098 -0.001568 -249815.000000 1 0 0
0.093875 6.478951 9.588471 11.572571 1.556308 0.594281 -0.007574 0.001797 47992.900000 1 0 0
-0.035925 3.488451 -9.743229 10.348966 -1.560498 2.797758 0.009817 -0.006517 -335771.000000 1 0 0
4.539575 -3.243649 10.878571 12.225887 -0.620409 0.473894 0.000442 0.000426 -2119510.000000 1 0 0
8.504175 -9.178849 1.058771 12.557597 -0.823533 1.486383 -0.000461 -0.003118 -80482.700000 1 0 0
-0.235425 -0.440749 11.439271 11.450180 1.080204 0.043654 0.001513 0.001963 -2326510.000000 1 0 0
10.857275 5.895151 11.385771 16.800863 0.497428 0.826180 -0.004077 0.004965 93024.700000 1 0 0
-6.338325 -3.014949 -11.870329 13.790177 0.443995 2.607599 0.011361 -0.008185 468525.000000 1 0 0
-1.602425 2.981051 8.502171 9.151030 -1.077572 0.378840 -0.003464 -0.001653 -84969.500000 1 0 0
-1.605025 13.603651 -6.864229 15.321654 -1.453354 2.035333 0.001321 0.004631 1273600.000000 1 0 0
7.766975 2.983651 9.813071 12.865630 0.366765 0.703264 -0.000886 0.004342 615008.000000 1 0 0
6.448275 8.508251 -8.011129 13.347238 0.922268 2.214558 0.002332 -0.001049 783812.000000 1 0 0
6.632075 -2.974949 -3.982229 8.288117 -0.421664 2.071992 -0.006355 0.000964 -2421600.000000 1 0 0
1.998575 8.188051 1.065471 8.495512 1.331393 1.445049 -0.002837 0.000941 714353.000000 1 0 0
-17.463725 6.288051 6.573671 19.690974 -0.345612 1.230420 0.006920 0.000705 -324957.000000 1 0 0
-14.560925 3.182451 -9.995329 17.945895 -0.215177 2.161530 -0.005213 -0.001494 -1328840.000000 1 0 0
-18.361925 0.273751 -4.308729 18.862672 -0.014908 1.801257 0.001827 0.003462 128735.000000 1 0 0
-12.947625 8.011551 0.223771 15.227476 -0.554104 1.556101 0.001349 0.001414 -1675830.000000 1 0 0
-13.037525 -4.601149 -12.628829 18.725249 0.339270 2.310986 0.013322 0.003921 653280.000000 1 0 0
-17.353925 -0.747049 -8.714129 19.433292 0.043021 2.035785 -0.014548 -0.006053 -55017.400000 1 0 0
-16.758425 -2.112449 -1.916029 16.999365 0.125392 1.683748 -0.000451 -0.002078 231988.000000 1 0 0
-15.137025 4.181951 1.801971 15.807130 -0.269549 1.456551 -0.004181 0.002404 -1889610.000000 1 0 0
-13.044925 5.991651 4.575171 15.066591 -0.430568 1.262261 -0.005269 -0.000044 -750986.000000 1 0 0
-9.828925 14.207051 2.955871 17.526701 -0.965572 1.401337 -0.000270 -0.003950 130164.000000 1 0 0
-11.875425 2.547051 -6.323729 13.693164 -0.211280 2.050838 -0.000955 0.001301 -38995.400000 1 0 0
-16.015825 10.869251 4.164471 19.798740 -0.596258 1.358873 0.021913 0.006426 577772.000000 1 0 0
-12.835825 1.132251 -8.454629 15.411721 -0.087983 2.151466 -0.002590 -0.002667 738224.000000 1 0 0
-12.110125 14.525251 4.298071 19.393594 -0.875825 1.347318 0.007358 -0.009367 89344.500000 1 0 0
-10.422925 11.118151 -0.742029 15.257827 -0.817661 1.619448 -0.001635 0.001087 865666.000000 1 0 0
-16.759625 5.679251 9.123971 19.909440 -0.326721 1.094744 -0.002350 -0.007545 -5331.940000 1 0 0
-11.842125 12.689751 -9.045229 19.572478 -0.819936 2.051203 0.005080 0.002249 -492695.000000 1 0 0
-17.047925 -0.473949 3.141771 17.341485 0.027794 1.388619 -0.000855 -0.004844 954425.000000 1 0 0
-12.800125 14.887151 -0.523429 19.640378 -0.860634 1.597450 0.001592 -0.009308 -54414.500000 1 0 0
-16.703725 4.597351 -10.266029 20.138059 -0.268579 2.105728 0.005563 0.007211 226662.000000 1 0 0
-11.850925 7.589551 -8.962229 16.684342 -0.569610 2.137868 -0.002103 0.010462 192388.000000 1 0 0
-14.755525 13.618451 -1.807029 20.160682 -0.745345 1.660548 0.030044 -0.007272 694221.000000 1 0 0
-11.913825 10.537351 -5.232329 16.743723 -0.724165 1.888615 0.002985 0.001145 1300510.000000 1 0 0
-17.511925 2.784051 -0.686829 17.745146 -0.157661 1.609511 -0.004682 0.006051 -622635.000000 1 0 0
-9.429325 15.316051 0.815171 18.004392 -1.018949 1.525505 0.008425 -0.000167 141594.000000 1 0 0
-8.090525 13.241851 -3.751429 15.964850 -1.022341 1.807995 -0.004857 0.000029 -1071220.000000 1 0 0
-17.698325 11.644351 2.220071 21.301417 -0.581933 1.466385 0.027211 0.013051 102185.000000 1 0 0
-8.008325 15.738151 -7.226529 19.079974 -1.100095 1.959241 0.013326 -0.009804 48229.700000 1 0 0
-6.247425 15.364851 -5.260529 17.400636 -1.184609 1.877920 0.005541 0.000378 -237491.000000 1 0 0
-17.064525 5.249451 0.030171 17.853730 -0.298436 1.569106 0.001216 0.008695 330818.000000 1 0 0
-5.520125 12.292951 -12.216229 18.188587 -1.148734 2.307220 -0.014522 -0.003781 -625109.000000 1 0 0
-11.269225 3.799451 -11.375629 16.457102 -0.325184 2.333985 -0.000312 -0.001137 272035.000000 1 0 0
-11.894525 11.050551 1.455871 16.300736 -0.748632 1.481364 0.008073 -0.003740 539184.000000 1 0 0
-12.968625 0.111451 -10.973129 16.988444 -0.008594 2.273021 -0.000097 -0.007244 81126.400000 1 0 0
-14.128425 -2.196049 -13.100929 19.392508 0.154201 2.312529 -0.001948 0.002942 291590.000000 1 0 0
-18.761925 -2.305849 -3.628029 19.248101 0.122287 1.760418 -0.006343 0.001875 896691.000000 1 0 0
-18.361525 4.914051 -4.830929 19.612022 -0.261499 1.819683 0.019752 0.007249 -285590.000000 1 0 0
-8.234525 15.458751 -2.224529 17.655847 -1.081350 1.697126 0.006571 0.001531 -349226.000000 1 0 0
-16.060525 9.258351 -4.978029 19.194747 -0.522936 1.833138 0.017232 0.007939 106529.000000 1 0 0
-18.232625 1.632751 2.398171 18.462008 -0.089313 1.440531 0.009630 -0.004990 -181081.000000 1 0 0
-15.699525 -2.691549 -8.518629 18.063404 0.169791 2.061896 -0.013431 -0.005429 -783211.000000 1 0 0
-9.787025 10.522351 -7.015729 15.991441 -0.821589 2.024968 -0.000596 -0.000896 402265.000000 1 0 0
-13.769825 11.969251 -7.400129 19.688397 -0.715557 1.956124 0.003250 -0.005589 398412.000000 1 0 0
-10.993325 6.494651 -3.723729 13.300371 -0.533613 1.854561 -0.006056 0.002758 -859155.000000 1 0 0
-13.281225 4.938551 -12.587329 18.953129 -0.356001 2.297125 -0.003714 0.005303 -51263.900000 1 0 0
-17.651425 9.175951 2.923171 20.107606 -0.479395 1.424903 0.022694 0.008451 1065920.000000 1 0 0
-13.316725 8.632851 -6.457329 17.133546 -0.575159 1.957224 -0.000489 0.006443 -737783.000000 1 0 0
-15.843725 7.117751 -3.491829 17.716627 -0.422228 1.769189 0.018177 0.009474 -319616.000000 1 0 0
-14.982125 -0.250749 -9.190029 17.577929 0.016735 2.120948 -0.002570 -0.006386 -9370.450000 1 0 0
-10.236025 5.736351 -5.994729 13.176446 -0.510799 2.043121 -0.005722 0.000977 532219.000000 1 0 0
-12.833025 12.222951 -0.634229 17.733847 -0.761055 1.606568 0.016310 -0.006829 -312630.000000 1 0 0
-10.891125 3.455351 -13.864829 17.966345 -0.307218 2.452324 -0.002973 0.003435 267244.000000 1 0 0
-11.226625 6.410451 -11.926829 17.589208 -0.518826 2.315939 -0.001532 0.006821 276042.000000 1 0 0
-5.880825 11.529651 -14.709929 19.593340 -1.099132 2.420011 -0.013891 -0.010973 -333353.000000 1 0 0
-15.477125 13.343451 3.556971 20.742255 -0.711500 1.398460 0.004339 -0.004812 142403.000000 1 0 0
-15.090025 11.296751 -2.902429 19.072219 -0.642620 1.723571 0.031363 0.004617 892447.000000 1 0 0
-18.173225 8.055051 -4.234829 20.324462 -0.417216 1.780695 0.023934 0.011670 -726011.000000 1 0 0
-3.951125 16.179751 -10.588129 19.735861 -1.331282 2.137071 0.002424 0.000425 -189168.000000 1 0 0
-15.779825 4.597051 -4.287029 16.985711 -0.283479 1.825946 0.011094 0.005428 -379557.000000 1 0 0
-18.601025 -1.622649 -6.111529 19.646422 0.087014 1.887121 -0.008562 0.000178 256735.000000 1 0 0
-10.783325 8.545851 -5.681729 14.886024 -0.670155 1.962412 -0.000246 0.005550 -5459.540000 1 0 0
-11.235525 13.775551 -6.706429 18.999448 -0.886607 1.931551 0.002534 0.005283 3010.130000 1 0 0
-9.468225 10.462151 -4.278229 14.744733 -0.835227 1.865183 -0.005782 0.002998 -1571300.000000 1 0 0
-10.972825 6.267451 -0.130929 12.637286 -0.518958 1.581157 -0.006958 0.002545 -1216280.000000 1 0 0
-14.554325 9.432451 -1.207829 17.385580 -0.575028 1.640325 0.020637 0.003811 625109.000000 1 0 0
-18.502225 3.618451 4.975571 19.498252 -0.193131 1.312762 0.003972 -0.001054 578839.000000 1 0 0
-14.525625 13.552051 0.756771 19.880256 -0.750738 1.532721 0.015414 0.002814 -318343.000000 1 0 0
-16.849725 2.437851 -8.952129 19.235305 -0.143685 2.054884 -0.006444 -0.001993 208400.000000 1 0 0
-9.167625 8.536551 -8.803129 15.310557 -0.749768 2.183365 -0.002540 0.007156 -2826200.000000 1 0 0
-17.523325 4.729551 -2.453529 18.315441 -0.263619 1.705160 0.000644 0.009008 855983.000000 1 0 0
-13.601125 5.907751 -4.230229 15.420343 -0.409770 1.848687 0.004227 0.007871 -592612.000000 1 0 0
-11.993125 9.630451 3.498371 15.774006 -0.676566 1.347156 0.000995 -0.003417 -147555.000000 1 0 0
-17.486925 2.598551 -3.884429 18.100658 -0.147520 1.787080 0.005661 0.003989 1125220.000000 1 0 0
-11.426825 1.438551 -12.498729 16.995882 -0.125234 2.397049 0.002046 -0.000425 -15776.300000 1 0 0
-11.153225 12.127151 3.810771 16.911068 -0.827208 1.343502 0.005361 -0.004853 -110211.000000 1 0 0
-16.399525 13.317851 -3.770429 21.459863 -0.682068 1.747410 0.027629 0.003184 496832.000000 1 0 0
-11.183525 4.103751 -4.420729 12.706489 -0.351691 1.926138 -0.008038 0.001972 -702736.000000 1 0 0
-11.123125 15.187551 -8.953729 20.845980 -0.938665 2.014756 0.009484 0.002223 224802.000000 1 0 0
-15.307725 7.250451 -0.074829 16.938155 -0.442343 1.575214 0.007011 0.005218 -766103.000000 1 0 0
-12.759625 8.413851 -3.893429 15.772119 -0.582963 1.820230 0.001934 0.005283 568713.000000 1 0 0
-19.046425 2.141051 -5.958829 20.071324 -0.111942 1.872223 -0.006305 0.011907 -1136230.000000 1 0 0
-12.491825 10.169251 -8.782929 18.346640 -0.683263 2.069994 -0.003750 0.004535 327719.000000 1 0 0
-16.508025 11.186951 -0.715029 19.954299 -0.595580 1.606637 0.018236 0.003250 202816.000000 1 0 0
-10.841825 6.520551 -14.474929 19.224628 -0.541467 2.423310 -0.009562 0.003782 -117462.000000 1 0 0
-13.764225 13.185951 -4.180029 19.513991 -0.763944 1.786676 0.018473 0.002613 873323.000000 1 0 0
-17.919825 7.755551 -0.159429 19.526754 -0.408452 1.578961 0.017641 0.008451 1278570.000000 1 0 0
-12.793125 6.669551 -1.959329 14.559737 -0.480572 1.705778 -0.004560 0.006016 815130.000000 1 0 0
-13.807225 8.578251 -10.470729 19.335512 -0.555925 2.143050 -0.005327 0.008673 -1504580.000000 1 0 0
-14.803125 1.346251 -0.845329 14.888233 -0.090694 1.627605 -0.009314 0.000623 -1070370.000000 1 0 0
-13.214825 2.844551 -2.303629 13.712395 -0.212019 1.739593 -0.004805 -0.001622 -736367.000000 1 0 0
-11.286425 9.225651 -10.796829 18.140219 -0.685268 2.208295 -0.003534 0.002965 -672538.000000 1 0 0
-15.526525 4.486851 -7.902229 17.990276 -0.281316 2.025560 0.007570 0.005986 834984.000000 1 0 0
-18.642425 10.848151 4.567471 22.047317 -0.527009 1.362118 0.028595 0.003499 600502.000000 1 0 0
-15.432025 6.341351 -6.050529 17.747367 -0.389886 1.918697 0.013153 0.010556 561708.000000 1 0 0
-7.820225 11.382351 -13.103129 19.036960 -0.968816 2.329939 -0.016749 0.006369 -300881.000000 1 0 0
-16.803625 9.410751 -2.578429 19.431221 -0.510521 1.703884 0.024378 0.004308 176858.000000 1 0 0
-20.621325 -0.837549 -4.669629 21.160009 0.040593 1.793310 -0.008199 0.004573 107623.000000 1 0 0
-15.322625 4.538051 4.283171 16.544555 -0.287936 1.308927 -0.001682 0.000786 608895.000000 1 0 0
-6.959925 12.533351 -9.320629 17.099695 -1.063884 2.147276 0.000078 -0.006282 -3908.550000 1 0 0
-17.040625 1.583451 5.866471 18.091592 -0.092656 1.240562 0.001339 -0.007928 167929.000000 1 0 0
-10.377925 14.234051 -3.009029 17.870753 -0.940812 1.739980 0.010666 -0.006256 1465900.000000 1 0 0
-10.195725 8.525751 -13.072429 18.642147 -0.696433 2.347917 -0.013094 0.006233 -70930.900000 1 0 0
-13.648725 11.645051 3.154171 18.216578 -0.706347 1.396771 0.012665 -0.006153 -936351.000000 1 0 0
-16.830925 6.844651 2.019971 18.281400 -0.386244 1.460077 0.008401 0.008692 1009250.000000 1 0 0
-9.387625 13.285951 -8.362229 18.291279 -0.955666 2.045607 0.005581 -0.008856 -859586.000000 1 0 0
-5.689325 9.751451 -12.861729 17.113833 -1.042647 2.421190 -0.005724 0.000141 -923347.000000 1 0 0
-15.778425 1.956951 3.364071 16.251318 -0.123397 1.362286 -0.008488 -0.001656 551077.000000 1 0 0
-18.615025 -4.737649 4.926771 19.830218 0.249216 1.319719 0.013201 0.001041 -935555.000000 1 0 0
-5.398225 14.575351 -9.024029 17.972613 -1.216094 2.096820 0.005293 -0.001611 318420.000000 1 0 0
-15.521425 -0.724849 -6.740329 16.937299 0.046666 1.980086 -0.000258 -0.000439 591693.000000 1 0 0
-9.025425 11.010251 -9.402729 17.061514 -0.884141 2.154487 -0.003696 -0.006683 579224.000000 1 0 0
-16.658325 1.476251 -5.926629 17.742718 -0.088389 1.911374 -0.003217 0.000387 -3367400.000000 1 0 0
-11.085325 8.615851 -1.365229 14.106069 -0.660702 1.667731 -0.004283 0.000714 -1151650.000000 1 0 0
-10.700525 11.032951 -12.645029 19.902864 -0.800693 2.259241 -0.006636 0.005297 -612563.000000 1 0 0
-14.164725 11.917951 -9.959329 21.020591 -0.699470 2.064385 0.005458 0.007466 252642.000000 1 0 0
-13.313425 5.916351 -7.596229 16.430253 -0.418179 2.051419 0.002446 0.011211 241758.000000 1 0 0
-8.866925 15.391051 -4.785729 18.395924 -1.048129 1.833976 0.006725 -0.006455 205089.000000 1 0 0
-8.724525 6.261851 -12.941829 16.817225 -0.622526 2.448945 -0.008377 0.001785 -348500.000000 1 0 0
-16.438425 7.466451 4.461271 18.597652 -0.426347 1.328550 0.012589 0.008098 -152030.000000 1 0 0
-12.795825 5.414551 -10.110329 17.183401 -0.400303 2.199847 -0.001360 0.008739 -186448.000000 1 0 0
-12.610325 9.494251 -13.114129 20.521732 -0.645351 2.264041 0.002723 0.004653 -470401.000000 1 0 0
-10.935625 5.190651 -8.417829 14.744172 -0.443167 2.178429 -0.001885 0.007139 -880379.000000 1 0 0
-17.746725 -4.404349 -2.583829 18.466746 0.243263 1.711175 -0.005371 0.000736 412375.000000 1 0 0
-8.879025 13.172851 -10.923729 19.279236 -0.977707 2.173177 -0.002656 -0.004530 70285.800000 1 0 0
-14.906225 6.253651 6.273271 17.339482 -0.397231 1.200608 -0.002212 -0.001459 -614484.000000 1 0 0
-16.332625 -3.049349 -4.375229 17.181263 0.184578 1.828283 -0.006341 -0.000768 -329888.000000 1 0 0
-11.235725 -1.120849 -12.590629 16.912178 0.099429 2.410539 0.000145 0.000488 358675.000000 1 0 0
-15.476525 6.938851 -8.521229 18.981092 -0.421478 2.036367 0.002847 0.015156 -14166.800000 1 0 0
-14.767025 9.439651 1.382971 17.580804 -0.568773 1.492051 0.012874 -0.003261 -4491.040000 1 0 0
-19.108625 5.294851 8.241971 21.473358 -0.270310 1.176863 0.016864 -0.013366 -1661110.000000 1 0 0
-16.220225 0.744651 1.041871 16.270701 -0.045877 1.506719 -0.003049 -0.003713 -260842.000000 1 0 0
-17.237425 3.787651 7.314871 19.104515 -0.216297 1.177877 -0.002681 -0.003508 501904.000000 1 0 0
-15.270925 3.927851 -1.348529 15.825540 -0.251754 1.656112 0.002272 0.002786 -1099970.000000 1 0 0
-10.808725 13.267051 0.614371 17.123687 -0.887153 1.534910 0.005172 -0.007992 -1855360.000000 1 0 0
-13.291325 3.283651 0.211371 13.692566 -0.242202 1.555359 -0.005085 0.000552 -641992.000000 1 0 0
-15.130125 0.249151 -4.228829 15.711962 -0.016466 1.843304 -0.002787 -0.001626 -135704.000000 1 0 0
-18.898825 6.982551 3.654471 20.476249 -0.353914 1.391361 0.027094 0.011574 792800.000000 1 0 0
-14.171725 1.511051 -6.318829 15.590018 -0.106223 1.988117 -0.001821 0.001208 -751170.000000 1 0 0
-14.316625 12.248651 5.607071 19.657937 -0.707710 1.281548 0.004883 -0.003244 270212.000000 1 0 0
17.573375 5.321551 6.248271 19.395445 0.294041 1.242795 0.008938 -0.005822 -930264.000000 1 0 0
18.548275 7.480151 -0.342629 20.002714 0.383331 1.587926 -0.003330 0.012730 -70184.000000 1 0 0
16.389375 5.079351 8.496571 19.146883 0.300530 1.111009 0.010128 -0.001363 223806.000000 1 0 0
11.683575 12.182151 10.912371 20.099517 0.806286 0.996889 0.004478 0.001164 344776.000000 1 0 0
-2.170425 16.317651 -0.444629 16.467367 -1.438562 1.597800 0.000837 0.003528 157585.000000 1 0 0
15.073175 12.625951 3.318171 19.940549 0.697277 1.403615 0.010632 0.003531 228626.000000 1 0 0
13.517975 11.681651 6.609971 19.049628 0.712656 1.216440 0.015173 0.004428 917147.000000 1 0 0
-0.606825 15.910651 8.837971 18.210623 -1.532675 1.064068 0.005944 -0.001283 -118629.000000 1 0 0
0.869775 12.916951 9.518271 16.068654 1.503562 0.936823 -0.002388 -0.000933 -1776020.000000 1 0 0
0.762875 15.431951 -3.835429 15.919724 1.521402 1.814113 -0.004668 0.001872 862719.000000 1 0 0
5.468775 10.220451 13.481971 17.780008 1.079479 0.710147 -0.001511 -0.003871 78760.200000 1 0 0
-1.433225 16.494651 -2.827729 16.796539 -1.484124 1.739954 0.002430 0.004422 -577930.000000 1 0 0
8.582175 10.056251 3.303171 13.626917 0.864322 1.325957 0.004866 -0.001679 486804.000000 1 0 0
12.521375 13.804851 -4.946129 19.282711 0.834112 1.830202 0.022946 -0.001883 -745170.000000 1 0 0
2.448075 11.628551 7.806471 14.218202 1.363304 0.989572 -0.005313 0.004967 408613.000000 1 0 0
-0.402825 15.057751 -8.723529 17.406841 -1.544051 2.095730 -0.010862 0.006055 -1749470.000000 1 0 0
2.537375 15.838651 0.459471 16.047189 1.411945 1.542160 0.004254 -0.005397 -682525.000000 1 0 0
1.874275 13.522951 5.308571 14.648005 1.433074 1.199945 -0.002364 0.003962 549112.000000 1 0 0
17.453075 9.294951 -1.817229 19.857197 0.489361 1.662439 -0.022744 0.012880 131632.000000 1 0 0
-7.183825 14.867451 7.376271 18.084740 -1.120686 1.150673 0.003544 -0.010135 -1218140.000000 1 0 0
8.442775 15.803851 -0.175529 17.918509 1.080147 1.580592 -0.006897 -0.004993 508962.000000 1 0 0
15.640475 10.361851 2.050371 18.873167 0.585114 1.461942 0.001823 0.004918 93877.700000 1 0 0
13.982475 7.510851 8.694871 18.097604 0.492933 1.069636 0.001691 -0.000342 -1198770.000000 1 0 0
4.178075 18.294051 -1.648729 18.837381 1.346263 1.658433 0.012226 -0.014006 -320366.000000 1 0 0
-0.339225 17.487751 -4.831129 18.145973 -1.551401 1.840283 0.004784 -0.003111 214746.000000 1 0 0
1.383775 13.699551 -0.601229 13.782381 1.470129 1.614433 0.001915 -0.004424 298027.000000 1 0 0
10.201775 14.758151 4.198471 18.425699 0.965958 1.340918 0.002079 -0.005775 -474225.000000 1 0 0
-1.567725 15.283151 -5.132129 16.197877 -1.468575 1.893192 0.000649 0.001581 344670.000000 1 0 0
15.075675 8.643451 -6.318529 18.490782 0.520584 1.919535 0.011108 0.007759 -177944.000000 1 0 0
-2.321225 18.486851 1.077471 18.663138 -1.445889 1.513032 -0.000677 0.003546 -89289.700000 1 0 0
-3.709625 19.378151 3.723971 20.078397 -1.381651 1.384245 0.002790 0.006103 -183708.000000 1 0 0
1.885675 17.619551 -2.672229 17.920524 1.464180 1.720470 0.000027 -0.003334 -386782.000000 1 0 0
2.966375 12.110351 3.411171 12.926565 1.330581 1.303745 -0.004145 0.002892 234413.000000 1 0 0
-2.508625 16.152551 2.020171 16.470556 -1.416719 1.447833 -0.000494 0.000010 -540245.000000 1 0 0
11.852675 12.915051 -2.679129 17.733082 0.828265 1.722458 0.012351 0.003950 675712.000000 1 0 0
7.061375 11.611851 4.712071 14.384079 1.024429 1.237045 -0.001678 0.001284 613999.000000 1 0 0
7.206675 15.748951 2.041171 17.439381 1.141643 1.453484 -0.002496 -0.004950 -443194.000000 1 0 0
5.583375 12.244551 10.308371 16.951862 1.142974 0.917135 -0.009863 0.011293 415678.000000 1 0 0
-1.334425 14.185751 3.275271 14.619974 -1.477004 1.344852 0.001911 0.004444 -779196.000000 1 0 0
4.730475 16.095951 1.656971 16.858309 1.284952 1.472349 -0.000399 -0.008801 -3545360.000000 1 0 0
7.523775 13.161251 11.836771 19.233691 1.051475 0.907879 0.001834 0.003579 434333.000000 1 0 0
0.668575 17.368051 -9.309429 19.717040 1.532321 2.062526 -0.014252 0.006437 146857.000000 1 0 0
9.784375 9.562451 15.495871 20.671151 0.773928 0.723282 0.011235 -0.006049 12382.100000 1 0 0
13.500375 7.510551 -0.149229 15.449620 0.507684 1.580456 -0.001172 0.000627 83898.600000 1 0 0
12.433375 13.583351 -0.095429 18.414813 0.829571 1.575979 0.007817 -0.001788 688937.000000 1 0 0
9.262175 12.464251 3.437671 15.904811 0.931726 1.352937 0.001238 0.004688 64626.500000 1 0 0
-0.710025 12.896051 0.839071 12.942810 -1.515794 1.505922 -0.000200 -0.000065 -42537.400000 1 0 0
15.987975 7.345551 -0.897229 17.617533 0.430678 1.621747 -0.006000 0.006512 -1951070.000000 1 0 0
-4.036225 18.523451 -2.256729 19.091941 -1.356252 1.689277 0.010419 0.007060 -89752.200000 1 0 0
11.446375 9.292551 -3.342729 15.117700 0.681915 1.793752 0.009766 0.000802 -65178.500000 1 0 0
14.649375 9.732151 7.683171 19.192448 0.586389 1.158927 0.010109 0.002038 686781.000000 1 0 0
4.499375 13.852051 4.699171 15.303788 1.256730 1.258695 -0.003853 0.003140 -470651.000000 1 0 0
2.211675 16.000151 5.765171 17.150322 1.433438 1.227965 0.000085 0.003463 292704.000000 1 0 0
6.300475 18.467451 5.573571 20.293039 1.242013 1.292566 0.001069 -0.011747 -649025.000000 1 0 0
10.570975 17.210851 -0.983229 20.221910 1.019998 1.619437 -0.016251 -0.003676 -717926.000000 1 0 0
9.966475 13.663551 -4.458629 17.490072 0.940597 1.828565 0.021928 -0.002471 2249380.000000 1 0 0
16.556875 7.861851 2.302771 18.472725 0.443317 1.445813 -0.003561 0.002150 -324974.000000 1 0 0
4.026475 13.902051 -0.346129 14.477546 1.288879 1.594707 -0.001068 -0.006421 619485.000000 1 0 0
5.540775 13.152051 -2.406629 14.473027 1.172076 1.737856 -0.002343 -0.003617 219582.000000 1 0 0
-6.143825 17.017651 -2.764329 18.302693 -1.224332 1.722411 0.011944 0.005816 -133397.000000 1 0 0
18.150175 9.879451 2.452871 20.809829 0.498470 1.452651 0.000952 0.008185 -81869.400000 1 0 0
7.940775 12.788251 9.328271 17.709092 1.015120 1.016023 -0.002303 0.004502 307558.000000 1 0 0
-2.476925 15.794451 6.903571 17.414338 -1.415241 1.163171 0.000924 -0.001385 -642941.000000 1 0 0
11.038975 16.136051 6.328371 20.549438 0.970809 1.257750 0.011757 0.000418 -208969.000000 1 0 0
13.493475 11.894851 1.338571 18.037548 0.722514 1.496518 0.008799 0.001098 200674.000000 1 0 0
17.477175 7.738451 -5.869629 19.994694 0.416829 1.868744 -0.002642 0.014214 -135064.000000 1 0 0
9.516875 9.238051 8.034071 15.506734 0.770533 1.026166 -0.005022 0.005437 -837099.000000 1 0 0
-2.052125 14.191851 -1.928529 14.468555 -1.427193 1.704485 0.002029 0.001708 654377.000000 1 0 0
10.885275 11.641451 0.806471 15.958164 0.818954 1.520238 0.008652 0.000619 -891494.000000 1 0 0
11.713775 9.782051 -0.698129 15.277056 0.695774 1.616510 0.008895 0.001731 -1454930.000000 1 0 0
-0.171325 16.006351 11.379871 19.640115 -1.560093 0.952780 0.009243 -0.007376 -579772.000000 1 0 0
2.151575 19.951751 -1.604029 20.131432 1.463373 1.650559 0.015744 -0.012306 -566471.000000 1 0 0
9.401275 14.369251 1.752871 17.260704 0.991430 1.469068 0.004542 -0.002315 -871589.000000 1 0 0
8.473375 11.678951 -5.185129 15.332369 0.943144 1.915781 0.015380 -0.004604 -524642.000000 1 0 0
10.594075 9.930751 10.221371 17.757553 0.753091 0.957450 -0.005168 0.006202 -589041.000000 1 0 0
-5.013125 15.726451 6.034171 17.574525 -1.262209 1.220317 -0.011260 -0.003423 -153911.000000 1 0 0
14.496875 9.116351 -1.939629 17.234541 0.561363 1.683578 0.013797 0.005559 -575898.000000 1 0 0
12.106775 9.528451 6.822671 16.849754 0.666785 1.153914 0.001701 0.002187 -1265360.000000 1 0 0
3.301275 12.955051 9.786471 16.568247 1.321281 0.938900 -0.009355 0.001779 -1212940.000000 1 0 0
8.563575 12.674751 -2.621729 15.519588 0.976607 1.740541 0.008187 -0.003586 -455603.000000 1 0 0
9.439475 16.979051 1.931171 19.522328 1.063398 1.471713 -0.005571 -0.002769 -550778.000000 1 0 0
9.425475 14.341651 -7.592029 18.765965 0.989369 1.987298 0.031606 -0.006104 456846.000000 1 0 0
6.385475 11.392451 7.320271 14.971593 1.059927 1.059918 -0.009055 0.008759 -661713.000000 1 0 0
5.370375 16.826051 -5.535129 18.509311 1.261846 1.874489 -0.000458 0.001024 -974537.000000 1 0 0
-4.067525 17.210451 -4.541629 18.258444 -1.338714 1.822177 0.007958 0.000964 100484.000000 1 0 0
0.076075 18.254951 -0.143329 18.255673 1.566629 1.578648 0.013035 -0.010148 -584147.000000 1 0 0
6.435775 15.644651 -2.726929 17.135065 1.180525 1.730619 -0.004074 -0.000135 902723.000000 1 0 0
-0.720525 20.547251 0.525071 20.566585 -1.535744 1.545263 0.009778 -0.001226 132959.000000 1 0 0
-1.360725 18.745551 4.500671 19.326234 -1.498334 1.335759 0.006962 0.002109 170001.000000 1 0 0
7.156175 13.771151 -4.411129 16.134234 1.091553 1.847724 0.005433 -0.001574 -665978.000000 1 0 0
-0.880325 11.977351 7.812271 14.327020 -1.497429 0.994070 0.000489 0.007583 413066.000000 1 0 0
7.684775 10.732451 10.916871 17.129488 0.949392 0.879788 -0.007805 0.004707 257379.000000 1 0 0
1.439675 16.020251 -7.231029 17.635444 1.481171 1.993281 -0.017479 0.004485 -878712.000000 1 0 0
9.024775 7.088651 14.741871 18.682032 0.665816 0.661464 0.012428 -0.006073 292835.000000 1 0 0
11.426575 11.454651 -4.958129 16.922136 0.786625 1.868156 0.018933 0.001728 -11526.300000 1 0 0
-3.351925 16.946951 4.689271 17.900386 -1.375527 1.305739 -0.001844 -0.001106 -113061.000000 1 0 0
3.826875 15.213751 -6.772529 17.087140 1.324368 1.978337 -0.008648 -0.002366 -165860.000000 1 0 0
-4.296225 14.084251 9.556971 17.554469 -1.274724 0.995101 0.006236 -0.008994 -134242.000000 1 0 0
6.219975 17.823751 0.704771 18.891027 1.235038 1.533480 -0.004715 -0.012992 -306961.000000 1 0 0
9.900375 10.819851 -2.152529 14.822955 0.829745 1.716528 0.012259 -0.000535 -1212430.000000 1 0 0
7.373175 18.114351 -2.436029 19.708568 1.184240 1.694716 0.000391 0.000985 160932.000000 1 0 0
3.512075 10.362551 10.385771 15.085801 1.244026 0.811451 -0.010246 0.006989 359754.000000 1 0 0
-0.028225 18.760151 2.289271 18.899334 -1.569292 1.449368 0.008150 0.001349 1067.080000 1 0 0
-0.992425 17.169951 -7.299229 18.683439 -1.513060 1.972166 -0.001507 0.005707 478929.000000 1 0 0
10.197375 8.822251 13.099071 18.799049 0.713224 0.799878 0.007322 0.001422 -459450.000000 1 0 0
3.759375 11.579951 5.543971 13.377735 1.256885 1.143493 -0.006875 0.004396 669169.000000 1 0 0
13.205575 13.902451 8.134971 20.828901 0.811100 1.169555 0.024157 0.005142 118967.000000 1 0 0
-0.490225 17.445551 6.948671 18.784877 -1.542703 1.191887 0.004424 0.001580 -427951.000000 1 0 0
12.038775 13.789751 5.808871 19.205008 0.853087 1.263517 0.007958 0.003692 -485910.000000 1 0 0
4.789575 14.454551 -4.435929 15.860377 1.250828 1.854264 -0.003418 -0.001911 -1642810.000000 1 0 0
3.839075 17.715851 4.895971 18.776592 1.357393 1.306999 0.003980 -0.001586 649871.000000 1 0 0
7.028675 11.673251 2.037071 13.777399 1.028821 1.422396 0.005042 -0.000914 729700.000000 1 0 0
6.512575 8.503451 11.783671 15.924108 0.917213 0.737742 -0.004916 0.001226 739492.000000 1 0 0
-5.370925 14.863051 1.758271 15.901216 -1.224037 1.459995 -0.002633 0.005794 217210.000000 1 0 0
6.793875 13.746951 5.994171 16.464067 1.111792 1.198156 -0.004295 0.003526 -786764.000000 1 0 0
5.964475 15.977351 5.140371 17.812191 1.213510 1.278045 0.000684 -0.006807 773767.000000 1 0 0
1.270375 18.111251 4.483471 18.701144 1.500768 1.328695 0.014462 -0.001599 834658.000000 1 0 0
7.247375 18.086151 -6.963129 20.691024 1.189675 1.914025 0.005517 0.003828 428536.000000 1 0 0
-2.341525 18.876651 -5.718629 19.862362 -1.447383 1.862843 0.007782 0.005224 61652.600000 1 0 0
13.564375 10.032951 -4.593129 17.485686 0.636847 1.836594 0.014604 0.005066 -1511630.000000 1 0 0
-1.308525 18.022351 10.211371 20.755469 -1.498318 1.056428 0.011891 -0.003589 -353843.000000 1 0 0
3.310975 11.838351 -1.527229 12.387152 1.298082 1.694402 0.000881 -0.005347 1453.350000 1 0 0
4.179375 13.862251 -10.836429 18.084728 1.277970 2.213302 -0.010933 -0.014354 -995384.000000 1 0 0
11.558575 13.362951 2.410171 17.831939 0.857674 1.435221 0.013877 -0.001813 164055.000000 1 0 0
15.813175 6.411251 -7.342229 18.576032 0.385185 1.977139 0.002322 0.005496 146732.000000 1 0 0
2.605975 16.243051 3.127771 16.745470 1.411716 1.382910 0.003434 -0.002069 -392394.000000 1 0 0
13.490675 10.564751 3.533371 17.495628 0.664360 1.367440 0.006922 0.005563 -570275.000000 1 0 0
-4.841025 19.483051 -5.537529 20.825202 -1.327255 1.839939 0.007948 0.000448 -259468.000000 1 0 0
5.431675 11.926151 -0.021829 13.104833 1.143426 1.572462 -0.000334 -0.003643 -707238.000000 1 0 0
5.238875 15.157651 9.820071 18.805159 1.238024 1.021367 0.005097 -0.000906 -148845.000000 1 0 0
7.768775 9.291651 13.922571 18.453364 0.874426 0.715945 -0.002906 -0.005220 -2354970.000000 1 0 0
-5.026625 13.466951 7.143571 16.051678 -1.213555 1.109582 -0.000269 -0.003175 -1365310.000000 1 0 0
-4.483625 17.069751 0.527271 17.656651 -1.313934 1.540929 0.005144 0.000085 -1229890.000000 1 0 0
-0.546725 16.521251 3.727871 16.945433 -1.537716 1.348989 0.005396 -0.001480 -1137450.000000 1 0 0
7.807175 17.012651 -4.722429 19.305015 1.140563 1.817926 0.000839 0.003546 923350.000000 1 0 0
3.032675 16.343851 -4.661529 17.264080 1.387328 1.844203 -0.007884 0.004266 -997391.000000 1 0 0
9.523175 14.303351 7.975071 18.944088 0.983394 1.136272 0.009654 -0.001830 -12234.300000 1 0 0
12.730875 10.785651 9.051371 18.982433 0.702869 1.073753 0.012299 0.002332 -526355.000000 1 0 0
3.644275 12.207451 12.222971 17.655131 1.280690 0.806099 -0.009455 0.000358 561210.000000 1 0 0
-3.258225 19.064551 6.265471 20.330501 -1.401527 1.257516 0.007493 -0.003114 -99054.200000 1 0 0
-2.580425 15.721851 10.497471 19.079626 -1.408117 0.988201 0.009805 -0.007738 -1150690.000000 1 0 0
2.118875 14.286151 7.777471 16.403439 1.423553 1.076813 -0.001333 0.002390 -219218.000000 1 0 0
4.601275 17.136851 8.181671 19.539272 1.308481 1.138750 0.006560 0.001200 -151502.000000 1 0 0
-1.725925 13.481351 9.581971 16.629487 -1.443466 0.956720 0.005807 -0.004760 -1093010.000000 1 0 0
5.929375 17.702551 3.229771 18.946483 1.247596 1.399492 -0.005083 -0.011832 507429.000000 1 0 0
7.239475 15.460751 -6.764829 18.363217 1.132871 1.948073 0.012730 0.000062 -40823.200000 1 0 0
10.938675 7.526251 9.439971 16.291474 0.602654 0.952752 -0.001225 0.002776 17489.400000 1 0 0
9.000475 16.065051 -2.705129 18.612150 1.060116 1.716655 -0.005903 -0.012769 115610.000000 1 0 0
14.771775 11.250551 -6.503729 19.674316 0.650900 1.907703 0.038404 0.005973 575682.000000 1 0 0
11.281475 6.504051 15.980271 20.614156 0.522980 0.683751 0.025976 -0.008458 -383149.000000 1 0 0
8.513775 8.386451 10.161771 15.686890 0.777864 0.866120 -0.004652 0.002931 -755736.000000 1 0 0
16.516475 9.378151 4.440171 19.505353 0.516411 1.341144 0.020438 0.003319 157770.000000 1 0 0
-3.259825 14.250251 4.870471 15.408362 -1.345910 1.249188 -0.003199 0.003156 -1079280.000000 1 0 0
4.878875 14.606851 12.683871 19.951043 1.248434 0.881817 -0.004363 0.003378 350107.000000 1 0 0
16.099975 10.325351 -4.547229 19.659587 0.570254 1.804208 0.006021 -0.000217 427534.000000 1 0 0
14.652475 13.914251 6.030671 21.087209 0.759562 1.280760 0.019061 0.001512 40967.400000 1 0 0
6.162875 9.377351 9.295771 14.571448 0.989370 0.878971 -0.011812 0.006902 749454.000000 1 0 0
10.513975 12.112451 8.657671 18.226640 0.855927 1.075831 0.006714 0.007331 -869773.000000 1 0 0
7.968375 11.520851 -0.397429 14.013671 0.965698 1.599160 0.004284 -0.001133 315020.000000 1 0 0
7.063275 13.619251 -8.672129 17.623271 1.092361 2.085278 0.021796 -0.001191 -558442.000000 1 0 0
2.860475 15.276651 -2.176329 15.693782 1.385695 1.709919 -0.000704 -0.001801 320901.000000 1 0 0
12.044375 13.835551 -7.726629 19.904528 0.854499 1.969457 0.022574 -0.005548 264780.000000 1 0 0
-8.055125 14.815951 9.934271 19.572614 -1.072819 1.038446 0.007589 -0.013995 90334.000000 1 0 0
11.596975 9.541351 2.084871 15.161593 0.688457 1.432849 0.011775 0.001692 -1900660.000000 1 0 0
11.950375 8.617251 4.413971 15.380235 0.624738 1.279713 0.001404 0.003128 522433.000000 1 0 0
13.959575 8.016351 6.017171 17.185400 0.521274 1.213084 0.000562 -0.000225 -3379990.000000 1 0 0
16.090375 7.285851 7.216771 19.080502 0.425187 1.182915 0.014382 -0.001655 -57138.500000 1 0 0
13.631075 8.246351 2.411771 16.112888 0.544064 1.420552 -0.000525 0.002953 -2455080.000000 1 0 0
-4.127225 17.513251 -7.150229 19.361656 -1.339356 1.949050 0.007026 -0.001665 -147116.000000 1 0 0
3.241575 19.516451 -3.804329 20.146280 1.406204 1.760772 0.002335 -0.001475 299039.000000 1 0 0
-0.040625 14.903351 6.452871 16.240415 -1.568070 1.162186 0.007045 0.001275 -1396170.000000 1 0 0
6.954775 16.141351 8.137471 19.368287 1.163967 1.137192 0.006844 0.000334 -1721840.000000 1 0 0
12.866375 15.279651 -1.959829 20.071180 0.870930 1.668596 -0.001868 -0.001846 293323.000000 1 0 0
12.557075 15.876751 4.236271 20.680845 0.901623 1.364496 0.003879 0.000806 694526.000000 1 0 0
2.963775 18.115551 1.451671 18.413705 1.408629 1.491878 0.013460 -0.006785 -312159.000000 1 0 0
10.400775 14.514651 -1.211429 17.897452 0.949035 1.638535 0.009390 0.001997 -2136300.000000 1 0 0
-6.384125 15.702151 -0.468129 16.956821 -1.184633 1.598407 0.001315 0.005079 -284765.000000 1 0 0
-3.966525 15.886551 -2.432629 16.553958 -1.326121 1.718282 0.011307 0.003332 -1000610.000000 1 0 0
-6.819925 17.042951 1.743671 18.439468 -1.190151 1.476093 0.000320 0.008457 -490412.000000 1 0 0
0.087375 19.404551 -6.534729 20.475520 1.566294 1.895627 0.003719 0.003144 353003.000000 1 0 0
4.887975 14.813751 7.178371 17.171737 1.252083 1.139516 -0.002253 0.001043 -354726.000000 1 0 0
8.725575 12.207851 6.838571 16.490402 0.950239 1.143183 -0.000249 0.002775 -1109060.000000 1 0 0
-7.788525 17.544951 -5.414629 19.945041 -1.153011 1.845724 0.024397 -0.005419 363160.000000 1 0 0
-7.991125 17.707651 -1.097929 19.458275 -1.146878 1.627251 0.019590 0.002723 -245825.000000 1 0 0
-13.624925 -9.261549 9.237971 18.887959 0.597006 1.059747 -0.010359 -0.000750 -212616.000000 1 0 0
-12.350225 -13.004249 7.453871 19.421605 0.811188 1.176896 -0.017221 0.000987 -265323.000000 1 0 0
-3.768325 -15.088149 12.501171 19.953240 1.326049 0.893712 -0.015365 -0.000268 76377.000000 1 0 0
-2.060425 -14.126349 15.022771 20.723965 1.425961 0.759909 -0.003449 0.007443 512907.000000 1 0 0
-6.934125 -13.692549 12.663071 19.897773 1.102029 0.880966 -0.006610 -0.008576 -250318.000000 1 0 0
-9.852125 -11.603849 8.961771 17.664287 0.866860 1.038703 -0.009776 -0.001227 296543.000000 1 0 0
-10.419125 -10.669949 11.265971 18.690321 0.797291 0.923828 -0.009687 -0.002073 -180602.000000 1 0 0
-6.039825 -12.233449 10.620171 17.289442 1.112190 0.909351 -0.002994 -0.005744 868305.000000 1 0 0
-12.397125 -10.386449 7.317071 17.751241 0.697375 1.145928 -0.009204 0.000506 -854139.000000 1 0 0
-7.621925 -11.128049 12.457871 18.360985 0.970257 0.825082 -0.000385 -0.009641 241572.000000 1 0 0
-14.699525 -11.637349 7.277871 20.111473 0.669648 1.200516 -0.009181 0.004726 663967.000000 1 0 0
-11.024225 -9.191649 9.244971 17.073062 0.694995 0.998582 -0.005880 -0.000100 -208333.000000 1 0 0
-5.206025 -11.880249 13.082271 18.422509 1.157791 0.781122 0.003032 -0.010541 -507371.000000 1 0 0
3.966675 -12.604149 14.799571 19.840020 -1.265898 0.728843 0.000860 0.004248 -729540.000000 1 0 0
6.475175 -12.946249 14.250271 20.312643 -1.107022 0.793230 -0.001023 0.009538 -396846.000000 1 0 0
6.788375 -8.538849 16.011571 19.374323 -0.899112 0.598054 0.005713 -0.001548 -582451.000000 1 0 0
0.733075 -1.878849 14.457071 14.597067 -1.198791 0.138608 -0.000021 -0.001236 -2070560.000000 1 0 0
0.073675 -6.409949 15.568571 16.836665 -1.559303 0.390595 0.003432 -0.004477 -34178.400000 1 0 0
-1.350625 -4.716149 18.279971 18.926796 1.291878 0.262189 0.008135 -0.019966 -2255040.000000 1 0 0
-5.136725 12.472151 12.957871 18.704196 -1.180112 0.805461 0.001948 -0.010556 95199.300000 1 0 0
-3.930425 8.687751 11.634371 15.042735 -1.145940 0.686576 -0.005671 -0.004446 -92191.700000 1 0 0
-0.603725 -4.021149 15.066171 15.605244 1.421772 0.263610 0.001477 -0.001232 268864.000000 1 0 0
-4.367325 9.146251 14.173871 17.424869 -1.125311 0.620775 -0.007430 -0.006378 341989.000000 1 0 0
-13.274725 -2.390449 16.939571 21.653675 0.178166 0.672454 -0.010474 0.009495 -419386.000000 1 0 0
-0.311625 0.697051 17.488171 17.504831 -1.150388 0.043633 0.005135 0.000979 -917735.000000 1 0 0
-3.229025 -7.390949 15.394271 17.379192 1.158899 0.482608 0.010727 -0.009678 502583.000000 1 0 0
-7.229225 5.319151 12.606971 15.475490 -0.634341 0.618686 -0.013010 -0.007029 -1664680.000000 1 0 0
-9.726125 9.982251 13.388771 19.326201 -0.798393 0.805462 -0.018097 -0.006074 -1267820.000000 1 0 0
-5.442225 2.210251 11.121671 12.577543 -0.385780 0.485914 -0.004189 0.000372 679015.000000 1 0 0
-7.047025 -7.532149 16.753371 19.674076 0.818661 0.551870 0.015270 -0.011371 21426.700000 1 0 0
-4.656525 3.090051 18.528971 19.353409 -0.585874 0.292933 -0.005567 -0.006603 -1176380.000000 1 0 0
1.081175 -8.483249 16.532171 18.613090 -1.444032 0.477381 0.002673 -0.004680 635089.000000 1 0 0
-14.532225 -3.634049 14.146471 20.603750 0.245043 0.813998 -0.017041 0.006513 -174304.000000 1 0 0
-14.202525 2.262551 13.234771 19.544565 -0.157979 0.826902 -0.006711 -0.004752 198230.000000 1 0 0
-5.297725 1.030751 16.084071 16.965426 -0.192164 0.323747 0.001226 0.000977 -77962.000000 1 0 0
4.715575 5.618551 15.261571 16.932818 0.872555 0.448032 0.001763 -0.001853 -234257.000000 1 0 0
-1.001725 -12.131349 13.763171 18.373839 1.488410 0.724149 0.000237 0.000064 -221075.000000 1 0 0
-5.741125 -4.105949 16.853871 18.272173 0.620843 0.396601 0.013973 -0.003919 -304005.000000 1 0 0
-12.735925 -1.601549 10.034671 16.293047 0.125094 0.907285 -0.011956 0.005177 -980480.000000 1 0 0
-14.104125 10.439651 10.414171 20.405089 -0.637189 1.035180 -0.022849 0.007517 293623.000000 1 0 0
-3.463825 -3.388249 17.660371 18.313029 0.774369 0.267779 0.010167 -0.011056 -959849.000000 1 0 0
-7.831225 9.240151 11.926871 16.998787 -0.867743 0.793113 -0.010188 -0.008068 170213.000000 1 0 0
-4.266425 10.639251 16.333471 19.954407 -1.189421 0.611932 -0.004186 0.003031 148168.000000 1 0 0
-12.296725 12.788451 8.430271 19.642388 -0.804998 1.127203 -0.005193 -0.006830 208975.000000 1 0 0
-12.456325 3.113051 10.619871 16.662317 -0.244901 0.879731 -0.009422 -0.002948 253719.000000 1 0 0
-9.957525 -3.458249 13.712671 17.295929 0.334267 0.655363 0.004220 0.004423 -1160620.000000 1 0 0
-4.097725 -6.548849 17.671871 19.286622 1.011682 0.412114 0.016566 -0.009105 -680421.000000 1 0 0
0.974475 -3.713449 17.956471 18.362303 -1.314165 0.210633 0.006876 -0.010471 -750716.000000 1 0 0
-5.919325 1.845951 13.670971 15.011376 -0.302294 0.425803 -0.006096 0.002955 -695617.000000 1 0 0
-10.482325 8.559251 10.213971 16.954797 -0.684746 0.924262 -0.011243 -0.011946 -272505.000000 1 0 0
4.610875 2.463651 17.223271 17.999189 0.490720 0.294693 0.006465 -0.008573 -1325560.000000 1 0 0
0.662075 -5.505749 13.205071 14.322204 -1.451119 0.397582 -0.001134 0.000765 -908417.000000 1 0 0
-3.919825 5.878751 20.923271 22.084113 -0.982716 0.325674 0.002756 -0.006030 -327272.000000 1 0 0
-10.777025 10.731351 9.099271 17.722949 -0.783275 1.031634 -0.001968 -0.011068 -136051.000000 1 0 0
0.749475 4.051651 13.146271 13.776866 1.387884 0.303729 0.004400 -0.003400 -3058870.000000 1 0 0
-3.005825 7.034351 13.380571 15.412877 -1.166974 0.519349 -0.004353 0.000033 -1288190.000000 1 0 0
0.838775 8.770751 14.219471 16.727910 1.475453 0.554726 0.000082 0.002542 -34385.900000 1 0 0
-4.095225 -6.645949 13.144971 15.288223 1.018551 0.535898 0.009914 -0.005152 -686715.000000 1 0 0
-5.137025 8.210851 16.520771 19.150535 -1.011738 0.530253 -0.000505 0.002178 -357282.000000 1 0 0
1.799775 -10.772249 15.667071 19.098106 -1.405250 0.608779 0.001020 -0.000972 -122661.000000 1 0 0
-14.949425 -1.040249 14.510771 20.859768 0.069473 0.801494 -0.010165 0.005009 318373.000000 1 0 0
-13.516225 -5.277749 8.424271 16.778299 0.372268 1.044779 -0.009517 0.001267 -346937.000000 1 0 0
-14.102325 -2.073649 12.212371 18.770125 0.145997 0.862385 -0.003712 0.003957 476788.000000 1 0 0
9.377975 1.148751 17.015571 19.462675 0.121887 0.506873 0.010195 -0.000058 -189024.000000 1 0 0
5.150575 -6.807949 16.832471 18.873491 -0.923114 0.469360 0.012198 -0.005526 796343.000000 1 0 0
-5.980525 -2.626049 10.965971 12.763829 0.413753 0.537201 -0.000900 0.002272 506765.000000 1 0 0
0.708775 -6.357849 18.038271 19.139066 -1.459774 0.340809 0.011136 -0.012037 -181351.000000 1 0 0
-8.278025 11.829451 12.189671 18.895759 -0.960217 0.869641 -0.011063 -0.007977 -18563.100000 1 0 0
-6.516725 -5.792049 14.815171 17.190254 0.726591 0.531919 0.014706 -0.004586 -330779.000000 1 0 0
-4.249225 -9.003749 17.106971 19.793228 1.129848 0.527071 0.016617 -0.008318 157412.000000 1 0 0
2.577075 -6.285049 16.182771 17.550648 -1.181671 0.397424 0.004583 -0.007489 -1097610.000000 1 0 0
2.299075 5.118351 16.031971 16.985505 1.148622 0.336664 0.001134 -0.005223 -3554740.000000 1 0 0
1.064675 -8.927149 13.895371 16.550192 -1.452094 0.574269 -0.004883 -0.002200 -133509.000000 1 0 0
-9.797325 -2.754549 11.226271 15.152699 0.274078 0.736423 -0.004648 0.002831 731323.000000 1 0 0
-1.013125 9.939151 12.519171 16.016954 -1.469214 0.673538 -0.003871 -0.000826 -558805.000000 1 0 0
-12.233225 -3.811549 11.370471 17.130888 0.302041 0.844987 -0.006713 0.003549 -559563.000000 1 0 0
-1.710025 6.749151 19.915471 21.097422 -1.322649 0.336317 -0.002033 -0.009073 -585612.000000 1 0 0
0.447375 -13.345549 15.644471 20.568259 -1.537286 0.706541 -0.003593 -0.000259 60355.600000 1 0 0
4.152475 -8.766349 15.426871 18.223070 -1.128423 0.561312 0.001292 0.001519 -712463.000000 1 0 0
4.561575 -4.509949 16.120071 17.349475 -0.779707 0.378720 0.011533 -0.003269 -480771.000000 1 0 0
8.133475 1.712351 14.835671 17.005373 0.207501 0.510683 0.004723 0.001081 -108064.000000 1 0 0
-6.186325 -0.112749 11.839771 13.359024 0.018223 0.481556 -0.002256 0.002871 338932.000000 1 0 0
-3.378225 -10.945649 18.591171 21.836925 1.271435 0.552216 0.014088 0.001122 -129987.000000 1 0 0
3.338575 -1.642049 13.503971 14.007128 -0.457099 0.268844 0.000548 -0.000666 1159800.000000 1 0 0
-2.582925 8.610851 15.989471 18.343431 -1.279375 0.512191 -0.004296 0.000015 -979312.000000 1 0 0
-3.250425 3.873051 14.895871 15.730632 -0.872581 0.327237 -0.001414 -0.000503 -1916010.000000 1 0 0
-4.870925 -9.093249 19.627171 22.172932 1.079026 0.483902 0.033638 -0.010222 167436.000000 1 0 0
-5.610225 -2.938649 19.125171 20.146525 0.482508 0.319783 0.011224 -0.008541 -1249700.000000 1 0 0
-6.495425 -8.590849 11.046071 15.427538 0.923411 0.772745 0.009126 -0.002620 -1523250.000000 1 0 0
-11.536525 2.405051 12.917171 17.485108 -0.205529 0.739578 -0.009810 -0.004644 -239562.000000 1 0 0
-11.592425 -7.611549 11.716471 18.154771 0.580999 0.869294 -0.003696 0.003516 765940.000000 1 0 0
-10.890725 -7.320849 15.690971 20.455056 0.591830 0.696496 0.010080 -0.005284 136823.000000 1 0 0
0.436475 5.594251 17.760071 18.625421 1.492932 0.306023 0.005055 -0.005736 -214895.000000 1 0 0
-2.083925 -0.147549 13.336071 13.498715 0.070685 0.155391 0.002844 0.000407 -47678.200000 1 0 0
-6.009825 -10.712149 18.004871 21.795493 1.059525 0.598676 0.012573 -0.004488 -390338.000000 1 0 0
0.541175 2.478751 19.200671 19.367572 1.355844 0.131377 0.013058 -0.008234 -41300.500000 1 0 0
-0.652725 10.730951 14.921871 18.391346 -1.510045 0.624334 -0.000751 -0.000698 -928545.000000 1 0 0
-12.542625 -1.978249 14.381571 19.184903 0.156433 0.723294 -0.003772 0.002674 -768905.000000 1 0 0
-13.426725 8.345451 11.851571 19.758119 -0.556118 0.927504 -0.012501 -0.005839 272052.000000 1 0 0
-17.921425 -0.456349 6.937271 19.222681 0.025458 1.201574 0.011882 -0.008314 -559394.000000 1 0 0
-1.918125 -7.940349 17.561071 19.368004 1.333770 0.435391 0.009010 -0.011642 -1993080.000000 1 0 0
5.736275 2.581951 14.478571 15.786081 0.422945 0.409868 0.005251 -0.002777 -2258930.000000 1 0 0
-14.024625 -6.983149 11.005671 19.146260 0.461983 0.958411 -0.003585 -0.000457 -15059.100000 1 0 0
3.351175 7.484551 16.416371 18.350644 1.149819 0.463275 0.001755 -0.004499 -222984.000000 1 0 0
1.051475 1.978451 14.644571 14.814970 1.082296 0.151815 0.004655 -0.003195 -1631410.000000 1 0 0
-14.267225 0.584551 9.878571 17.363225 -0.040949 0.965584 -0.012216 -0.000911 -3260150.000000 1 0 0
-9.410625 -5.150149 15.587571 18.922375 0.500744 0.602778 0.004828 0.004113 -168107.000000 1 0 0
-2.633125 -0.061149 18.348271 18.536347 0.023219 0.142573 0.003660 -0.001500 -57363.500000 1 0 0
6.946475 3.601851 17.453271 19.127036 0.478350 0.421461 0.016907 -0.008740 -369488.000000 1 0 0
-4.095325 -0.871749 14.828571 15.408380 0.209734 0.275201 0.004794 0.004257 -213370.000000 1 0 0
4.951375 -9.025349 17.871771 20.624578 -1.069023 0.522593 0.010181 0.004115 -28911.500000 1 0 0
2.094475 6.826851 13.559571 15.324970 1.273113 0.484726 0.003147 0.001026 -776499.000000 1 0 0
-3.542425 -1.002649 20.634671 20.960528 0.275826 0.176560 0.004261 0.004014 -1000950.000000 1 0 0
-10.441925 1.704951 16.467471 19.573407 -0.161851 0.571078 -0.008653 -0.003278 -555359.000000 1 0 0
-3.984225 7.085051 18.534671 20.238726 -1.058527 0.413295 0.001900 0.000535 -899882.000000 1 0 0
-12.427025 1.135951 14.863071 19.407015 -0.091156 0.698417 -0.002834 -0.003833 634283.000000 1 0 0
-16.026225 -4.610949 8.627771 18.776027 0.280146 1.093353 0.001301 0.001384 -742370.000000 1 0 0
-2.263725 0.723851 15.829871 16.007287 -0.309486 0.149023 0.001845 0.001324 -518314.000000 1 0 0
-13.678225 -8.951649 12.733171 20.720992 0.579494 0.909037 -0.011879 0.000942 501418.000000 1 0 0
6.323375 -3.297249 14.545471 16.199619 -0.480651 0.455844 0.014065 -0.003788 670042.000000 1 0 0
-15.464225 0.356951 7.599671 17.234404 -0.023078 1.114129 -0.007399 -0.002350 432260.000000 1 0 0
-13.973425 5.835251 12.333871 19.530263 -0.395583 0.887276 -0.003181 -0.013344 -551814.000000 1 0 0
0.513075 9.307951 16.723871 19.146516 1.515730 0.508516 0.003017 -0.009706 -300118.000000 1 0 0
-10.245325 -5.491949 10.957971 15.975147 0.492066 0.814903 -0.000635 0.002752 113533.000000 1 0 0
-3.019525 -11.162649 15.021371 18.956895 1.306616 0.656069 0.003481 -0.001889 -670416.000000 1 0 0
-3.450825 2.657551 12.667571 13.395452 -0.656254 0.331171 -0.001855 0.001813 -2074270.000000 1 0 0
-12.336625 -7.740649 7.470171 16.368061 0.560361 1.096866 -0.007351 -0.000314 83318.600000 1 0 0
-8.015425 -1.859849 13.269971 15.614039 0.227999 0.555050 -0.000267 0.004222 81891.100000 1 0 0
-9.712725 6.352251 9.535471 15.020431 -0.579191 0.883003 -0.008254 -0.004590 -534103.000000 1 0 0
-17.759325 -3.283949 6.818671 19.304720 0.182849 1.209793 0.000787 -0.006834 426939.000000 1 0 0
-1.155425 -0.099749 20.565171 20.597845 0.086117 0.056333 0.002291 -0.003038 -1146510.000000 1 0 0
-2.748325 2.643551 20.241271 20.597347 -0.765969 0.186212 0.006060 -0.005526 -327052.000000 1 0 0
-3.663925 11.185151 11.237171 16.272860 -1.254241 0.808552 -0.002856 -0.009423 -690467.000000 1 0 0
-4.038625 -4.891549 15.085571 16.364969 0.880620 0.398044 0.011343 -0.003662 47849.100000 1 0 0
-0.090225 -14.434249 13.320571 19.641621 1.564546 0.825512 -0.004105 0.001220 76939.000000 1 0 0
-12.052125 0.452551 8.531571 14.773159 -0.037532 0.955127 -0.010063 -0.001134 -529394.000000 1 0 0
-7.701525 2.001651 15.635371 17.543800 -0.254277 0.470770 -0.004576 0.003906 -977602.000000 1 0 0
3.658075 -2.379249 18.362271 18.873668 -0.576663 0.233320 0.015029 -0.008593 -387988.000000 1 0 0
-1.986025 4.764451 12.694871 13.704162 -1.175855 0.386188 -0.002064 0.000484 -570564.000000 1 0 0
-10.316425 -6.187249 13.397771 18.005859 0.540234 0.731642 0.001745 0.000694 -339245.000000 1 0 0
2.446575 -3.885349 14.174571 14.899669 -1.008830 0.313258 0.000368 -0.002417 -337372.000000 1 0 0
6.781875 1.002251 17.056171 18.382364 0.146722 0.382176 0.005971 -0.002427 -593388.000000 1 0 0
-1.803125 -5.898149 13.893171 15.200646 1.274109 0.417796 0.001013 -0.001530 -1439400.000000 1 0 0
-12.747025 3.796351 14.741571 19.854794 -0.289458 0.734048 -0.014752 0.001447 93322.600000 1 0 0
-13.286025 -6.458549 13.356771 19.915689 0.452479 0.835690 -0.001132 -0.000844 -147840.000000 1 0 0
-9.350025 6.744351 12.040771 16.670016 -0.624891 0.763672 -0.016716 -0.004168 -392008.000000 1 0 0
-1.149025 -2.538449 12.863071 13.161405 1.145742 0.213324 0.000246 0.000629 553394.000000 1 0 0
0.156175 6.533151 15.386971 16.717217 1.546896 0.401626 0.003548 -0.004755 402434.000000 1 0 0
-16.259225 -0.946949 9.773271 18.994103 0.058175 1.030322 0.000303 0.000683 -237115.000000 1 0 0
-1.241625 2.613751 13.962271 14.258974 -1.127319 0.204356 0.001261 -0.000401 -1101550.000000 1 0 0
-11.041525 -3.268849 16.146271 19.831861 0.287829 0.619518 0.004042 -0.000407 -472213.000000 1 0 0
-5.048325 -1.464049 17.139071 17.926985 0.282264 0.297580 0.011648 0.001777 244593.000000 1 0 0
-11.719625 6.504551 11.253471 17.501412 -0.506684 0.872383 -0.009424 -0.003893 -2886950.000000 1 0 0
-2.733025 4.802051 18.828871 19.622832 -1.053379 0.285436 0.004907 -0.003351 414122.000000 1 0 0
5.167275 -2.023349 16.297071 17.215958 -0.373218 0.328194 0.012654 -0.005309 -1601080.000000 1 0 0
-7.879625 -4.144749 12.153071 15.065344 0.484237 0.632266 0.007108 0.000753 -1212300.000000 1 0 0
-11.364625 -0.731849 16.361671 19.934759 0.064308 0.608055 0.004291 0.004549 394901.000000 1 0 0
2.073575 1.879651 17.319071 17.543746 0.736383 0.160212 0.002630 -0.007818 -940796.000000 1 0 0
-8.878625 -7.615949 11.659771 16.516141 0.708996 0.787016 0.003947 0.000155 1244550.000000 1 0 0
-7.098225 6.812851 14.823371 17.791349 -0.764887 0.585965 -0.020270 -0.005982 -745181.000000 1 0 0
-5.639425 3.540751 15.718771 17.071022 -0.560651 0.400704 -0.007094 -0.001789 -514925.000000 1 0 0
-9.227025 4.187751 11.513571 15.337457 -0.426057 0.721701 -0.011376 -0.006605 -154411.000000 1 0 0
-9.998825 0.204151 14.317871 17.464811 -0.020415 0.609713 -0.002652 -0.002087 238422.000000 1 0 0
8.065075 -0.723549 15.681271 17.648547 -0.089474 0.476664 0.002462 -0.003544 -2825.560000 1 0 0
-8.524025 -7.464149 14.787771 18.629297 0.719204 0.653779 0.016607 -0.000478 -2250270.000000 1 0 0
-0.080925 4.071751 15.685971 16.206030 -1.550924 0.254022 0.003671 -0.004866 426779.000000 1 0 0
-8.014225 3.020551 9.520871 12.806191 -0.360434 0.732569 -0.006522 -0.002355 -340042.000000 1 0 0
-2.055225 -9.785149 13.122571 16.497726 1.363770 0.651101 -0.000217 -0.003995 782894.000000 1 0 0
-5.944525 10.215951 10.576671 15.860928 -1.043802 0.840839 -0.004271 -0.009899 -1909380.000000 1 0 0
-8.497725 -2.722149 15.720271 18.076182 0.310010 0.516268 0.004489 -0.003187 52176.300000 1 0 0
4.131875 5.485451 17.784071 19.063991 0.925223 0.368519 0.005759 -0.005394 -45200.400000 1 0 0
-6.699125 -0.982649 15.397271 16.820221 0.145644 0.414290 0.001453 0.004758 -873226.000000 1 0 0
-0.667325 -10.047749 15.366571 18.372101 1.504478 0.580100 -0.004774 -0.003254 -1885220.000000 1 0 0
-4.221725 5.781851 16.330771 17.831065 -0.940109 0.413150 -0.004341 -0.001105 103085.000000 1 0 0
3.813475 -0.058249 17.344571 17.758945 -0.015273 0.216447 0.009475 -0.007938 -727372.000000 1 0 0
1.618675 0.157551 19.241771 19.310378 0.097028 0.084320 0.003601 -0.004519 -364764.000000 1 0 0
-6.416325 6.465251 17.898071 20.082571 -0.789196 0.470759 -0.007413 0.002681 96029.900000 1 0 0
-12.169025 0.540451 11.199171 16.546864 -0.044383 0.827368 -0.006623 -0.001513 -405290.000000 1 0 0
-5.197825 5.097051 13.970471 15.753456 -0.775610 0.480380 -0.009494 -0.001174 -1836710.000000 1 0 0
-8.575425 -9.580849 9.983971 16.279136 0.840718 0.910566 0.002636 0.000532 -951093.000000 1 0 0
6.946475 -3.716349 17.022971 18.757567 -0.491252 0.433442 0.011005 -0.003697 -492672.000000 1 0 0
-16.476825 1.748051 9.562771 19.130814 -0.105696 1.047357 0.003525 -0.010540 27589.500000 1 0 0
-4.070625 -9.623549 11.420871 15.479631 1.170633 0.740991 0.005226 -0.007561 46907.900000 1 0 0
-10.846925 -3.985649 9.176271 14.756190 0.352131 0.899682 -0.009134 0.003931 94433.600000 1 0 0
3.619175 -5.337349 18.324471 19.426064 -0.974930 0.338382 0.007788 -0.015308 -668153.000000 1 0 0
2.576875 -1.935749 15.999871 16.321253 -0.644269 0.198776 0.004628 -0.004402 -104567.000000 1 0 0
-3.216625 -4.355149 20.077471 20.794683 0.934644 0.263402 0.011245 -0.014049 -683236.000000 1 0 0
-6.120725 -3.304049 14.497671 16.079878 0.494989 0.447335 0.008569 0.003006 620739.000000 1 0 0
-9.548525 5.038651 13.937171 17.629722 -0.485553 0.659090 -0.013524 -0.006736 360414.000000 1 0 0
-5.655325 -5.085549 11.760071 14.005170 0.732400 0.574075 0.006993 -0.000195 -484452.000000 1 0 0
6.132675 1.911851 19.378071 20.415056 0.302200 0.320097 0.009811 -0.010301 100894.000000 1 0 0
-2.604125 11.754451 13.608071 18.169430 -1.352774 0.724314 0.001312 -0.010131 -211665.000000 1 0 0
3.462075 1.256651 15.198671 15.638566 0.348188 0.237747 0.004082 -0.001879 -1239060.000000 1 0 0
-5.557425 7.333951 12.863671 15.816000 -0.922343 0.620939 -0.016896 -0.010982 -752121.000000 1 0 0
-1.708825 -1.745849 15.310971 15.504642 0.796115 0.158223 0.004781 -0.000081 204542.000000 1 0 0
-7.229325 10.376251 14.175471 18.996677 -0.962276 0.728449 -0.007787 -0.005109 173388.000000 1 0 0
-10.093325 1.887051 10.688471 14.821592 -0.184827 0.765347 -0.007316 -0.000926 -110437.000000 1 0 0
-13.588225 5.162551 9.289571 17.250737 -0.363084 1.002137 -0.010376 -0.007823 786878.000000 1 0 0
0.430475 -5.137449 20.153171 20.802139 -1.487200 0.250443 0.009749 -0.012849 -164505.000000 1 0 0
-14.318725 -2.975149 7.543271 16.455344 0.204865 1.094593 -0.008120 0.000013 426597.000000 1 0 0
-2.209925 2.438051 17.720371 18.023302 -0.834440 0.183603 -0.002808 -0.002148 -100504.000000 1 0 0
-6.060625 -8.338549 14.455271 17.754364 0.942296 0.619479 0.011308 -0.012229 -138474.000000 1 0 0
-7.914725 1.912451 11.994171 14.496913 -0.237088 0.596405 -0.007583 -0.001226 82456.800000 1 0 0
-14.380625 -3.559249 10.141771 17.953444 0.242627 0.970493 -0.011264 0.002870 -373725.000000 1 0 0
-0.377825 6.931951 12.878171 14.630174 -1.516345 0.494413 0.001440 -0.000951 58439.400000 1 0 0
-1.671525 -2.324849 19.343171 19.553956 0.947444 0.146963 0.007262 -0.010239 713390.000000 1 0 0
-12.752625 10.361651 7.421471 18.029740 -0.682323 1.146561 -0.005145 -0.007546 -262582.000000 1 0 0
-19.259625 2.285351 7.062371 20.640569 -0.118108 1.221582 0.011345 -0.015637 599989.000000 1 0 0
-16.335625 8.446751 6.851271 19.624989 -0.477214 1.214176 0.013736 0.004519 524254.000000 1 0 0
-12.161625 7.072551 13.748171 19.670748 -0.526740 0.796918 -0.007777 -0.004859 5082.460000 1 0 0
-15.665825 8.428051 10.429671 20.621062 -0.493575 1.040513 -0.006301 -0.004090 -1404210.000000 1 0 0
1.950475 10.877051 15.128071 18.734277 1.393362 0.630882 -0.000583 -0.005314 -409751.000000 1 0 0
2.379075 14.218051 13.392671 19.676804 1.405004 0.822171 -0.004916 0.008813 -752815.000000 1 0 0
-3.080725 13.612651 11.851571 18.309967 -1.348232 0.866793 0.000045 -0.010491 322890.000000 1 0 0
9.247975 4.811951 15.852771 18.973410 0.479775 0.581707 0.012184 0.003843 147712.000000 1 0 0
-0.246225 12.486851 12.971071 18.006409 -1.551080 0.766477 -0.002913 -0.004373 -366258.000000 1 0 0
4.380675 12.959351 14.486971 19.925045 1.244823 0.756747 -0.000385 -0.009638 239865.000000 1 0 0
-3.030825 -4.075949 -13.730629 14.639994 0.931412 2.787279 -0.005124 -0.006332 -285641.000000 1 0 0
5.814575 -11.693549 16.416171 20.977107 -1.109354 0.672004 -0.003405 0.010144 244950.000000 1 0 0
7.880575 -13.615349 7.124571 17.269646 -1.046110 1.145546 -0.007050 0.000192 -8352.100000 1 0 0
0.007975 15.571751 1.541471 15.647864 1.570284 1.472126 0.002203 0.001229 -1980140.000000 1 0 0
-13.423925 8.201151 9.174271 18.210654 -0.548421 1.042820 -0.011585 -0.002487 449722.000000 1 0 0
-15.342225 -9.726749 4.946871 18.827242 0.565035 1.304924 -0.010455 0.000378 -1629920.000000 1 0 0
9.501375 -11.225949 10.998771 18.364940 -0.868410 0.928669 -0.005668 -0.001435 288410.000000 1 0 0
-5.548525 -10.823649 -16.874629 20.801216 1.097096 2.517054 -0.017179 0.008980 7511.540000 1 0 0
-2.147625 -12.462149 -14.743129 19.423627 1.400141 2.432619 -0.013187 0.005344 -236462.000000 1 0 0
5.577575 -15.839249 -11.982029 20.629109 -1.232220 2.190546 0.003240 0.005086 309518.000000 1 0 0
2.425775 -11.598149 -16.811829 20.567912 -1.364617 2.527647 0.003535 0.002409 329089.000000 1 0 0
0.474875 -13.833849 -14.625429 20.137131 -1.536483 2.383708 -0.002371 0.012124 334496.000000 1 0 0
-6.627225 -6.133149 -14.555129 17.128555 0.746698 2.586323 -0.008922 0.001595 64963.500000 1 0 0
-6.067325 -8.293749 -17.145429 19.989108 0.939206 2.601651 -0.031804 0.002644 -125925.000000 1 0 0
-2.430925 -16.379549 -13.470729 21.346183 1.423460 2.253716 -0.002751 0.008818 346844.000000 1 0 0
15.604875 -7.731849 -9.680629 19.925064 -0.460022 2.078134 -0.023373 0.006131 164720.000000 1 0 0
18.898575 -2.893449 -3.445629 19.426799 -0.151924 1.749104 -0.010778 -0.013422 60555.300000 1 0 0
15.670175 -11.262649 -9.122029 21.345094 -0.623187 2.012366 0.007617 -0.000712 306627.000000 1 0 0
18.056275 -2.497949 -6.543629 19.367186 -0.137470 1.915451 0.084830 -0.002021 -244118.000000 1 0 0
8.421475 -9.531349 -15.956429 20.405280 -0.847141 2.468625 0.012012 0.000565 303688.000000 1 0 0
-4.421725 10.129951 -16.288429 19.684524 -1.159225 2.545390 -0.011750 0.010612 280296.000000 1 0 0
2.040575 -9.667249 -18.784129 21.224117 -1.362769 2.657370 0.006272 0.006916 342042.000000 1 0 0
10.849275 8.309851 -14.675429 20.053144 0.653622 2.391795 0.014325 -0.030630 452252.000000 1 0 0
17.961175 -5.711449 -7.458429 20.269499 -0.307877 1.947614 -0.020072 -0.011456 268302.000000 1 0 0
11.808575 5.061951 -14.188429 19.140985 0.404973 2.405741 -0.008084 0.006431 99480.900000 1 0 0
15.705975 6.342551 -10.754429 20.063981 0.383804 2.136496 -0.003992 0.001877 46283.100000 1 0 0
3.198675 -0.666949 -19.357129 19.630965 -0.205563 2.974370 0.014233 0.000140 285002.000000 1 0 0
10.332275 -1.800149 -15.061729 18.353531 -0.172494 2.533335 0.004019 0.006560 323409.000000 1 0 0
12.008975 -5.750449 -14.237429 19.493268 -0.446582 2.389670 0.007403 0.002870 460641.000000 1 0 0
9.868675 6.601651 -12.960829 17.577134 0.589582 2.399963 0.010493 -0.001936 627233.000000 1 0 0
10.488075 5.405751 -16.266929 20.095642 0.475906 2.514055 0.014113 -0.006068 352144.000000 1 0 0
11.675475 -10.100249 -15.342129 21.764941 -0.713185 2.353080 0.015351 -0.008108 465351.000000 1 0 0
-1.633325 2.199751 -17.703029 17.913790 -0.932110 2.988045 -0.004756 0.004115 314948.000000 1 0 0
6.444875 -0.996649 -17.409329 18.590709 -0.153427 2.783175 0.010328 0.014382 93407.000000 1 0 0
6.933675 -6.242849 -15.463829 18.060426 -0.733018 2.598718 0.001368 -0.010246 302552.000000 1 0 0
-2.548725 -4.713949 -20.166429 20.866292 1.075139 2.881864 0.007754 -0.023593 76310.300000 1 0 0
15.881075 -0.155349 -13.463729 20.820775 -0.009782 2.273979 0.001521 0.003387 -36956.700000 1 0 0
-4.026825 -0.584749 -18.523229 18.964895 0.144205 2.925354 -0.020772 0.007967 -15250.000000 1 0 0
3.220275 8.914551 -17.701129 20.079078 1.224145 2.649976 0.006401 -0.012503 -355837.000000 1 0 0
9.092775 -0.005749 -17.863329 20.044378 -0.000632 2.670756 -0.001594 0.012492 -96825.600000 1 0 0
3.647675 4.042751 -18.616229 19.396220 0.836726 2.857037 0.002739 0.001142 431589.000000 1 0 0
-3.255425 -10.734649 -17.840329 21.073865 1.276348 2.580289 -0.004197 -0.017358 112468.000000 1 0 0
5.355875 -9.806249 -15.767629 19.325269 -1.070899 2.525093 -0.000987 -0.010840 -86343.700000 1 0 0
9.833475 -13.047849 -12.234329 20.411330 -0.924965 2.213534 -0.000934 0.057445 261454.000000 1 0 0
5.897975 6.900351 -17.486329 19.702098 0.863560 2.662767 0.010205 -0.000065 505771.000000 1 0 0
7.789475 1.643051 -20.275429 21.782299 0.207885 2.767450 -0.022558 0.008306 132098.000000 1 0 0
-1.368425 -0.642349 -20.082029 20.138845 0.438875 3.066459 -0.000834 -0.007074 260031.000000 1 0 0
-1.376325 7.140351 -19.572029 20.879253 -1.380378 2.785859 -0.004148 -0.000534 127110.000000 1 0 0
8.687175 6.301751 -18.038029 20.989272 0.627576 2.604877 0.017247 -0.007804 -6091.600000 1 0 0
12.006975 0.119651 -13.038029 17.724896 0.009965 2.397315 -0.010077 0.006144 22549.200000 1 0 0
-3.790925 -2.807849 -19.575729 20.136144 0.637507 2.905113 -0.050708 0.006493 167370.000000 1 0 0
6.260575 -11.427649 -14.501429 19.495573 -1.069609 2.409582 0.010141 -0.001690 92654.700000 1 0 0
10.970075 2.037051 -16.115029 19.600670 0.183600 2.536004 0.008721 0.006902 153389.000000 1 0 0
-2.950325 -4.351649 -17.104329 17.894114 0.975003 2.843381 -0.014562 -0.004949 95296.100000 1 0 0
-6.956025 -4.892749 -17.497729 19.454968 0.612993 2.689183 -0.014858 0.002542 76055.400000 1 0 0
2.911675 9.917251 -15.280629 18.447963 1.285224 2.546881 -0.007851 -0.014491 209832.000000 1 0 0
16.585575 -6.163049 -11.140129 20.908537 -0.355779 2.132706 0.001265 -0.002633 -76204.200000 1 0 0
9.135775 -3.567749 -18.012129 20.509217 -0.372312 2.642977 -0.020917 0.001069 -7322.960000 1 0 0
-7.381625 -1.738549 -18.589029 20.076427 0.231308 2.754242 -0.022467 0.013734 715268.000000 1 0 0
1.709675 -7.435349 -19.246129 20.703161 -1.344786 2.764184 0.008636 -0.018492 325428.000000 1 0 0
6.046475 11.136751 -14.365729 19.156233 1.073397 2.418744 0.011867 0.005516 494714.000000 1 0 0
5.971675 -3.831749 -17.748329 19.114036 -0.570486 2.761282 0.006579 -0.016429 439395.000000 1 0 0
4.224675 13.132651 -15.048029 20.414641 1.259559 2.399594 -0.003429 -0.001275 180948.000000 1 0 0
9.036575 11.629851 -15.540829 21.410990 0.910228 2.383043 0.031358 -0.008885 -75057.100000 1 0 0
17.138875 1.207351 -11.842629 20.867357 0.070329 2.174286 0.011175 0.014457 157728.000000 1 0 0
14.800475 -2.965249 -12.607629 19.667208 -0.197730 2.266660 -0.005414 0.008869 47595.800000 1 0 0
-8.996925 0.199751 -17.304929 19.505003 -0.022199 2.662047 -0.003495 0.008697 460276.000000 1 0 0
-3.287125 4.657851 -19.121129 19.952903 -0.956244 2.851835 -0.005891 0.014000 105440.000000 1 0 0
3.921275 2.172651 -16.774129 17.362840 0.505961 2.880442 0.008556 -0.008107 445902.000000 1 0 0
-4.942725 14.201951 -13.971729 20.526450 -1.235876 2.319472 -0.016716 -0.003761 266094.000000 1 0 0
0.803175 9.580351 -17.771829 20.205596 1.487156 2.645712 -0.000959 -0.000112 291870.000000 1 0 0
0.942175 -5.148749 -20.009029 20.682324 -1.389808 2.885732 0.005324 0.001325 351727.000000 1 0 0
3.593175 -5.752949 -19.273729 20.432424 -1.012499 2.803206 0.015790 0.019332 139825.000000 1 0 0
-6.625725 7.541051 -15.626529 18.572994 -0.849919 2.570586 -0.021953 0.003506 139405.000000 1 0 0
-11.874225 2.859651 -16.784829 20.758259 -0.236328 2.512541 0.004657 -0.000386 307092.000000 1 0 0
-5.096325 7.448751 -17.695329 19.864065 -0.970763 2.669946 -0.010126 0.037459 325830.000000 1 0 0
-8.513125 5.261051 -17.731429 20.360637 -0.553545 2.627762 -0.004001 0.011456 420561.000000 1 0 0
-8.605025 4.056851 -14.907529 17.684426 -0.440549 2.573586 -0.020486 -0.006978 469923.000000 1 0 0
9.351175 13.279751 -12.510829 20.501637 0.957279 2.227154 0.021877 -0.023553 509038.000000 1 0 0
14.316275 9.277251 -12.157729 20.948353 0.574983 2.189975 0.052186 -0.007068 -20254.600000 1 0 0
8.425675 15.717251 -9.978629 20.435191 1.078704 2.080944 0.015136 0.003292 156537.000000 1 0 0
7.571975 14.191351 -14.373029 21.571120 1.080661 2.300044 0.018549 -0.005008 247094.000000 1 0 0
3.527875 15.425451 -12.768329 20.332749 1.345958 2.249737 0.004495 -0.017502 107269.000000 1 0 0
10.647975 11.911851 -11.163929 19.491149 0.841363 2.180676 0.026477 -0.011181 302739.000000 1 0 0
15.673275 10.614051 -10.730329 21.758897 0.595264 2.086500 0.027182 0.008950 336742.000000 1 0 0
13.016475 11.318451 -10.196029 20.037339 0.715734 2.104646 0.033675 -0.003391 -45099.600000 1 0 0
10.524975 11.532551 -7.848529 17.474960 0.831046 2.036588 0.016331 -0.000106 202434.000000 1 0 0
5.511275 16.878051 -9.990529 20.372860 1.255177 2.083327 0.015999 0.002371 263839.000000 1 0 0
11.660875 14.296051 -10.154529 21.058669 0.886573 2.073963 0.046160 -0.003995 286762.000000 1 0 0
8.478975 -19.526049 -2.022929 21.383447 -1.161126 1.665541 0.015203 0.007386 256997.000000 1 0 0
6.695375 -16.949949 -3.703629 18.596926 -1.194600 1.771290 0.002990 -0.001632 335185.000000 1 0 0
3.916275 -18.604349 4.869871 19.625867 -1.363322 1.320041 0.022746 -0.016475 -162362.000000 1 0 0
10.453375 -17.868049 -2.262529 20.824486 -1.041456 1.679659 0.016971 0.003877 563475.000000 1 0 0
-2.091125 -15.180449 7.660371 17.131845 1.433907 1.107229 -0.002443 -0.023244 157471.000000 1 0 0
-15.227725 -12.584149 -3.843529 20.125037 0.690631 1.762959 -0.014302 -0.008025 163225.000000 1 0 0
-9.015525 -12.736249 -7.343729 17.245929 0.954812 2.010669 -0.000485 -0.008525 49178.100000 1 0 0
-11.511425 -15.479749 6.972971 20.512383 0.931375 1.223944 -0.014425 0.001130 186970.000000 1 0 0
-14.274825 -8.533949 -8.290329 18.583016 0.538824 2.033226 -0.003183 -0.003880 -101682.000000 1 0 0
4.884375 -15.260849 6.453771 17.274310 -1.261040 1.187904 0.010433 -0.008053 201954.000000 1 0 0
2.770775 -14.291949 9.098171 17.167228 -1.379302 1.012227 0.008502 0.000860 418420.000000 1 0 0
2.835075 -17.913349 9.718671 20.576158 -1.413832 1.078868 -0.000924 0.017563 358502.000000 1 0 0
-7.444025 -17.250149 -5.197429 19.493445 1.163404 1.840685 -0.042128 -0.001809 -3939.390000 1 0 0
1.885775 -19.842949 -4.043829 20.338419 -1.476046 1.770957 0.016097 -0.004422 105169.000000 1 0 0
-18.588925 -10.086449 -2.174929 21.260642 0.497148 1.673274 0.013472 -0.009754 -2937.270000 1 0 0
-4.418425 -14.790949 2.904371 15.707642 1.280510 1.384824 0.007193 -0.003380 87408.400000 1 0 0
-10.790225 -9.972449 -14.547929 20.676579 0.746032 2.351240 0.007175 -0.003128 99228.400000 1 0 0
0.459175 -20.337149 2.554971 20.502154 -1.548222 1.445852 0.014533 -0.005673 232048.000000 1 0 0
6.795275 -18.457749 0.851071 19.687269 -1.218042 1.527553 0.013917 0.007839 248868.000000 1 0 0
-7.856725 -19.111149 -2.971529 20.875682 1.180752 1.713625 -0.007232 0.005503 345238.000000 1 0 0
-9.468125 -15.754749 -7.676329 19.919426 1.029664 1.966404 0.009097 -0.004391 53005.200000 1 0 0
-11.608425 -11.593749 -12.333729 20.525384 0.784766 2.215424 0.001923 0.011694 288685.000000 1 0 0
-13.234825 -14.957349 -3.373929 20.255031 0.846422 1.738149 -0.015557 -0.009625 190609.000000 1 0 0
-0.518325 -20.560749 -2.710329 20.745094 1.545592 1.701820 0.000038 0.000374 455568.000000 1 0 0
-12.288225 -16.731449 -0.235529 20.760475 0.937329 1.582142 -0.003080 0.003271 30266.100000 1 0 0
0.938375 -20.387849 4.773271 20.960177 -1.524803 1.341050 0.015323 -0.003438 279465.000000 1 0 0
-18.238225 -9.667749 2.436971 20.785501 0.487422 1.453282 0.012906 0.009470 28198.200000 1 0 0
-14.893025 -14.896449 -0.473229 21.069654 0.785513 1.593258 -0.018189 0.001214 -148408.000000 1 0 0
9.599175 -16.118249 -4.899729 19.389415 -1.033658 1.826267 0.011766 0.021186 20415.600000 1 0 0
-0.439525 -19.155449 -6.917229 20.370872 1.547855 1.917250 -0.008389 -0.000681 197202.000000 1 0 0
-10.200825 -16.653249 -2.509029 19.689661 1.021205 1.698572 -0.000802 -0.001772 550190.000000 1 0 0
-15.745025 -6.640849 -11.008929 20.327400 0.399135 2.143113 0.058590 -0.015714 81381.200000 1 0 0
-12.429925 -15.225249 2.269671 19.785415 0.886134 1.455829 -0.012772 -0.003912 65226.500000 1 0 0
-2.729325 -16.419049 10.277871 19.561928 1.406073 1.017609 -0.001911 -0.007236 165854.000000 1 0 0
-12.525025 -14.152549 -6.496029 19.984226 0.846330 1.901869 0.005578 -0.009151 251445.000000 1 0 0
5.853175 -16.995549 -6.909929 19.257607 -1.239124 1.937795 0.020907 -0.000979 15367.600000 1 0 0
-17.343525 -6.865649 -2.427229 18.810275 0.376934 1.700195 -0.037042 0.003162 -217901.000000 1 0 0
-11.884925 -13.578949 -9.683429 20.479455 0.851827 2.063303 0.007254 -0.014377 52085.500000 1 0 0
-6.983125 -14.901749 8.987271 18.750925 1.132574 1.070942 -0.017853 0.002567 236680.000000 1 0 0
-15.985225 -8.245049 -5.819729 18.904431 0.476201 1.883729 0.015994 0.004123 210753.000000 1 0 0
-0.713125 -19.525349 -0.058729 19.538455 1.534289 1.573802 0.009601 -0.005052 175313.000000 1 0 0
-15.001325 -11.331449 -1.772529 18.883415 0.646925 1.664802 -0.005335 -0.002105 227385.000000 1 0 0
-6.937425 -19.225149 2.480371 20.588503 1.224487 1.450029 -0.015522 0.001359 122365.000000 1 0 0
-2.396025 -20.864749 -5.030329 21.595900 1.456461 1.805886 -0.011107 0.003452 -106361.000000 1 0 0
-9.228925 -19.461149 -0.594929 21.546770 1.127982 1.598411 -0.010975 0.011615 -185907.000000 1 0 0
-17.632525 -7.534249 4.922871 19.796604 0.403811 1.319487 0.004547 -0.004137 -9060.900000 1 0 0
-3.013725 -15.944149 -10.826129 19.506498 1.383983 2.159161 -0.009521 0.006556 85477.000000 1 0 0
-2.845925 -17.845649 -8.668729 20.042787 1.412654 2.018072 -0.010284 -0.003258 211187.000000 1 0 0
3.729375 -17.839749 -6.440029 19.329740 -1.364716 1.910457 0.001580 0.039372 449753.000000 1 0 0
0.804875 -17.331349 -9.451229 19.757257 -1.524389 2.069591 0.004622 0.006034 -63926.900000 1 0 0
-7.612625 -10.140649 -14.929829 19.587869 0.926845 2.437498 -0.018376 0.003728 515227.000000 1 0 0
-5.280225 -19.526649 -1.905029 20.317478 1.306701 1.664697 -0.012377 0.006821 471193.000000 1 0 0
-9.637325 -16.176149 8.638871 20.716561 1.033490 1.140651 -0.029158 0.007290 42853.900000 1 0 0
-7.309325 -15.977149 -9.531529 19.988636 1.141734 2.067861 0.007964 0.009313 191226.000000 1 0 0
-12.632525 -8.178049 -12.254629 19.407140 0.574531 2.254217 0.007135 -0.006774 365655.000000 1 0 0
-15.352425 -13.050149 3.263971 20.412174 0.704516 1.410204 -0.016232 0.002136 62372.200000 1 0 0
-6.307225 -14.178749 -12.628129 20.007190 1.152245 2.253869 -0.009212 -0.002793 500997.000000 1 0 0
-14.119025 -11.808049 -6.599629 19.553311 0.696499 1.915077 0.012957 -0.007001 163610.000000 1 0 0
-11.656425 -10.501349 -7.914629 17.572476 0.733316 2.038009 0.017326 -0.014175 203529.000000 1 0 0
-9.713225 -14.636749 3.466371 17.905219 0.984907 1.375971 -0.018076 -0.007574 453743.000000 1 0 0
5.213775 -18.292449 8.023471 20.643963 -1.293136 1.171620 0.032999 -0.010711 255104.000000 1 0 0
-4.865725 -16.963249 5.436871 18.465824 1.291457 1.271939 -0.004140 0.014269 390360.000000 1 0 0
-18.341625 -7.463049 -6.697029 20.903648 0.386433 1.896923 -0.015082 -0.000241 -20763.500000 1 0 0
-17.156625 -3.422749 -10.577829 20.443959 0.196915 2.114613 0.002802 -0.011979 -385229.000000 1 0 0
-15.928825 -4.014949 -12.960229 20.924025 0.246912 2.238768 0.009360 -0.005087 140089.000000 1 0 0
-19.378025 -4.703049 -5.683029 20.734593 0.238096 1.848434 -0.000985 0.005571 -98327.400000 1 0 0
5.599575 -13.685449 8.628571 17.120134 -1.182416 1.042571 0.014024 0.001518 263073.000000 1 0 0
19.822275 -3.460749 2.460871 20.272031 -0.172847 1.449104 0.001945 -0.008496 -23634.000000 1 0 0
17.960375 -2.301449 0.635971 18.118393 -0.127446 1.535688 0.001486 -0.021922 148280.000000 1 0 0
14.268175 -11.409949 0.066371 18.269432 -0.674545 1.567163 0.024863 0.010637 -8020.510000 1 0 0
11.004475 -13.834049 5.418871 18.489011 -0.898828 1.273343 -0.005627 0.009150 531263.000000 1 0 0
10.253975 -12.911549 8.180371 18.405721 -0.899620 1.110239 0.007649 -0.013588 -43800.700000 1 0 0
18.101875 4.043551 -4.244629 19.027481 0.219770 1.795768 0.007437 -0.000715 -72673.900000 1 0 0
18.933475 -6.033549 -4.650029 20.408404 -0.308497 1.800664 0.019649 -0.008257 -37375.300000 1 0 0
17.642375 -10.056849 -0.682629 20.318946 -0.518098 1.604398 0.016999 0.003728 293971.000000 1 0 0
17.457075 -9.036649 8.246271 21.316929 -0.477667 1.173592 0.032372 -0.001432 -48138.300000 1 0 0
19.955175 -0.002249 -2.051529 20.060353 -0.000113 1.673243 0.021468 -0.003697 218151.000000 1 0 0
7.728975 -13.161549 11.416771 19.060590 -1.039813 0.928579 0.008012 -0.001717 428739.000000 1 0 0
16.099875 -6.733049 -3.568429 17.812175 -0.396101 1.772498 0.013696 -0.004680 335963.000000 1 0 0
14.208575 -7.262049 10.691971 19.207790 -0.472491 0.980451 -0.000293 -0.042595 315323.000000 1 0 0
16.046575 1.526751 10.864171 19.438460 0.094859 0.977737 0.008060 0.000947 232735.000000 1 0 0
16.501675 -10.138349 2.300871 19.503471 -0.550928 1.452549 0.007966 0.000264 233364.000000 1 0 0
16.116275 -7.198849 -5.890529 18.607957 -0.420091 1.892897 0.012026 -0.001803 279506.000000 1 0 0
18.644975 -5.012849 5.133871 19.977997 -0.262647 1.310904 0.108781 -0.020802 -341520.000000 1 0 0
13.413775 -13.409849 7.851171 20.527890 -0.785252 1.178335 0.005209 -0.005182 216601.000000 1 0 0
14.811075 -14.584349 -1.975629 20.879997 -0.777685 1.665556 0.009115 0.017367 8276.390000 1 0 0
18.823875 -6.439949 7.811271 21.373515 -0.329634 1.196664 0.024363 -0.007469 26112.400000 1 0 0
19.581875 3.154451 2.560371 19.998897 0.159718 1.442418 0.006523 -0.001741 289664.000000 1 0 0
15.776375 -10.796349 8.027571 20.733959 -0.600136 1.173236 0.029371 -0.013772 289645.000000 1 0 0
14.114575 -4.775649 10.529571 18.245545 -0.326258 0.955619 0.004464 -0.010310 -311078.000000 1 0 0
18.674175 -7.958249 2.037971 20.401271 -0.402856 1.470735 0.007193 -0.003188 -80383.600000 1 0 0
18.834575 -5.016049 -1.841829 19.577903 -0.260280 1.665013 -0.005309 -0.007756 348768.000000 1 0 0
14.535075 -13.450049 -6.264329 20.770508 -0.746646 1.877164 0.010205 0.002416 502253.000000 1 0 0
13.868575 -9.686349 9.961871 19.631648 -0.609677 1.038586 0.000210 -0.009088 372895.000000 1 0 0
14.131775 2.168651 0.291471 14.300177 0.152271 1.550413 -0.005713 -0.004692 -309950.000000 1 0 0
13.234175 2.646551 13.685971 19.221171 0.197375 0.778417 0.021091 -0.000691 131625.000000 1 0 0
18.453675 -3.519249 8.694671 20.700737 -0.188444 1.137332 0.022300 -0.017053 185181.000000 1 0 0
6.948275 -18.279949 4.640871 20.099073 -1.207559 1.337794 -0.003621 -0.009202 361722.000000 1 0 0
12.667075 -3.345349 14.831371 19.789283 -0.258203 0.723543 -0.002481 0.010774 116950.000000 1 0 0
11.213975 -13.221449 -7.395029 18.847981 -0.867368 1.973983 0.006806 -0.000627 90746.200000 1 0 0
10.480575 -18.394349 4.726171 21.691731 -1.052900 1.351156 -0.015839 0.012349 506090.000000 1 0 0
18.342475 0.043251 -4.699229 18.934915 0.002358 1.821595 0.015393 -0.013690 357731.000000 1 0 0
4.534875 -13.849849 11.706271 18.692784 -1.254367 0.894068 0.005292 0.002190 283043.000000 1 0 0
9.295575 -2.761249 14.250971 17.237238 -0.288748 0.597482 0.008846 -0.000638 363170.000000 1 0 0
9.191775 -9.358149 13.843771 19.071279 -0.794367 0.758460 0.004767 -0.008471 333017.000000 1 0 0
20.931775 5.726751 -3.082629 21.918884 0.267056 1.711902 -0.003828 0.014734 526535.000000 1 0 0
14.539975 -13.338349 1.646271 19.799813 -0.742322 1.487554 0.007641 0.006263 210234.000000 1 0 0
11.289875 -0.728549 15.451671 19.150619 -0.064442 0.631996 0.009678 0.004490 19191.100000 1 0 0
19.634675 0.009551 7.557671 21.038986 0.000486 1.203362 0.056182 -0.009752 -92698.000000 1 0 0
19.861575 1.082851 0.417371 19.895450 0.054466 1.549817 0.011601 -0.009223 301772.000000 1 0 0
17.946575 0.170351 3.078071 18.209423 0.009492 1.400944 0.011694 -0.006940 -11414.600000 1 0 0
10.534175 -8.756549 16.177571 21.198108 -0.693508 0.702605 0.023045 0.003576 59077.000000 1 0 0
18.874875 3.165851 5.438071 19.896133 0.166181 1.293950 0.016105 -0.001042 68095.600000 1 0 0
15.327775 2.363751 7.006471 17.018185 0.153008 1.146472 0.012632 -0.005529 75071.900000 1 0 0
11.342075 -16.149349 1.901471 19.825733 -0.958512 1.474739 -0.010563 0.013219 226969.000000 1 0 0
8.639775 -16.178549 6.669971 19.516138 -1.080299 1.222000 -0.001642 -0.003408 420688.000000 1 0 0
6.123675 6.744251 7.180971 11.599598 0.833587 0.903237 -0.006397 0.005117 -1062890.000000 1 0 0
18.393575 1.480651 -6.680029 19.624951 0.080325 1.918122 -0.002150 0.006455 208368.000000 1 0 0
14.007575 4.437651 -7.242529 16.381670 0.306801 2.028748 0.011379 -0.003089 288776.000000 1 0 0
-10.939525 -3.935249 -13.542329 17.848083 0.345314 2.432197 0.006103 -0.011139 -136078.000000 1 0 0
7.967275 -14.107249 -10.472229 19.291436 -1.056688 2.144615 0.000435 0.010485 133286.000000 1 0 0
1.940775 -16.107549 13.849671 21.331505 -1.450886 0.864187 -0.009883 0.005229 470216.000000 1 0 0
-9.422325 -8.127149 2.426671 12.677519 0.711730 1.378192 0.006895 -0.004700 607380.000000 1 0 0
-13.822725 3.360551 -9.424429 17.064024 -0.238491 2.155915 -0.002216 -0.000795 208188.000000 1 0 0
-13.527625 -5.405149 -12.502829 19.197213 0.380130 2.280071 0.026056 -0.013421 159935.000000 1 0 0
-17.649525 0.136851 -8.530329 19.603341 -0.007754 2.020998 -0.000919 -0.007694 449555.000000 1 0 0
-11.997625 15.461951 4.409671 20.061410 -0.910896 1.349178 0.005825 -0.009146 201674.000000 1 0 0
-16.128025 6.381051 9.018771 19.549150 -0.376751 1.091293 -0.057912 -0.010549 292100.000000 1 0 0
-12.992125 15.407351 0.247971 20.155478 -0.870239 1.558493 0.007337 -0.024666 178053.000000 1 0 0
-16.113225 5.137751 -10.777729 20.054724 -0.308662 2.138166 0.004858 0.014723 150225.000000 1 0 0
-18.202225 2.873051 -0.040329 18.427617 -0.156549 1.572985 0.023829 0.006615 -4320.030000 1 0 0
-9.654525 15.356651 -0.106829 18.139681 -1.009550 1.576686 0.002936 -0.003835 949.985000 1 0 0
-18.349925 12.310151 2.406371 22.227240 -0.590897 1.462321 0.020188 0.003512 -297484.000000 1 0 0
-8.409925 16.369451 -7.811929 19.992799 -1.096204 1.972229 0.021450 -0.015466 103320.000000 1 0 0
-14.816125 -1.566149 -12.919629 19.720223 0.105315 2.285172 -0.010678 -0.013173 84012.100000 1 0 0
-19.170325 4.885651 -4.333329 20.252128 -0.249543 1.786433 0.034614 0.002600 -156674.000000 1 0 0
-16.493525 10.101851 -5.037329 19.986457 -0.549541 1.825581 0.011596 0.026132 111523.000000 1 0 0
-18.909725 0.988051 2.566771 19.108696 -0.052203 1.436064 0.005708 -0.006836 -17804.500000 1 0 0
-13.297725 12.607451 -6.878329 19.572653 -0.758758 1.929890 -0.000001 0.020061 -410016.000000 1 0 0
-13.184425 5.336951 -13.444229 19.571904 -0.384631 2.328031 -0.000520 0.003906 -240683.000000 1 0 0
-13.958025 9.306051 -6.652329 18.046677 -0.588037 1.948318 0.002379 0.003927 408970.000000 1 0 0
-6.542225 11.156951 -15.281029 20.019693 -1.040451 2.439202 -0.014497 -0.030996 -137932.000000 1 0 0
-14.877325 13.853251 3.025171 20.552349 -0.749769 1.423066 0.010034 -0.016209 -128474.000000 1 0 0
-18.525425 8.681251 -4.856429 21.027135 -0.438224 1.803861 0.018625 0.006312 244720.000000 1 0 0
-3.722625 16.938851 -10.064629 20.051917 -1.354467 2.096623 0.002524 0.002528 4926.130000 1 0 0
-19.260025 -1.728149 -6.787629 20.494072 0.089488 1.908371 -0.008267 -0.000378 -225277.000000 1 0 0
-10.620825 14.271451 -6.178529 18.832166 -0.931017 1.905071 0.000631 0.004346 -67259.400000 1 0 0
-18.898725 3.100851 4.284771 19.624891 -0.162628 1.350690 0.000516 -0.004859 107131.000000 1 0 0
-15.106625 12.801151 0.722071 19.814161 -0.702975 1.534346 0.021076 -0.000483 21723.500000 1 0 0
-17.410825 2.638851 -8.212429 19.430501 -0.150419 2.007171 -0.015386 -0.003103 128035.000000 1 0 0
-16.896125 13.799251 -3.119229 22.036969 -0.684848 1.712819 0.029984 0.042650 147143.000000 1 0 0
-10.452025 15.859051 -8.919529 20.983621 -0.988080 2.009837 0.004297 0.006044 -10651.100000 1 0 0
-19.319625 1.495151 -6.599629 20.470430 -0.077236 1.899058 0.018735 -0.005461 17353.000000 1 0 0
-16.874825 10.637051 -0.032729 19.947623 -0.562437 1.572437 0.009551 0.007179 -26189.000000 1 0 0
-11.778425 6.361551 -14.475229 19.716310 -0.495212 2.395248 -0.008537 -0.001667 176347.000000 1 0 0
-13.370025 12.481851 -4.681329 18.880388 -0.751055 1.821356 0.019879 -0.004736 330504.000000 1 0 0
-18.616625 7.242451 -0.551529 19.983394 -0.371015 1.598399 0.005760 0.013440 98346.600000 1 0 0
-14.589025 8.983851 -10.114629 19.896104 -0.551953 2.104090 -0.003328 0.011347 670546.000000 1 0 0
-19.002525 11.717451 4.698671 22.813859 -0.552555 1.363355 0.033649 0.000229 231243.000000 1 0 0
-8.096625 12.290851 -13.128729 19.722675 -0.988293 2.299183 -0.024981 0.005778 486445.000000 1 0 0
-21.062325 -1.357849 -5.330829 21.768855 0.064379 1.818196 -0.019525 0.005378 186513.000000 1 0 0
-10.736025 13.378651 -3.215129 17.452438 -0.894548 1.756077 0.006068 0.001023 562701.000000 1 0 0
-18.704625 -4.905649 3.996071 19.745809 0.256492 1.367013 0.013654 0.000173 -55729.300000 1 0 0
-10.770525 11.296151 -13.555129 20.672416 -0.809214 2.285920 -0.012153 0.009262 353086.000000 1 0 0
-14.703925 12.700151 -9.967329 21.836825 -0.712409 2.044793 0.000159 0.055246 258430.000000 1 0 0
-12.539625 9.786651 -14.015229 21.200174 -0.662711 2.293067 0.000999 0.008239 325121.000000 1 0 0
-18.576425 -4.742149 -2.900029 19.390248 0.249940 1.720921 0.001796 0.002078 -426283.000000 1 0 0
-9.678525 12.901251 -11.359129 19.726783 -0.927167 2.184406 0.007965 0.001546 125256.000000 1 0 0
-15.675425 7.797651 -8.167129 19.319014 -0.461601 2.007275 -0.006159 0.015693 -107153.000000 1 0 0
-14.296825 9.229551 2.181271 17.156392 -0.573252 1.443311 0.012948 0.002044 -138407.000000 1 0 0
-19.446225 6.182151 8.207671 21.994103 -0.307806 1.188366 0.021889 -0.008444 190660.000000 1 0 0
-18.776325 6.281251 4.283571 20.257184 -0.322828 1.357728 0.013679 0.012504 90066.700000 1 0 0
-14.451225 13.141851 5.901071 20.405117 -0.737981 1.277410 0.006578 -0.004714 83169.700000 1 0 0
17.848775 6.058151 5.715171 19.696272 0.327215 1.276397 0.002928 -0.002367 162449.000000 1 0 0
18.217675 7.046051 0.435071 19.537651 0.369050 1.548526 -0.000763 0.001337 -49929.100000 1 0 0
16.685675 4.179551 8.568771 19.217290 0.245437 1.108630 0.011666 -0.004360 -78975.700000 1 0 0
12.447175 12.736251 10.801071 20.828044 0.796877 1.025603 0.029426 -0.003159 250246.000000 1 0 0
15.519775 12.324451 4.100471 20.237820 0.671141 1.366769 0.016965 0.002421 204418.000000 1 0 0
5.479075 10.487151 14.393671 18.632723 1.089346 0.688037 -0.000363 0.001190 122616.000000 1 0 0
13.168475 13.275651 -5.397529 19.462399 0.789451 1.851811 0.024925 0.002027 189276.000000 1 0 0
17.767175 9.610551 -2.656429 20.373802 0.495842 1.701553 -0.011061 0.015691 -198371.000000 1 0 0
14.493975 7.144351 9.406571 18.697611 0.457967 1.043626 0.004768 -0.003018 12665.000000 1 0 0
4.795775 19.005251 -1.525829 19.660295 1.323617 1.648484 0.007096 -0.007937 523664.000000 1 0 0
-4.449425 19.878451 4.048071 20.768657 -1.350594 1.374628 -0.006605 0.032171 241712.000000 1 0 0
7.136075 12.809551 12.629571 19.352370 1.062526 0.859771 0.011544 0.006313 -13245.600000 1 0 0
0.329575 17.160051 -10.172129 19.951145 1.551593 2.105809 -0.014962 0.013033 -4981.650000 1 0 0
10.718275 9.659651 15.351171 21.067718 0.733495 0.754435 0.018051 -0.009211 168767.000000 1 0 0
-1.348625 12.206651 0.978271 12.319827 -1.460760 1.491306 -0.004212 0.003978 649246.000000 1 0 0
-4.644525 19.251151 -2.312129 19.938014 -1.334061 1.687024 0.010297 0.019418 191821.000000 1 0 0
6.089075 18.445551 6.499471 20.483123 1.251949 1.247906 0.005676 -0.008974 273075.000000 1 0 0
11.044175 17.354151 -1.794429 20.648495 1.004042 1.657810 -0.020296 -0.000821 219148.000000 1 0 0
18.367675 10.763951 2.722671 21.462690 0.530082 1.443598 0.001823 0.010353 191114.000000 1 0 0
11.808875 16.454151 6.785071 21.359443 0.948301 1.247534 0.024089 0.006257 -74547.500000 1 0 0
18.053975 6.983851 -5.849129 20.222079 0.369103 1.864234 -0.010919 0.008255 336195.000000 1 0 0
0.496875 15.429351 11.028871 18.972290 1.538604 0.950453 0.005785 -0.008075 260655.000000 1 0 0
1.222675 19.790751 -1.486829 19.884150 1.509095 1.645641 0.011512 -0.017413 65520.900000 1 0 0
14.158175 9.723151 -1.291829 17.223891 0.601779 1.645869 -0.006693 0.002360 -93542.400000 1 0 0
9.744275 16.983451 2.830871 19.783891 1.049901 1.427214 -0.004755 -0.018946 241630.000000 1 0 0
0.924075 17.873751 0.051571 17.897697 1.519142 1.567915 0.003830 0.011712 -74184.800000 1 0 0
-0.058425 21.015951 1.019371 21.040740 -1.568016 1.522330 0.011743 0.005223 152047.000000 1 0 0
6.139475 17.384351 -0.133529 18.437100 1.231308 1.578039 -0.000388 -0.020833 6672.430000 1 0 0
6.850875 18.694251 -2.977729 20.131478 1.219525 1.719255 -0.022453 -0.003659 98495.200000 1 0 0
10.123775 9.722351 12.804271 18.999060 0.765174 0.831264 0.001570 0.004498 167909.000000 1 0 0
12.851375 14.780451 8.213171 21.238544 0.855099 1.173734 0.019509 0.003468 243338.000000 1 0 0
0.415175 17.580851 7.202571 19.003572 1.547186 1.182069 0.002860 -0.000206 223046.000000 1 0 0
6.719275 18.092751 -7.752729 20.799065 1.215204 1.952761 -0.003683 0.000431 91593.700000 1 0 0
-0.607325 18.394951 9.689771 20.799874 -1.537792 1.086193 0.011563 -0.010540 49886.400000 1 0 0
15.877675 6.960651 -8.114529 19.141494 0.413159 2.008569 0.022480 0.010327 -229601.000000 1 0 0
-5.147125 19.812751 -6.374229 21.439888 -1.316626 1.872667 0.002370 -0.000203 329638.000000 1 0 0
4.371175 15.394351 10.125971 18.937490 1.294132 1.006638 -0.001631 -0.000651 195792.000000 1 0 0
8.800975 14.877251 7.747871 18.942526 1.036596 1.149416 0.002653 0.006559 -494780.000000 1 0 0
-2.510625 19.477851 6.681171 20.744348 -1.442607 1.242879 0.005601 -0.001014 -8838.310000 1 0 0
4.864775 17.780451 8.828771 20.439122 1.303730 1.124138 0.003916 0.000112 241090.000000 1 0 0
15.417975 11.895351 -6.240629 20.448931 0.657135 1.880925 0.042401 0.006061 -14656.500000 1 0 0
12.086475 6.662751 15.501471 20.755017 0.503808 0.727441 0.028578 -0.011167 295965.000000 1 0 0
17.404875 9.203951 4.728071 20.248384 0.486433 1.335117 0.031185 -0.000992 328994.000000 1 0 0
5.370175 15.061751 13.357771 20.835671 1.228304 0.874864 -0.009083 0.028276 430468.000000 1 0 0
15.918975 10.501051 -3.631329 19.413201 0.583134 1.758959 0.008552 -0.004090 44832.200000 1 0 0
15.469675 13.461851 6.203671 21.424701 0.716110 1.277032 0.021900 0.007911 347670.000000 1 0 0
12.231475 14.741151 -7.508929 20.574123 0.878176 1.944396 0.018217 0.002856 342018.000000 1 0 0
-8.387725 15.652251 9.630271 20.201214 -1.078859 1.073880 0.009986 -0.012323 225494.000000 1 0 0
-4.406225 16.605651 -7.120029 18.597239 -1.311428 1.963680 0.002806 -0.005218 148308.000000 1 0 0
2.654575 19.259851 -4.505829 19.957233 1.433830 1.798534 0.005122 -0.015828 85322.000000 1 0 0
7.335475 16.342151 8.984471 20.039856 1.148884 1.105900 0.006763 -0.005071 518991.000000 1 0 0
13.327775 15.862651 -1.368429 20.763571 0.872020 1.636749 0.003961 -0.000782 198396.000000 1 0 0
12.864875 16.738951 4.490071 21.583749 0.915523 1.361236 0.002782 -0.006839 295287.000000 1 0 0
3.352975 18.405651 0.635071 18.719342 1.390601 1.536864 0.030572 -0.009227 77412.000000 1 0 0
-7.707425 16.704151 1.752171 18.479805 -1.138496 1.475838 0.007066 -0.003843 174696.000000 1 0 0
0.165175 20.117251 -5.911429 20.968454 1.562586 1.856591 0.008476 0.013753 247221.000000 1 0 0
-7.716425 18.078051 -6.197629 20.609943 -1.167369 1.876234 0.031878 -0.008396 193131.000000 1 0 0
-7.582625 18.563651 -1.044229 20.079735 -1.183013 1.622824 0.016950 0.012617 75669.500000 1 0 0
-13.903025 -10.146949 9.440671 19.631122 0.630472 1.069112 -0.019956 0.032430 301009.000000 1 0 0
-12.862025 -13.479149 8.098171 20.315007 0.808822 1.160774 -0.019858 0.001370 164005.000000 1 0 0
-3.281225 -15.826549 12.847571 20.647183 1.366368 0.899191 -0.014878 0.003906 -46707.200000 1 0 0
-2.632825 -13.536049 15.498671 20.745245 1.378690 0.727115 0.006042 -0.021595 467645.000000 1 0 0
-7.846225 -13.748449 12.922871 20.434865 1.052200 0.886157 -0.014457 -0.002290 200867.000000 1 0 0
-9.906625 -10.325849 11.987971 18.667507 0.806116 0.873453 0.002826 -0.008475 -80291.700000 1 0 0
-7.398025 -10.582449 13.202671 18.466985 0.960685 0.774267 0.006478 0.000339 326737.000000 1 0 0
-14.925925 -12.386849 7.816071 20.911916 0.692702 1.187735 -0.014430 0.015245 153016.000000 1 0 0
-4.674025 -12.591649 13.419071 18.985984 1.215361 0.785848 0.007816 -0.003593 419107.000000 1 0 0
3.499175 -12.585749 13.972771 19.128085 -1.299618 0.751765 -0.000394 0.005276 570592.000000 1 0 0
6.940475 -13.358149 14.968871 21.229165 -1.091617 0.788220 0.018323 0.010028 212331.000000 1 0 0
7.233675 -9.313649 16.333971 20.146184 -0.910441 0.625326 0.005409 -0.003909 559582.000000 1 0 0
-5.296925 12.795351 13.836671 19.576310 -1.178303 0.785822 0.003628 -0.007162 532074.000000 1 0 0
-13.441325 -1.588149 17.420171 22.060231 0.117609 0.660535 0.000159 -0.006916 297573.000000 1 0 0
-10.215325 9.873651 12.581671 18.977363 -0.768392 0.846000 -0.016740 -0.001467 333590.000000 1 0 0
-7.189525 -8.452949 16.938871 20.250110 0.865992 0.579963 0.014752 -0.006847 163642.000000 1 0 0
-4.965825 2.221251 18.300971 19.092379 -0.420613 0.288933 0.001317 -0.002196 631787.000000 1 0 0
-15.158625 -3.664549 14.859971 21.541392 0.237196 0.809537 -0.003387 0.006264 118336.000000 1 0 0
-14.343225 3.043551 12.712571 19.406205 -0.209093 0.856511 -0.007793 0.000112 271650.000000 1 0 0
-14.763325 10.901051 9.909171 20.856183 -0.636027 1.075697 -0.015116 0.019793 59692.200000 1 0 0
-5.084125 11.074651 16.123171 20.210217 -1.140419 0.647203 0.030514 0.007252 241467.000000 1 0 0
-12.691425 13.322851 7.751271 19.966293 -0.809666 1.172099 -0.011911 -0.015009 79910.900000 1 0 0
-3.893425 -6.516549 18.599071 20.088544 1.032241 0.387505 0.012772 -0.008157 310355.000000 1 0 0
0.745275 -2.886649 18.364371 18.604793 -1.318134 0.160938 0.001965 -0.004122 111745.000000 1 0 0
-4.504125 6.601951 21.118071 22.579766 -0.972089 0.361789 0.001085 -0.005151 -28958.200000 1 0 0
2.188575 -10.828649 16.531971 19.883550 -1.371373 0.589103 0.004151 -0.000375 356201.000000 1 0 0
-14.628325 -0.166549 14.320771 20.471935 0.011385 0.796054 -0.029782 0.008163 69133.800000 1 0 0
-14.020425 -5.936749 7.961671 17.181546 0.400545 1.088985 -0.001692 0.001705 267872.000000 1 0 0
9.976675 1.676451 16.500271 19.354676 0.166482 0.550006 0.005680 0.004709 316582.000000 1 0 0
-7.465125 12.060251 11.755571 18.422031 -1.016533 0.878735 -0.006642 -0.016045 104186.000000 1 0 0
-1.758525 7.591451 20.352071 21.792874 -1.343166 0.365664 -0.002354 -0.005829 553066.000000 1 0 0
1.180675 -13.923949 15.470371 20.847127 -1.486204 0.734619 -0.007395 0.006257 544967.000000 1 0 0
-2.944025 -11.057849 17.753671 21.121935 1.310594 0.572531 -0.004140 -0.010300 342812.000000 1 0 0
-2.112825 9.140951 16.622371 19.087280 -1.343647 0.513845 -0.000251 -0.004093 457447.000000 1 0 0
-5.339825 -9.649749 20.237871 23.047838 1.065374 0.498959 0.056610 -0.010109 221920.000000 1 0 0
-6.527625 -2.691649 19.124971 20.386745 0.391105 0.353670 0.005396 -0.008897 -75130.400000 1 0 0
-10.601825 -8.176049 15.987171 20.852724 0.656927 0.697157 0.026299 -0.007360 215590.000000 1 0 0
-0.405425 5.997051 17.937471 18.917766 -1.503295 0.323334 0.011800 -0.012153 40783.500000 1 0 0
-6.002125 -11.536649 18.476571 22.594323 1.091068 0.613301 0.010629 -0.008663 453338.000000 1 0 0
0.469575 3.282051 18.698571 18.990232 1.428687 0.175488 0.010281 -0.010526 83128.800000 1 0 0
-18.365725 -0.133549 7.712471 19.919837 0.007271 1.173230 0.009570 -0.007966 164572.000000 1 0 0
-1.528225 -8.692049 17.130371 19.270101 1.396756 0.475724 0.005559 -0.015618 254826.000000 1 0 0
5.997575 3.328051 15.005471 16.498818 0.506597 0.428746 0.005999 -0.003931 482105.000000 1 0 0
-13.552925 -6.986849 10.181071 18.334450 0.475989 0.982076 -0.013500 0.001562 144315.000000 1 0 0
3.794875 7.908351 17.141671 19.255648 1.123393 0.472979 0.004522 0.003789 175435.000000 1 0 0
6.441675 4.405251 17.407771 19.077000 0.599816 0.421441 0.014832 -0.020675 193910.000000 1 0 0
5.740775 -9.343849 18.293471 21.328739 -1.019862 0.540034 0.023082 0.010445 327933.000000 1 0 0
-4.371525 -1.060149 20.174371 20.669770 0.237919 0.219379 0.003310 0.007521 630846.000000 1 0 0
-11.055125 2.010351 17.125571 20.482737 -0.179882 0.580665 0.013909 -0.005724 163397.000000 1 0 0
-16.624925 -4.159149 9.210771 19.455718 0.245144 1.077624 0.001922 0.004228 502563.000000 1 0 0
-13.181525 -9.232649 13.492671 21.001109 0.611010 0.873074 -0.003471 -0.003206 97537.300000 1 0 0
-14.352525 5.716551 13.196771 20.318187 -0.379036 0.863863 -0.010679 -0.010609 400810.000000 1 0 0
1.376975 9.170851 17.094271 19.447742 1.421763 0.497067 0.006266 -0.011198 211661.000000 1 0 0
-3.618525 -10.434249 14.906271 18.551663 1.236981 0.637644 0.008992 -0.007377 472937.000000 1 0 0
-17.013525 -2.856249 7.222871 18.702622 0.166330 1.174293 -0.020288 -0.004242 -161413.000000 1 0 0
-1.056825 -0.486149 21.427471 21.459025 0.431146 0.054236 0.001180 0.004386 381346.000000 1 0 0
-1.824325 2.422751 20.238271 20.464250 -0.925380 0.148748 -0.000366 -0.014588 181807.000000 1 0 0
-7.794425 1.736651 16.542871 18.369421 -0.219226 0.449727 -0.010811 0.009556 443133.000000 1 0 0
2.841175 -2.205749 18.815271 19.155992 -0.660154 0.188890 0.009547 -0.006718 -44505.300000 1 0 0
-12.001525 4.330851 14.494371 19.310093 -0.346315 0.721810 -0.029372 -0.001602 201947.000000 1 0 0
-13.450825 -5.576849 13.043671 19.548997 0.393038 0.840313 0.009486 0.000867 47656.400000 1 0 0
-17.030325 -0.832649 10.316171 19.928589 0.048853 1.026686 -0.001774 -0.001207 172686.000000 1 0 0
-7.229425 7.753251 14.791071 18.197618 -0.820346 0.621849 -0.018944 -0.007853 62829.800000 1 0 0
-9.597225 0.910751 13.825971 16.855079 -0.094614 0.608887 0.006578 -0.009319 173016.000000 1 0 0
7.924875 -1.008149 14.785771 16.805923 -0.126534 0.495365 0.014907 -0.006238 17854.500000 1 0 0
4.046975 6.051951 18.541971 19.920061 0.981383 0.374149 0.009792 -0.002922 20663.000000 1 0 0
1.923275 0.474751 20.083871 20.181334 0.242007 0.098319 0.006930 -0.000692 192607.000000 1 0 0
-7.066725 7.134951 17.722071 20.369535 -0.790202 0.515537 -0.011667 0.000630 672206.000000 1 0 0
7.563775 -2.994249 17.026571 18.870091 -0.376938 0.445710 0.003436 0.008956 373334.000000 1 0 0
-16.141825 2.592751 9.285971 18.801866 -0.159263 1.054244 0.002512 -0.011780 139197.000000 1 0 0
3.467175 -6.056149 18.926771 20.172281 -1.050839 0.353241 0.004961 -0.017781 164161.000000 1 0 0
-3.732225 -3.829549 20.677771 21.358024 0.798268 0.253063 0.009327 -0.004698 409522.000000 1 0 0
-9.468825 5.719951 14.594371 18.313169 -0.543416 0.648595 -0.021798 -0.001939 -106221.000000 1 0 0
6.609675 2.620851 19.792971 21.031366 0.377501 0.344878 0.015211 -0.014068 206965.000000 1 0 0
-7.000325 11.273651 14.386871 19.572477 -1.015118 0.745047 -0.017840 -0.004497 58363.500000 1 0 0
-14.302225 5.164051 9.916271 18.153609 -0.346499 0.992925 -0.009407 -0.003733 374506.000000 1 0 0
1.205975 -5.667949 20.293871 21.105005 -1.361152 0.278144 0.018112 -0.014542 340245.000000 1 0 0
-5.809725 -8.105849 13.569071 16.839756 0.948929 0.633812 0.008281 -0.010358 -73773.900000 1 0 0
-12.696525 10.006451 6.542071 17.439310 -0.667458 1.186255 -0.017443 -0.014371 127105.000000 1 0 0
-19.194625 2.169351 8.003071 20.909062 -0.112541 1.178019 -0.010353 -0.013807 -895.518000 1 0 0
-16.122325 9.264051 6.416371 19.670329 -0.521541 1.238520 0.009957 0.002021 33462.500000 1 0 0
-12.412725 7.862451 14.212371 20.442245 -0.564630 0.802035 -0.017853 -0.001231 356591.000000 1 0 0
-16.244725 9.110651 10.747971 21.503813 -0.511126 1.047409 -0.007051 -0.005723 252093.000000 1 0 0
2.298375 10.962551 14.248271 18.123832 1.364133 0.666222 -0.007821 -0.040105 244601.000000 1 0 0
2.127075 14.851751 12.731371 19.677062 1.428543 0.867132 -0.005793 -0.021453 654127.000000 1 0 0
8.728075 5.198551 16.547571 19.417166 0.537187 0.550595 0.005632 -0.002914 99532.400000 1 0 0
-0.351325 13.274051 13.492371 18.930609 -1.544335 0.777417 0.001814 0.004679 196596.000000 1 0 0
3.812275 12.286751 14.843371 19.642387 1.269940 0.714104 -0.010051 -0.002385 -252673.000000 1 0 0
-3.889725 -4.481849 -13.727129 14.954965 0.856011 2.733546 -0.007788 -0.005013 157239.000000 1 0 0
5.343475 -12.183849 17.079671 21.649805 -1.157488 0.661769 -0.048371 0.035450 141794.000000 1 0 0
8.799075 -13.833149 7.017871 17.833402 -1.004265 1.166335 -0.008263 -0.000769 164654.000000 1 0 0
-0.273425 15.281451 0.681771 15.299096 -1.552906 1.526219 -0.000039 0.001863 -139822.000000 1 0 0
-13.830325 8.305151 8.321871 18.152327 -0.540789 1.094550 -0.007647 -0.003431 -66112.200000 1 0 0
-15.717225 -9.699749 5.819271 19.364406 0.552928 1.265565 -0.016009 0.000540 158425.000000 1 0 0
9.244975 -10.369649 11.320571 17.920784 -0.842674 0.887051 -0.004129 0.000505 117379.000000 1 0 0
-24.985525 6.126651 31.097364 40.359118 -0.240464 0.691145 0.001481 -0.002177 408910.000000 0 0 1
-23.818125 5.304051 31.107264 39.536033 -0.219114 0.665176 -0.009102 0.007398 808898.000000 0 0 1
-22.847525 5.616251 32.119684 39.814894 -0.241035 0.632207 0.002828 0.000915 449059.000000 0 0 1
-21.565625 4.783851 31.838934 38.751505 -0.218293 0.606553 -0.006436 0.000671 -316080.000000 0 0 1
-21.659925 3.372351 32.019774 38.804523 -0.154455 0.600319 0.005052 -0.000977 -321525.000000 0 0 1
-20.484925 2.751951 31.576504 37.739648 -0.133541 0.579579 -0.003432 -0.000105 -498681.000000 0 0 1
-20.028325 1.673851 32.537814 38.244541 -0.083380 0.553322 -0.005336 -0.000379 -101420.000000 0 0 1
-20.788925 0.475251 32.514024 38.594909 -0.022857 0.568994 -0.002792 0.005841 250922.000000 0 0 1
-20.349125 -0.274649 33.595137 39.278436 0.013496 0.544652 -0.005120 0.003035 -92526.500000 0 0 1
-20.713025 -1.735349 33.558925 39.474578 0.083585 0.554545 0.005964 -0.021136 -293067.000000 0 0 1
-20.034125 -2.442749 32.538654 38.289649 0.121330 0.555185 0.005036 -0.021468 70006.900000 0 0 1
-20.184525 -3.853449 32.606144 38.541208 0.188641 0.562345 0.016917 -0.034678 657560.000000 0 0 1
-21.549025 -4.578749 32.174944 38.994262 0.209367 0.600382 0.009120 -0.023488 1777150.000000 0 0 1
-22.732325 -4.343349 32.951994 40.267322 0.188790 0.612295 0.003210 -0.017843 880044.000000 0 0 1
-22.669325 -4.809849 34.317065 41.408863 0.209074 0.593949 0.003891 -0.019229 -336677.000000 0 0 1
-23.897625 -4.309649 -34.165134 41.915700 0.178420 2.523684 -0.000659 -0.017373 415259.000000 0 0 1
-23.953425 -4.867049 -32.878279 40.968719 0.200459 2.502306 0.013450 -0.023147 300883.000000 0 0 1
-25.088425 -4.433249 -32.144349 41.016362 0.174899 2.471390 0.013759 -0.015859 10929.500000 0 0 1
-25.090875 -5.024549 -30.755769 40.008942 0.197640 2.447637 0.013845 -0.018343 -828456.000000 0 0 1
-25.195345 -6.448449 -30.782379 40.298173 0.250560 2.440078 0.017324 -0.014483 538090.000000 0 0 1
-25.133125 -6.996049 -29.470889 39.359268 0.271487 2.416995 0.014652 -0.012296 -246322.000000 0 0 1
-25.347325 -8.528749 -29.248069 39.631755 0.324576 2.400892 0.013658 -0.003927 983224.000000 0 0 1
-26.757915 -8.813149 -29.147109 40.536546 0.318176 2.373206 0.028853 -0.006225 765618.000000 0 0 1
-26.976275 -10.180449 -28.992729 40.889354 0.360860 2.358951 0.021872 -0.002168 222433.000000 0 0 1
-28.348125 -10.399249 -28.319919 41.397806 0.351598 2.324155 0.048261 0.005626 161400.000000 0 0 1
-28.285825 -11.449149 -27.409419 41.017644 0.384608 2.302630 0.049672 0.007779 1192550.000000 0 0 1
-29.641405 -11.701549 -26.931999 41.723755 0.375990 2.272453 0.049890 0.006912 946903.000000 0 0 1
-29.669155 -12.532349 -25.618269 41.153545 0.399669 2.242735 0.040233 0.016898 -141749.000000 0 0 1
-29.050755 -11.814249 -24.617429 39.869044 0.386248 2.236302 0.029295 0.017197 -50329.800000 0 0 1
-28.721305 -12.488049 -23.447729 39.123659 0.410143 2.213452 0.011030 0.014196 -134586.000000 0 0 1
-28.317695 -11.477149 -22.310529 37.833537 0.385067 2.201487 0.007937 0.013692 57847.800000 0 0 1
-28.200215 -12.044549 -21.004129 37.168491 0.403655 2.171358 0.007146 0.014664 -368236.000000 0 0 1
-27.089535 -12.838049 -20.770729 36.470284 0.442560 2.176724 0.010317 0.005932 -990156.000000 0 0 1
-27.003065 -13.338049 -19.328229 35.786164 0.458792 2.141356 -0.011202 0.004739 -89948.600000 0 0 1
-26.487295 -12.301849 -18.476229 34.558404 0.434800 2.134875 -0.010890 0.000648 305658.000000 0 0 1
-26.258785 -12.829049 -17.186929 33.904260 0.454456 2.102410 -0.005646 0.006547 1976.320000 0 0 1
-26.039365 -11.646749 -16.244329 32.826415 0.420585 2.088465 -0.001056 -0.003324 -654032.000000 0 0 1
-24.868325 -10.935149 -16.472729 31.770456 0.414274 2.115883 -0.010857 -0.002646 -299757.000000 0 0 1
-24.929025 -9.677949 -15.763429 31.041983 0.370310 2.103437 -0.001977 -0.014303 -329291.000000 0 0 1
-23.595325 -8.925049 -15.773029 29.752047 0.361621 2.129573 0.003785 -0.015521 -248932.000000 0 0 1
-22.590925 -9.392349 -14.932129 28.662425 0.394016 2.118778 -0.001079 -0.008953 -199942.000000 0 0 1
-21.412225 -8.625749 -14.912329 27.482076 0.382954 2.144350 -0.007819 -0.030321 -458816.000000 0 0 1
-20.464725 -9.090049 -13.825129 26.316690 0.418005 2.123907 -0.011128 -0.005275 -364684.000000 0 0 1
-19.767125 -10.289649 -14.185229 26.416601 0.479947 2.137651 -0.008350 0.007218 59939.600000 0 0 1
-18.636325 -10.542949 -13.399629 25.258987 0.514832 2.129974 0.001732 0.002121 -369026.000000 0 0 1
-17.905325 -11.759549 -13.947429 25.562051 0.581115 2.147937 0.009644 0.005326 38558.600000 0 0 1
-17.058225 -11.483649 -15.098929 25.511466 0.592514 2.204147 0.017684 -0.003939 645914.000000 0 0 1
-17.767525 -11.349049 -16.330929 26.668054 0.568428 2.229861 0.007066 -0.010596 171476.000000 0 0 1
-16.799925 -10.942449 -17.471229 26.593580 0.577316 2.287591 0.003019 -0.004350 85677.500000 0 0 1
-17.426225 -11.219349 -18.690229 27.908274 0.572018 2.304604 0.002621 0.001421 119267.000000 0 0 1
-16.808725 -10.677949 -19.820729 28.096497 0.565945 2.353857 0.000253 -0.000992 -437260.000000 0 0 1
-17.654625 -10.977949 -21.054529 29.588753 0.556307 2.362529 0.007821 0.006939 -179201.000000 0 0 1
-18.803025 -10.165749 -21.128229 30.054921 0.495632 2.350386 -0.009771 -0.001209 -227163.000000 0 0 1
-19.635325 -10.732149 -22.106229 31.454894 0.500209 2.350110 -0.009749 0.017161 226904.000000 0 0 1
-20.662825 -9.767649 -22.813129 32.292385 0.441583 2.355274 -0.012281 0.007435 328841.000000 0 0 1
-20.032825 -8.868549 -23.702129 32.276247 0.416767 2.395508 -0.013902 0.004607 -102129.000000 0 0 1
-20.961925 -8.276849 -24.574129 33.343610 0.376060 2.399412 0.000325 0.003164 -121084.000000 0 0 1
-20.322125 -7.575949 -25.820199 33.720416 0.356834 2.442947 -0.016729 0.000737 155064.000000 0 0 1
-19.621125 -8.536749 -26.630449 34.162047 0.410377 2.464717 -0.015262 -0.001784 491013.000000 0 0 1
-18.773025 -7.870049 -27.577899 34.276882 0.396966 2.505735 -0.025359 -0.005575 47438.000000 0 0 1
-17.672125 -8.775349 -28.133349 34.362713 0.460895 2.529970 -0.017336 -0.001752 -392825.000000 0 0 1
-18.131425 -9.739149 -29.060049 35.610196 0.492918 2.525357 -0.012242 -0.000805 -370779.000000 0 0 1
-17.095925 -10.496549 -29.581259 35.742119 0.550635 2.545669 -0.017602 0.002611 -583318.000000 0 0 1
-17.453925 -11.499649 -30.703119 37.142468 0.582577 2.543891 -0.013486 0.008723 -440214.000000 0 0 1
-17.879025 -10.955549 -31.932199 38.201425 0.549749 2.560549 -0.007988 -0.002029 246859.000000 0 0 1
-18.013425 -12.027549 -32.836369 39.336656 0.588717 2.558479 -0.003902 -0.002871 -266782.000000 0 0 1
-18.744325 -11.868549 -34.155690 40.728655 0.564461 2.565533 0.002516 -0.003692 -633405.000000 0 0 1
-18.066725 -11.001949 34.332305 40.325632 0.546983 0.552192 0.005021 -0.006283 -186244.000000 0 0 1
-18.422025 -11.169149 32.949984 39.367783 0.545034 0.579058 0.008485 -0.009230 -136022.000000 0 0 1
-17.829625 -12.330649 32.116334 38.747895 0.605054 0.593741 0.008651 -0.005769 -245923.000000 0 0 1
-16.432525 -12.156949 31.918854 37.902936 0.636948 0.569592 0.009650 -0.007644 398566.000000 0 0 1
-15.914525 -13.027149 30.944094 37.155291 0.685962 0.586593 0.014298 -0.005719 -59844.600000 0 0 1
-15.929125 -14.573149 31.209204 37.949020 0.740972 0.605183 0.009705 0.005068 -1031980.000000 0 0 1
-17.174525 -15.168549 30.895544 38.465359 0.723456 0.638141 0.005460 0.004837 110167.000000 0 0 1
-17.266525 -16.571449 31.271414 39.378257 0.764860 0.653223 0.011661 -0.002208 16810.300000 0 0 1
-17.730225 -16.782949 32.756844 40.853875 0.757958 0.640487 0.001812 -0.008121 -466526.000000 0 0 1
-16.656025 -16.589349 33.651083 41.049057 0.783393 0.609774 0.004285 -0.001599 157854.000000 0 0 1
-17.115725 -16.396149 -34.342462 41.727526 0.763929 2.537498 0.000608 -0.002518 115136.000000 0 0 1
-15.983325 -15.781949 -33.518479 40.348792 0.779059 2.551193 -0.005273 0.005373 -256591.000000 0 0 1
-15.642425 -14.415649 -33.852249 39.980885 0.744607 2.580569 -0.006089 0.005646 304200.000000 0 0 1
-14.533525 -13.853949 -33.140809 38.748786 0.761463 2.596875 0.000384 0.012348 215190.000000 0 0 1
-14.759125 -13.669049 -31.589199 37.450663 0.747072 2.574541 -0.003888 0.012971 -478372.000000 0 0 1
-14.916325 -14.857349 -30.862149 37.359200 0.783417 2.542934 -0.003460 0.014867 -126019.000000 0 0 1
-15.276725 -14.659349 -29.542189 36.345780 0.764778 2.519755 -0.002929 0.019056 -271237.000000 0 0 1
-15.241225 -15.933749 -28.634209 36.139967 0.807609 2.485389 0.003930 0.012018 759084.000000 0 0 1
-13.940825 -16.280749 -28.156239 35.386200 0.862670 2.490933 0.006749 0.014256 29966.100000 0 0 1
-13.126425 -16.952249 -29.032069 36.090758 0.911913 2.505492 0.015443 0.007804 -723676.000000 0 0 1
-11.666025 -17.122049 -28.577489 35.297784 0.972700 2.514286 0.007131 0.011367 63442.300000 0 0 1
-10.896225 -15.931249 -28.672119 34.563316 0.970922 2.549104 0.008232 0.015744 -631004.000000 0 0 1
-9.587225 -16.207249 -28.262289 33.960959 1.036621 2.553859 0.000054 0.010570 386152.000000 0 0 1
-8.666425 -14.913349 -28.155259 33.018684 1.044376 2.591942 0.003424 0.011669 86085.200000 0 0 1
-8.943025 -14.031249 -27.104599 31.804291 1.003355 2.591031 0.001525 0.002533 -391346.000000 0 0 1
-7.955325 -13.101249 -26.725699 30.808974 1.025086 2.620880 -0.003972 0.003829 -450671.000000 0 0 1
-7.751625 -11.856749 -27.628449 31.048371 0.991773 2.667817 -0.005579 -0.003281 -188814.000000 0 0 1
-7.257925 -12.113349 -28.937809 32.199495 1.030989 2.687601 0.008926 -0.006558 146154.000000 0 0 1
-7.170325 -10.908849 -29.654929 32.401101 0.989310 2.726911 0.011036 -0.004141 -193810.000000 0 0 1
-6.273825 -10.857749 -30.931939 33.377184 1.046845 2.756434 0.009895 0.002205 -801941.000000 0 0 1
-4.961625 -11.073949 -30.501259 32.826466 1.149570 2.762949 0.010146 -0.002093 -248579.000000 0 0 1
-3.980925 -10.578749 -31.416959 33.388366 1.210875 2.796237 0.006480 -0.001518 282604.000000 0 0 1
-3.739725 -9.023449 -31.600679 33.075838 1.177900 2.841810 0.006769 -0.001367 -790673.000000 0 0 1
-2.649725 -8.585949 -32.379269 33.602925 1.271458 2.870896 -0.003412 -0.002896 -137804.000000 0 0 1
-2.689625 -7.204749 -32.585439 33.480641 1.213506 2.909826 -0.011605 -0.007106 -491721.000000 0 0 1
-1.452425 -6.620449 -33.249229 33.933038 1.354833 2.940497 -0.004127 -0.009453 -392628.000000 0 0 1
-1.028825 -7.160149 -34.487135 35.237603 1.428085 2.934840 -0.005833 -0.005758 -272178.000000 0 0 1
0.110575 -6.498049 34.346245 34.955706 -1.553781 0.187009 -0.009213 0.002813 -9115.060000 0 0 1
0.672475 -7.047249 33.030184 33.780305 -1.475661 0.211133 -0.009419 0.004426 -68125.000000 0 0 1
-0.111625 -6.731149 31.897934 32.600598 1.554214 0.207998 -0.008025 0.008020 97357.000000 0 0 1
0.335375 -7.518649 30.840374 31.745412 -1.526220 0.239357 -0.008391 0.012324 -138566.000000 0 0 1
-0.076625 -6.956049 29.475674 30.285439 1.559781 0.231766 -0.011331 0.019393 121426.000000 0 0 1
0.727875 -5.845249 29.093804 29.684106 -1.446910 0.199762 0.001202 0.012459 214529.000000 0 0 1
0.501575 -5.433149 27.696864 28.229186 -1.478740 0.194508 0.002777 0.017984 -195697.000000 0 0 1
-0.740425 -4.568249 27.417944 27.805769 1.410113 0.167214 0.002201 0.024673 582384.000000 0 0 1
-1.999825 -5.225149 27.610064 28.171211 1.205265 0.199928 0.003446 0.026425 -509600.000000 0 0 1
-2.986225 -4.316849 27.245714 27.746741 0.965622 0.190325 0.002697 0.015529 -645841.000000 0 0 1
-4.377025 -4.837449 27.641704 28.401110 0.835324 0.231770 0.003360 0.017691 -117662.000000 0 0 1
-4.972925 -5.689449 26.654674 27.705080 0.852498 0.276246 -0.004466 0.023904 -393461.000000 0 0 1
-6.160325 -6.283349 27.104014 28.496625 0.795284 0.313919 -0.006369 0.017610 46081.300000 0 0 1
-6.225725 -7.804449 27.125114 28.903994 0.897450 0.352665 -0.002834 0.014444 -267114.000000 0 0 1
-5.382725 -8.372649 28.042074 29.756224 0.999433 0.341081 -0.010642 0.013314 -597526.000000 0 0 1
-5.660425 -9.751549 28.109194 30.286299 1.044865 0.381477 -0.018834 0.011918 180103.000000 0 0 1
-4.945725 -10.484249 29.277204 31.488638 1.130020 0.377008 -0.015467 0.007152 -136119.000000 0 0 1
-5.097825 -11.866449 29.147794 31.880940 1.165036 0.417094 -0.007544 0.001033 26131.500000 0 0 1
-4.788425 -12.578249 30.288194 33.143869 1.207046 0.418154 -0.000283 0.003494 -488024.000000 0 0 1
-4.832925 -14.129349 30.118704 33.617436 1.241223 0.460287 -0.001296 -0.010410 1115300.000000 0 0 1
-6.182825 -14.677449 30.045564 34.005746 1.172109 0.487421 0.009348 -0.010767 904122.000000 0 0 1
-6.304025 -16.070049 30.188804 34.775725 1.196959 0.519435 0.012705 -0.015181 177639.000000 0 0 1
-6.051525 -16.596949 31.635584 36.233822 1.221160 0.509281 0.015838 -0.007712 -361041.000000 0 0 1
-7.123425 -16.360349 32.492104 37.069408 1.160143 0.502210 0.023511 -0.010255 -635771.000000 0 0 1
-6.986025 -16.885249 33.754162 38.383064 1.178505 0.496191 0.026518 -0.006457 -79056.100000 0 0 1
-8.333825 -17.296349 34.410931 39.404676 1.121794 0.508922 0.028343 0.000602 695670.000000 0 0 1
-8.998025 -18.506649 33.970766 39.717420 1.118245 0.544645 0.032159 -0.004669 569633.000000 0 0 1
-9.593425 -18.461949 32.657374 38.721847 1.091566 0.567246 0.021764 -0.010482 -394084.000000 0 0 1
-10.167625 -19.874449 32.334534 39.292447 1.097918 0.604265 0.017358 -0.017147 -780723.000000 0 0 1
-11.216725 -20.331249 33.092184 40.426071 1.066650 0.611853 0.013761 -0.008154 -436547.000000 0 0 1
-11.606725 -21.645049 32.765774 40.948994 1.078586 0.643233 0.008828 -0.007631 -199661.000000 0 0 1
-11.226525 -22.627149 33.867405 42.249542 1.110231 0.640823 0.010201 -0.009873 904095.000000 0 0 1
-9.813025 -22.949849 33.958795 42.144878 1.166738 0.633833 0.005038 -0.009033 1074270.000000 0 0 1
-9.384625 -23.846149 -34.343543 42.850775 1.195864 2.500543 0.004646 -0.010105 67831.000000 0 0 1
-9.815525 -25.313869 -34.354500 43.787762 1.200892 2.472796 0.017763 -0.001941 -305809.000000 0 0 1
-9.236025 -26.005829 33.887637 43.703309 1.229539 0.683445 0.012773 0.001826 -89339.000000 0 0 1
-9.329825 -27.401209 34.051563 44.692066 1.242619 0.704531 0.024186 0.000364 -667965.000000 0 0 1
-8.633025 -28.194399 32.902504 44.181761 1.273664 0.730699 0.012760 0.000901 413439.000000 0 0 1
-7.241025 -28.043719 32.717094 43.695433 1.318110 0.724617 0.002336 0.002487 156934.000000 0 0 1
-6.395725 -28.658839 33.668956 44.674746 1.351227 0.717204 0.006331 0.001337 292395.000000 0 0 1
-4.918425 -28.150089 33.749384 44.222611 1.397821 0.702591 0.009872 0.000949 738899.000000 0 0 1
-4.805925 -26.858639 34.349241 43.867456 1.393736 0.671285 0.004019 0.004662 -58754.900000 0 0 1
-4.810225 -25.765089 33.475930 42.516067 1.386226 0.664263 0.015879 0.006044 7767.950000 0 0 1
-4.496325 -24.325849 34.042227 42.081315 1.388022 0.628410 0.016497 0.004654 301705.000000 0 0 1
-3.169025 -24.111149 34.489373 42.200794 1.440111 0.614142 -0.003452 0.015141 -30355.500000 0 0 1
-3.039525 -22.823149 -34.264662 41.281980 1.438398 2.549931 -0.004863 0.004883 -227096.000000 0 0 1
32.945460 -15.930449 1.665971 36.632745 -0.450393 1.525303 0.009802 -0.010499 -586553.000000 0 0 1
33.665683 -16.303149 2.830071 37.512400 -0.450981 1.495281 0.003053 -0.005901 -363720.000000 0 0 1
32.998410 -17.002049 3.785871 37.313504 -0.475764 1.469160 0.007398 -0.008164 -819044.000000 0 0 1
33.645160 -17.008749 5.185371 38.054992 -0.468064 1.434111 0.008366 0.001942 -243115.000000 0 0 1
34.736546 -17.891749 5.254471 39.425268 -0.475631 1.437122 0.011725 -0.007638 -50215.900000 0 0 1
-34.502076 -17.990549 6.602171 39.466971 0.480647 1.402723 0.003093 -0.002804 -419574.000000 0 0 1
-33.128075 -18.628349 6.744571 38.600181 0.512247 1.395166 -0.006822 -0.003835 -459433.000000 0 0 1
-33.174035 -20.028049 6.598571 39.308784 0.543155 1.402133 -0.012965 -0.003644 1106070.000000 0 0 1
-31.889285 -20.511549 7.060971 38.568218 0.571588 1.386680 -0.014145 0.002559 790956.000000 0 0 1
-31.829705 -22.014749 7.435471 39.408952 0.605094 1.380984 -0.004012 -0.000768 -447052.000000 0 0 1
-31.533435 -22.841249 6.316671 39.445919 0.626882 1.409969 0.004711 -0.003380 29513.800000 0 0 1
-31.825745 -24.195749 6.638371 40.526291 0.650033 1.406251 0.022476 -0.009175 -411903.000000 0 0 1
-31.326895 -25.320849 5.730471 40.686092 0.679768 1.429480 0.017220 -0.001056 -216394.000000 0 0 1
-31.813605 -25.187769 4.425471 40.818059 0.669678 1.462163 0.005487 0.003757 288539.000000 0 0 1
-31.279675 -26.225479 3.572471 40.975070 0.697732 1.483499 0.003497 0.006228 -307186.000000 0 0 1
-31.703775 -26.102139 2.065071 41.118311 0.688796 1.520553 0.009307 0.005703 -606878.000000 0 0 1
-33.020695 -26.453709 1.749371 42.346491 0.675427 1.529474 -0.001710 0.007461 -375430.000000 0 0 1
-33.446605 -25.991319 0.455471 42.360731 0.660620 1.560044 -0.007183 0.009732 -122182.000000 0 0 1
-34.242535 -24.661349 0.485271 42.201526 0.624152 1.559297 -0.005469 0.010935 -768677.000000 0 0 1
34.056917 -24.987849 0.548271 42.244133 -0.632993 1.557817 -0.004006 0.005571 -561766.000000 0 0 1
33.377350 -23.801249 0.885371 41.004034 -0.619461 1.549202 0.001369 -0.000299 -551996.000000 0 0 1
31.895520 -23.921849 0.544671 39.873246 -0.643505 1.557136 -0.009726 0.002912 -481156.000000 0 0 1
31.576010 -23.666549 -0.795629 39.468759 -0.643188 1.590956 -0.009933 -0.001464 -780688.000000 0 0 1
30.193530 -23.732549 -0.938929 38.415683 -0.666155 1.595240 -0.013656 0.001945 -468746.000000 0 0 1
29.744590 -23.680149 -2.394129 38.094907 -0.672368 1.633684 -0.016678 0.004982 -393332.000000 0 0 1
30.062930 -22.479249 -2.984829 37.656415 -0.642053 1.650144 -0.001395 -0.004292 27493.700000 0 0 1
29.620160 -22.323349 -4.324829 37.341531 -0.645835 1.686875 0.000941 -0.021886 -367924.000000 0 0 1
29.811640 -20.882749 -4.846529 36.719367 -0.611055 1.703171 0.009817 -0.018585 612982.000000 0 0 1
28.870020 -20.113749 -4.074529 35.420936 -0.608508 1.686083 0.013524 -0.012222 431372.000000 0 0 1
28.726790 -18.803249 -4.535329 34.631775 -0.579570 1.702132 0.008462 -0.013931 -215463.000000 0 0 1
27.833680 -18.048449 -3.532929 33.360783 -0.575277 1.676896 0.008747 -0.000631 -209019.000000 0 0 1
28.334620 -17.774749 -2.229029 33.522544 -0.560263 1.637339 0.007932 0.000045 -115575.000000 0 0 1
28.897720 -18.829249 -1.470229 34.522173 -0.577487 1.613397 0.002301 0.011319 -209318.000000 0 0 1
27.957370 -20.019749 -1.035429 34.401700 -0.621437 1.600899 -0.004928 0.009968 860591.000000 0 0 1
27.021780 -19.814449 0.061771 33.508100 -0.632712 1.568953 -0.009761 0.024906 717011.000000 0 0 1
26.453350 -21.065049 0.474771 33.819246 -0.672486 1.556757 -0.010571 0.016451 -178621.000000 0 0 1
25.321870 -20.732449 1.466971 32.759480 -0.686074 1.526001 -0.011634 0.022943 -1113850.000000 0 0 1
24.566220 -21.849049 1.849971 32.928749 -0.726924 1.514586 -0.006779 0.021085 -281095.000000 0 0 1
23.744820 -21.604549 2.966571 32.239317 -0.738238 1.478649 0.001102 0.017947 830657.000000 0 0 1
22.319120 -21.062649 2.540271 30.793364 -0.756443 1.488208 -0.002850 0.010711 -93347.600000 0 0 1
22.250920 -19.758349 1.923171 29.819362 -0.726134 1.506257 0.000000 0.007841 125693.000000 0 0 1
22.440820 -18.718349 2.884871 29.364766 -0.695203 1.472395 0.005013 0.015029 -394030.000000 0 0 1
22.395920 -17.256349 2.324971 28.368368 -0.656501 1.488748 -0.006723 0.018493 220511.000000 0 0 1
21.120320 -16.926349 1.795571 27.125510 -0.675609 1.504553 -0.000112 0.013548 188370.000000 0 0 1
21.217020 -15.668649 1.163971 26.401199 -0.636097 1.526694 0.004548 0.017777 1081840.000000 0 0 1
19.822320 -15.213349 0.565871 24.993810 -0.654598 1.548154 -0.011968 0.019161 920025.000000 0 1 0
18.791220 -15.041549 1.504971 24.116863 -0.675019 1.508352 -0.003052 0.010943 716349.000000 0 1 0
17.894520 -13.899549 1.411371 22.702495 -0.660402 1.508588 0.003922 0.009995 264737.000000 0 1 0
18.446320 -12.568949 1.843171 22.397376 -0.598120 1.488409 0.014688 0.010381 -360287.000000 0 1 0
19.468820 -11.988549 1.050771 22.888084 -0.551943 1.524871 0.005128 0.014097 477229.000000 0 1 0
19.838220 -10.738049 1.560171 22.611829 -0.496124 1.501743 0.000437 0.004823 360453.000000 0 1 0
20.819520 -9.900249 0.646471 23.062638 -0.443878 1.542762 0.007000 0.004917 195769.000000 0 1 0
20.169120 -9.414249 -0.517629 22.264084 -0.436708 1.594048 0.008888 0.004840 637592.000000 0 1 0
21.045020 -8.764849 -1.402729 22.840383 -0.394633 1.632249 0.011668 -0.001385 -496031.000000 0 1 0
20.295720 -8.271249 -2.672629 22.078785 -0.386987 1.692144 0.019980 -0.000954 -278263.000000 0 1 0
21.096420 -7.805049 -3.751129 22.804576 -0.354354 1.736037 0.009389 -0.001094 440743.000000 0 1 0
22.104720 -8.650449 -4.240629 24.112898 -0.373018 1.747581 0.002349 0.000454 -764271.000000 0 1 0
21.577820 -9.702649 -5.185929 24.220602 -0.422570 1.786579 -0.013897 0.000037 -465787.000000 0 1 0
20.977320 -9.170249 -6.367629 23.763167 -0.412117 1.842074 -0.010197 -0.013369 1078450.000000 0 1 0
19.547920 -9.094149 -6.230929 22.442130 -0.435441 1.852137 -0.016578 -0.002497 402577.000000 0 1 0
18.817620 -9.219449 -7.608629 22.293324 -0.455565 1.919092 -0.011650 0.002746 -302193.000000 0 1 0
18.931520 -10.465249 -8.316029 23.174991 -0.504987 1.937817 -0.005872 0.005067 220371.000000 0 1 0
20.089520 -10.695449 -9.062329 24.497086 -0.489222 1.949735 -0.004639 0.002705 -689381.000000 0 1 0
19.956320 -12.054249 -9.748929 25.270561 -0.543379 1.966852 -0.016770 0.003158 69260.800000 0 0 1
18.838520 -12.199349 -10.617429 24.828285 -0.574668 2.012671 -0.011205 -0.000407 369548.000000 0 1 0
18.840220 -13.543449 -11.111229 25.726218 -0.623271 2.017398 -0.015904 0.003107 267510.000000 0 0 1
17.543220 -13.958149 -11.885429 25.374355 -0.672079 2.058279 -0.006331 -0.002268 397687.000000 0 0 1
17.559420 -15.317549 -12.275429 26.337173 -0.717314 2.055660 -0.006073 -0.004100 133315.000000 0 0 1
16.450420 -15.634649 -13.088629 26.198679 -0.759978 2.093923 0.002419 -0.007044 -421397.000000 0 0 1
16.338920 -17.086449 -13.655729 27.301757 -0.807759 2.094600 -0.002708 -0.009926 -618368.000000 0 0 1
16.019320 -18.039449 -12.693129 27.260885 -0.844642 2.055128 -0.000815 -0.009865 180535.000000 0 0 1
16.216620 -19.355049 -13.160529 28.474483 -0.873399 2.051256 -0.000803 -0.010298 -759333.000000 0 0 1
15.394120 -20.344249 -12.313029 28.328044 -0.923033 2.020456 0.005910 -0.010018 1078520.000000 0 0 1
13.990420 -20.144949 -12.601829 27.574570 -0.963779 2.045426 0.004566 -0.010475 822753.000000 0 0 1
13.130520 -20.749349 -11.665729 27.185203 -1.006596 2.014315 -0.004208 -0.006318 759125.000000 0 0 1
11.616520 -20.456749 -11.880429 26.354633 -1.054346 2.038447 0.011223 -0.008853 1033660.000000 0 0 1
10.673420 -21.117949 -11.013229 26.099442 -1.102823 2.006415 0.004522 -0.005391 557329.000000 0 0 1
9.353620 -20.824749 -11.470429 25.548603 -1.148642 2.036403 0.007695 -0.000211 240098.000000 0 0 1
8.291220 -21.544349 -10.647729 25.421987 -1.203423 2.002963 0.007479 0.000030 -524808.000000 0 0 1
8.409120 -22.962349 -10.794429 26.730179 -1.219751 1.986495 0.025060 -0.005462 -345671.000000 0 0 1
7.472920 -23.593449 -9.993529 26.690185 -1.264056 1.954575 0.018768 -0.005155 -251411.000000 0 0 1
7.534720 -25.171869 -10.043329 28.129405 -1.279953 1.935894 0.022982 -0.009782 450984.000000 0 0 1
8.767720 -25.677409 -9.551929 28.765284 -1.241753 1.909288 0.016841 -0.005842 -78758.300000 0 0 1
8.905920 -27.063179 -9.798329 30.128695 -1.252880 1.902036 0.013848 -0.003813 -460080.000000 0 0 1
10.309920 -27.548929 -9.499029 30.910669 -1.212692 1.883157 0.011323 0.002927 -477355.000000 0 0 1
10.617620 -27.661209 -8.097029 30.715439 -1.204294 1.837563 0.008733 -0.006105 14948.100000 0 0 1
11.970320 -28.070269 -7.969829 31.539605 -1.167706 1.826259 -0.004205 0.006914 -109785.000000 0 0 1
12.323220 -28.294509 -6.485129 31.535660 -1.160037 1.777918 -0.002386 -0.000944 -51359.900000 0 0 1
11.829920 -29.463259 -5.828829 32.280116 -1.188985 1.752363 0.005929 -0.002506 503670.000000 0 0 1
10.417920 -29.354169 -5.577329 31.643433 -1.229759 1.747977 0.011239 -0.005062 567196.000000 0 0 1
9.834920 -30.437319 -4.660729 32.324579 -1.258265 1.715486 0.019854 -0.009078 -198440.000000 0 0 1
10.010220 -31.788199 -5.084929 33.712766 -1.265723 1.722205 0.023061 -0.006264 82098.000000 0 0 1
9.245520 -32.248449 -6.206729 34.116939 -1.291589 1.753740 0.022923 -0.000451 168482.000000 0 0 1
9.465120 -33.725049 -6.467329 35.620131 -1.297180 1.753373 0.015188 -0.000490 -419408.000000 0 0 1
8.871920 -34.600671 -5.540829 36.147173 -1.319795 1.724688 0.017259 0.003050 128739.000000 0 0 1
9.402020 33.565685 -5.542229 35.295460 1.297687 1.728473 0.012693 0.006186 -265680.000000 0 0 1
8.866020 32.747840 -4.406529 34.211765 1.306399 1.699957 0.000674 0.014879 -1398570.000000 0 0 1
7.550420 32.431750 -4.547829 33.608184 1.342061 1.706532 -0.001397 0.014802 -1669060.000000 0 0 1
7.171720 31.375040 -3.685829 32.394630 1.346077 1.684822 -0.009181 0.008735 67965.800000 0 0 1
5.773920 30.774610 -3.927029 31.556875 1.385333 1.695563 -0.006518 0.001887 -85367.000000 0 0 1
5.594920 29.968980 -5.090029 30.908758 1.386231 1.736229 -0.009072 0.000948 62637.900000 0 0 1
5.219220 30.726780 -6.250029 31.787390 1.402543 1.768706 -0.009105 -0.003132 -274932.000000 0 0 1
5.161720 29.941760 -7.562529 31.310449 1.400082 1.814742 -0.002519 -0.010475 -508093.000000 0 0 1
4.367720 28.789480 -7.574129 30.087848 1.420232 1.825268 -0.001323 -0.014909 117013.000000 0 0 1
5.021320 27.630140 -7.009429 28.944264 1.391025 1.815398 0.001736 -0.008782 370467.000000 0 0 1
4.156620 26.344060 -7.374029 27.670622 1.414304 1.840549 0.000952 -0.010470 -726797.000000 0 0 1
2.948720 26.140300 -6.735329 27.154648 1.458468 1.821449 0.002151 -0.011089 284129.000000 0 0 1
1.834420 26.834770 -7.441229 27.907739 1.502543 1.840698 0.002562 -0.012208 1214350.000000 0 0 1
1.230420 26.139040 -8.676029 27.568765 1.523759 1.890942 0.006296 -0.009632 84516.300000 0 0 1
2.204220 26.138210 -9.746429 27.983164 1.486666 1.926549 -0.003140 -0.015530 649936.000000 0 0 1
1.678820 25.556110 -10.973429 27.863046 1.505199 1.975596 0.001992 -0.000658 17258.600000 0 0 1
1.696220 23.987720 -11.044829 26.462731 1.500202 2.001349 0.005877 0.004871 -292504.000000 0 0 1
0.741920 23.425720 -10.209029 25.564410 1.539136 1.981599 0.011521 0.003113 -396635.000000 0 0 1
0.903120 22.027120 -10.179029 24.282139 1.529819 2.003358 -0.008013 0.007065 -104007.000000 0 1 0
-0.138780 21.249320 -9.308729 23.199252 -1.564265 1.983679 0.006661 0.003443 44737.500000 0 1 0
-1.404380 21.266220 -9.932629 23.513433 -1.504854 2.006914 0.018655 0.007237 -456326.000000 0 1 0
-2.345480 20.618720 -9.112829 22.664433 -1.457528 1.984580 0.018668 0.002040 159135.000000 0 1 0
-3.777680 20.569620 -9.692929 23.050662 -1.389167 2.004799 0.013555 0.001701 -107483.000000 0 1 0
-4.663480 19.737220 -9.028829 22.199677 -1.338773 1.989646 0.008514 -0.008940 -347457.000000 0 1 0
-5.509680 19.139820 -9.992529 22.283176 -1.290510 2.035809 0.003822 -0.008657 -524004.000000 0 1 0
-6.535180 18.110220 -9.424429 21.436150 -1.224483 2.026007 0.015300 -0.011775 323009.000000 0 1 0
-7.500280 18.690020 -8.530929 21.871164 -1.189171 1.971486 0.022984 -0.005365 75716.500000 0 1 0
-8.657280 19.136620 -9.197329 22.929230 -1.145954 1.983533 0.019451 -0.002510 -853473.000000 0 1 0
-9.797280 19.374520 -8.231729 23.218960 -1.102616 1.933204 0.024803 -0.004540 -343843.000000 0 1 0
-10.190080 18.221720 -7.499529 22.183592 -1.060897 1.915658 0.030401 -0.005725 -393360.000000 0 1 0
-11.221180 18.512820 -6.591329 22.629295 -1.025881 1.866355 0.037374 -0.003044 -535549.000000 0 1 0
-11.654280 17.225820 -5.832729 21.600274 -0.975977 1.844221 0.021844 -0.008702 -546293.000000 0 1 0
-12.601280 17.569420 -4.889129 22.167101 -0.948601 1.793183 0.029088 -0.004437 -438241.000000 0 1 0
-13.095680 16.452220 -4.180729 21.439470 -0.898510 1.767055 0.027775 -0.003935 -318283.000000 0 1 0
-14.244880 16.801620 -3.233929 22.263633 -0.867565 1.716568 0.019759 -0.005999 377450.000000 0 1 0
-15.550680 16.847820 -3.804829 23.241115 -0.825414 1.735248 0.040523 -0.014238 544431.000000 0 1 0
-16.496680 17.512720 -3.016329 24.247351 -0.815265 1.695518 0.033397 -0.008344 -45265.300000 0 1 0
-17.867280 17.722520 -3.692129 25.435393 -0.781331 1.716468 0.028354 -0.009871 -412836.000000 0 0 1
-17.841380 18.688820 -4.736529 26.268261 -0.808592 1.752102 0.032644 -0.006341 -34281.400000 0 0 1
-18.978680 18.676020 -5.569929 27.203090 -0.777361 1.777008 0.012180 -0.005356 -118725.000000 0 0 1
-18.875580 19.663020 -6.788129 28.089154 -0.805828 1.814876 0.012083 0.004103 -29410.900000 0 0 1
-18.818980 21.030720 -6.367329 28.930746 -0.840843 1.792702 0.010371 -0.001355 -47936.400000 0 0 1
-18.734880 21.862020 -7.491829 29.750145 -0.862275 1.825362 -0.002070 0.010792 -38779.500000 0 0 1
-18.572980 23.321220 -7.124629 30.652818 -0.898255 1.805372 -0.012292 0.009933 64631.800000 0 0 1
-17.323180 23.521720 -6.488529 29.924319 -0.936007 1.789364 0.004201 0.009783 99490.000000 0 0 1
-17.189480 24.818920 -5.882729 30.758145 -0.965057 1.763240 -0.006360 0.007084 213425.000000 0 0 1
-15.866980 25.077980 -5.109729 30.112713 -1.006675 1.741308 0.003244 0.008305 166455.000000 0 0 1
-15.830480 26.412280 -4.639029 31.140540 -1.030847 1.720324 0.002122 -0.002428 -207891.000000 0 0 1
-14.641480 26.715790 -3.956929 30.720737 -1.069455 1.699958 -0.002639 -0.002677 -152145.000000 0 0 1
-13.886480 27.975920 -4.519329 31.558054 -1.110055 1.714497 0.013837 -0.001496 4139.580000 0 0 1
-14.542580 29.234190 -4.410729 32.948126 -1.109190 1.705068 0.011580 -0.001682 -244972.000000 0 0 1
-13.963580 30.208590 -5.211829 33.685362 -1.137811 1.726141 0.009313 -0.004134 -361178.000000 0 0 1
-14.555780 31.589570 -4.863729 35.120187 -1.139016 1.709731 0.007949 -0.016345 915450.000000 0 0 1
-15.939780 31.803250 -5.202629 35.952617 -1.106189 1.716014 0.010891 -0.001544 662084.000000 0 0 1
-16.380580 32.932420 -4.551929 37.061945 -1.109231 1.693927 0.017050 -0.006980 -322383.000000 0 0 1
12.672275 -8.818349 18.913284 24.414384 -0.607954 0.684591 0.000949 0.010593 -270713.000000 0 1 0
12.576075 -10.202349 19.239584 25.147707 -0.681564 0.699657 0.003621 0.005872 -73318.300000 0 0 1
13.323075 -10.940849 18.307884 25.147268 -0.687532 0.755357 0.007861 0.008999 -207359.000000 0 0 1
13.705775 -12.304549 18.855484 26.358669 -0.731578 0.773682 0.014096 0.004400 -37022.800000 0 0 1
14.806375 -12.317649 19.766984 27.598675 -0.693901 0.772412 0.007496 0.003141 446738.000000 0 0 1
15.095575 -13.530949 20.454584 28.798489 -0.730796 0.780920 0.017174 -0.001152 -79464.200000 0 0 1
15.603175 -14.760349 19.669484 29.124140 -0.757647 0.829334 0.009171 0.003577 -348077.000000 0 0 1
14.733175 -15.144049 18.609384 28.155245 -0.799149 0.848704 0.011198 0.001417 242027.000000 0 0 1
14.958275 -16.424749 18.147884 28.685676 -0.832092 0.885831 0.014889 0.002359 -364789.000000 0 0 1
14.387875 -16.715849 16.699484 27.664116 -0.860104 0.922723 0.003101 -0.003430 -294436.000000 0 0 1
12.996275 -16.510849 16.663484 26.817587 -0.903949 0.900314 0.008927 -0.006664 -304889.000000 0 0 1
12.530075 -16.309349 15.358484 25.668671 -0.915701 0.929374 0.009633 -0.005283 -154260.000000 0 0 1
11.920375 -17.524149 14.608184 25.740827 -0.973465 0.967317 -0.001341 -0.000751 -362624.000000 0 0 1
12.833975 -18.568149 14.353084 26.748796 -0.966013 1.004408 -0.011453 0.001728 -293526.000000 0 0 1
12.261875 -19.658549 13.741384 26.937664 -1.013102 1.035474 -0.000110 -0.001542 -306462.000000 0 0 1
13.242175 -20.776549 13.235184 27.967664 -1.003357 1.077841 0.000853 -0.003637 107990.000000 0 0 1
13.930075 -21.484949 14.241484 29.299656 -0.995572 1.063217 0.005558 -0.005318 -196778.000000 0 0 1
14.534475 -22.546149 13.551384 30.053615 -0.998188 1.103015 0.008344 -0.006886 -225881.000000 0 0 1
15.411875 -23.486949 14.395384 31.565641 -0.990083 1.097249 0.018703 -0.004019 262518.000000 0 0 1
16.706775 -22.962549 14.680884 31.967535 -0.941808 1.093653 -0.013800 0.000444 69951.900000 0 0 1
17.203475 -23.781349 15.747084 33.308899 -0.944536 1.078377 -0.000065 -0.000729 -413616.000000 0 0 1
18.641175 -23.425849 16.103084 33.993721 -0.898651 1.077300 -0.021195 0.005334 -417212.000000 0 0 1
19.596875 -23.909349 15.204684 34.451079 -0.884199 1.113703 -0.016834 0.000606 -646922.000000 0 0 1
20.882975 -23.403949 15.462184 34.970310 -0.842260 1.112800 -0.018822 0.007804 172582.000000 0 0 1
21.965175 -24.233149 14.708884 35.861757 -0.834451 1.148172 -0.020245 0.005770 52047.500000 0 0 1
22.204375 -25.464889 15.378884 37.121488 -0.853690 1.143639 -0.018798 0.005901 -309984.000000 0 0 1
23.393275 -26.066589 14.976984 38.092288 -0.839396 1.166713 -0.015338 0.002065 -556518.000000 0 0 1
23.896175 -27.110899 16.036184 39.537162 -0.848340 1.153164 -0.012137 -0.004470 -535416.000000 0 0 1
24.299275 -26.522719 17.262584 39.898699 -0.829120 1.123355 -0.013403 0.009204 70507.400000 0 0 1
24.638175 -27.615929 18.099284 41.197855 -0.842323 1.115948 -0.004314 0.017015 72688.800000 0 0 1
25.008175 -27.171039 19.533084 41.775776 -0.826825 1.084257 -0.011190 0.008729 -542558.000000 0 0 1
23.868075 -26.881059 20.254484 41.261609 -0.844699 1.057697 -0.009169 0.020784 -349853.000000 0 0 1
24.214875 -26.591649 21.586484 41.945825 -0.832145 1.030223 -0.003060 0.021998 288884.000000 0 0 1
22.930075 -26.507319 22.471684 41.634155 -0.857631 1.000666 0.002184 0.011287 370461.000000 0 0 1
22.502975 -27.834439 22.673284 42.370009 -0.890919 1.006140 0.006548 0.011201 -319533.000000 0 0 1
21.321375 -27.830039 23.439784 42.172687 -0.917053 0.981466 0.011067 0.008750 -291747.000000 0 0 1
20.740275 -29.254069 23.467184 42.856368 -0.954075 0.991330 0.026055 0.012391 -377530.000000 0 0 1
21.469175 -30.195529 24.231184 44.270144 -0.952723 0.991604 0.023075 0.008707 235572.000000 0 0 1
21.278375 -31.494479 23.840084 44.866703 -0.976619 1.010599 0.028338 0.004015 -366932.000000 0 0 1
22.234175 -32.515799 24.462834 46.368803 -0.971028 1.015058 0.024590 0.005794 -80073.100000 0 0 1
21.912775 -32.806099 25.789924 47.133109 -0.981907 0.991814 0.023172 0.004728 671256.000000 0 0 1
23.096275 -33.297309 26.424664 48.377800 -0.964353 0.992958 0.021104 -0.004350 -365016.000000 0 0 1
22.880875 -33.649069 27.890624 49.332354 -0.973630 0.969925 0.020920 -0.007498 -81251.600000 0 0 1
22.139775 34.734433 28.258684 49.952014 1.003329 0.969494 0.013850 0.005985 157285.000000 0 0 1
20.789775 34.747036 27.828654 49.132527 1.031615 0.968666 0.017353 0.006571 -701929.000000 0 0 1
20.074975 33.476698 28.303604 48.216055 1.030619 0.943428 0.010760 -0.005469 -243155.000000 0 0 1
19.722575 33.483077 29.692994 48.905729 1.038481 0.918331 -0.019211 0.000142 281111.000000 0 0 1
19.255975 32.214560 30.176124 48.157750 1.032039 0.893601 -0.018078 0.001190 -131133.000000 0 0 1
19.074575 32.266690 31.717124 49.101473 1.036907 0.868528 -0.023008 -0.000020 -1057320.000000 0 0 1
20.233475 32.300270 32.443734 50.052940 1.011178 0.865593 -0.029198 0.005846 -868776.000000 0 0 1
19.977175 32.724740 33.760262 51.085726 1.022720 0.848839 -0.031596 0.002257 -487270.000000 0 0 1
21.270775 32.948950 34.587488 52.291237 0.997543 0.848060 -0.027570 0.009163 213893.000000 0 0 1
21.784075 31.619710 -34.462930 51.595014 0.967532 2.302248 -0.031875 0.017076 525544.000000 0 0 1
23.008675 31.687100 -33.710809 51.670979 0.942754 2.281560 -0.030112 0.019516 169663.000000 0 0 1
23.614275 30.345840 -33.465549 50.974964 0.909508 2.286978 -0.021522 0.015869 -968623.000000 0 0 1
24.003375 29.699360 34.628896 51.549728 0.891068 0.834218 -0.007268 0.016224 -331985.000000 0 0 1
23.225075 28.555700 34.438674 50.406888 0.887983 0.818642 -0.009131 0.008366 -767030.000000 0 0 1
23.219575 27.766510 33.067854 49.026633 0.874343 0.830526 0.011239 0.002219 227861.000000 0 0 1
24.414675 26.991210 33.014004 49.137829 0.835478 0.834072 0.010827 -0.002826 622767.000000 0 0 1
24.431575 26.146000 31.896364 47.936345 0.819282 0.842780 0.013051 -0.007769 -242488.000000 0 0 1
25.609075 25.127130 31.847604 47.973610 0.775899 0.844832 0.024152 -0.004009 54291.100000 0 0 1
25.626375 24.257020 32.990104 48.305911 0.757954 0.819015 0.031505 -0.014141 343535.000000 0 0 1
26.281775 24.896440 34.078108 49.718023 0.758336 0.815605 0.031313 -0.011786 -1427580.000000 0 0 1
25.973975 24.270420 -33.865269 49.097424 0.751506 2.331949 0.025603 -0.015227 -426773.000000 0 0 1
24.703875 24.512390 -33.289959 48.159735 0.781508 2.334001 0.014453 0.000793 927578.000000 0 0 1
23.571775 23.917820 -33.938139 47.743983 0.792685 2.361482 0.014418 -0.002290 -160844.000000 0 0 1
23.511075 22.377620 -33.897779 46.931737 0.760703 2.377887 0.005420 -0.011199 -859200.000000 0 0 1
23.383875 21.816420 -32.584089 45.656156 0.750734 2.365541 -0.008579 -0.015912 421083.000000 0 0 1
23.355875 20.397520 -32.599439 44.991989 0.717887 2.381193 -0.007761 -0.014159 -445671.000000 0 0 1
23.380175 19.721120 -31.233549 43.716012 0.700707 2.366655 -0.015564 -0.018265 -561156.000000 0 0 1
22.204675 19.767020 -30.467449 42.568158 0.727385 2.368470 -0.017445 -0.015629 -41375.800000 0 0 1
22.351575 19.133620 -29.195769 41.449743 0.707984 2.352325 -0.018768 -0.014832 -102784.000000 0 0 1
20.997875 19.042820 -28.426439 40.144765 0.736610 2.357598 -0.005014 -0.027807 -67082.100000 0 0 1
21.021875 18.532720 -27.109539 38.991127 0.722551 2.339598 0.002000 -0.028588 -193168.000000 0 0 1
21.522275 19.381120 -26.082029 38.975741 0.733099 2.303909 -0.000440 -0.016974 -311920.000000 0 0 1
21.633475 18.658620 -24.737629 37.790232 0.711700 2.284455 0.006291 -0.013479 199845.000000 0 0 1
22.633975 17.640820 -24.748129 37.894132 0.662050 2.282449 0.008718 -0.017749 446754.000000 0 0 1
22.627875 16.908120 -23.545929 36.773849 0.641723 2.265672 0.021072 -0.011779 -134520.000000 0 0 1
23.562775 15.663820 -23.534529 36.802631 0.586688 2.264617 0.028049 -0.018899 800130.000000 0 0 1
24.961975 16.017720 -23.420329 37.791260 0.570508 2.239193 0.020654 -0.019359 1169040.000000 0 0 1
25.864975 14.922620 -23.409529 37.943215 0.523293 2.235673 0.013836 -0.019720 118163.000000 0 0 1
25.743875 13.857320 -22.261729 36.747204 0.493798 2.221577 0.030185 -0.015849 -588709.000000 0 0 1
24.528575 13.123820 -22.279229 35.640562 0.491287 2.246067 0.042163 -0.014053 152678.000000 0 0 1
24.266875 12.443020 -21.062529 34.457801 0.473801 2.228443 0.034621 -0.015841 -1141650.000000 0 0 1
22.833775 11.995920 -21.023729 33.275825 0.483728 2.254672 0.033983 -0.008425 -1018100.000000 0 0 1
21.947175 13.028020 -20.644729 32.827010 0.535706 2.250927 0.046684 -0.008257 91195.700000 0 0 1
20.642375 12.675220 -21.114829 32.134169 0.550678 2.287739 0.043351 -0.008184 299584.000000 0 0 1
19.644875 13.838020 -21.051829 31.946696 0.613679 2.290241 0.046961 -0.009238 -546994.000000 0 0 1
20.013575 14.915320 -21.952729 33.240521 0.640461 2.292175 0.030970 -0.008875 153101.000000 0 0 1
19.237675 16.091820 -21.855929 33.267348 0.696589 2.287600 0.025466 -0.019180 116660.000000 0 0 1
17.924075 16.038920 -22.697329 33.070956 0.729949 2.327216 0.022395 -0.008137 -96441.900000 0 0 1
16.891775 15.293120 -22.142229 31.772470 0.735768 2.341862 0.012440 -0.015016 183398.000000 0 0 1
15.756875 15.226820 -23.014929 31.777698 0.768292 2.380739 0.010463 -0.022590 1111710.000000 0 0 1
14.667775 14.147120 -22.615529 30.442516 0.767331 2.408178 -0.011397 -0.010534 499528.000000 0 0 1
13.540775 14.247720 -23.431929 30.584398 0.810833 2.443610 -0.003466 -0.009655 -600680.000000 0 0 1
12.413575 13.574720 -22.887529 29.363393 0.830048 2.464596 -0.000916 -0.005102 -56705.300000 0 0 1
11.184375 13.809520 -23.776729 29.683765 0.890046 2.499762 0.005160 -0.005231 -568708.000000 0 0 1
10.693475 15.111220 -23.570829 29.971375 0.954954 2.475828 -0.001344 -0.002334 -110148.000000 0 0 1
10.290875 15.651320 -24.770229 31.055276 0.989161 2.494131 0.013037 -0.011653 -760244.000000 0 0 1
10.200275 17.198720 -24.899829 31.934982 1.035478 2.464989 0.006237 -0.005382 142191.000000 0 0 1
11.406475 17.932020 -24.708529 32.591048 1.004258 2.431250 -0.001152 -0.001383 498624.000000 0 0 1
12.534375 17.700120 -25.548109 33.512843 0.954620 2.437714 0.007536 -0.011057 140776.000000 0 0 1
12.322375 18.091720 -27.067459 34.810897 0.972864 2.461568 0.019767 -0.025015 -510464.000000 0 0 1
13.448575 17.870720 -27.869679 35.734378 0.925666 2.465322 0.014945 -0.028003 -151287.000000 0 0 1
13.017075 17.579820 -29.171899 36.462227 0.933432 2.498188 0.020471 -0.029440 -588226.000000 0 0 1
14.106375 17.824820 -30.190859 37.791560 0.901328 2.496224 0.013308 -0.026952 -285986.000000 0 0 1
15.206575 16.943320 -30.139789 37.771985 0.839366 2.494667 -0.001911 -0.025781 47017.500000 0 0 1
15.994175 17.101020 -31.313869 39.100088 0.818830 2.499534 -0.005957 -0.015575 -363086.000000 0 0 1
17.185875 16.155820 -31.465109 39.324520 0.754514 2.498324 0.002738 -0.011483 -14983.200000 0 0 1
18.300675 16.681720 -30.727599 39.463652 0.739152 2.463276 -0.001732 -0.017624 630837.000000 0 0 1
19.466875 15.855820 -30.727749 39.680736 0.683522 2.456522 -0.014105 -0.008712 150385.000000 0 0 1
20.602375 16.554920 -31.451359 41.081762 0.676898 2.442738 -0.009819 -0.010117 -641856.000000 0 0 1
20.199075 16.815720 -32.817359 42.044620 0.694246 2.466320 -0.017615 -0.005279 588752.000000 0 0 1
21.214475 17.611020 -33.400719 43.310622 0.692852 2.451505 -0.013317 -0.010884 -132975.000000 0 0 1
21.075975 17.891220 34.431084 44.156449 0.703850 0.676527 -0.009877 0.002032 -196554.000000 0 0 1
21.914375 18.984120 34.055734 44.726163 0.713873 0.705284 -0.004272 0.002512 375616.000000 0 0 1
21.805375 19.222820 32.698974 43.751732 0.722535 0.726693 0.002295 -0.001306 -1140490.000000 0 0 1
22.679875 20.386420 32.303914 44.424382 0.732194 0.756611 0.009477 -0.006648 21624.700000 0 0 1
24.068675 20.078420 32.299534 45.007821 0.695258 0.770385 0.013493 -0.017368 9551.290000 0 0 1
24.860475 21.172520 31.935904 45.675166 0.705453 0.796524 0.018079 -0.026480 102469.000000 0 0 1
26.376375 20.870820 31.913174 46.365450 0.669395 0.811658 0.025119 -0.028135 -12728.300000 0 0 1
26.889575 20.404120 33.128754 47.295789 0.649117 0.794756 0.017495 -0.028524 90667.500000 0 0 1
28.301075 20.285220 32.992874 47.968435 0.621889 0.812337 0.017221 -0.028092 399424.000000 0 0 1
29.025375 19.657520 34.213277 48.984067 0.595296 0.797557 0.019767 -0.026428 -68130.400000 0 0 1
29.050075 20.389620 -33.869589 49.059071 0.611986 2.332816 0.015091 -0.021329 -270880.000000 0 0 1
28.097275 19.880420 -32.998139 47.681916 0.615780 2.335118 0.007084 -0.019339 -585404.000000 0 0 1
28.377875 20.224520 -31.551089 47.008576 0.619190 2.306592 0.007587 -0.007742 -291342.000000 0 0 1
29.508375 19.480920 -31.185339 47.146323 0.583500 2.293558 0.009413 -0.009763 -191873.000000 0 0 1
29.957075 19.905120 -29.879049 46.758932 0.586470 2.263996 0.003310 0.001699 30057.100000 0 0 1
31.486575 19.806420 -29.750429 47.631782 0.561502 2.245405 -0.006030 0.006285 -401375.000000 0 0 1
32.231175 20.595220 -30.602639 48.985030 0.568592 2.245588 -0.007418 -0.006973 482056.000000 0 0 1
33.620075 20.510620 -30.252909 49.661187 0.547791 2.225830 -0.010716 0.006891 922468.000000 0 0 1
34.615375 21.466420 -30.952979 51.157778 0.555098 2.220624 -0.002115 -0.006170 5747.210000 0 0 1
-34.520371 21.003520 -32.163369 51.645776 -0.546601 2.243073 0.007221 -0.010759 -137724.000000 0 0 1
-33.355371 21.729420 -32.467049 51.369813 -0.577395 2.254961 0.009926 -0.010549 34006.100000 0 0 1
-32.391271 20.979020 -33.444029 51.066787 -0.574739 2.284857 0.003617 -0.011374 155817.000000 0 0 1
-31.819571 19.822820 -32.842019 49.840019 -0.557142 2.290217 0.005893 -0.007184 781274.000000 0 0 1
-30.908171 19.217420 -33.811569 49.677424 -0.556265 2.319408 0.004951 -0.001608 556868.000000 0 0 1
-30.253071 17.841220 -33.439759 48.495102 -0.532836 2.331663 -0.004721 0.008261 45161.300000 0 0 1
-31.189271 16.807320 -33.192879 48.549190 -0.494267 2.323611 -0.001826 0.007406 35295.300000 0 0 1
-30.653471 15.535420 -33.456929 47.961971 -0.469079 2.342800 -0.011981 0.018116 372085.000000 0 0 1
-31.747071 14.418020 -33.660669 48.464383 -0.426302 2.338583 -0.009478 0.014246 278889.000000 0 0 1
-31.194071 13.210620 -34.149742 48.101927 -0.400598 2.360217 -0.007355 0.015528 -216867.000000 0 0 1
-32.085571 12.190520 -33.896609 48.239742 -0.363093 2.349939 -0.006155 0.009474 -716499.000000 0 0 1
-31.499971 10.754720 -33.956929 47.549818 -0.329011 2.366182 -0.003540 0.010034 -242620.000000 0 0 1
-31.163371 10.350520 34.069252 47.318103 -0.320674 0.766987 -0.002354 0.003965 204085.000000 0 0 1
-31.432071 8.955720 33.897415 47.087310 -0.277568 0.767161 0.006544 -0.005191 -262378.000000 0 0 1
-30.533771 8.457720 32.727824 45.551670 -0.270221 0.769186 0.015846 -0.008053 257878.000000 0 0 1
-29.245371 8.150220 33.236274 45.015194 -0.271788 0.740199 0.010180 -0.000677 -74861.800000 0 0 1
-28.515671 7.435920 32.231534 43.672739 -0.255086 0.740659 0.017406 -0.005138 -21108.300000 0 0 1
19.337875 -4.277049 -32.343049 37.925181 -0.217670 2.592143 0.009482 -0.012018 1124540.000000 0 0 1
20.763575 -4.475249 -32.543989 38.862129 -0.212286 2.563345 0.002583 -0.013576 1781570.000000 0 0 1
21.697975 -3.591649 -31.903359 38.749533 -0.164042 2.538036 0.000569 -0.008544 498866.000000 0 0 1
21.732575 -2.118149 -32.445739 39.109044 -0.097157 2.549227 -0.001114 -0.001540 -1019480.000000 0 0 1
22.573075 -1.274549 -31.724679 38.956686 -0.056403 2.522418 0.001086 -0.001338 -144561.000000 0 0 1
22.365575 0.080351 -32.106459 39.128635 0.003593 2.533145 0.000006 0.004467 -488946.000000 0 0 1
23.472275 1.059551 -31.721139 39.475321 0.045110 2.504063 -0.003578 0.006619 -722578.000000 0 0 1
24.640975 0.907651 -32.480779 40.779927 0.036818 2.492263 -0.011366 0.005838 -712634.000000 0 0 1
25.644475 1.591651 -31.760249 40.851999 0.061987 2.461392 -0.016859 0.003904 -625239.000000 0 0 1
27.036775 1.434851 -32.369219 42.199672 0.053021 2.445025 -0.020399 0.000910 -462668.000000 0 0 1
27.223575 2.175851 -33.547239 43.258231 0.079756 2.458321 -0.007361 -0.001246 136455.000000 0 0 1
28.041875 1.515851 -34.512606 44.494545 0.054004 2.458555 -0.011096 -0.002662 14795.500000 0 0 1
28.733275 2.389651 33.775228 44.408080 0.082976 0.706614 0.003754 0.000312 -178153.000000 0 0 1
27.830675 3.066751 32.929524 43.223893 0.109750 0.704653 0.007829 0.003775 186525.000000 0 0 1
27.993075 4.465951 33.052114 43.543073 0.158204 0.708917 0.011084 0.007839 -142624.000000 0 0 1
27.035475 5.246151 32.129324 42.317047 0.191665 0.708633 0.020731 0.008704 -125333.000000 0 0 1
27.107475 6.615451 32.375114 42.740231 0.239366 0.711343 0.020703 0.000921 -9821.150000 0 0 1
26.477275 7.360751 31.384774 41.716073 0.271156 0.719186 0.010901 0.004730 -211327.000000 0 0 1
26.513275 8.866451 31.613414 42.201607 0.322724 0.724087 0.012156 0.000492 -68383.900000 0 0 1
27.814975 9.317551 31.358944 42.940342 0.323235 0.752049 0.015701 -0.005811 -251742.000000 0 0 1
27.992875 10.608451 31.862674 43.719221 0.362246 0.754225 0.010274 -0.005984 490618.000000 0 0 1
29.347375 11.246651 31.400984 44.427214 0.365962 0.785837 0.007557 0.003105 670109.000000 0 0 1
30.497475 10.702251 32.061704 45.525674 0.337496 0.789422 0.004200 -0.011055 1027270.000000 0 0 1
31.771575 11.032451 31.509684 46.086963 0.334216 0.817975 0.000595 -0.008329 694258.000000 0 0 1
32.284975 12.486251 31.609784 46.876481 0.369033 0.830752 0.006689 -0.008254 -816497.000000 0 0 1
32.667975 12.696851 32.909604 48.077527 0.370696 0.816863 0.007879 -0.010130 262110.000000 0 0 1
33.162275 14.027251 33.315840 49.055534 0.400165 0.824199 0.010129 -0.004465 -259901.000000 0 0 1
32.086675 15.070951 33.463186 48.749083 0.439111 0.814218 0.016839 -0.016793 -914832.000000 0 0 1
31.685875 15.598051 32.172234 47.773910 0.457446 0.831962 0.013052 -0.024244 -55586.500000 0 0 1
30.682775 16.573451 32.200694 47.465742 0.495253 0.825216 0.013538 -0.034320 775860.000000 0 0 1
29.217975 15.991051 32.226744 46.346163 0.500769 0.801891 0.015662 -0.026924 381553.000000 0 0 1
28.701575 15.462851 31.028014 45.006864 0.494162 0.810127 0.013867 -0.012844 302352.000000 0 0 1
27.558575 14.674151 31.367264 44.257327 0.489286 0.783075 0.007857 -0.008074 797913.000000 0 0 1
26.682275 14.116851 30.162444 42.673204 0.486634 0.785798 0.005326 -0.001262 409721.000000 0 0 1
27.280375 13.047851 29.432984 42.199121 0.446127 0.798923 -0.002810 0.002206 212656.000000 0 0 1
26.426275 12.626051 28.375064 40.778786 0.445717 0.801223 0.003004 -0.005133 82492.000000 0 0 1
26.077675 11.049451 28.373434 40.089740 0.400780 0.784491 0.003769 0.004058 287231.000000 0 0 1
27.051975 10.210851 27.779604 40.097097 0.360920 0.805420 0.011255 0.008086 163520.000000 0 0 1
26.479375 8.931151 27.599994 39.276996 0.325305 0.791609 0.014829 0.010840 96186.100000 0 0 1
27.509475 7.852151 27.224474 39.491764 0.278041 0.810176 0.015426 0.004509 247122.000000 0 0 1
28.127275 8.089851 25.948894 39.114376 0.280057 0.845429 0.018375 0.007254 -242329.000000 0 0 1
29.233175 7.282151 25.735004 39.621947 0.244137 0.863851 0.012556 0.013762 -434972.000000 0 0 1
29.897475 7.382151 24.331984 39.247937 0.242074 0.902110 0.012931 0.012282 89872.300000 0 0 1
30.610675 8.616251 24.181984 39.950238 0.274379 0.920650 0.005844 0.008497 277154.000000 0 0 1
29.850675 9.720751 23.692284 39.330397 0.314816 0.924303 0.011578 0.014699 -15202.800000 0 0 1
29.458375 9.700751 22.162284 38.119119 0.318120 0.950354 0.010882 0.014838 131206.000000 0 0 1
30.521575 9.999151 21.299084 38.538299 0.316590 0.985228 -0.001745 0.012323 176938.000000 0 0 1
30.021075 9.895351 19.993184 37.402009 0.318399 1.006823 -0.008558 0.003382 -848411.000000 0 0 1
30.814575 10.774151 19.052684 37.797157 0.336358 1.042483 -0.007340 -0.006370 266026.000000 0 0 1
32.078775 10.337851 18.569484 38.480446 0.311756 1.067210 0.000045 -0.003484 293024.000000 0 0 1
33.104175 10.435551 19.542084 39.833154 0.305373 1.058020 -0.000801 0.006197 -981791.000000 0 0 1
34.392675 9.825851 18.953284 40.480000 0.278283 1.083528 -0.005751 0.002443 -529266.000000 0 0 1
34.358175 8.440751 18.702984 40.019146 0.240899 1.084504 -0.004993 0.005174 273409.000000 0 0 1
-34.358171 8.054151 17.720084 39.488665 -0.230260 1.105443 0.001399 0.005692 -123165.000000 0 0 1
-34.322771 6.538151 17.456284 39.057930 -0.188235 1.107462 -0.005405 0.006176 -206655.000000 0 0 1
34.106975 5.982551 17.015384 38.582379 0.173639 1.114068 -0.020497 0.010505 437815.000000 0 0 1
34.250075 4.752051 16.372484 38.258435 0.137866 1.128579 -0.016990 0.013166 -401007.000000 0 0 1
33.042075 3.814251 16.494084 37.126568 0.114928 1.110441 -0.026272 0.016947 -193903.000000 0 0 1
33.043775 2.961151 17.625584 37.567548 0.089374 1.082445 -0.021871 0.017321 -74418.900000 0 0 1
31.912875 2.121051 17.619084 36.515237 0.066366 1.067275 -0.019470 0.020318 -206820.000000 0 0 1
31.879875 1.287251 18.936084 37.102004 0.040356 1.035171 -0.014613 0.001242 -319870.000000 0 0 1
32.738275 0.182951 19.035784 37.870690 0.005588 1.044132 -0.027270 0.004074 -190902.000000 0 0 1
32.358275 -0.604049 20.147684 38.122854 -0.018665 1.013971 -0.021730 0.001950 91178.700000 0 0 1
32.966975 -2.008949 20.033584 38.629028 -0.060863 1.025566 -0.014467 0.004165 -29344.200000 0 0 1
32.613575 -2.743949 21.154684 38.970440 -0.083937 0.996982 0.012710 -0.000052 -140154.000000 0 0 1
32.886175 -4.117549 21.054684 39.265181 -0.124558 1.004847 -0.007919 0.003970 -200698.000000 0 0 1
32.252375 -4.906749 22.245384 39.486060 -0.150978 0.972334 -0.008070 0.013072 -9236.200000 0 0 1
32.768975 -4.382549 23.489684 40.555859 -0.132952 0.953058 -0.009629 0.007601 -100757.000000 0 0 1
32.019175 -4.707749 24.606334 40.655407 -0.145983 0.920727 -0.006422 -0.000170 -342692.000000 0 0 1
32.323275 -3.956349 25.867524 41.588166 -0.121794 0.899512 -0.015617 0.000677 -31097.900000 0 0 1
31.468775 -4.296749 26.933854 41.643467 -0.135701 0.867451 -0.007057 0.005814 -407079.000000 0 0 1
31.897275 -3.723549 28.164874 42.714881 -0.116210 0.850817 -0.004341 0.005399 120248.000000 0 0 1
31.061575 -4.000549 29.467424 43.001801 -0.128089 0.815835 -0.009162 0.001963 156768.000000 0 0 1
31.214775 -5.377049 29.895514 43.554754 -0.170586 0.814284 -0.006895 -0.000055 -175743.000000 0 0 1
30.431675 -5.659049 31.031434 43.829916 -0.183859 0.784139 -0.001620 -0.005906 -40121.400000 0 0 1
30.180275 -7.191349 31.334414 44.095464 -0.233918 0.780440 -0.003478 -0.001906 1124640.000000 0 0 1
31.323675 -7.734849 32.052144 45.479011 -0.242090 0.788700 -0.005302 -0.003081 713643.000000 0 0 1
31.320775 -9.143849 31.996194 45.698548 -0.284048 0.795178 -0.015309 0.002758 1058850.000000 0 0 1
32.749475 -9.691449 32.399454 47.076288 -0.287716 0.811746 -0.025197 0.004700 1243730.000000 0 0 1
32.722475 -10.044749 33.748917 48.069187 -0.297837 0.792467 -0.015433 -0.006054 562784.000000 0 0 1
34.089075 -10.095849 34.173254 49.313309 -0.287931 0.805179 -0.007741 -0.009297 323533.000000 0 0 1
34.341775 -10.463449 -33.656919 49.210054 -0.295750 2.323951 -0.003535 -0.008930 -554313.000000 0 0 1
33.951975 -9.493049 -32.665779 48.061499 -0.272640 2.318104 -0.018203 -0.001554 679766.000000 0 0 1
34.799775 -8.325649 -32.567429 48.383656 -0.234830 2.309200 -0.001125 0.002398 228138.000000 0 0 1
34.217575 -7.145949 -31.721849 47.203630 -0.205880 2.307731 -0.001874 0.002552 -112684.000000 0 0 1
34.183175 -7.375449 -30.329639 46.290103 -0.212505 2.285254 -0.012233 0.000941 320618.000000 0 0 1
33.421275 -6.315049 -29.760449 45.194532 -0.186751 2.289616 -0.000460 -0.000372 35763.400000 0 0 1
33.751975 -6.021649 -28.262399 44.432187 -0.176551 2.260203 0.001620 -0.003843 305206.000000 0 0 1
-34.555971 -5.690649 -27.995429 44.835729 0.163214 2.245159 0.005709 -0.003406 127162.000000 0 0 1
-34.316271 -5.195749 -26.720559 43.801718 0.150266 2.226900 0.005989 0.001237 885319.000000 0 0 1
-32.781571 -4.886049 -26.587539 42.490023 0.147959 2.246871 0.022688 0.000495 120236.000000 0 0 1
-32.562071 -4.435149 -25.250669 41.443398 0.135373 2.225950 0.030138 -0.003587 208759.000000 0 0 1
-31.213271 -4.305549 -24.846829 40.126935 0.137075 2.238527 0.039907 -0.003580 436940.000000 0 0 1
-30.249171 -3.316449 -25.569619 39.746906 0.109202 2.269611 0.049617 -0.005395 -272186.000000 0 0 1
-29.785871 -3.808949 -26.818669 40.260988 0.127187 2.299791 0.043423 -0.007268 -60278.000000 0 0 1
-28.858171 -2.948449 -27.424549 39.919835 0.101817 2.328136 0.043700 -0.007359 -169385.000000 0 0 1
-28.238671 -3.501549 -28.696159 40.412286 0.123369 2.360415 0.036638 -0.006812 -135441.000000 0 0 1
-29.122271 -3.493949 -29.795419 41.810062 0.119404 2.364047 0.046095 -0.004224 -18367.400000 0 0 1
-28.714471 -4.534449 -30.594729 42.203311 0.156622 2.381739 0.035883 -0.001833 -813327.000000 0 0 1
-29.809771 -4.856149 -31.655979 43.752778 0.161486 2.379683 0.025163 0.002703 146204.000000 0 0 1
-30.878171 -5.632849 -31.147209 44.219216 0.180438 2.352348 0.013677 0.004705 626259.000000 0 0 1
-31.860571 -5.015849 -30.302189 44.254687 0.156150 2.325019 0.020554 0.002758 -113030.000000 0 0 1
-32.875371 -3.985849 -30.902689 45.295178 0.120652 2.321634 0.035185 -0.000348 -430157.000000 0 0 1
-32.443971 -2.764649 -31.495449 45.301411 0.085008 2.339553 0.045872 -0.000193 -209938.000000 0 0 1
-31.839971 -1.788349 -30.668719 44.244234 0.056108 2.336672 0.046144 -0.002180 -34291.500000 0 0 1
-31.510671 -0.501649 -31.485679 44.547974 0.015919 2.355734 0.054621 0.001654 -64345.300000 0 0 1
-32.618271 0.246551 -31.939829 45.652656 -0.007559 2.345672 0.056605 0.004154 -212008.000000 0 0 1
-32.290371 1.481851 -32.569149 45.886963 -0.045859 2.359967 0.055974 0.006909 136836.000000 0 0 1
-33.506871 2.377051 -32.927709 47.038227 -0.070824 2.346222 0.051033 0.003430 169676.000000 0 0 1
-34.142371 2.044651 -34.134268 48.322151 -0.059815 2.355181 0.032911 -0.000094 -679403.000000 0 0 1
34.268675 2.618251 -34.229139 48.505992 0.076255 2.354162 0.012580 0.001883 -125022.000000 0 0 1
33.283775 1.984551 34.006219 47.625319 0.059555 0.775549 0.009390 0.003682 603043.000000 0 0 1
33.635875 2.245051 32.605634 46.899250 0.066647 0.802060 0.001507 0.002077 552693.000000 0 0 1
34.801575 1.562051 32.150734 47.405267 0.044854 0.825472 0.004199 0.007396 90640.700000 0 0 1
-34.672871 1.592251 30.610414 46.278944 -0.045890 0.848069 0.008191 0.001015 -313590.000000 0 0 1
-34.320871 2.858951 30.156124 45.776496 -0.083109 0.851615 0.009255 -0.006273 85461.900000 0 0 1
-33.887171 2.882751 28.806224 44.569599 -0.084865 0.868044 0.008294 -0.010928 204970.000000 0 0 1
-33.411471 4.355551 28.494944 44.127758 -0.129630 0.868808 0.010267 -0.012251 67944.400000 0 0 1
-32.917771 4.495551 27.166984 42.916601 -0.135729 0.885351 0.005529 -0.008465 174656.000000 0 0 1
-32.311671 5.733651 26.958314 42.469631 -0.175620 0.883090 0.006279 -0.004201 -690999.000000 0 0 1
-31.545471 5.805351 25.677164 41.086927 -0.181995 0.895732 0.005191 0.002069 -848832.000000 0 0 1
-30.319571 5.133451 25.711054 40.083500 -0.167721 0.874426 0.003242 -0.002846 373400.000000 0 0 1
-29.341571 5.442651 24.711234 38.745262 -0.183408 0.879174 0.006400 -0.003350 382813.000000 0 0 1
-29.680771 5.078851 23.238884 38.036675 -0.169475 0.913524 0.016498 -0.003799 -338084.000000 0 0 1
-29.763471 3.680751 23.056284 37.828618 -0.123042 0.915375 0.006915 -0.011750 -239291.000000 0 0 1
-30.679371 3.416351 22.041584 37.930551 -0.110900 0.950712 0.000061 -0.008797 -525555.000000 0 0 1
-30.684271 1.907551 21.579784 37.561287 -0.062087 0.958776 0.003164 -0.002719 427194.000000 0 0 1
-29.464671 1.441851 20.981484 36.200393 -0.048896 0.952568 0.008529 -0.000931 690872.000000 0 0 1
-29.352071 1.854251 19.609284 35.348357 -0.063089 0.982741 0.005283 0.001371 136476.000000 0 0 1
-28.214371 1.063251 18.895384 33.973766 -0.037667 0.981019 0.002170 0.005837 202761.000000 0 0 1
-28.540671 -0.306749 18.766284 34.159002 0.010747 0.989174 0.012725 0.005463 645709.000000 0 0 1
-27.578571 -1.024949 17.965484 32.930027 0.037148 0.993733 0.020573 0.007112 285918.000000 0 0 1
-27.492071 -0.744449 16.456184 32.049558 0.027072 1.031584 0.008259 0.014066 3184.890000 0 0 1
-27.049571 0.578751 16.179184 31.524280 -0.021393 1.031853 0.013658 0.009543 261854.000000 0 0 1
-27.130771 0.845051 14.802084 30.917544 -0.031137 1.071555 0.021105 0.006475 -66655.600000 0 0 1
-26.614771 2.245051 14.479484 30.381602 -0.084154 1.074028 0.022991 -0.000168 323753.000000 0 0 1
-25.219371 2.427651 14.278384 29.082338 -0.095966 1.057600 0.015998 -0.004413 398387.000000 0 0 1
-24.978071 3.716951 13.772984 28.764819 -0.147725 1.071494 0.020257 -0.010996 -466726.000000 0 0 1
-23.555471 4.093551 13.344284 27.380418 -0.172065 1.061726 0.037766 -0.012130 -143021.000000 0 0 1
-22.705071 4.274451 14.487484 27.270467 -0.186082 1.010719 0.032185 -0.011689 -1869.950000 0 0 1
-21.392171 4.522651 14.047484 25.988674 -0.208348 0.999737 0.044113 -0.018710 741.216000 0 0 1
-20.469071 4.959951 15.239484 25.996651 -0.237732 0.944424 0.029354 -0.019543 -167072.000000 0 0 1
-20.804371 6.234151 15.674884 26.784109 -0.291141 0.945632 0.030955 -0.014133 271093.000000 0 0 1
-20.071771 6.640651 16.793384 26.999851 -0.319510 0.899527 0.030420 -0.006258 -538683.000000 0 0 1
-20.111171 8.112251 17.138384 27.640406 -0.383409 0.901992 0.023475 -0.007521 -258021.000000 0 0 1
-19.279171 8.980851 16.357084 26.830884 -0.435941 0.915194 0.013786 -0.006695 613521.000000 0 0 1
-19.444671 10.386251 16.627884 27.612605 -0.490588 0.924562 0.004796 0.000386 -70525.300000 0 0 1
-19.025771 10.978051 18.028884 28.417217 -0.523343 0.883519 0.023389 -0.001025 -93994.700000 0 0 1
-19.978871 10.776351 19.037284 29.626056 -0.494659 0.872928 0.036741 -0.003558 486884.000000 0 0 1
-19.423771 11.260751 20.285984 30.259024 -0.525390 0.836034 0.045731 0.003674 342066.000000 0 0 1
-12.450125 -33.040417 -22.680629 41.965292 1.210435 2.141782 0.007947 -0.000246 -221432.000000 0 0 1
-12.887625 -34.017617 -21.828029 42.423484 1.208653 2.111252 0.013179 -0.005068 2046.920000 0 0 1
-13.943725 -33.472917 -21.052329 41.929276 1.176090 2.096812 0.001839 -0.005062 -178499.000000 0 0 1
-14.538825 -34.487017 -20.023329 42.446030 1.171831 2.062055 -0.003867 -0.000156 -112239.000000 0 0 1
-15.223525 33.941451 -20.681829 42.561907 -1.149171 2.078216 -0.015165 0.001684 385496.000000 0 0 1
-15.872525 32.983151 -19.850929 41.639941 -1.122276 2.067725 -0.017918 0.006552 306636.000000 0 0 1
-17.278725 33.296451 -19.294629 42.184010 -1.092115 2.045857 -0.002912 0.004049 -287731.000000 0 0 1
-17.221825 34.300151 -18.302929 42.521628 -1.105477 2.015774 0.000049 0.000315 236051.000000 0 0 1
-18.509925 34.497651 -17.745229 42.983700 -1.078333 1.996362 -0.002270 -0.001693 145016.000000 0 0 1
-18.603025 34.185251 -16.251629 42.176053 -1.072430 1.966360 0.004034 -0.003209 -121855.000000 0 0 1
-18.347825 32.833351 -15.915429 40.840819 -1.061209 1.971096 -0.005670 -0.010634 156694.000000 0 0 1
-19.072125 32.636851 -14.727929 40.568731 -1.041946 1.942321 0.012012 -0.009516 -170024.000000 0 0 1
-19.173625 31.102751 -14.441029 39.288069 -1.018361 1.947189 -0.004300 -0.009680 353700.000000 0 0 1
-18.019525 30.402851 -13.959529 37.998751 -1.035768 1.946974 -0.020341 -0.006824 29234.200000 0 0 1
-18.204725 29.027551 -14.192429 37.086868 -1.010650 1.963492 -0.021166 -0.008666 -969508.000000 0 0 1
-17.093425 28.126451 -13.776429 35.680141 -1.024709 1.967206 -0.014129 -0.004531 -848825.000000 0 0 1
-15.959525 28.253751 -14.603229 35.584199 -1.056613 1.993673 -0.016903 -0.002164 -635728.000000 0 0 1
-15.018125 27.251951 -14.356529 34.268395 -1.067121 2.003078 -0.011303 -0.006900 560527.000000 0 0 1
-13.621825 27.596051 -15.004029 34.237656 -1.112270 2.024427 -0.004293 -0.003893 441741.000000 0 0 1
-13.588725 27.555451 -16.456229 34.853462 -1.112651 2.062530 -0.013539 -0.008162 -503512.000000 0 0 1
-12.639225 28.429651 -16.949329 35.429858 -1.152460 2.069618 -0.011859 -0.005270 -475826.000000 0 0 1
-12.717825 28.575651 -18.533129 36.356400 -1.152060 2.105705 -0.003639 -0.014438 -26011.200000 0 0 1
-12.415425 27.377851 -19.218129 35.679490 -1.145049 2.139609 -0.009449 -0.021805 80712.900000 0 0 1
-12.958825 27.351051 -20.495829 36.552567 -1.128331 2.166054 -0.015196 -0.029231 -511705.000000 0 0 1
-12.484325 26.098351 -21.217129 35.876857 -1.124613 2.203575 -0.014780 -0.024697 -971026.000000 0 0 1
-11.152525 26.370151 -21.493729 35.801454 -1.170687 2.214746 -0.003031 -0.027695 -835340.000000 0 0 1
-10.463725 25.249951 -22.012029 35.093860 -1.177933 2.248792 -0.003493 -0.025835 -413553.000000 0 0 1
-9.197225 25.616151 -22.759329 35.479053 -1.226091 2.267231 0.003045 -0.024526 -750260.000000 0 0 1
-9.386225 26.277651 -23.970829 36.786096 -1.227727 2.280524 0.002908 -0.026876 81713.100000 0 0 1
-8.235625 26.289151 -24.793229 37.062774 -1.267209 2.303595 0.004548 -0.022259 16095.100000 0 0 1
-8.581025 26.997351 -26.122579 38.534142 -1.263048 2.315709 0.002367 -0.008238 -243542.000000 0 0 1
-9.496425 26.393651 -26.972719 38.914451 -1.225418 2.336617 -0.002648 -0.010244 -558964.000000 0 0 1
-9.616525 27.165751 -28.146689 40.282648 -1.230567 2.344417 0.012384 -0.005801 -1198670.000000 0 0 1
-10.896525 26.740051 -28.784379 40.771376 -1.183843 2.354623 -0.003068 -0.006829 -1181950.000000 0 0 1
-11.215725 27.346351 -30.011909 42.122798 -1.181583 2.363831 -0.006295 -0.000987 675672.000000 0 0 1
-12.356625 26.691951 -30.613769 42.454085 -1.137238 2.376189 -0.003253 -0.005507 431651.000000 0 0 1
-12.704625 27.125651 -32.050269 43.868305 -1.132778 2.389999 -0.008854 -0.000475 -371942.000000 0 0 1
-11.878425 26.711951 -33.103039 44.163747 -1.152370 2.418182 -0.004770 0.002426 -139892.000000 0 0 1
-11.654425 25.315451 -33.215239 43.358388 -1.139354 2.443489 0.009937 0.002522 168843.000000 0 0 1
-10.904925 24.811951 -34.489383 43.864198 -1.156706 2.475556 -0.009211 0.003294 132953.000000 0 0 1
-11.754625 24.709351 33.716990 43.423020 -1.126764 0.681740 -0.004177 0.006619 192391.000000 0 0 1
-11.084425 24.030351 32.622204 42.006315 -1.138612 0.681542 -0.002281 0.007993 -93860.800000 0 0 1
-11.884625 24.024751 31.295094 41.204562 -1.111412 0.708244 0.007304 0.006821 -277478.000000 0 0 1
-13.146425 23.424851 31.344584 41.279960 -1.059382 0.708533 0.014056 0.011307 -89438.300000 0 0 1
-13.845425 23.385851 30.077064 40.536695 -1.036248 0.734790 0.020394 0.010535 940023.000000 0 0 1
-15.159725 22.558151 30.114164 40.565383 -0.979091 0.734209 0.013217 0.012149 530357.000000 0 0 1
-14.810325 21.186951 30.279234 39.812870 -0.960721 0.706654 0.004780 0.006370 -188241.000000 0 0 1
-15.950625 20.350751 30.337994 39.861879 -0.906021 0.705823 0.003094 0.006404 82861.000000 0 0 1
-15.658125 18.786051 30.378664 38.999434 -0.875961 0.677804 -0.004831 0.000649 -246663.000000 0 0 1
-15.245225 18.190151 29.159274 37.597364 -0.873250 0.683184 -0.001314 -0.001658 -6778.790000 0 0 1
-14.823625 16.872351 29.362204 36.966946 -0.849945 0.652970 -0.010104 -0.010115 55777.000000 0 0 1
-14.269825 16.158251 28.089504 35.408152 -0.847381 0.654576 -0.002413 -0.015477 -9457.970000 0 0 1
-13.216725 16.873951 27.489224 34.857847 -0.906345 0.662252 -0.010848 -0.011254 -147727.000000 0 0 1
-12.694025 16.079251 26.417544 33.430035 -0.902512 0.659606 -0.018048 -0.007616 251633.000000 0 0 1
-11.588725 16.740051 25.537684 32.660392 -0.965274 0.673063 -0.011268 -0.002090 31586.600000 0 0 1
-11.965625 17.698651 24.531904 32.530490 -0.976308 0.716483 -0.009708 -0.000614 -238763.000000 0 0 1
-12.464425 18.943451 24.843394 33.636446 -0.988831 0.739826 -0.009289 -0.002048 102573.000000 0 0 1
-11.395425 19.967651 25.361704 34.231255 -1.052204 0.736397 -0.011573 -0.001003 448427.000000 0 0 1
-10.932225 19.729451 26.668874 34.928407 -1.064805 0.702035 -0.012174 -0.000385 815576.000000 0 0 1
-11.973225 20.023351 27.651544 36.178731 -1.031876 0.700835 -0.000613 0.007088 846406.000000 0 0 1
-11.614625 19.613751 29.120204 36.980874 -1.036156 0.664152 -0.004574 0.008239 -958957.000000 0 0 1
-10.595625 20.215851 29.778774 37.519639 -1.088036 0.653953 -0.021451 0.005845 -1072750.000000 0 0 1
-10.547825 19.844751 31.129784 38.394456 -1.082254 0.625298 -0.027231 0.007536 7499.610000 0 0 1
-9.569525 20.708351 31.951844 39.259801 -1.137918 0.620038 -0.024414 0.005087 135907.000000 0 0 1
-8.210925 20.339151 31.825274 38.651629 -1.187104 0.603441 -0.018275 0.000827 -52188.700000 0 0 1
-7.440025 21.336151 32.478594 39.565697 -1.235276 0.607850 -0.022119 0.007619 -208535.000000 0 0 1
-6.155825 20.822451 33.134154 39.614907 -1.283350 0.580103 -0.023131 0.003982 -605565.000000 0 0 1
-6.344525 20.002251 34.230492 40.150587 -1.263644 0.549946 -0.031657 0.008000 -107859.000000 0 0 1
-5.176125 19.435851 -34.518468 39.950835 -1.310519 2.614004 -0.028863 0.012248 288662.000000 0 0 1
-4.569625 18.206051 33.998061 38.835679 -1.324882 0.504464 -0.033454 0.005560 95719.800000 0 0 1
-5.165225 16.962851 34.256141 38.573321 -1.275214 0.477648 -0.036527 0.004117 -261015.000000 0 0 1
-4.736225 16.073251 33.226894 37.213005 -1.284241 0.467087 -0.014647 0.001994 60246.500000 0 0 1
-5.328625 14.637851 33.115044 36.595998 -1.221677 0.439695 -0.019547 -0.005495 44306.400000 0 0 1
-4.565325 13.673751 33.883203 36.822345 -1.248558 0.402255 -0.018543 -0.001216 174802.000000 0 0 1
-5.028825 12.382851 33.649613 36.206637 -1.185032 0.378075 -0.013408 0.001886 -141366.000000 0 0 1
-4.084625 11.280951 34.177379 36.222055 -1.223399 0.337602 -0.019684 0.002489 -61890.300000 0 0 1
-4.070625 11.119651 -33.776729 35.792234 -1.219873 2.804405 -0.004305 0.002005 316574.000000 0 0 1
-3.138925 10.090851 -33.321989 34.957590 -1.269218 2.834485 -0.001274 0.006404 760985.000000 0 0 1
-3.135225 9.773151 -31.819829 33.434198 -1.260368 2.829571 0.009629 0.011696 618430.000000 0 0 1
-4.345625 9.118551 -31.429659 33.012965 -1.126068 2.830631 0.007125 0.011052 538084.000000 0 0 1
-4.194025 8.712851 -30.043969 31.561744 -1.122171 2.830210 0.010894 0.021519 488647.000000 0 0 1
-5.450725 7.855751 -29.701919 31.203000 -0.964209 2.830152 0.012168 0.009975 249513.000000 0 0 1
-5.499925 7.264651 -28.433159 29.857476 -0.922779 2.831470 0.014878 0.005853 -8408.310000 0 0 1
-6.540125 6.324051 -28.287459 29.714427 -0.768603 2.830427 0.020744 -0.003493 -451123.000000 0 0 1
-6.506525 5.549451 -26.970959 28.294238 -0.706178 2.834550 0.014076 -0.007200 -339924.000000 0 0 1
-6.952925 6.170751 -25.828589 27.450635 -0.725868 2.796105 0.000444 0.001901 -387409.000000 0 0 1
-6.072325 7.168751 -25.399039 27.080903 -0.868015 2.787308 0.006657 0.001770 -428111.000000 0 0 1
-6.506025 8.030251 -24.186429 26.302027 -0.889873 2.737769 -0.000599 0.002174 -24646.900000 0 0 1
-6.719725 7.247551 -23.005229 25.038416 -0.823170 2.735819 -0.004812 0.004396 -358338.000000 0 0 1
-7.825225 7.783351 -22.334529 24.912766 -0.782715 2.682623 -0.008344 0.009321 -251353.000000 0 1 0
-7.632025 7.920151 -20.848129 23.571616 -0.803922 2.656130 -0.015735 0.007145 52006.900000 0 1 0
-6.942125 9.103451 -20.441329 23.428911 -0.919291 2.631057 -0.026299 0.007660 -4978.140000 0 1 0
-6.769925 9.240651 -19.020829 22.203906 -0.938509 2.599524 -0.023459 0.006481 346171.000000 0 1 0
-8.067025 9.357951 -18.115229 21.927373 -0.859348 2.543031 -0.027323 0.007726 359534.000000 0 1 0
-7.761825 9.494751 -16.731329 20.744484 -0.885484 2.509078 -0.031115 0.006779 315398.000000 0 1 0
-8.968625 9.695951 -16.014429 20.758363 -0.824347 2.451943 -0.017365 0.001210 234268.000000 0 1 0
-9.545925 11.131351 -16.126529 21.796711 -0.861923 2.403660 -0.015564 -0.003703 -850247.000000 0 1 0
-8.553025 12.071751 -15.817329 21.658008 -0.954378 2.389590 -0.029290 -0.004972 -290203.000000 0 1 0
-8.966225 13.394251 -16.065029 22.757072 -0.980898 2.354540 -0.012071 -0.007468 -328303.000000 0 1 0
-7.801825 14.366951 -15.859329 22.777096 -1.073313 2.341004 -0.011485 -0.004548 -207909.000000 0 1 0
-7.272325 14.527751 -14.555729 21.813104 -1.106684 2.301364 -0.008639 0.000281 -212880.000000 0 1 0
-8.197025 15.075851 -13.678129 21.944560 -1.072788 2.243757 -0.008917 -0.010600 -1153370.000000 0 1 0
-7.601025 15.828451 -12.479029 21.541625 -1.123103 2.188664 -0.001181 -0.007055 150220.000000 0 1 0
-7.120225 17.166851 -12.747029 22.536307 -1.177626 2.171984 0.005972 -0.009927 659870.000000 0 1 0
-6.014825 17.302851 -13.661129 22.851548 -1.236243 2.211576 0.007862 -0.002949 188847.000000 0 1 0
-5.846425 18.792051 -14.088529 24.203482 -1.269177 2.192089 0.018516 0.009018 224278.000000 0 1 0
-5.309025 19.691051 -13.126529 24.253433 -1.307442 2.142688 0.017971 0.002922 -62318.300000 0 1 0
-5.407325 20.988951 -13.655629 25.617405 -1.318652 2.133010 0.016092 0.017410 90476.600000 0 0 1
-4.776225 22.058951 -12.693029 25.894452 -1.357567 2.083096 0.010067 0.019616 -350995.000000 0 0 1
-4.705925 23.402251 -13.076029 27.217524 -1.372354 2.071938 0.002889 0.019581 2255200.000000 0 0 1
-6.043925 24.069851 -13.162829 28.091758 -1.324783 2.058463 0.016129 0.015595 2981620.000000 0 0 1
-6.963025 24.204851 -11.871729 27.844147 -1.290689 2.011265 0.006521 0.013105 464844.000000 0 0 1
-7.424325 22.915551 -11.374629 26.638793 -1.257482 2.011963 0.015817 0.013123 -73065.900000 0 0 1
-8.114925 22.877351 -10.137129 26.305638 -1.229928 1.966394 0.022278 0.005688 -39371.200000 0 0 1
-7.358425 23.317751 -8.876929 26.012763 -1.265115 1.919046 0.021566 0.003920 -63194.800000 0 0 1
-7.031225 24.711151 -9.040929 27.236327 -1.293586 1.909160 0.017426 0.003292 -195951.000000 0 0 1
-6.609725 25.346551 -7.849229 27.344954 -1.315703 1.861937 0.014630 0.001364 -87281.000000 0 0 1
-6.729825 26.876751 -7.825829 28.790518 -1.325445 1.846080 0.009039 0.000341 521965.000000 0 0 1
-5.802125 27.743951 -8.544729 29.604120 -1.364636 1.863595 -0.000417 -0.004016 342105.000000 0 0 1
-5.938125 27.697451 -9.929729 30.016823 -1.359601 1.907953 0.000842 0.005270 31533.000000 0 0 1
-5.180225 28.859351 -10.570029 31.167650 -1.393189 1.916793 -0.009950 0.008602 20085.800000 0 0 1
-5.831325 30.105451 -10.462429 32.400694 -1.379469 1.899596 -0.010170 0.002538 -74519.100000 0 0 1
-6.775925 30.312751 -11.502129 33.122123 -1.350878 1.925449 -0.005839 0.002839 375841.000000 0 0 1
-7.849425 31.408251 -11.225329 34.265139 -1.325897 1.904561 0.002004 0.000353 119917.000000 0 0 1
-8.961825 31.008551 -10.484529 33.937736 -1.289451 1.884869 0.010758 0.000886 221295.000000 0 0 1
-9.959925 32.043451 -10.315529 35.105456 -1.269438 1.869042 0.011132 -0.007283 966790.000000 0 0 1
-11.129825 31.569751 -9.411529 34.772102 -1.231854 1.844878 0.016767 -0.002746 475535.000000 0 0 1
-11.903725 30.485651 -9.933829 34.201675 -1.198533 1.865492 0.011754 0.000535 540894.000000 0 0 1
-13.060825 30.200251 -9.128029 34.146175 -1.162612 1.841409 0.019697 0.006390 900360.000000 0 0 1
-13.907625 28.980451 -9.574229 33.540341 -1.123360 1.860277 0.017225 0.008768 210001.000000 0 0 1
-13.487225 27.647851 -9.210529 32.111412 -1.116939 1.861713 0.005740 0.015622 143508.000000 0 0 1
-14.574325 26.792751 -9.518229 31.950887 -1.072598 1.873290 0.015812 0.013676 181244.000000 0 0 1
-14.540525 25.419851 -8.779329 30.572411 -1.051209 1.862062 0.015193 0.011444 -52947.600000 0 0 1
-13.523625 24.536051 -9.226529 29.496357 -1.067052 1.888938 0.014457 0.011532 383044.000000 0 0 1
-13.895225 23.196851 -8.889229 28.463830 -1.031103 1.888409 0.024936 0.006362 178355.000000 0 0 1
-12.835725 22.168751 -9.362129 27.273776 -1.045961 1.921187 0.029662 0.008511 22855.200000 0 0 1
-12.944625 21.815551 -10.719729 27.538958 -1.035268 1.970621 0.038995 0.009477 332302.000000 0 0 1
-12.133125 20.676051 -11.019729 26.384584 -1.040124 2.001662 0.036451 0.007403 -6134.480000 0 0 1
-12.270125 20.149551 -12.489829 26.693749 -1.023820 2.057702 0.029305 0.010097 311220.000000 0 0 1
-13.598525 19.816551 -12.875429 27.265221 -0.969378 2.062614 0.031293 0.017181 175206.000000 0 0 1
-13.556825 19.251851 -14.175529 27.483939 -0.957269 2.112708 0.028665 0.015621 315112.000000 0 0 1
-14.956025 18.929151 -14.752829 28.277932 -0.902118 2.119648 0.016193 0.017322 459826.000000 0 0 1
-15.709425 20.102551 -15.056729 29.624377 -0.907460 2.103953 -0.005346 0.010402 115558.000000 0 0 1
-17.070325 19.775251 -15.291229 30.270088 -0.858679 2.100363 -0.010273 0.014335 331626.000000 0 0 1
-17.847225 20.883251 -16.050529 31.815926 -0.863627 2.099577 -0.024797 0.007351 -15214.900000 0 0 1
-18.030725 22.071451 -15.279629 32.337642 -0.885820 2.062925 -0.015039 -0.007713 120132.000000 0 0 1
-18.267925 23.156751 -16.115729 33.610548 -0.902872 2.070863 -0.014818 -0.009647 -352809.000000 0 0 1
-18.675325 24.322651 -15.174629 34.214449 -0.915990 2.030313 -0.018495 -0.001982 367888.000000 0 0 1
-20.018825 24.178751 -14.726629 34.673318 -0.879243 2.009455 -0.011036 0.001629 226895.000000 0 0 1
-20.470725 25.171651 -13.867829 35.284264 -0.888031 1.974722 -0.018014 -0.002023 -73156.500000 0 0 1
-25.113235 -0.736849 4.358471 25.499290 0.029333 1.399028 0.033188 -0.018146 -74754.200000 0 0 1
-25.580165 0.140651 5.391571 26.142565 -0.005498 1.363068 0.043464 -0.012203 37051.600000 0 0 1
-26.771145 -0.336349 5.951371 27.426742 0.012563 1.352065 0.016145 -0.006653 -914100.000000 0 0 1
-27.325245 0.474651 7.134271 28.245215 -0.017369 1.315447 0.012659 -0.010857 -945124.000000 0 0 1
-27.687505 1.779651 6.705271 28.543402 -0.064188 1.333665 0.031979 -0.012815 320717.000000 0 0 1
-28.059795 2.605851 7.838571 29.250398 -0.092602 1.299499 0.034634 -0.004411 -45227.500000 0 0 1
-26.828145 3.202651 8.582371 28.348959 -0.118814 1.263230 0.036359 -0.012580 -27830.800000 0 0 1
-26.254805 2.197251 9.347171 27.955542 -0.083495 1.229872 0.033125 -0.018005 -1038390.000000 0 0 1
-25.134375 2.672651 9.971371 27.171826 -0.105936 1.195042 0.028498 -0.024491 -996968.000000 0 0 1
-24.358425 1.497151 10.660771 26.631305 -0.061386 1.158941 0.017982 -0.017630 160574.000000 0 0 1
-23.502525 0.754551 9.745871 25.454274 -0.032094 1.177887 0.021326 -0.016946 1153660.000000 0 0 1
-24.179525 -0.325449 9.004171 25.803691 0.013459 1.214347 0.019323 -0.015260 -61889.100000 0 0 1
-23.266425 -1.256949 8.148671 24.684151 0.053972 1.234368 0.032350 -0.018063 -315937.000000 0 1 0
-22.503825 -2.138049 8.916071 24.299995 0.094724 1.195104 0.025522 -0.015713 166942.000000 0 1 0
-21.326825 -2.472149 8.199771 22.982194 0.115402 1.205969 0.021821 -0.015707 628340.000000 0 1 0
-20.032625 -2.653049 9.052771 22.142660 0.131670 1.149615 0.019543 -0.010421 185018.000000 0 1 0
-19.463925 -1.492449 9.668971 21.784416 0.076528 1.110908 0.016512 -0.012468 772843.000000 0 1 0
-20.263125 -0.873549 10.688571 22.926031 0.043084 1.085783 0.026202 -0.012210 -348175.000000 0 1 0
-19.665925 0.487251 11.168671 22.621345 -0.024771 1.054431 0.020529 -0.010203 -113760.000000 0 1 0
-19.733125 1.510451 10.202271 22.265759 -0.076395 1.094822 0.008232 -0.016334 537700.000000 0 1 0
-20.278225 2.697351 10.800171 23.132787 -0.132241 1.085040 0.023641 -0.017925 -1755.480000 0 1 0
-21.105325 3.667751 9.897571 23.597650 -0.172065 1.137979 0.020689 -0.022374 -440175.000000 0 1 0
-21.583925 4.730051 10.726571 24.562137 -0.215736 1.118856 0.029656 -0.020927 582013.000000 0 1 0
-22.037125 5.828151 9.960471 24.875957 -0.258550 1.158837 0.023511 -0.019063 -267392.000000 0 1 0
-22.097525 7.057051 10.851671 25.609791 -0.309122 1.133235 0.025656 -0.019791 -294444.000000 0 0 1
-23.152625 6.971751 11.760671 26.887967 -0.292485 1.118096 0.026569 -0.018358 14932.600000 0 0 1
-23.153325 8.003651 12.742371 27.613456 -0.332821 1.091162 0.023839 -0.015844 -342670.000000 0 0 1
-23.835725 7.561951 14.026571 28.671756 -0.307209 1.059610 0.017428 -0.016300 -729807.000000 0 0 1
-25.220135 7.526151 13.873371 29.751783 -0.290005 1.085688 0.015596 -0.011480 -652228.000000 0 0 1
-25.843355 7.119951 15.089871 30.761615 -0.268835 1.058084 0.009962 -0.011679 -730705.000000 0 0 1
-27.334355 6.939551 14.889071 31.890575 -0.248624 1.085037 0.003014 -0.006247 -862119.000000 0 0 1
-27.619845 5.754351 14.230471 31.598651 -0.205403 1.103638 0.009799 -0.005648 -109284.000000 0 0 1
-28.307655 5.976051 13.038271 31.733784 -0.208056 1.147395 0.007141 -0.001053 -762984.000000 0 0 1
-28.380645 4.706351 12.168971 31.236111 -0.164334 1.170621 0.014729 -0.003889 -395040.000000 0 0 1
-29.191735 3.720951 12.711471 32.055957 -0.126782 1.163051 0.008546 0.001936 -49166.700000 0 0 1
-29.455625 2.715751 11.776671 31.838643 -0.091938 1.191910 0.002545 0.004645 -633094.000000 0 0 1
-30.491255 1.686551 12.170371 32.873683 -0.055256 1.191555 0.001998 0.014481 -593434.000000 0 0 1
-30.181305 0.717251 13.141671 32.926117 -0.023760 1.160233 -0.005921 0.013973 159633.000000 0 0 1
-31.384055 0.017451 13.420571 34.133136 -0.000556 1.166705 -0.004538 0.018649 68064.000000 0 0 1
-31.337895 -0.977849 14.601371 34.586412 0.031193 1.134958 -0.013561 0.012115 -144681.000000 0 0 1
-30.950935 -2.306849 14.281771 34.165054 0.074395 1.139529 -0.011455 0.015825 331329.000000 0 0 1
-31.231795 -3.195649 15.358871 34.950424 0.101966 1.115813 -0.011106 0.014372 -29725.300000 0 0 1
-30.993745 -4.696449 15.048971 34.772696 0.150385 1.123221 -0.007010 0.015069 -390783.000000 0 0 1
-31.928355 -5.155049 14.139571 35.297619 0.160075 1.158645 -0.005062 0.013522 -337200.000000 0 0 1
-31.639945 -6.481249 13.833971 35.135046 0.202049 1.166103 0.004128 0.002940 -1186330.000000 0 0 1
-32.599325 -7.190449 12.819971 35.759897 0.217094 1.204134 0.002958 0.002189 194912.000000 0 0 1
-33.949335 -7.359749 13.157671 37.146300 0.213483 1.208725 -0.002299 0.008853 -197045.000000 0 0 1
-34.649517 -6.187049 13.436371 37.674988 0.176699 1.206128 0.005300 0.014985 -2016490.000000 0 0 1
33.542440 -6.186949 13.050071 36.519556 -0.182401 1.205373 0.009139 0.014723 -72524.300000 0 0 1
32.664590 -6.952649 13.867671 36.161127 -0.209720 1.177217 -0.000528 0.009448 -244133.000000 0 0 1
31.363590 -6.881449 13.348171 34.773593 -0.215986 1.176824 -0.008007 0.014793 292447.000000 0 0 1
30.398260 -8.038749 13.833371 34.351679 -0.258530 1.156333 -0.021739 -0.000511 242071.000000 0 0 1
29.816810 -7.777549 15.097171 34.314093 -0.255159 1.115231 -0.014487 0.000616 128837.000000 0 0 1
28.788820 -8.719749 15.367171 33.778397 -0.294103 1.098491 -0.006979 0.006197 131270.000000 0 0 1
28.238590 -8.613749 16.831771 33.984160 -0.296069 1.052636 -0.021768 -0.006347 -196529.000000 0 0 1
29.175030 -9.016649 17.822071 35.356874 -0.299742 1.042500 -0.019737 -0.002530 -174645.000000 0 0 1
28.638850 -8.916149 19.110971 35.565583 -0.301819 1.003511 -0.017290 -0.001244 -444129.000000 0 0 1
29.598420 -9.244449 20.282171 37.052568 -0.302729 0.991555 -0.013494 0.000783 262329.000000 0 0 1
30.650960 -8.331249 20.518371 37.813947 -0.265398 0.997251 -0.006150 0.001358 -362147.000000 0 0 1
31.825000 -8.663849 19.849171 38.495227 -0.265793 1.029057 -0.001431 0.003595 -937242.000000 0 0 1
33.127730 -8.091649 20.405071 39.740259 -0.239565 1.031583 0.003209 0.000873 -158712.000000 0 0 1
33.507840 -8.747549 21.617271 40.824029 -0.255360 1.012758 0.001421 0.000345 680351.000000 0 0 1
34.808037 -8.329549 22.068571 42.047624 -0.234883 1.018261 -0.004698 0.001117 592436.000000 0 0 1
-34.527589 -8.722149 23.492471 42.662941 0.247437 0.987650 -0.004396 0.001694 -237592.000000 0 0 1
34.481554 -8.113049 24.601971 43.128368 -0.231084 0.963760 -0.003544 0.003911 151918.000000 0 0 1
34.433583 -9.137649 25.573271 43.853854 -0.259392 0.948198 -0.002275 -0.005584 -539392.000000 0 0 1
33.735172 -8.801849 26.913971 44.044253 -0.255220 0.913389 0.003454 -0.003249 -53206.300000 0 0 1
34.541671 -8.107149 27.865571 45.114775 -0.230534 0.905033 -0.010006 -0.003425 -156680.000000 0 0 1
33.769132 -7.482949 28.873771 45.056004 -0.218068 0.875202 -0.006769 -0.000686 -326325.000000 0 0 1
34.497361 -6.442849 29.744471 46.003389 -0.184636 0.867715 -0.003362 -0.005751 269807.000000 0 0 1
-34.497824 -6.887249 30.934471 46.845230 0.197052 0.849505 -0.005763 -0.008571 53262.600000 0 0 1
-33.125295 -7.152949 30.689671 45.719862 0.212671 0.834896 -0.010494 -0.012324 207516.000000 0 0 1
-32.379495 -7.756849 31.898271 46.109653 0.235129 0.806829 -0.007629 -0.006012 -74057.200000 0 0 1
-32.546325 -9.158749 32.037871 46.578656 0.274313 0.812311 -0.008487 -0.006747 125053.000000 0 0 1
-31.850395 -9.666949 33.157771 46.982288 0.294675 0.787314 -0.011885 -0.006312 -152302.000000 0 0 1
-31.754435 -11.191249 33.247471 47.317888 0.338839 0.791694 0.003164 -0.010019 -341784.000000 0 0 1
-33.010715 -11.793949 33.408271 48.424344 0.343142 0.809436 -0.002191 -0.015330 -225116.000000 0 0 1
-32.950885 -13.224449 33.359971 48.718934 0.381659 0.816545 0.004440 -0.008327 433634.000000 0 0 1
-34.422010 -13.670949 33.570571 49.987527 0.378053 0.834459 0.000682 -0.008279 367404.000000 0 0 1
-34.675631 -15.023949 33.700971 50.634710 0.408855 0.842538 0.001481 -0.014107 -212405.000000 0 0 1
33.641679 -15.247449 34.028571 50.221419 -0.425537 0.826342 -0.004560 -0.013934 -291173.000000 0 0 1
33.498720 -16.789049 34.331171 50.819934 -0.464595 0.829092 -0.008360 -0.001325 -40798.900000 0 0 1
33.929545 -17.121849 -33.659841 50.767673 -0.467344 2.295638 -0.004303 -0.010993 185834.000000 0 0 1
33.906918 -18.536049 -33.592241 51.202567 -0.500286 2.286390 -0.004987 -0.010043 -191468.000000 0 0 1
34.299328 -19.210849 -32.275641 50.864699 -0.510560 2.258208 -0.005967 -0.007594 47384.900000 0 0 1
33.278540 -19.151949 -31.295541 49.534526 -0.522213 2.254660 -0.008821 -0.007317 44222.200000 0 0 1
33.609025 -19.886949 -30.143241 49.332264 -0.534305 2.228151 -0.017132 -0.002418 -1033940.000000 0 0 1
32.550690 -19.868049 -29.046541 47.937338 -0.548012 2.221727 -0.018014 0.000970 481770.000000 0 0 1
31.346860 -20.600249 -29.315441 47.606628 -0.581400 2.234178 -0.016165 0.003641 662676.000000 0 0 1
30.388260 -19.852549 -30.035341 47.113605 -0.578689 2.262057 -0.014939 0.006344 -542275.000000 0 0 1
29.092110 -20.666849 -30.304141 46.816776 -0.617668 2.274823 -0.012063 0.008070 -70767.600000 0 0 1
28.085700 -19.865149 -30.859941 46.214356 -0.615612 2.301987 -0.014947 0.007841 -692421.000000 0 0 1
26.986550 -20.658949 -31.142941 46.097167 -0.653365 2.312566 -0.005248 0.003298 41604.200000 0 0 1
26.050000 -20.143549 -32.356241 46.165912 -0.658225 2.347411 -0.003227 0.009519 642035.000000 0 0 1
26.590080 -20.076449 -33.632141 47.341494 -0.646716 2.360885 -0.012990 0.007808 -74235.500000 0 0 1
25.532690 -20.077449 -34.571041 47.436053 -0.666358 2.387353 0.009129 -0.000754 81606.300000 0 0 1
26.013720 -20.217949 33.275471 46.826660 -0.660685 0.780432 0.011423 -0.001631 -15453.700000 0 0 1
26.876360 -19.200549 32.802671 46.551209 -0.620327 0.788856 -0.008004 -0.003407 295749.000000 0 0 1
27.032960 -19.147049 31.424871 45.660847 -0.616265 0.811759 -0.008729 -0.005303 375263.000000 0 0 1
25.835110 -18.391949 30.712671 44.147309 -0.618666 0.801422 -0.012929 -0.000764 381040.000000 0 0 1
25.854380 -17.050449 30.864271 43.723792 -0.583011 0.787115 -0.010164 -0.005067 -294459.000000 0 0 1
24.859160 -16.330449 30.236071 42.413222 -0.581224 0.777182 -0.011777 0.000577 -670482.000000 0 0 1
24.829860 -14.908449 30.831871 42.301159 -0.540731 0.754132 -0.000364 0.003975 -441364.000000 0 0 1
25.902740 -14.051949 30.583371 42.470599 -0.497058 0.766840 -0.004445 0.007543 -398858.000000 0 0 1
25.772520 -12.794849 31.157471 42.411307 -0.460806 0.745646 0.005230 0.005405 -163891.000000 0 0 1
27.074850 -11.982349 31.079871 42.925314 -0.416653 0.761147 -0.006144 0.001707 -54732.100000 0 0 1
27.385240 -11.346249 29.835671 42.057770 -0.392790 0.782154 -0.010112 -0.000215 -155685.000000 0 0 1
28.754870 -11.019949 29.861471 42.895096 -0.365973 0.800774 -0.005832 0.001753 -184920.000000 0 0 1
29.264730 -10.306449 28.586771 42.188278 -0.338615 0.826302 -0.007966 -0.000105 -190448.000000 0 0 1
28.985260 -8.945449 28.480171 41.608731 -0.299347 0.816912 -0.007383 0.003333 30735.100000 0 0 1
29.771970 -8.311549 27.475071 41.356155 -0.272242 0.844169 -0.003506 0.006232 180752.000000 0 0 1
29.618430 -6.766849 27.450771 40.946141 -0.224612 0.836033 0.003761 -0.003631 -314939.000000 0 0 1
28.295090 -6.440249 27.114671 39.715165 -0.223797 0.819306 -0.004845 0.005031 -500824.000000 0 0 1
28.102950 -5.030749 27.243871 39.462802 -0.177135 0.808798 0.002494 0.010021 -485842.000000 0 0 1
26.655770 -4.628149 27.003571 38.224896 -0.171913 0.786342 0.000628 0.012946 -655260.000000 0 0 1
26.286330 -4.980449 25.684571 37.087373 -0.187250 0.805789 0.004738 0.007867 1018290.000000 0 0 1
24.858910 -4.735049 25.595171 35.993039 -0.188222 0.779714 0.011032 0.011782 784940.000000 0 0 1
24.342020 -5.282049 24.293471 34.793774 -0.213680 0.797898 0.007766 0.006998 -516231.000000 0 0 1
24.559620 -4.401049 23.237571 34.095878 -0.177317 0.820937 0.017886 0.012334 127517.000000 0 0 1
24.261520 -4.971949 21.962471 33.101235 -0.202133 0.845317 0.010546 0.010995 88020.700000 0 0 1
24.690910 -4.166149 20.753971 32.522687 -0.167158 0.878719 0.013479 0.005034 414167.000000 0 0 1
23.868120 -2.979949 20.619171 31.681501 -0.124208 0.862123 0.011622 0.009522 432360.000000 0 0 1
24.451820 -1.993449 19.839271 31.550943 -0.081346 0.890786 0.017132 0.003355 -447439.000000 0 0 1
23.379120 -0.984449 19.393871 30.392016 -0.042083 0.878737 -0.008962 0.006049 159864.000000 0 0 1
22.412620 -1.681449 18.585071 29.164322 -0.074882 0.879867 0.009153 0.004190 213289.000000 0 0 1
21.425920 -0.760549 18.118471 28.070046 -0.035482 0.869153 0.008086 0.007045 -112472.000000 0 0 1
20.403020 -1.440749 17.217871 26.736007 -0.070497 0.871087 -0.002889 0.002746 -468554.000000 0 0 1
20.928220 -2.102149 16.095371 26.485287 -0.100110 0.917623 0.004644 -0.003125 -153578.000000 0 0 1
19.907020 -2.756449 15.351471 25.289427 -0.137591 0.918477 0.012629 -0.006841 -97689.900000 0 0 1
20.246320 -3.192549 13.872971 24.750054 -0.156398 0.975779 0.015405 -0.016505 -429930.000000 0 1 0
19.477520 -4.324849 13.528871 24.106191 -0.218498 0.974938 0.025609 -0.010057 242272.000000 0 1 0
19.480120 -4.546749 12.144771 23.401784 -0.229299 1.025153 0.019014 -0.012520 -637911.000000 0 1 0
18.329620 -5.441949 11.732271 22.432921 -0.288605 1.020437 0.010545 -0.010621 -714619.000000 0 1 0
18.488520 -6.741549 12.216571 23.162868 -0.349652 1.015235 0.021783 -0.007649 1123870.000000 0 1 0
17.246420 -7.450549 12.188271 22.394277 -0.407789 0.995292 0.007189 0.006071 242372.000000 0 1 0
17.504220 -8.965149 12.429071 23.264854 -0.473337 1.007185 0.015648 0.001374 -254035.000000 0 1 0
17.935020 -9.675449 11.290271 23.296984 -0.494725 1.064863 -0.004203 -0.008477 553451.000000 0 1 0
17.561820 -11.041249 11.434171 23.686852 -0.561261 1.067036 0.002192 -0.007087 -58811.000000 0 1 0
18.299520 -11.861849 10.386971 24.155021 -0.575113 1.126289 0.002763 -0.001184 -61983.800000 0 1 0
17.967120 -11.422849 9.059771 23.138244 -0.566302 1.168481 0.016274 -0.002471 515431.000000 0 1 0
18.737120 -12.109949 8.086271 23.730114 -0.573775 1.223071 0.008201 0.001563 -107564.000000 0 1 0
18.540020 -11.476349 6.717271 22.815798 -0.554276 1.271955 0.009494 0.006670 -191240.000000 0 1 0
19.066220 -10.184849 6.664071 22.619941 -0.490619 1.271748 0.022807 0.006720 553879.000000 0 1 0
19.428020 -9.857149 5.357471 22.434657 -0.469524 1.329663 -0.001612 0.001155 -53498.300000 0 1 0
19.924320 -8.387949 5.128571 22.217976 -0.398470 1.337866 0.016514 -0.002645 -398128.000000 0 1 0
20.428220 -8.096449 3.843971 22.307863 -0.377344 1.397617 0.005666 -0.006464 583942.000000 0 1 0
20.683320 -6.699249 3.782771 22.067828 -0.313233 1.398530 0.008003 -0.009113 -703874.000000 0 1 0
21.472720 -6.373149 2.505771 22.538270 -0.288520 1.459387 0.006909 -0.011643 -561193.000000 0 1 0
20.672320 -5.740949 1.554371 21.510913 -0.270886 1.498474 0.007278 -0.025984 65276.000000 0 1 0
21.294520 -5.549649 0.290671 22.007719 -0.254943 1.557588 0.016397 -0.014512 -36680.400000 0 1 0
-25.242525 -16.084849 0.001771 29.931713 0.567333 1.570737 0.026283 0.006370 -179241.000000 0 0 1
-24.235725 -15.475649 -0.838529 28.767503 0.568282 1.599949 0.024891 0.010529 1036400.000000 0 0 1
-22.939625 -16.046949 -0.620529 28.002072 0.610410 1.592958 0.025546 0.002447 1048660.000000 0 0 1
-22.158825 -15.478549 0.646271 27.037320 0.609737 1.546891 0.013124 0.004346 -95158.800000 0 0 1
-22.640525 -16.055349 1.899771 27.820437 0.616835 1.502456 0.029010 0.010504 116940.000000 0 0 1
-21.791325 -15.603049 2.898571 26.957721 0.621398 1.463065 0.030136 0.023469 43571.600000 0 0 1
-22.224925 -16.143249 4.301771 27.803903 0.628198 1.415454 0.037164 0.028094 -269402.000000 0 0 1
-21.950825 -17.538049 4.430271 28.443790 0.674113 1.414404 0.037493 0.029148 323728.000000 0 0 1
-22.629425 -18.164849 5.527171 29.539841 0.676391 1.382578 0.046813 0.020675 -54872.500000 0 0 1
-22.416825 -19.692849 5.700571 30.377934 0.720800 1.382022 0.027218 0.024602 -249644.000000 0 0 1
-23.039525 -20.265349 6.779571 31.423982 0.721424 1.353341 0.023540 0.013276 -232156.000000 0 0 1
-22.983225 -21.685749 6.569271 32.274691 0.756360 1.365822 0.029057 0.006069 -101263.000000 0 0 1
-23.677325 -22.483249 7.650471 33.535681 0.759536 1.340640 0.034503 0.002708 81794.100000 0 0 1
-22.839925 -22.774049 8.765571 33.423864 0.783954 1.305438 0.032013 0.002632 121901.000000 0 0 1
-23.534525 -23.567449 9.689571 34.686976 0.786097 1.287686 0.039039 -0.001648 50809.800000 0 0 1
-22.534125 -24.039849 10.743871 34.657350 0.817717 1.255600 0.021844 -0.002933 62321.900000 0 0 1
-22.383025 -23.034449 11.768171 34.206366 0.799740 1.219586 0.030370 -0.004284 323475.000000 0 0 1
-21.541025 -23.415249 12.866471 34.319611 0.827064 1.186506 0.018216 -0.000957 -8416.960000 0 0 1
-21.813725 -22.461649 14.046771 34.317285 0.800031 1.149087 0.012801 0.000933 -127726.000000 0 0 1
-23.062725 -22.777449 14.626671 35.561791 0.779175 1.146913 0.023118 -0.007070 -147307.000000 0 0 1
-23.423025 -21.827049 15.600171 35.614934 0.750143 1.117398 0.025455 0.007668 -292182.000000 0 0 1
-24.842125 -22.068749 16.195171 36.965449 0.726347 1.117294 0.013877 -0.001101 -39770.100000 0 0 1
-25.832565 -21.808149 15.183471 37.060148 0.701124 1.148673 0.021623 -0.005598 147535.000000 0 0 1
-26.184635 -22.903349 14.364971 37.637095 0.718652 1.179193 0.026292 -0.002592 -401473.000000 0 0 1
-27.275625 -23.816249 15.013771 39.199321 0.717792 1.177743 0.030463 -0.007345 -71656.900000 0 0 1
-26.818565 -24.348449 16.253671 39.702194 0.737160 1.149011 0.012488 -0.007223 -301991.000000 0 0 1
-27.500615 -25.484589 16.726671 41.055202 0.747368 1.151170 -0.002839 -0.000880 -324864.000000 0 0 1
-27.260485 -26.830409 15.952771 41.442681 0.777447 1.175658 -0.002654 -0.002700 -142417.000000 0 0 1
-27.875795 -27.007779 14.685171 41.498606 0.769584 1.209089 0.008695 -0.006159 -500603.000000 0 0 1
-29.215185 -27.404909 14.744571 42.684405 0.753437 1.218097 0.028045 -0.014690 -502118.000000 0 0 1
-29.911475 -27.618889 13.393471 42.858890 0.745569 1.252971 0.036319 -0.021206 -275687.000000 0 0 1
-29.423025 -28.738089 12.686271 43.041069 0.773622 1.271604 0.036058 -0.024982 -119792.000000 0 0 1
-30.120885 -29.104309 11.522371 43.440690 0.768235 1.302340 0.029098 -0.021654 -306986.000000 0 0 1
-29.482385 -30.265609 10.818471 43.614876 0.798506 1.320134 0.027763 -0.013401 -61346.800000 0 0 1
-29.679345 -31.513099 11.496771 44.789671 0.815356 1.311207 0.028753 -0.009348 72230.500000 0 0 1
-28.861155 -32.528579 10.945571 44.842839 0.845067 1.324218 0.023355 -0.014072 -130043.000000 0 0 1
-28.983065 -33.931199 11.597771 46.106969 0.863885 1.316525 0.010893 -0.005879 773840.000000 0 0 1
-30.240365 -34.612546 11.402571 47.355323 0.852713 1.327619 0.023225 -0.003725 641245.000000 0 0 1
-30.180835 33.576290 11.937971 46.698664 -0.838604 1.312288 0.018671 -0.001717 -240641.000000 0 0 1
-31.564975 33.170110 12.489471 47.461466 -0.810189 1.304511 0.041986 -0.003330 1251820.000000 0 0 1
-32.616865 32.888360 11.500171 47.725864 -0.789543 1.327438 0.029846 -0.004257 1148610.000000 0 0 1
-33.247995 34.032716 10.909171 48.812549 -0.797061 1.345402 0.041510 -0.003056 621064.000000 0 0 1
-34.727793 33.665881 10.476271 49.489023 -0.769873 1.357494 0.037340 0.005426 932832.000000 0 0 1
-34.824948 32.795750 9.419071 48.755073 -0.755399 1.376382 0.027486 0.002352 1007130.000000 0 0 1
33.492620 32.802740 8.900171 47.717800 0.774992 1.383181 0.032304 -0.002500 915654.000000 0 0 1
33.276510 32.146920 7.541071 46.878762 0.768134 1.409231 0.030097 -0.003357 -14057.000000 0 0 1
33.516760 30.753450 7.459371 46.095446 0.742429 1.408257 0.035140 -0.004074 145740.000000 0 0 1
33.365870 30.375450 6.098371 45.531741 0.738518 1.436456 0.039421 -0.005665 -48227.300000 0 0 1
33.691699 28.895690 5.681171 44.747818 0.708919 1.443493 0.029554 0.001759 611153.000000 0 0 1
32.798860 27.832680 6.164871 43.456058 0.703673 1.428452 0.039027 -0.003711 791351.000000 0 0 1
32.986140 27.599710 7.566871 43.670207 0.696726 1.396644 0.035997 -0.001428 -331598.000000 0 0 1
32.129600 26.418390 8.019671 42.362220 0.688158 1.380335 0.023594 -0.009077 -225746.000000 0 0 1
32.581290 25.144830 7.634271 41.857915 0.657281 1.387384 0.021736 -0.006675 -64227.500000 0 0 1
31.523910 24.223820 7.723771 40.499469 0.655190 1.378908 0.013316 -0.004284 -438201.000000 0 0 1
31.734740 22.961920 6.855971 39.766165 0.626362 1.397523 0.004801 -0.000080 164339.000000 0 0 1
32.701020 22.018620 7.294171 40.092160 0.592602 1.387842 0.007816 -0.000616 -674595.000000 0 0 1
34.032680 22.307120 7.028571 41.294452 0.580205 1.399757 0.012254 -0.005102 -966069.000000 0 0 1
-34.749141 21.073120 6.905871 41.222206 -0.545138 1.402475 0.010443 -0.003886 -369987.000000 0 0 1
34.549785 20.263120 5.784671 40.469051 0.530427 1.427364 0.017045 -0.005725 253068.000000 0 0 1
-34.587499 18.959920 6.003171 39.897516 -0.501439 1.419758 0.017630 -0.006851 -285012.000000 0 0 1
34.728582 17.844720 5.018771 39.366185 0.474653 1.442959 0.014650 -0.008167 -313567.000000 0 0 1
-34.221954 17.856820 3.812271 38.788421 -0.480931 1.472354 0.014459 -0.000053 -92594.600000 0 0 1
34.809975 16.935920 2.977071 38.825542 0.452810 1.494043 0.008918 -0.004254 -824654.000000 0 0 1
-34.044945 16.307820 1.802071 37.792205 -0.446714 1.523095 0.018669 0.010908 830287.000000 0 0 1
-32.929925 15.483720 2.223371 36.456398 -0.439526 1.509771 0.027888 0.000395 856492.000000 0 0 1
-31.728025 16.165820 2.485971 35.695677 -0.471228 1.501096 0.033375 0.001872 -984456.000000 0 0 1
-30.520395 15.298020 2.732971 34.248987 -0.464639 1.490914 0.021659 0.001737 -429729.000000 0 0 1
-30.563095 14.675220 4.010171 34.140099 -0.447651 1.453062 0.020585 -0.007210 1195930.000000 0 0 1
-29.198475 14.348820 4.346671 32.822754 -0.456763 1.437978 0.009246 0.001939 928743.000000 0 0 1
-29.057415 13.710720 5.741671 32.638689 -0.440874 1.393960 0.012229 0.001120 -336288.000000 0 0 1
-29.260735 12.290620 5.651771 32.236509 -0.397660 1.394563 0.005762 0.000445 479987.000000 0 0 1
-29.102785 11.755220 6.951971 32.147896 -0.383882 1.352825 0.007414 0.002298 -263081.000000 0 0 1
-29.126225 10.206120 7.079971 31.664300 -0.337040 1.345295 0.004729 -0.000270 782837.000000 0 0 1
-30.435185 9.618320 6.946471 32.665977 -0.306094 1.356509 -0.010061 0.005354 651117.000000 0 0 1
-30.492625 8.186320 7.093771 32.359506 -0.262284 1.349784 -0.012174 0.004799 -384836.000000 0 0 1
-31.915865 7.652720 7.006571 33.560075 -0.235335 1.360472 -0.010107 0.007988 -650231.000000 0 0 1
-32.721675 7.836220 8.125371 34.614102 -0.235054 1.333844 -0.015371 0.010386 -600505.000000 0 0 1
-33.960095 7.226820 7.909171 35.609970 -0.209676 1.346823 -0.019162 0.012206 -184492.000000 0 0 1
-34.704716 6.743320 9.177871 36.525649 -0.191914 1.316802 -0.016896 0.013741 -204062.000000 0 0 1
34.430559 7.687320 10.058571 36.684236 0.219667 1.293046 -0.004765 0.013049 -74961.000000 0 0 1
-34.312841 8.385420 10.868471 36.956867 -0.239684 1.272298 0.004699 0.009142 -643363.000000 0 0 1
34.770618 9.354020 11.858971 37.909481 0.262799 1.252632 0.009216 -0.004719 -704194.000000 0 0 1
34.141928 8.731620 12.941971 37.542071 0.250378 1.218843 -0.007591 0.003442 396702.000000 0 0 1
33.634253 9.686820 13.871971 37.650087 0.280416 1.193461 0.002827 -0.008398 -397517.000000 0 0 1
32.868990 9.035420 15.051371 37.263294 0.268266 1.154999 -0.015973 -0.000179 82844.200000 0 0 1
31.673510 8.360620 14.651471 35.885607 0.258076 1.150224 -0.015228 -0.001275 551641.000000 0 0 1
31.182830 7.673520 15.778871 35.780226 0.241287 1.114090 -0.018899 0.005968 601535.000000 0 0 1
29.637000 7.409620 15.767371 34.378252 0.244990 1.094328 -0.021482 0.015691 241712.000000 0 0 1
28.899380 8.546520 16.174271 34.202693 0.287538 1.078223 -0.029608 0.011594 310058.000000 0 0 1
27.493760 8.325420 16.121871 32.941375 0.294034 1.059382 -0.021601 0.018309 635800.000000 0 0 1
26.840620 7.621420 17.369271 32.866343 0.276669 1.013985 -0.011807 0.024415 -356361.000000 0 0 1
26.762020 8.537620 18.431771 33.598019 0.308814 0.990111 -0.001864 0.008637 472146.000000 0 0 1
25.957240 8.177620 19.583971 33.528849 0.305199 0.947034 0.006037 0.012994 214492.000000 0 0 1
26.407610 6.937620 20.379571 34.070799 0.256908 0.929601 0.003525 0.018130 -14693.000000 0 0 1
25.707040 6.802620 21.582071 34.247823 0.258691 0.889020 0.017831 0.015850 -138308.000000 0 0 1
26.268650 5.760720 22.354171 34.970514 0.215883 0.877301 0.005390 0.017109 -646288.000000 0 0 1
25.852770 5.740220 23.843671 35.634765 0.218491 0.837782 0.020104 0.026096 784276.000000 0 0 1
24.479520 5.391720 24.021071 34.717854 0.216793 0.806687 0.002771 0.022286 515466.000000 0 0 1
23.570220 6.477020 23.830671 34.138072 0.268177 0.798102 0.006663 0.022001 878329.000000 0 0 1
22.034720 6.086620 23.782171 32.987384 0.269508 0.765628 0.003247 0.016270 1259030.000000 0 0 1
21.744720 5.203720 22.691371 31.856081 0.234892 0.778014 -0.009564 0.019380 -405971.000000 0 0 1
20.354420 5.241720 22.590571 30.856311 0.252046 0.749365 -0.017585 0.011429 -1455460.000000 0 0 1
19.741120 4.011720 21.858371 29.725311 0.200486 0.744620 -0.006933 0.009497 231180.000000 0 0 1
18.404920 4.153420 21.416471 28.542201 0.221951 0.722214 0.002844 0.002440 168181.000000 0 0 1
17.437420 4.061620 22.449271 28.714633 0.228845 0.673239 0.008005 0.003682 115576.000000 0 0 1
15.995020 3.916620 21.851771 27.362026 0.240140 0.645803 0.012287 0.004433 377384.000000 0 0 1
15.904020 2.833420 20.955971 26.459759 0.176308 0.656728 0.008880 0.003093 -1049260.000000 0 0 1
14.662520 2.551920 20.435071 25.280307 0.172318 0.629470 0.016494 -0.008068 -1212520.000000 0 0 1
13.837920 1.492320 21.226971 25.383053 0.107428 0.580360 0.018434 -0.001674 -363907.000000 0 0 1
14.205320 0.148020 21.110971 25.445749 0.010420 0.592322 0.001685 -0.007590 149418.000000 0 0 1
13.398420 -0.608580 21.971971 25.742097 -0.045391 0.548049 -0.002170 -0.005930 -5402.460000 0 0 1
13.808220 -2.106080 21.918071 25.990467 -0.151357 0.567380 -0.019240 -0.002821 71472.800000 0 0 1
13.549320 -2.661380 20.641971 24.834613 -0.193952 0.589574 -0.005590 0.002691 234732.000000 0 1 0
14.047920 -3.982780 20.526571 25.190211 -0.276264 0.618303 -0.004430 0.004849 -317474.000000 0 0 1
13.919820 -4.645280 19.117771 24.100398 -0.322096 0.654659 -0.005978 0.006348 -515463.000000 0 1 0
12.587020 -4.911580 18.773471 23.130065 -0.372038 0.623828 0.008645 -0.001907 -434453.000000 0 1 0
12.312920 -5.325680 17.478871 22.033652 -0.408229 0.654618 0.021158 -0.000277 -786567.000000 0 1 0
10.823220 -5.344680 17.235371 21.041999 -0.458688 0.610967 0.026364 -0.006106 -834046.000000 0 1 0
10.172320 -6.345380 17.944971 21.581518 -0.557728 0.588999 0.020702 -0.003189 -717412.000000 0 1 0
8.776920 -6.195380 17.863371 20.845074 -0.614656 0.541457 0.022123 -0.012457 -331574.000000 0 1 0
8.030720 -6.999780 18.917771 21.711091 -0.716916 0.512867 0.031758 -0.012765 -375485.000000 0 1 0
7.927320 -8.377380 18.734071 21.999735 -0.812994 0.551845 0.017535 -0.007605 280614.000000 0 1 0
9.043520 -9.102880 19.265771 23.147735 -0.788669 0.587559 0.023846 -0.010086 373249.000000 0 1 0
9.110620 -10.529880 18.707471 23.320619 -0.857535 0.639849 0.023423 -0.009151 175889.000000 0 1 0
9.402420 -10.501880 17.289871 22.307726 -0.840579 0.683983 0.022411 -0.012060 135827.000000 0 1 0
9.790920 -11.793480 16.823171 22.758897 -0.877911 0.738928 0.005119 -0.009651 183177.000000 0 1 0
9.661020 -12.022580 15.335071 21.749532 -0.893881 0.788266 -0.000590 -0.007621 395365.000000 0 1 0
10.275520 -13.270080 14.900871 22.443647 -0.911900 0.844743 -0.012832 0.000550 541570.000000 0 1 0
9.804120 -13.443580 13.557571 21.462953 -0.940689 0.887087 -0.017836 0.004613 -669002.000000 0 1 0
10.501320 -14.614380 12.836471 22.105041 -0.947722 0.951204 -0.013507 0.001249 -231765.000000 0 1 0
11.870220 -14.454580 12.601671 22.553029 -0.883257 0.977910 -0.027770 0.003564 -516192.000000 0 1 0
12.129320 -13.590480 11.521471 21.553790 -0.842148 1.006827 -0.035984 0.003804 -1570410.000000 0 1 0
13.566620 -13.400980 11.087871 22.058566 -0.779256 1.044128 -0.023003 0.002115 -648373.000000 0 1 0
14.135520 -14.561980 10.563671 22.879146 -0.800258 1.090867 -0.017745 0.007414 -102795.000000 0 1 0
15.417420 -14.339680 9.998171 23.308511 -0.749196 1.127467 -0.005874 -0.003824 127621.000000 0 1 0
16.011720 -15.597080 9.354271 24.231105 -0.772281 1.174457 -0.010658 -0.005034 -192828.000000 0 1 0
16.323820 -16.586680 10.320571 25.457793 -0.793385 1.153381 -0.010625 -0.001561 341790.000000 0 0 1
15.225720 -17.272180 10.937771 25.490892 -0.848287 1.127316 -0.006802 0.001562 294909.000000 0 0 1
15.571120 -17.766280 12.363171 26.663617 -0.851150 1.088661 -0.005673 0.006418 -528546.000000 0 0 1
16.443220 -18.827480 12.360171 27.885970 -0.852894 1.111587 0.005658 0.001798 -614001.000000 0 0 1
16.907420 -19.085980 13.656971 28.924874 -0.845851 1.079065 0.000191 -0.003068 -817695.000000 0 0 1
18.138020 -19.963180 13.660571 30.234542 -0.833265 1.101992 -0.020108 -0.005711 -301441.000000 0 0 1
19.197720 -19.433680 12.887571 30.204468 -0.791506 1.129980 -0.022291 -0.002650 -579430.000000 0 0 1
20.226820 -20.359680 12.618271 31.350623 -0.788672 1.156562 -0.031888 -0.005698 104072.000000 0 0 1
21.171720 -19.686880 11.607971 31.153811 -0.749073 1.188985 -0.012821 -0.001402 -474709.000000 0 0 1
20.702320 -19.704980 10.235371 30.358444 -0.760721 1.226908 -0.009847 -0.004402 116644.000000 0 0 1
19.665220 -18.798080 9.884871 28.944764 -0.762857 1.222275 -0.006023 0.000013 136605.000000 0 0 1
19.903820 -17.249480 10.034271 28.184982 -0.714076 1.206797 -0.001339 -0.003597 -581000.000000 0 0 1
21.055320 -16.857780 9.361071 28.550673 -0.675132 1.236742 0.001661 0.008172 -447029.000000 0 0 1
21.070520 -15.459880 9.256271 27.724597 -0.633001 1.230395 0.004522 0.001378 27294.600000 0 0 1
-33.208415 25.367051 7.968971 42.541634 -0.652322 1.382361 0.027099 0.003507 190347.000000 0 0 1
-32.466635 24.632051 8.926771 41.719391 -0.649038 1.355157 0.022935 0.000838 1407340.000000 0 0 1
-31.237005 25.332851 9.299871 41.279432 -0.681405 1.343555 0.025342 0.006490 838454.000000 0 0 1
-30.215305 24.476551 10.061771 40.165974 -0.680852 1.317595 0.020611 -0.005662 -516404.000000 0 0 1
-29.610865 23.595651 9.230471 38.971268 -0.672822 1.331671 0.011782 -0.006633 -706577.000000 0 0 1
-28.587965 22.869351 9.817271 37.903269 -0.674719 1.308801 0.015181 -0.005256 -805723.000000 0 0 1
-27.841275 22.019651 8.845071 36.581921 -0.669167 1.326588 0.017460 -0.009047 -218056.000000 0 0 1
-28.658875 21.035451 8.176771 36.478500 -0.633179 1.344722 0.019301 -0.013437 539614.000000 0 0 1
-27.949805 20.320951 7.165871 35.291393 -0.628652 1.366326 0.014212 -0.012937 -48289.100000 0 0 1
-28.907175 19.556051 6.238671 35.453984 -0.594788 1.393910 0.016698 -0.006160 -340324.000000 0 0 1
-29.611865 18.482851 6.872871 35.576885 -0.558003 1.376390 0.017550 -0.004428 644349.000000 0 0 1
-30.590015 17.985751 5.968471 35.984149 -0.531521 1.404162 0.010229 -0.001838 -251932.000000 0 0 1
-31.354945 16.767451 6.446571 36.136385 -0.491069 1.391441 0.023047 -0.000795 -546112.000000 0 0 1
-32.254785 17.139251 7.466471 37.281005 -0.488428 1.369157 0.016118 -0.004570 145209.000000 0 0 1
-33.003775 16.007551 7.895071 37.520968 -0.451593 1.358794 0.022414 -0.008412 -98822.300000 0 0 1
-33.788315 16.315851 9.200671 38.633012 -0.449862 1.330330 0.018619 -0.019329 134120.000000 0 0 1
34.602138 16.896051 8.954871 39.534469 0.454240 1.342305 0.019835 -0.013897 322939.000000 0 0 1
34.104262 17.483451 10.143671 39.644241 0.473714 1.312051 0.013499 -0.011307 98126.200000 0 0 1
33.346180 18.816351 9.759671 39.512960 0.513735 1.321214 0.008556 -0.015355 812388.000000 0 0 1
32.012230 18.535851 9.287771 38.139525 0.524853 1.324802 -0.001828 -0.011669 734746.000000 0 0 1
31.446030 19.711351 8.762571 38.133618 0.559915 1.338939 -0.003721 -0.014190 52077.400000 0 0 1
29.911670 19.759651 8.571171 36.859420 0.583791 1.336111 -0.012996 -0.010033 108658.000000 0 0 1
29.374640 21.034251 8.189571 37.045625 0.621429 1.347888 -0.021393 -0.010870 -351145.000000 0 0 1
28.074340 20.913651 7.684971 35.841431 0.640254 1.354703 -0.011791 -0.016013 -429763.000000 0 0 1
27.986680 20.692951 6.204471 35.354603 0.636673 1.394390 -0.030409 0.000463 -831348.000000 0 0 1
28.240310 19.352351 5.831471 34.728010 0.600774 1.402079 -0.030259 -0.004626 212249.000000 0 0 1
27.959720 19.005551 4.445671 34.098694 0.597004 1.440048 -0.023094 -0.007560 1340680.000000 0 0 1
26.493490 19.423351 3.927971 33.084748 0.632621 1.451791 -0.004038 -0.000428 231612.000000 0 0 1
25.444290 18.792651 4.571371 31.960493 0.636152 1.427272 -0.006296 -0.006874 372931.000000 0 0 1
24.121320 19.163751 4.175171 31.088897 0.671362 1.436091 0.016391 -0.008962 590199.000000 0 0 1
23.571220 20.541651 4.628271 31.606689 0.716828 1.423835 0.027335 -0.012831 -495509.000000 0 0 1
24.100420 21.555051 3.784371 32.554139 0.729704 1.454284 0.025176 -0.012757 129681.000000 0 0 1
23.625320 22.793751 4.181571 33.093752 0.767486 1.444102 0.023730 -0.007598 19324.400000 0 0 1
24.651080 23.981051 4.092871 34.634061 0.771622 1.452345 0.016243 0.000933 -348945.000000 0 0 1
25.607300 23.919451 5.090771 35.408896 0.751332 1.426525 -0.002114 -0.000724 -799171.000000 0 0 1
26.396450 25.061951 4.937771 36.732214 0.759470 1.435962 -0.000889 0.003439 -1641900.000000 0 0 1
27.666400 24.978851 5.731671 37.712395 0.734392 1.418221 -0.003902 0.005634 -185904.000000 0 0 1
28.651170 23.955251 5.332271 37.725015 0.696369 1.428976 -0.002708 0.001530 1288690.000000 0 0 1
29.218570 23.852651 4.034171 37.933473 0.684633 1.464246 0.003092 -0.001012 -162611.000000 0 0 1
30.142290 25.021351 3.566771 39.336339 0.692832 1.479998 0.004629 -0.000175 -528205.000000 0 0 1
29.461020 26.203951 3.295071 39.565847 0.726953 1.487419 0.001472 0.002187 -376291.000000 0 0 1
30.286740 27.142051 2.644371 40.755003 0.730695 1.505866 0.012337 0.006391 -649967.000000 0 0 1
29.708050 28.607951 2.565071 41.322666 0.766536 1.508682 0.011266 0.011709 938053.000000 0 0 1
28.494410 28.903451 1.855471 40.629837 0.792524 1.525113 0.019413 0.011926 762465.000000 0 0 1
27.324640 28.405451 2.491871 39.493228 0.804789 1.507658 0.006467 0.011173 -53168.800000 0 0 1
26.003910 29.004751 1.966171 39.004420 0.839896 1.520366 -0.012680 0.007617 59126.700000 0 0 1
26.063830 30.416451 2.256271 40.119503 0.862311 1.514528 -0.005476 -0.002884 -472106.000000 0 0 1
24.871430 31.035051 1.901371 39.816801 0.895203 1.523025 -0.009388 0.004615 -363094.000000 0 0 1
24.634120 32.373051 2.593371 40.762482 0.920327 1.507132 -0.015588 -0.010090 -320270.000000 0 0 1
24.161620 32.299151 3.935471 40.527855 0.928540 1.473538 -0.016813 -0.017845 -469534.000000 0 0 1
25.199680 32.120551 4.865071 41.114749 0.905557 1.452189 -0.016642 -0.017488 -511049.000000 0 0 1
24.888200 32.030051 6.374271 41.060663 0.910221 1.414926 -0.021287 -0.016843 -181786.000000 0 0 1
24.221020 30.859351 6.888571 39.829760 0.905340 1.396972 -0.017842 -0.017425 239211.000000 0 0 1
24.926850 29.631451 6.771671 39.309367 0.871416 1.397667 -0.008937 -0.015728 -29454.500000 0 0 1
24.104420 28.435251 7.318371 37.988750 0.867642 1.376939 0.004135 -0.011909 38099.800000 0 0 1
23.035220 28.156751 6.440671 36.944638 0.885112 1.395568 -0.011588 -0.016950 -316134.000000 0 0 1
22.404120 26.947351 6.827471 35.703203 0.877198 1.378383 0.003178 -0.007882 -364895.000000 0 0 1
21.260020 26.647251 5.859371 34.588968 0.897379 1.400575 0.004669 -0.005064 -650089.000000 0 0 1
21.639320 26.290851 4.546171 34.353118 0.882143 1.438070 0.013366 -0.007099 326534.000000 0 0 1
22.101020 27.426351 3.801271 35.427525 0.892510 1.463292 0.009974 -0.004133 -158747.000000 0 0 1
22.472020 27.310151 2.323771 35.443419 0.882280 1.505186 0.009705 0.005310 -651987.000000 0 0 1
23.481220 26.486151 1.888471 35.446442 0.845464 1.517494 -0.001071 0.013674 -459139.000000 0 0 1
23.393620 26.332351 0.456671 35.225882 0.844428 1.557832 0.008225 0.011937 495085.000000 0 0 1
24.626700 25.519551 -0.077929 35.464460 0.803201 1.572994 0.014204 0.008864 518488.000000 0 0 1
25.803640 26.309251 -0.307729 36.852398 0.795100 1.579147 0.019125 0.015751 783299.000000 0 0 1
26.724610 25.646851 -1.195429 37.059342 0.764822 1.603059 0.002154 0.018646 703572.000000 0 0 1
27.624350 24.470851 -0.638529 36.909823 0.724939 1.588097 0.001914 0.010341 -695353.000000 0 0 1
26.935470 23.273451 -0.609529 35.602593 0.712591 1.587918 0.006369 0.006858 56917.700000 0 0 1
27.508950 22.336751 0.270571 35.436507 0.682004 1.563161 0.004473 0.002466 88926.200000 0 0 1
26.382390 21.567651 0.990671 34.090696 0.685322 1.541732 0.006984 -0.003042 254256.000000 0 0 1
25.852140 20.491351 0.277171 32.989475 0.670235 1.562394 0.017784 -0.009823 -177317.000000 0 0 1
24.633110 19.998151 0.717871 31.736911 0.681919 1.548175 0.026194 -0.011941 -684098.000000 0 0 1
24.141920 18.706551 -0.028429 30.541254 0.659221 1.571727 0.034994 -0.019774 -1371830.000000 0 0 1
22.861320 18.395851 0.333771 29.345506 0.677583 1.559422 0.038214 -0.018952 -1047940.000000 0 0 1
22.282120 17.432751 -0.560629 28.296784 0.663895 1.590610 0.030851 -0.027891 557732.000000 0 0 1
20.737320 17.406351 -0.346429 27.076513 0.698292 1.583591 0.007789 -0.010096 -455362.000000 0 0 1
20.203220 16.318851 -1.079429 25.993080 0.679440 1.612336 0.002445 -0.014809 -418456.000000 0 0 1
18.843020 16.056351 -1.045929 24.778212 0.705719 1.613021 0.003650 -0.007468 -141196.000000 0 1 0
17.753820 17.114251 -1.431629 24.701119 0.767058 1.628787 -0.003483 -0.005036 -95759.300000 0 1 0
17.764720 18.207851 -0.555829 25.444451 0.797716 1.592643 0.002762 -0.018685 -239462.000000 0 0 1
16.589220 18.956351 -0.761429 25.201692 0.851894 1.601014 -0.029564 -0.024234 -413628.000000 0 0 1
16.654820 20.493351 -0.415529 26.410853 0.888363 1.586530 -0.023115 -0.020095 -195687.000000 0 0 1
16.585520 20.648551 0.958971 26.502109 0.894089 1.534604 -0.008086 -0.015228 -55737.000000 0 0 1
16.606520 21.993251 1.502171 27.599568 0.924056 1.516342 -0.006024 -0.014947 309927.000000 0 0 1
15.376220 22.907751 1.193671 27.615540 0.979646 1.527558 -0.025270 -0.011155 -34983.500000 0 0 1
14.172220 22.505251 1.779571 26.655300 1.008803 1.503984 -0.026782 -0.011371 -1106730.000000 0 0 1
13.169120 23.284651 1.250671 26.779935 1.056077 1.524078 -0.024800 -0.009405 -179616.000000 0 0 1
11.800720 23.123351 1.984371 26.036208 1.098913 1.494507 -0.014995 -0.006914 414752.000000 0 0 1
11.848220 23.646051 3.327771 26.656897 1.106297 1.445633 -0.008526 -0.002903 624146.000000 0 0 1
10.553420 23.684251 3.933171 26.225718 1.151617 1.420255 0.002530 0.000254 381456.000000 0 0 1
10.700320 24.244451 5.352771 27.035947 1.155158 1.371492 -0.007671 0.002370 57429.400000 0 0 1
11.531720 23.436651 6.180071 26.841209 1.113539 1.338466 -0.005683 -0.009332 121643.000000 0 0 1
10.795320 22.659951 7.079071 26.079218 1.126202 1.295902 -0.009501 -0.012664 -662900.000000 0 0 1
11.638220 21.475251 7.644371 25.594355 1.074165 1.267493 0.007682 -0.013991 -24252.800000 0 0 1
12.681420 21.836151 8.527271 26.652397 1.044649 1.245126 0.019264 -0.003643 -77404.300000 0 0 1
13.859320 22.084751 7.783271 27.210224 1.010364 1.280702 0.025959 -0.004733 -480199.000000 0 0 1
15.150020 22.101051 8.651171 28.157101 0.969876 1.258498 0.031574 -0.003251 -43355.000000 0 0 1
15.555320 20.848851 9.240671 27.604938 0.929796 1.229460 0.034595 0.001737 268730.000000 0 0 1
16.795520 20.736951 9.907771 28.465322 0.890029 1.215291 0.031753 0.004875 222642.000000 0 0 1
17.091420 21.584851 11.185271 29.717550 0.901060 1.184904 0.019788 0.009147 -688231.000000 0 0 1
16.327820 21.082451 12.236171 29.339246 0.911815 1.140590 0.023919 0.010865 -142664.000000 0 0 1
16.491220 21.890851 13.424771 30.518752 0.925162 1.115325 0.007517 0.027432 -346749.000000 0 0 1
17.670920 21.464551 14.285471 31.258008 0.882032 1.096157 0.009681 0.024631 -482384.000000 0 0 1
18.909920 21.888751 13.775271 32.038424 0.858282 1.126347 0.020267 0.022265 44791.900000 0 0 1
19.931920 21.381851 14.693271 32.716314 0.820479 1.105026 0.018457 0.018597 731553.000000 0 0 1
21.348120 21.838551 14.275171 33.711201 0.796754 1.133541 0.017054 0.017248 -102959.000000 0 0 1
21.831720 21.238751 13.072271 33.145027 0.771632 1.165386 0.024971 0.020985 -88305.200000 0 0 1
23.033320 21.911951 12.732871 34.246072 0.760454 1.189843 -0.005051 0.013818 67039.700000 0 0 1
23.590220 21.361151 11.412271 33.808833 0.735850 1.226480 -0.004811 0.013704 -84531.500000 0 0 1
22.980320 21.924351 10.303571 33.390656 0.761887 1.257100 0.005275 0.010211 -127067.000000 0 0 1
23.762620 21.637951 9.223771 33.435625 0.738634 1.291305 0.004723 0.007598 -815743.000000 0 0 1
23.441220 22.601951 8.054871 33.544299 0.767172 1.328300 0.002880 -0.000186 -5865.030000 0 0 1
23.765720 23.931151 8.401371 34.757625 0.788867 1.326665 0.016390 -0.002708 -726795.000000 0 0 1
25.123370 24.183451 8.317171 35.849664 0.766338 1.336662 0.006244 -0.002732 -1412630.000000 0 0 1
25.512680 25.394051 9.125371 37.135254 0.783068 1.322520 0.014817 -0.004028 5220.830000 0 0 1
26.855420 25.826151 8.933471 38.314626 0.765863 1.335469 0.001711 -0.000950 432121.000000 0 0 1
27.136510 26.998151 9.632571 39.472481 0.782842 1.324274 -0.000622 -0.006657 406716.000000 0 0 1
28.465120 27.662851 9.168671 40.737709 0.771106 1.343786 0.003775 -0.005619 126630.000000 0 0 1
28.287460 28.525151 8.066971 40.974879 0.789582 1.372626 0.006450 -0.004911 544090.000000 0 0 1
29.454370 28.656851 7.247571 41.728915 0.771675 1.396229 0.017150 -0.006727 -49046.000000 0 0 1
29.300950 29.574151 6.023171 42.064887 0.790038 1.427115 0.038138 -0.002134 -16123.100000 0 0 1
29.378490 30.928851 6.339371 43.126293 0.811100 1.423266 0.034749 -0.010035 129374.000000 0 0 1
29.015070 31.735651 5.259571 43.320768 0.830151 1.449086 0.044411 -0.012639 -128511.000000 0 0 1
29.067140 33.166851 5.625571 44.458809 0.851179 1.443922 0.017406 -0.002466 172680.000000 0 0 1
27.962000 33.547451 6.427471 44.143146 0.875956 1.424672 -0.011123 -0.007038 101198.000000 0 0 1
27.936670 -34.542117 6.663471 44.922347 -0.890730 1.421914 -0.009250 -0.002286 -596912.000000 0 0 1
26.528900 -34.146717 7.069471 43.815046 -0.910295 1.408740 -0.008436 -0.006515 -288137.000000 0 0 1
25.604900 -34.269917 5.993171 43.196716 -0.929119 1.431606 -0.007117 -0.010887 -211716.000000 0 0 1
24.371520 -33.652317 6.256571 42.018973 -0.944003 1.421342 -0.014010 -0.010276 -306896.000000 0 0 1
23.367120 -33.728417 5.111171 41.349154 -0.964917 1.446869 -0.001516 -0.020378 -367403.000000 0 0 1
23.716720 -32.895117 4.024571 40.752530 -0.946128 1.471879 -0.009439 -0.009010 -225051.000000 0 0 1
22.965420 -33.080317 2.868971 40.372626 -0.963952 1.499674 -0.001676 -0.011534 -520209.000000 0 0 1
23.659920 -32.461117 1.657671 40.202784 -0.940956 1.529552 0.006531 0.001703 -222217.000000 0 0 1
23.593720 -31.044717 1.695071 39.029622 -0.920931 1.527352 0.011693 0.006896 -447942.000000 0 0 1
24.485420 -30.500417 0.803171 39.121047 -0.894357 1.550264 0.004590 0.003005 -745722.000000 0 0 1
24.784150 -29.028917 0.993571 38.182710 -0.864115 1.544772 -0.004869 0.004007 -191545.000000 0 0 1
23.652720 -28.184117 0.992071 36.807334 -0.872593 1.543840 0.013311 -0.000698 -18831.800000 0 0 1
23.146320 -27.850117 -0.268129 36.213990 -0.877376 1.578200 0.019258 0.006547 -735279.000000 0 0 1
22.073820 -26.763817 -0.293029 34.693534 -0.881137 1.579243 0.016955 0.003847 -462455.000000 0 0 1
22.472320 -25.411917 -0.130929 33.923264 -0.846711 1.574656 0.005958 -0.006462 -293763.000000 0 0 1
22.557120 -24.917317 1.216171 33.632952 -0.835072 1.534628 0.006355 0.001095 534507.000000 0 0 1
21.237420 -24.780017 2.080171 32.701749 -0.862230 1.507143 0.003699 0.003769 617396.000000 0 0 1
21.263420 -24.126117 3.293571 32.327236 -0.848384 1.468737 -0.000468 0.001987 -666173.000000 0 0 1
19.952120 -23.897617 3.718471 31.352994 -0.875134 1.451916 0.007782 0.003510 -432335.000000 0 0 1
19.730220 -23.057217 5.025171 30.759863 -0.862998 1.406693 0.005159 0.003562 -180604.000000 0 0 1
19.999020 -21.622417 4.927871 29.862579 -0.824382 1.405020 0.015434 0.006809 345254.000000 0 0 1
18.957820 -20.808617 4.384771 28.489010 -0.831906 1.416271 0.013230 0.006516 -134488.000000 0 0 1
19.060820 -19.322717 4.811871 27.565130 -0.792221 1.395334 0.011059 0.009090 -61308.000000 0 0 1
18.713120 -18.937917 6.130871 27.320563 -0.791369 1.344464 0.004143 0.004236 660429.000000 0 0 1
17.316520 -18.928017 6.451571 26.452873 -0.829831 1.324422 0.001795 0.004636 692734.000000 0 0 1
17.973875 -26.699059 -12.386129 34.486462 -0.978283 1.938163 0.025199 -0.010685 -187325.000000 0 0 1
18.418975 -25.428849 -12.676929 33.861327 -0.943925 1.954522 0.015313 -0.010101 633253.000000 0 0 1
17.317275 -24.768049 -13.333929 33.032376 -0.960622 1.986313 0.008788 -0.008716 807306.000000 0 0 1
17.756975 -23.345049 -13.691829 32.369239 -0.920526 2.007538 0.006672 -0.018002 218077.000000 0 0 1
17.892075 -22.394749 -12.659229 31.335398 -0.896702 1.986672 0.007835 -0.017142 -470386.000000 0 0 1
19.137875 -22.398249 -12.014129 31.816333 -0.863732 1.958009 0.008515 -0.017240 -806167.000000 0 0 1
19.061675 -23.058949 -10.606629 31.742135 -0.880015 1.911499 0.003259 -0.010364 237329.000000 0 0 1
18.192575 -22.430149 -9.629629 30.443572 -0.889338 1.892634 -0.010229 -0.005101 275982.000000 0 0 1
16.825075 -22.717549 -9.739929 29.900441 -0.933325 1.902596 -0.008890 0.005273 -59166.800000 0 0 1
15.965175 -22.195149 -8.532129 28.641031 -0.947228 1.873287 -0.014072 -0.001736 -872246.000000 0 0 1
15.952075 -20.748049 -8.424629 27.494082 -0.915342 1.882222 -0.001697 -0.012310 58651.600000 0 0 1
15.104975 -20.187849 -7.381929 26.271703 -0.928435 1.855616 0.001814 -0.010532 930558.000000 0 0 1
13.614375 -20.215649 -7.889329 25.617673 -0.978107 1.883849 0.011869 0.001366 293411.000000 0 0 1
13.109975 -21.550249 -8.002229 26.463566 -1.024264 1.877992 -0.001639 -0.001419 -1685190.000000 0 0 1
11.751875 -21.502249 -8.192129 25.837264 -1.070612 1.893431 0.001325 -0.000964 -1182800.000000 0 0 1
10.933175 -22.775249 -7.946229 26.483746 -1.123239 1.875533 0.006880 -0.000280 -165965.000000 0 0 1
10.884675 -23.123149 -6.542829 26.381144 -1.130841 1.821423 0.007116 -0.005490 419884.000000 0 0 1
10.133775 -24.304349 -6.278529 27.070550 -1.175761 1.804860 0.005661 -0.005926 297465.000000 0 0 1
10.612075 -24.793349 -4.885429 27.407913 -1.166370 1.750003 0.009100 -0.012927 490558.000000 0 0 1
9.667875 -25.680419 -4.282629 27.772155 -1.210739 1.725620 0.010214 -0.016432 188167.000000 0 0 1
10.303375 -26.316539 -3.120729 28.433408 -1.197624 1.680774 0.008793 -0.014694 189124.000000 0 0 1
9.351675 -27.162979 -2.289529 28.818799 -1.239226 1.650326 0.012769 -0.012205 86451.400000 0 0 1
8.224175 -26.474559 -1.751129 27.777792 -1.269603 1.633879 0.002869 -0.006165 -107530.000000 0 0 1
7.757575 -27.251919 -0.674229 28.342576 -1.293470 1.594587 0.012391 -0.009487 -182639.000000 0 0 1
7.067475 -26.506729 0.480271 27.436955 -1.310229 1.553291 0.013329 -0.003187 1156540.000000 0 0 1
5.749975 -26.035909 0.089371 26.663434 -1.353437 1.567444 0.020528 -0.009216 895035.000000 0 0 1
5.095475 -25.400719 1.190771 25.934115 -1.372820 1.524865 0.025029 -0.010965 44986.600000 0 0 1
3.669075 -24.944349 0.827171 25.226313 -1.424753 1.538000 0.016426 -0.012368 191758.000000 0 0 1
2.804975 -26.009859 0.488271 26.165226 -1.463369 1.552134 0.012459 -0.013531 -51461.400000 0 0 1
1.451075 -25.614169 0.506171 25.660231 -1.514206 1.551069 0.003688 -0.003197 740403.000000 0 0 1
0.358675 -26.667809 0.065671 26.670301 -1.557347 1.568334 0.008258 0.004802 661338.000000 0 0 1
-0.018225 -27.570609 1.069571 27.591353 1.570135 1.532022 0.007114 0.006430 -608983.000000 0 0 1
0.708875 -28.742199 0.989271 28.767953 -1.546138 1.536402 0.004778 -0.001045 -525878.000000 0 0 1
0.272775 -29.997679 1.858271 30.056419 -1.561703 1.508931 0.003772 0.006948 -173846.000000 0 0 1
0.395675 -29.933169 3.262171 30.113002 -1.557578 1.462252 0.001435 0.005368 23739.200000 0 0 1
-0.008625 -31.091469 3.885271 31.333286 1.570519 1.446478 -0.003129 0.007986 -349528.000000 0 0 1
0.287375 -31.055839 5.421271 31.526780 -1.561543 1.397980 -0.014593 0.007025 324296.000000 0 0 1
1.635975 -31.338219 5.781471 31.909023 -1.518640 1.388604 -0.013229 0.008145 366090.000000 0 0 1
1.652275 -31.412619 7.188571 32.266983 -1.518246 1.346127 -0.006797 0.007204 722063.000000 0 0 1
3.011975 -31.958739 7.746171 33.021752 -1.476828 1.334012 0.001015 0.005874 708524.000000 0 0 1
3.260175 -33.369409 7.729571 34.407738 -1.473406 1.344216 -0.005968 -0.000271 52239.400000 0 0 1
4.630875 -33.675619 7.920471 34.903097 -1.434139 1.341875 -0.003741 0.002307 63924.500000 0 0 1
4.743475 34.376401 7.539671 35.511747 1.433676 1.356853 -0.007002 0.000438 -186525.000000 0 0 1
4.568575 33.979381 6.180671 34.837780 1.437146 1.392439 -0.006507 0.006187 40632.800000 0 0 1
4.693975 32.637040 5.914671 33.499151 1.427952 1.393304 -0.011746 0.001788 -287554.000000 0 0 1
5.055675 32.365800 4.397571 33.052133 1.415844 1.437351 -0.007857 0.001816 -5259.470000 0 0 1
6.399975 32.474480 3.999671 33.339900 1.376213 1.450540 0.001600 0.003426 458108.000000 0 0 1
7.237475 31.259600 4.034171 32.339112 1.343277 1.445725 0.004020 0.007027 167274.000000 0 0 1
8.573975 31.529960 3.362771 32.847521 1.305286 1.468241 -0.007581 0.006679 -770940.000000 0 0 1
9.467475 32.207340 4.225971 33.834962 1.284896 1.445570 -0.000976 0.002000 -787147.000000 0 0 1
10.728075 32.118540 3.620971 34.055890 1.248432 1.464271 0.006097 0.003656 204184.000000 0 0 1
11.923775 32.486470 4.594271 34.909232 1.219024 1.438807 -0.000192 0.003148 517668.000000 0 0 1
12.182475 31.527410 5.585571 34.257684 1.202061 1.407019 0.005233 0.002516 259253.000000 0 0 1
13.253875 31.911070 6.446171 35.150174 1.177138 1.386363 0.013268 0.001774 248347.000000 0 0 1
13.812775 30.799780 7.335771 34.543201 1.149216 1.356802 0.015939 0.002376 -73705.600000 0 0 1
12.998275 30.511750 8.476671 34.231214 1.168072 1.320563 0.011501 0.003252 434344.000000 0 0 1
13.553175 29.397000 9.157271 33.641162 1.138800 1.295113 0.008599 0.004725 151042.000000 0 0 1
13.352875 29.346100 10.678371 33.963517 1.143781 1.250964 0.004633 0.008018 243653.000000 0 0 1
14.092475 30.335730 11.421371 35.345468 1.135908 1.241756 0.023269 0.003474 424733.000000 0 0 1
13.674775 30.282530 12.822671 35.615334 1.146635 1.202494 0.014723 0.006494 58413.900000 0 0 1
14.314175 31.254620 13.857771 37.064602 1.141321 1.187606 0.024112 0.002542 848582.000000 0 0 1
15.644875 30.859950 14.241271 37.415404 1.101593 1.180323 0.014333 -0.001198 954760.000000 0 0 1
16.318275 31.889170 14.942471 38.813435 1.097818 1.175608 0.018658 -0.001035 31086.000000 0 0 1
17.545175 31.510350 15.795271 39.372908 1.062742 1.158001 0.015456 -0.003797 648727.000000 0 0 1
18.742275 31.228410 15.065871 39.414045 1.030254 1.178570 0.021162 0.001374 403086.000000 0 0 1
18.994675 29.819510 15.002071 38.406549 1.003623 1.169500 0.018928 0.004577 -624642.000000 0 0 1
20.345175 29.381790 14.428471 38.540842 0.965161 1.187081 0.035372 0.004009 -134566.000000 0 0 1
21.342875 29.614380 15.407071 39.622060 0.946317 1.171412 0.023212 0.000975 115981.000000 0 0 1
22.649475 29.231710 14.996871 39.904858 0.911595 1.185520 0.014803 0.001258 729067.000000 0 0 1
23.770275 29.315160 16.061071 41.016613 0.889473 1.168454 0.016804 -0.002258 158187.000000 0 0 1
23.559475 28.225130 16.939371 40.480231 0.875253 1.139047 -0.001125 -0.000495 322079.000000 0 0 1
24.404575 28.325420 18.131171 41.553003 0.859619 1.119271 -0.004402 -0.001324 1425880.000000 0 0 1
25.595475 27.249260 18.248771 41.601300 0.816683 1.116691 -0.014629 0.002382 1215290.000000 0 0 1
25.091475 25.910550 18.522171 40.546387 0.801456 1.096386 -0.007533 0.001704 197243.000000 0 0 1
24.517575 25.846510 19.843671 40.778976 0.811779 1.062585 -0.001645 0.004146 114654.000000 0 0 1
23.977775 24.451720 20.244671 39.782748 0.795184 1.036912 -0.001040 -0.001872 -664495.000000 0 0 1
24.977775 23.502320 20.319971 39.864138 0.754973 1.035925 -0.012457 0.003093 -922250.000000 0 0 1
24.570375 22.262520 20.860071 39.172257 0.736160 1.009219 -0.004802 -0.002335 -150474.000000 0 0 1
25.645475 21.193320 20.675471 39.170426 0.690630 1.014748 -0.003212 -0.002145 -36563.400000 0 0 1
24.984875 19.958320 20.951571 38.230182 0.674019 0.990780 0.001206 0.007014 118846.000000 0 0 1
25.788075 18.802620 20.876371 38.136416 0.630004 0.991526 0.000973 -0.000824 -202530.000000 0 0 1
26.362075 18.286520 22.238071 39.037003 0.606463 0.964696 0.004137 0.007274 -118745.000000 0 0 1
25.345775 18.027320 23.176171 38.788239 0.618240 0.930410 0.004542 0.010222 -139242.000000 0 0 1
25.827175 17.880620 24.498571 39.836409 0.605552 0.908436 0.009693 0.015637 101322.000000 0 0 1
24.842575 17.055520 25.374771 39.394458 0.601638 0.870924 0.005826 0.005927 141569.000000 0 0 1
24.545275 15.831320 24.734371 38.273886 0.572841 0.868141 0.009115 -0.001510 85064.400000 0 0 1
23.678575 15.079920 25.535971 37.949502 0.567082 0.832683 0.012925 -0.000064 -601504.000000 0 0 1
22.991375 13.993920 24.731271 36.552276 0.546763 0.827661 0.005690 0.004925 -572677.000000 0 0 1
21.960275 13.455120 25.529271 36.263447 0.549707 0.789790 -0.002706 0.002980 36824.700000 0 0 1
21.457575 12.337620 24.830571 35.059972 0.521817 0.783807 -0.001159 0.004927 -924514.000000 0 0 1
20.237675 11.783320 25.547671 34.656798 0.527263 0.741936 -0.012631 0.004341 -902676.000000 0 0 1
19.078175 12.556520 25.286471 34.074163 0.582091 0.734597 -0.014447 0.003975 348555.000000 0 0 1
18.009375 11.649420 25.618771 33.412094 0.574160 0.697031 -0.018394 0.012406 444581.000000 0 0 1
16.592475 12.229620 25.852471 33.063939 0.635167 0.673099 -0.018997 0.010106 193456.000000 0 0 1
16.467075 12.891220 27.090371 34.223330 0.664195 0.657412 -0.004253 0.006440 -637565.000000 0 0 1
15.241175 13.523320 27.105271 33.909723 0.725748 0.644607 0.007658 0.015984 -1096310.000000 0 0 1
14.842575 14.061220 28.464471 35.046342 0.758372 0.622891 0.009723 0.022720 -142173.000000 0 0 1
14.612575 13.004720 29.393971 35.308011 0.727245 0.587189 0.001998 0.024532 41886.500000 0 0 1
14.636575 13.374420 30.798671 36.628713 0.740369 0.571974 -0.008167 0.025266 417263.000000 0 0 1
16.064775 13.261520 31.446971 37.720775 0.690099 0.585062 -0.002304 0.021300 490551.000000 0 0 1
16.939075 14.168720 30.836971 37.928929 0.696576 0.621476 0.011555 0.016044 -695794.000000 0 0 1
18.244475 13.707420 30.731171 38.277397 0.644345 0.638729 0.004842 0.020214 -871196.000000 0 0 1
19.246075 14.766720 30.198871 38.735504 0.654456 0.676742 -0.001484 0.013145 -469623.000000 0 0 1
19.004275 15.450520 28.985071 37.947535 0.682619 0.701586 0.001827 0.009568 130479.000000 0 0 1
19.093575 14.663120 27.759571 36.744598 0.654897 0.714420 0.012874 0.005111 -508748.000000 0 0 1
18.944075 15.496520 26.449071 36.035725 0.685629 0.746650 -0.007443 0.007533 -223174.000000 0 0 1
19.945175 16.460420 26.206271 36.817443 0.689969 0.778754 -0.003385 0.011098 242361.000000 0 0 1
20.025675 16.665920 24.750471 35.935586 0.694085 0.811039 -0.003440 0.004135 878365.000000 0 0 1
21.154875 17.754820 24.365171 36.829661 0.698236 0.847894 -0.000992 0.006002 682444.000000 0 0 1
21.135275 17.987020 22.974071 36.028332 0.705099 0.879331 0.001761 0.003503 1196340.000000 0 0 1
22.259375 18.759620 22.417871 36.741857 0.700284 0.914552 0.006265 0.003545 736146.000000 0 0 1
22.459075 20.208220 22.990071 37.964794 0.732693 0.920323 0.010523 -0.006211 -595510.000000 0 0 1
21.545375 21.226220 22.651871 37.787073 0.777936 0.927969 -0.001905 -0.002508 -13185.500000 0 0 1
21.781975 22.427020 23.423971 39.065433 0.799988 0.927784 0.003877 -0.002993 -653126.000000 0 0 1
20.745575 23.464620 23.095771 38.915060 0.846823 0.935406 -0.002732 -0.001455 -1044350.000000 0 0 1
20.985875 24.177920 21.882671 38.779248 0.855958 0.971226 0.004346 0.000136 71335.200000 0 0 1
20.023675 25.190090 21.644771 38.781237 0.899171 0.978672 0.004179 -0.002984 -376813.000000 0 0 1
20.436275 26.296930 20.650671 39.186989 0.910154 1.015756 -0.001696 -0.004562 -259331.000000 0 0 1
20.470575 25.907540 19.323071 38.257367 0.902097 1.041320 -0.005498 -0.003081 48885.100000 0 0 1
20.699175 27.038000 18.518371 38.761313 0.917412 1.072700 0.002213 0.004853 -384660.000000 0 0 1
20.812975 26.774340 16.983671 37.927435 0.910021 1.106500 0.015118 0.003232 785367.000000 0 0 1
19.563375 26.352680 16.372371 36.677567 0.932198 1.108073 0.028668 0.001208 835359.000000 0 0 1
19.841575 26.101450 14.973571 36.044162 0.920817 1.142389 0.027767 0.005693 -302352.000000 0 0 1
18.655475 25.527540 14.147471 34.638605 0.939698 1.150062 0.024701 0.015804 720229.000000 0 0 1
17.520375 26.346400 13.946471 34.577455 0.983948 1.155632 0.021705 0.019702 73850.600000 0 0 1
16.707775 26.633800 15.089271 34.873990 1.010534 1.123333 0.020869 0.020975 -1428120.000000 0 0 1
15.244175 26.919040 14.710671 34.255269 1.055527 1.126921 0.010421 0.019042 -180095.000000 0 0 1
14.460175 25.744760 14.395771 32.850077 1.059034 1.117172 0.010707 0.019765 210596.000000 0 0 1
14.223775 24.842840 15.427571 32.519109 1.050805 1.076496 0.006147 0.014760 -748788.000000 0 0 1
13.376275 25.227060 16.652971 33.055268 1.083254 1.042814 0.004539 0.012112 -462011.000000 0 0 1
13.874275 26.393390 17.316471 34.481397 1.086822 1.044658 0.004020 0.007565 -146792.000000 0 0 1
13.114775 26.836940 18.419571 35.092724 1.116243 1.018219 -0.003221 -0.002982 -403131.000000 0 0 1
13.684775 28.084200 19.090271 36.611935 1.117379 1.022280 0.004166 -0.010041 -699830.000000 0 0 1
13.600775 29.220020 18.303871 37.065110 1.135160 1.054307 0.006947 -0.011304 2617.880000 0 0 1
14.216075 30.303220 18.914771 38.446723 1.132150 1.056441 0.007599 -0.009029 -547547.000000 0 0 1
14.076875 31.639660 18.129471 39.088415 1.152181 1.088509 0.012601 -0.014982 -390255.000000 0 0 1
12.760975 32.090060 17.994971 38.941410 1.192308 1.090430 0.005867 -0.005350 -483863.000000 0 0 1
12.726775 33.239890 17.138571 39.504325 1.205138 1.122046 0.011135 0.000006 52574.700000 0 0 1
11.327175 33.899681 17.035171 39.594069 1.248322 1.126032 0.000675 0.000806 -69680.000000 0 0 1
11.271275 -34.279896 16.502871 39.679940 -1.253130 1.141865 0.001332 0.006603 -226133.000000 0 0 1
11.938875 -33.160959 17.065771 39.158989 -1.225216 1.119861 0.009453 -0.001028 -87603.800000 0 0 1
11.641075 -32.996279 18.606271 39.629059 -1.231630 1.082060 0.009477 -0.012548 -715785.000000 0 0 1
12.369475 -33.791069 19.471971 40.914519 -1.219889 1.074788 0.027799 -0.012275 -172037.000000 0 0 1
12.008175 -33.609859 20.807371 41.313019 -1.227650 1.042976 0.020174 -0.011107 -364982.000000 0 0 1
12.998675 -34.245033 21.839871 42.645841 -1.208018 1.033143 0.034327 -0.016893 -726393.000000 0 0 1
14.165875 -33.512349 21.734571 42.380905 -1.170870 1.032308 0.035281 -0.016828 -1257690.000000 0 0 1
15.094175 -33.897079 22.717071 43.507601 -1.151863 1.021438 0.025268 -0.013249 -17134.700000 0 0 1
16.493575 -33.313689 22.398571 43.399722 -1.111077 1.028506 0.042887 -0.012005 134255.000000 0 0 1
16.451575 -31.923469 22.419471 42.336684 -1.094949 1.012724 0.044655 -0.009760 322031.000000 0 0 1
17.662075 -31.405749 21.868171 42.148391 -1.058495 1.025306 0.043174 -0.002495 278894.000000 0 0 1
-4.242525 13.340551 18.276284 23.021553 -1.262893 0.653638 -0.010029 0.014927 -398248.000000 0 1 0
-3.978125 14.658851 17.951784 23.515398 -1.305798 0.702227 -0.008611 0.018681 440141.000000 0 1 0
-5.187625 15.374451 17.657884 23.980952 -1.245374 0.743167 -0.010786 0.015019 544248.000000 0 1 0
-5.042725 16.868951 17.608784 24.901001 -1.280317 0.785335 0.000254 0.016562 -40070.400000 0 1 0
-4.944725 17.549651 18.825484 26.207621 -1.296160 0.769410 0.007767 0.021920 90630.400000 0 0 1
-4.391025 18.841951 18.628984 26.857760 -1.341838 0.804299 0.005457 0.015797 -137863.000000 0 0 1
-3.785825 19.542051 19.892384 28.141272 -1.379440 0.785725 -0.001563 0.015228 -68772.300000 0 0 1
-4.730925 19.801751 20.882884 29.164805 -1.336278 0.772697 0.002313 0.023524 -13074.300000 0 0 1
-4.112325 20.544151 21.931184 30.330681 -1.373237 0.762561 -0.000635 0.017132 104656.000000 0 0 1
-5.082525 20.641351 23.095584 31.389544 -1.329369 0.743989 -0.005825 0.016951 -1429.760000 0 0 1
-5.457625 19.396651 23.679484 31.092342 -1.296518 0.705040 -0.007650 0.011414 -330294.000000 0 0 1
-6.141625 19.533151 24.905814 32.242257 -1.266163 0.688093 -0.019721 0.007622 -339653.000000 0 0 1
-5.428025 20.065351 26.121804 33.383086 -1.306602 0.672148 -0.022140 0.007661 -941743.000000 0 0 1
-5.237025 21.431151 26.172594 34.230474 -1.331128 0.700377 -0.016749 0.006646 -37087.200000 0 0 1
-4.061025 21.899651 26.804184 34.850408 -1.387441 0.693332 -0.007957 0.010547 814815.000000 0 0 1
-2.631125 21.533551 26.265764 34.066215 -1.449212 0.690354 -0.001107 0.017502 108849.000000 0 0 1
-2.112725 20.391251 26.838584 33.772420 -1.467555 0.652301 0.009444 0.012652 -253437.000000 0 0 1
-0.804225 20.193651 26.324754 33.187694 -1.530992 0.654737 0.020109 0.014265 88911.400000 0 0 1
-0.211125 18.976951 27.039884 33.035202 -1.559671 0.611971 0.016467 0.016563 -335168.000000 0 0 1
-0.614825 17.739551 26.480914 31.879594 -1.536152 0.590515 0.017193 0.013252 18498.600000 0 0 1
0.027075 16.532451 26.990124 31.651058 1.569159 0.549588 0.014430 0.009718 240166.000000 0 0 1
1.424375 16.231451 26.395054 31.019151 1.483267 0.553048 0.012593 0.010421 -156444.000000 0 0 1
1.488175 15.937651 25.007084 29.691373 1.477692 0.569383 0.014272 0.005520 -30824.800000 0 0 1
0.783075 14.735651 24.659424 28.737429 1.517705 0.539249 0.018585 0.001521 -109298.000000 0 0 1
1.098675 14.363651 23.166184 27.279913 1.494455 0.556322 0.017528 -0.001545 413264.000000 0 0 1
2.465875 14.148151 22.838584 26.978726 1.398240 0.561344 0.020732 -0.007388 269204.000000 0 0 1
2.521075 13.661551 21.541684 25.632752 1.388311 0.572781 0.013384 -0.010863 127137.000000 0 0 1
3.998575 13.548751 21.122884 25.411287 1.283818 0.589461 0.008961 -0.010528 343682.000000 0 0 1
4.634075 14.665751 20.485884 25.616993 1.264745 0.644003 0.005455 -0.008618 -238261.000000 0 0 1
6.024475 14.487751 20.401384 25.737243 1.176716 0.655605 0.011852 -0.010486 -453863.000000 0 0 1
6.609475 15.594851 19.511284 25.837468 1.169922 0.714906 0.015522 -0.016825 -429913.000000 0 0 1
6.448475 15.373151 18.113384 24.617297 1.173625 0.743950 0.010806 -0.023058 -51938.000000 0 1 0
6.927675 16.389851 17.305884 24.821634 1.170892 0.799299 0.004546 -0.006569 -186052.000000 0 1 0
6.603275 16.137451 15.806084 23.534079 1.182393 0.834396 -0.002783 -0.002752 314859.000000 0 1 0
7.319975 15.113651 15.050284 22.550289 1.119764 0.840071 -0.003729 -0.005375 349190.000000 0 1 0
7.425175 13.845951 15.701384 22.212092 1.078555 0.785712 0.002997 -0.008202 -203965.000000 0 1 0
8.541475 13.035451 15.010784 21.638009 0.990740 0.804151 0.001051 -0.007390 375613.000000 0 1 0
9.863675 13.478351 15.254484 22.619843 0.939035 0.830665 0.004484 -0.007491 713246.000000 0 1 0
10.884575 12.812451 14.463284 22.177003 0.866575 0.860346 0.005477 -0.001870 847047.000000 0 1 0
12.265575 13.408551 14.791484 23.431209 0.829887 0.887603 0.004737 0.010309 -943353.000000 0 1 0
12.968475 12.987251 15.899784 24.282775 0.786122 0.856910 0.000332 0.000989 1726490.000000 0 1 0
14.323075 13.558251 15.984284 25.386492 0.757974 0.889710 0.016953 0.001528 1801690.000000 0 0 1
15.410175 12.972951 15.061784 25.152103 0.699740 0.928759 0.023466 -0.000124 -1190970.000000 0 0 1
16.617575 13.665351 15.139984 26.307883 0.688217 0.957590 0.032379 -0.008540 -731381.000000 0 0 1
17.568275 13.022451 14.381784 26.173732 0.637876 0.989062 0.035264 -0.002847 -654825.000000 0 0 1
19.010275 13.552751 14.414984 27.438283 0.619343 1.017658 0.035291 -0.005586 -55888.900000 0 0 1
19.689775 13.411151 15.624084 28.489616 0.597944 0.990331 0.022512 -0.013923 -691141.000000 0 0 1
20.919075 14.053851 15.575184 29.626083 0.591562 1.017229 0.009055 -0.001222 -323394.000000 0 0 1
21.886675 13.572251 16.698484 30.693190 0.555079 0.995546 0.004035 -0.003902 -6557.170000 0 0 1
22.317075 12.257551 16.594584 30.392098 0.502264 0.993194 0.017418 -0.008345 778485.000000 0 0 1
23.249575 11.936851 17.656884 31.540398 0.474328 0.976630 0.012857 -0.009316 274561.000000 0 0 1
23.501875 10.425251 17.826184 31.285729 0.417513 0.964550 0.017904 -0.000213 137069.000000 0 0 1
22.366275 9.693251 18.293884 30.477460 0.408953 0.926991 -0.008458 0.001905 658821.000000 0 0 1
22.362175 8.393951 17.854184 29.821086 0.359090 0.928907 -0.013083 0.008289 14464.600000 0 0 1
21.125175 7.669651 18.435084 29.068004 0.348260 0.883816 0.000282 0.005606 66877.300000 0 0 1
20.920775 6.290251 18.147184 28.400112 0.292071 0.877621 -0.003571 0.012496 -361262.000000 0 0 1
19.660475 5.924351 18.594384 27.701684 0.292679 0.834921 -0.012072 0.015077 -1067030.000000 0 0 1
19.302075 4.454451 18.193084 26.896106 0.226805 0.827904 0.010422 0.010741 -686631.000000 0 0 1
18.936375 4.363551 16.833284 25.709654 0.226479 0.856950 0.017837 0.003639 197858.000000 0 0 1
19.004675 3.039351 16.282184 25.209618 0.158584 0.868632 0.017305 0.001599 82540.300000 0 0 1
17.939075 2.010251 16.737584 24.617031 0.111594 0.823144 0.018986 0.004539 262450.000000 0 1 0
18.375275 1.470751 17.995984 25.761779 0.079869 0.797422 0.011328 0.003207 -147171.000000 0 0 1
17.285075 0.968751 18.706284 25.487984 0.055987 0.746713 0.012802 -0.000264 -823446.000000 0 0 1
17.603875 0.076351 19.906184 26.573641 0.004337 0.724101 -0.000859 -0.003592 -564382.000000 0 0 1
18.152075 -1.193149 19.545384 26.701001 -0.065636 0.749530 -0.003491 -0.001223 106580.000000 0 0 1
17.320875 -2.239749 20.022784 26.569551 -0.128596 0.717276 -0.002724 0.000935 92150.700000 0 0 1
17.676275 -3.606749 19.395284 26.488419 -0.201282 0.749224 -0.006104 0.006177 -78982.600000 0 0 1
17.393275 -3.570249 17.993384 25.279133 -0.202454 0.778756 -0.003559 -0.000622 194235.000000 0 0 1
17.289075 -4.859949 17.486284 25.065940 -0.274028 0.798738 -0.002489 0.007354 -304655.000000 0 0 1
16.793075 -4.985349 15.996884 23.722592 -0.288582 0.830738 -0.002009 0.002341 -368055.000000 0 1 0
15.453975 -4.659249 15.737084 22.543064 -0.292825 0.798070 -0.010075 0.004582 -126961.000000 0 1 0
15.078175 -4.783349 14.355684 21.361588 -0.307194 0.833846 -0.006738 0.000289 49134.500000 0 1 0
15.564675 -3.671749 13.400184 20.863982 -0.231667 0.873348 -0.005169 0.000006 68713.700000 0 1 0
14.857675 -2.453149 13.666084 20.335444 -0.163634 0.833846 -0.001664 0.003706 678141.000000 0 1 0
15.454075 -1.438649 12.900884 20.182441 -0.092824 0.877322 0.007508 0.000498 57684.400000 0 1 0
14.635475 -0.150449 13.245084 19.739605 -0.010279 0.835253 0.013473 0.004579 -221487.000000 0 1 0
14.992875 1.167151 12.849684 19.780367 0.077690 0.863714 0.018248 0.006012 716854.000000 0 1 0
16.134175 1.752351 13.544684 21.138609 0.108187 0.875314 0.032019 -0.000499 862604.000000 0 1 0
16.345275 3.198951 13.044084 21.155364 0.193268 0.906398 0.032136 -0.000161 842012.000000 0 1 0
15.293075 4.099951 13.529384 20.826233 0.261933 0.863696 0.031071 0.006925 1232360.000000 0 1 0
15.473575 5.345751 12.845184 20.808828 0.332639 0.905497 0.033203 0.001739 45739.900000 0 1 0
14.297275 6.323651 13.012684 20.340368 0.416430 0.876628 0.029223 -0.002366 -79193.800000 0 1 0
14.411275 7.505851 12.217484 20.329524 0.480174 0.926079 0.011565 -0.008914 189872.000000 0 1 0
13.318475 8.394051 12.373184 20.023425 0.562370 0.904682 0.001389 -0.003098 -335078.000000 0 1 0
13.396075 9.471851 13.528384 21.264712 0.615450 0.881247 0.001881 -0.007844 -446303.000000 0 1 0
13.019475 9.017751 14.816684 21.687800 0.605766 0.818687 0.008623 -0.012024 21260.600000 0 1 0
13.738075 9.546251 15.870284 23.059304 0.607278 0.811739 0.026154 -0.017900 -704067.000000 0 1 0
13.299875 8.930151 17.217784 23.517788 0.591304 0.749371 0.028085 -0.022937 181567.000000 0 1 0
12.013575 9.471651 17.533684 23.269470 0.667635 0.717418 0.026325 -0.017540 358670.000000 0 1 0
11.347375 8.761551 18.587084 23.473546 0.657509 0.656995 0.024775 -0.010671 8526.070000 0 1 0
11.835575 8.879851 20.051584 24.919844 0.643673 0.635722 0.020615 -0.003420 -935174.000000 0 1 0
13.136075 8.415551 20.228684 25.545599 0.569770 0.656938 0.018882 -0.003751 -702969.000000 0 0 1
13.500875 8.680251 21.551284 26.871513 0.571396 0.640140 0.014523 0.008638 467133.000000 0 0 1
15.019475 8.384051 21.830584 27.793009 0.509126 0.667341 0.009420 0.006935 943479.000000 0 0 1
15.959175 9.252651 21.235284 28.129061 0.525412 0.715259 0.016372 0.004972 159461.000000 0 0 1
16.344175 8.910651 19.911984 27.258372 0.499141 0.751756 0.011006 -0.000927 -357878.000000 0 0 1
17.056175 10.079751 19.179084 27.574476 0.533756 0.801629 0.007679 -0.006515 -396656.000000 0 0 1
18.315675 10.348351 19.716184 28.831931 0.514286 0.817795 0.000362 -0.000603 -392615.000000 0 0 1
18.978075 11.290751 18.917984 29.078145 0.536688 0.862434 0.003597 -0.005815 -211150.000000 0 0 1
19.830475 12.248651 19.750384 30.550857 0.553310 0.867840 0.001949 -0.007906 -776438.000000 0 0 1
19.133575 13.259451 20.438084 30.977766 0.606008 0.850289 -0.003765 -0.006313 236856.000000 0 0 1
19.763975 13.864651 21.620984 32.408490 0.611740 0.840434 0.002609 -0.002422 460668.000000 0 0 1
21.105175 14.661551 21.369384 33.422149 0.607153 0.877107 -0.003331 -0.004981 966898.000000 0 0 1
22.339775 14.007451 21.169284 33.814388 0.560049 0.894327 -0.004799 -0.005013 -116743.000000 0 0 1
23.394975 14.933951 21.124484 34.879673 0.568135 0.920228 -0.002538 -0.004602 498411.000000 0 0 1
24.748275 14.134551 21.272084 35.563523 0.518923 0.929614 -0.001578 -0.003600 436919.000000 0 0 1
25.188075 13.596451 20.000284 34.918676 0.494976 0.960918 -0.005020 -0.009434 -21833.500000 0 0 1
26.367975 12.860451 20.227384 35.634370 0.453783 0.967164 -0.006489 -0.009102 -143942.000000 0 0 1
26.872575 12.127051 18.981584 35.064244 0.423918 0.998769 -0.003091 -0.009714 -280324.000000 0 0 1
27.416975 13.008351 17.995884 35.281150 0.443010 1.035529 -0.011116 -0.014729 69951.400000 0 0 1
27.878675 12.360651 16.836684 34.835042 0.417329 1.066346 -0.019104 -0.022076 -375735.000000 0 0 1
26.864675 11.869151 15.787284 33.344052 0.416024 1.077574 -0.013849 -0.024045 -190089.000000 0 0 1
26.321175 12.988251 15.081584 32.999289 0.458396 1.096146 -0.016561 -0.021491 -46802.700000 0 0 1
25.195075 12.592251 14.337784 31.605832 0.463480 1.099947 -0.012707 -0.017375 -20465.200000 0 0 1
24.789775 13.526551 13.162184 31.156759 0.499498 1.134649 -0.021321 -0.013166 -298948.000000 0 0 1
24.150575 14.715651 13.504884 31.339792 0.547251 1.125286 -0.013469 -0.005001 33626.100000 0 0 1
23.918375 15.415551 12.277584 30.991401 0.572504 1.163464 -0.014697 0.004231 -193833.000000 0 0 1
23.145075 16.707251 12.609384 31.206142 0.625240 1.154837 -0.007678 0.010625 752731.000000 0 0 1
21.831675 16.447951 13.200984 30.354952 0.645673 1.120883 0.001532 0.003911 1586700.000000 0 0 1
21.130275 17.680051 13.463884 30.665109 0.696732 1.116242 0.016360 0.010754 -448688.000000 0 0 1
20.588475 18.490951 12.244984 30.261200 0.731776 1.154208 0.004205 0.020025 425284.000000 0 0 1
19.412075 17.930751 11.611684 28.864714 0.745751 1.156791 0.020540 0.022558 2030860.000000 0 0 1
18.176675 17.961651 12.393484 28.400896 0.779448 1.119229 0.020263 0.023275 1012810.000000 0 0 1
16.985175 17.329751 11.607784 26.899017 0.795439 1.124606 0.033762 0.026641 190546.000000 0 0 1
16.894975 15.865151 11.608384 25.920991 0.753973 1.106451 0.038864 0.023871 -221503.000000 0 0 1
15.671775 15.492851 11.041784 24.648610 0.779657 1.106305 0.037863 0.011534 -182804.000000 0 1 0
15.697375 14.201851 10.302384 23.542287 0.735421 1.117855 0.036972 0.008747 -179610.000000 0 1 0
15.743175 13.027951 11.108084 23.258646 0.691304 1.072887 0.040311 0.007748 384027.000000 0 1 0
16.084475 11.941251 10.246484 22.500983 0.638625 1.097998 0.033415 0.012893 16586.300000 0 1 0
16.373375 10.634851 11.081184 22.449501 0.576038 1.054566 0.024913 0.005789 -940732.000000 0 1 0
16.884975 9.620651 10.207684 21.951221 0.517899 1.087143 0.012173 0.000603 430872.000000 0 1 0
17.421975 8.466551 10.867984 22.210825 0.452360 1.059498 0.010448 -0.001194 947830.000000 0 1 0
18.656675 8.771251 11.815384 23.761516 0.439476 1.050372 0.020869 -0.006007 -81108.900000 0 1 0
18.322875 9.408451 13.010384 24.362200 0.474374 1.007425 0.025226 -0.008930 -325789.000000 0 1 0
19.472775 9.582951 13.787484 25.712188 0.457324 1.004840 0.026965 -0.008738 -707974.000000 0 0 1
19.138675 9.913251 15.284384 26.422979 0.477920 0.953969 0.026031 -0.002555 109666.000000 0 0 1
18.679475 8.825551 16.092384 26.187362 0.441385 0.909032 0.021565 -0.001578 -119892.000000 0 0 1
17.385775 8.377351 15.844484 24.969839 0.449023 0.883377 0.022311 -0.012141 -1059700.000000 0 1 0
17.060875 6.985351 16.365584 24.651591 0.388615 0.844807 0.025062 -0.000320 -346224.000000 0 1 0
15.760775 6.939851 16.909484 24.134917 0.414779 0.794526 0.018132 -0.009895 -173545.000000 0 1 0
15.503175 5.615751 17.343884 23.931055 0.347530 0.760134 0.026188 0.002923 284572.000000 0 1 0
14.037975 5.423251 17.891284 23.378931 0.368664 0.699330 0.020486 -0.007320 876787.000000 0 1 0
13.464175 4.124151 17.839684 22.727669 0.297232 0.668209 0.013415 -0.005328 146695.000000 0 1 0
13.385475 3.550351 16.567684 21.593149 0.259269 0.696230 0.028835 -0.004967 -740939.000000 0 1 0
13.154675 1.976551 16.593484 21.267250 0.149139 0.675753 0.017935 -0.008593 -315289.000000 0 1 0
14.237975 1.220751 17.061984 22.255818 0.085530 0.697220 0.009589 0.001475 -204713.000000 0 1 0
14.157475 -0.204649 16.923284 22.065210 -0.014454 0.696696 0.008251 0.009218 -482496.000000 0 1 0
13.239575 -0.942049 17.895384 22.280452 -0.071034 0.638169 0.009187 0.003334 -446067.000000 0 1 0
11.892275 -0.760849 17.589484 21.246059 -0.063891 0.595454 0.009855 0.002499 -713686.000000 0 1 0
11.018375 -1.588749 18.331884 21.447300 -0.143204 0.545745 0.006656 -0.006051 312881.000000 0 1 0
-25.118715 14.231151 29.297474 41.131709 -0.515465 0.778049 0.010268 -0.008920 -687636.000000 0 0 1
-23.953525 14.234751 30.062204 40.989458 -0.536192 0.747467 0.007987 -0.008449 -12816.600000 0 0 1
-23.432725 12.895151 30.211514 40.349884 -0.503078 0.724639 0.010889 -0.005963 85782.100000 0 0 1
-22.278225 12.928951 31.256104 40.502113 -0.525838 0.689262 0.013417 -0.011678 29811.700000 0 0 1
-22.651325 13.146751 32.595834 41.813969 -0.525880 0.676859 0.016496 -0.009771 145551.000000 0 0 1
-21.487225 13.127751 33.374786 41.808074 -0.548437 0.646353 0.015282 -0.005031 -220702.000000 0 0 1
-21.975225 13.215351 -34.468859 42.961125 -0.541430 2.501980 0.011109 0.005361 471481.000000 0 0 1
-22.757225 12.124951 -33.998029 42.670502 -0.489539 2.492706 0.009059 0.004515 120020.000000 0 0 1
-23.528125 12.438851 -32.882149 42.302877 -0.486328 2.461164 0.002663 0.011103 -193782.000000 0 0 1
-24.115525 11.170151 -32.183309 41.738426 -0.433771 2.451318 0.000338 0.003696 72348.900000 0 0 1
-23.190525 10.332151 -31.494679 40.453289 -0.419133 2.463139 0.001382 -0.003299 272751.000000 0 0 1
-23.011825 9.057251 -32.053719 40.484797 -0.374969 2.484460 -0.000142 -0.006154 197855.000000 0 0 1
-22.079325 8.132551 -31.223449 39.096531 -0.352913 2.495803 0.004374 -0.001078 334809.000000 0 0 1
-22.786725 7.424851 -30.158109 38.521095 -0.314992 2.470107 -0.001944 -0.001327 680492.000000 0 0 1
-21.957125 6.494851 -29.499949 37.343613 -0.287596 2.481540 -0.003304 0.002998 -355208.000000 0 0 1
-22.700925 5.648251 -28.460179 36.840420 -0.243860 2.453606 -0.007995 0.008190 -460377.000000 0 0 1
-23.466825 4.656151 -29.092489 37.666225 -0.195870 2.453370 -0.000414 0.000178 140370.000000 0 0 1
-23.909625 3.669951 -28.228299 37.174932 -0.152304 2.433090 0.001191 0.010925 -493786.000000 0 0 1
-24.483925 2.362051 -28.910289 37.958486 -0.096176 2.436620 0.009350 0.011103 -45695.400000 0 0 1
-25.823465 2.325251 -29.320989 39.140497 -0.089802 2.417531 0.010519 -0.007423 -47565.800000 0 0 1
-26.150245 3.265551 -30.356029 40.199349 -0.124233 2.426660 0.010524 -0.006840 -849483.000000 0 0 1
-27.606005 3.292851 -30.860079 41.536476 -0.118719 2.408283 0.012240 -0.016567 -168405.000000 0 0 1
-28.538685 3.773751 -29.887609 41.496589 -0.131470 2.374948 0.012243 -0.012606 -354658.000000 0 0 1
-29.804065 3.960251 -30.445849 42.789200 -0.132102 2.362471 0.015935 -0.014245 -312509.000000 0 0 1
-30.107535 5.325051 -31.072869 43.592924 -0.175057 2.364273 0.014390 -0.022786 -1069560.000000 0 0 1
-29.450215 5.521151 -32.301799 44.059102 -0.185323 2.393734 0.016362 -0.014010 63647.200000 0 0 1
-29.556325 6.807951 -32.923429 44.764682 -0.226390 2.397168 0.016059 -0.009454 -768685.000000 0 0 1
-29.053335 8.080051 -32.135799 44.069185 -0.271256 2.387967 -0.000987 -0.012858 1783770.000000 0 0 1
-27.611865 7.981251 -31.826449 42.884010 -0.281382 2.407072 -0.002309 -0.015014 2345680.000000 0 0 1
-27.265005 7.260851 -30.606099 41.627320 -0.260266 2.396818 -0.016997 -0.009454 -910052.000000 0 0 1
-27.120385 8.150451 -29.347319 40.782475 -0.291942 2.374031 -0.013321 -0.006634 39711.700000 0 0 1
-28.302995 8.631551 -28.717949 41.234498 -0.296010 2.341241 -0.012616 -0.010224 352586.000000 0 0 1
-28.913555 7.687651 -27.885459 40.898563 -0.259872 2.321044 -0.005181 -0.005075 -103623.000000 0 0 1
-30.204355 8.188151 -27.131889 41.418454 -0.264729 2.285068 -0.014328 -0.002184 322321.000000 0 0 1
-30.081615 9.191051 -26.125359 40.889037 -0.296529 2.263907 -0.027191 -0.003433 -233664.000000 0 0 1
-29.675495 8.607051 -24.919229 39.694890 -0.282293 2.249480 -0.023958 0.005931 -210307.000000 0 0 1
-29.124825 9.544551 -23.859129 38.840854 -0.316683 2.232269 -0.020203 -0.006096 -190489.000000 0 0 1
-30.105895 10.424051 -23.360629 39.506262 -0.333327 2.203484 -0.016559 0.007636 464718.000000 0 0 1
-29.413895 11.343251 -22.540029 38.754348 -0.368068 2.191506 -0.015899 0.006053 155032.000000 0 0 1
-30.320815 12.043151 -21.496729 39.070432 -0.378082 2.153405 -0.015294 0.000125 -15138.600000 0 0 1
-30.523735 11.249851 -20.306229 38.348409 -0.353113 2.128830 -0.028101 0.003647 323449.000000 0 0 1
-31.401305 11.888551 -19.384029 38.770094 -0.361924 2.094365 -0.024095 0.011621 185753.000000 0 0 1
-30.779225 13.023051 -18.467929 38.184093 -0.400270 2.075622 -0.017479 0.007309 14530.000000 0 0 1
-30.069895 12.670451 -17.272429 36.919856 -0.398789 2.057637 -0.009543 0.006422 390831.000000 0 0 1
-30.890135 12.311951 -16.177129 36.979509 -0.379275 2.023571 -0.019205 0.002000 -491837.000000 0 0 1
-31.497495 13.548551 -15.456329 37.610551 -0.406222 1.994300 -0.033867 0.002486 -210893.000000 0 0 1
-32.398595 14.229051 -16.302929 38.960498 -0.413826 2.002532 -0.027955 0.003940 -101392.000000 0 0 1
-32.867805 15.413851 -15.695329 39.550257 -0.438513 1.978874 -0.026095 0.007723 237068.000000 0 0 1
-33.650185 16.382251 -16.671429 40.971327 -0.453064 1.989859 -0.022758 -0.007250 -365046.000000 0 0 1
34.713229 15.928351 -16.910829 41.769568 0.430194 1.987622 -0.028138 -0.000447 153218.000000 0 0 1
33.901646 17.022451 -17.366029 41.721271 0.465336 2.000102 -0.025453 -0.004890 -717852.000000 0 0 1
33.812393 17.126551 -18.908529 42.357162 0.468848 2.033542 -0.043133 0.002416 215742.000000 0 0 1
32.934920 16.157451 -19.542629 41.565449 0.456089 2.060274 -0.032842 0.004903 1675750.000000 0 0 1
31.526130 16.305851 -19.331529 40.416404 0.477326 2.069524 -0.016591 -0.008067 420929.000000 0 0 1
30.606080 15.087751 -19.530829 39.316989 0.458004 2.090650 0.003611 -0.013130 -100552.000000 0 0 1
30.216310 14.807351 -20.825929 39.572748 0.455652 2.125004 -0.007004 -0.004206 328868.000000 0 0 1
29.388650 13.635351 -20.944829 38.578510 0.434408 2.144700 -0.012216 -0.003817 80094.200000 0 0 1
30.049600 12.254551 -20.715429 38.500409 0.387222 2.138927 -0.007947 0.002860 -211083.000000 0 0 1
30.279630 11.998151 -19.373229 37.896354 0.377265 2.107396 0.000587 -0.001666 -269676.000000 0 0 1
31.056630 10.830151 -19.244729 38.107296 0.335536 2.100195 -0.010873 0.006002 -418086.000000 0 0 1
31.374690 10.681651 -17.732629 37.588761 0.328146 2.062075 -0.013155 0.010000 -356786.000000 0 0 1
30.306910 10.149651 -16.971629 36.187849 0.323156 2.058940 -0.001129 0.004601 25755.700000 0 0 1
30.669740 9.933051 -15.602529 35.815323 0.313211 2.021544 -0.031093 0.003458 -18305.300000 0 0 1
30.200820 11.084651 -14.678129 35.361087 0.351766 1.998841 -0.024555 0.001608 218304.000000 0 0 1
28.792920 11.265551 -14.649929 34.213525 0.372950 2.013287 -0.002876 0.005029 186748.000000 0 0 1
28.434550 12.293051 -13.765529 33.898857 0.408061 1.988953 -0.018212 0.003941 -959191.000000 0 0 1
26.955530 12.604951 -13.710429 32.763719 0.437410 2.002550 0.008775 0.010232 -755715.000000 0 0 1
26.253550 11.623251 -12.921729 31.485234 0.416792 1.993696 -0.009568 0.010841 1232030.000000 0 0 1
24.900520 11.340351 -13.363129 30.450167 0.427357 2.025117 -0.001991 0.009804 645265.000000 0 0 1
24.637410 10.497251 -14.619229 30.510918 0.402776 2.070479 0.013253 0.006308 -474637.000000 0 0 1
25.063650 9.125051 -14.568029 30.392114 0.349158 2.070694 0.002731 0.009034 1645430.000000 0 0 1
26.500830 8.970351 -14.714429 31.611321 0.326387 2.054973 0.000441 0.004668 1196650.000000 0 0 1
27.248180 7.871751 -13.879729 31.576489 0.281234 2.025904 0.007857 0.006068 -109891.000000 0 0 1
26.755630 6.582651 -14.130129 30.965393 0.241237 2.044651 -0.007376 -0.000218 278450.000000 0 0 1
25.965950 6.098551 -13.066929 29.701305 0.230686 2.026333 0.006836 -0.002320 -93835.500000 0 0 1
25.393370 4.683351 -13.369429 29.077460 0.182383 2.048551 0.011521 -0.000565 290348.000000 0 0 1
24.630130 4.188051 -12.240829 27.821232 0.168427 2.026374 0.003918 -0.004395 426703.000000 0 0 1
23.939920 3.012851 -12.589829 27.215820 0.125192 2.051713 0.006271 -0.002598 -196268.000000 0 0 1
23.115020 2.487351 -11.384529 25.886262 0.107195 2.026162 0.005931 0.002274 -177858.000000 0 0 1
23.830320 1.830751 -10.325629 26.035637 0.076674 1.978602 0.001607 0.000639 402008.000000 0 0 1
23.220320 1.972451 -9.059629 25.003014 0.084742 1.941575 0.003110 0.006316 -591409.000000 0 0 1
24.089520 1.567751 -7.830329 25.378670 0.064989 1.884454 0.012920 0.013263 -270615.000000 0 0 1
24.227520 0.189551 -7.551929 25.377949 0.007824 1.872951 -0.000733 0.004525 497730.000000 0 0 1
24.788730 -0.690049 -8.513029 26.218867 -0.027830 1.901481 0.006527 0.003770 -457152.000000 0 0 1
24.838610 -2.074149 -7.900129 26.147097 -0.083312 1.877735 0.019446 -0.000129 -150888.000000 0 0 1
25.804420 -2.414549 -6.914429 26.823636 -0.093299 1.831514 0.015812 0.004294 496004.000000 0 0 1
25.814900 -3.798349 -6.541229 26.900264 -0.146090 1.816425 0.016034 0.000317 -570120.000000 0 0 1
27.020640 -4.190049 -5.655829 27.922391 -0.153843 1.774763 0.005214 0.005778 -601842.000000 0 0 1
28.163560 -4.152449 -6.461629 29.192150 -0.146386 1.793993 0.010572 0.005238 -695322.000000 0 0 1
29.284030 -4.370249 -5.651229 30.142825 -0.148143 1.759394 0.005452 0.003589 -674841.000000 0 0 1
30.614860 -4.408249 -6.397929 31.585373 -0.143008 1.774768 -0.009279 0.007837 -435440.000000 0 0 1
30.669670 -5.609049 -7.145229 31.986628 -0.180887 1.796079 -0.016601 0.009611 105504.000000 0 0 1
31.430340 -5.440649 -8.311029 32.962708 -0.171403 1.825681 -0.015928 -0.002969 -529717.000000 0 0 1
31.029280 -6.548749 -9.344829 33.060976 -0.207998 1.857357 -0.010710 -0.008293 -972063.000000 0 0 1
29.750350 -6.350249 -9.787729 31.956355 -0.210295 1.882084 0.016455 -0.000787 -1167580.000000 0 0 1
28.736480 -7.146349 -9.217729 31.013257 -0.243741 1.872575 0.010422 0.001143 -877995.000000 0 0 1
27.421340 -6.409949 -9.153829 29.610976 -0.229634 1.885081 0.013373 -0.000774 -1690350.000000 0 0 1
26.889340 -6.101449 -10.442029 29.483898 -0.223131 1.932812 0.015851 0.000758 1172020.000000 0 0 1
25.630370 -5.386149 -10.393329 28.177078 -0.207133 1.948576 0.033042 -0.003853 1800720.000000 0 0 1
24.360320 -6.192549 -9.923529 27.023125 -0.248934 1.946819 0.032683 0.001018 -460545.000000 0 0 1
24.300720 -6.550349 -8.570829 26.587425 -0.263296 1.899022 0.017681 -0.002954 527230.000000 0 0 1
23.046720 -7.058449 -8.123629 25.435533 -0.297196 1.895873 0.011880 -0.006780 -111897.000000 0 0 1
22.083920 -6.027549 -7.527529 24.097605 -0.266448 1.888490 0.013799 -0.002803 -264605.000000 0 1 0
21.424420 -5.352749 -8.627529 23.708478 -0.244831 1.943248 0.001583 -0.002397 391154.000000 0 1 0
21.010720 -4.047849 -8.191729 22.911566 -0.190324 1.936425 -0.016720 -0.002769 -114838.000000 0 1 0
20.709920 -3.294049 -9.487429 23.016578 -0.157735 1.995664 -0.030386 0.003790 -664672.000000 0 1 0
21.916820 -3.099649 -10.168829 24.358980 -0.140496 2.001441 -0.004259 0.003031 219865.000000 0 1 0
21.810120 -2.555049 -11.452429 24.766262 -0.116618 2.051520 -0.011729 0.012070 -402268.000000 0 1 0
23.172920 -2.417649 -12.155829 26.279144 -0.103955 2.051683 0.010796 -0.005448 -255206.000000 0 0 1
24.075620 -1.469949 -11.615229 26.771436 -0.060980 2.019576 0.013302 -0.003110 957241.000000 0 0 1
25.282290 -1.530849 -12.392729 28.197826 -0.060476 2.025830 0.014111 -0.002793 -255466.000000 0 0 1
26.275770 -0.484549 -12.005829 28.892747 -0.018439 1.999323 0.019442 -0.001459 -327964.000000 0 0 1
27.627180 -0.823849 -12.400829 30.293900 -0.029811 1.992539 0.018332 -0.003891 1272560.000000 0 0 1
28.534440 0.202451 -12.011829 30.960286 0.007095 1.969230 0.004816 -0.003976 113682.000000 0 0 1
28.400120 1.519851 -12.861429 31.213669 0.053465 1.995493 0.009030 -0.007412 -743579.000000 0 0 1
28.553400 1.237651 -14.199929 31.913421 0.043318 2.031917 0.000591 -0.007456 283140.000000 0 0 1
28.632010 2.401451 -15.005429 32.414840 0.083677 2.052081 0.011725 -0.008544 -182778.000000 0 0 1
28.995690 2.147651 -16.510229 33.435761 0.073933 2.087239 0.006242 -0.010200 -7911.120000 0 0 1
27.875820 1.633451 -17.199929 32.795839 0.058531 2.122871 0.013588 -0.004342 -210195.000000 0 0 1
28.219920 1.430051 -18.554629 33.803597 0.050632 2.151838 0.006127 -0.004103 -160331.000000 0 0 1
27.231090 0.778551 -19.564429 33.539608 0.028583 2.193610 0.006312 0.006485 -180921.000000 0 0 1
27.142550 -0.637149 -19.513429 33.434980 -0.023470 2.193980 0.009570 0.008504 130537.000000 0 0 1
26.549040 -1.159649 -20.676429 33.670626 -0.043652 2.232015 0.001886 0.006336 -119548.000000 0 0 1
26.196660 -2.657749 -20.678529 33.480295 -0.101108 2.236526 -0.001375 0.007648 955935.000000 0 0 1
25.034460 -2.934749 -19.832729 32.072949 -0.116696 2.237454 0.015311 -0.002831 1124180.000000 0 0 1
24.797870 -4.335949 -19.753129 31.998764 -0.173102 2.236114 0.016337 -0.007437 -77401.400000 0 0 1
25.723690 -5.133949 -18.771629 32.255848 -0.196992 2.191934 0.015616 -0.006000 -107881.000000 0 0 1
27.053670 -5.296449 -19.185429 33.586219 -0.193330 2.178799 0.015060 -0.011016 -734914.000000 0 0 1
27.807430 -5.515749 -18.065829 33.616229 -0.195814 2.138164 0.005839 -0.002212 146884.000000 0 0 1
29.361270 -5.465649 -18.209229 34.979044 -0.184045 2.118321 0.017641 -0.006144 572946.000000 0 0 1
29.939490 -6.479949 -19.015029 36.054599 -0.213147 2.126328 0.014669 -0.006751 -833937.000000 0 0 1
31.282150 -6.184949 -19.190229 37.216816 -0.195197 2.112543 0.012799 -0.001632 -1059200.000000 0 0 1
31.961420 -7.322449 -19.903529 38.357543 -0.225216 2.116354 0.002333 0.002222 -367574.000000 0 0 1
32.278060 -8.371449 -19.016929 38.387471 -0.253763 2.089085 -0.002145 0.000537 -290874.000000 0 0 1
33.076500 -9.312949 -19.644529 39.581478 -0.274453 2.090135 0.003752 0.002419 -510290.000000 0 0 1
33.744168 -10.187649 -18.592829 39.851604 -0.293207 2.056184 0.003259 0.006722 -249120.000000 0 0 1
32.827870 -10.962749 -17.815329 38.926043 -0.322302 2.046171 -0.004759 0.002888 196803.000000 0 0 1
33.453890 -11.697749 -16.827029 39.231989 -0.336379 2.014083 0.008707 0.003509 -394431.000000 0 0 1
34.278458 -11.027549 -15.674629 39.272299 -0.311249 1.981361 0.018930 -0.001530 185006.000000 0 0 1
34.719516 -11.912449 -14.593629 39.500952 -0.330519 1.949213 0.002616 -0.000964 588686.000000 0 0 1
-34.096358 -13.006549 -14.895229 39.415730 0.364426 1.958324 0.009191 -0.001157 623398.000000 0 0 1
-32.586915 -12.849349 -15.285929 38.218744 0.375592 1.982268 0.014541 -0.002241 525295.000000 0 0 1
-32.532265 -12.412849 -16.638729 38.591118 0.364505 2.016568 0.012944 -0.000594 -432839.000000 0 0 1
-31.202395 -12.513949 -17.043729 37.691870 0.381418 2.040011 0.005212 0.009496 -628210.000000 0 0 1
-30.986555 -11.705349 -18.339429 37.861807 0.361184 2.076448 0.016693 0.012241 144484.000000 0 0 1
-30.864515 -10.327149 -18.023129 37.203514 0.322887 2.076527 0.019328 0.002180 38509.700000 0 0 1
-31.678015 -9.628349 -18.910829 38.129007 0.295071 2.089747 0.026842 -0.003553 -195779.000000 0 0 1
-32.232465 -8.363949 -18.262829 37.979183 0.253889 2.072436 0.011241 -0.009702 -366662.000000 0 0 1
-33.310415 -7.739049 -18.892229 39.069079 0.228281 2.075513 0.011721 -0.004677 -400267.000000 0 0 1
-33.793015 -6.728549 -18.078229 38.910970 0.196540 2.053985 0.010996 -0.006945 -549178.000000 0 0 1
23.155475 28.045351 -27.486169 45.587358 0.880613 2.217970 0.009944 0.036482 -20491.300000 0 0 1
23.793175 27.184051 -26.570969 44.845336 0.851818 2.204958 0.012271 0.029445 -224386.000000 0 0 1
24.835075 26.508651 -27.237989 45.402616 0.817982 2.214199 0.004508 0.026942 -39794.900000 0 0 1
25.501975 25.494351 -26.285059 44.623054 0.785249 2.200675 0.009128 0.021636 -302136.000000 0 0 1
26.133675 26.071951 -25.155679 44.671286 0.784216 2.168963 0.005902 0.025800 280134.000000 0 0 1
26.234275 25.180051 -24.027829 43.584501 0.764897 2.154710 0.000997 0.023879 -245247.000000 0 0 1
26.939475 25.725551 -22.785429 43.665948 0.762352 2.119770 0.005316 0.025362 -297273.000000 0 0 1
26.293775 26.739751 -22.100229 43.529266 0.793807 2.103321 0.018954 0.019204 92764.800000 0 0 1
27.119475 27.182351 -21.038329 43.783072 0.786556 2.072036 0.015951 0.009920 102348.000000 0 0 1
26.357175 28.211651 -20.206629 43.576436 0.819369 2.052969 0.030066 0.007468 258778.000000 0 0 1
25.360875 27.622151 -19.360529 42.201745 0.828052 2.047397 0.029132 -0.000305 581048.000000 0 0 1
24.584175 28.692351 -18.789829 42.198227 0.862356 2.032278 0.027095 0.002324 394061.000000 0 0 1
23.502075 28.276351 -17.754829 40.830546 0.877344 2.020659 0.024501 0.002173 343822.000000 0 0 1
22.402375 27.587651 -18.338229 39.990443 0.888755 2.047176 0.025591 0.005047 273701.000000 0 0 1
21.433775 27.355951 -17.324829 38.831746 0.906189 2.033256 0.015968 0.007271 339665.000000 0 0 1
20.210675 26.515651 -17.783529 37.786308 0.919522 2.060806 0.005067 0.011681 -11462.100000 0 0 1
19.485775 27.006951 -18.868529 38.276523 0.945780 2.086277 0.008866 0.019229 -298823.000000 0 0 1
18.692875 26.017451 -19.468129 37.487856 0.947779 2.116849 0.003792 0.017024 -284286.000000 0 0 1
18.044975 26.430451 -20.785129 38.160339 0.971752 2.146802 -0.004152 0.021634 13070.100000 0 0 1
16.946075 27.289051 -20.538029 38.127056 1.015090 2.139658 -0.013160 0.024372 168331.000000 0 0 1
16.187675 27.588751 -21.732629 38.671529 1.040177 2.167574 -0.014540 0.021566 -457832.000000 0 0 1
15.138075 28.636451 -21.518229 38.887554 1.084508 2.157171 -0.013497 0.028368 -562096.000000 0 0 1
14.136475 28.092251 -20.662029 37.628898 1.104579 2.152083 -0.010170 0.031779 -40522.600000 0 0 1
13.337275 29.078751 -20.055529 37.758190 1.140764 2.130762 -0.026805 0.022220 -76902.500000 0 0 1
13.337075 28.923651 -18.485729 36.826313 1.138739 2.096672 -0.022388 0.019821 -46105.900000 0 0 1
12.575375 27.784351 -18.057729 35.442796 1.145777 2.105388 -0.024748 0.027024 57293.300000 0 0 1
12.177875 27.854251 -16.714929 34.692201 1.158638 2.073511 -0.001949 0.021275 -119283.000000 0 0 1
11.321675 26.627351 -16.316529 33.217846 1.168765 2.084261 0.011969 0.013904 -91525.500000 0 0 1
12.021775 25.404651 -16.157929 32.419100 1.128808 2.092557 -0.018859 0.017250 -507935.000000 0 0 1
11.174575 24.325851 -15.915229 31.143421 1.140177 2.107179 0.026486 0.010296 -196109.000000 0 0 1
11.800975 23.002551 -16.315429 30.570796 1.096780 2.133758 -0.002598 0.013054 43564.900000 0 0 1
12.238075 22.906651 -17.662229 31.407634 1.080119 2.168027 -0.002748 0.015143 -267870.000000 0 0 1
12.949575 21.748251 -18.019629 31.070644 1.033743 2.189472 -0.003933 0.015781 -225434.000000 0 0 1
12.121175 20.475051 -18.191229 29.951150 1.036282 2.223534 0.003971 0.007008 60566.800000 0 0 1
11.623275 19.904051 -16.966829 28.620710 1.042251 2.205348 0.004236 0.004719 156732.000000 0 0 1
10.929875 18.672951 -17.060529 27.553637 1.041232 2.238488 0.018226 0.003688 -489290.000000 0 0 1
11.874475 17.525951 -17.295329 27.336615 0.975306 2.255805 -0.007364 0.002442 -177687.000000 0 0 1
12.636475 17.206251 -16.130929 26.757101 0.937347 2.217884 -0.000214 0.003432 -409024.000000 0 0 1
13.688675 16.361951 -16.490329 26.963387 0.874124 2.228855 -0.006467 0.004684 -1083240.000000 0 0 1
14.264375 15.526651 -15.325529 26.065708 0.827744 2.199328 0.004254 0.017623 -1172010.000000 0 0 1
14.979875 16.265351 -14.377729 26.375697 0.826517 2.147320 -0.005458 0.028452 647891.000000 0 0 1
16.337375 16.571351 -14.719029 27.534874 0.792508 2.134783 -0.009593 0.021025 510019.000000 0 0 1
17.359675 15.405351 -14.915729 27.589167 0.725822 2.141991 -0.011666 0.008918 -642700.000000 0 0 1
17.804175 14.621051 -13.839229 26.875417 0.687544 2.111734 -0.005629 0.007081 125059.000000 0 0 1
18.720275 15.231351 -12.951829 27.389644 0.682996 2.063345 -0.005859 0.011479 -133625.000000 0 0 1
19.401175 14.171851 -12.050629 26.878702 0.630880 2.035697 -0.001260 0.012687 53143.100000 0 0 1
18.413275 13.517351 -11.264929 25.468924 0.633253 2.028959 0.003761 0.010560 366002.000000 0 0 1
18.933475 12.465551 -10.460529 24.965759 0.582249 2.003135 0.003422 0.011973 56558.900000 0 1 0
19.522175 11.198351 -11.157229 25.119756 0.520798 2.031035 0.009839 0.006134 672187.000000 0 0 1
20.729275 11.415051 -11.933629 26.503164 0.503360 2.037866 0.015043 0.007203 1087980.000000 0 0 1
21.287075 10.327951 -12.620829 26.815880 0.451717 2.060821 0.011277 0.004902 197126.000000 0 0 1
22.177375 9.348051 -11.750329 26.782312 0.398913 2.024986 0.014740 0.006714 -227175.000000 0 0 1
21.401775 8.633051 -10.809929 25.483722 0.383417 2.008863 0.013111 0.009612 576400.000000 0 0 1
22.045175 7.465751 -10.310929 25.456677 0.326534 1.987817 0.009444 0.009537 -613702.000000 0 0 1
22.171975 6.257151 -11.278829 25.650738 0.275057 2.026070 0.016397 0.005884 -908129.000000 0 0 1
21.058475 5.521451 -11.636029 24.684873 0.256424 2.061655 0.029712 0.001452 -628092.000000 0 1 0
20.403675 6.038151 -12.772029 24.817210 0.287723 2.111389 0.011007 0.002497 -316405.000000 0 1 0
19.195075 5.182351 -13.198429 23.864329 0.263696 2.156830 0.006223 0.002682 -285556.000000 0 1 0
19.521375 3.890251 -13.685029 24.155706 0.196705 2.173090 0.000041 0.006429 508931.000000 0 1 0
18.380475 3.041151 -13.861929 23.221617 0.163970 2.210479 -0.011013 0.008637 -567627.000000 0 1 0
18.662575 1.809951 -14.751729 23.857517 0.096681 2.237408 -0.019756 0.009417 41517.800000 0 1 0
19.488475 0.757251 -14.239329 24.148138 0.038837 2.201441 -0.030906 0.005343 1501080.000000 0 1 0
20.864375 0.781651 -14.705329 25.537811 0.037446 2.184410 -0.003009 0.003291 1234050.000000 0 0 1
21.430475 -0.603249 -15.012929 26.172833 -0.028142 2.181699 0.011431 -0.000624 -179474.000000 0 0 1
20.800575 -1.189649 -16.126529 26.346615 -0.057131 2.229499 0.000149 -0.000713 38652.700000 0 0 1
21.426875 -2.383249 -16.517029 27.158849 -0.110772 2.224542 0.012562 -0.010157 -612334.000000 0 0 1
20.731475 -3.071649 -17.706829 27.436488 -0.147093 2.272311 0.003009 -0.003438 264478.000000 0 0 1
19.693775 -3.924549 -17.214929 26.449964 -0.196702 2.279498 0.002561 -0.004576 604809.000000 0 0 1
18.909675 -4.472049 -18.267729 26.669926 -0.232228 2.325340 0.002284 -0.004227 229753.000000 0 0 1
17.856075 -5.552349 -17.899429 25.885469 -0.301472 2.334340 -0.000018 0.002505 -68370.400000 0 0 1
18.458175 -6.663349 -17.226629 26.112471 -0.346438 2.291228 -0.005041 -0.001962 408015.000000 0 0 1
17.599675 -7.723749 -16.842929 25.555608 -0.413549 2.290378 0.005758 0.007978 -660770.000000 0 0 1
18.292375 -8.788049 -16.032329 25.862644 -0.447862 2.239415 -0.009283 0.007390 -676937.000000 0 0 1
19.164175 -9.517249 -16.797229 27.202766 -0.460937 2.236334 0.008073 0.000335 -216222.000000 0 0 1
19.834175 -10.487849 -16.003429 27.559013 -0.486403 2.190381 0.004232 -0.003575 -66474.000000 0 0 1
20.662975 -11.530449 -16.816529 29.029389 -0.508983 2.188658 0.002476 0.000179 82355.600000 0 0 1
21.604675 -10.956049 -17.712329 30.008725 -0.469323 2.202152 0.000152 0.001651 449220.000000 0 0 1
22.105475 -11.933249 -18.663429 31.295016 -0.495003 2.209768 0.005631 0.005149 -163450.000000 0 0 1
21.315275 -11.873949 -20.007429 31.553586 -0.508250 2.257612 0.014439 0.008220 529463.000000 0 0 1
20.016975 -12.447749 -19.936029 30.871847 -0.556338 2.272824 0.003816 0.002800 230513.000000 0 0 1
19.948775 -13.860449 -20.051129 31.497832 -0.607229 2.260862 -0.003094 0.008395 -1096920.000000 0 0 1
18.498375 -14.296949 -20.020929 30.780354 -0.657982 2.278967 -0.002679 0.012371 -636008.000000 0 0 1
17.855675 -13.832449 -21.190529 30.970958 -0.659111 2.324311 -0.001081 0.019520 87185.600000 0 0 1
16.467675 -14.144749 -21.149529 30.307768 -0.709661 2.343153 -0.002655 0.023948 309747.000000 0 0 1
15.687575 -13.736849 -22.436229 30.629812 -0.719199 2.392778 0.002393 0.017841 -382955.000000 0 0 1
16.040275 -14.429749 -23.564729 31.950031 -0.732591 2.400231 -0.001863 0.016654 411332.000000 0 0 1
15.397475 -13.714149 -24.612729 32.108356 -0.727639 2.444251 0.006007 0.008944 -54366.600000 0 0 1
15.517775 -14.490549 -25.913349 33.500432 -0.751180 2.455177 0.005133 0.008764 -126704.000000 0 0 1
14.524175 -15.494949 -26.132579 33.674274 -0.817725 2.459159 0.002505 0.009198 88868.000000 0 0 1
14.639075 -16.212249 -27.341939 34.996016 -0.836346 2.467522 0.006171 0.004977 -242013.000000 0 0 1
15.626775 -17.413549 -27.351949 35.993845 -0.839424 2.433965 0.000531 0.002397 138998.000000 0 0 1
16.999575 -17.060149 -27.333089 36.429822 -0.787177 2.419303 0.000734 0.006303 -84362.900000 0 0 1
17.729275 -18.281449 -27.310209 37.341479 -0.800731 2.391116 -0.002025 0.002060 -10242.700000 0 0 1
19.242175 -17.984049 -27.339619 37.962377 -0.751614 2.374853 -0.002483 0.003200 -93204.500000 0 0 1
19.684475 -17.513749 -26.077319 37.070696 -0.727109 2.351034 -0.002679 0.007306 -254957.000000 0 0 1
21.074375 -17.280149 -26.017199 37.677944 -0.686794 2.332998 0.008814 0.010397 -150004.000000 0 0 1
21.485075 -16.772449 -24.633129 36.738461 -0.662834 2.305679 0.004105 0.016340 -222895.000000 0 0 1
21.182075 -15.394949 -24.336329 35.748309 -0.628481 2.319608 0.009201 0.015507 -296574.000000 0 0 1
19.830175 -14.996349 -24.377929 34.819674 -0.647482 2.346361 0.010876 0.015347 -205837.000000 0 0 1
19.629675 -13.525449 -23.880829 33.742493 -0.603326 2.357087 0.011260 0.020371 -332479.000000 0 0 1
20.093275 -12.521249 -24.648729 34.177203 -0.557272 2.376335 0.021547 0.005717 -62183.000000 0 0 1
19.656075 -11.297049 -24.112929 33.097098 -0.521636 2.387001 0.027472 0.007317 45659.100000 0 0 1
19.746075 -10.043249 -25.026029 33.422693 -0.470520 2.417006 0.041749 -0.001730 138907.000000 0 0 1
19.140775 -8.870749 -24.432929 32.280450 -0.433981 2.429346 0.047235 -0.004580 246528.000000 0 0 1
19.047875 -7.778549 -25.323049 32.627966 -0.387700 2.459277 0.041175 -0.004936 -301660.000000 0 0 1
18.601875 -6.557449 -24.481329 31.438278 -0.338914 2.463405 0.037264 -0.008227 498462.000000 0 0 1
17.315675 -6.870449 -23.924029 30.321524 -0.377724 2.479995 0.032638 -0.008396 428706.000000 0 0 1
16.905475 -5.966249 -22.922329 29.100247 -0.339272 2.477867 0.012134 -0.006377 -88622.300000 0 0 1
17.653875 -6.119349 -21.546629 28.519518 -0.333669 2.427220 0.012614 -0.009932 -168188.000000 0 0 1
17.393275 -7.174449 -20.649529 27.935672 -0.391222 2.402650 0.013127 -0.010602 206093.000000 0 0 1
17.882075 -8.476049 -21.016229 28.866830 -0.442630 2.386256 0.017263 -0.003154 -207620.000000 0 0 1
17.596375 -9.624049 -20.028529 28.344253 -0.500486 2.355502 0.014428 -0.001809 724084.000000 0 0 1
16.192375 -9.783449 -19.783729 27.373432 -0.543503 2.378547 0.010206 0.000821 302704.000000 0 0 1
15.847775 -10.888349 -19.006729 27.036343 -0.601987 2.350413 0.010062 0.006971 668573.000000 0 0 1
14.348775 -10.860849 -18.524029 25.826053 -0.647914 2.370660 0.004015 0.004838 809438.000000 0 0 1
13.879075 -9.897749 -17.565929 24.477663 -0.619492 2.371191 0.014448 -0.002330 144204.000000 0 1 0
14.018775 -8.563049 -17.976729 24.351891 -0.548343 2.401204 0.026121 -0.010361 -1376840.000000 0 1 0
13.064875 -7.579649 -17.367229 23.016573 -0.525700 2.425769 0.035098 -0.003791 -697227.000000 0 1 0
11.810375 -7.779049 -17.973829 22.870441 -0.582441 2.474943 0.018393 -0.012202 -611412.000000 0 1 0
10.898475 -6.790449 -17.620129 21.802658 -0.557206 2.511825 0.012691 -0.009962 283458.000000 0 1 0
9.387275 -7.017749 -17.912129 21.405936 -0.641951 2.562178 0.014503 -0.012361 662696.000000 0 1 0
9.050375 -6.864849 -19.284529 22.381431 -0.648929 2.609270 0.004884 -0.012805 181828.000000 0 1 0
7.707075 -6.423049 -19.447429 21.882802 -0.694776 2.665316 0.004993 -0.024480 425559.000000 0 1 0
7.285575 -6.044549 -20.907729 22.951019 -0.692566 2.716430 0.001526 -0.024038 -38616.300000 0 1 0
7.176875 -7.107549 -21.756729 23.987080 -0.780545 2.706945 0.005065 -0.016443 -249176.000000 0 1 0
6.488875 -6.711449 -22.897629 24.727524 -0.802258 2.754466 0.008237 -0.014037 -271259.000000 0 1 0
6.478375 -7.766149 -24.020829 26.063051 -0.875558 2.743090 0.008682 -0.007048 121663.000000 0 0 1
5.639775 -8.911449 -23.742429 25.979297 -1.006559 2.723581 0.005910 -0.008892 340326.000000 0 0 1
5.626275 -9.867949 -24.765529 27.246335 -1.052610 2.711552 0.007669 0.001982 -131429.000000 0 0 1
4.872475 -11.206849 -24.522529 27.398702 -1.160674 2.679284 0.006444 0.003315 115629.000000 0 0 1
5.538975 -12.075349 -23.673729 27.146634 -1.140730 2.630210 0.010856 -0.001353 86418.600000 0 0 1
4.663975 -13.160649 -23.306529 27.168909 -1.230218 2.601845 0.022758 -0.001521 108565.000000 0 0 1
5.413275 -14.357149 -22.611229 27.325792 -1.210235 2.545380 0.025010 -0.002023 -380950.000000 0 0 1
6.335875 -15.140749 -23.366729 28.555027 -1.174474 2.529253 0.026663 0.005550 564078.000000 0 0 1
7.575875 -14.482549 -23.661429 28.757630 -1.088837 2.537095 0.030657 0.005794 926059.000000 0 0 1
8.508775 -13.972349 -22.483929 27.805626 -1.023806 2.512583 0.017351 0.011605 -533899.000000 0 0 1
9.059775 -14.897949 -21.528629 27.703975 -1.024426 2.460834 0.014753 0.018368 1153940.000000 0 0 1
8.107775 -15.611849 -20.648329 27.125989 -1.091801 2.435959 0.010677 0.010822 532126.000000 0 0 1
8.715275 -15.857849 -19.261329 26.427754 -1.068270 2.387407 0.009215 0.005754 -54043.000000 0 0 1
9.714875 -16.841049 -19.301529 27.396144 -1.047568 2.352563 0.012444 0.004810 -403465.000000 0 0 1
10.194075 -17.333749 -18.018629 27.000907 -1.039169 2.301420 0.005342 0.010374 -300839.000000 0 0 1
9.205975 -18.062549 -17.068429 26.501639 -1.099441 2.270579 0.008276 -0.001917 -343822.000000 0 0 1
8.836375 -19.404749 -17.357829 27.493999 -1.143484 2.254065 0.001727 -0.003707 344861.000000 0 0 1
8.007075 -19.536649 -18.524429 28.088224 -1.181828 2.290961 0.006838 0.000113 263213.000000 0 0 1
6.462975 -19.419849 -18.374229 27.504778 -1.249524 2.302365 0.000205 0.004437 124104.000000 0 0 1
6.185675 -18.081549 -18.051629 26.288139 -1.241178 2.327713 -0.002543 0.004736 455683.000000 0 0 1
4.770575 -17.873049 -17.951629 25.777223 -1.309963 2.341185 -0.004704 0.001938 765645.000000 0 0 1
4.381275 -16.386749 -17.671629 24.495052 -1.309540 2.376671 0.002418 0.007062 29114.500000 0 1 0
4.613175 -15.953749 -16.353129 23.307258 -1.289315 2.348482 -0.004372 0.003660 53259.200000 0 1 0
4.456875 -14.568049 -16.142929 22.196529 -1.273904 2.385136 -0.003835 0.009679 83447.800000 0 1 0
10.203775 30.547051 -18.219529 37.002576 1.248415 2.085625 0.010377 -0.007381 -249319.000000 0 0 1
9.245775 30.210751 -19.226029 36.983970 1.273805 2.117469 0.017979 0.002631 -89094.300000 0 0 1
8.344975 29.293351 -18.698129 35.740160 1.293272 2.121361 0.022628 0.002140 -217099.000000 0 0 1
7.179775 28.896951 -19.617729 35.657233 1.327266 2.153370 0.023943 0.006983 -241017.000000 0 0 1
6.124275 29.786851 -19.818129 36.297679 1.368019 2.148365 0.030584 -0.004243 -278877.000000 0 0 1
5.187375 29.272751 -20.733229 36.244580 1.395409 2.179783 0.020391 -0.002599 836375.000000 0 0 1
4.073175 30.333351 -21.174229 37.216272 1.437314 2.176026 0.007934 -0.002519 480517.000000 0 0 1
3.316775 30.832251 -20.138929 36.975738 1.463634 2.146771 0.014385 -0.014647 204273.000000 0 0 1
2.226975 31.683351 -20.540629 37.824749 1.500623 2.144858 0.004261 -0.013074 448569.000000 0 0 1
0.806475 31.163751 -20.235129 37.165713 1.544923 2.146538 -0.014731 -0.009652 -595500.000000 0 0 1
0.572275 29.921851 -20.920829 36.514734 1.551673 2.180887 -0.009414 -0.007269 17859.100000 0 0 1
0.305675 29.966951 -22.288429 37.348168 1.560596 2.210271 -0.009623 -0.006652 -983716.000000 0 0 1
-0.235825 28.656151 -22.816329 36.630800 -1.562567 2.243206 -0.009276 -0.000966 -149249.000000 0 0 1
-1.246025 28.077351 -22.022829 35.705675 -1.526447 2.235452 -0.007769 -0.001886 -178840.000000 0 0 1
-1.646725 26.825551 -22.464129 35.027974 -1.509487 2.267013 0.000524 -0.006720 -171187.000000 0 0 1
-2.778625 26.234751 -21.608929 34.101741 -1.465276 2.257072 -0.002734 -0.007611 647733.000000 0 0 1
-4.103825 26.727251 -21.866329 34.775332 -1.418442 2.250791 0.007270 -0.014279 717354.000000 0 0 1
-4.971125 26.281551 -20.846329 33.911671 -1.383856 2.232833 0.005753 -0.010916 -286636.000000 0 0 1
-6.320625 27.020551 -20.827329 34.696371 -1.341009 2.214640 0.014192 -0.021217 155079.000000 0 0 1
-7.228925 26.345851 -19.931529 33.817556 -1.303001 2.201093 0.011949 -0.017238 26736.000000 0 0 1
-8.062125 27.292751 -19.267529 34.367569 -1.283570 2.165944 0.009111 -0.017456 79330.600000 0 0 1
-9.312725 26.679251 -18.633529 33.848452 -1.234957 2.153758 0.006547 -0.010444 -410358.000000 0 0 1
-9.095025 25.872451 -17.443729 32.502106 -1.232756 2.137312 0.005231 -0.004478 -249820.000000 0 0 1
-10.330825 25.444351 -16.902729 32.246600 -1.185114 2.122538 -0.005840 -0.008550 77435.200000 0 0 1
-10.068825 24.679851 -15.585529 30.876933 -1.183432 2.099904 0.003673 0.002955 376387.000000 0 0 1
-9.452725 23.374251 -15.625329 29.662443 -1.186496 2.125594 0.010971 0.001802 -14482.900000 0 0 1
-9.665225 22.765051 -14.376429 28.606745 -1.169295 2.097347 0.028990 0.011577 147213.000000 0 0 1
-9.015325 21.316651 -14.309529 27.210997 -1.170685 2.124538 0.041580 0.013172 -142835.000000 0 0 1
-9.568425 20.264351 -15.076129 27.009042 -1.129651 2.162997 0.020767 0.016116 -240962.000000 0 0 1
-9.680425 20.342851 -16.543329 27.950384 -1.126643 2.204188 0.015793 0.012426 860056.000000 0 0 1
-8.317825 20.050051 -17.288329 27.750263 -1.177552 2.243365 0.003645 0.007596 823151.000000 0 0 1
-7.930725 18.710251 -17.205329 26.626927 -1.169883 2.273342 0.007282 0.015483 -90170.600000 0 0 1
-6.845325 18.505851 -18.106429 26.779988 -1.216504 2.313277 -0.001777 0.008892 279984.000000 0 0 1
-6.479725 17.015651 -17.984229 25.592025 -1.206942 2.350021 -0.015474 0.015720 281.153000 0 0 1
-7.446825 16.174651 -18.602729 25.751429 -1.139327 2.378057 -0.010781 0.000806 -47061.400000 0 0 1
-7.101525 15.717751 -19.924929 26.353029 -1.146434 2.428095 -0.016055 -0.003412 378408.000000 0 0 1
-5.914125 14.726051 -19.920729 25.468979 -1.188903 2.468916 -0.027115 0.004125 133841.000000 0 0 1
-6.328925 13.494051 -19.349329 24.424194 -1.132242 2.485234 -0.023579 0.001865 518949.000000 0 1 0
-5.218125 12.777551 -18.801029 23.323236 -1.183085 2.508340 -0.023518 0.005311 431688.000000 0 1 0
-4.638125 13.303351 -17.482629 22.452921 -1.235331 2.463284 -0.009212 0.003855 -61210.000000 0 1 0
-3.886425 14.508551 -17.628329 23.159455 -1.309070 2.435915 -0.017674 0.000936 -500816.000000 0 1 0
-3.627125 15.049951 -16.374429 22.533952 -1.334301 2.384238 -0.005887 0.006734 13900.300000 0 1 0
-2.755025 16.335451 -16.292629 23.235466 -1.403715 2.347871 -0.005387 0.008147 106114.000000 0 1 0
-3.380025 17.450151 -16.885329 24.516253 -1.379470 2.330546 -0.006859 0.014817 -27572.500000 0 1 0
-2.574425 18.647851 -16.801929 25.232416 -1.433609 2.299478 -0.006417 0.012918 346786.000000 0 0 1
-3.239525 19.895551 -17.440129 26.654935 -1.409386 2.284043 0.003084 0.012624 138363.000000 0 0 1
-3.475525 19.844251 -18.816029 27.566584 -1.397415 2.322065 0.001024 0.009676 -160963.000000 0 0 1
-4.084325 21.033751 -19.239829 28.797073 -1.379004 2.302472 0.011346 0.005440 -101460.000000 0 0 1
-3.050025 22.173151 -19.392829 29.614745 -1.434099 2.284763 -0.003591 0.007710 119611.000000 0 0 1
-2.052925 22.050751 -20.415129 30.120220 -1.477964 2.315547 -0.001797 0.012458 881237.000000 0 0 1
-0.872325 22.816951 -20.149129 30.452613 -1.532583 2.293820 0.002445 0.013957 819867.000000 0 0 1
0.139575 22.451651 -19.066829 29.455731 1.564580 2.274839 0.013871 0.014847 -562783.000000 0 0 1
-0.390825 22.542751 -17.727529 28.680894 -1.553461 2.237114 0.008464 0.016473 -548558.000000 0 0 1
0.561775 22.159151 -16.774529 27.797993 1.545450 2.218609 0.020185 0.010037 -431345.000000 0 0 1
0.131275 22.144151 -15.305729 26.919250 1.564868 2.175574 0.020030 0.007560 195643.000000 0 0 1
-0.830425 21.124751 -14.940629 25.887586 -1.531506 2.186012 0.011810 0.011189 381540.000000 0 0 1
-0.727325 20.828951 -13.531729 24.849183 -1.535892 2.146654 0.025644 0.004657 151988.000000 0 1 0
-1.636525 19.688851 -13.046329 23.675637 -1.487868 2.154412 0.007776 0.007134 -19674.800000 0 1 0
-0.977025 18.461351 -13.068329 22.639728 -1.517923 2.186129 0.002836 0.002661 172661.000000 0 1 0
-1.835725 17.402751 -12.657029 21.596898 -1.465700 2.196981 -0.001417 -0.003716 -65324.700000 0 1 0
-1.185225 16.029851 -12.795329 20.544618 -1.496992 2.243122 -0.012774 -0.003506 -792066.000000 0 1 0
-0.025525 15.932851 -11.988629 19.939499 -1.569194 2.215861 -0.004797 0.001783 159812.000000 0 1 0
0.604775 14.656951 -12.061829 18.991569 1.529558 2.258954 0.010802 0.002684 160879.000000 0 1 0
1.045075 14.012451 -13.408129 19.422124 1.496352 2.332774 -0.012749 0.001493 -1056810.000000 0 1 0
-0.034725 13.867551 -14.311429 19.928050 -1.568292 2.371944 -0.013749 -0.005371 -65276.200000 0 1 0
0.226675 12.825051 -15.290129 19.957990 1.553124 2.443572 -0.008951 -0.009173 -47863.500000 0 1 0
-0.680925 12.952451 -16.522529 21.005323 -1.518274 2.476059 -0.014452 -0.000037 -139575.000000 0 1 0
-0.362825 14.121251 -17.240229 22.288268 -1.545108 2.455159 -0.015602 -0.002814 -105044.000000 0 1 0
-0.458525 13.856851 -18.649729 23.238652 -1.537718 2.502321 -0.017261 0.000197 -320311.000000 0 1 0
-1.166225 14.997951 -19.456629 24.593882 -1.493194 2.483429 -0.017312 0.009102 169899.000000 0 1 0
-0.491325 16.266951 -19.438929 25.352062 -1.540602 2.444574 -0.020496 0.007631 -338233.000000 0 0 1
-1.290225 17.324351 -19.843329 26.373387 -1.496459 2.422494 -0.017075 0.008883 -415304.000000 0 0 1
-0.442125 18.503751 -20.280029 27.456581 -1.546907 2.401820 -0.010844 0.009812 -71651.600000 0 0 1
0.230475 18.264851 -21.466829 28.186569 1.558179 2.436571 0.008568 0.001477 -34370.400000 0 0 1
1.048975 19.339651 -21.907829 29.241673 1.516610 2.417648 0.009091 0.004077 425068.000000 0 0 1
1.657975 19.210651 -23.351229 30.283294 1.484705 2.451352 0.019131 -0.001840 -371455.000000 0 0 1
2.644375 18.276151 -23.538129 29.917452 1.427104 2.476353 0.012606 -0.003058 -739951.000000 0 0 1
2.989575 18.253851 -24.901329 31.019620 1.408460 2.502707 0.019471 -0.015481 -100903.000000 0 0 1
3.950875 17.137251 -25.260469 30.779637 1.344212 2.533410 0.014165 -0.006491 891733.000000 0 0 1
5.355275 17.367351 -24.979829 30.891677 1.271694 2.512610 0.008104 0.004640 1176330.000000 0 0 1
6.214575 16.348151 -25.463799 30.891553 1.207528 2.539755 0.011917 -0.001759 176511.000000 0 0 1
6.693575 16.507251 -26.934379 32.291703 1.185564 2.557288 0.004382 -0.012938 -529833.000000 0 0 1
7.788675 17.438951 -27.047989 33.111541 1.150752 2.526769 -0.000034 -0.009331 601324.000000 0 0 1
8.353075 17.510451 -28.350329 34.353033 1.125690 2.541466 0.007043 -0.012713 176679.000000 0 0 1
8.972675 16.259251 -29.044499 34.473977 1.066534 2.572713 0.004793 -0.020448 384880.000000 0 0 1
10.268375 15.874751 -28.524739 34.221455 0.996648 2.556270 0.020383 -0.018712 976002.000000 0 0 1
10.719575 14.579851 -28.858599 34.063178 0.936814 2.581504 0.012000 -0.014933 -122398.000000 0 0 1
10.328175 13.550151 -27.809849 32.613885 0.919521 2.591928 0.003436 -0.010747 -152521.000000 0 0 1
8.988675 13.128551 -27.920569 32.135857 0.970436 2.623629 0.000936 -0.000711 -171815.000000 0 0 1
8.568975 12.518251 -26.745269 30.748062 0.970536 2.625633 -0.001413 0.001462 19054.600000 0 0 1
7.159075 11.878251 -26.695129 30.082804 1.028391 2.662445 0.013549 0.000460 325584.000000 0 0 1
6.145275 12.874251 -26.735129 30.303100 1.125448 2.651432 0.021174 0.002438 358440.000000 0 0 1
4.866975 12.257151 -26.515399 29.614044 1.192816 2.680048 0.018175 0.006635 1324840.000000 0 0 1
3.651075 13.262751 -26.510359 29.866872 1.302163 2.662943 0.033950 0.004301 261311.000000 0 0 1
3.119975 13.680751 -27.778669 31.121562 1.346575 2.673845 0.036550 0.003029 -13326.600000 0 0 1
3.905175 14.656051 -28.396189 32.193070 1.310392 2.651011 0.039239 0.002786 -359040.000000 0 0 1
3.783275 14.790751 -29.932249 33.600878 1.320379 2.669937 0.044623 -0.001588 67484.600000 0 0 1
4.539175 13.745451 -30.553329 33.808985 1.251840 2.699140 0.042731 -0.001290 237933.000000 0 0 1
4.337075 13.608051 -31.965839 35.011486 1.262260 2.721399 0.038028 0.005588 -801816.000000 0 0 1
5.126775 12.394851 -32.572519 35.226200 1.178603 2.750958 0.039614 0.002261 2503340.000000 0 0 1
6.602175 12.568751 -32.588139 35.546435 1.087126 2.730730 0.032320 0.004232 2377140.000000 0 0 1
7.275175 12.621951 -31.358859 34.577736 1.047918 2.706685 0.027494 -0.000421 -892012.000000 0 0 1
7.305675 11.318751 -30.493269 33.336563 0.997627 2.725585 0.030026 0.006499 -318035.000000 0 0 1
8.247875 10.353551 -30.916149 33.630815 0.898118 2.737045 0.017300 0.008002 -53656.900000 0 0 1
8.033975 9.106351 -30.345009 32.684705 0.847881 2.760923 0.016753 0.002149 -170064.000000 0 0 1
9.113275 8.062951 -30.721479 33.043490 0.724324 2.764472 0.003760 0.005071 1673590.000000 0 0 1
10.395375 8.202851 -30.036749 32.826161 0.668051 2.726366 0.002494 0.010386 1798000.000000 0 0 1
11.273875 7.055151 -29.934679 32.756074 0.559172 2.723504 -0.014857 0.012147 -577045.000000 0 0 1
12.345675 7.282151 -28.911139 32.269170 0.532926 2.681332 -0.008867 0.025306 -173699.000000 0 0 1
13.188275 6.195951 -28.550829 32.054176 0.439203 2.669691 0.005250 0.013481 104442.000000 0 0 1
14.124975 5.769051 -29.494979 33.207689 0.387752 2.664203 -0.001485 0.019596 -912216.000000 0 0 1
14.819875 4.471051 -29.121789 32.980260 0.293009 2.653026 0.011173 0.013340 99064.200000 0 0 1
15.621575 4.588951 -27.945099 32.342242 0.285720 2.614043 0.001492 0.004709 743509.000000 0 0 1
16.527375 3.487251 -27.773659 32.506786 0.207948 2.595183 0.009658 0.003315 -26345.800000 0 0 1
17.411375 3.615851 -26.552629 31.957353 0.204761 2.551478 0.012259 -0.001139 -455615.000000 0 0 1
18.160375 4.806651 -26.578239 32.546980 0.258745 2.526312 0.021656 -0.006970 61476.800000 0 0 1
18.738775 5.124451 -25.324409 31.917509 0.266941 2.487225 0.029096 -0.012768 72402.600000 0 0 1
19.769375 6.313251 -25.339689 32.753399 0.309109 2.455379 0.013384 -0.009569 -166749.000000 0 0 1
19.275975 7.625651 -25.587439 32.930697 0.376711 2.460696 0.019033 -0.008804 507770.000000 0 0 1
20.107375 8.483951 -26.437389 34.281474 0.399269 2.451498 0.017745 -0.015290 -294347.000000 0 0 1
20.082075 8.226151 -27.975419 35.405979 0.388778 2.481822 0.020329 -0.007070 -71771.300000 0 0 1
18.989675 8.812151 -28.648829 35.482632 0.434476 2.510536 0.014508 0.002596 616713.000000 0 0 1
17.771575 8.062751 -28.468039 34.514722 0.425917 2.540660 0.013953 0.002456 -137074.000000 0 0 1
16.578775 8.779951 -29.110339 34.631707 0.487038 2.569129 0.004096 0.014533 -456876.000000 0 0 1
16.522575 8.521351 -30.479529 35.701689 0.476160 2.593899 -0.004142 0.024762 435670.000000 0 0 1
15.482975 9.269151 -31.095889 35.952663 0.539439 2.615771 -0.015568 0.025005 -86803.000000 0 0 1
15.238275 8.864851 -32.582949 37.046446 0.526892 2.645641 -0.021744 0.030718 -112916.000000 0 0 1
14.676775 7.585751 -32.709359 36.644965 0.477040 2.673880 -0.015347 0.031331 -78176.400000 0 0 1
13.396075 7.633851 -33.291909 36.688986 0.517961 2.707873 -0.021632 0.025460 -823.421000 0 0 1
12.795575 6.311651 -33.815629 36.702322 0.458248 2.742332 -0.018161 0.011900 56692.100000 0 0 1
12.360975 5.502051 -32.771729 35.454936 0.418784 2.750048 -0.017788 0.017822 307840.000000 0 0 1
11.485975 4.457351 -33.244409 35.454003 0.370179 2.786681 -0.012171 0.005043 377748.000000 0 0 1
11.217875 3.411251 -32.126939 34.199672 0.295206 2.791652 -0.004190 0.009553 -189825.000000 0 0 1
12.079175 2.299551 -32.043559 34.321772 0.188122 2.775189 -0.000737 0.008674 -37919.700000 0 0 1
11.783375 1.452151 -30.961539 33.159818 0.122619 2.775426 0.002473 0.004850 -182547.000000 0 0 1
11.153675 0.071251 -31.346409 33.271713 0.006388 2.799736 0.002626 0.006969 -64544.100000 0 0 1
11.908775 -0.911549 -32.040359 34.194070 -0.076395 2.784781 0.001272 0.006014 -849543.000000 0 0 1
12.868075 -1.535849 -31.306079 33.882396 -0.118791 2.749112 0.005357 0.002324 -484221.000000 0 0 1
13.555375 -2.705849 -32.096689 34.946634 -0.197025 2.734937 0.008601 -0.000375 -27818.100000 0 0 1
12.686075 -3.766349 -32.360829 34.962052 -0.288600 2.753411 0.012825 0.000682 363472.000000 0 0 1
13.364475 -4.935949 -32.944009 35.892624 -0.353794 2.733423 0.017892 -0.005792 396481.000000 0 0 1
12.362075 -6.094649 -33.090989 35.846606 -0.458041 2.746933 0.021848 -0.003669 -62576.300000 0 0 1
12.156875 -6.818849 -31.904689 34.816597 -0.511177 2.729699 0.023010 -0.008116 40080.200000 0 0 1
12.055975 -8.215949 -32.209959 35.360003 -0.598190 2.716293 0.024918 -0.009745 21365.600000 0 0 1
11.980275 -9.152249 -30.968999 34.443715 -0.652365 2.688549 0.021877 -0.013554 105805.000000 0 0 1
13.153275 -8.908149 -30.201009 34.124253 -0.595299 2.657356 0.009507 -0.005282 288223.000000 0 0 1
13.098075 -9.560049 -28.946019 33.178699 -0.630501 2.630944 0.010753 -0.005109 -144323.000000 0 0 1
13.475975 -11.044749 -28.946439 33.785865 -0.686571 2.599754 0.017733 -0.011269 -475195.000000 0 0 1
12.489275 -11.963449 -29.288649 34.013689 -0.763898 2.608194 0.011171 -0.005170 -61111.200000 0 0 1
13.091575 -13.252049 -29.215299 34.648807 -0.791490 2.573974 0.017845 -0.013257 464762.000000 0 0 1
-9.799925 -3.206349 -17.388529 20.215839 0.316203 2.606348 -0.019000 0.006326 -299485.000000 0 1 0
-10.334325 -2.783349 -18.601429 21.460626 0.263088 2.619485 -0.026342 0.009055 -245130.000000 0 1 0
-11.323225 -3.710449 -18.977629 22.408330 0.316658 2.580926 -0.019854 0.004769 17725.400000 0 1 0
-12.308525 -3.376749 -20.138429 23.842369 0.267755 2.576705 -0.013712 0.003374 80868.400000 0 1 0
-13.174125 -2.308049 -19.830829 23.919583 0.173435 2.548225 -0.015142 0.003268 -202884.000000 0 1 0
-13.981225 -2.048549 -20.973229 25.289277 0.145486 2.548709 -0.016020 0.018458 480356.000000 0 0 1
-14.764325 -0.699949 -20.897829 25.596767 0.047373 2.525988 -0.010887 0.014701 451980.000000 0 0 1
-13.967825 0.449951 -21.209629 25.399822 -0.032202 2.558985 -0.009388 0.008435 375308.000000 0 0 1
-14.750025 1.641551 -21.016729 25.728599 -0.110835 2.526747 -0.013197 0.014080 373012.000000 0 0 1
-14.263325 2.838651 -21.901629 26.290335 -0.196451 2.555427 0.002514 0.005834 219663.000000 0 0 1
-13.066325 3.450451 -21.466429 25.366159 -0.258178 2.579727 -0.005228 0.007976 42198.200000 0 0 1
-12.760525 4.608551 -22.213229 26.028778 -0.346579 2.593290 -0.004769 0.005398 -138121.000000 0 0 1
-11.643625 5.384851 -21.497729 25.034436 -0.433177 2.603575 -0.011414 0.006979 34008.300000 0 0 1
-12.126625 5.896051 -20.242629 24.322469 -0.452553 2.553969 -0.002727 0.005700 378629.000000 0 1 0
-11.074525 6.166151 -19.348629 23.130845 -0.508039 2.561635 -0.009816 0.005755 -160780.000000 0 1 0
-11.651325 6.641451 -18.026529 22.468155 -0.518081 2.501959 0.008837 0.002842 84688.600000 0 1 0
-12.061325 7.984951 -17.991629 23.085357 -0.584785 2.464428 0.006348 0.004258 -8094.200000 0 1 0
-12.769125 8.224251 -16.820129 22.662868 -0.572197 2.407127 0.003042 0.004557 122003.000000 0 1 0
-13.519025 9.625151 -16.885629 23.675558 -0.618715 2.364862 0.004198 0.011288 19185.100000 0 1 0
-12.689225 10.645051 -16.403729 23.311282 -0.698017 2.351363 -0.010808 0.020567 541390.000000 0 1 0
-13.402525 11.908851 -16.415529 24.308805 -0.726455 2.312156 0.003489 0.011424 83884.800000 0 1 0
-12.642225 13.028951 -15.720229 24.014684 -0.800462 2.284462 0.003806 0.017145 -601776.000000 0 1 0
-12.569625 12.898451 -14.329929 23.015482 -0.798309 2.242884 0.019761 0.014324 87877.200000 0 1 0
-12.206625 14.105451 -13.665029 23.123548 -0.857439 2.203041 0.013139 0.006269 -1392030.000000 0 1 0
-12.697525 14.323651 -12.175629 22.685680 -0.845505 2.137329 0.011695 0.000426 782376.000000 0 1 0
-14.047625 14.714151 -11.944029 23.590292 -0.808568 2.101698 0.003490 0.002217 533659.000000 0 1 0
-15.075025 14.059351 -12.655429 24.188461 -0.750551 2.121399 0.003491 0.016618 -1666510.000000 0 1 0
-16.405725 14.250651 -11.919029 24.784918 -0.715216 2.072475 0.005569 0.016453 -608508.000000 0 1 0
-17.454725 13.606651 -12.598429 25.466229 -0.662140 2.088299 0.006127 0.013524 -26696.400000 0 0 1
-18.690425 13.914451 -11.963729 26.193029 -0.639952 2.045137 0.021223 0.014019 -44494.700000 0 0 1
-19.891725 13.417851 -12.784429 27.187517 -0.593437 2.060349 0.022768 0.011694 -397954.000000 0 0 1
-20.154825 12.051551 -12.659029 26.677854 -0.538910 2.065209 0.022900 0.008970 -256314.000000 0 0 1
-21.341725 11.683651 -13.285829 27.721656 -0.500888 2.070606 0.028429 0.007361 -610090.000000 0 0 1
-21.894925 10.441551 -12.554829 27.313687 -0.444992 2.048401 0.025225 -0.000792 -310094.000000 0 0 1
-21.044125 9.327551 -12.650129 26.265646 -0.417216 2.073302 0.017152 -0.005632 24891.800000 0 0 1
-21.448125 8.256551 -11.810929 25.839713 -0.367469 2.045511 0.008906 -0.001173 47895.900000 0 0 1
-20.500425 7.012551 -11.693529 24.620762 -0.329592 2.065699 0.009947 0.006523 -180679.000000 0 1 0
-20.425525 6.190051 -12.891329 24.934017 -0.294257 2.114160 0.013599 0.003355 425858.000000 0 1 0
-19.193725 5.496351 -12.855629 23.746077 -0.278898 2.142873 0.004821 0.004335 -291377.000000 0 1 0
-19.198625 4.287951 -13.789929 24.023652 -0.219740 2.182197 0.007490 -0.010012 241866.000000 0 1 0
-20.186125 3.301451 -13.458729 24.485028 -0.162115 2.152768 0.011018 -0.012678 713596.000000 0 1 0
-19.873225 2.143551 -14.225229 24.533590 -0.107446 2.189312 0.007596 -0.018109 -89599.900000 0 1 0
-20.711625 0.924551 -13.830429 24.922018 -0.044610 2.159097 0.005649 -0.020877 -299953.000000 0 1 0
-22.035525 0.885751 -14.294529 26.280839 -0.040175 2.145891 0.010253 -0.010973 -55460.800000 0 0 1
-22.480525 -0.481449 -14.314329 26.655315 0.021413 2.137692 0.003783 -0.020542 165512.000000 0 0 1
-23.866625 -0.591749 -15.016629 28.203991 0.024789 2.132264 0.011877 -0.008793 418327.000000 0 0 1
-24.945525 -0.137849 -14.216329 28.712406 0.005526 2.088779 0.020465 -0.009177 -648553.000000 0 0 1
-26.122795 -0.056149 -14.937429 30.092032 0.002149 2.090233 0.010416 -0.006196 -122799.000000 0 0 1
-27.310805 0.529151 -14.095129 30.738132 -0.019373 2.047165 0.012989 0.002724 347565.000000 0 0 1
-27.701795 -0.431249 -13.170229 30.676218 0.015566 2.014547 0.009278 -0.006409 -356434.000000 0 0 1
-29.027055 -0.230949 -12.745129 31.702706 0.007956 1.984518 0.015533 -0.006228 -30401.100000 0 0 1
-29.274265 -1.020149 -11.419929 31.439435 0.034834 1.942535 0.009003 -0.005839 -453637.000000 0 0 1
-29.385305 -2.424049 -11.506629 31.650824 0.082306 1.942871 0.013127 -0.006529 495522.000000 0 0 1
-28.314415 -3.221749 -12.013129 30.925734 0.113297 1.969746 0.009515 -0.009178 -117224.000000 0 0 1
-28.495295 -4.714949 -11.579129 31.117340 0.163978 1.952079 0.012595 -0.010296 394167.000000 0 0 1
-29.655505 -5.288149 -12.212429 32.504722 0.176464 1.955962 0.010202 -0.004569 539559.000000 0 0 1
-29.998985 -6.497749 -11.581629 32.806920 0.213304 1.931598 0.019734 -0.000332 -301390.000000 0 0 1
-29.165565 -7.754549 -11.939029 32.454640 0.259868 1.947512 0.018195 -0.012202 1151310.000000 0 0 1
-27.787335 -7.620549 -11.495429 31.021825 0.267665 1.950408 0.016270 -0.009015 1267480.000000 0 0 1
-27.031055 -8.770849 -11.866529 30.796432 0.313755 1.966353 0.017520 -0.013603 1186800.000000 0 0 1
-25.519265 -8.812649 -11.394629 29.304151 0.332511 1.970169 0.016126 -0.019365 716182.000000 0 0 1
-24.692925 -7.862949 -12.054129 28.580912 0.308277 2.006176 0.013697 -0.020323 212382.000000 0 0 1
-23.407225 -7.689749 -11.505729 27.192135 0.317413 2.007690 0.002887 -0.017949 -267127.000000 0 0 1
-23.249625 -7.219149 -10.030529 26.330072 0.301067 1.961623 -0.001698 -0.015294 -775694.000000 0 0 1
-23.755425 -5.944449 -9.667129 26.326984 0.245200 1.946788 -0.002759 -0.006656 390684.000000 0 0 1
-25.151055 -5.765349 -9.567529 27.520037 0.225336 1.925867 0.010180 -0.010247 -337855.000000 0 0 1
-25.579235 -4.484649 -8.819029 27.425984 0.173560 1.898170 0.006309 -0.014120 -301128.000000 0 0 1
-25.192235 -4.462749 -7.461929 26.650426 0.175329 1.854583 -0.004684 -0.004360 487659.000000 0 0 1
-25.359255 -3.110649 -6.998429 26.490488 0.122054 1.838157 0.006033 -0.004357 -191293.000000 0 0 1
-25.276605 -2.986949 -5.458029 26.031111 0.117625 1.782037 0.005003 0.002648 -767039.000000 0 0 1
-24.012425 -3.317849 -4.986229 24.748074 0.137303 1.773664 -0.014400 0.005851 -494144.000000 0 1 0
-23.903725 -3.064349 -3.587729 24.364936 0.127500 1.718583 -0.021765 0.004406 323368.000000 0 1 0
-22.581725 -3.622549 -2.965329 23.061881 0.159064 1.699735 -0.029419 0.004971 517771.000000 0 1 0
-22.652925 -5.015249 -2.877829 23.379257 0.217881 1.694203 -0.012065 0.009295 289949.000000 0 1 0
-21.358925 -5.548549 -2.802629 22.245108 0.254159 1.697121 -0.009940 0.005088 -391624.000000 0 1 0
-21.471425 -7.076649 -2.762729 22.775727 0.318373 1.692397 0.013376 0.003708 135731.000000 0 1 0
-22.016425 -7.553349 -1.532029 23.326448 0.330495 1.636521 0.018250 0.010629 485678.000000 0 1 0
-22.472125 -8.874549 -1.679929 24.219335 0.376114 1.640215 0.013877 0.001651 -43584.100000 0 1 0
-22.800625 -9.616949 -0.432829 24.749577 0.399144 1.588286 0.010474 -0.002441 394005.000000 0 1 0
-21.654725 -10.130849 0.249071 23.908644 0.437587 1.560379 0.003002 0.001890 776046.000000 0 1 0
-22.041625 -10.921649 1.395371 24.638643 0.460042 1.514133 -0.000394 0.005688 698977.000000 0 1 0
-20.750725 -11.425049 2.142771 23.784781 0.503293 1.480584 -0.007501 0.002681 487672.000000 0 1 0
-20.004225 -12.217749 1.244771 23.473216 0.548293 1.517742 -0.000093 0.004919 616409.000000 0 1 0
-18.803325 -12.648249 1.909271 22.741780 0.592141 1.486743 -0.027578 0.009840 409603.000000 0 1 0
-18.039725 -13.665249 1.032371 22.654724 0.648289 1.525211 -0.029159 0.008119 85737.600000 0 1 0
-18.845925 -14.880149 0.844971 24.027103 0.668348 1.535622 -0.012359 0.009439 1260590.000000 0 1 0
-18.152725 -15.959149 0.201071 24.171394 0.721181 1.562478 -0.022489 0.006728 387408.000000 0 1 0
-17.044625 -16.763349 0.954571 23.925725 0.777079 1.530888 -0.019899 0.009751 401997.000000 0 1 0
-15.913225 -15.991649 1.287071 22.596905 0.787856 1.513808 -0.018909 0.002658 689766.000000 0 1 0
-14.819125 -16.686749 1.909571 22.398672 0.844607 1.485439 -0.015011 -0.002243 581173.000000 0 1 0
-14.767525 -16.542549 3.452971 22.442342 0.842029 1.416323 -0.013273 -0.002047 -376776.000000 0 1 0
-14.625325 -15.175549 3.835471 21.422144 0.803859 1.390783 -0.015209 -0.008499 69674.600000 0 1 0
-13.833125 -14.954249 4.999271 20.975643 0.824323 1.330143 -0.020835 -0.007064 -323347.000000 0 1 0
-14.286425 -15.604649 6.305271 22.076310 0.829471 1.281151 -0.002549 0.002166 -1078110.000000 0 1 0
-15.089825 -14.810549 7.148971 22.319565 0.776058 1.244749 -0.006522 0.010173 94098.900000 0 1 0
-15.315825 -15.373949 8.426271 23.279494 0.787292 1.200426 -0.004930 0.016293 69443.200000 0 1 0
-16.349425 -16.523049 8.475571 24.741668 0.790680 1.221153 0.007802 0.005883 -451909.000000 0 1 0
-15.791025 -17.766549 8.060171 25.099265 0.844200 1.243872 0.009369 0.014606 142193.000000 0 0 1
-16.355825 -18.969249 8.599971 26.482162 0.859246 1.240053 0.008307 0.015300 -86384.300000 0 0 1
-15.975425 -19.191849 10.121371 26.944080 0.876605 1.185705 0.005605 0.006284 4452.300000 0 0 1
-14.635225 -19.528849 10.367171 26.514977 0.927669 1.169086 -0.004873 0.004468 -342868.000000 0 0 1
-14.419525 -19.746549 11.786571 27.143547 0.940068 1.121612 -0.003341 0.000357 453478.000000 0 0 1
-13.102725 -20.469249 12.213471 27.200008 1.001400 1.105123 -0.007773 0.007175 443390.000000 0 0 1
-11.937025 -19.706849 12.039371 25.996133 1.026174 1.089282 -0.010842 0.001652 -388733.000000 0 0 1
-10.771925 -20.505549 12.233971 26.195075 1.087100 1.084864 -0.009739 0.003330 -102845.000000 0 0 1
-9.613625 -19.656849 12.710571 25.305575 1.115929 1.044559 -0.016486 0.002819 -772531.000000 0 0 1
-8.988825 -19.029749 11.605071 24.033476 1.129507 1.066866 -0.026058 0.005395 -314119.000000 0 1 0
-8.145325 -18.024449 12.182271 23.230041 1.146360 1.018764 -0.022590 0.002266 5624.480000 0 1 0
-7.349925 -17.286749 11.104971 21.821399 1.168776 1.036887 -0.026531 0.000039 -117061.000000 0 1 0
-6.319525 -18.077349 10.568171 21.872658 1.234493 1.066527 -0.022988 -0.001161 -541102.000000 0 1 0
-5.695725 -17.417249 9.536071 20.657650 1.254742 1.090971 -0.018741 -0.003397 -899993.000000 0 1 0
-4.656525 -18.196449 8.772171 20.730291 1.320270 1.133869 -0.012920 -0.008118 -670102.000000 0 1 0
-3.456225 -18.374049 9.465971 20.956044 1.384865 1.102120 -0.002538 -0.004507 -973253.000000 0 1 0
-2.464425 -18.852249 8.622371 20.876445 1.440810 1.145030 0.002809 -0.009933 -184178.000000 0 1 0
-1.149725 -19.255649 9.324971 21.425615 1.511159 1.120508 0.000780 -0.004922 244153.000000 0 1 0
-0.272025 -19.916149 8.410071 21.620737 1.557139 1.171270 0.011106 0.005062 73170.500000 0 1 0
0.930175 -20.274749 9.085171 22.236704 -1.524950 1.149913 0.011675 0.007759 809869.000000 0 1 0
1.994575 -20.849649 8.047271 22.437574 -1.475422 1.203973 0.023094 -0.003208 290100.000000 0 1 0
1.814775 -22.170949 7.550871 23.491701 -1.489125 1.243560 0.008575 0.000250 -127550.000000 0 1 0
2.076275 -23.126749 8.548371 24.743324 -1.481258 1.218044 0.010533 0.000436 -9553.350000 0 1 0
1.437475 -24.487249 8.168971 25.853893 -1.512161 1.249321 -0.004881 -0.001313 -34823.600000 0 0 1
1.350375 -25.421439 9.269871 27.092500 -1.517727 1.221586 -0.000461 0.002557 -170199.000000 0 0 1
1.048275 -26.717129 8.776371 28.141225 -1.531580 1.253637 -0.002894 0.005395 -670696.000000 0 0 1
1.150275 -27.841969 9.848571 29.554910 -1.529505 1.231069 0.007140 0.002731 196302.000000 0 0 1
0.525275 -27.586079 11.105971 29.742398 -1.551757 1.188119 -0.004285 -0.001765 446237.000000 0 0 1
-0.903825 -27.575049 11.042971 29.717796 1.538031 1.190070 -0.015238 0.006615 240848.000000 0 0 1
-1.432425 -27.683189 12.456971 30.390573 1.519099 1.148456 -0.008346 0.000200 -477831.000000 0 0 1
-1.056025 -28.912729 13.009471 31.722349 1.534288 1.148228 -0.016017 -0.005039 -52878.800000 0 0 1
-1.259925 -28.956819 14.382771 32.356589 1.527313 1.110171 -0.014924 -0.009335 -430728.000000 0 0 1
-0.697325 -30.185759 15.098971 33.758632 1.547699 1.107094 -0.014389 -0.007954 75284.600000 0 0 1
-0.865525 -29.937849 16.480471 34.185228 1.541894 1.067754 -0.007768 -0.010079 -85484.900000 0 0 1
-0.568925 -31.089389 17.235571 35.551915 1.552499 1.064662 -0.012256 -0.005955 -57563.200000 0 0 1
-0.950725 -30.948809 18.674971 36.159192 1.540087 1.028078 -0.005463 -0.004450 -495138.000000 0 0 1
-2.311825 -30.743499 18.898271 36.161470 1.495740 1.020889 -0.009063 0.002577 -506331.000000 0 0 1
-2.521625 -30.350329 20.242671 36.568658 1.487903 0.984172 -0.008860 -0.000589 -77053.900000 0 0 1
-4.011625 -30.205919 20.597971 36.779982 1.438760 0.976372 -0.001714 0.000636 -321103.000000 0 0 1
-4.764125 -29.168849 19.980271 35.675340 1.408897 0.976340 0.005867 0.004590 1027170.000000 0 0 1
-6.096725 -29.060219 20.511471 36.088597 1.363999 0.966280 0.007285 0.004124 861201.000000 0 0 1
-6.142425 -28.091429 21.727171 36.040640 1.355526 0.923725 0.013588 -0.001406 -456314.000000 0 0 1
-5.423825 -28.524699 22.872271 36.962374 1.382895 0.903584 0.005180 -0.001471 66903.100000 0 0 1
-5.580425 -27.719049 24.070771 37.133392 1.372131 0.865546 0.009144 -0.009275 -94222.900000 0 0 1
-4.433125 -27.930389 25.118871 37.824819 1.413389 0.844528 0.005114 -0.008793 307658.000000 0 0 1
-4.489925 -29.186989 25.752371 39.181939 1.418160 0.853631 -0.000963 -0.003771 -323276.000000 0 0 1
-3.536125 -30.088969 25.309871 39.477079 1.453811 0.874829 0.004173 -0.004761 -501524.000000 0 0 1
-3.710825 -31.504889 25.945871 40.981904 1.453551 0.885238 -0.003068 0.000951 -115140.000000 0 0 1
-3.368625 -31.467159 27.323371 41.810242 1.464150 0.858585 -0.004502 -0.000636 302555.000000 0 0 1
-3.826825 -32.660009 27.924671 43.140561 1.454157 0.866766 -0.003511 0.008679 -158869.000000 0 0 1
-3.455325 -32.651059 29.427471 44.090894 1.465363 0.840048 -0.000245 0.001692 130641.000000 0 0 1
-2.074225 -32.850419 29.676471 44.318680 1.507739 0.837105 -0.008697 0.006262 342664.000000 0 0 1
-1.730125 -32.828089 31.059871 45.226014 1.518142 0.813760 0.000498 0.001160 -174298.000000 0 0 1
-27.416445 2.920751 -10.323229 29.440810 -0.106133 1.929054 0.007925 0.003525 -614014.000000 0 0 1
-28.428245 2.689251 -11.206429 30.675418 -0.094317 1.944776 -0.001579 -0.005009 -656192.000000 0 0 1
-29.278395 3.815251 -11.347429 31.631388 -0.129579 1.937713 -0.018076 -0.005522 -260194.000000 0 0 1
-30.022035 3.895051 -12.654029 32.811865 -0.129019 1.966713 -0.004898 -0.009882 -552031.000000 0 0 1
-31.021495 2.910051 -12.716429 33.652773 -0.093534 1.958293 -0.004776 -0.006120 -262733.000000 0 0 1
-31.540455 2.802851 -13.997729 34.620698 -0.088632 1.987028 -0.000925 -0.004806 -365098.000000 0 0 1
-32.725255 1.832051 -13.979529 35.633214 -0.055924 1.973946 -0.014020 -0.003240 -239593.000000 0 0 1
-32.306415 0.550051 -13.770229 35.123016 -0.017024 1.973663 -0.002567 -0.001013 -424591.000000 0 0 1
-33.384665 -0.295549 -13.499929 36.012099 0.008853 1.955055 -0.014883 0.000465 -342739.000000 0 0 1
-33.050855 -1.825149 -13.153129 35.618745 0.055166 1.949026 -0.007366 -0.001569 -3959.380000 0 0 1
-32.465835 -2.580249 -14.169329 35.517010 0.079309 1.981162 -0.013076 -0.008290 204570.000000 0 0 1
-31.951215 -3.847749 -13.761929 35.001086 0.119849 1.974890 -0.002221 -0.003573 -26324.100000 0 0 1
-32.935115 -4.974349 -14.139729 36.185603 0.149902 1.972249 -0.007956 -0.007123 -37034.000000 0 0 1
-32.511905 -6.280249 -13.675529 35.825767 0.190817 1.962456 -0.000141 -0.005291 31286.400000 0 0 1
-32.970825 -7.364549 -14.481729 36.756392 0.219758 1.975767 0.007620 -0.010047 -859757.000000 0 0 1
-32.851085 -8.755049 -13.855129 36.712522 0.260453 1.957778 0.014469 -0.008693 410949.000000 0 0 1
-31.594635 -9.406849 -13.601129 35.660910 0.289378 1.962108 0.014503 -0.009268 1019400.000000 0 0 1
-30.715855 -9.542449 -14.737829 35.379736 0.301215 2.000456 0.011516 -0.009162 -26263.500000 0 0 1
-29.501895 -10.417549 -14.313429 34.405834 0.339447 1.999858 0.014203 -0.003788 -196981.000000 0 0 1
-29.810435 -11.712649 -13.986729 34.949632 0.374374 1.982528 0.015802 -0.009754 -503451.000000 0 0 1
-28.662535 -12.477049 -13.854329 34.192983 0.410570 1.987973 0.015537 -0.010779 -826161.000000 0 0 1
-28.892085 -13.968849 -14.174929 35.082901 0.450347 1.986726 0.011880 -0.012619 -272383.000000 0 0 1
-29.082865 -14.181849 -15.542329 35.895708 0.453707 2.018599 0.004545 -0.002255 -47973.000000 0 0 1
-29.357455 -15.486049 -16.042529 36.865168 0.485405 2.021021 0.005714 -0.002070 -534574.000000 0 0 1
-28.275685 -16.555749 -15.844029 36.395610 0.529698 2.021199 -0.004131 0.000254 -414766.000000 0 0 1
-27.116825 -16.281149 -16.568829 35.706079 0.540719 2.053340 -0.007274 0.000412 -405687.000000 0 0 1
-26.153945 -17.366549 -16.503529 35.468188 0.586163 2.054776 -0.009230 0.002952 436524.000000 0 0 1
-24.809725 -16.769849 -16.945329 34.407767 0.594394 2.085740 -0.004934 -0.005643 -264428.000000 0 0 1
-24.882625 -16.293049 -18.271429 34.906354 0.579740 2.121681 -0.018704 -0.001483 1071900.000000 0 0 1
-23.528625 -16.126849 -18.761629 34.141912 0.600869 2.152585 -0.021532 0.008275 601518.000000 0 0 1
-23.542025 -15.729549 -20.286629 34.830920 0.589027 2.192513 -0.020678 0.012510 -59420.200000 0 0 1
-24.048425 -16.750149 -21.149529 36.141345 0.608385 2.195910 -0.018172 0.005059 489905.000000 0 0 1
-25.452635 -16.695549 -21.354629 37.183305 0.580544 2.182554 -0.003127 0.002250 129101.000000 0 0 1
-25.893165 -17.996949 -22.116229 38.515889 0.607394 2.182436 0.004213 -0.001657 -55196.300000 0 0 1
-25.224525 -18.090449 -23.377429 38.859300 0.622161 2.216288 0.008643 0.006658 206692.000000 0 0 1
-25.685625 -19.189949 -24.133629 40.130257 0.641648 2.216027 0.020462 0.001481 -575125.000000 0 0 1
-25.000425 -19.525749 -25.480079 40.687965 0.663058 2.247506 0.029184 -0.001679 232480.000000 0 0 1
-23.650925 -19.925249 -25.299109 39.955309 0.700108 2.256458 0.018367 -0.005352 131528.000000 0 0 1
-23.552725 -21.321349 -25.016929 40.437328 0.735714 2.237831 0.021915 -0.005419 -31222.600000 0 0 1
-22.046625 -21.732749 -24.922729 39.743030 0.778229 2.248617 0.017629 -0.005301 623899.000000 0 0 1
-21.502425 -21.802849 -26.214599 40.310342 0.792335 2.278801 0.017655 -0.004319 -1039290.000000 0 0 1
-20.125525 -21.889249 -26.109949 39.571523 0.827352 2.291371 0.009429 -0.012463 -913719.000000 0 0 1
-19.342725 -21.752449 -27.438219 40.002074 0.843969 2.326663 0.010145 -0.008419 -549136.000000 0 0 1
-19.519225 -22.818549 -28.390559 41.324450 0.863170 2.328171 0.017171 -0.007084 -123446.000000 0 0 1
-20.005225 -22.233749 -29.592129 42.074252 0.838109 2.350869 0.027249 -0.008059 100338.000000 0 0 1
-19.092025 -22.479749 -30.824449 42.661354 0.866709 2.378263 0.022846 -0.009234 225988.000000 0 0 1
-19.119925 -23.779649 -31.363649 43.757533 0.893593 2.369941 0.018222 -0.015699 344954.000000 0 0 1
-18.175925 -23.841749 -32.446579 44.176619 0.919433 2.395688 0.017529 -0.016247 265690.000000 0 0 1
-17.905625 -25.253919 -32.953709 45.214143 0.954040 2.387417 0.018977 -0.011713 33338.900000 0 0 1
-17.214525 -25.390529 -34.221900 45.958212 0.974995 2.410778 0.013066 -0.017004 -128125.000000 0 0 1
-17.995925 -25.173079 33.942747 45.930897 0.950148 0.739218 0.021263 -0.015232 -378935.000000 0 0 1
-17.210825 -25.020349 32.626684 44.572759 0.968256 0.749562 0.019888 -0.012284 -504938.000000 0 0 1
-16.570425 -23.811349 32.394254 43.485020 0.962824 0.730333 0.011937 -0.010696 -317269.000000 0 0 1
-16.095425 -23.760149 31.024074 42.262283 0.975391 0.746479 0.015971 -0.009590 -304666.000000 0 0 1
-15.339125 -22.470149 30.802794 41.097548 0.971814 0.723483 -0.000869 -0.000611 -355221.000000 0 0 1
-16.101725 -21.271549 30.606214 40.601535 0.922855 0.716941 0.006246 -0.003038 52874.000000 0 0 1
-15.328525 -20.084649 30.410154 39.536493 0.918903 0.693260 0.003041 -0.001042 244513.000000 0 0 1
-14.441025 -19.583749 31.607974 39.888976 0.935409 0.656065 0.001256 -0.002990 173121.000000 0 0 1
-14.032325 -18.254749 31.364404 38.908454 0.915438 0.633251 0.007652 -0.004139 -69859.700000 0 0 1
-13.425225 -17.671149 32.501614 39.355572 0.921100 0.599097 0.004982 -0.001677 -41761.600000 0 0 1
-13.025125 -16.175449 32.242964 38.352415 0.892868 0.572217 -0.000157 0.001495 -355321.000000 0 0 1
-11.895525 -15.987549 31.420864 37.207203 0.931115 0.565197 0.005978 -0.003135 -55691.800000 0 0 1
-11.567825 -14.680349 30.972154 36.174598 0.903428 0.542956 0.003680 -0.000536 -547904.000000 0 0 1
-10.092125 -14.534149 30.642254 35.384180 0.963857 0.523675 0.016658 -0.001157 -485831.000000 0 0 1
-9.827225 -13.187649 30.225424 34.410241 0.930385 0.498325 0.018055 0.003394 228613.000000 0 0 1
-8.562025 -12.670749 30.647844 34.251226 0.976544 0.462823 0.005041 -0.002267 177303.000000 0 0 1
-8.381225 -11.107449 30.619914 33.633309 0.924384 0.426536 -0.000057 -0.000770 -424645.000000 0 0 1
-9.058425 -10.415049 31.644084 34.523562 0.854951 0.411320 0.005477 0.003768 124739.000000 0 0 1
-8.589125 -9.097349 31.706804 34.086012 0.814125 0.375839 0.005900 0.004018 -384260.000000 0 0 1
-9.337725 -8.291749 32.743654 35.044159 0.726136 0.364354 -0.003220 0.003150 704022.000000 0 0 1
-10.728925 -8.139749 32.356044 35.046810 0.649029 0.394409 0.002933 -0.001247 817938.000000 0 0 1
-11.464125 -7.424249 33.298980 35.991217 0.574691 0.389241 -0.003643 -0.005108 -155153.000000 0 0 1
-11.210425 -5.905449 33.497273 35.813618 0.484843 0.361628 -0.013492 -0.005392 -361522.000000 0 0 1
-11.794525 -5.210849 32.364684 34.838722 0.416016 0.379133 -0.002337 -0.003986 463698.000000 0 0 1
-12.177625 -3.901749 32.793294 35.198272 0.310069 0.371804 -0.004404 -0.005174 -347754.000000 0 0 1
-11.753225 -2.743149 31.870364 34.079074 0.229291 0.362005 -0.006989 -0.006521 598357.000000 0 0 1
-10.359825 -2.450849 31.967204 33.693245 0.232302 0.321470 0.002411 -0.003507 549371.000000 0 0 1
-9.916025 -1.345649 31.177274 32.743866 0.134880 0.310581 -0.003806 0.002314 -103216.000000 0 0 1
-8.428825 -0.986849 31.356984 32.485064 0.116550 0.264307 0.013396 0.000344 -80716.200000 0 0 1
-8.038025 -0.653249 32.683704 33.663943 0.081092 0.241912 0.012989 -0.012215 -1297490.000000 0 0 1
-6.772825 -0.137649 32.700144 33.394453 0.020321 0.204272 0.026093 -0.018287 -1398970.000000 0 0 1
-6.330225 0.543951 34.014719 34.603016 -0.085719 0.184660 0.032000 -0.025503 -432660.000000 0 0 1
-6.961725 1.780851 34.319311 35.063545 -0.250436 0.206402 0.016456 -0.021149 -332540.000000 0 0 1
-6.419425 2.901051 33.681169 34.409973 -0.424447 0.206181 0.023490 -0.016834 -689366.000000 0 0 1
-7.175125 4.231651 33.747537 34.760402 -0.532861 0.241996 0.029329 -0.016339 -1025680.000000 0 0 1
-8.463025 4.101151 33.252947 34.557209 -0.451249 0.275616 0.011925 -0.007074 -718218.000000 0 0 1
-9.057125 5.394951 33.351275 34.977772 -0.537221 0.306156 0.007428 -0.001203 297160.000000 0 0 1
-10.432625 5.472951 32.614374 34.676941 -0.483133 0.346637 -0.002220 0.006485 117428.000000 0 0 1
-11.142425 6.653551 32.848004 35.318759 -0.538311 0.376263 0.000987 0.006078 -874333.000000 0 0 1
-12.261025 6.607251 32.045064 34.941017 -0.494268 0.410005 -0.009302 0.004000 -433148.000000 0 0 1
-13.272125 7.798751 32.172104 35.665307 -0.531255 0.446287 -0.005642 0.002010 125689.000000 0 0 1
-13.879125 7.969851 33.426609 37.060583 -0.521258 0.446544 0.001462 0.001435 -220314.000000 0 0 1
-14.424625 9.222451 33.557479 37.672640 -0.568855 0.471770 0.012171 0.003007 -405755.000000 0 0 1
-15.092525 9.391851 -34.381726 38.705223 -0.556645 2.664420 0.022917 0.005056 -77866.900000 0 0 1
-14.213825 9.747451 -33.341829 37.532961 -0.601113 2.664502 0.020068 0.003097 36726.800000 0 0 1
-14.932225 9.909651 -32.115969 36.777819 -0.585906 2.632614 0.022556 0.000428 -646485.000000 0 0 1
-14.085725 10.001751 -30.817429 35.329260 -0.617448 2.630666 0.018197 -0.001002 844046.000000 0 0 1
-13.213225 11.178451 -30.687409 35.231579 -0.702170 2.628071 0.021709 0.000294 1169670.000000 0 0 1
-11.961525 10.997051 -31.365529 35.324349 -0.743414 2.663620 0.015751 -0.004117 -53457.500000 0 0 1
-11.125425 12.237051 -31.562629 35.633131 -0.832944 2.658939 0.015455 -0.002978 -390308.000000 0 0 1
-11.627425 13.154051 -32.474039 36.915976 -0.846924 2.645973 0.012934 0.000455 -305024.000000 0 0 1
-10.807425 14.286051 -32.611709 37.207731 -0.923147 2.639291 0.000626 0.001833 -297719.000000 0 0 1
-11.024125 15.502051 -31.648049 36.924842 -0.952633 2.600398 0.007555 -0.000472 522004.000000 0 0 1
-12.256025 16.166451 -31.977049 37.869459 -0.922122 2.576244 0.013904 0.001207 681381.000000 0 0 1
-12.333025 17.320951 -31.073019 37.651711 -0.952043 2.541485 0.012438 0.003705 -148169.000000 0 0 1
-13.758525 17.872451 -30.869549 38.231539 -0.914732 2.510591 0.002482 -0.000442 -457040.000000 0 0 1
-14.310125 18.416251 -32.040509 39.629941 -0.910214 2.512382 0.010651 -0.000425 1520270.000000 0 0 1
-15.698625 18.869251 -32.034099 40.356895 -0.876864 2.487779 0.014757 -0.002148 1732760.000000 0 0 1
-15.990425 20.072251 -31.088479 40.312312 -0.898105 2.451506 0.006540 -0.009474 -524037.000000 0 0 1
-15.287325 21.219151 -31.572799 40.997516 -0.946477 2.449818 0.007450 -0.007777 360358.000000 0 0 1
-15.657025 22.430251 -30.962239 41.314874 -0.961393 2.417984 0.006751 -0.021250 846760.000000 0 0 1
-16.956825 23.103551 -31.566819 42.635338 -0.937647 2.404448 0.002497 -0.019989 1276610.000000 0 0 1
-18.221625 22.536451 -31.255949 42.624566 -0.890870 2.393937 0.007216 -0.023372 899506.000000 0 0 1
-19.232725 22.846051 -32.224689 43.934842 -0.871059 2.394203 0.018784 -0.018359 1423060.000000 0 0 1
-20.560525 21.955651 -32.222159 44.080079 -0.818200 2.390570 0.012552 -0.019750 1221950.000000 0 0 1
-21.443325 22.322351 -31.123829 43.895288 -0.805480 2.358942 0.018657 -0.018004 1061470.000000 0 0 1
-22.605925 23.079451 -31.417249 45.063649 -0.795763 2.342246 0.018013 -0.011377 921373.000000 0 0 1
-23.813525 22.397351 -32.157179 45.856401 -0.754762 2.347957 0.004662 -0.016818 146424.000000 0 0 1
-23.429125 22.093451 -33.477809 46.452214 -0.756066 2.375598 0.012526 -0.007790 -358863.000000 0 0 1
-24.545225 21.636351 -34.146756 47.292713 -0.722494 2.377528 0.014545 -0.004029 -659577.000000 0 0 1
-24.178525 20.737551 33.970855 46.568939 -0.708939 0.753243 0.011227 0.000712 19059.400000 0 0 1
-23.682825 19.419951 34.228918 45.930704 -0.686819 0.729917 0.010678 -0.001733 346926.000000 0 0 1
-23.469425 18.624451 33.106844 44.651397 -0.670803 0.735565 -0.001983 -0.002746 -449580.000000 0 0 1
-23.211025 17.157451 33.428943 44.165870 -0.636549 0.712247 0.008337 0.002970 -463675.000000 0 0 1
-24.296225 16.425951 33.928477 44.847073 -0.594484 0.712795 0.009205 0.002553 132905.000000 0 0 1
-24.835225 15.506751 32.956934 44.084093 -0.558157 0.726367 0.011647 -0.002307 -255911.000000 0 0 1
-25.617925 14.323551 33.546309 44.573502 -0.509820 0.718785 0.005064 0.003494 106000.000000 0 0 1
-26.989825 14.625351 33.785929 45.649103 -0.496591 0.737544 0.003647 0.009551 238759.000000 0 0 1
-27.898345 13.535951 33.747077 45.830174 -0.451728 0.743136 0.002801 0.012984 205899.000000 0 0 1
-27.782125 12.378951 -34.541348 46.023794 -0.419166 2.419631 -0.000892 0.011555 -89589.700000 0 0 1
-26.703505 11.460751 34.557349 45.151261 -0.405410 0.699183 0.005403 -0.000939 160282.000000 0 0 1
-27.179535 10.203951 34.240522 44.891660 -0.359146 0.703262 0.003151 0.004017 547230.000000 0 0 1
-26.038425 9.061551 34.390640 44.077516 -0.334898 0.675761 0.001769 -0.000238 1494070.000000 0 0 1
-25.058525 8.930951 33.369250 42.675501 -0.342368 0.673041 0.002647 -0.002167 445857.000000 0 0 1
-24.043525 9.913851 33.363657 42.302591 -0.391090 0.662120 0.003290 -0.006597 -21838.000000 0 0 1
-22.714925 9.541251 32.637544 40.892696 -0.397665 0.646617 0.011683 -0.002215 138516.000000 0 0 1
-22.864525 9.362651 31.222714 39.815872 -0.388655 0.669427 0.003430 -0.002767 -145400.000000 0 0 1
-21.623525 9.172851 30.602154 38.577323 -0.401199 0.654639 0.001361 -0.004429 -208950.000000 0 0 1
-21.671125 9.112451 29.042284 37.364806 -0.398043 0.680492 0.009056 -0.010031 -61862.100000 0 0 1
-22.181225 10.285151 28.444334 37.508282 -0.434178 0.710021 0.015276 -0.011932 231775.000000 0 0 1
-22.104525 10.249151 27.049394 36.405011 -0.434162 0.733235 0.007060 -0.013151 -769407.000000 0 0 1
-22.583225 11.616251 26.491084 36.697642 -0.475082 0.764289 0.010756 -0.011867 833203.000000 0 0 1
-23.884125 12.044051 26.933804 37.959721 -0.467058 0.781956 0.011416 -0.006968 1038690.000000 0 0 1
-24.969225 11.417451 26.217004 37.962504 -0.428876 0.808474 0.010856 0.000728 237859.000000 0 0 1
-26.258435 12.265951 26.342084 39.164581 -0.437003 0.833080 -0.000136 0.006346 47305.600000 0 0 1
-26.152515 13.529251 25.767614 39.127543 -0.477408 0.851900 0.005924 -0.000908 273050.000000 0 0 1
-27.330905 14.225451 26.165364 40.422372 -0.479905 0.866761 -0.011536 0.003172 293276.000000 0 0 1
-27.269255 15.679951 25.622554 40.570783 -0.521838 0.887243 -0.016524 0.001392 -241734.000000 0 0 1
-26.456615 16.597951 26.297834 40.829163 -0.560298 0.870958 -0.004916 -0.003818 -215431.000000 0 0 1
-26.421935 17.853751 25.595664 40.890257 -0.594242 0.894434 -0.015379 -0.003929 -575231.000000 0 0 1
-21.921425 -9.314149 32.450174 40.253149 0.401776 0.633176 0.008119 -0.009111 -42464.000000 0 0 1
-21.031025 -8.835349 31.464934 38.863987 0.397722 0.627297 0.009870 -0.017442 -395643.000000 0 0 1
-21.581325 -8.902249 30.195664 38.167810 0.391234 0.658144 0.009660 -0.018821 -344536.000000 0 0 1
-20.673825 -8.545549 28.978654 36.608685 0.391963 0.657408 0.007712 -0.010599 -516223.000000 0 0 1
-20.271725 -7.178849 28.921864 36.040990 0.340350 0.639371 0.011634 -0.016081 -224212.000000 0 0 1
-19.043825 -6.892349 29.559134 35.831748 0.347255 0.600696 0.019053 -0.015310 -358372.000000 0 0 1
-17.791925 -7.205549 28.693504 34.522307 0.384801 0.589609 0.034448 -0.014999 -787456.000000 0 0 1
-17.395125 -8.574849 28.603294 34.558166 0.457988 0.595825 0.026539 -0.015619 264751.000000 0 0 1
-16.998725 -9.272849 29.843184 35.574682 0.499384 0.575559 0.034591 -0.013412 -77885.000000 0 0 1
-15.576925 -8.923949 30.372894 35.281584 0.520251 0.533817 0.031825 -0.013165 753170.000000 0 0 1
-14.513425 -9.534249 29.596824 34.314915 0.581229 0.530595 0.027760 -0.005964 542933.000000 0 0 1
-13.249425 -9.103449 30.096574 34.120724 0.602004 0.490576 0.021026 -0.004839 639844.000000 0 0 1
-12.106625 -10.039249 29.618204 33.534980 0.692315 0.488147 0.014583 -0.000951 -137029.000000 0 0 1
-11.638125 -9.783449 28.370604 32.187777 0.699034 0.491959 0.031448 -0.008151 -57441.600000 0 0 1
-10.750025 -10.785249 27.880204 31.767757 0.787034 0.499910 0.016321 -0.000890 89973.500000 0 0 1
-10.173625 -10.592749 26.428284 30.235131 0.805578 0.507233 0.018104 -0.005501 -85062.600000 0 0 1
-11.137425 -10.739549 25.435874 29.771863 0.767213 0.546479 0.021811 -0.009300 -557488.000000 0 0 1
-10.620225 -10.511849 24.123184 28.376331 0.780270 0.554590 0.012186 -0.011037 -201771.000000 0 0 1
-11.522125 -10.944849 22.970984 27.932332 0.759709 0.605215 0.014022 -0.012157 -634218.000000 0 0 1
-11.636325 -12.376949 22.820484 28.449383 0.816231 0.639920 0.018660 -0.010963 120556.000000 0 0 1
-12.913225 -12.791049 22.388984 28.837977 0.780645 0.681908 0.023842 -0.008346 544127.000000 0 0 1
-14.056925 -12.751649 23.478284 30.189924 0.736748 0.679820 0.019655 -0.003910 949106.000000 0 0 1
-15.364225 -13.027149 22.914684 30.509814 0.703267 0.721131 0.011848 0.005804 331775.000000 0 0 1
-16.289925 -12.969749 23.945184 31.732442 0.672409 0.715758 0.013137 0.008138 -756605.000000 0 0 1
-17.588425 -13.664249 23.512484 32.386746 0.660489 0.758322 0.016524 0.007509 -597999.000000 0 0 1
-17.532325 -15.125849 23.433184 32.943707 0.711844 0.779436 0.018824 0.010763 918749.000000 0 0 1
-18.755025 -15.883349 23.632184 34.095628 0.702683 0.804995 0.007448 0.017286 829648.000000 0 0 1
-19.427825 -15.890849 25.056324 35.465178 0.685586 0.786249 0.007211 0.015562 9942.400000 0 0 1
-18.897525 -16.867549 25.933574 36.251633 0.728700 0.773633 0.017033 0.011707 126731.000000 0 0 1
-19.596325 -16.954149 27.156024 37.535433 0.713235 0.761971 0.011138 0.003303 -238047.000000 0 0 1
-18.983525 -18.055249 28.122364 38.434797 0.760341 0.749998 0.011503 -0.003792 5097.890000 0 0 1
-19.135725 -19.457549 27.848584 38.991227 0.793737 0.775277 0.015058 -0.003923 128594.000000 0 0 1
-18.908925 -20.201649 29.067124 40.131680 0.818439 0.760787 0.012874 -0.005438 -302211.000000 0 0 1
-18.771525 -21.723849 28.863814 40.711368 0.858175 0.782736 0.020738 -0.000297 -72297.100000 0 0 1
-20.018525 -22.351649 28.605724 41.456302 0.840408 0.809278 0.021249 -0.003136 267318.000000 0 0 1
-19.851025 -23.654749 28.086844 41.743037 0.872607 0.832740 0.021239 0.009172 -66434.900000 0 0 1
-21.174125 -24.244549 27.575204 42.385535 0.852898 0.862448 0.026083 0.005695 -704307.000000 0 0 1
-22.078725 -24.421449 28.584084 43.599623 0.835737 0.855814 0.020763 -0.000321 -627773.000000 0 0 1
-23.262525 -25.047349 28.157694 44.287363 0.822327 0.881758 0.006376 0.002732 173148.000000 0 0 1
-24.014725 -25.931949 29.211614 45.852932 0.823765 0.880103 -0.005401 -0.002199 -121111.000000 0 0 1
-24.639625 -25.292629 30.283414 46.517882 0.798475 0.861888 -0.007780 0.004414 74402.700000 0 0 1
-25.285445 -26.132589 31.211674 47.921128 0.801872 0.861482 -0.011360 0.010054 -446215.000000 0 0 1
-26.294305 -25.331209 32.019114 48.562169 0.766745 0.850852 -0.001359 0.007351 -488009.000000 0 0 1
-27.228945 -24.770549 31.124604 48.205150 0.738156 0.868896 -0.006676 0.004155 184910.000000 0 0 1
-28.457645 -24.512749 31.801964 49.214605 0.711062 0.868215 -0.007166 -0.000721 -5351.690000 0 0 1
-29.606365 -24.193549 30.850974 49.128884 0.685125 0.891867 -0.007488 -0.000738 -993858.000000 0 0 1
-30.022905 -25.233099 29.952444 49.348080 0.698930 0.918563 -0.003291 0.002556 1212850.000000 0 0 1
-31.351985 -25.101459 29.394674 49.770243 0.675127 0.938985 -0.005619 -0.002553 451178.000000 0 0 1
-32.464955 -25.450069 30.341824 51.208452 0.664862 0.936618 -0.002421 0.002198 -1433380.000000 0 0 1
-32.454755 -26.845389 30.672484 52.103621 0.691086 0.941368 0.006666 -0.005161 -289167.000000 0 0 1
-33.595405 -27.248689 31.356584 53.426376 0.681463 0.943557 0.014438 -0.003811 -430841.000000 0 0 1
-33.616105 -28.807919 31.607764 54.396594 0.708525 0.950764 0.025658 -0.008094 -334773.000000 0 0 1
-32.689645 -29.160969 32.585884 54.596839 0.728408 0.931232 0.020676 0.002630 -534860.000000 0 0 1
-32.145535 -30.385049 32.276804 54.757453 0.757252 0.940418 0.028346 -0.003112 -34610.400000 0 0 1
-31.008965 -30.734679 33.288195 54.902462 0.780956 0.919378 0.021813 0.004291 16546.000000 0 0 1
-31.431465 -30.818269 34.629093 56.007828 0.775548 0.904231 0.010668 0.012734 82831.000000 0 0 1
-30.321455 -30.974289 -33.825199 54.981281 0.796048 2.233452 0.003856 0.000146 53044.500000 0 0 1
-30.666915 -30.746049 -32.298619 54.120051 0.786687 2.210298 -0.001570 -0.005748 -32133.000000 0 0 1
-31.024135 -29.389819 -32.023109 53.401666 0.758353 2.213879 -0.000711 0.005896 1315140.000000 0 0 1
-29.866735 -28.672859 -31.463799 52.001205 0.765007 2.220636 0.009473 -0.000387 864563.000000 0 0 1
-30.085045 -27.193969 -31.191669 51.161920 0.734967 2.226435 0.003849 0.008700 -389354.000000 0 0 1
-30.942665 -26.855549 -30.117519 50.850113 0.714802 2.204682 -0.005450 -0.005631 -223737.000000 0 0 1
-30.974415 -25.446819 -29.767399 49.930482 0.687740 2.209527 0.001594 0.002966 -156065.000000 0 0 1
-29.649185 -24.890749 -29.226219 48.505623 0.698372 2.217467 0.013813 -0.007462 -232602.000000 0 0 1
-29.658805 -23.479449 -29.341439 47.873263 0.669630 2.230520 0.012880 -0.002783 351500.000000 0 0 1
-28.620115 -23.000349 -28.486919 46.471836 0.676958 2.230640 0.038946 -0.007755 171589.000000 0 0 1
-28.338075 -21.480049 -28.583259 45.622820 0.648597 2.247867 0.043171 -0.009193 -196485.000000 0 0 1
-27.898745 -21.113449 -29.852639 45.992366 0.647832 2.277168 0.044386 -0.002807 170646.000000 0 0 1
-27.583945 -19.765449 -29.837419 45.186486 0.621751 2.292038 0.030400 -0.001705 -114666.000000 0 0 1
-26.830625 -19.305549 -31.125549 45.402494 0.623716 2.326151 0.031147 0.008769 491962.000000 0 0 1
-27.716835 -18.988349 -32.216609 46.547720 0.600645 2.335218 0.026828 0.004554 808041.000000 0 0 1
-28.491945 -17.804449 -31.946669 46.361395 0.558523 2.331014 0.028652 0.003336 -330569.000000 0 0 1
-28.847065 -17.049149 -33.232329 47.193372 0.533789 2.352055 0.023733 0.005452 290530.000000 0 0 1
-29.743745 -17.673449 -34.178756 48.633615 0.536137 2.350095 0.015436 0.003055 1654850.000000 0 0 1
-31.128555 -17.365849 -33.872759 49.172385 0.508869 2.330708 0.003775 0.006156 801755.000000 0 0 1
-32.049675 -17.841649 34.301408 50.220441 0.507963 0.818911 -0.008678 0.004220 -353577.000000 0 0 1
-32.229125 -19.216049 34.313513 50.846732 0.537645 0.830046 -0.008056 0.007232 -38384.900000 0 0 1
-33.101105 -19.689249 33.326607 50.931448 0.536603 0.857484 -0.011208 0.004806 -230498.000000 0 0 1
-33.738425 -21.061449 33.740731 52.156523 0.558065 0.867267 -0.005917 -0.002638 410598.000000 0 0 1
-32.761915 -22.087449 33.652437 51.900722 0.593187 0.865315 -0.008390 0.001463 450230.000000 0 0 1
-33.350245 -23.316149 34.073016 53.074024 0.610142 0.873705 -0.008453 0.003025 -597429.000000 0 0 1
-32.321465 -24.444549 34.176792 53.011943 0.647517 0.870166 -0.002734 0.004729 286056.000000 0 0 1
-31.306815 -24.407649 -34.153155 52.366859 0.662195 2.281266 -0.014645 0.001528 743911.000000 0 0 1
-30.388835 -23.317549 -34.100397 51.283783 0.654486 2.298203 -0.006850 -0.002836 -797836.000000 0 0 1
-29.147805 -23.408849 -33.224429 50.014312 0.676633 2.297351 -0.000804 0.006463 -763527.000000 0 0 1
-28.148015 -24.265249 -33.756399 50.205652 0.711453 2.308192 -0.001649 0.009624 1111360.000000 0 0 1
-26.926175 -24.115949 -32.962569 48.919616 0.730397 2.310151 0.003132 0.007026 1030260.000000 0 0 1
-26.917505 -24.749749 -31.514079 48.272552 0.743467 2.282119 0.011951 0.015293 -830380.000000 0 0 1
-26.955465 -26.173549 -31.512509 49.037638 0.770682 2.268708 0.006600 -0.002419 241150.000000 0 0 1
-26.039065 -26.724689 -30.565609 48.233788 0.798392 2.257119 0.007882 -0.014482 66642.300000 0 0 1
-26.146205 -28.242579 -30.284659 48.973747 0.823923 2.237483 -0.000278 -0.011925 -425968.000000 0 0 1
-27.265865 -28.710659 -29.562569 49.413306 0.811203 2.212138 0.003330 -0.001300 -92397.000000 0 0 1
-27.081825 -29.998679 -28.985059 49.734089 0.836454 2.192967 0.007199 0.008052 -121612.000000 0 0 1
-27.810215 -31.103549 -29.740319 51.237929 0.841241 2.190060 0.008178 0.010670 -426187.000000 0 0 1
-27.060275 -31.373679 -30.881479 51.674287 0.859081 2.211323 -0.005415 0.006927 303921.000000 0 0 1
-27.436915 -32.629059 -31.401699 52.948149 0.871625 2.205657 0.007748 0.008575 -257621.000000 0 0 1
-27.004595 -32.922829 -32.872559 53.793735 0.883836 2.228227 0.008186 -0.004548 503830.000000 0 0 1
-25.603665 -33.115369 -33.081509 53.353177 0.912633 2.239600 -0.005733 0.000891 117601.000000 0 0 1
-25.416355 -33.596249 -34.411476 54.395300 0.923133 2.255726 0.005406 -0.004720 -280672.000000 0 0 1
-23.948625 -33.709679 34.478831 53.839287 0.953100 0.875774 0.004447 -0.002493 -281857.000000 0 0 1
-23.705325 -34.336525 33.246642 53.350525 0.966554 0.898002 0.002089 0.005183 243511.000000 0 0 1
-22.747525 34.130068 33.466643 52.937016 -0.982912 0.886410 -0.000917 0.010265 -202768.000000 0 0 1
-22.599325 33.241560 32.189224 51.496378 -0.973721 0.895566 0.000807 0.002622 -268644.000000 0 0 1
-23.818725 32.713450 31.719634 51.416307 -0.941458 0.905976 -0.001411 -0.008655 -258235.000000 0 0 1
-23.642725 31.849810 30.599514 50.097097 -0.932229 0.913721 -0.004725 -0.006164 57425.200000 0 0 1
-24.956625 31.165280 30.148974 50.030675 -0.895578 0.924029 0.003102 -0.006856 124607.000000 0 0 1
-25.507455 30.189760 31.016434 50.240134 -0.869268 0.905409 0.003964 -0.007664 -463884.000000 0 0 1
-26.768435 29.785810 30.600844 50.399953 -0.838701 0.918315 0.005874 -0.014251 -527185.000000 0 0 1
-27.295005 28.649560 31.476734 50.562826 -0.809606 0.898829 0.003560 -0.017544 -360476.000000 0 0 1
-26.461945 27.505220 31.456214 49.459732 -0.804727 0.881497 -0.005555 -0.010879 229555.000000 0 0 1
-27.081095 26.229190 31.844314 49.349939 -0.769419 0.869412 -0.005754 -0.007852 445346.000000 0 0 1
-28.134315 25.621110 30.906084 49.022107 -0.738680 0.888661 0.009325 -0.014607 -196454.000000 0 0 1
-27.558325 25.250610 29.684314 47.730631 -0.741727 0.899613 -0.009317 -0.015780 -127111.000000 0 0 1
-28.467435 24.476690 28.911344 47.385325 -0.710164 0.914568 -0.007375 -0.009115 -61858.600000 0 0 1
-27.884025 24.187620 27.545274 46.057594 -0.714530 0.929716 -0.001134 -0.009255 350469.000000 0 0 1
-26.806605 23.228520 27.707544 45.009624 -0.714008 0.907660 -0.007241 -0.009280 484028.000000 0 0 1
-26.127685 23.005520 26.494984 43.748075 -0.721939 0.920244 -0.007692 0.005851 -243886.000000 0 0 1
-24.837925 22.174820 26.720664 42.692377 -0.728812 0.894526 0.001899 -0.001220 -171708.000000 0 0 1
-24.940725 20.814420 27.092344 42.299822 -0.695459 0.875668 0.012501 -0.015017 521110.000000 0 0 1
-23.689525 20.278920 27.526104 41.594646 -0.707984 0.847619 0.018090 -0.010153 332239.000000 0 0 1
-23.837625 18.986520 28.393404 41.652199 -0.672599 0.820742 0.013631 -0.011602 -1250200.000000 0 0 1
-22.609925 18.418520 28.595624 40.843118 -0.683593 0.795212 0.002932 -0.006987 -890571.000000 0 0 1
-22.769925 17.186220 29.276414 40.877183 -0.646552 0.772448 -0.000579 -0.005288 -282432.000000 0 0 1
-21.524325 16.293020 29.442774 39.945413 -0.647940 0.742064 0.001357 -0.010355 -245034.000000 0 0 1
-20.618625 16.852820 30.368414 40.390417 -0.685236 0.719900 0.011003 -0.003763 -425535.000000 0 0 1
-19.406025 16.158820 30.386564 39.510056 -0.694347 0.693389 0.010094 -0.006811 -40738.800000 0 0 1
-18.347125 16.816820 31.321134 40.005448 -0.741906 0.671448 0.006653 -0.005986 -332837.000000 0 0 1
-18.572425 16.568420 32.679304 41.077785 -0.728432 0.650887 0.008444 -0.006509 437224.000000 0 0 1
-17.501625 17.051520 33.478807 41.447458 -0.772372 0.630486 0.010941 -0.004892 -472286.000000 0 0 1
-17.674025 16.681020 -34.335706 42.066237 -0.756502 2.525651 0.009851 -0.002658 370193.000000 0 0 1
-18.638725 17.382220 -33.574339 42.151867 -0.750530 2.492295 0.019908 -0.005600 -149440.000000 0 0 1
-19.998725 17.255420 -33.875569 42.956405 -0.711893 2.479331 0.024459 -0.005982 -670486.000000 0 0 1
-20.883825 18.033620 -32.876889 42.921270 -0.712291 2.443363 0.036038 -0.001710 -64635.800000 0 0 1
-20.896525 17.481820 -31.569839 41.700522 -0.696657 2.429599 0.036952 -0.002175 428561.000000 0 0 1
-21.749525 18.230420 -30.704129 41.810688 -0.697603 2.395521 0.027898 -0.002006 -251854.000000 0 0 1
-21.848625 17.635620 -29.294409 40.577579 -0.679099 2.377392 0.032298 -0.008956 82948.600000 0 0 1
-22.504025 16.406720 -29.067219 40.255619 -0.629962 2.377581 0.018805 -0.003826 1204330.000000 0 0 1
-23.928825 16.343320 -29.347169 41.242564 -0.599223 2.362533 0.029034 -0.005832 1038580.000000 0 0 1
-24.596625 15.203820 -28.566049 40.646885 -0.553641 2.350102 0.029190 -0.006845 -256367.000000 0 0 1
-24.236425 13.878420 -28.917439 40.202402 -0.520049 2.373585 0.014739 0.000931 -8737.420000 0 0 1
-24.978225 12.899420 -28.194819 39.815256 -0.476702 2.357658 0.002649 -0.002173 -159203.000000 0 0 1
-24.422725 11.500420 -28.248459 39.073067 -0.440090 2.378881 0.002686 -0.000087 -717129.000000 0 0 1
-23.309225 11.332820 -27.440159 37.745399 -0.452542 2.384710 -0.001874 -0.003370 -524581.000000 0 0 1
-22.549925 10.272620 -28.027209 37.410564 -0.427460 2.417618 -0.007883 0.001688 64280.400000 0 0 1
-21.540725 9.631420 -27.054589 35.898717 -0.420461 2.424374 -0.001051 0.002752 -109595.000000 0 0 1
-22.220525 8.780120 -26.189689 35.450558 -0.376306 2.402035 -0.011470 0.008748 -146895.000000 0 0 1
-21.338425 8.227720 -25.236629 34.057469 -0.368016 2.405357 -0.000177 0.020093 -411351.000000 0 0 1
-21.964825 7.376220 -24.093029 33.426579 -0.323987 2.375715 -0.001283 0.034710 253914.000000 0 0 1
-22.556225 6.163720 -24.653229 33.978764 -0.266748 2.382627 -0.003639 0.008846 321069.000000 0 0 1
-22.286425 5.029420 -23.809329 32.997939 -0.221954 2.376820 0.004871 0.020208 -211776.000000 0 0 1
33.015120 25.421351 -10.682829 43.015882 0.656173 1.821769 0.000075 0.004636 29975.100000 0 0 1
33.986053 24.694751 -9.951529 43.173087 0.628365 1.803391 -0.002873 0.004633 387964.000000 0 0 1
34.625326 23.631551 -10.703529 43.265794 0.598880 1.820782 0.001299 -0.000752 517306.000000 0 0 1
-33.965395 22.876851 -9.872929 42.124496 -0.592742 1.807372 0.012914 -0.000523 -9620.300000 0 0 1
-34.465767 22.106251 -8.807329 41.882508 -0.570304 1.782664 0.000622 0.002635 539067.000000 0 0 1
-33.382675 21.588151 -7.985329 40.548943 -0.574043 1.769023 0.017910 0.010410 536966.000000 0 0 1
-33.828705 20.623851 -6.883629 40.213293 -0.547489 1.742821 0.001142 0.022864 -186703.000000 0 0 1
-34.332187 19.373951 -7.259329 40.084248 -0.513762 1.752903 0.000540 0.006473 335648.000000 0 0 1
-34.604305 18.494351 -6.178629 39.719950 -0.490828 1.726985 0.012326 -0.012237 18742.300000 0 0 1
34.272604 17.201351 -6.595629 38.910156 0.465165 1.741128 0.006348 0.001038 620459.000000 0 0 1
32.935380 17.452951 -7.015029 37.928293 0.487292 1.756822 0.012943 -0.005164 389885.000000 0 0 1
32.507560 16.495451 -7.988329 37.318290 0.469577 1.786525 0.029924 -0.006711 -321084.000000 0 0 1
31.152240 16.759351 -8.628729 36.411439 0.493570 1.810051 0.026952 -0.009941 -631439.000000 0 0 1
30.664450 15.696451 -9.338229 35.691590 0.473105 1.835514 0.029703 -0.013450 -95418.700000 0 0 1
29.892260 16.196151 -10.441529 35.565265 0.496539 1.868774 0.022465 -0.013847 -521398.000000 0 0 1
29.330940 15.046151 -11.301229 34.848364 0.473977 1.901065 -0.002550 -0.005465 67472.700000 0 0 1
28.170780 14.387051 -10.796729 33.423786 0.472178 1.899721 -0.008340 0.004755 133263.000000 0 0 1
28.308250 13.782151 -9.492129 32.884726 0.453080 1.863611 0.015376 0.003377 -1025220.000000 0 0 1
27.350150 12.627651 -9.290229 31.524540 0.432544 1.869936 -0.011307 0.015509 -226989.000000 0 0 1
27.835370 11.490151 -10.026129 31.738851 0.391483 1.892196 -0.009557 0.014859 560712.000000 0 0 1
26.968490 10.397851 -9.816529 30.525055 0.367993 1.898204 -0.012093 0.011244 -346602.000000 0 0 1
27.451980 9.132351 -10.476329 30.769539 0.321150 1.918221 -0.011622 0.009491 -335085.000000 0 0 1
28.582900 8.608151 -9.820629 31.424946 0.292525 1.888631 -0.005876 0.010041 283360.000000 0 0 1
28.745540 7.215051 -9.981929 31.273023 0.245917 1.895667 -0.011022 0.010717 -805067.000000 0 0 1
29.778460 6.684551 -9.008629 31.821303 0.220816 1.857822 0.001081 0.008854 1555490.000000 0 0 1
31.162740 7.013451 -9.410329 33.299537 0.221370 1.857296 0.002226 0.005542 1922170.000000 0 0 1
32.097410 6.450051 -8.514929 33.828256 0.198311 1.825244 0.013828 0.003152 -247243.000000 0 0 1
33.566030 6.585351 -8.919129 35.349626 0.193730 1.825865 0.010399 -0.000729 -318220.000000 0 0 1
33.861522 5.903951 -10.103629 35.826563 0.172621 1.856690 0.000059 0.003073 -71845.900000 0 0 1
-34.423542 5.984751 -10.375429 36.447867 -0.172136 1.859453 -0.010441 0.001659 -819077.000000 0 0 1
-34.001955 5.435351 -11.773129 36.390694 -0.158513 1.900244 -0.014210 0.001672 97711.900000 0 0 1
-32.689095 5.652251 -12.261129 35.367502 -0.171216 1.924823 -0.009453 -0.003578 571890.000000 0 0 1
-32.146545 6.949251 -12.612529 35.224542 -0.212898 1.936987 -0.022446 -0.003976 -64852.500000 0 0 1
-31.561465 7.773751 -11.412129 34.449876 -0.241498 1.908443 -0.022310 -0.005587 -823766.000000 0 0 1
-32.513265 8.348051 -10.527729 35.180043 -0.251329 1.874706 -0.021753 -0.007281 99541.400000 0 0 1
-32.945765 9.636251 -11.016329 36.050524 -0.284551 1.881344 -0.024646 -0.003908 -132273.000000 0 0 1
-33.848825 10.408351 -10.081029 36.819885 -0.298319 1.848131 0.006792 -0.001539 -245481.000000 0 0 1
-33.139505 10.986851 -9.026429 36.061255 -0.320130 1.823795 0.003591 -0.002834 -167252.000000 0 0 1
-33.909265 11.943951 -8.280729 36.892638 -0.338662 1.797180 0.023928 -0.006135 -189345.000000 0 0 1
-33.131145 13.018351 -7.505529 36.379709 -0.374400 1.778600 0.027606 -0.005332 -236429.000000 0 0 1
-32.312985 13.832651 -8.288829 36.113376 -0.404479 1.802383 0.013424 -0.007363 -281026.000000 0 0 1
-31.581715 14.766951 -7.522029 35.665789 -0.437376 1.783295 0.006788 -0.005584 -58040.200000 0 0 1
-30.606115 15.577351 -8.346729 35.341987 -0.470792 1.809219 -0.006508 -0.003829 -406383.000000 0 0 1
-31.337805 16.511851 -9.085429 36.568351 -0.484934 1.821877 0.003566 -0.006159 268075.000000 0 0 1
-30.705615 17.807051 -9.128629 36.650481 -0.525530 1.822519 0.007334 -0.003339 218253.000000 0 0 1
-31.491175 18.772951 -10.011129 38.004480 -0.537572 1.837362 -0.000634 -0.009243 -43158.100000 0 0 1
-31.125895 18.581551 -11.340129 37.982811 -0.538196 1.873979 0.002153 -0.015891 78671.500000 0 0 1
-32.142145 18.948451 -12.283929 39.281754 -0.532678 1.888845 -0.001878 -0.027234 6296.510000 0 0 1
-31.706575 19.035251 -13.770229 39.462221 -0.540682 1.927244 -0.009413 -0.016586 -106645.000000 0 0 1
-30.731945 19.999151 -14.124829 39.292866 -0.576910 1.938502 -0.002411 -0.020619 72356.200000 0 0 1
-30.646035 20.164851 -15.553729 39.846194 -0.581973 1.971802 -0.005992 -0.020654 -306128.000000 0 0 1
-29.840005 21.423351 -15.895029 40.025465 -0.622665 1.979176 0.006817 -0.018048 202804.000000 0 0 1
-28.449905 21.314051 -15.602029 38.821504 -0.642975 1.984378 0.003830 -0.016005 600713.000000 0 0 1
-27.735125 22.542951 -15.459029 38.941025 -0.682494 1.979027 0.015838 -0.012142 555497.000000 0 0 1
-27.105285 23.177551 -16.768429 39.409080 -0.707444 2.010307 0.007992 -0.015393 -367780.000000 0 0 1
-28.097405 23.814851 -17.548729 40.799133 -0.703089 2.015428 0.017512 -0.008756 202412.000000 0 0 1
-27.631815 24.628051 -18.650729 41.447652 -0.727984 2.037542 0.011350 -0.012747 -28580.400000 0 0 1
-26.711195 25.879851 -18.379929 41.485858 -0.769592 2.029784 0.003815 -0.004804 355426.000000 0 0 1
-27.315025 26.982551 -17.740029 42.295122 -0.779275 2.003618 0.005018 -0.002400 -45543.000000 0 0 1
-26.345835 27.985151 -17.558829 42.256174 -0.815562 1.999325 -0.000408 -0.008883 410049.000000 0 0 1
-27.014415 29.352551 -17.106529 43.404887 -0.826855 1.975901 -0.011139 -0.003687 137861.000000 0 0 1
-27.426615 29.443051 -15.793329 43.226632 -0.820840 1.944817 -0.004446 -0.003420 131825.000000 0 0 1
-26.372285 29.627651 -14.847029 42.352443 -0.843464 1.928964 -0.004115 -0.000737 -83107.700000 0 0 1
-26.769845 30.139251 -13.449129 42.495625 -0.844536 1.892816 -0.003638 0.001168 -234382.000000 0 0 1
-27.188305 31.525351 -13.545729 43.778288 -0.859132 1.885376 -0.004833 0.000538 279727.000000 0 0 1
-27.240085 32.198651 -12.327329 43.940169 -0.868629 1.855161 -0.008205 0.006145 3178.310000 0 0 1
-26.465635 33.537251 -12.306529 44.459282 -0.902712 1.851263 -0.017150 0.003341 154945.000000 0 0 1
-27.101515 34.530151 -13.087229 45.805011 -0.905352 1.860550 -0.026038 -0.003933 91552.400000 0 0 1
-26.197675 -33.923817 -13.302329 44.878676 0.913206 1.871724 -0.005009 0.006778 -3673.950000 0 0 1
-26.458345 -33.053517 -14.520229 44.759536 0.895769 1.901179 -0.008384 0.000190 -267136.000000 0 0 1
-26.003535 -33.677017 -15.691129 45.349056 0.913272 1.924109 -0.005563 -0.001369 -193409.000000 0 0 1
-26.245995 -32.805817 -16.792929 45.244628 0.896030 1.951053 0.006529 0.008240 193897.000000 0 0 1
-25.349545 -33.054217 -18.059629 45.401882 0.916562 1.979884 -0.002818 0.003082 114471.000000 0 0 1
-25.616795 -34.233817 -18.782629 46.700766 0.928391 1.984705 -0.004205 0.001970 -137128.000000 0 0 1
-24.869125 34.169551 -18.328129 46.064650 -0.941645 1.979999 -0.009077 -0.000344 -591435.000000 0 0 1
-25.056925 32.846451 -19.054329 45.495124 -0.919122 2.002943 -0.007198 -0.009241 274983.000000 0 0 1
-26.366175 32.301551 -18.978429 45.812075 -0.886224 1.997934 -0.008953 -0.007311 613426.000000 0 0 1
-27.245375 32.808651 -20.039329 47.119983 -0.877772 2.010071 -0.004817 -0.004369 32240.100000 0 0 1
-28.682715 32.307351 -19.940429 47.582390 -0.844758 2.003219 -0.001765 -0.002425 -342766.000000 0 0 1
-28.840145 31.011251 -20.527429 47.061949 -0.821657 2.022144 -0.004642 -0.005006 -326021.000000 0 0 1
-30.197355 30.682451 -20.580329 47.716276 -0.793366 2.016736 0.002098 -0.005095 -428901.000000 0 0 1
-30.549625 29.355151 -21.302629 47.421583 -0.765461 2.036686 0.003963 -0.006782 -393571.000000 0 0 1
-31.911285 29.001751 -21.346729 48.115637 -0.737669 2.030469 0.012207 -0.009229 40817.200000 0 0 1
-32.056395 27.891451 -22.244829 47.962256 -0.716034 2.053074 0.005994 -0.001475 231599.000000 0 0 1
-33.489685 27.338451 -22.484929 48.729067 -0.684616 2.050400 0.011531 0.000723 293260.000000 0 0 1
-34.354738 28.062051 -23.332029 50.120957 -0.684920 2.055012 0.002721 0.008921 53274.000000 0 0 1
34.369921 27.227951 -23.966529 49.970464 0.669969 2.071011 0.003710 0.010943 -186236.000000 0 0 1
33.549960 27.816151 -25.088709 50.286991 0.692233 2.093138 0.009478 0.012011 145094.000000 0 0 1
34.322758 28.022651 -26.269339 51.511153 0.684688 2.105951 0.004988 0.011981 314660.000000 0 0 1
33.419230 28.262751 -27.345399 51.608128 0.701994 2.129239 0.027069 0.010976 474120.000000 0 0 1
34.170026 28.332351 -28.708259 52.862813 0.692269 2.144886 0.021169 0.005539 377460.000000 0 0 1
34.549064 27.021451 -29.163649 52.671767 0.663742 2.157581 0.013044 0.004446 19464.900000 0 0 1
-34.568665 27.084151 -30.473459 53.452554 -0.664592 2.177427 0.005573 0.003345 -763304.000000 0 0 1
-34.206480 25.617251 -30.953949 52.768114 -0.642797 2.197655 0.004785 0.002038 359502.000000 0 0 1
-33.139465 24.919051 -30.323139 51.368045 -0.644745 2.202241 0.003958 0.010690 1122830.000000 0 0 1
-31.830005 25.517051 -30.423129 50.890431 -0.675756 2.211571 -0.016354 0.006278 1283720.000000 0 0 1
-30.738915 25.038551 -29.380989 49.346251 -0.683553 2.208566 -0.014711 0.014367 370477.000000 0 0 1
-30.307075 23.720751 -29.638139 48.575839 -0.664091 2.227036 -0.000954 0.004397 483579.000000 0 0 1
-31.018985 22.627051 -28.939729 48.079817 -0.630224 2.216687 -0.000753 0.004855 300418.000000 0 0 1
-30.693665 21.318851 -29.684079 47.725665 -0.607071 2.242056 -0.004605 -0.002621 -673642.000000 0 0 1
-29.320545 21.053451 -29.704279 46.747047 -0.622734 2.259356 0.016091 -0.003858 -473673.000000 0 0 1
-29.112285 19.731651 -30.091349 46.285554 -0.595655 2.278544 0.012180 -0.006737 107742.000000 0 0 1
-27.643045 19.267551 -30.290459 45.308811 -0.608718 2.303031 0.013986 -0.007718 -13110.300000 0 0 1
-27.070605 19.718851 -31.495789 45.974292 -0.629548 2.325502 0.007522 -0.005915 -692862.000000 0 0 1
-25.880715 19.074551 -31.783039 45.208533 -0.635141 2.350448 0.011985 -0.005850 -735329.000000 0 0 1
-25.986355 17.634951 -32.465679 45.169707 -0.596235 2.372798 0.011302 0.002112 -230814.000000 0 0 1
-26.445505 16.631951 -31.581669 44.422836 -0.561409 2.361621 -0.000252 0.001975 7756.070000 0 0 1
-26.404805 15.367051 -32.248059 44.421811 -0.527064 2.383213 -0.005489 0.010189 -180268.000000 0 0 1
-26.858695 14.146051 -31.452959 43.712571 -0.484766 2.373937 -0.001100 0.015410 -597305.000000 0 0 1
-28.262365 14.099251 -31.432659 44.559648 -0.462743 2.353793 -0.003052 0.006794 90446.700000 0 0 1
-28.930415 12.856051 -31.097939 44.377120 -0.418169 2.347266 -0.009153 0.011628 411445.000000 0 0 1
-28.401595 12.049651 -29.861479 42.936612 -0.401243 2.339882 -0.013584 -0.009516 -466343.000000 0 0 1
-28.704745 12.824551 -28.717169 42.580598 -0.420168 2.310974 -0.020256 -0.008577 256576.000000 0 0 1
-29.001425 11.940851 -27.650339 41.811575 -0.390580 2.293358 -0.014424 -0.003809 -68442.700000 0 0 1
-28.916385 12.674051 -26.291619 41.085741 -0.413082 2.265191 -0.011369 -0.012421 351373.000000 0 0 1
-27.589125 12.925851 -25.845739 39.952968 -0.438142 2.274314 -0.001271 -0.020209 272022.000000 0 0 1
-27.564365 13.644851 -24.631829 39.404355 -0.459654 2.246061 0.002385 -0.014211 145562.000000 0 0 1
-26.121225 14.030251 -24.235729 38.295390 -0.492901 2.256041 0.013549 -0.009194 -258792.000000 0 0 1
-25.319465 14.878651 -25.092889 38.627745 -0.531279 2.277865 0.032240 -0.010860 214995.000000 0 0 1
-23.960825 14.899151 -24.751229 37.533041 -0.556304 2.290886 0.022087 -0.014176 -88242.800000 0 0 1
-23.653925 15.589551 -23.360529 36.718614 -0.582724 2.260364 0.026436 -0.010328 -1393980.000000 0 0 1
-23.820825 16.989051 -23.406729 37.469114 -0.619531 2.245536 0.037836 -0.015745 42445.700000 0 0 1
-23.999025 17.419651 -22.120529 36.996152 -0.627864 2.211693 0.041909 -0.013290 194235.000000 0 0 1
-25.461605 17.542251 -21.597429 37.715685 -0.603284 2.180516 0.040333 -0.013682 49371.700000 0 0 1
-26.173075 16.317651 -21.570829 37.637698 -0.557485 2.181102 0.034202 -0.002869 -37800.800000 0 0 1
-27.440975 16.653051 -21.028629 38.373617 -0.545454 2.150764 0.028754 -0.002333 -612070.000000 0 0 1
-28.475765 15.524351 -21.104129 38.694430 -0.499133 2.147668 0.003020 -0.004274 224514.000000 0 0 1
-29.205695 15.295751 -22.312829 39.809484 -0.482447 2.165774 0.001786 -0.006249 604313.000000 0 0 1
-30.078335 16.310751 -22.788929 41.110609 -0.496894 2.158357 -0.005868 -0.004750 -249566.000000 0 0 1
-30.551705 16.131151 -24.265629 42.218971 -0.485792 2.183103 -0.009149 -0.007531 605589.000000 0 0 1
-31.688205 15.250351 -24.466729 42.840826 -0.448546 2.178651 -0.003531 -0.000922 1031620.000000 0 0 1
-32.145585 15.297751 -25.844619 43.992092 -0.444174 2.198742 -0.007447 -0.000774 179876.000000 0 0 1
-33.414965 14.458151 -26.147249 44.824956 -0.408362 2.193605 -0.008651 0.001758 -40325.200000 0 0 1
-33.375945 13.056551 -26.407549 44.517254 -0.372894 2.205822 -0.016735 -0.001772 117868.000000 0 0 1
-32.998885 12.296751 -25.195819 43.300875 -0.356701 2.191832 -0.026270 -0.002014 -32849.800000 0 0 1
-32.839205 10.801851 -25.550589 42.987510 -0.317784 2.207281 -0.022806 -0.004429 550885.000000 0 0 1
-34.095365 10.169951 -25.828399 43.966215 -0.289878 2.198713 -0.014307 0.000516 613743.000000 0 0 1
-33.870025 9.134951 -26.761349 44.122508 -0.263438 2.222477 -0.012306 0.008772 1043420.000000 0 0 1
34.478010 8.293951 -27.116619 44.641167 0.236072 2.223624 0.005589 0.010996 1027430.000000 0 0 1
33.951446 7.726351 -25.947909 43.424546 0.223760 2.211226 -0.000536 0.012927 -172563.000000 0 0 1
32.945190 6.815751 -26.356489 42.737624 0.204004 2.235346 0.007146 0.011911 -48729.500000 0 0 1
32.175590 6.140251 -25.232989 41.348217 0.188568 2.227180 0.005417 0.009130 -187276.000000 0 0 1
32.897670 5.089251 -24.669329 41.433476 0.153483 2.208555 0.006139 0.005177 -142119.000000 0 0 1
32.183690 4.402251 -23.663129 40.188473 0.135942 2.200375 0.015234 0.008372 -30110.300000 0 0 1
33.027650 3.292051 -22.981729 40.371068 0.099347 2.176405 0.006694 0.005864 202817.000000 0 0 1
33.347080 2.209951 -23.861929 41.064623 0.066174 2.190854 0.010054 0.005554 278167.000000 0 0 1
34.375346 1.429851 -23.269729 41.535397 0.041571 2.165470 0.017716 0.005333 327381.000000 0 0 1
-34.644110 0.305451 -24.136829 42.224332 -0.008817 2.179291 0.031563 0.007565 507791.000000 0 0 1
34.159042 -0.811949 -24.347329 41.955832 -0.023765 2.189904 0.012580 0.000166 442918.000000 0 0 1
-34.754982 -1.866649 -24.956129 42.827579 0.053657 2.192858 0.022148 0.002445 405563.000000 0 0 1
-21.995025 30.156651 27.933654 46.620744 -0.940637 0.928335 -0.011883 -0.000353 -876049.000000 0 0 1
-23.342425 30.139251 27.549634 47.034303 -0.911808 0.945010 -0.025967 0.001794 -49243.000000 0 0 1
-23.471325 29.720051 26.257294 46.082861 -0.902338 0.964553 -0.029811 0.008469 -518033.000000 0 0 1
-23.790125 28.222351 25.950084 45.120705 -0.870407 0.958038 -0.023021 0.012895 131395.000000 0 0 1
-25.025825 27.728051 26.464764 45.776856 -0.836577 0.954367 -0.013440 0.009239 292401.000000 0 0 1
-25.184545 27.654451 27.862444 46.640602 -0.832108 0.930559 -0.013307 0.000433 -1431010.000000 0 0 1
-24.731825 26.439651 28.646414 46.166388 -0.818760 0.901411 -0.004866 0.003679 1396880.000000 0 0 1
-23.305725 26.247351 28.900184 45.467581 -0.844692 0.881983 0.001368 0.007985 1354660.000000 0 0 1
-22.904625 27.064951 30.009184 46.450884 -0.868464 0.868410 -0.008051 -0.002629 -1105620.000000 0 0 1
-21.546525 26.831351 30.606174 46.053361 -0.894207 0.843864 0.007489 0.003319 -1301030.000000 0 0 1
-20.499125 27.108051 29.702664 45.136558 -0.923339 0.852554 0.011923 -0.001913 21668.000000 0 0 1
-19.253025 26.785751 30.314704 44.801080 -0.947578 0.827591 0.014458 -0.002465 178629.000000 0 0 1
-18.679825 25.367751 30.264784 43.685419 -0.936081 0.805447 0.020026 0.003686 -438025.000000 0 0 1
-17.996625 25.025551 29.052954 42.358363 -0.947346 0.814978 0.021832 0.001133 498390.000000 0 0 1
-18.823825 24.426751 28.012694 41.661896 -0.914226 0.833375 0.019771 0.005608 472902.000000 0 0 1
-18.964725 22.862851 28.117674 40.902009 -0.878325 0.812838 0.019254 0.015406 102180.000000 0 0 1
-19.520425 22.334451 29.283164 41.681872 -0.852530 0.791837 0.003564 0.008532 -210461.000000 0 0 1
-19.769725 20.995651 29.097644 40.967454 -0.815462 0.780925 0.001974 0.010888 167300.000000 0 0 1
-20.256325 20.359751 30.447354 41.855460 -0.787945 0.756212 0.000158 0.001288 29601.400000 0 0 1
-19.260425 20.482351 31.428034 42.168851 -0.816134 0.729826 0.005454 0.001508 -149509.000000 0 0 1
-19.756825 20.212751 32.681554 43.208465 -0.796804 0.713052 -0.000408 -0.001962 -165574.000000 0 0 1
-18.852725 20.772151 33.807037 43.929754 -0.833800 0.692628 0.008920 -0.010170 -143621.000000 0 0 1
-18.898725 22.199951 33.891979 44.706441 -0.865550 0.710401 0.011896 -0.014723 -146329.000000 0 0 1
-17.978725 22.982751 33.165584 44.174624 -0.906960 0.721549 0.022690 -0.000482 -314508.000000 0 0 1
-16.562325 23.184651 33.756663 44.174098 -0.950494 0.701038 0.020031 0.003820 285161.000000 0 0 1
-15.838225 21.955851 33.654231 43.191620 -0.945874 0.677433 0.020521 -0.002793 -218631.000000 0 0 1
-14.508725 22.122151 34.110108 43.167026 -0.990322 0.659679 0.009600 -0.001204 201039.000000 0 0 1
-13.634325 20.810151 33.926862 42.071239 -0.990791 0.632733 0.008987 0.003004 620166.000000 0 0 1
-12.316325 20.827551 34.453724 42.101519 -1.036763 0.612264 -0.006569 0.009409 289450.000000 0 0 1
-12.165425 20.863951 -33.439459 41.249236 -1.042908 2.516089 -0.002660 0.004481 -1040310.000000 0 0 1
-10.726225 20.675751 -33.010979 40.401279 -1.092236 2.527120 -0.015151 0.001629 -249302.000000 0 0 1
-9.873925 21.746051 -33.455929 41.105770 -1.144575 2.521627 -0.029553 0.005724 -266022.000000 0 0 1
-8.542025 21.542651 -33.075909 40.386480 -1.193296 2.530436 -0.038928 0.013068 -209325.000000 0 0 1
-7.626825 22.785751 -33.199659 40.982634 -1.247799 2.515103 -0.037578 0.011661 -6952.200000 0 0 1
-7.904525 23.823051 -32.251469 40.867793 -1.250425 2.480246 -0.027333 0.013962 150368.000000 0 0 1
-7.530225 23.546451 -30.909979 39.579874 -1.261272 2.466985 -0.025187 0.008760 -153780.000000 0 0 1
-7.319025 24.828551 -30.087079 39.689513 -1.284133 2.431131 -0.028986 0.008590 -14747.300000 0 0 1
-6.202625 25.542851 -30.572789 40.318795 -1.332575 2.431461 -0.027480 0.010420 20991.300000 0 0 1
-5.927225 26.661851 -29.704029 40.352393 -1.352043 2.398110 -0.014967 0.018063 107811.000000 0 0 1
-4.603225 27.321651 -30.153549 40.949955 -1.403881 2.398458 -0.010713 0.015235 -424359.000000 0 0 1
-3.450625 26.554051 -29.970199 40.190015 -1.441573 2.412400 -0.010915 0.012096 256477.000000 0 0 1
-2.235925 27.048651 -30.524759 40.845928 -1.488321 2.414808 -0.004853 0.011012 975911.000000 0 0 1
-1.585925 28.416751 -29.992869 41.347299 -1.515045 2.382395 -0.000239 0.002241 -289653.000000 0 0 1
-1.043925 28.266451 -28.694509 40.292144 -1.533882 2.363369 0.001120 -0.001813 244092.000000 0 0 1
-0.465125 29.449551 -28.193439 40.772079 -1.555004 2.334344 -0.002467 -0.002404 -918437.000000 0 0 1
0.035175 29.400551 -26.763969 39.758064 1.569600 2.309285 0.000548 0.001208 374846.000000 0 0 1
1.182475 28.618351 -26.426829 38.971599 1.529501 2.315977 0.000601 0.000452 75977.000000 0 0 1
2.378175 29.143351 -26.944589 39.761810 1.489374 2.315359 -0.004141 0.004138 -1170680.000000 0 0 1
3.482575 28.995851 -25.900189 39.034696 1.451263 2.296306 -0.005835 0.003315 -400606.000000 0 0 1
4.162875 27.747651 -25.791969 38.111512 1.421881 2.314136 -0.006837 0.009880 115313.000000 0 0 1
4.818075 27.663751 -24.570429 37.312236 1.398360 2.289632 -0.007390 0.018664 -484364.000000 0 0 1
5.594975 26.376051 -24.213129 36.239142 1.361771 2.302514 0.001553 0.018378 148727.000000 0 0 1
6.123275 26.566151 -22.869729 35.584820 1.344261 2.268790 0.009272 0.018906 -121285.000000 0 0 1
6.897575 25.548151 -22.330929 34.625929 1.307100 2.271714 0.017489 0.014957 747252.000000 0 0 1
8.419875 25.927351 -22.261829 35.195324 1.256792 2.255602 0.006410 0.023488 -73056.300000 0 0 1
8.766175 26.791251 -21.189629 35.264959 1.254573 2.215384 0.010721 0.028198 41103.700000 0 0 1
10.150475 26.901951 -20.924029 35.560682 1.209999 2.199879 0.009883 0.021694 628529.000000 0 0 1
10.930375 25.607451 -20.387529 34.508926 1.167365 2.202834 -0.003896 0.027562 -53091.900000 0 0 1
11.034475 24.614851 -21.357529 34.406316 1.149369 2.240488 -0.011899 0.023747 -5952.410000 0 0 1
11.599475 23.395851 -20.855329 33.419432 1.110521 2.244709 -0.003890 0.023617 -173742.000000 0 0 1
11.652375 22.305751 -21.931629 33.381443 1.089395 2.287630 -0.005749 0.019184 -644482.000000 0 0 1
10.456275 21.691951 -22.298229 32.818980 1.121624 2.317783 -0.003475 0.014964 -677701.000000 0 0 1
10.640275 20.878051 -23.490129 33.179732 1.099467 2.357411 -0.003573 0.012447 52531.700000 0 0 1
9.938275 21.266551 -24.838829 34.176058 1.133633 2.384434 0.010244 0.010847 -385473.000000 0 0 1
8.593875 20.911851 -24.920029 33.647705 1.180880 2.404783 -0.003663 0.009552 -580687.000000 0 0 1
8.094175 21.022251 -26.266769 34.603379 1.203262 2.432697 -0.015671 0.009131 -4857.720000 0 0 1
6.584075 20.657951 -26.434949 34.189289 1.262256 2.454658 -0.004504 0.002078 352793.000000 0 0 1
5.733475 21.644951 -25.896009 34.234192 1.311856 2.428645 0.002255 0.005161 -188045.000000 0 0 1
5.610075 21.745651 -24.512429 33.244631 1.318316 2.399913 0.008978 0.010087 -561260.000000 0 0 1
4.122975 21.993051 -24.150229 32.923043 1.385480 2.394306 0.020400 0.007278 284249.000000 0 0 1
3.607775 23.310951 -24.099729 33.722595 1.417247 2.366915 0.014299 0.013327 -67244.600000 0 0 1
2.199375 23.311251 -24.124229 33.618895 1.476727 2.371117 0.016860 0.004560 36857.000000 0 0 1
1.542575 24.728251 -23.966829 34.471363 1.508496 2.339589 0.008917 0.009835 652319.000000 0 0 1
0.376975 24.988951 -24.771929 35.188610 1.555712 2.351776 0.004894 -0.003721 522175.000000 0 0 1
0.573575 25.298151 -26.119329 36.366809 1.548128 2.372035 0.006660 -0.006502 -18014.500000 0 0 1
-0.764425 25.385751 -26.896939 36.992784 -1.540693 2.384864 0.014061 -0.007484 267786.000000 0 0 1
-1.236125 24.070451 -27.222369 36.358933 -1.519487 2.416913 0.018560 -0.011621 932436.000000 0 0 1
-2.417825 24.248051 -28.079229 37.178717 -1.471413 2.426832 0.015937 -0.006293 1095370.000000 0 0 1
-3.242825 22.985951 -28.286559 36.592339 -1.430643 2.454382 0.007571 -0.011686 -864436.000000 0 0 1
-2.565525 22.044751 -29.027149 36.539408 -1.454939 2.488826 0.018961 -0.005467 -481046.000000 0 0 1
-3.322625 20.938451 -29.452269 36.289044 -1.413423 2.517686 0.004808 -0.003205 -31359.500000 0 0 1
-4.446225 21.210351 -30.495389 37.411451 -1.364163 2.523759 -0.013548 -0.000913 -24497.700000 0 0 1
-4.060425 21.301251 -31.869459 38.547280 -1.382437 2.544125 -0.004194 0.005309 -52218.800000 0 0 1
-3.401225 22.518251 -32.152809 39.401054 -1.420886 2.525321 -0.007851 0.003655 -84017.500000 0 0 1
-3.070625 22.672451 -33.661379 40.700826 -1.436181 2.544625 -0.014425 0.007615 -384405.000000 0 0 1
-2.059525 21.782351 -33.993959 40.426498 -1.476526 2.569709 -0.004472 0.011061 -293907.000000 0 0 1
-1.635825 21.969051 33.982565 40.498517 -1.496473 0.575158 -0.005076 0.017102 577976.000000 0 0 1
-0.577325 20.889051 33.526292 39.505671 -1.543166 0.557378 0.008876 0.022382 685782.000000 0 0 1
-1.167425 19.671751 33.110534 38.531132 -1.511521 0.536860 0.003659 0.032638 688571.000000 0 0 1
-0.093025 18.894551 32.564614 37.649260 -1.565873 0.525752 0.022947 0.020803 574269.000000 0 0 1
-0.436625 17.432451 32.225044 36.640612 -1.545755 0.496007 0.010192 0.022719 -35569.600000 0 0 1
-1.182825 17.384851 31.023774 35.582393 -1.502863 0.511757 0.002505 0.019961 69491.100000 0 0 1
-1.600325 16.064251 30.722854 34.706123 -1.471504 0.483811 0.001954 0.018932 437040.000000 0 0 1
-2.765225 16.044151 29.651324 33.826946 -1.400122 0.502130 0.012446 0.013468 531375.000000 0 0 1
-4.022825 16.482951 30.103744 34.555842 -1.331416 0.513232 -0.002227 0.003933 -190731.000000 0 0 1
-4.329125 17.843351 29.832964 35.030448 -1.332777 0.551710 -0.000974 0.006257 602152.000000 0 0 1
-5.860025 18.178151 29.904754 35.483509 -1.258948 0.568371 -0.006985 0.000158 787555.000000 0 0 1
-6.509725 17.617351 28.782214 34.368058 -1.216851 0.578159 -0.018435 -0.001077 392743.000000 0 0 1
-7.879825 18.045551 28.757644 34.853058 -1.159089 0.600398 -0.022211 0.015871 630340.000000 0 0 1
-8.925625 17.138351 28.025594 34.041501 -1.090649 0.603636 -0.017751 0.000933 200877.000000 0 0 1
-9.263725 15.893951 28.540884 33.956095 -1.043086 0.572548 -0.007720 -0.010880 30934.900000 0 0 1
-9.692025 15.902751 29.914974 35.238310 -1.023453 0.556833 -0.013314 -0.008376 -518335.000000 0 0 1
-10.244725 14.492151 30.356094 35.163465 -0.955444 0.529054 -0.001540 -0.022533 60346.200000 0 0 1
-9.299325 13.399151 30.350784 34.455548 -0.964093 0.493104 0.008819 -0.015486 315311.000000 0 0 1
-8.432325 13.452051 31.481474 35.258261 -1.010873 0.467090 0.000473 -0.007659 -74964.200000 0 0 1
-8.998525 13.089551 32.948484 36.577485 -0.968537 0.449220 0.010696 -0.015199 -257028.000000 0 0 1
-9.065325 11.681551 33.061704 36.217607 -0.910838 0.420554 0.010587 -0.011952 258147.000000 0 0 1
-9.482225 11.284451 34.322111 37.353162 -0.871966 0.405629 0.000691 -0.007001 -443512.000000 0 0 1
-9.773925 9.804551 34.391592 37.073447 -0.786962 0.382697 0.008623 -0.000117 -563591.000000 0 0 1
-8.676625 8.921751 34.325459 36.511897 -0.799326 0.347823 0.006784 0.006769 -76996.800000 0 0 1
-8.321725 8.349751 -33.701449 35.703741 -0.787079 2.805102 0.013321 0.000467 60521.800000 0 0 1
-7.457925 9.234651 -32.756619 34.841003 -0.891437 2.793938 0.018095 -0.000556 -267912.000000 0 0 1
-8.153125 10.308851 -32.132269 34.716402 -0.901638 2.753320 0.017369 -0.000364 71770.800000 0 0 1
-7.310025 11.053451 -31.287829 33.978574 -0.986495 2.740950 0.011971 0.009125 -73194.900000 0 0 1
-6.604925 12.229151 -32.014569 34.901430 -1.075588 2.732005 -0.015286 0.013660 472266.000000 0 0 1
-7.409625 13.433651 -32.195599 35.664017 -1.066747 2.696910 -0.014339 0.010199 650522.000000 0 0 1
-6.623725 14.396551 -32.865729 36.486855 -1.139582 2.692302 -0.023605 0.013022 -6241.120000 0 0 1
-7.351925 15.712851 -33.197379 37.456781 -1.133163 2.660057 -0.030090 0.011414 -467082.000000 0 0 1
-8.296025 15.731951 -34.238250 38.582069 -1.085520 2.662500 -0.018839 0.004399 -127652.000000 0 0 1
-8.596025 17.055551 -34.411412 39.356432 -1.103953 2.634897 -0.016884 0.005948 -847611.000000 0 0 1
-9.152625 17.398451 33.502537 38.844519 -1.086519 0.530651 -0.014677 -0.000135 965617.000000 0 0 1
-10.306225 16.703251 32.997574 38.393447 -1.017957 0.536587 -0.004534 -0.007206 495155.000000 0 0 1
-11.517625 16.868951 33.695767 39.403324 -0.971728 0.544955 -0.001301 -0.008237 -907254.000000 0 0 1
-12.678025 16.425951 32.790164 38.803854 -0.913470 0.564187 -0.006914 -0.005927 -442892.000000 0 0 1
-12.597725 15.068751 32.436424 37.919540 -0.874477 0.544471 0.000347 -0.008590 -56139.000000 0 0 1
-13.510525 14.300751 33.147164 38.545820 -0.813804 0.535641 0.012537 -0.010213 -399302.000000 0 0 1
-13.205925 12.799051 32.925934 37.713781 -0.769753 0.509378 0.010866 -0.010287 293126.000000 0 0 1
-13.540025 12.454351 31.606344 36.570536 -0.743657 0.527125 -0.006781 -0.012026 585802.000000 0 0 1
-12.412325 11.676951 31.196724 35.547892 -0.754881 0.499970 -0.000213 -0.013421 391396.000000 0 0 1
-12.516625 11.003251 29.834704 34.173777 -0.721142 0.509417 -0.000220 -0.016229 -104570.000000 0 0 1
-13.346025 9.855851 29.741784 34.056246 -0.636091 0.508833 -0.007199 -0.009984 151399.000000 0 0 1
-13.676625 9.519151 28.406314 32.933008 -0.608047 0.530511 -0.016526 0.000699 -66145.700000 0 0 1
-14.630825 8.343451 28.438404 33.051733 -0.518269 0.534701 -0.011605 0.005236 -378097.000000 0 0 1
-13.922725 7.184451 28.779374 32.767529 -0.476384 0.498524 -0.022862 0.005821 -441489.000000 0 0 1
-14.688725 6.037151 28.796794 32.885577 -0.389958 0.503982 -0.018733 0.012858 -87734.100000 0 0 1
-13.888325 4.650651 28.856554 32.360699 -0.323124 0.469674 -0.016644 0.011334 262344.000000 0 0 1
-12.986825 4.434051 27.797774 31.000559 -0.329017 0.458571 -0.010865 0.007591 -221680.000000 0 0 1
-13.548425 4.056751 26.574854 30.103819 -0.290930 0.489063 -0.009430 0.013590 -234329.000000 0 0 1
-12.548425 4.225851 25.379214 28.625606 -0.324835 0.480873 0.000084 0.016256 55112.900000 0 0 1
-11.588525 3.198451 25.360674 28.065776 -0.269297 0.442660 -0.007130 0.015007 -131597.000000 0 0 1
-11.245925 2.678151 24.095084 26.724827 -0.233789 0.447344 -0.006595 0.011475 169216.000000 0 0 1
-10.213325 1.514851 24.066884 26.188198 -0.147248 0.405267 -0.013315 0.011588 1471030.000000 0 0 1
-8.818425 1.872351 24.250424 25.871865 -0.209216 0.355915 -0.011232 0.001746 1148230.000000 0 0 1
-8.035325 0.773851 24.654034 25.941987 -0.096010 0.316429 -0.008590 0.009879 277210.000000 0 0 1
-6.521425 1.110851 24.587434 25.461832 -0.168719 0.262830 0.000419 0.003375 -363571.000000 0 0 1
-6.086425 1.155251 23.209984 24.022542 -0.187577 0.260834 -0.002604 0.006674 538997.000000 0 1 0
-4.722525 1.541851 23.010684 23.540840 -0.315578 0.212630 -0.002933 0.003471 503040.000000 0 1 0
-4.294825 2.946251 23.409684 23.982060 -0.601268 0.218917 0.008989 -0.005048 -954848.000000 0 1 0
-4.075125 2.875351 24.791884 25.288571 -0.614465 0.198521 0.010704 -0.005603 -264400.000000 0 0 1
-3.899625 4.136051 25.312874 25.943315 -0.814812 0.220906 0.010625 -0.009346 -81933.100000 0 0 1
4.068075 -23.659349 13.027671 27.313627 -1.400518 1.073597 0.002847 0.003492 224109.000000 0 0 1
3.765175 -24.965349 13.545571 28.651835 -1.421108 1.078371 -0.007041 -0.002103 -196566.000000 0 0 1
2.467475 -25.431969 13.223771 28.770498 -1.474076 1.093218 -0.012265 -0.002747 306593.000000 0 0 1
2.181775 -26.762599 13.986571 30.275749 -1.489453 1.090578 -0.021237 -0.003860 -44659.600000 0 0 1
2.207175 -26.713189 15.420671 30.923505 -1.488359 1.048731 -0.024941 -0.014602 -66972.800000 0 0 1
2.371175 -27.996259 15.953871 32.310044 -1.486302 1.054372 -0.025696 -0.018979 -104654.000000 0 0 1
1.945875 -28.107869 17.465771 33.149538 -1.501678 1.015873 -0.027551 -0.022510 77040.500000 0 0 1
2.988375 -27.728709 18.337171 33.377590 -1.463439 0.989167 -0.029035 -0.016682 135237.000000 0 0 1
2.531075 -27.752299 19.645271 34.095940 -1.479846 0.956754 -0.031151 -0.014461 127082.000000 0 0 1
3.205175 -26.755949 20.624771 33.934276 -1.451571 0.917527 -0.028094 -0.006619 459413.000000 0 0 1
2.332475 -25.632469 20.848471 33.122842 -1.480049 0.889978 -0.036781 -0.006213 538855.000000 0 0 1
3.080975 -24.794749 21.661671 33.068111 -1.447171 0.856531 -0.014706 -0.002584 41231.400000 0 0 1
2.297675 -23.586849 22.195871 32.469608 -1.473689 0.818127 -0.006290 0.001607 -270364.000000 0 0 1
1.947375 -22.521149 21.329571 31.079656 -1.484542 0.814424 -0.013123 -0.001031 73033.700000 0 0 1
2.993775 -21.832549 20.633671 30.188926 -1.434522 0.818270 -0.008183 0.009976 -41933.800000 0 0 1
2.618475 -20.528549 19.925271 28.727933 -1.443929 0.804342 -0.011930 0.006418 -100354.000000 0 0 1
2.438575 -19.469949 20.868571 28.644769 -1.446197 0.754623 -0.015987 0.008516 76190.600000 0 0 1
1.419175 -18.649249 20.311271 27.610800 -1.494844 0.744203 -0.024242 0.005401 280391.000000 0 0 1
1.136275 -17.391549 21.145771 27.402568 -1.505554 0.689332 -0.015448 0.009636 568376.000000 0 0 1
2.142075 -16.409949 20.871971 26.636705 -1.440995 0.670390 -0.021222 0.019767 575764.000000 0 0 1
1.635575 -15.176349 21.295071 26.200701 -1.463439 0.621910 -0.013246 0.017854 683618.000000 0 0 1
2.688675 -14.062249 20.984271 25.403060 -1.381878 0.598728 -0.013412 0.013029 -267179.000000 0 0 1
2.808675 -13.709249 19.598771 24.082026 -1.368718 0.620077 -0.013512 0.014009 -450838.000000 0 1 0
1.747675 -13.296549 18.766271 23.065678 -1.440107 0.620476 -0.004224 0.018735 -446377.000000 0 1 0
1.040475 -12.049049 19.328071 22.799923 -1.484657 0.559114 -0.008388 0.018827 -691966.000000 0 1 0
1.848475 -10.904149 19.247771 22.198964 -1.402872 0.521532 -0.004862 0.020412 -256662.000000 0 1 0
1.505075 -9.894749 20.178571 22.524343 -1.419845 0.460442 -0.002764 0.004300 -182174.000000 0 1 0
0.189675 -9.112449 20.025871 22.002459 -1.549984 0.427114 0.004275 -0.008858 262879.000000 0 1 0
-0.122725 -8.182149 21.090171 22.622068 1.555798 0.370122 0.003917 -0.008707 84052.600000 0 1 0
-1.486425 -7.779249 21.139271 22.574210 1.381996 0.358470 0.002299 -0.007750 381622.000000 0 1 0
-1.843725 -6.980449 22.386171 23.521621 1.312566 0.311981 -0.000072 -0.005393 -461203.000000 0 1 0
-2.043825 -7.851449 23.416771 24.782406 1.316136 0.333523 -0.007097 0.002666 -86738.000000 0 1 0
-1.978025 -7.199649 24.655271 25.761016 1.302673 0.294054 0.000844 0.015009 -290578.000000 0 0 1
-2.091925 -8.114249 25.925271 27.245860 1.318482 0.312621 -0.005539 0.015087 540023.000000 0 0 1
-0.916125 -8.908449 26.052171 27.548419 1.468319 0.331096 -0.003436 0.014462 317509.000000 0 0 1
-1.090225 -9.824549 27.100171 28.846657 1.460279 0.349756 -0.001908 0.009661 495435.000000 0 0 1
0.143775 -10.791749 27.150671 29.217143 -1.557474 0.378359 0.001946 0.013236 805477.000000 0 0 1
1.199175 -10.301049 27.970471 29.831139 -1.454905 0.355057 0.000290 0.013670 590395.000000 0 0 1
2.081075 -11.365449 28.449171 30.706020 -1.389697 0.385790 0.004117 0.004021 828610.000000 0 0 1
2.933575 -10.870949 29.658571 31.724032 -1.307220 0.362839 0.002433 0.003589 310174.000000 0 0 1
2.218875 -10.916049 30.892971 32.839902 -1.370261 0.346066 -0.005983 0.003703 37329.600000 0 0 1
2.787675 -10.058349 31.817571 33.485808 -1.300432 0.316981 -0.006459 0.008556 -388525.000000 0 0 1
2.251175 -10.185349 33.282671 34.879010 -1.353272 0.303715 -0.017356 0.010323 -366917.000000 0 0 1
2.574775 -11.407349 33.908571 35.868486 -1.348804 0.332104 -0.026632 0.005160 239448.000000 0 0 1
2.164875 -11.348749 -34.043541 35.950570 -1.382302 2.814418 -0.026942 0.002120 -607759.000000 0 0 1
3.055475 -10.615149 -33.020741 34.819343 -1.290532 2.818773 -0.032814 0.008264 -413414.000000 0 0 1
2.896275 -9.218749 -33.035041 34.419292 -1.266389 2.857024 -0.030796 0.007687 397284.000000 0 0 1
3.752575 -8.591549 -32.074841 33.416941 -1.158994 2.857220 -0.029822 0.010953 -303950.000000 0 0 1
3.362675 -7.179949 -31.660841 32.638445 -1.132794 2.896222 -0.040879 0.011994 -314958.000000 0 0 1
3.547075 -6.265249 -32.753541 33.535497 -1.055638 2.925221 -0.031497 0.011447 65243.000000 0 0 1
3.460075 -5.004249 -32.209841 32.779391 -0.965847 2.954907 -0.030395 0.009940 59136.600000 0 0 1
3.584475 -3.893849 -33.289741 33.707824 -0.826744 2.983929 -0.027380 0.012731 264907.000000 0 0 1
2.488975 -3.811549 -34.194241 34.495928 -0.992309 3.009242 -0.020670 0.005987 -21224.500000 0 0 1
2.560975 -2.694549 34.261371 34.462454 -0.810809 0.108079 0.002435 0.007722 -23286.800000 0 0 1
1.883175 -2.897149 32.857571 33.038762 -0.994414 0.104778 0.013025 -0.000204 745228.000000 0 0 1
0.456775 -2.954749 32.914371 33.049887 -1.417420 0.090588 0.013716 -0.001648 23559.200000 0 0 1
0.158875 -3.431649 31.619571 31.805640 -1.524532 0.108221 0.013020 0.008299 -817788.000000 0 0 1
-1.302225 -3.592749 31.270571 31.503210 1.223065 0.121604 0.017559 -0.003586 -911448.000000 0 0 1
-1.970925 -2.362549 31.008771 31.161035 0.875525 0.098897 0.029412 -0.006130 -371117.000000 0 0 1
-3.332125 -2.708249 31.131071 31.425806 0.682479 0.137065 0.016597 -0.005782 -344962.000000 0 0 1
-4.365225 -1.715049 30.628671 30.985676 0.374361 0.151946 0.024617 0.000328 -476946.000000 0 0 1
-4.296625 -1.737649 29.219371 29.584659 0.384312 0.157307 0.015136 0.003853 317791.000000 0 0 1
-5.266625 -0.937949 28.524171 29.021465 0.176245 0.185389 0.011253 -0.001127 448043.000000 0 0 1
-5.395325 0.582051 28.799471 29.306277 -0.107465 0.186244 0.020009 -0.000319 171520.000000 0 0 1
-6.309925 0.964551 29.829471 30.504801 -0.151688 0.210811 0.023674 0.004924 -65879.400000 0 0 1
-6.744925 2.263951 29.654571 30.496116 -0.323836 0.235470 0.025897 -0.004902 -829596.000000 0 0 1
-8.195325 2.644451 29.934071 31.148116 -0.312130 0.280116 0.021847 -0.005386 -924989.000000 0 0 1
-8.982725 2.063251 28.932371 30.364922 -0.225775 0.308394 0.010634 0.004251 -103077.000000 0 0 1
-10.320625 2.508151 29.192571 31.064648 -0.238402 0.348939 -0.011925 0.008983 -280344.000000 0 0 1
-11.238725 1.798251 28.232071 30.439982 -0.158660 0.383217 -0.013994 0.014674 -921905.000000 0 0 1
-11.387025 0.455151 28.618071 30.803661 -0.039950 0.378966 -0.016213 0.016955 -10153.600000 0 0 1
-11.912425 -0.326749 27.581071 30.045434 0.027422 0.407842 -0.011852 0.023171 -851226.000000 0 0 1
-11.953625 -1.796849 28.005571 30.502948 0.149201 0.407469 -0.010536 0.012558 194102.000000 0 0 1
-10.738225 -2.446049 28.330971 30.396325 0.223967 0.370759 -0.004605 0.005003 237324.000000 0 0 1
-9.609725 -2.463949 27.485571 29.221131 0.250995 0.346385 -0.013519 0.009726 -247126.000000 0 0 1
-9.703825 -3.157849 26.084871 28.009940 0.314614 0.372908 -0.010898 0.015632 -412481.000000 0 0 1
-10.604925 -2.552649 25.148571 27.412243 0.236211 0.409246 -0.011792 0.020608 433399.000000 0 0 1
-10.492025 -3.181249 23.881471 26.277892 0.294396 0.430386 -0.006521 0.017323 -513054.000000 0 0 1
-9.472625 -2.663249 22.868171 24.895316 0.274077 0.406341 -0.000728 0.016117 1035090.000000 0 1 0
-8.111125 -2.817249 23.338071 24.867505 0.334295 0.352546 -0.002189 0.013279 920445.000000 0 1 0
-7.202625 -2.677249 22.250371 23.539849 0.355878 0.332524 -0.002829 0.012492 335661.000000 0 1 0
-5.694925 -2.669749 22.647271 23.504438 0.438373 0.270895 0.004056 0.006223 756477.000000 0 1 0
-5.031525 -3.975549 22.679671 23.568808 0.668692 0.275553 0.005905 0.004368 205762.000000 0 1 0
-5.595125 -4.906749 23.573971 24.720715 0.719944 0.305781 0.006953 0.007533 -506343.000000 0 1 0
-5.359525 -6.347849 23.144571 24.590463 0.869617 0.344628 0.004683 0.008079 -217084.000000 0 1 0
-6.128425 -6.831149 22.015071 23.851322 0.839569 0.394958 0.005586 -0.006394 90656.500000 0 1 0
-5.941225 -6.275849 20.721971 22.451827 0.812781 0.395114 0.016942 -0.015951 -396041.000000 0 1 0
-7.148625 -6.420949 19.759871 21.972345 0.731824 0.452615 0.024738 -0.013059 683009.000000 0 1 0
-8.225825 -5.535249 20.149871 22.457081 0.592313 0.457269 0.021874 -0.004512 63942.600000 0 1 0
-9.077325 -5.245249 19.084371 21.774382 0.523967 0.502337 0.020034 -0.005387 151368.000000 0 1 0
-9.709125 -3.879149 19.377871 22.018556 0.380107 0.494787 0.009407 -0.001514 66899.800000 0 1 0
-8.762925 -2.869849 19.097871 21.207394 0.316490 0.449812 0.008813 0.001186 -33976.000000 0 1 0
-9.360925 -1.586649 19.055371 21.289705 0.167901 0.462251 0.000550 -0.004146 -331178.000000 0 1 0
-8.419425 -0.447849 18.597171 20.419159 0.053142 0.425650 0.000960 0.002299 1353640.000000 0 1 0
-7.261625 -0.150149 19.463771 20.774796 0.020674 0.357160 -0.001323 0.012449 1738760.000000 0 1 0
-7.667825 0.701551 20.559071 21.953659 -0.091239 0.358353 0.008210 0.015403 7424.340000 0 1 0
-7.446625 2.190351 20.360671 21.790062 -0.286072 0.364221 -0.005666 0.007148 -225101.000000 0 1 0
-8.241925 2.643951 19.306771 21.158243 -0.310422 0.421456 -0.014790 -0.005332 130840.000000 0 1 0
-8.045825 4.030451 19.085271 21.100413 -0.464397 0.440596 -0.020792 -0.002104 -99987.100000 0 1 0
-8.960725 4.401451 17.901971 20.497511 -0.456578 0.508711 -0.013443 -0.002811 -1024150.000000 0 1 0
-10.256525 4.646451 18.318671 21.502547 -0.425366 0.551136 -0.015761 0.004870 -665308.000000 0 1 0
-11.161725 4.986551 17.258271 21.149415 -0.420152 0.616311 -0.010265 0.006757 310470.000000 0 1 0
-11.310625 6.488251 16.972871 21.403411 -0.520813 0.655081 -0.012224 0.007591 -540029.000000 0 1 0
-10.089125 7.164351 16.767571 20.839142 -0.617477 0.635763 -0.022717 0.007205 68762.600000 0 1 0
-10.313425 8.531851 16.732671 21.427588 -0.691141 0.674701 -0.024488 0.005595 -414401.000000 0 1 0
-8.995025 9.276251 16.770371 21.170845 -0.800789 0.656481 -0.028259 0.009624 -761308.000000 0 1 0
-8.334625 9.317351 18.002971 21.917710 -0.841013 0.606954 -0.020698 0.013182 143505.000000 0 1 0
-7.312425 10.318351 18.088571 22.071166 -0.954268 0.610159 -0.022788 0.010505 176676.000000 0 1 0
-7.769225 11.796451 17.966071 22.853815 -0.988394 0.666274 -0.027892 0.016456 -220846.000000 0 1 0
-7.708325 12.163651 16.589271 21.967627 -1.005952 0.714884 -0.036269 0.011437 257908.000000 0 1 0
-8.440725 13.381251 16.363471 22.761084 -1.008046 0.768544 -0.023896 0.008811 178577.000000 0 1 0
-8.504225 13.866651 14.880271 22.046051 -1.020665 0.829882 -0.015936 0.005472 -73807.000000 0 1 0
-7.255425 14.335751 14.458371 21.614797 -1.102275 0.838054 -0.010663 0.002144 -393234.000000 0 1 0
-7.379325 15.028651 13.238271 21.344007 -1.114361 0.901756 -0.008784 -0.013743 68254.800000 0 1 0
-6.615425 16.353051 13.292771 22.088094 -1.186384 0.925034 -0.005841 -0.005259 1372200.000000 0 1 0
-5.182525 16.284251 13.104471 21.535148 -1.262678 0.916608 -0.003614 -0.005128 619031.000000 0 1 0
-4.568825 17.483451 13.448171 22.525509 -1.315190 0.931015 0.004081 -0.009538 1177340.000000 0 1 0
-2.982425 17.492351 13.400371 22.236168 -1.401921 0.923993 0.005845 -0.010256 1403210.000000 0 1 0
-2.319325 16.830851 14.472171 22.318167 -1.433857 0.865252 0.005640 -0.012633 -159437.000000 0 1 0
-2.347925 15.388251 14.483171 21.262015 -1.419385 0.821429 0.008404 -0.011203 -585655.000000 0 1 0
-1.725125 14.673251 15.650471 21.522491 -1.453764 0.756609 -0.007567 -0.008618 -256891.000000 0 1 0
-0.321025 14.737951 15.581371 21.449695 -1.549018 0.757706 0.000652 -0.001247 -612588.000000 0 1 0
0.278775 13.805651 16.424471 21.457795 1.550606 0.699085 0.004003 -0.000704 644191.000000 0 1 0
1.599075 14.302951 17.104971 22.354228 1.459458 0.699478 -0.004146 -0.009049 632379.000000 0 1 0
1.293975 15.320651 18.055071 23.714602 1.486537 0.705406 0.003705 -0.009482 -426616.000000 0 1 0
2.339075 16.235651 18.165771 24.475761 1.427711 0.734458 0.002242 -0.014311 -901909.000000 0 1 0
1.834775 17.604251 18.722371 25.764380 1.466948 0.757325 0.002024 -0.005390 233105.000000 0 0 1
1.126075 18.408651 17.779171 25.617288 1.509702 0.803724 0.005996 -0.001265 155347.000000 0 0 1
-0.204825 17.909851 17.657671 25.151503 -1.559360 0.792521 0.005628 0.001859 -515753.000000 0 0 1
-1.108525 18.760951 16.729571 25.161095 -1.511778 0.843439 0.001420 -0.005853 -116270.000000 0 0 1
-1.618725 19.980751 17.277771 26.464544 -1.489959 0.859436 -0.000129 0.002530 -307246.000000 0 0 1
-2.232725 20.627851 16.219171 26.335429 -1.462978 0.907308 -0.000051 -0.003708 -416344.000000 0 0 1
-2.796825 22.012551 16.654471 27.744298 -1.444418 0.926940 0.000095 -0.000856 -814357.000000 0 0 1
-3.974925 21.981251 17.418671 28.326411 -1.391897 0.908503 -0.002012 0.010159 -242245.000000 0 0 1
-4.431225 23.174051 18.034171 29.696864 -1.381862 0.918170 -0.001689 0.004054 25502.900000 0 0 1
-5.494025 22.962051 19.147371 30.398387 -1.335946 0.889396 -0.008474 0.013736 75114.500000 0 0 1
-6.749125 22.509651 18.689971 30.025824 -1.279493 0.898910 -0.008829 0.009465 -135831.000000 0 0 1
-7.562025 22.192851 19.824671 30.703819 -1.242393 0.868890 -0.014413 0.010108 -43629.600000 0 0 1
-9.044125 22.483651 19.572771 31.151311 -1.188349 0.891414 -0.008411 0.002557 -321056.000000 0 0 1
-9.440225 23.847351 19.639071 32.303361 -1.193864 0.917311 -0.003578 0.008057 -642985.000000 0 0 1
-10.575125 24.065851 18.880171 32.364477 -1.156772 0.947936 -0.008721 0.007443 -456067.000000 0 0 1
-11.206725 25.464951 19.116771 33.756561 -1.156219 0.968771 -0.007476 0.011219 -104281.000000 0 0 1
-11.851725 25.600351 20.353171 34.786391 -1.137224 0.945805 -0.006803 0.012412 206523.000000 0 0 1
-12.498925 26.877851 20.399971 35.983341 -1.135516 0.968024 -0.000771 0.018991 -145405.000000 0 0 1
-13.289525 27.210351 21.686171 37.246540 -1.116472 0.949324 0.016992 0.015973 148946.000000 0 0 1
-14.636325 26.768751 21.765071 37.476745 -1.070437 0.951132 0.014761 0.011419 323785.000000 0 0 1
-15.194325 26.888251 23.068971 38.548969 -1.056440 0.929253 0.012684 0.013075 530763.000000 0 0 1
-16.657925 26.361451 23.139171 38.830836 -1.007247 0.932414 0.020173 0.016324 387545.000000 0 0 1
-16.808325 24.993651 22.912271 37.844083 -0.978764 0.920479 0.020240 0.022572 -486772.000000 0 0 1
-18.073325 24.506251 23.257971 38.316246 -0.935344 0.918516 0.031439 0.034664 -517785.000000 0 0 1
25.972775 24.241251 23.984584 42.865879 0.750929 0.976982 -0.003880 -0.002178 -37629.000000 0 0 1
25.999875 23.474251 25.139724 43.116582 0.734393 0.948301 -0.000504 -0.008591 299789.000000 0 0 1
25.695975 22.145851 24.793634 42.017212 0.711328 0.939635 -0.005456 -0.001256 -400962.000000 0 0 1
25.509575 21.245551 26.035914 42.189817 0.694451 0.905727 0.003423 0.000208 674324.000000 0 0 1
24.281875 21.546551 26.726814 42.049803 0.725783 0.882012 0.000778 -0.002356 768396.000000 0 0 1
24.176375 20.902951 27.995854 42.487625 0.712911 0.851417 0.014675 -0.009661 -9436.180000 0 0 1
22.819575 21.118751 28.692204 42.308122 0.746708 0.825523 0.011590 -0.012496 -291765.000000 0 0 1
22.655775 22.431051 29.140164 43.192422 0.780414 0.830293 0.012436 -0.006541 -149993.000000 0 0 1
21.486875 22.609851 29.895154 43.204298 0.810859 0.806612 0.016413 -0.005359 -491740.000000 0 0 1
21.187075 24.043251 30.282434 44.090769 0.848462 0.813691 0.004007 -0.008593 -529773.000000 0 0 1
20.746675 24.957751 29.299294 43.723706 0.877276 0.836452 -0.008004 -0.008189 32684.700000 0 0 1
20.419875 26.198251 29.857364 44.662981 0.908720 0.838601 -0.010282 -0.004341 -885625.000000 0 0 1
19.219075 26.362451 30.747744 44.830519 0.940850 0.815003 -0.014832 -0.003005 -1187300.000000 0 0 1
18.052675 26.630251 29.965674 43.966021 0.975056 0.820898 -0.016521 0.000419 881992.000000 0 0 1
16.991775 27.212851 30.745364 44.435764 1.012627 0.806671 -0.017667 -0.001271 854391.000000 0 0 1
15.903975 26.300551 31.380414 43.924774 1.026927 0.775012 -0.026836 0.011293 -482206.000000 0 0 1
16.402675 25.503651 32.444204 44.408449 0.999252 0.751616 -0.021886 -0.000696 312842.000000 0 0 1
15.364675 24.841051 33.133734 44.170073 1.016871 0.722523 -0.034202 -0.003882 -177582.000000 0 0 1
15.852875 24.388951 34.531295 45.150248 0.994419 0.700052 -0.030738 -0.006739 -144167.000000 0 0 1
16.234775 25.512251 -33.960659 45.472731 1.004075 2.414087 -0.019955 -0.006337 138168.000000 0 0 1
16.375375 25.102151 -32.591809 44.277499 0.992771 2.398058 -0.013615 0.004232 -146479.000000 0 0 1
16.852575 26.322551 -31.777879 44.572632 1.001318 2.364487 -0.001810 0.014850 292183.000000 0 0 1
15.882675 27.384051 -31.626029 44.747640 1.045215 2.355710 0.007679 0.005202 234080.000000 0 0 1
16.473175 28.565551 -31.245629 45.427365 1.047701 2.329271 0.015860 0.003507 -84439.800000 0 0 1
15.954575 29.182851 -29.861619 44.697914 1.070482 2.302417 0.022453 0.013761 2813.040000 0 0 1
16.297775 28.365451 -28.756399 43.556248 1.049290 2.291899 0.014414 0.014381 133914.000000 0 0 1
15.747875 28.937351 -27.605639 42.981824 1.072413 2.268244 0.021890 0.015682 50433.500000 0 0 1
16.272475 28.169251 -26.346589 41.862189 1.046959 2.251532 0.014179 0.030998 622313.000000 0 0 1
17.678775 28.229251 -26.143399 42.342733 1.011293 2.236259 0.022066 0.030239 20959.800000 0 0 1
18.118475 27.283251 -25.173219 41.307940 0.984581 2.226105 0.020248 0.026603 773410.000000 0 0 1
19.672275 27.259051 -25.015729 41.902756 0.945669 2.210546 0.013829 0.028894 657336.000000 0 0 1
20.084075 26.259751 -24.108229 40.916394 0.917875 2.200873 0.012352 0.027269 -567493.000000 0 0 1
21.474575 26.072851 -24.146429 41.521091 0.881808 2.191424 0.015009 0.027066 -277792.000000 0 0 1
22.090975 26.062351 -22.762829 41.053669 0.867686 2.158516 0.014667 0.023339 -186158.000000 0 0 1
21.958175 24.899551 -22.035829 39.846290 0.848088 2.156782 0.010323 0.026369 144610.000000 0 0 1
22.427775 25.141751 -20.705929 39.545521 0.842389 2.121864 0.005324 0.012196 -16287.000000 0 0 1
22.111375 24.010051 -19.704229 38.126790 0.826542 2.113914 0.012789 -0.002603 -53456.900000 0 0 1
22.870775 22.839451 -20.077429 38.050178 0.784713 2.126636 0.012798 0.005503 486553.000000 0 0 1
22.661475 21.896651 -19.062529 36.829143 0.768235 2.114832 0.015679 -0.000238 -875976.000000 0 0 1
22.918375 20.479751 -19.580929 36.442899 0.729265 2.138034 0.034273 -0.004358 687979.000000 0 0 1
22.030275 20.078051 -20.670829 36.273190 0.739069 2.177138 0.009614 -0.003570 1943470.000000 0 0 1
20.617475 20.069151 -20.308129 35.217484 0.771922 2.185417 0.005531 0.001940 508922.000000 0 0 1
19.684375 19.981751 -21.515529 35.350572 0.792895 2.225133 0.019312 -0.006317 -367547.000000 0 0 1
19.857375 20.751851 -22.698529 36.608440 0.807421 2.239584 0.012200 -0.001108 -218622.000000 0 0 1
19.914475 22.179451 -22.570329 37.388957 0.839154 2.218884 0.003926 0.009278 -18890.400000 0 0 1
19.313575 22.876051 -23.838429 38.270074 0.869638 2.243241 0.007865 0.018558 67834.200000 0 0 1
17.945175 22.630351 -24.043329 37.579832 0.900357 2.265026 0.025233 0.010111 -283075.000000 0 0 1
17.463975 23.223551 -25.269629 38.508154 0.926020 2.286588 0.020752 0.020748 303150.000000 0 0 1
15.923575 23.314251 -25.408429 37.982928 0.971573 2.303583 0.021900 0.011423 339188.000000 0 0 1
15.377775 24.393451 -24.624129 37.919179 1.008319 2.277571 0.009505 0.019072 -301618.000000 0 0 1
13.986475 24.334351 -24.506929 37.260860 1.049140 2.288574 0.014212 0.017431 -383744.000000 0 0 1
13.473875 25.595551 -23.768529 37.438223 1.086241 2.258641 -0.001269 0.027585 -16117.600000 0 0 1
13.601375 26.790751 -24.500629 38.768835 1.101016 2.254885 -0.011368 0.037772 -229213.000000 0 0 1
12.477575 27.557451 -24.197829 38.738068 1.145630 2.245483 -0.012648 0.037842 -92709.300000 0 0 1
12.478375 28.972651 -24.799029 40.126253 1.164112 2.237024 -0.008532 0.021523 92690.600000 0 0 1
12.298675 29.071351 -26.209799 41.028702 1.170577 2.263755 -0.006413 0.017312 140619.000000 0 0 1
11.609175 30.238051 -26.699769 41.976069 1.204223 2.260192 0.010660 0.008430 133613.000000 0 0 1
12.394375 31.545751 -26.505839 43.026904 1.196424 2.234488 0.027386 -0.000105 252687.000000 0 0 1
13.661675 31.559151 -27.144989 43.811777 1.162261 2.239006 0.023552 0.005801 171860.000000 0 0 1
14.271775 32.861151 -27.003629 44.863513 1.161070 2.216682 0.013549 0.000651 277213.000000 0 0 1
15.704475 32.912751 -27.586589 45.726356 1.125591 2.218426 0.018755 0.013691 -228375.000000 0 0 1
16.613375 32.103751 -26.909589 45.064188 1.093255 2.210726 0.014553 0.013289 -172765.000000 0 0 1
17.890175 32.258751 -27.523179 46.024024 1.064441 2.211822 0.013881 0.015095 -176900.000000 0 0 1
18.947075 31.312551 -26.935019 45.441861 1.026639 2.205248 0.012256 0.024916 -619280.000000 0 0 1
19.530875 31.642451 -25.659479 45.178630 1.017799 2.174817 0.024697 0.014520 971396.000000 0 0 1
20.424275 32.836851 -25.613989 46.384116 1.014363 2.155815 0.022319 0.001316 969396.000000 0 0 1
21.852575 32.625551 -26.192279 47.201664 0.980628 2.159041 0.018795 0.006063 -169024.000000 0 0 1
21.813075 32.113751 -27.521149 47.586940 0.974137 2.187481 0.008709 0.011971 169713.000000 0 0 1
23.025475 32.389251 -28.228219 48.744932 0.952793 2.188421 0.001845 0.017306 -270559.000000 0 0 1
23.107775 31.504651 -29.523849 48.971114 0.937957 2.217906 -0.012302 0.015768 -211596.000000 0 0 1
22.180775 31.883951 -30.501979 49.385664 0.962981 2.236520 -0.012955 0.010786 87112.200000 0 0 1
20.852575 31.443451 -30.300439 48.390465 0.985214 2.247422 -0.013466 0.007414 -746210.000000 0 0 1
19.825175 32.139351 -31.143849 48.948082 1.018079 2.260441 -0.016440 0.001553 -1525840.000000 0 0 1
19.525675 33.485851 -30.796779 49.507533 1.042894 2.242170 -0.008367 0.003839 1173990.000000 0 0 1
18.519675 34.137351 -31.666569 50.110964 1.073726 2.254836 -0.022313 0.007361 988083.000000 0 0 1
17.054575 33.640451 -31.610009 49.211088 1.101591 2.268337 -0.016639 0.002786 -436474.000000 0 0 1
16.772375 32.250251 -31.996049 48.426629 1.091222 2.292563 -0.011844 0.001004 -168929.000000 0 0 1
17.037875 31.934651 -33.344799 49.213684 1.080691 2.315225 -0.006615 -0.010226 -740615.000000 0 0 1
16.443975 32.664951 -34.576725 50.328454 1.104422 2.328178 -0.004473 -0.009495 -685215.000000 0 0 1
16.935375 33.961851 34.583310 51.344129 1.108222 0.831783 -0.010808 0.000916 -166891.000000 0 0 1
16.796975 34.604351 33.341616 50.904448 1.118896 0.856634 -0.003160 -0.007467 -423305.000000 0 0 1
15.412375 -34.436717 32.856574 50.029823 -1.149976 0.854309 -0.001223 -0.009833 -416835.000000 0 0 1
14.516575 34.021351 32.523034 49.253741 1.167495 0.849557 0.012317 -0.013530 209184.000000 0 0 1
13.144375 34.371651 32.559294 49.135452 1.205537 0.846453 0.015730 -0.012363 367285.000000 0 0 1
12.603675 -34.356717 31.327384 48.173038 -1.219192 0.862805 0.006914 -0.004430 -989032.000000 0 0 1
13.239275 -33.086417 31.129934 47.318730 -1.190167 0.852799 0.006540 0.002879 166865.000000 0 0 1
12.728575 -32.421817 29.997144 45.967592 -1.196692 0.859823 0.010755 -0.004961 -265211.000000 0 0 1
13.229275 -31.010417 29.690644 44.924314 -1.167565 0.848774 0.001199 -0.004603 -221676.000000 0 0 1
12.818675 -30.098317 30.708354 44.869033 -1.168169 0.817016 -0.007897 0.003607 222255.000000 0 0 1
13.291875 -28.783117 30.512024 44.001425 -1.138178 0.804554 0.001881 -0.002751 -408360.000000 0 0 1
12.862375 -27.769917 31.650604 44.026920 -1.137039 0.768589 0.003278 0.004722 198989.000000 0 0 1
11.481775 -27.455317 31.558364 43.376905 -1.174701 0.756069 0.003004 0.007938 2778.690000 0 0 1
11.119975 -26.416217 30.697434 41.997653 -1.172359 0.751110 -0.001392 0.006659 -332213.000000 0 0 1
11.399675 -24.910717 31.110124 41.452819 -1.141623 0.721986 -0.001208 0.005735 -195689.000000 0 0 1
10.617675 -24.573617 32.238464 41.903654 -1.162947 0.692977 -0.002688 0.000484 59047.400000 0 0 1
10.787575 -23.244517 32.823214 41.641839 -1.136286 0.662874 -0.011249 -0.000413 496667.000000 0 0 1
9.744175 -22.907917 33.988279 42.129855 -1.168618 0.632164 -0.010588 0.000003 114259.000000 0 0 1
9.735375 -23.710817 -34.131608 42.684271 -1.181196 2.497475 -0.013212 0.004601 463089.000000 0 0 1
10.976075 -23.924217 -33.447589 42.562702 -1.140661 2.474854 -0.015076 0.005007 599243.000000 0 0 1
11.612575 -22.683117 -32.801969 41.537271 -1.097636 2.481116 -0.015115 -0.005652 -255004.000000 0 0 1
12.020275 -21.605217 -33.611149 41.725073 -1.063083 2.507380 -0.025255 0.000536 204891.000000 0 0 1
13.114675 -20.885217 -33.062899 41.247330 -1.010085 2.500724 -0.018268 -0.000541 3061.510000 0 0 1
13.396075 -19.629117 -33.901419 41.401247 -0.971940 2.530201 -0.027177 -0.000951 -695856.000000 0 0 1
13.946075 -19.912217 34.149180 41.918443 -0.959817 0.618658 -0.014958 0.001488 297037.000000 0 0 1
13.371975 -19.125417 33.125014 40.519845 -0.960626 0.613738 -0.024700 0.006160 -428373.000000 0 0 1
14.136375 -17.830617 32.887494 39.991940 -0.900452 0.605262 0.004600 -0.001024 -532028.000000 0 0 1
14.013875 -16.873417 33.981297 40.445388 -0.877715 0.573186 0.000316 -0.004101 54925.500000 0 0 1
14.620075 -15.635917 33.778661 39.990329 -0.818960 0.564847 0.021133 -0.007032 509376.000000 0 0 1
16.164575 -15.620417 34.062520 40.811104 -0.768280 0.583320 0.021995 0.000151 686683.000000 0 0 1
16.959875 -16.277517 33.074224 40.577077 -0.764871 0.617901 0.029413 -0.002287 -59466.800000 0 0 1
18.301875 -16.244717 33.482701 41.472168 -0.725921 0.631143 0.037373 -0.001553 -50994.200000 0 0 1
19.385575 -16.934717 32.607284 41.542991 -0.718021 0.668254 0.052958 -0.009892 -15489.000000 0 0 1
19.522975 -16.180717 31.434754 40.386952 -0.692059 0.678780 0.037094 0.000391 123551.000000 0 0 1
20.305875 -16.913617 30.545064 40.390592 -0.694507 0.713246 0.035144 -0.006893 -486943.000000 0 0 1
20.571375 -16.089317 29.223414 39.192544 -0.663744 0.729306 0.020774 -0.002158 382678.000000 0 0 1
21.462275 -14.948017 29.370014 39.327728 -0.608359 0.727556 0.007566 0.002662 847889.000000 0 0 1
21.563775 -14.334717 28.141504 38.241662 -0.586681 0.743822 -0.000228 0.007163 -147278.000000 0 0 1
22.240075 -12.971817 28.141124 38.141995 -0.528022 0.740993 -0.012709 0.009868 -103606.000000 0 0 1
21.595975 -12.001917 28.942544 38.053948 -0.507245 0.706612 -0.005827 0.009208 141464.000000 0 0 1
22.377675 -10.841117 29.006464 38.205564 -0.451140 0.708681 -0.013858 0.008787 -176888.000000 0 0 1
21.538575 -9.565617 29.050244 37.407591 -0.417950 0.681566 -0.004569 0.006107 375604.000000 0 0 1
20.685275 -9.406917 30.188684 37.785279 -0.426809 0.645243 0.004647 0.001461 206775.000000 0 0 1
19.739375 -8.362117 30.065874 36.925935 -0.400706 0.619410 0.013747 -0.002262 32257.800000 0 0 1
18.508575 -8.440817 30.969454 37.052959 -0.427873 0.581179 0.003546 0.002789 -366878.000000 0 0 1
18.670775 -8.023517 32.354734 38.207374 -0.405876 0.560820 0.003456 -0.001042 42630.500000 0 0 1
18.830875 -9.111017 33.249027 39.282442 -0.450631 0.561590 0.014685 -0.003535 -602923.000000 0 0 1
19.063275 -8.662117 -34.614873 40.455286 -0.426497 2.597569 0.020483 -0.014630 -746047.000000 0 0 1
17.930475 -8.164417 -33.998639 39.294619 -0.427284 2.616393 0.018197 -0.015407 -491438.000000 0 0 1
18.227975 -7.609017 -32.747259 38.243158 -0.395447 2.598841 0.018858 -0.018584 -10168.400000 0 0 1
16.899775 -7.317317 -32.023509 36.941178 -0.408613 2.619702 0.014874 -0.016510 -26099.300000 0 0 1
16.956875 -6.411417 -30.977459 35.892128 -0.361487 2.612115 0.013441 -0.012797 -310800.000000 0 0 1
15.762475 -6.307817 -30.250579 34.689216 -0.380661 2.630163 0.015853 -0.005904 -127371.000000 0 0 1
15.840975 -5.159517 -29.233559 33.647556 -0.314871 2.623604 0.012783 -0.003691 9158.750000 0 0 1
16.526675 -5.476217 -28.003829 32.974753 -0.319970 2.585361 0.012469 -0.001726 215891.000000 0 0 1
15.959775 -6.439017 -27.090979 32.095116 -0.383479 2.575651 0.031313 -0.005522 176165.000000 0 0 1
14.634575 -6.088517 -26.352579 30.752223 -0.394254 2.600085 0.007644 0.000274 253174.000000 0 0 1
14.699575 -4.912517 -25.587049 29.915003 -0.322525 2.596974 0.001656 0.009151 -644790.000000 0 0 1
13.505675 -4.741117 -24.882229 28.705518 -0.337607 2.619565 -0.007239 0.004596 -199951.000000 0 0 1
13.295875 -3.483217 -24.020829 27.675139 -0.256219 2.621870 -0.006715 0.006591 -343617.000000 0 0 1
13.326475 -2.225217 -24.726529 28.177078 -0.165451 2.641505 -0.004528 0.004367 156886.000000 0 0 1
12.743775 -1.280217 -23.880829 27.098648 -0.100122 2.649308 -0.004326 0.003845 -147799.000000 0 0 1
13.087075 0.133783 -24.375929 27.667225 0.010222 2.648852 0.006983 -0.002508 -496038.000000 0 0 1
12.387975 0.685783 -25.488699 28.347945 0.055302 2.688591 -0.000981 -0.001163 5637.660000 0 0 1
13.030675 1.813783 -26.043939 29.178332 0.138305 2.673827 0.015687 0.004630 -216323.000000 0 0 1
12.205575 2.523783 -27.107189 29.835301 0.203899 2.710623 0.012271 0.006061 938317.000000 0 0 1
10.960375 3.145783 -26.675719 29.010683 0.279501 2.737638 0.004146 -0.002526 1177110.000000 0 0 1
10.308375 3.723783 -27.764869 29.849909 0.346652 2.765615 -0.002174 0.002015 -582720.000000 0 0 1
9.040575 4.512783 -27.500649 29.298172 0.462983 2.789483 -0.003197 -0.001615 -476191.000000 0 0 1
9.271875 5.760783 -26.799289 28.937107 0.555947 2.754795 0.008509 -0.007510 -119158.000000 0 0 1
8.260475 6.647783 -27.152229 29.149133 0.677643 2.769294 0.012239 -0.008425 -392386.000000 0 0 1
7.569175 4.821051 -32.079469 33.311068 0.567134 2.868819 -0.004741 -0.007735 -267013.000000 0 0 1
7.484275 4.030851 -30.918669 32.065966 0.494030 2.873284 -0.010711 0.003223 473053.000000 0 0 1
7.165575 2.717851 -31.366219 32.288881 0.362529 2.901958 -0.016623 0.006853 -136609.000000 0 0 1
7.008375 1.701751 -30.256509 31.104173 0.238207 2.907596 -0.011960 0.003604 -953223.000000 0 0 1
8.198875 1.475951 -29.620549 30.769740 0.178111 2.867429 -0.003689 -0.003613 -470223.000000 0 0 1
7.885575 0.594951 -28.534579 29.610107 0.075305 2.871241 -0.012201 0.002470 43291.900000 0 0 1
9.118275 0.097851 -27.751059 29.210850 0.010731 2.824115 -0.009697 0.002721 -182665.000000 0 0 1
9.929275 -0.812949 -28.423199 30.118592 -0.081692 2.804467 0.007537 0.006874 -921844.000000 0 0 1
10.905475 -1.301549 -27.611709 29.715818 -0.118786 2.763018 0.003159 0.003087 -664133.000000 0 0 1
11.694375 -2.522149 -28.213779 30.645341 -0.212418 2.740551 0.000351 0.004066 259368.000000 0 0 1
10.993475 -3.753249 -28.302719 30.593909 -0.328999 2.752120 -0.001692 0.003247 -301480.000000 0 0 1
11.869575 -4.767949 -28.694479 31.416449 -0.381967 2.722254 0.007515 0.002685 -312658.000000 0 0 1
11.424675 -6.158749 -28.307809 31.141378 -0.494416 2.711698 0.000013 0.007304 -228721.000000 0 0 1
11.266975 -6.301849 -26.924389 29.859349 -0.509971 2.694498 -0.011054 0.003333 95955.300000 0 0 1
10.630375 -7.486949 -26.471529 29.492390 -0.613605 2.685026 -0.010547 0.001113 -91567.000000 0 0 1
10.009275 -7.358549 -25.068529 27.977937 -0.633944 2.681498 -0.015140 0.001967 506315.000000 0 0 1
11.012775 -7.419549 -24.025029 27.450554 -0.592871 2.636668 -0.010571 0.003720 566566.000000 0 0 1
10.436675 -6.969949 -22.842429 26.063018 -0.588809 2.639195 -0.020569 0.005196 33881.500000 0 0 1
11.400775 -6.906249 -21.615029 25.394555 -0.544651 2.589003 -0.022572 -0.003203 494693.000000 0 0 1
12.245975 -5.775549 -21.558729 25.457801 -0.440694 2.580815 -0.016070 -0.005571 238664.000000 0 0 1
13.440475 -5.952449 -20.808429 25.476827 -0.416913 2.526568 -0.014810 -0.004883 500501.000000 0 0 1
13.898175 -4.674949 -20.091129 24.873035 -0.324482 2.511117 -0.012733 -0.006464 155105.000000 0 1 0
14.726475 -3.797649 -20.907229 25.853499 -0.252380 2.512702 -0.005952 -0.003802 669686.000000 0 0 1
15.213575 -2.837349 -19.977229 25.270399 -0.184383 2.482484 -0.005364 -0.001375 -763341.000000 0 0 1
16.251375 -1.873049 -20.481429 26.212677 -0.114748 2.467632 0.005835 0.000657 -597788.000000 0 0 1
17.459675 -2.519149 -20.788229 27.264204 -0.143295 2.437924 0.004769 0.001213 -327729.000000 0 0 1
18.253975 -1.779149 -21.673029 28.391779 -0.097159 2.439288 -0.000041 -0.004554 -952303.000000 0 0 1
19.530075 -2.494449 -22.031729 29.547304 -0.127036 2.412295 0.006127 -0.001502 -1482300.000000 0 0 1
20.497975 -2.482849 -20.993529 29.445878 -0.120539 2.364497 0.003913 0.000990 911604.000000 0 0 1
21.727675 -3.114749 -21.393429 30.650812 -0.142384 2.343359 0.002223 0.000046 681037.000000 0 0 1
22.697175 -2.337449 -22.323429 31.921167 -0.102622 2.345256 0.004928 -0.001951 -1384910.000000 0 0 1
22.226575 -2.250249 -23.662729 32.542418 -0.100898 2.384936 0.004910 -0.002093 -273707.000000 0 0 1
23.060675 -1.607249 -24.558629 33.726906 -0.069584 2.386432 0.008200 0.006230 -774180.000000 0 0 1
24.241075 -2.411249 -25.123629 34.994864 -0.099143 2.371611 0.004983 -0.006052 -1104300.000000 0 0 1
25.091375 -2.643849 -24.015629 34.832706 -0.104981 2.331534 0.006258 0.000733 460104.000000 0 0 1
26.335075 -3.295249 -24.372229 36.033323 -0.124481 2.313633 -0.007845 0.004622 954398.000000 0 0 1
27.416175 -2.605649 -25.203279 37.331505 -0.094756 2.311925 -0.009794 0.007940 -1018380.000000 0 0 1
27.143775 -2.390949 -26.565369 38.055485 -0.087858 2.343494 -0.010439 0.008486 36630.000000 0 0 1
27.836775 -1.228849 -26.954549 38.767819 -0.044116 2.339608 -0.018507 0.004617 -529311.000000 0 0 1
27.526675 -0.759949 -28.423299 39.574983 -0.027601 2.372028 -0.018056 0.002856 1639440.000000 0 0 1
26.171775 -0.279449 -28.712299 38.851460 -0.010677 2.402422 -0.015645 0.004450 1623700.000000 0 0 1
25.739075 0.911051 -28.034069 38.068872 0.035381 2.398536 -0.012484 0.007413 712983.000000 0 0 1
24.231275 1.296351 -28.309909 37.286541 0.053448 2.432960 -0.016185 0.003356 716999.000000 0 0 1
23.345075 0.889051 -27.317159 35.944542 0.038065 2.434080 -0.013901 0.004392 -98677.100000 0 0 1
22.009675 1.224451 -27.655069 35.365631 0.055575 2.468626 -0.003686 0.005257 -172615.000000 0 0 1
21.036575 0.870351 -26.541729 33.878582 0.041350 2.470973 0.004933 0.002816 -516991.000000 0 0 1
21.204775 1.685551 -25.444219 33.164617 0.079322 2.445276 0.002929 0.002138 301265.000000 0 0 1
20.351875 1.307351 -24.395229 31.796779 0.064149 2.445297 0.005114 0.004237 -169111.000000 0 0 1
20.627275 2.119151 -23.073329 31.021827 0.102376 2.409500 0.002199 0.000032 -308732.000000 0 0 1
20.306975 3.477151 -23.082629 30.939805 0.169585 2.412906 0.006128 -0.005293 410428.000000 0 0 1
20.450175 4.018051 -21.766729 30.135442 0.194009 2.377914 0.003266 0.001418 -293160.000000 0 0 1
19.962375 5.453051 -21.460829 29.812738 0.266661 2.374389 0.000827 0.004465 -143241.000000 0 0 1
20.868375 6.436051 -21.948129 30.961786 0.299156 2.358703 0.007379 0.003746 422579.000000 0 0 1
20.448075 7.780251 -21.747529 30.848194 0.363574 2.353199 0.006048 -0.005682 -232877.000000 0 0 1
20.709075 8.373951 -20.309829 30.190694 0.384261 2.308673 0.013751 0.008742 436018.000000 0 0 1
22.094075 8.579751 -20.004429 31.015116 0.370404 2.271806 0.031673 0.018417 789568.000000 0 0 1
22.285175 8.671651 -18.636829 30.317618 0.371094 2.232827 0.022842 0.008962 -68463.100000 0 0 1
22.179275 10.068951 -17.932929 30.247214 0.426159 2.205425 0.036475 -0.001430 315753.000000 0 0 1
20.842875 10.445851 -17.600529 29.211639 0.464584 2.217448 0.024702 -0.007007 361620.000000 0 0 1
20.715675 11.821151 -17.400929 29.524077 0.518550 2.201089 0.013364 -0.007165 56548.300000 0 0 1
19.234975 12.266651 -17.142729 28.536435 0.567699 2.215212 0.019345 -0.013014 1134090.000000 0 0 1
18.364275 12.167351 -18.295029 28.635626 0.585151 2.263851 0.002713 -0.016311 430742.000000 0 0 1
17.861275 10.819151 -18.441629 27.859879 0.544624 2.294203 0.000899 -0.014983 -822946.000000 0 0 1
17.111875 10.694751 -19.785429 28.260523 0.558592 2.346346 -0.016991 -0.013928 -121053.000000 0 0 1
17.860475 10.945051 -20.973429 29.642460 0.549784 2.356817 -0.003595 -0.011499 85234.500000 0 0 1
17.032675 10.966851 -22.111929 29.988685 0.572055 2.399924 -0.003531 -0.011585 -382897.000000 0 0 1
17.823375 11.000151 -23.421829 31.420663 0.552953 2.411972 0.013345 -0.014293 -122171.000000 0 0 1
18.487075 12.238151 -23.642729 32.411771 0.584754 2.388312 0.017005 -0.011609 131315.000000 0 0 1
19.080575 12.380551 -24.907129 33.729978 0.575571 2.401531 0.027541 -0.014689 -51942.000000 0 0 1
20.000175 13.605051 -24.975729 34.769116 0.597345 2.372196 0.019546 -0.024291 -199065.000000 0 0 1
20.750975 13.897751 -26.136589 36.150681 0.590127 2.378917 0.014650 -0.034522 316613.000000 0 0 1
20.761075 15.298151 -26.530839 36.999204 0.635043 2.370379 0.017506 -0.025149 79522.800000 0 0 1
19.453575 15.744851 -27.223309 36.979054 0.680419 2.398208 0.016273 -0.026566 516566.000000 0 0 1
18.249975 15.662051 -26.477389 35.768891 0.709233 2.404216 0.028803 -0.030891 312534.000000 0 0 1
17.113875 15.969551 -27.278039 35.944439 0.750823 2.432410 0.021801 -0.031374 1088520.000000 0 0 1
15.742975 15.544551 -26.632389 34.623091 0.779056 2.448398 0.008648 -0.032583 709054.000000 0 0 1
15.617675 14.169551 -26.377999 33.771094 0.736821 2.467193 0.000070 -0.017388 -680651.000000 0 0 1
14.286975 13.797051 -26.241559 32.910419 0.767955 2.493710 -0.002042 -0.020926 -775505.000000 0 0 1
14.129275 12.269251 -26.150709 32.156345 0.715055 2.520488 -0.002927 -0.016676 -208562.000000 0 0 1
12.797075 11.843751 -26.290839 31.547548 0.746729 2.555977 -0.003784 -0.016317 -212495.000000 0 0 1
12.699475 10.469151 -25.860049 30.653253 0.689429 2.574808 -0.002116 -0.013544 -3652.130000 0 0 1
11.268775 9.904551 -25.690119 29.750086 0.721056 2.613026 -0.007795 -0.014780 -123829.000000 0 0 1
10.610575 10.543251 -24.611129 28.800210 0.782216 2.595474 -0.003657 -0.014225 -517728.000000 0 0 1
9.453475 9.781951 -24.419229 27.952701 0.802473 2.633329 0.012035 -0.010535 -712424.000000 0 0 1
8.552275 10.261851 -23.250429 26.814724 0.876016 2.620101 0.013136 -0.005118 -100697.000000 0 0 1
7.819475 11.395551 -23.742329 27.471821 0.969401 2.614440 0.006302 -0.003114 -126598.000000 0 0 1
7.139175 12.128751 -22.741229 26.743932 1.038790 2.587413 0.016854 0.004498 32488.800000 0 0 1
7.962475 13.041851 -21.802329 26.623907 1.022668 2.530289 0.017418 0.003180 -425691.000000 0 0 1
8.792475 12.337651 -20.977529 25.876282 0.951628 2.516118 0.018443 -0.007219 -589968.000000 0 0 1
9.677775 13.086051 -20.165029 25.913943 0.934018 2.462517 0.019308 -0.008513 -295995.000000 0 0 1
10.570675 12.209351 -19.273129 25.144799 0.857209 2.444148 0.013622 -0.015522 -172744.000000 0 0 1
11.679875 11.591351 -19.917729 25.835921 0.781594 2.451099 0.011031 -0.020368 266495.000000 0 0 1
11.321675 10.581051 -20.872929 25.996502 0.751597 2.502962 0.010777 -0.018994 -1596370.000000 0 0 1
12.425875 10.112151 -21.762429 27.023347 0.683098 2.507011 0.005665 -0.021541 -450224.000000 0 0 1
13.345575 9.279251 -21.033229 26.582054 0.607568 2.483658 0.022694 -0.024581 586309.000000 0 0 1
14.223375 8.580051 -21.916129 27.499789 0.542796 2.493036 0.015352 -0.020715 -107577.000000 0 0 1
14.662475 7.233251 -21.314629 26.863013 0.458287 2.487263 0.026416 -0.015731 -200917.000000 0 0 1
15.801475 7.277751 -20.501429 26.887931 0.431613 2.437929 -0.001415 -0.012604 -116928.000000 0 0 1
16.193475 5.974551 -20.148129 26.530567 0.353454 2.433234 -0.004657 -0.007791 -13326.700000 0 0 1
16.858775 5.938951 -18.745329 25.901289 0.338702 2.379977 0.000759 -0.011204 411406.000000 0 0 1
18.124575 6.635951 -18.761229 26.916905 0.350972 2.342009 -0.007707 -0.013261 992724.000000 0 0 1
18.719675 6.861751 -17.477629 26.513720 0.351345 2.290540 -0.003385 -0.003622 347601.000000 0 0 1
19.375675 5.553651 -16.834029 26.261080 0.279146 2.266630 0.008611 -0.006591 310881.000000 0 0 1
20.714875 5.292451 -17.269729 27.483806 0.250139 2.250240 0.007286 0.004785 837646.000000 0 0 1
21.155975 4.102551 -16.680829 27.251720 0.191542 2.229512 0.008572 0.000482 745925.000000 0 0 1
22.596575 3.581251 -17.066629 28.542956 0.157179 2.211710 0.005484 0.009833 963379.000000 0 0 1
23.228975 2.754751 -16.060029 28.374257 0.118040 2.172451 0.002074 0.011609 881120.000000 0 0 1
24.492775 2.332851 -16.596029 29.677708 0.094960 2.164227 0.008623 0.009506 461190.000000 0 0 1
25.237375 1.350351 -15.684329 29.744692 0.053455 2.126214 0.011802 -0.000929 -779502.000000 0 0 1
24.717475 0.078251 -15.711429 29.288371 0.003166 2.137008 0.021794 -0.011377 -250393.000000 0 0 1
25.685575 -0.782149 -16.219129 30.387837 -0.030441 2.133810 0.018829 -0.000831 -324240.000000 0 0 1
25.168975 -2.224949 -16.454729 30.152708 -0.088171 2.148036 0.011350 -0.006766 -124496.000000 0 0 1
24.678175 -2.907949 -15.308729 29.186052 -0.117294 2.122950 0.020135 -0.003897 519233.000000 0 0 1
24.340975 -4.260149 -15.523329 29.182283 -0.173265 2.131691 0.014444 -0.001769 -1120620.000000 0 0 1
23.884775 -5.160849 -14.345929 28.335887 -0.212801 2.101663 0.014468 0.001987 377935.000000 0 0 1
22.552375 -5.046349 -13.873829 26.954747 -0.220135 2.111464 0.014778 0.003978 82016.100000 0 0 1
21.568175 -5.488649 -14.741829 26.695186 -0.249190 2.155831 0.010045 0.001940 -1645320.000000 0 0 1
20.176875 -5.651949 -14.192129 25.307456 -0.273120 2.166134 0.009246 -0.001620 -855732.000000 0 0 1
20.145575 -6.730349 -13.229929 25.023445 -0.322428 2.127866 0.008908 0.005355 446527.000000 0 0 1
20.033075 -6.255749 -11.902229 24.127195 -0.302676 2.086689 0.004838 0.006156 -406257.000000 0 1 0
19.898875 -7.332949 -10.841429 23.817513 -0.353069 2.043379 0.012116 0.003060 778302.000000 0 1 0
18.649575 -8.080649 -10.794729 23.013685 -0.408870 2.059019 0.012331 0.001882 1552050.000000 0 1 0
18.452775 -9.018049 -11.852729 23.713230 -0.454575 2.094206 0.004668 0.004099 -745316.000000 0 1 0
16.998975 -9.499049 -11.807429 22.773064 -0.509575 2.115871 0.015724 0.001526 456926.000000 0 1 0
16.049675 -8.450849 -12.165329 21.840424 -0.484656 2.161577 0.015392 0.002599 319697.000000 0 1 0
14.763175 -8.970849 -12.400929 21.265241 -0.546026 2.193403 0.011093 -0.002725 -185316.000000 0 1 0
13.819375 -7.873649 -12.922429 20.492892 -0.517883 2.253098 0.009242 -0.000711 -470686.000000 0 1 0
14.086975 -7.216849 -14.148529 21.229852 -0.473444 2.300227 0.012313 0.004058 447887.000000 0 1 0
15.278575 -6.433449 -14.232429 21.849168 -0.398543 2.280217 0.026419 0.008325 350237.000000 0 1 0
14.963175 -5.176849 -15.045629 21.841870 -0.333082 2.330689 0.003626 0.003218 182795.000000 0 1 0
14.098275 -4.286449 -14.359929 20.575290 -0.295160 2.343287 0.012203 -0.007909 352972.000000 0 1 0
13.411575 -3.283249 -15.062529 20.433547 -0.240085 2.399635 -0.001671 -0.020022 -309952.000000 0 1 0
14.260375 -2.029949 -15.432329 21.110086 -0.141399 2.390642 -0.009006 -0.008758 498240.000000 0 1 0
15.305175 -2.319149 -16.403629 22.554509 -0.150383 2.385159 -0.016398 0.000868 945443.000000 0 1 0
16.411775 -1.433249 -16.420429 23.260074 -0.087110 2.354559 -0.003420 0.004760 659366.000000 0 1 0
17.545375 -1.866449 -15.413429 23.428563 -0.105980 2.288811 0.003645 0.002963 -108807.000000 0 1 0
17.135175 -1.903249 -14.059029 22.246187 -0.110619 2.254895 -0.006079 0.004535 -331822.000000 0 1 0
18.274475 -2.241149 -13.330029 22.730351 -0.122029 2.197455 -0.001852 0.008589 -334807.000000 0 1 0
18.022175 -2.554949 -11.823729 21.705463 -0.140828 2.146870 0.002165 0.014959 -425860.000000 0 1 0
17.671875 -1.464849 -10.960829 20.846599 -0.082702 2.124434 -0.000657 0.007953 637048.000000 0 1 0
17.252975 -1.912749 -9.695229 19.882686 -0.110414 2.080160 -0.001839 0.003654 -1629940.000000 0 1 0
17.345975 -0.799549 -8.606129 19.380082 -0.046062 2.030933 -0.001243 0.002433 -110001.000000 0 1 0
18.626275 -0.435249 -8.143929 20.333498 -0.023363 1.982878 -0.002401 0.007121 1015430.000000 0 1 0
19.654675 0.073951 -9.016029 21.624072 0.003763 2.000877 0.000999 0.006772 203425.000000 0 1 0
19.362375 1.419151 -9.803129 21.748951 0.073163 2.038391 -0.002197 0.005720 -604979.000000 0 1 0
19.235275 2.595851 -8.935329 21.367600 0.134142 2.002228 0.000760 0.007528 548363.000000 0 1 0
18.775675 3.627251 -9.731529 21.456597 0.190838 2.041535 0.001815 0.004545 -253348.000000 0 1 0
18.570775 5.066151 -9.130129 21.304901 0.266322 2.013679 0.007269 0.008679 157729.000000 0 1 0
17.919775 5.908651 -10.114929 21.408930 0.318502 2.062880 0.011709 0.011353 574095.000000 0 1 0
18.276975 7.258251 -9.921929 22.026681 0.378026 2.038066 0.021114 0.013785 -216056.000000 0 1 0
-24.836225 -29.741529 5.758071 39.173358 0.875035 1.423272 0.020060 -0.016769 -431618.000000 0 0 1
-25.033625 -28.839429 6.832971 38.795419 0.855925 1.393744 0.028779 -0.010759 -4062.950000 0 0 1
-24.002025 -27.875769 6.718071 37.393692 0.859930 1.390158 0.032278 -0.005867 -198204.000000 0 0 1
-24.187025 -26.675699 7.674271 36.817109 0.834288 1.360814 0.032902 0.000550 -520706.000000 0 0 1
-25.198025 -25.728629 7.399271 36.764820 0.795817 1.368153 0.023027 -0.005831 1612200.000000 0 0 1
-26.576745 -26.128979 7.715871 38.060236 0.776903 1.366653 0.017359 -0.006266 1607220.000000 0 0 1
-26.897805 -26.178229 9.212771 38.647985 0.771842 1.330103 0.018077 -0.003245 -680376.000000 0 0 1
-26.243585 -27.204869 9.934271 39.083505 0.803381 1.313796 0.016225 -0.003533 -201463.000000 0 0 1
-26.582275 -27.296129 11.322171 39.747799 0.798647 1.281946 0.020069 -0.006900 -536515.000000 0 0 1
-25.577955 -28.151049 12.145571 39.927788 0.833252 1.261710 0.012685 -0.004874 -106975.000000 0 0 1
-24.441625 -27.444469 12.521471 38.824981 0.843207 1.242416 0.021511 -0.001044 -625417.000000 0 0 1
-24.674625 -26.568989 13.604671 38.727708 0.822349 1.211847 0.030214 -0.002947 -444057.000000 0 0 1
-23.334625 -26.048829 14.202871 37.746096 0.840305 1.185025 0.021564 -0.002870 -11598.000000 0 0 1
-22.638425 -27.035599 14.854971 38.263456 0.873689 1.172088 0.011675 0.001649 -418768.000000 0 0 1
-21.405525 -26.658469 15.418071 37.504498 0.894257 1.147137 0.014862 -0.001344 -26413.300000 0 0 1
-20.697025 -27.815099 16.167571 38.254894 0.931086 1.134454 0.010056 -0.005215 -319496.000000 0 0 1
-21.517625 -28.396529 17.160771 39.545709 0.922350 1.121926 0.008462 0.001795 260635.000000 0 0 1
-20.920125 -29.521359 17.731171 40.293383 0.954293 1.115140 0.008771 0.003939 -48536.900000 0 0 1
-21.945225 -30.336679 18.565171 41.792016 0.944545 1.110484 0.013341 0.001762 243167.000000 0 0 1
-22.954325 -31.005379 17.827071 42.497518 0.933510 1.137918 -0.003747 0.001119 340611.000000 0 0 1
-23.565425 -32.023659 18.569271 43.882363 0.936396 1.133866 0.003239 0.003552 9187.120000 0 0 1
-24.614325 -32.917029 17.833471 44.804335 0.928725 1.161428 -0.004412 0.004856 17124.600000 0 0 1
-24.024425 -33.665039 16.821571 44.648327 0.950980 1.184503 -0.005111 0.004694 -205837.000000 0 0 1
-24.709825 34.696561 16.406271 45.646386 -0.951950 1.203149 -0.011333 0.001950 -975025.000000 0 0 1
-24.348825 34.065926 15.025171 44.487171 -0.950236 1.226280 -0.011918 -0.002864 289033.000000 0 0 1
-23.100225 33.389200 14.990071 43.280034 -0.965563 1.217118 -0.017748 -0.004107 939321.000000 0 0 1
-21.942825 34.198019 14.758771 43.229775 -1.000320 1.222387 -0.007043 -0.005115 -44026.800000 0 0 1
-20.613525 33.440070 14.747971 41.960200 -1.018382 1.211650 0.006455 -0.009267 -197873.000000 0 0 1
-20.513325 32.696630 13.559571 40.911222 -1.010485 1.232968 0.005733 -0.017668 357683.000000 0 0 1
-19.564125 31.637550 13.767571 39.664034 -1.016969 1.216314 0.004949 -0.009199 413182.000000 0 0 1
-19.413525 30.810380 12.480771 38.495898 -1.008540 1.240619 0.003529 -0.011324 270157.000000 0 0 1
-18.597925 31.484040 11.552171 38.348146 -1.037236 1.264799 -0.007285 -0.009462 124408.000000 0 0 1
-19.059825 31.078890 10.275471 37.878222 -1.020675 1.296077 0.000688 -0.007626 -101901.000000 0 0 1
-18.393625 31.806510 9.126871 37.858676 -1.046487 1.327320 -0.008296 -0.005909 -1484060.000000 0 0 1
-17.108525 31.396030 8.903071 36.846669 -1.071857 1.326756 -0.013132 -0.009870 -1472810.000000 0 0 1
-16.684125 31.986820 7.632471 36.875077 -1.090023 1.362307 -0.015948 -0.012527 54098.200000 0 0 1
-16.266425 30.886070 6.605171 35.527091 -1.086050 1.383789 -0.023002 -0.007068 -224291.000000 0 0 1
-17.281125 29.969420 6.271471 35.158709 -1.047741 1.391461 -0.020604 -0.002902 -91082.300000 0 0 1
-17.172425 28.767230 6.996171 34.225606 -1.032627 1.364932 -0.022871 -0.000825 -367022.000000 0 0 1
-18.022125 27.618910 6.468571 33.607196 -0.992646 1.377112 -0.006314 0.011526 -248991.000000 0 0 1
-17.577125 26.972330 5.290371 32.625909 -0.993246 1.407925 -0.006791 0.007703 143613.000000 0 0 1
-18.643525 26.238240 4.746371 32.535432 -0.953026 1.424391 0.001435 0.008237 -778751.000000 0 0 1
-18.385525 25.449390 3.424371 31.582041 -0.945172 1.462155 0.006498 -0.003030 -1763120.000000 0 0 1
-18.114825 26.174590 2.196371 31.907368 -0.965408 1.501906 0.008177 -0.003289 383793.000000 0 0 1
-16.898925 26.902900 2.161671 31.843564 -1.009939 1.502860 -0.001943 -0.004894 -385500.000000 0 0 1
-15.638525 26.022200 2.299071 30.446742 -1.029665 1.495213 -0.004497 -0.011520 -1470170.000000 0 0 1
-15.516925 24.867210 1.423571 29.345863 -1.012923 1.522267 0.003138 -0.009875 -34170.100000 0 0 1
-15.320425 25.226240 0.072171 29.514129 -1.025011 1.568351 0.003552 -0.004572 -282825.000000 0 0 1
-15.162725 23.931920 -0.729829 28.340390 -1.006053 1.596551 0.010551 -0.010120 965563.000000 0 0 1
-16.389025 23.152420 -0.875529 28.379592 -0.954804 1.601652 0.009466 -0.017132 1052440.000000 0 0 1
-16.318525 22.053320 -1.741729 27.489577 -0.933753 1.634198 0.013709 -0.016372 81041.000000 0 0 1
-15.401725 20.852320 -1.217029 25.952140 -0.934625 1.617709 0.021600 -0.017948 291560.000000 0 0 1
-15.957225 20.009420 -0.258529 25.594468 -0.897590 1.580897 0.031277 -0.023545 207961.000000 0 0 1
-14.983925 19.062120 0.221171 24.247296 -0.904615 1.561675 0.048353 -0.030847 375118.000000 0 1 0
-15.567025 17.929820 1.146271 23.772351 -0.855819 1.522559 0.039374 -0.032460 -10555.800000 0 1 0
-16.286925 16.984820 0.402971 23.535302 -0.806371 1.553673 0.037997 -0.029722 199964.000000 0 1 0
-17.035525 16.237720 1.347371 23.573037 -0.761425 1.513608 0.037950 -0.037322 -51604.800000 0 1 0
-17.679725 14.954020 0.805171 23.169888 -0.702067 1.536039 0.057904 -0.032799 -227791.000000 0 1 0
-18.448825 15.199520 -0.354029 23.906273 -0.689130 1.585606 0.044647 -0.031603 359810.000000 0 1 0
-19.312425 14.115120 -0.644729 23.929523 -0.631153 1.597742 0.028308 -0.019554 259977.000000 0 1 0
-20.358525 14.402920 -1.771529 25.001040 -0.615718 1.641714 0.031714 -0.008978 498250.000000 0 0 1
-21.369225 13.403620 -2.110829 25.313167 -0.560208 1.654282 0.019757 -0.005040 1642180.000000 0 0 1
-22.597125 13.396320 -1.401129 26.306931 -0.535133 1.624082 0.010514 0.005585 737972.000000 0 0 1
-23.506625 14.703420 -1.358329 27.759630 -0.558960 1.619748 -0.026488 0.013695 -912010.000000 0 0 1
-23.020425 15.694320 -0.493329 27.865661 -0.598377 1.588501 -0.037678 0.000032 -168144.000000 0 0 1
-23.848025 16.743120 -0.082029 29.138756 -0.612118 1.573611 -0.043000 0.005235 -783187.000000 0 0 1
-23.113925 17.648420 0.913071 29.095601 -0.652111 1.539409 -0.044698 -0.005302 -8393.400000 0 0 1
-23.071725 17.173420 2.224071 28.847485 -0.639875 1.493622 -0.038263 -0.013705 279735.000000 0 0 1
-22.615925 18.188220 3.141771 29.191817 -0.677310 1.462962 -0.039046 -0.016863 357371.000000 0 0 1
-23.783625 19.030420 3.781871 30.693978 -0.674831 1.447270 -0.024314 -0.019456 -401956.000000 0 0 1
-24.687825 18.203420 4.483771 30.999313 -0.635352 1.425646 -0.019592 -0.016350 1135490.000000 0 0 1
-26.063445 18.635220 4.401371 32.341099 -0.620719 1.434280 -0.009451 -0.019044 459708.000000 0 0 1
-26.740975 18.470220 3.059171 32.643335 -0.604463 1.476944 -0.001925 -0.011357 -1192720.000000 0 0 1
-28.101765 18.848620 3.086971 33.978068 -0.590809 1.479819 0.002591 -0.010383 126341.000000 0 0 1
-28.567085 19.095620 1.795271 34.408488 -0.589235 1.518597 0.006001 -0.005844 -421071.000000 0 0 1
-29.812755 19.979620 1.809571 35.934108 -0.590424 1.520417 0.010018 -0.009776 458349.000000 0 0 1
-31.016755 19.401220 2.384171 36.662388 -0.558964 1.505720 0.007974 0.003437 1425500.000000 0 0 1
-32.101655 20.331220 2.401971 38.074194 -0.564573 1.507668 0.010172 0.001917 198162.000000 0 0 1
-32.274315 20.952420 3.772371 38.663499 -0.575811 1.473072 0.008696 -0.003014 33519.500000 0 0 1
-31.158445 21.734020 4.241571 38.225741 -0.609068 1.459606 0.008501 -0.003059 933333.000000 0 0 1
-31.392975 22.203420 5.564771 38.851994 -0.615591 1.427072 0.021805 -0.004478 -344214.000000 0 0 1
-30.337215 23.222020 6.054071 38.681528 -0.653324 1.413640 0.009898 -0.006999 -208972.000000 0 0 1
-30.358895 24.442020 5.386671 39.345789 -0.677844 1.433459 0.013007 -0.000753 259261.000000 0 0 1
-29.464425 25.402130 5.892571 39.346448 -0.711493 1.420470 0.008929 -0.003513 -366573.000000 0 0 1
-29.785195 26.824390 5.439371 40.451113 -0.733144 1.435920 0.015270 -0.004070 -19106.900000 0 0 1
-30.952995 27.315920 6.093871 41.729878 -0.723060 1.424241 0.020998 0.002089 400697.000000 0 0 1
-31.090935 28.698480 6.026771 42.738402 -0.745405 1.429309 0.021511 0.000170 36852.200000 0 0 1
-32.073925 29.192080 7.123871 43.950697 -0.738395 1.407990 0.022242 0.005348 16894.600000 0 0 1
-31.484445 29.176590 8.423671 43.743593 -0.747371 1.377017 0.023632 0.007654 780933.000000 0 0 1
-32.385905 29.796700 9.365171 44.993295 -0.743783 1.361117 0.033113 0.007160 1169610.000000 0 0 1
-33.690675 29.017420 9.764771 45.523873 -0.711012 1.354619 0.037864 0.003302 307376.000000 0 0 1
-33.356935 27.916080 10.515871 44.750153 -0.696834 1.333587 0.038136 0.003056 30159.100000 0 0 1
-34.469380 27.302860 11.094471 45.350542 -0.669899 1.323650 0.039206 0.004748 -352774.000000 0 0 1
-33.980805 26.053460 11.804271 44.416424 -0.654111 1.301800 0.036029 0.004109 -526454.000000 0 0 1
-33.222555 26.393530 12.912671 44.351930 -0.671345 1.275377 0.030922 0.009425 -291041.000000 0 0 1
-32.999425 25.263430 13.701471 43.759951 -0.653393 1.252335 0.031051 0.009847 -93831.000000 0 0 1
-31.917065 25.603170 14.741971 43.491920 -0.676068 1.224986 0.022053 0.010264 -177384.000000 0 0 1
-32.305195 26.683380 15.570571 44.699789 -0.690382 1.215000 0.022061 0.007502 8101.370000 0 0 1
-31.366685 27.011860 16.571271 44.588301 -0.710940 1.190010 0.022076 0.010827 -88094.300000 0 0 1
-31.792405 28.306130 17.300371 45.948851 -0.727454 1.184766 0.034554 0.003766 -203210.000000 0 0 1
-31.556505 29.498220 16.525371 46.249821 -0.751699 1.205414 0.032930 0.004703 91195.100000 0 0 1
-31.682915 30.669660 17.294271 47.365884 -0.769149 1.197034 0.030650 0.005462 -239125.000000 0 0 1
-31.317735 31.901260 16.507071 47.654741 -0.794628 1.217077 0.026017 0.003768 150159.000000 0 0 1
-29.935795 32.126240 16.306071 46.841596 -0.820678 1.215241 0.005018 0.009553 -102483.000000 0 0 1
-29.636975 33.340270 15.664871 47.279088 -0.844134 1.233086 0.010191 0.008590 -504697.000000 0 0 1
-28.162215 33.563779 15.280371 46.401804 -0.872685 1.235228 0.008376 0.005501 -401176.000000 0 0 1
-27.631095 32.855480 14.218271 45.222995 -0.871557 1.250968 0.006703 0.006976 54141.300000 0 0 1
-27.205225 31.520060 14.563871 44.110598 -0.858741 1.234316 0.005168 0.003357 -442025.000000 0 0 1
-28.112075 30.311100 14.190271 43.708299 -0.823020 1.240146 0.018105 0.007747 66622.300000 0 0 1
-28.170395 29.947400 12.816871 43.066114 -0.815965 1.268609 0.027217 0.007469 -46379.900000 0 0 1
-29.175195 28.972790 12.578971 42.998199 -0.781917 1.273908 0.007591 0.010993 281322.000000 0 0 1
-29.348395 28.604370 11.131471 42.467022 -0.772560 1.305578 0.023314 0.009061 232129.000000 0 0 1
-28.262825 27.887080 10.552971 41.083351 -0.778706 1.311017 0.007074 0.010754 4683.970000 0 0 1
-28.243635 28.194150 9.176371 40.948978 -0.784521 1.344784 0.006232 0.005403 -118769.000000 0 0 1
-27.227635 27.384870 8.380371 39.515894 -0.788277 1.357098 -0.005185 0.005991 -26761.800000 0 0 1
-27.021125 27.846360 7.041271 39.435270 -0.800438 1.391281 -0.008053 0.000631 -237745.000000 0 0 1
-26.026855 27.092300 6.381671 38.106635 -0.805453 1.402535 -0.010921 0.005586 -350905.000000 0 0 1
-25.848985 27.358830 4.882471 37.954106 -0.813767 1.441797 -0.003528 0.003811 -188742.000000 0 0 1
-25.252215 28.617960 4.644271 38.447773 -0.847796 1.449706 0.002984 0.005727 277768.000000 0 0 1
-24.934925 28.902140 3.300471 38.314192 -0.858955 1.484547 0.009706 0.007769 -129641.000000 0 0 1
-23.807625 29.957180 3.102071 38.390865 -0.899282 1.489906 0.008671 0.002650 260247.000000 0 0 1
-22.524925 29.373030 3.312671 37.163436 -0.916593 1.481540 0.008087 0.004446 90795.100000 0 0 1
-21.526425 30.326490 3.028471 37.312928 -0.953508 1.489543 0.008369 0.002096 108935.000000 0 0 1
-20.072825 29.884810 3.309671 36.152097 -0.979336 1.479119 -0.002388 -0.001792 722759.000000 0 0 1
-19.132025 30.922990 2.970871 36.484131 -1.016741 1.489277 -0.009801 -0.002179 136687.000000 0 0 1
-17.800525 30.537580 3.234471 35.494567 -1.043041 1.479544 -0.012162 -0.004031 -265760.000000 0 0 1
-16.707525 31.442430 2.747471 35.711573 -1.082370 1.493785 -0.005848 -0.008874 -660051.000000 0 0 1
-16.787225 32.735230 3.356371 36.941460 -1.096947 1.479814 -0.009302 -0.015850 -884333.000000 0 0 1
-15.626725 33.415820 3.108071 37.019882 -1.133366 1.486741 -0.002753 -0.010103 -1158450.000000 0 0 1
-15.406225 34.702613 3.973671 38.176082 -1.152985 1.466519 -0.000103 -0.014980 -525775.000000 0 0 1
-16.293025 -33.745129 3.820271 37.666840 1.120982 1.469199 0.001753 -0.019847 -234140.000000 0 0 1
-15.965525 -32.601319 4.580571 36.588599 1.115406 1.445276 0.001003 -0.013599 -256459.000000 0 0 1
-17.112525 -31.589909 4.668171 36.229169 1.074341 1.441586 0.003931 -0.011449 -204802.000000 0 0 1
-17.435325 -30.915559 3.491271 35.664426 1.057294 1.472747 0.002080 -0.008484 1497030.000000 0 0 1
-18.564625 -29.980089 3.729071 35.459230 1.016356 1.465436 0.011959 -0.008067 1152050.000000 0 0 1
-19.032625 -29.106779 2.581271 34.872745 0.991691 1.496709 0.005362 -0.008361 212509.000000 0 0 1
-18.072925 -28.067339 2.390971 33.468237 0.998712 1.499295 -0.003799 0.001304 363009.000000 0 0 1
-18.536425 -27.081359 1.439671 32.849227 0.970568 1.526956 -0.006711 0.007565 541454.000000 0 0 1
-17.639425 -25.764349 1.355971 31.253634 0.970450 1.527397 -0.002722 0.010460 189736.000000 0 0 1
-16.354525 -26.008409 0.862371 30.735183 1.009457 1.542735 -0.015993 0.019131 -687602.000000 0 0 1
-15.564225 -24.836849 1.050671 29.329474 1.011005 1.534966 -0.017281 0.020698 -162093.000000 0 0 1
-14.130625 -25.054949 0.557371 28.770396 1.057279 1.551422 -0.007055 0.014541 -639146.000000 0 0 1
-13.956725 -25.085239 -0.868429 28.719567 1.063074 1.601039 -0.001077 0.016657 -20000.200000 0 0 1
-13.996225 -23.853349 -1.552529 27.699944 1.040168 1.626874 -0.003684 0.013174 -388776.000000 0 0 1
-14.333325 -24.004849 -3.028529 28.122037 1.032511 1.678698 0.009568 0.014808 92423.900000 0 0 1
-13.267725 -24.468649 -3.849929 28.099275 1.073935 1.708240 0.004985 0.017631 135947.000000 0 0 1
-13.676125 -24.503549 -5.177029 28.535275 1.061734 1.753232 0.013385 0.016099 348796.000000 0 0 1
-12.671225 -25.200979 -6.145629 28.868980 1.104906 1.785318 0.019073 0.013697 442614.000000 0 0 1
-12.615825 -26.588739 -6.014729 30.038259 1.127772 1.772395 0.006048 0.008617 -518329.000000 0 0 1
-11.615325 -27.092399 -6.853629 30.263610 1.165771 1.799243 0.021313 0.009590 -137571.000000 0 0 1
22.516275 13.468351 28.607784 38.817321 0.539066 0.742198 0.001856 0.005792 -486297.000000 0 0 1
22.794375 12.129051 28.450364 38.420315 0.489002 0.736978 -0.006398 0.000842 563137.000000 0 0 1
22.077575 11.233951 29.336504 38.395982 0.470695 0.701227 -0.014938 -0.007926 -218548.000000 0 0 1
22.134775 11.438451 30.869664 39.670172 0.476969 0.679069 -0.005945 0.015385 53586.700000 0 0 1
21.277275 12.445251 31.425994 39.939952 0.529249 0.665139 -0.009392 0.008909 392723.000000 0 0 1
21.701275 12.786451 32.752634 41.317958 0.532443 0.655575 -0.001555 0.006935 -494095.000000 0 0 1
20.815675 13.743151 33.544784 41.802142 0.583534 0.639380 -0.011736 0.014356 112903.000000 0 0 1
19.551475 13.180051 33.937119 41.324351 0.593145 0.607219 -0.018873 0.023952 810100.000000 0 0 1
18.822575 14.128551 -34.622167 41.864062 0.643896 2.544572 -0.018869 0.023683 312056.000000 0 0 1
17.701675 13.504651 -33.681889 40.375668 0.651708 2.557500 -0.010770 0.032519 647346.000000 0 0 1
16.637175 13.095851 -34.526700 40.501727 0.666853 2.591497 -0.012632 0.029385 -359849.000000 0 0 1
15.619675 12.484251 -33.798259 39.270257 0.674292 2.607357 -0.014111 0.024007 408745.000000 0 0 1
14.323875 12.073551 -34.581846 39.329990 0.700356 2.645133 -0.008035 0.025090 736521.000000 0 0 1
14.531675 11.035851 33.768129 38.382888 0.649512 0.495417 -0.018430 0.028492 -8800.620000 0 0 1
13.298775 10.641151 33.178444 37.294780 0.674839 0.474269 -0.010091 0.021249 160295.000000 0 0 1
13.380875 9.525851 32.132744 36.087434 0.618668 0.472543 -0.010871 0.015555 -123414.000000 0 0 1
13.866375 8.279651 32.554014 36.339961 0.538287 0.460527 -0.017657 0.015086 5078.300000 0 0 1
14.304775 7.414651 31.501294 35.382696 0.478207 0.472788 -0.018574 -0.000484 67914.500000 0 0 1
14.602275 5.936351 31.840614 35.528740 0.386128 0.459683 -0.008534 0.000804 237396.000000 0 0 1
13.503075 5.131951 32.221264 35.311185 0.363198 0.421455 0.000796 0.004110 -206544.000000 0 0 1
14.034475 3.875151 32.521414 35.631807 0.269404 0.420935 -0.003161 0.003607 232114.000000 0 0 1
13.016975 2.804551 32.994604 35.580206 0.212209 0.383581 -0.003548 0.002078 114316.000000 0 0 1
13.620275 1.496351 33.078594 35.804250 0.109423 0.392715 0.001137 0.000014 -264375.000000 0 0 1
12.787475 0.641951 33.785936 36.130611 0.050159 0.362239 -0.000279 0.000981 -434408.000000 0 0 1
13.451575 -0.716549 34.046368 36.614389 -0.053218 0.376756 -0.001678 0.004290 119337.000000 0 0 1
13.527175 -1.628449 32.943614 35.649937 -0.119807 0.392159 -0.021751 0.003599 109325.000000 0 0 1
14.322875 -2.774549 33.284842 36.341761 -0.191345 0.413092 0.004980 -0.003187 -34252.400000 0 0 1
14.024875 -4.031049 32.411994 35.545517 -0.279877 0.423041 0.000415 -0.004957 -920678.000000 0 0 1
14.485575 -5.359749 32.832634 36.284165 -0.354385 0.439710 0.007571 -0.006388 -121281.000000 0 0 1
15.820275 -5.644449 33.179454 37.188937 -0.342707 0.468634 0.005424 -0.004548 218737.000000 0 0 1
16.919475 -5.225649 32.172554 36.723960 -0.299560 0.503158 0.002345 -0.008644 -888594.000000 0 0 1
17.090675 -3.828149 32.151304 36.612187 -0.220353 0.498797 0.005721 -0.011338 -62577.400000 0 0 1
18.020575 -3.360649 31.172734 36.163164 -0.184372 0.531590 0.008154 -0.009867 221236.000000 0 0 1
17.990475 -1.811749 31.131024 36.001115 -0.100368 0.526196 0.014814 -0.010154 -39977.500000 0 0 1
18.569775 -1.193349 32.282704 37.261691 -0.064175 0.522893 0.013215 -0.005137 106770.000000 0 0 1
18.220575 0.173351 32.406014 37.177535 0.009514 0.512226 0.017393 -0.001831 -6708.030000 0 0 1
19.350975 1.143751 32.009004 37.421180 0.059037 0.544529 0.015861 0.003454 -344571.000000 0 0 1
19.598675 0.983851 30.648204 36.392148 0.050158 0.569510 0.026250 0.002114 333578.000000 0 0 1
20.568775 1.884051 30.080684 36.489337 0.091343 0.601709 0.027236 0.009204 345547.000000 0 0 1
20.128175 3.384551 29.923704 36.221909 0.166592 0.598606 0.023669 0.007776 -268496.000000 0 0 1
20.035475 4.008451 31.220824 37.312569 0.197461 0.579498 0.015087 0.010425 688419.000000 0 0 1
19.206075 5.182751 31.270644 37.061940 0.263572 0.566583 0.009990 0.008674 -188108.000000 0 0 1
18.900975 5.864451 32.634394 38.165984 0.300854 0.545120 0.009145 0.019035 -402435.000000 0 0 1
17.925575 5.164751 33.358324 38.220134 0.280524 0.509898 -0.003739 0.023777 -28365.400000 0 0 1
17.815875 5.814851 34.580204 39.332028 0.315485 0.496643 -0.004289 0.024363 -342530.000000 0 0 1
16.639875 5.266451 -33.941519 38.166053 0.306521 2.666634 -0.001799 0.023634 -503959.000000 0 0 1
16.669375 3.815351 -33.818319 37.895958 0.225008 2.673430 0.000596 0.018630 -308069.000000 0 0 1
15.644075 3.353751 -32.988009 36.663244 0.211182 2.690009 -0.001964 0.016247 -153292.000000 0 0 1
15.470675 1.836651 -33.065349 36.551776 0.118165 2.701276 0.003555 0.007948 98024.400000 0 0 1
16.493875 1.167051 -32.352549 36.333144 0.070639 2.669111 0.007430 0.013171 31819.400000 0 0 1
16.692075 -0.184649 -32.800079 36.803595 -0.011062 2.670823 0.014598 0.005452 83315.200000 0 0 1
17.872275 -0.960849 -32.146969 36.793600 -0.053710 2.633576 0.017645 0.000413 15573.700000 0 0 1
17.755475 -1.284349 -30.752789 35.533652 -0.072210 2.616855 0.021806 -0.000472 165681.000000 0 0 1
17.536375 -0.175049 -29.848419 34.619116 -0.009982 2.610383 0.012744 0.007402 -258639.000000 0 0 1
17.339275 -0.499949 -28.359389 33.243876 -0.028825 2.592639 0.011054 0.003417 51051.700000 0 0 1
16.120875 -1.112349 -27.977499 32.308828 -0.068891 2.617823 0.011731 -0.000478 15446.000000 0 0 1
15.880075 -1.454349 -26.605569 31.018514 -0.091328 2.601638 0.010831 -0.000685 -39102.400000 0 0 1
16.838775 -2.464349 -25.942549 31.026330 -0.145318 2.561015 0.007630 -0.000314 -759842.000000 0 0 1
18.133975 -2.041349 -25.592359 31.432101 -0.112098 2.522165 0.007744 -0.005015 -171861.000000 0 0 1
19.008475 -3.173749 -25.559369 32.010563 -0.165439 2.495540 0.009019 -0.003252 290179.000000 0 0 1
19.592375 -3.549449 -26.928999 33.490755 -0.179221 2.504910 0.010609 -0.004461 -639706.000000 0 0 1
20.729675 -2.742649 -27.206009 34.313386 -0.131541 2.486298 0.005787 0.000455 99411.100000 0 0 1
21.162775 -2.893249 -28.566779 35.669241 -0.135872 2.499560 -0.003086 -0.003157 -415662.000000 0 0 1
22.655675 -2.639749 -28.735399 36.687478 -0.115993 2.470670 -0.001446 -0.004930 -265700.000000 0 0 1
23.435675 -3.834249 -28.462939 37.068466 -0.162171 2.446271 0.002671 -0.008727 763849.000000 0 0 1
24.803575 -3.549749 -28.797899 38.172464 -0.142149 2.425560 -0.007829 -0.004754 895027.000000 0 0 1
25.815975 -4.721549 -28.571359 38.795362 -0.180893 2.398624 -0.002188 -0.005826 52188.200000 0 0 1
25.779775 -5.801149 -29.480049 39.589435 -0.221340 2.410798 0.009945 -0.012975 120607.000000 0 0 1
26.710975 -6.797249 -29.109139 40.087663 -0.249185 2.383483 0.009109 -0.015751 -92531.100000 0 0 1
26.478475 -7.651449 -27.787759 39.138393 -0.281306 2.360276 0.008193 -0.013731 -502470.000000 0 0 1
26.711075 -6.982249 -26.589919 38.330889 -0.255678 2.337402 0.010504 -0.004762 254346.000000 0 0 1
26.531675 -7.863049 -25.526539 37.647861 -0.288118 2.315881 0.005010 -0.001121 -181963.000000 0 0 1
26.251375 -7.146049 -24.176729 36.396633 -0.265776 2.297296 -0.006836 -0.002663 -601252.000000 0 0 1
27.494075 -6.843049 -23.642829 36.901691 -0.243935 2.266203 -0.008179 0.000248 -225069.000000 0 0 1
27.437775 -6.087349 -22.427529 35.956659 -0.218324 2.244312 -0.002451 -0.004496 15889.400000 0 0 1
28.855375 -5.647749 -21.978229 36.709294 -0.193283 2.212686 0.007840 -0.001845 221005.000000 0 0 1
29.367175 -4.500249 -22.681129 37.378025 -0.152058 2.222830 0.002161 -0.002513 -278045.000000 0 0 1
30.700675 -4.264049 -22.345529 38.210420 -0.138008 2.195432 0.002331 -0.002003 -452667.000000 0 0 1
31.278975 -2.979849 -22.915529 38.889269 -0.094980 2.200927 0.006197 -0.007150 71515.000000 0 0 1
30.576175 -1.868049 -22.375829 37.935073 -0.061019 2.201664 0.006646 -0.006350 379315.000000 0 0 1
31.029875 -0.700949 -23.034129 38.651204 -0.022586 2.209243 0.004105 -0.004889 -375055.000000 0 0 1
30.080675 0.457651 -22.752529 37.719146 0.015213 2.218315 0.009786 0.004483 395437.000000 0 0 1
28.876975 0.213451 -23.528829 37.249577 0.007392 2.254481 0.003980 0.007793 648959.000000 0 0 1
28.070175 1.336451 -23.360329 36.543478 0.047575 2.264316 0.000242 0.017584 -1131690.000000 0 0 1
26.762375 1.408951 -24.094229 36.038059 0.052598 2.303090 -0.007733 0.020196 -808012.000000 0 0 1
25.911575 2.442351 -23.675629 35.183948 0.093980 2.308932 -0.008323 0.018137 -346674.000000 0 0 1
24.938175 2.718251 -24.627529 35.154184 0.108571 2.346975 -0.006657 0.012322 -713736.000000 0 0 1
23.898775 3.745351 -24.238029 34.244140 0.155453 2.357176 -0.000055 0.011153 -462016.000000 0 0 1
24.383175 5.062551 -24.279729 34.780366 0.204716 2.343519 -0.004473 0.016770 99294.400000 0 0 1
23.382075 5.927551 -23.836229 33.911990 0.248278 2.350242 0.016086 0.008269 -334164.000000 0 0 1
23.960075 7.325551 -23.481429 34.338410 0.296714 2.323787 0.027979 0.008827 54671.900000 0 0 1
24.669475 7.996451 -24.497229 35.674086 0.313457 2.327730 0.019211 0.008603 239614.000000 0 0 1
24.959775 9.304651 -24.073229 35.903861 0.356828 2.305667 0.025041 0.006152 -159483.000000 0 0 1
25.842775 10.144051 -25.051829 37.394450 0.374050 2.304917 0.039512 0.000567 -151114.000000 0 0 1
25.236775 10.576251 -26.280229 37.939456 0.396846 2.336007 0.032904 -0.018411 -403215.000000 0 0 1
24.104375 11.354651 -26.205979 37.372481 0.440230 2.347890 0.036205 -0.021252 -532001.000000 0 0 1
23.338675 11.459551 -27.554319 37.884767 0.456431 2.385204 0.017813 -0.019975 -97160.900000 0 0 1
22.930475 10.266951 -28.232209 37.792520 0.420975 2.414382 0.022319 -0.008079 400166.000000 0 0 1
23.963775 9.520251 -28.851419 38.694987 0.378157 2.412248 0.022311 -0.012271 198428.000000 0 0 1
24.612375 10.141051 -30.175769 40.239122 0.390834 2.418724 0.013461 -0.007492 -877037.000000 0 0 1
25.380075 11.304651 -29.928119 40.836695 0.419034 2.393332 0.002118 -0.005527 576844.000000 0 0 1
26.220175 11.736551 -31.000659 42.264465 0.420869 2.394242 0.000502 -0.004296 632809.000000 0 0 1
27.278175 10.785451 -31.661679 43.161171 0.376524 2.394354 0.000577 -0.009676 -677574.000000 0 0 1
26.677575 9.656551 -32.222079 42.932556 0.347301 2.419657 0.005246 -0.002690 -553264.000000 0 0 1
27.502375 8.556051 -32.331979 43.300618 0.301611 2.413863 0.006393 -0.002477 -477154.000000 0 0 1
26.756475 7.487951 -33.165899 43.266097 0.272875 2.444258 0.013113 0.000856 -157047.000000 0 0 1
25.739375 6.786551 -32.508179 42.016120 0.257797 2.455468 0.010190 0.000800 -418371.000000 0 0 1
25.260875 5.805251 -33.353529 42.240628 0.225890 2.480966 0.002465 0.010969 417413.000000 0 0 1
23.902675 5.175351 -32.838029 40.944575 0.213226 2.501452 0.008278 0.015031 1188880.000000 0 0 1
22.731075 5.985651 -32.995949 40.512497 0.257480 2.522600 0.006397 0.013263 590937.000000 0 0 1
22.528875 6.717251 -31.762529 39.516198 0.289770 2.504427 0.012099 0.011990 -554168.000000 0 0 1
21.067375 7.184851 -31.709729 38.742267 0.328672 2.529555 0.005768 0.013785 -130015.000000 0 0 1
20.767275 8.155151 -32.722569 39.604958 0.374191 2.543168 0.004182 0.018706 486473.000000 0 0 1
19.409675 8.583951 -32.577949 38.881132 0.416391 2.564195 -0.004404 0.024083 412240.000000 0 0 1
19.017575 9.585851 -33.640549 39.815113 0.466884 2.577210 -0.004363 0.028127 -375703.000000 0 0 1
18.910875 9.124751 34.374271 40.279930 0.449561 0.548352 -0.003430 0.028005 75104.500000 0 0 1
18.632175 10.085851 33.383988 39.539512 0.496150 0.565502 -0.012761 0.023513 69416.700000 0 0 1
17.585275 9.494251 32.396224 38.064393 0.495054 0.552738 -0.013588 0.019431 102242.000000 0 0 1
18.009075 8.460651 31.477564 37.239044 0.439197 0.563700 -0.014231 0.012748 966305.000000 0 0 1
19.073975 8.784251 30.508324 37.036974 0.431581 0.602844 -0.004260 0.008565 394757.000000 0 0 1
18.672175 9.721851 29.304234 36.081888 0.480039 0.622953 -0.002696 -0.000503 -318193.000000 0 0 1
17.713675 9.161951 28.408264 34.709438 0.477332 0.612072 -0.013777 0.011486 228586.000000 0 0 1
16.436375 9.718951 28.712244 34.481957 0.534003 0.586876 -0.020286 0.009875 32399.300000 0 0 1
15.373075 8.850451 27.968184 33.119197 0.522369 0.565221 -0.005948 0.007845 -503119.000000 0 0 1
15.402375 9.050551 26.546834 31.998125 0.531258 0.592339 -0.008634 0.011295 487342.000000 0 0 1
14.203175 8.619551 25.897874 30.768924 0.545459 0.570392 0.004446 0.010739 352495.000000 0 0 1
14.031175 7.050251 25.781544 30.187214 0.465622 0.547065 0.003697 0.013837 -324252.000000 0 0 1
13.881375 6.421951 27.023974 31.052040 0.433308 0.515026 0.004132 0.001858 -171996.000000 0 0 1
13.708675 5.023351 26.998574 30.693400 0.351241 0.495730 0.004358 -0.000827 -185404.000000 0 0 1
14.165075 4.277051 28.249734 31.890280 0.293239 0.482492 -0.001191 -0.007799 -521928.000000 0 0 1
15.556475 4.339751 28.427324 32.694802 0.272051 0.516657 -0.003332 0.002416 -293845.000000 0 0 1
15.935075 3.691551 29.630164 33.845247 0.227646 0.504409 -0.000594 0.000872 -515247.000000 0 0 1
16.543675 2.314551 29.341554 33.763547 0.139003 0.517557 0.009626 -0.000093 -213645.000000 0 0 1
15.640075 1.246051 29.010564 32.981471 0.079503 0.495772 0.000294 -0.007944 237831.000000 0 0 1
14.909875 0.714151 30.092334 33.591114 0.047861 0.460474 -0.007142 -0.002742 106734.000000 0 0 1
14.573975 -0.817149 29.892114 33.265702 -0.056010 0.454259 -0.010819 -0.001820 -568752.000000 0 0 1
13.721075 -1.106949 28.841474 31.958158 -0.080501 0.445312 -0.015347 -0.004397 -202267.000000 0 0 1
14.375675 -1.272949 27.578744 31.126637 -0.088318 0.482112 -0.011594 -0.005272 -779814.000000 0 0 1
15.470775 -2.393049 27.407784 31.563558 -0.153466 0.518958 -0.003144 -0.001142 213398.000000 0 0 1
16.743375 -2.193749 27.970114 32.672319 -0.130280 0.543160 -0.001722 -0.000574 -48777.400000 0 0 1
17.427675 -1.113149 27.349274 32.449125 -0.063786 0.568266 0.001694 -0.005097 -1779560.000000 0 0 1
18.884675 -0.900149 27.721464 33.554743 -0.047630 0.598545 0.021339 0.008028 -618204.000000 0 0 1
19.806875 -1.667849 26.993344 33.522151 -0.084007 0.634718 0.009120 0.006039 10196.900000 0 0 1
21.127375 -1.284949 27.376924 34.605101 -0.060744 0.658152 0.017241 0.001271 757541.000000 0 0 1
22.220075 -1.822849 26.388874 34.546015 -0.081853 0.701498 0.009483 0.009813 107605.000000 0 0 1
22.106175 -1.179049 25.117254 33.480585 -0.053285 0.722426 0.014985 0.014645 468942.000000 0 0 1
21.231475 -1.835349 24.192584 32.240117 -0.086230 0.722148 0.005856 0.025564 -228679.000000 0 0 1
21.241275 -1.335449 22.718484 31.130446 -0.062788 0.752791 0.006165 0.004027 -462379.000000 0 0 1
20.671275 -0.054749 22.758884 30.745266 -0.002649 0.737369 0.000835 0.009413 174064.000000 0 0 1
20.639975 0.344751 21.380884 29.719852 0.016702 0.767838 0.005507 0.011461 -669233.000000 0 0 1
-29.245755 -28.115317 -10.695829 41.954571 0.765693 1.828580 -0.008099 0.010811 -66879.900000 0 0 1
-29.065415 -26.956617 -9.851529 40.847401 0.747774 1.814377 -0.008142 0.012023 38982.600000 0 0 1
-29.615975 -27.264517 -8.564329 41.155894 0.744081 1.780423 -0.004253 0.001610 -774830.000000 0 0 1
-29.805935 -25.926617 -7.692529 40.246220 0.715904 1.763116 0.003847 -0.000450 -567284.000000 0 0 1
-28.712855 -25.240717 -7.177029 38.897707 0.721133 1.756370 -0.008177 -0.001413 -540366.000000 0 0 1
-28.059505 -26.020017 -6.094829 38.749504 0.747703 1.728740 -0.009878 -0.002503 1295760.000000 0 0 1
-26.817625 -25.262217 -5.427929 37.240127 0.755541 1.717072 -0.015367 0.006929 662671.000000 0 0 1
-27.138345 -24.175517 -4.505929 36.623064 0.727723 1.694144 -0.003133 0.002601 -40168.300000 0 0 1
-27.684345 -23.032817 -5.203029 36.386882 0.693939 1.714280 -0.010011 -0.003561 -6222.080000 0 0 1
-27.981815 -21.877817 -4.215329 35.768560 0.663581 1.688921 -0.010611 -0.012155 -246620.000000 0 0 1
-26.825415 -21.089417 -4.042629 34.361450 0.666253 1.688720 -0.000221 -0.015697 146357.000000 0 0 1
-27.110655 -19.984817 -3.226429 33.834751 0.635231 1.666300 0.005106 -0.009029 119263.000000 0 0 1
-26.020165 -18.861917 -3.154629 32.291990 0.627240 1.668643 0.008682 -0.013153 -14212.600000 0 0 1
-25.909225 -18.041017 -4.277229 31.860021 0.608249 1.705454 0.007429 -0.014575 -25141.000000 0 0 1
-25.071445 -16.946017 -3.999529 30.524435 0.594374 1.702201 0.015497 -0.012487 -94719.400000 0 0 1
-25.075805 -15.869217 -5.062929 30.104174 0.564224 1.739780 0.011008 -0.020313 82849.400000 0 0 1
-26.304145 -15.156617 -5.028329 30.771987 0.522740 1.734938 0.009231 -0.013985 107209.000000 0 0 1
-26.438605 -14.288217 -6.155629 30.676453 0.495466 1.772831 0.020086 -0.021762 349029.000000 0 0 1
-27.755065 -13.464417 -6.383629 31.502141 0.451669 1.774851 0.024663 -0.014671 823619.000000 0 0 1
-28.792585 -14.228217 -6.988829 32.867900 0.458967 1.785066 0.018963 -0.009487 670096.000000 0 0 1
-30.072745 -13.584417 -6.962329 33.725071 0.424282 1.778735 0.008575 -0.001762 386907.000000 0 0 1
-31.084645 -14.480317 -7.699529 35.145661 0.435944 1.791662 -0.000559 -0.008851 -565405.000000 0 0 1
-31.298085 -15.670817 -6.968929 35.689083 0.464204 1.767327 -0.003364 -0.010805 -13884.800000 0 0 1
-31.866175 -16.585517 -7.883829 36.778897 0.479892 1.786830 -0.003480 0.006985 -776172.000000 0 0 1
-32.813845 -17.563217 -7.174029 37.903585 0.491439 1.761215 -0.008434 -0.003739 -471940.000000 0 0 1
-34.119039 -17.195417 -6.845329 38.815586 0.466829 1.748079 0.000973 -0.012782 -362749.000000 0 0 1
-34.291394 -16.173917 -5.855529 38.363818 0.440721 1.724027 0.001463 -0.012283 -300136.000000 0 0 1
33.856014 -16.053517 -5.574329 37.881635 -0.442771 1.718484 0.026107 -0.015339 -379385.000000 0 0 1
33.146720 -15.405817 -6.604029 37.143740 -0.435074 1.749543 0.015397 -0.014985 2013190.000000 0 0 1
31.685100 -15.295617 -6.470629 35.773880 -0.449743 1.752673 0.020848 -0.014831 2278470.000000 0 0 1
31.068190 -14.547717 -5.238129 34.703120 -0.437928 1.722317 0.019821 -0.016418 -640790.000000 0 0 1
31.353730 -15.191217 -3.984829 35.067197 -0.451180 1.684676 0.012746 -0.006840 543233.000000 0 0 1
30.555830 -14.681617 -2.889129 34.022870 -0.447914 1.655816 0.006245 -0.009105 -674810.000000 0 0 1
30.578670 -15.494617 -1.558929 34.315718 -0.469004 1.616241 0.005041 -0.002758 716703.000000 0 0 1
31.900320 -15.764317 -1.014729 35.597385 -0.458976 1.599306 0.006494 -0.004739 1319760.000000 0 0 1
32.774190 -16.573417 -1.795529 36.770227 -0.468185 1.619647 0.004149 -0.013362 -887001.000000 0 0 1
32.332760 -18.038917 -2.021529 37.079597 -0.508899 1.625342 0.009076 -0.014282 -1044000.000000 0 0 1
32.694820 -18.911617 -0.947229 37.782241 -0.524407 1.595870 0.001761 -0.017130 382975.000000 0 0 1
32.354380 -20.262617 -1.197429 38.194416 -0.559513 1.602152 0.000980 -0.015199 165360.000000 0 0 1
33.315600 -21.069817 -2.161729 39.478342 -0.563925 1.625581 0.001413 -0.018389 221757.000000 0 0 1
33.472800 -20.467517 -3.415329 39.382891 -0.548809 1.657627 -0.012577 -0.025143 -104660.000000 0 0 1
34.493499 -20.972017 -4.234429 40.590114 -0.546280 1.675308 -0.005766 -0.026633 -484263.000000 0 0 1
34.539943 -20.190717 -5.559329 40.392807 -0.528990 1.708866 0.024788 -0.025887 -244479.000000 0 0 1
33.325190 -20.319117 -6.278929 39.533021 -0.547538 1.730299 0.011087 -0.031439 305624.000000 0 0 1
33.106890 -19.336617 -7.279329 39.025115 -0.528621 1.758425 0.017381 -0.020032 -68891.600000 0 0 1
31.913640 -19.517317 -8.242929 38.306030 -0.548881 1.787679 0.014001 -0.017371 24136.500000 0 0 1
32.075590 -20.669817 -9.003529 39.206484 -0.572435 1.802508 0.011923 -0.023615 101767.000000 0 0 1
31.020950 -20.833917 -9.925329 38.663466 -0.591416 1.830414 0.008697 -0.022755 -358577.000000 0 0 1
30.940000 -22.120217 -10.676429 39.504098 -0.620682 1.844461 0.003758 -0.010460 -196596.000000 0 0 1
30.718710 -23.223417 -9.779629 39.731693 -0.647332 1.819494 -0.003556 -0.017792 -89823.200000 0 0 1
30.732480 -24.450317 -10.445629 40.637600 -0.672043 1.830758 -0.013477 -0.013865 -682155.000000 0 0 1
29.980390 -25.613317 -9.751729 40.619725 -0.707006 1.813238 -0.006687 -0.016476 56190.800000 0 0 1
28.646870 -25.215317 -9.471429 39.321284 -0.721774 1.814061 -0.005239 -0.018487 -411784.000000 0 0 1
27.881150 -26.262317 -8.961429 39.336688 -0.755508 1.800628 -0.017305 -0.016465 -90273.300000 0 0 1
26.437330 -25.731817 -8.777129 37.922247 -0.771875 1.804365 0.001953 -0.027118 38486.300000 0 0 1
25.931910 -25.368217 -10.081129 37.651555 -0.774410 1.841851 0.004911 -0.019395 914891.000000 0 0 1
24.549220 -24.950817 -9.942629 36.387681 -0.793511 1.847558 0.012252 -0.024179 778360.000000 0 0 1
23.868020 -24.721317 -11.292529 36.171081 -0.802958 1.888302 0.030499 -0.023530 -424292.000000 0 0 1
23.152620 -25.872917 -11.682229 36.632310 -0.840829 1.895370 0.025695 -0.021371 359831.000000 0 0 1
22.462420 -25.592417 -12.896929 36.412400 -0.850440 1.932845 0.028242 -0.009870 120465.000000 0 0 1
21.798320 -26.853117 -13.575729 37.155848 -0.888925 1.944829 0.028375 -0.011560 51451.900000 0 0 1
22.649420 -27.717217 -14.300429 38.545332 -0.885679 1.950885 0.021255 -0.008198 -13952.100000 0 0 1
22.256420 -29.047817 -14.188329 39.248345 -0.917008 1.940674 0.034784 -0.008356 -93378.600000 0 0 1
23.189720 -30.071217 -14.902629 40.793744 -0.913890 1.944769 0.028595 -0.004575 -45481.100000 0 0 1
23.115620 -29.962317 -16.306229 41.206376 -0.913683 1.977649 0.019535 -0.000262 245332.000000 0 0 1
23.237120 -31.266017 -16.865529 42.449660 -0.931657 1.979376 0.012997 -0.002014 -415667.000000 0 0 1
23.300920 -31.432617 -18.396929 43.236435 -0.932888 2.010306 0.000300 0.011478 408183.000000 0 0 1
22.028520 -31.103617 -18.959929 42.569585 -0.954568 2.032402 0.009081 0.008210 353700.000000 0 0 1
21.880820 -31.433217 -20.325429 43.358280 -0.962689 2.058704 0.004364 0.007280 -514231.000000 0 0 1
20.560120 -30.938417 -20.884429 42.615297 -0.984261 2.082965 0.004962 0.003514 -536403.000000 0 0 1
20.404920 -30.885117 -22.293629 43.211771 -0.986956 2.112873 0.003601 0.002254 1546160.000000 0 0 1
19.011220 -30.732917 -22.715129 42.683905 -1.016816 2.131959 0.015251 -0.004145 1168380.000000 0 0 1
18.872820 -30.815317 -24.246929 43.516441 -1.021273 2.161794 0.009738 0.004682 -440376.000000 0 0 1
19.412120 -29.668317 -24.871529 43.308572 -0.991401 2.182529 0.000875 0.001226 370765.000000 0 0 1
19.457320 -29.902217 -26.237099 44.284481 -0.993930 2.204914 0.000790 -0.001256 -419287.000000 0 0 1
19.988920 -28.659017 -27.078659 44.205768 -0.961768 2.230091 -0.015226 -0.005692 491123.000000 0 0 1
19.082620 -27.551317 -27.267379 43.205687 -0.965040 2.253775 -0.004052 -0.007557 -213850.000000 0 0 1
17.949120 -27.826217 -28.026949 43.381783 -0.997913 2.273199 -0.012405 -0.006427 -641586.000000 0 0 1
17.192620 -26.536817 -28.396769 42.499004 -0.995914 2.302549 -0.011616 -0.007753 -466501.000000 0 0 1
16.502620 -25.938717 -27.332829 41.136809 -1.004172 2.297537 -0.019468 0.001835 -352200.000000 0 0 1
16.178920 -24.624617 -27.672029 40.421163 -0.989500 2.324841 -0.017761 0.007260 -483951.000000 0 0 1
15.176920 -24.075117 -26.640289 38.982755 -1.008324 2.323188 -0.012450 -0.000998 434472.000000 0 0 1
13.895920 -24.708017 -26.872649 39.060491 -1.058479 2.329492 -0.010475 -0.007961 715904.000000 0 0 1
12.815920 -24.306717 -26.033679 37.852566 -1.085581 2.329202 -0.007958 -0.010047 469152.000000 0 0 1
12.836320 -24.763417 -24.547129 37.155881 -1.092570 2.292484 -0.002979 -0.001082 -942046.000000 0 0 1
13.667820 -24.054417 -23.720229 36.442743 -1.054084 2.279553 -0.021121 -0.008642 -549670.000000 0 0 1
13.814320 -24.607217 -22.408029 36.034294 -1.059248 2.241903 -0.007623 -0.006076 323498.000000 0 0 1
14.914420 -23.942017 -21.526529 35.483116 -1.013680 2.222661 -0.016104 -0.010317 401215.000000 0 0 1
14.592620 -22.632117 -21.074629 34.194989 -0.998103 2.234842 -0.018765 -0.012855 50760.500000 0 0 1
15.796020 -22.031717 -20.648829 34.077631 -0.948773 2.221737 -0.009139 -0.007977 -583934.000000 0 0 1
15.671020 -20.638617 -19.955429 32.707072 -0.921366 2.227016 -0.010297 0.008111 160326.000000 0 0 1
15.009820 -20.629717 -18.678929 31.619334 -0.941797 2.202777 -0.000578 -0.011927 -122094.000000 0 0 1
13.612020 -20.630717 -18.771529 31.036815 -0.987567 2.220330 -0.015294 -0.007591 -705620.000000 0 0 1
12.985620 -20.535517 -17.357429 29.859908 -1.006930 2.191116 -0.000419 -0.009836 -250157.000000 0 0 1
13.087620 -19.267817 -16.732429 28.679413 -0.974134 2.193742 0.006576 -0.003172 215412.000000 0 0 1
12.599020 -19.258417 -15.390029 27.685284 -0.991468 2.160232 0.012969 -0.006071 -91778.000000 0 0 1
12.780620 -17.916917 -14.701029 26.466591 -0.951182 2.159708 0.010236 -0.006164 -258965.000000 0 0 1
11.784320 -16.969517 -15.012829 25.538593 -0.963811 2.199193 0.001850 -0.005782 136619.000000 0 0 1
12.247320 -15.665217 -14.761329 24.764747 -0.907242 2.209384 0.014367 -0.006888 106238.000000 0 1 0
11.077020 -14.708817 -14.363029 23.352650 -0.925322 2.233245 0.021782 -0.008734 -194172.000000 0 1 0
10.217820 -14.582617 -15.457429 23.579412 -0.959611 2.285704 0.021148 0.007602 -734933.000000 0 1 0
9.013120 -13.990317 -15.049029 22.437437 -0.998481 2.305963 0.021172 0.002345 -122492.000000 0 1 0
8.233320 -13.449917 -16.285029 22.669142 -1.021493 2.372265 0.022096 0.005426 -90747.300000 0 1 0
8.561420 -12.186817 -16.806329 22.455937 -0.958385 2.416463 0.019761 0.002244 -323737.000000 0 1 0
9.774520 -12.157417 -17.516529 23.455763 -0.893623 2.414019 0.018759 0.002112 -85367.800000 0 1 0
9.969120 -10.922217 -18.469729 23.660285 -0.830988 2.466456 0.022794 -0.002494 641298.000000 0 1 0
9.085320 -11.136317 -19.605429 24.309123 -0.886478 2.509013 0.016566 0.000327 753219.000000 0 1 0
8.891820 -9.964817 -20.374729 24.361683 -0.842240 2.561375 -0.001594 -0.004864 94959.100000 0 1 0
8.417120 -10.201517 -21.864629 25.553490 -0.880946 2.597586 0.007251 -0.000380 543385.000000 0 0 1
9.476320 -10.562717 -22.773529 26.832914 -0.839559 2.584349 0.004635 0.014330 37787.900000 0 0 1
9.092720 -10.765117 -24.123729 27.937781 -0.869418 2.612926 0.002792 0.014943 -30405.400000 0 0 1
10.220720 -11.422617 -24.964429 29.294402 -0.840873 2.590955 0.009367 0.013086 291068.000000 0 0 1
10.407120 -12.836417 -24.740729 29.752066 -0.889535 2.552713 0.008127 0.011457 270.259000 0 0 1
11.546720 -13.429717 -25.357949 30.930723 -0.860647 2.531911 0.007503 0.002775 170697.000000 0 0 1
11.652920 -14.939917 -25.022329 31.386440 -0.908379 2.493495 0.000431 0.003625 375998.000000 0 0 1
10.764420 -15.840417 -25.773949 32.110559 -0.973925 2.502543 0.004257 -0.000334 416647.000000 0 0 1
10.670720 -17.131017 -25.159399 32.254168 -1.013717 2.465519 0.001655 0.003076 487612.000000 0 0 1
9.453320 -17.954317 -25.705109 32.748670 -1.086158 2.473364 0.008341 -0.002333 493296.000000 0 0 1
9.684020 -18.835517 -26.758649 34.125976 -1.095904 2.472063 0.011069 -0.011903 -444532.000000 0 0 1
8.505720 -19.562417 -27.036439 34.438416 -1.160655 2.473599 0.016080 -0.010606 -47819.300000 0 0 1
8.650920 -20.562017 -28.238379 35.986678 -1.172554 2.472992 0.011678 -0.015435 -559296.000000 0 0 1
9.304420 -21.779017 -28.005419 36.676986 -1.167047 2.439619 0.004479 -0.008468 -98809.600000 0 0 1
9.207320 -22.683517 -29.049349 37.989227 -1.185211 2.441331 0.006625 -0.005975 -258442.000000 0 0 1
10.307220 -23.722717 -28.867419 38.759953 -1.160917 2.410993 0.003032 -0.009345 -183040.000000 0 0 1
10.129120 -24.715217 -29.899269 40.092484 -1.181842 2.412467 -0.001345 -0.004393 244343.000000 0 0 1
10.842920 -25.971317 -29.776719 40.972323 -1.175299 2.384378 0.004401 -0.000098 -91841.200000 0 0 1
10.250220 -26.990717 -28.744619 40.740875 -1.207852 2.353992 0.014259 0.003938 23198.600000 0 0 1
10.611420 -26.573917 -27.455539 39.655793 -1.190879 2.335532 0.007793 -0.000332 -349984.000000 0 0 1
9.851420 -27.025117 -26.340209 39.002744 -1.221238 2.312225 0.011480 0.004048 39984.800000 0 0 1
8.848320 -25.997017 -25.783989 37.668976 -1.242736 2.324698 0.013809 0.001709 -544480.000000 0 0 1
9.480920 -24.880717 -25.200039 36.660331 -1.206728 2.328689 0.008352 0.003719 -438447.000000 0 0 1
8.576020 -23.868717 -24.904029 35.545386 -1.225861 2.347071 -0.000222 0.002058 -351771.000000 0 0 1
9.317120 -22.559117 -24.671829 34.704778 -1.179126 2.361582 -0.002811 0.001121 -65699.200000 0 0 1
9.993220 -22.444717 -23.460429 33.970892 -1.151910 2.333120 -0.003021 -0.003139 -164320.000000 0 0 1
11.072220 -21.547917 -23.599629 33.820841 -1.096137 2.343095 -0.003190 -0.001856 24819.100000 0 0 1
11.736220 -21.198217 -22.175329 32.845829 -1.065161 2.311942 -0.007448 0.003336 -154778.000000 0 0 1
10.949820 -20.508117 -21.247029 31.494724 -1.080378 2.311249 -0.009343 0.004127 -138202.000000 0 0 1
10.559220 -19.157817 -21.592129 30.736609 -1.067055 2.349685 -0.006354 0.006490 719624.000000 0 0 1
11.741720 -18.109117 -21.424929 30.411111 -0.995556 2.352529 -0.010827 0.009676 726142.000000 0 0 1
12.796520 -18.320617 -22.342729 31.600530 -0.961094 2.356095 -0.008096 0.006171 471633.000000 0 0 1
13.744620 -17.220917 -22.138829 31.234633 -0.897193 2.358579 -0.003401 0.013721 416312.000000 0 0 1
14.901420 -17.214417 -23.134729 32.459269 -0.857294 2.364180 -0.018991 0.016109 70211.000000 0 0 1
16.018820 -18.045417 -22.853129 33.234097 -0.844822 2.329031 -0.015970 0.017688 585827.000000 0 0 1
17.255020 -17.427117 -23.126629 33.708769 -0.790360 2.326872 -0.015424 0.021959 532518.000000 0 0 1
18.509620 -17.926117 -22.339129 34.102616 -0.769385 2.285053 -0.015078 0.016612 462832.000000 0 0 1
18.842720 -19.236617 -22.500629 35.090937 -0.795742 2.266869 -0.011554 0.010208 -653513.000000 0 0 1
19.992120 -19.615817 -21.838329 35.515880 -0.775898 2.233042 -0.003473 0.008051 -816702.000000 0 0 1
20.109820 -21.127017 -21.616829 36.304862 -0.810060 2.208591 -0.008686 0.008079 -447770.000000 0 0 1
19.208920 -21.646217 -20.684729 35.572452 -0.844985 2.191345 -0.014426 0.008029 -14492.300000 0 0 1
19.240120 -23.058517 -20.505429 36.364131 -0.875426 2.169887 -0.006007 0.007989 -474672.000000 0 0 1
-15.702625 13.177051 29.389034 35.831864 -0.698168 0.609049 0.000467 -0.008920 -511268.000000 0 0 1
-16.927125 13.796751 29.128204 36.405085 -0.683861 0.643312 0.010974 -0.010912 -450462.000000 0 0 1
-17.188425 13.683851 27.734704 35.382249 -0.672364 0.669939 0.007844 -0.014640 35600.800000 0 0 1
-18.444925 14.349351 27.143474 35.817417 -0.661155 0.710817 0.016335 -0.010099 7644.020000 0 0 1
-18.323225 15.729451 27.044834 36.257127 -0.709376 0.728885 0.008970 -0.005449 -550362.000000 0 0 1
-19.342125 16.325051 26.318124 36.513953 -0.701009 0.765885 0.009038 -0.006960 -891230.000000 0 0 1
-19.485125 17.887951 26.605474 37.516665 -0.742688 0.782484 0.011724 0.000510 158081.000000 0 0 1
-18.511325 18.825551 26.173304 37.176772 -0.793814 0.789750 0.003140 0.004513 1011700.000000 0 0 1
-17.208425 18.814551 26.788124 36.982710 -0.829955 0.760717 -0.001256 0.004838 370459.000000 0 0 1
-16.144025 19.683051 26.173714 36.511852 -0.883860 0.771515 0.001846 0.006156 -579635.000000 0 0 1
-16.283725 21.055751 26.377514 37.473692 -0.912510 0.789931 0.009423 0.009646 200572.000000 0 0 1
-15.382425 21.745851 25.518074 36.887304 -0.955139 0.806839 0.019030 0.003086 226149.000000 0 0 1
-15.574125 23.294951 25.553544 37.923499 -0.981483 0.831432 0.023362 0.008096 -139876.000000 0 0 1
-15.272025 23.960951 26.760174 39.031639 -1.003350 0.815366 0.025742 0.009111 36597.100000 0 0 1
-15.354825 25.358051 26.636614 39.853615 -1.026327 0.838793 0.024010 0.007556 -291499.000000 0 0 1
-14.737625 26.166451 27.800284 40.923545 -1.057856 0.823957 0.010031 0.007968 201691.000000 0 0 1
-13.343125 26.373851 27.619444 40.453093 -1.102422 0.819273 0.011716 0.008462 -31338.000000 0 0 1
-12.889225 27.060351 28.761404 41.540500 -1.126276 0.806028 0.020612 0.006939 1562040.000000 0 0 1
-11.296525 26.948151 28.846754 41.060316 -1.173853 0.791828 0.034005 0.004986 1678940.000000 0 0 1
-10.651125 27.623751 27.783084 40.600713 -1.202784 0.817152 0.038427 0.011647 149136.000000 0 0 1
-9.244225 27.466951 27.838204 40.185255 -1.246146 0.805506 0.019275 0.008435 319621.000000 0 0 1
-8.419825 27.965151 26.627114 39.521467 -1.278346 0.831541 0.035677 0.006364 784730.000000 0 0 1
-6.991225 27.915651 26.777274 39.308819 -1.325403 0.821392 0.008245 -0.002209 1004000.000000 0 0 1
-6.443325 28.526551 25.600924 38.867569 -1.348653 0.851746 0.028749 -0.003051 800422.000000 0 0 1
-4.902525 28.393751 25.329674 38.364466 -1.399820 0.849661 -0.004394 -0.005019 235524.000000 0 0 1
-4.094925 29.112951 26.211204 39.387302 -1.431057 0.842668 -0.001504 -0.002103 17533.000000 0 0 1
-2.713525 28.981851 25.930254 38.983189 -1.477440 0.843082 -0.013231 0.003436 159305.000000 0 0 1
-2.161425 29.983051 24.903464 39.036363 -1.498833 0.878956 -0.018872 -0.000580 -904400.000000 0 0 1
-2.476925 29.780951 23.559284 38.053648 -1.487816 0.903191 -0.018258 -0.002171 -253122.000000 0 0 1
-2.152425 30.891651 22.782284 38.444239 -1.501232 0.936506 -0.019332 0.005925 -190106.000000 0 0 1
-2.868925 30.837751 21.405384 37.648215 -1.478030 0.966038 -0.014542 0.003692 20760.300000 0 0 1
-4.251525 30.676851 21.251984 37.560505 -1.433083 0.969385 -0.013452 0.002048 -552452.000000 0 0 1
-4.722725 29.372051 21.507084 36.709348 -1.411371 0.944837 -0.003326 0.002475 -424108.000000 0 0 1
-6.191225 29.079451 21.161584 36.493265 -1.361021 0.952219 0.002558 0.004751 -351163.000000 0 0 1
-6.344525 29.151751 19.725684 35.765629 -1.356500 0.986603 -0.001075 0.007124 317816.000000 0 0 1
-7.244925 28.147451 19.210284 34.839675 -1.318873 0.986766 -0.008689 0.012965 -506423.000000 0 0 1
-6.657925 26.694451 19.032184 33.453636 -1.326371 0.965614 -0.021325 0.012380 843703.000000 0 0 1
-5.559625 26.500651 18.116584 32.579205 -1.364003 0.981137 -0.019326 0.013119 231418.000000 0 0 1
-4.353925 27.054051 18.571084 33.102319 -1.411230 0.975178 -0.008971 0.011756 -1372280.000000 0 0 1
-3.412825 27.216151 17.359684 32.461129 -1.446050 1.006545 -0.000564 0.013354 -365520.000000 0 0 1
-3.084825 26.023951 16.712484 31.081656 -1.452809 1.003094 -0.002591 0.006994 -24454.700000 0 0 1
-2.705825 26.258451 15.355584 30.538856 -1.468113 1.043937 0.001004 0.005311 -119373.000000 0 0 1
-2.088025 25.086351 14.629584 29.115453 -1.487754 1.044345 -0.005367 -0.000895 521765.000000 0 0 1
-0.807925 24.682151 15.122884 28.957952 -1.538075 1.021326 -0.000567 -0.000474 364608.000000 0 0 1
-0.310625 23.554051 14.415584 27.617004 -1.557609 1.021623 0.001278 -0.011342 -398972.000000 0 0 1
0.910675 22.910651 15.100284 27.454432 1.531068 0.988417 -0.006883 -0.005101 1165900.000000 0 0 1
2.041675 23.846851 14.978184 28.234496 1.485388 1.011615 -0.002321 -0.002460 834160.000000 0 0 1
3.200375 23.422451 15.661784 28.357452 1.435000 0.985677 0.005842 0.000646 171149.000000 0 0 1
4.356375 24.444051 15.467984 29.253174 1.394430 1.013654 0.010632 0.002490 675334.000000 0 0 1
5.618875 23.844851 15.777584 29.138992 1.339375 0.998624 0.009743 0.003696 277421.000000 0 0 1
6.686375 24.780151 15.659484 30.066309 1.307245 1.022972 0.007285 0.008589 208574.000000 0 0 1
8.056575 24.057851 15.762984 29.869052 1.247651 1.014863 0.004353 0.011837 35197.900000 0 0 1
8.485375 23.368951 14.607484 28.835535 1.222495 1.039584 0.009503 0.010119 253340.000000 0 0 1
9.109775 24.183351 13.567484 29.187311 1.210539 1.087340 0.003824 0.008507 16675.200000 0 0 1
9.701575 23.423051 12.343984 28.198117 1.178118 1.117692 0.007976 0.007302 471086.000000 0 0 1
10.747575 22.511251 12.735684 28.008292 1.125366 1.098748 0.014021 0.009298 516087.000000 0 0 1
11.385675 21.970851 11.574684 27.318953 1.092681 1.133285 0.041397 0.005811 173591.000000 0 0 1
12.540875 21.021351 11.939484 27.234574 1.032897 1.116985 0.016850 0.010735 -178058.000000 0 0 1
12.122175 19.711251 12.127084 26.125595 1.019429 1.088083 0.019934 0.020209 183546.000000 0 0 1
13.150875 18.756251 12.466684 26.079890 0.959302 1.072398 0.035487 0.014698 420221.000000 0 0 1
13.691275 18.748551 13.899084 27.058154 0.940050 1.031334 0.024261 0.014639 123911.000000 0 0 1
14.494875 17.663351 14.399984 27.008423 0.883609 1.008457 0.028526 0.018134 293193.000000 0 0 1
15.012475 17.962351 15.669184 28.169909 0.874619 0.980944 0.016916 0.012219 -94037.700000 0 0 1
16.043175 16.854651 15.977084 28.226405 0.810060 0.969110 0.004057 0.006292 -68059.400000 0 0 1
16.676575 16.999451 17.229784 29.393111 0.794986 0.944455 0.015052 -0.005736 234713.000000 0 0 1
17.772875 16.089551 17.318184 29.574791 0.735728 0.945210 0.015853 -0.006171 283806.000000 0 0 1
17.958075 15.639651 18.786984 30.332193 0.716502 0.902851 0.016467 -0.007342 -159404.000000 0 0 1
18.572175 16.603751 19.648684 31.728237 0.729497 0.902970 0.010120 -0.006015 452649.000000 0 0 1
17.821575 17.799451 19.903784 32.102798 0.784777 0.902052 0.002675 0.001926 -362144.000000 0 0 1
18.370475 18.698951 20.972184 33.570189 0.794259 0.896015 -0.000671 0.000237 -78678.500000 0 0 1
17.634875 19.916151 21.049184 33.922117 0.846075 0.901397 -0.009970 -0.004957 363756.000000 0 0 1
18.437375 20.743951 21.862984 35.330417 0.844200 0.903563 -0.005515 0.006316 97395.400000 0 0 1
17.654875 21.870151 22.584684 36.056429 0.891645 0.893908 -0.008530 0.001074 101996.000000 0 0 1
16.697775 21.453051 23.554884 35.970566 0.909403 0.856828 -0.013475 -0.005555 498140.000000 0 0 1
15.987375 22.552051 24.162484 36.715348 0.954115 0.852500 -0.017566 -0.002716 279624.000000 0 0 1
15.359475 22.089751 25.486574 37.059898 0.963217 0.812462 -0.001430 -0.000991 48.683600 0 0 1
14.243975 21.271751 25.183644 35.910920 0.980752 0.793604 0.002978 -0.001828 -416485.000000 0 0 1
13.519475 21.059351 26.357124 36.345157 1.000087 0.759487 0.012483 0.004953 -201778.000000 0 0 1
12.340675 20.055551 26.240314 35.257219 1.019185 0.731380 0.022757 0.008878 -73171.400000 0 0 1
12.627275 18.665051 26.097644 34.480708 0.976003 0.712275 0.012281 0.006720 53149.400000 0 0 1
13.432375 18.227951 25.022334 33.746172 0.935725 0.735513 0.011459 0.004976 -22505.600000 0 0 1
12.584675 18.045351 23.746384 32.371276 0.961823 0.747246 0.014035 0.003633 -672646.000000 0 0 1
12.525375 19.165551 22.862084 32.355498 0.991939 0.786128 0.012004 0.006223 -207632.000000 0 0 1
13.699275 19.612751 22.200884 32.637546 0.961086 0.822726 0.007495 0.005877 91715.000000 0 0 1
14.294075 18.555651 21.279984 31.646018 0.914407 0.833299 0.002910 0.006850 -983178.000000 0 0 1
13.407375 18.198651 20.280584 30.368581 0.935846 0.839527 0.009097 -0.005221 -215955.000000 0 0 1
13.981175 17.092951 19.589684 29.519450 0.885206 0.845149 0.008101 -0.002919 -550435.000000 0 0 1
13.020775 16.264551 18.789984 28.056010 0.895713 0.836950 0.010224 0.000459 -566149.000000 0 0 1
12.398575 17.006251 17.780084 27.551200 0.940832 0.869319 0.015718 0.006383 147098.000000 0 0 1
11.417075 16.226351 17.086284 26.183681 0.957650 0.859845 0.009595 0.001013 329201.000000 0 0 1
10.975875 16.829051 15.741184 25.523943 0.992877 0.906224 0.017263 0.009710 -112979.000000 0 0 1
9.983675 17.801551 15.919084 25.884092 1.059675 0.908392 0.011789 0.012039 -150044.000000 0 0 1
9.876075 18.473351 14.712984 25.598310 1.079844 0.958481 0.006384 0.019500 233848.000000 0 0 1
8.851575 19.661751 14.862284 26.188210 1.147782 0.967308 0.004507 0.016997 622464.000000 0 0 1
7.494075 19.283451 15.038784 25.576897 1.200132 0.942233 -0.013916 0.009453 -366090.000000 0 0 1
6.727175 20.436751 15.078284 26.272996 1.252797 0.959526 -0.006175 0.004863 -328789.000000 0 0 1
5.412775 20.145351 15.832784 26.187981 1.308310 0.921555 0.002039 -0.001216 228504.000000 0 0 1
4.419575 19.600751 14.968084 25.055252 1.349025 0.930537 0.003660 -0.000511 354468.000000 0 0 1
3.252575 19.099451 15.629284 24.892625 1.402118 0.891985 -0.002879 -0.007947 867839.000000 0 1 0
2.098375 18.587551 14.729584 23.808841 1.458381 0.903760 0.001032 -0.011938 -125745.000000 0 1 0
1.478275 19.596651 14.000884 24.129625 1.495504 0.951778 0.002932 -0.016579 -417837.000000 0 1 0
0.587375 19.119051 13.049784 23.155561 1.540084 0.972095 0.003723 -0.023154 47972.900000 0 1 0
-0.382225 20.119051 12.329584 23.599597 -1.551800 1.021076 0.009156 -0.024264 709580.000000 0 1 0
-1.381325 20.790851 13.098484 24.611742 -1.504455 1.009594 0.013198 -0.020871 605084.000000 0 1 0
-2.504225 21.000951 12.230784 24.431602 -1.452113 1.046489 0.012218 -0.023553 1095660.000000 0 1 0
-3.757925 21.718151 12.831784 25.504015 -1.399461 1.043582 0.012969 -0.016748 645244.000000 0 0 1
-4.403925 21.072851 13.908384 25.630115 -1.364776 0.997198 0.012258 -0.017186 -678623.000000 0 0 1
-5.360825 21.922551 14.433284 26.789110 -1.330968 1.001815 0.005714 -0.006602 -1264510.000000 0 0 1
-6.257625 21.268451 15.477984 27.038360 -1.284650 0.961311 0.003153 -0.004582 -1133960.000000 0 0 1
-7.195425 20.434051 14.886584 26.285642 -1.232226 0.968739 0.001083 -0.005935 -443177.000000 0 0 1
-7.746625 19.360551 15.669884 26.084218 -1.190183 0.926367 0.001751 0.007711 429415.000000 0 0 1
-8.948225 19.677051 16.597484 27.253139 -1.143996 0.915982 -0.002545 0.015430 -686190.000000 0 0 1
-10.086925 20.012551 15.918184 27.488850 -1.103930 0.953199 -0.006423 -0.002306 30508.600000 0 0 1
-11.288125 20.033351 16.754784 28.451357 -1.057673 0.941109 -0.002864 0.011176 1073810.000000 0 0 1
-12.570625 19.931451 15.922184 28.439397 -1.008114 0.976575 -0.001634 -0.001026 -562105.000000 0 0 1
-12.977125 21.112351 15.270484 29.108845 -1.019660 1.018552 -0.009750 -0.003425 -514644.000000 0 0 1
-13.803025 20.786551 14.223684 28.721376 -0.984617 1.052697 -0.009842 -0.006036 -574364.000000 0 0 1
-14.835425 21.895351 13.893184 29.875020 -0.975290 1.087113 -0.011750 -0.002012 89751.100000 0 0 1
-15.889125 21.992251 14.829984 30.920088 -0.945137 1.070571 -0.010135 0.000009 -220216.000000 0 0 1
-16.568125 23.224451 14.764284 32.122609 -0.951139 1.093226 -0.006594 0.004824 -686541.000000 0 0 1
-17.847625 23.232651 15.568684 33.176464 -0.915740 1.082334 0.018501 0.007175 -1374220.000000 0 0 1
-18.771125 22.327551 15.054784 32.825618 -0.871717 1.094344 0.002366 -0.003169 369857.000000 0 0 1
-19.989325 22.149151 15.797584 33.759764 -0.836609 1.083837 0.001687 0.006192 852610.000000 0 0 1
-21.060725 23.244251 15.754184 35.100480 -0.834642 1.105340 0.015495 -0.002739 -723683.000000 0 0 1
-21.864625 23.250451 14.588084 35.092129 -0.816106 1.142075 0.010160 0.010528 -284306.000000 0 0 1
-22.753925 24.279451 14.523184 36.306415 -0.817822 1.159261 0.023555 0.002809 -539702.000000 0 0 1
-22.163925 25.515551 13.733984 36.481574 -0.855578 1.184820 0.013553 -0.001244 335190.000000 0 0 1
-21.092925 26.077551 14.480084 36.532493 -0.890680 1.163246 0.009894 -0.003305 210907.000000 0 0 1
-20.488925 27.239551 13.938684 36.824939 -0.925904 1.182608 0.005834 -0.002905 646245.000000 0 0 1
-18.970525 27.471251 14.231984 36.291870 -0.966435 1.167825 0.009196 -0.007507 430385.000000 0 0 1
-18.160325 26.720251 13.395084 34.974241 -0.973861 1.177756 0.003336 -0.002177 -688951.000000 0 0 1
-16.796325 26.979251 13.615584 34.574278 -1.013950 1.166027 -0.004860 -0.000762 -670584.000000 0 0 1
-15.898425 26.292051 12.615884 33.214341 -1.026939 1.181181 -0.011959 -0.004206 -1401620.000000 0 0 1
-14.594025 26.614451 12.892884 32.977887 -1.069221 1.169127 -0.019592 0.002080 -1469040.000000 0 0 1
-13.683625 26.307751 11.901784 31.952963 -1.091169 1.189118 -0.025246 -0.002637 -137052.000000 0 0 1
-12.235325 26.763851 12.165184 31.843345 -1.142005 1.178802 -0.017614 0.001542 -268701.000000 0 0 1
-11.227325 25.916251 11.617484 30.539660 -1.161988 1.180561 -0.011163 -0.005410 470719.000000 0 0 1
-9.919125 26.446551 11.732884 30.585449 -1.211970 1.177094 0.000688 -0.004109 207279.000000 0 0 1
-9.537525 27.651451 10.798284 31.179642 -1.238655 1.217146 0.001051 -0.008575 -881597.000000 0 0 1
-8.296725 28.126651 11.232684 31.402506 -1.283954 1.204992 0.014326 -0.006183 -256405.000000 0 0 1
-7.846225 29.339851 10.612284 32.171582 -1.309486 1.234636 0.020158 -0.009917 -374434.000000 0 0 1
-6.710225 30.080851 11.336984 32.839183 -1.351317 1.218315 0.020486 -0.004372 -412967.000000 0 0 1
-5.525125 29.349251 11.238084 31.909248 -1.384720 1.210887 0.017464 -0.009128 -741166.000000 0 0 1
-4.494925 29.967751 11.982784 32.586156 -1.421914 1.194234 0.009655 -0.009714 -787163.000000 0 0 1
-3.122225 29.636151 11.456884 31.926634 -1.465832 1.203760 0.003438 -0.006418 -916567.000000 0 0 1
-3.039025 30.218051 10.165384 32.026572 -1.470563 1.247805 0.015136 -0.013286 335221.000000 0 0 1
-1.757425 29.958451 9.602884 31.508931 -1.512201 1.261102 -0.005801 -0.006593 371558.000000 0 0 1
-1.564225 30.554451 8.174884 31.667808 -1.519646 1.309695 -0.009725 -0.009496 -379363.000000 0 0 1
-2.382325 29.994151 7.204684 30.939167 -1.491536 1.335773 0.000861 -0.010602 -216204.000000 0 0 1
-2.284325 30.726851 5.943984 31.379746 -1.496590 1.380224 -0.000121 -0.009278 -150113.000000 0 0 1
10.033175 -34.693917 -26.848939 45.002200 -1.289285 2.210072 0.014005 0.000022 -37812.400000 0 0 1
10.585875 -34.388617 -25.598639 44.157990 -1.272171 2.189164 -0.000952 0.001074 -335648.000000 0 0 1
11.837775 -33.788817 -25.672879 44.055803 -1.233813 2.192887 -0.000698 -0.002721 -583943.000000 0 0 1
12.636175 -33.846717 -24.373329 43.581330 -1.213486 2.164290 0.004296 0.001050 -387914.000000 0 0 1
12.202775 -32.865517 -23.383829 42.140875 -1.215279 2.159035 0.005955 -0.000006 389616.000000 0 0 1
12.823075 -32.943417 -22.108229 41.695009 -1.199595 2.129676 0.013908 0.000377 -278702.000000 0 0 1
14.265875 -32.452917 -21.892329 41.665106 -1.156636 2.124023 0.010056 -0.001665 397093.000000 0 0 1
15.212275 -33.477117 -22.237229 42.972375 -1.144283 2.114697 0.015080 0.000853 1071320.000000 0 0 1
16.576575 -33.186317 -21.902929 43.079610 -1.107549 2.104156 0.012184 0.001640 1013920.000000 0 0 1
17.614375 -34.255817 -22.407529 44.562591 -1.095853 2.097669 0.022665 0.001978 10365.400000 0 0 1
18.954275 -34.026217 -22.063029 44.764106 -1.062557 2.086185 0.021394 0.007931 -43440.100000 0 0 1
19.591775 34.217951 -22.096129 45.198946 1.050799 2.081583 0.025974 0.015575 98759.000000 0 0 1
21.092375 34.182851 -21.720529 45.663300 1.017938 2.066519 0.024508 0.018653 450123.000000 0 0 1
21.982975 34.564451 -22.753529 46.858036 1.004326 2.077828 0.021204 0.012295 914501.000000 0 0 1
23.356175 34.714651 -22.353729 47.437402 0.978556 2.061476 0.019101 0.014182 1542810.000000 0 0 1
24.280775 -34.178517 -23.502229 48.063310 -0.953118 2.081722 0.018285 -0.000505 411433.000000 0 0 1
24.231175 -32.756817 -23.725629 47.149383 -0.933901 2.098096 0.009933 -0.002729 924077.000000 0 0 1
22.976075 -32.289217 -24.292229 46.482318 -0.952347 2.120708 0.006218 -0.003434 1019340.000000 0 0 1
22.800075 -30.713217 -24.264929 45.298255 -0.932207 2.136098 -0.001838 -0.007867 -367011.000000 0 0 1
23.582975 -29.955517 -25.153899 45.675030 -0.903868 2.154016 0.008893 -0.011599 9002.050000 0 0 1
23.380575 -28.630117 -24.766029 44.493719 -0.885989 2.161106 0.007075 -0.007649 87205.600000 0 0 1
23.934275 -27.597417 -25.750479 44.694005 -0.856364 2.184808 0.005887 -0.004801 -218397.000000 0 0 1
23.094175 -27.365717 -26.830859 44.745037 -0.869849 2.213846 0.000119 -0.008156 -498284.000000 0 0 1
23.828175 -26.690817 -27.823449 45.324672 -0.842002 2.231750 -0.002822 -0.003549 92780.300000 0 0 1
22.919175 -26.201017 -29.075849 45.356222 -0.852112 2.266669 -0.005169 -0.003865 751996.000000 0 0 1
22.222075 -25.025417 -28.854009 44.188753 -0.844662 2.282298 0.002655 -0.002865 -244385.000000 0 0 1
21.003475 -25.233117 -28.161389 43.254132 -0.876623 2.279787 -0.011269 -0.001588 -241833.000000 0 0 1
20.174275 -23.957817 -27.783329 41.867550 -0.870921 2.296418 -0.012664 0.000029 83416.100000 0 0 1
19.741175 -23.238317 -28.935149 42.035416 -0.866587 2.330011 0.001381 0.000304 328480.000000 0 0 1
19.181875 -21.972517 -28.584749 40.838997 -0.853104 2.346106 -0.001127 0.012575 -134178.000000 0 0 1
18.277575 -21.345417 -29.691229 40.881116 -0.862670 2.383694 0.009225 0.004918 279606.000000 0 0 1
17.156675 -22.188617 -29.903579 40.998905 -0.912600 2.388204 -0.005069 -0.002226 -235019.000000 0 0 1
16.123175 -21.549817 -30.617009 40.764600 -0.928460 2.420475 -0.009640 -0.003410 -177420.000000 0 0 1
14.953975 -22.576317 -30.596049 40.858655 -0.985771 2.417086 -0.023175 -0.008486 -452714.000000 0 0 1
15.083875 -23.691317 -31.450209 42.165358 -1.003839 2.412648 -0.031811 0.000250 -114463.000000 0 0 1
14.416075 -24.727217 -30.823079 42.063294 -1.042967 2.393193 -0.028899 -0.000214 -456566.000000 0 0 1
14.443675 -26.106117 -31.444819 43.346577 -1.065448 2.382452 -0.015906 0.002961 -17058.300000 0 0 1
13.753775 -27.147417 -30.801049 43.299575 -1.101856 2.362210 -0.014850 0.003748 264319.000000 0 0 1
14.384575 -28.353217 -31.187639 44.536387 -1.101298 2.346576 -0.014300 -0.005045 419523.000000 0 0 1
13.913075 -29.429117 -30.167349 44.381477 -1.129173 2.318189 -0.013154 -0.011177 -111840.000000 0 0 1
14.475875 -29.337217 -28.842669 43.613333 -1.112418 2.293383 -0.013388 -0.015780 477908.000000 0 0 1
13.714475 -28.581517 -27.885499 42.220741 -1.123409 2.292240 -0.017847 -0.005357 92332.000000 0 0 1
14.497775 -28.310917 -26.537609 41.423884 -1.097523 2.266122 -0.019456 -0.000759 -25405.800000 0 0 1
14.616575 -29.394217 -25.628089 41.646887 -1.109343 2.233647 -0.014888 -0.013965 249538.000000 0 0 1
15.456675 -29.123617 -24.499129 41.076772 -1.082871 2.209834 0.004744 -0.012322 -588507.000000 0 0 1
14.916975 -28.083517 -23.486929 39.532719 -1.082529 2.206960 0.001744 -0.007375 955793.000000 0 0 1
13.711175 -28.462517 -22.804129 38.963309 -1.121873 2.196012 0.005060 -0.009813 691929.000000 0 0 1
12.498375 -28.447717 -23.534329 38.978797 -1.156838 2.219022 0.008926 -0.005140 -752699.000000 0 0 1
11.293975 -28.255317 -22.614729 37.912304 -1.190539 2.209931 0.005971 -0.001840 -483437.000000 0 0 1
11.106775 -26.913917 -22.295929 36.671894 -1.179409 2.224315 0.000317 0.000549 878674.000000 0 0 1
9.874175 -26.631517 -21.598729 35.682518 -1.215739 2.220943 0.009769 0.000799 399923.000000 0 0 1
9.535375 -25.191117 -21.224929 34.293051 -1.208942 2.238173 0.004061 -0.000885 -345366.000000 0 0 1
10.228775 -24.638517 -20.165529 33.441485 -1.177295 2.218064 0.002757 -0.008123 -157613.000000 0 0 1
9.762075 -23.332217 -19.937829 32.205706 -1.174534 2.238364 0.002302 -0.004648 -542904.000000 0 0 1
10.110975 -22.714917 -18.611629 31.057881 -1.152004 2.213368 -0.012531 -0.010825 -403836.000000 0 0 1
9.463275 -23.294717 -17.531129 30.651882 -1.184921 2.179669 -0.003086 -0.010267 -77913.900000 0 0 1
9.427175 -22.344317 -16.492329 29.328093 -1.171550 2.168008 0.000911 -0.011312 46123.100000 0 0 1
8.731875 -22.941417 -15.225329 28.885375 -1.207111 2.125975 0.020965 -0.013567 337374.000000 0 0 1
9.341275 -24.187517 -14.848329 29.879228 -1.202241 2.090871 0.012599 -0.011347 149071.000000 0 0 1
8.876675 -24.677017 -13.610429 29.546477 -1.225494 2.049518 0.023386 -0.004513 -194008.000000 0 0 1
9.050475 -26.214317 -13.319329 30.765338 -1.238360 2.018540 0.021805 0.001026 -150906.000000 0 0 1
10.385075 -26.555117 -13.055729 31.360422 -1.198006 2.000182 0.008291 -0.002774 -414272.000000 0 0 1
10.513675 -27.903817 -13.393229 32.688514 -1.210464 1.992946 0.007817 -0.002477 490219.000000 0 0 1
11.907375 -28.440817 -12.843029 33.400734 -1.174298 1.965477 -0.006003 -0.001603 1980460.000000 0 0 1
13.166375 -28.032017 -13.399829 33.744671 -1.131689 1.979145 -0.013818 0.001147 926682.000000 0 0 1
13.265975 -28.465017 -14.745229 34.693876 -1.134680 2.009769 0.004610 -0.006683 -1692450.000000 0 0 1
14.465575 -28.021717 -15.524329 35.149314 -1.094251 2.028253 0.009350 -0.004345 -1121850.000000 0 0 1
15.631075 -28.675217 -15.128329 35.992567 -1.071717 2.004592 0.013598 -0.001205 -643605.000000 0 0 1
16.748075 -28.126317 -15.800529 36.348926 -1.033722 2.020491 0.021818 -0.000451 414848.000000 0 0 1
18.026875 -29.007017 -15.666829 37.574257 -1.014742 2.000891 0.021427 -0.008509 330278.000000 0 0 1
17.977975 -30.277417 -16.238229 38.776406 -1.034967 2.002882 0.031223 -0.006715 -264603.000000 0 0 1
19.218375 -30.911517 -16.060329 39.784444 -1.014558 1.986336 0.036574 -0.002978 26866.700000 0 0 1
19.616275 -31.943217 -17.150829 41.222788 -1.020075 1.999896 0.024031 -0.005839 -347320.000000 0 0 1
19.110775 -33.234217 -16.915829 41.903224 -1.048937 1.986341 0.037987 -0.003881 58177.100000 0 0 1
19.532475 -34.065217 -17.962829 43.181244 -1.050177 1.999824 0.032830 -0.000940 227680.000000 0 0 1
19.180575 33.955851 -17.654829 42.808729 1.056610 1.995896 0.030814 0.002404 -299244.000000 0 0 1
19.990275 33.483151 -16.661229 42.406710 1.032567 1.974570 0.032008 -0.004091 -419172.000000 0 0 1
19.813375 32.100451 -16.397329 41.132483 1.017804 1.980837 0.024653 -0.008881 -595660.000000 0 0 1
20.548975 31.522351 -15.162729 40.568798 0.993097 1.953849 0.023946 -0.007410 -37969.100000 0 0 1
21.943675 31.373751 -15.382929 41.261018 0.960454 1.952842 0.029791 -0.010737 239810.000000 0 0 1
22.682875 30.917651 -14.258329 40.911049 0.937839 1.926788 0.033241 -0.012233 98232.400000 0 0 1
22.434075 29.527251 -13.599129 39.497881 0.921068 1.922290 0.033503 -0.005498 -1031960.000000 0 0 1
22.731375 28.322751 -14.354829 39.050669 0.894482 1.947218 0.029559 0.001959 157794.000000 0 0 1
22.366875 27.127851 -13.639329 37.712447 0.881295 1.940851 0.008945 0.009429 1125250.000000 0 0 1
20.802875 26.997951 -13.455729 36.642948 0.914282 1.946806 0.007667 0.003494 390748.000000 0 0 1
19.943475 26.899951 -14.557229 36.513867 0.932826 1.980870 0.004274 -0.007022 -644557.000000 0 0 1
18.592175 26.972751 -14.247729 35.723886 0.967291 1.981036 0.008553 -0.008762 -724764.000000 0 0 1
17.975875 28.399451 -14.259029 36.510010 1.006489 1.972027 0.000831 -0.012120 -390237.000000 0 0 1
18.023475 29.160551 -15.496629 37.620857 1.017191 1.995352 0.005291 -0.006400 227214.000000 0 0 1
17.239275 28.538451 -16.524229 37.211368 1.027388 2.030926 -0.016188 0.007579 -31575.300000 0 0 1
17.346475 29.400851 -17.795329 38.496545 1.037763 2.051336 -0.013601 0.012909 -405995.000000 0 0 1
16.521875 30.514251 -17.846029 39.020157 1.074543 2.045814 -0.006969 0.005977 -213109.000000 0 0 1
16.549275 31.096251 -19.141529 40.090566 1.081726 2.068555 -0.010482 0.015293 -400052.000000 0 0 1
15.509675 32.209951 -19.257129 40.606256 1.122043 2.064897 -0.006400 0.012407 -215354.000000 0 0 1
15.844775 33.425751 -18.648629 41.425947 1.128141 2.037750 0.009822 -0.000379 -571146.000000 0 0 1
14.996075 34.394251 -19.101829 42.103761 1.159641 2.041692 0.006966 0.000664 -537982.000000 0 0 1
15.003675 -33.821817 -18.185929 41.228068 -1.153270 2.027626 0.013609 0.002387 145613.000000 0 0 1
14.054475 -32.817317 -18.518529 40.217415 -1.166164 2.049310 0.013181 0.001225 88452.300000 0 0 1
13.912875 -31.864317 -17.489929 38.920437 -1.159117 2.036864 0.008478 -0.000109 23239.500000 0 0 1
12.837875 -30.775517 -17.789829 37.794464 -1.175597 2.060880 0.005170 0.001580 -1091480.000000 0 0 1
11.638475 -31.399117 -17.921129 37.980594 -1.215834 2.062184 0.001477 0.005502 -827366.000000 0 0 1
10.544275 -30.472017 -18.112029 36.983390 -1.237661 2.082581 -0.005131 0.007187 1923670.000000 0 0 1
9.132375 -31.079817 -18.499029 37.303745 -1.285004 2.089670 0.008208 0.002127 197617.000000 0 0 1
8.507975 -31.746317 -17.428429 37.201672 -1.308951 2.058372 0.011555 0.000342 -200351.000000 0 0 1
7.559575 -32.716017 -17.789629 37.999419 -1.343715 2.057998 0.019696 0.000522 301698.000000 0 0 1
6.141775 -32.188817 -18.222929 37.495553 -1.382258 2.078306 0.016281 0.013740 42141.900000 0 0 1
6.202675 -31.461517 -19.407929 37.482902 -1.376142 2.115051 0.011166 0.015726 -100516.000000 0 0 1
6.084475 -32.346017 -20.517229 38.784563 -1.384863 2.128224 0.006227 0.007926 -1319780.000000 0 0 1
6.558275 -31.693117 -21.892329 39.073504 -1.366746 2.165527 0.001223 0.012770 720924.000000 0 0 1
7.949575 -31.409817 -22.145129 39.245115 -1.322910 2.170354 0.011410 0.006740 1545410.000000 0 0 1
8.876775 -32.505217 -21.907429 40.191065 -1.304209 2.147283 0.010095 -0.001693 -191611.000000 0 0 1
8.722075 -33.793417 -22.790729 41.683173 -1.318209 2.149287 0.006020 0.002631 -916061.000000 0 0 1
7.639975 -34.603517 -22.440529 41.944606 -1.353496 2.135309 -0.001766 0.004731 -463698.000000 0 0 1
7.473875 33.909251 -23.502229 41.929117 1.353857 2.165813 -0.010802 -0.003969 -160829.000000 0 0 1
6.278275 32.906451 -23.272029 40.790178 1.382270 2.177948 -0.004190 -0.003818 1453370.000000 0 0 1
4.959675 33.423151 -23.498029 41.156564 1.423481 2.178450 -0.001199 0.000420 730829.000000 0 0 1
4.527275 34.427451 -22.588129 41.424258 1.440045 2.147528 -0.011105 -0.000015 -1877790.000000 0 0 1
3.241075 -34.416517 -22.958029 41.497859 -1.476901 2.157038 -0.014747 0.006270 -152753.000000 0 0 1
2.089875 34.212551 -22.936929 41.242805 1.509787 2.160535 -0.015530 -0.006180 489570.000000 0 0 1
1.003575 -34.670217 -23.568229 41.934384 -1.541858 2.167630 -0.014175 -0.002581 -36489.300000 0 0 1
-0.330925 34.301951 -22.975229 41.286735 -1.561149 2.160939 -0.016675 -0.010485 62595.400000 0 0 1
-0.602225 -34.668917 -21.690329 40.899473 1.553427 2.129789 -0.021017 -0.012041 -362329.000000 0 0 1
-1.793125 34.381351 -21.097729 40.378296 -1.518690 2.120579 -0.018693 -0.016316 39468.300000 0 0 1
-1.925425 34.532651 -19.555429 39.731928 -1.515097 2.085394 -0.022573 -0.015893 -53115.300000 0 0 1
-1.202525 33.652751 -18.723429 38.529476 -1.535078 2.078247 -0.033965 -0.011746 3006.220000 0 0 1
-1.781125 33.641051 -17.440429 37.934962 -1.517901 2.048505 -0.033900 -0.010078 422308.000000 0 0 1
-1.017425 32.566051 -16.563029 36.550195 -1.539565 2.041102 -0.031142 0.000048 1171500.000000 0 0 1
0.224975 32.919651 -15.946429 36.579265 1.563962 2.021881 -0.025379 -0.005648 192756.000000 0 0 1
0.805775 31.768951 -15.414129 35.320121 1.545438 2.022403 -0.016623 0.003197 340162.000000 0 0 1
1.847875 31.990251 -14.291529 35.086160 1.513097 1.990321 -0.010829 -0.004099 -327619.000000 0 0 1
2.954975 32.747251 -14.632829 35.989360 1.480804 1.989512 -0.002173 -0.008795 -782005.000000 0 0 1
3.746175 33.039351 -13.511629 35.891457 1.457893 1.956766 0.006222 -0.011605 -444025.000000 0 0 1
5.123775 33.579951 -13.886829 36.697551 1.419380 1.958877 0.019786 -0.012783 1473.710000 0 0 1
5.968575 32.576051 -14.445029 36.131453 1.389586 1.982085 0.020670 -0.014839 -596168.000000 0 0 1
7.070175 33.004151 -15.168929 37.004835 1.359765 1.993160 0.013056 -0.004927 -74656.900000 0 0 1
8.108375 31.879251 -15.476029 36.352990 1.321731 2.010549 0.004475 -0.005030 374765.000000 0 0 1
8.876775 31.601951 -14.302629 35.805665 1.296960 1.981715 0.005193 -0.011671 131718.000000 0 0 1
9.795775 30.498751 -14.437729 35.136577 1.260018 1.994241 0.015776 -0.012601 583718.000000 0 0 1
9.217275 29.055251 -14.151329 33.606932 1.263606 2.005436 0.017488 -0.016067 -463239.000000 0 0 1
8.466975 28.469351 -15.145029 33.340149 1.281720 2.042335 0.028170 -0.015563 -141325.000000 0 0 1
7.908675 27.252951 -14.618729 31.921431 1.288359 2.046495 0.020810 -0.006926 -202989.000000 0 0 1
7.247775 26.424251 -15.776429 31.617511 1.303095 2.093215 0.026065 -0.007115 354574.000000 0 0 1
8.095275 25.795651 -16.762729 31.810976 1.266706 2.125802 0.020458 0.003339 210758.000000 0 0 1
7.348775 24.825551 -17.514329 31.258026 1.282998 2.165562 0.012080 0.014457 129895.000000 0 0 1
8.205775 23.841651 -18.304429 31.157843 1.239317 2.198730 0.010751 0.025280 -51926.400000 0 0 1
7.442475 22.949251 -19.113929 30.779877 1.257196 2.240799 0.025745 0.018493 356638.000000 0 0 1
8.314375 21.949151 -19.667929 30.622239 1.208697 2.268260 0.013385 0.019475 268890.000000 0 0 1
7.712475 21.181951 -20.884929 30.730076 1.221611 2.318048 0.008900 0.007539 138790.000000 0 0 1
6.802575 20.168551 -20.428429 29.501969 1.245492 2.335666 0.006611 0.007648 230638.000000 0 0 1
6.193075 19.543151 -21.555829 29.747986 1.263915 2.381271 0.006125 0.014992 53201.200000 0 0 1
24.316475 -12.301949 -9.775929 28.951643 -0.468364 1.915230 -0.002252 -0.001374 -248643.000000 0 0 1
24.868375 -11.778149 -8.595529 28.827833 -0.442321 1.873569 -0.002082 0.000551 -223847.000000 0 0 1
24.033575 -12.024649 -7.541029 27.911861 -0.463909 1.844369 -0.019129 0.003008 -1193550.000000 0 0 1
24.551875 -11.651749 -6.160229 27.865861 -0.443103 1.793705 -0.022513 0.007240 -605608.000000 0 0 1
24.718375 -10.257549 -5.868329 27.398041 -0.393350 1.786657 -0.016546 0.002668 158349.000000 0 0 1
25.861175 -9.669449 -6.429529 28.348500 -0.357804 1.799590 -0.002500 -0.002890 -890954.000000 0 0 1
25.965675 -8.137549 -6.040829 27.873420 -0.303701 1.789253 0.019182 -0.004697 -118844.000000 0 0 1
26.421075 -7.770349 -4.703729 27.938800 -0.286032 1.739960 0.001671 -0.001640 894026.000000 0 0 1
27.781775 -8.108149 -4.441629 29.279637 -0.283964 1.723081 -0.000663 0.000519 -6080.140000 0 0 1
28.246375 -7.698649 -3.034829 29.433604 -0.266090 1.674088 -0.002705 0.004695 -258262.000000 0 0 1
28.390175 -6.317249 -2.897029 29.228452 -0.218948 1.670076 0.004965 0.001911 379157.000000 0 0 1
29.081975 -6.202449 -1.669029 29.782835 -0.210126 1.626866 0.000041 0.004629 -292239.000000 0 0 1
29.276575 -4.759449 -1.174829 29.684178 -0.161159 1.610384 0.007087 -0.000630 292349.000000 0 0 1
28.062175 -4.355949 -0.549529 28.403555 -0.153996 1.590145 -0.000454 -0.002797 192183.000000 0 0 1
28.155075 -3.092749 0.045171 28.324466 -0.109408 1.569202 0.001217 -0.001262 -417633.000000 0 0 1
28.851275 -2.930149 1.401271 29.033522 -0.101213 1.522514 0.011147 -0.001488 -90062.800000 0 0 1
28.156075 -3.666349 2.450471 28.499324 -0.129487 1.484707 0.008131 -0.014950 858878.000000 0 0 1
28.787675 -3.415749 3.698071 29.224532 -0.118101 1.443916 0.012228 -0.011587 -75955.800000 0 0 1
28.118375 -4.244349 4.796971 28.838662 -0.149815 1.403681 0.002258 -0.013698 -446884.000000 0 0 1
28.464675 -5.590949 4.664571 29.381195 -0.193948 1.411361 0.005460 -0.015684 220774.000000 0 0 1
28.427375 -6.248449 5.914671 29.700877 -0.216363 1.370315 -0.002599 -0.012280 -215695.000000 0 0 1
29.153775 -7.633149 5.837871 30.696714 -0.256076 1.379452 -0.015727 -0.012874 193423.000000 0 0 1
30.555575 -7.393349 5.730471 31.955329 -0.237401 1.390493 -0.000449 -0.013539 66876.500000 0 0 1
31.223575 -8.625549 5.876471 32.921795 -0.269529 1.391337 0.000435 -0.011262 153674.000000 0 0 1
32.760575 -8.428249 5.750671 34.312692 -0.251807 1.402406 0.010381 -0.007907 94221.800000 0 0 1
33.102875 -7.879549 4.518871 34.326488 -0.233683 1.438769 0.012736 -0.005424 -455118.000000 0 0 1
34.497475 -7.723349 4.609171 35.650671 -0.220250 1.441146 0.014142 -0.003324 -66250.600000 0 0 1
-34.423971 -7.299949 3.329671 35.346651 0.208964 1.476456 0.007480 0.003411 -82187.300000 0 0 1
-34.367671 -8.417649 2.393671 35.464394 0.240201 1.503250 0.008242 0.003791 282933.000000 0 0 1
-33.341571 -8.241249 1.435171 34.374965 0.242319 1.529034 0.016245 0.003020 69348.200000 0 0 1
-32.986571 -9.530849 0.662671 34.342249 0.281271 1.551499 0.011701 0.008256 -140512.000000 0 0 1
-32.533971 -10.560449 1.486871 34.237306 0.313868 1.527354 0.013555 0.010112 291823.000000 0 0 1
-32.772871 -11.818349 0.907471 34.850508 0.346099 1.544754 0.005566 0.006924 -623683.000000 0 0 1
-32.506671 -12.940949 1.960971 35.042791 0.378869 1.514808 0.014598 -0.014400 516525.000000 0 0 1
-31.195071 -13.149349 2.472971 33.943385 0.398919 1.497876 0.012894 -0.008249 717782.000000 0 0 1
-30.280771 -13.852849 1.622771 33.338564 0.429057 1.522102 0.022053 0.003096 -21211.900000 0 0 1
-28.948071 -14.164449 2.331371 32.311882 0.455055 1.498581 0.019464 0.004721 48622.700000 0 0 1
-28.210471 -12.975649 2.671371 31.166237 0.431105 1.484977 0.016011 0.003536 1006330.000000 0 0 1
-26.915671 -13.313849 3.187171 30.197185 0.459359 1.465054 0.018292 0.007574 464092.000000 0 0 1
-26.160171 -12.093249 3.745571 29.062527 0.433017 1.441557 0.025827 0.008545 -492788.000000 0 0 1
-24.903371 -12.454549 4.252571 28.166967 0.463740 1.419240 0.032880 0.018409 -142386.000000 0 0 1
-24.284371 -11.369749 4.898071 27.257897 0.437879 1.390121 0.028222 0.013080 -642472.000000 0 0 1
-22.888671 -11.712949 5.384371 26.269295 0.472992 1.364365 0.035535 0.020978 -822277.000000 0 0 1
-22.937871 -12.528449 6.536171 26.941223 0.499914 1.325742 0.034826 0.027289 1202490.000000 0 0 1
-21.645571 -13.152749 6.776171 26.219116 0.546019 1.309385 0.037505 0.024815 1250140.000000 0 0 1
-20.958671 -12.941849 8.140671 25.942780 0.553183 1.251611 0.037267 0.010895 -163450.000000 0 0 1
-20.575571 -11.632049 8.582771 25.146026 0.514539 1.222478 0.031731 0.010387 291045.000000 0 0 1
-21.616771 -10.780549 8.983971 25.772403 0.462617 1.214731 0.043624 0.011343 -613531.000000 0 0 1
-22.044671 -10.971249 10.481871 26.762015 0.461792 1.168351 0.050413 0.016001 -415155.000000 0 0 1
-22.682971 -12.205649 10.831671 27.943159 0.493659 1.172735 0.041606 0.008323 398238.000000 0 0 1
-24.080671 -12.138149 10.658771 28.996944 0.466892 1.194388 0.035132 0.002713 130768.000000 0 0 1
-24.976871 -11.512349 11.782871 29.920132 0.431898 1.166023 0.037918 0.000163 -204368.000000 0 0 1
-25.077171 -12.344749 12.938471 30.800347 0.457445 1.137268 0.032950 -0.000674 -82523.800000 0 0 1
-26.209971 -12.130649 13.733071 31.979876 0.433468 1.126936 0.026181 -0.003651 -356188.000000 0 0 1
-26.222471 -12.969849 15.052571 32.900074 0.459325 1.095588 0.021800 -0.005542 -426935.000000 0 0 1
-26.242771 -14.353149 14.793871 33.369964 0.500489 1.111487 0.018206 -0.013133 291189.000000 0 0 1
-25.892371 -15.119449 15.974071 33.973277 0.528523 1.081284 -0.004395 0.002211 -797130.000000 0 0 1
-25.836071 -16.585149 15.603771 34.439039 0.570687 1.100575 0.011107 -0.011072 440462.000000 0 0 1
-27.076671 -17.288149 15.790271 35.796073 0.568240 1.113953 0.008094 -0.011862 536763.000000 0 0 1
-26.841871 -18.675049 15.765271 36.301339 0.607863 1.121548 0.009780 -0.003716 -305053.000000 0 0 1
-27.778671 -19.596149 16.556071 37.812261 0.614367 1.117591 0.001903 0.000944 -276784.000000 0 0 1
-27.747171 -19.356149 17.935271 38.291513 0.609107 1.083331 -0.006991 0.011283 -188648.000000 0 0 1
-28.211571 -20.488749 18.703771 39.566559 0.628129 1.078425 -0.002856 0.010602 -187652.000000 0 0 1
-27.227871 -21.675149 18.859471 39.583439 0.672337 1.074185 -0.000263 0.009201 244306.000000 0 0 1
-26.253571 -21.314249 19.873271 39.223642 0.681931 1.039483 0.005239 0.013274 436827.000000 0 0 1
-25.524771 -22.462649 20.319271 39.610066 0.721674 1.032141 0.007711 0.015036 264714.000000 0 0 1
-24.109471 -22.042749 20.797471 38.725756 0.740647 1.003866 0.017399 0.023990 633445.000000 0 0 1
-23.081271 -21.850149 19.817271 37.455284 0.758005 1.013267 0.017100 0.018843 -71342.400000 0 0 1
-21.841371 -21.805849 20.429071 37.011991 0.784584 0.986086 0.015179 0.027976 -418979.000000 0 0 1
-20.593371 -21.616849 19.542671 35.683204 0.809641 0.991218 0.015918 0.027485 156307.000000 0 0 1
-20.538771 -22.603549 18.522371 35.718899 0.833221 1.025631 0.013475 0.020162 98463.900000 0 0 1
-19.305871 -22.542649 17.843171 34.630426 0.862590 1.029502 0.007888 0.013537 -47747.300000 0 0 1
-19.205671 -23.449249 16.547371 34.533180 0.884558 1.071084 0.002337 0.016466 -789963.000000 0 0 1
-19.174871 -24.812849 16.823371 35.586218 0.912875 1.078388 0.003202 0.012025 876315.000000 0 0 1
-17.979671 -25.416489 17.396771 35.663905 0.955120 1.061231 0.007596 0.009346 468937.000000 0 0 1
-16.630671 -25.277949 16.686971 34.554434 0.988879 1.066812 0.004327 0.004468 -434210.000000 0 0 1
-16.067971 -23.965049 16.670371 33.322733 0.980162 1.046885 0.004601 0.000547 63245.000000 0 0 1
-14.980171 -23.997749 15.742871 32.374920 1.012749 1.062983 -0.003118 0.002679 173573.000000 0 0 1
-14.147471 -22.738949 15.484171 30.934936 1.014235 1.046574 0.002460 0.010852 -129386.000000 0 0 1
-14.853871 -21.735149 14.748871 30.175874 0.971296 1.060124 0.010013 0.008344 609359.000000 0 0 1
-15.819271 -20.904949 15.459471 30.434544 0.923006 1.037984 0.008245 0.013517 462051.000000 0 0 1
-15.276271 -19.936449 16.527471 30.066322 0.916977 0.988791 0.020134 0.006876 -278547.000000 0 0 1
-14.600071 -18.828049 15.975071 28.685543 0.911210 0.980144 0.018014 0.002831 -183059.000000 0 0 1
-14.563771 -17.676949 16.797471 28.403045 0.881660 0.938006 0.014696 -0.003703 -836062.000000 0 0 1
-13.842271 -16.522549 16.141771 26.928792 0.873439 0.928015 0.013538 -0.004261 -231769.000000 0 0 1
-14.427171 -15.760649 15.062471 26.142290 0.829542 0.956758 0.006039 -0.007157 -78341.000000 0 0 1
-14.545771 -16.372849 13.802771 25.887567 0.844423 1.008440 0.002603 -0.010782 -559238.000000 0 0 1
-15.307471 -15.503349 12.830971 25.284507 0.791756 1.038557 0.001279 -0.007080 -727065.000000 0 0 1
-16.672371 -15.645549 13.131871 26.366592 0.753636 1.049448 0.007143 -0.009582 -948724.000000 0 0 1
-17.366471 -14.754149 12.375571 25.931332 0.704248 1.073281 0.007799 -0.009691 -1417130.000000 0 0 1
-18.877571 -14.791149 12.480771 27.035355 0.664617 1.090946 0.019447 -0.007935 -224737.000000 0 0 1
-19.603471 -15.944149 11.942771 27.948913 0.682818 1.129284 0.030499 -0.004965 557620.000000 0 0 1
-19.781471 -15.957749 10.551171 27.518785 0.678814 1.177303 0.029296 0.007075 -215563.000000 0 0 1
-20.685871 -17.136049 10.063371 28.684854 0.691816 1.212344 0.032420 0.009946 -78502.700000 0 0 1
-20.015171 -18.326149 9.830671 28.863418 0.741374 1.223249 0.033297 0.014663 123026.000000 0 0 1
-20.874171 -19.297249 9.205371 29.880657 0.746163 1.257631 0.029262 0.013879 354116.000000 0 0 1
-20.412571 -20.765549 9.372971 30.589764 0.793970 1.259378 0.027239 0.018359 1065560.000000 0 0 1
-19.150171 -21.078749 8.725171 29.785421 0.833302 1.273502 0.025511 0.022654 740246.000000 0 0 1
-18.973571 -22.495549 8.740771 30.699303 0.870125 1.282080 0.007945 0.013311 -188390.000000 0 0 1
-17.710471 -22.928349 7.995071 30.054802 0.913096 1.301538 0.003527 0.019595 -361146.000000 0 0 1
-16.527071 -22.469949 8.608171 29.191493 0.936628 1.271460 0.003498 0.012927 -804653.000000 0 0 1
-15.465071 -22.716849 7.737471 28.549818 0.973090 1.296347 0.009218 0.018077 318633.000000 0 0 1
-14.129471 -22.006649 8.197171 27.406717 1.000027 1.267054 -0.025600 0.010912 998439.000000 0 0 1
-12.998271 -22.508949 7.454371 27.040256 1.047107 1.291503 -0.012466 0.013115 2180.680000 0 0 1
-11.851171 -22.133849 8.181171 26.406232 1.079207 1.255793 -0.008068 0.007534 -1882.880000 0 0 1
-10.553471 -22.702949 7.563971 26.153648 1.135662 1.277392 -0.006958 0.010363 -6135.700000 0 0 1
-10.471271 -24.098949 7.730871 27.389290 1.160897 1.284648 -0.010938 0.016356 -98704.700000 0 0 1
-9.196771 -24.614549 7.387771 27.295343 1.213226 1.296717 -0.004654 0.017737 244979.000000 0 0 1
-9.227171 -26.148969 7.536871 28.735234 1.231568 1.305405 -0.017955 0.024514 -436684.000000 0 0 1
-9.971571 -26.752529 6.523771 29.286338 1.214014 1.346154 -0.009784 0.019420 -366639.000000 0 0 1
-9.988671 -28.161139 6.469871 30.572578 1.229943 1.357561 -0.006606 0.014395 -406631.000000 0 0 1
-8.798271 -28.854859 5.794071 30.717807 1.274837 1.381037 -0.008596 0.008421 28044.200000 0 0 1
-7.555871 -28.539719 6.429671 30.215019 1.311985 1.356359 -0.014885 0.010903 938464.000000 0 0 1
-6.398071 -29.259009 5.929271 30.531642 1.355515 1.375354 -0.022037 0.016135 976134.000000 0 0 1
-6.304471 -30.740799 6.287271 32.004263 1.368516 1.373059 -0.024496 0.012114 -651721.000000 0 0 1
-6.119371 -30.917439 7.659971 32.434702 1.375396 1.332378 -0.019038 0.012206 69336.600000 0 0 1
-6.327271 -32.248929 8.049771 33.835286 1.377056 1.330582 -0.006325 0.007488 -155954.000000 0 0 1
-6.602171 -32.309949 9.573171 34.339002 1.369233 1.288268 0.000013 0.003601 -732200.000000 0 0 1
-5.548871 -31.945849 10.404171 34.052518 1.398816 1.260298 -0.010782 0.010488 -359542.000000 0 0 1
-5.875571 -31.950699 11.795271 34.561509 1.388933 1.222514 -0.001364 0.006190 -247323.000000 0 0 1
-5.093371 -31.000019 12.729071 33.896502 1.407949 1.185830 -0.005608 0.011741 -72839.800000 0 0 1
-5.576071 -29.667019 12.794871 32.786175 1.385009 1.169891 -0.011044 0.013738 462816.000000 0 0 1
-4.710771 -28.825939 13.563871 32.204110 1.408807 1.136045 -0.015936 0.005005 -381794.000000 0 0 1
-5.521871 -28.311249 14.746271 32.395530 1.378173 1.098206 -0.009261 0.000493 -248654.000000 0 0 1
-5.869571 -29.307849 15.692971 33.759016 1.373138 1.087328 0.000101 0.003782 8764.210000 0 0 1
-4.840771 -29.865449 16.481271 34.453017 1.410108 1.071999 -0.001990 0.002522 -34966.800000 0 0 1
-5.324771 -31.219919 17.000371 35.945085 1.401865 1.078156 0.002692 0.003005 95430.900000 0 0 1
-5.192171 -32.201709 16.053971 36.354349 1.410933 1.113418 0.004701 0.006561 114151.000000 0 0 1
-5.969071 -33.315999 16.424371 37.621078 1.393512 1.119010 0.000044 0.005006 227956.000000 0 0 1
-5.371071 -34.662099 15.850771 38.490991 1.417064 1.146363 -0.000020 0.001891 105340.000000 0 0 1
-5.696871 34.616128 14.507371 37.963067 -1.407686 1.178681 0.012022 -0.003093 -10143.900000 0 0 1
-5.141271 33.438030 14.019271 36.620684 -1.418236 1.177945 0.010220 -0.004118 306516.000000 0 0 1
-3.919771 33.639219 13.057971 36.297001 -1.454796 1.202793 0.004544 -0.008002 278128.000000 0 0 1
-4.308771 33.896691 11.728871 36.126411 -1.444360 1.240142 0.001423 -0.007492 29512.800000 0 0 1
-3.215771 34.345210 10.948871 36.191331 -1.477438 1.263453 -0.002946 -0.004544 -704707.000000 0 0 1
-3.478771 -34.711519 9.493971 36.154209 1.470910 1.305084 -0.005980 -0.004882 -1145480.000000 0 0 1
-3.614771 33.790140 8.492971 35.028142 -1.464225 1.325894 0.000496 -0.019827 695051.000000 0 0 1
-4.573771 32.708020 8.694171 34.151465 -1.431861 1.313386 0.004098 -0.013758 960537.000000 0 0 1
-6.029171 33.098250 9.096971 34.851111 -1.390612 1.306714 0.004807 -0.011541 -8247.880000 0 0 1
-6.811671 33.762583 8.094471 35.381229 -1.371717 1.339973 0.009152 -0.011428 -1240320.000000 0 0 1
-8.138671 33.797122 8.451271 35.775794 -1.334486 1.332313 0.009925 -0.010252 -1445240.000000 0 0 1
-8.971971 34.106539 7.250571 36.004487 -1.313567 1.368030 0.014371 -0.016198 -854217.000000 0 0 1
-8.892871 -34.066303 6.779071 35.854594 1.315449 1.380580 0.012688 -0.007398 -19909.700000 0 0 1
-9.389571 -33.973599 5.454571 35.666816 1.301149 1.417263 0.003408 0.000553 -639019.000000 0 0 1
-9.308371 -32.543999 4.794371 34.186892 1.292210 1.430092 -0.006683 0.005455 -33210.300000 0 0 1
-10.192171 -31.614209 5.367571 33.647427 1.258925 1.410588 0.006653 0.003504 -597164.000000 0 0 1
-11.513871 -31.758139 4.912371 34.136197 1.222986 1.426390 0.007106 0.005183 -148239.000000 0 0 1
-12.444571 -30.831449 5.829271 33.755384 1.187163 1.397235 0.007076 0.003081 164611.000000 0 0 1
-12.859171 -31.493559 7.027171 34.735913 1.183146 1.367088 -0.000273 0.003559 221769.000000 0 0 1
-13.721971 -30.672179 7.833871 34.502820 1.150127 1.341749 -0.004998 0.004031 261556.000000 0 0 1
31.929620 -13.007349 -12.821829 36.784386 -0.386848 1.926838 -0.002283 -0.001815 720037.000000 0 0 1
30.737880 -13.125049 -11.988829 35.507974 -0.403563 1.915202 -0.000009 0.001185 984794.000000 0 0 1
30.526230 -14.467949 -11.542029 35.698609 -0.442592 1.900031 0.000432 0.002910 -418109.000000 0 0 1
31.481220 -15.104149 -10.525629 36.469047 -0.447343 1.863580 0.006543 -0.001705 324543.000000 0 0 1
32.782950 -15.284749 -11.090729 37.833181 -0.436277 1.868314 0.015237 -0.006869 336331.000000 0 0 1
33.715028 -15.769049 -10.120629 38.571922 -0.437488 1.836288 0.006750 -0.008904 201775.000000 0 0 1
-34.526512 -15.849749 -10.685929 39.464967 0.430363 1.844989 -0.001990 -0.014528 -192402.000000 0 0 1
-33.821845 -14.647749 -10.849029 38.421025 0.408699 1.857062 -0.004094 -0.007614 676116.000000 0 0 1
-32.467575 -14.872749 -11.243529 37.440073 0.429553 1.875811 0.003845 -0.012172 419535.000000 0 0 1
-31.603895 -13.675249 -11.561629 36.324783 0.408381 1.894716 0.011431 -0.019724 -431150.000000 0 0 1
-31.522265 -12.758249 -10.460529 35.578769 0.384584 1.869216 0.011908 -0.012774 364939.000000 0 0 1
-31.359035 -11.448649 -11.025429 35.157086 0.350048 1.889783 0.017289 -0.012895 -252053.000000 0 0 1
-31.871075 -10.344449 -10.072529 34.988982 0.313844 1.862806 0.017225 -0.012958 -150460.000000 0 0 1
-31.201935 -10.220949 -8.853329 34.006029 0.316558 1.834177 0.018751 -0.003580 13633.600000 0 0 1
-31.995795 -9.427149 -8.026529 34.307830 0.286529 1.806941 0.018630 -0.002993 -551055.000000 0 0 1
-31.649685 -9.282349 -6.550629 33.627003 0.285284 1.766853 0.025675 0.000149 -561705.000000 0 0 1
-30.568015 -8.389349 -6.333429 32.324867 0.267853 1.768003 0.031168 -0.001993 300283.000000 0 0 1
-30.233295 -8.311449 -4.957629 31.744455 0.268283 1.727611 0.026526 0.001880 438929.000000 0 0 1
-29.267275 -9.420549 -4.397229 31.058908 0.311407 1.712851 0.027608 0.009161 -277499.000000 0 0 1
-29.942915 -10.596949 -4.102729 32.026643 0.340149 1.699253 0.041878 0.003848 223845.000000 0 0 1
-30.291175 -10.738949 -2.746129 32.255566 0.340699 1.656036 0.033636 0.001542 -14258.500000 0 0 1
-30.872275 -12.152849 -2.420729 33.266335 0.375020 1.643629 0.025563 -0.001124 135543.000000 0 0 1
-32.136385 -12.437249 -3.000629 34.589539 0.369262 1.657655 0.016854 -0.007009 388456.000000 0 0 1
-32.603355 -13.695349 -2.497429 35.451072 0.397679 1.641302 0.009626 -0.009365 -716526.000000 0 0 1
-34.121343 -13.778449 -2.516229 36.884185 0.383784 1.639069 -0.003927 -0.003289 -806360.000000 0 0 1
-34.627777 -12.820249 -1.578829 36.958550 0.354582 1.613528 0.003220 -0.004716 -4561.350000 0 0 1
33.633342 -12.845649 -1.502729 36.034297 -0.364834 1.612511 0.010369 -0.001130 -215080.000000 0 0 1
32.993540 -12.004749 -0.354829 35.111445 -0.348961 1.580902 0.015267 -0.005133 -253781.000000 0 0 1
33.356850 -12.488749 0.935571 35.630374 -0.358243 1.544536 0.021218 0.002619 274614.000000 0 0 1
33.178670 -11.494249 1.912071 35.165294 -0.333495 1.516396 0.018637 0.003276 -50225.300000 0 0 1
33.698090 -11.817149 3.353771 35.867172 -0.337278 1.477154 0.011198 0.000677 14691.800000 0 0 1
32.726810 -12.473849 4.110571 35.263831 -0.364152 1.453965 0.006165 -0.006772 160144.000000 0 0 1
33.358260 -12.888549 5.323471 36.155602 -0.368699 1.423021 0.004146 -0.003570 98733.600000 0 0 1
32.420660 -13.029349 6.534571 35.546642 -0.382130 1.385914 0.000864 -0.007443 -142264.000000 0 0 1
31.909470 -11.787149 6.948471 34.719338 -0.353846 1.369303 -0.000021 -0.008957 -121516.000000 0 0 1
31.873400 -11.770949 8.337871 34.985554 -0.353767 1.330157 -0.008640 0.002716 -582001.000000 0 0 1
31.114870 -10.555549 8.878771 34.035090 -0.327061 1.306872 -0.011101 -0.014477 1026030.000000 0 0 1
29.670350 -10.634649 8.712671 32.700704 -0.344162 1.301102 -0.014870 -0.010577 1185450.000000 0 0 1
29.088380 -9.508249 9.378371 32.007726 -0.315926 1.273430 -0.016705 -0.005191 -940200.000000 0 0 1
27.591380 -9.567049 9.147271 30.602046 -0.333768 1.267246 -0.026015 0.001940 -1098350.000000 0 0 1
27.323150 -9.010649 7.916771 29.839933 -0.318550 1.302273 -0.021107 -0.007551 432968.000000 0 0 1
26.389460 -9.837849 7.191171 29.067160 -0.356836 1.320802 -0.011954 -0.012554 255627.000000 0 0 1
25.410080 -9.145849 6.214271 27.711656 -0.345494 1.344625 -0.009675 -0.012182 392281.000000 0 0 1
24.456820 -8.272449 6.833071 26.706934 -0.326166 1.312066 -0.009668 -0.012420 1247450.000000 0 0 1
23.484320 -7.569549 6.021571 25.398242 -0.311809 1.331431 -0.012724 -0.012742 454874.000000 0 0 1
24.135220 -6.419649 5.191471 25.508275 -0.259967 1.365843 -0.010567 -0.011448 -201554.000000 0 0 1
24.669870 -6.787949 3.912971 25.884167 -0.268507 1.419042 -0.016877 -0.016262 525695.000000 0 0 1
25.317010 -5.723849 3.216771 26.154561 -0.222349 1.447493 -0.002684 -0.014555 -212666.000000 0 0 1
25.852240 -5.917149 1.801271 26.581865 -0.225008 1.502981 -0.007412 -0.014432 308687.000000 0 0 1
24.831110 -5.997549 0.814071 25.558117 -0.236995 1.538939 -0.007731 -0.014497 351498.000000 0 0 1
25.443800 -5.856249 -0.482329 26.113507 -0.226224 1.589268 -0.005894 -0.009320 319785.000000 0 0 1
24.509020 -6.027649 -1.793329 25.302977 -0.241150 1.641730 -0.009009 -0.006876 814715.000000 0 0 1
23.531620 -4.988149 -1.904629 24.129782 -0.208884 1.649811 -0.013015 -0.007608 321894.000000 0 1 0
23.071720 -4.911549 -3.234829 23.809488 -0.209751 1.707081 -0.009227 -0.008097 -246345.000000 0 1 0
22.086320 -3.769049 -3.483529 22.674793 -0.169023 1.725037 -0.008825 -0.010408 -1507210.000000 0 1 0
22.620820 -2.469149 -3.401629 23.008026 -0.108723 1.719186 -0.014185 -0.008470 128358.000000 0 1 0
23.019720 -1.948549 -4.592529 23.554101 -0.084446 1.767031 -0.010434 -0.003517 -17629.200000 0 1 0
21.947720 -1.048449 -5.298129 22.602474 -0.047734 1.807403 -0.013308 0.000287 220262.000000 0 1 0
21.465520 0.023151 -4.537429 21.939858 0.001079 1.779112 -0.038026 0.005249 592924.000000 0 1 0
21.088620 1.123751 -5.397529 21.797386 0.053237 1.821022 0.003079 0.002043 -640674.000000 0 1 0
20.879920 2.460351 -4.650629 21.532597 0.117293 1.788493 0.012328 0.006166 -844779.000000 0 1 0
22.006320 3.263951 -4.535429 22.704661 0.147245 1.771907 0.012988 0.006608 -309686.000000 0 1 0
22.735620 3.018451 -3.365829 23.180774 0.131991 1.716511 0.006472 0.012758 273243.000000 0 1 0
24.034220 3.892551 -3.286629 24.568224 0.160565 1.704974 -0.000013 0.012044 31460.500000 0 1 0
23.670320 5.231451 -3.398329 24.478578 0.217516 1.710075 -0.004392 0.020151 315885.000000 0 1 0
24.649680 6.152751 -2.997229 25.582151 0.244609 1.688227 -0.008673 0.015791 -496589.000000 0 0 1
24.082520 7.612651 -3.006129 25.435350 0.306168 1.689260 -0.022079 0.006926 -544364.000000 0 0 1
22.982720 7.777851 -2.188629 24.361660 0.326323 1.660757 -0.017657 0.004358 -453388.000000 0 1 0
22.309120 8.968051 -2.536329 24.177588 0.382221 1.675894 -0.018862 0.006410 -770862.000000 0 1 0
21.240720 9.286851 -1.505029 23.230990 0.412175 1.635627 -0.024291 0.010652 -796218.000000 0 1 0
21.715020 10.020551 -0.329229 23.917816 0.432341 1.584562 -0.029263 0.016836 -53218.500000 0 1 0
20.794220 10.213951 0.669471 23.176984 0.456576 1.541907 -0.017743 0.017199 -940455.000000 0 1 0
21.382820 10.905051 1.946971 24.081857 0.471609 1.489860 0.005219 0.013062 -552512.000000 0 1 0
21.980220 12.195751 1.805471 25.201709 0.506560 1.499094 -0.000592 0.011490 159532.000000 0 0 1
21.232120 13.299851 1.410371 25.093388 0.559607 1.514562 0.000826 0.005412 -787380.000000 0 0 1
20.228220 13.884451 2.430671 24.654960 0.601533 1.472048 0.004407 0.008926 412476.000000 0 1 0
18.973320 13.211851 2.584471 23.264122 0.608264 1.459474 0.015016 0.009974 1062330.000000 0 1 0
18.091120 13.874551 3.514771 23.068277 0.654246 1.417837 0.012466 0.008720 2560.810000 0 1 0
18.312320 13.654151 4.994571 23.382101 0.640696 1.355531 0.012556 0.014041 -563621.000000 0 1 0
18.055620 12.300251 5.324871 22.486793 0.598026 1.331726 0.023248 0.010921 472747.000000 0 1 0
18.136920 12.151351 6.733671 22.846128 0.590292 1.271613 0.014646 0.007894 -171065.000000 0 1 0
18.195520 10.668951 7.249771 22.303871 0.530323 1.239737 0.005883 -0.000806 -274415.000000 0 1 0
19.349920 9.933551 6.953471 22.835184 0.474282 1.261376 0.005225 -0.007467 -61389.500000 0 1 0
19.285820 8.662051 7.458471 22.418804 0.422139 1.231644 0.004273 -0.000939 297438.000000 0 1 0
20.185820 7.667751 6.653571 22.594950 0.363023 1.271894 0.000356 -0.006225 459375.000000 0 1 0
19.690320 7.438551 5.336071 21.714383 0.361203 1.322514 -0.009178 -0.010695 839736.000000 0 1 0
20.756920 6.837651 4.619371 22.337005 0.318220 1.362490 -0.001847 -0.009227 195652.000000 0 1 0
20.477920 6.663551 3.109871 21.758204 0.314595 1.427376 -0.001890 -0.003163 -37844.400000 0 1 0
21.545520 6.032751 2.411571 22.503760 0.273009 1.463427 0.002273 0.000726 946311.000000 0 1 0
21.123620 5.752551 1.058771 21.918489 0.265880 1.522473 -0.006125 0.009525 390304.000000 0 1 0
22.214220 4.863051 0.363571 22.743197 0.215516 1.554810 -0.002281 0.006599 545378.000000 0 1 0
22.140420 3.474251 0.779371 22.424898 0.155650 1.536035 0.000665 0.007249 423310.000000 0 1 0
23.240920 2.832951 0.188771 23.413706 0.121297 1.562734 -0.005619 0.008840 -277561.000000 0 1 0
23.207820 1.272451 0.187671 23.243435 0.054774 1.562722 0.007139 0.005750 -4835.340000 0 1 0
22.209620 0.642251 -0.633429 22.227932 0.028910 1.599297 0.005340 -0.003735 1139840.000000 0 1 0
22.500320 -0.680049 -0.967629 22.531382 -0.030215 1.613755 0.010136 -0.002868 -952021.000000 0 1 0
22.160120 -1.823349 0.008271 22.235008 -0.082096 1.570424 0.009306 -0.002393 215837.000000 0 1 0
22.957320 -1.980749 1.197771 23.073720 -0.086066 1.518862 -0.000327 -0.002939 2548010.000000 0 1 0
24.380220 -2.314049 1.027271 24.511329 -0.094632 1.528874 0.010411 -0.006722 1596720.000000 0 1 0
25.284130 -1.862649 2.192971 25.447315 -0.073536 1.484512 0.008860 -0.010765 -679070.000000 0 0 1
25.393200 -0.447149 2.342871 25.504972 -0.017607 1.478807 0.004418 -0.004662 87462.200000 0 0 1
26.326310 -0.086149 3.306071 26.533227 -0.003272 1.445870 0.008838 -0.001618 -286777.000000 0 0 1
25.927740 1.236551 4.088371 26.277206 0.047656 1.414575 0.011361 -0.001046 -258442.000000 0 0 1
25.877770 2.436151 3.303971 26.201337 0.093864 1.444360 -0.000508 0.006104 217154.000000 0 0 1
27.113260 2.964651 2.827171 27.420994 0.108911 1.467510 0.002772 0.000678 103660.000000 0 0 1
27.127520 4.050451 1.727571 27.482595 0.148217 1.507894 0.002053 0.002629 -135248.000000 0 0 1
26.550520 3.615151 0.436571 26.799068 0.135329 1.554505 0.001054 0.009564 775984.000000 0 0 1
26.987450 4.407951 -0.688229 27.353723 0.161904 1.595959 0.000921 0.011628 -290421.000000 0 0 1
28.453880 4.335351 -1.139229 28.804798 0.151201 1.610357 0.002585 0.013985 4865.900000 0 0 1
29.414390 4.794751 -0.186729 29.803202 0.161586 1.577062 0.010008 0.007711 176967.000000 0 0 1
30.733540 4.607451 -0.640529 31.083587 0.148808 1.591404 0.006330 0.014330 143456.000000 0 0 1
31.858230 4.903851 0.387171 32.235764 0.152729 1.558785 -0.006042 0.013336 141363.000000 0 0 1
31.956160 3.921151 1.415871 32.226950 0.122094 1.526848 -0.012644 0.012444 379930.000000 0 0 1
31.152730 4.215551 2.567671 31.541344 0.134502 1.489300 -0.005251 0.013035 173312.000000 0 0 1
31.303470 3.142351 3.695871 31.677138 0.100048 1.453857 -0.003591 0.011598 -212187.000000 0 0 1
30.474710 2.009751 3.457771 30.736025 0.065853 1.458059 0.004994 0.002681 167924.000000 0 0 1
30.485720 0.871851 4.360671 30.808355 0.028591 1.428778 0.002846 0.003367 -261737.000000 0 0 1
31.726520 -0.046649 4.368771 32.025934 -0.001470 1.433956 0.010416 0.001425 643541.000000 0 0 1
32.901460 0.451151 5.039671 33.288255 0.013711 1.418817 -0.001490 0.007809 677406.000000 0 0 1
34.033827 -0.319649 4.705071 34.359006 -0.009392 1.433426 -0.002934 0.003388 339646.000000 0 0 1
-34.357921 0.617851 4.668271 34.679118 -0.017981 1.435773 -0.011587 0.004897 261515.000000 0 0 1
-34.358840 1.817851 3.810971 34.617308 -0.052859 1.460484 -0.021656 0.008469 89803.300000 0 0 1
-34.421877 1.566951 2.419471 34.542363 -0.045491 1.500695 -0.006521 0.014748 -674944.000000 0 0 1
-34.495483 2.814851 1.446171 34.640340 -0.081420 1.529036 -0.027382 0.007618 118999.000000 0 0 1
-33.477225 3.826151 1.420171 33.725079 -0.113797 1.528674 -0.010195 0.012860 960730.000000 0 0 1
-32.220735 3.295451 0.913971 32.401715 -0.101923 1.542585 0.013353 0.009897 -279438.000000 0 0 1
-31.149905 4.275551 1.318871 31.469610 -0.136405 1.528875 0.013990 0.005737 -934474.000000 0 0 1
-30.821515 4.104051 2.692171 31.209884 -0.132377 1.484429 0.012531 0.004385 -21193.900000 0 0 1
-30.366295 5.302151 3.244971 30.996041 -0.172864 1.465914 0.025412 -0.007420 -273207.000000 0 0 1
-29.981085 5.167951 4.723271 30.787700 -0.170696 1.416774 0.005122 0.000928 11355.300000 0 0 1
-31.046525 4.944651 5.611371 31.934680 -0.157939 1.394165 -0.005463 0.007428 -159181.000000 0 0 1
-31.670415 3.701651 5.652571 32.383159 -0.116353 1.395345 -0.011863 0.005075 -151822.000000 0 0 1
-31.655025 3.073351 7.052771 32.576490 -0.096786 1.352570 -0.014226 0.000879 -301912.000000 0 0 1
-32.440165 3.885751 7.950671 33.625534 -0.119214 1.332088 -0.012675 0.016578 603857.000000 0 0 1
-32.603165 3.341951 9.261671 34.057504 -0.102147 1.295386 -0.006126 0.016547 52758.600000 0 0 1
-33.400715 1.991551 9.439871 34.766151 -0.059556 1.295819 -0.010067 0.021189 -354214.000000 0 0 1
-32.881455 0.895951 8.673271 34.017914 -0.027241 1.312988 -0.007067 0.017546 -4254.110000 0 0 1
-33.644045 -0.277149 8.499771 34.702229 0.008237 1.323344 0.001402 0.011226 -167872.000000 0 0 1
-33.877645 -1.230849 9.736071 35.270397 0.036316 1.291124 0.009757 0.019305 -166698.000000 0 0 1
-32.658175 -1.881649 10.027071 34.214605 0.057553 1.273366 0.012194 0.005623 451266.000000 0 0 1
-32.771195 -2.821049 11.074471 34.706678 0.085871 1.246030 0.006435 0.018471 -653549.000000 0 0 1
-31.487235 -3.602649 11.239471 33.626638 0.113921 1.229994 -0.001464 0.014612 -665040.000000 0 0 1
-31.374775 -4.541949 10.132371 33.281688 0.143766 1.261443 0.004573 0.008917 203229.000000 0 0 1
-30.196615 -5.308049 10.246871 32.326604 0.174005 1.248253 0.003205 -0.002271 -28339.800000 0 0 1
-30.136475 -6.362049 9.117871 32.121930 0.208053 1.282987 0.003100 0.002744 918400.000000 0 0 1
-31.228515 -7.289549 9.352271 33.403932 0.229320 1.287028 0.009303 0.002414 814807.000000 0 0 1
-31.260695 -8.288249 8.325671 33.395253 0.259170 1.318832 0.005275 0.007691 194571.000000 0 0 1
-32.249785 -9.464849 8.554771 34.681640 0.285470 1.321558 0.007300 0.001600 675164.000000 0 0 1
-33.623385 -9.116949 8.497571 35.858883 0.264782 1.331548 0.006840 0.001646 325955.000000 0 0 1
-34.504649 -10.220449 8.546771 36.987507 0.287971 1.337617 0.007642 -0.001586 -54779.900000 0 0 1
7.162575 -24.495349 10.776371 27.702974 -1.286321 1.171254 0.026244 -0.003761 -34119.500000 0 0 1
6.639875 -25.299309 9.764871 27.919449 -1.314132 1.213490 0.025465 -0.001388 11905.500000 0 0 1
5.285375 -25.657139 10.017671 28.045992 -1.367638 1.205542 0.023189 -0.001540 564684.000000 0 0 1
4.846775 -26.645289 8.925471 28.515376 -1.390864 1.252440 0.017107 0.001762 -223071.000000 0 0 1
4.557375 -25.977479 7.715271 27.479528 -1.397128 1.286206 0.030090 0.008196 -293772.000000 0 0 1
4.380575 -26.921009 6.677271 28.080529 -1.409491 1.330706 0.028050 0.004847 -283473.000000 0 0 1
3.742475 -26.402679 5.348671 27.197717 -1.429988 1.372847 0.024669 0.005245 1359180.000000 0 0 1
2.312375 -26.190659 5.316471 26.824663 -1.482735 1.371282 0.003515 0.003858 617230.000000 0 0 1
1.545475 -27.319399 5.051971 27.825536 -1.514286 1.388225 -0.005349 0.003142 -1201840.000000 0 0 1
0.083475 -26.990119 4.872371 27.426510 -1.567704 1.392196 -0.002251 0.003046 -825940.000000 0 0 1
-0.545625 -26.745999 6.125771 27.443965 1.550399 1.345690 -0.005358 0.004283 142252.000000 0 0 1
-1.918525 -27.089589 6.270571 27.871968 1.500093 1.343876 -0.027852 0.006474 383897.000000 0 0 1
-2.377725 -28.547099 6.486171 29.371088 1.487697 1.348126 -0.029794 0.011761 -289351.000000 0 0 1
-1.942925 -29.096629 7.731571 30.168957 1.504120 1.311629 -0.026034 0.006765 242927.000000 0 0 1
-2.615125 -30.310269 7.932471 31.440028 1.484731 1.315735 -0.026329 0.009547 -8224.480000 0 0 1
-2.291725 -30.929169 9.333271 32.387890 1.496836 1.278479 -0.025443 0.006552 1051950.000000 0 0 1
-0.994725 -31.483669 9.651571 32.944858 1.539212 1.273474 -0.019115 0.005379 654790.000000 0 0 1
-0.770925 -31.599839 10.998271 33.467986 1.546405 1.235954 -0.021160 0.006116 352178.000000 0 0 1
0.713975 -31.762619 11.421871 33.761410 -1.548322 1.225674 -0.013157 0.003682 186858.000000 0 0 1
1.239375 -33.024999 11.049271 34.846420 -1.533286 1.248142 -0.010037 0.000843 -372355.000000 0 0 1
2.630175 -33.091449 11.232071 35.044560 -1.491481 1.244530 -0.007062 0.001717 -59202.100000 0 0 1
3.191475 -33.645589 12.561271 36.055467 -1.476224 1.214946 0.000770 0.001408 -107749.000000 0 0 1
2.656975 -32.940039 13.661571 35.759533 -1.490310 1.178794 0.001284 -0.004903 236607.000000 0 0 1
3.416075 -33.318899 14.777971 36.608838 -1.468627 1.155269 -0.005115 -0.002885 -687835.000000 0 0 1
3.082375 -32.508049 16.020871 36.372277 -1.476260 1.114675 -0.009510 0.000936 5223.210000 0 0 1
3.591275 -31.185359 16.047971 35.255655 -1.456142 1.098212 -0.018137 -0.007303 1244500.000000 0 0 1
5.033275 -31.090929 15.948871 35.303628 -1.410300 1.102056 -0.014834 -0.001807 708678.000000 0 0 1
5.596275 -29.797509 15.260371 33.942433 -1.385149 1.104484 -0.011702 -0.004520 -185061.000000 0 0 1
5.669175 -29.732819 13.790071 33.261781 -1.382387 1.143302 -0.009842 -0.000397 -1184350.000000 0 0 1
4.469775 -29.651859 13.125471 32.733616 -1.421181 1.158212 -0.015942 0.006825 -1186620.000000 0 0 1
4.652875 -29.693529 11.597271 32.215704 -1.415364 1.202541 -0.005546 0.002562 106921.000000 0 0 1
4.932475 -30.971489 11.080171 33.261578 -1.412864 1.231183 -0.001539 -0.001699 -74589.300000 0 0 1
6.324075 -31.228049 11.004071 33.708671 -1.370986 1.238255 0.001551 -0.001708 -91633.000000 0 0 1
6.665075 -32.642229 10.466571 34.921160 -1.369379 1.266397 -0.005720 -0.001247 -334279.000000 0 0 1
6.231275 -33.758679 11.240371 36.122335 -1.388268 1.254367 -0.021041 0.003825 188525.000000 0 0 1
6.667775 34.527055 10.641371 36.739836 1.380027 1.276944 -0.007048 0.003513 -150793.000000 0 0 1
6.346475 33.243010 11.453471 35.728944 1.382155 1.244470 -0.017060 0.008717 1731640.000000 0 0 1
4.924175 33.066200 11.756071 35.437640 1.422964 1.232649 -0.009352 0.001173 1568170.000000 0 0 1
4.702375 31.852440 12.381171 34.496140 1.424225 1.203691 -0.003753 0.011163 -20579.100000 0 0 1
3.535675 31.785730 13.378871 34.667389 1.460017 1.174590 0.004690 0.006681 -76106.100000 0 0 1
3.862675 32.266300 14.659771 35.650291 1.451651 1.147015 0.010374 0.008211 274510.000000 0 0 1
2.767475 32.209900 15.559671 35.878126 1.485087 1.122222 0.015631 0.007583 89595.300000 0 0 1
3.228175 32.239300 17.033271 36.604999 1.470997 1.086793 0.009930 0.005949 -384935.000000 0 0 1
3.935775 33.402750 17.343371 37.842127 1.453509 1.094705 0.005812 0.002700 -10094.900000 0 0 1
4.256475 33.406820 18.692471 38.516772 1.444066 1.064082 -0.003322 0.006084 -258686.000000 0 0 1
4.659275 -34.751900 19.339371 40.042660 -1.437519 1.066754 -0.017162 0.001798 -805568.000000 0 0 1
3.654275 -33.793459 19.301171 39.088192 -1.463079 1.054359 -0.021543 -0.004045 -355135.000000 0 0 1
4.003575 -32.755089 20.202971 38.692176 -1.449172 1.021431 -0.024919 -0.007722 346939.000000 0 0 1
2.757975 -31.957239 20.667771 38.157939 -1.484708 0.998412 -0.026724 -0.003992 1060420.000000 0 0 1
1.779775 -32.683829 21.459171 39.139447 -1.516396 0.990496 -0.025958 -0.001492 130659.000000 0 0 1
0.716275 -31.917759 21.912671 38.722365 -1.548359 0.969282 -0.013702 -0.006393 180459.000000 0 0 1
-0.344725 -32.835209 22.667371 39.900871 1.560298 0.966611 -0.012542 0.006679 -527316.000000 0 0 1
-1.079725 -33.657369 21.832571 40.132847 1.538727 0.995590 -0.011499 0.001521 -188641.000000 0 0 1
-1.766125 -34.689454 22.560071 41.417801 1.519928 0.994771 -0.009300 0.005166 418872.000000 0 0 1
-3.077125 -34.236359 23.310571 41.532875 1.481158 0.974894 -0.007904 0.010071 271206.000000 0 0 1
-4.096325 -33.827879 22.430471 40.794991 1.450290 0.988631 -0.003415 -0.004574 27469.600000 0 0 1
-5.242725 -33.215529 23.004571 40.742702 1.414248 0.970811 -0.003280 0.006299 820609.000000 0 0 1
-6.441725 -33.000559 22.029471 40.197392 1.378020 0.990786 0.012200 -0.004100 537392.000000 0 0 1
-7.093125 -34.226695 21.663571 41.122857 1.366449 1.015963 0.018916 0.000158 -605772.000000 0 0 1
-8.158325 -33.979109 20.819071 40.676428 1.335158 1.033493 0.023048 -0.008734 -830735.000000 0 0 1
-9.240525 34.478436 20.907671 41.367627 -1.308941 1.040938 0.025739 -0.004405 -38732.700000 0 0 1
-9.972325 34.494218 22.126371 42.176707 -1.289368 1.018538 0.042907 -0.006811 -143270.000000 0 0 1
-11.327725 34.117231 22.023971 42.158725 -1.250225 1.021126 0.044489 -0.008895 174917.000000 0 0 1
-11.953925 33.678613 23.343971 42.685903 -1.229726 0.992166 0.050860 -0.011240 -469516.000000 0 0 1
-12.126725 34.703842 24.316571 44.076181 -1.234625 0.986402 0.046392 -0.015586 114309.000000 0 0 1
-10.966325 -34.352877 25.000571 43.879482 1.261796 0.964588 0.039704 -0.012082 16345.500000 0 0 1
-11.076625 -32.849719 25.347271 42.945079 1.245578 0.939458 0.020801 -0.007306 71692.200000 0 0 1
-11.788825 -32.699519 26.577371 43.756046 1.224781 0.918014 0.028923 -0.006097 116491.000000 0 0 1
-12.046325 -31.329579 26.738571 42.913956 1.203720 0.898130 0.030116 -0.005740 -169541.000000 0 0 1
-12.886425 -30.906439 27.931271 43.605319 1.175764 0.875586 0.011026 -0.007191 -140193.000000 0 0 1
-12.134225 -30.859899 29.119671 44.130806 1.196163 0.850178 0.012945 -0.007109 64629.800000 0 0 1
-12.978325 -30.434699 30.153971 44.765721 1.167713 0.831734 0.005423 -0.006969 -295221.000000 0 0 1
-12.272625 -29.969949 31.417471 45.120645 1.182129 0.800568 0.003867 -0.002627 -490301.000000 0 0 1
-13.195725 -29.589679 32.429471 45.840450 1.151310 0.784924 0.005245 -0.001517 353182.000000 0 0 1
-12.678625 -29.065459 33.683771 46.261700 1.159470 0.755230 0.005615 0.001001 -376651.000000 0 0 1
-12.036425 -30.074529 34.640871 47.427237 1.190100 0.751888 0.008156 0.003385 -1103190.000000 0 0 1
-10.753625 -30.444069 34.335871 47.132089 1.231251 0.754662 0.003378 0.006864 -1296650.000000 0 0 1
-10.313725 -31.546409 -34.188841 47.648984 1.254812 2.371024 0.006576 0.015132 606604.000000 0 0 1
-8.893525 -32.042909 -34.626641 48.008823 1.300060 2.376410 0.010475 0.011087 546994.000000 0 0 1
-7.861225 -31.228979 -34.091641 46.896567 1.324191 2.384672 0.019315 0.007150 242885.000000 0 0 1
-6.711825 -32.054989 -33.862841 47.109053 1.364393 2.372897 0.009474 0.007048 382360.000000 0 0 1
-5.679525 -31.442359 -32.886041 45.851615 1.392090 2.370612 0.012931 0.011729 -602331.000000 0 0 1
-6.142825 -31.233789 -31.540441 44.811642 1.376602 2.351592 0.016408 0.002469 -287377.000000 0 0 1
-5.338525 -30.380689 -30.791241 43.584248 1.396851 2.355303 0.015834 0.003600 -282398.000000 0 0 1
-5.858325 -30.257019 -29.346441 42.556090 1.379544 2.331725 0.008484 0.004765 -137094.000000 0 0 1
-5.622625 -31.400079 -28.576241 42.827333 1.393610 2.301298 0.010923 0.006063 159489.000000 0 0 1
-6.467525 -31.382839 -27.430241 42.179729 1.367557 2.278799 0.019006 0.008064 34978.500000 0 0 1
-6.415825 -32.660589 -26.569941 42.589185 1.376827 2.244476 0.018808 -0.001281 311866.000000 0 0 1
-5.305325 -32.765699 -25.678441 41.965698 1.410272 2.229246 0.006372 -0.004904 315535.000000 0 0 1
-5.242825 -34.003129 -25.083341 42.577858 1.417814 2.200762 0.008433 -0.011996 31174.700000 0 0 1
-4.185825 -34.059189 -23.943441 41.843014 1.448511 2.180008 0.004045 -0.018191 46948.100000 0 0 1
-4.553025 -33.521609 -22.655241 40.714718 1.435799 2.160890 0.008454 -0.019324 -55714.300000 0 0 1
-4.624225 -32.129659 -22.543641 39.521060 1.427854 2.177815 -0.008669 -0.013071 -322796.000000 0 0 1
-4.997625 -31.608639 -21.171141 38.370555 1.413985 2.155263 0.005610 -0.011486 117448.000000 0 0 1
-6.393525 -31.779099 -20.916941 38.578578 1.372260 2.143838 0.002690 -0.012731 403503.000000 0 0 1
-7.076425 -30.639579 -20.479641 37.526994 1.343819 2.148057 0.007711 -0.009395 62035.600000 0 0 1
-7.578025 -29.690479 -21.600141 37.490227 1.320897 2.184812 0.015306 -0.007456 -344739.000000 0 0 1
-6.464625 -29.033289 -22.157241 37.089979 1.351708 2.211041 0.007563 0.000778 -29372.100000 0 0 1
-6.889925 -28.239839 -23.267241 37.233373 1.331493 2.245803 0.012655 0.002970 66284.500000 0 0 1
-5.717825 -28.211689 -24.341841 37.697721 1.370829 2.272751 0.003630 0.002057 1682330.000000 0 0 1
-4.498325 -27.485989 -24.167241 36.875060 1.408576 2.285484 0.003754 0.002170 692162.000000 0 0 1
-3.788525 -27.942009 -23.014841 36.397688 1.436033 2.255335 0.001954 -0.003470 -484836.000000 0 0 1
-2.235525 -27.707169 -22.968341 36.058695 1.490287 2.261359 -0.004973 -0.010455 639799.000000 0 0 1
-1.783425 -26.358099 -23.062741 35.068790 1.503238 2.288482 0.001289 -0.007071 -776.734000 0 0 1
-2.279625 -25.364899 -22.169741 33.764955 1.481164 2.287085 -0.002165 -0.000846 -817112.000000 0 0 1
-1.913725 -23.873449 -22.540641 32.888971 1.490806 2.325888 0.000214 0.001430 158651.000000 0 0 1
-2.636525 -23.298449 -23.622441 33.283460 1.458113 2.359919 0.004659 0.000582 603429.000000 0 0 1
-4.039525 -23.177949 -23.407141 33.187789 1.398246 2.353634 -0.000511 0.003034 235061.000000 0 0 1
-4.929225 -23.137449 -24.672741 34.181617 1.360893 2.377215 -0.003505 0.009762 15453.700000 0 0 1
-4.613325 -21.959449 -25.430441 33.914709 1.363724 2.418609 0.003209 0.011591 320553.000000 0 0 1
-5.202525 -22.107549 -26.697241 35.050716 1.339674 2.436690 0.001676 0.016055 -111659.000000 0 0 1
-4.917725 -20.949049 -27.688241 35.066870 1.340224 2.480927 0.002323 0.013278 81792.200000 0 0 1
-5.442325 -21.173249 -29.007641 36.323114 1.319205 2.495762 0.012106 0.013258 357444.000000 0 0 1
-4.593225 -21.980249 -29.830341 37.337358 1.364790 2.496328 0.017812 0.010197 45864.100000 0 0 1
-5.207425 -22.390449 -31.160541 38.722459 1.342285 2.505991 0.027123 0.001872 -311925.000000 0 0 1
-5.411325 -21.308649 -32.022041 38.842658 1.322104 2.539945 0.034769 0.000697 446174.000000 0 0 1
-6.338925 -21.724949 -33.059241 40.063310 1.286897 2.541308 0.038587 -0.002814 399928.000000 0 0 1
-6.460525 -20.769049 -34.306341 40.620399 1.269219 2.576538 0.039911 -0.006295 -88197.400000 0 0 1
-5.413425 -20.983149 34.111971 40.413170 1.318313 0.565948 0.039088 0.000704 -707742.000000 0 0 1
-5.495825 -20.226849 32.993771 39.088597 1.305492 0.565956 0.025215 0.007189 321036.000000 0 0 1
-4.276425 -20.454849 32.067971 38.275886 1.364698 0.577534 -0.005085 0.012178 -574229.000000 0 0 1
-4.302825 -21.841949 31.661371 38.704360 1.376289 0.612817 -0.008470 0.006502 36044.300000 0 0 1
-3.212225 -22.303149 30.901971 38.245008 1.427754 0.630046 -0.017967 0.013492 1067480.000000 0 0 1
-1.761625 -22.322849 31.549071 38.687941 1.492044 0.617246 -0.023023 0.003691 812773.000000 0 0 1
-1.137025 -21.008849 31.410371 37.805766 1.516728 0.590189 -0.024960 0.002163 134462.000000 0 0 1
-0.023225 -20.716949 32.220971 38.306442 1.569675 0.571414 -0.020438 0.005103 -452648.000000 0 0 1
-0.325325 -20.215249 33.616471 39.227914 1.554705 0.541468 -0.030753 -0.001018 -507179.000000 0 0 1
-0.888125 -18.936049 33.600771 38.579457 1.523929 0.513664 -0.037424 -0.005730 -128288.000000 0 0 1
-1.143025 -18.480349 -34.411041 39.076202 1.509024 2.647952 -0.038735 -0.012086 361633.000000 0 0 1
-2.410825 -17.605149 -34.233741 38.570745 1.434704 2.662812 -0.030701 -0.014473 540036.000000 0 0 1
-2.071325 -16.244349 -34.592641 38.272968 1.443970 2.699457 -0.010526 -0.012375 41073.500000 0 0 1
-3.144325 -15.384249 -34.300941 37.724216 1.369187 2.712288 -0.002145 -0.010609 2204.510000 0 0 1
-2.785825 -13.945249 34.646371 37.451326 1.373623 0.389487 -0.014584 -0.010761 -485572.000000 0 0 1
-1.793425 -13.332149 -33.885741 36.458278 1.437080 2.763686 -0.014488 -0.008866 -300608.000000 0 0 1
-1.665025 -11.957449 -34.022241 36.100773 1.432440 2.800603 -0.018279 -0.006382 -210973.000000 0 0 1
-1.201225 -11.362749 33.999571 35.868173 1.465471 0.324207 -0.012549 -0.006183 -758352.000000 0 0 1
-2.158625 -11.500449 32.968071 34.983049 1.385256 0.341058 -0.014616 -0.004125 207592.000000 0 0 1
-1.676525 -10.997849 31.714071 33.608715 1.419520 0.337376 -0.014897 0.002741 -188022.000000 0 0 1
-0.880725 -11.969949 30.841871 33.094960 1.497351 0.371123 -0.023004 -0.002614 -300840.000000 0 0 1
-1.485225 -13.213849 30.594971 33.359616 1.458867 0.409987 -0.025763 -0.004421 390288.000000 0 0 1
-0.496325 -14.162149 30.166271 33.328917 1.535765 0.439163 -0.016219 -0.002857 539078.000000 0 0 1
-0.889425 -15.523049 30.826971 34.526197 1.513562 0.467145 -0.022574 -0.005032 426876.000000 0 0 1
-1.811025 -16.342649 30.106671 34.304134 1.460431 0.499881 -0.014207 -0.007030 377620.000000 0 0 1
-1.899425 -17.643449 30.710571 35.468835 1.463553 0.523956 -0.015157 -0.002052 -302057.000000 0 0 1
-2.412425 -18.643849 29.676771 35.130096 1.442116 0.564665 -0.016482 -0.000641 513539.000000 0 0 1
-3.764725 -18.307949 29.299471 34.753606 1.367990 0.567843 -0.017107 -0.001252 755832.000000 0 0 1
-4.404425 -19.241249 28.474571 34.647162 1.345768 0.606156 -0.010047 -0.002602 -102424.000000 0 0 1
-3.895125 -19.277449 26.955671 33.367653 1.371425 0.630321 -0.012947 -0.007409 -331642.000000 0 0 1
-4.738625 -19.957049 26.066071 33.168938 1.337672 0.666714 -0.007036 -0.008492 -775720.000000 0 0 1
-4.812325 -21.383349 26.254771 34.201156 1.349434 0.695619 -0.014551 0.000509 -110400.000000 0 0 1
-27.752185 34.368051 -0.065829 44.174100 -0.891499 1.572287 -0.000834 -0.004587 -285289.000000 0 0 1
-27.229085 -33.857717 -0.024229 43.448460 0.893487 1.571354 0.003500 0.010192 322403.000000 0 0 1
-27.834365 -33.155517 1.075771 43.303551 0.872424 1.545951 -0.008018 0.001566 62180.300000 0 0 1
-27.128605 -31.819717 1.315971 41.835241 0.864811 1.539335 -0.002064 -0.002984 -520147.000000 0 0 1
-25.868805 -31.841417 1.907071 41.069549 0.888524 1.524344 0.000765 -0.008370 -615625.000000 0 0 1
-25.347205 -30.514517 2.068371 39.722723 0.877638 1.518703 0.016453 -0.014984 -89328.400000 0 0 1
-23.830525 -30.520517 2.268771 38.788442 0.907871 1.512272 0.028003 -0.016010 -389451.000000 0 0 1
-23.392325 -31.161217 3.445871 39.116446 0.926856 1.482589 0.020559 -0.016355 -972447.000000 0 0 1
-22.007625 -31.227917 3.504371 38.364033 0.956895 1.479324 0.020067 -0.011947 -908269.000000 0 0 1
-21.617025 -31.864117 4.861571 38.810471 0.974706 1.445202 0.017156 -0.019137 100319.000000 0 0 1
-22.130725 -31.017917 5.899071 38.557480 0.951079 1.417199 0.011623 -0.023009 -21034.500000 0 0 1
-21.539825 -31.556317 7.074271 38.856281 0.971855 1.387713 0.006470 -0.017370 -49065.700000 0 0 1
-21.886025 -30.812817 8.400071 38.716779 0.953198 1.352095 0.010158 -0.005823 -108338.000000 0 0 1
-21.236825 -29.602517 8.664471 37.448429 0.948488 1.337310 0.006207 -0.008318 -98489.300000 0 0 1
-21.820025 -29.171617 9.867371 37.742043 0.928584 1.306280 0.000154 -0.001355 104617.000000 0 0 1
-21.119925 -27.959617 10.563371 36.597490 0.923866 1.277994 -0.005767 -0.002389 -16091.500000 0 0 1
-19.959825 -28.386617 11.229271 36.473157 0.957965 1.257835 -0.008709 -0.005711 -482408.000000 0 0 1
-19.541325 -27.296017 12.059171 35.670149 0.949476 1.225926 0.000790 -0.006151 199753.000000 0 0 1
-18.208025 -27.516817 12.803571 35.392638 0.986236 1.200643 0.000980 -0.006202 70748.500000 0 0 1
-18.408925 -28.433217 13.826471 36.585621 0.996220 1.183247 0.006619 -0.006835 197694.000000 0 0 1
-17.196025 -28.622417 14.543571 36.420619 1.029797 1.160019 0.005895 -0.005392 381132.000000 0 0 1
-17.344525 -29.753617 15.542071 37.784471 1.043017 1.146878 0.005939 -0.005848 -40168.800000 0 0 1
-17.241125 -31.022317 14.984671 38.525069 1.063538 1.171295 0.013780 -0.004645 -74627.300000 0 0 1
-17.375225 -32.105217 15.908471 39.821136 1.074737 1.159827 0.023596 -0.006560 141778.000000 0 0 1
-16.858825 -33.486517 15.339771 40.507720 1.104392 1.182418 0.017690 -0.004925 140422.000000 0 0 1
-16.949325 -34.497017 16.305871 41.751710 1.114111 1.169574 0.029718 0.000944 23515.200000 0 0 1
-16.509025 33.801351 15.738771 40.777300 -1.116461 1.174538 0.015054 -0.000425 -272152.000000 0 0 1
-16.615625 32.636351 16.790771 40.288217 -1.099884 1.140911 0.005002 0.004409 -294623.000000 0 0 1
-17.915425 32.188651 17.083171 40.606730 -1.062919 1.136582 0.021932 0.001722 -196169.000000 0 0 1
-18.066925 31.029251 17.843771 40.095242 -1.043527 1.109583 0.015788 0.011484 -88982.800000 0 0 1
-18.776225 31.350851 19.190671 41.275954 -1.031181 1.087234 0.014098 0.004322 33443.900000 0 0 1
-18.047225 32.172151 20.081671 42.000276 -1.059579 1.072270 0.009710 0.010011 63364.400000 0 0 1
-18.883625 32.468151 21.183871 43.122251 -1.044013 1.057270 0.006794 0.010877 -43256.200000 0 0 1
-18.264025 33.314351 22.285271 44.046044 -1.069311 1.040309 -0.006832 0.013649 127542.000000 0 0 1
-17.241925 32.784351 23.141071 43.676159 -1.086629 1.012393 -0.001266 0.004981 302175.000000 0 0 1
-16.968025 33.395751 24.380171 44.694327 -1.100698 0.993826 -0.006133 -0.000921 -619279.000000 0 0 1
-17.886025 32.869151 25.483871 45.273819 -1.072449 0.972926 -0.012715 0.003771 -382156.000000 0 0 1
-19.175325 33.392351 25.295671 46.071827 -1.049531 0.989571 -0.017600 -0.000213 -1076670.000000 0 0 1
-20.054825 32.933251 26.240271 46.640614 -1.023819 0.973262 -0.021487 0.000432 -125960.000000 0 0 1
-21.529425 33.267051 25.856571 47.315697 -0.996413 0.992654 -0.025065 0.000046 163882.000000 0 0 1
-21.905525 32.638051 24.651871 46.398375 -0.979686 1.010651 -0.020232 0.011629 -1012510.000000 0 0 1
-23.157025 32.893351 24.172871 46.931313 -0.957389 1.029708 -0.028433 0.012151 -1186050.000000 0 0 1
-23.397025 32.363451 22.722371 45.946925 -0.944836 1.053496 -0.038014 0.015321 17455.400000 0 0 1
-22.825425 33.252451 21.730271 45.814084 -0.969237 1.076611 -0.032792 0.012058 361565.000000 0 0 1
-22.857125 32.658951 20.458871 44.806481 -0.960155 1.096621 -0.035400 0.021358 -126132.000000 0 0 1
-22.379825 33.559851 19.333471 44.731458 -0.982658 1.123852 -0.021993 0.013541 205294.000000 0 0 1
-21.008825 33.922951 19.289171 44.319403 -1.016299 1.120502 -0.007193 0.017537 94169.600000 0 0 1
-20.890525 -34.563817 18.362371 44.364943 1.027145 1.144069 -0.001264 0.014639 127170.000000 0 0 1
-19.611125 -33.717617 18.587971 43.208641 1.043995 1.126092 0.011273 0.008871 161830.000000 0 0 1
-19.638225 -32.892317 19.721771 43.087268 1.032552 1.095371 -0.000146 0.002887 176410.000000 0 0 1
-18.392925 -32.247817 19.836471 42.091650 1.052455 1.080068 0.009726 0.001811 -167695.000000 0 0 1
-18.349525 -31.295717 21.085771 41.961134 1.040491 1.044300 0.014438 0.001785 -397650.000000 0 0 1
-19.149325 -30.200017 20.848671 41.393294 1.005692 1.042951 0.011929 0.006667 54297.800000 0 0 1
-19.245025 -29.333417 21.982971 41.401345 0.990160 1.011049 0.019191 0.009546 -165253.000000 0 0 1
-19.923425 -28.005117 21.686171 40.638891 0.952446 1.007908 0.009999 -0.000736 -400757.000000 0 0 1
-19.107025 -27.173417 20.882271 39.237001 0.957958 1.009589 0.010818 0.008192 337490.000000 0 0 1
-19.709025 -25.954517 20.419671 38.458362 0.921327 1.011069 0.014978 0.019670 -810262.000000 0 0 1
-20.853825 -26.019717 19.421471 38.588875 0.895164 1.043392 0.015331 0.007612 -435870.000000 0 0 1
-22.087225 -26.117817 20.131771 39.689723 0.868818 1.038830 0.004789 0.005997 686727.000000 0 0 1
-23.170025 -25.627217 19.336771 39.591856 0.835711 1.060538 0.004388 0.012169 697165.000000 0 0 1
-24.600025 -26.001817 19.853571 40.931895 0.813093 1.064388 -0.000202 0.004018 380177.000000 0 0 1
-25.038225 -27.337217 19.923671 42.085495 0.829264 1.077639 -0.012312 0.007377 -14790.700000 0 0 1
-25.151445 -28.064417 18.678971 42.060797 0.840082 1.110633 -0.011397 0.001901 -393180.000000 0 0 1
-26.103565 -29.259217 18.868271 43.514475 0.842336 1.122302 -0.014677 0.000961 -765140.000000 0 0 1
-27.415255 -28.938117 19.143371 44.220804 0.812415 1.123084 -0.025681 -0.000784 -1190440.000000 0 0 1
-28.328115 -29.706517 18.384071 44.977031 0.809145 1.149719 -0.023403 0.002892 -549093.000000 0 0 1
-29.739605 -29.187917 18.595371 45.630762 0.776036 1.151061 -0.012504 -0.000530 -714299.000000 0 0 1
-29.969425 -27.850117 18.346971 44.837561 0.748761 1.149233 -0.004635 0.002934 -645161.000000 0 0 1
-31.327025 -27.582017 18.478471 45.646512 0.721911 1.154018 -0.004136 0.009365 -762945.000000 0 0 1
-31.926025 -26.428017 17.671971 45.055630 0.691457 1.167747 -0.004506 0.001117 -373305.000000 0 0 1
-32.092875 -26.675817 16.259771 44.787633 0.693482 1.199266 0.013121 -0.007063 115400.000000 0 0 1
-32.693745 -25.625317 15.568771 44.361295 0.664784 1.212207 0.001444 0.000898 -534982.000000 0 0 1
-31.809545 -24.388517 15.253771 42.887346 0.654106 1.207165 -0.006658 0.004921 -48040.400000 0 0 1
-31.366175 -23.623817 16.343171 42.532587 0.645522 1.176400 -0.017973 -0.002530 87528.200000 0 0 1
-31.121095 -22.308217 15.917171 41.467282 0.621925 1.176835 -0.005073 0.004291 -289604.000000 0 0 1
-32.085205 -21.191417 16.335671 41.777874 0.583703 1.169065 -0.020637 0.002861 -395702.000000 0 0 1
-31.853755 -20.791617 17.691671 41.951738 0.578286 1.135461 -0.013600 0.006561 170561.000000 0 0 1
-32.597725 -19.640717 18.026671 42.110929 0.542269 1.128434 -0.008902 0.015773 -89062.900000 0 0 1
-32.907255 -19.430217 19.519871 42.912075 0.533371 1.098558 -0.018652 0.007871 -758742.000000 0 0 1
-33.864375 -20.273117 20.035471 44.263024 0.539431 1.101066 -0.010380 0.007459 -346894.000000 0 0 1
-34.132552 -19.904717 21.386571 44.928992 0.527945 1.074686 -0.009080 0.012440 -145306.000000 0 0 1
34.185520 -20.423817 21.962871 45.476915 -0.538535 1.066781 -0.006139 0.003033 -63183.400000 0 0 1
34.028109 -21.873417 22.010471 46.052355 -0.571300 1.072483 0.006036 -0.005182 -12989.800000 0 0 1
-34.752740 -22.595317 22.812771 47.315155 0.576497 1.067695 0.010626 0.002827 -281365.000000 0 0 1
34.167551 -23.889617 23.198371 47.710584 -0.610182 1.063025 0.003884 0.004219 50402.900000 0 0 1
33.211000 -23.670117 24.192571 47.418620 -0.619211 1.035389 0.018695 -0.010700 -73981.000000 0 0 1
32.516880 -24.864717 24.470871 47.690934 -0.652825 1.031988 0.017026 -0.023564 56853.100000 0 0 1
31.563610 -24.807317 25.722671 47.679349 -0.666113 1.000962 0.022071 -0.029201 1113680.000000 0 0 1
30.457710 -23.870617 25.658671 46.431087 -0.664741 0.985294 0.018967 -0.029797 1820090.000000 0 0 1
29.464140 -23.915417 26.732271 46.418715 -0.681822 0.957099 0.002477 -0.022319 609326.000000 0 0 1
28.326200 -24.924517 26.705871 46.225629 -0.721604 0.954853 0.003995 -0.019143 -1363360.000000 0 0 1
27.356600 -24.520617 25.844571 44.917548 -0.730785 0.957730 0.006285 -0.018875 -785096.000000 0 0 1
26.137150 -25.256017 25.969871 44.670474 -0.768255 0.950390 0.000456 -0.008518 505096.000000 0 0 1
24.942430 -24.342217 25.612171 43.251031 -0.773220 0.937041 -0.005086 -0.002289 -673104.000000 0 0 1
24.829640 -23.793217 24.327971 42.124558 -0.764086 0.955103 0.000155 -0.005898 218240.000000 0 0 1
25.808410 -22.782417 23.979471 41.953875 -0.723203 0.962381 -0.000653 0.000511 14601.200000 0 0 1
25.686160 -22.095317 22.618071 40.737685 -0.710388 0.982178 0.005378 0.008047 -300869.000000 0 0 1
25.054350 -20.880617 22.692371 39.732409 -0.694785 0.962915 -0.004641 0.006277 -226376.000000 0 0 1
24.973800 -20.330017 21.390571 38.659499 -0.683252 0.984467 -0.015364 0.012302 242821.000000 0 0 1
24.172120 -18.950117 21.260871 37.355361 -0.664887 0.965322 -0.008778 0.020744 190388.000000 0 0 1
24.628950 -17.770917 21.922271 37.456330 -0.625040 0.945577 -0.008835 0.005896 -63327.500000 0 0 1
24.714620 -17.869517 23.348871 38.409659 -0.626019 0.917395 -0.010072 0.006518 -307828.000000 0 0 1
24.802080 -16.429017 24.014071 38.232596 -0.585046 0.891681 0.004328 0.016915 -136683.000000 0 0 1
23.640620 -15.701817 23.640971 36.936723 -0.586285 0.876246 -0.019419 0.012286 72073.100000 0 0 1
23.652320 -14.372717 24.058271 36.671619 -0.546037 0.855229 -0.018331 0.013325 298331.000000 0 0 1
22.328420 -13.630117 23.667771 35.277498 -0.548059 0.835371 -0.027757 0.015266 -8296.840000 0 0 1
21.290320 -14.052117 24.482771 35.357401 -0.583390 0.805935 -0.008044 0.011616 -1540490.000000 0 0 1
20.090520 -13.555117 24.016271 34.119664 -0.593545 0.789946 0.000031 0.017827 -997981.000000 0 0 1
18.895220 -14.265517 24.642371 34.172808 -0.646681 0.765392 0.008949 0.011435 -522059.000000 0 0 1
18.625320 -15.534517 24.192871 34.256661 -0.695163 0.786646 0.013937 0.009568 63687.600000 0 0 1
17.478820 -16.063317 24.843271 34.361715 -0.743222 0.762672 0.015045 0.014778 160994.000000 0 0 1
16.904020 -17.300917 24.085371 34.134627 -0.797001 0.787528 0.013374 0.007872 295399.000000 0 0 1
17.647320 -18.542817 24.242271 35.255520 -0.810137 0.812595 0.005508 0.006611 361995.000000 0 0 1
17.292720 -19.439317 23.187671 34.851016 -0.843771 0.842851 0.010776 0.006776 167667.000000 0 0 1
17.859720 -20.823717 23.462071 36.098000 -0.861871 0.863271 0.002701 0.006245 -491769.000000 0 0 1
17.045520 -21.404017 24.460271 36.701316 -0.898273 0.841334 0.004897 -0.001223 301143.000000 0 0 1
17.227620 -22.780217 24.849571 37.858029 -0.923305 0.854775 0.010625 -0.000670 -528496.000000 0 0 1
16.759720 -23.829217 23.780871 37.606511 -0.957841 0.886200 0.007772 0.002868 5009.590000 0 0 1
17.448220 -23.974817 22.527271 37.238558 -0.941673 0.921100 0.007438 0.008629 -417422.000000 0 0 1
18.682520 -24.601917 22.770471 38.376884 -0.921311 0.935597 0.004901 0.007591 -772336.000000 0 0 1
19.452520 -24.789817 21.473171 38.131780 -0.905456 0.972627 0.003174 0.019969 -749052.000000 0 0 1
18.935220 -25.791017 20.674171 38.093838 -0.937498 0.997128 0.012812 0.005842 241927.000000 0 0 1
19.812420 -26.212917 19.606771 38.263226 -0.923577 1.032798 0.006776 0.014874 325860.000000 0 0 1
19.092820 -26.771817 18.351071 37.656710 -0.951287 1.061772 0.010867 0.003807 -150140.000000 0 0 1
18.562320 -28.036817 18.584971 38.419058 -0.985983 1.065869 0.028565 -0.006893 -293191.000000 0 0 1
17.884620 -28.446917 17.418071 37.848064 -1.009540 1.092564 0.028473 -0.008153 -6227.960000 0 0 1
16.930020 -29.668217 17.677771 38.462089 -1.052241 1.093234 0.038115 -0.011353 451114.000000 0 0 1
15.873120 -29.334117 18.566471 38.172768 -1.074800 1.062854 0.044029 -0.012591 -173582.000000 0 0 1
15.159620 -30.451517 18.995571 38.960759 -1.108888 1.061507 0.052083 -0.017227 -318857.000000 0 0 1
13.969320 -30.018517 19.857071 38.607727 -1.135245 1.030571 0.045818 -0.008951 -212517.000000 0 0 1
12.995120 -29.307917 19.133871 37.335401 -1.153445 1.032719 0.050965 -0.014992 56354.000000 0 0 1
11.741920 -29.225217 19.828871 37.217874 -1.188762 1.008916 0.022020 -0.006989 502323.000000 0 0 1
10.674020 -28.748617 18.828471 35.985122 -1.215284 1.020160 0.015018 -0.010412 -348073.000000 0 0 1
10.368420 -29.714017 17.830671 36.171256 -1.235066 1.055318 0.010090 -0.012923 -129829.000000 0 0 1
9.856920 -28.979217 16.775871 34.905354 -1.242935 1.069446 0.012865 -0.011398 -208313.000000 0 0 1
9.753620 -29.844317 15.440471 34.988920 -1.254922 1.113754 0.007537 -0.010533 -268030.000000 0 0 1
8.747920 -30.816017 15.322871 35.509765 -1.294197 1.124629 -0.015837 0.002386 -276963.000000 0 0 1
8.826020 -31.678817 14.216071 35.826565 -1.299077 1.162766 -0.014076 0.004525 39473.200000 0 0 1
7.738520 -32.798417 14.223471 36.577698 -1.339092 1.171406 -0.027339 0.006022 -11243.300000 0 0 1
7.839620 -33.641417 15.361371 37.804448 -1.341848 1.152354 -0.028347 0.009813 26213.100000 0 0 1
6.965620 34.748351 15.254071 38.583085 1.372959 1.164340 -0.027606 0.007687 71799.200000 0 0 1
7.071720 33.684651 16.308371 38.087110 1.363863 1.128312 -0.011473 0.009396 -187015.000000 0 0 1
8.174820 32.825851 16.199471 37.507160 1.326725 1.124194 -0.016084 0.007984 -437756.000000 0 0 1
7.947220 31.799451 17.094771 36.967481 1.325896 1.090066 -0.001826 0.004017 178307.000000 0 0 1
9.150220 30.850651 17.317971 36.543144 1.282464 1.077076 -0.002874 -0.002167 -71848.900000 0 0 1
9.641620 30.132951 16.201671 35.545038 1.261121 1.097518 0.006607 0.000330 -32561.100000 0 0 1
10.544220 29.110251 16.635971 35.147445 1.223280 1.077741 0.008458 0.000368 176640.000000 0 0 1
11.309820 28.464351 15.423471 34.293072 1.192591 1.104306 0.002210 0.000754 144139.000000 0 0 1
10.557720 27.550551 14.618771 32.927296 1.204845 1.110771 -0.003059 0.004786 32467.300000 0 0 1
11.187620 27.237951 13.369271 32.338928 1.181069 1.144599 0.002416 0.012135 98885.200000 0 0 1
-9.105925 -9.354649 19.130284 23.160205 0.798871 0.598826 0.009077 -0.010418 -34097.900000 0 1 0
-9.568725 -9.671849 17.848884 22.442990 0.790758 0.651296 0.019217 -0.009379 58593.900000 0 1 0
-9.154825 -10.978149 17.491384 22.589358 0.875716 0.685157 0.008634 -0.008681 -318744.000000 0 1 0
-9.428625 -11.187749 16.013284 21.690780 0.870518 0.740320 0.001827 -0.008640 -7893.390000 0 1 0
-10.820525 -11.388749 15.868684 22.329409 0.810978 0.780356 0.007085 0.000339 -1057.540000 0 1 0
-11.224525 -11.780849 14.597184 21.859921 0.809576 0.839601 -0.002105 -0.003974 24673.400000 0 1 0
-11.288525 -13.334849 14.518884 22.716667 0.868313 0.877431 -0.007779 -0.001417 -439382.000000 0 1 0
-9.992225 -13.839449 14.319184 22.280349 0.945451 0.872802 -0.010580 0.004677 -221753.000000 0 1 0
-9.909325 -15.249249 14.478884 23.245911 0.994545 0.898407 -0.010341 0.002350 222873.000000 0 1 0
-9.531125 -15.762549 15.838684 24.293295 1.026951 0.860607 -0.007871 0.001890 15954.600000 0 1 0
-10.644225 -15.666649 16.692284 25.246302 0.974017 0.848409 0.003661 -0.002765 16590.800000 0 0 1
-10.163625 -15.844749 18.064284 26.089724 1.000455 0.805999 0.007688 0.005007 372396.000000 0 0 1
-11.190825 -15.241849 19.080784 26.863076 0.937473 0.780875 0.008010 -0.008175 219696.000000 0 0 1
-11.437825 -13.813349 19.005484 26.131224 0.879198 0.756403 0.017128 -0.008551 215384.000000 0 0 1
-12.365725 -13.388049 18.010184 25.622602 0.825073 0.791327 0.007110 -0.015247 131721.000000 0 0 1
-13.845425 -13.329249 18.446084 26.638744 0.766406 0.805912 0.005823 -0.011695 43195.000000 0 0 1
-14.425225 -14.572549 18.840984 27.846525 0.790479 0.827660 0.016798 -0.004509 -177089.000000 0 0 1
-15.373825 -14.379049 19.869684 28.946777 0.751976 0.814240 0.023178 -0.001100 40003.500000 0 0 1
-15.855225 -15.797349 20.397884 30.282306 0.783570 0.831740 0.016222 0.019545 123994.000000 0 0 1
-16.835325 -16.452049 19.619684 30.643598 0.773884 0.875968 0.013227 0.014480 -174749.000000 0 0 1
-16.959725 -17.839049 19.957784 31.688753 0.810662 0.889492 0.003192 0.012729 -440787.000000 0 0 1
-18.115625 -18.473049 19.208684 32.224260 0.795167 0.932169 0.016117 0.015424 -509632.000000 0 0 1
-17.968625 -18.501449 17.790384 31.331659 0.800007 0.966955 0.018619 0.013618 -55582.100000 0 0 1
-18.345625 -17.316049 17.085484 30.468365 0.756535 0.975491 0.025187 0.019790 -463659.000000 0 0 1
-18.139025 -17.445349 15.595084 29.606943 0.765907 1.016039 0.027986 0.010612 -300052.000000 0 0 1
-18.832625 -18.491649 14.968184 30.342303 0.776263 1.054905 0.023488 -0.002683 -46710.900000 0 0 1
-18.438325 -18.556549 13.594884 29.481150 0.788594 1.091519 0.023003 -0.008226 191717.000000 0 0 1
-18.839425 -19.938549 12.842884 30.288766 0.813735 1.132923 0.026325 -0.000521 195683.000000 0 0 1
-18.121825 -21.052149 13.330684 30.810723 0.860062 1.123351 0.014382 0.005155 -114621.000000 0 0 1
-17.989725 -22.027049 12.290984 30.982081 0.885949 1.162863 0.006979 0.004126 -353576.000000 0 0 1
-17.511925 -23.312149 12.914384 31.888950 0.926532 1.153839 -0.003634 0.005459 -187869.000000 0 0 1
-17.410325 -24.496649 12.084484 32.391974 0.952910 1.188480 -0.002192 -0.000760 -194296.000000 0 0 1
-16.335225 -24.556249 11.183684 31.542411 0.983798 1.208353 -0.008332 0.001419 -477317.000000 0 0 1
-16.341725 -25.719999 10.215884 32.139300 1.004774 1.247322 -0.009151 0.002564 312632.000000 0 0 1
-17.496525 -25.843529 9.358584 32.582195 0.975662 1.279463 -0.003914 0.007352 322414.000000 0 0 1
-17.357725 -26.890259 8.384984 33.086018 0.997589 1.314572 0.001250 0.006053 -452135.000000 0 0 1
-18.629725 -27.034189 7.556784 33.690043 0.967412 1.344568 -0.004185 -0.000609 -200868.000000 0 0 1
-18.781625 -25.924849 6.713684 32.709643 0.943839 1.364076 -0.002498 -0.000304 -286500.000000 0 0 1
-19.628225 -26.098939 5.615984 33.135496 0.925972 1.400489 0.000529 0.005534 -212344.000000 0 0 1
-19.741325 -24.732049 4.869184 32.017231 0.897149 1.418124 0.001509 0.003591 -79950.300000 0 0 1
-20.391425 -24.677349 3.615784 32.215767 0.880210 1.458323 0.014975 0.004883 -75561.500000 0 0 1
-20.546825 -23.326949 3.246084 31.254690 0.848680 1.466750 0.017347 0.015032 113191.000000 0 0 1
-21.130825 -23.160249 1.773384 31.401493 0.831186 1.514292 0.012167 0.014142 370990.000000 0 0 1
-20.243425 -23.476049 0.696784 31.006558 0.859204 1.548322 -0.000065 0.011554 209747.000000 0 0 1
-20.847725 -23.268049 -0.569916 31.246672 0.840206 1.589037 0.007957 0.013295 -212714.000000 0 0 1
-20.258225 -24.097949 -1.741316 31.529970 0.871749 1.626052 0.006348 0.011971 119916.000000 0 0 1
-18.950525 -23.634949 -2.088016 30.365984 0.894958 1.639612 -0.006905 0.015703 618073.000000 0 0 1
-18.222825 -24.233849 -3.159616 30.484979 0.926044 1.674628 -0.000693 0.010798 314290.000000 0 0 1
-18.017625 -25.755079 -3.198816 31.594166 0.960355 1.672217 0.009365 0.010236 -250645.000000 0 0 1
-19.205425 -26.441619 -3.552716 32.872927 0.942615 1.679082 0.021906 0.009851 -103386.000000 0 0 1
-18.981225 -27.801259 -3.647316 33.860003 0.971744 1.678723 0.016142 0.005005 165700.000000 0 0 1
-20.065525 -28.585569 -4.445816 35.206893 0.958766 1.697411 0.018215 -0.001494 258061.000000 0 0 1
-20.269725 -28.295409 -5.772816 35.281969 0.949174 1.735155 0.000504 0.007940 -137243.000000 0 0 1
-21.159825 -29.224129 -6.356716 36.635990 0.944109 1.745189 -0.009732 0.000074 -343102.000000 0 0 1
-21.730825 -28.759159 -7.693816 36.858008 0.923712 1.781085 -0.014615 0.015551 -522990.000000 0 0 1
-20.775325 -28.668119 -8.743516 36.468126 0.943695 1.812913 0.001987 0.020559 105111.000000 0 0 1
-21.271825 -28.454099 -10.079016 36.928483 0.928843 1.847237 0.003788 0.023265 -160221.000000 0 0 1
-22.112025 -27.193659 -10.422816 36.565993 0.888099 1.859846 -0.002421 0.024317 -685977.000000 0 0 1
-21.437625 -26.036729 -10.814716 35.418090 0.881972 1.881096 -0.006921 0.028153 -83760.100000 0 0 1
-21.180225 -25.232089 -9.641816 34.325280 0.872479 1.855523 -0.013109 0.022071 -219999.000000 0 0 1
-21.029425 -23.703449 -9.860416 33.186112 0.845105 1.872476 -0.000404 0.009884 350091.000000 0 0 1
-22.235125 -23.039649 -10.237816 33.616054 0.803166 1.880264 -0.020002 0.016903 300388.000000 0 0 1
-22.026625 -21.673549 -10.455516 32.622580 0.777319 1.897053 0.002079 0.014968 -655359.000000 0 0 1
-23.304525 -20.947449 -10.776516 33.136533 0.732184 1.902036 0.013045 0.020587 -1110490.000000 0 0 1
-23.710025 -20.882449 -12.115616 33.838294 0.722074 1.936969 0.003528 0.018988 985907.000000 0 0 1
-24.980225 -20.230649 -12.318116 34.424218 0.680728 1.936742 0.000217 0.012081 712202.000000 0 0 1
-24.964725 -18.689449 -12.075116 33.441612 0.642626 1.940223 -0.001322 0.015280 -1276870.000000 0 0 1
-24.197425 -18.013549 -13.020816 32.856430 0.639934 1.978273 0.001600 0.019973 212920.000000 0 0 1
-23.903325 -16.684449 -12.630316 31.768926 0.609380 1.979661 0.002345 0.006910 -61425.200000 0 0 1
-22.859225 -16.409649 -11.543516 30.415021 0.622610 1.960088 0.001071 0.009509 -763475.000000 0 0 1
-23.389825 -16.795449 -10.307316 30.584502 0.622748 1.914537 0.011831 0.002487 -473626.000000 0 0 1
-22.448225 -16.860549 -9.322916 29.582388 0.644196 1.891412 0.012076 -0.003582 -280239.000000 0 0 1
-23.172825 -17.352749 -7.988516 30.031885 0.642759 1.840039 -0.002281 -0.008261 391789.000000 0 0 1
-23.299625 -18.734349 -7.996716 30.948277 0.677213 1.832151 -0.004469 -0.002964 150416.000000 0 0 1
-24.223125 -19.100949 -6.991416 31.630459 0.667715 1.793671 -0.007718 0.001741 57208.600000 0 0 1
-24.725825 -20.577249 -6.905816 32.901062 0.694079 1.782265 -0.015072 0.005223 -314368.000000 0 0 1
-25.407815 -20.877749 -8.062016 33.859025 0.687837 1.811211 -0.024008 -0.004245 -662224.000000 0 0 1
-25.910345 -22.180549 -8.169616 35.072288 0.707996 1.805892 -0.024818 0.005444 -413510.000000 0 0 1
-25.016625 -23.378649 -8.531216 35.287029 0.751565 1.814982 -0.024211 0.016935 -470979.000000 0 0 1
-25.565905 -24.578849 -8.158716 36.390932 0.765717 1.796915 -0.024650 0.016965 -245984.000000 0 0 1
-24.818925 -25.629549 -8.784116 36.742530 0.801465 1.812207 -0.023516 0.026662 -75798.800000 0 0 1
-25.180385 -27.040159 -8.308716 37.871582 0.820997 1.791987 -0.022977 0.019640 -281790.000000 0 0 1
-25.070605 -27.354439 -6.958216 37.752051 0.828934 1.756170 -0.016465 -0.003412 22387.600000 0 0 1
-25.391085 -28.697289 -6.753716 38.908280 0.846448 1.745260 -0.009864 -0.001680 -357749.000000 0 0 1
-25.081165 -29.118869 -5.331016 38.799396 0.859757 1.708632 -0.002504 -0.007803 30734.900000 0 0 1
-25.920575 -28.624399 -4.290716 38.854120 0.834928 1.681453 -0.014557 -0.008139 178023.000000 0 0 1
-25.415685 -29.002579 -3.008416 38.680191 0.851216 1.648652 -0.019938 0.005086 -268386.000000 0 0 1
-25.642635 -30.456619 -2.520416 39.893644 0.871000 1.634017 -0.011858 0.011926 -440175.000000 0 0 1
-25.179235 -31.446709 -3.422516 40.430224 0.895631 1.655550 0.007942 -0.003206 -19530.900000 0 0 1
-25.069655 -32.743869 -2.814416 41.334846 0.917367 1.638937 0.014435 -0.000940 229011.000000 0 0 1
-24.150125 -32.944559 -1.540316 40.877195 0.938229 1.608487 0.014243 -0.007763 1471040.000000 0 0 1
-22.733125 -32.719209 -1.748216 39.879793 0.963573 1.614648 0.016699 -0.016801 1220710.000000 0 0 1
-21.973625 -32.915819 -0.519216 39.579804 0.982168 1.583915 0.035255 -0.015146 732741.000000 0 0 1
-20.806925 -31.901999 -0.352516 38.089236 0.992866 1.580051 0.021399 -0.011179 -33949.900000 0 0 1
-21.142025 -30.557519 -0.092716 37.158522 0.965543 1.573291 0.026275 -0.007117 -198952.000000 0 0 1
-21.640625 -29.860179 -1.221516 36.897683 0.943664 1.603908 0.028944 -0.001942 -164607.000000 0 0 1
-22.137325 -28.459129 -0.871116 36.065801 0.909700 1.594952 0.022757 -0.006693 379297.000000 0 0 1
-23.391225 -28.549069 -0.186116 36.908446 0.884377 1.575839 0.024512 -0.008298 526490.000000 0 0 1
-24.004225 -27.291189 0.167384 36.346112 0.849390 1.566191 0.023400 -0.003670 361451.000000 0 0 1
-23.388625 -26.495669 1.366584 35.368288 0.847603 1.532148 0.031111 0.003476 -112603.000000 0 0 1
-23.656325 -26.977809 2.623684 35.976487 0.850902 1.497804 0.023626 0.006351 -365777.000000 0 0 1
-23.210825 -26.139459 3.641584 35.146477 0.844672 1.466998 0.034782 -0.002381 -99525.900000 0 0 1
-24.110425 -24.909849 4.060384 34.904153 0.801705 1.454203 0.032333 0.001000 165477.000000 0 0 1
-24.365925 -23.916549 3.062284 34.279399 0.776091 1.481344 0.025070 0.009716 -236595.000000 0 0 1
-25.241395 -22.956749 3.547284 34.303405 0.738032 1.467202 0.013862 0.010672 -369036.000000 0 0 1
-25.277335 -21.716649 2.589984 33.425507 0.709774 1.493233 0.019682 0.008079 61288.100000 0 0 1
-24.091025 -20.973449 2.673084 32.053212 0.716328 1.487304 0.016731 0.012586 -111971.000000 0 0 1
-24.164825 -19.983849 1.655184 31.401156 0.690978 1.518061 0.016450 0.013319 753823.000000 0 0 1
-22.797525 -19.237349 1.694384 29.877645 0.700904 1.514055 0.030084 0.019533 548019.000000 0 0 1
-21.636825 -19.957349 1.332684 29.465641 0.745042 1.525552 0.017601 0.015548 1104180.000000 0 0 1
-20.467625 -19.133349 1.709184 28.070091 0.751718 1.509869 0.011466 0.017748 1587090.000000 0 0 1
-19.138125 -19.896249 1.403584 27.642333 0.804818 1.519998 -0.003679 0.013150 31034.300000 0 0 1
-18.871025 -19.807149 0.017884 27.357614 0.809596 1.570143 0.000739 0.001990 -388405.000000 0 0 1
-17.850025 -20.656749 -0.364116 27.303063 0.858159 1.584133 0.005568 0.003700 -508110.000000 0 0 1
-17.741325 -20.753549 -1.912816 27.370116 0.863489 1.640740 0.006905 0.001258 19427.600000 0 0 1
-17.125425 -19.622649 -2.513616 26.165756 0.853249 1.667010 -0.010087 -0.003254 -95378.400000 0 0 1
-16.845525 -19.953249 -3.860116 26.397052 0.869650 1.717555 0.004709 -0.002123 -457526.000000 0 0 1
-16.062625 -18.897849 -4.575316 25.220431 0.866319 1.753220 0.007944 -0.005979 -1008110.000000 0 0 1
-14.711825 -19.031949 -4.283116 24.433542 0.912733 1.747003 0.009575 -0.005407 -613762.000000 0 1 0
-13.889925 -18.368949 -5.222816 23.614108 0.923362 1.793814 0.010148 -0.007490 101288.000000 0 1 0
-12.364225 -18.574749 -5.131016 22.895910 0.983500 1.796818 0.014940 0.001984 107031.000000 0 1 0
-11.953025 -19.888649 -5.541616 23.856711 1.029644 1.805225 0.023950 0.002331 1308590.000000 0 1 0
-10.534025 -19.775349 -5.851516 23.157512 1.081344 1.826249 0.008423 0.002925 1432860.000000 0 1 0
-9.720625 -21.044949 -6.114416 23.974288 1.138092 1.828686 -0.001814 0.008650 38084.400000 0 1 0
-10.109825 -21.787049 -7.229816 25.082948 1.136337 1.863181 0.016171 0.003408 -165502.000000 0 0 1
-9.082425 -22.710149 -7.509416 25.585790 1.190352 1.868682 0.006875 0.009632 -210973.000000 0 0 1
-9.497425 -23.785049 -8.502116 26.985470 1.190892 1.891319 0.029619 0.005844 -650636.000000 0 0 1
-9.775725 -23.326049 -9.769316 27.112891 1.173942 1.939407 0.027264 0.008152 -126705.000000 0 0 1
-10.085325 -24.371949 -10.642316 28.442302 1.178443 1.954300 0.038885 0.008295 -52506.000000 0 0 1
-11.077725 -23.909949 -11.725916 28.842655 1.136929 1.989469 0.043252 0.005918 -336287.000000 0 0 1
-10.504725 -22.976549 -12.530016 28.200573 1.141977 2.031209 0.024875 0.012410 461168.000000 0 0 1
-11.527425 -22.317949 -13.322216 28.433322 1.094029 2.058436 0.034588 0.006344 547607.000000 0 0 1
-11.004125 -21.056449 -14.078216 27.616317 1.089232 2.105724 0.029777 0.007625 -292709.000000 0 0 1
-10.611625 -20.067749 -13.199516 26.259253 1.084383 2.097471 0.027326 0.001377 -285624.000000 0 0 1
-10.316625 -18.855649 -13.872616 25.581589 1.070154 2.143955 0.024705 0.011204 -183937.000000 0 0 1
-9.855225 -17.662449 -13.011016 24.049409 1.061850 2.142436 0.022735 0.001261 -386089.000000 0 1 0
-10.850825 -17.052949 -12.258416 23.639210 1.004111 2.115966 0.021117 -0.005564 -129720.000000 0 1 0
-10.326225 -15.961649 -11.436016 22.185302 0.996575 2.112361 0.012513 -0.013043 476176.000000 0 1 0
-10.042125 -14.621649 -12.177316 21.515667 0.968986 2.172411 0.016054 -0.005707 -594910.000000 0 1 0
-11.252425 -14.161749 -12.632616 22.062529 0.899378 2.180449 0.021224 0.001301 -852178.000000 0 1 0
-11.310225 -14.029249 -14.053116 22.852376 0.892293 2.233122 0.025396 -0.001535 -1119140.000000 0 1 0
-12.573425 -13.436749 -14.588216 23.483042 0.818578 2.241099 0.025365 0.001931 -1024480.000000 0 1 0
-12.712725 -12.092349 -14.235716 22.594112 0.760393 2.252431 0.018871 0.007276 54663.700000 0 1 0
-13.783025 -11.438349 -14.922116 23.312596 0.692701 2.265409 0.015527 -0.001255 203997.000000 0 1 0
-14.094825 -10.098849 -14.213016 22.420095 0.621710 2.257435 0.005782 -0.008641 -14055.300000 0 1 0
-13.060125 -9.141449 -14.318416 21.427786 0.610693 2.302606 0.010689 -0.007890 164158.000000 0 1 0
-13.234425 -8.380549 -15.494016 22.032888 0.564502 2.350716 0.008014 -0.012835 635129.000000 0 1 0
-12.097425 -7.281949 -15.566216 21.016221 0.541846 2.404873 0.008237 -0.002130 900030.000000 0 1 0
-10.799125 -7.829649 -15.704716 20.604917 0.627325 2.437475 0.002863 0.000232 -114060.000000 0 1 0
-9.809825 -6.864249 -15.506216 19.590644 0.610546 2.484074 -0.005148 0.006220 -38999.400000 0 1 0
11.221275 22.162651 15.909684 29.499460 1.102110 1.001166 0.018435 0.014360 -818129.000000 0 0 1
12.093975 22.174351 16.968584 30.428587 1.071489 0.979241 0.019787 0.012455 -661126.000000 0 0 1
12.295875 20.828651 17.431084 29.813821 1.037514 0.946330 0.019069 0.009760 -213007.000000 0 0 1
13.400375 20.793751 18.495884 30.887665 0.998338 0.928780 0.011854 0.006479 206203.000000 0 0 1
14.674875 21.129651 17.958984 31.374181 0.963761 0.961351 -0.001662 0.014882 -1003400.000000 0 0 1
15.660375 20.896551 18.854584 32.208827 0.927664 0.945441 -0.003092 0.012134 -404386.000000 0 0 1
17.036875 21.490751 18.389284 33.019286 0.900489 0.980117 0.005106 0.014814 -346333.000000 0 0 1
17.220275 22.916851 18.574884 34.157668 0.926384 0.995840 0.007880 0.009092 10223.700000 0 0 1
18.294975 23.461851 17.835384 34.688117 0.908510 1.030764 0.016158 0.008578 194588.000000 0 0 1
19.743575 23.133051 18.236484 35.461474 0.864286 1.030650 0.006792 0.001278 -577634.000000 0 0 1
20.050175 21.760851 18.045284 34.657992 0.826290 1.023164 0.010277 0.001475 -999233.000000 0 0 1
21.172775 21.423451 18.758184 35.484083 0.791283 1.013803 0.007281 0.000439 -982156.000000 0 0 1
21.328175 19.888451 18.911384 34.757474 0.750482 0.995486 0.007775 0.000806 -208566.000000 0 0 1
21.389075 19.192051 17.639984 33.719377 0.731312 1.020264 -0.006151 0.006127 59608.300000 0 0 1
21.528475 17.785051 17.745384 33.085978 0.690465 1.004700 0.004349 -0.005730 366587.000000 0 0 1
22.940275 17.231751 18.104784 33.925988 0.644241 1.007879 -0.006752 -0.002580 -386244.000000 0 0 1
23.915475 17.205951 17.129784 34.079674 0.623660 1.044147 -0.007320 -0.003819 -557065.000000 0 0 1
24.869475 16.281151 17.599684 34.544399 0.579647 1.036216 -0.006928 -0.012194 -470125.000000 0 0 1
25.955975 15.866051 16.545784 34.629571 0.548663 1.072655 -0.015849 -0.009934 -871738.000000 0 0 1
26.768075 16.953451 16.189684 35.581669 0.564578 1.098423 -0.021265 -0.006848 -169078.000000 0 0 1
27.968175 17.150851 16.895284 36.902861 0.550089 1.095242 -0.020493 -0.023007 -83348.800000 0 0 1
29.031275 16.020651 16.751584 37.149586 0.504256 1.102998 -0.015974 -0.024973 -929546.000000 0 0 1
29.642775 16.060551 15.476684 37.096673 0.496528 1.140436 -0.006232 -0.021688 -24866.700000 0 0 1
29.220975 14.937651 14.642584 35.936111 0.472564 1.151124 0.003158 -0.034162 -197527.000000 0 0 1
28.319275 15.312751 13.464084 34.896178 0.495689 1.174686 -0.010385 -0.017094 -463542.000000 0 0 1
29.048675 15.952851 12.400384 35.384862 0.502211 1.212752 -0.013477 -0.011699 -11162.100000 0 0 1
28.416075 16.151351 11.156184 34.536935 0.516851 1.241876 -0.022631 -0.008571 -322092.000000 0 0 1
27.131575 16.993451 11.175484 33.908571 0.559559 1.234941 -0.033097 -0.003395 -517326.000000 0 0 1
27.252675 18.431951 11.273284 34.778327 0.594667 1.240687 -0.039539 -0.002358 -20018.500000 0 0 1
27.684975 18.986051 12.538284 35.834851 0.601125 1.213342 -0.025090 -0.000307 -309738.000000 0 0 1
26.818175 18.761951 13.790684 35.516310 0.610456 1.172019 -0.035976 -0.000656 121770.000000 0 0 1
25.669775 19.608551 13.821084 35.134812 0.652323 1.166499 -0.030195 0.006585 232980.000000 0 0 1
24.775975 19.367251 14.874384 34.787737 0.663479 1.128987 -0.031051 0.006446 -181238.000000 0 0 1
25.143675 19.903951 16.272384 35.960564 0.669603 1.101222 -0.015549 -0.000589 -422830.000000 0 0 1
25.340675 21.289151 16.331284 36.906484 0.698729 1.112407 -0.022361 0.003286 148450.000000 0 0 1
24.154975 21.958451 16.701484 36.668460 0.737801 1.097893 -0.013604 0.005127 -310265.000000 0 0 1
24.302975 23.456751 16.584684 37.628520 0.767682 1.114365 -0.014522 0.007174 -79679.600000 0 0 1
24.174375 23.903451 15.225884 37.250543 0.779763 1.149720 0.003844 0.006816 19792.600000 0 0 1
24.113675 25.300551 15.265384 38.139470 0.809412 1.159005 0.002133 0.007996 -73943.700000 0 0 1
24.045575 25.985351 13.879684 38.027277 0.824150 1.197171 0.005588 -0.001386 1010740.000000 0 0 1
22.838975 25.560251 13.192084 36.728413 0.841565 1.203408 0.014618 0.004135 810491.000000 0 0 1
22.615475 26.104451 11.949684 36.547189 0.856889 1.237705 0.014716 -0.000727 -3376.190000 0 0 1
21.862775 25.118051 11.017484 35.075381 0.854577 1.251279 0.017172 -0.001063 605915.000000 0 0 1
20.468875 24.925251 11.317084 34.180687 0.883255 1.233332 0.029839 0.000277 805859.000000 0 0 1
19.936975 23.679451 10.838784 32.797540 0.870993 1.233989 0.025997 0.009927 -62782.400000 0 0 1
19.848775 23.450351 9.288484 32.096242 0.868386 1.277202 0.019537 0.022130 -330230.000000 0 0 1
18.919275 24.237251 8.555484 31.915194 0.908005 1.299408 0.016116 0.022468 2623.680000 0 0 1
19.044375 23.937951 7.187984 31.422617 0.898761 1.340001 0.012266 -0.006639 674220.000000 0 0 1
17.856475 24.328551 6.188684 30.806362 0.937632 1.368530 0.014165 -0.009119 -58251.400000 0 0 1
16.825275 23.376751 6.232184 29.468670 0.946942 1.357702 0.040283 0.000078 27266.200000 0 0 1
15.945175 23.378551 5.104584 28.755209 0.972224 1.392332 0.038505 -0.009641 101909.000000 0 0 1
14.840575 24.445251 5.066484 29.042766 1.025177 1.395450 0.009624 -0.003774 -748755.000000 0 0 1
15.309875 25.800451 5.099884 30.431306 1.035247 1.402415 0.018980 -0.012016 -576522.000000 0 0 1
14.310775 26.641551 5.528584 30.743061 1.077865 1.389981 0.015461 -0.009436 -572283.000000 0 0 1
14.297675 28.022251 4.899084 31.838202 1.099002 1.416308 0.008386 -0.004354 -243386.000000 0 0 1
13.969975 27.944451 3.499484 31.437222 1.107213 1.459249 -0.002726 0.003407 295250.000000 0 0 1
13.580575 29.129651 2.881784 32.268766 1.134543 1.481372 0.000765 0.006236 -91339.600000 0 0 1
12.977775 28.844151 1.473484 31.663526 1.148003 1.524244 0.004969 0.009184 151782.000000 0 0 1
13.940775 28.634151 0.446884 31.850581 1.117717 1.556765 0.011326 0.009851 166125.000000 0 0 1
14.464375 27.305351 0.310284 30.901402 1.083651 1.560755 -0.004277 0.013781 108558.000000 0 0 1
15.355875 27.119151 -0.920016 31.178481 1.055572 1.600309 0.006806 0.014130 76904.600000 0 0 1
14.711175 27.438151 -2.161616 31.208066 1.078643 1.640116 0.009605 0.009244 -371717.000000 0 0 1
15.597875 27.345351 -3.246616 31.648104 1.052424 1.673562 0.000194 0.011541 -390109.000000 0 0 1
15.055975 27.829751 -4.564916 31.968983 1.074887 1.714078 0.006232 0.021190 70422.000000 0 0 1
14.067575 27.022451 -5.221116 30.909054 1.090814 1.740529 0.011949 0.010039 59137.200000 0 0 1
13.575375 27.541851 -6.457916 31.377525 1.112845 1.778091 0.016102 0.009666 75147.200000 0 0 1
12.282375 26.821351 -6.827816 30.279708 1.141365 1.798244 0.004814 -0.001117 -415630.000000 0 0 1
12.513575 25.462851 -7.240916 29.281004 1.114017 1.820679 0.022581 -0.013618 -391992.000000 0 0 1
11.310575 24.761151 -7.388016 28.206852 1.142313 1.835810 0.018297 0.004142 -357475.000000 0 0 1
11.458775 23.357751 -8.003016 27.220146 1.114716 1.869217 0.006538 -0.007499 -286355.000000 0 0 1
11.810475 23.495851 -9.334816 27.904859 1.105021 1.911895 0.008482 -0.005941 -9289.890000 0 0 1
12.076875 22.218451 -9.878616 27.149540 1.072917 1.943204 0.008552 0.001331 -122745.000000 0 0 1
11.919475 22.178751 -11.384216 27.632793 1.077657 1.995425 0.009946 0.007791 43254.600000 0 0 1
11.544475 20.931751 -11.831316 26.671954 1.066780 2.030393 0.020234 0.012650 -231904.000000 0 0 1
11.613975 20.739451 -13.240216 27.208686 1.060312 2.079010 0.018968 0.005431 -213079.000000 0 0 1
12.921475 20.119151 -13.735816 27.575667 0.999890 2.092218 0.008464 0.013069 562073.000000 0 0 1
14.053275 20.983451 -13.594916 28.681379 0.980675 2.064622 0.003245 0.013491 -174787.000000 0 0 1
15.305475 20.390651 -13.800016 28.990976 0.926903 2.066909 0.010705 0.021131 858941.000000 0 0 1
16.446075 21.509551 -13.786516 30.384243 0.918020 2.041753 -0.001331 0.024081 479963.000000 0 0 1
16.400875 22.527451 -14.791416 31.547753 0.941499 2.058794 0.003923 0.017506 -494854.000000 0 0 1
15.504475 23.576551 -14.631616 31.785637 0.989081 2.049154 0.006177 0.015832 -224662.000000 0 0 1
15.943975 24.789751 -15.459416 33.282663 0.999239 2.053853 0.000713 0.004933 55996.600000 0 0 1
16.143775 24.720651 -16.875016 34.007326 0.992281 2.090032 -0.009631 0.008120 313400.000000 0 0 1
14.918375 24.914551 -17.589616 33.951250 1.031273 2.115406 -0.011444 0.017019 407674.000000 0 0 1
15.054175 24.969651 -19.130216 34.872293 1.028248 2.151460 -0.016952 0.021476 -289569.000000 0 0 1
15.591675 23.765651 -19.614816 34.534729 0.990173 2.174838 -0.015851 0.025470 160108.000000 0 0 1
15.553175 23.728351 -21.030016 35.315683 0.990587 2.208668 -0.018411 0.038022 -246886.000000 0 0 1
15.955875 22.361151 -21.655216 34.979414 0.951032 2.238373 -0.001676 0.029320 388672.000000 0 0 1
14.861175 21.432051 -21.656416 33.899671 0.964508 2.263784 0.012023 0.031689 421749.000000 0 0 1
15.208775 20.291951 -22.351516 33.803260 0.927617 2.293245 0.015706 0.020810 -165666.000000 0 0 1
14.229075 19.103951 -22.350616 32.664623 0.930616 2.324365 0.013394 0.009554 -832840.000000 0 0 1
14.017975 18.521151 -21.061916 31.355079 0.922917 2.307328 0.007921 0.005025 499093.000000 0 0 1
13.173275 17.345651 -21.138316 30.351857 0.921270 2.341224 0.006426 -0.000633 -447205.000000 0 0 1
11.705975 17.575851 -21.396816 30.062670 0.983237 2.362769 0.010055 0.001786 -1541240.000000 0 0 1
10.952375 17.837951 -20.220916 29.103822 1.020151 2.338918 -0.002365 0.004904 192642.000000 0 0 1
9.589275 18.052651 -20.578916 29.005934 1.082514 2.359546 0.002888 0.010331 283474.000000 0 0 1
8.620375 17.653651 -19.445316 27.642044 1.116548 2.351063 0.007751 0.006543 -692730.000000 0 0 1
8.515875 16.253451 -19.211616 26.566539 1.088179 2.379150 -0.003106 -0.003836 28938.300000 0 0 1
7.242875 15.745251 -18.856616 25.611407 1.139654 2.398321 0.007489 0.006554 301285.000000 0 0 1
6.867075 15.909951 -17.320016 24.500331 1.163331 2.355944 -0.002029 0.004729 124410.000000 0 1 0
6.800075 17.262851 -16.899116 25.096358 1.195548 2.309553 0.003189 0.000126 -255736.000000 0 0 1
6.190075 17.238751 -15.617516 24.070696 1.226056 2.276827 -0.002429 -0.008541 -15608.200000 0 1 0
5.777475 18.618251 -15.122416 24.671967 1.269906 2.230571 0.000702 -0.008630 -267267.000000 0 1 0
6.849875 19.530851 -14.892616 25.498332 1.233480 2.194521 0.013305 -0.006908 92519.100000 0 0 1
7.249775 20.289751 -16.029216 26.854590 1.227622 2.210415 0.010340 -0.002406 23333.400000 0 0 1
8.414175 21.292651 -15.736016 27.781244 1.194462 2.172959 0.007391 0.003786 199525.000000 0 0 1
8.143775 22.533451 -14.978716 28.256671 1.223995 2.129509 0.011067 -0.000230 51042.800000 0 0 1
7.937375 22.304851 -13.570216 27.288442 1.228912 2.091266 0.004254 0.001414 -98242.800000 0 0 1
7.722275 23.631551 -12.721416 27.927015 1.254957 2.043757 0.015781 -0.002038 -287823.000000 0 0 1
6.550275 24.370651 -13.025116 28.398739 1.308225 2.047273 0.010992 0.002874 -21374.600000 0 0 1
6.173575 25.358751 -12.088516 28.763024 1.331992 2.004550 0.004347 0.001936 138945.000000 0 0 1
5.567575 24.856051 -10.772316 27.656174 1.350441 1.970894 -0.001493 -0.001841 -267338.000000 0 0 1
6.586775 24.435951 -9.921116 27.183265 1.307502 1.944398 -0.006553 -0.005434 84446.500000 0 0 1
5.893975 23.837651 -8.804816 26.086344 1.328403 1.915084 -0.006367 -0.003903 211671.000000 0 0 1
6.744375 23.535051 -7.578516 25.628483 1.291708 1.870992 -0.010788 -0.005396 -234423.000000 0 0 1
6.981475 24.731151 -6.854416 26.596125 1.295661 1.831461 -0.020243 -0.003771 351523.000000 0 0 1
7.963975 24.547351 -5.813216 26.453560 1.257077 1.792356 -0.008690 -0.000150 405053.000000 0 0 1
8.242475 25.945251 -5.177716 27.711067 1.263193 1.758747 -0.010609 0.001876 47664.600000 0 0 1
8.749575 26.851351 -6.126816 28.897889 1.255794 1.784434 -0.002040 -0.001485 -48541.700000 0 0 1
8.963875 28.137351 -5.468016 30.032662 1.262386 1.753887 -0.009851 0.005376 90636.300000 0 0 1
9.183275 29.216551 -6.518716 31.311868 1.266256 1.780517 -0.009848 0.007907 -405532.000000 0 0 1
10.393475 29.258451 -7.196516 31.872734 1.229470 1.798549 0.004010 0.002763 -750108.000000 0 0 1
10.405175 30.449951 -7.968616 33.150657 1.241522 1.813549 0.001789 0.002104 -28104.100000 0 0 1
11.705875 30.656351 -8.759416 33.964198 1.206041 1.831646 0.002998 -0.000995 1213900.000000 0 0 1
12.875275 30.904151 -7.902216 34.398900 1.176045 1.802589 0.014353 0.007437 900726.000000 0 0 1
13.916875 31.449651 -8.702616 35.475280 1.154186 1.818641 0.013157 -0.000090 -68788.900000 0 0 1
15.226575 31.670351 -7.957316 36.030246 1.122640 1.793483 0.004826 0.006602 -52658.000000 0 0 1
16.014075 30.518251 -7.636216 35.300511 1.087555 1.788840 0.012707 0.017427 -542536.000000 0 0 1
17.166775 30.936751 -6.974716 36.061439 1.064200 1.765435 0.011885 0.027285 154078.000000 0 0 1
18.209775 29.742651 -6.782816 35.527845 1.021422 1.762891 0.006829 0.022228 323535.000000 0 0 1
17.813375 28.836351 -5.762816 34.381122 1.017435 1.739207 0.010135 0.024544 456311.000000 0 0 1
18.775775 27.773251 -5.536716 33.978500 0.976334 1.734474 0.005075 0.023183 301955.000000 0 0 1
18.853175 26.597751 -6.550016 33.253350 0.954171 1.769066 0.001634 0.022828 21552.800000 0 0 1
19.273275 26.958351 -7.868416 34.060590 0.950122 1.803914 0.009869 0.023778 262377.000000 0 0 1
19.026875 25.906151 -8.743916 33.310760 0.937319 1.836404 0.004291 0.014082 -1388230.000000 0 0 1
19.587475 26.229851 -10.168016 34.279189 0.929370 1.871951 0.009195 0.009009 1071670.000000 0 0 1
21.015575 26.365751 -10.144016 35.209491 0.897839 1.863043 0.004442 0.008649 1148190.000000 0 0 1
21.838575 25.237551 -9.799816 34.783527 0.857475 1.856401 0.009401 0.009001 -1676340.000000 0 0 1
23.294575 25.520651 -9.601716 35.862708 0.830969 1.841838 0.015642 0.006103 -957318.000000 0 0 1
23.925875 25.888651 -10.823316 36.875655 0.824779 1.868691 0.021075 0.004403 -276651.000000 0 0 1
25.289475 26.194351 -10.649916 37.935765 0.802972 1.855357 0.014562 0.015414 234945.000000 0 0 1
26.081875 26.306551 -12.000716 38.939903 0.789687 1.884082 0.007207 0.007428 222818.000000 0 0 1
25.805475 27.453151 -12.834616 39.803585 0.816326 1.899112 0.013566 0.005131 -107400.000000 0 0 1
26.574475 27.371951 -14.016816 40.643543 0.800180 1.922899 0.002500 0.005199 171422.000000 0 0 1
26.326275 28.619651 -14.944216 41.659174 0.827113 1.937699 0.015668 -0.001968 194176.000000 0 0 1
26.877375 29.870051 -14.471316 42.708690 0.838086 1.916478 0.023160 -0.005240 161884.000000 0 0 1
26.678675 30.808151 -15.522316 43.610047 0.857108 1.934710 0.026177 -0.003060 -44166.800000 0 0 1
27.234575 32.209251 -15.177116 44.827478 0.868891 1.916190 0.016099 -0.009574 -59070.700000 0 0 1
28.631075 32.344151 -15.037516 45.738490 0.846218 1.905799 0.022644 -0.006961 22986.600000 0 0 1
28.854275 33.656451 -14.571316 46.665288 0.862069 1.888359 0.011100 -0.009737 -214511.000000 0 0 1
14.077675 -33.185517 -29.207169 46.395239 -1.169594 2.251744 0.002531 -0.000828 522563.000000 0 0 1
15.142075 -33.531117 -28.303629 46.418893 -1.146627 2.226534 0.000443 -0.003886 640940.000000 0 0 1
15.534875 -32.409917 -27.535329 45.276146 -1.123825 2.224542 0.006198 -0.005225 -898641.000000 0 0 1
16.606775 -32.725417 -26.487049 45.258167 -1.101200 2.195977 0.011072 -0.004748 398871.000000 0 0 1
17.973775 -32.697317 -26.882889 45.987616 -1.068182 2.195144 0.018059 -0.013573 536233.000000 0 0 1
18.466675 -33.530617 -27.919179 47.379330 -1.067385 2.200950 0.010117 -0.009807 -2275180.000000 0 0 1
19.949775 -33.549417 -27.970659 48.019940 -1.034328 2.192573 0.015268 -0.006049 -1609610.000000 0 0 1
20.451375 -32.310817 -28.344099 47.598693 -1.006495 2.208660 -0.002909 -0.007334 -411056.000000 0 0 1
21.807275 -32.058117 -28.103129 47.885968 -0.973454 2.197992 -0.004673 -0.004042 -415251.000000 0 0 1
22.344975 -30.788317 -28.775079 47.699303 -0.942989 2.218379 -0.008835 -0.002186 -249164.000000 0 0 1
22.513575 -30.895517 -30.207709 48.722682 -0.941067 2.239530 -0.012913 -0.001143 4113.820000 0 0 1
22.980675 -29.728817 -30.802839 48.587332 -0.912731 2.257470 -0.002934 -0.009459 -24368.500000 0 0 1
23.232875 -29.817717 -32.323299 49.735886 -0.908890 2.278248 0.000261 -0.005427 929716.000000 0 0 1
24.441975 -30.457317 -32.804999 51.002218 -0.894533 2.269476 0.009405 -0.010695 720927.000000 0 0 1
24.517675 -30.506717 -34.171946 51.956694 -0.893815 2.288558 0.009499 -0.008734 -405686.000000 0 0 1
25.684175 -31.398817 -34.568475 53.296735 -0.885177 2.276545 -0.002892 -0.004875 473704.000000 0 0 1
26.943875 -30.750517 -34.332902 53.388340 -0.851282 2.269308 -0.000271 -0.012517 667856.000000 0 0 1
28.070575 -31.430017 34.443040 54.425418 -0.841799 0.885570 0.004480 -0.005477 203466.000000 0 0 1
29.365375 -30.618917 34.462730 54.658239 -0.806293 0.888582 0.003234 -0.009673 -312035.000000 0 0 1
29.430375 -29.540717 33.583423 53.541080 -0.787269 0.892784 -0.008599 -0.009506 -676240.000000 0 0 1
30.737475 -29.094017 33.558649 54.013305 -0.757937 0.900391 -0.011032 -0.012607 -986193.000000 0 0 1
30.756675 -27.951217 32.535724 52.780838 -0.737648 0.906595 -0.012409 -0.016827 -1495970.000000 0 0 1
31.887875 -27.672617 31.821354 52.869735 -0.714743 0.924940 -0.013501 -0.011054 -850484.000000 0 0 1
31.821075 -26.600817 30.833954 51.680915 -0.696280 0.931511 -0.011252 -0.008228 -786404.000000 0 0 1
32.651775 -26.896117 29.586054 51.622419 -0.689042 0.960483 -0.008588 -0.002011 -320618.000000 0 0 1
32.243175 -27.946117 28.724264 51.436282 -0.714127 0.978288 -0.010925 -0.007800 378350.000000 0 0 1
30.986175 -27.705117 28.117294 50.182654 -0.729553 0.976050 -0.003729 -0.015218 -203717.000000 0 0 1
30.617575 -28.732217 27.022944 49.932111 -0.753642 0.998940 -0.012544 -0.011545 -321400.000000 0 0 1
29.342475 -28.448317 26.512684 48.715603 -0.769927 0.995321 -0.004797 -0.006798 44333.000000 0 0 1
28.778775 -29.497217 25.721044 48.578553 -0.797726 1.012817 -0.000834 0.001537 12349.600000 0 0 1
27.365675 -29.336617 25.143744 47.346860 -0.820144 1.010952 -0.001615 -0.000770 294987.000000 0 0 1
26.343475 -29.193217 26.139884 47.217752 -0.836666 0.984112 0.001661 0.001479 16221.100000 0 0 1
25.109775 -28.882917 25.549904 46.016533 -0.855167 0.982153 0.002971 0.012068 409740.000000 0 0 1
23.957775 -28.837317 26.617614 45.978943 -0.877561 0.953407 0.009540 0.010916 490699.000000 0 0 1
24.085975 -27.594517 27.316544 45.692287 -0.853183 0.929996 0.006732 0.001700 259871.000000 0 0 1
22.982775 -27.478917 28.192034 45.586068 -0.874264 0.904046 0.014155 -0.006536 -19295.300000 0 0 1
23.011275 -26.202917 29.040634 45.381384 -0.850160 0.876397 0.017941 0.000377 -533422.000000 0 0 1
21.867775 -26.160517 29.852454 45.318222 -0.874541 0.851667 0.025554 -0.000572 41017.700000 0 0 1
21.699175 -25.001917 30.630034 45.101541 -0.856001 0.824213 0.026915 -0.008606 -657501.000000 0 0 1
21.178775 -23.709817 29.965334 43.687723 -0.841724 0.814959 0.024877 -0.009458 -908389.000000 0 0 1
21.973275 -23.209617 28.929144 43.109239 -0.812754 0.835151 0.023515 -0.009853 -13811.900000 0 0 1
21.806575 -21.830117 28.619324 42.084990 -0.785938 0.822984 0.032520 -0.008531 -398317.000000 0 0 1
22.273375 -20.811617 29.627004 42.508658 -0.751484 0.799641 0.029580 -0.011792 -242853.000000 0 0 1
21.665175 -20.779217 30.900784 43.081482 -0.764528 0.770929 0.035960 -0.009781 23926.500000 0 0 1
22.441275 -19.912317 31.662804 43.619311 -0.725758 0.758469 0.033424 -0.009234 -356313.000000 0 0 1
21.926575 -19.675117 33.066834 44.286572 -0.731332 0.727776 0.049165 -0.009052 -291095.000000 0 0 1
22.298175 -20.606717 34.013681 45.593595 -0.745995 0.728733 0.033373 -0.010606 96331.000000 0 0 1
21.633875 -20.253417 -34.104633 45.181317 -0.752454 2.426205 0.036127 -0.008761 -4410.340000 0 0 1
21.598375 -21.323517 -33.064069 44.882233 -0.778995 2.398951 0.012677 -0.004893 -392884.000000 0 0 1
22.784375 -21.450817 -32.359619 45.015666 -0.755260 2.372946 0.010876 -0.003773 -489304.000000 0 0 1
22.560975 -22.543417 -31.541589 44.856160 -0.785009 2.350645 0.004036 0.000039 -163286.000000 0 0 1
23.762875 -22.877817 -30.658289 45.033314 -0.766424 2.319639 -0.002838 -0.000481 -658408.000000 0 0 1
24.836475 -23.422017 -31.357109 46.354176 -0.756097 2.313752 0.001796 -0.001162 -891319.000000 0 0 1
25.762075 -23.888717 -30.421639 46.473986 -0.747685 2.284443 0.005242 -0.005753 -161099.000000 0 0 1
26.846175 -24.838217 -31.005469 47.947818 -0.746567 2.273981 -0.008593 -0.003108 -71305.500000 0 0 1
27.865675 -24.227217 -31.812699 48.739119 -0.715666 2.281957 -0.012032 -0.004564 198075.000000 0 0 1
27.529075 -24.033517 -33.200209 49.373209 -0.717709 2.308288 -0.006482 -0.001870 -201314.000000 0 0 1
27.762075 -25.258017 -34.109398 50.716380 -0.738205 2.308448 -0.010825 -0.006173 190045.000000 0 0 1
26.765375 -26.241617 -33.799709 50.472052 -0.775518 2.304563 0.005497 -0.013105 253354.000000 0 0 1
26.985475 -27.535817 -34.402478 51.671729 -0.795492 2.299347 0.004785 -0.015804 -218580.000000 0 0 1
26.732475 -27.688517 33.400749 50.959682 -0.802964 0.856038 0.005945 -0.014046 83268.200000 0 0 1
27.601075 -26.926617 32.550904 50.462098 -0.773030 0.869699 -0.017330 -0.014661 234328.000000 0 0 1
27.321975 -27.210717 31.185644 49.592921 -0.783358 0.890745 -0.016076 -0.008308 -496302.000000 0 0 1
28.210975 -26.479317 30.168204 49.062550 -0.753746 0.908546 -0.017077 -0.015388 -729921.000000 0 0 1
28.219175 -25.027317 30.110284 48.263005 -0.725525 0.897100 -0.017396 -0.019121 85592.000000 0 0 1
28.731575 -24.334817 31.204544 48.902048 -0.702733 0.878764 -0.013130 -0.010505 -1664720.000000 0 0 1
29.087075 -22.870817 31.047054 48.301674 -0.666324 0.872683 -0.012711 0.000956 26179.900000 0 0 1
30.405675 -22.440617 30.811854 48.759170 -0.635803 0.886769 -0.008210 -0.008129 209291.000000 0 0 1
31.356075 -22.881617 31.772734 50.162520 -0.630405 0.884863 -0.011298 -0.003627 -1001840.000000 0 0 1
32.834375 -22.582517 31.519854 50.809127 -0.602471 0.901597 -0.013706 -0.009424 -318072.000000 0 0 1
33.286175 -23.026417 30.260274 50.535824 -0.605182 0.928809 -0.009537 -0.016152 738271.000000 0 0 1
34.624275 -22.626017 29.960684 51.072690 -0.578813 0.943907 -0.022447 -0.019370 445632.000000 0 0 1
-34.634571 -22.873917 28.494074 50.345624 0.583677 0.969188 -0.003489 -0.022790 -247728.000000 0 0 1
-34.331771 -24.207917 28.118904 50.550633 0.614152 0.980927 -0.000126 -0.018515 248240.000000 0 0 1
-34.053171 -24.327817 26.745384 49.666656 0.620330 1.002143 0.003986 -0.008621 -337952.000000 0 0 1
-33.961471 -25.829217 26.282484 50.112862 0.650216 1.018709 -0.002163 -0.014508 -526310.000000 0 0 1
34.467575 -26.501317 26.311994 50.819824 -0.655473 1.026577 0.005292 -0.016387 24815.200000 0 0 1
34.465275 -27.836817 25.871244 51.303653 -0.679405 1.042252 0.005746 0.000323 -136606.000000 0 0 1
-34.530771 -28.888017 26.797724 52.392840 0.696656 1.033894 0.002403 0.001877 -883497.000000 0 0 1
-34.370571 -30.184117 26.182334 52.706088 0.720638 1.050933 0.008059 0.002062 1179480.000000 0 0 1
-33.343471 -30.934217 26.909214 52.847125 0.747934 1.036553 0.017435 0.003227 1440010.000000 0 0 1
-31.867071 -30.422917 26.833814 51.586022 0.762218 1.023739 0.023279 0.006286 -481085.000000 0 0 1
-31.364071 -30.430717 25.538394 50.615640 0.770295 1.041929 0.014824 0.009592 -152844.000000 0 0 1
-30.134071 -29.752017 25.502114 49.432809 0.779019 1.028745 -0.001749 0.009976 -81020.500000 0 0 1
-29.531371 -29.669517 24.067284 48.286813 0.787732 1.049017 -0.016956 0.013215 -265632.000000 0 0 1
-29.343371 -30.962917 23.465884 48.686583 0.812247 1.067885 -0.016463 0.013868 456126.000000 0 0 1
-28.735171 -30.843017 22.197084 47.641498 0.820763 1.086123 -0.022398 0.012204 -585622.000000 0 0 1
-28.709371 -32.153417 21.384784 48.118387 0.841925 1.110269 -0.023880 0.016673 -298046.000000 0 0 1
-27.953371 -33.264817 21.743984 48.587445 0.871944 1.106803 -0.022233 0.008871 123864.000000 0 0 1
-26.560671 -33.018817 21.541584 47.536842 0.893372 1.100494 -0.016267 0.013325 85708.100000 0 0 1
-25.790071 -34.357417 21.482184 48.031699 0.926885 1.107108 -0.024350 0.020065 -536304.000000 0 0 1
-26.005671 34.462351 20.278484 47.698695 -0.924351 1.131683 -0.037955 0.017347 596703.000000 0 0 1
-27.220471 33.706051 20.143284 47.778696 -0.891448 1.135592 -0.028388 0.017919 464657.000000 0 0 1
-27.388871 32.489451 21.133084 47.458634 -0.870375 1.109293 -0.024266 0.023399 -131320.000000 0 0 1
-26.496471 31.373951 20.999984 46.123607 -0.869482 1.098089 -0.027960 0.020631 212844.000000 0 0 1
-26.691171 30.322351 21.988384 45.992963 -0.849002 1.072327 -0.019129 0.019707 109924.000000 0 0 1
-25.716071 29.076951 21.759584 44.500167 -0.846659 1.059879 -0.013198 0.022223 404866.000000 0 0 1
-24.379471 29.483151 21.926084 44.094988 -0.879870 1.050374 -0.021055 0.027833 -180475.000000 0 0 1
-23.467271 28.546851 21.349584 42.678335 -0.882747 1.046916 -0.013527 0.024107 220947.000000 0 0 1
-21.991171 28.922951 21.574284 42.256342 -0.920713 1.034964 -0.010844 0.030343 -204446.000000 0 0 1
-21.636371 28.892251 22.942084 42.769545 -0.928023 1.004617 -0.012305 0.028826 874303.000000 0 0 1
-20.347371 29.501051 23.160484 42.670078 -0.967005 0.997052 0.018005 0.026937 766883.000000 0 0 1
-19.947671 29.449851 24.647864 43.274941 -0.975438 0.964821 0.008617 0.023434 -418327.000000 0 0 1
-19.551971 28.146751 25.078434 42.467011 -0.963674 0.939070 0.016937 0.013276 343517.000000 0 0 1
-19.216871 28.100051 26.456464 43.114331 -0.970976 0.910140 0.009701 0.002134 -699744.000000 0 0 1
-17.821871 28.459851 26.948514 43.055832 -1.011327 0.894515 0.018624 0.007256 -781306.000000 0 0 1
-17.602371 29.880151 27.017504 43.961488 -1.038431 0.908953 0.002110 0.006514 -201255.000000 0 0 1
-16.321571 30.224651 27.471334 43.984059 -1.075656 0.896209 0.003929 -0.000664 -359193.000000 0 0 1
-16.144971 30.319851 29.007774 44.960031 -1.081497 0.869524 -0.003800 0.010428 -621843.000000 0 0 1
-15.971871 29.035751 29.588884 44.426091 -1.067895 0.841929 -0.000195 0.010548 227777.000000 0 0 1
-16.274771 29.187351 30.938484 45.540745 -1.062139 0.823908 -0.006359 0.013268 -316631.000000 0 0 1
-16.101271 27.924951 31.763184 45.254322 -1.047767 0.792760 -0.004467 0.011090 39822.900000 0 0 1
-14.719671 27.571351 31.827304 44.607459 -1.080417 0.776319 0.004914 0.015597 532375.000000 0 0 1
-14.423871 26.441051 32.594754 44.380122 -1.071406 0.745948 0.010499 0.014811 -155957.000000 0 0 1
-14.748971 26.531851 34.124073 45.671913 -1.063437 0.727023 0.014585 0.009586 894112.000000 0 0 1
-16.159771 26.466651 34.442007 46.345158 -1.022640 0.733011 0.013793 0.005752 861868.000000 0 0 1
-16.443671 26.929151 -33.555789 46.060444 -1.022599 2.386950 0.012193 0.004810 -95907.100000 0 0 1
-17.833971 26.469551 -33.095749 45.978433 -0.977903 2.374325 0.005345 0.006094 -406151.000000 0 0 1
-18.873971 26.985551 -33.864579 47.236177 -0.960466 2.370171 -0.001495 0.006355 -967985.000000 0 0 1
-20.081071 26.371351 -33.506439 47.131508 -0.919993 2.361593 0.013427 -0.001486 -208344.000000 0 0 1
-21.177671 26.564051 -34.598144 48.488907 -0.897746 2.365316 0.004508 -0.007628 -316834.000000 0 0 1
-21.162471 25.689251 33.570500 47.273315 -0.881718 0.781104 0.007646 -0.004158 -41079.700000 0 0 1
-21.382371 24.344051 33.822921 46.838324 -0.850077 0.763933 0.002369 -0.004211 -272003.000000 0 0 1
-21.765371 23.612851 32.442394 45.648735 -0.826089 0.780309 -0.000288 -0.004561 -158001.000000 0 0 1
-23.100671 23.720651 32.035514 46.071515 -0.798639 0.801899 -0.002266 -0.001265 -540622.000000 0 0 1
-23.274571 23.144051 30.744234 44.972888 -0.782586 0.818089 0.000303 -0.000859 674402.000000 0 0 1
-24.746271 22.705851 30.466274 45.344542 -0.742425 0.834047 -0.011553 -0.003805 626712.000000 0 0 1
-25.146271 21.492851 31.018314 45.347695 -0.707224 0.817550 -0.005494 -0.008159 -613407.000000 0 0 1
-26.267971 20.921851 30.423964 45.313880 -0.672589 0.834693 -0.011598 -0.012551 -495104.000000 0 0 1
-26.485071 19.547751 31.089304 45.278233 -0.635820 0.813956 -0.000026 -0.014691 -709926.000000 0 0 1
-27.179971 19.685351 32.305014 46.581947 -0.626823 0.804448 0.003518 -0.011340 -147584.000000 0 0 1
-27.295271 18.572051 33.167514 46.797830 -0.597459 0.783085 0.002838 0.003015 -44986.100000 0 0 1
-28.051971 17.364051 32.458024 46.281170 -0.554270 0.793545 -0.003156 -0.002134 -267442.000000 0 0 1
-29.412171 17.708351 32.303844 47.140215 -0.541944 0.815820 -0.009945 -0.006799 -475288.000000 0 0 1
-30.129471 16.573551 31.943794 46.934780 -0.502903 0.822216 -0.005435 0.002658 -77909.700000 0 0 1
-31.661271 16.772051 31.857084 47.943838 -0.487151 0.844016 -0.001441 0.005244 -120237.000000 0 0 1
-32.134971 17.080651 33.134954 49.217174 -0.488551 0.832215 -0.004876 0.004575 596687.000000 0 0 1
-33.561471 16.997951 33.158154 50.147441 -0.468812 0.848361 0.010996 -0.007706 627483.000000 0 0 1
-34.178971 17.818051 34.391481 51.657129 -0.480555 0.842278 0.010654 0.009423 -819844.000000 0 0 1
34.103475 17.808551 34.359620 51.582700 0.481243 0.841819 0.009527 -0.010478 -851868.000000 0 0 1
33.562775 18.347451 -33.728999 50.997394 0.500276 2.293462 -0.003682 -0.007437 708510.000000 0 0 1
32.055075 18.072951 -33.459419 49.736225 0.513384 2.308699 0.007102 -0.005403 303617.000000 0 0 1
31.805075 16.756951 -33.119339 48.879943 0.484907 2.315243 0.004155 0.000728 242398.000000 0 0 1
30.578975 16.736851 -32.407779 47.596849 0.500793 2.319761 0.003182 0.000300 -97667.900000 0 0 1
29.713475 15.467651 -32.492919 46.668282 0.479960 2.340960 0.001240 -0.005552 -567421.000000 0 0 1
29.014975 15.487851 -33.694649 47.085790 0.490311 2.368281 0.004780 -0.017558 -390286.000000 0 0 1
28.326575 14.297051 -33.958959 46.475923 0.467418 2.390112 0.003714 -0.014561 -401981.000000 0 0 1
29.148575 13.063551 -34.435609 46.969213 0.421332 2.393743 0.002346 -0.002057 -300606.000000 0 0 1
29.799075 12.409651 -33.388839 46.441349 0.394602 2.373082 0.001559 0.008566 224457.000000 0 0 1
30.603675 11.364551 -33.940469 47.092392 0.355563 2.375638 0.010485 0.008416 -55093.000000 0 0 1
16.858775 -21.453149 10.282771 29.158039 -0.904748 1.210388 -0.005309 -0.000875 -51895.100000 0 0 1
16.684575 -22.751649 10.824871 30.219040 -0.938047 1.204443 -0.001396 -0.007831 -400088.000000 0 0 1
17.872375 -23.443349 11.059871 31.485443 -0.919429 1.211870 -0.003197 -0.009573 -816382.000000 0 0 1
17.662975 -24.803449 11.746571 32.636998 -0.951984 1.202619 0.009713 -0.017387 -223965.000000 0 0 1
16.979375 -25.771439 11.000671 32.764020 -0.988229 1.228390 0.007269 -0.023707 215953.000000 0 0 1
15.624175 -25.821169 11.449971 32.279241 -1.026641 1.208186 0.015874 -0.022112 841111.000000 0 0 1
14.668475 -26.788859 10.617171 32.334678 -1.069829 1.236238 0.030249 -0.016330 467873.000000 0 0 1
14.348975 -26.274839 9.291471 31.346318 -1.070944 1.269861 0.024960 -0.019587 19125.200000 0 0 1
13.653875 -27.197839 8.533571 31.606527 -1.105534 1.297410 0.031692 -0.008657 -439805.000000 0 0 1
13.464575 -26.717019 7.089971 30.746732 -1.103978 1.338110 0.032292 -0.013122 -101227.000000 0 0 1
12.658775 -25.558289 7.101771 29.392275 -1.110924 1.326761 0.038560 -0.014474 33625.600000 0 0 1
12.312975 -25.103559 5.809471 28.557800 -1.114788 1.365938 0.029569 0.001320 1358.890000 0 0 1
11.727975 -23.675749 6.049671 27.105073 -1.110869 1.345707 0.023176 0.012110 -139538.000000 0 0 1
11.379975 -22.914149 4.879071 26.045486 -1.109844 1.382354 0.022294 0.006872 112630.000000 0 0 1
10.726975 -21.711749 5.288071 24.787733 -1.111909 1.355810 0.017288 0.007561 111620.000000 0 1 0
9.960475 -21.090449 4.075471 23.677575 -1.129574 1.397811 0.005231 0.006776 -36895.300000 0 1 0
10.729275 -20.421149 3.108671 23.276694 -1.087036 1.436843 -0.004643 0.010789 -147454.000000 0 1 0
9.870775 -19.841549 2.162271 22.266447 -1.109167 1.473534 -0.003206 0.014859 -219199.000000 0 1 0
10.666675 -19.381949 0.925671 22.142600 -1.067692 1.528979 -0.000551 0.017615 316306.000000 0 1 0
11.709375 -18.449649 1.075671 21.878210 -1.005276 1.521610 -0.002048 0.024185 -31556.600000 0 1 0
12.338475 -18.217249 -0.167229 22.003047 -0.975471 1.578397 0.003664 0.017633 242767.000000 0 1 0
13.628275 -17.334249 -0.095329 22.050286 -0.904524 1.575120 0.017113 0.028414 766878.000000 0 1 0
14.641575 -17.924349 0.723871 23.155603 -0.885863 1.539530 0.012431 0.012322 -28213.900000 0 1 0
15.832175 -17.163549 0.676671 23.360288 -0.825726 1.541826 0.015544 0.004882 309211.000000 0 1 0
16.949875 -17.940149 1.440571 24.722913 -0.813773 1.512495 0.012832 0.012791 183061.000000 0 1 0
17.314375 -19.158649 0.763071 25.834544 -0.835921 1.541255 0.012464 0.000988 230734.000000 0 0 1
18.572775 -19.691449 1.130871 27.092065 -0.814625 1.529042 0.010132 0.007701 360013.000000 0 0 1
18.821675 -21.019949 0.474671 28.219124 -0.840518 1.553975 0.005535 0.004612 -76707.000000 0 0 1
17.941575 -21.983749 1.009371 28.393734 -0.886298 1.535240 0.012904 0.002573 73037.600000 0 0 1
17.955975 -23.213649 0.291271 29.349197 -0.912418 1.560872 0.013546 0.001351 -409147.000000 0 0 1
16.754375 -24.116949 0.603471 29.371763 -0.963627 1.550249 0.012318 0.001858 -544575.000000 0 0 1
16.672175 -24.656249 1.896771 29.824315 -0.976233 1.507155 0.013809 -0.002094 28611.100000 0 0 1
15.514075 -25.421979 2.149571 29.859407 -1.022865 1.498744 0.014448 -0.000687 -588711.000000 0 0 1
15.648875 -26.215019 3.527471 30.733655 -1.032628 1.455767 0.019348 -0.002000 9094.920000 0 0 1
16.567075 -27.298839 3.464271 32.120021 -1.025335 1.462732 0.022563 -0.002670 -49819.200000 0 0 1
17.844075 -26.754559 3.735071 32.375425 -0.982594 1.455171 0.020170 0.004534 -982248.000000 0 0 1
18.923775 -27.857079 3.805971 33.891171 -0.974087 1.458259 0.016452 0.006507 -284107.000000 0 0 1
19.279775 -28.419989 2.565871 34.438193 -0.974723 1.496221 0.020416 0.004867 -703833.000000 0 0 1
20.299275 -29.338079 2.669571 35.775830 -0.965521 1.496107 0.025642 0.005520 -765571.000000 0 0 1
19.923975 -30.782589 2.937871 36.785372 -0.996358 1.490846 0.020818 0.007153 -254822.000000 0 0 1
19.631275 -30.939229 4.300171 36.893282 -1.005387 1.453974 0.038000 -0.000391 -244090.000000 0 0 1
19.158475 -32.272029 4.446071 37.792837 -1.035055 1.452880 0.028482 -0.008299 -522294.000000 0 0 1
18.815875 -32.774869 5.855671 38.242882 -1.049643 1.417074 0.028028 -0.010213 -264309.000000 0 0 1
19.656575 -33.797219 6.382371 39.615244 -1.044014 1.408982 0.018853 -0.013979 245721.000000 0 0 1
19.243975 -34.147932 7.665871 39.939672 -1.057612 1.377662 0.018226 -0.010666 364790.000000 0 0 1
20.311875 34.463396 8.398871 40.875897 1.038226 1.363850 0.016876 -0.014568 643339.000000 0 0 1
21.506975 -34.329419 8.593071 41.411349 -1.011128 1.361772 0.003770 -0.013159 363137.000000 0 0 1
22.625275 34.421805 9.058371 42.176034 0.989310 1.354335 0.019943 -0.012804 529925.000000 0 0 1
23.512475 -34.338155 10.074371 42.818667 -0.970390 1.333290 0.014164 -0.004525 -374974.000000 0 0 1
24.257775 -33.348079 9.404171 42.296246 -0.941909 1.346582 0.004279 -0.005403 62941.800000 0 0 1
24.942275 -32.491869 10.313871 42.239964 -0.916097 1.324129 -0.006220 0.000755 163662.000000 0 0 1
25.546875 -31.324219 9.535771 41.530476 -0.886638 1.339120 -0.006591 -0.002627 -142704.000000 0 0 1
24.584775 -30.318359 9.329271 40.132896 -0.889452 1.336191 -0.003991 -0.005709 134996.000000 0 0 1
25.073175 -29.377729 8.380671 39.521522 -0.864288 1.357121 -0.010689 -0.002198 -39896.700000 0 0 1
24.488775 -27.962249 8.464371 38.121293 -0.851525 1.346892 -0.017666 0.002603 -94500.600000 0 0 1
25.136375 -27.331149 9.574071 38.346993 -0.827205 1.318457 -0.003004 -0.008938 150503.000000 0 0 1
24.863275 -25.989449 9.658871 37.241478 -0.807540 1.308439 -0.009205 -0.010556 -360976.000000 0 0 1
25.725775 -25.357479 10.765871 37.692455 -0.778189 1.281139 0.006109 -0.005189 700478.000000 0 0 1
27.052275 -25.022949 10.348371 38.276132 -0.746449 1.297028 0.014103 -0.007199 -132639.000000 0 0 1
27.854175 -24.407449 11.299571 38.720265 -0.719542 1.274661 0.013630 -0.006260 348055.000000 0 0 1
29.279775 -24.203249 10.706671 39.468155 -0.690763 1.296080 0.014718 -0.004336 440579.000000 0 0 1
29.183175 -23.348949 9.584871 38.583686 -0.674791 1.319750 0.018347 -0.005968 -113746.000000 0 0 1
30.426975 -23.165749 8.935271 39.272023 -0.650729 1.341264 0.007557 -0.005018 82802.200000 0 0 1
30.309375 -22.205649 7.727871 38.359732 -0.632293 1.367950 0.008099 -0.000465 -355040.000000 0 0 1
30.072875 -20.853749 8.015871 37.463460 -0.606310 1.355164 0.008221 0.006163 -42769.000000 0 0 1
30.144375 -20.122149 6.843571 36.883854 -0.588597 1.384171 0.001946 0.013586 -207664.000000 0 0 1
29.932575 -18.573249 6.892271 35.894679 -0.555359 1.377583 0.010922 0.013067 111945.000000 0 0 1
30.868775 -17.935149 7.730971 36.528328 -0.526341 1.357540 0.016595 0.011773 222582.000000 0 0 1
30.479275 -16.600949 7.828871 35.579051 -0.498737 1.348939 0.018444 0.008698 32754.800000 0 0 1
30.997075 -16.027949 9.159271 36.077777 -0.477218 1.314111 0.017982 0.000354 228285.000000 0 0 1
32.378675 -15.717449 9.085371 37.120893 -0.451921 1.323534 0.003826 0.000239 -16383.400000 0 0 1
32.689975 -15.078249 10.277471 37.438141 -0.432170 1.292707 0.011880 -0.008810 480423.000000 0 0 1
34.232575 -14.906949 10.487871 38.782493 -0.410698 1.296959 0.005563 -0.006735 826344.000000 0 0 1
-34.832071 -14.074249 9.442371 38.736494 0.384002 1.324556 0.001535 -0.000333 296231.000000 0 0 1
-33.650771 -14.723349 8.993571 37.815813 0.412439 1.330670 0.002475 -0.005358 409222.000000 0 0 1
-32.677571 -13.831149 8.195771 36.418333 0.400397 1.343807 0.006460 -0.003012 -375493.000000 0 0 1
-33.284771 -13.420149 6.986771 36.562157 0.383255 1.378521 0.009264 -0.003344 -48825.400000 0 0 1
-32.432071 -12.795149 6.045271 35.385030 0.375775 1.399112 -0.000016 0.002682 -278451.000000 0 0 1
-31.523571 -13.880549 5.346271 34.856675 0.414777 1.416810 -0.009934 0.006375 155986.000000 0 0 1
-30.458771 -14.299849 6.203771 34.215628 0.438937 1.388474 0.001824 0.002447 61863.800000 0 0 1
-29.922971 -15.504349 5.749171 34.188039 0.478056 1.401830 -0.003019 0.011890 178063.000000 0 0 1
-29.168171 -16.256149 6.893871 34.096481 0.508450 1.367206 -0.007470 0.005815 -514426.000000 0 0 1
-30.122171 -16.661249 7.782771 35.291839 0.505237 1.348443 -0.017992 -0.002190 -179848.000000 0 0 1
-29.516071 -16.993049 9.004571 35.228461 0.522377 1.312323 -0.008913 -0.007847 197263.000000 0 0 1
-30.533171 -17.733449 9.907871 36.673091 0.526177 1.297230 -0.024571 -0.009476 583373.000000 0 0 1
-31.736071 -16.975649 10.220071 37.413910 0.491177 1.294117 -0.022269 -0.001796 2220610.000000 0 0 1
-32.803271 -17.696049 10.943571 38.845418 0.494715 1.285209 -0.014932 -0.006948 1381620.000000 0 0 1
-33.385771 -18.970049 10.257871 39.745394 0.516715 1.309752 -0.008411 -0.007542 -975760.000000 0 0 1
-32.651771 -20.207149 10.549371 39.821555 0.554178 1.302679 -0.015138 -0.003210 296906.000000 0 0 1
-32.730571 -20.711249 11.877071 40.513095 0.564174 1.273259 -0.011985 -0.010214 207679.000000 0 0 1
-34.028971 -21.464349 12.301271 42.071491 0.562736 1.274072 -0.041080 0.000819 115491.000000 0 0 1
-34.100571 -22.778549 11.875171 42.693453 0.588912 1.288929 -0.006785 0.000415 -381880.000000 0 0 1
34.242475 -23.231149 11.946571 43.069176 -0.596103 1.289729 -0.000332 0.006777 -250505.000000 0 0 1
34.041675 -24.802649 11.835471 43.750261 -0.629662 1.296860 0.007449 0.005226 56039.100000 0 0 1
34.689975 -25.416159 12.964071 44.915950 -0.632315 1.278001 0.003560 0.009515 520617.000000 0 0 1
34.114675 -26.676159 13.302671 45.303306 -0.663641 1.272768 -0.000841 0.003480 -216132.000000 0 0 1
33.454075 -26.601539 14.676271 45.190817 -0.671786 1.240036 -0.010329 0.001373 628053.000000 0 0 1
32.280075 -25.747909 14.702971 43.830758 -0.673301 1.228715 -0.012378 0.007994 832094.000000 0 0 1
31.735875 -25.603989 16.000471 43.803482 -0.678864 1.196864 0.003999 0.009695 104142.000000 0 0 1
31.066575 -24.191349 16.189771 42.573021 -0.661614 1.180695 0.006686 0.007899 463947.000000 0 0 1
32.016175 -23.210649 16.647871 42.905958 -0.627286 1.172327 0.007800 0.005059 441197.000000 0 0 1
32.760775 -22.613049 15.601271 42.755327 -0.604151 1.197275 -0.005426 0.010421 267520.000000 0 0 1
34.003075 -21.869249 16.186271 43.548461 -0.571548 1.189974 -0.009877 0.010854 -164290.000000 0 0 1
33.796775 -20.556449 16.724071 42.947458 -0.546454 1.170808 -0.005774 0.012161 -234349.000000 0 0 1
32.888575 -20.319149 17.752871 42.540458 -0.553418 1.140305 -0.001941 0.014029 -268730.000000 0 0 1
32.976975 -18.899049 18.360771 42.211051 -0.520404 1.120785 -0.008297 0.010675 -361919.000000 0 0 1
32.681975 -17.899849 17.383671 41.118221 -0.501074 1.134293 -0.002046 0.005016 167039.000000 0 0 1
32.825675 -16.561949 17.915871 40.899896 -0.467275 1.117377 0.001218 -0.001777 -266734.000000 0 0 1
34.182075 -16.004349 18.383471 41.982204 -0.437893 1.117549 -0.007583 -0.004182 -432908.000000 0 0 1
34.613275 -16.566949 19.617971 43.097649 -0.446406 1.098202 -0.004466 0.010925 219206.000000 0 0 1
-33.986171 -15.777049 20.110571 42.525406 0.434616 1.078209 -0.014672 -0.001286 -82575.000000 0 0 1
-33.769871 -15.881849 21.637571 43.137244 0.439604 1.045351 -0.011820 0.006178 -184080.000000 0 0 1
-32.891371 -16.895349 22.075471 43.065317 0.474525 1.032581 -0.024953 0.012707 61026.400000 0 0 1
-32.746071 -17.014449 23.466871 43.732032 0.479195 1.004387 -0.016672 0.012647 -123617.000000 0 0 1
-31.850371 -18.133049 23.953471 43.783814 0.517555 0.991918 -0.025284 0.011263 -881847.000000 0 0 1
-32.531171 -19.327649 23.857871 44.732908 0.536090 1.008252 -0.019919 0.008900 290766.000000 0 0 1
-31.783571 -20.470349 24.287571 44.934582 0.572184 0.999754 -0.020894 0.004595 50158.700000 0 0 1
-30.654771 -21.017749 23.377871 43.908833 0.601015 1.009341 -0.025184 0.013686 521966.000000 0 0 1
-29.505271 -20.202649 23.252471 42.654255 0.600393 0.994242 -0.022688 0.015297 659213.000000 0 0 1
-28.344471 -20.855349 22.750571 41.903975 0.634339 0.996884 -0.018586 0.015069 426163.000000 0 0 1
-27.010871 -20.096649 22.808071 40.665348 0.639663 0.975357 -0.004508 0.019914 -196093.000000 0 0 1
-26.669271 -19.785449 24.142471 41.055729 0.638285 0.942161 -0.004124 0.009095 272390.000000 0 0 1
-25.693571 -18.758049 24.139471 39.934171 0.630622 0.921681 0.000913 0.014107 -128033.000000 0 0 1
-25.280071 -18.270149 25.540171 40.313529 0.625805 0.884678 0.002534 0.002358 -360294.000000 0 0 1
-24.318571 -17.212649 25.490571 39.210169 0.615941 0.863079 0.000828 0.004747 309201.000000 0 0 1
-24.117471 -16.688149 26.817171 39.740500 0.605305 0.830093 -0.004749 -0.001928 70164.100000 0 0 1
-23.129271 -17.349849 27.796171 40.107450 0.643581 0.805095 0.001516 -0.002836 -758704.000000 0 0 1
-23.524371 -18.652749 28.207171 41.194242 0.670404 0.816555 0.008987 -0.005659 -600341.000000 0 0 1
-22.592571 -19.338849 28.977671 41.522533 0.707957 0.798366 0.013810 -0.014232 -962101.000000 0 0 1
-22.972471 -20.799649 29.458971 42.757348 0.735799 0.810715 0.010702 -0.005589 -279769.000000 0 0 1
-24.068771 -20.648949 30.344771 43.891798 0.709071 0.807435 0.008375 -0.009121 268266.000000 0 0 1
-24.356271 -21.797549 31.118371 45.129969 0.730016 0.809959 0.001854 -0.003078 -741496.000000 0 0 1
-25.590371 -21.753049 32.032671 46.412867 0.704522 0.809075 -0.002761 -0.001357 -563618.000000 0 0 1
-25.464471 -20.953349 33.250571 46.830360 0.688517 0.781267 0.002015 0.000219 640189.000000 0 0 1
-26.621571 -20.920649 34.069971 48.032744 0.666055 0.782281 0.010016 -0.001611 614136.000000 0 0 1
-27.917271 -20.095949 33.802471 48.226841 0.623917 0.794130 0.012385 0.000003 456242.000000 0 0 1
-28.528371 -20.574049 32.629371 47.977446 0.624799 0.822900 0.006574 -0.005547 261461.000000 0 0 1
-29.631671 -19.771849 32.211671 48.026593 0.588409 0.835638 -0.001124 -0.012295 -219849.000000 0 0 1
-30.172171 -20.290049 30.859671 47.690306 0.592013 0.867042 -0.001270 -0.005361 -329375.000000 0 0 1
-31.111871 -19.444649 30.227071 47.536499 0.558593 0.881660 -0.000395 -0.008168 203277.000000 0 0 1
-31.739571 -20.172649 29.213371 47.620974 0.566163 0.910367 -0.006813 -0.002207 -181563.000000 0 0 1
-32.498471 -19.233849 28.234971 47.151937 0.534397 0.928784 -0.013562 0.005212 -95181.500000 0 0 1
-33.612071 -19.887549 27.655471 47.855104 0.534278 0.954643 -0.012135 0.001863 248462.000000 0 0 1
-34.250571 -19.077549 26.680371 47.422533 0.508201 0.973257 -0.005606 0.004427 -280287.000000 0 0 1
34.237275 -19.834149 26.027971 47.360740 -0.525071 0.988949 0.005376 0.003353 -615180.000000 0 0 1
33.095875 -19.796449 26.801271 46.963224 -0.539061 0.963455 0.000447 0.004284 -635462.000000 0 0 1
32.157075 -20.801449 26.469971 46.555742 -0.574172 0.966036 0.010539 -0.001460 -376832.000000 0 0 1
31.139675 -20.979949 27.576571 46.586531 -0.592881 0.937329 0.007604 -0.008563 -732309.000000 0 0 1
30.387975 -19.796649 27.721071 45.648593 -0.577403 0.918175 0.000212 -0.006231 655863.000000 0 0 1
29.260975 -20.095549 28.573471 45.568399 -0.601791 0.893041 -0.004168 -0.004289 204646.000000 0 0 1
-29.016895 -6.547149 34.310402 45.409790 0.221916 0.714268 -0.002775 0.002268 -266030.000000 0 0 1
-29.839545 -6.194749 33.233904 45.091748 0.204694 0.742133 -0.001103 0.007775 82359.900000 0 0 1
-29.397445 -5.001849 32.624804 44.199617 0.168532 0.740511 0.006807 0.005626 -144156.000000 0 0 1
-30.014555 -4.757949 31.239874 43.582581 0.157213 0.771598 -0.000138 -0.001783 26113.900000 0 0 1
-29.895475 -5.788949 30.263924 42.931998 0.191272 0.788476 -0.001939 -0.005503 -523866.000000 0 0 1
-28.608425 -5.703249 29.730284 41.651637 0.196776 0.775910 0.002767 -0.008872 -349718.000000 0 0 1
-28.328255 -6.689149 28.561744 40.779995 0.231882 0.794858 0.008559 -0.015504 287452.000000 0 0 1
-28.995715 -6.185849 27.387864 40.362251 0.210186 0.825008 -0.001123 -0.010713 198042.000000 0 0 1
-28.539655 -6.869749 26.208584 39.352195 0.236215 0.841962 0.002107 -0.003654 24755.100000 0 0 1
-29.267175 -6.538849 24.876284 38.963491 0.219809 0.878312 -0.000080 0.004637 -91709.600000 0 0 1
-28.848425 -5.265349 24.461984 38.188273 0.180531 0.875565 0.000395 -0.004557 459670.000000 0 0 1
-29.700985 -4.739249 23.406684 38.111440 0.158231 0.909470 0.006893 -0.002155 239708.000000 0 0 1
-29.235025 -3.394049 22.847584 37.258802 0.115578 0.910675 0.006211 -0.007358 1580150.000000 0 0 1
-27.894735 -3.479649 22.256784 35.855106 0.124101 0.901107 0.014067 -0.003231 1408730.000000 0 0 1
-27.556465 -2.313749 21.558484 35.063948 0.083767 0.908622 0.014164 -0.001434 223289.000000 0 0 1
-26.123305 -2.393649 20.978884 33.589734 0.091374 0.896225 0.015281 0.001130 103863.000000 0 0 1
-25.953205 -3.327649 19.907384 32.877744 0.127521 0.920406 0.018849 0.005562 646939.000000 0 0 1
-24.656625 -3.180849 19.286584 31.464890 0.128297 0.911000 0.027027 0.003788 650895.000000 0 0 1
-24.367025 -4.183849 18.156284 30.674210 0.170043 0.937373 0.029452 0.007709 -670627.000000 0 0 1
-25.218985 -4.027649 17.043184 30.703246 0.158370 0.982320 0.023442 0.012011 407331.000000 0 0 1
-24.661125 -4.537649 15.822084 29.649615 0.181965 1.007903 0.028589 0.008683 557784.000000 0 0 1
-25.833325 -4.635449 14.788584 30.125575 0.177547 1.057676 0.018216 0.004603 580059.000000 0 0 1
-26.298985 -3.423349 14.295784 30.128481 0.129443 1.076407 0.015518 0.007497 708858.000000 0 0 1
-27.453095 -3.559949 13.433484 30.770183 0.128954 1.119008 0.004608 0.002463 895295.000000 0 0 1
-27.940845 -2.257649 12.773784 30.805152 0.080626 1.143223 0.000081 0.008521 -54050.800000 0 0 1
-27.100535 -2.002149 11.659084 29.569948 0.073745 1.165503 0.009040 -0.002336 320489.000000 0 0 1
-27.351955 -0.786249 10.973284 29.481530 0.028738 1.189409 0.005364 -0.003483 -316351.000000 0 0 1
-28.653285 -0.753449 10.156384 30.409383 0.026289 1.230264 -0.012466 0.001624 -8203.740000 0 0 1
-28.475705 -1.500049 8.984084 29.896985 0.052630 1.265578 -0.007799 -0.005255 -407192.000000 0 0 1
-29.741415 -1.763649 8.470284 30.974311 0.059230 1.293806 -0.008122 -0.000001 -833933.000000 0 0 1
-29.822765 -2.443549 7.037084 30.739044 0.081753 1.339818 -0.003376 -0.008416 -670592.000000 0 0 1
-29.543905 -1.661749 5.902784 30.173608 0.056188 1.373899 -0.001576 -0.005534 356127.000000 0 0 1
-30.542405 -0.688249 5.608184 31.060649 0.022530 1.389245 -0.004852 -0.002783 -350707.000000 0 0 1
-30.223725 0.162051 4.389084 30.541184 -0.005362 1.426587 0.001275 -0.001580 -127185.000000 0 0 1
-30.594485 -0.555849 3.205984 30.767025 0.018166 1.466405 0.000245 0.006269 510097.000000 0 0 1
-30.045755 0.041051 2.018584 30.113515 -0.001366 1.503714 -0.000032 0.005073 -25243.500000 0 0 1
-30.641005 -0.571649 0.734584 30.655140 0.018654 1.546831 0.002434 0.003372 333992.000000 0 0 1
-32.029475 -0.268749 0.581084 32.035873 0.008390 1.552657 0.002347 0.006956 600837.000000 0 0 1
-32.409205 -0.619849 -0.734716 32.423458 0.019123 1.593458 0.004034 0.005116 402971.000000 0 0 1
-33.955925 -0.476349 -0.862416 33.970215 0.014028 1.596186 0.004136 0.008720 704684.000000 0 0 1
-34.764330 -1.453849 -0.199616 34.795290 0.041796 1.576533 0.001844 0.010233 373148.000000 0 0 1
33.543490 -1.122849 -0.035716 33.562297 -0.033462 1.571861 0.010039 0.010565 141986.000000 0 0 1
32.698190 -2.331749 0.459684 32.784448 -0.071191 1.556774 0.002986 0.001477 -236554.000000 0 0 1
33.046310 -2.626949 1.794884 33.199113 -0.079326 1.516706 0.003801 -0.002257 144318.000000 0 0 1
32.486720 -3.833849 2.249084 32.789385 -0.117469 1.502151 0.002071 -0.001381 -506850.000000 0 0 1
32.776130 -4.184649 3.638484 33.241910 -0.126987 1.461122 0.012483 -0.003407 10456.200000 0 0 1
32.130770 -3.371149 4.628184 32.636959 -0.104537 1.428509 0.014080 -0.006050 407077.000000 0 0 1
32.195960 -4.020349 5.901984 32.978424 -0.124228 1.390862 0.012733 -0.003824 -173562.000000 0 0 1
31.690710 -3.036749 6.979784 32.592029 -0.095533 1.354968 0.008085 0.001607 -548634.000000 0 0 1
30.304380 -2.903849 6.948684 31.226143 -0.095531 1.346390 0.003061 -0.003980 -322372.000000 0 0 1
29.806300 -1.707949 7.603884 30.808305 -0.057239 1.321406 0.005972 0.000448 145274.000000 0 0 1
28.289750 -1.820749 7.849284 29.414900 -0.064272 1.300676 -0.000366 -0.003332 -542528.000000 0 0 1
27.381490 -1.560049 6.787984 28.253433 -0.056913 1.328169 -0.013067 -0.007032 1209310.000000 0 0 1
26.013900 -1.713649 7.207984 27.048376 -0.065779 1.301052 -0.003551 -0.001284 690274.000000 0 0 1
25.496930 -3.206849 7.305284 26.715997 -0.125117 1.293826 -0.011132 -0.004773 -1323160.000000 0 0 1
26.069810 -3.981549 8.343684 27.660528 -0.151555 1.264378 -0.011106 -0.002867 465268.000000 0 0 1
25.480180 -5.245249 8.351284 27.322082 -0.203020 1.260164 -0.013324 -0.002978 -292755.000000 0 0 1
26.072050 -6.152649 9.504184 28.424222 -0.231747 1.229861 -0.020234 -0.007514 -161313.000000 0 0 1
25.757490 -5.710449 10.816884 28.514251 -0.218172 1.181703 -0.038102 -0.003785 414246.000000 0 0 1
26.277090 -6.615349 11.758184 29.538165 -0.246628 1.161387 -0.026843 -0.000912 -537721.000000 0 0 1
25.337360 -6.929849 12.935384 29.280177 -0.266974 1.113215 -0.009808 -0.006722 654957.000000 0 0 1
24.137820 -7.615849 12.525984 28.240676 -0.305629 1.111247 -0.006383 -0.005995 770683.000000 0 0 1
23.020620 -7.198649 13.303084 27.545263 -0.303071 1.066772 0.003100 -0.006242 193185.000000 0 0 1
21.822620 -8.136749 13.106084 26.724574 -0.356892 1.058233 0.014483 -0.005103 -155766.000000 0 0 1
22.036620 -9.349449 13.755984 27.608910 -0.401251 1.049224 0.008485 -0.004640 227235.000000 0 0 1
20.888120 -10.174649 13.780384 27.013626 -0.453276 1.035464 0.023792 -0.008649 -108974.000000 0 0 1
21.066620 -11.373049 14.726984 28.107522 -0.495026 1.019312 0.008343 -0.005558 -110166.000000 0 0 1
21.187820 -10.928149 16.079884 28.756057 -0.476188 0.977397 0.016527 -0.009482 227510.000000 0 0 1
21.577220 -11.969849 16.909684 29.913059 -0.506479 0.970006 0.012578 -0.015411 -357177.000000 0 0 1
21.473220 -11.712749 18.403484 30.610062 -0.499350 0.925765 0.023033 -0.010762 490372.000000 0 0 1
20.124920 -11.725549 18.899284 29.994730 -0.527556 0.889131 0.024613 -0.014863 470391.000000 0 0 1
19.904220 -11.914649 20.272484 30.807636 -0.539389 0.852591 0.045033 -0.008634 162478.000000 0 0 1
20.273420 -10.802649 21.276984 31.311640 -0.489579 0.823684 0.021930 -0.005749 221213.000000 0 0 1
19.313120 -9.714549 21.357584 30.389397 -0.466047 0.791474 0.016442 -0.001733 261666.000000 0 0 1
19.667220 -8.526849 20.708684 29.805306 -0.409096 0.802657 0.012035 -0.000104 -140808.000000 0 0 1
20.883520 -7.685149 21.323884 30.820301 -0.352620 0.806710 -0.000175 0.004157 1707820.000000 0 0 1
22.168520 -8.303949 21.362484 31.886589 -0.358405 0.836652 -0.007418 0.002895 355361.000000 0 0 1
22.769720 -8.389749 20.080184 31.497013 -0.353025 0.879513 -0.003936 -0.009963 -1960630.000000 0 0 1
24.005420 -9.206149 20.162284 32.673094 -0.366204 0.905755 -0.019564 -0.004771 -1478300.000000 0 0 1
23.812120 -10.543649 20.591184 33.199133 -0.416838 0.901757 -0.022272 -0.006218 -319025.000000 0 0 1
24.921970 -11.317249 20.254684 34.050506 -0.426264 0.933727 -0.022980 -0.008335 -442331.000000 0 0 1
24.846920 -12.766449 20.719984 34.780302 -0.474630 0.932611 -0.034524 -0.003597 195188.000000 0 0 1
23.858020 -13.442549 19.912884 33.858975 -0.513103 0.942073 -0.000881 -0.010255 658262.000000 0 0 1
23.893120 -14.806349 20.094584 34.552879 -0.554772 0.950151 -0.003286 -0.002208 217165.000000 0 0 1
22.729520 -15.406549 19.261784 33.541156 -0.595685 0.959080 0.009701 -0.000068 -34636.600000 0 0 1
23.053020 -15.403449 17.867084 32.983945 -0.589046 0.998350 0.004698 -0.002845 843729.000000 0 0 1
21.983520 -15.821349 16.996884 31.976308 -0.623820 1.010371 -0.001796 0.005184 262162.000000 0 0 1
21.558520 -17.333949 17.042584 32.491310 -0.677201 1.018636 -0.001500 0.004449 -275481.000000 0 0 1
22.553420 -18.169749 16.496284 33.330525 -0.678165 1.053042 0.021816 0.004222 -2903.860000 0 0 1
22.281520 -19.492449 16.758484 34.018649 -0.718731 1.055691 0.012669 0.017164 325469.000000 0 0 1
23.500320 -20.468049 16.586584 35.303269 -0.716542 1.081697 0.003809 0.015286 344692.000000 0 0 1
23.947320 -20.591549 15.275584 35.083179 -0.710195 1.120302 0.006860 0.002520 -190087.000000 0 0 1
24.886720 -21.635549 15.167384 36.297319 -0.715627 1.139702 0.009252 0.006932 -338376.000000 0 0 1
25.352600 -21.767849 13.723584 36.123819 -0.709468 1.181104 0.015602 -0.009187 45186.300000 0 0 1
24.326820 -22.011849 12.740784 35.194364 -0.735482 1.200371 0.008048 -0.009690 566284.000000 0 0 1
24.791570 -21.951249 11.402984 35.021526 -0.724708 1.239151 0.016330 -0.010318 -282747.000000 0 0 1
23.633020 -22.238149 10.441284 34.089226 -0.754999 1.259500 -0.016417 -0.004451 -162735.000000 0 0 1
23.129020 -23.541149 10.630084 34.671832 -0.794229 1.259186 -0.021183 0.000020 650429.000000 0 0 1
21.747220 -23.584949 10.213784 33.667681 -0.825915 1.262568 -0.031417 0.002714 888540.000000 0 0 1
21.537420 -24.268249 8.827184 33.626292 -0.844945 1.305175 -0.023627 -0.001633 -720155.000000 0 0 1
21.632220 -25.688119 8.893784 34.740924 -0.870901 1.311911 -0.023727 -0.002183 -27480.900000 0 0 1
21.368120 -26.347579 7.659884 34.777367 -0.889379 1.348721 -0.013390 0.003379 -632533.000000 0 0 1
19.901320 -26.627749 7.311484 34.037587 -0.928968 1.354303 -0.005805 -0.004423 -227362.000000 0 0 1
19.105120 -25.445679 7.349684 32.657404 -0.926771 1.343798 -0.004056 -0.000665 -924108.000000 0 0 1
17.818520 -25.823449 7.721684 32.310595 -0.966804 1.329478 0.006322 -0.004884 -646713.000000 0 0 1
16.829720 -24.652249 7.821784 30.856979 -0.971786 1.314515 0.011406 -0.004473 -187384.000000 0 0 1
16.563520 -24.061049 6.546984 29.935719 -0.967901 1.350313 0.015583 0.002437 68030.400000 0 0 1
15.751720 -22.924349 6.753884 28.622673 -0.968769 1.332587 0.014305 -0.002841 -140787.000000 0 0 1
15.366520 -22.283949 5.400384 27.601965 -0.967099 1.373874 0.019622 -0.000900 -213480.000000 0 0 1
14.700420 -21.060649 5.450384 26.255665 -0.961411 1.361687 0.023879 0.003295 -111663.000000 0 0 1
14.566920 -20.604349 4.106684 25.565586 -0.955399 1.409464 0.017303 0.006921 126480.000000 0 0 1
13.892820 -19.225749 3.978084 24.051300 -0.945053 1.404633 0.004014 0.015170 -548155.000000 0 1 0
14.712520 -18.204449 4.387184 23.814021 -0.891086 1.385511 0.005605 0.012731 -436328.000000 0 1 0
14.087520 -16.947049 4.278584 22.449208 -0.877279 1.379034 -0.006604 0.014800 -288490.000000 0 1 0
15.025420 -15.731849 4.267984 22.169123 -0.808362 1.377067 -0.010385 0.013573 -668360.000000 0 1 0
15.612120 -15.545149 5.517784 22.712021 -0.783249 1.325395 -0.002747 0.003647 467348.000000 0 1 0
16.776020 -14.719049 5.504484 22.986617 -0.720180 1.328982 0.006990 -0.000897 1291560.000000 0 1 0
18.178120 -15.346049 5.102984 24.330756 -0.701120 1.359494 0.005995 0.003574 580078.000000 0 1 0
19.151720 -14.340449 5.413584 24.530466 -0.642721 1.348276 0.005667 0.006018 -546211.000000 0 1 0
20.398720 -14.953049 5.268984 25.835318 -0.632557 1.365410 0.006640 0.005164 -648105.000000 0 0 1
21.518020 -13.883549 5.235484 26.137873 -0.572997 1.369130 0.004580 -0.000138 -611228.000000 0 0 1
21.649220 -13.211149 6.483184 26.177373 -0.547913 1.320528 0.009701 0.003446 101444.000000 0 0 1
22.830020 -12.463349 6.639884 26.844607 -0.499705 1.320857 0.011704 0.008158 -133378.000000 0 0 1
22.840920 -11.709549 7.992184 26.883009 -0.473722 1.268938 0.010092 0.006783 -59828.900000 0 0 1
23.153820 -12.548049 9.126084 27.871819 -0.496636 1.237213 0.006037 0.001813 317172.000000 0 0 1
23.027020 -11.732749 10.334084 27.833331 -0.471235 1.190404 0.004608 0.001429 -79302.500000 0 0 1
23.308320 -12.515049 11.632584 28.900194 -0.492757 1.156540 0.005365 0.001460 -1154770.000000 0 0 1
22.252320 -13.296649 12.003184 28.566467 -0.538609 1.137148 0.011997 -0.000167 -679390.000000 0 0 1
22.509020 -14.370049 12.836884 29.630050 -0.568186 1.122713 0.005636 -0.010057 654926.000000 0 0 1
21.282020 -15.378249 12.931384 29.268338 -0.625729 1.113168 0.011641 -0.011544 897792.000000 0 0 1
20.165320 -15.026549 13.706884 28.641159 -0.640401 1.071768 0.003881 -0.010914 -770604.000000 0 0 1
19.252220 -16.043749 13.721184 28.571327 -0.694745 1.069864 -0.019930 -0.000728 -297452.000000 0 0 1
17.966820 -15.776749 14.569684 27.999788 -0.720586 1.023536 -0.011415 -0.008554 -218617.000000 0 0 1
18.104020 -15.341149 15.920184 28.575490 -0.702976 0.979874 -0.010373 -0.000158 -113082.000000 0 0 1
18.027720 -13.988649 16.076484 27.912978 -0.659905 0.957030 0.015775 -0.012765 671402.000000 0 0 1
16.565720 -13.394649 16.084584 26.693698 -0.679949 0.924090 0.015329 -0.010262 304945.000000 0 0 1
16.043020 -13.495649 14.759084 25.638674 -0.699372 0.957389 0.004030 -0.014051 799638.000000 0 0 1
14.624220 -13.213849 14.906784 24.712058 -0.734778 0.923265 0.007705 -0.008558 1195520.000000 0 1 0
14.311720 -11.774849 14.424584 23.484910 -0.688455 0.909416 0.005781 -0.009808 -199178.000000 0 1 0
14.758920 -10.747149 15.322884 23.835220 -0.629389 0.872561 -0.002303 -0.005659 111612.000000 0 1 0
14.598220 -9.482149 14.706184 22.787958 -0.576053 0.869316 -0.000273 -0.006997 -683587.000000 0 1 0
14.972120 -8.276449 15.648084 23.184618 -0.504983 0.829921 0.000267 -0.005168 1229500.000000 0 1 0
16.397220 -8.330449 15.897484 24.310393 -0.470059 0.858019 0.002639 -0.007944 1081640.000000 0 1 0
16.796620 -9.124649 16.990384 25.574573 -0.497641 0.844177 0.009600 -0.000053 1047890.000000 0 0 1
18.383720 -9.172549 17.109784 26.736520 -0.462807 0.876375 0.014646 0.001215 1622190.000000 0 0 1
19.006720 -7.922549 17.420984 26.972446 -0.394929 0.868620 0.015916 -0.011649 132231.000000 0 0 1
20.031120 -7.620849 16.499084 27.047049 -0.363541 0.914718 0.010007 -0.006338 -311476.000000 0 0 1
20.670420 -6.306949 16.873384 27.418150 -0.296147 0.907891 0.000789 -0.003678 -534557.000000 0 0 1
21.279720 -6.186749 18.136284 28.636116 -0.282935 0.884940 0.002419 -0.000664 329740.000000 0 0 1
21.645420 -4.837249 18.397984 28.816818 -0.219864 0.878319 0.009137 -0.001864 -111750.000000 0 0 1
-5.626525 -33.269117 -6.802029 34.420336 1.403260 1.769722 -0.002128 -0.001753 -501870.000000 0 0 1
-6.261425 -32.051017 -6.799529 33.357259 1.377868 1.776075 0.002345 -0.013126 -147717.000000 0 0 1
-5.857525 -31.201517 -5.721129 32.257969 1.385224 1.749095 0.008352 -0.010781 189759.000000 0 0 1
-6.754125 -29.889417 -5.732529 31.174627 1.348558 1.755733 0.014755 -0.008258 2203520.000000 0 0 1
-8.171025 -30.042917 -5.437129 31.605457 1.305241 1.743688 0.019251 -0.005145 1541700.000000 0 0 1
-8.973225 -30.452017 -6.553429 32.415915 1.284239 1.774366 0.016392 -0.005360 252448.000000 0 0 1
-10.409625 -30.821217 -6.063829 33.091959 1.245083 1.755079 -0.018429 -0.006682 416227.000000 0 0 1
-11.247825 -31.117217 -7.137929 33.848852 1.223943 1.783268 0.002459 -0.004219 -905023.000000 0 0 1
-12.607125 -31.101917 -6.813229 34.244546 1.185687 1.771091 0.010172 0.004591 -101563.000000 0 0 1
-13.440725 -31.474417 -8.082229 35.165529 1.167202 1.802703 0.019487 -0.006985 68328.300000 0 0 1
-13.338025 -30.494617 -9.120229 34.510914 1.158479 1.838244 0.030775 -0.010724 245425.000000 0 0 1
-14.364325 -30.768117 -10.052029 35.412627 1.134012 1.858608 0.040017 -0.010545 177034.000000 0 0 1
-14.320825 -29.626617 -11.126529 34.736467 1.120535 1.896856 0.038750 -0.012053 -245357.000000 0 0 1
-14.839625 -28.355617 -10.735029 33.756427 1.088652 1.894431 0.038853 -0.009055 768047.000000 0 0 1
-13.841125 -27.523417 -10.077229 32.413975 1.104843 1.886927 0.041213 -0.002646 520035.000000 0 0 1
-14.189225 -26.071217 -9.719729 31.233245 1.072379 1.887250 0.038965 0.009648 -258970.000000 0 0 1
-14.206325 -25.131617 -10.776529 30.814792 1.056300 1.928068 0.050083 0.001691 19862.700000 0 0 1
-14.802625 -23.889317 -10.393929 29.964161 1.016065 1.925037 0.047938 0.009196 -171612.000000 0 0 1
-15.245925 -23.113817 -11.602829 30.021866 0.987700 1.967608 0.048804 0.012346 85117.600000 0 0 1
-16.280825 -23.870817 -12.232529 31.376997 0.972227 1.971272 0.032489 0.003160 250566.000000 0 0 1
-16.976825 -23.188417 -13.266229 31.652932 0.938834 2.003267 0.038550 -0.002100 -1394130.000000 0 0 1
-18.397725 -23.590817 -13.473429 32.810612 0.908452 1.993955 0.020773 0.018359 -1286110.000000 0 0 1
-18.693425 -24.923517 -13.958629 34.138969 0.927275 1.992019 0.034068 0.016880 -32652.800000 0 0 1
-18.505025 -25.903917 -12.991029 34.383364 0.950490 1.958247 0.035154 0.008679 -819850.000000 0 0 1
-18.775425 -27.378517 -13.453229 35.820234 0.969683 1.955815 0.028311 0.006464 122393.000000 0 0 1
-17.976625 -27.974017 -14.467529 36.263123 0.999628 1.981179 0.038319 0.002598 183977.000000 0 0 1
-16.583525 -28.005417 -14.243529 35.527381 1.036166 1.983314 0.049845 -0.006515 61713.000000 0 0 1
-15.846925 -29.354617 -14.616729 36.420700 1.075784 1.983765 0.044917 -0.006516 15107.300000 0 0 1
-15.785925 -29.711117 -15.982129 37.247475 1.082413 2.014270 0.037270 -0.006376 -62303.000000 0 0 1
-15.004225 -30.889017 -16.173829 37.958542 1.118617 2.010965 0.031943 -0.001899 68528.300000 0 0 1
-15.736425 -32.229017 -15.898029 39.231262 1.116578 1.988036 0.024245 -0.006377 -62762.500000 0 0 1
-16.038825 -32.366517 -14.526829 38.934100 1.110725 1.953159 0.034970 -0.012516 107271.000000 0 0 1
-16.253525 -33.741717 -14.156729 40.038651 1.121892 1.932188 0.016673 -0.002602 -1039490.000000 0 0 1
-16.893625 -33.966217 -12.729429 40.014208 1.109259 1.894545 0.024439 -0.010731 119982.000000 0 0 1
-18.308425 -33.854817 -12.739629 40.541895 1.075050 1.890446 0.024153 -0.000310 384386.000000 0 0 1
-18.867425 -32.547117 -12.799829 39.738271 1.045440 1.898747 0.026304 -0.002383 -766185.000000 0 0 1
-18.270725 -31.438417 -11.836229 38.239898 1.044346 1.885490 0.039451 -0.001251 -449159.000000 0 0 1
-18.558125 -31.696517 -10.470429 38.192972 1.041111 1.848497 0.024385 -0.000456 201819.000000 0 0 1
-18.228625 -30.572517 -9.649529 36.879195 1.033144 1.835530 0.030450 0.005942 -250288.000000 0 0 1
-18.435525 -30.738817 -8.129729 36.753720 1.030563 1.793836 0.017599 0.008033 -53842.200000 0 0 1
-17.472025 -31.604417 -7.522529 36.887658 1.065779 1.776168 0.027261 -0.001744 396201.000000 0 0 1
-17.700825 -31.802917 -6.121229 36.908186 1.062916 1.737416 0.023189 -0.006888 45822.900000 0 0 1
-16.720325 -32.845117 -5.511929 37.265968 1.099922 1.719249 0.020628 -0.008353 -289221.000000 0 0 1
-15.543625 -32.319117 -4.997929 36.209238 1.122511 1.709268 0.013199 -0.010732 -299999.000000 0 0 1
-15.541325 -32.314617 -3.563729 36.034254 1.122514 1.669857 0.004301 -0.004008 -207324.000000 0 0 1
-14.216625 -31.806617 -2.983129 34.966733 1.150464 1.656213 -0.005693 0.004310 -341922.000000 0 0 1
-13.043925 -32.542117 -3.202029 35.204920 1.189573 1.661876 -0.013118 0.002871 -266273.000000 0 0 1
-11.960825 -31.820917 -2.637929 34.096786 1.211255 1.648240 -0.018795 0.005621 -162824.000000 0 0 1
-10.603925 -32.501317 -2.762729 34.298856 1.255424 1.651432 -0.009789 -0.003798 -556005.000000 0 0 1
-10.600725 -33.612717 -1.836629 35.292539 1.265291 1.622860 -0.014090 0.002857 145513.000000 0 0 1
-9.371225 -34.321817 -1.772429 35.622303 1.304253 1.620573 0.005200 -0.003129 615560.000000 0 0 1
-8.238325 -33.756917 -0.831129 34.757593 1.331427 1.594711 0.001658 0.003910 22334.300000 0 0 1
-8.514425 -33.551717 0.519971 34.619121 1.322272 1.555776 -0.000786 0.008457 -362576.000000 0 0 1
-7.414325 -33.127017 1.295271 33.971300 1.350610 1.532659 0.004778 0.005598 399223.000000 0 0 1
-6.564925 -34.314917 1.883871 34.988009 1.381766 1.516927 0.008580 0.000393 147898.000000 0 0 1
-7.368125 34.451451 2.776471 35.339787 -1.360101 1.492150 0.013658 -0.006966 430211.000000 0 0 1
-6.584425 33.440051 3.428671 34.254160 -1.376381 1.470533 0.007018 -0.005128 -159198.000000 0 0 1
-6.026125 33.828251 4.848871 34.701244 -1.394507 1.430606 0.002540 -0.006409 -18096.300000 0 0 1
-4.980125 34.741051 4.621471 35.399157 -1.428416 1.439869 -0.006928 -0.004420 -87678.200000 0 0 1
-4.199825 -34.337717 5.739371 35.066476 1.449091 1.406385 -0.015770 -0.006799 656432.000000 0 0 1
-3.125225 -33.318517 5.219171 33.869313 1.477272 1.416083 -0.016502 0.003001 108098.000000 0 0 1
-3.638725 -32.074617 4.740171 32.626532 1.457834 1.424995 -0.019823 0.011533 155853.000000 0 0 1
-3.591525 -32.028917 3.329171 32.401142 1.459129 1.467866 -0.018231 0.003135 -356598.000000 0 0 1
-4.123225 -30.751117 2.702671 31.143806 1.437508 1.483907 -0.014373 0.005531 -421599.000000 0 0 1
-3.426725 -29.606817 3.051971 29.960317 1.455568 1.468752 -0.007294 0.010815 -179885.000000 0 0 1
-3.553825 -28.606017 2.099971 28.902314 1.447196 1.498075 -0.008897 0.012160 108538.000000 0 0 1
-3.167825 -27.289817 2.746471 27.610004 1.455233 1.471158 -0.004082 0.006431 -127570.000000 0 0 1
-3.145525 -26.191417 1.843871 26.443988 1.451271 1.501012 -0.005195 0.003456 -280528.000000 0 0 1
-2.885125 -24.878517 2.371971 25.157321 1.455344 1.476371 -0.011818 0.000217 -303527.000000 0 0 1
-3.985225 -24.233817 3.207171 24.767839 1.407806 1.440942 -0.021070 0.004625 -305808.000000 0 1 0
-4.065725 -24.870817 4.478971 25.595876 1.408756 1.394903 -0.010928 0.001124 -28052.500000 0 0 1
-4.976125 -24.191217 5.336071 25.267577 1.367926 1.358012 -0.026679 0.003565 -123416.000000 0 0 1
-5.477925 -25.204517 6.465671 26.590981 1.356786 1.325181 -0.025632 0.009856 -863031.000000 0 0 1
-4.648425 -25.675817 7.433171 27.131301 1.391693 1.293277 -0.026969 -0.002595 -1095760.000000 0 0 1
-5.327625 -26.584917 8.250271 28.340931 1.373016 1.275412 -0.025979 -0.002644 -117398.000000 0 0 1
-4.455525 -27.200217 9.349771 29.105356 1.408433 1.243759 -0.025514 0.001283 -311155.000000 0 0 1
-4.192825 -26.348217 10.461871 28.657618 1.412988 1.197095 -0.020186 -0.002134 722991.000000 0 0 1
-5.256625 -26.010217 11.427671 28.892130 1.371384 1.164153 -0.018997 0.000335 909343.000000 0 0 1
-4.786325 -25.063517 12.589971 28.453404 1.382100 1.112438 -0.016609 -0.000407 174953.000000 0 0 1
-3.879125 -25.676917 13.483271 29.260046 1.420856 1.091891 -0.015133 -0.005037 -480973.000000 0 0 1
-3.282025 -24.651817 14.184971 28.630354 1.438439 1.052441 -0.010364 -0.006895 -240312.000000 0 0 1
-2.152725 -25.087717 15.126071 29.373897 1.485198 1.029848 0.002943 -0.015103 -58428.200000 0 0 1
-2.658125 -25.858017 16.208371 30.633543 1.468359 1.013250 0.000309 -0.019526 -175726.000000 0 0 1
-1.615625 -26.488317 16.907971 31.466183 1.509878 1.003519 -0.003535 -0.019506 -118354.000000 0 0 1
-2.020425 -27.084217 18.265671 32.730287 1.496336 0.978743 -0.007359 -0.021104 46746.000000 0 0 1
-2.368025 -26.001317 19.126871 32.365309 1.479974 0.938538 -0.000237 -0.023576 -203167.000000 0 0 1
-2.556425 -26.439617 20.423471 33.506818 1.474407 0.915326 0.008367 -0.020347 54265.300000 0 0 1
-3.073625 -25.338517 21.354371 33.279074 1.450084 0.874115 0.022973 -0.024676 -75697.600000 0 0 1
-2.838125 -25.601817 22.717671 34.345314 1.460391 0.848047 0.016403 -0.019200 -2945.050000 0 0 1
-3.141625 -24.561317 23.629471 34.226890 1.443578 0.808786 0.011963 -0.011762 291415.000000 0 0 1
-2.038525 -23.464717 23.718971 33.426608 1.484138 0.781889 -0.001972 0.001163 373295.000000 0 0 1
-2.205325 -22.604317 22.598771 32.039399 1.473542 0.787889 0.007329 -0.001205 208850.000000 0 0 1
-1.084225 -21.734217 22.466671 31.277837 1.520952 0.769450 0.001467 -0.003462 -218977.000000 0 0 1
-1.475925 -20.442717 21.738171 29.876933 1.498723 0.755993 -0.008192 0.012782 -295065.000000 0 0 1
-2.206025 -19.511117 22.547171 29.898581 1.458209 0.716481 -0.009119 0.000698 909185.000000 0 0 1
-3.580225 -19.821817 22.814571 30.433980 1.392102 0.723276 0.009735 -0.008657 265751.000000 0 0 1
-4.607825 -19.548817 21.684071 29.556510 1.339313 0.747122 0.018869 -0.004577 -666681.000000 0 0 1
-4.466025 -20.328417 20.540571 29.242178 1.354538 0.791991 0.025445 -0.001245 -49984.100000 0 0 1
-5.052525 -21.664117 20.603371 30.320965 1.341671 0.823703 0.022602 -0.008925 -10183.900000 0 0 1
-4.946025 -22.465417 19.254371 29.998149 1.354092 0.873885 0.026396 -0.013840 -133884.000000 0 0 1
-5.421125 -23.793617 19.315871 31.122784 1.346781 0.901245 0.027798 -0.018095 -348985.000000 0 0 1
-5.366025 -24.390717 18.032771 30.803931 1.354243 0.945417 0.025645 -0.023696 216880.000000 0 0 1
-6.100225 -25.750717 17.921471 31.960778 1.338189 0.975525 0.014845 -0.019813 1671680.000000 0 0 1
-7.500225 -25.745617 18.315671 32.473897 1.287321 0.971560 0.021837 -0.016826 641038.000000 0 0 1
-8.031625 -27.020317 18.093271 33.495836 1.281870 1.000163 0.020149 -0.006195 -206095.000000 0 0 1
-9.533125 -27.152817 18.378071 34.145416 1.233149 1.002461 0.025137 -0.008708 -196107.000000 0 0 1
-10.300425 -26.389017 17.437871 33.264972 1.198654 1.019008 0.029404 -0.004766 18905.800000 0 0 1
-11.699125 -26.520217 17.568171 33.894426 1.155335 1.025911 0.024338 -0.003434 171886.000000 0 0 1
-12.416125 -25.537617 18.495471 33.888236 1.118258 0.993478 0.023458 -0.003363 -482897.000000 0 0 1
-12.574825 -24.241317 17.947671 32.678534 1.092273 0.989367 0.022407 -0.002639 -181842.000000 0 0 1
-12.662925 -23.282617 19.001971 32.611422 1.072665 0.948776 0.011650 0.007354 -145352.000000 0 0 1
-11.335025 -22.601117 19.377771 31.855789 1.105929 0.916884 0.002536 -0.000962 -135874.000000 0 0 1
-10.580725 -23.380417 20.220871 32.672302 1.145827 0.903455 0.003559 -0.000382 -101762.000000 0 0 1
-9.168125 -23.305817 20.080371 32.100420 1.196007 0.894962 0.014661 -0.010245 760083.000000 0 0 1
-8.400625 -24.217617 21.075871 33.185175 1.236903 0.882660 0.007188 -0.007773 125521.000000 0 0 1
-8.331925 -23.728917 22.360371 33.652172 1.233116 0.844031 0.003628 -0.012029 -265007.000000 0 0 1
-7.420325 -24.399717 23.174371 34.459526 1.275568 0.833201 0.002645 -0.012888 -167137.000000 0 0 1
-7.494025 -24.128617 24.663071 35.307473 1.269656 0.797465 -0.006214 -0.006668 -762623.000000 0 0 1
-6.552625 -24.809917 25.391071 36.099521 1.312579 0.790679 -0.000017 -0.008733 -667206.000000 0 0 1
-6.481425 -24.535417 26.775671 36.890814 1.312530 0.758587 0.003875 -0.002181 -476922.000000 0 0 1
-5.294125 -25.238517 27.438671 37.654896 1.364030 0.754392 -0.001656 0.001989 -947886.000000 0 0 1
-4.099625 -24.724117 26.943471 36.797276 1.406477 0.749230 0.000496 -0.001607 -1336430.000000 0 0 1
-3.152025 -24.882317 27.960171 37.561099 1.444790 0.731173 -0.003795 -0.001110 -300198.000000 0 0 1
-1.826725 -24.242717 27.482071 36.692104 1.495587 0.724258 -0.013879 0.003888 -806138.000000 0 0 1
-2.009525 -22.839217 27.373571 35.706868 1.483037 0.697237 -0.017283 0.005659 712318.000000 0 0 1
-0.820125 -22.021917 27.254071 35.048849 1.533572 0.679953 -0.012657 0.003732 831696.000000 0 0 1
0.080875 -21.969117 28.503871 35.987766 -1.567115 0.656647 0.004266 0.000270 -605991.000000 0 0 1
0.686775 -23.165917 28.842571 37.000342 -1.541159 0.676894 0.007397 0.004922 -25629.200000 0 0 1
1.604675 -22.974817 29.910571 37.749960 -1.501065 0.656171 -0.002102 -0.001731 -39378.300000 0 0 1
2.074775 -24.322417 30.506371 39.070748 -1.485699 0.674854 0.013327 -0.009041 -559252.000000 0 0 1
2.878075 -25.047317 29.591371 38.875451 -1.456393 0.705660 0.014462 -0.013232 376704.000000 0 0 1
3.641375 -26.127317 30.112271 40.033051 -1.432318 0.719424 0.015222 -0.000642 -58479.200000 0 0 1
4.931175 -25.727117 30.890871 40.502432 -1.381421 0.703331 0.008460 -0.007333 348322.000000 0 0 1
6.019775 -25.157917 30.158771 39.732983 -1.335933 0.708965 0.024054 -0.008077 921643.000000 0 0 1
6.692075 -25.978017 29.179871 39.637181 -1.318673 0.743396 0.016289 0.000222 -1040950.000000 0 0 1
7.919275 -25.366317 28.564871 39.014316 -1.268188 0.749303 0.010933 0.005139 -843707.000000 0 0 1
7.694975 -24.387717 27.582171 37.613157 -1.265156 0.747616 0.024570 0.000869 -310454.000000 0 0 1
8.870675 -24.058317 26.910371 37.170682 -1.217547 0.761260 0.008128 0.006015 -467593.000000 0 0 1
8.648775 -22.909217 25.871871 35.622847 -1.209815 0.757914 0.033254 -0.002209 -42848.800000 0 0 1
7.686775 -23.222117 24.894171 34.900902 -1.251137 0.776627 0.018334 0.001382 271.271000 0 0 1
7.510975 -22.110017 24.066071 33.532721 -1.243319 0.770318 0.014096 0.007127 261921.000000 0 0 1
6.649175 -22.339517 22.768271 32.583120 -1.281504 0.797113 0.003104 0.011727 498440.000000 0 0 1
7.297775 -23.195417 21.811371 32.665284 -1.265980 0.839650 -0.005836 0.008770 598430.000000 0 0 1
6.641975 -23.054317 20.535871 31.580680 -1.290291 0.862861 -0.009278 0.001563 64895.700000 0 0 1
7.198075 -23.951817 19.429671 31.670396 -1.278860 0.910316 -0.003525 -0.006394 -79695.900000 0 0 1
8.565875 -23.890117 19.135371 31.784813 -1.226522 0.924757 0.004612 -0.009791 -496037.000000 0 0 1
9.066875 -24.804917 18.201571 32.074746 -1.220356 0.967362 0.004657 -0.015849 -262492.000000 0 0 1
10.442875 -24.391917 17.702171 31.896491 -1.166279 0.982448 0.006912 -0.009398 -310233.000000 0 0 1
10.345275 -23.322717 16.757471 30.525181 -1.153302 0.989662 0.015458 -0.004212 -990758.000000 0 0 1
11.561175 -22.995517 16.202971 30.413662 -1.104945 1.008946 0.016498 -0.013055 -713584.000000 0 0 1
-12.001325 22.902151 11.113571 28.143415 -1.088113 1.164848 -0.002895 -0.004959 -369418.000000 0 0 1
-13.020925 21.914151 10.940671 27.739373 -1.034668 1.165371 -0.020454 -0.007858 527446.000000 0 0 1
-12.455125 20.680951 10.441071 26.303001 -1.028723 1.162601 -0.001235 -0.016790 84183.400000 0 0 1
-13.451625 19.940551 9.526671 25.871399 -0.977331 1.193690 -0.002950 -0.011250 -528261.000000 0 0 1
-13.588225 20.747651 8.382671 26.179650 -0.990964 1.244858 -0.001108 -0.011697 167721.000000 0 0 1
-14.469825 20.337951 7.348571 26.019408 -0.952414 1.284474 0.002514 -0.009085 818635.000000 0 0 1
-15.999425 20.278451 7.676171 26.946629 -0.902807 1.281930 -0.013336 -0.007866 151091.000000 0 0 1
-16.418925 19.175851 8.457271 26.623670 -0.862697 1.247536 -0.021153 -0.010703 -608969.000000 0 0 1
-17.776525 19.130651 8.749871 27.541731 -0.822072 1.247499 -0.011695 -0.004708 -718438.000000 0 0 1
-18.158825 17.977751 9.691371 27.328834 -0.780387 1.208288 -0.023681 -0.002893 -203705.000000 0 0 1
-18.180525 16.748251 9.034371 26.318345 -0.744416 1.220397 -0.024986 -0.003987 -118044.000000 0 0 1
-18.585625 15.703951 9.853071 26.251144 -0.701556 1.186034 -0.020325 -0.006893 -1142880.000000 0 0 1
-17.627325 15.150151 10.958471 25.697038 -0.709966 1.130233 -0.010016 -0.002187 157375.000000 0 0 1
-16.661325 14.290651 10.353771 24.269797 -0.708955 1.130054 -0.015474 0.004206 -18001.900000 0 1 0
-15.910225 13.500251 11.274671 23.717299 -0.703638 1.075403 -0.022928 0.009230 163518.000000 0 1 0
-16.633525 12.385751 12.068471 23.994354 -0.640053 1.043763 -0.009145 0.005174 -595412.000000 0 1 0
-17.373225 11.499351 11.288171 23.695714 -0.584696 1.074263 -0.029469 0.003485 -635284.000000 0 1 0
-18.310125 10.997251 12.167571 24.581498 -0.540868 1.052974 -0.002463 0.007213 236662.000000 0 1 0
-19.528325 10.165851 11.580571 24.875885 -0.479968 1.086558 0.010451 0.000693 507999.000000 0 1 0
-19.100125 9.013051 10.921571 23.776682 -0.440903 1.093545 0.008935 -0.001029 332228.000000 0 1 0
-18.756225 9.146251 9.549971 22.948897 -0.453709 1.141599 0.017540 0.000898 -495133.000000 0 1 0
-19.937025 9.414651 8.563671 23.652846 -0.441177 1.200323 0.025015 0.007480 65762.800000 0 1 0
-20.336425 8.185751 7.994771 23.334376 -0.382674 1.221094 0.013528 0.009759 98505.000000 0 1 0
-21.227825 8.488751 6.957471 23.897403 -0.380410 1.275379 0.016357 0.016216 -275740.000000 0 1 0
-21.447025 7.268051 5.993271 23.424747 -0.326738 1.312067 0.023818 0.010401 -270556.000000 0 1 0
-22.171525 6.252251 6.624971 23.969928 -0.274857 1.290764 0.023070 0.009584 315104.000000 0 1 0
-21.840325 5.045451 5.971271 23.197251 -0.227033 1.310452 0.032124 -0.006166 -132038.000000 0 1 0
-22.892925 3.906051 5.975871 23.980290 -0.168995 1.318943 0.062378 -0.009993 290620.000000 0 1 0
-24.125325 4.208851 5.322071 25.061329 -0.172720 1.356805 0.063415 -0.009514 180697.000000 0 0 1
-24.891825 3.043651 5.313671 25.633999 -0.121671 1.361992 0.056529 -0.014551 -527036.000000 0 0 1
-25.955655 3.166751 4.199971 26.483280 -0.121406 1.411534 0.055286 -0.009961 -182708.000000 0 0 1
-25.451355 3.035251 2.850171 25.789682 -0.118696 1.460054 0.045221 -0.002914 366937.000000 0 0 1
-26.429035 3.160951 1.852471 26.681776 -0.119036 1.501312 0.038576 0.002167 -142056.000000 0 0 1
-25.726795 3.083951 0.471371 25.915265 -0.119304 1.552606 0.034941 0.004079 83678.100000 0 0 1
-25.122415 4.363851 0.215871 25.499521 -0.171987 1.562331 0.031596 -0.003900 478972.000000 0 0 1
-25.053925 4.622051 -1.196629 25.504793 -0.182433 1.617731 0.034930 0.000778 109677.000000 0 0 1
-26.367565 5.157851 -1.880029 26.932999 -0.193174 1.640657 0.028915 -0.006879 744380.000000 0 0 1
-27.381315 4.161251 -1.916429 27.761937 -0.150820 1.639882 0.018540 -0.003855 589907.000000 0 0 1
-28.597065 4.680151 -2.455729 29.081378 -0.162220 1.655340 0.003568 0.002508 12820.200000 0 0 1
-29.697675 3.635251 -2.609029 30.032882 -0.121803 1.657778 -0.007410 0.007380 -486391.000000 0 0 1
-29.642845 2.928451 -3.829229 30.032268 -0.098472 1.698648 -0.001300 0.005968 -116096.000000 0 0 1
-30.704735 2.046651 -3.888829 31.017617 -0.066557 1.696502 0.007804 0.009157 -537484.000000 0 0 1
-30.894295 1.418651 -5.255129 31.370152 -0.045887 1.739110 0.003635 0.001658 559905.000000 0 0 1
-29.709645 0.641651 -5.600929 30.239794 -0.021594 1.757089 0.006775 0.010388 1309310.000000 0 0 1
-29.788385 -0.196149 -6.773529 30.549420 0.006585 1.794378 0.005830 0.017690 -226172.000000 0 0 1
-30.034965 0.513451 -8.171529 31.130960 -0.017093 1.836397 0.001561 0.012063 -120250.000000 0 0 1
-31.397155 0.834251 -8.347229 32.498516 -0.026565 1.830557 -0.002987 0.007293 262496.000000 0 0 1
-31.549305 1.563851 -9.544329 32.998462 -0.049528 1.864224 0.000360 0.003415 988569.000000 0 0 1
-33.069125 2.017651 -9.576129 34.486812 -0.060938 1.852170 0.001033 0.004533 1183360.000000 0 0 1
-33.474095 2.985651 -8.645629 34.701240 -0.088957 1.822593 -0.013930 0.006481 987176.000000 0 0 1
34.819999 2.811451 -8.244729 35.893066 0.080568 1.802568 -0.005281 0.011934 716161.000000 0 0 1
34.444186 3.625051 -7.044829 35.343635 0.104858 1.771464 0.001080 0.015211 -89851.100000 0 0 1
33.067320 3.574851 -6.720729 33.932218 0.107690 1.770178 0.012164 0.017929 383566.000000 0 0 1
32.762100 4.382151 -5.618629 33.528010 0.132968 1.739171 0.009146 0.011706 412819.000000 0 0 1
31.400330 4.069251 -4.924729 32.043603 0.128874 1.725096 0.013424 0.008076 540276.000000 0 0 1
31.518800 2.889651 -4.240829 31.933830 0.091425 1.703990 0.013257 0.009244 -367523.000000 0 0 1
30.262790 2.320651 -4.062729 30.622339 0.076534 1.703861 0.023148 0.009822 -843013.000000 0 0 1
30.335450 1.113851 -3.102829 30.514058 0.036701 1.672658 0.023129 0.006648 -483081.000000 0 0 1
31.122810 0.104251 -3.610929 31.331757 0.003350 1.686301 0.015734 0.012289 -155379.000000 0 0 1
31.014500 -1.071049 -2.892029 31.167454 -0.034520 1.663720 0.012336 0.007255 402516.000000 0 0 1
32.117000 -2.060049 -3.408229 32.362965 -0.064054 1.676305 0.006012 0.012415 495011.000000 0 0 1
31.912950 -3.391749 -3.002829 32.232861 -0.105884 1.664092 0.006652 0.007380 827257.000000 0 0 1
33.112880 -4.182449 -3.183329 33.527441 -0.125643 1.665887 0.014919 0.003001 539916.000000 0 0 1
32.902420 -5.635149 -2.758729 33.495294 -0.169623 1.653251 0.000830 0.006531 -137662.000000 0 0 1
32.566430 -5.723949 -1.387629 33.094735 -0.173985 1.612738 0.004977 0.005498 -19514.100000 0 0 1
32.639670 -7.069649 -0.975829 33.410780 -0.213302 1.600007 -0.001992 0.004591 -136762.000000 0 0 1
32.289960 -7.201949 0.551771 33.087974 -0.219448 1.554120 -0.001007 0.006169 -433910.000000 0 0 1
30.971900 -6.951549 0.945071 31.756508 -0.220788 1.541032 0.001672 0.000393 -474330.000000 0 0 1
30.617530 -7.355249 2.220671 31.566821 -0.235762 1.500390 -0.005179 -0.005623 -424442.000000 0 0 1
30.571770 -8.926649 2.529571 31.948661 -0.284092 1.491537 -0.002507 -0.004351 -162593.000000 0 0 1
29.510050 -9.751849 2.082571 31.149297 -0.319161 1.503889 -0.008921 -0.008087 807681.000000 0 0 1
28.189180 -9.488149 2.581371 29.854955 -0.324677 1.484224 -0.013971 -0.006531 -1121340.000000 0 0 1
27.256490 -10.482949 1.947071 29.267722 -0.367164 1.504221 -0.019303 -0.003848 -803763.000000 0 0 1
25.934160 -10.510449 2.510171 28.095394 -0.385045 1.481332 -0.011918 -0.007014 1120540.000000 0 0 1
25.139950 -9.414449 2.045571 26.922728 -0.358316 1.494744 -0.013809 -0.004383 -997491.000000 0 0 1
24.555820 -9.529549 0.637371 26.347805 -0.370186 1.546603 -0.016044 0.005895 -1340790.000000 0 0 1
25.539330 -9.415649 -0.356229 27.222026 -0.353212 1.583883 -0.014115 0.002779 319441.000000 0 0 1
25.064400 -9.713649 -1.662629 26.932201 -0.369726 1.632569 -0.010919 0.012809 -441105.000000 0 0 1
24.611830 -11.087349 -2.050729 27.071701 -0.423260 1.646621 -0.007304 0.014511 -234269.000000 0 0 1
23.406920 -11.451549 -1.400029 26.095631 -0.455001 1.624472 -0.003748 0.013548 118446.000000 0 0 1
23.143420 -12.783149 -1.668229 26.491692 -0.504642 1.633810 -0.004879 0.023797 -975205.000000 0 0 1
21.664520 -13.088849 -1.563329 25.359680 -0.543473 1.632482 0.004428 0.025294 -1229380.000000 0 0 1
20.943720 -12.587049 -2.655129 24.578912 -0.541150 1.679032 0.000730 0.021019 85914.200000 0 1 0
19.584220 -12.561749 -2.245729 23.374826 -0.570321 1.667019 0.016416 0.018182 107156.000000 0 1 0
18.617520 -12.021049 -3.317929 22.408175 -0.573336 1.719411 0.022210 0.015289 -7129.110000 0 1 0
18.578220 -12.758849 -4.540429 22.990302 -0.601787 1.769596 0.008501 0.010648 293033.000000 0 1 0
17.497120 -12.370849 -5.362729 22.089499 -0.615423 1.816019 0.009012 0.005197 -197341.000000 0 1 0
17.585220 -12.872849 -6.821429 22.835982 -0.631899 1.874141 0.002564 -0.000620 -575274.000000 0 1 0
17.110520 -14.193149 -6.914929 23.281572 -0.692471 1.872359 0.015680 0.005822 354233.000000 0 1 0
17.061820 -14.564549 -8.255829 23.903776 -0.706600 1.923437 0.005751 -0.001606 -89734.600000 0 1 0
16.212520 -15.849049 -8.623429 24.256992 -0.774062 1.934248 0.012323 -0.003279 888202.000000 0 1 0
14.797820 -15.561849 -8.526529 23.105157 -0.810559 1.948763 0.014211 -0.000758 1348480.000000 0 1 0
13.986320 -16.568449 -9.183529 23.547141 -0.869706 1.971435 0.015417 0.000797 435108.000000 0 1 0
13.834820 -16.355549 -10.742029 23.964503 -0.868699 2.035600 0.012477 -0.006159 -401495.000000 0 1 0
13.011420 -15.282549 -11.244929 23.006559 -0.865495 2.081476 0.011353 0.000305 524868.000000 0 1 0
13.371220 -13.963049 -10.808329 22.148955 -0.807046 2.080575 0.017739 0.002510 -156082.000000 0 1 0
13.312020 -12.894249 -11.893829 22.021233 -0.769458 2.141361 0.025620 0.004472 371961.000000 0 1 0
14.405820 -12.903349 -12.834529 23.210971 -0.730436 2.156698 0.018236 0.002761 491030.000000 0 1 0
14.059320 -12.438549 -14.131529 23.496427 -0.724308 2.216090 0.019684 -0.000006 -543109.000000 0 1 0
15.234320 -12.177849 -15.079829 24.653311 -0.674356 2.228973 0.017433 0.000047 -346471.000000 0 1 0
15.784720 -13.389749 -15.493829 25.855396 -0.703490 2.213359 0.010651 -0.003167 249615.000000 0 0 1
16.908520 -13.121149 -16.341229 26.927650 -0.659940 2.222896 0.009648 -0.003227 -90887.900000 0 0 1
17.887720 -14.284449 -16.411329 28.166429 -0.673863 2.192789 0.006958 0.000112 -659510.000000 0 0 1
18.719820 -14.319649 -15.294629 28.096435 -0.652998 2.146425 -0.000585 -0.010380 -463023.000000 0 0 1
19.784320 -15.227949 -15.401329 29.334462 -0.655989 2.123541 -0.003866 -0.004661 -294791.000000 0 0 1
20.768820 -14.836649 -14.251229 29.232987 -0.620306 2.080026 -0.014882 -0.001130 -40856.600000 0 0 1
21.370220 -13.548549 -14.455629 29.141288 -0.565039 2.089844 -0.010262 -0.005904 -17523.500000 0 0 1
22.365120 -13.301849 -13.491729 29.311508 -0.536557 2.049116 -0.020280 0.000397 -262670.000000 0 0 1
22.874120 -11.892649 -13.686529 29.188723 -0.479454 2.058839 -0.007532 -0.008077 -84765.200000 0 0 1
22.085920 -10.851649 -13.054229 27.856041 -0.456694 2.058538 0.004391 -0.000179 657406.000000 0 0 1
22.625420 -9.528749 -13.218029 27.882306 -0.398607 2.064698 0.013097 -0.000312 227011.000000 0 0 1
23.713320 -9.096349 -12.198729 28.175771 -0.366286 2.018560 0.015873 -0.004310 909722.000000 0 0 1
24.939130 -9.845249 -12.285929 29.492934 -0.375991 2.000468 -0.000101 0.005873 405269.000000 0 0 1
25.857310 -9.419649 -11.319429 29.756675 -0.349351 1.961025 -0.000441 0.002135 352784.000000 0 0 1
27.214370 -10.205849 -11.493629 31.255156 -0.358785 1.947369 -0.006259 0.011761 585813.000000 0 0 1
27.753110 -10.145949 -12.785029 32.196776 -0.350486 1.979141 -0.008861 0.008250 -646384.000000 0 0 1
28.993580 -10.756549 -12.917729 33.514157 -0.355257 1.966482 -0.013118 0.006731 -779219.000000 0 0 1
29.613150 -10.268249 -14.268829 34.437989 -0.333773 1.998007 -0.011134 0.007367 -304156.000000 0 0 1
28.998930 -10.762849 -15.486029 34.591819 -0.355388 2.034964 -0.012977 0.006586 29572.500000 0 0 1
29.750330 -10.569149 -16.642829 35.689954 -0.341354 2.055919 0.001883 0.004241 -443045.000000 0 0 1
29.141230 -11.258849 -17.912129 36.011350 -0.368688 2.091398 -0.000614 0.006156 250699.000000 0 0 1
27.922650 -10.790849 -18.465329 35.172222 -0.368775 2.123509 -0.006410 0.003631 340969.000000 0 0 1
28.029690 -9.511449 -19.109229 35.232000 -0.327142 2.144067 0.001152 0.000950 -154528.000000 0 0 1
26.702990 -9.036049 -19.752329 34.421713 -0.326295 2.181975 -0.017424 -0.000825 125278.000000 0 0 1
26.304360 -9.854049 -20.838229 34.975040 -0.358434 2.209061 -0.017759 0.008573 441859.000000 0 0 1
24.937660 -9.653149 -21.176929 34.110592 -0.369329 2.240599 0.004624 0.009192 398271.000000 0 0 1
24.480920 -10.320549 -22.503229 34.817014 -0.398966 2.273559 0.017130 0.003449 9774.490000 0 0 1
24.257620 -11.724349 -22.391129 35.032201 -0.450220 2.264200 0.014569 0.007211 468506.000000 0 0 1
23.499820 -12.194349 -23.541429 35.427991 -0.478663 2.297603 0.019086 0.004504 -212891.000000 0 0 1
23.836820 -13.656749 -23.989429 36.471817 -0.520275 2.288627 0.012592 0.009207 307265.000000 0 0 1
25.046220 -13.864949 -24.697529 37.808965 -0.505583 2.282624 0.012280 0.008993 894714.000000 0 0 1
26.235100 -13.814349 -23.874529 38.067175 -0.484669 2.248709 0.000649 0.010672 427136.000000 0 0 1
27.554760 -14.262349 -24.530129 39.552580 -0.477628 2.239782 -0.004294 0.010594 74591.000000 0 0 1
27.942090 -13.485749 -25.645399 40.253103 -0.449657 2.261531 -0.009284 -0.003222 -687544.000000 0 0 1
29.234720 -13.890349 -25.956749 41.489317 -0.443556 2.246729 -0.023028 0.000669 -722247.000000 0 0 1
29.818340 -13.381049 -27.284319 42.574874 -0.421816 2.266408 -0.019003 -0.005703 -170775.000000 0 0 1
29.257430 -13.933649 -28.437239 43.114039 -0.444462 2.291059 -0.017007 -0.003239 -53393.500000 0 0 1
30.052560 -13.509149 -29.509079 44.231654 -0.422453 2.301171 -0.019610 -0.006102 -92443.800000 0 0 1
29.976280 -14.382349 -30.743649 45.283565 -0.447350 2.317079 -0.009052 -0.013599 -161102.000000 0 0 1
30.655690 -15.571649 -30.530349 45.982059 -0.469990 2.296901 -0.004264 -0.018128 -254126.000000 0 0 1
30.957840 -16.273049 -31.723409 47.218372 -0.483958 2.307493 -0.003952 -0.012804 -2742.600000 0 0 1
29.794210 -17.027849 -32.409489 47.201881 -0.519212 2.327618 -0.002765 -0.005216 387287.000000 0 0 1
28.947960 -16.196449 -33.182389 46.918869 -0.510109 2.356367 -0.006811 -0.010195 467203.000000 0 0 1
27.821320 -16.857249 -33.762079 46.883586 -0.544755 2.374780 -0.009694 -0.005724 669881.000000 0 0 1
27.057450 -16.037749 34.475081 46.667400 -0.535056 0.739597 0.006120 -0.007268 -125822.000000 0 0 1
26.305760 -14.882949 -34.572861 45.921432 -0.514868 2.423208 -0.003287 -0.006864 328978.000000 0 0 1
27.077340 -13.812049 -34.028569 45.627826 -0.471692 2.412509 -0.007162 -0.012307 196170.000000 0 0 1
26.170980 -12.542549 -33.800789 44.550298 -0.446914 2.432128 -0.007838 -0.009670 769106.000000 0 0 1
25.502700 -12.022649 34.370737 44.455364 -0.440529 0.687001 -0.001332 -0.009207 -30425.200000 0 0 1
24.905220 -10.807049 -34.612542 43.989662 -0.409408 2.476458 -0.014714 -0.009610 -331461.000000 0 0 1
19.863075 -30.428617 9.021971 37.441133 -0.992472 1.327437 -0.006072 -0.015323 -98665.200000 0 0 1
20.318275 -30.010317 7.776771 37.066556 -0.975644 1.359420 0.000199 -0.011736 -506535.000000 0 0 1
21.511775 -30.634217 7.439071 38.164794 -0.958586 1.374621 0.003087 -0.009966 -286252.000000 0 0 1
22.177175 -30.280717 6.041671 38.016453 -0.938664 1.411197 -0.000959 -0.004476 36613.000000 0 0 1
22.644075 -28.966417 5.934871 37.242854 -0.907292 1.410758 -0.000971 0.002032 81717.400000 0 0 1
23.342175 -28.751817 4.722171 37.333939 -0.888871 1.443972 -0.005440 0.005662 -22877.500000 0 0 1
23.565975 -27.257217 4.364871 36.295498 -0.857900 1.450245 -0.008519 0.006857 144896.000000 0 0 1
24.405675 -26.613017 5.309371 36.497658 -0.828637 1.424807 -0.012631 0.003985 188382.000000 0 0 1
24.218175 -25.268117 5.145171 35.376129 -0.806612 1.424837 -0.013036 0.003680 17275.800000 0 0 1
24.854375 -24.284417 6.142771 35.287484 -0.773800 1.395827 -0.015668 0.006500 -221104.000000 0 0 1
26.254975 -24.163117 6.098471 36.199051 -0.743932 1.401519 -0.018620 0.010801 -25854.000000 0 0 1
26.834875 -23.175017 6.990371 36.139414 -0.712346 1.376141 -0.000128 0.001366 94719.100000 0 0 1
26.399575 -21.638217 6.794571 34.803968 -0.686604 1.374310 0.000924 0.005216 -321329.000000 0 0 1
26.743675 -20.995517 5.585671 34.456285 -0.665568 1.407969 0.001347 0.022716 -968.433000 0 0 1
26.329075 -19.640617 5.510271 33.306713 -0.640915 1.404592 0.001642 0.018320 -194501.000000 0 0 1
26.626975 -18.817517 4.232371 32.878682 -0.615214 1.441711 -0.000265 0.033623 1041160.000000 0 0 1
28.038475 -18.548217 4.048771 33.861261 -0.584436 1.450940 -0.004089 0.027791 1184240.000000 0 0 1
28.147175 -17.935517 2.778471 33.491284 -0.567328 1.487740 -0.006581 0.033292 257104.000000 0 0 1
29.046975 -16.670017 2.799071 33.607306 -0.521006 1.487412 -0.005959 0.021018 193015.000000 0 0 1
28.407775 -15.629217 3.476171 32.609168 -0.502977 1.463992 -0.012412 0.013417 -222541.000000 0 0 1
29.273875 -14.553117 3.555271 32.884539 -0.461354 1.462471 -0.005851 0.007994 -194802.000000 0 0 1
28.846975 -13.461917 4.512171 32.151685 -0.436627 1.429991 -0.009145 0.005000 -41035.100000 0 0 1
28.653475 -13.950117 5.827171 32.397273 -0.453077 1.389946 -0.002607 0.004862 105791.000000 0 0 1
28.600275 -12.810917 6.651371 32.036480 -0.421131 1.361656 -0.008035 -0.000361 -348613.000000 0 0 1
28.202175 -13.117217 8.133671 32.149349 -0.435351 1.315020 0.002456 0.006127 -1046980.000000 0 0 1
26.859475 -13.441717 8.184571 31.130344 -0.464004 1.304756 -0.004550 0.007731 -994707.000000 0 0 1
26.240175 -13.785517 9.421471 31.102273 -0.483729 1.263042 0.003033 0.003435 209778.000000 0 0 1
26.699375 -15.088217 10.192471 32.317137 -0.514374 1.249930 0.008346 -0.008342 82733.300000 0 0 1
27.861775 -14.936817 10.989471 33.468724 -0.492112 1.236240 -0.001716 -0.000542 91516.100000 0 0 1
28.121775 -16.135717 11.716771 34.474314 -0.520917 1.224018 0.012610 -0.004417 69290.100000 0 0 1
28.741675 -15.740017 13.067171 35.278647 -0.501028 1.191358 0.018503 -0.006062 1131690.000000 0 0 1
30.090275 -15.214017 13.038571 36.151007 -0.468127 1.201811 0.019177 -0.006820 977200.000000 0 0 1
30.517575 -14.877717 14.377471 36.869778 -0.453608 1.170216 0.024574 -0.006983 -702464.000000 0 0 1
32.028375 -14.941217 14.452871 38.183010 -0.436490 1.182604 0.016049 -0.006381 -815279.000000 0 0 1
32.684075 -13.740117 14.051771 38.137801 -0.397961 1.193458 0.016356 -0.016234 455623.000000 0 0 1
33.923975 -13.608217 14.749171 39.415196 -0.381488 1.187262 0.008266 -0.017776 -61307.600000 0 0 1
34.795275 -12.480917 14.178771 39.591943 -0.344400 1.204540 0.007642 -0.018646 -759722.000000 0 0 1
-34.246171 -12.833217 13.002571 38.814412 0.358538 1.229198 0.004257 -0.016876 -183882.000000 0 0 1
-33.447371 -11.738717 12.613271 37.624709 0.337531 1.228937 0.013639 -0.016505 -106813.000000 0 0 1
-32.266871 -12.078117 11.643571 36.367631 0.358174 1.244895 0.009243 -0.015155 799887.000000 0 0 1
-31.095471 -12.618617 12.264671 35.729259 0.385498 1.220403 -0.003282 -0.009688 634729.000000 0 0 1
-31.150071 -14.078817 12.171771 36.286251 0.424489 1.228727 -0.007157 -0.009474 177247.000000 0 0 1
-29.849671 -14.770817 12.677171 35.635524 0.459511 1.207085 -0.003446 -0.006409 669900.000000 0 0 1
-28.707371 -14.651017 11.825071 34.330712 0.471899 1.219148 0.001717 -0.009165 -121106.000000 0 0 1
-27.804271 -15.661517 12.145271 34.144812 0.512980 1.207135 0.007425 -0.005434 -3513.560000 0 0 1
-26.418471 -15.660417 11.436671 32.771660 0.535096 1.214313 0.014441 0.005144 296402.000000 0 0 1
-26.477171 -15.785117 10.013571 32.411142 0.537605 1.256703 0.010032 0.005863 405384.000000 0 0 1
-25.225571 -15.466717 9.401971 31.047477 0.550023 1.263140 0.024077 0.009566 434067.000000 0 0 1
-25.336871 -15.057017 7.904771 30.514852 0.536198 1.308761 0.025872 0.022615 -50858.900000 0 0 1
-25.558571 -16.148717 7.034471 31.040383 0.563497 1.342187 0.030886 0.028280 267221.000000 0 0 1
-25.668171 -15.669517 5.715671 30.611398 0.548079 1.382977 0.032914 0.022060 -467626.000000 0 0 1
-25.950171 -16.742217 4.623571 31.226441 0.572971 1.422184 0.024545 0.020859 147158.000000 0 0 1
-27.302571 -17.187817 4.545671 32.580893 0.561851 1.430820 -0.001516 0.012191 426737.000000 0 0 1
-27.407571 -18.195417 3.600071 33.093937 0.586073 1.461797 0.007815 0.013557 -416330.000000 0 0 1
-28.831971 -18.759217 3.634771 34.589049 0.576825 1.465518 0.004466 0.007657 -19268.200000 0 0 1
-29.782871 -17.772317 3.230271 34.832590 0.538011 1.477926 0.003849 0.002813 -697013.000000 0 0 1
-31.079071 -18.148717 3.544271 36.164160 0.528537 1.472634 0.002443 0.004377 -779934.000000 0 0 1
-32.086471 -17.227817 2.839971 36.529505 0.492744 1.492973 0.008013 -0.008701 -190757.000000 0 0 1
-32.112671 -17.371917 1.433771 36.538512 0.495882 1.531546 0.009274 -0.009363 -290682.000000 0 0 1
-33.129371 -16.565017 0.889271 37.050584 0.463656 1.546792 0.010565 -0.012101 -329973.000000 0 0 1
-33.690571 -17.204817 -0.363529 37.831104 0.472148 1.580406 0.006604 -0.010068 -912391.000000 0 0 1
-32.687471 -17.479717 -1.300929 37.090480 0.491062 1.605878 0.010966 -0.006629 -40687.400000 0 0 1
-33.124071 -18.111317 -2.478229 37.833391 0.500362 1.636347 0.006602 -0.007797 -300473.000000 0 0 1
-31.884871 -18.559617 -3.241629 37.035288 0.527140 1.658437 -0.001339 -0.004868 -358695.000000 0 0 1
-32.205671 -19.606317 -4.088829 37.925340 0.546854 1.678819 -0.001958 -0.009280 637946.000000 0 0 1
-31.091071 -20.249117 -4.741729 37.405420 0.577277 1.697904 -0.007627 -0.006681 -62236.900000 0 0 1
-31.659271 -21.258717 -5.703329 38.558662 0.591331 1.719254 -0.008980 -0.009746 -521352.000000 0 0 1
-32.029771 -22.492017 -5.156029 39.476343 0.612216 1.701781 -0.005740 -0.014171 230.635000 0 0 1
-32.194371 -23.492117 -6.130129 40.322891 0.630380 1.723414 0.009191 -0.013989 19760.500000 0 0 1
-33.001871 -24.683617 -5.604229 41.591006 0.642185 1.705954 0.001960 -0.010329 -415622.000000 0 0 1
-32.251271 -25.605717 -4.884029 41.468674 0.671038 1.688847 0.006564 -0.006356 -774552.000000 0 0 1
-32.893671 -26.789917 -4.605429 42.672043 0.683484 1.678933 0.002442 -0.001308 -264402.000000 0 0 1
-31.901371 -27.839817 -4.058629 42.534990 0.717517 1.666360 -0.006903 -0.000808 -1171600.000000 0 0 1
-30.907371 -28.091517 -4.989729 42.063004 0.737707 1.689701 -0.011363 -0.001511 -374805.000000 0 0 1
-30.043471 -29.165217 -4.691029 42.133428 0.770566 1.682365 -0.010211 -0.000187 -51912.200000 0 0 1
-29.064571 -29.007717 -3.496929 41.211958 0.784419 1.655751 -0.010483 -0.005657 -1349830.000000 0 0 1
-29.639571 -28.916817 -2.188229 41.466551 0.773056 1.623592 -0.010544 0.002118 -415846.000000 0 0 1
-28.693571 -28.942217 -1.155829 40.771422 0.789712 1.599149 -0.005742 0.000458 -876455.000000 0 0 1
-29.262771 -28.847117 0.266971 41.091814 0.778245 1.564299 -0.007051 0.008921 -97887.800000 0 0 1
-29.878171 -30.074117 0.653871 42.397938 0.788667 1.555373 -0.007420 0.008668 -19485.300000 0 0 1
-30.446571 -29.933217 1.924371 42.739845 0.776896 1.525756 -0.000848 0.015111 -226489.000000 0 0 1
-30.964671 -31.256217 2.540471 44.070579 0.790084 1.513119 0.001106 0.008251 -581373.000000 0 0 1
-31.904971 -31.017017 3.577871 44.640606 0.771287 1.490562 0.000703 0.004688 273783.000000 0 0 1
-32.488971 -32.178017 4.045971 45.905641 0.780590 1.482545 0.005213 -0.001368 118687.000000 0 0 1
-33.662871 -32.781217 3.185271 47.095043 0.772130 1.503110 0.012158 0.006894 254521.000000 0 0 1
-34.420171 -33.783717 3.855271 48.383373 0.776067 1.491030 0.018592 0.000213 806312.000000 0 0 1
34.185275 -34.420917 3.111871 48.611895 -0.788833 1.506738 0.011853 0.015502 -984329.000000 0 0 1
33.229775 34.325551 3.984371 47.940970 0.801617 1.487590 0.017190 0.007365 -796234.000000 0 0 1
32.431775 -34.454117 4.903871 47.570518 -0.815625 1.467527 0.010085 0.001040 676825.000000 0 0 1
31.766075 -33.236517 4.553871 46.200512 -0.808016 1.472068 0.013225 0.002471 -39146.600000 0 0 1
30.712375 -33.254817 3.395271 45.394501 -0.825123 1.495932 0.005741 0.015010 -300966.000000 0 0 1
31.353575 -33.610817 2.176371 46.015978 -0.820130 1.523483 0.008715 0.013695 173216.000000 0 0 1
30.488675 -33.216017 1.102071 45.100750 -0.828184 1.546358 0.003691 0.011643 -430508.000000 0 0 1
30.820175 -33.876917 -0.286429 45.799680 -0.832610 1.577050 0.011888 0.021602 1074740.000000 0 0 1
31.921275 -33.403717 -1.103729 46.216819 -0.808088 1.594680 0.011681 0.027187 1321770.000000 0 0 1
33.215175 -33.439317 -0.476029 47.134514 -0.788761 1.580896 0.000703 0.026250 -73961.600000 0 0 1
34.415975 -33.353217 -1.398129 47.946336 -0.769717 1.599961 -0.003652 0.025140 -390631.000000 0 0 1
34.557375 -34.566817 -2.219229 48.928539 -0.785535 1.616168 0.000282 0.019519 486769.000000 0 0 1
-34.151971 -34.228017 -3.223429 48.459310 0.786510 1.637364 -0.004272 0.014035 -233176.000000 0 0 1
-33.585871 34.238051 -4.172529 48.142132 -0.795014 1.657576 -0.006786 0.011411 880699.000000 0 0 1
-32.422171 33.673351 -3.463729 46.873118 -0.804326 1.644760 -0.004678 0.016814 1110420.000000 0 0 1
-31.772471 32.783151 -4.329829 45.858176 -0.801053 1.665355 -0.000914 0.015845 -169662.000000 0 0 1
-30.599571 31.975951 -3.743929 44.416351 -0.807390 1.655188 0.002459 0.008901 -319244.000000 0 0 1
-29.345071 32.640751 -3.732629 44.050929 -0.838516 1.655632 0.003550 -0.002248 471079.000000 0 0 1
-28.261771 31.713351 -3.619729 42.632931 -0.842885 1.655803 0.018653 -0.005069 474205.000000 0 0 1
-27.886671 31.339351 -2.191729 42.007440 -0.843629 1.622995 0.013175 -0.008957 -606766.000000 0 0 1
-28.837671 30.502151 -1.572529 42.005540 -0.813441 1.608241 0.022484 -0.005776 -31611.000000 0 0 1
-28.660671 30.427251 -0.155829 41.800430 -0.815287 1.574524 0.015243 -0.001008 1010670.000000 0 0 1
-30.057471 30.061051 0.519271 42.513386 -0.785458 1.558582 0.010436 0.004107 946101.000000 0 0 1
-30.501771 28.788751 0.129371 41.942424 -0.756514 1.567712 0.005477 0.003465 -286148.000000 0 0 1
-31.743471 28.912851 -0.510829 42.940213 -0.738765 1.582693 0.006488 0.003008 -305255.000000 0 0 1
-32.088971 27.515551 -1.100129 42.284961 -0.708819 1.596816 0.011715 0.007087 -135710.000000 0 0 1
-32.086471 26.449051 -0.132529 41.582586 -0.689387 1.573983 0.007688 0.006407 -73729.200000 0 0 1
-32.617271 25.313851 -0.729529 41.294184 -0.659989 1.588464 0.021021 0.011951 -537444.000000 0 0 1
-32.744271 24.181151 0.290971 40.706265 -0.636091 1.563648 0.012271 0.015119 -122165.000000 0 0 1
-31.582871 23.589751 0.854671 39.429489 -0.641524 1.549119 0.014138 0.006428 177954.000000 0 0 1
-31.047171 24.418651 1.876771 39.543895 -0.666456 1.523318 0.008358 0.001486 -728668.000000 0 0 1
-29.568371 24.064151 2.269771 38.190625 -0.683128 1.511329 0.002079 -0.006813 381598.000000 0 0 1
-28.670671 24.834251 1.509771 37.960859 -0.713818 1.531014 0.009302 -0.011122 -302892.000000 0 0 1
-28.547571 26.233151 1.895171 38.816668 -0.743174 1.521953 0.001225 -0.008097 -810328.000000 0 0 1
-27.824071 27.014151 0.808671 38.789138 -0.770630 1.549947 0.000256 -0.008286 -929106.000000 0 0 1
-26.576571 26.591651 0.429771 37.598068 -0.785682 1.559365 0.012337 -0.015168 -1249640.000000 0 0 1
-26.034471 27.458551 -0.520929 37.842266 -0.812014 1.584563 0.018593 -0.015767 405488.000000 0 0 1
-24.797671 26.905451 -1.299529 36.613066 -0.826143 1.606297 0.023793 -0.010585 -13321.300000 0 0 1
-25.075571 25.934251 -2.256829 36.145026 -0.802230 1.633275 0.025032 -0.014198 -484460.000000 0 0 1
-23.919871 25.448951 -2.890529 35.045178 -0.816361 1.653370 0.015826 -0.011745 -409828.000000 0 0 1
-23.072071 24.451151 -2.093729 33.683274 -0.814409 1.632996 0.007721 -0.010316 -544858.000000 0 0 1
-23.694771 23.232351 -1.758329 33.230649 -0.775544 1.623734 0.004987 -0.012750 -30282.600000 0 0 1
-22.841071 22.459651 -0.879729 32.045661 -0.776979 1.598252 -0.008876 -0.024746 -538788.000000 0 0 1
-23.323171 21.048851 -0.376329 31.419199 -0.734187 1.582774 -0.012275 -0.018172 -755429.000000 0 0 1
-24.267171 21.014151 0.689371 32.108650 -0.713681 1.549325 -0.013412 -0.020596 1315350.000000 0 0 1
-25.630371 21.432151 0.466471 33.413629 -0.696429 1.556835 -0.017647 -0.016851 768427.000000 0 0 1
-26.375671 20.951051 -0.768829 33.692932 -0.671276 1.593617 -0.025774 -0.015321 -1401040.000000 0 0 1
-26.638271 19.583351 -0.637829 33.068292 -0.633935 1.590086 -0.031738 -0.006906 132829.000000 0 0 1
-27.329371 18.969651 -1.708029 33.311553 -0.606764 1.622093 -0.007520 0.006178 9181.510000 0 0 1
-27.278071 17.418751 -1.747629 32.412347 -0.568293 1.624741 -0.035755 0.013856 -81230.300000 0 0 1
-28.138271 16.841151 -0.783729 32.802453 -0.539326 1.594691 -0.013813 0.008043 405778.000000 0 0 1
-28.264171 15.440951 -0.781029 32.216399 -0.500004 1.595042 -0.011156 0.000748 1077630.000000 0 0 1
-27.013971 14.682751 -0.106429 30.746531 -0.497858 1.574258 -0.018465 0.002035 421315.000000 0 0 1
-26.871571 14.850351 1.288571 30.729053 -0.504869 1.528851 0.002453 0.006566 14073.700000 0 0 1
-25.708171 14.277351 1.839071 29.464131 -0.506951 1.508338 -0.020134 0.006722 -133313.000000 0 0 1
-25.491471 12.758651 1.694571 28.556433 -0.464053 1.511420 -0.029788 0.015563 -540056.000000 0 0 1
-25.240771 12.257451 0.414371 28.062668 -0.452078 1.556030 -0.039043 0.015368 248104.000000 0 0 1
-25.140871 10.870351 0.537671 27.395566 -0.408103 1.551169 -0.026394 0.017198 -332619.000000 0 0 1
-25.241171 10.033351 -0.772029 27.173165 -0.378349 1.599212 -0.013385 0.007973 833743.000000 0 0 1
-26.549771 9.920851 -1.378029 28.376268 -0.357604 1.619378 -0.016794 -0.009372 1081170.000000 0 0 1
-26.452571 9.022251 -2.516129 28.061904 -0.328700 1.660580 -0.011184 -0.010105 172062.000000 0 0 1
-27.857971 8.748751 -3.096429 29.363158 -0.304295 1.676446 -0.004238 -0.016906 -223469.000000 0 0 1
-27.801971 7.972251 -4.262329 29.234805 -0.279258 1.717114 -0.000432 -0.008008 -863015.000000 0 0 1
-28.979471 7.871651 -4.950329 30.434822 -0.265229 1.734176 -0.006591 -0.013175 -1222210.000000 0 0 1
-10.782625 18.345451 -20.077929 29.256518 -1.039429 2.327147 0.030049 0.007386 101508.000000 0 0 1
-11.176925 17.493251 -21.097529 29.598027 -1.002244 2.364281 0.028216 0.002452 -289871.000000 0 0 1
-10.168025 17.293051 -22.054129 29.813134 -1.039259 2.403488 0.021150 -0.008205 -289172.000000 0 0 1
-10.293525 16.063751 -23.032629 29.908239 -1.000921 2.449810 0.015422 -0.004582 -148235.000000 0 0 1
-9.936425 14.807851 -22.504129 28.713078 -0.979783 2.471492 0.020159 -0.005979 -45238.400000 0 0 1
-10.017625 13.779751 -23.432629 28.971062 -0.942190 2.512954 0.013336 -0.006536 -219659.000000 0 0 1
-9.236825 12.523751 -23.070529 27.828270 -0.935314 2.548171 0.014529 0.001296 -1176130.000000 0 0 1
-7.861725 12.617351 -23.079829 27.453284 -1.013573 2.569361 0.003743 0.001098 -986540.000000 0 0 1
-7.254725 11.519451 -22.355129 26.174044 -1.008767 2.594605 -0.007728 -0.001243 -172993.000000 0 0 1
-5.743925 11.707551 -22.469029 25.979159 -1.114683 2.615721 -0.015999 0.004463 -379666.000000 0 0 1
-5.167425 11.325751 -23.737029 26.803385 -1.142753 2.658577 -0.016615 -0.001922 35666.000000 0 0 1
-3.757225 11.355951 -23.650029 26.502797 -1.251274 2.673343 -0.011479 0.003313 -4654.760000 0 0 1
-3.007725 10.814251 -24.869429 27.285215 -1.299526 2.717620 0.004233 -0.000893 -361510.000000 0 0 1
-3.102125 9.437051 -25.009129 26.909806 -1.253206 2.763495 0.002929 -0.000148 28481.000000 0 0 1
-2.740425 9.013451 -26.332039 27.966560 -1.275640 2.798012 0.007598 -0.000788 -125701.000000 0 0 1
-2.387725 7.475651 -26.371419 27.514329 -1.261637 2.852354 0.018717 0.008286 296682.000000 0 0 1
-1.129125 7.169051 -25.780219 26.782268 -1.414580 2.867183 0.022170 0.000264 271569.000000 0 0 1
-1.007725 5.751451 -25.644999 26.301343 -1.397345 2.917721 0.016263 0.005337 -204370.000000 0 0 1
0.340175 5.356051 -25.018429 25.587590 1.507369 2.930280 0.002478 0.009678 -202709.000000 0 0 1
0.468775 5.842451 -23.715229 24.428796 1.490732 2.899298 -0.004434 -0.006612 -666736.000000 0 1 0
1.596375 5.346451 -23.077229 23.742187 1.280637 2.904362 0.007695 -0.003938 -529323.000000 0 1 0
1.895575 6.048951 -21.775729 22.679625 1.267117 2.858317 0.014387 -0.001748 102311.000000 0 1 0
2.336675 7.366251 -21.897529 23.221186 1.263623 2.802323 0.003829 -0.000543 -177416.000000 0 1 0
2.208175 8.028151 -20.625129 22.242374 1.302380 2.757903 0.014608 -0.004857 4033.450000 0 1 0
2.687575 9.469651 -20.665129 22.889843 1.294259 2.697051 0.002193 -0.006543 -362982.000000 0 1 0
2.290675 10.267751 -19.611129 22.254669 1.351297 2.649221 0.006130 -0.008807 -63572.200000 0 1 0
2.863475 11.598351 -19.679329 23.021669 1.328750 2.595996 -0.002103 0.004408 785366.000000 0 1 0
4.184575 11.662051 -18.819429 22.531866 1.226286 2.559358 0.006189 -0.005276 315079.000000 0 1 0
5.273875 11.019051 -19.412429 22.936339 1.124403 2.579912 0.012772 -0.001116 -966520.000000 0 1 0
6.311375 10.915851 -18.469329 22.363036 1.046572 2.542569 0.018013 0.001967 -11344.900000 0 1 0
7.460975 9.988251 -18.948829 22.682359 0.929234 2.559655 0.023098 -0.002238 -105282.000000 0 1 0
7.235775 8.592151 -19.052329 22.117250 0.870884 2.608863 0.016275 -0.005613 -236445.000000 0 1 0
6.662075 8.352751 -20.319629 22.957330 0.897526 2.657514 0.021122 0.001009 -46392.500000 0 1 0
6.135775 6.909751 -20.453429 22.444045 0.844658 2.717245 0.016893 -0.000321 537965.000000 0 1 0
7.164975 5.902651 -20.410729 22.422667 0.689098 2.714737 0.016397 -0.002967 426444.000000 0 1 0
6.581875 4.619551 -20.635229 22.146647 0.611973 2.770011 0.009158 -0.003154 276927.000000 0 1 0
6.924575 4.072451 -22.069229 23.485856 0.531635 2.792495 0.009445 -0.013116 -62556.600000 0 1 0
6.180475 4.824351 -22.994029 24.293991 0.662786 2.812978 0.013669 -0.004891 -151982.000000 0 1 0
6.572775 4.475751 -24.312229 25.579644 0.597828 2.825484 0.002604 0.001764 -289382.000000 0 0 1
5.569775 4.912051 -25.414669 26.477463 0.722731 2.857301 -0.003232 -0.009004 -125566.000000 0 0 1
5.354275 6.312851 -25.476619 26.787655 0.867375 2.827439 -0.013357 -0.002955 292581.000000 0 0 1
4.917075 7.031951 -24.277629 25.749354 0.960576 2.801861 0.006968 -0.006515 -992389.000000 0 0 1
4.952375 8.606051 -24.502829 26.438206 1.048622 2.756587 0.009432 0.001172 485415.000000 0 0 1
3.826175 9.169451 -25.162209 27.052822 1.175488 2.765519 0.012713 0.002360 1378310.000000 0 0 1
2.558175 9.162951 -24.455329 26.240561 1.298542 2.770597 0.012616 0.001637 727064.000000 0 0 1
1.372275 9.767851 -25.206459 27.067686 1.431221 2.768592 0.024027 0.003050 -249936.000000 0 0 1
1.331275 11.135351 -25.456199 27.817016 1.451807 2.726628 0.018866 0.003542 457442.000000 0 0 1
0.262475 11.416751 -26.374809 28.740940 1.547810 2.732982 0.024791 -0.001908 108590.000000 0 0 1
0.155075 12.883451 -26.892499 29.819689 1.558760 2.694799 0.009587 0.000771 -461997.000000 0 0 1
-0.155825 13.844651 -25.912659 29.379662 -1.559542 2.650871 0.004281 0.004930 -26978.000000 0 0 1
-0.370125 15.130551 -26.456509 30.479787 -1.546339 2.621960 -0.000471 -0.002352 -82035.500000 0 0 1
-0.609025 16.132951 -25.327009 30.034986 -1.533064 2.574098 0.000521 -0.006111 -579093.000000 0 0 1
-1.765725 15.766151 -24.654329 29.317661 -1.459266 2.569810 -0.006540 0.006586 -812763.000000 0 0 1
-1.847125 16.252151 -23.347529 28.507041 -1.457628 2.530478 -0.006612 0.004278 447477.000000 0 0 1
-3.097125 15.640251 -22.602329 27.659988 -1.375303 2.527244 -0.017935 -0.001007 1758590.000000 0 0 1
-4.450925 15.905951 -22.997629 28.314324 -1.297947 2.518754 -0.020694 -0.001179 576583.000000 0 0 1
-4.808425 15.263851 -24.214829 29.025231 -1.265617 2.557601 -0.012379 -0.001935 -1150680.000000 0 0 1
-6.306825 15.404751 -24.436829 29.567567 -1.182206 2.543612 -0.015688 0.002991 -609383.000000 0 0 1
-6.660725 16.693351 -24.873229 30.687306 -1.191148 2.515866 -0.007558 0.004383 -447165.000000 0 0 1
-7.755725 16.509051 -25.725729 31.535903 -1.131611 2.524838 0.008404 -0.000334 -433622.000000 0 0 1
-8.488325 17.803551 -26.108789 32.721353 -1.125899 2.494621 0.003757 0.001045 -57970.000000 0 0 1
-9.221925 18.379651 -25.048329 32.407935 -1.105753 2.454207 0.009433 -0.002858 -469778.000000 0 0 1
-10.347025 19.072051 -25.489479 33.474133 -1.073712 2.436371 0.010536 -0.000305 -813.219000 0 0 1
-11.042225 19.919851 -24.411329 33.386288 -1.064633 2.390844 0.020971 -0.008002 189371.000000 0 0 1
-10.155425 20.940851 -23.965229 33.406348 -1.119255 2.370838 0.008065 -0.016792 423959.000000 0 0 1
-10.696325 22.248551 -24.215429 34.580289 -1.122655 2.346567 -0.000328 -0.018615 17756.200000 0 0 1
-10.244025 22.890051 -25.575479 35.818984 -1.149997 2.366020 -0.007417 -0.009402 -326581.000000 0 0 1
-10.742225 22.277151 -26.776699 36.450768 -1.121483 2.395872 -0.012708 -0.013196 106836.000000 0 0 1
-10.437025 23.018451 -27.911839 37.654367 -1.145102 2.405748 -0.006455 0.003830 -492406.000000 0 0 1
-11.048825 22.304451 -29.173859 38.349435 -1.110864 2.435245 -0.007311 0.010703 -71528.700000 0 0 1
-10.283625 21.253351 -29.776329 38.001153 -1.120145 2.471178 -0.025270 0.012905 117585.000000 0 0 1
-10.213625 20.020651 -29.080179 36.753251 -1.099058 2.483610 -0.020730 0.009248 -859296.000000 0 0 1
-9.317625 19.019151 -29.684919 36.465609 -1.115255 2.521892 -0.027951 0.009028 -888214.000000 0 0 1
-8.027625 19.600451 -29.963059 36.693397 -1.182073 2.526256 -0.027550 0.009600 861182.000000 0 0 1
-7.138825 18.711351 -30.643609 36.607489 -1.206318 2.562731 -0.032349 0.016138 349132.000000 0 0 1
-6.704025 17.372851 -29.943239 35.261274 -1.202512 2.585231 -0.021578 0.003613 -1013800.000000 0 0 1
-7.757825 16.422951 -29.943849 35.021868 -1.129490 2.596355 -0.029641 0.000944 156974.000000 0 0 1
-7.526125 15.258851 -29.155729 33.756949 -1.112579 2.613353 -0.026220 0.002641 -441297.000000 0 0 1
-8.729225 14.308651 -28.992849 33.489135 -1.023008 2.617421 -0.012355 0.004436 -608426.000000 0 0 1
-9.483125 14.676051 -27.897599 32.917961 -0.997123 2.582032 -0.003033 -0.001694 -250895.000000 0 0 1
-10.657825 13.868751 -27.856689 32.892653 -0.915574 2.580919 0.030428 -0.008956 189109.000000 0 0 1
-11.683525 14.318451 -26.815959 32.567138 -0.886389 2.538183 0.014649 -0.007180 -49930.500000 0 0 1
-12.279825 15.602351 -27.082179 33.580826 -0.904002 2.508966 0.006767 -0.006547 -440363.000000 0 0 1
-13.301125 15.885651 -26.169619 33.378478 -0.873719 2.471923 0.003213 -0.011055 -423973.000000 0 0 1
-14.161125 17.023851 -26.725459 34.707335 -0.876940 2.449674 -0.001763 -0.013682 -315861.000000 0 0 1
-13.534525 18.303251 -26.818589 35.177110 -0.934075 2.437791 -0.006517 -0.013184 14971.300000 0 0 1
-14.424725 19.264451 -27.305089 36.397248 -0.928080 2.419156 -0.006867 -0.012770 -488879.000000 0 0 1
-13.891325 20.699451 -27.147109 36.856502 -0.979733 2.398770 -0.004311 -0.010956 -438846.000000 0 0 1
-14.748025 21.689451 -27.602439 38.076649 -0.973645 2.381711 -0.012604 -0.010952 -161488.000000 0 0 1
-14.178325 22.998651 -27.601769 38.624092 -1.018344 2.366885 -0.011214 -0.012602 -422065.000000 0 0 1
-13.823125 23.625351 -26.247739 37.923341 -1.041407 2.335227 -0.024336 -0.014349 -303465.000000 0 0 1
-13.357825 24.942251 -26.524009 38.782347 -1.079115 2.323918 -0.012939 -0.018358 31179.200000 0 0 1
-12.948225 25.625151 -25.335909 38.291163 -1.102923 2.293833 -0.005968 -0.022846 -288864.000000 0 0 1
-12.457725 27.030151 -25.778319 39.374430 -1.138929 2.284578 0.002500 -0.022849 -304598.000000 0 0 1
-13.498925 27.882951 -26.208699 40.578022 -1.119927 2.272977 -0.000935 -0.021194 -345129.000000 0 0 1
-14.076525 28.593351 -25.156379 40.602607 -1.113327 2.238998 0.000985 -0.022339 89790.400000 0 0 1
-15.415925 29.284751 -25.556589 41.813714 -1.086241 2.228374 -0.002937 -0.018409 869511.000000 0 0 1
-16.451525 28.326051 -25.755559 41.669733 -1.044621 2.237104 -0.002580 -0.012442 711315.000000 0 0 1
-17.773925 28.864751 -25.907109 42.664559 -1.018865 2.223363 -0.002413 -0.009694 733690.000000 0 0 1
-18.921625 27.871251 -25.840109 42.456399 -0.974376 2.225125 -0.001606 -0.004252 -271351.000000 0 0 1
-19.228625 27.624551 -24.465929 41.610546 -0.962713 2.199348 0.001021 -0.006515 148952.000000 0 0 1
-20.352925 26.773751 -24.277029 41.478301 -0.920810 2.196040 0.007831 -0.010728 247309.000000 0 0 1
-20.891325 26.826151 -22.788329 40.931624 -0.909137 2.161254 0.009951 -0.007914 86618.900000 0 0 1
-21.843725 27.846451 -22.564729 41.973089 -0.905619 2.138384 0.006989 -0.003976 -127141.000000 0 0 1
-22.107025 28.142251 -21.182629 41.586183 -0.904931 2.105245 0.004360 -0.003327 110643.000000 0 0 1
-23.409325 28.970651 -21.094129 42.804876 -0.891175 2.086098 0.001496 -0.002290 -325021.000000 0 0 1
-24.594325 28.257951 -21.219429 43.054115 -0.854606 2.086164 -0.000557 -0.007758 -322549.000000 0 0 1
-25.749365 29.089851 -21.074029 44.196877 -0.846237 2.067832 0.000218 -0.003265 728437.000000 0 0 1
-27.002925 28.272651 -21.518529 44.626762 -0.808365 2.073948 -0.006843 -0.004753 -55774.300000 0 0 1
-26.965365 27.785151 -22.838029 44.952432 -0.800370 2.103714 -0.004022 -0.003111 -285178.000000 0 0 1
-28.240705 27.260751 -23.096329 45.542578 -0.767744 2.102656 -0.013515 0.005915 -251403.000000 0 0 1
-28.416265 26.919151 -24.608629 46.235370 -0.758350 2.132049 -0.013053 0.014084 -32589.700000 0 0 1
-27.959955 25.632251 -24.960529 45.407041 -0.741992 2.152809 0.003042 0.008312 -251070.000000 0 0 1
-28.073185 25.465551 -26.377379 46.177529 -0.736731 2.178784 0.015469 0.010891 -224279.000000 0 0 1
-28.198255 23.982151 -26.927129 45.775053 -0.704775 2.199688 0.013369 0.006400 -269175.000000 0 0 1
-27.193275 23.036651 -26.575629 44.457008 -0.702834 2.211529 0.017774 -0.001191 -53912.300000 0 0 1
-27.586085 21.758551 -26.828179 44.206084 -0.667844 2.222937 0.016039 -0.009369 -1217450.000000 0 0 1
-26.457755 20.786551 -26.874379 43.061883 -0.665930 2.244759 0.028035 -0.015263 -1009310.000000 0 0 1
-26.012885 20.393851 -25.623299 41.822635 -0.664902 2.230226 0.036999 -0.015093 -26669.500000 0 0 1
-25.467345 19.066351 -25.645719 40.863362 -0.642642 2.249259 0.032219 -0.014809 -457188.000000 0 0 1
-26.422425 17.877951 -25.616299 40.914062 -0.594862 2.247338 0.037973 -0.016087 -177441.000000 0 0 1
-27.229875 17.820451 -26.804239 42.160430 -0.579494 2.259799 0.035980 -0.011209 546152.000000 0 0 1
-27.971925 16.584751 -26.817119 42.150213 -0.535188 2.260395 0.020349 -0.015533 175429.000000 0 0 1
-28.773695 16.190951 -28.091739 43.349951 -0.512541 2.275781 -0.001940 -0.008485 -89107.400000 0 0 1
-29.906615 16.999051 -28.262039 44.520964 -0.516863 2.258550 -0.006546 -0.006959 406688.000000 0 0 1
-30.782325 16.353651 -29.246129 45.500874 -0.488348 2.268892 -0.001706 0.000068 235659.000000 0 0 1
-32.056315 17.058651 -29.685419 46.902335 -0.489033 2.256115 0.006175 -0.002089 -1160670.000000 0 0 1
-33.100435 16.878551 -28.810249 47.016537 -0.471552 2.230355 -0.009532 0.002553 -1011370.000000 0 0 1
-34.286859 17.032051 -29.543379 48.357944 -0.461045 2.228033 -0.014573 0.002969 -593895.000000 0 0 1
34.107995 16.708451 -28.762039 47.642235 0.455510 2.218942 -0.001240 0.013970 -407716.000000 0 0 1
33.932146 17.566951 -27.696969 47.192271 0.477714 2.198016 -0.019643 0.013396 -117889.000000 0 0 1
32.745880 17.280351 -27.005299 45.827823 0.485570 2.200960 -0.025242 0.013150 -81143.300000 0 0 1
32.220410 18.272251 -25.914649 45.206183 0.515878 2.181269 -0.028478 0.019854 13295.600000 0 0 1
31.623570 19.413451 -26.464219 45.577266 0.550572 2.190317 -0.021829 0.022081 58753.000000 0 0 1
31.222790 20.385151 -25.466619 45.154908 0.578407 2.169998 -0.012233 0.018671 -708629.000000 0 0 1
30.551680 21.584851 -26.213789 45.677934 0.615077 2.182036 -0.004739 0.019608 548748.000000 0 0 1
29.235200 21.308151 -26.658639 44.937927 0.629829 2.205865 -0.005592 0.015084 58046.800000 0 0 1
28.210630 21.396051 -25.696799 43.748784 0.648880 2.198604 -0.017062 0.017704 456561.000000 0 0 1
26.789590 20.966751 -26.228069 42.955773 0.664069 2.227593 -0.003792 0.017628 784059.000000 0 0 1
26.759190 19.685351 -26.705159 42.623149 0.634253 2.247904 -0.015291 0.013644 230045.000000 0 0 1
25.470020 19.333651 -27.195989 41.977778 0.649284 2.275576 -0.018398 0.005153 -89153.300000 0 0 1
25.160000 17.816651 -27.240649 41.140146 0.616164 2.294471 -0.017889 -0.009015 -36165.800000 0 0 1
26.130080 17.053751 -27.962179 41.898627 0.578235 2.301477 -0.020850 -0.011188 75857.800000 0 0 1
27.101080 16.545651 -27.082379 41.733468 0.548116 2.276982 -0.017762 0.001121 -469815.000000 0 0 1
28.219670 15.802351 -27.825039 42.664937 0.510470 2.281247 -0.022446 0.013355 -303453.000000 0 0 1
27.849700 14.564151 -28.500029 42.426076 0.481843 2.307375 -0.017210 0.013880 215568.000000 0 0 1
27.179970 13.479951 -27.815399 41.160130 0.460404 2.312826 -0.015492 0.003587 -7193.550000 0 0 1
27.953720 12.710051 -26.724329 40.708054 0.426741 2.286949 -0.015998 -0.002037 -261107.000000 0 0 1
28.376710 13.484851 -25.610869 40.533881 0.443618 2.254719 -0.015956 0.005659 42331.600000 0 0 1
28.907720 12.711551 -24.559129 40.004883 0.414279 2.231792 -0.009529 0.001550 -345870.000000 0 0 1
-14.132525 -31.657717 -25.539799 43.060662 1.150926 2.205715 0.004402 0.017202 -48409.800000 0 0 1
-13.191625 -30.626917 -25.821749 42.175701 1.164091 2.229690 0.004107 0.017909 357475.000000 0 0 1
-13.552825 -29.995417 -27.057069 42.608557 1.146422 2.258824 0.004131 0.019215 -199157.000000 0 0 1
-12.878925 -28.647117 -27.372219 41.662482 1.148299 2.287628 0.017085 0.012534 -507586.000000 0 0 1
-13.322925 -27.560517 -26.552119 40.522802 1.120512 2.285295 0.019486 0.004599 -141903.000000 0 0 1
-12.695825 -26.369017 -26.851949 39.718210 1.122084 2.313201 0.005862 -0.000328 -457510.000000 0 0 1
-13.129625 -25.063517 -26.128259 38.513022 1.088248 2.316415 -0.007582 -0.006552 -516706.000000 0 0 1
-12.479025 -24.891917 -24.886929 37.345587 1.106087 2.300160 0.001167 -0.004824 244433.000000 0 0 1
-12.841025 -23.681217 -24.361429 36.320396 1.073926 2.305998 0.009328 -0.007242 -289382.000000 0 0 1
-12.139625 -23.404217 -23.031529 35.008273 1.092306 2.288808 0.014350 -0.008802 -381382.000000 0 0 1
-10.794425 -23.040017 -23.169529 34.412048 1.132658 2.309455 0.010088 -0.008414 -89830.900000 0 0 1
-10.293125 -22.413417 -21.946929 33.014805 1.140285 2.297969 0.017183 -0.003145 -357872.000000 0 0 1
-8.877325 -21.875417 -21.936529 32.226574 1.185289 2.319510 0.006627 0.005289 -608388.000000 0 0 1
-8.738025 -20.671617 -22.652429 31.887323 1.170870 2.360848 0.003828 -0.001332 171554.000000 0 0 1
-7.357825 -20.386517 -22.791529 31.451573 1.224430 2.381329 0.001171 0.002010 154197.000000 0 0 1
-7.157125 -19.229517 -23.758029 31.391762 1.214487 2.429236 0.003477 0.005976 -36674.500000 0 0 1
-7.721725 -18.011317 -23.286429 30.435019 1.165783 2.442023 0.002172 0.010286 -61311.500000 0 0 1
-7.940325 -16.955217 -24.174429 30.576644 1.132819 2.482613 -0.000647 0.011314 96352.900000 0 0 1
-6.745125 -16.465417 -25.050029 30.726383 1.181995 2.523976 -0.004069 0.005477 133387.000000 0 0 1
-6.343625 -17.356617 -26.113479 31.990741 1.220391 2.525742 -0.002063 0.007824 -796865.000000 0 0 1
-5.365625 -16.755217 -26.846949 32.098067 1.260879 2.561485 -0.008878 0.003382 -763769.000000 0 0 1
-4.943225 -17.536617 -28.155759 33.536773 1.296045 2.567249 -0.002096 0.009358 68234.600000 0 0 1
-5.889325 -17.325817 -29.185449 34.447910 1.243133 2.581553 0.023935 0.003997 234104.000000 0 0 1
-5.429525 -17.982517 -30.344679 35.688236 1.277567 2.587297 0.017270 -0.001373 -299754.000000 0 0 1
-6.360625 -17.800917 -31.575719 36.801579 1.227615 2.602158 0.024109 -0.000251 241300.000000 0 0 1
-6.107625 -16.561117 -32.306459 36.814141 1.217478 2.641537 0.025732 -0.003270 648.684000 0 0 1
-6.273625 -15.381217 -31.504119 35.615302 1.183519 2.656361 0.028658 0.001997 -65192.400000 0 0 1
-6.850825 -14.205217 -32.372679 36.009892 1.121429 2.688264 0.020223 0.001319 71017.100000 0 0 1
-5.971725 -13.911217 -33.445329 36.712035 1.165311 2.716543 0.013654 -0.004502 -201189.000000 0 0 1
-6.612025 -13.329217 -34.534236 37.603196 1.110310 2.734777 0.010080 -0.004127 -345671.000000 0 0 1
-7.149925 -11.869117 -34.375859 37.063419 1.028616 2.758432 0.004488 -0.001014 105645.000000 0 0 1
-6.215625 -10.806117 -34.287579 36.483479 1.048815 2.792873 -0.006434 -0.002534 -157442.000000 0 0 1
-5.702725 -10.390217 33.768233 35.787864 1.068832 0.337557 -0.015249 -0.002320 378222.000000 0 0 1
-4.721725 -9.176817 33.957154 35.490801 1.095594 0.295050 -0.008255 -0.000148 319971.000000 0 0 1
-4.590725 -8.593517 32.685024 34.106218 1.080158 0.289697 -0.005095 0.000326 181493.000000 0 0 1
-3.558725 -7.614817 32.625444 33.690793 1.133615 0.252149 -0.012052 -0.010014 -380137.000000 0 0 1
-3.509525 -6.722317 31.370184 32.273747 1.089648 0.237185 -0.003340 -0.002370 -357576.000000 0 0 1
-4.549325 -5.806917 31.199334 32.059555 0.906240 0.232176 0.009636 -0.000231 484793.000000 0 0 1
-5.786025 -6.396117 30.731174 31.918544 0.835437 0.273616 -0.000451 0.003512 107376.000000 0 0 1
-6.945825 -5.414317 30.562704 31.806260 0.662120 0.280554 -0.003591 0.003178 539369.000000 0 0 1
-8.064825 -6.171017 30.042844 31.712700 0.653144 0.325958 0.000476 0.007478 -296452.000000 0 0 1
-9.217925 -5.416217 29.921194 31.773942 0.531233 0.343179 -0.002339 0.000597 -504202.000000 0 0 1
-10.384425 -6.050917 29.198254 31.575116 0.527595 0.390488 0.002643 0.000165 -36514.000000 0 0 1
-9.895625 -6.111717 27.867864 30.197588 0.553273 0.395379 0.001609 0.002353 790828.000000 0 0 1
-10.897325 -6.717817 27.072774 29.946884 0.552438 0.441700 0.006009 -0.002043 260784.000000 0 0 1
-10.536225 -6.575217 25.545634 28.404664 0.557922 0.452524 -0.001915 -0.001131 395392.000000 0 0 1
-9.501625 -7.382217 24.980114 27.726956 0.660523 0.448883 0.000408 0.004782 195010.000000 0 0 1
-9.233325 -7.101117 23.605784 26.323244 0.655598 0.458391 -0.002262 -0.000696 393467.000000 0 0 1
-10.381325 -7.177717 22.512384 25.808893 0.604935 0.510966 0.001333 -0.001430 677197.000000 0 0 1
-11.471825 -6.305817 22.692684 26.197786 0.502596 0.523237 0.001459 0.001590 -95988.100000 0 0 1
-12.338125 -6.282717 21.571684 25.632780 0.470990 0.570620 0.006246 0.000212 -614763.000000 0 0 1
-13.190225 -5.090817 21.512584 25.742761 0.368339 0.581436 -0.001375 0.008722 -721991.000000 0 0 1
-12.622825 -3.906217 20.983984 24.797617 0.300110 0.561965 -0.009678 0.009245 17652.700000 0 1 0
-13.601825 -2.900217 20.731684 24.964447 0.210077 0.590884 -0.013489 0.003223 504353.000000 0 1 0
-12.882625 -1.661217 20.132884 23.959438 0.128243 0.572978 -0.031784 0.005837 -10054.700000 0 1 0
-12.326725 -0.829217 21.108884 24.458551 0.067169 0.529525 -0.012996 0.003629 -225734.000000 0 1 0
-12.597625 0.592783 20.959284 24.461053 -0.047020 0.541681 -0.008202 -0.003637 -166340.000000 0 1 0
-12.115725 1.304783 19.644484 23.117072 -0.107280 0.555224 -0.000886 -0.009596 373550.000000 0 1 0
-12.916025 0.968783 18.487784 22.573445 -0.074866 0.611120 0.004860 -0.007820 -122616.000000 0 1 0
-14.122225 1.699783 18.454484 23.300096 -0.119786 0.656662 0.004536 -0.008962 -266905.000000 0 1 0
-15.145825 0.891783 17.626484 23.256918 -0.058812 0.710704 0.016668 -0.004636 -321624.000000 0 1 0
-15.637025 -0.256217 18.255784 24.038633 0.016384 0.708352 0.003941 0.001710 278828.000000 0 1 0
-16.645625 -0.884217 17.496284 24.165650 0.053070 0.761192 0.008328 0.006378 -62897.000000 0 1 0
-16.592425 -2.407217 17.674584 24.361736 0.144074 0.759027 0.003110 0.010904 -149842.000000 0 1 0
-17.026125 -2.840217 18.965584 25.644671 0.165293 0.738391 -0.004959 0.013629 74122.000000 0 0 1
-16.835225 -4.256217 19.144684 25.846840 0.247627 0.736689 -0.004223 0.015378 -316108.000000 0 0 1
-17.493425 -4.734717 20.456884 27.329866 0.264324 0.724973 -0.007618 0.015634 -345064.000000 0 0 1
-16.901525 -4.386217 21.660484 27.822240 0.253915 0.678474 -0.004756 0.011493 -211324.000000 0 0 1
-17.748725 -4.515217 22.781284 29.229973 0.249112 0.677119 -0.000191 0.006234 -277830.000000 0 0 1
-18.217325 -5.924517 23.263184 30.135470 0.314425 0.688888 0.002199 0.004632 -23696.300000 0 0 1
-17.327325 -6.766517 24.019584 30.380296 0.372300 0.658959 0.019035 -0.006867 538030.000000 0 0 1
-16.320125 -7.297617 23.140184 29.241577 0.420485 0.657790 0.006385 -0.000854 -282970.000000 0 0 1
-15.108025 -7.842317 23.899384 29.341693 0.478797 0.618896 0.007190 -0.002327 -328227.000000 0 0 1
-15.365325 -9.005117 24.587044 30.359646 0.530112 0.626884 0.010799 -0.010433 -35597.400000 0 0 1
-14.438125 -9.108717 25.643284 30.805944 0.562816 0.587348 0.020623 -0.007748 176409.000000 0 0 1
-14.771825 -10.224817 26.661204 32.149238 0.605461 0.592951 0.025898 -0.008746 -101520.000000 0 0 1
-14.521025 -11.509117 26.229034 32.113582 0.670202 0.615026 0.020162 -0.009691 -222178.000000 0 0 1
-13.970725 -12.373417 27.197944 32.985008 0.724840 0.601382 0.036735 -0.004865 -300922.000000 0 0 1
-14.097625 -13.885417 26.876484 33.375039 0.777815 0.634637 0.015582 -0.003111 -354980.000000 0 0 1
-15.267925 -14.424017 27.450754 34.564515 0.756984 0.653125 0.006440 0.000212 -334.460000 0 0 1
-15.406025 -15.835017 27.352664 35.160512 0.799129 0.679420 0.009535 0.005551 211874.000000 0 0 1
-14.486425 -16.733517 28.258584 35.894494 0.857250 0.664431 0.007032 0.003135 391664.000000 0 0 1
-13.115025 -16.617717 27.967154 35.075834 0.902664 0.647931 0.009351 0.002250 85871.800000 0 0 1
-12.267625 -17.574017 28.589624 35.731041 0.961377 0.643278 0.012277 0.000666 45584.400000 0 0 1
-10.914025 -17.714317 27.856004 34.768807 1.018613 0.641535 0.007225 -0.004859 -438787.000000 0 0 1
-10.182225 -18.676417 28.544514 35.598814 1.071652 0.640430 0.007368 -0.011222 292390.000000 0 0 1
-9.131525 -19.209017 27.697204 34.921429 1.127040 0.654867 0.003386 -0.008601 809275.000000 0 0 1
-7.989425 -19.875917 28.530184 35.677085 1.188597 0.644037 0.005703 -0.003903 83769.000000 0 0 1
-8.390225 -21.146917 29.035354 36.886851 1.193087 0.664628 0.003897 0.001099 385474.000000 0 0 1
-7.408425 -21.612817 29.954224 37.672990 1.240569 0.651605 0.016518 -0.002905 306147.000000 0 0 1
-7.799925 -22.965617 30.637364 39.075651 1.243385 0.669628 0.010658 0.000812 66045.400000 0 0 1
-7.957925 -24.066217 29.751444 39.085289 1.251447 0.705646 0.009067 -0.000694 59984.900000 0 0 1
-8.034325 -25.266817 30.465854 40.387259 1.262927 0.716143 0.000424 0.000691 -298907.000000 0 0 1
-8.305125 -26.515617 29.525924 40.544213 1.267259 0.755046 -0.007686 0.002314 -860692.000000 0 0 1
-9.548525 -26.519317 28.915454 40.380094 1.225188 0.772624 -0.007601 0.000377 -543874.000000 0 0 1
-9.778025 -27.691317 28.171744 40.694791 1.231355 0.806168 -0.000639 -0.001886 -244351.000000 0 0 1
-11.016925 -27.596417 27.280294 40.337939 1.190966 0.828077 -0.003543 0.002101 -320116.000000 0 0 1
-10.774025 -26.901517 26.091534 38.994094 1.189860 0.837779 0.008918 0.005311 265144.000000 0 0 1
-11.086825 -25.502917 26.174284 38.189130 1.160715 0.815663 -0.002422 0.010039 -155750.000000 0 0 1
-11.241925 -24.842117 24.772974 36.840357 1.145836 0.833294 0.001489 -0.004509 -392832.000000 0 0 1
-12.477025 -25.146817 24.190584 37.057023 1.110220 0.859530 -0.000374 0.003095 -191866.000000 0 0 1
-12.480125 -24.804917 22.820384 35.941722 1.104647 0.882882 0.003729 0.002797 616193.000000 0 0 1
-13.915925 -24.928717 22.207384 36.169902 1.061657 0.909711 0.001094 0.007135 450092.000000 0 0 1
-14.386225 -26.244717 22.039884 37.168604 1.069369 0.936054 0.010431 0.007722 -260192.000000 0 0 1
-15.520225 -26.312417 21.233784 37.203417 1.037878 0.963380 0.007988 0.007862 -467715.000000 0 0 1
-15.812525 -27.668717 20.552784 37.921113 1.051600 0.997996 0.011802 0.003371 400012.000000 0 0 1
-14.943025 -28.016317 19.439884 37.230594 1.080812 1.021429 0.006820 0.001182 476961.000000 0 0 1
-15.274825 -29.247817 18.875184 38.013520 1.089503 1.051190 0.014591 0.002066 -75054.900000 0 0 1
-14.225325 -29.759117 17.881984 37.519732 1.124890 1.074011 0.015912 -0.001379 -49239.000000 0 0 1
-14.264625 -29.068517 16.673384 36.420598 1.114597 1.095276 0.016673 -0.005842 -4562.060000 0 0 1
-13.070625 -29.300017 15.970084 35.838190 1.151194 1.108934 0.022519 -0.004037 -236891.000000 0 0 1
-13.172925 -28.867517 14.504984 34.889168 1.142696 1.142035 0.002808 -0.002814 -115425.000000 0 0 1
-13.431425 -27.519017 14.309184 33.800181 1.116732 1.133660 -0.001718 -0.000485 76942.700000 0 0 1
-13.841125 -27.076417 12.999484 33.071070 1.098239 1.166821 -0.007496 -0.003530 272543.000000 0 0 1
-12.801325 -27.195617 11.835184 32.303980 1.130852 1.195692 -0.013128 0.001982 237044.000000 0 0 1
-13.329125 -26.737617 10.624384 31.708726 1.108337 1.229125 -0.021026 0.010347 15546.600000 0 0 1
-12.520125 -27.186317 9.541584 31.414825 1.139220 1.262193 -0.013042 0.011457 194358.000000 0 0 1
-12.925725 -26.478317 8.229084 30.592376 1.116663 1.298451 -0.010712 0.012756 506445.000000 0 0 1
-14.122225 -26.947217 7.587284 31.355329 1.088079 1.326393 -0.017501 0.010601 439209.000000 0 0 1
-14.339125 -26.251717 6.360884 30.581433 1.070862 1.361268 -0.008667 0.012870 22315.300000 0 0 1
-15.210425 -26.989817 5.320684 31.434328 1.057601 1.400714 -0.008861 0.009734 -101617.000000 0 0 1
-14.536925 -28.000317 4.648084 31.889570 1.091931 1.424520 -0.000923 0.009134 -214182.000000 0 0 1
-15.055225 -28.162817 3.370584 32.111757 1.079870 1.465638 0.000857 0.012962 -415470.000000 0 0 1
-14.576425 -29.426417 2.613384 32.942616 1.110874 1.491381 -0.000068 0.006471 -787559.000000 0 0 1
-13.340325 -29.254917 2.014884 32.216055 1.142962 1.508213 -0.010696 0.018986 -898397.000000 0 0 1
-12.960725 -30.390617 1.264284 33.063098 1.167680 1.532548 -0.015321 0.016694 150238.000000 0 0 1
-11.653825 -30.192617 0.445784 32.366719 1.202432 1.557023 -0.027087 0.021286 148108.000000 0 0 1
-11.667825 -29.314517 -0.636116 31.557625 1.191996 1.590955 -0.022931 0.029208 -138979.000000 0 0 1
-11.724425 -27.943817 -0.313816 30.305405 1.173533 1.581152 -0.018775 0.024026 -447615.000000 0 0 1
-11.629725 -27.067617 -1.582716 29.502736 1.164990 1.624469 -0.005900 0.026219 -125799.000000 0 0 1
-10.326925 -27.221017 -2.097616 29.189539 1.208197 1.642720 -0.011337 0.023302 -275033.000000 0 0 1
-10.008225 -26.369517 -3.196716 28.385472 1.208053 1.683654 0.005947 0.012710 1017400.000000 0 0 1
-8.628325 -26.793117 -3.827816 28.407240 1.259248 1.705955 -0.001761 0.012718 927533.000000 0 0 1
-8.127325 -25.833517 -4.723816 27.490698 1.265996 1.743487 0.002968 0.005296 -581346.000000 0 0 1
-6.825825 -26.152717 -5.143216 27.513800 1.315493 1.758835 0.006589 0.009569 17860.700000 0 0 1
-6.209325 -25.068717 -6.014416 26.517343 1.327991 1.799598 -0.004535 0.009740 -102546.000000 0 0 1
-6.605825 -25.110417 -7.406216 27.000408 1.313554 1.848658 0.004333 0.012833 117515.000000 0 0 1
-5.837525 -24.140017 -8.112816 26.127283 1.333532 1.886527 -0.015151 0.019577 -427797.000000 0 0 1
-6.131725 -24.063217 -9.624116 26.631937 1.321289 1.940538 0.007012 0.012512 -232138.000000 0 0 1
-5.532125 -25.169517 -10.324116 27.761419 1.354442 1.951838 -0.010044 0.016286 59337.700000 0 0 1
-5.721025 -25.175217 -11.715716 28.351009 1.347343 1.996803 -0.012416 0.019291 -266859.000000 0 0 1
-7.014525 -25.814317 -12.242716 29.418814 1.305473 2.000006 -0.008290 0.006864 -107135.000000 0 0 1
-7.069625 -25.935717 -13.621216 30.136001 1.304679 2.039793 0.002004 0.009719 -173209.000000 0 0 1
-8.283125 -26.604217 -13.861116 31.121136 1.268963 2.032409 0.009829 0.002549 -578220.000000 0 0 1
-8.373425 -26.720817 -15.436216 31.974882 1.267122 2.074601 0.011038 0.001931 -86536.900000 0 0 1
-7.545625 -27.624217 -16.137716 32.870347 1.304148 2.083977 -0.002419 0.006927 1026020.000000 0 0 1
-6.181425 -27.119017 -16.197716 32.187220 1.346688 2.098134 -0.001233 0.008516 526379.000000 0 0 1
-5.274325 -27.939617 -17.077816 33.167643 1.384216 2.111680 -0.013469 -0.000734 -386214.000000 0 0 1
-5.510425 -27.693017 -18.434216 33.720740 1.374379 2.149182 0.001083 0.000953 68172.800000 0 0 1
-4.549225 -28.402917 -19.197016 34.582461 1.411978 2.159290 -0.003051 -0.004683 -64368.200000 0 0 1
-24.189525 14.745651 -6.023029 28.962808 -0.547440 1.780283 -0.026167 0.005199 7200.880000 0 0 1
-24.507225 13.532751 -5.326729 28.497605 -0.504526 1.758821 -0.039635 0.005162 368537.000000 0 0 1
-23.378525 12.677151 -5.320529 27.121461 -0.496878 1.768251 -0.019316 -0.000872 -479040.000000 0 0 1
-23.658325 11.249451 -4.748729 26.623616 -0.443853 1.750121 -0.015103 -0.007348 -245749.000000 0 0 1
-24.272425 10.304651 -5.578529 26.952856 -0.401482 1.779277 -0.000744 -0.010544 569201.000000 0 0 1
-25.663605 10.522451 -5.820529 28.341157 -0.389110 1.777642 -0.018643 -0.011284 44668.000000 0 0 1
-25.946515 9.883851 -7.204429 28.684769 -0.363961 1.824673 0.000729 -0.007761 -436038.000000 0 0 1
-25.351435 10.546751 -8.305629 28.686455 -0.394242 1.864534 0.016687 -0.007595 -143449.000000 0 0 1
-25.594475 9.869651 -9.498329 29.029389 -0.368046 1.904132 0.027163 -0.003200 -376902.000000 0 0 1
-25.986365 10.737251 -10.669329 30.073482 -0.391823 1.933470 0.007604 -0.004363 -119386.000000 0 0 1
-25.081375 11.681951 -11.172529 29.839048 -0.435884 1.954574 0.016563 -0.007529 188603.000000 0 0 1
-25.824985 12.492151 -12.080629 31.127565 -0.450542 1.969366 0.009101 -0.004585 652388.000000 0 0 1
-24.928225 13.580751 -12.796829 31.138594 -0.498838 1.994307 0.017220 0.001567 319087.000000 0 0 1
-24.777525 14.704351 -11.963929 31.197425 -0.535593 1.964370 0.018421 0.006427 -80157.700000 0 0 1
-24.024725 15.602751 -12.726229 31.346295 -0.575985 1.988856 0.016302 0.005283 -71082.300000 0 0 1
-23.976025 17.086851 -12.209629 31.872956 -0.619175 1.963916 0.018725 0.003828 6266.790000 0 0 1
-23.045725 17.217751 -11.144829 30.850667 -0.641651 1.940405 0.014519 0.010992 95933.400000 0 0 1
-22.866825 18.530551 -10.653329 31.301221 -0.681031 1.918084 0.002341 0.015340 111633.000000 0 0 1
-21.828125 18.486651 -9.477529 30.133816 -0.702703 1.890742 -0.005836 0.014454 114287.000000 0 0 1
-22.229625 17.974551 -8.154529 29.727716 -0.679954 1.848666 -0.002390 0.010381 275998.000000 0 0 1
-22.990225 18.910851 -7.373229 30.668147 -0.688347 1.813595 -0.024343 0.008674 -75367.800000 0 0 1
-23.233825 18.463151 -5.906129 30.258568 -0.671481 1.767246 -0.038722 0.009105 -279123.000000 0 0 1
-22.167625 18.483251 -5.010729 29.294054 -0.695011 1.742691 -0.024466 0.000840 -401374.000000 0 0 1
-22.684025 18.398651 -3.693829 29.440105 -0.681463 1.696597 -0.048862 -0.000552 201638.000000 0 0 1
-21.623325 17.901551 -2.664729 28.198130 -0.691512 1.665438 -0.036523 -0.012312 -113693.000000 0 0 1
-20.901325 19.021651 -2.159629 28.343476 -0.738350 1.647065 -0.016226 -0.020878 -318752.000000 0 0 1
-19.997125 18.609051 -1.198929 27.342627 -0.749459 1.614659 0.026864 -0.031358 -1141040.000000 0 0 1
-19.214625 19.772651 -0.670429 27.579142 -0.799710 1.595108 0.029034 -0.034791 -726110.000000 0 0 1
-20.030625 20.630751 0.070771 28.755154 -0.800156 1.568335 0.019725 -0.028851 78869.500000 0 0 1
-19.378125 21.852451 0.317971 29.208603 -0.845338 1.559910 0.020813 -0.030511 -263242.000000 0 0 1
-20.101125 22.609251 1.452371 30.287669 -0.844055 1.522825 0.004724 -0.021565 -114434.000000 0 0 1
-19.973325 22.141851 2.813471 29.951810 -0.836843 1.476724 0.007177 -0.020071 -111260.000000 0 0 1
-21.097125 22.478751 3.563471 31.033551 -0.817094 1.455716 -0.006762 -0.017136 -299896.000000 0 0 1
-20.836725 21.958651 5.021871 30.685024 -0.811608 1.406398 -0.001380 -0.007658 223782.000000 0 0 1
-19.989725 22.858351 5.750171 30.905628 -0.852247 1.383650 -0.000912 -0.003850 307766.000000 0 0 1
-19.413925 22.521851 6.964971 30.539239 -0.859374 1.340705 -0.004667 0.003705 -536019.000000 0 0 1
-20.370525 22.274551 8.098271 31.252135 -0.830017 1.308678 -0.017274 -0.001455 -394077.000000 0 0 1
-21.256625 21.122451 8.046771 31.028255 -0.782232 1.308461 -0.013425 -0.000445 1020380.000000 0 0 1
-21.688225 20.621351 9.305771 31.340336 -0.760188 1.269324 -0.008335 0.002508 260433.000000 0 0 1
-22.370725 21.572951 10.400571 32.772145 -0.767246 1.247852 -0.006934 -0.000720 31048.600000 0 0 1
-23.535425 22.272051 9.960071 33.899315 -0.757825 1.272582 0.004460 -0.004936 744668.000000 0 0 1
-24.030725 22.947551 11.100371 35.032615 -0.762345 1.248381 0.005688 0.000297 -154044.000000 0 0 1
-25.066925 24.052351 10.801071 36.380345 -0.764746 1.269359 0.008966 -0.005550 -358014.000000 0 0 1
-25.708195 24.348151 11.970871 37.377072 -0.758235 1.244779 0.010663 -0.002348 -182891.000000 0 0 1
-26.489545 25.547251 11.931571 38.687472 -0.767292 1.257276 0.011895 0.000550 113243.000000 0 0 1
-26.952525 25.889751 13.358071 39.688234 -0.765289 1.227519 0.010537 0.002228 27031.400000 0 0 1
-25.919645 26.349751 14.187671 39.590749 -0.793627 1.204288 0.006847 -0.004188 -82598.300000 0 0 1
-26.486675 26.565551 15.443471 40.568132 -0.786885 1.180265 0.000076 0.008433 393345.000000 0 0 1
-25.419675 26.760351 16.561071 40.454238 -0.811086 1.149024 0.007714 0.000891 212311.000000 0 0 1
-24.934325 25.573551 17.080671 39.591368 -0.798053 1.124726 0.022174 -0.001220 -146114.000000 0 0 1
-23.774725 25.797851 17.846271 39.360591 -0.826187 1.100215 0.022760 0.006470 -234144.000000 0 0 1
-23.382225 24.473351 18.499171 38.573213 -0.808195 1.070614 0.037396 0.016736 -69970.800000 0 0 1
-22.177225 24.522651 19.264771 38.266450 -0.835579 1.043224 0.043618 0.013036 702135.000000 0 0 1
-21.782525 23.229251 19.740071 37.466611 -0.817528 1.015881 0.048389 0.008052 154263.000000 0 0 1
-20.332425 23.105851 20.296071 36.867579 -0.849159 0.987818 0.033467 0.013022 -138743.000000 0 0 1
-19.393725 23.085251 19.250971 35.772130 -0.872083 1.002549 0.017405 0.011119 -381680.000000 0 0 1
-18.194725 22.401251 19.437471 34.794818 -0.888649 0.978062 0.022156 0.011964 -522231.000000 0 0 1
-18.327325 20.822251 19.664371 34.002125 -0.849040 0.954119 0.028960 0.013231 -526386.000000 0 0 1
-18.760925 20.339651 20.931071 34.695583 -0.825752 0.923192 0.032252 0.010882 246731.000000 0 0 1
-17.842425 20.637851 21.955371 35.018729 -0.857916 0.893150 0.024839 0.014301 -230123.000000 0 0 1
-18.540825 20.649851 23.309071 36.242122 -0.839161 0.872193 0.013924 0.015605 -760993.000000 0 0 1
-19.473725 21.654451 23.407771 37.363953 -0.838371 0.893767 0.020391 0.017153 -239606.000000 0 0 1
-20.265725 21.422051 24.583571 38.392133 -0.813129 0.875871 0.023682 0.015434 800358.000000 0 0 1
-21.408525 22.491851 24.778671 39.726451 -0.810070 0.897288 0.027572 0.016219 -92314.600000 0 0 1
-20.904625 23.726651 25.211671 40.442375 -0.848544 0.897716 0.022120 0.018102 484128.000000 0 0 1
-21.834625 24.824751 25.354671 41.663875 -0.849395 0.916561 0.013958 0.017611 456976.000000 0 0 1
-22.690025 25.258151 24.127571 41.652745 -0.838907 0.952982 0.008697 0.015388 755377.000000 0 0 1
-23.732825 24.327251 23.769571 41.473542 -0.797766 0.960481 0.012680 0.008172 319521.000000 0 0 1
-24.430625 24.702151 22.624771 41.460005 -0.790924 0.993571 0.010172 0.012824 659.474000 0 0 1
-25.557685 23.695051 22.231771 41.338873 -0.747598 1.002979 0.007633 0.011827 254897.000000 0 0 1
-26.727035 23.933851 23.009971 42.621854 -0.730319 1.000522 -0.008248 0.003673 -65477.500000 0 0 1
-27.579605 22.830251 22.786871 42.439327 -0.691461 1.004005 0.000800 0.002007 -398718.000000 0 0 1
-29.000025 23.060451 23.306371 43.771827 -0.671799 1.009302 0.014562 0.006889 -526636.000000 0 0 1
-29.757145 24.129651 22.674771 44.518233 -0.681344 1.036382 0.002516 0.007657 948587.000000 0 0 1
-31.165905 23.916351 22.789671 45.416678 -0.654537 1.045128 -0.008659 0.005894 767399.000000 0 0 1
-31.763635 23.043551 21.611271 44.799340 -0.627616 1.067402 -0.002041 0.003739 -702100.000000 0 0 1
-31.262615 21.672751 21.488871 43.690169 -0.606180 1.056587 -0.010090 0.005122 498022.000000 0 0 1
-31.814445 20.917451 20.420171 43.205117 -0.581618 1.078520 -0.016122 0.009786 -638433.000000 0 0 1
-33.318865 20.654651 20.462571 44.220790 -0.554930 1.089717 -0.027222 0.020882 -676091.000000 0 0 1
-33.815945 19.887551 19.400671 43.765499 -0.531632 1.111534 -0.018299 0.010068 -521150.000000 0 0 1
34.463890 19.796051 19.576171 44.304287 0.521383 1.113128 -0.007837 0.008382 -394631.000000 0 0 1
33.751529 18.944951 18.500471 42.899235 0.511482 1.124914 0.008034 -0.009174 -674558.000000 0 0 1
34.120516 17.620851 18.509071 42.629682 0.476705 1.121666 0.004654 -0.010670 -53359.600000 0 0 1
33.346070 16.836251 17.647571 41.314120 0.467556 1.129451 0.007343 -0.018085 -178132.000000 0 0 1
33.609591 15.310351 17.716271 40.961906 0.427447 1.123526 0.004658 -0.017139 -365701.000000 0 0 1
32.689300 14.656751 16.913971 39.616829 0.421494 1.129691 -0.000425 -0.027510 -221268.000000 0 0 1
33.066510 13.320551 16.748071 39.386915 0.382953 1.131592 -0.006775 -0.029351 364340.000000 0 0 1
32.132160 12.570551 15.750271 37.928426 0.372909 1.142564 -0.010571 -0.028151 229495.000000 0 0 1
32.503640 12.956651 14.443171 37.854546 0.379317 1.179330 0.000217 -0.032687 570144.000000 0 0 1
31.541710 12.553751 13.482571 36.527467 0.378785 1.192748 0.000392 -0.028561 -439734.000000 0 0 1
31.770780 13.204951 12.093071 36.469105 0.393909 1.232800 0.005365 -0.028047 -763161.000000 0 0 1
32.937220 12.767751 11.487171 37.146077 0.369805 1.256399 0.009454 -0.021913 -265942.000000 0 0 1
33.073040 13.303951 10.186571 37.075428 0.382453 1.292464 0.011941 -0.011550 -621030.000000 0 0 1
34.490127 13.111051 9.654571 38.140258 0.363269 1.314879 0.024280 -0.012871 -610578.000000 0 0 1
34.748087 11.738451 9.446271 37.874171 0.325779 1.318723 0.016491 -0.006034 380525.000000 0 0 1
-33.561625 11.585851 9.046671 36.639554 -0.332402 1.321306 0.012771 -0.000377 266668.000000 0 0 1
-33.282365 11.357351 7.576971 35.973821 -0.328852 1.358582 0.023046 -0.009126 -99829.300000 0 0 1
-33.583355 12.536751 6.765771 36.479961 -0.357282 1.384251 0.026498 -0.015936 87217.700000 0 0 1
-33.016675 12.399451 5.500671 35.694602 -0.359254 1.416076 0.029801 -0.016121 -204370.000000 0 0 1
-33.812505 13.233951 4.470771 36.584297 -0.373064 1.448285 0.031214 -0.013832 291466.000000 0 0 1
34.499570 12.781651 4.392871 37.052507 0.354808 1.451959 0.022030 -0.018228 626180.000000 0 0 1
33.516980 13.808951 4.509171 36.529546 0.390807 1.447042 0.012321 -0.019629 235570.000000 0 0 1
33.197210 14.393951 5.868571 36.656251 0.409123 1.410007 0.012404 -0.014404 -447166.000000 0 0 1
32.440860 15.648151 5.750671 36.473885 0.449436 1.412470 0.000358 -0.012504 605490.000000 0 0 1
31.981700 16.337651 6.928871 36.575364 0.472285 1.380204 -0.001690 -0.011246 52372.100000 0 0 1
30.634530 15.732151 7.382171 35.220328 0.474423 1.359631 -0.001674 -0.007703 -219598.000000 0 0 1
30.848080 14.585451 8.208071 35.095753 0.441664 1.334733 0.000425 -0.007895 1058010.000000 0 0 1
29.633000 13.805351 8.312271 33.731236 0.435979 1.321805 -0.002527 -0.010386 542212.000000 0 0 1
29.743920 12.586151 7.372871 33.128103 0.400303 1.346360 0.009500 -0.011658 -111990.000000 0 0 1
29.680300 12.912851 6.008171 32.920511 0.410365 1.387262 0.005854 -0.014474 86018.800000 0 0 1
30.064660 11.813551 5.255171 32.727062 0.374404 1.409522 0.019779 -0.021484 -210558.000000 0 0 1
29.804980 11.930951 3.728171 32.320020 0.380765 1.455187 0.011791 -0.030666 -204421.000000 0 0 1
28.451720 11.869051 3.359171 31.010624 0.395215 1.462260 0.009564 -0.024969 -99870.100000 0 0 1
28.320280 11.929851 1.970571 30.793551 0.398688 1.506760 0.006870 -0.018938 -273438.000000 0 0 1
26.877580 11.601051 1.571471 29.316518 0.407469 1.517167 0.016617 -0.009780 -180312.000000 0 0 1
26.465020 10.220551 1.639071 28.417310 0.368546 1.513086 -0.002620 -0.005820 -541875.000000 0 0 1
25.085430 10.095851 1.735471 27.096437 0.382624 1.506705 0.002448 0.000931 -896414.000000 0 0 1
24.597320 8.658851 1.851571 26.142536 0.338477 1.499911 -0.002934 -0.000466 -254491.000000 0 0 1
24.890240 8.022851 3.074571 26.331411 0.311814 1.453765 0.004145 0.002010 -416284.000000 0 0 1
26.124960 7.389851 3.010371 27.316401 0.275664 1.460368 0.016288 -0.001525 -953418.000000 0 0 1
26.639580 7.117151 4.412171 27.924690 0.261067 1.412129 0.021135 0.001837 -889527.000000 0 0 1
27.854840 6.434651 4.312571 28.911851 0.227024 1.421075 0.027401 -0.013614 -255027.000000 0 0 1
28.164010 5.853051 5.571271 29.300320 0.204904 1.379488 0.012057 -0.003350 201435.000000 0 0 1
29.705550 5.932751 5.772471 30.837294 0.197125 1.382494 0.011324 -0.006672 249869.000000 0 0 1
30.044870 7.266051 6.119471 31.510913 0.237284 1.375353 0.017199 -0.012727 71163.700000 0 0 1
31.405340 7.251851 6.544571 32.889454 0.226934 1.370472 -0.001178 -0.003323 576595.000000 0 0 1
31.838380 8.618751 7.187271 33.758291 0.264367 1.356250 0.000145 -0.006252 -52855.400000 0 0 1
31.222250 8.765051 8.435971 33.508516 0.273686 1.316302 0.004678 -0.013430 -115952.000000 0 0 1
31.792650 9.714151 9.303371 34.520864 0.296538 1.297923 0.012921 -0.006558 -195693.000000 0 0 1
31.249710 9.441951 10.716071 34.358827 0.293424 1.253618 -0.002445 -0.004244 -77438.100000 0 0 1
29.885190 9.783751 10.877271 33.274035 0.316381 1.237775 -0.009333 -0.008711 25308.500000 0 0 1
29.487310 9.428451 12.196671 33.273953 0.309473 1.195495 -0.017441 -0.008753 -476640.000000 0 0 1
28.031360 9.825751 12.454271 32.208872 0.337144 1.173776 -0.021449 -0.017788 -764666.000000 0 0 1
27.781250 11.249651 12.599371 32.513023 0.384755 1.172859 -0.020650 -0.022612 114186.000000 0 0 1
27.943190 12.168151 11.483571 32.569283 0.410697 1.210460 -0.014944 -0.026646 -596675.000000 0 0 1
26.781440 12.264651 10.469371 31.261397 0.429448 1.229300 -0.017866 -0.016953 -230958.000000 0 0 1
26.779670 13.424051 9.692171 31.484823 0.464669 1.257878 -0.024121 -0.006935 -266991.000000 0 0 1
25.684810 13.405551 8.821871 30.286031 0.481034 1.275226 -0.017730 -0.004074 -340071.000000 0 0 1
25.914240 14.455251 7.723171 30.661858 0.508820 1.316172 -0.020489 0.002357 -92743.600000 0 0 1
25.673880 15.748551 8.228071 31.222847 0.550220 1.304119 -0.023695 0.005747 319772.000000 0 0 1
25.919270 16.786951 7.290171 31.729433 0.574731 1.338965 -0.017993 0.002441 -880122.000000 0 0 1
25.616040 18.231351 7.720971 32.375563 0.618546 1.329994 -0.022559 -0.001499 1457660.000000 0 0 1
24.228220 18.671451 7.828671 31.574006 0.656586 1.320236 -0.015197 0.006276 1681570.000000 0 0 1
23.302320 17.944351 8.612571 30.645950 0.656221 1.285924 -0.009366 0.013492 33782.800000 0 0 1
21.908320 18.642751 8.661571 30.042461 0.705042 1.278334 0.001322 0.014297 238430.000000 0 0 1
21.283720 18.880951 7.405371 29.399432 0.725646 1.316165 0.007280 0.004203 -315475.000000 0 0 1
20.213620 19.745951 7.624271 29.268115 0.773695 1.307259 0.028555 0.001699 -431082.000000 0 0 1
19.503620 20.073851 6.278671 28.684010 0.799805 1.350119 0.019840 -0.003378 276466.000000 0 0 1
20.083920 21.157151 5.523571 29.690045 0.811416 1.383665 0.020708 -0.001916 408732.000000 0 0 1
19.330220 21.214251 4.341471 29.026716 0.831833 1.420665 0.018290 -0.012691 -10183.100000 0 0 1
17.147175 17.252151 33.478282 41.381852 0.788450 0.628332 -0.007693 0.007383 167112.000000 0 0 1
16.466275 17.959551 32.427744 40.561586 0.828748 0.644385 -0.004653 0.006068 270259.000000 0 0 1
15.980375 17.082251 31.429194 39.178692 0.818713 0.639823 0.004145 0.007600 -217856.000000 0 0 1
15.484475 17.786851 30.124164 38.257108 0.854488 0.664195 0.000367 0.009843 -15262.900000 0 0 1
16.454375 18.208651 29.173564 38.123461 0.835964 0.699384 -0.002635 0.012164 -62996.300000 0 0 1
15.895075 18.620351 27.932724 37.143074 0.864193 0.719659 -0.000972 0.007640 -130187.000000 0 0 1
16.963275 18.704351 26.813334 36.831513 0.834173 0.755396 0.001302 0.003933 -110355.000000 0 0 1
17.707875 19.868251 27.032894 37.935387 0.842828 0.777594 -0.006265 0.009411 111049.000000 0 0 1
18.717275 20.172651 26.086784 37.918235 0.822804 0.812102 -0.007131 0.003200 629821.000000 0 0 1
19.717975 21.325251 26.465984 39.293933 0.824539 0.831810 -0.005091 -0.002060 171344.000000 0 0 1
19.139575 22.544251 26.141814 39.471015 0.866896 0.846906 -0.008131 0.004780 203624.000000 0 0 1
19.894475 23.679351 26.506974 40.732315 0.872042 0.862211 -0.006709 0.003951 -132487.000000 0 0 1
18.999075 24.955451 26.445254 41.025490 0.920090 0.870289 -0.006762 -0.000031 129919.000000 0 0 1
18.743375 25.396051 25.108324 40.332387 0.934992 0.898819 -0.005494 -0.000025 485686.000000 0 0 1
17.772675 26.425451 25.248604 40.640675 0.978726 0.900441 -0.001026 -0.000924 18183.900000 0 0 1
17.654875 27.237251 23.897184 40.306797 0.995696 0.936163 -0.003422 -0.008872 -283007.000000 0 0 1
18.839075 27.946451 23.576184 41.130905 0.977656 0.960392 -0.001910 -0.012166 21055.000000 0 0 1
18.616675 29.107851 22.713984 41.349397 1.001784 0.989248 0.000902 -0.011907 156907.000000 0 0 1
19.786475 30.127851 22.569284 42.527222 0.989690 1.011368 0.009043 -0.011862 98695.200000 0 0 1
20.721875 29.705351 21.618484 42.180124 0.961696 1.032670 0.002162 -0.012143 -440097.000000 0 0 1
21.889975 30.504451 21.631084 43.331240 0.948356 1.048118 -0.002404 -0.015952 192223.000000 0 0 1
22.500875 30.768251 20.268884 43.171777 0.939370 1.082079 0.004399 -0.017198 -362892.000000 0 0 1
21.646775 31.581751 19.557284 42.993921 0.969923 1.098553 0.000306 -0.012191 -208071.000000 0 0 1
21.882075 31.485251 18.147884 42.420419 0.963438 1.128728 0.010055 -0.005456 -108939.000000 0 0 1
21.113675 32.545851 17.316684 42.483965 0.995310 1.150966 0.014298 -0.009859 -67620.700000 0 0 1
21.619875 33.867551 17.499484 43.825357 1.002644 1.160043 0.010944 -0.006819 69154.100000 0 0 1
21.415375 34.743551 16.392084 43.982190 1.018417 1.188881 0.004627 -0.001020 158787.000000 0 0 1
22.632675 -34.748117 15.391584 44.233138 -0.993483 1.215397 -0.009721 0.000563 469293.000000 0 0 1
22.737175 33.737551 14.439584 43.170627 0.977773 1.229746 0.010675 0.003039 128878.000000 0 0 1
21.868375 33.903351 13.318084 42.485697 0.997929 1.251949 0.011211 0.000565 -164744.000000 0 0 1
21.660775 32.588351 12.557684 41.096049 0.984171 1.260260 0.026289 0.000254 -690477.000000 0 0 1
22.785275 31.947851 12.045784 41.047958 0.951265 1.272956 0.013679 -0.016289 -480028.000000 0 0 1
22.448975 30.753351 11.342584 39.728822 0.940239 1.281268 0.011324 -0.018482 -350498.000000 0 0 1
23.656375 30.149751 10.558384 39.750611 0.905498 1.301954 0.007578 -0.015126 1079660.000000 0 0 1
24.601875 29.288951 11.256484 39.872338 0.872153 1.284592 0.004621 -0.015313 252054.000000 0 0 1
25.424575 30.037051 12.066884 41.161185 0.868372 1.273264 0.003201 -0.009225 -737835.000000 0 0 1
26.819775 29.446851 12.450684 41.730527 0.832054 1.267823 0.002429 -0.002088 331532.000000 0 0 1
26.849475 28.511551 13.491484 41.422494 0.815412 1.239040 0.012766 -0.003383 298541.000000 0 0 1
27.913475 27.577051 13.283784 41.426015 0.779336 1.244367 0.009158 0.007978 306148.000000 0 0 1
28.018275 26.552851 14.396084 41.198603 0.758551 1.213832 -0.005319 -0.004756 -312713.000000 0 0 1
28.646875 27.114551 15.486484 42.375388 0.757925 1.196670 -0.030508 0.002227 -296121.000000 0 0 1
28.977975 26.187751 16.524584 42.409707 0.734862 1.170554 -0.026917 -0.001209 -578616.000000 0 0 1
30.187475 26.643051 17.312784 43.827712 0.723111 1.164708 -0.028487 0.001606 -281441.000000 0 0 1
31.282975 26.936551 16.468084 44.445473 0.710881 1.191224 -0.007550 0.005408 -209148.000000 0 0 1
32.491875 27.138351 17.154984 45.678283 0.695860 1.185794 -0.006591 0.006624 721990.000000 0 0 1
33.772075 27.441651 16.309184 46.471354 0.682349 1.212209 0.013830 0.004061 703462.000000 0 0 1
33.722075 28.678451 15.622484 46.943518 0.704747 1.231532 0.017684 -0.002887 -908181.000000 0 0 1
-34.658371 28.971551 15.190384 47.658171 -0.696262 1.246400 0.039320 -0.003069 -586615.000000 0 0 1
-34.640071 30.261951 14.331984 48.178065 -0.718043 1.268745 0.037616 -0.003297 129797.000000 0 0 1
34.750675 31.460051 15.048284 49.232053 0.735740 1.260164 0.036710 -0.002712 -63183.000000 0 0 1
34.271775 32.415251 14.155884 49.251316 0.757566 1.279263 0.037622 -0.000853 231774.000000 0 0 1
33.441875 33.572751 14.802684 49.644819 0.787351 1.268020 0.015071 0.000372 -124978.000000 0 0 1
32.927475 34.552751 13.835884 49.694496 0.809479 1.288649 0.003727 -0.010485 665382.000000 0 0 1
31.578075 -34.584117 14.065384 48.898579 -0.830801 1.279030 0.002130 -0.001581 1055150.000000 0 0 1
30.466175 33.939651 13.520984 47.569998 0.839277 1.282590 -0.019753 0.004713 -46424.100000 0 0 1
30.466875 32.696851 14.241684 46.905651 0.820688 1.262302 -0.022342 -0.002892 221530.000000 0 0 1
29.460775 31.792551 13.760284 45.475807 0.823448 1.263393 -0.024548 0.003498 159897.000000 0 0 1
29.169875 30.743051 14.877984 44.915156 0.811650 1.233172 -0.028174 0.006833 98694.500000 0 0 1
28.187075 31.248651 15.774584 44.942484 0.836863 1.212163 -0.026597 -0.002864 245542.000000 0 0 1
27.925175 30.375151 16.879484 44.580065 0.827397 1.182477 -0.023272 -0.003121 79782.300000 0 0 1
26.965675 31.062151 17.870984 44.848377 0.855876 1.160942 -0.017723 -0.010261 -55759.900000 0 0 1
26.613975 30.248751 18.989184 44.540765 0.849233 1.130362 -0.021040 -0.000323 -84827.000000 0 0 1
27.174175 30.709151 20.182284 45.703527 0.846393 1.113425 -0.018458 -0.007801 -128642.000000 0 0 1
27.304575 29.610751 21.256384 45.543059 0.825895 1.085205 -0.005620 -0.013370 814410.000000 0 0 1
26.044675 29.372351 21.912684 44.958045 0.845374 1.061683 -0.006588 -0.018598 816301.000000 0 0 1
26.136175 28.183451 22.645184 44.611780 0.823070 1.038393 -0.015647 -0.014700 600530.000000 0 0 1
24.927275 27.965551 23.626484 44.290539 0.842777 1.008130 -0.013643 -0.015905 1081580.000000 0 0 1
23.728775 27.479351 22.958284 42.956400 0.858509 1.006933 -0.008862 -0.004736 870887.000000 0 0 1
22.587775 27.510451 23.796784 42.817280 0.883344 0.981501 -0.006226 -0.002090 220612.000000 0 0 1
22.435575 26.320451 24.764774 42.537221 0.864910 0.949376 -0.009560 0.000955 -200552.000000 0 0 1
23.446475 26.455851 25.769624 43.746117 0.845631 0.940886 -0.008509 0.000554 427713.000000 0 0 1
23.296175 25.412351 26.694364 43.601473 0.828817 0.911912 -0.006777 -0.002119 238729.000000 0 0 1
24.577475 25.279951 27.606784 44.780160 0.799487 0.906512 0.009468 -0.007022 579542.000000 0 0 1
24.994175 26.292951 28.439434 46.095873 0.810716 0.905919 0.001202 0.002150 254170.000000 0 0 1
25.459875 27.483351 27.827284 46.667950 0.823599 0.931934 -0.002221 0.003718 -738508.000000 0 0 1
25.800675 28.639251 28.755954 48.091438 0.837492 0.929864 0.003280 0.007216 -796755.000000 0 0 1
26.882575 28.466151 29.607264 49.087521 0.814001 0.923349 0.007205 0.009018 -375769.000000 0 0 1
27.246375 29.690351 30.272414 50.401398 0.828296 0.926512 0.001207 0.010035 257338.000000 0 0 1
28.787275 29.799451 30.195054 51.268468 0.802673 0.941026 -0.008905 0.010820 296635.000000 0 0 1
29.325975 30.072951 28.904054 50.988622 0.797973 0.968092 -0.011865 0.004888 81560.800000 0 0 1
30.716475 30.302951 28.813234 51.884228 0.778621 0.982028 -0.001887 0.000822 317600.000000 0 0 1
31.230075 31.050951 27.509134 51.925250 0.782522 1.012451 -0.003915 -0.003351 -142680.000000 0 0 1
30.852375 32.404151 27.362214 52.446056 0.809925 1.021929 -0.009257 -0.001350 567352.000000 0 0 1
31.574775 32.869751 26.216174 52.580174 0.805490 1.048820 0.000181 -0.016209 143473.000000 0 0 1
31.266575 34.349651 25.951134 53.206753 0.832350 1.061296 -0.008366 -0.013083 -268322.000000 0 0 1
31.836375 -34.350017 26.954604 54.037294 -0.823358 1.048566 -0.007500 -0.001181 266725.000000 0 0 1
31.567775 -32.987417 26.665364 52.874717 -0.807386 1.042211 -0.010348 0.001053 -380242.000000 0 0 1
32.476375 -31.995717 27.395004 53.187659 -0.777943 1.029715 -0.018173 0.011403 -324714.000000 0 0 1
32.165475 -31.797517 28.794674 53.617470 -0.779646 1.003873 -0.020055 0.015699 -89630.600000 0 0 1
33.166975 -31.050717 29.398434 54.115277 -0.752456 0.996486 -0.013494 0.008471 -600603.000000 0 0 1
32.962875 -30.941317 30.914404 54.768756 -0.753775 0.971026 -0.016460 -0.001947 -126891.000000 0 0 1
33.110775 -32.112317 31.705914 55.971326 -0.770091 0.968584 -0.008251 0.004035 391173.000000 0 0 1
31.856575 -32.754517 31.861584 55.703324 -0.799295 0.961870 -0.013070 0.003281 -82599.900000 0 0 1
31.777475 -33.744217 33.024204 56.912900 -0.815406 0.951750 0.002184 0.002388 -457569.000000 0 0 1
31.474975 -33.125417 34.248597 57.104585 -0.810941 0.927605 0.011515 -0.007016 179062.000000 0 0 1
31.762175 -33.867517 -33.872479 57.473379 -0.817466 2.201062 0.016430 -0.009677 184809.000000 0 0 1
30.977575 34.313151 -33.624379 57.162937 0.836442 2.199652 0.006142 -0.005125 -81645.500000 0 0 1
31.372875 33.409351 -34.613104 57.432647 0.816824 2.217643 0.013159 -0.000981 324768.000000 0 0 1
30.565375 32.251551 -34.506835 56.259456 0.812234 2.231094 0.013360 0.004903 63409.400000 0 0 1
30.969575 31.265651 33.681294 55.417372 0.790156 0.917541 -0.001614 0.009953 -44376.500000 0 0 1
32.284275 30.777551 33.763720 55.942121 0.761510 0.922854 0.004862 0.005371 -300632.000000 0 0 1
32.509775 29.930951 32.633754 54.933680 0.744121 0.934703 0.007670 0.001683 185072.000000 0 0 1
33.840975 29.139851 32.678334 55.337293 0.710893 0.939081 0.016458 0.000490 197710.000000 0 0 1
33.754075 28.178751 33.677925 55.385758 0.695618 0.917180 0.015867 0.002326 -96569.100000 0 0 1
-34.704071 27.498251 33.827948 55.721239 -0.670067 0.918400 0.013961 -0.006162 -278118.000000 0 0 1
34.824475 26.242151 34.636493 55.687352 0.645772 0.899526 0.011117 -0.007411 195095.000000 0 0 1
34.375675 25.154051 33.807210 54.381438 0.631712 0.899926 0.009888 -0.013652 156327.000000 0 0 1
34.377675 23.938951 34.528076 54.287070 0.608273 0.881457 0.011066 -0.018556 -118524.000000 0 0 1
33.930075 22.746851 33.733276 52.977383 0.590585 0.880522 0.009722 -0.027181 217986.000000 0 0 1
-34.634871 22.131751 33.058754 52.747227 -0.568605 0.893435 0.015671 -0.028504 696634.000000 0 0 1
34.652875 20.952151 32.417404 51.871981 0.543817 0.895729 0.019424 -0.025404 -285263.000000 0 0 1
-33.788271 20.401551 31.701424 50.624607 -0.543213 0.894119 0.013316 -0.028984 -197348.000000 0 0 1
-33.272671 21.230451 30.658054 49.977184 -0.567946 0.910386 0.008008 -0.023141 195827.000000 0 0 1
-32.164271 20.645651 29.984164 48.578116 -0.570647 0.905571 0.015745 -0.019058 141995.000000 0 0 1
-32.523471 19.565851 28.925514 47.720897 -0.541589 0.919599 0.014586 -0.013856 -644927.000000 0 0 1
-33.103271 18.404051 29.450554 47.977815 -0.507407 0.909885 0.007037 -0.015664 129879.000000 0 0 1
-33.447371 17.518951 28.388574 47.239299 -0.482487 0.926104 -0.004086 -0.013542 -269542.000000 0 0 1
-34.405371 16.396651 28.782544 47.759968 -0.444731 0.923979 -0.005426 -0.014540 -343672.000000 0 0 1
-33.674871 15.360251 29.389374 47.261713 -0.427943 0.899702 -0.000239 -0.012163 447871.000000 0 0 1
-34.387471 14.141051 29.341534 47.364471 -0.390147 0.902711 0.004407 -0.010203 -215199.000000 0 0 1
-33.479171 13.027251 29.823314 46.690408 -0.371088 0.877929 0.006027 -0.001669 -583785.000000 0 0 1
-33.159371 13.042851 31.198524 47.360403 -0.374750 0.851644 0.000409 0.000923 302391.000000 0 0 1
-32.217671 12.071951 31.560524 46.688082 -0.358507 0.828493 0.009596 0.002562 -387568.000000 0 0 1
-30.725271 12.348551 31.420114 45.648139 -0.382145 0.811638 -0.004469 0.003631 -1204010.000000 0 0 1
-30.194871 12.377051 30.105264 44.398745 -0.389017 0.825669 -0.001140 -0.000726 287443.000000 0 0 1
-28.845371 12.761951 29.964464 43.506229 -0.416538 0.811047 0.007960 -0.001516 528667.000000 0 0 1
-27.709971 11.782851 30.401024 42.789021 -0.402058 0.780607 0.004960 -0.003488 -132339.000000 0 0 1
-27.535771 10.714951 29.513234 41.761942 -0.371099 0.785971 -0.002151 -0.007495 -102277.000000 0 0 1
-26.387071 10.048451 29.989254 41.189856 -0.363854 0.755289 -0.000382 -0.009541 -214626.000000 0 0 1
-25.747571 9.014251 29.039514 39.843287 -0.336765 0.754165 0.007994 -0.008531 73256.000000 0 0 1
-26.370471 7.737851 28.671614 39.715709 -0.285417 0.764222 0.010088 -0.011139 392023.000000 0 0 1
-27.632871 7.983151 28.017214 40.153089 -0.281243 0.798531 0.007119 -0.008465 200945.000000 0 0 1
-28.396571 6.652751 27.995434 40.427326 -0.230130 0.805864 0.008811 -0.009722 -534401.000000 0 0 1
-28.916371 6.279651 29.208134 41.577706 -0.213845 0.791899 0.016025 -0.009534 -59488.000000 0 0 1
-29.266671 4.915751 29.288134 41.695293 -0.166411 0.791987 0.011755 -0.008148 -114525.000000 0 0 1
-29.858171 4.550651 30.700034 43.066354 -0.151245 0.777237 0.013744 -0.003111 -1274350.000000 0 0 1
-31.119571 4.974251 30.946184 44.168282 -0.158502 0.794498 0.007579 -0.007828 -1290920.000000 0 0 1
-31.632471 4.822951 32.282534 45.453669 -0.151303 0.780972 0.010016 -0.010547 234245.000000 0 0 1
-33.127071 5.160851 32.438254 46.650590 -0.154547 0.801897 0.024793 -0.005318 -9890.500000 0 0 1
-33.488371 6.481151 32.662574 47.226264 -0.191171 0.807068 0.013950 -0.003454 619925.000000 0 0 1
34.752175 6.626051 32.642214 48.136601 0.188404 0.825600 0.000158 0.005569 703922.000000 0 0 1
34.246675 8.010951 33.021744 48.243607 0.229787 0.816907 0.004218 -0.002139 -457169.000000 0 0 1
34.606375 8.402851 34.354007 49.481379 0.238202 0.803375 0.006373 -0.004926 401300.000000 0 0 1
34.146175 9.714451 -34.640124 49.601109 0.277173 2.343919 0.009510 -0.000113 -178050.000000 0 0 1
34.173275 10.094151 -33.120139 48.648208 0.287214 2.319663 0.002731 -0.001238 -860774.000000 0 0 1
33.210775 9.460451 -32.362339 47.326279 0.277511 2.323772 0.025635 -0.000209 -474889.000000 0 0 1
33.245475 9.707651 -30.961799 46.455711 0.284101 2.300273 0.009635 0.007594 439507.000000 0 0 1
32.028175 9.000351 -30.258389 44.970884 0.273948 2.308843 0.013018 0.009245 501579.000000 0 0 1
32.101275 7.573351 -30.110639 44.659804 0.231684 2.310708 0.015013 0.008822 1023590.000000 0 0 1
30.871875 6.977651 -29.610619 43.342231 0.222285 2.322907 0.006643 0.013272 856925.000000 0 0 1
33.907217 6.070351 -20.159229 39.911691 0.177152 2.100289 0.007996 -0.001766 -711.415000 0 0 1
33.374090 6.943351 -19.116429 39.082961 0.205120 2.081882 0.005524 -0.001115 588338.000000 0 0 1
33.837550 8.286251 -19.328329 39.840006 0.240157 2.077330 -0.013516 0.000884 744769.000000 0 0 1
-34.359201 8.586851 -18.782329 40.088210 -0.244898 2.058417 -0.015467 -0.001598 1347220.000000 0 0 1
-33.291115 7.982551 -19.495029 39.396391 -0.235337 2.088450 -0.011056 -0.004629 156447.000000 0 0 1
-32.900465 8.781651 -20.580329 39.788289 -0.260835 2.114426 -0.017501 0.001297 -695914.000000 0 0 1
-31.773155 8.172351 -21.437029 39.190138 -0.251752 2.149573 -0.024283 0.009799 -440582.000000 0 0 1
-32.113865 7.115251 -22.321629 39.751506 -0.218041 2.167029 -0.021884 0.016438 497085.000000 0 0 1
-33.006365 7.365551 -23.426629 41.139743 -0.219558 2.176621 -0.016942 0.014842 376874.000000 0 0 1
-33.179315 6.171751 -24.336329 41.607864 -0.183910 2.195550 0.009493 0.010679 1080830.000000 0 0 1
-32.024815 5.933651 -25.204949 41.183570 -0.183205 2.229402 -0.001063 0.006945 1036460.000000 0 0 1
-32.072175 4.626451 -25.761879 41.396895 -0.143263 2.242492 0.006554 0.008528 -400704.000000 0 0 1
-30.813315 4.346451 -26.573029 40.920385 -0.140133 2.277570 0.009885 0.006995 -924698.000000 0 0 1
-29.676145 4.382451 -25.807799 39.571732 -0.146616 2.281250 0.012086 0.009283 -806457.000000 0 0 1
-28.482885 4.130151 -26.532209 39.144489 -0.144001 2.315565 0.014543 0.003928 53615.300000 0 0 1
-27.266635 4.748751 -25.842269 37.866118 -0.172430 2.321925 -0.001702 0.010132 -353578.000000 0 0 1
-27.150905 6.123751 -26.103029 38.158094 -0.221833 2.324132 -0.016080 0.008269 518039.000000 0 0 1
-25.765795 6.485051 -26.054119 37.212219 -0.246571 2.346403 -0.014468 0.027497 630778.000000 0 0 1
-25.449645 8.005951 -25.960899 37.225636 -0.304779 2.342550 -0.014758 0.008373 -184922.000000 0 0 1
-25.891645 8.730551 -24.826529 36.918239 -0.325223 2.308342 -0.014330 -0.002363 -76927.300000 0 0 1
-25.806365 10.101251 -25.100189 37.390149 -0.373092 2.306764 -0.010200 -0.008469 288989.000000 0 0 1
-24.506225 10.800951 -24.565529 36.341173 -0.415129 2.313076 0.000913 -0.007370 412970.000000 0 0 1
-24.440825 11.050051 -23.225129 35.480476 -0.424611 2.284435 0.004173 -0.008813 1452120.000000 0 0 1
-23.067825 11.288551 -22.790329 34.335915 -0.455102 2.296612 0.003718 -0.003008 944681.000000 0 0 1
-22.874025 11.561551 -21.262029 33.301117 -0.467994 2.263315 0.005715 -0.008625 -872975.000000 0 0 1
-23.242725 12.861551 -20.853729 33.771612 -0.505418 2.236348 0.021401 -0.007323 1521090.000000 0 0 1
-24.632925 13.248651 -20.874729 34.900746 -0.493462 2.211946 0.013363 -0.007666 1522450.000000 0 0 1
-25.852525 12.371851 -20.405229 35.182228 -0.446345 2.189509 0.011584 -0.004346 47020.900000 0 0 1
-25.828015 12.141551 -18.993729 34.282144 -0.439436 2.158007 0.012708 -0.004058 307068.000000 0 0 1
-26.876445 11.260251 -18.622229 34.582134 -0.396747 2.139444 0.003038 -0.004293 -617734.000000 0 0 1
-26.728995 10.661351 -17.195529 33.522974 -0.379530 2.109411 0.024582 0.000531 636685.000000 0 0 1
-25.707625 9.674551 -16.939829 32.271299 -0.359936 2.123417 0.032290 0.001521 916505.000000 0 0 1
-24.362225 10.050051 -17.220029 31.480962 -0.391258 2.149571 0.026222 0.002426 -575452.000000 0 0 1
-23.564625 8.750251 -16.932029 30.307624 -0.355549 2.163580 0.028533 0.000142 -497220.000000 0 0 1
-22.168625 8.950151 -16.903529 29.279386 -0.383718 2.186237 0.025883 0.002172 -56477.700000 0 0 1
-21.498925 7.897751 -16.306729 28.115613 -0.352052 2.189511 0.012436 0.003058 -178486.000000 0 0 1
-20.005525 8.210151 -16.079829 26.947885 -0.389435 2.210180 0.015582 0.002995 153028.000000 0 0 1
-19.244925 8.378051 -17.284029 27.190008 -0.410595 2.259680 0.014744 0.005838 472956.000000 0 0 1
-17.853325 8.434551 -16.996829 26.053312 -0.441354 2.281525 0.020966 0.009714 -58127.100000 0 0 1
-17.077225 9.072451 -18.136729 26.511921 -0.488342 2.324161 0.015613 0.005963 -513284.000000 0 0 1
-16.977525 8.312051 -19.348129 27.049522 -0.455286 2.367829 0.022247 0.000859 518624.000000 0 0 1
-15.792325 7.511851 -19.441729 26.149690 -0.443991 2.409053 0.021846 0.004921 100220.000000 0 0 1
-15.567725 6.862251 -20.788929 26.863062 -0.415177 2.455749 0.016899 0.003552 396814.000000 0 0 1
-16.506425 5.835051 -21.128529 27.439472 -0.339791 2.449645 0.012945 0.004206 523384.000000 0 0 1
-17.707425 6.325351 -21.739529 28.743175 -0.343088 2.428492 0.007486 0.002021 416685.000000 0 0 1
-18.468625 5.121851 -22.444529 29.514070 -0.270528 2.434831 0.005108 0.010529 -81787.300000 0 0 1
-19.152425 4.341851 -21.519229 29.133216 -0.222932 2.401861 0.012964 0.008740 -296552.000000 0 0 1
-19.780125 3.274751 -22.097629 29.837603 -0.164069 2.404754 -0.002049 0.020258 -670542.000000 0 0 1
-20.557725 2.491151 -21.032329 29.515839 -0.120590 2.363962 0.011605 0.023212 33236.600000 0 0 1
-21.358725 1.467051 -21.587929 30.403718 -0.068579 2.360355 -0.000009 0.029310 51860.000000 0 0 1
-22.269425 0.926251 -20.679429 30.404342 -0.041569 2.318760 0.010026 0.017836 -503406.000000 0 0 1
-22.835925 -0.427549 -21.101929 31.095879 0.018720 2.316663 0.012019 0.025629 -375770.000000 0 0 1
-21.846625 -1.409449 -21.188429 30.466557 0.064426 2.339863 -0.003443 0.011886 -204901.000000 0 0 1
-22.336525 -2.719249 -21.552029 31.157738 0.121144 2.334647 0.002716 0.000100 -272446.000000 0 0 1
-22.590525 -2.923649 -23.103629 32.444679 0.128704 2.363271 0.005166 -0.003328 1053470.000000 0 0 1
-21.421925 -2.847249 -23.971129 32.274149 0.132138 2.407942 -0.014416 0.000467 1308490.000000 0 0 1
-20.569925 -4.011649 -23.971129 31.840700 0.192607 2.423171 -0.020678 -0.006319 203076.000000 0 0 1
-19.517125 -3.952749 -25.079849 32.024072 0.199824 2.470522 -0.005216 -0.000332 -527874.000000 0 0 1
-20.144325 -3.945449 -26.317679 33.376348 0.193411 2.479183 -0.010154 -0.005528 -314301.000000 0 0 1
-19.313325 -4.081549 -27.414279 33.781744 0.208269 2.517531 -0.005206 -0.001034 -965563.000000 0 0 1
-20.044225 -4.037849 -28.745749 35.275959 0.198786 2.523322 -0.008870 -0.007016 -479102.000000 0 0 1
-20.879925 -5.144149 -28.816689 35.956016 0.241558 2.500500 -0.002868 -0.004139 187866.000000 0 0 1
-21.654025 -5.345949 -29.998549 37.381665 0.242040 2.502259 -0.006207 -0.021184 -348334.000000 0 0 1
-21.187325 -6.639249 -30.687579 37.877564 0.303668 2.515252 -0.000454 -0.019937 307035.000000 0 0 1
-19.922525 -6.485349 -31.317019 37.679204 0.314710 2.551967 -0.007642 -0.025811 232219.000000 0 0 1
-19.312625 -7.751849 -31.596259 37.833744 0.381702 2.559173 -0.002934 -0.021573 -21217.300000 0 0 1
-17.969325 -7.606449 -32.341149 37.771744 0.400431 2.598716 0.008527 -0.023196 -611648.000000 0 0 1
-18.066125 -7.065549 -33.643959 38.835845 0.372805 2.618567 0.002941 -0.028079 278669.000000 0 0 1
-18.479825 -8.008449 -34.623998 40.055716 0.408932 2.614744 0.010476 -0.026335 -477449.000000 0 0 1
-18.653625 -7.478249 33.207824 38.815480 0.381282 0.544222 0.019803 -0.025094 -618455.000000 0 0 1
-17.453425 -7.210549 32.556264 37.636742 0.391775 0.525620 0.016707 -0.025216 -535979.000000 0 0 1
-16.867625 -5.987349 32.971714 37.516650 0.341088 0.497338 0.010429 -0.023773 -484475.000000 0 0 1
-15.501825 -5.832249 32.288754 36.288915 0.359848 0.473957 -0.000229 -0.018082 -268008.000000 0 0 1
-15.668925 -5.649749 30.893504 35.097628 0.346060 0.494479 0.004963 -0.013251 -109299.000000 0 0 1
-14.465825 -5.296049 30.264574 33.959574 0.350952 0.470825 0.010057 -0.008858 -303379.000000 0 0 1
-14.622825 -5.184649 28.784344 32.699328 0.340730 0.494359 0.013320 -0.002537 -18964.900000 0 0 1
-15.400625 -4.089449 28.357574 32.527755 0.259548 0.511939 -0.000039 -0.010120 -45942.300000 0 0 1
-15.924025 -4.215449 27.027874 31.652023 0.258786 0.547350 0.011656 -0.008467 167326.000000 0 0 1
-15.003325 -3.728149 25.874884 30.141474 0.243555 0.538561 0.020349 -0.005815 208895.000000 0 0 1
-14.793325 -2.316449 25.758724 29.794635 0.155326 0.526557 0.013469 0.005994 65471.500000 0 0 1
-13.953125 -2.096549 24.628524 28.383964 0.149141 0.520257 0.003757 0.009805 -82464.500000 0 0 1
-13.604125 -0.615149 24.388944 27.933335 0.045187 0.509246 0.009632 0.010825 -63329.800000 0 0 1
-14.565225 0.191751 23.715484 27.831758 -0.013164 0.550809 0.011362 0.000728 190598.000000 0 0 1
-15.013325 1.294751 24.496384 28.760201 -0.086027 0.551488 -0.004741 0.005930 -555292.000000 0 0 1
-15.617125 2.387951 23.675784 28.462952 -0.151731 0.588435 0.001459 0.003809 -382291.000000 0 0 1
-14.771225 3.185951 22.811984 27.362858 -0.212432 0.585050 -0.001190 0.003786 117184.000000 0 0 1
-15.415325 3.792651 21.739584 26.918878 -0.241240 0.630732 0.007830 0.002861 -283085.000000 0 0 1
-14.389325 4.403851 20.763084 25.642782 -0.296998 0.627147 0.015109 0.002335 498705.000000 0 0 1
-13.703125 5.589451 21.210584 25.863226 -0.387295 0.609200 -0.002523 0.008378 -108725.000000 0 0 1
-12.494625 5.724051 20.526584 24.702653 -0.429587 0.589989 -0.011592 0.012249 -50758.900000 0 1 0
-11.586725 6.882851 21.024484 24.973081 -0.536018 0.570028 -0.010162 0.017465 510025.000000 0 1 0
-12.171425 8.130451 20.704584 25.356018 -0.588922 0.615378 0.002354 0.016294 999680.000000 0 0 1
-11.070625 9.054951 20.668884 25.134710 -0.685576 0.605312 -0.013131 0.019148 804026.000000 0 0 1
-11.500625 10.541151 20.485284 25.749313 -0.741896 0.650855 -0.009791 0.018952 -218763.000000 0 0 1
-11.876625 11.074051 19.267684 25.197867 -0.750443 0.700290 -0.007310 0.024487 342408.000000 0 0 1
-12.324825 12.425751 19.477684 26.185507 -0.789476 0.732007 -0.011752 0.025202 -158414.000000 0 0 1
-12.661625 13.215851 18.189784 25.803948 -0.806812 0.788482 -0.010164 0.022493 203169.000000 0 0 1
-11.561825 13.812351 17.488684 25.105994 -0.873860 0.800157 -0.004857 0.022551 335659.000000 0 0 1
-11.252125 15.112851 17.916584 26.000242 -0.930799 0.810560 -0.004808 0.023053 -252257.000000 0 0 1
-12.229925 16.299851 17.574584 26.909519 -0.927097 0.859127 -0.000642 0.019169 259176.000000 0 0 1
-12.432325 16.707751 16.205984 26.388361 -0.931079 0.909508 -0.001563 0.004004 3032.350000 0 0 1
-13.035625 15.750851 15.365284 25.575551 -0.879443 0.926320 0.000079 0.008514 -68235.500000 0 0 1
-13.705325 16.266751 14.027584 25.479722 -0.870651 0.987786 -0.001764 0.001998 706226.000000 0 0 1
-14.933825 16.990051 14.136084 26.674142 -0.849720 1.012249 -0.003566 0.002997 467369.000000 0 0 1
-15.492025 17.552951 12.938784 26.749226 -0.847685 1.065911 -0.005179 -0.001275 -536587.000000 0 0 1
-16.597325 18.549551 13.113684 28.134068 -0.840886 1.085903 -0.011962 -0.000862 -701487.000000 0 0 1
-17.836125 17.869651 13.245484 28.511308 -0.786337 1.087648 -0.010104 0.005939 -645677.000000 0 0 1
-18.855325 18.829751 13.323484 29.792584 -0.784720 1.107155 -0.011893 0.009740 -736697.000000 0 0 1
-20.225825 18.166651 13.262684 30.249133 -0.731815 1.116925 0.000164 0.018335 -549124.000000 0 0 1
-20.517825 17.665751 11.977984 29.606284 -0.710843 1.154281 -0.004110 0.008993 68992.100000 0 0 1
-21.773625 17.011151 12.099884 30.164171 -0.663217 1.158042 0.001300 0.010276 182359.000000 0 0 1
-22.158725 16.231751 10.809084 29.518048 -0.632221 1.195890 0.002492 0.004197 -365248.000000 0 0 1
-21.453525 15.034451 10.658984 28.282546 -0.611257 1.184376 -0.008182 -0.002101 -216891.000000 0 0 1
-21.879425 14.524751 9.459584 27.913462 -0.586053 1.225060 -0.001135 -0.001578 -656584.000000 0 0 1
-21.354625 13.117951 9.046584 26.644725 -0.550861 1.224383 0.003522 0.006135 -797988.000000 0 0 1
-21.691325 12.109351 9.953484 26.762321 -0.509161 1.189718 0.010533 0.002654 729489.000000 0 0 1
-23.053625 11.824151 10.283984 27.875447 -0.473912 1.192943 0.014781 0.000057 927503.000000 0 0 1
-24.066425 11.404751 9.139784 28.156648 -0.442539 1.240202 0.016105 0.008266 -125935.000000 0 0 1
-24.292125 12.477551 8.220484 28.519695 -0.474505 1.278409 0.017422 0.004908 366283.000000 0 0 1
-25.289065 12.131151 7.250084 28.970077 -0.447276 1.317846 0.004714 0.012651 -370053.000000 0 0 1
-25.389495 13.188151 6.140684 29.261952 -0.479073 1.359373 -0.005453 0.007078 -573371.000000 0 0 1
-24.349125 13.342151 5.187184 28.245350 -0.501269 1.386101 -0.009087 0.012602 1463750.000000 0 0 1
-23.124325 13.921851 5.751984 27.597784 -0.541921 1.360835 -0.000716 0.009880 491449.000000 0 0 1
-23.149825 15.482351 5.987584 28.486291 -0.589471 1.359025 -0.003069 0.001973 -750465.000000 0 0 1
-22.023025 16.012351 6.655884 28.030516 -0.628666 1.331055 -0.024475 0.001154 233203.000000 0 0 1
-22.003825 17.397451 6.780384 28.858504 -0.669017 1.333626 -0.019877 -0.012110 -64414.100000 0 0 1
-20.573825 17.947351 6.602084 28.088738 -0.717321 1.333533 -0.021150 -0.007923 -309428.000000 0 0 1
-20.156925 18.137051 5.297784 27.628261 -0.732700 1.377849 -0.015881 -0.022412 1194050.000000 0 0 1
-18.760225 18.508151 5.261084 26.873346 -0.778635 1.373750 -0.016894 -0.017152 784908.000000 0 0 1
-18.432725 19.331151 4.003484 27.009011 -0.809184 1.422020 0.007919 -0.023926 -320499.000000 0 0 1
-17.052425 19.612751 3.923584 26.283830 -0.855115 1.420959 -0.003401 -0.025136 135602.000000 0 0 1
-16.600225 20.737551 3.191884 26.754470 -0.895756 1.451209 0.000973 -0.011933 -83625.900000 0 0 1
-16.724125 22.189651 3.763484 28.039986 -0.924938 1.436172 0.001221 -0.013165 -234595.000000 0 0 1
-15.932225 22.308251 4.915784 27.850652 -0.950613 1.393362 -0.009637 -0.011001 3521.730000 0 0 1
-16.049325 23.628351 5.361184 29.062383 -0.974139 1.385262 -0.017553 -0.010985 -521394.000000 0 0 1
-15.365625 24.009551 6.673684 29.276254 -1.001498 1.340819 -0.017871 0.010856 -488013.000000 0 0 1
-16.109425 23.569751 7.786584 29.591851 -0.971245 1.304528 -0.018465 0.009180 557216.000000 0 0 1
-15.310925 23.633251 8.979584 29.556521 -0.995930 1.262107 -0.016279 0.006346 278619.000000 0 0 1
-16.022825 22.958251 10.165084 29.784915 -0.961473 1.222515 -0.016359 0.003533 438015.000000 0 0 1
-17.080225 23.778851 10.695284 31.169809 -0.947897 1.220550 -0.015517 0.007540 54238.500000 0 0 1
-17.929325 22.949351 11.449184 31.292447 -0.907589 1.196221 -0.021421 0.007294 98292.500000 0 0 1
-19.169325 23.682451 12.030284 32.757431 -0.890331 1.194742 -0.015495 0.002511 136602.000000 0 0 1
-20.092025 24.297551 11.175184 33.450639 -0.879858 1.230168 -0.007550 0.008378 33473.500000 0 0 1
-19.627825 25.567251 10.731884 33.972183 -0.916067 1.249389 -0.014825 0.005079 -355222.000000 0 0 1
-20.678525 26.415651 9.970084 34.997009 -0.906623 1.281911 -0.000153 0.002054 -155529.000000 0 0 1
-21.648425 26.871951 10.859584 36.175774 -0.892641 1.265905 0.006232 -0.010048 -98876.100000 0 0 1
-22.611825 27.748151 10.273484 37.239751 -0.887039 1.291297 -0.007379 -0.005004 105095.000000 0 0 1
-23.758325 28.097151 11.224584 38.469458 -0.868875 1.274710 -0.011530 -0.004387 -384030.000000 0 0 1
-23.301825 28.790051 12.367484 39.048646 -0.890368 1.248527 -0.019792 -0.010810 372716.000000 0 0 1
-24.353725 29.295051 13.187284 40.313874 -0.877244 1.237547 -0.014564 -0.012728 159720.000000 0 0 1
7.863075 -33.357217 28.434644 44.531571 -1.339299 0.878213 0.003393 0.015576 66580.000000 0 0 1
9.244175 -33.292717 28.116794 44.546761 -1.299956 0.887729 -0.005595 0.002480 520778.000000 0 0 1
9.437675 -32.919917 26.745114 43.452178 -1.291599 0.907767 -0.009344 0.006056 -467450.000000 0 0 1
10.927875 -32.922617 26.383844 43.582386 -1.250313 0.920555 -0.008630 0.003920 -169788.000000 0 0 1
11.461475 -34.242017 26.327564 44.688049 -1.247799 0.940801 -0.000244 -0.004095 -349095.000000 0 0 1
12.852175 -34.216117 26.202544 44.972151 -1.211484 0.948824 0.006098 -0.004187 -394532.000000 0 0 1
13.552975 33.924951 26.005344 44.842651 1.190722 0.952161 0.013819 -0.005787 -169294.000000 0 0 1
13.347075 33.336751 24.724524 43.597999 1.189970 0.967813 0.014695 -0.010495 13257.600000 0 0 1
13.950575 32.093651 24.692334 42.829106 1.160753 0.956319 0.014438 -0.012957 -507868.000000 0 0 1
14.691675 31.805651 23.332684 42.093454 1.138074 0.983267 0.018765 -0.023567 -77171.500000 0 0 1
14.096575 30.957151 22.330784 40.690571 1.143496 0.989874 0.008839 -0.015481 -131974.000000 0 0 1
14.447675 29.532851 22.365384 39.763488 1.115820 0.973438 0.009494 -0.012586 73952.900000 0 0 1
14.233375 28.696951 23.638584 39.810635 1.110363 0.935053 0.007747 -0.005097 -70875.500000 0 0 1
15.056275 29.011251 24.753954 41.001248 1.092080 0.922616 0.006528 -0.005024 131400.000000 0 0 1
14.503575 28.537451 25.955754 41.212146 1.100587 0.889490 0.001441 0.000489 -49700.300000 0 0 1
15.345775 28.908051 27.219284 42.568271 1.082776 0.877044 0.000484 -0.001047 115872.000000 0 0 1
15.032275 30.215351 27.712534 43.668310 1.109147 0.883287 0.003069 -0.002394 247118.000000 0 0 1
15.715175 30.585451 28.909304 44.924207 1.096160 0.871718 0.009915 -0.006316 -8273.490000 0 0 1
15.394175 31.977151 29.470904 46.130825 1.122130 0.877787 0.016563 -0.008942 -241431.000000 0 0 1
15.887675 32.976051 28.662944 46.490887 1.121819 0.906471 0.014985 -0.005584 -183269.000000 0 0 1
15.524475 34.255451 29.129554 47.570749 1.145287 0.911777 0.011487 0.004125 11558.500000 0 0 1
16.330375 -34.034117 28.556584 47.333717 -1.123420 0.923160 0.009486 -0.003573 -325749.000000 0 0 1
16.148775 -33.953717 27.120364 46.358947 -1.126849 0.945906 0.021606 -0.008595 -61322.800000 0 0 1
16.424775 -32.728617 26.504174 45.204058 -1.105672 0.944284 0.019841 -0.006752 66808.600000 0 0 1
17.876375 -32.191117 26.318464 45.260295 -1.063878 0.950236 0.023185 0.002511 45704.300000 0 0 1
18.386475 -31.647817 27.423034 45.734774 -1.044486 0.927782 0.019199 0.002939 521277.000000 0 0 1
19.571575 -30.840917 27.195164 45.538837 -1.005325 0.930808 0.025115 0.005260 794288.000000 0 0 1
19.929375 -30.032617 28.465314 45.928337 -0.984926 0.902338 0.024733 0.006728 683379.000000 0 0 1
18.846675 -29.119617 28.818174 45.095858 -0.996381 0.877543 0.012343 0.002253 1285680.000000 0 0 1
19.199375 -28.375717 29.999134 45.538394 -0.975939 0.851619 0.024150 -0.002981 29378.300000 0 0 1
17.992675 -27.603917 30.557884 44.938812 -0.993146 0.823049 0.010028 -0.006824 -62270.200000 0 0 1
17.554775 -26.514617 29.779734 43.566358 -0.985976 0.818183 0.015604 -0.004315 816528.000000 0 0 1
16.210475 -26.227217 30.197344 43.156992 -1.017190 0.795806 0.004218 -0.004894 636207.000000 0 0 1
15.356275 -25.589117 29.046244 41.644956 -1.030296 0.798931 0.003326 0.005106 -903673.000000 0 0 1
14.891775 -26.375117 28.006244 41.252412 -1.056802 0.824534 0.001116 0.011590 -7513.790000 0 0 1
14.307275 -25.653917 26.972144 39.878793 -1.062058 0.827996 0.000491 0.005063 -828608.000000 0 0 1
12.848575 -25.261517 27.258934 39.322762 -1.100275 0.804863 -0.003162 0.007390 -916339.000000 0 0 1
11.828475 -26.211817 27.181734 39.570429 -1.146891 0.813553 -0.000476 0.009509 158.899000 0 0 1
11.483575 -26.635317 25.880624 38.873118 -1.163736 0.842269 0.001102 0.006833 -617972.000000 0 0 1
10.512675 -27.832417 25.824154 39.396024 -1.209649 0.855950 -0.002298 0.003617 -17149.400000 0 0 1
9.229775 -27.561217 26.358474 39.237464 -1.247652 0.834203 -0.007534 0.002320 -181289.000000 0 0 1
8.564575 -28.780017 26.532884 40.070379 -1.281554 0.847103 -0.000297 0.009179 -571144.000000 0 0 1
7.078075 -28.616617 26.931054 39.928581 -1.328321 0.830535 0.000695 -0.001431 431816.000000 0 0 1
6.174975 -28.397417 25.818104 38.873103 -1.356681 0.844422 -0.007442 0.000611 508604.000000 0 0 1
6.322075 -27.177017 25.088214 37.523025 -1.342236 0.838460 0.008299 -0.000885 -251844.000000 0 0 1
5.096075 -27.001217 24.090484 36.542949 -1.384256 0.850992 -0.000447 0.003637 379343.000000 0 0 1
4.926475 -27.885217 22.996284 36.478549 -1.395931 0.888721 -0.022173 0.005274 -285116.000000 0 0 1
4.390075 -29.165217 23.270584 37.568640 -1.421394 0.902799 -0.027682 0.003833 711679.000000 0 0 1
2.865175 -29.235017 23.706184 37.747564 -1.473103 0.891791 -0.013523 -0.001691 459062.000000 0 0 1
2.004075 -28.775217 22.678484 36.692548 -1.501263 0.904514 -0.016194 -0.004916 506162.000000 0 0 1
0.653575 -28.551217 23.066584 36.710577 -1.547909 0.891384 -0.008141 -0.009774 553123.000000 0 0 1
0.502975 -27.101517 23.663384 35.981953 -1.552240 0.853107 0.002860 -0.011364 -599862.000000 0 0 1
1.215375 -26.920517 24.842994 36.651954 -1.525680 0.826019 0.000217 -0.013092 -237095.000000 0 0 1
1.021775 -25.663317 25.414164 36.132113 -1.531003 0.790672 0.008082 -0.003693 -412769.000000 0 0 1
2.102675 -25.258517 26.430394 36.619389 -1.487742 0.764455 0.017473 0.006333 -938950.000000 0 0 1
3.285975 -24.913917 25.780624 36.001965 -1.439660 0.772613 0.010355 0.004365 -428084.000000 0 0 1
4.204775 -24.137417 26.532424 36.114603 -1.398326 0.745612 0.019215 0.006330 293947.000000 0 0 1
3.777475 -22.663917 26.757344 35.268653 -1.405641 0.709524 0.014528 0.006460 -402352.000000 0 0 1
3.710275 -21.866717 25.597094 33.869318 -1.402720 0.713982 0.012693 0.013203 262418.000000 0 0 1
3.062475 -20.609617 25.671414 33.062918 -1.423281 0.681797 0.017680 -0.000254 -12403.900000 0 0 1
3.190775 -19.683417 24.394934 31.507630 -1.410090 0.685260 0.019057 0.004189 492032.000000 0 0 1
4.522475 -19.182117 24.277284 31.269680 -1.339259 0.681888 0.034846 0.009854 479665.000000 0 0 1
4.648875 -18.695817 22.933684 29.951619 -1.327081 0.698681 0.030749 0.008471 379434.000000 0 0 1
6.070075 -18.182417 22.530284 29.581410 -1.248587 0.704961 0.029271 0.005225 204697.000000 0 0 1
6.998075 -19.211817 22.323384 30.272107 -1.221476 0.741548 0.013494 0.012480 374001.000000 0 0 1
8.247075 -18.764817 21.754284 29.889488 -1.156711 0.755653 0.003996 0.013364 466758.000000 0 0 1
9.357575 -18.653317 22.776584 30.891475 -1.105824 0.741717 0.008100 0.013580 -835225.000000 0 0 1
9.143975 -17.605217 23.645884 30.865576 -1.091757 0.698057 0.017192 0.017518 -360734.000000 0 0 1
10.049175 -17.680117 24.690964 31.987750 -1.053945 0.688991 0.010848 0.015852 -453481.000000 0 0 1
9.944875 -16.689217 25.873974 32.355726 -1.033407 0.644047 0.011521 0.004227 -241098.000000 0 0 1
10.297075 -15.348117 25.555804 31.538763 -0.979868 0.626135 0.015757 0.007186 73969.500000 0 0 1
10.328975 -14.542817 26.700364 32.110601 -0.953227 0.588972 0.007466 0.003577 -17115.400000 0 0 1
10.718975 -13.051317 26.535044 31.453805 -0.883205 0.566807 0.004425 0.004500 -265264.000000 0 0 1
9.724075 -12.295317 25.913094 30.285655 -0.901643 0.544044 0.009915 0.009333 -91477.900000 0 0 1
10.196075 -10.998217 25.769624 29.816006 -0.823227 0.527063 0.008030 0.017128 371283.000000 0 0 1
9.092275 -10.156617 25.069804 28.536317 -0.840636 0.498035 0.020621 0.014265 -559267.000000 0 0 1
7.899775 -9.964517 25.708834 28.681740 -0.900467 0.459333 0.013928 0.011678 -833886.000000 0 0 1
6.957975 -9.404317 24.789914 27.411575 -0.933810 0.440920 0.018918 0.013113 937799.000000 0 0 1
5.448775 -9.502717 25.180984 27.460385 -1.050172 0.410320 0.016727 0.007849 -305216.000000 0 0 1
5.144275 -8.564217 26.204254 28.044113 -1.029884 0.364242 0.018532 0.012538 -274786.000000 0 0 1
3.851175 -8.576417 26.759594 28.363045 -1.148739 0.337858 0.012291 0.014418 1226600.000000 0 0 1
2.621275 -8.409917 25.739394 27.205040 -1.268651 0.329742 0.014041 0.013905 162641.000000 0 0 1
2.559975 -7.147817 25.145644 26.266864 -1.226881 0.293233 0.020094 0.012384 -823916.000000 0 0 1
1.563275 -7.039217 24.196084 25.247671 -1.352262 0.289632 0.019796 0.002944 -758004.000000 0 0 1
1.674575 -5.840417 23.234384 24.015646 -1.291565 0.255771 0.015944 -0.012408 -71881.500000 0 1 0
1.317575 -4.606317 23.917384 24.392528 -1.292199 0.197700 0.004361 -0.004349 47125.700000 0 1 0
1.729975 -3.501217 23.171484 23.498277 -1.111875 0.166970 0.011282 -0.017834 -285731.000000 0 1 0
0.564675 -2.868217 22.345684 22.536085 -1.376409 0.130082 -0.013753 -0.016496 747572.000000 0 1 0
-0.277325 -1.962217 23.058584 23.143584 1.430394 0.085732 -0.003134 -0.010390 -242162.000000 0 1 0
-1.242225 -2.523217 23.887384 24.052377 1.113313 0.117197 0.010277 0.002320 -590912.000000 0 1 0
-2.144525 -1.437217 24.518414 24.653949 0.590431 0.104905 0.018851 0.007598 -283076.000000 0 1 0
-1.391225 -0.547217 25.264644 25.308836 0.374747 0.059104 0.019638 -0.000235 -463014.000000 0 0 1
-2.053325 0.606783 25.607104 25.696461 -0.287335 0.083420 0.019916 0.000987 -577825.000000 0 0 1
-1.297825 1.419783 26.714894 26.784057 -0.830245 0.071880 0.028206 -0.008818 -62265.900000 0 0 1
-1.475725 0.996783 28.071054 28.127485 -0.594061 0.063355 0.030688 -0.000308 132855.000000 0 0 1
-0.923625 -0.299217 28.396234 28.412827 0.313291 0.034177 0.041558 -0.005199 649451.000000 0 0 1
0.471575 -0.093217 29.128054 29.132020 -0.195156 0.016501 0.044459 -0.009946 806446.000000 0 0 1
1.488175 0.591783 28.416554 28.461648 0.378485 0.056299 0.042417 -0.004675 492180.000000 0 0 1
2.191575 -0.139217 27.373994 27.461936 -0.063439 0.080050 0.032215 -0.002917 174369.000000 0 0 1
3.267975 -1.150217 27.849484 28.064148 -0.338426 0.123765 0.024135 -0.002136 -349977.000000 0 0 1
2.710175 -2.333217 28.346124 28.570819 -0.710794 0.125498 0.035868 0.002683 -10381.300000 0 0 1
3.666075 -3.346217 28.570464 28.998425 -0.739816 0.172015 0.018652 0.014851 58375.600000 0 0 1
4.083575 -4.168217 27.323284 27.939425 -0.795655 0.210401 0.022114 0.012607 351031.000000 0 0 1
4.995075 -3.496217 26.443024 27.136835 -0.610681 0.226613 0.025981 0.011244 72101.600000 0 0 1
5.365375 -4.267217 25.360864 26.271083 -0.671884 0.264004 0.022134 0.012397 351787.000000 0 0 1
6.567575 -3.647217 24.538324 25.662513 -0.506931 0.297087 0.027669 0.010230 1577700.000000 0 0 1
7.852675 -3.577217 25.198654 26.635186 -0.427452 0.329926 0.019571 0.013616 980539.000000 0 0 1
8.616575 -4.736717 25.498204 27.328378 -0.502629 0.368051 0.012595 0.012054 -552279.000000 0 0 1
9.444075 -5.300717 24.401094 26.696470 -0.511458 0.417712 0.015790 0.007674 -1560150.000000 0 0 1
8.668775 -5.790317 23.341384 25.563561 -0.588891 0.420040 0.016114 0.001812 -304719.000000 0 0 1
9.355275 -5.975717 22.112884 24.742878 -0.568429 0.465255 0.027046 -0.002593 -6772.700000 0 1 0
9.428475 -4.636317 21.315384 23.764199 -0.457014 0.457966 0.021226 -0.013761 242536.000000 0 1 0
8.143775 -4.122217 21.033984 22.929069 -0.468580 0.409424 0.025165 -0.016524 -193305.000000 0 1 0
8.221375 -2.793217 20.605784 22.360487 -0.327515 0.398803 0.019639 -0.006949 358605.000000 0 1 0
6.782875 -2.251217 20.380084 21.596833 -0.320457 0.337272 0.022467 -0.006540 508002.000000 0 1 0
6.113075 -1.860217 21.572184 22.498649 -0.295398 0.287974 0.021340 -0.001558 -329422.000000 0 1 0
5.017675 -1.030217 21.362584 21.968122 -0.202503 0.235338 0.013994 -0.000918 -524290.000000 0 1 0
4.461075 -0.595217 22.723284 23.164695 -0.132641 0.195531 0.008817 -0.007545 306246.000000 0 1 0
3.337775 0.277783 22.498884 22.746817 0.083033 0.147780 0.010788 -0.010207 519178.000000 0 1 0
2.642975 0.563783 23.698584 23.852171 0.210164 0.113543 0.018000 -0.011009 -540068.000000 0 1 0
1.197275 0.989783 23.544184 23.595375 0.690809 0.065884 0.018033 -0.018241 -798844.000000 0 1 0
1.085775 2.339783 23.184584 23.327632 1.136321 0.110801 0.018562 -0.011866 706884.000000 0 1 0
-0.283025 2.619783 22.882184 23.033404 -1.463180 0.114651 0.004117 -0.018604 517818.000000 0 1 0
-0.695125 4.057783 22.472784 22.846768 -1.401136 0.181186 0.003530 -0.014356 -523475.000000 0 1 0
-0.587125 5.048783 23.446084 23.990702 -1.455026 0.213484 0.005106 -0.012012 -107229.000000 0 1 0
-1.498025 6.126783 23.280484 24.119753 -1.330997 0.264574 0.007004 -0.010850 -135556.000000 0 1 0
-1.379925 7.384783 24.178584 25.318830 -1.386066 0.301256 0.009282 -0.005062 -352573.000000 0 0 1
-0.259425 8.176783 23.854084 25.217938 -1.539080 0.330386 0.001104 -0.003896 -137437.000000 0 0 1
-0.439325 9.561783 24.121784 25.951515 -1.524883 0.377757 0.009622 -0.005167 -1143110.000000 0 0 1
0.463475 10.549783 23.415684 25.686708 1.526892 0.423667 0.014511 -0.009231 643163.000000 0 0 1
1.872675 10.558783 23.707284 26.019802 1.395265 0.424792 0.011986 -0.006552 610415.000000 0 0 1
2.219075 10.948783 25.065804 27.442570 1.370827 0.419258 0.011646 -0.008566 -1445870.000000 0 0 1
3.460775 11.842783 25.162584 28.024705 1.286486 0.455886 0.012628 -0.008372 779246.000000 0 0 1
4.731375 11.253783 24.803044 27.644611 1.172807 0.457384 0.020744 -0.006977 924853.000000 0 0 1
4.824275 10.871783 23.462184 26.304816 1.153158 0.469190 0.016125 -0.007988 -1456520.000000 0 0 1
6.226975 10.462783 22.976584 26.003239 1.033947 0.487291 0.022281 -0.003382 202620.000000 0 0 1
7.096475 11.461783 22.494284 26.224516 1.016420 0.539904 0.019937 -0.003061 187505.000000 0 0 1
8.284075 10.922783 21.945384 25.875335 0.921927 0.558370 0.020649 0.001380 328821.000000 0 0 1
9.097375 11.968783 21.125384 25.928668 0.920868 0.618498 0.018035 -0.015808 -317699.000000 0 0 1
8.599375 12.195783 19.794984 24.789670 0.956649 0.645968 0.019041 -0.020105 151704.000000 0 1 0
9.332575 13.148783 19.056984 24.963094 0.953545 0.702226 0.022048 -0.022525 -279709.000000 0 1 0
10.735375 12.718783 18.576484 24.941962 0.869763 0.730579 0.007073 -0.019560 -150309.000000 0 1 0
11.680375 12.703783 19.619384 26.129246 0.827344 0.721434 0.003271 -0.016845 -763499.000000 0 0 1
12.916175 12.258783 19.153784 26.152873 0.759291 0.748989 0.003363 -0.019658 -229614.000000 0 0 1
13.995675 12.066783 20.255684 27.418587 0.711522 0.739572 -0.002837 -0.005013 74468.800000 0 0 1
14.586375 13.245783 20.723884 28.595322 0.737268 0.760154 -0.007409 -0.004514 -369672.000000 0 0 1
15.635175 12.980783 21.615684 29.668118 0.692904 0.754546 -0.007017 0.001095 -114521.000000 0 0 1
16.311375 14.298783 22.063584 30.940554 0.719744 0.776892 -0.009172 0.008043 -174690.000000 0 0 1
15.543075 15.131783 22.968884 31.593158 0.771991 0.756823 -0.006367 0.012888 798558.000000 0 0 1
16.329375 16.264783 23.374084 32.825896 0.783416 0.778365 -0.000668 0.019306 149348.000000 0 0 1
-20.392625 12.757651 -25.239449 34.866124 -0.559032 2.380229 -0.002761 -0.003331 11944.500000 0 0 1
-20.117825 12.696151 -26.668029 35.736577 -0.562966 2.413191 -0.001236 -0.009354 -25350.700000 0 0 1
-20.761325 13.751351 -27.351039 36.989345 -0.585011 2.403020 0.008994 -0.006762 -81642.800000 0 0 1
-20.423825 13.879251 -28.877419 37.995678 -0.596877 2.434138 0.013226 0.003288 -675506.000000 0 0 1
-19.084325 14.081951 -29.164879 37.591262 -0.635699 2.458845 0.011304 -0.002170 -1113270.000000 0 0 1
-19.015625 14.655751 -30.424879 38.756397 -0.656632 2.473539 0.026978 0.001005 853314.000000 0 0 1
-17.503225 14.976851 -30.668209 38.356329 -0.707772 2.497360 0.021638 -0.003763 1095040.000000 0 0 1
-16.659425 13.860451 -30.983649 37.810515 -0.693944 2.531239 0.023304 -0.006613 1291400.000000 0 0 1
-15.226225 14.044451 -30.907769 37.207186 -0.745046 2.551149 0.017874 0.001065 1553860.000000 0 0 1
-14.611525 13.646651 -29.514229 35.648527 -0.751266 2.546190 0.021864 0.003696 -391202.000000 0 0 1
-15.139525 14.194651 -28.313809 35.105058 -0.753199 2.509081 0.019172 -0.005095 -104407.000000 0 0 1
-16.047725 13.246651 -27.740149 34.677357 -0.690070 2.498008 0.020612 -0.001170 -292351.000000 0 0 1
-16.822125 13.841151 -26.609169 34.389086 -0.688486 2.455564 0.019663 -0.009016 -643034.000000 0 0 1
-16.026825 14.058151 -25.453029 33.201618 -0.720054 2.444357 0.040325 -0.009253 2816.900000 0 0 1
-16.798425 14.446151 -24.358329 32.927292 -0.710254 2.403512 0.019435 -0.007780 -284505.000000 0 0 1
-15.939425 14.994751 -23.201529 31.893868 -0.754869 2.385410 0.025601 -0.009299 351177.000000 0 0 1
-15.332725 16.294651 -23.495329 32.444393 -0.815803 2.380630 0.005190 -0.011549 125258.000000 0 0 1
-14.760925 16.951751 -22.382329 31.720899 -0.854372 2.354069 0.008842 -0.008588 -283563.000000 0 0 1
-14.335825 18.371651 -22.676929 32.515789 -0.908169 2.342577 0.002662 -0.016439 -118443.000000 0 0 1
-15.341925 19.353351 -22.828529 33.631364 -0.900506 2.316906 -0.021010 -0.010951 -65408.200000 0 0 1
-16.043125 19.235851 -24.053629 34.727178 -0.875652 2.335947 -0.026654 -0.007262 -757443.000000 0 0 1
-17.313325 20.030251 -24.215329 35.879581 -0.858025 2.311633 -0.026105 -0.005714 -624106.000000 0 0 1
-17.070325 21.412951 -24.385229 36.668104 -0.897767 2.298324 -0.029407 -0.009440 380774.000000 0 0 1
-18.280725 21.976851 -24.876029 37.894376 -0.876953 2.286909 -0.003692 -0.005996 223649.000000 0 0 1
-18.078125 23.440651 -25.215489 38.885777 -0.913846 2.276343 -0.006953 -0.012799 293764.000000 0 0 1
-17.646925 24.169051 -24.050729 38.392637 -0.940124 2.247775 -0.011722 -0.006240 -58230.800000 0 0 1
-16.720925 25.180151 -24.353829 38.816728 -0.984606 2.249013 -0.018490 -0.011970 -464828.000000 0 0 1
-15.820325 25.539051 -23.144829 37.923725 -1.016193 2.227235 -0.022002 -0.009972 38596.500000 0 0 1
-14.761125 24.582151 -22.928129 36.713377 -1.030023 2.245309 -0.022585 -0.017672 256853.000000 0 0 1
-15.099025 23.303951 -22.395729 35.673847 -0.995887 2.249509 -0.027831 -0.012234 -634241.000000 0 0 1
-13.876625 22.401451 -22.123529 34.406922 -1.016196 2.269201 -0.008852 -0.016679 340762.000000 0 0 1
-12.952725 22.936351 -21.181429 33.800921 -1.056718 2.248046 -0.004108 -0.019875 -178905.000000 0 0 1
-11.943025 22.017851 -20.849429 32.590187 -1.073788 2.264964 0.006387 -0.015096 -419667.000000 0 0 1
-11.271825 22.456451 -19.548029 31.835070 -1.105597 2.231966 0.010028 -0.021795 -147974.000000 0 0 1
-12.033225 22.390851 -18.348429 31.349858 -1.077665 2.196021 0.007266 -0.015590 -460025.000000 0 0 1
-13.030525 23.323051 -18.108529 32.275039 -1.061300 2.166473 -0.002055 -0.016645 -956968.000000 0 0 1
-13.901425 23.093451 -16.880329 31.804129 -1.028934 2.130292 0.001645 -0.012511 -408850.000000 0 0 1
-13.252525 23.282251 -15.683329 31.042865 -1.053323 2.100428 0.014136 -0.012747 -394165.000000 0 0 1
-14.158225 23.362651 -14.617229 30.982773 -1.025962 2.062111 0.010932 -0.007844 174845.000000 0 0 1
-13.418825 23.751151 -13.283229 30.341823 -1.056528 2.023931 0.010013 0.001789 27847.700000 0 0 1
-12.822425 25.007051 -13.341929 31.109071 -1.096999 2.014044 0.005617 0.002832 -157520.000000 0 0 1
-11.969525 25.146851 -12.258329 30.428610 -1.126545 1.985431 0.006719 0.007490 -428149.000000 0 0 1
-11.530125 26.568151 -11.927229 31.322025 -1.161342 1.961451 -0.000201 0.005888 -255188.000000 0 0 1
-10.831825 27.137851 -12.985129 31.975068 -1.191031 1.988980 0.006155 -0.005976 -22200.400000 0 0 1
-10.513525 28.472051 -12.714029 32.906511 -1.217069 1.967487 0.006752 0.006996 -363373.000000 0 0 1
-10.078625 29.278151 -13.966229 33.968285 -1.239265 1.994517 0.012526 -0.004898 667591.000000 0 0 1
-8.678325 29.401851 -14.205129 33.787096 -1.283783 2.004716 0.009623 -0.001013 368004.000000 0 0 1
-8.011725 28.301651 -14.784729 32.920502 -1.294931 2.036559 0.010606 0.001639 -16059.900000 0 0 1
-6.761725 28.684051 -15.600629 33.344795 -1.339292 2.057662 0.006764 0.005627 46195.000000 0 0 1
-5.866625 29.436251 -14.843029 33.484708 -1.374075 2.030048 0.000445 0.005252 -409800.000000 0 0 1
-4.507225 29.262151 -15.230829 33.295146 -1.417968 2.045921 -0.000346 0.004512 476744.000000 0 0 1
-3.570825 30.033951 -14.297929 33.454743 -1.452459 2.012390 -0.013769 -0.001563 -307497.000000 0 0 1
-3.354325 31.427651 -14.397329 34.730849 -1.464467 1.998234 -0.013885 -0.009716 -94066.600000 0 0 1
-4.390025 32.230651 -13.851029 35.354465 -1.435423 1.973357 -0.020019 -0.017416 183049.000000 0 0 1
-4.253525 33.743751 -14.128729 36.828715 -1.445404 1.964524 -0.015591 -0.023015 396186.000000 0 0 1
-3.269125 34.428451 -13.364029 37.075635 -1.476126 1.939550 -0.022472 -0.024249 76382.000000 0 0 1
-3.355025 -33.699017 -13.709929 36.535491 1.471565 1.955462 -0.024978 -0.023657 604176.000000 0 0 1
-2.423225 -32.741717 -12.861429 35.260579 1.496921 1.944165 -0.019645 -0.017644 -49991.100000 0 0 1
-2.877625 -32.684617 -11.527429 34.777098 1.482981 1.908653 -0.014646 -0.019143 504388.000000 0 0 1
-1.898325 -32.058017 -10.705829 33.851660 1.511650 1.892578 -0.015821 -0.016805 127961.000000 0 0 1
-2.426625 -31.976617 -9.287529 33.386386 1.495054 1.852698 -0.013535 -0.013591 -500493.000000 0 0 1
-1.404025 -31.747317 -8.345529 32.855917 1.526600 1.827614 -0.023538 -0.016554 -498778.000000 0 0 1
-1.813125 -31.653817 -7.006229 32.470584 1.513579 1.788278 -0.010692 -0.020058 -163643.000000 0 0 1
-0.695025 -31.229717 -6.017129 31.811698 1.548545 1.761091 -0.006902 -0.009099 -55226.700000 0 0 1
-0.975525 -31.259917 -4.625829 31.615382 1.539600 1.717639 0.007258 -0.005334 -131990.000000 0 0 1
0.135475 -30.743817 -3.930329 30.994324 -1.566390 1.697947 0.014691 -0.000860 -93995.800000 0 0 1
-0.017725 -30.944217 -2.421129 31.038794 1.570224 1.648879 0.013855 0.008313 -293118.000000 0 0 1
0.071175 -32.316117 -1.877629 32.370696 -1.568594 1.628833 0.011308 0.005431 1025890.000000 0 0 1
1.276075 -33.049017 -2.206729 33.147180 -1.532204 1.637419 0.009288 0.001985 1447400.000000 0 0 1
2.648675 -32.581117 -1.594329 32.727459 -1.489680 1.619531 0.003074 0.003802 -200773.000000 0 0 1
2.815775 -32.905317 -0.253029 33.026543 -1.485432 1.578458 0.002556 0.005369 6247.200000 0 0 1
3.965775 -32.464317 0.433371 32.708517 -1.449241 1.557546 -0.007448 0.005368 -181369.000000 0 0 1
3.988875 -30.964217 0.626471 31.226372 -1.442680 1.550733 -0.008098 0.004303 -745488.000000 0 0 1
4.236375 -30.226617 -0.546629 30.526940 -1.431550 1.588704 -0.006950 -0.005039 222058.000000 0 0 1
4.052075 -28.814917 -0.445129 29.101837 -1.431088 1.586092 0.006430 -0.002833 -475004.000000 0 0 1
3.813975 -28.155317 -1.829929 28.471335 -1.436154 1.635113 0.011342 -0.007967 -89905.300000 0 0 1
2.545475 -28.489317 -2.368129 28.700674 -1.481685 1.653401 0.010391 -0.004722 379155.000000 0 0 1
2.114175 -27.374517 -3.224929 27.644784 -1.493718 1.687719 0.005429 -0.006087 -119079.000000 0 0 1
2.611375 -27.345417 -4.634329 27.857999 -1.475589 1.737929 -0.000801 -0.004656 -336116.000000 0 0 1
2.096975 -28.456717 -5.356429 29.032282 -1.497239 1.756358 -0.006034 -0.010023 116997.000000 0 0 1
2.665875 -28.472417 -6.656029 29.361338 -1.477438 1.799478 0.004267 -0.010461 -606045.000000 0 0 1
2.037175 -29.422117 -7.652329 30.469152 -1.501667 1.824665 -0.005527 -0.005064 492930.000000 0 0 1
0.665575 -29.157617 -7.992229 30.240459 -1.547974 1.838263 -0.005515 -0.000914 646712.000000 0 0 1
0.520675 -29.210417 -9.393029 30.687922 -1.552973 1.881871 -0.012249 0.004948 344569.000000 0 0 1
-0.766525 -28.418117 -9.795129 30.068613 1.543830 1.902611 -0.019243 0.002345 -314942.000000 0 0 1
-0.822325 -27.032417 -9.480029 28.658310 1.540386 1.907942 -0.021809 0.005549 14990.000000 0 0 1
-2.107225 -26.426217 -9.548629 28.177325 1.491225 1.916519 -0.012489 0.003633 541211.000000 0 0 1
-3.145825 -26.912217 -8.532129 28.407057 1.454432 1.875858 -0.005254 -0.002669 -818691.000000 0 0 1
-2.885425 -26.538717 -7.198329 27.648601 1.462497 1.834182 0.001653 -0.005119 -165153.000000 0 0 1
-1.954425 -27.376917 -6.527829 28.212195 1.499528 1.804296 0.006207 -0.006034 306016.000000 0 0 1
-1.710725 -26.874417 -5.046929 27.397671 1.507226 1.756065 0.007807 -0.002574 336757.000000 0 0 1
-2.681525 -27.375817 -4.140529 27.816720 1.473155 1.720202 0.008492 -0.001780 335895.000000 0 0 1
-2.220925 -27.091017 -2.813529 27.327123 1.488999 1.673936 0.006779 0.004215 598503.000000 0 0 1
-3.386825 -27.140517 -1.756729 27.407378 1.446650 1.634937 0.006333 0.006666 583784.000000 0 0 1
-4.334325 -26.110117 -1.978729 26.541288 1.406295 1.645418 0.001494 0.007799 -424294.000000 0 0 1
-5.181125 -26.045917 -0.884629 26.570970 1.374437 1.604096 0.007520 0.008542 -3136.490000 0 0 1
-6.213625 -24.886317 -0.853029 25.664481 1.326118 1.604040 -0.010972 0.002550 559890.000000 0 0 1
-5.555825 -23.664117 -0.515329 24.313025 1.340194 1.591993 -0.020373 0.006865 -356332.000000 0 1 0
-6.432425 -22.826117 0.111471 23.715399 1.296118 1.566096 -0.012220 0.004107 -591623.000000 0 1 0
-5.733125 -21.521917 0.509571 22.278270 1.310457 1.547921 -0.013866 0.000506 -429802.000000 0 1 0
-4.829025 -21.605517 1.525371 22.191093 1.350902 1.502004 -0.015271 -0.001945 -587404.000000 0 1 0
-4.289925 -20.330717 1.833971 20.859170 1.362840 1.482761 -0.015715 -0.002304 -131175.000000 0 1 0
-3.284325 -20.294217 2.988571 20.774350 1.410352 1.426437 -0.008010 0.004862 -59846.700000 0 1 0
-3.961725 -20.385217 4.224071 21.191865 1.378846 1.370127 -0.007430 0.011625 726922.000000 0 1 0
-3.066725 -20.213017 5.380571 21.140516 1.420224 1.313451 0.005327 0.008301 1165560.000000 0 1 0
-2.076525 -21.366517 5.782771 22.232419 1.473915 1.307665 -0.013939 0.001049 735000.000000 0 1 0
-1.145425 -21.731417 4.769871 22.278199 1.518137 1.355021 0.006581 -0.002423 104368.000000 0 1 0
-0.549925 -22.990917 5.131371 23.563015 1.546882 1.351265 0.001600 -0.006005 -351149.000000 0 1 0
0.427375 -23.542517 4.069971 23.895553 -1.552645 1.399638 0.006141 -0.004821 633744.000000 0 1 0
1.546375 -22.645617 3.882471 23.028001 -1.502616 1.401389 0.003472 -0.013680 445646.000000 0 1 0
2.668575 -23.223417 4.513871 23.808054 -1.456389 1.380047 0.018110 -0.008508 -911879.000000 0 1 0
3.890675 -22.369917 4.789371 23.205358 -1.398594 1.362911 0.023364 -0.005282 55213.400000 0 1 0
4.626475 -22.136917 3.581271 22.897006 -1.364768 1.413744 0.011546 0.001865 700454.000000 0 1 0
5.842875 -21.355017 3.696171 22.446328 -1.303726 1.405376 0.024335 0.003664 1365310.000000 0 1 0
6.503475 -20.967517 2.339671 22.077274 -1.270036 1.464620 0.026989 0.010742 -206703.000000 0 1 0
7.216575 -22.045817 1.755671 23.263263 -1.254445 1.495255 0.018099 0.013957 -220879.000000 0 1 0
6.848675 -22.180717 0.393271 23.217304 -1.271316 1.553857 0.021342 0.006930 127678.000000 0 1 0
7.906575 -22.873517 -0.497429 24.206593 -1.237989 1.591347 0.012298 0.006050 -180635.000000 0 1 0
9.030775 -22.104517 -0.788029 23.891119 -1.182942 1.603786 0.010170 0.006303 -657454.000000 0 1 0
9.935675 -22.860817 -1.583229 24.976813 -1.160809 1.634227 0.009759 0.000617 -169509.000000 0 1 0
11.236975 -22.200317 -2.007329 24.963034 -1.102231 1.651295 0.005452 0.002441 -557095.000000 0 1 0
11.189975 -21.119317 -2.955229 24.082659 -1.083558 1.693818 0.011400 0.011078 -877344.000000 0 1 0
12.347575 -21.069617 -3.707629 24.700969 -1.040707 1.721466 0.008544 0.011088 -574928.000000 0 1 0
12.390375 -19.795417 -4.569529 23.796229 -1.011535 1.764024 0.013019 -0.005775 -132324.000000 0 1 0
12.585975 -18.659617 -3.768229 22.820772 -0.977388 1.736679 0.032447 0.004773 93556.900000 0 1 0
12.513275 -17.482017 -4.566729 21.978580 -0.949558 1.780102 0.018878 -0.004741 -1190160.000000 0 1 0
13.125775 -16.247417 -3.814029 21.232318 -0.891276 1.751410 0.050459 -0.000200 705590.000000 0 1 0
14.510175 -16.228517 -3.485829 22.046790 -0.841242 1.729573 0.035692 0.008666 490317.000000 0 1 0
15.373375 -16.398817 -4.579529 22.939789 -0.817662 1.771779 0.018213 0.013858 -487550.000000 0 1 0
16.900875 -16.082517 -4.426829 23.746236 -0.760592 1.758316 0.011071 0.019292 698550.000000 0 1 0
17.543175 -17.095217 -3.718529 24.775732 -0.772466 1.721453 0.010670 0.016418 1267690.000000 0 1 0
18.940575 -16.818917 -3.452629 25.564467 -0.726136 1.706266 -0.014118 0.023849 1245820.000000 0 0 1
19.765775 -18.000517 -2.823229 26.882617 -0.738691 1.676011 -0.002189 0.010384 602987.000000 0 0 1
21.049475 -17.529817 -2.404429 27.498294 -0.694418 1.658347 -0.022137 0.015526 265919.000000 0 0 1
21.762675 -18.401017 -1.612729 28.544918 -0.701894 1.627324 -0.016004 0.014536 -404940.000000 0 0 1
23.269875 -18.111917 -1.573529 29.529724 -0.661395 1.624108 -0.006978 0.010999 -345508.000000 0 0 1
23.628375 -16.916417 -1.038629 29.078239 -0.621342 1.606522 -0.015594 0.017257 889653.000000 0 0 1
24.963475 -16.938317 -0.475629 30.171309 -0.596167 1.586561 -0.002671 0.017028 1051580.000000 0 0 1
25.397275 -15.570817 0.045071 29.790501 -0.549989 1.569283 -0.014859 0.021519 -87696.300000 0 0 1
24.794775 -15.311417 1.299171 29.170331 -0.553207 1.526244 -0.021681 0.025981 359187.000000 0 0 1
25.459875 -14.238217 1.975371 29.237547 -0.509911 1.503182 -0.027171 0.015371 87695.900000 0 0 1
24.683475 -13.702317 3.180971 28.410315 -0.506766 1.458596 -0.021849 0.011157 -239078.000000 0 0 1
24.286175 -14.678217 4.172271 28.682332 -0.543638 1.424814 -0.007219 0.009304 675452.000000 0 0 1
25.347975 -15.232217 5.009171 29.993867 -0.541099 1.403004 -0.005671 0.011826 639670.000000 0 0 1
24.785175 -15.995717 6.205271 30.144207 -0.573117 1.363461 0.006487 0.007116 -48121.100000 0 0 1
24.111275 -17.139017 5.789271 30.143244 -0.617957 1.377537 0.002340 0.012816 -1195.750000 0 0 1
23.077975 -17.407517 6.726771 29.679353 -0.646242 1.342161 0.007489 0.007547 76327.400000 0 0 1
22.295275 -18.706117 6.676371 29.859203 -0.698083 1.345295 0.010761 0.011257 -125023.000000 0 0 1
23.114175 -19.782117 7.094571 31.239881 -0.707877 1.341698 0.018895 0.011136 -119152.000000 0 0 1
22.490675 -21.032717 6.979171 31.573952 -0.751912 1.347914 -0.004293 0.011173 -70582.400000 0 0 1
1.931375 23.168351 -2.928329 23.432410 1.487626 1.696093 0.010648 -0.010609 268276.000000 0 1 0
2.644475 24.368951 -2.661929 24.656133 1.462701 1.678969 0.013415 -0.006277 -116066.000000 0 1 0
3.375875 24.841951 -3.749629 25.349138 1.435730 1.719261 0.018186 -0.004927 -234905.000000 0 0 1
4.330075 26.008151 -3.377229 26.581557 1.405820 1.698192 0.020749 0.004630 -363376.000000 0 0 1
5.426875 25.445651 -2.727629 26.160507 1.360671 1.675251 0.017206 -0.000395 -959361.000000 0 0 1
5.934975 26.345251 -1.822529 27.066914 1.349218 1.638182 0.011005 0.001992 -593911.000000 0 0 1
7.097375 25.834851 -0.970729 26.809599 1.302690 1.607012 0.002284 -0.007368 -368155.000000 0 0 1
8.167075 25.525851 -1.824829 26.862617 1.261136 1.638781 -0.011980 -0.004667 -480226.000000 0 0 1
9.107875 24.689051 -1.160329 26.341014 1.217381 1.614861 -0.018204 -0.001670 -70908.000000 0 0 1
10.381475 24.359651 -1.952029 26.551423 1.167931 1.644382 -0.023697 0.001386 -1178180.000000 0 0 1
11.177475 25.530751 -2.113329 27.950338 1.158130 1.646479 -0.023166 0.006315 -209372.000000 0 0 1
12.221875 25.473051 -3.046529 28.417106 1.123442 1.678210 -0.022377 0.005805 407801.000000 0 0 1
13.355075 24.423351 -2.742929 27.971088 1.070401 1.669017 -0.009043 -0.002620 -1230760.000000 0 0 1
13.014875 23.080851 -3.009029 26.667713 1.057358 1.683871 0.003414 -0.006838 -158617.000000 0 0 1
13.001375 22.695651 -4.365029 26.517576 1.050574 1.736158 -0.003536 -0.008100 -1153620.000000 0 0 1
12.172275 21.468251 -4.592629 25.102636 1.055003 1.754787 0.003835 -0.017438 -1030730.000000 0 0 1
10.820875 21.800651 -4.447629 24.741486 1.110069 1.751543 0.018200 -0.008946 -656207.000000 0 1 0
10.094275 20.579551 -4.401729 23.340684 1.114777 1.760519 0.014829 -0.000588 -909965.000000 0 1 0
8.599475 20.772551 -4.417729 22.912141 1.178294 1.764823 0.001979 -0.001699 -996051.000000 0 1 0
8.000875 21.398851 -3.273829 23.079055 1.212997 1.713129 0.008033 0.004755 -241608.000000 0 1 0
6.649475 21.627551 -3.592229 22.910055 1.272515 1.728243 0.008030 0.006395 -239481.000000 0 1 0
5.938275 22.336451 -2.457929 23.242667 1.310951 1.676745 0.015570 -0.000909 -236117.000000 0 1 0
5.578275 21.490551 -1.394329 22.246463 1.316832 1.633514 0.017732 -0.007803 -41252.800000 0 1 0
5.042675 22.172951 -0.252929 22.740543 1.347175 1.581919 0.023346 -0.003749 483254.000000 0 1 0
4.260375 21.269851 0.759171 21.705615 1.373111 1.535813 0.007058 -0.004818 275025.000000 0 1 0
3.580275 21.991051 1.775671 22.351235 1.409406 1.491269 0.013260 0.002554 236197.000000 0 1 0
3.092975 21.117051 2.786271 21.523468 1.425362 1.440979 0.008279 -0.002542 -6421.030000 0 1 0
2.003075 21.671951 3.727871 22.081277 1.478631 1.401159 0.003518 0.002921 18157.500000 0 1 0
0.694175 21.637451 3.190271 21.882391 1.538725 1.424483 0.011790 -0.003786 -225385.000000 0 1 0
-0.198325 22.073151 4.199871 22.470030 -1.561812 1.382781 0.003546 -0.011313 -602267.000000 0 1 0
-1.643625 22.156851 3.720671 22.527116 -1.496751 1.404872 -0.002943 -0.012044 -569880.000000 0 1 0
-2.456725 22.623851 4.777771 23.252984 -1.462630 1.363853 0.004549 -0.007213 -904164.000000 0 1 0
-3.744325 22.867551 4.334471 23.573980 -1.408497 1.385877 0.006811 0.004529 -408041.000000 0 1 0
-4.793825 23.213651 5.421971 24.315677 -1.367150 1.345923 0.010954 -0.007064 74116.300000 0 1 0
-4.949225 24.544651 5.715271 25.682661 -1.371823 1.346383 0.013319 -0.000974 -504989.000000 0 0 1
-6.028825 24.798051 6.542571 26.345689 -1.332306 1.319835 0.024422 -0.008181 -469694.000000 0 0 1
-6.125825 26.317751 6.868071 27.880462 -1.342104 1.321894 0.021783 -0.011457 129451.000000 0 0 1
-4.974125 26.848051 7.521571 28.321967 -1.387604 1.301997 0.023098 -0.016389 137555.000000 0 0 1
-5.181725 28.069651 8.218571 29.703544 -1.388249 1.290452 0.025394 -0.015914 -117659.000000 0 0 1
-5.587825 29.295951 7.361871 30.719273 -1.382323 1.328791 0.018529 -0.019082 -643267.000000 0 0 1
-6.916825 29.261551 6.963771 30.863813 -1.338678 1.343208 0.025387 -0.019956 -1244460.000000 0 0 1
-7.136525 30.202451 5.985671 31.606112 -1.338763 1.380262 0.020842 -0.019092 -1011340.000000 0 0 1
-8.582825 30.483851 5.574371 32.155928 -1.296348 1.396562 0.023275 -0.018697 -134453.000000 0 0 1
-9.315825 31.166151 6.584571 33.188404 -1.280341 1.371071 0.020759 -0.016814 -452255.000000 0 0 1
-9.903425 30.264951 7.435571 32.700655 -1.254554 1.341407 0.010759 -0.010187 -1022560.000000 0 0 1
-10.800325 30.869451 8.554071 33.804470 -1.234236 1.314969 -0.001466 -0.015983 -55691.700000 0 0 1
-10.098325 31.325651 9.693471 34.310873 -1.258949 1.284377 0.010353 -0.017339 -36391.600000 0 0 1
-10.958825 31.589051 10.814971 35.141537 -1.236869 1.257964 0.003907 -0.005367 -37046.600000 0 0 1
-10.241025 32.141351 12.052471 35.821881 -1.262342 1.227646 0.008294 -0.005595 -230055.000000 0 0 1
-10.037925 33.523551 12.015671 36.999524 -1.279863 1.240047 0.011988 -0.007624 -225597.000000 0 0 1
-9.086425 33.763151 13.007871 37.305740 -1.307903 1.214631 0.011205 -0.006657 -260540.000000 0 0 1
-8.765525 -34.258717 13.201371 37.746130 1.320308 1.213502 0.005378 -0.004252 294664.000000 0 0 1
-9.772325 -33.457317 13.787671 37.483200 1.286618 1.194116 0.006727 0.004662 203033.000000 0 0 1
-9.180925 -32.161517 13.839171 36.196343 1.292729 1.178473 0.015789 0.013723 324649.000000 0 0 1
-10.080925 -31.085217 14.458371 35.734581 1.257198 1.154250 0.011815 0.005710 -372579.000000 0 0 1
-10.229425 -31.279117 15.843171 36.524381 1.254723 1.122124 0.012931 0.002298 140818.000000 0 0 1
-9.219925 -30.840817 16.755871 36.289423 1.280301 1.090853 0.020361 0.012360 -58631.000000 0 0 1
-9.435725 -31.273917 18.187771 37.388311 1.277769 1.062767 0.013547 0.003384 207951.000000 0 0 1
-10.464325 -30.585717 18.902171 37.447033 1.241149 1.041680 0.034172 0.000252 622361.000000 0 0 1
-10.935425 -31.343817 20.007371 38.759687 1.235114 1.028400 0.027295 -0.002456 79224.300000 0 0 1
-11.210325 -30.452217 21.292471 38.812089 1.218064 0.990103 0.038350 -0.002194 490740.000000 0 0 1
-10.010125 -30.148717 21.999071 38.640741 1.250224 0.965114 0.034778 -0.006556 573425.000000 0 0 1
-10.279225 -29.283017 23.091771 38.683168 1.233204 0.931107 0.028787 -0.006401 606639.000000 0 0 1
-9.014425 -29.182817 24.025771 38.860447 1.271199 0.904272 0.020673 -0.007714 638505.000000 0 0 1
-8.712825 -30.435617 24.632171 40.112143 1.291982 0.909573 0.021658 -0.004517 -143111.000000 0 0 1
-7.496825 -30.499617 25.335171 40.352199 1.329774 0.892007 0.013930 0.001349 -303909.000000 0 0 1
-7.461625 -31.722717 26.262271 41.853477 1.339782 0.892482 0.019469 0.001383 -275174.000000 0 0 1
-7.291825 -32.944817 25.533571 42.314241 1.352973 0.923004 0.025056 0.008675 301614.000000 0 0 1
-7.237425 -34.019217 26.443071 43.691229 1.361176 0.920746 0.024217 0.005077 -278207.000000 0 0 1
-7.088925 34.109651 25.760671 43.328205 -1.365886 0.934094 0.020123 0.000972 -608732.000000 0 0 1
-5.758925 33.830251 25.427071 42.710503 -1.402183 0.933113 0.017633 0.003283 -352561.000000 0 0 1
-5.615025 32.584151 24.736671 41.293563 -1.400148 0.928489 0.020955 0.000856 -45520.500000 0 0 1
-6.410425 32.230651 23.419571 40.353250 -1.374466 0.951621 0.025716 0.000675 -74115.600000 0 0 1
-7.523325 31.426151 23.710771 40.079971 -1.335822 0.937771 0.028836 -0.006839 -320244.000000 0 0 1
-8.498825 31.594151 22.691671 39.816233 -1.308017 0.964400 0.036315 -0.002863 103695.000000 0 0 1
-9.581125 30.486451 22.806371 39.260059 -1.266295 0.950956 0.038348 -0.005109 -4926.910000 0 0 1
-9.130925 29.236151 22.424971 37.960581 -1.268079 0.938816 0.023885 0.002394 -21596.700000 0 0 1
-9.723525 28.210751 23.231571 37.816654 -1.238874 0.909271 0.008920 0.011582 156801.000000 0 0 1
-9.125325 26.852251 22.755271 36.360932 -1.243206 0.894618 0.005183 0.005143 130209.000000 0 0 1
-7.764025 26.682551 23.078271 36.122642 -1.287637 0.877746 0.000781 0.004486 -56582.900000 0 0 1
-7.316625 25.374451 22.760671 34.863218 -1.290065 0.859447 0.001618 -0.003550 304545.000000 0 0 1
-5.939025 25.081251 23.403071 34.814436 -1.338287 0.833589 -0.010730 0.002489 220289.000000 0 0 1
-4.815525 25.497951 22.679371 34.462860 -1.384136 0.852528 -0.014553 0.005699 -589649.000000 0 0 1
-3.580825 25.261551 23.311271 34.559856 -1.429984 0.830484 -0.002679 0.002681 -306430.000000 0 0 1
-2.523725 25.724051 22.302471 34.139365 -1.473002 0.858891 -0.001137 0.005990 -598826.000000 0 0 1
-2.325325 24.758551 21.304171 32.745392 -1.477151 0.862421 0.002446 0.012743 171326.000000 0 0 1
-1.602625 25.288251 20.179671 32.392641 -1.507507 0.898261 0.002086 0.012849 98449.800000 0 0 1
-1.149725 24.134351 19.185071 30.852160 -1.523194 0.899708 0.000237 0.010051 -152967.000000 0 0 1
-0.139925 23.283151 19.709371 30.505476 -1.564787 0.868342 0.010517 0.006786 -12620.300000 0 0 1
0.203075 22.334651 18.767371 29.173483 1.561704 0.871992 0.005508 0.002907 -633433.000000 0 0 1
1.263375 21.347251 19.207871 28.744453 1.511683 0.838971 0.013128 0.002606 -123446.000000 0 0 1
2.566575 21.891851 19.128171 29.184369 1.454090 0.856051 0.010350 0.000074 96076.400000 0 0 1
3.607675 20.925951 19.243071 28.656702 1.400073 0.834561 0.015266 0.005513 992298.000000 0 0 1
5.026075 21.619251 19.197371 29.346082 1.342372 0.857710 0.013576 0.001533 472162.000000 0 0 1
5.994075 20.608551 19.275171 28.847418 1.287752 0.839041 0.020352 0.000307 -284937.000000 0 0 1
7.261375 21.131951 18.879471 29.252716 1.239816 0.869260 0.017390 0.003870 72378.100000 0 0 1
8.303975 20.021851 18.686671 28.618564 1.177643 0.859315 0.007720 0.008810 -388456.000000 0 0 1
8.850575 19.564951 19.899371 29.276355 1.145974 0.823432 0.011290 0.003337 -71171.000000 0 0 1
9.678375 18.450051 19.552671 28.572404 1.087685 0.817125 0.006552 0.000032 146324.000000 0 0 1
10.190675 17.779651 20.842371 29.229613 1.050342 0.776948 0.019211 -0.009996 -203830.000000 0 0 1
9.267175 16.861351 21.411871 28.786350 1.068252 0.732028 0.019996 -0.010230 166901.000000 0 0 1
9.851375 16.084851 22.431971 29.308111 1.021263 0.699158 0.032169 -0.008381 -266181.000000 0 0 1
8.796275 15.163651 23.019471 28.934527 1.045146 0.650847 0.019554 -0.007125 -233353.000000 0 0 1
7.678475 15.772351 23.620471 29.421977 1.117739 0.638791 0.019355 0.002793 863031.000000 0 0 1
6.545075 14.933951 23.990471 29.006958 1.157741 0.596941 0.010277 0.001114 1225530.000000 0 0 1
6.820975 13.767651 24.975571 29.323252 1.110807 0.551513 0.011234 0.005105 -642669.000000 0 0 1
7.047475 14.280551 26.283971 30.731876 1.112361 0.544730 0.014487 0.002996 36305.700000 0 0 1
7.514975 13.275051 27.158571 31.149476 1.055678 0.511770 0.011541 -0.000217 -730587.000000 0 0 1
8.369475 13.822451 28.321871 32.607310 1.026344 0.518478 -0.000057 0.009169 676080.000000 0 0 1
9.736475 14.105051 27.955471 32.791154 0.966622 0.549988 0.008665 0.011607 911584.000000 0 0 1
9.970875 15.292051 27.280771 32.825381 0.992995 0.589736 0.008374 0.013811 -693448.000000 0 0 1
11.368575 15.316851 26.648271 32.771646 0.932289 0.621252 0.011110 0.013253 -214833.000000 0 0 1
11.348875 14.516351 25.502371 31.462555 0.907252 0.625684 0.013333 0.009564 482740.000000 0 0 1
12.603775 14.200851 24.879371 31.297004 0.844910 0.651881 0.011571 0.010411 -140716.000000 0 0 1
12.482575 13.082751 23.794171 29.885375 0.808870 0.649839 0.004821 0.008671 -60257.800000 0 0 1
12.201975 11.761751 24.262171 29.595269 0.767030 0.609736 0.011137 0.011482 923228.000000 0 0 1
10.859575 11.659351 24.778071 29.458847 0.820899 0.571468 0.021201 0.011728 501968.000000 0 0 1
10.618275 10.183851 25.293171 29.260948 0.764518 0.526840 0.013127 0.010034 -65815.800000 0 0 1
10.543575 9.238851 24.295771 28.050095 0.719540 0.523337 0.017007 0.010150 177793.000000 0 0 1
10.463475 7.958551 24.891871 28.150099 0.650253 0.485900 0.016081 0.007183 -193578.000000 0 0 1
10.334375 6.866451 23.886671 26.916919 0.586451 0.479074 0.015424 0.009598 751464.000000 0 0 1
11.594475 6.436751 23.315371 26.822941 0.506794 0.517149 0.012571 0.003940 912657.000000 0 0 1
11.561375 5.338951 22.438771 25.800547 0.432617 0.516199 0.012074 0.000774 -35874.800000 0 0 1
11.330275 3.885551 23.013571 25.944115 0.330367 0.479894 0.008934 -0.001008 375783.000000 0 0 1
12.442275 3.544451 23.851471 27.134222 0.277520 0.496998 0.001018 0.000816 461115.000000 0 0 1
12.275875 2.294251 24.512771 27.510664 0.184760 0.471192 -0.006102 0.005192 -108935.000000 0 0 1
13.540575 1.653651 25.149471 28.610796 0.121524 0.496993 -0.016319 0.006173 -133253.000000 0 0 1
14.504275 1.215251 24.255971 28.287859 0.083591 0.540465 -0.003948 0.000601 -809161.000000 0 0 1
15.772175 1.329251 24.832671 29.448089 0.084080 0.567459 0.001211 -0.000744 324896.000000 0 0 1
16.858975 0.464151 24.026371 29.354846 0.027524 0.612035 0.008168 -0.010178 774808.000000 0 0 1
16.706875 -0.934549 24.324271 29.523943 -0.055880 0.602568 0.001430 -0.008020 -31475.000000 0 0 1
17.643175 -1.710849 23.621071 29.532416 -0.096667 0.643775 0.006274 -0.000491 -686308.000000 0 0 1
17.685475 -3.249749 23.824571 29.848737 -0.181725 0.646534 0.003923 0.008856 -378677.000000 0 0 1
16.637075 -4.097849 23.425571 29.023129 -0.241501 0.631514 -0.005518 0.007994 -112200.000000 0 0 1
16.904775 -5.409649 23.811871 29.699174 -0.309709 0.640547 0.001214 0.015674 194980.000000 0 0 1
16.074775 -6.338649 22.897371 28.685649 -0.375603 0.646467 -0.004121 0.012146 58434.300000 0 0 1
16.435375 -6.344849 21.529671 27.819155 -0.368421 0.685796 -0.008065 0.010865 -136010.000000 0 0 1
15.725975 -7.308249 20.760071 27.049905 -0.435031 0.695906 -0.000371 0.007907 -100706.000000 0 0 1
16.012775 -8.860949 20.835171 27.731385 -0.505425 0.720735 0.002720 0.005308 -115943.000000 0 0 1
15.668375 -9.374849 22.158371 28.712004 -0.539190 0.689214 0.001871 0.003000 29736.300000 0 0 1
16.339775 -10.616149 22.365971 29.663572 -0.576173 0.716684 0.009794 0.000108 -52168.500000 0 0 1
16.001975 -11.341649 23.665471 30.736797 -0.616585 0.692050 0.019363 0.003389 -314604.000000 0 0 1
14.912875 -12.207449 23.526871 30.412650 -0.685971 0.686312 0.022361 -0.001770 -369503.000000 0 0 1
14.822275 -13.143349 24.585971 31.573999 -0.725435 0.678241 0.019779 0.007098 -206703.000000 0 0 1
13.732075 -14.196549 24.393971 31.387540 -0.802027 0.680614 0.014796 0.006662 -176915.000000 0 0 1
13.962575 -14.999349 23.300571 31.029834 -0.821181 0.721359 0.014348 0.009225 -513357.000000 0 0 1
12.928175 -15.900849 23.226271 30.974737 -0.888149 0.722968 0.009268 0.007927 -713674.000000 0 0 1
13.065775 -16.864149 22.009071 30.651479 -0.911632 0.769810 0.004473 0.005075 271067.000000 0 0 1
14.102375 -17.838249 22.133671 31.732940 -0.901832 0.798896 0.014634 0.004883 345224.000000 0 0 1
14.141575 -18.627249 20.939171 31.391200 -0.921441 0.840568 0.011731 0.009819 49127.200000 0 0 1
-22.546225 -32.599417 26.678244 47.778478 0.965721 0.978372 -0.008885 -0.007831 -535461.000000 0 0 1
-22.999525 -33.660117 27.424504 49.133340 0.971375 0.978624 -0.004803 -0.009317 -448886.000000 0 0 1
-24.341825 -33.820417 27.053514 49.681362 0.946946 0.994955 -0.004492 -0.011146 -420582.000000 0 0 1
-25.111845 34.714251 27.970214 51.166560 -0.944546 0.992438 -0.001890 -0.009766 -666796.000000 0 0 1
-25.819585 -34.270417 29.059304 51.822347 0.925118 0.975507 0.018730 -0.013714 387577.000000 0 0 1
-25.104175 -33.907117 30.283114 51.932448 0.933480 0.948226 0.007941 -0.013377 -299818.000000 0 0 1
-26.038505 -33.178217 31.220594 52.474025 0.905388 0.933565 0.010766 -0.012978 -185856.000000 0 0 1
-26.349845 -31.833117 30.923474 51.613205 0.879363 0.928371 0.015600 -0.009738 174156.000000 0 0 1
-27.312565 -31.297917 31.794194 52.310674 0.853291 0.917515 0.004624 -0.000223 -299903.000000 0 0 1
-27.556415 -29.825817 31.560194 51.429381 0.824926 0.910108 0.007546 -0.001743 -61445.000000 0 0 1
-28.172365 -29.628717 30.267724 50.869226 0.810589 0.933518 0.007483 0.006248 439365.000000 0 0 1
-28.674165 -28.325717 30.111714 50.311722 0.779285 0.929165 0.003359 0.004361 -170361.000000 0 0 1
-29.086395 -27.987817 28.647384 49.497565 0.766152 0.953585 -0.012256 0.000490 -288062.000000 0 0 1
-28.071515 -27.799617 27.692414 48.246228 0.780532 0.959437 -0.011339 -0.003092 125421.000000 0 0 1
-27.591365 -26.444317 27.584554 47.132717 0.764174 0.945605 0.000152 -0.000370 144919.000000 0 0 1
-26.676345 -26.095117 26.372634 45.695715 0.774385 0.955579 -0.021910 0.001130 308121.000000 0 0 1
-27.329735 -26.230217 25.115634 45.450344 0.764872 0.985322 -0.019971 0.003634 316104.000000 0 0 1
-26.344695 -26.106117 24.158084 44.262686 0.780850 0.993466 -0.011232 0.011810 -454080.000000 0 0 1
-27.018605 -26.523017 22.790984 44.191678 0.776142 1.028937 -0.021306 0.016065 114777.000000 0 0 1
-27.757675 -25.536417 22.140684 43.735649 0.743743 1.039978 -0.023931 0.011271 27407.300000 0 0 1
-28.201675 -26.053017 20.895984 43.711970 0.745816 1.072377 -0.023726 0.021630 -253873.000000 0 0 1
-28.813335 -24.935017 19.993584 43.031463 0.713366 1.087583 -0.032410 0.015289 119359.000000 0 0 1
-30.086405 -24.547217 20.479784 43.899649 0.684356 1.085451 -0.018977 0.002306 175402.000000 0 0 1
-30.728115 -23.565217 19.674984 43.435487 0.654226 1.100702 -0.019460 -0.000464 798802.000000 0 0 1
-32.226385 -23.295617 20.082584 44.548130 0.625913 1.103128 -0.007327 0.002567 880584.000000 0 0 1
-33.084015 -24.362017 19.693684 45.562058 0.634720 1.123822 -0.004880 0.004912 176581.000000 0 0 1
-34.439360 -23.949217 19.671284 46.331350 0.607634 1.132300 -0.003459 0.001177 330047.000000 0 0 1
34.261827 -24.970317 19.018984 46.466238 -0.629800 1.149101 0.000653 -0.004050 -14508.000000 0 0 1
33.954635 -26.052517 19.854484 47.178930 -0.654465 1.136432 -0.002390 -0.005460 156567.000000 0 0 1
33.201100 -27.010317 19.092484 46.865694 -0.682941 1.151205 0.009533 -0.007984 173027.000000 0 0 1
33.033990 -28.373917 19.839584 47.853242 -0.709656 1.143302 0.009109 -0.008711 212738.000000 0 0 1
31.892160 -28.525317 20.679884 47.523270 -0.729729 1.120588 0.008656 -0.006291 167787.000000 0 0 1
32.070500 -27.931817 21.945884 47.857342 -0.716532 1.094412 0.013394 -0.018421 555804.000000 0 0 1
30.752770 -27.717617 22.784384 47.255977 -0.733535 1.067691 0.014228 -0.016340 767304.000000 0 0 1
29.783240 -26.955717 22.080184 45.838702 -0.735605 1.068211 0.019789 -0.010019 105589.000000 0 0 1
28.634890 -26.584617 22.823284 45.250426 -0.748286 1.042136 0.021428 -0.014036 274412.000000 0 0 1
27.857870 -25.472917 22.078884 43.731082 -0.740708 1.041555 0.014738 -0.006022 52591.500000 0 0 1
28.657220 -24.318317 21.808984 43.453983 -0.703677 1.045017 0.018481 -0.000786 154725.000000 0 0 1
29.185200 -23.557117 22.901684 43.945430 -0.679091 1.022611 0.023953 -0.008625 -35193.500000 0 0 1
30.198700 -22.506717 22.375584 43.808453 -0.640478 1.034728 0.019484 0.003073 302418.000000 0 0 1
29.506220 -21.613717 21.572184 42.463265 -0.632216 1.037912 0.020092 -0.002812 318805.000000 0 0 1
30.424500 -20.560417 21.251084 42.426283 -0.594289 1.046165 0.020488 0.002995 -16373.000000 0 0 1
29.788880 -19.171517 21.235484 41.302182 -0.571849 1.030781 0.015881 0.006434 -117935.000000 0 0 1
29.599360 -18.622017 22.529784 41.599192 -0.561568 0.998467 0.005509 -0.002207 313883.000000 0 0 1
28.381260 -19.041217 23.139584 41.273529 -0.590933 0.975638 0.014423 0.001828 -70127.100000 0 0 1
28.286680 -18.597217 24.599464 41.846462 -0.581598 0.942397 0.005609 0.003348 -82224.200000 0 0 1
28.006350 -17.247717 24.846484 41.221198 -0.551993 0.923841 -0.003449 0.004474 -13318.700000 0 0 1
28.107390 -16.971817 26.213504 42.014471 -0.543224 0.897053 -0.002260 -0.003531 -187898.000000 0 0 1
27.817520 -15.563517 26.615764 41.526334 -0.510097 0.875078 -0.015587 0.007473 -355435.000000 0 0 1
26.448740 -15.261517 26.739294 40.588663 -0.523353 0.851591 -0.007048 0.008325 -118522.000000 0 0 1
26.210500 -13.925517 27.220874 40.272650 -0.488369 0.828591 -0.014538 0.004277 -97008.000000 0 0 1
26.759350 -12.696417 26.502764 39.744916 -0.443013 0.840861 -0.011646 0.005179 -569592.000000 0 0 1
26.137670 -12.505117 25.272074 38.447802 -0.446245 0.853554 -0.010645 0.004204 126226.000000 0 0 1
26.895320 -11.783717 24.310854 38.121278 -0.412941 0.879257 -0.006236 0.000419 -221863.000000 0 0 1
27.856320 -12.556217 23.418984 38.497818 -0.423477 0.916854 0.002672 0.005413 -108966.000000 0 0 1
27.260740 -13.462317 22.475684 37.809236 -0.458704 0.934215 0.004885 0.002612 -42758.700000 0 0 1
27.896060 -14.724217 22.598284 38.803031 -0.485658 0.949137 -0.001791 0.003689 -68775.700000 0 0 1
27.636400 -15.719117 21.425384 38.339384 -0.517150 0.977816 0.008587 -0.002503 40895.800000 0 0 1
27.989400 -15.206617 20.113084 37.672057 -0.497684 1.007591 0.003332 -0.003084 -69174.100000 0 0 1
27.646850 -16.152717 19.123084 37.295455 -0.528759 1.032416 0.006120 -0.006972 -100989.000000 0 0 1
27.673800 -15.731917 17.597484 36.373120 -0.516918 1.065800 0.005763 -0.004265 -141333.000000 0 0 1
27.261830 -16.761717 16.713284 36.103967 -0.551261 1.089509 0.010118 -0.006634 -276529.000000 0 0 1
25.882020 -16.991817 16.575584 35.119095 -0.580938 1.079259 0.008713 -0.003516 -272005.000000 0 0 1
25.243890 -16.033417 15.451184 33.661009 -0.565858 1.093901 0.012612 -0.007689 -457214.000000 0 0 1
25.304230 -16.521517 14.078884 33.338860 -0.578422 1.134819 0.021644 -0.008477 514524.000000 0 0 1
24.455020 -17.669117 13.909884 33.222441 -0.625677 1.138795 -0.000131 -0.011298 -51017.300000 0 0 1
24.656460 -18.258817 12.560984 33.152734 -0.637412 1.182208 0.031445 -0.012815 -377809.000000 0 0 1
24.172220 -17.482117 11.526384 31.980903 -0.626148 1.202084 0.029482 -0.012938 -159076.000000 0 0 1
24.119620 -18.046517 10.233584 31.814448 -0.642354 1.243309 0.014193 -0.010332 -522455.000000 0 0 1
25.486000 -18.355817 9.624184 32.849614 -0.624175 1.273457 0.017505 -0.002023 -191464.000000 0 0 1
26.135810 -19.487417 10.221984 34.166196 -0.640693 1.266959 0.030988 0.001975 102543.000000 0 0 1
27.511360 -19.539417 9.852284 35.152969 -0.617559 1.286722 0.033049 0.007981 541520.000000 0 0 1
28.455470 -20.152417 10.902584 36.533547 -0.616214 1.267753 0.033298 0.002188 -105311.000000 0 0 1
28.528160 -19.453117 12.090384 36.584930 -0.598469 1.233990 0.036473 -0.004510 44150.400000 0 0 1
29.000200 -20.311017 13.114684 37.756376 -0.610978 1.216052 0.017488 0.000657 -54529.700000 0 0 1
28.770950 -19.696317 14.520084 37.769635 -0.600309 1.176197 0.030821 0.005158 90010.800000 0 0 1
28.803350 -20.688617 15.547084 38.721618 -0.622884 1.157632 0.025642 0.010157 -88405.900000 0 0 1
28.751690 -20.141417 16.843284 38.936263 -0.611081 1.123437 0.034164 0.006883 14315.700000 0 0 1
28.493850 -21.172517 17.913084 39.762464 -0.639042 1.103468 0.025445 0.011893 -40051.200000 0 0 1
27.181290 -21.672217 17.895384 39.099262 -0.673105 1.095400 0.008506 0.015893 -227079.000000 0 0 1
27.078570 -22.741417 18.816884 40.056162 -0.698561 1.081775 0.008256 0.013365 1270660.000000 0 0 1
25.697370 -23.522017 18.808584 39.590440 -0.741230 1.075743 0.003504 0.022397 919555.000000 0 0 1
24.542020 -22.939217 19.355184 38.770370 -0.751654 1.048091 0.005740 0.017986 -618873.000000 0 0 1
23.472720 -23.594417 18.743484 38.196640 -0.787984 1.057892 -0.001661 0.023345 -376953.000000 0 0 1
22.097720 -23.202617 19.341784 37.426933 -0.809784 1.027702 -0.011838 0.027002 -35991.700000 0 0 1
21.742420 -21.788017 19.178284 36.266474 -0.786446 1.013592 -0.006813 0.026178 814716.000000 0 0 1
20.577820 -21.373017 19.936484 35.745153 -0.804351 0.979136 -0.005893 0.021708 916526.000000 0 0 1
20.801420 -21.148717 21.422084 36.590614 -0.793677 0.945358 -0.012250 0.022480 -375785.000000 0 0 1
21.115420 -22.287017 22.197784 37.885534 -0.812385 0.944785 0.000789 0.020646 -65995.200000 0 0 1
21.512820 -21.819917 23.513384 38.623690 -0.792485 0.916273 -0.007297 0.012460 -50910.600000 0 0 1
21.791920 -22.973417 24.569284 40.078865 -0.811785 0.910915 0.000706 0.004124 -698511.000000 0 0 1
20.664520 -23.675417 25.005444 40.159930 -0.853199 0.898676 0.006635 0.002354 -258991.000000 0 0 1
21.022720 -24.592317 26.047324 41.535526 -0.863494 0.892960 0.004873 0.009066 237491.000000 0 0 1
19.760820 -25.216917 26.731144 41.724537 -0.906115 0.875442 0.021867 0.005448 353593.000000 0 0 1
19.146920 -26.191317 25.915974 41.523817 -0.939540 0.896788 0.017070 0.012312 589314.000000 0 0 1
18.080020 -26.852017 26.622724 41.912855 -0.978201 0.882539 0.021126 0.000534 355282.000000 0 0 1
17.221320 -27.786617 25.720274 41.595702 -1.015967 0.904168 0.028841 0.003180 259994.000000 0 0 1
16.395220 -27.068517 24.773544 40.190003 -1.026201 0.906620 0.028151 -0.000308 595735.000000 0 0 1
16.013120 -27.982717 23.752084 40.045149 -1.051031 0.935852 0.033965 -0.002537 -415962.000000 0 0 1
15.184820 -27.396317 22.615584 38.634202 -1.064685 0.945451 0.028979 -0.005867 146065.000000 0 0 1
13.844220 -27.093617 22.980184 38.128931 -1.098406 0.923920 0.014196 -0.005505 203361.000000 0 0 1
13.272420 -26.402317 21.884184 36.771687 -1.104992 0.933360 0.005715 -0.005163 -1114080.000000 0 0 1
11.865020 -25.900717 22.050484 36.025681 -1.141230 0.912112 0.016486 -0.005374 -1031840.000000 0 0 1
10.929920 -26.964117 22.009784 36.482288 -1.185686 0.923163 0.005722 -0.010961 -621286.000000 0 0 1
9.684420 -26.328517 22.169284 35.755503 -1.218326 0.902023 0.005528 -0.006715 466308.000000 0 0 1
8.387120 -27.203917 22.013384 35.985913 -1.271737 0.912560 0.001916 -0.000769 576232.000000 0 0 1
8.066020 -27.685217 20.709384 35.502261 -1.287296 0.947979 0.004826 0.002136 -944352.000000 0 0 1
6.836220 -28.287717 20.751084 35.742640 -1.333675 0.951368 -0.017081 0.001456 -1321740.000000 0 0 1
6.614620 -29.354517 19.661084 35.944389 -1.349162 0.992036 -0.013451 -0.006776 192434.000000 0 0 1
7.422220 -30.524617 19.863584 37.167238 -1.332270 1.006954 -0.010081 -0.003678 367715.000000 0 0 1
7.292220 -31.403517 18.743084 37.291562 -1.342630 1.044182 -0.030051 -0.002938 -254978.000000 0 0 1
8.008820 -32.752117 18.716384 38.563524 -1.330974 1.064045 -0.024790 -0.005025 -333025.000000 0 0 1
7.485220 -33.635617 19.702384 39.693415 -1.351826 1.051391 -0.024076 -0.005540 862442.000000 0 0 1
8.438920 -34.744317 19.963184 40.950112 -1.332524 1.061572 -0.021026 -0.007442 727066.000000 0 0 1
7.932120 33.660851 20.923084 40.419635 1.339370 1.026698 -0.013842 -0.006079 -320816.000000 0 0 1
7.039020 32.678951 20.445384 39.185143 1.358639 1.021879 -0.010524 -0.006877 -71142.800000 0 0 1
6.958320 31.618851 21.386184 38.801274 1.354180 0.987028 -0.008467 -0.014775 -488343.000000 0 0 1
6.069920 30.433151 20.933184 37.432858 1.373929 0.977352 -0.003281 -0.010695 158461.000000 0 0 1
4.692720 30.703051 21.121184 37.560663 1.419128 0.973605 -0.004575 -0.006934 -160504.000000 0 0 1
3.943220 29.553351 20.782384 36.343597 1.438153 0.962061 0.001333 -0.003997 -496296.000000 0 0 1
2.580920 29.463151 21.427984 36.522554 1.483421 0.943812 -0.001467 -0.000476 -736749.000000 0 0 1
2.578620 29.120851 22.803384 37.076510 1.482478 0.908365 -0.009573 -0.002024 -236140.000000 0 0 1
1.278620 28.864151 23.283684 37.106658 1.526527 0.892484 -0.013359 -0.000080 -108569.000000 0 0 1
1.266720 28.327251 24.727794 37.623152 1.526109 0.853633 -0.007816 -0.004999 -445364.000000 0 0 1
1.354020 29.324751 25.753154 39.051240 1.524656 0.850682 -0.015212 -0.004102 302784.000000 0 0 1
1.137320 28.718451 27.040294 39.461633 1.531215 0.815877 -0.008670 0.000847 232931.000000 0 0 1
2.412120 28.068151 27.684644 39.497835 1.485069 0.794116 -0.012517 -0.002711 306860.000000 0 0 1
2.816020 26.868351 27.054064 38.232979 1.466370 0.784685 -0.005491 -0.000453 141946.000000 0 0 1
3.930320 26.226451 27.624924 38.293741 1.422042 0.764981 0.006679 -0.000431 -80047.100000 0 0 1
4.321320 24.965751 26.871764 36.933105 1.399405 0.756010 0.009837 0.005458 -708620.000000 0 0 1
3.287020 24.033051 26.884904 36.210359 1.434869 0.734055 0.016239 0.013105 -403954.000000 0 0 1
3.762620 22.719051 26.668684 35.235370 1.406671 0.712282 0.024274 0.016618 272844.000000 0 0 1
2.683720 21.620551 26.302094 34.153342 1.447300 0.691771 0.023281 0.020163 152400.000000 0 0 1
3.035120 20.253951 26.482224 33.477495 1.422050 0.658280 0.023427 0.028686 -177746.000000 0 0 1
3.708520 19.692251 25.390074 32.344918 1.384653 0.668134 0.028813 0.018978 -550606.000000 0 0 1
4.250320 18.288151 25.729434 31.851617 1.342442 0.630402 0.023208 0.012591 -139282.000000 0 0 1
5.234220 18.208451 26.743954 32.774744 1.290883 0.616352 0.012489 0.014950 1153830.000000 0 0 1
6.553020 18.243451 26.138044 32.541711 1.225950 0.638121 0.013844 0.013297 1308530.000000 0 0 1
7.830320 18.245851 27.081044 33.579874 1.165411 0.632645 0.012789 0.013412 908690.000000 0 0 1
7.969820 19.373551 27.889144 34.880609 1.180521 0.644234 0.007755 0.013520 57217.300000 0 0 1
8.556320 20.450751 27.173434 35.069066 1.174541 0.684311 0.005038 0.009206 -381962.000000 0 0 1
9.088720 21.620251 27.999974 36.524494 1.172845 0.697254 0.004173 0.013010 -414557.000000 0 0 1
10.259120 21.280251 28.671114 37.150120 1.121574 0.689186 0.009909 0.007307 -549519.000000 0 0 1
10.649920 22.289351 29.610914 38.562186 1.125063 0.695280 0.003384 -0.003754 249000.000000 0 0 1
11.849520 21.807351 30.472764 39.300904 1.073055 0.683495 0.000706 -0.007215 394761.000000 0 0 1
13.097820 21.992651 29.823754 39.302492 1.033652 0.709288 -0.007058 -0.006439 -399686.000000 0 0 1
14.146920 21.608951 30.684124 40.107326 0.991139 0.699677 -0.010953 0.003024 201664.000000 0 0 1
15.531320 21.848851 30.030534 40.254530 0.952824 0.728737 -0.012241 -0.001755 -140175.000000 0 0 1
15.742320 23.212651 29.844144 40.955107 0.974866 0.754369 -0.009453 -0.016383 658785.000000 0 0 1
17.017820 23.347651 29.188634 41.069397 0.940944 0.780282 -0.023205 0.003396 717613.000000 0 0 1
-8.580825 16.913851 4.646371 19.526846 -1.101306 1.330544 0.000854 -0.007110 -266102.000000 0 1 0
-8.337225 18.142551 5.314371 20.661656 -1.140037 1.310663 -0.000357 -0.005157 333627.000000 0 1 0
-6.950625 18.440551 5.437371 20.443340 -1.210343 1.301583 -0.005971 0.002960 89140.300000 0 1 0
-6.641925 19.916251 5.983471 21.830579 -1.248902 1.293156 -0.006127 0.008796 -445935.000000 0 1 0
-6.925225 20.964051 5.072371 22.653458 -1.251744 1.344970 -0.005666 0.004315 296599.000000 0 1 0
-8.261625 21.104451 4.600771 23.126163 -1.197670 1.370518 -0.010524 -0.006770 218683.000000 0 1 0
-8.420525 22.317451 3.592871 24.122243 -1.210005 1.421296 0.001814 0.000811 19422.100000 0 1 0
-7.765525 22.176051 2.345871 23.613211 -1.233965 1.471286 -0.006106 -0.000246 -201331.000000 0 1 0
-8.048325 21.013151 1.574271 22.556737 -1.205019 1.500948 0.003086 -0.000011 -755813.000000 0 1 0
-7.671825 20.961351 0.047771 22.321233 -1.219941 1.568656 0.002688 0.005919 1078160.000000 0 1 0
-6.311425 20.712851 -0.352829 21.655964 -1.275024 1.587089 -0.003289 0.014339 941772.000000 0 1 0
-5.358625 21.691851 0.095471 22.344136 -1.328611 1.566524 0.008839 0.011151 420519.000000 0 1 0
-3.925525 21.324051 -0.419329 21.686419 -1.388745 1.590134 0.010218 0.012129 269621.000000 0 1 0
-3.873625 21.589951 -1.807629 22.009055 -1.393267 1.653020 0.014058 0.006942 47783.500000 0 1 0
-2.569325 21.827851 -2.313029 22.099924 -1.453627 1.675651 0.015375 0.019946 144302.000000 0 1 0
-2.460825 21.889251 -3.878129 22.365931 -1.458845 1.745072 0.020095 0.011995 -43675.300000 0 1 0
-1.242225 22.394851 -4.354829 22.848130 -1.515384 1.762569 0.026918 0.014000 -113951.000000 0 1 0
-1.455625 22.692351 -5.665729 23.434209 -1.506738 1.814988 0.023126 0.007737 423248.000000 0 1 0
-0.156325 23.390451 -6.185029 24.194880 -1.564113 1.829300 0.010028 0.001422 79200.800000 0 1 0
0.870775 22.468451 -6.074729 23.291455 1.532060 1.834661 0.007201 0.012682 -565292.000000 0 1 0
2.041175 22.834451 -6.803929 23.913846 1.481643 1.859300 0.011980 0.000547 45803.100000 0 1 0
3.120975 21.757951 -6.730829 22.988105 1.428327 1.867946 0.005788 0.001577 -163601.000000 0 1 0
2.746375 20.707351 -7.603129 22.229362 1.438938 1.919874 0.002673 -0.003970 252193.000000 0 1 0
3.724475 19.667851 -7.623529 21.419951 1.383644 1.934682 -0.004890 -0.000344 504909.000000 0 1 0
3.531275 18.725951 -8.834329 21.004203 1.384409 2.004901 -0.014090 0.003525 -447390.000000 0 1 0
3.889975 19.227151 -10.134029 22.079715 1.371174 2.047637 -0.011433 0.000452 -364617.000000 0 1 0
2.826975 19.285751 -11.054129 22.408163 1.425249 2.086685 -0.016908 0.003864 -497218.000000 0 1 0
3.239075 19.775651 -12.405529 23.568308 1.408447 2.125116 -0.015276 0.004917 -121355.000000 0 1 0
3.364275 21.192751 -12.585729 24.876729 1.413364 2.101249 0.007427 0.001372 21638.400000 0 1 0
3.817875 21.424751 -13.917529 25.832030 1.394448 2.139773 0.017665 0.002188 -7668.160000 0 0 1
3.926575 22.919751 -14.310029 27.304028 1.401125 2.122454 0.018361 0.001902 -103423.000000 0 0 1
2.730975 23.632551 -14.531529 27.876891 1.455747 2.119141 0.019943 0.004996 -615780.000000 0 0 1
2.957375 24.961451 -15.056329 29.300395 1.452868 2.110476 0.021781 0.003354 1176340.000000 0 0 1
1.671775 25.780351 -15.580029 30.168836 1.506040 2.113471 0.015592 0.008057 1122230.000000 0 0 1
0.836475 26.216751 -14.553929 29.997243 1.538901 2.077360 0.017635 0.005882 -571072.000000 0 0 1
0.740775 27.637951 -14.420529 31.182636 1.544000 2.051557 0.006856 0.006514 -714943.000000 0 0 1
-0.162425 28.049751 -13.211929 31.005967 -1.565006 2.010984 0.007828 0.004952 -23470.300000 0 0 1
-1.534825 27.802251 -13.310629 30.862497 -1.515647 2.016716 -0.007274 0.001728 -410899.000000 0 0 1
-2.013525 26.475251 -13.527429 29.799070 -1.494889 2.041995 -0.007990 0.005801 -1006600.000000 0 0 1
-1.695925 25.422851 -12.465029 28.365022 -1.504186 2.025783 0.011307 0.005196 -738164.000000 0 0 1
-2.310025 25.630151 -11.237929 28.080811 -1.480910 1.982531 0.009039 0.007878 -210743.000000 0 0 1
-2.519325 24.366251 -10.623129 26.700413 -1.467768 1.979984 0.030116 0.003230 -312665.000000 0 0 1
-3.379025 24.443751 -9.371629 26.395875 -1.433430 1.933755 0.014642 0.005774 -323402.000000 0 0 1
-2.834125 24.995451 -8.180929 26.452457 -1.457893 1.885221 0.021144 -0.003092 -167392.000000 0 0 1
-2.671325 26.405851 -8.173129 27.770578 -1.469975 1.869529 0.017601 -0.006054 -170543.000000 0 0 1
-2.535925 26.938851 -6.732229 27.882890 -1.476937 1.814653 0.010259 -0.005722 -1015390.000000 0 0 1
-1.288325 26.700851 -6.204329 27.442466 -1.522583 1.798853 0.011719 -0.000582 -1014440.000000 0 0 1
-1.124025 27.003251 -4.784929 27.446941 -1.529195 1.746025 0.010358 -0.004152 -484896.000000 0 0 1
-1.630925 25.967051 -3.701529 26.280202 -1.508071 1.712115 0.017665 -0.001686 1294690.000000 0 0 1
-3.054825 25.842051 -3.952229 26.320405 -1.453131 1.721525 0.011205 0.002200 712441.000000 0 0 1
-3.721325 25.446451 -2.804629 25.869598 -1.425584 1.679424 0.011257 0.007009 -173082.000000 0 0 1
-5.126325 24.892551 -3.122829 25.606062 -1.367698 1.693057 0.001835 0.012504 -355697.000000 0 0 1
-6.118225 25.851851 -3.341829 26.775338 -1.338407 1.695933 -0.008800 0.009759 254787.000000 0 0 1
-7.234725 25.228951 -4.036929 26.554435 -1.291528 1.723413 -0.000206 0.011493 194763.000000 0 0 1
-8.448325 26.094851 -4.175829 27.744423 -1.257691 1.721881 -0.002721 0.010806 -550991.000000 0 0 1
-9.167425 26.237151 -2.938229 27.947504 -1.234651 1.676125 -0.002121 0.011303 396103.000000 0 0 1
-10.431525 26.868851 -3.116929 28.990811 -1.200470 1.678519 0.006696 0.010267 505729.000000 0 0 1
-11.203625 27.153351 -1.806029 29.429364 -1.179470 1.632203 0.005622 0.013608 861.494000 0 0 1
-11.737725 26.017351 -1.119929 28.564506 -1.146987 1.610013 0.011870 0.006765 -40826.600000 0 0 1
-10.785125 25.127051 -0.555229 27.349514 -1.165354 1.591099 0.008527 0.006933 -249372.000000 0 0 1
-11.068225 23.623451 -0.407129 26.090972 -1.132643 1.586401 0.009325 0.007326 176477.000000 0 0 1
-11.979625 23.455451 0.694071 26.346752 -1.098594 1.544450 0.016940 0.001806 270152.000000 0 0 1
-12.297125 22.073851 0.851671 25.282396 -1.062526 1.537104 0.014561 -0.002079 -35174.100000 0 0 1
-13.120425 21.785751 2.140271 25.521467 -1.028726 1.486836 0.008873 -0.006930 -14515.300000 0 0 1
-12.424725 21.956451 3.381771 25.453800 -1.055843 1.437543 0.020264 -0.017386 170457.000000 0 0 1
-12.216225 23.334451 3.763371 26.606310 -1.088504 1.428874 0.009836 -0.013462 -23772.100000 0 0 1
-12.164325 23.488251 5.274571 26.972020 -1.092940 1.373971 -0.000191 -0.013375 173399.000000 0 0 1
-11.011525 22.856551 5.866571 26.040205 -1.121841 1.343557 -0.003445 -0.009339 614190.000000 0 0 1
-11.210725 22.713251 7.236971 26.342853 -1.112301 1.292495 0.000247 -0.008108 -256083.000000 0 0 1
-9.975725 22.286351 8.039171 25.706513 -1.149927 1.252732 0.004906 -0.016331 514521.000000 0 0 1
-8.964325 23.321851 8.237171 26.308152 -1.203832 1.252337 0.007218 -0.020343 1101850.000000 0 0 1
-7.945725 23.050051 9.207271 26.061720 -1.238836 1.209714 0.020101 -0.020065 66987.100000 0 0 1
-8.225025 22.980551 10.685971 26.644826 -1.227090 1.158131 0.016316 -0.022149 -611238.000000 0 0 1
-9.063525 21.902551 11.037671 26.147647 -1.178441 1.135004 0.017417 -0.022626 -204146.000000 0 0 1
-8.834625 21.528651 12.375371 26.356845 -1.181386 1.082036 0.022141 -0.017968 -151906.000000 0 0 1
-9.804625 20.453151 12.916771 26.101821 -1.123789 1.053122 0.023148 -0.015130 -285532.000000 0 0 1
-9.674525 19.196351 12.242271 24.738018 -1.103972 1.053103 0.018002 -0.013600 -37881.300000 0 1 0
-10.560325 18.191651 12.722271 24.582775 -1.044836 1.026837 0.012782 -0.007173 19901.500000 0 1 0
-10.516725 16.986151 11.816071 23.210997 -1.016425 1.036690 0.002979 -0.008460 -393376.000000 0 1 0
-11.005925 15.839451 12.369871 22.913584 -0.963540 1.000539 -0.000607 -0.005388 -229194.000000 0 1 0
-11.236725 14.846251 11.428371 21.846804 -0.922911 1.020296 -0.005742 -0.006075 -43582.700000 0 1 0
-11.268925 13.475051 12.119271 21.341097 -0.874321 0.966863 -0.012372 0.001273 767956.000000 0 1 0
-12.361325 13.272351 13.050171 22.344231 -0.820923 0.947086 -0.014071 0.003885 709377.000000 0 1 0
-12.697625 11.915251 13.292571 21.906514 -0.753622 0.918785 -0.011431 0.002052 -421284.000000 0 1 0
-13.473225 11.890051 14.572671 23.135770 -0.723059 0.889403 -0.004703 0.008873 -178379.000000 0 1 0
-14.625125 12.702051 14.530971 24.215399 -0.715142 0.927206 0.002620 0.005392 -335595.000000 0 1 0
-15.425425 12.583151 15.681171 25.341243 -0.684266 0.903582 0.017199 0.002841 215408.000000 0 0 1
-16.567525 13.648051 15.731471 26.612617 -0.689076 0.938339 0.016777 0.003262 -250852.000000 0 0 1
-17.713525 13.302251 15.026071 26.767549 -0.644119 0.974775 0.017577 0.001314 -1268870.000000 0 0 1
-18.549525 14.379351 15.034371 27.872620 -0.659427 1.001077 0.018835 0.003928 -838371.000000 0 0 1
-19.755525 14.169651 14.099171 28.104207 -0.622210 1.045263 0.004173 0.002813 -438193.000000 0 0 1
-20.628925 13.209051 14.586071 28.509386 -0.569538 1.033723 0.003171 0.001888 -877001.000000 0 0 1
-21.756925 13.080351 13.804971 28.897000 -0.541304 1.072727 -0.001637 0.000888 -169509.000000 0 0 1
-22.847125 12.097151 14.371871 29.578419 -0.486954 1.063415 0.003188 0.000175 302679.000000 0 0 1
-23.385725 12.574551 15.590371 30.790764 -0.493352 1.039870 0.004241 0.006353 394420.000000 0 0 1
-24.341125 11.607051 16.074271 31.394207 -0.444956 1.033269 -0.002468 0.004628 -47454.100000 0 0 1
-24.995425 12.116151 17.391371 32.772431 -0.451361 1.011405 -0.004400 0.010065 100709.000000 0 0 1
-25.826215 13.276451 17.133571 33.716714 -0.474839 1.037746 0.001987 0.008129 440497.000000 0 0 1
-26.184265 13.921251 18.317471 34.856086 -0.488657 1.017473 -0.017011 0.016521 -203531.000000 0 0 1
-27.281085 14.985551 18.155671 36.034050 -0.502307 1.042749 -0.020269 0.008818 -13523.500000 0 0 1
-26.885085 16.209351 17.623871 36.002107 -0.542558 1.059253 -0.004393 0.009516 500520.000000 0 0 1
-28.098085 16.947051 17.436271 37.158155 -0.542724 1.082361 -0.001148 0.000017 554092.000000 0 0 1
-27.819695 18.480851 17.130071 37.535539 -0.586368 1.096886 0.008422 0.009801 -304382.000000 0 0 1
-27.536135 19.211751 18.317771 38.247495 -0.609176 1.071364 0.010414 0.012303 -462086.000000 0 0 1
-28.506325 19.452751 19.302871 39.542647 -0.598817 1.060824 0.001986 0.007090 -937924.000000 0 0 1
-27.928795 19.689151 20.734571 39.970023 -0.614058 1.025405 0.004404 -0.000688 183320.000000 0 0 1
-27.424805 18.613351 21.533271 39.525417 -0.596291 0.994651 -0.010258 0.002608 362825.000000 0 0 1
-26.201455 18.055251 21.053871 38.154605 -0.603369 0.986270 0.008274 0.012194 -91418.500000 0 0 1
-25.745245 16.821451 21.843971 37.721850 -0.578748 0.953196 0.010904 0.010325 -304062.000000 0 0 1
-26.703125 15.792251 21.942671 37.999118 -0.534073 0.955192 -0.037807 0.021494 -387332.000000 0 0 1
-26.195775 14.555851 22.249871 37.324901 -0.507176 0.932145 -0.030568 0.025076 -817618.000000 0 0 1
-27.242035 13.453651 22.446671 37.775419 -0.458721 0.934509 -0.021171 0.014921 -522960.000000 0 0 1
-27.895705 13.286151 21.236471 37.492398 -0.444492 0.968640 -0.020079 0.016700 -356437.000000 0 0 1
-28.847875 12.262051 21.347771 37.924730 -0.401921 0.972908 -0.017742 0.020015 -218024.000000 0 0 1
-29.654495 12.064951 20.033071 37.766071 -0.386398 1.011663 -0.011604 0.019606 -783876.000000 0 0 1
-28.998535 11.408551 18.971171 36.482536 -0.374820 1.023937 0.003111 0.003426 176007.000000 0 0 1
-28.902735 10.027851 19.044971 36.036604 -0.333957 1.013976 0.005863 0.001342 -253472.000000 0 0 1
-28.018825 9.594351 17.873671 34.591535 -0.329911 1.027797 0.010604 -0.006616 -37883.900000 0 0 1
-28.646135 9.527851 16.552671 34.429231 -0.321095 1.069259 0.008173 -0.002753 478527.000000 0 0 1
-29.034915 10.738951 15.927371 34.814258 -0.354260 1.095620 0.013860 -0.003108 -711977.000000 0 0 1
-27.990205 11.538651 15.173571 33.864869 -0.391012 1.106200 0.012794 -0.001888 -834576.000000 0 0 1
-27.642535 10.868051 13.988771 32.831540 -0.374599 1.130644 0.006768 -0.007031 -392175.000000 0 0 1
-26.576655 11.506751 13.391871 31.907149 -0.408597 1.137666 0.000069 0.002836 -1183220.000000 0 0 1
-26.460615 11.430851 11.881371 31.176843 -0.407780 1.179815 0.015566 0.004826 -322331.000000 0 0 1
-25.920465 10.239351 11.292371 30.070459 -0.376214 1.185827 0.011024 0.003276 708626.000000 0 0 1
-26.871455 9.209251 11.409671 30.611534 -0.330170 1.188853 0.003362 0.003634 -67327.200000 0 0 1
-26.364565 8.065851 10.532671 29.514156 -0.296893 1.205883 0.012201 -0.007734 -67686.600000 0 0 1
-26.400465 8.393851 9.168971 29.180667 -0.307836 1.251168 0.028782 -0.000730 181609.000000 0 0 1
-25.945205 7.268951 8.471071 28.244475 -0.273162 1.266188 0.031929 -0.012188 -1994.670000 0 0 1
-25.314585 7.649251 7.106771 27.383307 -0.293444 1.308262 0.027908 0.002282 -113439.000000 0 0 1
-26.237485 8.242851 6.240771 28.201019 -0.304399 1.347653 0.025164 0.005804 85680.600000 0 0 1
-25.512715 8.797851 5.158571 27.475656 -0.332072 1.381925 0.019642 0.011527 144651.000000 0 0 1
-26.354355 9.046351 3.884671 28.133240 -0.330656 1.432273 0.005529 0.019318 -1193.420000 0 0 1
-26.977525 7.854451 3.307971 28.291729 -0.283316 1.453605 0.016514 0.008301 507881.000000 0 0 1
-26.163165 6.760951 2.847171 27.172193 -0.252883 1.465821 0.030329 0.005328 139970.000000 0 0 1
-25.128175 6.984151 1.700771 26.136109 -0.271098 1.505677 0.037235 0.007893 421257.000000 0 0 1
-23.958325 7.676351 2.117471 25.247008 -0.310070 1.486828 0.020907 0.012646 484460.000000 0 0 1
-22.899825 7.572451 1.196171 24.149013 -0.319358 1.521243 0.023052 0.014442 70135.400000 0 1 0
-21.707725 8.493651 1.548571 23.361625 -0.372961 1.504461 0.008267 0.017215 185502.000000 0 1 0
-22.078325 9.827451 1.193971 24.196215 -0.418786 1.521431 -0.001911 0.017312 659111.000000 0 1 0
-21.060925 10.740051 1.570071 23.693383 -0.471577 1.504481 0.015200 0.019251 155282.000000 0 1 0
-21.594825 12.190351 1.963271 24.875602 -0.513910 1.491791 0.014027 0.017765 46913.000000 0 1 0
-20.465525 12.969751 2.286571 24.336816 -0.564857 1.476702 0.009193 0.001802 275199.000000 0 1 0
-20.873825 14.125251 3.006371 25.382624 -0.594914 1.452076 -0.001058 -0.003939 208523.000000 0 0 1
-19.797125 14.881851 3.900071 25.072021 -0.644600 1.414607 -0.006459 -0.006409 295019.000000 0 0 1
-19.372525 14.038151 4.958371 24.432558 -0.627074 1.366436 -0.010099 -0.002939 249935.000000 0 1 0
-18.324125 14.626051 5.691971 24.126614 -0.673634 1.332630 -0.014670 -0.011859 -244511.000000 0 1 0
-17.910825 13.857951 6.939071 23.685253 -0.658509 1.273465 -0.020114 -0.002512 -62886.300000 0 1 0
-17.442725 12.541351 6.677471 22.497173 -0.623365 1.269442 0.002735 -0.013117 137242.000000 0 1 0
-16.848025 12.015651 7.803071 22.116052 -0.619516 1.210209 0.001662 0.000311 -221960.000000 0 1 0
9.401075 -33.425217 -14.909329 37.787742 -1.296622 1.976379 -0.001561 -0.006935 -343114.000000 0 0 1
10.489275 -33.250817 -14.034029 37.584514 -1.265218 1.953467 0.010634 -0.004809 -214436.000000 0 0 1
11.141775 -32.057717 -14.246529 36.807607 -1.236303 1.968231 0.006238 -0.007308 -413693.000000 0 0 1
12.504175 -31.938917 -13.531529 36.872091 -1.197637 1.946563 -0.015474 -0.007354 -161792.000000 0 0 1
13.541175 -32.591617 -14.245329 38.059247 -1.177017 1.954431 -0.002105 -0.005104 -964345.000000 0 0 1
14.710275 -32.350917 -13.543329 38.031510 -1.144033 1.934896 -0.004264 -0.003878 41964.600000 0 0 1
15.950675 -33.001217 -14.295229 39.342826 -1.120569 1.942658 0.017456 -0.012490 825892.000000 0 0 1
16.142275 -34.326117 -13.880029 40.391961 -1.131221 1.921580 0.017169 -0.014444 -1142640.000000 0 0 1
17.281975 34.594051 -14.354429 41.248814 1.107497 1.926229 0.026080 -0.008101 -710041.000000 0 0 1
17.350975 33.101351 -14.007029 39.911811 1.087995 1.929381 0.020350 -0.011411 -208042.000000 0 0 1
17.931275 32.822251 -12.737129 39.510318 1.070787 1.899033 0.017579 -0.021001 17205.700000 0 0 1
17.622475 31.511851 -12.295229 38.140806 1.060892 1.899022 0.013964 -0.011385 318162.000000 0 0 1
18.329575 31.287051 -10.908829 37.866284 1.040845 1.863026 0.008646 -0.012968 24442.200000 0 0 1
19.679775 30.933251 -10.982129 38.272271 1.004183 1.861835 0.011136 -0.013520 -181461.000000 0 0 1
20.286775 30.695151 -9.706429 38.052074 0.986789 1.828730 0.003730 -0.001415 729400.000000 0 0 1
21.667175 29.954251 -9.711929 38.223621 0.944576 1.827695 0.010794 0.007072 267251.000000 0 0 1
22.678375 30.657851 -10.356629 39.515469 0.933904 1.835984 0.012833 -0.009934 -197164.000000 0 0 1
23.884775 29.911651 -10.310529 39.642103 0.896964 1.833912 0.022602 0.000675 377736.000000 0 0 1
25.039375 30.429951 -11.201929 40.968713 0.882275 1.847750 0.016826 0.000501 110714.000000 0 0 1
25.609575 31.667551 -10.738929 42.118983 0.890772 1.828609 0.024170 -0.014914 466260.000000 0 0 1
26.752975 31.955251 -11.544329 43.245014 0.873780 1.841025 0.024554 -0.004764 444187.000000 0 0 1
27.367275 33.363951 -11.350929 44.620226 0.883820 1.828013 0.022299 -0.012399 -542242.000000 0 0 1
26.618075 34.377951 -11.945229 45.089399 0.911938 1.838921 0.021450 -0.008824 -322937.000000 0 0 1
26.995375 -33.780017 -11.687529 44.793282 -0.896573 1.834773 0.028773 -0.009703 -329400.000000 0 0 1
25.918875 -32.755817 -12.051129 43.473685 -0.901398 1.851680 0.020003 -0.008755 242164.000000 0 0 1
24.728575 -32.820617 -11.260529 42.608624 -0.925093 1.838252 0.022531 -0.013537 1057290.000000 0 0 1
23.638975 -31.960717 -11.661129 41.427895 -0.933968 1.856133 0.017996 -0.014694 870005.000000 0 0 1
23.872275 -30.479217 -11.215729 40.307081 -0.906364 1.852775 0.012171 -0.015028 -609833.000000 0 0 1
24.868175 -29.812217 -11.939029 40.616928 -0.875570 1.869145 0.002382 0.001739 -324730.000000 0 0 1
25.468875 -28.755017 -11.284629 40.035702 -0.845927 1.856533 0.007722 -0.002460 26030.800000 0 0 1
26.391975 -27.948217 -12.240629 40.341941 -0.814029 1.879078 -0.001409 0.006934 689601.000000 0 0 1
27.582975 -28.572117 -12.740229 41.707311 -0.803011 1.881226 -0.013353 0.010085 604710.000000 0 0 1
27.410775 -29.422417 -13.858429 42.533343 -0.820779 1.902681 -0.014156 0.002185 -510792.000000 0 0 1
28.661875 -30.207417 -14.261829 44.015803 -0.811646 1.900768 -0.023202 0.009744 -178295.000000 0 0 1
29.056875 -31.255717 -13.425529 44.737754 -0.821839 1.875587 -0.022519 0.007064 202130.000000 0 0 1
30.167675 -31.987817 -13.904129 46.115440 -0.814673 1.877069 -0.016788 -0.000809 -123005.000000 0 0 1
30.650575 -33.086417 -12.990629 46.935330 -0.823597 1.851235 -0.008969 -0.000873 -282217.000000 0 0 1
31.672275 -33.884517 -13.539829 48.317910 -0.819131 1.854824 -0.006536 -0.013482 379963.000000 0 0 1
32.626875 -34.460917 -12.643929 49.111472 -0.812729 1.831182 -0.000879 -0.008642 420910.000000 0 0 1
32.071075 33.977951 -11.632329 48.149414 0.814261 1.814798 -0.006537 -0.012734 -423901.000000 0 0 1
31.272875 34.475751 -10.615829 47.741658 0.834074 1.795031 0.007744 -0.017650 -282124.000000 0 0 1
30.844575 33.416351 -9.759429 46.511147 0.825398 1.782197 0.019211 -0.013024 -94110.100000 0 0 1
29.998675 33.874951 -8.521629 46.044011 0.846010 1.756945 0.003087 -0.008568 329126.000000 0 0 1
28.763575 34.467251 -8.891229 45.764491 0.875359 1.766322 0.006231 -0.016887 -89927.000000 0 0 1
28.025675 -34.677717 -7.727429 45.251471 -0.891090 1.742404 0.001367 -0.008580 194162.000000 0 0 1
27.039675 -33.540717 -7.952629 43.810593 -0.892302 1.753331 -0.003044 -0.013887 -424392.000000 0 0 1
27.548975 -32.279417 -7.597129 43.111752 -0.864301 1.747941 -0.010237 -0.022891 216811.000000 0 0 1
26.923175 -31.139417 -8.268229 41.986715 -0.857886 1.769017 0.001211 -0.007883 693624.000000 0 0 1
25.715975 -30.546117 -7.465229 40.621500 -0.871039 1.755622 0.000055 -0.001613 359086.000000 0 0 1
24.965075 -29.679817 -8.245029 39.650057 -0.871465 1.780270 0.011539 -0.014067 325460.000000 0 0 1
23.932775 -28.999417 -7.480229 38.336637 -0.880827 1.767176 0.010034 -0.012279 731322.000000 0 0 1
22.939875 -28.239017 -8.405629 37.340789 -0.888572 1.797848 0.020490 -0.014783 232556.000000 0 0 1
22.061275 -29.129017 -9.155329 37.669876 -0.922599 1.816296 0.019342 -0.018404 538575.000000 0 0 1
20.977675 -28.407017 -9.700129 36.621223 -0.934717 1.838873 0.013095 -0.019973 806409.000000 0 0 1
19.803175 -29.345017 -10.194129 36.840413 -0.977157 1.851166 0.017664 -0.020643 676120.000000 0 0 1
20.229475 -29.977017 -11.402429 37.919238 -0.977162 1.876226 0.028753 -0.020639 821090.000000 0 0 1
19.213775 -30.863417 -11.931229 38.263218 -1.013966 1.887904 0.030627 -0.020222 890640.000000 0 0 1
18.898175 -32.194917 -11.167929 38.966349 -1.039996 1.861477 0.027370 -0.024307 636578.000000 0 0 1
19.955475 -33.157717 -11.378329 40.337595 -1.029029 1.856755 0.028603 -0.024647 536539.000000 0 0 1
19.589375 -34.457517 -11.118829 41.166642 -1.053855 1.844286 0.022757 -0.016271 -294983.000000 0 0 1
20.845975 34.168351 -11.174229 41.555918 1.022986 1.843043 0.008140 -0.009582 457113.000000 0 0 1
21.694875 34.506451 -10.037129 41.977455 1.009527 1.812243 0.010642 -0.006330 640082.000000 0 0 1
22.940775 33.812051 -10.199029 42.113586 0.974660 1.815407 0.018752 -0.009256 -90347.600000 0 0 1
23.994975 34.184451 -9.187629 42.763864 0.958779 1.787330 0.015398 -0.010278 -820850.000000 0 0 1
23.884475 33.753851 -7.830429 42.084513 0.954983 1.757951 0.000484 -0.012442 110802.000000 0 0 1
24.276275 32.388751 -7.674029 41.197809 0.927597 1.758163 0.003142 -0.000369 -212052.000000 0 0 1
24.399175 31.955251 -6.188329 40.678658 0.918685 1.723516 -0.007241 0.009214 -640269.000000 0 0 1
25.502675 32.599851 -5.539229 41.759068 0.906945 1.703836 -0.004777 0.002954 460616.000000 0 0 1
26.467875 31.684651 -5.001729 41.587051 0.874867 1.691359 -0.004701 0.006978 -93746.800000 0 0 1
26.205375 30.616751 -3.917829 40.490203 0.862878 1.667708 -0.000832 0.012167 -783776.000000 0 0 1
25.902475 31.194151 -2.666729 40.634034 0.877813 1.636471 -0.007353 0.011549 105568.000000 0 0 1
25.762875 30.258751 -1.590529 39.772447 0.865479 1.610798 -0.003144 0.015268 135232.000000 0 0 1
24.421175 29.449151 -1.469529 38.285843 0.878463 1.609189 0.001847 0.017454 1121690.000000 0 0 1
23.314375 30.249951 -0.995329 38.204847 0.914163 1.596852 -0.000935 0.019747 825102.000000 0 0 1
22.082175 29.619551 -1.373229 36.970610 0.930164 1.607949 -0.003478 0.027074 1134780.000000 0 0 1
20.806375 30.192751 -0.669229 36.673633 0.967411 1.589046 0.001436 0.026643 458811.000000 0 0 1
20.583675 29.677751 0.608271 36.122383 0.964397 1.553956 0.002994 0.011054 312282.000000 0 0 1
19.522075 30.254351 1.355671 36.031584 0.997757 1.533163 0.007300 0.006958 -10956.100000 0 0 1
18.984775 29.362951 2.495271 35.054685 0.996846 1.499554 0.005821 -0.002615 113091.000000 0 0 1
18.226875 28.240451 1.975471 33.669638 0.997649 1.512090 0.019311 0.000841 463730.000000 0 0 1
17.872675 27.376251 3.021871 32.833266 0.992418 1.478629 0.029190 -0.005865 -283322.000000 0 0 1
17.429475 25.976151 2.543671 31.384985 0.979814 1.489660 0.007970 -0.005789 133779.000000 0 0 1
18.435675 25.161451 1.926771 31.251963 0.938463 1.509104 0.013243 -0.006405 -183740.000000 0 0 1
19.295775 24.630751 2.871271 31.420456 0.906259 1.479286 0.017340 -0.009111 -911560.000000 0 0 1
20.483875 23.977251 2.147971 31.608725 0.863809 1.502789 0.017434 -0.004509 -462105.000000 0 0 1
20.103375 22.834451 1.411971 30.455730 0.848918 1.524418 0.024978 -0.011323 -234640.000000 0 0 1
21.213275 22.325751 0.760471 30.806177 0.810944 1.546108 0.034354 -0.017443 -611955.000000 0 0 1
20.979875 21.147051 -0.177529 29.788999 0.789367 1.576756 0.051022 -0.017688 -88661.500000 0 0 1
20.435675 21.512951 -1.460229 29.707847 0.811073 1.619969 0.039858 -0.009640 469675.000000 0 0 1
20.725475 20.573151 -2.512829 29.310649 0.781710 1.656633 0.068652 -0.021925 14937.300000 0 0 1
20.437275 21.299551 -3.828429 29.765919 0.806055 1.699771 0.041407 -0.012097 -295769.000000 0 0 1
21.344375 22.306151 -4.205829 31.158237 0.807428 1.706193 0.033819 0.002497 127962.000000 0 0 1
20.877075 22.977551 -5.322329 31.498370 0.833258 1.740582 0.027539 -0.001030 -81186.700000 0 0 1
21.839575 24.160351 -5.704929 33.064117 0.835807 1.744206 0.020732 0.011077 90439.700000 0 0 1
21.832175 25.363251 -4.903229 33.822774 0.860077 1.716277 0.009879 0.018868 196482.000000 0 0 1
22.352375 25.258451 -3.572229 33.917235 0.846361 1.676314 0.014462 0.014757 106796.000000 0 0 1
21.329075 24.826751 -2.453229 32.822482 0.861033 1.645608 0.023423 0.004950 -380710.000000 0 0 1
20.422075 25.831851 -2.043829 32.992771 0.901827 1.632784 0.014509 0.023967 1332070.000000 0 0 1
19.455675 25.477351 -0.995229 32.071938 0.918619 1.601832 0.012115 0.013276 1035870.000000 0 0 1
18.446075 24.315251 -1.356029 30.550416 0.921800 1.615198 0.010603 0.006691 -850447.000000 0 0 1
17.640875 24.745651 -2.408929 30.485253 0.951473 1.649898 -0.001752 0.021553 -181482.000000 0 0 1
16.948575 23.686951 -3.039629 29.284214 0.949728 1.674781 -0.012106 0.007549 -70508.200000 0 0 1
16.711975 24.076251 -4.511629 29.653175 0.964023 1.723536 -0.010246 -0.002262 -169995.000000 0 0 1
16.037675 23.082051 -5.246329 28.592168 0.963561 1.755330 -0.015749 -0.011656 -63362.100000 0 0 1
15.892275 23.428751 -6.595529 29.068398 0.974767 1.799687 -0.011792 -0.010166 7034.000000 0 0 1
15.014475 22.527951 -7.505629 28.094083 0.982922 1.841242 -0.001799 -0.009134 -349366.000000 0 0 1
15.690475 21.284351 -7.622729 27.519459 0.935548 1.851461 -0.019050 -0.001463 467324.000000 0 0 1
14.943275 20.311251 -8.327229 26.555435 0.936501 1.889756 -0.003232 0.006027 -142827.000000 0 0 1
15.839475 19.122751 -8.708029 26.313463 0.879033 1.908090 -0.013316 0.011117 342131.000000 0 0 1
16.783075 19.327851 -9.780729 27.402556 0.855753 1.935773 -0.011059 0.009146 803828.000000 0 0 1
17.545175 18.147151 -10.081429 27.180645 0.802262 1.950779 -0.008011 0.010961 201166.000000 0 0 1
18.853975 18.407551 -10.852729 28.497229 0.773418 1.961495 -0.012846 0.010264 8744.660000 0 0 1
18.571175 18.837051 -12.176829 29.120409 0.792505 2.002209 -0.016509 0.012251 135494.000000 0 0 1
19.764275 19.217751 -12.833529 30.408025 0.771379 2.006495 -0.003916 0.015317 -132825.000000 0 0 1
19.787875 19.548351 -14.368029 31.307160 0.779309 2.047595 0.009355 0.013017 -231096.000000 0 0 1
19.940375 18.417751 -15.214329 31.117646 0.745724 2.081658 0.015496 0.011304 169370.000000 0 0 1
20.193575 18.763851 -16.547029 32.150688 0.748715 2.111420 0.016170 0.007322 -3578.620000 0 0 1
20.144575 17.578351 -17.579229 31.997369 0.717475 2.152438 0.024627 -0.006053 618156.000000 0 0 1
21.260175 16.642951 -17.382329 32.111185 0.664179 2.142799 0.025727 -0.001387 1098660.000000 0 0 1
21.582275 15.918951 -18.557229 32.612549 0.635514 2.176111 0.037328 -0.021219 687225.000000 0 0 1
22.652275 16.592451 -19.555929 34.217968 0.632197 2.179142 0.037255 -0.018831 579867.000000 0 0 1
23.933975 16.680751 -18.972629 34.800047 0.608675 2.147412 0.035329 -0.016104 173989.000000 0 0 1
24.906875 17.137051 -19.889529 36.188732 0.602657 2.152688 0.030028 -0.018523 200607.000000 0 0 1
26.231175 17.570851 -19.222829 36.963854 0.590201 2.117699 0.015301 -0.008489 137483.000000 0 0 1
26.104875 18.823851 -18.607129 37.175625 0.624738 2.094995 0.009403 -0.009133 -564870.000000 0 0 1
27.345875 19.315651 -18.253329 38.132339 0.614972 2.069951 0.005845 -0.014605 -895905.000000 0 0 1
27.217575 20.463351 -17.232829 38.164322 0.644680 2.039290 0.003831 -0.018538 89017.200000 0 0 1
26.524075 20.066851 -16.071329 36.939040 0.647681 2.020920 -0.006520 -0.009791 512687.000000 0 0 1
25.128075 20.368551 -16.145529 36.152125 0.681165 2.033758 -0.002934 -0.007445 167369.000000 0 0 1
24.266275 19.751251 -15.021529 34.707497 0.683182 2.018397 -0.007218 -0.000506 -259074.000000 0 0 1
24.532875 20.154451 -13.710329 34.583767 0.687731 1.978430 -0.008873 0.001556 -31443.900000 0 0 1
23.647875 19.739651 -12.690329 33.315466 0.695563 1.961581 0.001114 0.004771 -194541.000000 0 0 1
24.124575 20.168651 -11.286629 33.408945 0.696322 1.915409 0.005589 0.003655 35502.400000 0 0 1
23.918875 21.563051 -11.055829 34.048628 0.733648 1.901498 0.009098 -0.002274 384826.000000 0 0 1
24.697175 22.065051 -9.940029 34.577754 0.729170 1.862379 0.007475 0.003823 477980.000000 0 0 1
24.134675 21.785351 -8.509129 33.607876 0.734282 1.826771 0.016735 0.001386 -544475.000000 0 0 1
24.143475 20.435351 -8.121329 32.656805 0.702408 1.822121 0.016656 -0.000427 88157.400000 0 0 1
23.317075 20.150551 -7.021729 31.607521 0.712679 1.794819 0.022650 -0.002111 -929835.000000 0 0 1
21.905675 19.777551 -7.397229 30.425797 0.734388 1.816381 0.016353 -0.007376 -1263950.000000 0 0 1
21.099475 20.873051 -7.698629 30.661719 0.780004 1.824595 0.018900 -0.000170 563800.000000 0 0 1
19.740275 20.538751 -8.025829 29.596160 0.805219 1.845413 0.015463 -0.002891 846668.000000 0 0 1
18.887875 21.851451 -8.105229 29.998875 0.858015 1.844381 0.006086 -0.005573 -836483.000000 0 0 1
19.099075 22.688151 -9.257729 31.068190 0.871077 1.873373 -0.001185 0.002492 53523.700000 0 0 1
18.383675 22.479151 -10.465329 30.867375 0.885290 1.916694 -0.008304 0.007079 -282781.000000 0 0 1
16.912875 22.917951 -10.414229 30.327116 0.935036 1.921327 0.005759 0.004921 -621087.000000 0 0 1
16.835975 24.289851 -10.343029 31.311742 0.964697 1.907443 0.013219 0.001275 296225.000000 0 0 1
15.519875 24.829051 -10.469729 31.096037 1.012147 1.914196 0.005867 0.003143 472779.000000 0 0 1
15.438075 26.281551 -10.034929 32.089779 1.039685 1.888846 0.002871 0.005894 36994.800000 0 0 1
16.029475 27.234351 -10.936429 33.440386 1.038819 1.903969 0.023618 0.010608 196714.000000 0 0 1
15.906775 28.529351 -10.417129 34.285069 1.062169 1.879516 0.022189 0.002845 -349757.000000 0 0 1
19.794775 29.000051 -34.611897 49.303342 0.971859 2.349025 -0.029538 0.008312 -738226.000000 0 0 1
18.441275 29.301351 34.494119 48.872222 1.009064 0.787241 -0.005381 -0.000328 -594957.000000 0 0 1
17.662275 28.137251 34.465131 47.869678 1.010244 0.767025 -0.015732 -0.006408 -441647.000000 0 0 1
16.167675 28.458851 34.357336 47.452360 1.054158 0.761157 0.009268 -0.010543 -426348.000000 0 0 1
15.857575 29.098151 33.164024 46.883020 1.071824 0.785014 0.004010 -0.007907 726175.000000 0 0 1
14.506775 29.598851 33.275546 46.838024 1.115090 0.780675 0.042121 -0.018333 907660.000000 0 0 1
13.660275 29.736251 31.996804 45.767272 1.140168 0.796631 0.024360 -0.018291 -88146.200000 0 0 1
13.271775 28.460251 31.507144 44.483997 1.134448 0.783737 0.025711 -0.018764 -408042.000000 0 0 1
11.875275 28.432051 31.396804 43.990488 1.175149 0.776004 0.027199 -0.004812 -248547.000000 0 0 1
11.239375 26.977051 31.242274 42.780422 1.176039 0.752045 0.021795 -0.000120 157910.000000 0 0 1
11.449675 26.219451 30.039794 41.484261 1.159069 0.761031 0.017391 -0.001608 -440213.000000 0 0 1
12.764575 25.872951 29.726514 41.424746 1.112478 0.770442 0.004820 0.001528 -718676.000000 0 0 1
13.030075 25.168251 28.376424 40.105426 1.093074 0.784777 0.005981 0.003798 -227218.000000 0 0 1
12.656875 25.973351 27.264154 39.725880 1.117358 0.814397 0.002827 0.006130 157851.000000 0 0 1
12.765675 25.334251 26.021904 38.495795 1.104042 0.828520 0.005835 0.006781 136624.000000 0 0 1
11.771875 24.145551 25.721514 37.191141 1.117168 0.807090 0.001050 0.003829 67458.600000 0 0 1
11.853075 23.697651 24.420604 36.033872 1.107005 0.826149 0.008961 0.000494 171624.000000 0 0 1
10.780475 22.810451 24.185284 34.949439 1.129299 0.806530 0.016022 -0.002011 136006.000000 0 0 1
10.923175 22.289751 22.736484 33.661498 1.115137 0.829229 0.016202 0.001462 51785.000000 0 0 1
10.611375 23.280751 21.779884 33.599970 1.143129 0.865563 0.019792 -0.006085 -99734.900000 0 0 1
10.747575 22.686851 20.493084 32.406328 1.128380 0.886176 0.018106 0.002083 -892743.000000 0 0 1
10.342775 23.567851 19.330384 32.188202 1.157253 0.926617 0.014738 -0.000814 474410.000000 0 0 1
8.972775 23.900851 19.146884 31.911825 1.211661 0.927303 0.012913 -0.001643 -37292.900000 0 0 1
8.278275 24.546451 20.161184 32.825774 1.245526 0.909440 0.011767 -0.001505 -767067.000000 0 0 1
6.896475 25.039451 19.706784 32.602037 1.302036 0.921702 0.020405 -0.001996 -23768.000000 0 0 1
7.065775 26.235351 18.948384 33.124916 1.307716 0.961820 0.017412 -0.008272 56107.100000 0 0 1
5.789575 26.703451 18.571484 33.037759 1.357291 0.973839 0.014254 -0.007650 -80540.900000 0 0 1
5.849675 28.018551 17.723384 33.665654 1.364974 1.016373 0.015861 0.000009 24576.300000 0 0 1
6.432175 27.669351 16.507984 32.855432 1.342387 1.044374 0.013954 0.003719 -163149.000000 0 0 1
6.747175 28.768151 15.664384 33.444040 1.340424 1.083345 0.002992 0.009801 116667.000000 0 0 1
7.361675 28.305351 14.292284 32.552366 1.316353 1.116250 0.000550 0.006523 297573.000000 0 0 1
6.363975 28.249551 13.293584 31.863093 1.349218 1.140424 -0.008258 0.009836 39448.700000 0 0 1
6.674275 27.221751 12.413684 30.654025 1.330358 1.153860 -0.014063 0.004001 481869.000000 0 0 1
5.912975 27.333751 10.974384 30.042209 1.357754 1.196843 -0.020731 -0.000127 298246.000000 0 0 1
6.405475 28.149951 9.901884 30.520439 1.347058 1.240382 -0.022673 -0.000380 -135635.000000 0 0 1
6.294175 29.542351 10.080084 31.842978 1.360879 1.248700 -0.021664 0.003244 -199458.000000 0 0 1
6.369375 30.332951 8.773684 32.212333 1.363821 1.294941 -0.006483 0.008924 -936538.000000 0 0 1
5.330575 30.069951 7.913384 31.547403 1.395347 1.317247 -0.012620 0.000815 -768453.000000 0 0 1
5.489075 28.980951 7.019484 30.319938 1.383611 1.337163 -0.019602 0.011368 362780.000000 0 0 1
4.079275 28.538851 6.520584 29.557140 1.428820 1.348357 -0.016022 0.014795 768969.000000 0 0 1
3.497775 29.528151 5.663784 30.269202 1.452890 1.382573 -0.007726 0.005560 61629.200000 0 0 1
2.097775 29.456351 5.488884 30.036730 1.499700 1.387025 -0.014883 0.002272 98998.000000 0 0 1
1.553175 30.646251 4.670984 31.039059 1.520159 1.419735 -0.010640 -0.005414 -465169.000000 0 0 1
1.760275 30.500551 3.282584 30.727147 1.513147 1.463762 0.000052 -0.000905 -137974.000000 0 0 1
0.830575 31.219651 2.542084 31.333986 1.544198 1.489578 0.002867 -0.005144 -370371.000000 0 0 1
-0.373425 30.350551 2.146184 30.428630 -1.558493 1.500206 0.000614 0.000428 -470226.000000 0 0 1
-0.187625 29.568051 0.996884 29.585447 -1.564451 1.537095 0.005811 0.006131 -56719.800000 0 0 1
-1.176925 28.561851 0.987184 28.603130 -1.529613 1.536276 0.005561 0.003212 -84718.900000 0 0 1
-1.443425 28.033251 -0.426516 28.073628 -1.519352 1.585990 0.005342 -0.004230 -156645.000000 0 0 1
-2.180125 29.020151 -1.122716 29.123575 -1.495813 1.609356 0.004953 -0.008305 540.005000 0 0 1
-1.465425 29.789951 -2.063416 29.897264 -1.521644 1.639868 0.004999 -0.002215 216440.000000 0 0 1
-2.423925 30.884851 -2.687716 31.096194 -1.492474 1.657337 0.005555 -0.003824 1168540.000000 0 0 1
-3.598825 30.513051 -3.410516 30.913257 -1.453395 1.681347 -0.010880 -0.005364 742424.000000 0 0 1
-3.269525 29.891051 -4.656916 30.427810 -1.461848 1.724448 -0.011020 0.000798 -907483.000000 0 0 1
-4.554625 29.678251 -5.397616 30.507007 -1.418518 1.748663 -0.009427 0.000677 -599169.000000 0 0 1
-5.127125 30.823151 -5.989616 31.815556 -1.405965 1.760187 -0.012005 0.002108 350452.000000 0 0 1
-6.332925 30.498951 -6.687216 31.859235 -1.366062 1.782268 -0.011300 0.005454 233791.000000 0 0 1
-6.967125 31.685151 -7.461516 33.289096 -1.354355 1.796860 -0.006059 -0.000694 10733.400000 0 0 1
-7.884725 32.392851 -6.629416 33.991394 -1.332030 1.767087 -0.006693 0.001144 139418.000000 0 0 1
-8.139025 33.661651 -7.162716 35.364601 -1.333560 1.774746 0.005564 -0.011657 -456659.000000 0 0 1
-9.146325 34.513151 -6.406316 36.274699 -1.311741 1.748333 0.005648 -0.012435 -726456.000000 0 0 1
-10.460525 34.087151 -6.574816 36.257202 -1.273043 1.753143 0.009065 -0.007867 -791872.000000 0 0 1
-11.351325 -34.592017 -5.838716 36.872088 1.253719 1.729816 0.014865 -0.006784 367995.000000 0 0 1
-12.820025 34.505551 -6.112516 37.314193 -1.215067 1.735350 0.019442 -0.011473 114508.000000 0 0 1
-13.245425 34.740351 -7.443916 37.917611 -1.206541 1.768398 0.033942 -0.012767 -100374.000000 0 0 1
-14.570425 34.329451 -7.675216 38.075156 -1.169409 1.773768 0.033789 -0.016310 -560631.000000 0 0 1
-15.088225 34.571151 -9.130516 38.809604 -1.159276 1.808287 0.027847 -0.005311 562389.000000 0 0 1
-16.412825 34.135951 -9.467716 39.042050 -1.122620 1.815739 0.028942 -0.005223 276785.000000 0 0 1
-17.337925 -34.378817 -9.148216 39.575202 1.103699 1.804066 0.032709 -0.008953 -465832.000000 0 0 1
-18.795625 34.580751 -9.341816 40.452113 -1.072935 1.803835 0.026804 -0.004227 619562.000000 0 0 1
-19.286025 33.621551 -8.320916 39.643375 -1.049999 1.782263 0.012474 0.002996 433941.000000 0 0 1
-19.496225 34.125651 -6.998716 39.920482 -1.051742 1.747023 0.007393 0.001090 -594228.000000 0 0 1
-19.979025 33.108251 -5.991416 39.130740 -1.027847 1.724514 0.008733 -0.004337 -496876.000000 0 0 1
-19.658025 33.429851 -4.653216 39.059510 -1.039219 1.690211 0.010046 -0.010404 658275.000000 0 0 1
-20.841425 33.701351 -3.892816 39.815827 -1.016946 1.668723 0.015254 -0.004183 681478.000000 0 0 1
-21.511325 -34.401417 -4.161316 40.786164 1.011979 1.673002 0.006618 -0.003841 -196509.000000 0 0 1
-22.100725 -34.334517 -5.433416 41.192513 0.998871 1.703085 0.003952 -0.000695 461045.000000 0 0 1
-22.959425 -33.156417 -5.578916 40.713726 0.965150 1.708257 -0.000731 0.004467 611928.000000 0 0 1
-23.520525 -32.969617 -6.998516 41.099757 0.951134 1.741911 0.006753 -0.000479 258278.000000 0 0 1
-22.473425 -32.562117 -7.886416 40.342805 0.966698 1.767548 0.014899 0.000861 462734.000000 0 0 1
-22.459025 -33.109417 -9.218816 41.056399 0.974764 1.797268 -0.000841 0.013616 195008.000000 0 0 1
-23.627725 -32.506417 -10.053216 41.424675 0.942268 1.815931 -0.007569 0.013917 1043720.000000 0 0 1
-24.954525 -32.869717 -9.603816 42.371924 0.921436 1.799438 -0.013277 0.014887 836369.000000 0 0 1
-26.041375 -32.187317 -10.193116 42.638905 0.890557 1.812191 -0.023004 0.014485 307455.000000 0 0 1
-26.161315 -30.648217 -9.875216 41.487920 0.864216 1.811130 -0.011515 0.018938 -701072.000000 0 0 1
-25.314705 -29.678917 -10.454716 40.385313 0.864591 1.832653 -0.019952 0.018554 -253817.000000 0 0 1
-25.515135 -29.495817 -11.834816 40.756450 0.857634 1.865419 -0.023162 0.021705 -719436.000000 0 0 1
-24.408025 -28.825217 -12.612316 39.821042 0.868187 1.893071 -0.031482 0.030759 -128109.000000 0 0 1
-23.218125 -29.627117 -12.697016 39.724824 0.906087 1.896129 -0.019047 0.030361 451869.000000 0 0 1
-22.333725 -29.215117 -13.703816 39.244273 0.918106 1.927506 -0.010435 0.025669 -377652.000000 0 0 1
-21.194425 -30.204617 -13.962816 39.452285 0.958934 1.932552 0.003582 0.013567 -689446.000000 0 0 1
-21.375725 -31.384817 -14.786416 40.750049 0.972878 1.942128 0.004227 0.015562 -153542.000000 0 0 1
-22.239325 -32.394817 -14.298116 41.814446 0.969182 1.919779 -0.006949 0.013343 -103317.000000 0 0 1
-22.142825 -33.707117 -15.105816 43.065765 0.989573 1.929181 -0.010268 0.011147 -283177.000000 0 0 1
-22.787725 34.754351 -14.520316 44.022551 -0.990439 1.906928 -0.010130 0.000550 -469311.000000 0 0 1
-22.702725 33.514151 -15.182416 43.233296 -0.975395 1.929621 -0.008579 0.000444 70598.400000 0 0 1
-23.306525 32.362951 -14.259816 42.354423 -0.946667 1.914183 -0.007199 -0.005048 920613.000000 0 0 1
-22.464725 31.923851 -13.119616 41.181555 -0.957593 1.895027 -0.010215 -0.008363 800512.000000 0 0 1
-22.463325 32.875451 -12.067516 41.605543 -0.971376 1.865071 0.007182 -0.001381 185612.000000 0 0 1
-21.646425 32.312551 -10.842316 40.376039 -0.980553 1.842667 0.006440 0.001721 226051.000000 0 0 1
-22.190525 31.172451 -10.186216 39.596719 -0.952153 1.830971 0.008049 -0.007016 -1342.160000 0 0 1
-21.473925 30.889351 -9.015516 38.685411 -0.963307 1.806006 0.004564 0.001564 -129578.000000 0 0 1
-22.141725 29.823951 -8.083516 38.014041 -0.932168 1.785078 0.008801 0.000956 -50520.000000 0 0 1
-22.095425 28.511351 -8.680416 37.100601 -0.911505 1.806955 0.013834 0.001444 -18279.400000 0 0 1
-22.569325 27.471751 -7.876216 36.415743 -0.883055 1.788805 0.001225 -0.000068 -827666.000000 0 0 1
-21.718625 27.030751 -6.741416 35.324310 -0.893938 1.762818 0.005959 0.003196 -893341.000000 0 0 1
-21.966925 27.683051 -5.487916 35.763310 -0.900022 1.724856 0.006367 0.005187 294872.000000 0 0 1
-21.019025 27.294451 -4.483516 34.740300 -0.914565 1.700215 -0.002519 0.012453 842853.000000 0 0 1
-19.800825 28.321551 -4.450016 34.842296 -0.960646 1.698865 -0.010609 0.010553 834161.000000 0 0 1
-19.068625 28.260951 -5.685916 34.563326 -0.977229 1.736055 -0.010410 0.009830 -340920.000000 0 0 1
-17.914625 29.051051 -5.677216 34.599540 -1.018217 1.735625 0.001245 0.009746 -542845.000000 0 0 1
-16.962725 28.755251 -6.829016 34.076884 -1.037836 1.772563 0.001847 0.014663 -823668.000000 0 0 1
-17.212525 29.162651 -8.189116 34.839531 -1.037595 1.808069 0.000574 0.013979 66996.300000 0 0 1
-17.263725 30.609851 -8.369916 36.125541 -1.057274 1.804611 0.004805 0.008011 -193924.000000 0 0 1
-17.406625 31.021051 -9.829916 36.904248 -1.059454 1.840414 0.002027 0.006728 -127705.000000 0 0 1
-16.173225 31.111651 -10.514316 36.606815 -1.091399 1.862123 -0.001971 0.005114 -25301.300000 0 0 1
-16.306325 31.613151 -11.846216 37.491605 -1.094582 1.892275 0.006669 0.005001 1093120.000000 0 0 1
-14.859225 31.851651 -12.502016 37.304486 -1.134295 1.912544 0.014612 0.003965 1580960.000000 0 0 1
-14.776125 32.431251 -13.763616 38.204150 -1.143284 1.939348 0.016946 0.004170 -315180.000000 0 0 1
-14.997025 31.423551 -14.704216 37.796353 -1.125510 1.970383 0.000750 -0.000156 -234146.000000 0 0 1
-14.533625 31.879851 -16.098216 38.557798 -1.143057 2.001498 0.015383 0.003815 183577.000000 0 0 1
-13.134025 31.857651 -16.249616 38.098066 -1.179755 2.011439 0.009315 -0.007923 -558351.000000 0 0 1
-12.789725 32.458451 -17.468516 39.016371 -1.195444 2.035013 -0.006629 -0.006093 -35931.100000 0 0 1
-11.279425 32.589851 -17.746516 38.784826 -1.237598 2.046049 0.015778 -0.006861 -192378.000000 0 0 1
-10.683825 31.293751 -17.827216 37.566643 -1.241799 2.065248 0.013874 -0.008721 42958.500000 0 0 1
-9.443925 31.190451 -18.496416 37.471982 -1.276789 2.087028 0.018757 -0.006807 -96914.200000 0 0 1
-9.419425 31.321251 -20.001516 38.338062 -1.278665 2.119656 0.026239 -0.018859 -599518.000000 0 0 1
-9.964025 30.220251 -20.659616 37.938966 -1.252307 2.146647 0.007324 -0.021567 21854.400000 0 0 1
-9.676025 30.183551 -22.028016 38.599297 -1.260574 2.178135 0.027400 -0.030345 -539038.000000 0 0 1
-10.864925 29.549051 -22.841116 38.896139 -1.218449 2.198433 0.017355 -0.025261 540992.000000 0 0 1
-11.841025 30.486051 -23.229316 40.114964 -1.200323 2.188382 0.003032 -0.021675 31757.900000 0 0 1
-12.730325 30.912251 -22.203216 40.132422 -1.180141 2.157056 0.000633 -0.018846 -933104.000000 0 0 1
-13.553125 32.082351 -22.685116 41.564155 -1.171089 2.148123 -0.000306 -0.017547 -476124.000000 0 0 1
-14.273525 31.824151 -23.840816 42.248014 -1.149180 2.170389 -0.002218 -0.020994 -445617.000000 0 0 1
-15.013725 32.952851 -24.191816 43.549355 -1.143285 2.159765 -0.008824 -0.014358 70588.200000 0 0 1
-15.376825 33.066751 -25.726416 44.628526 -1.135519 2.185182 -0.013881 -0.015322 416652.000000 0 0 1
-14.223025 33.420951 -26.477816 44.948072 -1.168441 2.200711 -0.008787 -0.012677 407219.000000 0 0 1
-14.592625 33.674851 -27.775316 46.026172 -1.161884 2.218639 0.003321 -0.000504 55063.900000 0 0 1
-15.022525 -34.401117 -28.119616 46.902302 1.159068 2.213717 0.001547 0.008206 79962.600000 0 0 1
-16.277125 -33.971517 -27.639216 46.721891 1.123975 2.203800 0.006604 0.009156 -115586.000000 0 0 1
-16.748625 -32.882217 -28.420716 46.577825 1.099695 2.227080 0.002368 0.015512 -391097.000000 0 0 1
-18.158125 -32.419217 -28.024116 46.541103 1.060229 2.216971 -0.005133 0.008846 -108894.000000 0 0 1
-19.098625 -33.409917 -28.460416 47.864134 1.051487 2.207575 -0.006457 0.007235 507538.000000 0 0 1
-20.324125 -33.203317 -27.710216 47.784793 1.021519 2.189398 0.000789 0.006152 841809.000000 0 0 1
-21.391825 -34.282117 -27.956916 49.137185 1.012921 2.176033 0.001535 0.007453 -303417.000000 0 0 1
-21.147525 33.999651 -27.327516 48.476667 -1.014363 2.169685 0.008219 0.001903 -659526.000000 0 0 1
-22.212925 33.116251 -27.488916 48.432847 -0.979968 2.174345 0.008105 0.000988 -451860.000000 0 0 1
-21.975025 31.623151 -27.140616 47.111978 -0.963499 2.184730 0.002287 0.007032 -261282.000000 0 0 1
-21.790025 31.430251 -25.741516 46.100885 -0.964593 2.163220 0.000006 0.005158 -139314.000000 0 0 1
-22.007225 30.073051 -25.381416 45.087944 -0.939050 2.168725 0.002108 -0.000335 -175274.000000 0 0 1
30.280350 9.661651 -26.785849 41.565957 0.308862 2.271058 -0.014124 0.004446 -182835.000000 0 0 1
29.831180 8.325451 -26.898949 41.021530 0.272161 2.285942 -0.012223 0.005635 -624179.000000 0 0 1
28.442290 8.278751 -26.847399 39.978549 0.283246 2.307088 -0.013756 0.003486 -689305.000000 0 0 1
27.956740 6.886251 -26.423159 39.079190 0.241510 2.313313 -0.013848 0.006267 -258023.000000 0 0 1
28.279840 6.578051 -25.083969 38.369592 0.228542 2.283321 -0.014849 0.015965 76421.000000 0 0 1
27.693280 5.395451 -24.559129 37.405607 0.192418 2.287049 -0.008887 0.017542 -99714.600000 0 0 1
27.740680 5.311051 -22.967729 36.404247 0.189164 2.253519 -0.003640 0.017612 426925.000000 0 0 1
29.018010 4.913451 -22.470129 37.028281 0.167733 2.222871 -0.001999 0.009240 531606.000000 0 0 1
28.942830 4.965451 -21.052429 36.132366 0.169907 2.192779 0.004181 0.001856 -336326.000000 0 0 1
30.228240 4.619751 -20.302229 36.705164 0.151656 2.156897 0.001091 -0.000125 -345320.000000 0 0 1
30.704540 3.263351 -20.348729 36.979576 0.105885 2.153483 0.013139 0.008805 85453.100000 0 0 1
31.624090 3.022751 -19.319129 37.181297 0.095294 2.117170 0.018030 0.004619 -283058.000000 0 0 1
32.291850 1.616951 -19.359129 37.684930 0.050031 2.110300 0.023878 -0.005737 -633503.000000 0 0 1
31.452670 0.581051 -19.009929 36.755754 0.018472 2.114368 0.030966 -0.004343 -631922.000000 0 0 1
32.034950 -0.642549 -19.268229 37.388709 -0.020055 2.112211 0.041684 -0.005220 -372724.000000 0 0 1
31.141380 -1.833649 -18.860329 36.453530 -0.058814 2.114583 0.014802 -0.002015 60256.600000 0 0 1
30.982730 -1.995349 -17.463429 35.621375 -0.064313 2.083174 0.019442 -0.004455 -307514.000000 0 0 1
29.672780 -1.623749 -17.113629 34.292663 -0.054667 2.093294 0.011680 -0.007350 -393258.000000 0 0 1
29.293950 -2.094349 -15.731129 33.316516 -0.071373 2.062550 0.007787 -0.000052 -267444.000000 0 0 1
29.332520 -3.481549 -15.503629 33.359862 -0.118140 2.054136 0.014815 -0.003970 437045.000000 0 0 1
28.567950 -3.792549 -14.344729 32.191341 -0.131984 2.032650 0.033790 -0.004106 66971.000000 0 0 1
28.353630 -5.311349 -14.008429 32.068284 -0.185179 2.022869 0.013723 -0.000432 -483875.000000 0 0 1
27.448650 -6.031149 -14.753929 31.740850 -0.216288 2.054233 0.007824 -0.000859 -58728.400000 0 0 1
27.200830 -7.302249 -14.174729 31.529842 -0.262273 2.037075 0.001114 -0.000246 -110825.000000 0 0 1
26.492460 -8.233549 -15.200929 31.634001 -0.301325 2.072050 0.003892 0.002704 991538.000000 0 0 1
25.187540 -7.795849 -15.663329 30.668018 -0.300160 2.106840 0.011370 -0.002963 1029320.000000 0 0 1
24.626880 -8.747449 -16.549529 30.933606 -0.341299 2.135306 -0.006365 -0.001050 113629.000000 0 0 1
23.209920 -8.302049 -16.970829 29.927135 -0.343513 2.173743 -0.004891 -0.005482 -164795.000000 0 0 1
23.240620 -7.096749 -17.760129 30.098379 -0.296367 2.201941 -0.005790 -0.006644 -395936.000000 0 0 1
21.977820 -6.744949 -18.252429 29.354217 -0.297773 2.241834 0.020699 -0.012164 -207298.000000 0 0 1
21.643620 -7.402349 -19.608329 30.128518 -0.329540 2.279464 0.007413 -0.007059 124459.000000 0 0 1
22.343620 -6.685349 -20.640529 31.144224 -0.290728 2.295268 -0.002615 -0.008865 614552.000000 0 0 1
21.817320 -7.044649 -21.931229 31.726981 -0.312325 2.334012 0.014149 -0.007995 133949.000000 0 0 1
22.494420 -6.278249 -23.091629 32.842635 -0.272176 2.350543 0.005706 -0.009323 -67511.800000 0 0 1
22.144620 -6.765549 -24.365229 33.612813 -0.296510 2.381655 0.015185 -0.010509 69247.300000 0 0 1
22.610620 -5.870249 -25.334029 34.460310 -0.254015 2.396707 0.015052 -0.010545 -456531.000000 0 0 1
22.605620 -6.315449 -26.804899 35.628662 -0.272429 2.422405 0.021762 -0.014600 -177425.000000 0 0 1
21.340320 -6.683749 -27.314869 35.301329 -0.303521 2.455557 0.025106 -0.011334 -317464.000000 0 0 1
21.290120 -6.922549 -28.707839 36.405094 -0.314370 2.479271 0.019423 -0.010987 -320515.000000 0 0 1
19.959420 -7.400249 -29.279419 36.199813 -0.355052 2.512952 0.038203 -0.018303 -339284.000000 0 0 1
19.873620 -8.765649 -28.910539 36.160982 -0.415403 2.497251 0.039409 -0.009282 27875.100000 0 0 1
18.964320 -9.543549 -29.640659 36.459476 -0.466234 2.520040 0.028552 -0.015716 -345535.000000 0 0 1
18.968420 -11.000149 -29.248439 36.555101 -0.525523 2.498290 0.026530 -0.003668 -214469.000000 0 0 1
18.121820 -11.386249 -28.184299 35.389288 -0.560981 2.492128 0.028310 -0.000386 72897.900000 0 0 1
18.222620 -12.742849 -27.693319 35.515686 -0.610248 2.465061 0.024913 -0.001295 -330246.000000 0 0 1
18.217420 -13.978349 -28.678459 36.738571 -0.654486 2.466436 0.024521 0.003820 -169090.000000 0 0 1
16.990720 -14.098249 -29.344279 36.722362 -0.692627 2.496568 0.021228 0.000301 139486.000000 0 0 1
17.196720 -15.049449 -30.392899 38.025536 -0.718906 2.496886 0.018161 -0.004322 225975.000000 0 0 1
15.967820 -15.275049 -31.322329 38.332580 -0.763228 2.527194 0.008307 -0.009127 -55873.700000 0 0 1
14.828820 -15.810149 -30.719449 37.597064 -0.817416 2.527108 0.004947 -0.006850 -103546.000000 0 0 1
13.932720 -16.359349 -31.685189 38.284464 -0.865335 2.545660 -0.005829 -0.005949 271211.000000 0 0 1
12.623120 -16.832049 -30.993749 37.460292 -0.927330 2.545216 -0.007325 -0.007807 52005.400000 0 0 1
12.790820 -18.075249 -30.355859 37.573899 -0.954959 2.511372 -0.011535 -0.016101 462319.000000 0 0 1
11.834520 -18.288449 -29.305559 36.514915 -0.996460 2.502377 -0.000343 -0.018272 289797.000000 0 0 1
12.110520 -19.606949 -28.599489 36.729115 -1.017489 2.463323 -0.005600 -0.009874 273268.000000 0 0 1
13.217320 -19.471849 -27.683489 36.334914 -0.974447 2.437034 -0.008454 -0.004707 424549.000000 0 0 1
13.111820 -20.464249 -26.690929 36.098628 -1.000974 2.402959 -0.003427 0.003197 -435622.000000 0 0 1
14.067520 -20.343349 -25.536559 35.550848 -0.965795 2.372168 -0.015475 0.011371 -285803.000000 0 0 1
15.425820 -20.644849 -25.831819 36.489020 -0.929090 2.357365 -0.014004 0.002941 433401.000000 0 0 1
16.097120 -20.745449 -24.571329 35.961662 -0.910902 2.323021 -0.011685 0.012809 -90380.800000 0 0 1
17.598020 -21.121149 -24.680229 36.944647 -0.876140 2.302358 -0.023657 0.010225 150580.000000 0 0 1
18.006620 -22.414549 -25.099609 38.165963 -0.894019 2.288483 -0.022512 0.005939 246040.000000 0 0 1
17.761520 -23.407449 -24.106829 38.006834 -0.921688 2.257868 -0.021579 0.001755 -502998.000000 0 0 1
18.198820 -24.860249 -24.415129 39.310654 -0.938886 2.240918 -0.017032 -0.005249 837920.000000 0 0 1
19.593320 -25.248019 -24.313629 40.156110 -0.910841 2.221162 -0.014536 0.000931 1246930.000000 0 0 1
19.801520 -26.642169 -24.167729 41.060741 -0.931636 2.200104 -0.016236 -0.012276 -29270.100000 0 0 1
20.013920 -26.959239 -22.690929 40.524508 -0.932192 2.165099 -0.003392 -0.016904 -674579.000000 0 0 1
18.861120 -26.854379 -21.923629 39.465745 -0.958496 2.159773 -0.007081 -0.009575 -214888.000000 0 0 1
19.176220 -26.941099 -20.529629 38.923205 -0.952206 2.126380 -0.003059 -0.007685 -12375.100000 0 0 1
17.981820 -27.527899 -19.764729 38.363727 -0.992160 2.112029 0.003255 -0.008671 -497126.000000 0 0 1
17.696020 -28.903849 -20.049229 39.377064 -1.021427 2.105005 0.012240 -0.006755 1450120.000000 0 0 1
16.486320 -29.456979 -19.428929 38.948628 -1.060556 2.093050 0.010076 -0.001381 1437240.000000 0 0 1
15.118420 -28.945379 -19.908629 38.245981 -1.089462 2.118282 0.009553 -0.004135 -531424.000000 0 0 1
14.676820 -27.683769 -19.426829 36.867354 -1.083313 2.125791 0.010388 0.000806 -189981.000000 0 0 1
13.328420 -27.497039 -19.792429 36.407062 -1.119446 2.145567 0.014027 0.008094 152682.000000 0 0 1
12.544620 -26.416049 -18.939629 34.840847 -1.127441 2.145521 0.010934 -0.007291 -254821.000000 0 0 1
12.062320 -26.997219 -17.741229 34.483338 -1.150608 2.111206 0.008817 -0.000008 -233451.000000 0 0 1
11.158020 -26.158359 -17.094129 33.180874 -1.167608 2.112014 0.005545 -0.011168 915522.000000 0 0 1
9.624320 -26.408979 -17.328729 33.020396 -1.221321 2.123263 0.006257 -0.005026 772621.000000 0 0 1
8.963120 -27.484489 -16.673829 33.372911 -1.255556 2.093958 0.012365 0.001276 133948.000000 0 0 1
7.551220 -27.433809 -16.716829 33.001320 -1.302196 2.101975 0.012117 0.010785 776586.000000 0 0 1
6.766820 -28.106899 -17.905429 34.005764 -1.334539 2.125323 0.012205 0.013245 75377.600000 0 0 1
6.695020 -27.367019 -19.080029 34.026820 -1.330870 2.166070 0.014673 0.012952 -24331.600000 0 0 1
6.262320 -28.174609 -20.162329 35.207169 -1.352084 2.180564 0.010250 0.013174 -104281.000000 0 0 1
6.263120 -27.533979 -21.571029 35.533870 -1.347133 2.223146 0.013261 0.005616 -55637.800000 0 0 1
5.244620 -26.546909 -21.672729 34.669173 -1.375748 2.246094 0.011465 0.002463 309092.000000 0 0 1
5.394020 -25.762759 -22.848929 34.855254 -1.364405 2.285691 0.011022 -0.000086 488827.000000 0 0 1
4.045320 -24.999349 -23.121929 34.292209 -1.410370 2.310761 -0.001150 0.005077 659895.000000 0 0 1
3.056720 -25.919599 -23.534729 35.143315 -1.453408 2.304572 -0.004856 0.007206 -720102.000000 0 0 1
1.910620 -25.334429 -24.051129 34.984861 -1.495523 2.328799 -0.004457 -0.000765 -509437.000000 0 0 1
1.137120 -26.442459 -24.828929 36.290114 -1.527819 2.324274 -0.005853 -0.010896 -201650.000000 0 0 1
1.692920 -27.028539 -26.002739 37.543978 -1.508243 2.335876 -0.002600 -0.000239 -393930.000000 0 0 1
0.845320 -27.959779 -26.531489 38.553647 -1.540572 2.329761 0.001182 -0.002716 -367898.000000 0 0 1
1.608020 -28.853179 -27.547909 39.924666 -1.515123 2.332282 0.007705 0.005833 -388182.000000 0 0 1
1.947720 -28.140739 -28.735849 40.267155 -1.501693 2.365463 0.013558 0.002753 216722.000000 0 0 1
2.438120 -29.060709 -29.717329 41.636388 -1.487095 2.365612 0.017835 0.004096 575863.000000 0 0 1
3.922420 -29.569679 -29.615009 42.033320 -1.438916 2.352600 0.020581 0.007994 290933.000000 0 0 1
4.183620 -30.497679 -28.558649 41.990564 -1.434469 2.318723 -0.001091 0.008460 -129391.000000 0 0 1
5.391320 -31.140789 -28.877159 42.810108 -1.399368 2.311139 0.002255 0.009435 -101122.000000 0 0 1
5.879520 -32.164669 -27.836569 42.941928 -1.389998 2.276064 0.015117 -0.002981 -5094.600000 0 0 1
5.007820 -33.300909 -27.773729 43.650988 -1.421534 2.260447 0.014699 -0.004107 403188.000000 0 0 1
5.611020 -34.526441 -27.349609 44.402249 -1.409691 2.234389 0.015527 -0.001918 221717.000000 0 0 1
4.460320 34.013433 -27.002889 43.657349 1.440406 2.237653 -0.002026 0.003176 516793.000000 0 0 1
3.802120 33.451950 -28.145229 43.882149 1.457623 2.267095 -0.004018 -0.002685 158496.000000 0 0 1
2.478220 33.055650 -27.869269 43.307202 1.495965 2.269891 -0.023493 0.003637 67462.800000 0 0 1
1.528920 33.317550 -29.074689 44.246291 1.524939 2.287775 -0.017920 -0.001949 -14606.900000 0 0 1
1.478020 32.342450 -30.080739 44.193546 1.525129 2.319458 -0.013828 -0.009038 -133638.000000 0 0 1
0.379720 32.672330 -30.890649 44.965070 1.559175 2.328138 -0.011140 -0.005152 25148.700000 0 0 1
0.073020 31.530560 -31.890499 44.846243 1.568480 2.361868 -0.013979 -0.005692 -708450.000000 0 0 1
1.074120 31.306410 -32.802179 45.356675 1.536500 2.379228 -0.008626 -0.008685 -474502.000000 0 0 1
0.717020 30.232200 -33.623759 45.222309 1.547084 2.409117 -0.008419 -0.007975 166192.000000 0 0 1
1.896920 29.778440 -34.567808 45.664944 1.507181 2.429487 -0.012345 -0.010193 573935.000000 0 0 1
2.234120 30.743650 33.763121 45.717739 1.498255 0.739935 -0.012621 -0.011660 -76139.500000 0 0 1
2.973920 30.246640 32.634474 44.594981 1.472789 0.749841 -0.010257 -0.013464 -146391.000000 0 0 1
2.274220 29.343600 31.591694 43.177009 1.493448 0.750015 -0.010187 -0.008910 -194883.000000 0 0 1
2.183720 27.979940 31.810204 42.420924 1.492908 0.722930 -0.002077 -0.008091 -204531.000000 0 0 1
3.420420 27.320540 31.562274 41.884225 1.446248 0.717336 -0.001191 -0.006007 114847.000000 0 0 1
3.312320 25.779200 31.751914 41.033190 1.443008 0.685961 0.006469 -0.005669 -504300.000000 0 0 1
2.495020 25.156810 30.810374 39.854352 1.471941 0.687123 0.011968 0.007322 -139054.000000 0 0 1
2.675220 23.759020 30.787824 38.981251 1.458671 0.660295 0.012267 0.008600 -403570.000000 0 0 1
1.757520 23.030020 29.799764 37.702740 1.494630 0.659356 0.015583 0.012289 316277.000000 0 0 1
0.506220 22.720320 30.427004 37.977253 1.548520 0.641515 0.000052 0.018373 -77150.000000 0 0 1
-0.354980 22.238120 29.445544 36.901220 -1.554835 0.646900 0.016458 0.019150 139602.000000 0 0 1
-1.728280 21.681820 29.919614 36.990155 -1.491253 0.628597 0.012027 0.018281 105956.000000 0 0 1
-2.612480 22.675520 30.338404 37.966077 -1.456091 0.645012 0.015176 0.012760 -258885.000000 0 0 1
-3.940880 22.170920 30.265714 37.723914 -1.394884 0.639666 -0.002213 0.013106 523077.000000 0 0 1
-5.027480 23.281920 30.318184 38.555358 -1.358123 0.665911 -0.025492 0.005590 -417006.000000 0 0 1
-5.222080 23.748720 31.655484 39.916682 -1.354352 0.655015 -0.036924 0.006175 68891.500000 0 0 1
-4.475880 24.920140 32.005514 40.809310 -1.393082 0.669278 -0.027244 -0.002536 -90707.000000 0 0 1
-4.732680 25.407980 33.473684 42.290084 -1.386639 0.657495 -0.024330 0.003581 534702.000000 0 0 1
-6.067180 25.846110 33.720051 42.917059 -1.340228 0.666965 -0.028919 0.003075 240263.000000 0 0 1
-6.108980 26.260060 -34.252340 43.590517 -1.342228 2.474745 -0.029042 0.010636 1321580.000000 0 0 1
-7.488580 26.840220 -33.675319 43.709305 -1.298710 2.450325 -0.004718 0.011167 1011020.000000 0 0 1
-7.844680 28.132470 -34.201845 44.974894 -1.298856 2.434826 -0.006876 0.005526 1354180.000000 0 0 1
-9.113080 28.600350 -33.618689 45.069330 -1.262332 2.412731 -0.002114 0.001614 1291280.000000 0 0 1
-9.107780 28.957300 -32.099859 44.180061 -1.266068 2.384111 0.001164 0.007378 -504746.000000 0 0 1
-8.381780 30.085520 -31.722349 44.516291 -1.299088 2.363995 0.002594 0.007626 29935.800000 0 0 1
-8.495080 30.185030 -30.313959 43.614660 -1.296459 2.339273 0.010073 0.001270 -165098.000000 0 0 1
-8.118680 31.572070 -29.847809 44.199551 -1.319102 2.312163 0.011553 -0.003199 -709856.000000 0 0 1
-6.750980 31.809900 -29.852039 44.142833 -1.361670 2.313470 -0.005469 -0.003500 -827566.000000 0 0 1
-6.415780 33.095040 -29.333699 44.686797 -1.379312 2.286871 -0.000029 0.002022 -346737.000000 0 0 1
-4.915980 33.307080 -29.512109 44.771565 -1.424259 2.290512 -0.005006 0.000874 -782246.000000 0 0 1
-4.417980 34.550452 -29.009709 45.330073 -1.443616 2.265250 -0.003791 0.002887 -62281.700000 0 0 1
-4.117980 -33.922389 -29.958599 45.444514 1.449993 2.290597 0.003208 0.001451 757223.000000 0 0 1
-2.838280 -34.172337 -30.854259 46.127971 1.487929 2.303503 -0.001621 -0.004708 290343.000000 0 0 1
-2.968180 34.253699 -31.830479 46.854086 -1.484359 2.317677 -0.002977 -0.005203 55859.300000 0 0 1
-3.728280 34.469265 -33.023379 47.880829 -1.463053 2.331870 -0.002739 -0.005956 -69846.500000 0 0 1
-3.167780 -34.107454 -34.092257 48.328410 1.478186 2.353824 -0.003703 -0.001460 -546938.000000 0 0 1
-3.101380 -32.787509 -33.591099 47.042547 1.476487 2.366074 0.000669 -0.003576 -71473.900000 0 0 1
-2.440980 -31.872029 -34.467720 47.008598 1.494359 2.393844 -0.009612 -0.000357 27275.400000 0 0 1
31.404910 20.024351 12.405184 39.257249 0.567622 1.249289 0.010858 -0.012413 -244451.000000 0 0 1
31.914290 19.280251 13.465384 39.642989 0.543448 1.224234 0.012914 -0.017520 9178.070000 0 0 1
31.557090 17.966951 13.363184 38.694133 0.517576 1.218180 0.018097 -0.018940 -343563.000000 0 0 1
32.500860 17.054551 14.201184 39.355270 0.483244 1.201622 0.020669 -0.031191 190500.000000 0 0 1
33.663919 16.804951 13.426584 39.949205 0.463006 1.228033 0.016454 -0.008177 -349111.000000 0 0 1
34.430369 15.777251 13.947984 40.359859 0.429682 1.217928 0.013949 -0.013792 -260770.000000 0 0 1
-34.054705 15.405051 13.006684 39.575401 -0.424816 1.235916 0.019794 -0.024658 353047.000000 0 0 1
-33.212045 14.371051 13.521784 38.631667 -0.408380 1.213206 0.022555 -0.022323 -142652.000000 0 0 1
-33.791105 13.096551 13.587684 38.703793 -0.369749 1.212084 0.021280 -0.018909 -246586.000000 0 0 1
-33.164785 12.175051 14.711984 38.269797 -0.351834 1.176208 0.020493 -0.016596 157350.000000 0 0 1
-33.273945 12.749151 16.024684 39.070280 -0.365903 1.148178 0.017020 -0.017719 -28061.100000 0 0 1
-32.742645 11.895151 16.958084 38.744704 -0.348467 1.117771 0.016070 -0.011872 -232173.000000 0 0 1
-32.528205 12.627051 18.340284 39.419444 -0.370282 1.086868 0.006190 -0.005258 707972.000000 0 0 1
-33.798205 12.844351 19.019984 40.854080 -0.363174 1.086530 0.010042 -0.003996 1340630.000000 0 0 1
-33.568495 13.616451 20.200084 41.476439 -0.385352 1.062116 0.005845 -0.004212 -353310.000000 0 0 1
-34.768415 13.688651 21.146584 42.934833 -0.375072 1.055805 0.003458 -0.000420 -193825.000000 0 0 1
34.705689 12.532851 21.887984 42.902693 0.346545 1.035405 -0.007420 0.010025 37318.200000 0 0 1
33.496240 12.662851 22.593984 42.341871 0.361431 1.007935 -0.002883 0.006550 -50669.500000 0 0 1
33.379840 11.350651 23.448484 42.342442 0.327779 0.983897 -0.011100 0.013078 -564865.000000 0 0 1
34.426344 11.101751 24.335134 43.596110 0.311949 0.978587 -0.005057 0.018889 -465365.000000 0 0 1
34.152478 11.334351 25.736514 44.240563 0.320437 0.949930 -0.004373 0.013322 260096.000000 0 0 1
-34.215612 11.419951 26.693604 44.873956 -0.322138 0.933708 -0.003487 0.006489 1336170.000000 0 0 1
-33.447885 12.580551 26.358744 44.405120 -0.359756 0.935275 -0.012765 0.004268 249070.000000 0 0 1
-32.587755 12.483751 25.243984 43.070461 -0.365837 0.944548 -0.011963 0.004250 -613695.000000 0 0 1
-31.815715 13.842351 24.970034 42.747550 -0.410377 0.946991 -0.011874 0.007963 534822.000000 0 0 1
-30.824765 14.321051 25.870274 42.714514 -0.434925 0.920207 -0.023585 0.003433 82194.000000 0 0 1
-31.298195 14.683851 27.088404 43.920088 -0.438672 0.906169 -0.021806 0.002856 -861118.000000 0 0 1
-30.270105 15.438751 27.972604 44.012508 -0.471642 0.882062 -0.021345 0.008892 -293227.000000 0 0 1
-29.919805 16.734451 27.539074 43.973142 -0.509963 0.894036 -0.013876 0.000804 -192482.000000 0 0 1
-29.221425 17.444551 28.549654 44.421693 -0.538195 0.872784 -0.013948 -0.007872 125120.000000 0 0 1
-28.581015 18.752351 27.982054 44.176017 -0.580660 0.884829 -0.009236 -0.000095 -210100.000000 0 0 1
-29.609285 19.601251 27.513704 44.921295 -0.584763 0.911594 -0.008290 -0.011775 311148.000000 0 0 1
-29.048955 20.703951 26.869514 44.659447 -0.619216 0.925227 -0.010817 -0.020759 -43237.600000 0 0 1
-30.097295 21.749951 26.384314 45.552603 -0.625769 0.953043 -0.004378 -0.004825 -160765.000000 0 0 1
-30.785655 22.375751 27.454104 46.927163 -0.628503 0.945871 0.004765 -0.009900 694268.000000 0 0 1
-31.931715 23.122351 26.991454 47.778826 -0.626730 0.970454 0.007101 -0.004295 227052.000000 0 0 1
-31.747665 24.574351 26.480424 48.093927 -0.658718 0.987716 0.009041 -0.008687 -1132860.000000 0 0 1
-32.888595 25.013251 25.865204 48.747628 -0.650216 1.011495 0.013151 0.000300 -803477.000000 0 0 1
-32.724945 26.362651 25.609934 49.211586 -0.678136 1.023472 0.022718 -0.010163 373994.000000 0 0 1
-33.742915 26.940251 24.587794 49.688239 -0.673763 1.053144 0.026813 -0.004643 138316.000000 0 0 1
-33.558135 26.483151 23.283684 48.678904 -0.668104 1.072065 0.023005 -0.003616 114792.000000 0 0 1
-34.554434 27.026951 22.448084 49.278611 -0.663765 1.097824 0.033274 -0.008274 55086.500000 0 0 1
-34.034815 26.822651 21.006884 48.157164 -0.667439 1.119408 0.036748 -0.010030 334400.000000 0 0 1
-34.235581 25.507151 20.453484 47.339569 -0.640324 1.124022 0.022343 -0.001223 44189.400000 0 0 1
-33.633845 25.471251 19.147584 46.331956 -0.648163 1.144755 0.015347 0.003460 116405.000000 0 0 1
-33.760875 24.137551 18.312984 45.362798 -0.620693 1.155238 0.011396 0.012996 570672.000000 0 0 1
34.655060 23.955651 17.648784 45.676318 0.604836 1.174084 0.001003 0.004019 213666.000000 0 0 1
34.819653 23.000751 16.623884 44.919888 0.583769 1.191703 0.002019 0.004278 -865612.000000 0 0 1
33.555520 22.760751 15.865384 43.540041 0.596014 1.197823 0.000558 0.008373 -366970.000000 0 0 1
32.587140 21.945651 16.554584 42.633175 0.592681 1.172007 -0.003439 -0.002308 -2509.060000 0 0 1
31.588380 21.566651 15.660684 41.330415 0.599048 1.182174 -0.002423 -0.001491 -686385.000000 0 0 1
30.448310 20.710951 16.223284 40.239757 0.597314 1.155823 -0.018107 -0.005175 126804.000000 0 0 1
29.624620 21.237251 17.212884 40.310325 0.621964 1.129614 -0.019197 -0.002836 436660.000000 0 0 1
28.532360 22.103151 16.862984 39.837233 0.659104 1.133715 -0.013746 0.001452 377842.000000 0 0 1
27.836930 22.733551 18.092584 40.237428 0.684823 1.104428 -0.016565 0.005129 -151446.000000 0 0 1
28.589970 23.699251 18.857584 41.649122 0.692137 1.100924 -0.033278 0.011999 -223423.000000 0 0 1
27.871990 24.225351 19.920684 41.958898 0.715516 1.076097 -0.032781 0.010121 -557994.000000 0 0 1
28.787900 25.020351 20.914884 43.499351 0.715494 1.069219 -0.030497 0.002088 271977.000000 0 0 1
29.350150 26.203051 20.482084 44.357040 0.728808 1.090824 -0.022385 -0.001084 220617.000000 0 0 1
30.435190 26.519751 21.359084 45.670652 0.716760 1.084136 -0.013736 -0.005807 76185.700000 0 0 1
31.235830 27.752451 20.911784 46.724494 0.726415 1.106767 0.005790 -0.008920 292376.000000 0 0 1
32.147120 28.345051 21.870984 48.116725 0.722628 1.098940 0.015498 -0.015068 748356.000000 0 0 1
31.517860 29.029951 22.935784 48.602096 0.744331 1.079341 0.018978 -0.013936 275306.000000 0 0 1
32.567250 29.339351 24.079484 50.012447 0.733304 1.068465 0.019851 -0.019428 741178.000000 0 0 1
33.683655 30.094951 23.660784 50.991445 0.729189 1.088274 0.040285 -0.018106 -37076.000000 0 0 1
34.382103 30.660651 24.774004 52.306365 0.728245 1.077385 0.045788 -0.011955 449145.000000 0 0 1
-33.963895 31.357251 24.336504 52.240682 -0.745514 1.086197 0.043517 -0.003765 389048.000000 0 0 1
-32.822465 30.543851 24.191384 50.945698 -0.749454 1.076007 0.029002 -0.005924 -455939.000000 0 0 1
-31.672185 31.285951 24.407594 50.770747 -0.779263 1.069296 0.031121 0.002004 -166711.000000 0 0 1
-30.284895 30.623951 24.242814 49.423833 -0.790965 1.058123 0.029521 -0.000368 -20322.100000 0 0 1
-29.841845 30.396151 22.935384 48.378648 -0.794600 1.076877 0.011598 0.001745 -110201.000000 0 0 1
-30.228375 29.207251 22.311884 47.588217 -0.768220 1.082804 0.025189 0.005162 -432697.000000 0 0 1
-29.836905 27.845451 23.000384 46.846854 -0.750887 1.057594 0.017391 0.001537 -1135770.000000 0 0 1
-28.462395 27.700751 23.071384 45.931779 -0.771838 1.044543 -0.025569 0.013191 -934550.000000 0 0 1
-28.156705 26.660851 23.964084 45.583751 -0.758117 1.017240 -0.013052 0.011314 -156455.000000 0 0 1
-27.933415 27.097351 25.434154 46.491272 -0.770207 0.991932 0.000828 -0.001321 -1129300.000000 0 0 1
-29.046655 27.372551 26.216644 47.752248 -0.755734 0.989612 -0.000144 -0.001109 -551535.000000 0 0 1
-28.727095 28.082151 27.408204 48.631912 -0.774046 0.972077 0.011867 -0.003602 -332025.000000 0 0 1
-29.964955 28.268751 28.311344 49.985528 -0.756279 0.968676 0.018341 -0.014421 68666.300000 0 0 1
-30.466685 27.041551 28.786204 49.880958 -0.725909 0.955625 0.008680 -0.012622 865552.000000 0 0 1
-31.606895 27.268551 29.679654 51.219641 -0.711844 0.952732 0.015695 -0.007942 1234860.000000 0 0 1
-32.166915 25.949851 30.287314 51.238917 -0.678828 0.938375 0.013584 -0.000400 285199.000000 0 0 1
-31.319235 25.423151 31.338314 51.081514 -0.681860 0.910316 0.006859 -0.005506 175076.000000 0 0 1
-31.762245 24.164951 31.832854 51.050129 -0.650382 0.897507 0.002609 -0.017865 81278.700000 0 0 1
-30.879865 23.529651 32.969304 50.933148 -0.651120 0.866752 0.003367 -0.024507 -240354.000000 0 0 1
-29.572625 23.337651 32.483164 49.742759 -0.668099 0.859227 0.005279 -0.017824 -328675.000000 0 0 1
-28.836245 22.376951 33.210084 49.347408 -0.659935 0.832559 -0.000379 -0.019510 159648.000000 0 0 1
-28.078165 22.768151 34.490265 49.963491 -0.681343 0.808880 0.006000 -0.014195 -163190.000000 0 0 1
-29.004765 23.202251 -33.794359 50.216328 -0.674708 2.309021 0.008852 -0.010325 798813.000000 0 0 1
-28.758585 22.693651 -32.447139 48.937459 -0.668065 2.295659 0.001756 0.008601 -310669.000000 0 0 1
-27.576025 23.370951 -31.725739 48.095333 -0.703047 2.291140 0.010136 -0.005599 -41821.300000 0 0 1
-27.795935 24.752451 -31.363609 48.672105 -0.727545 2.271016 -0.000357 -0.002823 581538.000000 0 0 1
-26.669075 25.147951 -30.569689 47.730126 -0.756051 2.265906 0.002398 0.001511 336649.000000 0 0 1
-26.903805 26.448551 -29.815129 48.086199 -0.776865 2.239584 -0.006800 0.011682 -152858.000000 0 0 1
-26.762285 27.670151 -30.515559 49.122872 -0.802075 2.241081 -0.000899 0.013848 -181073.000000 0 0 1
-27.799695 28.018851 -31.398569 50.435595 -0.789324 2.242790 -0.002829 0.013626 -338252.000000 0 0 1
-27.604115 29.498951 -31.830159 51.432814 -0.818569 2.238098 0.002730 0.008651 39946.100000 0 0 1
-27.936535 30.507351 -30.907739 51.637552 -0.829358 2.212488 0.003380 0.002484 -20762.000000 0 0 1
-27.640575 31.786351 -31.403779 52.541135 -0.855048 2.211424 0.002891 -0.009442 16732.600000 0 0 1
-27.826725 32.920351 -30.354559 52.720730 -0.869052 2.184331 -0.001292 -0.002075 -278881.000000 0 0 1
-26.899105 32.940151 -29.307369 51.648207 -0.886012 2.174192 -0.012390 0.003345 -190831.000000 0 0 1
-27.281715 33.933651 -28.407379 51.988113 -0.893638 2.148881 -0.020963 0.008061 -641589.000000 0 0 1
-26.249395 34.084751 -27.259049 50.929920 -0.914541 2.135572 -0.012345 0.005581 1614440.000000 0 0 1
-24.944925 34.690751 -27.552589 50.841348 -0.947389 2.143531 -0.010011 -0.005170 1500370.000000 0 0 1
-25.012125 -33.469617 -27.933029 50.260081 0.929020 2.160085 -0.000620 0.003966 -870788.000000 0 0 1
-25.320455 -32.452417 -26.792839 49.113553 0.908225 2.147816 -0.000319 0.009920 279144.000000 0 0 1
-26.738505 -32.429817 -26.650619 49.768426 0.881292 2.135887 -0.014853 0.006660 348034.000000 0 0 1
-27.121465 -31.548317 -25.582979 48.840137 0.860709 2.122114 -0.017374 0.010738 -1076340.000000 0 0 1
-28.610285 -31.410117 -25.457229 49.529934 0.832012 2.110611 -0.027185 0.002866 -1030880.000000 0 0 1
-29.146455 -30.671217 -26.554399 49.953734 0.810883 2.131261 -0.014381 0.001390 644351.000000 0 0 1
-30.574015 -30.599317 -26.494299 50.725107 0.785812 2.120355 -0.015415 0.002636 429825.000000 0 0 1
-31.169005 -29.720417 -27.629899 51.168559 0.761612 2.141207 -0.006562 -0.003185 -675850.000000 0 0 1
-32.564835 -29.753517 -27.615399 52.041815 0.740317 2.130150 -0.011802 -0.001071 -509871.000000 0 0 1
-33.055385 -28.859917 -28.601269 52.379251 0.717740 2.148429 -0.007320 -0.004861 347542.000000 0 0 1
-34.585962 -29.003417 -28.804449 53.545152 0.697832 2.138796 -0.009476 -0.005096 -167982.000000 0 0 1
34.273391 -28.504217 -27.835589 52.554503 -0.693757 2.128986 -0.008310 0.002065 -723224.000000 0 0 1
32.901030 -28.553217 -28.166119 51.875758 -0.714767 2.144746 -0.006627 -0.003719 -71223.800000 0 0 1
32.214150 -27.836117 -26.968949 50.397669 -0.712621 2.135450 -0.014930 0.001244 -559721.000000 0 0 1
31.971910 -28.772117 -25.963959 50.241068 -0.732770 2.113891 -0.007838 0.003378 147859.000000 0 0 1
31.263640 -28.122617 -24.933929 48.887602 -0.732556 2.106011 -0.007176 0.009681 -36531.400000 0 0 1
31.053420 -29.023617 -23.674629 48.653605 -0.751624 2.078985 -0.002503 0.014150 58702.200000 0 0 1
30.339120 -30.228417 -23.891929 49.041245 -0.783570 2.079654 0.002851 0.005187 -134456.000000 0 0 1
29.896380 -30.806617 -22.671529 48.547291 -0.800392 2.056690 0.004128 0.002965 263834.000000 0 0 1
30.935310 -31.147317 -21.506629 48.884393 -0.788813 2.026338 0.000002 0.006050 -91884.300000 0 0 1
31.961230 -32.061917 -21.874129 50.278865 -0.786971 2.020897 -0.003977 0.005621 1647310.000000 0 0 1
33.061320 -32.034617 -20.879829 50.549331 -0.769627 1.996606 -0.019619 0.010192 1670040.000000 0 0 1
34.041167 -30.820517 -20.880929 50.445203 -0.735785 1.997567 -0.024867 0.014276 -581460.000000 0 0 1
33.521660 -29.682217 -20.262129 49.145596 -0.724726 1.995760 -0.022235 0.021741 8632.530000 0 0 1
34.241607 -28.564517 -20.708629 49.165706 -0.695252 2.005565 -0.022231 0.020642 -91065.200000 0 0 1
33.383770 -27.298017 -20.544629 47.767558 -0.685443 2.015395 -0.032204 0.017381 517267.000000 0 0 1
32.278650 -27.148717 -21.444229 47.316161 -0.699289 2.041161 -0.012650 0.014695 627585.000000 0 0 1
31.346420 -26.246817 -20.835629 45.887001 -0.697083 2.042118 0.018731 0.010296 440015.000000 0 0 1
30.108080 -25.833917 -21.701029 45.219713 -0.709143 2.071339 0.013684 0.005769 744593.000000 0 0 1
29.259920 -26.974417 -21.872429 45.411070 -0.744778 2.073338 0.019072 0.004744 730256.000000 0 0 1
27.976800 -26.652517 -22.413329 44.670072 -0.761162 2.096420 0.016286 -0.001709 723928.000000 0 0 1
27.106120 -27.812417 -22.940329 45.105775 -0.798258 2.104342 0.020491 -0.003066 -166489.000000 0 0 1
26.663280 -28.709117 -21.946629 44.908779 -0.822328 2.081388 0.017062 -0.004807 -16136.600000 0 0 1
26.285370 -29.948617 -22.570929 45.796148 -0.850449 2.086166 0.013495 -0.002516 -402146.000000 0 0 1
25.743130 -30.930417 -21.486929 45.618939 -0.876673 2.061231 0.010814 0.006901 -534862.000000 0 0 1
26.654170 -31.557617 -20.645029 46.179489 -0.869434 2.034273 0.013131 0.004186 -498652.000000 0 0 1
27.023020 -32.805717 -21.175529 47.485384 -0.881753 2.033018 0.015080 0.006805 167526.000000 0 0 1
27.915660 -33.575417 -20.135729 48.083680 -0.877181 2.002880 0.001529 -0.001362 269162.000000 0 0 1
27.275340 -33.911817 -18.916829 47.453155 -0.893438 1.980832 -0.003164 0.004926 -121080.000000 0 0 1
27.119560 -32.823117 -18.030829 46.237845 -0.880263 1.971383 -0.009203 0.000615 -170960.000000 0 0 1
26.732280 -33.246117 -16.611429 45.780549 -0.893577 1.942120 0.004203 0.007299 563141.000000 0 0 1
25.501990 -33.986517 -16.514329 45.586817 -0.927067 1.941489 0.014515 0.000743 686695.000000 0 0 1
25.247570 -34.431817 -15.171729 45.311932 -0.938093 1.912220 0.023313 0.000358 110147.000000 0 0 1
23.754920 -34.683717 -14.803929 44.569191 -0.970276 1.909385 0.026506 -0.004039 164414.000000 0 0 1
22.989820 -33.535617 -14.741529 43.249071 -0.969845 1.918619 0.013330 0.001190 -411029.000000 0 0 1
21.659820 -33.885017 -14.440129 42.730077 -1.002040 1.915522 0.028676 -0.010853 -147674.000000 0 0 1
-0.164625 -6.804049 -29.587579 30.360286 1.546606 2.915495 0.011797 0.002857 131371.000000 0 0 1
0.261975 -8.166849 -29.552389 30.661209 -1.538730 2.871838 0.003552 0.008240 12251.400000 0 0 1
0.223775 -8.786549 -30.818529 32.047390 -1.545334 2.863770 -0.002602 0.001394 -572864.000000 0 0 1
0.043775 -10.281749 -30.688399 32.365013 -1.566539 2.818307 -0.008840 0.004716 -320586.000000 0 0 1
1.181475 -10.849349 -30.092699 32.010541 -1.462326 2.793682 -0.031306 0.010946 -185470.000000 0 0 1
1.142775 -12.250849 -30.052989 32.474164 -1.477784 2.753000 -0.027699 0.009476 -113774.000000 0 0 1
2.406275 -12.959849 -29.515629 32.325225 -1.387215 2.721579 -0.019142 0.008535 206383.000000 0 0 1
3.489375 -12.938349 -30.488539 33.303567 -1.307371 2.727480 -0.013134 0.005335 789916.000000 0 0 1
4.759375 -13.204549 -29.921569 33.050144 -1.224856 2.702972 0.001121 0.003640 322148.000000 0 0 1
5.094875 -14.613949 -29.438299 33.258663 -1.235342 2.657573 0.009086 -0.006999 -1775820.000000 0 0 1
4.470475 -14.963949 -28.239949 32.270724 -1.280487 2.636428 0.013230 -0.003416 35802.600000 0 0 1
5.239575 -15.843349 -27.382359 32.066469 -1.251407 2.594278 0.023809 -0.003784 218839.000000 0 0 1
5.079675 -17.326049 -27.681499 33.049363 -1.285607 2.563635 0.003826 -0.004664 -190214.000000 0 0 1
5.713975 -17.755149 -28.893519 34.390845 -1.259443 2.568359 0.015309 -0.016049 220040.000000 0 0 1
5.282775 -19.051849 -29.248929 35.304114 -1.300308 2.547193 0.009014 -0.014504 -427438.000000 0 0 1
5.602375 -19.444749 -30.723839 36.789117 -1.290276 2.559173 0.002620 -0.017731 -91250.200000 0 0 1
6.971875 -19.655949 -31.000799 37.363256 -1.229945 2.549391 0.008300 -0.016525 45008.200000 0 0 1
7.157775 -20.337049 -32.223039 38.770524 -1.232379 2.551919 0.011825 -0.019364 -234522.000000 0 0 1
8.554175 -20.043049 -32.774339 39.358036 -1.167410 2.554804 0.000172 -0.014727 -307115.000000 0 0 1
8.832475 -18.762349 -33.211749 39.154292 -1.130817 2.583426 -0.005383 -0.014124 -1456.390000 0 0 1
9.920575 -18.764149 -34.116951 40.180560 -1.084454 2.585058 -0.006860 -0.006002 -350708.000000 0 0 1
10.074575 -17.309349 34.652430 40.023762 -1.043694 0.524057 -0.018249 -0.003274 162415.000000 0 0 1
9.130875 -16.987549 33.621316 38.760064 -1.077598 0.520800 -0.009934 -0.001076 328233.000000 0 0 1
9.288475 -15.671049 33.123964 37.802837 -1.035750 0.502815 -0.022703 0.006524 209832.000000 0 0 1
8.207975 -15.388849 32.018144 36.460239 -1.080809 0.498782 -0.009224 0.002323 411418.000000 0 0 1
8.388375 -16.230249 30.886584 35.885469 -1.093771 0.534155 -0.006755 0.000650 482409.000000 0 0 1
7.530175 -15.707649 29.841284 34.553379 -1.123768 0.528373 0.006174 0.003228 288343.000000 0 0 1
7.641775 -16.639149 28.572704 33.936078 -1.140265 0.569897 0.014829 0.005045 -464040.000000 0 0 1
6.912675 -17.834549 28.640774 34.440530 -1.201025 0.588812 0.026711 0.003385 204004.000000 0 0 1
7.228475 -18.816149 27.637624 34.207259 -1.204016 0.630138 0.018796 0.003666 -167507.000000 0 0 1
6.812275 -20.242249 27.959874 35.183949 -1.246165 0.652321 0.026584 0.002956 -457364.000000 0 0 1
7.424575 -20.769749 29.073794 36.493729 -1.227482 0.649016 0.033632 0.002929 146261.000000 0 0 1
6.792575 -21.929649 29.557974 37.426226 -1.270424 0.660368 0.025474 0.003524 -167134.000000 0 0 1
7.343775 -22.203249 30.996324 38.828950 -1.251371 0.646364 0.022595 -0.003080 -46555.300000 0 0 1
6.989475 -21.297349 32.054634 39.114312 -1.253686 0.610238 0.025008 -0.007782 302290.000000 0 0 1
7.039075 -19.898949 31.870744 38.226444 -1.230793 0.584958 0.010975 -0.007007 -467769.000000 0 0 1
6.566475 -19.066649 33.030564 38.699791 -1.239123 0.548116 -0.000208 -0.005577 -461286.000000 0 0 1
5.191075 -19.275149 33.225814 38.761235 -1.307724 0.541004 0.009345 -0.011911 -436889.000000 0 0 1
4.776075 -18.364749 34.224530 39.133021 -1.316365 0.506250 0.002912 -0.013043 -1196790.000000 0 0 1
3.357975 -18.566049 34.643531 39.448047 -1.391864 0.498697 -0.003425 -0.014923 -1189530.000000 0 0 1
3.203775 -19.624549 -33.792619 39.208777 -1.408970 2.609729 -0.004421 -0.008970 -85615.700000 0 0 1
2.449275 -19.227349 -32.676149 37.992375 -1.444094 2.606206 -0.016774 -0.021194 -429422.000000 0 0 1
1.828075 -20.377149 -31.894739 37.892538 -1.481324 2.571249 -0.012147 -0.003573 -489419.000000 0 0 1
0.635075 -20.875349 -32.518409 38.647515 -1.540383 2.570684 -0.018993 0.002333 872501.000000 0 0 1
-0.245325 -21.626449 -31.674329 38.353964 1.559453 2.542491 -0.019461 0.002796 578398.000000 0 0 1
-0.918225 -20.784849 -30.552559 36.963657 1.526647 2.543759 -0.013944 0.002833 -833401.000000 0 0 1
-1.458425 -19.563049 -31.075879 36.749831 1.496384 2.578496 -0.017085 0.003955 -51769.200000 0 0 1
-1.778925 -18.692049 -30.022969 35.410957 1.475912 2.582702 -0.015986 0.003451 -256651.000000 0 0 1
-1.821925 -17.256549 -30.566549 35.148567 1.465607 2.625266 -0.020352 0.003729 -402786.000000 0 0 1
-2.339125 -16.247749 -29.674599 33.912279 1.427813 2.636315 -0.016389 0.003952 -281675.000000 0 0 1
-2.262425 -14.993949 -30.259209 33.846075 1.421037 2.677045 -0.015429 0.002433 158838.000000 0 0 1
-3.228025 -13.961549 -29.606459 32.892057 1.343581 2.690818 -0.008174 -0.001725 182781.000000 0 0 1
-3.072825 -13.796349 -28.219689 31.561564 1.351646 2.677249 -0.009288 -0.005317 -193293.000000 0 0 1
-4.113025 -12.965949 -27.783519 30.934717 1.263619 2.686304 0.006191 -0.006642 -226934.000000 0 0 1
-4.216425 -12.909749 -26.231729 29.538846 1.255111 2.663865 0.002061 -0.006118 -686637.000000 0 0 1
-4.503725 -14.069849 -25.501749 29.471738 1.261005 2.616535 -0.001192 -0.004421 126698.000000 0 0 1
-4.706225 -13.853749 -24.085529 28.181334 1.243320 2.595697 -0.000613 -0.001058 -274357.000000 0 0 1
-5.835825 -12.883349 -23.640329 27.548188 1.145472 2.602441 -0.006378 -0.000452 -630301.000000 0 0 1
-7.067725 -13.523049 -23.569229 28.077288 1.089199 2.567050 -0.009965 0.000861 -519670.000000 0 0 1
-8.107925 -12.689749 -23.085529 27.562834 1.002239 2.563598 -0.004913 -0.001887 405345.000000 0 0 1
-9.560225 -13.203449 -23.140429 28.305625 0.944098 2.527889 0.000085 -0.002886 162609.000000 0 0 1
-9.827825 -14.245049 -22.217329 28.162338 0.966873 2.479817 -0.001650 -0.004953 -2484.250000 0 0 1
-11.048025 -14.952349 -22.402329 29.111783 0.934449 2.448898 -0.006249 0.004427 263268.000000 0 0 1
-11.479225 -15.916949 -21.304229 28.965359 0.945987 2.397211 0.009045 0.000039 -401188.000000 0 0 1
-10.559625 -16.918249 -21.026029 28.979764 1.012804 2.382618 0.011159 0.004786 -746030.000000 0 0 1
-10.833425 -18.233649 -21.504529 30.203871 1.034693 2.363109 0.010091 0.008350 38169.500000 0 0 1
-11.259225 -18.511749 -22.975129 31.580240 1.024354 2.385491 0.014148 0.005340 1248020.000000 0 0 1
-12.617525 -18.154649 -23.330829 32.142196 0.963432 2.383084 0.007825 0.002003 720448.000000 0 0 1
-12.879925 -18.656749 -24.630629 33.475881 0.966568 2.397603 0.009125 0.003248 -9258.270000 0 0 1
-14.025825 -17.862549 -25.322989 34.015411 0.905140 2.410517 0.005603 0.001601 460907.000000 0 0 1
-15.222025 -18.174749 -24.580129 34.149879 0.873582 2.374270 0.011859 0.004574 554940.000000 0 0 1
-16.393825 -17.857049 -25.329049 35.059840 0.828093 2.378138 0.014623 0.002085 503153.000000 0 0 1
-17.134625 -16.522949 -24.986029 34.509489 0.767227 2.380429 0.006907 0.011630 399532.000000 0 0 1
-18.031625 -16.565249 -23.841129 34.175231 0.743039 2.342859 0.006225 0.007836 712123.000000 0 0 1
-18.631725 -15.290049 -23.579529 33.718258 0.687204 2.345229 -0.005438 0.010225 317892.000000 0 0 1
-19.508325 -15.251149 -22.286729 33.314720 0.663530 2.303626 -0.006288 0.002121 1949.220000 0 0 1
-18.749925 -15.462249 -21.104529 32.187606 0.689596 2.285869 -0.000316 0.002254 -110035.000000 0 0 1
-19.436525 -15.376549 -19.878929 31.770876 0.669300 2.246821 -0.015058 0.001998 -234080.000000 0 0 1
-19.974525 -14.016949 -19.310529 31.118371 0.611894 2.240241 -0.014937 0.000438 620695.000000 0 0 1
-21.057425 -13.343149 -19.964229 31.937833 0.564799 2.246052 -0.016090 -0.002846 874061.000000 0 0 1
-21.728025 -12.401749 -19.131329 31.494733 0.518651 2.223637 -0.020762 -0.000974 99399.500000 0 0 1
-23.071925 -11.777949 -19.535029 32.444586 0.472003 2.216931 -0.006722 0.002438 -71727.000000 0 0 1
-23.024325 -10.852549 -20.580329 32.732970 0.440467 2.250720 -0.010018 0.006019 28474.900000 0 0 1
-24.332925 -10.408949 -20.871329 33.705338 0.404216 2.238557 0.001615 0.006195 -213989.000000 0 0 1
-24.471925 -9.559749 -22.176229 34.380940 0.372413 2.271839 0.007427 -0.001012 -283526.000000 0 0 1
-24.443025 -10.358349 -23.357829 35.360218 0.400833 2.292371 0.001561 0.009279 346893.000000 0 0 1
-25.017625 -9.727949 -24.500529 36.342681 0.370852 2.310614 0.013305 -0.003846 -97624.500000 0 0 1
-24.848825 -10.474149 -25.841329 37.348978 0.398915 2.334898 0.007674 0.000952 -12649.600000 0 0 1
-23.727725 -10.001749 -26.539549 36.978204 0.398921 2.371301 0.002801 -0.005414 -132245.000000 0 0 1
-22.678325 -10.920049 -26.705459 36.697894 0.448754 2.385775 0.000162 0.004532 69209.800000 0 0 1
-21.764725 -10.658649 -27.912749 36.965276 0.455391 2.426614 0.019804 -0.001688 -281224.000000 0 0 1
-22.358025 -11.014849 -29.140859 38.345767 0.457756 2.434032 0.032311 0.006978 17678.000000 0 0 1
-21.499525 -11.024749 -30.254529 38.718357 0.473827 2.467703 0.025507 0.010725 311481.000000 0 0 1
-22.377125 -11.314749 -31.532339 40.287066 0.468149 2.469775 0.018636 0.009720 791248.000000 0 0 1
-23.330925 -10.318749 -31.875349 40.827032 0.416414 2.466648 0.016911 -0.000587 340144.000000 0 0 1
-22.823025 -9.362749 -32.813289 41.051961 0.389296 2.496944 0.014356 -0.006977 -656380.000000 0 0 1
-23.840725 -8.314949 -33.281059 41.774962 0.335579 2.492570 0.019005 -0.013206 -349322.000000 0 0 1
-24.774425 -8.747649 -34.307035 43.211875 0.339427 2.488036 0.020364 -0.017606 1601950.000000 0 0 1
-25.940225 -9.500549 -33.955959 43.773997 0.351075 2.458637 0.033005 -0.012287 428561.000000 0 0 1
-26.928775 -8.775449 -32.971059 43.465597 0.315024 2.431889 0.023824 -0.001148 -681488.000000 0 0 1
-28.228825 -9.314949 -33.088039 44.479806 0.318730 2.409667 0.012382 0.001980 98568.300000 0 0 1
-29.065575 -9.004749 -32.003199 44.159913 0.300431 2.381412 0.018256 0.006313 215383.000000 0 0 1
-30.557165 -9.385649 -32.113539 45.311258 0.298004 2.358496 0.010707 0.005218 126513.000000 0 0 1
-30.725465 -10.815249 -32.108529 45.738184 0.338452 2.349008 0.015320 0.002105 214586.000000 0 0 1
-32.085215 -11.190949 -32.017299 46.688390 0.335595 2.326452 0.010951 0.000325 -204685.000000 0 0 1
-32.258015 -12.731549 -32.170479 47.303399 0.375911 2.318679 0.008443 -0.003708 -917989.000000 0 0 1
-33.514135 -13.298449 -32.055509 48.245224 0.377746 2.297525 -0.015343 -0.010055 -803050.000000 0 0 1
-33.486555 -14.745749 -32.131349 48.695072 0.414799 2.291413 -0.014028 -0.008086 -523107.000000 0 0 1
-34.624950 -15.364849 -31.370949 49.184369 0.417645 2.262465 -0.008701 -0.015564 -442750.000000 0 0 1
-34.361983 -15.385849 -30.007709 48.144915 0.420988 2.243725 -0.014432 -0.010452 230378.000000 0 0 1
34.334443 -16.223149 -29.381229 48.013552 -0.441410 2.229303 -0.014751 -0.005854 267536.000000 0 0 1
34.387027 -16.135549 -27.865219 47.109383 -0.438733 2.203715 -0.015964 0.000011 56106.400000 0 0 1
-34.073307 -16.665749 -27.342099 46.758184 0.454901 2.195375 -0.011331 -0.008833 244928.000000 0 0 1
-34.071681 -16.847549 -25.943059 46.019144 0.459217 2.169709 -0.010009 -0.000359 -427806.000000 0 0 1
-32.761015 -16.278649 -25.401489 44.536661 0.461157 2.177728 0.014445 0.004860 -1051100.000000 0 0 1
-31.662505 -17.044649 -25.721839 44.211393 0.493834 2.191727 0.012490 0.008372 -250937.000000 0 0 1
-30.535275 -16.561749 -24.981629 42.787572 0.496975 2.194262 0.023159 0.026346 390493.000000 0 0 1
-29.194035 -17.311649 -25.018329 42.165171 0.535246 2.206000 0.020839 0.021028 -38970.900000 0 0 1
-29.062485 -18.622349 -24.399129 42.269817 0.569859 2.186121 0.016833 0.006905 240352.000000 0 0 1
-29.786815 -19.641949 -25.126489 43.639443 0.582967 2.184348 0.014961 -0.001337 114562.000000 0 0 1
-29.624425 -21.073949 -24.611029 43.902399 0.618317 2.165888 0.017757 -0.016816 803966.000000 0 0 1
-28.270495 -21.566449 -24.775029 43.337451 0.651681 2.179345 0.023981 -0.008060 1087380.000000 0 0 1
-28.167965 -22.809349 -24.077329 43.513428 0.680665 2.157154 0.008846 0.001222 85146.500000 0 0 1
-26.719075 -23.423349 -24.123929 42.947947 0.719765 2.167237 0.025103 -0.013598 680488.000000 0 0 1
-25.741125 -22.723249 -23.380629 41.540406 0.723208 2.168615 0.012621 -0.013189 -125896.000000 0 0 1
-25.922765 -22.671849 -21.966629 40.847708 0.718599 2.138585 0.004188 -0.008178 -641305.000000 0 0 1
-25.784525 -23.945449 -21.163329 41.062303 0.748434 2.112266 0.006343 -0.011205 -180692.000000 0 0 1
-25.404185 -23.647649 -19.851529 39.983335 0.749604 2.090353 -0.007259 -0.006901 164446.000000 0 0 1
-25.691255 -24.747649 -19.005329 40.418922 0.766692 2.060324 0.002153 0.017967 -215269.000000 0 0 1
-25.551435 -24.371549 -17.507829 39.412844 0.761768 2.031096 -0.008452 0.012910 25135.300000 0 0 1
-26.630305 -23.562349 -17.071729 39.443648 0.724350 2.018407 -0.010492 0.010991 -203011.000000 0 0 1
-26.234545 -22.666549 -16.040729 38.201162 0.712564 2.004133 -0.012804 0.009410 -210979.000000 0 0 1
-27.306925 -21.967949 -15.164229 38.186552 0.677468 1.979161 -0.009132 0.010208 38901.600000 0 0 1
-28.110435 -21.048049 -15.882429 38.541776 0.642709 1.995536 -0.004744 0.009092 -255979.000000 0 0 1
-29.134005 -20.567849 -15.055329 38.710329 0.614724 1.970258 -0.008958 0.008486 -366126.000000 0 0 1
-30.248285 -19.867949 -15.841929 39.505200 0.581161 1.983414 -0.000614 0.001089 -808036.000000 0 0 1
-31.150595 -20.718549 -16.465529 40.874582 0.586924 1.985404 -0.004938 0.012899 -339269.000000 0 0 1
-32.054115 -20.058349 -17.312029 41.587378 0.559149 2.000147 -0.010338 0.003244 101184.000000 0 0 1
-32.609955 -20.923349 -18.490329 42.931200 0.570465 2.016061 -0.009869 0.018717 -182456.000000 0 0 1
-33.601405 -21.864449 -18.231629 44.039764 0.576867 1.997619 -0.008133 0.015114 -532261.000000 0 0 1
-33.403165 -22.914549 -17.317729 44.053964 0.601268 1.974800 -0.007775 0.006098 53356.200000 0 0 1
-34.393166 -24.112149 -17.586929 45.536641 0.611446 1.967321 -0.007409 0.020326 416568.000000 0 0 1
33.907992 -23.828249 -17.362229 44.933110 -0.612558 1.967523 -0.018464 0.015762 -125529.000000 0 0 1
33.223420 -25.041849 -17.430929 45.107949 -0.645891 1.967551 -0.017599 0.013377 148757.000000 0 0 1
31.778650 -25.189879 -16.899929 43.931995 -0.670253 1.965662 -0.019423 0.008974 500868.000000 0 0 1
30.730440 -24.572149 -17.621929 43.112444 -0.674499 1.991873 -0.004740 -0.004011 654605.000000 0 0 1
29.461610 -25.047249 -17.169129 42.309929 -0.704590 1.988644 -0.003204 -0.001147 751075.000000 0 0 1
28.258680 -24.851349 -18.109429 41.762351 -0.721330 2.019314 0.007641 -0.003250 -87347.800000 0 0 1
27.893730 -23.571249 -18.458329 40.919113 -0.701606 2.038786 0.020076 -0.003573 619295.000000 0 0 1
26.586160 -23.517549 -19.038129 40.278398 -0.724229 2.063107 0.033512 -0.005598 281180.000000 0 0 1
33.285940 29.719951 -18.417829 48.274690 0.728861 1.962238 -0.000568 -0.010605 -344087.000000 0 0 1
32.363270 29.218351 -19.331129 47.694715 0.734373 1.988114 0.005342 -0.016597 -329867.000000 0 0 1
32.926950 29.016051 -20.619729 48.490087 0.722345 2.010019 0.001700 -0.012619 -67512.400000 0 0 1
32.057990 29.471951 -21.834229 48.713902 0.743394 2.035562 0.009001 -0.004426 -409314.000000 0 0 1
31.015510 28.521951 -22.015329 47.540912 0.743540 2.052265 0.008383 0.002178 331989.000000 0 0 1
30.221690 28.602051 -23.201929 47.641971 0.757871 2.079455 0.014701 0.006652 619182.000000 0 0 1
29.101280 29.686351 -23.108129 47.562060 0.795350 2.078134 0.018633 0.004386 -19066.100000 0 0 1
29.656750 30.973651 -23.074229 48.696098 0.807115 2.064444 0.012329 0.003769 844340.000000 0 0 1
28.545720 31.876451 -22.897529 48.531053 0.840467 2.062141 0.013773 0.010726 557479.000000 0 0 1
29.092810 33.336751 -22.823729 49.786074 0.853273 2.047031 0.012388 0.000013 318316.000000 0 0 1
29.798430 33.676351 -21.654329 49.909448 0.846416 2.019583 0.017126 0.004613 -449910.000000 0 0 1
31.147810 33.303651 -21.649629 50.477972 0.818835 2.014063 0.019505 -0.001834 -786726.000000 0 0 1
31.588290 33.238051 -20.166229 50.092564 0.810842 1.985129 0.009860 -0.004270 -510447.000000 0 0 1
31.496400 34.420951 -19.533129 50.580315 0.829736 1.967284 0.012031 -0.004474 110777.000000 0 0 1
31.175200 34.340151 -18.182629 49.817137 0.833669 1.944416 -0.003504 -0.008641 -248159.000000 0 0 1
31.067530 -33.719817 -17.664029 49.134870 -0.826314 1.938529 -0.002369 -0.010964 -131361.000000 0 0 1
32.226000 -32.919717 -17.653729 49.334339 -0.796046 1.936748 -0.002561 -0.010597 -417966.000000 0 0 1
32.961030 -32.957217 -16.458529 49.431679 -0.785340 1.910232 -0.002752 -0.004647 -311658.000000 0 0 1
34.150618 -31.989417 -16.673729 49.674951 -0.752734 1.913099 0.009359 -0.001659 25623.400000 0 0 1
-34.501279 -32.574217 -17.486529 50.568731 0.756676 1.923885 -0.005852 -0.006781 -275992.000000 0 0 1
-33.440585 -31.664117 -17.745229 49.353644 0.758119 1.938585 -0.016848 -0.000660 265958.000000 0 0 1
-32.475315 -32.364017 -18.732329 49.527526 0.783682 1.958670 -0.008226 -0.005445 -525646.000000 0 0 1
-31.717455 -33.418017 -18.078629 49.493410 0.811500 1.944723 -0.013822 -0.011050 508341.000000 0 0 1
-30.717095 -34.105717 -18.816029 49.606278 0.837626 1.959844 -0.010877 -0.001662 496684.000000 0 0 1
-29.493605 -33.232317 -19.203629 48.404948 0.844932 1.978747 -0.011262 0.001806 -1235180.000000 0 0 1
-29.704885 -32.371817 -20.333929 48.412637 0.828334 2.004256 -0.021921 0.006564 -593449.000000 0 0 1
-28.584125 -31.804017 -20.933629 47.610551 0.838668 2.026044 -0.013081 0.007703 -324008.000000 0 0 1
-27.631095 -32.799417 -21.647929 48.040733 0.870716 2.038252 -0.018993 0.014463 -377522.000000 0 0 1
-28.366735 -33.426217 -22.631029 49.337077 0.867094 2.047331 -0.016561 0.012133 -351748.000000 0 0 1
-27.648565 -34.442317 -23.270629 49.922325 0.894381 2.055715 -0.019073 0.003049 -602114.000000 0 0 1
-28.354815 34.397151 -24.431829 50.833786 -0.881391 2.072160 -0.024580 -0.004635 -1046820.000000 0 0 1
-29.331315 33.507151 -23.951229 50.563985 -0.851754 2.064263 -0.023351 -0.010339 -192236.000000 0 0 1
-29.900185 32.704251 -24.984629 50.870628 -0.830158 2.084195 -0.016301 -0.012298 777174.000000 0 0 1
-30.790665 33.391451 -26.122349 52.396863 -0.825898 2.092719 -0.011397 -0.019566 -178622.000000 0 0 1
-30.060555 34.097951 -27.104169 52.923938 -0.848244 2.108464 -0.015497 -0.020828 -677064.000000 0 0 1
-30.812815 -34.337117 -27.516609 53.718069 0.839441 2.108589 -0.010751 -0.016082 -414866.000000 0 0 1
-30.390745 -33.705217 -28.853049 53.778597 0.837063 2.137099 -0.011477 -0.013838 -260637.000000 0 0 1
-30.362525 -34.575517 -29.957449 54.907177 0.850184 2.147903 -0.006272 -0.010822 75079.900000 0 0 1
-31.324515 -34.349117 -30.975849 55.862244 0.831421 2.158563 0.009490 -0.004202 -110791.000000 0 0 1
-31.098405 34.287051 -32.259559 56.421555 -0.834126 2.179445 0.020430 0.004479 313068.000000 0 0 1
-30.266335 -34.721017 -33.312249 56.844578 0.853838 2.196939 0.017473 -0.002208 143469.000000 0 0 1
-30.465915 34.018951 -34.442041 57.198909 -0.840441 2.216981 0.016427 -0.006331 -12915.200000 0 0 1
-29.622235 34.487851 33.628391 56.548717 -0.861148 0.933929 0.015105 -0.008894 236435.000000 0 0 1
-28.286345 34.077851 33.588115 55.583979 -0.877998 0.921938 0.014486 -0.002096 -541640.000000 0 0 1
-28.063915 32.714951 33.277697 54.454169 -0.861773 0.913329 0.013672 -0.006712 -179446.000000 0 0 1
-26.550915 32.376051 33.341984 53.524272 -0.883932 0.898311 0.010394 -0.006390 130836.000000 0 0 1
-26.069855 32.022751 -34.657454 53.909490 -0.887514 2.269052 0.004867 -0.000945 381756.000000 0 0 1
-24.757625 31.473551 34.634896 52.944315 -0.904269 0.857704 0.001415 -0.000748 132043.000000 0 0 1
-24.579725 29.947851 34.308099 51.750192 -0.883530 0.846036 0.004648 -0.000906 -363759.000000 0 0 1
-24.645525 29.164251 -33.832749 51.015786 -0.869178 2.295858 -0.002972 0.007611 72737.500000 0 0 1
-24.555125 27.770251 -34.032339 50.322372 -0.846766 2.313506 -0.008277 0.004594 -424022.000000 0 0 1
-24.522325 26.851251 -32.800259 48.971330 -0.830700 2.304715 0.002359 0.007486 601282.000000 0 0 1
-23.381425 27.066851 -31.902759 47.927983 -0.858322 2.299147 0.003575 0.000273 1000290.000000 0 0 1
-23.469325 28.235151 -31.073689 48.099970 -0.877313 2.273159 -0.000449 0.005933 102889.000000 0 0 1
-22.142425 28.413951 -30.294619 47.068074 -0.908818 2.270034 0.004304 0.003020 -946128.000000 0 0 1
-21.025625 28.603551 -31.049369 47.162521 -0.936919 2.289419 0.004264 0.004082 -878067.000000 0 0 1
-19.766925 28.641251 -30.402369 46.209919 -0.966708 2.288848 0.008334 0.000661 486100.000000 0 0 1
-19.495525 29.791451 -29.426199 46.189904 -0.991334 2.261487 0.002347 -0.000514 -878985.000000 0 0 1
-19.058525 30.953851 -30.204219 47.261646 -1.018907 2.264105 0.000003 0.001496 357434.000000 0 0 1
-18.622025 32.033551 -29.320939 47.250880 -1.044219 2.240224 -0.003478 0.001621 -45864.300000 0 0 1
-18.217225 33.303751 -30.080129 48.433679 -1.070258 2.240888 -0.013107 0.010169 -470356.000000 0 0 1
-17.060725 33.116751 -30.827079 48.353866 -1.095087 2.262085 -0.005336 0.009536 -629724.000000 0 0 1
-16.764125 34.225751 -31.667929 49.550940 -1.115334 2.264122 0.001629 0.016594 307612.000000 0 0 1
-15.296625 34.257351 -32.180929 49.428383 -1.150839 2.279779 0.003074 0.019013 247328.000000 0 0 1
-14.335225 34.590651 -31.186919 48.730235 -1.177917 2.265283 0.011056 0.018684 898887.000000 0 0 1
-12.970725 34.283251 -31.542439 48.358107 -1.209101 2.281369 0.023430 0.026355 1228620.000000 0 0 1
-12.567825 32.809751 -31.377509 47.106030 -1.204986 2.299769 0.019307 0.010364 -648279.000000 0 0 1
-12.568225 32.412851 -30.073639 45.967129 -1.200891 2.283977 0.024843 -0.003158 37964.300000 0 0 1
-12.236925 31.068351 -29.940039 44.848531 -1.195585 2.301752 0.014563 -0.004512 -385534.000000 0 0 1
-12.241125 30.647151 -28.501699 43.605503 -1.190789 2.283162 0.011010 -0.014199 -974917.000000 0 0 1
-10.987925 30.771551 -27.957169 43.002630 -1.227828 2.278548 0.010402 -0.006420 -867603.000000 0 0 1
-11.098025 30.672251 -26.556619 42.061945 -1.223625 2.254114 0.006841 -0.010882 235472.000000 0 0 1
-9.739325 31.130651 -25.970869 41.694819 -1.267590 2.243215 0.016813 -0.008614 168885.000000 0 0 1
-8.734325 30.175851 -26.211969 40.913784 -1.289049 2.266158 0.021208 0.001128 -88942.400000 0 0 1
-7.481525 30.807051 -25.962719 40.976950 -1.332557 2.256985 0.016965 -0.008455 874782.000000 0 0 1
-6.171025 30.132151 -26.476539 40.583682 -1.368791 2.281535 0.008886 -0.004249 674968.000000 0 0 1
-5.691625 28.991051 -25.740669 39.184917 -1.376938 2.287499 0.014817 -0.012438 -209646.000000 0 0 1
-4.462025 28.514451 -26.204479 38.982795 -1.415572 2.307981 0.022418 -0.010584 57454.700000 0 0 1
-4.001925 27.180551 -25.441149 37.443956 -1.424612 2.317804 0.019934 -0.011541 222171.000000 0 0 1
-4.877725 26.102451 -25.717479 36.966456 -1.386059 2.340187 0.023708 -0.010191 178227.000000 0 0 1
-4.456625 25.028151 -24.929729 35.605635 -1.394579 2.346421 0.020648 -0.010961 -757496.000000 0 0 1
-5.409625 23.890151 -24.704329 34.789470 -1.348114 2.360450 0.017599 -0.014884 -817679.000000 0 0 1
-5.679925 23.222151 -25.894249 35.242616 -1.330915 2.396083 0.006965 -0.008540 461065.000000 0 0 1
-6.527625 22.077851 -25.660759 34.474860 -1.283322 2.410331 0.005709 -0.013553 3730.020000 0 0 1
-6.678025 21.109251 -26.916499 34.852467 -1.264403 2.453247 -0.003737 -0.002693 512488.000000 0 0 1
-5.535225 20.315051 -27.274559 34.456372 -1.304785 2.484167 -0.001256 -0.004832 212763.000000 0 0 1
-5.138525 19.372151 -26.315419 33.078482 -1.311514 2.490703 -0.009896 -0.004119 -39189.700000 0 0 1
-3.921225 18.507451 -26.747709 32.761894 -1.362011 2.525993 -0.011061 -0.009065 196501.000000 0 0 1
-4.246225 17.594651 -27.810169 33.181436 -1.333988 2.564632 -0.016088 -0.006715 333175.000000 0 0 1
-3.165225 16.761951 -28.241319 32.993238 -1.384160 2.598226 -0.013826 -0.006705 -3373.600000 0 0 1
-3.026525 16.729851 -29.805539 34.313524 -1.391826 2.623214 -0.011132 -0.003552 -304764.000000 0 0 1
-2.237525 17.764751 -30.321619 35.213541 -1.445503 2.608183 0.000553 -0.011330 -22143.300000 0 0 1
-2.267525 17.685751 -31.729299 36.396097 -1.443280 2.629615 -0.002339 -0.010680 -5988.520000 0 0 1
-1.562625 18.905651 -32.419359 37.561686 -1.488330 2.612165 0.009499 0.002956 647686.000000 0 0 1
-0.172025 18.820451 -32.040589 37.159633 -1.561656 2.610476 0.019377 -0.001313 830779.000000 0 0 1
0.567075 19.947851 -32.551479 38.181633 1.542376 2.591628 0.035699 0.010218 322573.000000 0 0 1
0.386375 21.302651 -31.831109 38.303678 1.552661 2.551735 0.022012 0.005689 -267923.000000 0 0 1
1.151075 21.258051 -30.638479 37.308794 1.516701 2.534330 0.022782 -0.012448 -170289.000000 0 0 1
0.945275 22.461351 -29.983959 37.475907 1.528737 2.498235 0.022554 -0.013012 -424420.000000 0 0 1
1.816075 22.730351 -28.789549 36.726082 1.491069 2.471718 0.025868 -0.014749 30714.100000 0 0 1
3.159475 22.978751 -29.180549 37.276128 1.434158 2.469983 0.012373 -0.014742 371451.000000 0 0 1
4.109075 23.168151 -28.122309 36.667588 1.395263 2.444875 0.004428 -0.012586 458905.000000 0 0 1
4.485475 24.661751 -27.860799 37.477267 1.390883 2.408944 0.005429 -0.007999 167792.000000 0 0 1
5.155875 25.253251 -29.023899 38.816188 1.369397 2.415428 -0.005372 -0.009316 456775.000000 0 0 1
5.453575 26.613951 -28.771429 39.570684 1.368680 2.384869 -0.010311 -0.008894 -348252.000000 0 0 1
6.293775 27.253251 -29.897329 40.941441 1.343839 2.389478 -0.002759 -0.008826 -767491.000000 0 0 1
7.621975 26.837851 -29.910009 40.901997 1.294081 2.390964 0.006361 -0.003689 -885115.000000 0 0 1
8.384675 27.577651 -30.822099 42.199898 1.275638 2.389679 0.015218 -0.013146 -572197.000000 0 0 1
9.842975 27.657451 -30.389649 42.253397 1.228885 2.373481 0.019495 -0.007825 -451981.000000 0 0 1
10.549675 28.637551 -31.140599 43.602086 1.217837 2.366276 0.035300 -0.016529 -371614.000000 0 0 1
11.797775 28.923251 -30.560189 43.699738 1.183499 2.345245 0.025305 -0.012598 95638.000000 0 0 1
12.630275 29.971051 -31.389159 45.200299 1.171965 2.338446 0.035499 -0.010561 -28006.900000 0 0 1
12.098675 31.297851 -31.482069 46.011456 1.201925 2.324333 0.035869 -0.011167 387277.000000 0 0 1
13.080175 32.234251 -31.897109 47.197071 1.185313 2.312884 0.046098 -0.012442 344743.000000 0 0 1
12.396675 33.610151 -31.995309 48.031444 1.217440 2.299808 0.036959 -0.011235 415885.000000 0 0 1
11.588975 33.746351 -33.175199 48.720780 1.240001 2.319821 0.026815 -0.012624 370694.000000 0 0 1
10.617275 34.747551 -32.962229 49.057389 1.274251 2.307583 0.014798 -0.001335 115086.000000 0 0 1
9.427675 -34.638217 -33.933949 49.398381 -1.305058 2.328072 0.014624 0.001196 378245.000000 0 0 1
9.832075 -33.904117 34.222568 49.166483 -1.288542 0.800908 0.006713 0.003248 301944.000000 0 0 1
8.779375 -33.862117 33.283498 48.285729 -1.317114 0.810270 0.015306 0.005890 165795.000000 0 0 1
9.154075 -33.004917 32.061214 46.915276 -1.300242 0.818407 0.004761 0.018602 12282.300000 0 0 1
8.842075 -31.603417 32.211914 45.984407 -1.297990 0.794703 0.000351 0.013777 217313.000000 0 0 1
9.347075 -30.764817 31.150194 44.768028 -1.275835 0.801245 0.006514 0.012019 -250505.000000 0 0 1
8.901375 -29.302817 31.394644 43.857875 -1.275883 0.772989 0.001012 0.001478 424402.000000 0 0 1
7.486875 -29.141917 31.350354 43.452840 -1.319324 0.764859 0.004691 0.007479 436287.000000 0 0 1
6.820175 -29.184117 32.611664 44.291626 -1.341222 0.743219 0.005128 0.015052 -678145.000000 0 0 1
5.295275 -29.121717 32.512754 43.968097 -1.390929 0.738525 0.004568 0.014732 -444509.000000 0 0 1
4.620175 -30.292817 32.083334 44.365990 -1.419446 0.762442 0.010713 0.009511 -196436.000000 0 0 1
4.888475 -30.823217 30.785724 43.837526 -1.413509 0.792217 0.007462 0.010422 -677723.000000 0 0 1
4.500475 -29.949217 29.547564 42.311564 -1.421642 0.797730 -0.000207 0.007794 1192280.000000 0 0 1
3.080075 -29.974817 29.249284 41.994013 -1.468400 0.800273 0.005938 0.001592 1392880.000000 0 0 1
2.798675 -29.074617 28.196884 40.598402 -1.474834 0.803027 0.009013 -0.008395 564071.000000 0 0 1
1.305675 -29.094517 27.674014 40.175201 -1.525949 0.810918 0.008702 -0.013049 955332.000000 0 0 1
0.950375 -30.242017 26.900694 40.486172 -1.539381 0.844050 0.000704 -0.005861 220251.000000 0 0 1
0.607175 -31.331617 27.743994 41.854129 -1.551420 0.846146 0.009913 -0.006007 -674728.000000 0 0 1
0.395175 -32.708617 27.043554 42.442474 -1.558715 0.879961 -0.003078 0.004981 1148360.000000 0 0 1
1.660175 -33.345717 26.715314 42.759806 -1.521051 0.895951 -0.005899 0.008765 953795.000000 0 0 1
2.377075 -32.831517 25.620924 41.713196 -1.498520 0.909404 -0.007089 0.002359 -342060.000000 0 0 1
3.892075 -33.088417 25.802894 42.140016 -1.453708 0.911813 -0.014025 0.012908 -51674.400000 0 0 1
4.635675 -32.441917 24.785794 41.088965 -1.428866 0.923261 -0.022541 0.009789 1011200.000000 0 0 1
6.054475 -32.603517 25.005784 41.532340 -1.387188 0.924693 -0.014659 0.002053 614623.000000 0 0 1
6.799975 -32.062517 23.785984 40.497132 -1.361808 0.943016 -0.017076 0.000634 -748668.000000 0 0 1
8.171575 -31.873217 23.957184 40.701637 -1.319824 0.941464 -0.019513 0.006027 -409049.000000 0 0 1
8.859475 -31.740917 22.748384 40.043290 -1.298605 0.966607 -0.021191 0.002480 -429262.000000 0 0 1
10.000575 -30.746917 22.743584 39.530432 -1.256334 0.957772 -0.011436 0.008255 -518920.000000 0 0 1
11.141975 -31.202817 23.424284 40.576551 -1.227826 0.955395 -0.005539 0.004291 -176885.000000 0 0 1
12.207875 -30.259617 23.345684 40.121037 -1.187330 0.949756 0.006941 0.005862 -214227.000000 0 0 1
13.500875 -30.876817 23.913784 41.322155 -1.158596 0.953643 0.030798 0.007601 -450353.000000 0 0 1
13.574675 -31.025117 25.305864 42.275483 -1.158354 0.929051 0.018811 0.003541 107301.000000 0 0 1
13.710375 -29.784417 25.977934 41.832271 -1.139393 0.900776 0.008310 0.007785 -645761.000000 0 0 1
-10.560625 -14.518349 26.300204 31.843523 0.941918 0.598964 0.017557 -0.018344 -502647.000000 0 0 1
-9.190325 -14.425649 26.062004 31.173538 1.003556 0.580790 0.004736 -0.014817 -698135.000000 0 0 1
-8.381325 -14.808049 27.167674 32.056316 1.055754 0.559542 0.009660 -0.014638 691970.000000 0 0 1
-6.862125 -14.546849 26.921034 31.359873 1.130023 0.538547 0.008875 -0.003032 662122.000000 0 0 1
-6.225425 -15.370749 25.888114 30.744272 1.185972 0.569730 0.005339 -0.009449 290049.000000 0 0 1
-6.492325 -15.054749 24.543744 29.515947 1.163646 0.588919 0.004835 -0.006640 -134390.000000 0 0 1
-5.816225 -16.170449 23.636284 29.223035 1.225522 0.628647 0.006205 -0.006753 270006.000000 0 0 1
-6.520225 -17.401849 23.525984 29.980153 1.212301 0.668554 0.010808 -0.010069 -440223.000000 0 0 1
-6.639125 -18.247749 24.732964 31.444838 1.221852 0.665593 0.006729 -0.009376 -677247.000000 0 0 1
-7.287425 -19.571449 24.403794 32.119983 1.214351 0.707837 0.001425 -0.008335 714652.000000 0 0 1
-8.728225 -19.494949 24.314244 32.363828 1.149842 0.720799 -0.000352 -0.004988 923323.000000 0 0 1
-9.344325 -20.717049 23.873984 32.961790 1.147074 0.760788 -0.006229 -0.005419 47934.800000 0 0 1
-10.856025 -20.769349 24.126684 33.635041 1.089158 0.770865 -0.000869 -0.008602 -227319.000000 0 0 1
-11.065425 -20.972349 25.516954 34.833863 1.085298 0.748761 -0.006040 -0.009281 -172530.000000 0 0 1
-12.449325 -20.859149 25.736634 35.390170 1.032712 0.756525 0.005947 -0.004814 -255024.000000 0 0 1
-12.918125 -20.966149 27.218484 36.705629 1.018592 0.735442 0.005575 0.000839 -456626.000000 0 0 1
-12.747525 -22.148849 27.942924 37.866580 1.048557 0.740797 -0.001535 0.005587 15627.500000 0 0 1
-11.498725 -22.223249 28.601274 38.001662 1.093311 0.718746 -0.003891 0.005028 -72773.700000 0 0 1
-11.242125 -23.593549 29.254874 39.228670 1.126132 0.729133 -0.010161 0.001787 29599.500000 0 0 1
-12.188525 -23.969749 30.267134 40.487139 1.100375 0.726394 -0.004847 0.003297 517055.000000 0 0 1
-11.792225 -25.231979 30.796734 41.522863 1.133606 0.735223 -0.009875 0.009558 -231296.000000 0 0 1
-12.901025 -25.766689 31.703084 42.842085 1.106600 0.737728 -0.005912 -0.012176 -64324.300000 0 0 1
-12.792725 -25.277279 32.995054 43.488714 1.102284 0.709475 -0.000980 -0.011405 -655231.000000 0 0 1
-13.865525 -25.618559 33.808709 44.627258 1.074711 0.711199 0.000147 -0.014064 -771667.000000 0 0 1
-13.698525 -24.939149 -34.119122 44.426627 1.068508 2.446490 -0.004220 -0.017228 -185156.000000 0 0 1
-13.914325 -23.530749 -33.988559 43.617963 1.036780 2.464237 -0.002319 -0.014153 -720220.000000 0 0 1
-15.136525 -22.958149 -34.330173 43.985813 0.987904 2.466234 0.000929 -0.016235 -1079880.000000 0 0 1
-15.249425 -21.504849 -33.935059 42.971987 0.953979 2.481119 -0.003503 -0.013455 -281273.000000 0 0 1
-15.371025 -21.338649 -32.502189 41.809073 0.946551 2.461311 -0.002684 -0.008942 152461.000000 0 0 1
-15.201025 -19.999349 -32.102899 40.763234 0.920878 2.477612 -0.002187 -0.007828 -672460.000000 0 0 1
-15.270925 -19.944749 -30.562639 39.560953 0.917347 2.453637 0.006398 -0.004194 390233.000000 0 0 1
-16.554325 -20.101449 -29.955989 39.692256 0.881866 2.426002 0.000261 -0.000453 316485.000000 0 0 1
-16.558225 -19.879249 -28.524849 38.510081 0.876290 2.404925 0.000039 0.009544 29243.500000 0 0 1
-15.659425 -20.821849 -27.628309 37.974866 0.925974 2.385529 -0.000336 -0.001609 1208790.000000 0 0 1
-14.248925 -20.565049 -27.803749 37.403229 0.964871 2.408863 0.004017 0.002926 892651.000000 0 0 1
-13.455525 -21.510649 -27.119079 37.137630 1.011817 2.389458 0.000930 -0.013072 -191566.000000 0 0 1
-11.964925 -21.501149 -27.437509 36.854792 1.062993 2.410546 0.006580 -0.005478 -933278.000000 0 0 1
-11.233225 -20.393249 -26.859959 35.546129 1.067316 2.427422 0.013203 0.004829 1162940.000000 0 0 1
-9.803425 -20.487349 -26.964729 35.255286 1.124487 2.441593 0.017382 -0.000795 1002420.000000 0 0 1
-9.144425 -21.597949 -26.139039 35.118958 1.170287 2.410282 0.009602 0.003005 -1136940.000000 0 0 1
-9.240225 -22.897249 -26.675409 36.348909 1.187232 2.394799 0.003783 -0.000259 178718.000000 0 0 1
-8.676825 -23.785949 -25.721429 36.092250 1.221009 2.364076 0.002615 0.001972 21058.500000 0 0 1
-8.934725 -25.269269 -25.977749 37.325711 1.230935 2.340573 0.006419 0.003997 168116.000000 0 0 1
-8.133925 -25.744619 -27.059729 38.225319 1.264775 2.357318 0.000243 0.002701 406205.000000 0 0 1
-8.681025 -26.907269 -27.702249 39.582520 1.258712 2.345999 0.005124 0.004222 37717.300000 0 0 1
-8.856725 -28.286889 -26.961589 40.068902 1.267362 2.308892 0.026511 0.011653 -272972.000000 0 0 1
-9.685525 -28.281399 -25.844169 39.516680 1.240846 2.283665 0.010333 0.007414 -467668.000000 0 0 1
-9.772525 -29.603369 -25.354829 40.183691 1.251945 2.253603 0.023249 0.011832 -275028.000000 0 0 1
-10.719025 -29.638759 -24.149329 39.705712 1.223776 2.224597 0.021505 0.010992 -288939.000000 0 0 1
-10.346525 -28.776489 -23.062329 38.301539 1.225641 2.216957 0.020938 0.001855 -45081.300000 0 0 1
-10.687125 -27.420529 -23.270829 37.518416 1.199158 2.239859 0.016876 0.003652 -297514.000000 0 0 1
-10.333125 -26.461749 -22.128029 36.008989 1.198512 2.232566 0.028469 -0.008119 -13026.700000 0 0 1
-11.171625 -26.723409 -21.031529 35.794846 1.174830 2.198833 0.027536 -0.006749 137400.000000 0 0 1
-11.084225 -25.586609 -20.148829 34.402179 1.161997 2.196521 0.028230 0.005221 -163803.000000 0 0 1
-11.763825 -25.846779 -18.793729 34.053602 1.143679 2.155421 0.035082 -0.000722 462312.000000 0 0 1
-13.139325 -26.187559 -18.958629 34.897847 1.105758 2.145112 0.041350 -0.001640 126685.000000 0 0 1
-13.661225 -26.795319 -17.804129 34.951469 1.099311 2.105279 0.044526 -0.004882 -86663.200000 0 0 1
-15.179025 -27.042069 -17.854029 35.783273 1.059310 2.093182 0.048662 -0.008002 -936352.000000 0 0 1
-15.987225 -25.876009 -17.736429 35.209943 1.017363 2.098712 0.045197 -0.001187 -75376.100000 0 0 1
-17.354625 -26.061629 -17.493129 35.866434 0.983320 2.080284 0.031186 0.002020 -247842.000000 0 0 1
-18.197725 -26.818079 -18.511429 37.323445 0.974604 2.089752 0.023545 0.005493 -1578430.000000 0 0 1
-18.071425 -28.226459 -18.719929 38.389388 1.001320 2.080173 0.026965 0.002832 -13538.200000 0 0 1
-18.260425 -29.129959 -17.631729 38.637747 1.010860 2.044667 0.024306 0.000023 -866500.000000 0 0 1
-19.718825 -29.559459 -17.392629 39.561309 0.982501 2.025991 0.017244 0.013344 78612.300000 0 0 1
-20.153925 -30.440479 -18.452729 40.906071 0.985978 2.038794 0.019440 0.009301 397601.000000 0 0 1
-21.471925 -30.952839 -18.258929 41.862994 0.964312 2.022122 0.017076 0.018190 488937.000000 0 0 1
-21.898125 -31.957749 -19.385229 43.319888 0.970058 2.034753 0.014093 0.014141 -94007.800000 0 0 1
-21.269325 -33.200109 -19.279629 43.890039 1.001029 2.025584 0.013830 0.008341 -18065.600000 0 0 1
-21.609125 -34.061391 -20.395929 45.200957 1.005454 2.038937 0.015570 0.007211 36609.000000 0 0 1
-20.972125 34.060580 -20.317629 44.863785 -1.018891 2.040782 0.010872 0.004601 -82082.200000 0 0 1
-21.592725 33.116660 -19.443429 44.056848 -0.993002 2.027872 0.010808 0.000025 -36957.600000 0 0 1
-20.914525 31.877830 -19.487129 42.817772 -0.990156 2.043301 0.003232 -0.004238 -120539.000000 0 0 1
-21.539025 30.820060 -18.603529 41.951126 -0.960833 2.030249 0.006006 -0.015804 -226012.000000 0 0 1
-21.769125 31.000050 -17.206729 41.604921 -0.958576 1.997173 -0.000782 -0.018397 471813.000000 0 0 1
-22.518925 29.845870 -16.652029 40.928817 -0.924417 1.989803 -0.004350 -0.013511 357454.000000 0 0 1
-21.796925 28.497060 -16.488529 39.484934 -0.917838 2.001588 0.000559 -0.020246 -323642.000000 0 0 1
-21.401025 27.863160 -17.685429 39.333624 -0.915827 2.037143 -0.006980 -0.021153 -11113.400000 0 0 1
-20.728225 26.661060 -17.368129 37.975299 -0.909944 2.045813 -0.001626 -0.022477 -139157.000000 0 0 1
-20.092125 26.088380 -18.656329 37.846475 -0.914520 2.086271 0.001694 -0.015630 -816733.000000 0 0 1
-19.743625 24.761380 -18.528529 36.691185 -0.897670 2.100162 0.005229 -0.019274 192329.000000 0 0 1
-19.177025 24.074720 -19.665629 36.525161 -0.898155 2.139349 0.005753 -0.010940 -39633.200000 0 0 1
-17.771725 24.525920 -20.114929 36.358841 -0.943744 2.157037 -0.010270 -0.015380 -714630.000000 0 0 1
-16.809325 24.250620 -19.113729 35.156516 -0.964682 2.145606 -0.016664 -0.010882 446570.000000 0 0 1
-15.707425 25.166380 -19.118529 35.292889 -1.012813 2.143267 -0.007030 -0.011111 -126839.000000 0 0 1
-15.957625 26.330310 -18.126229 35.728017 -1.025936 2.102891 -0.022773 -0.012484 413820.000000 0 0 1
-16.959725 27.306520 -18.546929 37.111547 -1.015016 2.094120 -0.022995 -0.012475 604521.000000 0 0 1
-16.955025 28.360440 -17.670129 37.470267 -1.031966 2.061875 -0.024546 -0.014013 -427410.000000 0 0 1
-17.988425 29.394080 -18.077729 38.915288 -1.021619 2.053912 -0.016603 -0.012865 -492831.000000 0 0 1
-17.739625 30.026390 -19.323029 39.870514 -1.037168 2.076753 -0.021188 -0.006741 197472.000000 0 0 1
-18.075625 29.239370 -20.484329 40.015956 -1.017106 2.108196 -0.013206 -0.005801 -141054.000000 0 0 1
-17.718625 30.072470 -21.780029 41.142105 -1.038358 2.128672 -0.009582 -0.007295 -39470.500000 0 0 1
-18.652025 31.073350 -22.046229 42.420365 -1.030187 2.117306 -0.008517 -0.002864 -306759.000000 0 0 1
-18.764725 31.215860 -23.422329 43.303006 -1.029548 2.142296 -0.003647 -0.003135 2762.850000 0 0 1
-19.304225 32.502870 -23.966329 44.760190 -1.034857 2.135823 -0.007691 -0.000174 -162225.000000 0 0 1
-18.337425 33.533174 -24.054529 45.159222 -1.070379 2.132537 0.001346 0.004913 -212571.000000 0 0 1
-18.778825 34.627144 -24.794829 46.545321 -1.073872 2.132587 -0.006048 0.003697 -375887.000000 0 0 1
-17.798825 -33.741509 -24.597829 45.390977 1.085387 2.143505 0.016297 0.009096 -289160.000000 0 0 1
-17.977725 -32.942139 -23.463329 44.259585 1.071232 2.129550 0.001599 0.006354 111803.000000 0 0 1
-17.575625 -33.478839 -22.192729 43.843499 1.087367 2.101547 -0.002167 0.003402 -263978.000000 0 0 1
-17.650425 -32.435149 -21.068129 42.514026 1.072436 2.089272 0.007591 0.004512 1046790.000000 0 0 1
-16.521625 -31.511339 -21.241429 41.438229 1.087892 2.109012 0.004818 0.008349 1159760.000000 0 0 1
-16.397225 -30.792739 -20.070229 40.247681 1.081486 2.092858 0.014365 0.013569 592998.000000 0 0 1
-15.110525 -29.871059 -20.040229 39.015624 1.102473 2.110225 0.016195 0.003225 804272.000000 0 0 1
-13.893925 -30.572739 -20.006029 39.089317 1.144244 2.108078 0.021005 0.004227 -33614.500000 0 0 1
-12.786625 -29.710089 -20.194229 38.131274 1.164378 2.128922 0.023083 -0.004095 -176124.000000 0 0 1
-11.396125 -30.343959 -20.392929 38.294896 1.211531 2.132375 0.025906 -0.004866 164570.000000 0 0 1
-10.742225 -30.920999 -19.274029 37.986731 1.236432 2.102948 0.029192 -0.007791 115911.000000 0 0 1
-10.333625 -30.047869 -18.264829 36.650541 1.239561 2.092492 0.032569 -0.011116 -737852.000000 0 0 1
-9.717625 -30.691819 -17.047729 36.428629 1.264163 2.057796 0.021575 -0.012194 -462740.000000 0 0 1
-10.620225 -31.397079 -16.223829 36.902281 1.244623 2.025997 0.030376 -0.013173 1088.260000 0 0 1
-10.805625 -32.750209 -16.580229 38.265411 1.252102 2.018942 0.032145 -0.010103 331492.000000 0 0 1
-11.897925 -33.524269 -15.765229 38.909891 1.229759 1.987964 0.035407 -0.008835 321239.000000 0 0 1
-11.526925 -33.745289 -14.452829 38.477250 1.241637 1.955862 0.034043 -0.015803 94960.200000 0 0 1
-12.659925 -34.158164 -13.700229 38.919791 1.215865 1.930516 0.028010 -0.007735 34178.800000 0 0 1
-12.407025 -34.458485 -12.196129 38.601386 1.225190 1.892255 0.027242 -0.011720 -202858.000000 0 0 1
-11.720325 -33.487889 -11.485429 37.292355 1.234133 1.883869 0.038407 -0.014670 -19242.000000 0 0 1
-11.409525 -33.958569 -10.213929 37.251657 1.246662 1.848541 0.037063 -0.013873 19171.500000 0 0 1
-10.210825 -33.172549 -9.584829 36.007609 1.272190 1.840234 0.031908 -0.017648 616429.000000 0 0 1
-9.018425 -33.371799 -10.334929 36.080738 1.306860 1.861304 0.017404 -0.023851 -660551.000000 0 0 1
-7.923025 -32.771109 -9.744929 35.095349 1.333580 1.852164 0.011989 -0.025560 -672214.000000 0 0 1
-6.584925 -33.269469 -10.300129 35.444484 1.375395 1.865649 0.004127 -0.029876 -279746.000000 0 0 1
-6.313825 -34.619975 -9.893329 36.555232 1.390404 1.844855 0.000890 -0.021906 454240.000000 0 0 1
-5.076625 34.503548 -10.529729 36.429962 -1.424711 1.864021 0.000983 -0.015789 616808.000000 0 0 1
-4.460025 33.328490 -9.768429 35.015743 -1.437766 1.853520 -0.011972 -0.009554 -191421.000000 0 0 1
-3.789125 33.883881 -8.627229 35.169645 -1.459432 1.818629 0.000986 -0.009210 -8368.220000 0 0 1
-3.163025 32.977610 -7.778429 34.029861 -1.475175 1.801412 -0.007806 -0.007946 -203974.000000 0 0 1
-2.949525 33.408710 -6.296729 34.124631 -1.482739 1.756381 0.000766 -0.002518 -722625.000000 0 0 1
-2.037625 34.427093 -6.132429 35.028322 -1.511679 1.746774 0.007481 -0.004813 -501206.000000 0 0 1
-1.817125 -34.695107 -4.768429 35.068366 1.518470 1.707194 0.010514 -0.002588 111337.000000 0 0 1
-0.725625 34.040331 -3.983729 34.280326 -1.549483 1.687270 0.008193 -0.000469 740060.000000 0 0 1
0.609175 34.256456 -4.493129 34.555232 1.553015 1.701193 0.004893 -0.006295 602983.000000 0 0 1
1.509775 33.405470 -3.837629 33.659059 1.525632 1.685060 -0.001812 -0.001414 -1601700.000000 0 0 1
2.906075 33.489913 -4.320129 33.892227 1.484239 1.698611 -0.003143 0.004974 -1231430.000000 0 0 1
3.499975 34.726173 -3.865829 35.115546 1.470348 1.681109 -0.001958 0.005268 164149.000000 0 0 1
4.893275 -34.719384 -4.124429 35.304258 -1.430781 1.687889 0.001423 0.007524 471301.000000 0 0 1
5.575875 -33.360379 -3.820029 34.038182 -1.405187 1.683261 0.002192 0.007016 -23880.400000 0 0 1
5.301875 -32.301589 -4.728929 33.073634 -1.408110 1.714270 0.005064 -0.000730 30261.500000 0 0 1
5.778075 -31.067719 -4.154029 31.872327 -1.386914 1.701502 0.009580 -0.004252 189883.000000 0 0 1
5.503775 -29.925699 -5.130229 30.857061 -1.388914 1.737830 0.011782 -0.009622 -167780.000000 0 0 1
6.385475 -29.935119 -6.260629 31.242296 -1.360636 1.772552 0.018357 -0.005179 245576.000000 0 0 1
6.341575 -28.716709 -7.042229 30.240005 -1.353452 1.805832 0.025092 -0.006511 -54229.900000 0 0 1
6.917375 -27.444939 -6.396929 29.017157 -1.323893 1.793076 0.028916 -0.009281 -363043.000000 0 0 1
6.019475 -26.756449 -5.618029 27.994711 -1.349508 1.772850 0.025583 -0.007743 -695561.000000 0 0 1
6.713875 -25.891699 -4.764529 27.169043 -1.317078 1.747074 0.028635 -0.017024 -260733.000000 0 0 1
5.879475 -25.506949 -3.494429 26.408023 -1.344249 1.703510 0.020623 -0.015303 272330.000000 0 0 1
4.776575 -24.669549 -3.791829 25.412207 -1.379541 1.720569 0.031166 -0.016753 -409149.000000 0 0 1
4.098775 -24.193349 -2.697929 24.685965 -1.402972 1.680305 0.027842 -0.004909 987276.000000 0 1 0
2.776975 -23.371549 -3.054529 23.733331 -1.452532 1.699856 0.025322 -0.012709 1916560.000000 0 1 0
1.677775 -24.130149 -3.613129 24.456772 -1.501378 1.719074 0.012284 -0.009433 -33409.900000 0 1 0
0.669475 -23.249249 -3.983729 23.597581 -1.542009 1.740428 -0.001347 -0.010209 -230312.000000 0 1 0
-14.781025 23.261251 18.269584 33.065726 -1.004728 0.985408 -0.008187 0.004902 -140307.000000 0 0 1
-14.805525 22.645251 19.470084 33.333094 -0.991753 0.947017 -0.003841 0.003471 166844.000000 0 0 1
-14.609125 23.581451 20.544084 34.519136 -1.016149 0.933343 -0.002582 0.010247 -890604.000000 0 0 1
-14.641325 22.921951 21.927384 34.937007 -1.002373 0.892296 0.007871 0.004454 296148.000000 0 0 1
-13.539025 22.066851 22.326084 34.186330 -1.020476 0.859164 0.008390 0.002055 1301790.000000 0 0 1
-12.201525 22.550351 22.253884 33.950419 -1.074828 0.855976 -0.004102 -0.005011 131316.000000 0 0 1
-11.830625 23.710951 23.221484 35.233652 -1.107988 0.851213 0.011741 0.004800 -730682.000000 0 0 1
-11.695425 23.220651 24.546094 35.756011 -1.104221 0.814147 0.007061 0.003703 174316.000000 0 0 1
-11.666525 24.295051 25.481004 37.089606 -1.123112 0.813427 0.018108 0.009903 -144646.000000 0 0 1
-11.247425 23.869951 26.883134 37.669378 -1.130456 0.776087 0.009148 0.005369 -400401.000000 0 0 1
-9.939025 23.403951 26.990064 37.080894 -1.169203 0.755586 -0.007476 0.000550 -942774.000000 0 0 1
-9.655125 22.824351 28.220034 37.557193 -1.170605 0.720633 -0.017558 -0.002659 -464467.000000 0 0 1
-8.207925 22.241451 28.288144 36.908959 -1.217263 0.697531 -0.023768 -0.000613 279899.000000 0 0 1
-7.270525 23.276651 28.285044 37.345773 -1.268046 0.711501 -0.017847 -0.000670 -590095.000000 0 0 1
-6.940525 23.955751 27.088724 36.821840 -1.288795 0.744141 -0.017320 0.001398 -1001960.000000 0 0 1
-5.932525 25.119751 27.296254 37.567037 -1.338876 0.757434 -0.017709 -0.004830 1053140.000000 0 0 1
-4.545925 24.759951 27.448534 37.244364 -1.389219 0.742198 -0.015310 -0.000375 393257.000000 0 0 1
-3.791625 25.872151 27.826314 38.184400 -1.425280 0.754323 -0.008837 0.001779 1380530.000000 0 0 1
-2.240925 25.496251 27.862204 37.833623 -1.483129 0.743003 -0.013165 0.010471 1339430.000000 0 0 1
-1.650525 25.252151 26.623654 36.731653 -1.505527 0.760030 -0.008774 0.000397 788256.000000 0 0 1
-0.248525 24.905751 26.740604 36.543373 -1.560818 0.749911 0.006038 0.004813 1274570.000000 0 0 1
0.315075 24.566351 25.351774 35.303220 1.557972 0.769706 0.007826 0.000591 -321801.000000 0 0 1
-0.100125 23.367951 24.761414 34.047009 -1.566512 0.756458 0.008728 0.002706 -104842.000000 0 0 1
0.255375 23.313151 23.406784 33.037037 1.559843 0.783424 0.009015 0.011724 -29478.000000 0 0 1
-0.198925 22.018351 22.673984 31.606280 -1.561762 0.770750 0.006605 0.013635 325414.000000 0 0 1
0.455175 20.826451 23.170984 31.158350 1.548944 0.732279 0.016656 0.009001 121507.000000 0 0 1
0.024575 19.681751 22.524084 29.911642 1.569548 0.718156 0.018105 0.011855 -235306.000000 0 0 1
0.974475 18.514651 22.784284 29.374573 1.518212 0.683058 0.024102 0.014864 -780838.000000 0 0 1
2.189175 18.662751 22.145784 29.043528 1.454028 0.703623 0.025629 0.006799 -1000320.000000 0 0 1
2.974675 17.517951 22.340284 28.544975 1.402594 0.671909 0.016065 0.002272 50371.200000 0 0 1
4.433775 17.546451 21.809484 28.340605 1.323290 0.692662 0.018217 0.006088 378086.000000 0 0 1
5.190175 18.482951 22.568784 29.629502 1.297038 0.704864 0.008726 0.012521 -1453260.000000 0 0 1
6.438975 18.690251 22.041884 29.607947 1.239021 0.731073 0.014996 0.002545 -941786.000000 0 0 1
7.418575 19.361351 23.055384 31.007223 1.204887 0.732434 0.015201 -0.002319 -201267.000000 0 0 1
7.075675 20.567451 23.705684 32.172110 1.239456 0.742413 0.008294 0.001885 -138873.000000 0 0 1
6.997575 21.725651 22.875484 32.314977 1.259200 0.784288 0.007730 0.000012 -208107.000000 0 0 1
6.117675 22.763051 23.564984 33.330030 1.308246 0.785521 0.005727 0.004702 -184285.000000 0 0 1
6.049875 23.991951 22.879084 33.699662 1.323783 0.824517 0.001320 -0.000449 343219.000000 0 0 1
4.872175 24.665351 23.284184 34.267636 1.375776 0.823742 -0.017946 0.007047 -314488.000000 0 0 1
4.511475 25.941151 22.520184 34.647589 1.398607 0.863240 -0.007652 0.004719 -41729.800000 0 0 1
4.080275 25.801551 21.167684 33.622010 1.413955 0.889786 0.001159 -0.000565 54430.300000 0 0 1
2.817475 25.192251 20.952384 32.887537 1.459420 0.880077 0.000873 0.000939 -137210.000000 0 0 1
2.313775 25.559351 19.531184 32.250599 1.480517 0.920268 0.006294 0.005981 -584733.000000 0 0 1
1.836975 26.869251 19.347084 33.160832 1.502535 0.947849 0.006316 0.001163 -21772.800000 0 0 1
1.390575 26.992651 18.030684 32.490652 1.519325 0.982494 0.011463 0.005858 -180006.000000 0 0 1
0.270575 28.046651 18.110184 33.386624 1.561149 0.997459 0.003116 0.009679 -330237.000000 0 0 1
0.774375 29.274051 18.550084 34.665189 1.544350 1.006145 0.009716 0.006819 250884.000000 0 0 1
-0.245325 30.254251 18.533584 35.480609 -1.562688 1.021182 0.004576 0.006717 105173.000000 0 0 1
0.328075 31.645251 18.936284 36.879702 1.560429 1.031583 0.003163 0.004166 -206976.000000 0 0 1
0.474575 31.834151 20.283984 37.750211 1.555890 1.003539 -0.003190 0.003045 -187781.000000 0 0 1
0.916975 33.110551 20.680884 39.049308 1.543109 1.012656 -0.009862 0.003916 -20340.200000 0 0 1
1.555275 33.175851 22.106984 39.897052 1.523951 0.983514 -0.017727 0.002125 105048.000000 0 0 1
0.623675 32.811051 23.120384 40.143570 1.551791 0.957040 -0.023210 0.008165 -30281.700000 0 0 1
1.033375 33.221151 24.380114 41.220174 1.539700 0.937927 -0.024877 -0.002620 -532292.000000 0 0 1
0.110175 33.008351 25.597564 41.770787 1.567459 0.911184 -0.024096 0.009584 -285673.000000 0 0 1
-1.141625 33.661351 25.533944 42.265496 -1.536894 0.922120 -0.024998 0.010797 68264.800000 0 0 1
-2.122125 33.379251 26.495794 42.669719 -1.507306 0.900841 -0.029125 0.009933 147558.000000 0 0 1
-1.777125 33.825351 27.954324 43.917614 -1.518306 0.880822 -0.016401 0.008931 -968835.000000 0 0 1
-0.764425 33.051451 28.503504 43.651260 -1.547672 0.859281 -0.018887 0.005835 -269166.000000 0 0 1
-0.458025 33.392351 29.854104 44.794268 -1.557081 0.841330 -0.006651 0.001744 -638290.000000 0 0 1
0.554275 32.456051 30.486704 44.532478 1.553720 0.816749 -0.016194 0.000047 121618.000000 0 0 1
1.893875 32.471151 29.981764 44.236508 1.512537 0.826084 -0.015658 0.003387 671371.000000 0 0 1
2.120475 31.782851 28.736904 42.900533 1.504177 0.836790 -0.021072 0.003138 -813901.000000 0 0 1
3.603375 31.735251 28.353604 42.708750 1.457736 0.844797 -0.019930 -0.004358 -156641.000000 0 0 1
4.316175 30.720151 29.055864 42.504121 1.431210 0.818111 -0.015582 -0.004816 -639462.000000 0 0 1
5.658575 30.757451 28.731624 42.468182 1.388857 0.827736 -0.004321 -0.007463 -1077530.000000 0 0 1
6.580775 29.887751 29.551074 42.542335 1.354071 0.802894 0.005684 0.000337 -269806.000000 0 0 1
6.515075 30.088651 30.921534 43.633868 1.357559 0.783201 0.011908 -0.004284 165908.000000 0 0 1
7.124375 28.964951 31.516524 43.393737 1.329619 0.757884 0.019906 -0.002896 -205006.000000 0 0 1
6.940475 29.000351 33.016774 44.489301 1.335891 0.734556 0.034779 -0.018032 -724274.000000 0 0 1
5.667475 28.993551 33.607643 44.746173 1.377757 0.721111 0.016664 -0.022396 -495277.000000 0 0 1
5.610375 28.605551 -34.333474 45.039331 1.377126 2.437655 0.027178 -0.021786 -198582.000000 0 0 1
5.774975 27.132651 -34.010129 43.888723 1.361083 2.457381 0.016188 -0.018872 -64436.700000 0 0 1
7.072475 26.615551 -34.205099 43.913509 1.311071 2.463738 0.025542 -0.023726 96193.300000 0 0 1
7.057975 25.201351 -34.032889 42.932047 1.297729 2.486047 0.011884 -0.014212 -282845.000000 0 0 1
8.407975 24.522451 -34.273083 42.973118 1.240489 2.494014 0.020376 -0.015783 -702671.000000 0 0 1
8.655375 24.387651 33.663424 42.460560 1.229756 0.655380 0.025708 -0.019136 616714.000000 0 0 1
9.921175 23.778651 33.368346 42.158042 1.175525 0.657527 0.019055 -0.020600 476047.000000 0 0 1
10.135475 22.289151 33.747487 41.694448 1.144019 0.627667 0.012415 -0.016353 -542949.000000 0 0 1
9.401575 21.371251 32.908504 40.349593 1.156359 0.617058 0.013994 -0.013539 445570.000000 0 0 1
9.070975 20.128151 33.586437 40.192957 1.147393 0.581518 0.006447 -0.002236 353163.000000 0 0 1
7.804075 20.122951 34.495337 40.691093 1.200834 0.559093 0.023785 -0.012218 -126098.000000 0 0 1
7.833275 20.868251 -33.642879 40.356999 1.211703 2.556447 0.024206 -0.021958 166692.000000 0 0 1
6.546475 21.063751 -33.066579 39.748416 1.269467 2.553313 0.027240 -0.016184 212598.000000 0 0 1
6.506175 21.694751 -31.704399 38.963591 1.279435 2.521273 0.027465 -0.026256 -429114.000000 0 0 1
6.768675 23.076351 -31.800409 39.869775 1.285482 2.494114 0.016813 -0.018144 74562.900000 0 0 1
7.151275 23.593251 -30.508329 39.224232 1.276492 2.461943 -0.001340 -0.020142 -76065.900000 0 0 1
8.669975 23.547651 -30.220749 39.280453 1.218011 2.448633 0.003345 -0.010599 82532.000000 0 0 1
9.123675 22.206851 -30.041099 38.455862 1.180972 2.467356 0.009555 -0.024540 -276838.000000 0 0 1
10.505275 22.171751 -29.737879 38.552416 1.128317 2.451775 0.014672 -0.015299 249381.000000 0 0 1
11.064575 20.746251 -29.505099 37.727743 1.080842 2.468750 0.016090 -0.023214 -49799.000000 0 0 1
11.241675 19.982851 -30.721879 38.334364 1.058357 2.500460 0.010708 -0.025550 1106120.000000 0 0 1
10.002975 19.610151 -31.393299 38.342623 1.099108 2.530039 0.011553 -0.024194 947845.000000 0 0 1
10.258975 18.449151 -32.447929 38.710281 1.063307 2.564817 0.020237 -0.021649 -353906.000000 0 0 1
10.694975 17.253851 -31.779939 37.709977 1.015902 2.573161 0.021369 -0.017444 413287.000000 0 0 1
11.011675 16.175351 -32.604819 38.025954 0.973094 2.601062 0.015811 -0.008677 75106.600000 0 0 1
12.271775 16.206751 -33.527539 39.209069 0.922702 2.596533 0.008426 0.002195 80944.400000 0 0 1
12.071475 17.024251 -34.632219 40.434344 0.954006 2.599256 0.009999 -0.000687 -96615.400000 0 0 1
12.915575 16.599751 33.660371 39.691112 0.909578 0.558486 0.007667 0.002808 -188825.000000 0 0 1
12.210475 16.632851 32.301194 38.329030 0.937537 0.568454 0.003738 0.004593 -500691.000000 0 0 1
12.290275 17.935251 31.717774 38.454405 0.970033 0.600921 0.003675 0.010410 34109.500000 0 0 1
11.647475 17.964251 30.459114 37.230842 0.995568 0.612671 0.003075 0.007122 485417.000000 0 0 1
10.105975 18.221151 30.467914 36.911175 1.064406 0.599817 0.001106 0.014509 553135.000000 0 0 1
9.424875 17.095051 31.070414 36.693864 1.066939 0.560956 0.004730 0.015265 -236219.000000 0 0 1
8.064375 17.371151 31.302454 36.696521 1.136164 0.549073 0.011078 0.010711 -91007.800000 0 0 1
7.543675 16.289051 32.275654 36.931803 1.137091 0.507575 0.014554 0.017942 -120390.000000 0 0 1
7.869975 16.536251 33.599436 38.266254 1.126596 0.499038 0.031222 0.014195 -94684.000000 0 0 1
7.258475 15.602251 34.455530 38.513624 1.135358 0.463189 0.030557 0.009753 19462.100000 0 0 1
7.339675 16.026451 -33.366709 37.736656 1.141332 2.655572 0.034163 0.002944 -361754.000000 0 0 1
6.495675 17.112751 -33.098709 37.822805 1.208016 2.636437 0.029951 -0.000016 -1075.660000 0 0 1
6.410075 17.189951 -31.652179 36.584750 1.213871 2.616294 0.037130 -0.013454 -581887.000000 0 0 1
5.255375 18.034351 -31.137099 36.364484 1.287240 2.598763 0.038475 -0.020318 -980589.000000 0 0 1
5.229375 18.088251 -29.728649 35.189825 1.289366 2.577003 0.032257 -0.030008 78300.200000 0 0 1
4.535375 19.219751 -29.181939 35.235692 1.339061 2.546671 0.032677 -0.029206 -364668.000000 0 0 1
3.018275 19.269151 -29.310489 35.206746 1.415421 2.554446 0.034429 -0.035280 -1235080.000000 0 0 1
2.384275 18.373651 -28.396309 33.906138 1.441751 2.563484 0.035576 -0.027747 745678.000000 0 0 1
0.962275 18.229751 -28.384949 33.748409 1.518059 2.570064 0.029940 -0.030417 1310140.000000 0 0 1
0.003875 19.434251 -28.119969 34.182200 1.570597 2.536852 0.017680 -0.028299 -134540.000000 0 0 1
0.069875 19.724351 -26.761619 33.245137 1.567254 2.506435 0.015183 -0.019723 -74677.300000 0 0 1
-0.725425 20.866651 -26.557269 33.782124 -1.536046 2.475325 0.015163 -0.012285 -231639.000000 0 0 1
-1.133525 21.184351 -25.129659 32.887100 -1.517340 2.440471 0.004570 -0.009251 170701.000000 0 0 1
-2.123525 20.290251 -24.624229 31.977434 -1.466519 2.449716 -0.002226 -0.007252 286964.000000 0 0 1
-2.405125 20.563651 -23.278829 31.153688 -1.454365 2.414674 -0.005745 0.002672 607854.000000 0 0 1
-3.572825 19.711651 -22.578929 30.184803 -1.391489 2.415875 -0.008767 -0.000688 1072700.000000 0 0 1
-4.835425 20.125251 -23.075929 30.998477 -1.334999 2.410464 -0.005435 -0.005056 476632.000000 0 0 1
-5.883825 19.282651 -22.568429 30.261758 -1.274635 2.412492 -0.008176 -0.003059 16833.900000 0 0 1
-7.308325 19.788951 -22.556029 30.883469 -1.217020 2.389644 0.012283 -0.011315 -613552.000000 0 0 1
-7.604125 20.680351 -21.472829 30.766573 -1.218443 2.343295 0.003370 -0.014870 73466.100000 0 0 1
-7.133125 22.005451 -21.600729 31.649848 -1.257331 2.321961 0.007054 -0.016459 -215272.000000 0 0 1
-7.518425 22.916051 -20.383229 31.577653 -1.253776 2.272468 0.009823 -0.010874 -256540.000000 0 0 1
-6.738625 22.744051 -19.232629 30.538418 -1.282755 2.252072 0.010825 0.000388 -166346.000000 0 0 1
-7.069025 23.714651 -18.241429 30.742569 -1.281096 2.206024 0.023866 0.004110 -223523.000000 0 0 1
-5.984125 23.848851 -17.143929 29.974852 -1.324953 2.179670 0.010931 0.018266 713622.000000 0 0 1
-4.830025 24.524351 -17.645629 30.596424 -1.376337 2.185507 0.001152 0.020098 -353659.000000 0 0 1
-3.774125 24.568851 -16.705529 29.949076 -1.418374 2.162526 0.004590 0.026939 209287.000000 0 0 1
-2.593625 25.286951 -17.394229 30.801234 -1.468586 2.170896 0.010012 0.022788 -98613.200000 0 0 1
-2.773425 26.675651 -17.394329 31.966309 -1.467200 2.146167 -0.004016 0.027099 216213.000000 0 0 1
-1.772225 27.335551 -18.181729 32.877780 -1.506055 2.156768 -0.014091 0.022809 393738.000000 0 0 1
-1.523425 28.750351 -17.711029 33.802131 -1.517858 2.122292 -0.024756 0.004200 -8543.010000 0 0 1
-2.510025 29.715651 -18.064929 34.866342 -1.486528 2.115447 -0.021817 0.007889 106337.000000 0 0 1
-2.386525 30.166651 -19.438729 35.966464 -1.491849 2.141790 -0.023684 -0.005378 -876708.000000 0 0 1
-3.800925 30.390551 -20.016529 36.588169 -1.446373 2.149664 -0.011613 -0.013813 229758.000000 0 0 1
-4.528025 31.517051 -19.611129 37.395507 -1.428104 2.122836 -0.001502 -0.022547 -34955.300000 0 0 1
-5.247025 31.349351 -18.414729 36.734389 -1.404961 2.095890 0.003046 -0.018408 -428001.000000 0 0 1
-5.701625 32.618851 -17.706529 37.550222 -1.397749 2.061836 0.003588 -0.015594 -750367.000000 0 0 1
-6.486425 33.383251 -18.482329 38.705448 -1.378886 2.068618 0.014207 -0.013949 -622393.000000 0 0 1
-6.923725 34.625451 -17.918129 39.596959 -1.373439 2.040377 0.020253 -0.016476 -297572.000000 0 0 1
-7.764925 -34.182817 -18.982529 39.863460 1.347428 2.067112 0.020628 -0.014687 -640344.000000 0 0 1
-8.994625 34.678351 -19.046329 40.574056 -1.317016 2.059432 0.019140 -0.012982 -897872.000000 0 0 1
-9.845225 -34.287117 -20.000729 40.896993 1.291178 2.081798 0.024463 -0.006373 -36973.300000 0 0 1
28.480475 -20.960549 -26.321979 44.083201 -0.634456 2.210675 0.014699 0.013531 520311.000000 0 0 1
27.749375 -22.186149 -26.042129 44.050487 -0.674447 2.203328 0.027636 0.002644 1158800.000000 0 0 1
26.544975 -22.293349 -26.858089 43.851864 -0.698562 2.229982 0.020307 0.002096 1217100.000000 0 0 1
25.719275 -23.595549 -26.640529 43.908413 -0.742360 2.222736 0.018912 0.004392 -19412.800000 0 0 1
26.292675 -24.800449 -27.101039 45.175583 -0.756200 2.214178 0.013701 0.016112 46656.900000 0 0 1
27.473275 -25.214179 -26.411619 45.695834 -0.742547 2.187057 0.016857 0.017791 464999.000000 0 0 1
28.014175 -26.543029 -26.953219 47.072310 -0.758439 2.180460 0.010437 0.015452 378012.000000 0 0 1
27.067775 -27.594219 -26.677429 46.965844 -0.795029 2.174892 0.017875 -0.000451 245040.000000 0 0 1
27.429075 -28.851309 -27.179279 48.202337 -0.810663 2.169846 0.007238 0.003196 -590024.000000 0 0 1
26.324775 -29.392429 -28.029649 48.400101 -0.840400 2.188450 0.025685 -0.004890 -1082320.000000 0 0 1
26.187075 -28.905889 -29.370529 48.825621 -0.834708 2.216223 0.007874 -0.006238 130670.000000 0 0 1
27.282875 -28.835459 -30.285889 49.930692 -0.813057 2.222521 -0.003283 -0.005015 -96181.400000 0 0 1
27.647875 -30.170139 -31.058059 51.373585 -0.828995 2.220001 0.002463 -0.000171 -377943.000000 0 0 1
28.245375 -31.296239 -30.419899 51.986787 -0.836593 2.195857 0.008123 -0.004867 516113.000000 0 0 1
29.519575 -31.120739 -29.800349 52.229938 -0.811796 2.177985 0.015899 -0.007743 823354.000000 0 0 1
30.754375 -30.792039 -30.695449 53.255908 -0.786010 2.185084 0.018362 -0.008229 -300453.000000 0 0 1
30.772875 -29.435199 -31.053439 52.704049 -0.763184 2.200870 0.017198 -0.011603 -554963.000000 0 0 1
31.889875 -29.016059 -31.761639 53.550887 -0.738249 2.205714 0.006151 -0.007075 -677679.000000 0 0 1
31.723475 -27.517479 -32.235349 52.940610 -0.714519 2.225465 -0.006563 0.002961 -90525.600000 0 0 1
31.639975 -26.521059 -31.270449 51.790882 -0.697612 2.219034 -0.019895 0.007082 939187.000000 0 0 1
30.292275 -26.354559 -30.738259 50.567037 -0.715996 2.224174 -0.007474 0.004955 1053650.000000 0 0 1
30.201075 -24.965449 -30.110089 49.416556 -0.690776 2.225989 -0.008867 0.007220 -1241330.000000 0 0 1
31.028775 -24.829349 -29.017859 49.206885 -0.674865 2.201498 -0.012026 0.014836 -270143.000000 0 0 1
30.869775 -23.600249 -28.367879 48.110823 -0.652723 2.201405 -0.017087 0.017034 -741413.000000 0 0 1
32.002975 -23.379649 -27.413799 48.190401 -0.630934 2.175921 -0.020885 0.018679 -900696.000000 0 0 1
32.052575 -24.229749 -26.242029 47.990544 -0.647290 2.149354 -0.014087 0.010666 -143685.000000 0 0 1
31.135175 -23.807749 -25.231189 46.613527 -0.652816 2.142761 0.015111 0.009998 53939.500000 0 0 1
31.558875 -22.643349 -24.288329 45.810552 -0.622372 2.129622 0.019880 0.013843 -62014.900000 0 0 1
31.767475 -21.445949 -24.964529 45.741981 -0.593812 2.148102 0.007796 0.009045 -22465.300000 0 0 1
31.927275 -20.389049 -24.037829 44.865147 -0.568326 2.136227 -0.003295 0.006458 -129610.000000 0 0 1
32.133975 -19.044649 -24.785029 44.828435 -0.535008 2.156621 -0.014493 0.001576 129353.000000 0 0 1
30.995675 -18.781149 -25.615179 44.380184 -0.544767 2.186063 -0.000517 0.001272 593578.000000 0 0 1
31.010375 -17.460749 -26.116439 44.142830 -0.512816 2.203882 -0.007349 -0.006025 -118092.000000 0 0 1
29.962375 -17.351749 -27.240319 44.055216 -0.524924 2.237402 -0.007007 -0.000339 -179274.000000 0 0 1
28.622275 -17.439549 -26.806319 42.917959 -0.547230 2.245408 -0.007083 0.003968 -402587.000000 0 0 1
27.876075 -17.389349 -27.973849 43.150912 -0.557742 2.276119 -0.004743 0.001728 1216380.000000 0 0 1
26.320175 -17.012449 -27.812099 41.900929 -0.573816 2.296629 -0.011255 0.006892 2089870.000000 0 0 1
25.455375 -17.899749 -27.113729 41.273858 -0.612858 2.287526 0.000102 0.014255 211533.000000 0 0 1
25.616075 -17.869649 -25.710389 40.454069 -0.609110 2.259511 -0.000852 0.017934 -266815.000000 0 0 1
24.567475 -18.735249 -24.963829 39.721066 -0.651519 2.250392 0.009749 0.015246 -235484.000000 0 0 1
24.623575 -18.429549 -23.560129 38.743365 -0.642509 2.224471 0.010814 0.027423 -41977.100000 0 0 1
23.843375 -19.308549 -22.795629 38.222601 -0.680693 2.209794 0.028529 0.017958 -241294.000000 0 0 1
23.697675 -18.931449 -21.331029 37.080889 -0.674054 2.183714 0.017194 0.013111 -341253.000000 0 0 1
22.947675 -17.776049 -21.003029 35.828911 -0.659081 2.197161 -0.008741 0.008917 258217.000000 0 0 1
23.550775 -16.496549 -21.314629 35.792297 -0.611040 2.208695 -0.001936 0.018506 855948.000000 0 0 1
24.926175 -16.079849 -20.670429 36.154423 -0.572922 2.179405 0.005384 0.016944 745033.000000 0 0 1
24.836175 -15.205049 -19.564529 35.082757 -0.549352 2.162370 0.001118 -0.000027 98206.700000 0 0 1
25.768675 -14.176349 -19.768529 35.437102 -0.502950 2.162587 0.002560 0.006788 -125112.000000 0 0 1
25.632475 -13.091549 -18.683929 34.314743 -0.472203 2.146574 0.000774 0.010260 -490191.000000 0 0 1
26.197375 -13.446149 -17.477129 34.242538 -0.474202 2.106437 -0.007156 0.012175 -70412.900000 0 0 1
25.896175 -12.574549 -16.457729 33.160036 -0.452042 2.090142 -0.018956 0.010189 -372572.000000 0 0 1
26.508375 -12.681749 -15.065929 33.022763 -0.446223 2.044549 -0.018109 0.011911 -521452.000000 0 0 1
25.956475 -13.795649 -14.352929 32.711849 -0.488522 2.025024 -0.013848 0.005037 616538.000000 0 0 1
26.450675 -13.919949 -12.953029 32.575821 -0.484435 1.979726 -0.005696 0.004688 53249.500000 0 0 1
26.056475 -15.190449 -12.209929 32.538776 -0.527812 1.955455 -0.012742 0.003462 588993.000000 0 0 1
24.668975 -15.251349 -11.824429 31.320585 -0.553723 1.957923 -0.020310 -0.000059 976578.000000 0 0 1
24.390175 -16.538049 -11.281329 31.554018 -0.595850 1.936412 -0.023320 -0.002833 -635740.000000 0 0 1
22.940775 -16.633249 -10.823329 30.332961 -0.627342 1.935655 -0.025934 -0.004362 -647624.000000 0 0 1
22.630375 -16.022049 -9.583129 29.337284 -0.616067 1.903557 -0.034419 -0.002151 -184034.000000 0 0 1
21.261875 -16.037649 -9.315429 28.214370 -0.646242 1.907276 -0.040973 -0.002401 -654665.000000 0 0 1
20.900775 -15.698349 -7.839529 27.289902 -0.644198 1.862170 -0.032999 0.004408 -386518.000000 0 0 1
21.205875 -14.341349 -7.665129 26.722979 -0.594636 1.861719 -0.027307 0.009531 414603.000000 0 0 1
21.043375 -13.875249 -6.339629 25.991095 -0.582930 1.817197 -0.029373 0.014252 -915362.000000 0 0 1
21.674675 -14.553149 -5.113129 26.603190 -0.591297 1.764200 -0.032022 0.011551 311174.000000 0 0 1
23.094675 -14.341749 -5.098829 27.659498 -0.555716 1.756199 -0.023925 0.012844 633954.000000 0 0 1
23.680175 -15.181149 -4.156829 28.434085 -0.570087 1.717514 -0.027468 0.009001 -409886.000000 0 0 1
25.211475 -15.110449 -4.321729 29.708946 -0.539940 1.716783 -0.014802 0.008711 -251794.000000 0 0 1
25.737975 -13.902449 -3.805129 29.499160 -0.495252 1.700148 -0.016908 0.016658 140128.000000 0 0 1
27.029375 -13.655649 -4.330429 30.591117 -0.467811 1.712832 -0.010243 0.010754 145089.000000 0 0 1
27.659475 -12.319949 -3.751829 30.510718 -0.419035 1.694076 -0.006267 0.011083 -933671.000000 0 0 1
27.978475 -12.424249 -2.354329 30.703418 -0.417907 1.647551 -0.006014 0.003078 503143.000000 0 0 1
28.718775 -11.406649 -1.727629 30.949384 -0.378077 1.626646 -0.009011 -0.000330 -952575.000000 0 0 1
30.089675 -11.063449 -2.229329 32.136557 -0.352340 1.640223 -0.006482 0.003206 -1883230.000000 0 0 1
30.035775 -10.405649 -3.435329 31.972281 -0.333501 1.678451 -0.008667 0.005179 89356.100000 0 0 1
31.199775 -10.588949 -4.219729 33.216831 -0.327193 1.698176 -0.002067 0.001749 -540837.000000 0 0 1
31.024075 -10.451149 -5.772329 33.242134 -0.324932 1.745326 -0.001511 -0.002972 -230406.000000 0 0 1
30.164975 -11.496949 -6.256429 32.882342 -0.364139 1.762231 -0.011161 -0.005788 446956.000000 0 0 1
30.043275 -11.252049 -7.686029 32.989119 -0.358357 1.805944 -0.008698 -0.005439 547710.000000 0 0 1
28.742275 -11.964349 -8.209829 32.197287 -0.394447 1.828629 -0.008152 -0.001871 546560.000000 0 0 1
28.642575 -13.316449 -7.857329 32.549386 -0.435190 1.814602 0.003806 -0.003949 -102809.000000 0 0 1
27.428175 -13.863949 -8.312229 31.837195 -0.468009 1.834943 0.002718 -0.005179 -244034.000000 0 0 1
27.405775 -15.398349 -8.389629 32.535696 -0.511907 1.831602 0.005904 -0.005177 -40630.700000 0 0 1
27.930775 -15.883049 -9.619029 33.539903 -0.517055 1.861674 0.007761 -0.007776 274579.000000 0 0 1
28.075075 -17.299949 -9.611329 34.349318 -0.552248 1.854394 0.006725 -0.009619 -212464.000000 0 0 1
28.293375 -17.838749 -11.037729 35.221690 -0.562539 1.889545 0.003965 -0.006708 -1044940.000000 0 0 1
29.607675 -17.650849 -11.430529 36.315614 -0.537590 1.890995 0.006932 0.000313 -616958.000000 0 0 1
29.937775 -18.213049 -12.707829 37.275654 -0.546546 1.918686 -0.002784 0.014490 -273292.000000 0 0 1
29.330375 -17.668949 -14.009529 36.996345 -0.542191 1.959159 -0.004281 0.008204 -165565.000000 0 0 1
29.717875 -16.295849 -14.302429 36.786767 -0.501577 1.970117 -0.001317 0.009076 637072.000000 0 0 1
28.995375 -15.823349 -15.466129 36.473432 -0.499551 2.008696 -0.003044 0.003535 -473486.000000 0 0 1
29.697075 -14.641949 -16.166229 36.846300 -0.458067 2.025001 0.001032 0.008455 -256457.000000 0 0 1
30.703675 -15.139749 -16.990729 38.217960 -0.458106 2.031495 -0.002556 0.008114 792649.000000 0 0 1
32.029875 -15.094349 -16.390329 39.017882 -0.440391 2.004321 0.013163 -0.000711 783547.000000 0 0 1
33.102875 -15.545749 -17.409129 40.503683 -0.439049 2.015085 0.018663 0.003450 741775.000000 0 0 1
34.455075 -15.616349 -16.927529 41.443501 -0.425543 1.991550 0.020645 0.003462 1027790.000000 0 0 1
-34.245971 -16.075349 -17.858729 41.834645 0.438876 2.011846 0.015359 0.007926 979774.000000 0 0 1
-32.787171 -16.129149 -17.272229 40.416307 0.457175 2.012365 0.011912 0.005379 341840.000000 0 0 1
-32.442471 -17.110249 -16.307029 40.139677 0.485329 1.989150 0.006560 -0.002675 156080.000000 0 0 1
-33.196071 -17.135249 -15.113129 40.298915 0.476510 1.955221 0.003369 -0.005273 -243550.000000 0 0 1
-32.489271 -18.065649 -14.071129 39.748170 0.507476 1.932648 0.002149 -0.012292 77209.400000 0 0 1
-31.229071 -17.616049 -13.577229 38.339551 0.513597 1.932781 0.008864 -0.009181 326793.000000 0 0 1
-30.889571 -18.189049 -12.360729 37.918263 0.532174 1.902848 0.012037 -0.003621 416714.000000 0 0 1
-29.404171 -17.870649 -12.003429 36.442388 0.546105 1.906444 0.012632 -0.004547 391953.000000 0 0 1
-29.243971 -16.477349 -11.740029 35.560387 0.513106 1.907252 0.003749 -0.012545 1051850.000000 0 0 1
-27.972271 -16.141749 -11.126929 34.158638 0.523383 1.902594 0.017419 -0.008840 1037550.000000 0 0 1
-28.134271 -16.085649 -9.606129 33.801819 0.519385 1.858957 0.002179 -0.006610 -96315.000000 0 0 1
-28.169871 -17.381549 -9.112629 34.332199 0.552845 1.839441 -0.013445 -0.005201 -107499.000000 0 0 1
-28.293271 -17.397849 -7.736729 34.103538 0.551312 1.799649 0.002140 -0.004150 -513221.000000 0 0 1
-28.435271 -18.794449 -7.096629 34.816060 0.584038 1.776067 -0.006211 -0.012447 -157939.000000 0 0 1
-29.572871 -19.552949 -7.422529 36.221077 0.584194 1.777181 -0.011457 -0.008891 -398018.000000 0 0 1
-29.761171 -19.915549 -8.820829 36.880393 0.589740 1.812311 -0.007901 -0.004346 106849.000000 0 0 1
-31.089671 -20.651549 -9.211129 38.443452 0.586333 1.812752 -0.011629 -0.001399 337922.000000 0 0 1
-32.167971 -19.787949 -9.527729 38.950210 0.551481 1.817917 -0.007208 -0.001704 -75960.400000 0 0 1
-33.173171 -20.681749 -9.961629 40.341394 0.557483 1.820310 -0.001077 -0.008071 -583909.000000 0 0 1
-34.552271 -20.166549 -10.335929 41.320461 0.528313 1.823622 0.010390 -0.012656 -383324.000000 0 0 1
-34.461371 -19.479649 -11.588729 41.247320 0.514484 1.855588 0.001894 -0.010332 883976.000000 0 0 1
33.854775 -19.448649 -12.070929 40.866894 -0.521438 1.870641 0.008637 -0.009427 632530.000000 0 0 1
33.603075 -19.394849 -13.644029 41.127683 -0.523467 1.908952 -0.005521 -0.005187 -394539.000000 0 0 1
33.954575 -20.586349 -14.309529 42.207505 -0.545032 1.916680 -0.004249 -0.001072 -160116.000000 0 0 1
33.433275 -20.587649 -15.565729 42.236560 -0.551944 1.948231 -0.003735 -0.001426 81111.700000 0 0 1
32.117575 -21.413549 -15.689829 41.668326 -0.588042 1.956856 -0.001482 0.001638 -442410.000000 0 0 1
31.084175 -20.814949 -14.952629 40.287332 -0.590053 1.951043 0.003765 -0.000809 -685438.000000 0 0 1
29.896375 -21.547449 -15.016729 39.794320 -0.624509 1.957739 0.004704 -0.001528 -196096.000000 0 0 1
28.947275 -21.338349 -16.217829 39.449814 -0.635223 1.994457 0.017138 -0.003398 -382960.000000 0 0 1
28.159575 -20.139949 -16.129829 38.193593 -0.620860 2.006797 -0.001569 0.007093 815367.000000 0 0 1
27.290575 -19.942049 -17.258929 37.951698 -0.631054 2.042899 0.007763 0.002011 363321.000000 0 0 1
26.525175 -18.597949 -17.134229 36.647652 -0.611493 2.057302 0.005340 -0.003270 -265669.000000 0 0 1
25.667275 -18.455849 -16.044429 35.452095 -0.623392 2.040438 -0.006726 -0.001767 -7765.370000 0 0 1
25.276575 -17.074449 -15.893529 34.395440 -0.594096 2.051138 -0.013877 0.000262 166492.000000 0 0 1
23.813775 -16.933049 -15.305529 32.986106 -0.618111 2.053301 -0.022036 -0.000220 1721820.000000 0 0 1
22.706475 -17.417149 -16.109029 32.839639 -0.654328 2.083501 -0.018663 0.001980 1055060.000000 0 0 1
22.510075 -16.575849 -17.247829 32.847371 -0.634724 2.123617 -0.006688 0.006048 -932682.000000 0 0 1
21.480175 -17.221049 -18.218329 33.013178 -0.675788 2.155378 -0.009496 0.005386 64291.800000 0 0 1
20.201375 -17.371149 -17.653129 31.960684 -0.710213 2.155964 -0.010384 0.006590 -347614.000000 0 0 1
19.336375 -18.074449 -18.521029 32.304947 -0.751679 2.181347 -0.015147 0.003087 300246.000000 0 0 1
17.918775 -18.260849 -17.927529 31.239996 -0.794853 2.182013 -0.013913 0.002587 142933.000000 0 0 1
17.138575 -17.083849 -17.861129 30.076711 -0.783799 2.206635 -0.014330 0.006657 64280.500000 0 0 1
15.787875 -17.418949 -17.636929 29.389420 -0.834477 2.214437 -0.009369 0.003314 92828.400000 0 0 1
14.765575 -16.248149 -17.625129 28.154390 -0.833166 2.247231 -0.004970 0.013408 12998.600000 0 0 1
14.491275 -15.654149 -18.868229 28.479106 -0.823955 2.294986 -0.002327 0.024405 1288510.000000 0 0 1
13.295175 -14.823549 -18.715029 27.326755 -0.839699 2.325209 0.005420 0.018795 1148590.000000 0 0 1
12.711175 -14.297949 -20.010029 27.684049 -0.844080 2.378642 0.007021 0.021345 71024.100000 0 0 1
13.216875 -13.038349 -20.498629 27.656429 -0.778599 2.405635 0.007305 0.017161 591992.000000 0 0 1
12.271075 -12.548649 -21.481629 27.740011 -0.796581 2.456549 0.012753 0.011834 659673.000000 0 0 1
12.558675 -11.090849 -21.916029 27.586945 -0.723412 2.488873 0.004976 0.011632 -268143.000000 0 0 1
13.710975 -11.021349 -22.701329 28.719528 -0.677074 2.482338 -0.001364 0.015730 -607021.000000 0 0 1
14.063675 -9.694749 -23.032229 28.675053 -0.603540 2.503469 -0.000565 0.014423 280660.000000 0 0 1
15.216575 -9.620349 -24.052729 30.043785 -0.563780 2.499074 0.002592 0.011091 121398.000000 0 0 1
14.877375 -10.160849 -25.284479 31.046481 -0.599207 2.522503 0.010511 0.009158 662848.000000 0 0 1
16.010975 -10.151449 -26.186709 32.328732 -0.565067 2.514971 0.023602 0.003886 571783.000000 0 0 1
21.812075 5.003451 -7.062729 23.466642 0.225488 1.876505 0.033610 0.014018 -224837.000000 0 1 0
21.951775 6.365851 -7.123529 23.940533 0.282251 1.872923 0.013126 0.008766 173852.000000 0 1 0
21.283575 6.983751 -6.066229 23.206949 0.317059 1.835266 -0.007513 0.014077 -395137.000000 0 1 0
21.208175 8.482951 -6.286029 23.690954 0.380493 1.839347 -0.015923 0.012855 -795666.000000 0 1 0
20.246975 8.807251 -7.228329 23.232658 0.410303 1.887176 -0.002029 0.019067 -58389.900000 0 1 0
20.139675 10.202451 -7.560429 23.808750 0.468901 1.893939 0.010006 0.023352 288705.000000 0 1 0
19.291375 11.029251 -6.532429 23.161912 0.519365 1.856709 -0.003224 0.015095 92669.300000 0 1 0
20.108775 11.298751 -5.425929 23.695259 0.511920 1.801834 -0.015759 0.011904 435027.000000 0 1 0
19.426275 12.114751 -4.457329 23.324132 0.557611 1.763083 -0.007882 0.005637 88387.300000 0 1 0
20.337275 12.558951 -3.302829 24.129664 0.553212 1.708106 -0.012214 -0.002882 447122.000000 0 1 0
21.532675 13.310051 -3.704029 25.583850 0.553646 1.716087 -0.008623 -0.006816 1235090.000000 0 0 1
22.203275 13.832151 -2.583329 26.286639 0.557144 1.669231 -0.008505 -0.011030 -267561.000000 0 0 1
23.005375 12.854051 -1.725529 26.409304 0.509530 1.636181 -0.013796 -0.006466 -1206940.000000 0 0 1
24.159475 12.392351 -2.396029 27.257871 0.473946 1.658812 -0.013048 -0.012979 239423.000000 0 0 1
24.851775 11.429651 -1.632829 27.402806 0.431067 1.630418 -0.012679 -0.014070 213729.000000 0 0 1
26.266475 11.019751 -2.164829 28.566573 0.397234 1.646651 -0.005674 -0.013156 20956.300000 0 0 1
27.147575 12.061151 -2.009129 29.774129 0.418088 1.638327 0.000448 -0.024684 -1315990.000000 0 0 1
28.450375 11.648851 -2.233429 30.823818 0.388622 1.643318 0.002583 -0.022826 -337236.000000 0 0 1
29.519875 12.764451 -1.966429 32.221438 0.408123 1.631863 0.000250 -0.022465 -123418.000000 0 0 1
29.661575 13.122251 -0.590729 32.439967 0.416515 1.589007 0.005531 -0.021003 525786.000000 0 0 1
30.653175 14.108351 -0.354129 33.745935 0.431351 1.581290 0.002090 -0.022537 608657.000000 0 0 1
32.169475 13.748151 -0.361729 34.985963 0.403873 1.581136 0.009614 -0.024014 839207.000000 0 0 1
33.136775 14.807351 -0.207329 36.295268 0.420236 1.576509 0.013232 -0.017619 627700.000000 0 0 1
33.783675 15.330551 -1.339929 37.123549 0.425998 1.606898 0.010759 -0.006143 -104056.000000 0 0 1
32.880075 16.180751 -2.308729 36.718473 0.457319 1.633714 -0.016852 0.009962 -52722.800000 0 0 1
31.926175 15.479451 -3.028129 35.609881 0.451455 1.655935 -0.001767 0.004573 -395800.000000 0 0 1
31.209675 16.357351 -3.899329 35.451537 0.482750 1.681010 -0.007877 0.006749 194949.000000 0 0 1
29.825475 15.990251 -4.466729 34.135008 0.492130 1.702027 -0.000994 -0.006040 -603670.000000 0 0 1
29.836575 14.906151 -5.402729 33.787631 0.463322 1.731388 -0.002580 -0.010594 396755.000000 0 0 1
28.622375 14.824551 -6.137229 32.812699 0.477893 1.758943 -0.005532 -0.017723 1070430.000000 0 0 1
27.299575 14.385651 -5.424829 31.331175 0.484978 1.744818 -0.006972 -0.016400 81448.500000 0 0 1
26.176775 14.020251 -6.174829 30.330175 0.491720 1.775817 -0.013756 -0.013165 19513.500000 0 0 1
25.149575 13.466651 -5.380429 29.031032 0.491613 1.757208 -0.011622 -0.010562 -336223.000000 0 0 1
23.969175 12.981951 -6.203029 27.955857 0.496379 1.794545 -0.018483 -0.004466 -512174.000000 0 0 1
24.380275 12.000151 -7.204029 28.112265 0.457394 1.829947 -0.019649 0.001815 625521.000000 0 0 1
23.468775 11.818751 -8.313829 27.560588 0.466519 1.877226 -0.019312 0.004345 143903.000000 0 0 1
23.474775 12.968451 -9.303129 28.386511 0.504716 1.904697 -0.014906 0.006053 140155.000000 0 0 1
22.708875 14.074851 -8.820929 28.135444 0.554848 1.889690 -0.014997 0.004581 247149.000000 0 0 1
22.460875 15.012051 -9.778129 28.730896 0.589177 1.918069 -0.012343 0.003964 -599218.000000 0 0 1
21.792175 16.275951 -9.209529 28.716213 0.641496 1.897274 -0.006480 0.001580 1537670.000000 0 0 1
20.399075 16.193251 -8.791829 27.488905 0.670963 1.896348 -0.010503 0.007618 1410820.000000 0 0 1
20.202375 15.488751 -7.577229 26.560342 0.654091 1.860099 -0.005096 0.001092 373709.000000 0 0 1
18.810275 14.727651 -7.501729 25.040090 0.664263 1.875058 0.004781 -0.000830 1368800.000000 0 0 1
17.760675 15.621751 -7.891829 24.935149 0.721412 1.892828 0.005054 -0.000795 748895.000000 0 1 0
16.403875 15.264751 -7.625429 23.669535 0.749444 1.898809 0.011997 0.000248 1249790.000000 0 1 0
15.878175 15.451951 -6.093429 22.978449 0.771795 1.839187 0.018645 0.000710 -126462.000000 0 1 0
16.361475 14.430951 -5.283429 22.446934 0.722785 1.808400 0.020677 -0.001290 447823.000000 0 1 0
15.876175 14.785551 -4.015729 22.063353 0.749844 1.753826 0.013673 0.002503 19695.100000 0 1 0
15.736975 13.514051 -3.143329 20.980049 0.709549 1.721187 0.012939 0.001827 274439.000000 0 1 0
17.016375 13.201751 -2.604729 21.693959 0.659826 1.691154 0.023078 0.005271 636475.000000 0 1 0
16.801075 12.474651 -1.407929 20.973204 0.638678 1.637977 0.011930 0.004593 57633.100000 0 1 0
16.686075 13.247751 -0.082829 21.305747 0.671035 1.574684 0.009510 0.001901 76953.600000 0 1 0
15.612475 14.176651 -0.096029 21.088766 0.737236 1.575350 0.004033 -0.002672 376646.000000 0 1 0
15.779475 14.990551 1.038571 21.789610 0.759764 1.523115 0.009177 -0.000837 281171.000000 0 1 0
14.501675 15.787851 1.479571 21.488228 0.827835 1.501887 0.002799 -0.001620 254851.000000 0 1 0
14.286275 16.895651 0.661971 22.135919 0.868886 1.540887 0.002903 -0.005508 -333086.000000 0 1 0
13.104675 17.551451 0.973971 21.925660 0.929447 1.526360 -0.013563 -0.014464 -610395.000000 0 1 0
13.266175 19.000551 0.596371 23.181199 0.961280 1.545067 -0.026729 -0.014960 -1038740.000000 0 1 0
13.152075 19.224851 -0.824029 23.307746 0.970809 1.606158 -0.014267 -0.011170 180212.000000 0 1 0
12.561575 20.505451 -1.109429 24.072755 1.021166 1.616899 -0.022271 -0.011123 792341.000000 0 1 0
11.016075 20.582551 -0.846329 23.360471 1.079376 1.607033 -0.022162 -0.011249 19141.100000 0 1 0
10.546475 20.379851 0.458471 22.951616 1.093251 1.550819 -0.023411 -0.028690 -923250.000000 0 1 0
9.157075 20.340051 0.272371 22.307933 1.147777 1.558586 -0.011512 -0.018440 -194053.000000 0 1 0
8.348075 20.432651 1.591871 22.129565 1.182928 1.498800 -0.001292 -0.020341 -40683.000000 0 1 0
8.293875 21.710951 2.182371 23.343447 1.205891 1.477170 0.000529 -0.011763 187244.000000 0 1 0
7.249175 21.729151 3.141571 23.120900 1.248792 1.434499 -0.011377 -0.005607 230332.000000 0 1 0
6.753875 23.178051 3.467171 24.389714 1.287256 1.428156 -0.016684 -0.000808 205976.000000 0 1 0
7.370475 23.734651 4.632371 25.280752 1.269701 1.386518 -0.015908 0.003936 298791.000000 0 0 1
6.758875 24.993451 4.944071 26.359037 1.306688 1.382112 -0.012547 0.009119 23172.700000 0 0 1
7.128775 25.515951 6.334071 27.239744 1.298358 1.336118 -0.020278 0.006697 -98982.300000 0 0 1
6.770275 24.617451 7.401671 26.582706 1.302412 1.288628 -0.026427 0.004623 -186310.000000 0 0 1
7.583775 24.843851 8.532771 27.341155 1.274523 1.253409 -0.017683 0.006494 -142953.000000 0 0 1
7.296675 23.811851 9.644971 26.707138 1.273451 1.201308 -0.012030 -0.000231 228827.000000 0 0 1
6.204575 24.171051 10.496071 27.072200 1.319527 1.172654 -0.014139 0.005288 226369.000000 0 0 1
5.928975 23.031151 11.323371 26.340186 1.318834 1.126426 -0.026541 0.004521 -436635.000000 0 0 1
4.593275 23.264551 12.042371 26.596170 1.375867 1.100909 -0.009956 0.005651 117663.000000 0 0 1
3.561775 23.539451 11.099271 26.267581 1.420625 1.134543 -0.013789 0.009924 -172495.000000 0 0 1
2.328275 23.867151 11.695371 26.680395 1.473553 1.117033 -0.020855 0.008857 228814.000000 0 0 1
1.164175 24.079251 10.689271 26.370934 1.522486 1.153442 -0.001815 0.010465 -225340.000000 0 0 1
1.311475 25.174451 9.787971 27.042140 1.518748 1.200435 -0.004981 0.012595 517160.000000 0 0 1
0.411975 25.169851 8.637171 26.613753 1.554430 1.240273 -0.012351 0.007072 634775.000000 0 0 1
-1.037825 25.671751 8.836171 27.169723 -1.530392 1.239551 0.003206 0.004087 -156109.000000 0 0 1
-1.749825 24.833651 9.679471 26.710752 -1.500451 1.199975 0.006909 0.000870 -78853.400000 0 0 1
-3.127025 25.149651 9.484671 27.059975 -1.447094 1.212685 0.016432 -0.004284 -181359.000000 0 0 1
-4.140225 24.381751 10.341171 26.805803 -1.402592 1.174742 0.028428 -0.015134 -224264.000000 0 0 1
-4.349725 24.835851 11.655771 27.777628 -1.397416 1.137781 0.014451 -0.007284 124863.000000 0 0 1
-5.264825 25.927951 11.701671 28.929331 -1.370464 1.154373 0.019987 -0.006956 -65830.100000 0 0 1
-5.801325 26.116651 13.162971 29.816081 -1.352214 1.113558 0.006582 0.008032 331224.000000 0 0 1
-6.874525 25.260851 13.564371 29.484943 -1.305090 1.092752 0.009287 -0.010989 436176.000000 0 0 1
-7.036925 25.320651 15.000871 30.260202 -1.299724 1.052122 -0.000314 0.007695 -11873.400000 0 0 1
-8.148525 24.436251 15.611671 30.120643 -1.248931 1.025929 0.001892 -0.001819 -198360.000000 0 0 1
-9.455325 24.795651 15.279071 30.621521 -1.206488 1.048392 -0.003956 0.005673 -249066.000000 0 0 1
-10.394525 23.740851 15.478771 30.187192 -1.158107 1.032400 -0.006924 0.000162 124693.000000 0 0 1
-11.846625 24.163551 15.243971 30.928925 -1.114964 1.055410 -0.014506 -0.000484 -277541.000000 0 0 1
-12.359625 25.047151 16.236171 32.306863 -1.112399 1.044238 -0.012252 0.005634 -330796.000000 0 0 1
-13.319725 25.865851 15.641771 33.032141 -1.095257 1.077500 -0.014652 0.008910 -530037.000000 0 0 1
-13.907425 26.958651 16.542071 34.551780 -1.094526 1.071553 -0.011087 0.012142 78168.000000 0 0 1
-15.027225 26.542051 17.320971 35.075833 -1.055626 1.054325 -0.005075 0.003653 168659.000000 0 0 1
-15.292325 27.483051 18.294171 36.384750 -1.063032 1.043964 -0.000770 0.015433 -538268.000000 0 0 1
-16.572325 27.057951 19.026071 36.996839 -1.021254 1.030649 0.011095 0.001472 358488.000000 0 0 1
-17.752525 27.464551 18.320371 37.484527 -0.996970 1.060146 0.009528 0.004556 641904.000000 0 0 1
-18.938025 27.153751 19.047671 38.194094 -0.961793 1.048690 0.018863 0.006982 1472410.000000 0 0 1
-20.290425 27.341951 18.225671 38.619409 -0.932371 1.079317 0.019680 0.001390 859286.000000 0 0 1
-20.708425 28.689551 18.203871 39.790830 -0.945582 1.095627 0.018964 -0.000546 203206.000000 0 0 1
-21.373725 28.972451 16.969571 39.802078 -0.935197 1.130344 0.020484 -0.004149 98950.100000 0 0 1
-22.352125 30.209351 16.983271 41.238986 -0.933786 1.146340 -0.000292 -0.006390 472429.000000 0 0 1
-23.508725 29.838151 17.750371 41.929120 -0.903493 1.133665 -0.014483 0.001244 44738.000000 0 0 1
-24.482425 30.803251 17.452871 43.044537 -0.899234 1.153313 -0.022253 0.006063 -970630.000000 0 0 1
-25.850415 30.519351 18.029871 43.871985 -0.868036 1.147283 -0.028091 0.010755 -678886.000000 0 0 1
-26.690585 29.646351 17.279971 43.472876 -0.837816 1.162018 -0.014556 0.009930 836718.000000 0 0 1
-28.036135 29.554251 17.775671 44.446070 -0.811753 1.159347 0.003389 0.007657 698828.000000 0 0 1
-28.303395 28.556651 18.985171 44.463482 -0.789852 1.129642 0.006664 0.007557 -535355.000000 0 0 1
-28.273645 27.176551 18.596671 43.402767 -0.765616 1.128000 0.003101 0.010093 283988.000000 0 0 1
-28.621155 26.286051 19.688871 43.563502 -0.742896 1.101837 0.001832 0.011042 42441.900000 0 0 1
-28.674915 24.831651 19.271971 42.547274 -0.713693 1.100720 0.005130 0.008316 277821.000000 0 0 1
-29.824285 24.569851 18.502071 42.842645 -0.689098 1.124241 0.015167 0.010046 601038.000000 0 0 1
-29.303455 23.823651 17.385671 41.575479 -0.682616 1.139365 0.013033 0.007988 283282.000000 0 0 1
-29.693585 22.302451 17.326171 40.979319 -0.644196 1.134260 0.010620 0.007163 79114.100000 0 0 1
-31.026655 22.056651 16.910671 41.654772 -0.618000 1.152754 0.005391 0.010631 115877.000000 0 0 1
-31.166615 20.644151 16.776671 40.975549 -0.585029 1.148966 0.000696 0.004101 -832400.000000 0 0 1
-32.464065 20.157651 16.204671 41.507082 -0.555661 1.169722 0.000816 -0.005931 -927901.000000 0 0 1
-32.644055 20.462351 14.872771 41.298202 -0.559916 1.202388 0.008399 -0.013332 -641717.000000 0 0 1
-33.905535 20.061151 14.453371 41.963497 -0.534278 1.219168 0.008266 -0.009207 -421687.000000 0 0 1
-34.031395 20.224751 12.906171 41.638272 -0.536215 1.255646 0.017357 -0.003322 -18462.900000 0 0 1
-34.040715 21.633451 12.579271 42.249433 -0.566126 1.268474 0.017404 -0.003554 -1259.450000 0 0 1
-34.112275 22.082851 11.226571 42.158458 -0.574516 1.301250 0.013658 -0.008373 176042.000000 0 0 1
-32.923225 21.715551 10.292471 40.760752 -0.583081 1.315524 0.023530 -0.012111 41025.700000 0 0 1
-33.062625 20.344451 9.913871 40.066429 -0.551616 1.320763 0.021262 -0.007989 583918.000000 0 0 1
-31.918505 19.763251 9.260971 38.667075 -0.554402 1.328940 0.028700 -0.007678 726455.000000 0 0 1
-31.132005 18.790751 10.209271 37.769344 -0.543050 1.297086 0.026592 -0.012002 131999.000000 0 0 1
-30.608415 19.293451 11.440371 37.947259 -0.562424 1.264551 0.031140 -0.007299 152083.000000 0 0 1
-30.276795 18.254651 12.272671 37.423724 -0.542568 1.236676 0.033248 -0.011142 -182731.000000 0 0 1
-29.905035 18.792151 13.712171 37.887725 -0.561036 1.200474 0.016565 -0.006396 575672.000000 0 0 1
-28.667935 19.505151 13.830971 37.330915 -0.597438 1.191253 0.010760 0.001021 539351.000000 0 0 1
-28.849895 20.844551 13.505071 38.068343 -0.625679 1.208140 0.009384 0.005949 237857.000000 0 0 1
-27.570785 21.633251 13.881071 37.693898 -0.665307 1.193662 0.011678 0.002537 253892.000000 0 0 1
-27.288035 21.752051 15.277971 38.094685 -0.672987 1.158131 0.011716 0.002710 -472999.000000 0 0 1
-26.210075 22.631151 15.439371 37.914526 -0.712252 1.151393 0.021784 0.000454 -463104.000000 0 0 1
-25.566755 22.391151 16.833071 37.925914 -0.719278 1.110916 0.021391 0.006609 -504652.000000 0 0 1
-24.844225 21.200351 17.057471 36.846272 -0.706425 1.089492 0.030076 0.010933 26790.100000 0 0 1
-24.605325 20.858251 18.426371 37.148618 -0.703165 1.051790 0.023223 0.016407 81103.600000 0 0 1
-23.614425 19.661451 18.486271 35.860228 -0.694307 1.029195 0.018903 0.017629 234704.000000 0 0 1
-23.370625 19.185551 19.801871 36.143957 -0.687371 0.990991 0.009771 0.014847 526949.000000 0 0 1
-22.332225 18.169351 19.872871 34.982633 -0.682975 0.966628 0.007341 0.019342 838906.000000 0 0 1
-21.657325 18.219151 21.285771 35.412728 -0.699390 0.925948 0.019146 0.017417 408252.000000 0 0 1
-22.530325 17.668151 22.287871 36.283996 -0.665029 0.909346 0.027900 0.015438 632978.000000 0 0 1
-22.100625 18.091251 23.587371 37.041802 -0.685971 0.880485 0.045399 0.007461 385047.000000 0 0 1
-22.881025 17.331351 24.729571 37.887581 -0.648255 0.859641 0.027221 0.014421 -46867.200000 0 0 1
-22.393525 16.039051 24.908571 37.137018 -0.621540 0.835616 0.027857 -0.003403 -153044.000000 0 0 1
-23.355825 15.207151 25.468171 37.754202 -0.577153 0.830403 0.020193 -0.017071 -436668.000000 0 0 1
19.798775 24.722651 34.219041 46.627715 0.895546 0.746783 -0.015597 -0.002074 103237.000000 0 0 1
20.267775 23.679151 33.424030 45.701758 0.862868 0.750495 -0.024296 -0.002341 -20254.500000 0 0 1
19.714275 22.461551 33.927262 45.213195 0.850445 0.722153 -0.014084 -0.005916 176314.000000 0 0 1
18.763775 21.754451 32.933584 43.703047 0.859075 0.717311 -0.004095 -0.008673 112430.000000 0 0 1
19.471575 21.170751 31.834794 42.904511 0.827182 0.734760 -0.002952 -0.006959 -64510.100000 0 0 1
18.668475 20.272551 31.126354 41.573287 0.826567 0.724682 -0.007401 -0.004427 -762160.000000 0 0 1
19.280875 19.695551 29.824394 40.609868 0.796037 0.745996 0.001503 0.002058 -258226.000000 0 0 1
20.461975 18.931151 29.978414 40.936368 0.746558 0.749077 -0.006698 -0.002561 -68842.100000 0 0 1
20.640275 18.144051 28.833794 39.832339 0.721125 0.761388 -0.005605 -0.008497 845858.000000 0 0 1
21.958575 17.258951 28.876894 40.173690 0.666132 0.768720 0.010328 -0.008545 801999.000000 0 0 1
23.169275 17.950551 28.992154 41.225994 0.659158 0.790839 0.022462 -0.014707 -110423.000000 0 0 1
24.163075 17.104051 29.566074 41.839640 0.615981 0.786041 0.029612 -0.008081 479237.000000 0 0 1
25.542875 17.737951 29.863174 43.114760 0.606984 0.805648 0.021724 -0.019419 395960.000000 0 0 1
26.334575 17.937651 28.708944 42.889073 0.597959 0.837427 0.019702 -0.005293 -590356.000000 0 0 1
27.646675 18.297651 28.971924 44.028571 0.584653 0.852603 0.006477 -0.005602 -606188.000000 0 0 1
28.679675 18.058351 27.890804 43.892195 0.561941 0.882220 0.020559 0.010367 -357687.000000 0 0 1
28.524175 19.003551 26.865944 43.549311 0.587698 0.905988 0.001800 0.012068 -231069.000000 0 0 1
29.681975 19.212851 26.116654 43.957171 0.574468 0.934602 0.014451 0.010133 -615586.000000 0 0 1
29.641675 20.492151 25.268184 44.011797 0.604883 0.959264 -0.000674 0.013645 222491.000000 0 0 1
28.729875 20.434751 24.155984 42.737528 0.618251 0.970100 -0.000335 0.011603 627653.000000 0 0 1
28.879075 21.482451 23.275284 42.862985 0.639570 0.996772 -0.006998 0.004240 59879.300000 0 0 1
29.696375 21.134951 21.962684 42.554910 0.618536 1.028502 -0.011767 0.012986 230184.000000 0 0 1
28.948075 20.222651 21.155384 41.164268 0.609775 1.031041 -0.006661 0.011486 167366.000000 0 0 1
29.606875 19.828651 20.015684 40.870161 0.590121 1.059007 -0.011328 0.004908 -645497.000000 0 0 1
30.680175 18.751951 20.227584 41.256078 0.548620 1.058370 -0.002506 0.001692 -653921.000000 0 0 1
30.236375 17.375951 20.395184 40.399574 0.521587 1.041604 0.003483 0.003744 616369.000000 0 0 1
31.315375 16.467651 20.625784 40.954355 0.484125 1.043003 0.000555 0.010635 -505334.000000 0 0 1
30.819875 14.983551 20.590684 39.979342 0.452519 1.029750 -0.001994 0.012488 223704.000000 0 0 1
30.215475 14.507951 21.790984 39.978776 0.447642 0.994331 0.000654 0.005174 -470131.000000 0 0 1
28.977475 15.039251 22.077584 39.411836 0.478730 0.976197 0.003434 0.012152 -1710650.000000 0 0 1
28.277075 14.466151 23.274684 39.377321 0.472873 0.938414 0.004100 0.006425 -287686.000000 0 0 1
27.735975 13.189151 23.090684 38.424181 0.443877 0.926118 0.008450 0.005913 -185147.000000 0 0 1
26.924675 12.866451 24.183884 38.410206 0.445786 0.889731 0.011443 0.006604 -292401.000000 0 0 1
26.349075 11.447551 24.079984 37.485541 0.409854 0.873196 0.011513 0.005946 -358722.000000 0 0 1
25.268475 11.381051 23.180884 36.130009 0.423191 0.874219 0.012244 0.004556 -120087.000000 0 0 1
24.837875 10.046751 23.103884 35.378619 0.384374 0.859196 0.006545 0.009673 498831.000000 0 0 1
23.539175 9.861951 22.229884 33.845510 0.396743 0.854223 0.005072 0.003361 438983.000000 0 0 1
22.322975 9.982851 22.943884 33.531990 0.420524 0.817237 -0.010754 0.003771 729956.000000 0 0 1
21.255175 9.622551 22.022984 32.084073 0.425110 0.814249 -0.026207 0.017917 955821.000000 0 0 1
19.837175 9.680651 22.669684 31.640845 0.454006 0.772069 -0.020352 0.003637 223829.000000 0 0 1
19.643975 8.794651 23.709084 32.021123 0.420941 0.737101 -0.010978 0.009294 -447556.000000 0 0 1
18.264975 8.623251 23.787384 31.205919 0.441096 0.703981 -0.011846 0.013367 -779056.000000 0 0 1
17.979275 7.757851 25.059284 31.802614 0.407354 0.663303 -0.008380 0.013500 -342422.000000 0 0 1
18.330475 6.369351 25.032794 31.673581 0.334422 0.659438 -0.004859 0.011540 256856.000000 0 0 1
17.937475 5.711251 26.221744 32.279270 0.308249 0.622643 -0.003286 0.003151 -165238.000000 0 0 1
18.203775 4.184751 26.030424 32.038610 0.225958 0.622419 0.007225 -0.004146 -125657.000000 0 0 1
19.580275 3.969751 25.877044 32.692009 0.200031 0.657471 0.017593 -0.001008 -305030.000000 0 0 1
19.849075 2.568251 25.633424 32.521594 0.128674 0.662923 0.002857 0.001186 921966.000000 0 0 1
21.372975 2.242951 25.343744 33.228606 0.104561 0.703305 0.007722 0.014057 1103660.000000 0 0 1
22.124975 2.652851 26.504684 34.627307 0.119333 0.699091 0.011491 0.011385 648380.000000 0 0 1
23.519575 2.441551 26.246654 35.327304 0.103439 0.733320 0.017582 0.013350 801314.000000 0 0 1
24.370575 3.004651 27.424544 36.811119 0.122671 0.730251 0.015646 0.007310 -783480.000000 0 0 1
24.339775 2.142551 28.528754 37.562015 0.087800 0.708236 0.008993 0.002507 39243.500000 0 0 1
25.102675 2.490451 29.650714 38.929570 0.098887 0.704940 0.014496 0.007752 -277480.000000 0 0 1
26.631175 2.462351 29.503754 39.821529 0.092199 0.736388 0.018204 0.006073 -973780.000000 0 0 1
27.027475 3.615251 28.774794 39.642694 0.132973 0.758522 0.011969 0.018139 94246.600000 0 0 1
28.396675 3.763651 28.422544 40.353156 0.131770 0.789296 0.005428 0.015917 -43248.600000 0 0 1
28.854175 2.905551 27.283474 39.817001 0.100359 0.815888 0.000767 0.010244 -1118970.000000 0 0 1
28.396075 3.354151 26.024874 38.663697 0.117575 0.832392 0.003544 0.017562 81709.700000 0 0 1
28.513075 2.209151 25.121904 38.065547 0.077324 0.850025 0.008971 0.025411 -399189.000000 0 0 1
28.103275 2.518251 23.652184 36.817950 0.089368 0.873159 0.013772 0.021157 257396.000000 0 0 1
28.897575 3.380051 22.840484 36.988948 0.116438 0.905243 0.011932 0.019362 36181.800000 0 0 1
30.225775 2.916051 22.603184 37.855049 0.096178 0.930917 0.006712 0.015688 282509.000000 0 0 1
31.065275 4.009451 21.899184 38.219121 0.128356 0.960647 0.001969 0.014132 -491177.000000 0 0 1
30.651175 4.337151 20.599384 37.183868 0.140567 0.983650 0.002137 0.004057 -300473.000000 0 0 1
30.897875 5.662751 20.196184 37.344762 0.181262 0.999404 -0.002098 0.015534 807233.000000 0 0 1
32.426775 5.969251 19.947184 38.535929 0.182046 1.026723 -0.017130 0.012264 955628.000000 0 0 1
33.296575 6.152351 21.068084 39.879537 0.182714 1.014207 -0.013107 0.016780 460386.000000 0 0 1
33.117575 7.375351 21.755584 40.304776 0.219126 1.000624 -0.004032 0.017813 -616664.000000 0 0 1
33.816775 7.298751 23.109084 41.603795 0.212572 0.981885 -0.007093 0.011278 -1029330.000000 0 0 1
33.178575 6.448851 23.998584 41.452835 0.191974 0.953372 -0.007355 0.013336 -337524.000000 0 0 1
33.774275 6.219051 25.223964 42.610170 0.182096 0.937295 -0.002777 0.002218 -563606.000000 0 0 1
32.977275 5.199251 26.016574 42.324874 0.156374 0.908807 -0.000267 0.001414 -160248.000000 0 0 1
32.934775 3.880651 25.519554 41.845029 0.117288 0.914914 -0.002225 0.000367 31654.200000 0 0 1
32.212775 3.016851 26.382924 41.747131 0.093382 0.886704 -0.006971 0.011532 -410876.000000 0 0 1
32.392275 1.485751 26.046664 41.592014 0.045835 0.894073 -0.014860 0.007210 -81880.800000 0 0 1
31.816575 1.159251 24.787874 40.349436 0.036419 0.909260 -0.011930 0.004592 -12876.900000 0 0 1
32.023575 -0.218049 24.491464 40.316109 -0.006809 0.917905 -0.005108 0.008071 -208487.000000 0 0 1
30.929975 -0.779849 23.570384 38.895173 -0.025208 0.919777 0.002647 0.006931 -19942.300000 0 0 1
29.705875 -0.963249 24.251094 38.359906 -0.032415 0.886408 0.003706 0.009124 -270853.000000 0 0 1
28.837675 -1.795349 23.491384 37.238151 -0.062177 0.888159 0.019669 -0.003986 -93239.700000 0 0 1
27.393275 -1.825049 24.013484 36.474233 -0.066526 0.852147 0.015691 0.005447 -388984.000000 0 0 1
26.748075 -0.626949 23.853384 35.844616 -0.023435 0.842678 0.016011 0.013697 -409889.000000 0 0 1
25.414075 -0.866349 23.450184 34.590994 -0.034076 0.825857 0.026388 0.016043 176995.000000 0 0 1
24.554675 0.417851 23.261484 33.826074 0.017016 0.812509 0.020713 0.015859 -37784.000000 0 0 1
24.853975 1.214351 22.120884 33.294567 0.048821 0.844107 0.009684 0.013706 616394.000000 0 0 1
24.004575 2.406551 22.142284 32.745867 0.099920 0.828224 0.004124 0.018144 598401.000000 0 0 1
23.983575 3.262951 20.901884 31.980423 0.135219 0.858486 -0.004059 0.013168 41473.300000 0 0 1
23.327975 2.526351 19.872884 30.749120 0.107877 0.868082 -0.000285 0.016778 273173.000000 0 0 1
22.855575 3.368451 18.869584 29.829263 0.146326 0.885908 -0.002747 0.015740 -280665.000000 0 0 1
22.771175 2.883451 17.398384 28.801813 0.125957 0.922195 -0.004710 0.023622 122237.000000 0 0 1
24.032775 2.899451 16.730584 29.426069 0.120065 0.966038 -0.007806 0.014385 463102.000000 0 0 1
24.040675 3.040951 15.322984 28.670460 0.125824 1.006937 -0.015274 0.011002 -307332.000000 0 0 1
23.487175 1.839951 14.410384 27.616878 0.078179 1.021841 -0.016755 0.027525 423381.000000 0 0 1
22.067975 1.758751 14.396484 26.407337 0.079529 0.994205 0.003220 0.022745 515211.000000 0 0 1
21.733375 0.559251 13.825984 25.764514 0.025727 1.004359 0.006135 0.024082 -538250.000000 0 0 1
20.205875 0.434251 13.708384 24.421010 0.021488 0.974797 0.009673 0.000304 -235701.000000 0 1 0
19.495875 1.245451 12.757984 23.332519 0.063796 0.992271 0.033316 0.001538 588392.000000 0 1 0
19.553075 0.983451 11.341584 22.625681 0.050254 1.045730 0.037687 -0.003757 -955420.000000 0 1 0
19.330475 -0.495449 10.861684 22.178568 -0.025625 1.059007 0.038211 -0.004136 -118456.000000 0 1 0
20.321775 -1.462949 11.100484 23.202058 -0.071865 1.071934 0.030193 -0.008557 -168766.000000 0 1 0
21.597275 -1.282249 10.569184 24.078914 -0.059301 1.116378 0.032853 -0.002450 -990066.000000 0 1 0
22.599575 -2.344749 11.007184 25.246717 -0.103382 1.119664 0.009652 -0.003705 -536167.000000 0 0 1
23.029575 -2.116849 12.314984 26.201168 -0.091661 1.081487 0.007595 -0.006356 298782.000000 0 0 1
23.975775 -3.115449 12.706284 27.312880 -0.129217 1.086922 -0.010132 -0.011004 107577.000000 0 0 1
24.297775 -3.101649 14.199384 28.312975 -0.126965 1.045447 -0.002187 -0.002998 -395092.000000 0 0 1
25.139075 -2.051949 14.579384 29.133177 -0.081443 1.046690 -0.007213 -0.001755 4808.230000 0 0 1
25.037275 -1.754249 15.957284 29.741846 -0.069951 1.004481 -0.001677 -0.009058 -816981.000000 0 0 1
26.066975 -0.720249 16.298284 30.751260 -0.027624 1.012191 0.014707 -0.003483 -477640.000000 0 0 1
27.354675 -1.311249 16.226984 31.832571 -0.047898 1.035890 0.012017 -0.004633 -56824.800000 0 0 1
28.341475 -0.288649 16.336484 32.713960 -0.010184 1.047921 0.002381 0.003563 -226975.000000 0 0 1
29.745775 -0.894149 16.322684 33.941724 -0.030051 1.069112 -0.004477 0.005812 -374548.000000 0 0 1
30.195175 -1.537849 15.139384 33.812934 -0.050886 1.106561 -0.008065 0.013587 -293703.000000 0 0 1
31.533075 -1.939449 15.133384 35.030209 -0.061428 1.124077 -0.008821 0.009442 -325838.000000 0 0 1
32.047175 -2.410649 13.732284 34.948652 -0.075080 1.166983 -0.010841 0.013581 -91361.300000 0 0 1
32.203175 -1.354249 12.777984 34.672112 -0.042028 1.193361 0.002249 0.011350 296865.000000 0 0 1
32.609875 -1.810249 11.494884 34.623883 -0.055455 1.232381 0.002208 0.006905 -255589.000000 0 0 1
31.944875 -0.942549 10.415984 33.613333 -0.029497 1.255733 0.001300 0.015700 -149666.000000 0 0 1
32.529175 0.347951 10.233884 34.102795 0.010696 1.266010 0.002368 0.016186 587696.000000 0 0 1
31.635375 1.127851 9.441084 33.033363 0.035636 1.280950 -0.010611 0.015217 37025.400000 0 0 1
31.984375 2.600451 9.098984 33.354971 0.081125 1.294502 -0.014367 0.013221 -61901.200000 0 0 1
32.702175 2.608751 7.869784 33.736795 0.079604 1.335357 -0.005553 0.007145 288562.000000 0 0 1
33.034875 3.897251 7.404784 34.078180 0.117431 1.351761 -0.017762 0.008463 91187.300000 0 0 1
33.873775 3.951451 6.089684 34.642904 0.116127 1.394094 -0.023096 0.016688 -125769.000000 0 0 1
34.016275 5.296051 5.664684 34.889020 0.154452 1.407711 -0.035928 0.013763 160884.000000 0 0 1
34.639575 5.364251 4.386684 35.325887 0.153639 1.446297 -0.020248 0.008579 201221.000000 0 0 1
-34.374071 6.782251 4.080384 35.273577 -0.194805 1.454859 -0.018673 -0.006609 351894.000000 0 0 1
34.303175 7.816951 3.940484 35.402541 0.224052 1.459260 -0.008034 -0.002032 231319.000000 0 0 1
34.672375 9.019151 3.282484 35.976289 0.254485 1.479429 -0.012859 -0.012076 -725085.000000 0 0 1
33.515375 10.044951 3.258884 35.139745 0.291192 1.477922 0.013687 -0.019413 1061830.000000 0 0 1
32.285875 9.875651 2.535084 33.857537 0.296844 1.495851 0.020401 -0.026564 1079270.000000 0 0 1
31.559475 8.670051 2.856084 32.853119 0.268107 1.483752 0.012723 -0.009583 -405005.000000 0 0 1
30.228975 8.477651 2.077484 31.463907 0.273424 1.504721 0.027709 -0.019356 201643.000000 0 0 1
30.333575 8.268851 0.675784 31.447676 0.266131 1.549306 0.028347 -0.022051 380151.000000 0 0 1
29.062375 8.122651 0.058584 30.176191 0.272536 1.568855 0.025217 -0.013998 235651.000000 0 0 1
29.316775 8.097351 -1.480016 30.450465 0.269483 1.619420 0.019866 -0.003342 -568887.000000 0 0 1
28.278175 7.568651 -2.204816 29.356445 0.261520 1.645972 -0.000808 0.005719 222442.000000 0 0 1
28.827175 7.405751 -3.569716 29.976558 0.251464 1.690163 0.015839 0.003513 327177.000000 0 0 1
27.937875 6.675651 -4.627916 29.094789 0.234548 1.730538 0.003319 0.007669 -599058.000000 0 0 1
27.998475 5.267051 -4.522616 28.846325 0.185946 1.728229 0.010409 0.008276 464828.000000 0 0 1
27.116475 4.734751 -5.462916 28.063580 0.172865 1.766709 -0.004017 0.009634 -704691.000000 0 0 1
27.166575 3.181451 -5.577416 27.915085 0.116578 1.771949 0.004211 0.009143 -573778.000000 0 0 1
26.775975 2.497151 -4.358016 27.242997 0.092992 1.731455 0.007837 0.009142 599363.000000 0 0 1
26.475675 1.088251 -4.542016 26.884485 0.041081 1.740556 0.007129 0.010079 -236632.000000 0 0 1
26.129675 0.409451 -3.274616 26.337248 0.015669 1.695453 -0.000817 0.010378 556093.000000 0 0 1
27.186075 0.563351 -2.291916 27.288329 0.020719 1.654884 0.007887 0.010738 1185840.000000 0 0 1
26.729375 0.083151 -1.077416 26.751209 0.003111 1.611083 0.005464 0.012510 -377702.000000 0 0 1
27.583075 0.592551 0.095684 27.589605 0.021479 1.567328 0.003884 0.013132 61728.400000 0 0 1
28.855575 -0.031749 0.146484 28.855964 -0.001100 1.565720 0.006765 0.024250 31365.800000 0 0 1
29.779175 0.744251 0.828184 29.799984 0.024987 1.543001 0.009432 0.007659 -368948.000000 0 0 1
-2.713425 -21.078749 -8.342829 22.831538 1.442772 1.944868 -0.012512 0.005158 -68334.200000 0 1 0
-3.236625 -21.971649 -7.423729 23.416678 1.424539 1.893390 -0.022458 0.019241 -543635.000000 0 1 0
-2.339425 -22.978549 -7.022329 24.141245 1.469337 1.865948 -0.016445 0.014656 -186542.000000 0 1 0
-2.803025 -23.666849 -5.761329 24.518760 1.452909 1.807991 -0.017412 0.018658 -459661.000000 0 1 0
-2.909225 -22.894549 -4.608729 23.534322 1.444403 1.767900 -0.018821 0.012421 -190429.000000 0 1 0
-3.263025 -23.650549 -3.513629 24.131750 1.433694 1.716918 -0.016356 0.015650 -418372.000000 0 1 0
-3.114025 -22.826649 -2.202129 23.143086 1.435213 1.666093 -0.019383 0.007915 -585208.000000 0 1 0
-1.787325 -22.899649 -1.771429 23.037500 1.492904 1.647766 0.001870 0.000269 -797754.000000 0 1 0
-1.591825 -22.504749 -0.415429 22.564800 1.500181 1.589208 0.005046 -0.007722 140715.000000 0 1 0
-0.107325 -22.488549 -0.007929 22.488806 1.566024 1.571149 0.015228 -0.015205 183903.000000 0 1 0
0.705275 -21.606849 -0.786929 21.632674 -1.538167 1.607181 0.014928 -0.008666 504469.000000 0 1 0
2.003975 -21.468949 -0.185329 21.563071 -1.477723 1.579391 0.021918 -0.007107 901676.000000 0 1 0
2.798375 -20.251849 -0.776229 20.459003 -1.433487 1.608746 0.021230 -0.005263 737370.000000 0 1 0
3.647175 -20.735549 -1.830629 21.133293 -1.396687 1.657528 0.020608 -0.001101 -430304.000000 0 1 0
4.682675 -19.849649 -2.119829 20.504382 -1.339125 1.674366 0.028767 0.000814 -433176.000000 0 1 0
5.465775 -20.306949 -3.350029 21.294824 -1.307870 1.728769 0.021488 0.001523 -919038.000000 0 1 0
6.297875 -21.359649 -2.944829 22.462632 -1.284072 1.702274 0.024990 0.000113 -356388.000000 0 1 0
6.922975 -21.976349 -4.072129 23.398071 -1.265618 1.745724 0.019577 0.001798 40096.500000 0 1 0
8.171475 -21.369049 -4.713329 23.358611 -1.205556 1.773973 0.019289 0.008166 -680023.000000 0 1 0
7.879375 -20.291449 -5.540629 22.461656 -1.200408 1.820039 0.012667 0.012980 -632959.000000 0 1 0
9.000575 -19.762249 -6.174229 22.576047 -1.143425 1.847811 0.017086 0.018709 -751241.000000 0 1 0
8.685975 -18.511149 -7.013629 21.617117 -1.132067 1.901224 0.012024 0.019056 408006.000000 0 1 0
9.761875 -18.120449 -7.891829 22.043725 -1.076653 1.936930 0.022664 0.018706 633981.000000 0 1 0
9.567775 -16.793849 -8.348929 21.054222 -1.052940 1.978546 0.020552 0.011140 227403.000000 0 1 0
9.986475 -16.432449 -9.795229 21.580119 -1.024713 2.041934 0.014117 0.001581 91117.200000 0 1 0
9.091875 -17.056649 -10.698729 22.091950 -1.081067 2.076338 0.004697 0.000138 88758.800000 0 1 0
9.149275 -16.474749 -12.027629 22.355993 -1.063854 2.138865 0.007272 0.005801 3142.490000 0 1 0
8.718575 -17.419849 -13.191029 23.525899 -1.106752 2.166030 0.004763 0.004984 1086940.000000 0 1 0
7.386075 -17.949249 -12.998629 23.360094 -1.180418 2.160899 0.002214 0.007532 992554.000000 0 1 0
6.921275 -18.633349 -14.157629 24.403774 -1.215146 2.189698 -0.002117 0.011622 -694479.000000 0 1 0
5.656975 -19.371549 -13.827329 24.463305 -1.286672 2.171505 -0.000204 0.022177 -872068.000000 0 1 0
5.870575 -20.574349 -13.161129 25.119370 -1.292848 2.122270 0.010353 0.012456 -88110.200000 0 0 1
4.662775 -21.277549 -12.946229 25.339305 -1.355066 2.107045 0.010219 0.015018 69617.200000 0 0 1
4.871775 -22.772749 -12.715529 26.533317 -1.360043 2.070572 0.008305 0.009973 27035.700000 0 0 1
5.140375 -23.466049 -13.934429 27.771338 -1.355147 2.096424 0.010002 0.002377 -35707.400000 0 0 1
4.761075 -24.875549 -13.932229 28.906189 -1.381688 2.073710 -0.001979 0.012123 -113715.000000 0 0 1
3.358075 -25.190439 -14.448829 29.233602 -1.438270 2.087773 -0.000178 0.011963 -77448.400000 0 0 1
2.313275 -24.801649 -13.563729 28.362788 -1.477794 2.069426 0.014081 0.012077 1068950.000000 0 0 1
0.999875 -25.267859 -13.963429 28.886706 -1.531246 2.075315 -0.002508 0.012402 1137710.000000 0 0 1
0.384875 -26.467139 -13.255429 29.603445 -1.556256 2.035062 -0.018020 0.013376 -536368.000000 0 0 1
1.150575 -27.605609 -13.634629 30.810656 -1.529141 2.029214 -0.015154 0.018979 244201.000000 0 0 1
0.783675 -28.931009 -13.144729 31.786810 -1.543715 1.997122 -0.022052 0.013596 543997.000000 0 0 1
-0.600725 -29.489129 -13.670229 32.509148 1.550428 2.004797 -0.030809 0.004555 808528.000000 0 0 1
-1.710525 -28.782329 -13.173329 31.699920 1.511436 1.999359 -0.035355 0.002747 -380354.000000 0 0 1
-2.891825 -29.382739 -13.680029 32.539993 1.472693 2.004690 -0.030971 0.000256 724507.000000 0 0 1
-4.231025 -28.658919 -13.257929 31.859188 1.424221 1.999994 -0.021406 -0.004515 648312.000000 0 0 1
-4.582425 -28.527089 -11.878529 31.239284 1.411523 1.960856 -0.016817 -0.010773 83609.400000 0 0 1
-4.981525 -29.769789 -11.275129 32.220870 1.404998 1.928295 -0.006904 -0.016662 -552482.000000 0 0 1
-5.171425 -29.757709 -9.717329 31.728399 1.398730 1.882064 -0.001979 -0.019349 223845.000000 0 0 1
-6.490825 -29.440269 -9.271429 31.540761 1.353794 1.869154 0.012968 -0.017857 276170.000000 0 0 1
-6.804725 -28.071779 -9.267529 30.335064 1.332979 1.881266 0.008592 -0.006366 -456175.000000 0 0 1
-8.312725 -27.849919 -8.999829 30.425586 1.280732 1.871087 0.013631 -0.005843 435656.000000 0 0 1
-9.246425 -28.119019 -10.034829 31.254974 1.253103 1.897648 0.015568 -0.010483 13254.500000 0 0 1
-9.396825 -29.431489 -10.530929 32.640669 1.261748 1.899305 0.020529 -0.024808 52151.900000 0 0 1
-10.604925 -29.783659 -11.496929 33.640900 1.228728 1.919579 0.028419 -0.020225 389685.000000 0 0 1
-10.546225 -29.218739 -12.783629 33.591349 1.224408 1.961201 0.034224 -0.016749 70023.900000 0 0 1
-11.575525 -29.680939 -13.620929 34.647952 1.198941 1.974823 0.034281 -0.014444 -236875.000000 0 0 1
-11.972225 -28.808259 -14.882029 34.564790 1.176929 2.015903 0.039180 -0.012815 68693.100000 0 0 1
-12.921025 -27.740289 -14.763729 33.977113 1.134893 2.020301 0.036916 -0.017545 553681.000000 0 0 1
-12.501025 -26.698749 -13.897529 32.592025 1.132890 2.011315 0.032471 -0.003052 123307.000000 0 0 1
-13.471625 -25.522269 -14.095629 32.117871 1.085127 2.025139 0.050718 0.002467 234140.000000 0 0 1
-13.030725 -24.729249 -15.184229 31.810318 1.085833 2.068418 0.036856 0.004978 905234.000000 0 0 1
-14.134925 -23.931649 -15.682129 31.913149 1.037290 2.084493 0.047205 0.005930 673846.000000 0 0 1
-13.772225 -22.951949 -16.874729 31.642102 1.030343 2.133293 0.051170 0.000779 34735.300000 0 0 1
-13.037925 -21.776449 -16.606629 30.331194 1.031321 2.150182 0.033961 0.003154 174713.000000 0 0 1
-12.944625 -20.881349 -17.669229 30.262116 1.015863 2.194287 0.030987 0.009392 -193017.000000 0 0 1
-13.006525 -19.350549 -17.361329 29.069385 0.979005 2.210849 0.027096 0.005861 -442382.000000 0 0 1
-11.792025 -18.673049 -17.388729 28.108762 1.007537 2.237785 0.030444 0.003465 -401366.000000 0 0 1
-12.018825 -17.286149 -17.427329 27.330841 0.963241 2.262231 0.029826 0.005482 292752.000000 0 0 1
-10.689125 -16.539949 -17.695729 26.475765 0.997054 2.302818 0.029385 -0.003478 52571.800000 0 0 1
-9.962125 -16.306349 -16.515929 25.257016 1.022375 2.283543 0.025891 -0.002242 -69256.700000 0 0 1
-8.802925 -15.564249 -16.883529 24.592496 1.056065 2.327505 0.023351 -0.000813 -333650.000000 0 1 0
-8.157325 -14.938649 -15.617229 23.099849 1.070987 2.313219 0.015300 -0.006415 -250598.000000 0 1 0
-7.595725 -15.831949 -14.698929 22.899872 1.123462 2.267741 0.007727 0.000933 -449645.000000 0 1 0
-6.387625 -16.451549 -15.003329 23.163659 1.200444 2.275371 0.007921 0.003051 -850954.000000 0 1 0
-5.896025 -17.416549 -13.901029 23.050767 1.244376 2.218130 0.004045 0.009506 -425716.000000 0 1 0
-5.517625 -16.648549 -12.745029 21.680731 1.250771 2.199196 -0.000805 0.002371 165467.000000 0 1 0
-5.471125 -17.518049 -11.633329 21.729003 1.268081 2.135757 -0.002349 0.003486 531951.000000 0 1 0
-4.282225 -18.572449 -11.549429 22.285928 1.344188 2.115586 -0.000447 0.003518 43708.500000 0 1 0
-3.016125 -18.018049 -11.333729 21.498849 1.404939 2.126073 -0.003346 0.000220 -798162.000000 0 1 0
-2.088225 -19.052949 -11.600929 22.404399 1.461631 2.115070 -0.005379 0.009900 -55365.600000 0 1 0
-0.679025 -18.555249 -11.937529 22.074033 1.534218 2.142178 0.002348 0.014200 -1053020.000000 0 1 0
-0.492725 -18.014549 -13.243629 22.364267 1.543452 2.204555 0.004751 -0.002042 117642.000000 0 1 0
0.789775 -17.420249 -13.467629 22.033289 -1.525491 2.228423 0.007883 0.003709 851143.000000 0 1 0
2.000675 -18.401049 -13.560829 22.945530 -1.462496 2.203095 0.010536 0.002023 -521146.000000 0 1 0
2.014175 -19.286249 -14.637929 24.295786 -1.466738 2.217412 0.016862 0.000728 367775.000000 0 1 0
1.060675 -20.352249 -14.450029 24.982842 -1.518728 2.187560 0.000278 0.001055 -299054.000000 0 1 0
0.941575 -21.239549 -15.755629 26.462139 -1.526494 2.208563 0.000544 0.008920 -222498.000000 0 0 1
2.054875 -21.977249 -16.189829 27.373939 -1.477567 2.203630 -0.004545 0.015774 -434373.000000 0 0 1
3.102575 -21.253049 -16.774729 27.252698 -1.425838 2.233849 -0.003095 0.019858 19686.500000 0 0 1
4.419875 -22.085849 -16.827229 28.115398 -1.373283 2.212431 -0.002647 0.007881 179619.000000 0 0 1
4.383775 -23.179249 -17.761429 29.529026 -1.383879 2.216162 -0.006440 0.008356 629361.000000 0 0 1
5.679775 -23.758049 -17.991229 30.337914 -1.336133 2.205610 0.007721 0.002349 843602.000000 0 0 1
6.086875 -23.578249 -19.492129 31.191777 -1.318156 2.245816 0.001782 0.007596 -114352.000000 0 0 1
6.521275 -22.242449 -19.928329 30.567823 -1.285598 2.280934 0.001697 -0.008328 234143.000000 0 0 1
6.618275 -22.195049 -21.350229 31.500064 -1.281004 2.315540 0.012164 -0.002711 -123748.000000 0 0 1
7.003675 -20.809549 -22.070929 31.132213 -1.246144 2.358793 0.000381 -0.003144 682531.000000 0 0 1
6.046075 -19.722149 -22.002829 30.160282 -1.273330 2.388431 0.008451 -0.002610 535753.000000 0 0 1
6.401775 -18.718249 -22.946529 30.296844 -1.241260 2.430103 0.016924 -0.002355 74407.300000 0 0 1
5.123475 -17.951349 -23.352729 29.897338 -1.292779 2.467217 0.015492 -0.000460 -937949.000000 0 0 1
4.297175 -18.810949 -24.073829 30.852337 -1.346210 2.465929 0.017209 0.002838 646418.000000 0 0 1
3.119675 -18.135749 -24.594729 30.717071 -1.400446 2.499236 0.020612 0.014393 965774.000000 0 0 1
1.964975 -17.677749 -23.688229 29.622561 -1.460096 2.497539 0.019478 0.016009 -502753.000000 0 0 1
2.278875 -16.660849 -22.733829 28.277272 -1.434860 2.504723 0.019946 0.007645 -576662.000000 0 0 1
1.123175 -15.906149 -22.538129 27.608592 -1.500301 2.525850 0.014691 0.010455 -41431.800000 0 0 1
1.184475 -15.128849 -21.232029 26.097588 -1.492663 2.521050 0.014688 0.012457 -343230.000000 0 0 1
2.033075 -14.044249 -21.315629 25.607232 -1.427033 2.554233 0.017285 0.012621 -521294.000000 0 0 1
1.883575 -13.244649 -20.161329 24.196027 -1.429530 2.555756 0.017183 0.003378 295315.000000 0 1 0
3.125275 -12.326849 -19.933329 23.644368 -1.322494 2.573721 0.015735 -0.000290 1190610.000000 0 1 0
4.276975 -13.068849 -19.412429 23.789277 -1.254517 2.525281 0.016395 -0.007299 707611.000000 0 1 0
5.468575 -12.314049 -19.415929 23.633015 -1.152866 2.534937 0.018785 -0.006533 192430.000000 0 1 0
5.742275 -11.246749 -18.274129 22.212763 -1.098727 2.536916 0.019287 -0.009471 -334834.000000 0 1 0
4.883075 -10.108149 -18.124929 21.319759 -1.120774 2.587061 0.013260 -0.008440 -30580.000000 0 1 0
5.183475 -8.966349 -18.924329 21.572993 -1.046633 2.640843 0.017179 -0.016530 -330028.000000 0 1 0
4.672575 -8.996149 -20.363929 22.747598 -1.091752 2.679704 0.019094 -0.013035 208361.000000 0 1 0
3.266775 -8.810349 -20.489929 22.541767 -1.215723 2.711618 0.019111 -0.018768 44155.400000 0 1 0
2.854275 -8.725049 -21.833729 23.685123 -1.254634 2.743580 0.015819 -0.022650 786032.000000 0 1 0
1.302575 -8.775249 -22.017129 23.737221 -1.423435 2.758562 0.007645 -0.015596 801685.000000 0 1 0
0.642375 -7.642649 -21.482429 22.810468 -1.486942 2.798680 0.006018 -0.020425 -116788.000000 0 1 0
-0.700625 -7.466349 -21.889129 23.138090 1.477233 2.811528 0.008589 -0.012631 197187.000000 0 1 0
-1.019325 -6.538049 -23.114329 24.042822 1.416135 2.862776 0.015832 -0.007312 -214398.000000 0 1 0
-0.601025 -7.090949 -24.348529 25.367176 1.486239 2.857241 0.015391 -0.005745 -231031.000000 0 0 1
-1.096825 -6.421349 -25.512569 26.331120 1.401620 2.891596 0.007186 0.002302 176662.000000 0 0 1
-0.486225 -4.979849 -25.810829 26.291333 1.473466 2.950114 0.016295 -0.007531 -145747.000000 0 0 1
-0.977125 -4.360649 -26.986019 27.353523 1.350360 2.977486 0.010460 -0.003852 -369581.000000 0 0 1
-0.480225 -3.116249 -27.316659 27.498027 1.417895 3.026676 0.001211 -0.000052 -1132340.000000 0 0 1
-1.043025 -1.938549 -26.517539 26.608753 1.077178 3.058768 0.001307 -0.003240 1523680.000000 0 0 1
-2.500625 -1.915649 -26.437439 26.624444 0.653705 3.023001 -0.001235 -0.001938 1386540.000000 0 0 1
-3.115625 -1.382749 -27.560619 27.770611 0.417695 3.018538 0.008528 -0.005472 -553025.000000 0 0 1
-4.653325 -1.364249 -27.449339 27.874375 0.285186 2.966737 0.013539 -0.000085 60499.400000 0 0 1
-5.137225 -0.309949 -26.674339 27.166293 0.060261 2.950994 0.010076 -0.002841 -339870.000000 0 0 1
-6.505025 -0.472349 -26.378319 27.172673 0.072486 2.899200 0.008837 -0.007248 -218155.000000 0 0 1
-7.176025 0.766151 -25.778699 26.769827 -0.106363 2.868628 -0.001659 0.000899 -902121.000000 0 0 1
-7.292525 1.936751 -26.623989 27.672526 -0.259588 2.865431 -0.002851 -0.005078 326058.000000 0 0 1
-8.200325 1.981351 -27.729339 28.984260 -0.237075 2.846253 0.004293 -0.005133 201728.000000 0 0 1
-9.653825 1.521151 -27.500369 29.185279 -0.156285 2.800138 0.000871 -0.000708 -546008.000000 0 0 1
-10.596925 2.147251 -28.363199 30.354185 -0.199923 2.777390 0.001849 -0.015076 279884.000000 0 0 1
-11.840625 1.482951 -28.244839 30.662199 -0.124594 2.741851 -0.006931 -0.009839 -32173.400000 0 0 1
-13.022025 2.263751 -28.889319 31.769332 -0.172120 2.712506 -0.013040 -0.001889 -2360360.000000 0 0 1
-14.176025 1.618951 -28.679369 32.032591 -0.113711 2.679942 -0.015593 0.000580 -1633280.000000 0 0 1
-15.253225 2.159951 -29.407169 33.198010 -0.140671 2.659036 -0.014462 -0.000103 68867.700000 0 0 1
-15.908025 3.510451 -28.924239 33.196387 -0.217191 2.628655 -0.004186 0.007871 -621527.000000 0 0 1
-15.085225 4.697251 -28.955389 32.985493 -0.301865 2.642092 -0.003016 0.003840 127214.000000 0 0 1
-14.875525 5.340351 -30.214269 34.098426 -0.344672 2.659636 -0.010610 -0.001396 -405253.000000 0 0 1
-16.072425 5.872851 -31.036609 35.441280 -0.350327 2.637720 -0.009413 0.001045 -324399.000000 0 0 1
-16.546825 6.997051 -30.344459 35.263896 -0.400060 2.607040 -0.001285 0.003709 615568.000000 0 0 1
-17.531125 7.732151 -31.121199 36.546621 -0.415389 2.589727 -0.000122 0.004222 633521.000000 0 0 1
-18.428525 8.664951 -30.235299 36.453604 -0.439518 2.548863 0.003733 0.000670 51238.800000 0 0 1
-17.606625 9.609751 -29.585169 35.743850 -0.499615 2.545792 -0.001163 0.001870 569723.000000 0 0 1
-18.397425 10.589851 -28.937009 35.888169 -0.522297 2.508684 0.010895 0.005392 -28244.700000 0 0 1
-8.233725 24.993751 30.915844 40.598907 -1.252562 0.705181 -0.015611 0.004451 -738635.000000 0 0 1
-8.982125 26.240251 30.984534 41.584501 -1.240995 0.730114 -0.008947 -0.001008 294151.000000 0 0 1
-8.501525 27.239951 31.914974 42.811873 -1.268278 0.729556 -0.010213 0.000169 -54142.000000 0 0 1
-7.080925 27.732851 31.602124 42.637364 -1.320811 0.735964 -0.010392 -0.004190 -295886.000000 0 0 1
-7.227825 28.756651 30.628724 42.629863 -1.324553 0.769181 0.007555 0.008422 367819.000000 0 0 1
-5.996025 28.968451 29.960414 42.104037 -1.366694 0.779051 0.003030 0.005343 75120.400000 0 0 1
-5.860725 30.232351 29.138334 42.395586 -1.379315 0.813036 0.014553 0.002270 -249738.000000 0 0 1
-5.896925 31.416851 29.892104 43.764485 -1.385256 0.818904 0.019761 0.005267 163267.000000 0 0 1
-5.646125 32.529351 29.086534 44.000726 -1.398938 0.848583 0.022703 0.012202 -130851.000000 0 0 1
-5.935725 33.843051 29.840134 45.508445 -1.397172 0.855680 0.009688 0.011210 331395.000000 0 0 1
-5.136125 33.955651 31.041974 46.292226 -1.420675 0.835825 0.004287 0.000134 819219.000000 0 0 1
-5.818125 -34.658217 31.998984 47.528703 1.404476 0.832193 0.001627 0.002747 955710.000000 0 0 1
-7.059525 34.325951 32.773564 47.981396 -1.367963 0.818870 -0.005989 -0.002328 155834.000000 0 0 1
-6.845225 33.324151 33.731922 47.908232 -1.368201 0.789649 -0.000648 0.000051 -162836.000000 0 0 1
-6.815325 32.045551 33.223684 46.660253 -1.361242 0.778406 0.011183 0.005258 -200638.000000 0 0 1
-6.527725 31.004351 34.361436 46.739590 -1.363285 0.744882 0.010751 0.001809 -481192.000000 0 0 1
-5.323125 31.286851 -34.301597 46.731170 -1.402271 2.395018 0.003355 -0.002700 -495843.000000 0 0 1
-5.337225 30.801751 -32.972989 45.436239 -1.399223 2.382845 0.008303 -0.001724 90801.500000 0 0 1
-3.905625 30.623151 -32.338879 44.708326 -1.443943 2.379409 -0.007828 0.002533 970736.000000 0 0 1
-3.195125 29.478551 -32.754949 44.182355 -1.462830 2.405888 -0.013943 0.007838 87754.600000 0 0 1
-2.844325 29.332151 -34.136167 45.097042 -1.474129 2.429428 -0.013795 0.001405 -872851.000000 0 0 1
-2.241125 27.950551 -34.438048 44.409854 -1.490786 2.458239 -0.015764 0.000878 -503479.000000 0 0 1
-1.083525 27.639051 -33.662869 43.569254 -1.531614 2.453768 0.005250 0.006400 445692.000000 0 0 1
-0.356025 26.460351 -33.918089 43.019922 -1.557342 2.479045 0.011528 0.009781 315972.000000 0 0 1
0.054275 26.207351 33.892929 42.843422 1.568725 0.658210 0.009193 0.010146 -1081690.000000 0 0 1
-1.029025 25.736251 33.135434 41.968685 -1.530834 0.660757 -0.001025 0.014970 -87453.200000 0 0 1
-0.760725 25.453251 31.755214 40.704304 -1.540918 0.675901 0.009397 0.009947 -175162.000000 0 0 1
-0.361225 26.697651 30.875474 40.818990 -1.557267 0.713005 -0.012657 0.009089 346511.000000 0 0 1
-1.495825 27.580151 30.701224 41.297305 -1.516614 0.732628 -0.018892 0.004344 994911.000000 0 0 1
-1.101025 28.750851 29.962694 41.540182 -1.532520 0.765127 -0.013690 0.003155 -295339.000000 0 0 1
-2.089625 29.866051 30.207994 42.530818 -1.500944 0.780927 -0.007728 0.003575 -405241.000000 0 0 1
-2.015625 30.326651 31.565974 43.819850 -1.504430 0.766478 -0.002444 -0.004279 528260.000000 0 0 1
-3.072225 31.272551 31.826974 44.725466 -1.472870 0.779013 -0.008981 -0.000548 496503.000000 0 0 1
-2.767325 32.164751 33.111644 46.245111 -1.484972 0.772736 -0.000279 -0.002310 226172.000000 0 0 1
-1.599725 32.938351 32.867894 46.559559 -1.522267 0.787058 -0.004683 -0.000464 -238840.000000 0 0 1
-0.957525 33.121351 34.120734 47.562225 -1.541895 0.770746 -0.007473 -0.003761 10380.300000 0 0 1
0.496475 33.666351 33.956374 47.819505 1.556050 0.781164 -0.001539 -0.005756 311386.000000 0 0 1
0.536775 -34.494217 33.537856 48.113688 -1.555236 0.799515 0.008333 0.001949 50601.700000 0 0 1
1.785275 -34.004417 33.086134 47.478204 -1.518343 0.799772 -0.000854 0.005646 66539.300000 0 0 1
1.626675 -32.548817 32.453464 45.992379 -1.520861 0.787489 0.001621 0.005969 -243025.000000 0 0 1
1.571175 -31.533817 33.461060 46.005356 -1.521012 0.756373 0.000002 0.010964 149443.000000 0 0 1
1.603675 -30.192717 33.006264 44.761428 -1.517732 0.741610 -0.000062 0.016783 -373471.000000 0 0 1
1.439675 -29.119117 34.069268 44.840949 -1.521396 0.707821 -0.004917 0.019870 1438360.000000 0 0 1
0.036675 -28.986217 34.451691 45.023562 -1.569531 0.699456 -0.009800 0.020546 1550650.000000 0 0 1
-0.159225 -28.536917 -33.535199 44.033970 1.565217 2.436537 -0.012897 0.022041 205425.000000 0 0 1
-1.561725 -27.929017 -33.265419 43.463284 1.514937 2.442410 -0.008514 0.023136 287410.000000 0 0 1
-1.934225 -27.649117 -31.893559 42.254160 1.500954 2.426150 -0.005867 0.017615 -32382.000000 0 0 1
-3.067525 -26.820217 -31.937179 41.817666 1.456918 2.439860 0.003208 0.012459 -220029.000000 0 0 1
-3.455725 -26.278917 -30.517369 40.420704 1.440045 2.426441 0.005637 0.004918 -89989.800000 0 0 1
-4.106925 -27.253617 -29.688949 40.510001 1.421229 2.393341 0.000972 0.011789 163847.000000 0 0 1
-4.614225 -26.805517 -28.419449 39.338174 1.400330 2.378120 0.009750 0.007999 -436882.000000 0 0 1
-3.648425 -26.451417 -27.296679 38.185038 1.433732 2.367210 0.008574 0.002853 -391036.000000 0 0 1
-2.931125 -25.307117 -27.681659 37.620685 1.455488 2.397658 0.001030 0.006323 370217.000000 0 0 1
-2.063625 -24.752317 -26.664019 36.440440 1.487618 2.391631 0.007545 0.007961 -66689.500000 0 0 1
-1.257225 -23.484717 -27.159709 35.927181 1.517314 2.427924 0.019262 0.002893 1150110.000000 0 0 1
-0.288225 -23.706917 -28.215519 36.853989 1.558639 2.442774 -0.003288 -0.001709 651821.000000 0 0 1
0.853075 -24.468717 -27.901889 37.120901 -1.535947 2.421355 -0.000920 -0.004043 -554355.000000 0 0 1
1.593575 -24.990317 -29.161639 38.437698 -1.507115 2.432070 -0.007787 -0.006207 68346.600000 0 0 1
2.550275 -24.025917 -29.564679 38.181394 -1.465045 2.456439 0.004777 -0.011833 284955.000000 0 0 1
3.228775 -24.394217 -30.754749 39.387274 -1.439203 2.466789 0.015799 -0.006638 -115975.000000 0 0 1
4.151775 -23.196117 -31.295709 39.175483 -1.393686 2.496193 0.015224 -0.006586 947563.000000 0 0 1
5.486375 -23.000217 -30.782799 38.816118 -1.336636 2.486582 0.009442 -0.015428 1615270.000000 0 0 1
6.407375 -24.101617 -30.855829 39.673978 -1.310958 2.461850 0.021059 -0.008761 -214251.000000 0 0 1
6.899575 -24.374717 -32.323929 41.067838 -1.294950 2.476867 0.016047 -0.001322 -566123.000000 0 0 1
6.012675 -25.232717 -33.059079 42.020768 -1.336870 2.476293 -0.000682 0.002303 400402.000000 0 0 1
6.218675 -25.265217 -34.472212 43.189542 -1.329458 2.495033 0.006082 0.007191 -122613.000000 0 0 1
5.914775 -23.977417 34.060476 42.071571 -1.328944 0.627353 0.014403 0.003033 -781963.000000 0 0 1
4.536475 -23.812917 34.122528 41.856679 -1.382547 0.617682 0.024311 0.002551 -965519.000000 0 0 1
4.111075 -22.652817 33.513812 40.659890 -1.391268 0.601924 0.021062 -0.003590 336319.000000 0 0 1
2.690175 -22.231517 34.049229 40.753250 -1.450375 0.581759 -0.010023 -0.005099 610243.000000 0 0 1
1.647175 -23.139717 33.740239 40.945860 -1.499732 0.602325 -0.008481 0.001879 -20486.400000 0 0 1
1.497775 -24.250217 34.635533 42.307641 -1.509111 0.611724 -0.003136 0.011370 -358623.000000 0 0 1
0.229275 -25.055117 34.274945 42.456841 -1.561646 0.631252 -0.015406 0.011961 44349.000000 0 0 1
0.318675 -25.796717 33.059934 41.934847 -1.558444 0.662651 -0.007433 0.006568 -3486.630000 0 0 1
-0.909225 -26.069917 32.405154 41.600015 1.535934 0.677775 -0.012069 0.003782 -20201.900000 0 0 1
-0.740725 -26.929017 31.162124 41.192215 1.543297 0.712844 -0.007160 -0.016552 495260.000000 0 0 1
-1.985825 -27.174517 30.491924 40.891996 1.497849 0.729257 0.001178 -0.015632 644034.000000 0 0 1
-1.967125 -28.325517 29.725274 41.107133 1.501461 0.762492 -0.001007 -0.014286 -7544.640000 0 0 1
-3.314925 -28.620717 29.016364 40.891118 1.455488 0.781865 0.003640 -0.005074 -96618.500000 0 0 1
-4.368325 -28.868917 29.923364 41.807946 1.420620 0.773122 0.010499 -0.001182 -350251.000000 0 0 1
-5.414225 -29.410517 29.160664 41.768848 1.388743 0.797995 -0.002333 0.006766 -413439.000000 0 0 1
-6.562825 -29.988417 30.024554 42.940071 1.355348 0.796491 -0.001235 0.007737 -23173.800000 0 0 1
-7.476025 -30.780417 29.260774 43.122128 1.332528 0.825001 0.012295 0.002981 -124753.000000 0 0 1
-8.738525 -30.896417 29.841834 43.834752 1.295163 0.821969 0.003050 0.001483 -538687.000000 0 0 1
-8.928525 -31.976617 30.907244 45.359457 1.298511 0.821143 0.006924 0.008838 -482626.000000 0 0 1
-8.783625 -33.288817 30.491464 45.989420 1.312815 0.845963 0.017893 0.005192 625169.000000 0 0 1
-9.903825 -33.718017 29.706334 46.015831 1.285106 0.869030 0.016494 0.005386 304206.000000 0 0 1
-9.804025 34.311251 29.250594 46.140851 -1.292475 0.884157 0.033578 0.009422 -306688.000000 0 0 1
-9.910025 33.352951 30.325794 46.154975 -1.281978 0.853907 0.025792 0.009606 195529.000000 0 0 1
-9.818025 32.060051 29.809914 44.865036 -1.273626 0.844058 0.024649 0.005744 -6295.580000 0 0 1
-10.305525 30.908751 30.771914 44.815906 -1.248970 0.813954 0.023155 0.011043 559485.000000 0 0 1
-11.725325 30.830751 30.879254 45.183479 -1.207376 0.818360 0.020097 0.016978 248576.000000 0 0 1
-12.163825 29.689051 31.573164 45.014032 -1.181950 0.793427 0.017129 0.012776 45937.500000 0 0 1
-12.074025 29.795351 33.145784 46.175622 -1.185788 0.770130 0.013994 -0.003449 -575526.000000 0 0 1
-13.089725 30.563051 33.713081 47.349898 -1.166146 0.778455 0.013916 0.011932 -172497.000000 0 0 1
-13.158325 30.311551 -34.182952 47.543726 -1.161241 2.373129 0.008133 0.007947 857426.000000 0 0 1
-14.583525 30.426951 -33.508409 47.553045 -1.123848 2.352731 0.004791 0.011503 809554.000000 0 0 1
-14.579225 29.886051 -32.192429 46.282636 -1.116934 2.339998 0.001165 0.002324 -705435.000000 0 0 1
-15.723625 30.196851 -31.479149 46.368298 -1.090723 2.317051 0.012088 0.002844 -586334.000000 0 0 1
-15.648725 29.559451 -30.111969 45.004160 -1.083908 2.303784 0.014298 -0.004465 -283856.000000 0 0 1
-15.862425 28.147851 -30.164709 44.202124 -1.057618 2.321874 0.013448 -0.013453 168567.000000 0 0 1
-15.688225 27.528351 -28.903229 42.887378 -1.052808 2.310316 0.007495 -0.012000 -53943.800000 0 0 1
-16.380625 26.129251 -28.836869 42.221176 -1.010826 2.322652 0.002402 -0.017863 901912.000000 0 0 1
-17.808625 26.235451 -28.834429 42.858725 -0.974441 2.308754 0.009757 -0.010218 426960.000000 0 0 1
-18.415825 24.955751 -28.808809 42.330599 -0.935059 2.319333 0.003647 -0.015706 1586320.000000 0 0 1
-20.005425 24.975451 -28.995729 43.182664 -0.895444 2.306983 0.017412 -0.015625 1351820.000000 0 0 1
-20.683625 25.315251 -27.817889 42.924460 -0.885750 2.275839 0.012969 -0.014075 -248016.000000 0 0 1
-22.038325 25.028151 -28.070589 43.589610 -0.848836 2.270478 0.004621 -0.013562 -59416.600000 0 0 1
-23.050625 25.266751 -26.935169 43.534393 -0.831232 2.237896 0.007916 -0.011434 3451.740000 0 0 1
-23.478725 26.608951 -26.803689 44.471615 -0.847812 2.217695 0.009922 -0.004347 -91207.900000 0 0 1
-24.489525 26.809251 -25.828659 44.559987 -0.830587 2.189081 0.013055 -0.000602 -29092.900000 0 0 1
-24.271825 26.454351 -24.342029 43.376129 -0.828397 2.166613 0.018146 -0.001341 -774317.000000 0 0 1
-24.095525 25.071751 -23.964029 42.231052 -0.805251 2.174203 0.011331 -0.004196 -387759.000000 0 0 1
-25.228535 24.236551 -23.971929 42.409230 -0.765347 2.171536 0.016824 -0.007044 -446521.000000 0 0 1
-26.048435 24.278251 -22.646029 42.199492 -0.750239 2.137249 0.016028 -0.008004 -291119.000000 0 0 1
-25.368715 23.849051 -21.475629 40.909065 -0.754532 2.123465 0.015583 -0.011574 398604.000000 0 0 1
-24.425125 24.838951 -21.030729 40.692159 -0.793798 2.113934 0.016199 -0.008789 133603.000000 0 0 1
-23.386225 24.254951 -20.051229 39.208035 -0.803631 2.107617 0.017116 -0.016371 -181562.000000 0 0 1
-23.978925 24.033851 -18.795429 38.805709 -0.786542 2.076413 0.015150 -0.018407 -70990.200000 0 0 1
-23.008725 23.749351 -17.833729 37.569602 -0.801236 2.065402 0.005632 -0.017222 -432978.000000 0 0 1
-23.435525 23.871151 -16.352929 37.235386 -0.794606 2.025479 0.003590 -0.015148 -156449.000000 0 0 1
-23.680525 25.207151 -15.941429 38.082764 -0.816615 2.002699 0.005785 -0.020245 535644.000000 0 0 1
-24.455825 25.334651 -14.698029 38.157096 -0.803047 1.966218 0.001962 -0.017239 515842.000000 0 0 1
-24.437525 26.737951 -13.931129 38.809626 -0.830320 1.937950 -0.003708 -0.012119 -276081.000000 0 0 1
-23.147725 27.207451 -13.621229 38.230884 -0.865846 1.935089 -0.005262 -0.009205 -222889.000000 0 0 1
-23.112825 27.938851 -12.383429 38.316203 -0.879650 1.899895 -0.001374 -0.005323 -629230.000000 0 0 1
-21.784425 28.601751 -12.069129 37.924731 -0.919883 1.894668 -0.004764 -0.000574 -27813.000000 0 0 1
-20.716525 27.650251 -11.913129 36.546319 -0.927785 1.902838 -0.010544 -0.003058 238666.000000 0 0 1
-19.723125 28.059551 -11.036529 36.029780 -0.958125 1.882118 -0.011325 0.004003 -234269.000000 0 0 1
-18.904725 26.916751 -10.351929 34.482787 -0.958501 1.875705 -0.018088 0.007810 -127734.000000 0 0 1
-18.293725 26.156551 -11.296029 33.858911 -0.960477 1.910938 -0.024654 0.005139 -275375.000000 0 0 1
-17.905825 24.939851 -10.714929 32.518064 -0.948118 1.906578 -0.018492 0.014860 -162411.000000 0 0 1
-17.416425 23.839351 -11.729929 31.768503 -0.939844 1.948978 -0.015981 0.015473 49618.600000 0 0 1
-17.163325 22.614451 -11.043729 30.462388 -0.921589 1.941784 -0.008412 0.011990 178226.000000 0 0 1
-16.522825 21.729851 -11.954029 29.800822 -0.920689 1.983547 0.004866 0.014439 51131.500000 0 0 1
-16.441725 20.314851 -11.336929 28.487707 -0.890383 1.980087 0.008328 0.017649 -49561.000000 0 0 1
-17.654325 19.600751 -11.343729 28.714889 -0.837597 1.976915 -0.000702 0.025187 60916.100000 0 0 1
-17.411625 18.343051 -10.812329 27.505248 -0.811443 1.974798 0.012505 0.018578 871933.000000 0 0 1
-18.697625 17.399151 -10.987029 27.803713 -0.749442 1.977043 0.019114 0.019618 1062100.000000 0 0 1
-19.056125 16.968451 -12.299229 28.325524 -0.727512 2.019958 0.004333 0.018889 209816.000000 0 0 1
-19.817225 17.934851 -13.015129 29.728352 -0.735578 2.023949 0.004999 0.027224 -275452.000000 0 0 1
-20.470525 17.404151 -14.312629 30.443361 -0.704613 2.060245 0.015812 0.015416 -511028.000000 0 0 1
-19.555325 17.081251 -15.302929 30.139003 -0.717970 2.103362 0.019074 0.016579 -331561.000000 0 0 1
-20.136925 16.731651 -16.535229 30.965428 -0.693297 2.134109 0.007504 0.014993 -172055.000000 0 0 1
-19.092325 16.676451 -17.658529 30.894086 -0.717959 2.179230 0.007031 0.014325 190066.000000 0 0 1
-18.298625 17.840551 -17.959129 31.235481 -0.772724 2.183351 -0.003709 0.001279 334125.000000 0 0 1
-17.517925 17.721351 -19.096029 31.393985 -0.791171 2.224676 -0.008282 0.008589 -734534.000000 0 0 1
-16.570225 18.886951 -19.334229 31.703339 -0.850644 2.226666 -0.008344 0.012546 -335365.000000 0 0 1
-15.470925 18.977051 -18.469729 30.669348 -0.886829 2.217077 0.009156 0.010049 66049.600000 0 0 1
-14.444925 19.847551 -18.886329 30.972158 -0.941659 2.226584 0.004619 0.000653 190612.000000 0 0 1
31.213450 31.833551 2.086971 44.631938 0.795233 1.524020 0.017433 0.004869 -338641.000000 0 0 1
32.477250 31.506151 1.593771 45.276368 0.770222 1.535588 0.012764 0.005441 -259731.000000 0 0 1
32.783810 32.155851 0.345271 45.922720 0.775729 1.563278 0.007941 0.016807 -600112.000000 0 0 1
34.108131 31.762951 -0.287429 46.608286 0.749811 1.576963 0.010287 0.018657 -824528.000000 0 0 1
-34.465940 32.303251 0.397171 47.239378 -0.753019 1.562389 0.005101 0.015493 334859.000000 0 0 1
-33.295325 32.249551 -0.433029 46.355148 -0.769444 1.580138 0.005213 0.021230 172584.000000 0 0 1
-32.192715 33.235251 -0.057329 46.270467 -0.801331 1.572035 0.004243 0.016495 -401417.000000 0 0 1
-31.563055 32.969351 1.157071 45.656800 -0.807187 1.545451 0.010214 0.008843 57107.600000 0 0 1
-31.150895 34.213151 1.781671 46.304345 -0.832213 1.532309 -0.003307 0.006647 -141343.000000 0 0 1
-30.404685 34.023151 3.108071 45.734886 -0.841502 1.502785 0.000757 0.008920 -179680.000000 0 0 1
-30.069255 -34.188217 3.689771 45.679412 0.849411 1.489933 -0.005496 0.012925 114481.000000 0 0 1
-29.375725 -34.301417 4.914071 45.427619 0.862599 1.462411 0.003569 0.001956 -480253.000000 0 0 1
-29.166115 -32.935117 5.605071 44.348631 0.846015 1.444071 0.004348 -0.003177 -433133.000000 0 0 1
-30.214565 -32.382517 6.380571 44.746610 0.820018 1.427715 0.010221 -0.005569 -33854.900000 0 0 1
-30.468895 -33.127017 7.551171 45.637408 0.827171 1.404572 0.016912 -0.011825 -1301250.000000 0 0 1
-31.506565 -32.460417 8.441371 46.017378 0.800309 1.386313 0.017955 -0.014533 1490280.000000 0 0 1
-32.892105 -32.317017 7.987671 46.798324 0.776579 1.399274 0.021269 -0.011908 1921710.000000 0 0 1
-33.585925 -33.471617 7.566371 48.016805 0.783694 1.412559 0.022314 -0.009192 -1237080.000000 0 0 1
34.575188 -33.376817 7.373671 48.619200 -0.767764 1.418547 0.016786 -0.006170 -383042.000000 0 0 1
33.792991 -33.369517 8.574571 48.259861 -0.779093 1.392173 0.009356 -0.002534 307105.000000 0 0 1
32.432060 -33.283717 8.191771 47.188446 -0.798357 1.396315 0.008473 0.000525 -335119.000000 0 0 1
31.532700 -33.147017 9.410671 46.707565 -0.810352 1.367927 -0.001910 0.000960 -928195.000000 0 0 1
30.155330 -33.137517 9.121471 45.723519 -0.832481 1.369957 -0.013434 0.000580 28316.800000 0 0 1
29.351420 -33.247717 10.274771 45.524581 -0.847560 1.343138 -0.022990 0.004268 41113.100000 0 0 1
29.243290 -32.028517 11.243271 44.804097 -0.830824 1.317142 -0.012117 0.009505 -633849.000000 0 0 1
28.550860 -30.839517 10.824871 43.398217 -0.823915 1.318703 -0.014380 0.005123 367470.000000 0 0 1
29.221380 -30.025317 9.836871 43.036877 -0.798967 1.340189 -0.004529 -0.003049 -137329.000000 0 0 1
28.573380 -28.650317 9.479071 41.558772 -0.786743 1.340683 -0.007946 -0.001816 -236604.000000 0 0 1
29.002860 -28.132017 8.193171 41.227471 -0.770157 1.370734 0.001635 -0.014972 -34478.400000 0 0 1
28.481200 -26.840417 7.942571 39.933334 -0.755748 1.370565 -0.000031 -0.014358 -64538.700000 0 0 1
28.762580 -26.235817 6.561671 39.479864 -0.739488 1.403818 0.002082 -0.004847 -1223630.000000 0 0 1
30.071150 -26.028217 6.236871 40.257182 -0.713455 1.415244 0.004021 -0.011498 -1542830.000000 0 0 1
30.141570 -25.476417 4.917071 39.771091 -0.701716 1.446845 0.002736 -0.004682 469758.000000 0 0 1
31.584830 -25.037917 4.524571 40.558236 -0.670286 1.459006 -0.004033 -0.005412 755303.000000 0 0 1
32.535240 -26.078317 4.488571 41.937665 -0.675680 1.463561 -0.000437 -0.004200 -19540.700000 0 0 1
33.865575 -25.691417 4.204571 42.715390 -0.649001 1.472204 0.000546 -0.005695 363078.000000 0 0 1
34.784944 -26.913117 4.114371 44.172800 -0.658497 1.477518 0.002333 -0.004493 -593808.000000 0 0 1
34.757947 -27.610517 5.320371 44.707515 -0.671296 1.451510 0.006814 -0.004545 -131005.000000 0 0 1
-34.624232 -28.966817 5.071571 45.427247 0.696666 1.458921 0.004868 -0.005061 -664246.000000 0 0 1
34.268365 -29.919017 6.066071 45.894070 -0.717741 1.438233 0.012228 -0.012233 1070510.000000 0 0 1
32.895810 -30.164617 5.758971 45.002269 -0.742114 1.442474 0.014342 -0.011782 651342.000000 0 0 1
32.000010 -29.088917 5.981471 43.657116 -0.737781 1.433354 0.012433 -0.016032 -950225.000000 0 0 1
30.570990 -29.357517 5.521571 42.742684 -0.765152 1.441253 -0.001373 -0.012800 -1123310.000000 0 0 1
30.347640 -29.392217 4.115171 42.447807 -0.769406 1.473697 -0.010435 -0.008640 -293711.000000 0 0 1
29.043080 -29.062917 3.741271 41.257130 -0.785740 1.479990 -0.009398 -0.004469 345692.000000 0 0 1
27.840490 -29.998917 4.098971 41.131855 -0.822698 1.470976 -0.000644 -0.006778 137024.000000 0 0 1
28.021880 -31.276317 3.499471 42.138819 -0.840226 1.487654 -0.003172 -0.004989 -48233.300000 0 0 1
26.942510 -32.134417 3.816971 42.108062 -0.873057 1.480025 -0.004865 -0.003637 8325.640000 0 0 1
27.050880 -33.522317 3.103071 43.187092 -0.891831 1.498883 -0.004347 -0.000538 -468170.000000 0 0 1
26.854100 -33.390117 1.740671 42.884409 -0.893467 1.530195 -0.007294 0.007395 57281.600000 0 0 1
26.833830 -34.661517 1.128671 43.849163 -0.912006 1.545054 -0.012191 0.004672 -340826.000000 0 0 1
26.523940 -34.705317 -0.392329 43.682174 -0.918230 1.579778 -0.012949 0.001583 214285.000000 0 0 1
27.586740 -34.311017 -1.266629 44.044052 -0.893609 1.599559 -0.013090 0.005640 239268.000000 0 0 1
27.211900 -34.472817 -2.608029 43.996187 -0.902569 1.630110 -0.005003 0.006716 -59479.600000 0 0 1
28.224390 -34.051717 -3.747329 44.386689 -0.878699 1.655322 -0.004000 0.021435 348199.000000 0 0 1
28.630060 -32.687817 -3.715629 43.611691 -0.851478 1.656098 -0.014362 0.014281 217515.000000 0 0 1
29.310480 -32.306717 -4.912329 43.897143 -0.833987 1.682937 -0.005504 0.013434 -276723.000000 0 0 1
29.693690 -30.844717 -4.949229 43.099961 -0.804409 1.685882 -0.004404 0.018795 -168540.000000 0 0 1
28.646490 -29.970117 -5.321429 41.798887 -0.807975 1.698453 -0.013153 0.009378 148682.000000 0 0 1
28.984550 -28.619317 -5.024229 41.041593 -0.779058 1.693522 -0.005265 -0.009272 -294383.000000 0 0 1
29.905770 -27.879217 -5.956229 41.316855 -0.750342 1.715460 0.005946 -0.018086 -472158.000000 0 0 1
31.246960 -28.316417 -5.926029 42.582976 -0.736237 1.710414 0.004765 -0.000581 -289256.000000 0 0 1
32.048590 -27.572017 -6.816929 42.822877 -0.710454 1.730665 0.007037 -0.001778 -39999.400000 0 0 1
32.254740 -28.207117 -8.207929 43.627741 -0.718553 1.760060 0.003316 -0.007763 -186281.000000 0 0 1
31.030450 -28.364217 -8.937729 42.980236 -0.740538 1.780275 0.000853 -0.010600 242247.000000 0 0 1
30.918850 -29.211117 -10.065929 43.710269 -0.757005 1.803169 -0.003947 -0.000622 7615.130000 0 0 1
30.859090 -30.737617 -9.689529 44.620304 -0.783426 1.789695 -0.004232 -0.009121 709978.000000 0 0 1
32.102790 -31.165017 -9.111329 45.660308 -0.770577 1.771691 -0.001942 -0.000043 334404.000000 0 0 1
31.949160 -32.442717 -8.509829 46.321657 -0.793063 1.755557 0.005610 -0.001068 -103497.000000 0 0 1
33.195250 -32.963517 -7.810129 47.429065 -0.781895 1.736219 0.008053 -0.001171 -276931.000000 0 0 1
32.917100 -34.166917 -7.050729 47.964846 -0.804027 1.718329 0.005924 0.005280 195089.000000 0 0 1
32.428580 -34.011117 -5.681029 47.335431 -0.809213 1.691103 0.015051 0.008041 -18059.100000 0 0 1
32.260930 34.127751 -4.912129 47.218641 0.813510 1.675014 0.005693 0.017296 340.511000 0 0 1
31.285390 33.242351 -5.476929 45.976367 0.815716 1.690205 0.004274 0.009390 469212.000000 0 0 1
31.501240 31.849051 -5.202729 45.097213 0.790888 1.686421 -0.001066 0.010912 298365.000000 0 0 1
30.265370 30.974651 -5.616829 43.668873 0.796980 1.699777 0.000691 0.011367 481295.000000 0 0 1
30.197440 30.798551 -7.039629 43.703461 0.795253 1.732578 0.000316 0.006555 437311.000000 0 0 1
29.069170 30.015851 -7.444029 42.442686 0.801419 1.747098 -0.001598 0.005109 202178.000000 0 0 1
29.040110 29.672051 -8.951829 42.472272 0.796161 1.783158 -0.001272 0.009748 -434501.000000 0 0 1
29.815650 28.538751 -9.272829 42.301521 0.763520 1.791799 -0.007351 0.011484 69367.600000 0 0 1
30.173360 28.385151 -10.659629 42.775883 0.754871 1.822648 -0.007983 0.010729 -76821.500000 0 0 1
31.271860 29.333651 -11.137229 44.299325 0.753428 1.824932 -0.010145 0.006029 -873125.000000 0 0 1
32.575920 29.002651 -10.731629 44.916725 0.727435 1.812053 -0.010692 0.006922 832272.000000 0 0 1
33.674318 29.801451 -11.199029 46.341175 0.724460 1.814877 -0.003679 0.008461 558283.000000 0 0 1
33.863166 31.117251 -10.391729 47.148546 0.743166 1.793025 -0.015183 -0.002062 -1019070.000000 0 0 1
34.342590 30.939651 -9.084329 47.108392 0.733319 1.764851 -0.013532 0.006819 194820.000000 0 0 1
34.097980 32.053351 -8.271029 47.523673 0.754500 1.745727 -0.013582 0.003549 -958457.000000 0 0 1
-34.781535 32.068351 -6.938329 47.815006 -0.744834 1.716418 -0.010332 0.012188 940661.000000 0 0 1
-33.359195 32.243051 -7.051729 46.927360 -0.768386 1.721637 -0.009717 0.012667 1056890.000000 0 0 1
-32.604505 31.132051 -7.552929 45.708917 -0.762300 1.736797 -0.004324 0.016658 -376757.000000 0 0 1
-31.280615 31.592451 -8.221129 45.212242 -0.790358 1.753648 -0.001874 0.013910 -511516.000000 0 0 1
-30.385835 32.223251 -7.326829 44.892308 -0.814737 1.734739 0.008817 0.007808 430406.000000 0 0 1
-29.118815 32.367151 -7.970229 44.261297 -0.838180 1.751856 0.003375 0.006028 195138.000000 0 0 1
-29.055795 33.589251 -8.941929 45.303809 -0.857640 1.769478 -0.008289 0.008770 -828271.000000 0 0 1
-29.175935 -34.627817 -8.402429 46.053466 0.870639 1.754273 -0.022942 0.006736 812732.000000 0 0 1
-28.129625 -34.220217 -7.473529 44.923855 0.882773 1.737933 -0.010155 0.002790 604470.000000 0 0 1
-28.262555 -32.829417 -6.768229 43.844630 0.860013 1.725785 -0.018070 -0.003212 -413175.000000 0 0 1
-29.139725 -32.705817 -5.703029 44.173732 0.842996 1.700262 -0.016611 -0.008317 -219665.000000 0 0 1
-28.578085 -33.131917 -4.490829 43.984070 0.859059 1.673076 -0.012795 -0.006686 -92707.900000 0 0 1
-29.633935 -33.250317 -3.360029 44.665910 0.842843 1.646093 0.005345 -0.004427 -36888.400000 0 0 1
-30.180225 -31.991317 -3.079129 44.088223 0.814520 1.640693 0.000978 0.002336 29342.500000 0 0 1
-30.977385 -32.156417 -1.907229 44.690839 0.804071 1.613485 -0.004021 0.006748 -78451.400000 0 0 1
-31.915415 -30.964017 -1.693829 44.499811 0.770269 1.608869 -0.006875 0.015143 -20742.000000 0 0 1
-32.793155 -30.957117 -0.559729 45.100415 0.756606 1.583207 -0.000691 0.020811 -61209.500000 0 0 1
-33.505515 -29.784517 -0.406529 44.831934 0.726673 1.579864 0.002192 0.020258 -175743.000000 0 0 1
-34.506703 -29.819517 0.754071 45.612332 0.712661 1.554263 0.000237 0.018694 -427706.000000 0 0 1
34.002020 -30.617017 0.577971 45.758859 -0.733062 1.558165 -0.002801 0.016596 792088.000000 0 0 1
32.970960 -30.485417 1.583071 44.932739 -0.746249 1.535557 -0.000441 0.013886 864388.000000 0 0 1
32.205020 -29.136817 1.581271 43.458231 -0.735422 1.534402 -0.009498 0.017511 -1141570.000000 0 0 1
31.396480 -28.922317 0.458471 42.690158 -0.744403 1.560057 -0.017627 0.013651 10664.600000 0 0 1
30.652060 -27.718617 0.598371 41.330722 -0.735185 1.556318 -0.022233 0.012203 -426539.000000 0 0 1
29.572490 -27.655817 -0.504229 40.492353 -0.751919 1.583249 -0.032209 0.004251 -135533.000000 0 0 1
28.352310 -28.266217 -0.112329 40.035548 -0.783878 1.573602 -0.027885 0.008924 186368.000000 0 0 1
28.277510 -29.704317 -0.223829 41.012366 -0.810001 1.576254 -0.023047 0.015427 -643819.000000 0 0 1
27.858580 -30.146417 -1.653829 41.080921 -0.824820 1.611065 -0.021933 -0.003510 154364.000000 0 0 1
26.532310 -29.788017 -2.019829 39.942073 -0.843141 1.621387 -0.014295 0.006566 383543.000000 0 0 1
26.024130 -30.532417 -3.115229 40.239141 -0.864943 1.648292 -0.014429 0.014283 -1093720.000000 0 0 1
24.544320 -30.692817 -3.194729 39.429418 -0.896253 1.651909 -0.014410 0.012532 -1317820.000000 0 0 1
23.705520 -29.628917 -3.559829 38.111636 -0.896006 1.664338 -0.003970 0.014906 -710701.000000 0 0 1
22.401720 -30.128617 -3.595029 37.715976 -0.931445 1.666260 0.006024 0.009511 -330733.000000 0 0 1
21.365220 -28.974617 -3.808129 36.200869 -0.935423 1.676186 0.013981 0.007972 47000.100000 0 0 1
21.336520 -28.322017 -5.042229 35.816307 -0.925152 1.712046 0.009765 0.009722 -53549.400000 0 0 1
20.921620 -26.992617 -4.910929 34.502649 -0.911432 1.713616 0.003099 0.002138 -181196.000000 0 0 1
20.429520 -26.327817 -6.228629 33.901550 -0.910882 1.755573 0.003451 -0.016409 -146932.000000 0 0 1
19.059920 -26.595817 -6.427529 33.345632 -0.948982 1.764765 0.003133 -0.010867 -485519.000000 0 0 1
18.645120 -26.071117 -7.657229 32.954162 -0.949966 1.805300 0.006660 -0.006449 132634.000000 0 0 1
17.102620 -26.086517 -7.821729 32.158754 -0.990486 1.816483 -0.007522 -0.001293 12173.300000 0 0 1
16.576520 -25.141517 -6.937729 30.903220 -0.987891 1.797225 -0.015480 -0.004305 -1191650.000000 0 0 1
15.214120 -25.336517 -6.807629 30.327419 -1.030023 1.797197 -0.013851 -0.002229 -926601.000000 0 0 1
14.579120 -24.462617 -5.742929 29.050845 -1.033341 1.769793 -0.014180 -0.000273 -315926.000000 0 0 1
14.883220 -24.962517 -4.455729 29.402228 -1.033159 1.722926 -0.009275 0.000732 73466.300000 0 0 1
14.275220 -24.210017 -3.457929 28.317205 -1.038029 1.693216 -0.006781 -0.000286 -262789.000000 0 0 1
14.274620 -24.863717 -2.076729 28.745122 -1.049628 1.643106 -0.001700 -0.002918 -14634.900000 0 0 1
13.386220 -25.953217 -2.067429 29.275154 -1.094602 1.641476 0.003174 -0.000765 380877.000000 0 0 1
13.994320 -27.005117 -1.346629 30.445538 -1.092687 1.615042 0.012575 -0.004905 43637.500000 0 0 1
13.428820 -28.402317 -1.805229 31.468773 -1.129139 1.628194 0.005920 0.001913 725932.000000 0 0 1
12.086820 -28.653417 -1.356429 31.127953 -1.171615 1.614386 0.013435 -0.005278 590320.000000 0 0 1
11.596120 -29.937717 -1.690329 32.149559 -1.201250 1.623398 0.016594 -0.004308 -202697.000000 0 0 1
12.277920 -31.203217 -1.039929 33.548018 -1.195921 1.601800 0.015308 -0.005038 -162278.000000 0 0 1
13.586520 -31.458517 -1.487929 34.299355 -1.163107 1.614191 0.014971 0.001588 -254928.000000 0 0 1
13.973820 -32.806317 -1.347929 35.683876 -1.168122 1.608579 0.015602 0.000628 374598.000000 0 0 1
15.422120 -33.052217 -1.910729 36.523167 -1.134225 1.623136 0.008979 0.007444 -123435.000000 0 0 1
16.297520 -32.366017 -1.114529 36.254798 -1.104322 1.601543 0.016077 0.012740 -289925.000000 0 0 1
17.501520 -32.054017 -1.816429 36.565867 -1.071029 1.620492 0.013873 0.012640 121308.000000 0 0 1
18.307720 -30.978517 -1.070529 35.999822 -1.037035 1.600538 0.018383 0.014812 -19662.600000 0 0 1
17.755520 -29.690617 -1.318029 34.619770 -1.031836 1.608877 0.017106 0.015149 170924.000000 0 0 1
18.504620 -28.733017 -0.643529 34.182179 -0.998637 1.589624 0.019017 0.006188 -472537.000000 0 0 1
18.085320 -27.274817 -0.718829 32.733945 -0.985283 1.592758 0.021009 0.005678 -375638.000000 0 0 1
18.478320 -26.616217 -1.935229 32.459458 -0.963940 1.630452 0.014692 0.000401 289889.000000 0 0 1
17.625420 -26.900017 -3.033929 32.302803 -0.990760 1.664856 0.005699 0.001421 -220984.000000 0 0 1
31.568490 -30.057417 13.407971 45.604732 -0.760883 1.272383 -0.012898 -0.004708 249514.000000 0 0 1
32.072270 -30.101117 14.742471 46.390174 -0.753705 1.247395 -0.013788 0.003863 -103523.000000 0 0 1
31.323460 -30.960217 15.519471 46.696340 -0.779566 1.232004 -0.012757 0.007458 -204839.000000 0 0 1
31.787630 -30.969717 16.967171 47.512753 -0.772366 1.205627 -0.011040 0.004924 -60400.500000 0 0 1
30.932080 -31.740417 17.755571 47.744193 -0.798295 1.189752 -0.008775 0.000153 205527.000000 0 0 1
31.439800 -31.800817 19.133271 48.639851 -0.791107 1.166506 -0.006324 0.004629 305678.000000 0 0 1
32.361700 -32.996617 19.509071 50.166326 -0.795112 1.171372 -0.007004 0.008849 -280520.000000 0 0 1
33.593760 -33.027017 18.848671 50.740487 -0.776891 1.190202 -0.008689 0.010984 -180260.000000 0 0 1
34.114379 -34.343017 18.894271 51.963710 -0.788738 1.198661 0.012479 0.005869 844982.000000 0 0 1
-34.359480 -34.543017 17.834271 51.883091 0.788062 1.219900 0.016541 0.008183 1701050.000000 0 0 1
-33.116135 -33.946617 18.230371 50.807457 0.797781 1.203801 0.013602 0.008278 830474.000000 0 0 1
-32.182215 -33.799817 17.163871 49.726463 0.809909 1.218381 0.020729 0.009548 -109909.000000 0 0 1
-30.899515 -33.100917 17.691671 48.615286 0.819781 1.198332 0.005667 0.005648 58878.000000 0 0 1
-29.865075 -32.899017 16.751171 47.485469 0.833699 1.210273 0.007137 0.000650 31368.600000 0 0 1
-30.165375 -31.943217 15.734571 46.667930 0.814015 1.226897 0.019859 -0.003775 -617630.000000 0 0 1
-29.029315 -31.735617 14.693871 45.450637 0.829906 1.241589 0.011054 -0.000941 811983.000000 0 0 1
-27.743075 -31.500117 15.243171 44.657473 0.848731 1.222459 -0.001433 -0.000638 17218.900000 0 0 1
-26.692885 -31.415117 14.308071 43.636460 0.866486 1.236724 0.002950 0.001374 -974843.000000 0 0 1
-25.426415 -31.010817 14.956971 42.800518 0.884026 1.213804 0.005384 -0.003521 -1199120.000000 0 0 1
-24.347325 -30.992517 14.053671 41.842969 0.904906 1.228271 0.010373 0.000564 -147011.000000 0 0 1
-23.189525 -30.413717 14.651271 40.956172 0.919363 1.204960 0.001749 -0.000110 -85092.600000 0 0 1
-22.019225 -30.483117 13.669771 40.011615 0.945233 1.222130 0.003445 -0.003449 -207354.000000 0 0 1
-21.534925 -31.772317 13.290771 40.618687 0.975133 1.237449 0.002231 -0.006375 160570.000000 0 0 1
-20.277525 -31.696817 12.646271 39.696277 1.001672 1.246570 0.001263 -0.010486 205370.000000 0 0 1
-19.873225 -33.088317 12.212671 40.483715 1.029927 1.264354 0.003271 -0.010792 -49080.700000 0 0 1
-20.674525 -33.580217 11.155971 40.981980 1.018930 1.295101 0.000119 -0.005715 78115.800000 0 0 1
-20.587725 34.512851 11.075871 41.685324 -1.032937 1.301864 0.002376 -0.000171 -73236.600000 0 0 1
-21.545525 33.850151 10.067171 41.368954 -1.003972 1.324977 -0.002838 -0.001597 -708502.000000 0 0 1
-21.289625 34.067351 8.698571 41.103500 -1.012249 1.357558 -0.002035 -0.012783 4043.840000 0 0 1
-22.472525 33.977651 7.941771 41.503818 -0.986455 1.378259 0.006259 -0.008185 -255030.000000 0 0 1
-22.111225 34.243551 6.464471 41.271255 -0.997447 1.413515 0.007272 -0.013983 -402619.000000 0 0 1
-21.267625 33.361151 5.763871 39.981252 -1.003261 1.426128 0.005295 -0.015409 531905.000000 0 0 1
-19.854325 33.272151 5.923071 39.195830 -1.032788 1.419100 -0.003128 -0.015363 244916.000000 0 0 1
-19.109025 34.542851 5.530071 39.861575 -1.065501 1.431616 -0.007823 -0.015460 -1244260.000000 0 0 1
-19.209525 -33.873917 6.395771 39.463325 1.054928 1.408010 -0.002931 -0.016717 -94644.300000 0 0 1
-18.537125 -34.007017 7.630071 39.475565 1.071725 1.376286 -0.006298 -0.013680 -444818.000000 0 0 1
-18.447025 -32.729717 8.453571 38.509609 1.057559 1.349475 -0.004147 -0.013068 -186198.000000 0 0 1
-17.421025 -31.818117 8.058971 37.159544 1.069860 1.352184 -0.008373 -0.015350 91501.100000 0 0 1
-17.395325 -30.625017 8.830971 36.310812 1.054231 1.325128 -0.006370 -0.009250 142037.000000 0 0 1
-17.131525 -30.699217 10.363871 36.651616 1.061798 1.284119 -0.012118 -0.002421 -184227.000000 0 0 1
-15.878325 -31.271917 10.607271 36.641073 1.100968 1.277101 -0.009765 -0.004419 -551686.000000 0 0 1
-15.536725 -31.255417 11.989871 36.905934 1.109480 1.239915 -0.012195 0.001114 169343.000000 0 0 1
-14.203925 -32.011517 12.279971 37.111810 1.153183 1.233549 -0.006484 -0.004034 286904.000000 0 0 1
-13.230225 -31.381917 11.463271 35.934248 1.171820 1.246115 -0.007382 0.003531 -258881.000000 0 0 1
-12.206625 -32.320317 11.123071 36.295004 1.209681 1.259321 0.004245 0.002037 -137260.000000 0 0 1
-11.151925 -31.779217 10.176271 35.182959 1.233303 1.277365 0.008441 0.004752 -401934.000000 0 0 1
-10.451925 -30.756417 10.867971 34.253653 1.243211 1.247937 0.013016 0.008155 -163436.000000 0 0 1
-9.465325 -30.179417 10.011271 33.175520 1.266878 1.264251 0.002438 0.011378 694308.000000 0 0 1
-8.434725 -29.239217 10.790471 32.287934 1.289948 1.230045 -0.001737 0.019260 782850.000000 0 0 1
-9.046625 -28.115617 11.388971 31.654984 1.259493 1.202759 -0.000969 0.010107 5784.080000 0 0 1
-8.425225 -27.894117 12.677771 31.777226 1.277466 1.160416 0.003875 0.009186 -61724.900000 0 0 1
-8.975625 -26.680617 13.450371 31.198232 1.246279 1.125056 0.012225 0.003251 44476.700000 0 0 1
-8.644025 -25.374217 12.935871 29.764187 1.242465 1.121189 0.006202 0.003417 -75379.200000 0 0 1
-9.311125 -24.999417 11.741971 29.146900 1.214260 1.156162 -0.000141 0.006755 -122098.000000 0 0 1
-9.125325 -23.581417 11.080471 27.606732 1.201572 1.157786 -0.010035 0.004854 -262723.000000 0 0 1
-7.926925 -23.460117 10.373571 26.848170 1.244951 1.174094 -0.013303 -0.001306 -435393.000000 0 0 1
-7.601325 -22.129217 9.911171 25.410898 1.239926 1.170125 -0.022806 0.000768 -149791.000000 0 0 1
-6.306825 -22.010317 9.097571 24.637287 1.291734 1.192583 -0.020221 -0.008214 -115194.000000 0 1 0
-5.144825 -22.286117 9.843071 24.900327 1.343918 1.164403 -0.013051 -0.004145 145168.000000 0 1 0
-4.004025 -22.403617 8.966271 24.461159 1.393941 1.195497 -0.019213 -0.006703 -150212.000000 0 1 0
-2.894525 -23.177617 9.595371 25.251760 1.446555 1.181013 -0.006552 -0.006010 -935402.000000 0 0 1
-2.189525 -22.420317 10.571471 24.884145 1.473447 1.132025 -0.006296 -0.006709 -331526.000000 0 1 0
-1.247025 -23.370817 11.043971 25.878939 1.517489 1.129895 -0.002038 -0.005050 386697.000000 0 0 1
-0.147325 -22.854817 12.020671 25.823650 1.564350 1.086607 -0.007976 -0.005658 -35142.100000 0 0 1
-0.602825 -22.776117 13.344971 26.404605 1.544335 1.040947 0.000027 -0.000876 -404680.000000 0 0 1
0.334775 -22.532017 14.370671 26.726767 -1.555940 1.003103 -0.005719 -0.000665 -221387.000000 0 0 1
0.925175 -21.050717 14.372671 25.506123 -1.526875 0.972181 0.002636 -0.004678 -550821.000000 0 0 1
1.882775 -20.882517 13.408671 24.888086 -1.480879 1.001833 -0.001790 -0.007967 -963074.000000 0 1 0
2.068475 -19.522717 13.110871 23.607415 -1.465238 0.981987 -0.003852 -0.004807 417708.000000 0 1 0
3.522675 -19.214117 12.645571 23.270196 -1.389472 0.996286 0.003164 -0.008923 548180.000000 0 1 0
3.765675 -19.819017 11.370271 23.157220 -1.383031 1.057555 0.020219 -0.006608 -1492610.000000 0 1 0
5.111375 -20.081217 11.233671 23.570677 -1.321554 1.074019 0.022546 0.002099 -793435.000000 0 1 0
5.552375 -21.028617 10.084271 23.973405 -1.312649 1.136641 0.021351 -0.001181 -441594.000000 0 1 0
5.397275 -20.510017 8.812071 22.966149 -1.313477 1.176999 0.019576 -0.004243 -406363.000000 0 1 0
5.675375 -21.394917 7.703171 23.436962 -1.311501 1.235895 0.018633 -0.004797 -402937.000000 0 1 0
7.128875 -21.905517 7.542771 24.239759 -1.256169 1.254369 0.014014 0.004526 746258.000000 0 1 0
8.133175 -20.964317 7.053071 23.566861 -1.200718 1.266859 0.013192 0.001443 580339.000000 0 1 0
8.469675 -19.835917 7.872671 22.960356 -1.167244 1.220814 0.013449 0.003210 -255088.000000 0 1 0
9.354775 -20.097317 9.110471 23.966949 -1.135149 1.180863 0.003637 0.007439 -128168.000000 0 1 0
8.625075 -20.445817 10.269371 24.451653 -1.171597 1.137366 0.009344 0.008287 -660200.000000 0 1 0
9.333075 -20.025717 11.406471 24.864497 -1.134672 1.094214 0.005539 0.009482 -5132.070000 0 1 0
8.551675 -20.102117 12.736671 25.287330 -1.168577 1.042945 0.010473 0.006441 -147075.000000 0 0 1
8.470475 -21.452417 13.185671 26.567218 -1.194738 1.051449 0.004083 0.004513 -567613.000000 0 0 1
7.595875 -21.573317 14.241871 26.943204 -1.232256 1.013859 0.011023 -0.000312 -364382.000000 0 0 1
7.620075 -22.980017 14.938871 28.448490 -1.250610 1.017940 0.003036 -0.001650 -164551.000000 0 0 1
7.300675 -24.079817 14.145771 28.865902 -1.276419 1.058648 0.005894 0.002523 -428255.000000 0 0 1
7.361775 -25.278017 14.875471 30.239933 -1.287403 1.056509 0.011602 -0.005578 251831.000000 0 0 1
7.212275 -26.558617 14.056471 30.902450 -1.305630 1.098575 0.007905 -0.008103 230046.000000 0 0 1
8.436475 -26.954717 13.468271 31.290977 -1.267468 1.125838 0.017281 -0.005805 -304422.000000 0 0 1
8.310275 -27.977817 12.455371 31.732557 -1.282066 1.167436 0.014592 -0.008027 84844.600000 0 0 1
9.615975 -28.325317 11.655571 32.103628 -1.243521 1.199245 0.021740 -0.013257 -173987.000000 0 0 1
10.493375 -29.036417 12.413671 33.276473 -1.224014 1.188506 0.025019 -0.020234 -842756.000000 0 0 1
11.494575 -29.610017 11.598271 33.814173 -1.200505 1.220687 0.026414 -0.019298 -359090.000000 0 0 1
12.544975 -30.414617 12.363271 35.146491 -1.179590 1.211341 0.022819 -0.015942 -282266.000000 0 0 1
13.477375 -29.507517 12.976971 34.939018 -1.142348 1.190261 0.029543 -0.013071 389373.000000 0 0 1
14.144075 -30.084317 14.100471 36.110169 -1.131314 1.169638 0.034310 -0.010214 -253612.000000 0 0 1
15.604575 -30.483317 13.865871 36.945876 -1.097670 1.186073 0.037230 -0.009248 -618640.000000 0 0 1
16.349675 -29.328717 13.624571 36.236921 -1.062241 1.185336 0.031819 -0.018512 -834431.000000 0 0 1
17.695475 -29.596417 13.411471 36.999261 -1.031928 1.199869 0.019437 -0.010818 -854438.000000 0 0 1
18.450975 -28.471917 12.724571 36.235387 -0.995799 1.211982 -0.004021 -0.017328 537771.000000 0 0 1
19.770775 -28.818917 12.250671 37.033667 -0.969505 1.233647 -0.017806 -0.014911 962199.000000 0 0 1
20.484075 -27.572517 12.090471 36.414565 -0.931844 1.232349 -0.020840 -0.002161 -286817.000000 0 0 1
21.951175 -27.801117 11.751571 37.320981 -0.902442 1.250468 -0.014848 0.000755 -597104.000000 0 0 1
22.692975 -28.546717 12.672271 38.606640 -0.899147 1.236356 -0.009622 -0.000329 -167939.000000 0 0 1
23.983075 -28.801817 12.158371 39.402519 -0.876436 1.257109 -0.015033 -0.004121 -625180.000000 0 0 1
24.818075 -29.646317 13.116271 40.827411 -0.873817 1.243735 -0.009864 0.000010 116870.000000 0 0 1
25.801275 -28.970117 13.921871 41.216404 -0.843190 1.226244 -0.008513 -0.002415 661802.000000 0 0 1
27.074675 -29.014917 13.285471 41.849817 -0.819976 1.247751 -0.014905 -0.001423 615109.000000 0 0 1
28.170775 -28.075817 13.970671 42.154759 -0.783710 1.232995 -0.007846 0.000601 630306.000000 0 0 1
27.950375 -26.677117 13.903071 41.063212 -0.762094 1.225392 -0.000667 0.004527 -10035.400000 0 0 1
27.053575 -26.146217 14.849071 40.447688 -0.768344 1.194888 0.003270 0.001039 -701465.000000 0 0 1
27.755275 -25.943117 16.197971 41.301028 -0.751664 1.167782 -0.002152 0.014272 -275153.000000 0 0 1
28.033875 -27.152717 16.863871 42.515389 -0.769433 1.162928 -0.006301 0.008949 -186257.000000 0 0 1
28.681275 -26.827717 18.033671 43.215220 -0.752019 1.140325 0.011118 0.015636 -560297.000000 0 0 1
29.128775 -28.060617 18.768371 44.588513 -0.766723 1.136333 0.006258 0.013363 -1111620.000000 0 0 1
28.069175 -28.801017 19.224671 44.575387 -0.798266 1.124880 -0.008916 0.007802 -864728.000000 0 0 1
28.349775 -29.712717 20.260171 45.793338 -0.808868 1.112494 0.001877 0.001256 25612.000000 0 0 1
27.146575 -30.571617 20.773671 45.859631 -0.844669 1.100687 -0.000627 0.007548 -906928.000000 0 0 1
26.196175 -29.802317 21.491171 45.125249 -0.849707 1.074404 -0.003633 0.015410 -203329.000000 0 0 1
25.042275 -30.443417 21.936671 45.112467 -0.882435 1.062985 0.004187 0.011344 665790.000000 0 0 1
24.160675 -31.227117 20.844171 44.646954 -0.912294 1.085052 0.005482 0.007606 -965993.000000 0 0 1
24.764875 -32.441117 20.451371 45.650670 -0.918787 1.106272 0.000147 0.000585 -262961.000000 0 0 1
24.160075 -33.040117 19.349371 45.274239 -0.939414 1.129202 0.006212 0.004309 -731780.000000 0 0 1
24.496175 -32.523417 17.917771 44.484624 -0.925259 1.156238 -0.000024 0.011063 91516.100000 0 0 1
25.818875 -32.665417 17.429171 45.137787 -0.901934 1.174361 -0.011857 0.006007 105428.000000 0 0 1
26.120375 -31.463117 16.762771 44.194934 -0.877916 1.181766 -0.015064 -0.001757 644157.000000 0 0 1
27.596675 -31.455817 16.212871 44.876520 -0.850656 1.201159 -0.009269 0.009394 776804.000000 0 0 1
28.059275 -32.256017 15.097171 45.339807 -0.854866 1.231336 0.004304 0.010534 267165.000000 0 0 1
28.096875 -33.625517 15.262671 46.401066 -0.874732 1.235627 0.010690 0.007409 -359588.000000 0 0 1
26.914075 -34.347817 14.555471 46.000019 -0.906151 1.248840 -0.013788 0.007185 213693.000000 0 0 1
27.141075 -34.510017 13.198771 45.845248 -0.904360 1.278765 -0.008332 0.007977 879131.000000 0 0 1
26.198975 33.993851 12.736971 44.768277 0.914180 1.282302 -0.010854 0.001913 571174.000000 0 0 1
26.495675 33.459751 11.314171 44.154119 0.901034 1.311663 -0.007782 0.001998 -56592.600000 0 0 1
27.739775 32.786051 11.206971 44.384868 0.868580 1.315538 -0.017807 0.005878 269323.000000 0 0 1
27.957175 32.177751 9.948671 43.771993 0.855468 1.341509 -0.018104 -0.001419 -435571.000000 0 0 1
29.321675 31.518851 9.764671 44.142354 0.821496 1.347743 -0.012650 -0.004289 -369965.000000 0 0 1
29.628975 30.434151 10.644671 43.788386 0.798803 1.325243 -0.008947 -0.005797 146420.000000 0 0 1
30.972675 30.040951 10.441371 44.393553 0.770129 1.333372 -0.007310 0.003182 -105022.000000 0 0 1
31.625875 29.339251 11.608671 44.673805 0.747909 1.307925 -0.012670 0.002988 -243541.000000 0 0 1
31.217575 28.017051 11.867371 43.592736 0.731419 1.295084 -0.012210 0.008847 145423.000000 0 0 1
31.847575 27.514051 13.031171 44.057944 0.712525 1.270531 -0.017160 -0.000909 -125818.000000 0 0 1
31.688375 26.018551 13.152171 43.059235 0.687460 1.260392 -0.015005 0.001053 348207.000000 0 0 1
32.593975 25.379851 12.232271 43.082856 0.661597 1.282912 -0.004561 0.003203 124080.000000 0 0 1
32.452775 23.997451 12.162371 42.154283 0.636720 1.278115 -0.002481 -0.000417 778348.000000 0 0 1
31.300175 23.418651 11.199871 40.664128 0.642345 1.291766 -0.007027 -0.003402 1050070.000000 0 0 1
30.029375 23.360851 11.803471 39.834842 0.661140 1.269969 -0.010869 -0.003670 -341734.000000 0 0 1
29.007775 23.368751 10.845071 38.796457 0.678148 1.287484 -0.012988 -0.001766 299183.000000 0 0 1
27.625175 22.851351 11.344171 37.603521 0.691104 1.264344 -0.018412 0.001251 387002.000000 0 0 1
27.044775 23.666051 12.341171 37.997452 0.718869 1.240007 -0.021430 0.004312 -51918.400000 0 0 1
26.799875 22.842151 13.482571 37.706457 0.705841 1.205135 0.004695 0.001578 -13236.300000 0 0 1
23.042775 9.429851 26.199584 36.142907 0.388440 0.759924 -0.010434 0.010124 -381197.000000 0 0 1
22.706475 8.284851 26.941254 36.194667 0.349858 0.731246 -0.000187 0.003406 -549381.000000 0 0 1
21.345475 8.054051 27.080904 35.410061 0.360802 0.700097 -0.005453 0.004141 -1036600.000000 0 0 1
21.009175 6.812751 27.894074 35.579184 0.313576 0.669713 -0.001547 0.002191 -403313.000000 0 0 1
21.174875 6.972251 29.293854 36.811920 0.318089 0.650517 0.004461 0.003849 -437342.000000 0 0 1
22.471775 6.823351 29.801454 37.942923 0.294794 0.667408 -0.001182 0.001589 -641524.000000 0 0 1
22.519775 6.700451 31.370584 39.193747 0.289195 0.642838 0.003330 0.004250 -498083.000000 0 0 1
22.261975 7.903051 32.058414 39.822050 0.341124 0.635050 0.014324 0.008938 140999.000000 0 0 1
22.350575 7.654751 33.464693 40.963753 0.329965 0.614721 0.017769 0.009896 -12923.400000 0 0 1
22.799275 8.865251 34.295059 42.125416 0.370848 0.619588 0.019667 0.010928 433056.000000 0 0 1
24.031275 9.519451 33.994139 42.705077 0.377164 0.650104 0.002511 0.008172 236206.000000 0 0 1
24.403875 10.386351 -34.310835 43.366563 0.402381 2.483535 0.007615 0.012653 -269122.000000 0 0 1
25.417375 11.401751 34.421262 44.281668 0.421673 0.680393 0.004558 0.004640 -292154.000000 0 0 1
24.936775 12.653551 33.864982 43.918016 0.469570 0.690237 0.001195 0.007022 356918.000000 0 0 1
24.753975 13.582751 -34.433708 44.530109 0.501852 2.454775 0.002111 -0.003194 -455431.000000 0 0 1
24.096575 14.946651 34.460530 44.627070 0.555199 0.688517 -0.005564 -0.003688 -836056.000000 0 0 1
24.877675 15.705151 33.566546 44.634779 0.563113 0.719665 0.000726 -0.006635 294906.000000 0 0 1
24.589075 17.133151 33.560468 44.994138 0.608561 0.728933 -0.001480 -0.015382 -541790.000000 0 0 1
25.355175 17.939651 34.635636 46.522503 0.615765 0.731023 -0.004680 -0.015600 -100471.000000 0 0 1
24.888875 17.587451 -33.351889 45.178789 0.615168 2.401224 -0.007008 -0.023001 757927.000000 0 0 1
25.951075 17.051151 -32.533859 44.973904 0.581315 2.379502 -0.008523 -0.016136 33783.100000 0 0 1
25.560275 16.544951 -31.125449 43.541436 0.574469 2.367201 -0.019318 -0.005932 -275372.000000 0 0 1
24.765275 15.394151 -31.149369 42.668277 0.556152 2.389171 -0.014159 -0.003349 -257238.000000 0 0 1
24.060975 15.214851 -29.963989 41.331136 0.563864 2.381793 -0.009035 -0.008407 -546330.000000 0 0 1
23.407375 13.862751 -30.083989 40.560171 0.534693 2.406416 0.003370 -0.003147 -636908.000000 0 0 1
22.308075 13.959651 -30.985259 40.652286 0.559150 2.437504 -0.001661 -0.012351 301554.000000 0 0 1
21.808575 12.721551 -31.516889 40.382745 0.528070 2.466189 -0.000672 0.014069 205232.000000 0 0 1
20.922775 11.861351 -30.558469 38.887969 0.515734 2.474797 -0.004963 0.014837 7894.830000 0 0 1
19.713675 12.518351 -30.209139 38.182852 0.565764 2.483517 -0.004618 0.019334 122942.000000 0 0 1
18.895675 11.774151 -29.376509 36.859957 0.557242 2.493069 -0.002291 0.026211 -627206.000000 0 0 1
17.588575 12.474351 -28.994169 36.133492 0.616894 2.502133 -0.000030 0.013379 -532777.000000 0 0 1
16.762375 12.695051 -30.120839 36.734268 0.648191 2.532147 -0.007312 0.020718 -653692.000000 0 0 1
15.603175 13.231651 -29.573599 35.960164 0.703338 2.536411 -0.003081 0.002352 -1321060.000000 0 0 1
14.485175 13.516051 -30.573579 36.431410 0.750802 2.566624 0.001554 0.000370 -109630.000000 0 0 1
13.956875 12.300751 -31.152099 36.284378 0.722410 2.603239 -0.012590 0.012674 -29490.100000 0 0 1
12.774675 11.841851 -30.516999 35.138426 0.747522 2.622923 -0.009320 0.004818 -313010.000000 0 0 1
11.865275 11.049751 -31.472809 35.403664 0.749824 2.665888 -0.003321 0.015800 -199052.000000 0 0 1
11.332475 11.940451 -32.415929 36.356455 0.811516 2.671694 0.002394 0.010995 159965.000000 0 0 1
10.376975 11.191451 -33.201619 36.541451 0.823143 2.710720 0.010435 0.018348 383761.000000 0 0 1
9.822775 12.092351 -34.369784 37.735844 0.888592 2.716013 0.016929 0.012569 251936.000000 0 0 1
10.720375 12.369051 33.862627 37.611134 0.856681 0.450257 0.008492 0.013147 103129.000000 0 0 1
10.053675 13.028851 32.810844 36.706659 0.913584 0.464900 0.004769 0.013192 -603560.000000 0 0 1
10.811375 13.085251 31.507844 35.789019 0.880267 0.494139 0.000907 0.015946 -577472.000000 0 0 1
10.854975 11.801851 30.958694 34.864809 0.827166 0.477897 0.002821 0.011670 142754.000000 0 0 1
11.138375 11.789151 29.577214 33.732167 0.813775 0.501577 0.005872 0.014331 32811.400000 0 0 1
11.876375 10.476351 29.088574 33.120195 0.722847 0.498558 0.006837 0.010237 835084.000000 0 0 1
11.002675 9.326151 29.150364 32.523525 0.703114 0.459475 0.003980 0.002854 592822.000000 0 0 1
11.780775 8.180651 28.905114 32.267868 0.606962 0.460599 -0.004187 -0.002122 -666500.000000 0 0 1
10.971875 6.935251 28.937634 31.715397 0.563684 0.421647 -0.016893 0.000194 -39375.600000 0 0 1
9.993475 6.887451 27.885194 30.412013 0.603437 0.410519 -0.012647 -0.001488 -18686.500000 0 0 1
9.118675 5.779351 27.926314 29.940443 0.564897 0.368888 -0.020912 -0.004977 -81304.000000 0 0 1
9.645575 4.394651 27.498524 29.470645 0.427512 0.367908 -0.027061 0.002549 -498572.000000 0 0 1
10.544075 3.738251 28.329214 30.458109 0.340710 0.376100 -0.030705 0.000732 -58951.900000 0 0 1
10.662375 2.412351 27.851044 29.919664 0.222503 0.374034 -0.038270 0.005024 -662313.000000 0 0 1
11.216375 1.476851 28.923794 31.057592 0.130916 0.372843 -0.039679 0.003487 -567829.000000 0 0 1
10.350575 1.211551 29.984394 31.743757 0.116521 0.334495 -0.027909 -0.001848 -595801.000000 0 0 1
10.610375 0.008651 30.695314 32.477414 0.000815 0.332810 -0.026459 0.002398 21867.700000 0 0 1
9.573975 -0.260449 31.802514 33.213382 -0.027197 0.292517 -0.021074 0.006910 210097.000000 0 0 1
9.773575 0.670251 32.826384 34.257021 0.068471 0.290020 -0.028611 0.000801 609918.000000 0 0 1
8.542775 0.767451 33.570890 34.649280 0.089596 0.250143 -0.020185 -0.007071 910696.000000 0 0 1
8.583075 2.109851 34.323001 35.442757 0.241036 0.252036 -0.004346 -0.003691 -142437.000000 0 0 1
8.412075 3.267951 33.556335 34.748671 0.370539 0.262721 -0.017386 -0.008505 105177.000000 0 0 1
9.521975 3.686151 32.760744 34.315041 0.369354 0.302129 -0.024252 -0.009984 -175592.000000 0 0 1
9.425775 5.113651 32.130784 33.873027 0.497081 0.322123 -0.023358 -0.011868 -68964.000000 0 0 1
9.558275 6.279751 32.957464 34.885388 0.581278 0.334010 -0.018345 -0.009806 974.776000 0 0 1
9.677775 7.440351 32.165284 34.403832 0.655430 0.362726 -0.015086 -0.004410 -276717.000000 0 0 1
9.739975 8.748551 32.986344 35.489479 0.731826 0.377828 -0.005030 0.002696 360049.000000 0 0 1
8.540775 9.188351 33.637762 35.900831 0.821908 0.356960 0.000891 -0.000409 233325.000000 0 0 1
8.194575 8.410051 -34.542381 36.483641 0.798374 2.813911 0.001415 -0.002472 -329403.000000 0 0 1
6.776475 8.711751 -34.027589 35.772783 0.909705 2.827945 0.007006 0.002643 60363.500000 0 0 1
6.391475 7.882251 -32.917269 34.446007 0.889463 2.842551 0.011240 0.009103 301448.000000 0 0 1
5.019175 8.032951 -32.576109 33.925260 1.012324 2.858627 0.007528 0.010395 402292.000000 0 0 1
4.581575 7.221551 -31.346579 32.492301 1.005444 2.875245 0.000679 0.016134 -333239.000000 0 0 1
5.088775 7.829151 -30.139519 31.552842 0.994437 2.841157 0.009237 0.010818 395063.000000 0 0 1
4.601375 7.214951 -28.908019 30.147997 1.003077 2.853791 -0.002437 0.013969 658703.000000 0 0 1
3.114375 7.559951 -28.555229 29.702749 1.180025 2.862721 -0.001015 0.010575 691940.000000 0 0 1
2.138175 7.015751 -29.455139 30.354534 1.274971 2.897555 -0.005608 0.011645 382653.000000 0 0 1
0.925475 7.729251 -29.215249 30.234560 1.451627 2.881191 0.007267 0.018580 82483.000000 0 0 1
-0.203325 7.254251 -30.142189 31.003501 -1.542775 2.905327 0.005869 0.021352 -207445.000000 0 0 1
0.015275 7.737351 -31.440449 32.378522 1.568822 2.900292 -0.002438 0.028384 256231.000000 0 0 1
-0.313625 6.720351 -32.372019 33.063712 -1.524162 2.936686 0.000012 0.019815 -225021.000000 0 0 1
-0.143925 7.223051 -33.868739 34.630689 -1.550873 2.931434 0.007588 0.009882 -824822.000000 0 0 1
1.188075 7.411351 -34.197979 35.012018 1.411844 2.925533 0.007277 0.008422 -420939.000000 0 0 1
1.854475 6.305351 34.456828 35.078049 1.284751 0.188479 0.008449 0.006946 56568.900000 0 0 1
1.526075 6.228851 32.975784 33.593598 1.330528 0.192081 0.016755 -0.005595 -476563.000000 0 0 1
0.353175 5.544851 32.565184 33.035758 1.507188 0.168987 0.018942 -0.008621 -210812.000000 0 0 1
0.222275 5.497651 31.116064 31.598782 1.530387 0.175017 0.031311 -0.011659 -151107.000000 0 0 1
1.085075 4.582851 30.261864 30.626138 1.338309 0.154388 0.045178 -0.020785 -207763.000000 0 0 1
0.790775 4.753751 28.880054 29.279361 1.405958 0.165342 0.037214 -0.019451 -175707.000000 0 0 1
1.539375 3.908751 28.081444 28.393934 1.195622 0.148498 0.032908 -0.017534 -340472.000000 0 0 1
1.498175 4.234051 26.561714 26.938752 1.230705 0.167505 0.028308 -0.020356 435348.000000 0 0 1
2.238575 5.464351 26.319724 26.974029 1.181983 0.220706 0.025217 -0.013159 401533.000000 0 0 1
2.102875 5.829951 25.007134 25.763679 1.224620 0.242939 0.018678 -0.012255 -656853.000000 0 0 1
2.746375 7.190951 24.705964 25.877345 1.205972 0.302034 0.022841 -0.007125 859652.000000 0 0 1
4.183375 7.179251 24.757944 26.115093 1.043192 0.323804 0.017581 0.002520 738237.000000 0 0 1
4.790575 6.811851 23.504984 24.936624 0.957879 0.340497 0.017736 -0.006480 -1026480.000000 0 1 0
6.307575 6.774351 23.677084 25.422070 0.821064 0.372668 0.018174 0.002135 -432469.000000 0 0 1
6.916175 5.830151 24.555714 26.168822 0.700401 0.352948 0.010525 0.005831 25925.600000 0 0 1
6.580575 4.464351 24.427654 25.689388 0.596091 0.314714 0.007633 0.002962 -738766.000000 0 0 1
6.926675 3.796351 23.100484 24.413592 0.501366 0.329470 0.008652 0.001947 176592.000000 0 1 0
5.968175 4.039451 22.085384 23.231454 0.595007 0.315416 0.010373 -0.003882 1002390.000000 0 1 0
4.776775 3.186451 22.184784 22.915839 0.588283 0.253270 0.013145 -0.004643 981683.000000 0 1 0
3.691275 3.544251 21.151884 21.762110 0.765081 0.237372 0.006344 -0.010637 -100814.000000 0 1 0
3.196975 4.834551 21.436184 22.205934 0.986535 0.264069 0.004931 -0.004358 -459103.000000 0 1 0
2.073275 5.127951 20.666084 21.393489 1.186581 0.261517 0.002393 -0.002231 -814326.000000 0 1 0
1.641175 6.572351 20.952584 22.020446 1.326092 0.312702 0.005922 0.002609 -363901.000000 0 1 0
2.408675 7.482151 20.227184 21.700767 1.259350 0.370641 0.003317 -0.001968 -304241.000000 0 1 0
2.083475 8.782251 20.529684 22.426251 1.337866 0.414219 0.014645 0.001293 -158502.000000 0 1 0
3.059875 9.787351 19.924684 22.408662 1.267788 0.475310 0.023237 -0.010938 -793109.000000 0 1 0
2.871375 10.082951 18.538584 21.297648 1.293365 0.514676 0.005969 -0.006520 -256796.000000 0 1 0
3.610775 11.192951 18.039284 21.534522 1.258742 0.577754 -0.003427 -0.008148 -188956.000000 0 1 0
5.137675 11.020451 18.063784 21.774902 1.134557 0.592461 0.004371 -0.008798 -730208.000000 0 1 0
5.545375 10.004351 17.185084 20.643772 1.064661 0.587266 0.005568 -0.008071 -816335.000000 0 1 0
6.860875 9.642451 17.479584 21.108868 0.952375 0.595143 -0.003006 0.000583 -327644.000000 0 1 0
7.056875 8.125351 17.822184 20.819487 0.855659 0.543249 0.008185 -0.006601 -20202.500000 0 1 0
6.671575 7.906251 19.208584 21.817159 0.869892 0.494018 0.016675 -0.008436 5115.490000 0 1 0
6.739375 6.538551 19.612884 21.744816 0.770275 0.446517 0.014277 -0.013918 -228134.000000 0 1 0
8.120475 5.943551 19.955984 22.349703 0.631830 0.467057 0.019734 -0.008327 107408.000000 0 1 0
8.912375 5.790051 18.746784 21.549873 0.576139 0.515745 0.016022 -0.013362 1565700.000000 0 1 0
10.239975 5.240051 19.061684 22.263491 0.472984 0.542955 0.018412 -0.011484 1542990.000000 0 1 0
10.330975 3.725851 18.985084 21.932725 0.346130 0.524438 0.020814 -0.010973 -272150.000000 0 1 0
9.667375 3.111051 20.077384 22.499736 0.311343 0.468296 0.023792 -0.009480 76146.800000 0 1 0
10.011675 1.744551 20.150084 22.567742 0.172520 0.467115 0.025094 -0.017543 100891.000000 0 1 0
9.117975 0.900051 21.089984 22.994238 0.098393 0.409837 0.024755 -0.020485 201280.000000 0 1 0
9.375675 1.191251 22.474784 24.381105 0.126381 0.398068 0.006036 -0.012136 174269.000000 0 1 0
8.524375 0.380451 23.256684 24.772627 0.044601 0.351650 0.009772 -0.015567 -497894.000000 0 1 0
8.887875 0.388251 24.786254 26.334453 0.043656 0.344602 -0.005303 -0.001909 477350.000000 0 0 1
10.211975 -0.082549 25.064704 27.065303 -0.008083 0.386902 -0.016248 -0.004896 634448.000000 0 0 1
10.319575 -1.495749 24.947074 27.038628 -0.143940 0.395911 -0.014735 -0.006323 -876317.000000 0 0 1
11.727675 -2.027649 25.164114 27.836708 -0.171202 0.441784 -0.024290 -0.001674 -605624.000000 0 0 1
11.664375 -3.405949 25.176064 27.955184 -0.284097 0.449679 -0.012848 0.006329 -583137.000000 0 0 1
12.877075 -4.038549 25.494594 28.846200 -0.303908 0.486850 -0.021226 0.008182 -537260.000000 0 0 1
12.821075 -5.607049 25.631484 29.202601 -0.412268 0.499729 -0.011369 0.005898 -396741.000000 0 0 1
12.833975 -6.251749 24.382404 28.254148 -0.453295 0.529683 -0.008058 0.008114 148066.000000 0 0 1
12.676475 -7.633549 24.606444 28.713083 -0.542023 0.541422 -0.006520 0.004974 -28581.300000 0 0 1
12.631775 -8.414449 23.323984 27.827556 -0.587633 0.576893 0.014435 0.002186 111023.000000 0 0 1
12.072175 -9.678849 23.567684 28.193142 -0.675806 0.580959 0.009537 0.007183 -343880.000000 0 0 1
12.170675 -10.426549 22.376984 27.523947 -0.708368 0.621509 0.009480 0.004886 89085.800000 0 0 1
11.578475 -11.845149 22.462384 27.909269 -0.796782 0.635397 0.016512 0.009782 -230964.000000 0 0 1
10.182375 -11.868149 22.544584 27.437055 -0.861700 0.606437 0.016028 0.011298 -864098.000000 0 0 1
9.701975 -13.196249 22.535084 27.858559 -0.936830 0.628499 0.015589 0.013188 7256.550000 0 0 1
8.195475 -13.183749 22.888484 27.656097 -1.014621 0.595959 0.014346 0.017436 257252.000000 0 0 1
7.493075 -12.412449 21.869184 26.238831 -1.027680 0.585445 0.014718 0.007500 -205104.000000 0 0 1
6.106875 -12.431949 22.126884 26.104526 -1.114194 0.559301 0.006341 0.010139 214873.000000 0 0 1
5.389775 -11.266949 21.381184 24.761842 -1.124602 0.528681 0.005489 0.011744 176472.000000 0 1 0
5.617575 -9.957749 21.898184 24.703124 -1.057161 0.481170 0.011676 0.009065 -27538.600000 0 1 0
4.726675 -8.987149 21.345784 23.637952 -1.086615 0.444024 0.013098 0.008533 142362.000000 0 1 0
5.206475 -7.549149 21.699484 23.557687 -0.967032 0.399845 0.014813 -0.005915 127488.000000 0 1 0
4.392475 -6.506949 21.219484 22.625223 -0.977017 0.354361 0.001188 -0.002393 -84110.600000 0 1 0
5.037275 -5.247749 21.392484 22.595384 -0.805859 0.327767 0.023758 -0.017642 177432.000000 0 1 0
-7.338925 -15.744249 -20.778129 27.082685 1.134607 2.445277 0.008063 0.008250 -26616.000000 0 0 1
-6.884325 -15.238449 -19.539229 25.717420 1.146469 2.433750 0.003709 -0.002499 -308334.000000 0 0 1
-6.465225 -13.920349 -19.726729 24.994381 1.135996 2.480377 0.003762 -0.009748 -260715.000000 0 1 0
-5.952225 -13.374349 -18.395829 23.509758 1.152068 2.469429 0.010044 -0.016531 6729.490000 0 1 0
-4.850825 -14.186549 -18.041429 23.458086 1.241328 2.448216 0.002482 -0.004004 -439950.000000 0 1 0
-4.235425 -13.790649 -16.840829 22.175083 1.272818 2.433261 0.001895 -0.005847 158882.000000 0 1 0
-3.246325 -14.918349 -16.388829 22.398425 1.356530 2.391602 -0.005224 0.012743 599669.000000 0 1 0
-2.068325 -14.902649 -17.187429 22.842386 1.432888 2.422549 -0.010116 0.003628 565626.000000 0 1 0
-0.899825 -15.387049 -16.491029 22.572660 1.512383 2.389960 -0.001263 0.006395 974605.000000 0 1 0
0.379575 -15.316649 -17.375629 23.165843 -1.546020 2.418940 -0.000976 0.013607 391666.000000 0 1 0
0.318475 -16.260949 -18.365429 24.531793 -1.551214 2.416801 0.005420 0.004917 -273848.000000 0 1 0
0.328375 -17.648049 -18.180929 25.339842 -1.552192 2.370980 0.008405 0.010193 -286803.000000 0 0 1
0.004075 -18.321049 -19.467229 26.732636 -1.570574 2.386517 0.006526 -0.000429 119467.000000 0 0 1
-1.292725 -17.926949 -19.870129 26.793071 1.498810 2.406270 0.010002 0.003720 -129868.000000 0 0 1
-1.581425 -18.424949 -21.180629 28.117586 1.485176 2.423843 0.015811 0.006359 -393023.000000 0 0 1
-2.770425 -17.819449 -21.912629 28.379064 1.416559 2.452999 0.012208 0.011346 -333317.000000 0 0 1
-2.739325 -16.410749 -22.072929 27.641106 1.405399 2.495686 0.011832 0.014463 239280.000000 0 0 1
-3.355525 -15.592649 -21.002629 26.372346 1.358830 2.492096 0.004750 0.007403 239311.000000 0 0 1
-2.498025 -14.366949 -20.635229 25.267806 1.398644 2.526398 0.000036 0.003519 -22789.100000 0 0 1
-2.533425 -13.376149 -21.706029 25.622086 1.383615 2.581415 -0.001252 -0.009666 -173293.000000 0 0 1
-1.642125 -12.342749 -21.459929 24.810654 1.438529 2.615843 -0.003360 -0.000024 -301628.000000 0 1 0
-1.607825 -11.544349 -22.790029 25.597705 1.432413 2.668834 0.001159 0.009109 104248.000000 0 0 1
-2.691625 -10.644149 -22.891829 25.388552 1.323115 2.694388 0.000870 0.004192 154613.000000 0 0 1
-2.742025 -10.034849 -24.113129 26.261376 1.304058 2.734302 0.004414 0.003830 -674254.000000 0 0 1
-3.874125 -9.064849 -24.300629 26.224052 1.166912 2.756209 0.007562 0.007168 -897791.000000 0 0 1
-5.172325 -9.607849 -24.246029 26.588223 1.076946 2.718707 -0.004562 0.000521 -164009.000000 0 0 1
-6.032525 -8.500149 -24.089829 26.248119 0.953592 2.733233 0.006097 0.002521 -284219.000000 0 0 1
-7.513125 -8.927349 -24.268229 26.927524 0.871208 2.693425 -0.010865 0.001792 67234.600000 0 0 1
-7.949525 -9.095449 -25.606569 28.312868 0.852527 2.700802 -0.008150 -0.014824 99678.300000 0 0 1
-8.737325 -8.019649 -26.114919 28.681782 0.742596 2.715301 -0.011034 -0.008681 25910.200000 0 0 1
-9.354725 -8.281449 -27.480059 30.186866 0.724617 2.714881 -0.007323 -0.002937 -82900.600000 0 0 1
-9.987025 -7.120949 -28.018939 30.586100 0.619411 2.728959 -0.006548 -0.003881 70910.400000 0 0 1
-10.309725 -7.507949 -29.323689 31.977155 0.629428 2.731340 0.000410 -0.001979 -57726.800000 0 0 1
-11.184225 -6.512449 -30.105969 32.769929 0.527295 2.735591 0.000071 -0.007150 57983.800000 0 0 1
-10.417025 -5.477149 -30.666159 32.847022 0.484065 2.775143 -0.002786 -0.005985 147598.000000 0 0 1
-11.219925 -4.839249 -31.616459 33.895509 0.407202 2.772798 0.002783 -0.012543 -194057.000000 0 0 1
-10.401825 -3.750749 -32.336049 34.174349 0.346074 2.812105 0.000325 -0.008987 350939.000000 0 0 1
-9.575325 -4.255649 -33.385169 34.990954 0.418220 2.837465 0.013370 -0.004728 402348.000000 0 0 1
-8.918625 -3.256849 -34.199216 35.492750 0.350128 2.870784 0.010668 -0.006444 322249.000000 0 0 1
-7.796625 -3.840649 34.208976 35.295779 0.457713 0.248800 0.017619 -0.012337 -16928.300000 0 0 1
-6.705325 -4.252749 -34.334186 35.240368 0.565212 2.914325 0.018316 -0.010911 -234721.000000 0 0 1
-5.628625 -4.663949 34.151624 34.925166 0.691946 0.210859 0.008354 -0.011150 1149240.000000 0 0 1
-4.150425 -4.261949 34.489870 34.999162 0.798654 0.170804 0.021290 -0.012498 871292.000000 0 0 1
-3.970425 -2.888749 34.264958 34.614975 0.628988 0.142329 0.033953 -0.017641 -994089.000000 0 0 1
-2.687525 -2.490649 34.572642 34.766272 0.747396 0.105590 0.029406 -0.021831 -768656.000000 0 0 1
-2.720925 -0.990449 -34.354713 34.476524 0.349102 3.057506 0.033250 -0.023044 -9846.750000 0 0 1
-3.152325 -0.834049 -33.034999 33.195541 0.258655 3.043204 0.021657 -0.017436 83774.400000 0 0 1
-3.598925 0.452751 -32.706639 32.907164 -0.125144 3.031140 0.022745 -0.016527 -907476.000000 0 0 1
-3.862625 0.425251 -31.190689 31.431827 -0.109652 3.017644 0.032982 -0.010631 103268.000000 0 0 1
-4.949325 -0.405749 -30.828289 31.225692 0.081798 2.981881 0.023312 -0.011068 -249737.000000 0 0 1
-6.166525 0.294851 -30.908199 31.518720 -0.047778 2.944448 0.020623 -0.009523 -168068.000000 0 0 1
-7.434625 -0.612649 -30.731279 31.623733 0.082219 2.903455 0.016495 -0.005382 533481.000000 0 0 1
-7.619025 -1.101249 -29.407609 30.398516 0.143545 2.885562 0.009631 -0.005654 640801.000000 0 0 1
-8.674925 -2.101649 -29.419649 30.743894 0.237687 2.847021 0.004035 -0.003367 825863.000000 0 0 1
-9.087325 -2.652449 -28.027669 29.583191 0.283995 2.815867 -0.002118 -0.001322 60589.000000 0 0 1
-9.902725 -1.819249 -27.212429 29.015339 0.181686 2.787218 -0.003445 0.005850 355923.000000 0 0 1
-10.300125 -2.467049 -26.001479 28.075894 0.235088 2.754774 -0.009139 0.010435 -162725.000000 0 0 1
-11.164225 -1.618849 -25.115919 27.533071 0.144000 2.719440 -0.016040 0.012610 -375642.000000 0 0 1
-10.432425 -0.604849 -24.487929 26.624425 0.057913 2.738250 -0.008260 0.007849 367609.000000 0 0 1
-11.287125 0.224751 -23.710929 26.261338 -0.019910 2.697227 -0.008714 0.008568 416036.000000 0 0 1
-10.453725 1.453551 -23.309229 25.587367 -0.138160 2.716417 -0.011349 0.008897 302932.000000 0 0 1
-10.326925 2.403851 -24.354029 26.562052 -0.228702 2.730971 -0.014501 0.003899 -28075.900000 0 0 1
-9.511625 3.493151 -23.978729 26.031761 -0.351960 2.741779 -0.011951 0.009979 -277970.000000 0 0 1
-9.600425 4.658751 -24.995529 27.178090 -0.451790 2.738097 -0.002472 0.006825 -84396.100000 0 0 1
-10.949325 5.071551 -25.092819 27.843454 -0.433763 2.693351 -0.002486 0.005215 -57804.200000 0 0 1
-11.485625 4.796251 -26.357779 29.148861 -0.395575 2.700410 -0.003280 -0.000064 -35938.300000 0 0 1
-12.845625 5.469151 -26.647889 30.083744 -0.402514 2.658990 -0.008275 0.002241 153929.000000 0 0 1
-12.780325 6.863051 -26.876159 30.541220 -0.492809 2.646651 0.000789 0.000522 314179.000000 0 0 1
-14.103225 7.311951 -27.124829 31.434407 -0.478306 2.611781 0.010959 -0.003807 -162920.000000 0 0 1
-14.261825 8.845551 -27.058219 31.840079 -0.555159 2.586433 0.012416 -0.002337 -613515.000000 0 0 1
-14.000625 9.443051 -25.766149 30.807193 -0.593388 2.561420 0.017536 -0.006803 186579.000000 0 0 1
-14.238625 10.846851 -25.881449 31.468111 -0.651005 2.536529 0.011134 -0.002516 -337296.000000 0 0 1
-13.933625 11.658551 -24.569829 30.557229 -0.696734 2.504888 0.004756 -0.002870 -283697.000000 0 0 1
-14.628925 11.110051 -23.478229 29.810500 -0.649527 2.477672 0.014871 -0.001125 98430.600000 0 0 1
-14.333925 11.867651 -22.333229 29.070185 -0.691548 2.446902 0.013349 0.004068 -361352.000000 0 0 1
-15.267425 11.580951 -21.163129 28.549794 -0.648944 2.405758 0.012108 0.008605 -58301.800000 0 0 1
-16.531825 12.189151 -21.320029 29.604396 -0.635333 2.374835 0.010883 0.003177 -51702.300000 0 0 1
-16.837125 12.966151 -20.171729 29.300316 -0.656237 2.330143 0.012114 0.009854 -199162.000000 0 0 1
-18.290825 13.478051 -20.181629 30.389312 -0.635048 2.297090 0.010383 0.001829 -114967.000000 0 0 1
-18.520725 14.472051 -21.130729 31.606411 -0.663295 2.303065 0.001363 -0.000239 474971.000000 0 0 1
-19.865925 14.895851 -20.932929 32.476590 -0.643385 2.271237 -0.006765 -0.001308 308340.000000 0 0 1
-20.126125 16.278551 -21.636129 33.736838 -0.680100 2.267015 -0.009286 0.000116 -187591.000000 0 0 1
-20.095525 16.239551 -23.053129 34.626578 -0.679671 2.299314 0.002751 -0.001640 86649.800000 0 0 1
-20.246825 17.490051 -23.710329 35.749343 -0.712475 2.295934 0.004883 0.000884 -193655.000000 0 0 1
-19.915525 17.433751 -25.183949 36.534848 -0.719048 2.331337 -0.001223 -0.003277 -461584.000000 0 0 1
-18.546425 17.232751 -25.428219 35.882195 -0.748698 2.358391 -0.004579 -0.000059 -195881.000000 0 0 1
-18.365625 16.990351 -26.798439 36.662304 -0.746520 2.390514 -0.010381 -0.005738 -19120.200000 0 0 1
-17.925525 18.192851 -27.660119 37.648193 -0.792799 2.396020 -0.010053 -0.008584 -500153.000000 0 0 1
-18.967625 19.137451 -27.688599 38.635105 -0.789855 2.369811 -0.011330 -0.015139 218763.000000 0 0 1
-18.547325 20.297651 -28.355229 39.497050 -0.830427 2.371588 -0.017944 -0.008624 -1190760.000000 0 0 1
-19.664625 21.239551 -28.817489 40.844384 -0.823882 2.353986 0.005439 -0.014034 -478080.000000 0 0 1
-20.376825 21.848551 -27.773979 40.791765 -0.820238 2.319749 0.017088 -0.001527 583155.000000 0 0 1
-21.390625 21.011951 -27.201829 40.484570 -0.776468 2.307576 0.037552 -0.015469 -371320.000000 0 0 1
-22.129025 21.663151 -26.001519 40.435935 -0.774760 2.269244 0.045400 -0.010762 -53102.000000 0 0 1
-21.408325 21.506151 -24.821529 39.203817 -0.787678 2.256400 0.029074 -0.010574 -185744.000000 0 0 1
-22.032725 22.075051 -23.676129 39.157476 -0.786358 2.220109 0.026928 -0.024333 56184.400000 0 0 1
-21.641025 21.261451 -22.391429 37.706225 -0.776551 2.206618 0.020362 -0.012008 498107.000000 0 0 1
-20.368825 21.660251 -21.886029 36.919558 -0.816115 2.205331 0.013985 -0.008045 -218126.000000 0 0 1
-19.644225 20.753551 -21.166429 35.561541 -0.812851 2.208318 0.001598 -0.003477 -460179.000000 0 0 1
-20.270325 20.176451 -19.890729 34.836997 -0.783077 2.178478 0.002207 -0.003475 -1904820.000000 0 0 1
-21.189525 19.163951 -20.148329 34.960094 -0.735244 2.185019 0.010511 -0.003540 -153909.000000 0 0 1
-22.071325 18.901151 -19.086729 34.766365 -0.708179 2.151963 0.020605 -0.002243 -26928.100000 0 0 1
-23.159125 19.966951 -18.854829 35.923931 -0.711513 2.123340 0.017907 -0.009153 -1364720.000000 0 0 1
-24.307025 19.875551 -19.650229 37.040525 -0.685433 2.129994 0.023408 -0.009170 68238.300000 0 0 1
-25.221635 20.919251 -19.340129 38.049790 -0.692423 2.103988 0.026981 -0.014099 123723.000000 0 0 1
-26.669155 20.692551 -19.904329 39.186832 -0.659871 2.103581 0.025333 -0.017040 659316.000000 0 0 1
-27.412655 19.585351 -19.447529 38.900463 -0.620367 2.094315 0.034855 -0.009824 212376.000000 0 0 1
-27.681075 19.515351 -18.043029 38.375015 -0.614078 2.060287 0.015258 -0.007383 -1091010.000000 0 0 1
-28.392635 18.239551 -17.555829 38.039849 -0.571017 2.050495 -0.000269 -0.003472 -421675.000000 0 0 1
-27.657095 17.044851 -17.436429 36.871004 -0.552313 2.063380 0.006040 -0.003606 117196.000000 0 0 1
-28.503465 15.995851 -16.976129 36.830745 -0.511394 2.049831 -0.003396 -0.000993 240661.000000 0 0 1
-27.830405 15.015351 -15.981829 35.431781 -0.494770 2.038748 0.000893 -0.002108 -311404.000000 0 0 1
-27.497485 15.521351 -14.711629 34.834696 -0.513880 2.006807 -0.006887 0.000673 242602.000000 0 0 1
-28.550155 15.742551 -13.785229 35.397342 -0.503917 1.970823 -0.019342 0.002323 291680.000000 0 0 1
-27.956095 16.380451 -12.515429 34.734686 -0.530013 1.939402 -0.019725 -0.002682 732669.000000 0 0 1
-27.234745 17.634151 -12.569329 34.794866 -0.574607 1.940395 -0.021327 -0.001575 123568.000000 0 0 1
-28.153185 18.675851 -12.631029 36.068437 -0.585714 1.928577 -0.024251 -0.009279 -532826.000000 0 0 1
-27.522125 20.070851 -12.777629 36.380960 -0.630096 1.929667 -0.014108 -0.009002 -63383.500000 0 0 1
-26.812165 20.430551 -11.607829 35.651667 -0.651129 1.902432 -0.034223 -0.009823 50107.900000 0 0 1
-25.822595 21.397151 -11.989029 35.614342 -0.691951 1.914137 -0.028469 -0.009096 325240.000000 0 0 1
-24.992125 21.796951 -10.737529 34.856964 -0.717215 1.883934 -0.026504 -0.000829 -279729.000000 0 0 1
-25.614705 22.534251 -9.664729 35.458604 -0.721508 1.846853 -0.003620 -0.000241 -91914.800000 0 0 1
-25.928075 23.866551 -10.055229 36.646760 -0.744021 1.848744 0.001937 -0.000454 -273673.000000 0 0 1
-26.528175 24.745651 -8.925829 37.359895 -0.750647 1.812044 0.018352 0.003252 -242989.000000 0 0 1
-25.611915 25.146951 -7.933329 36.759721 -0.776238 1.788324 0.015220 0.006786 -61195.600000 0 0 1
-26.229975 25.770651 -6.803329 37.395499 -0.776565 1.753744 0.024536 0.002046 211440.000000 0 0 1
-26.029395 24.888051 -5.570029 36.441319 -0.762986 1.724247 0.021180 -0.006019 -27871.300000 0 0 1
-26.765015 23.672451 -5.625329 36.171748 -0.724160 1.726947 0.016650 -0.001997 -130258.000000 0 0 1
-26.363295 22.752151 -4.624929 35.129385 -0.712007 1.702834 0.009806 -0.002689 57344.600000 0 0 1
-26.748015 21.290151 -4.861629 34.530600 -0.672268 1.712058 -0.008578 0.002485 -54563.700000 0 0 1
-26.007975 20.530851 -5.795829 33.638107 -0.668248 1.743960 -0.025627 -0.004453 -60143.900000 0 0 1
-26.041265 20.884851 -7.183629 34.145703 -0.675954 1.782762 -0.024083 -0.001370 -635698.000000 0 0 1
-26.767745 19.860851 -8.096729 34.300476 -0.638342 1.809098 -0.016419 -0.000322 -444160.000000 0 0 1
-26.274215 18.566351 -8.109629 33.178455 -0.615167 1.817723 -0.032949 0.001947 21759.100000 0 0 1
-26.777535 17.925551 -9.246429 33.523995 -0.589910 1.850234 -0.034508 -0.001545 -12307.000000 0 0 1
-26.238845 16.475351 -9.339029 32.359414 -0.560681 1.863564 -0.028556 0.001268 462917.000000 0 0 1
-27.063905 15.562851 -8.593629 32.380670 -0.521865 1.839409 -0.042505 0.001348 394966.000000 0 0 1
-26.746575 14.265551 -9.046329 31.634180 -0.489978 1.860812 -0.035474 -0.002094 -71992.000000 0 0 1
-27.289715 13.147751 -8.225129 31.388607 -0.448969 1.835934 -0.035804 -0.008843 202329.000000 0 0 1
-28.685435 12.877651 -8.332629 32.528769 -0.421961 1.829846 -0.031678 -0.001250 160162.000000 0 0 1
-29.095385 12.016551 -7.287029 32.311604 -0.391667 1.798277 -0.028181 -0.003553 -242877.000000 0 0 1
-29.824945 10.796451 -7.835629 32.672432 -0.347320 1.812981 -0.033860 -0.007724 -122436.000000 0 0 1
-28.929885 9.946051 -8.546929 31.763378 -0.331139 1.843235 -0.019453 -0.009409 -314858.000000 0 0 1
-29.477635 8.698851 -8.699329 31.941812 -0.286955 1.846630 -0.028267 -0.001602 -847302.000000 0 0 1
-28.617605 7.520751 -9.236029 30.997311 -0.256990 1.873354 -0.004818 0.001255 -503329.000000 0 0 1
-28.361385 7.716251 -10.622429 31.252915 -0.265639 1.917592 -0.008109 -0.001325 97430.100000 0 0 1
-27.356855 6.821051 -11.049629 30.282315 -0.244354 1.944308 0.011903 -0.005788 -464257.000000 0 0 1
-26.975315 7.098951 -12.554129 30.588705 -0.257330 1.993708 0.021403 -0.007390 -192423.000000 0 0 1
-26.344445 8.358451 -12.502729 30.334992 -0.307230 1.995615 0.021875 -0.016552 16862.000000 0 0 1
-25.538245 8.416951 -13.663329 30.161790 -0.318371 2.040925 0.025546 -0.005558 -149004.000000 0 0 1
-30.312155 26.208751 -34.183842 52.671249 -0.712926 2.277071 -0.004931 0.006844 -1752.700000 0 0 1
-30.549615 27.596951 -34.374802 53.632991 -0.734662 2.266501 -0.005461 0.004878 232637.000000 0 0 1
-30.611585 27.965851 33.564295 53.345289 -0.740262 0.890286 0.003246 -0.001221 -73788.200000 0 0 1
-30.886855 29.436351 33.280581 54.111863 -0.761357 0.908369 0.010444 -0.006945 30461.600000 0 0 1
-30.771215 29.759551 31.908034 53.391209 -0.768687 0.930258 0.016832 -0.005846 238032.000000 0 0 1
-31.154545 31.149051 31.814304 54.341688 -0.785310 0.945362 0.021450 -0.007581 85200.600000 0 0 1
-31.095995 31.747151 30.389244 53.836314 -0.795759 0.970999 0.035094 -0.012816 1449150.000000 0 0 1
-29.727185 31.873651 29.901894 52.856016 -0.820229 0.969486 0.027560 -0.011254 1238820.000000 0 0 1
-29.629115 32.687851 28.787104 52.679004 -0.834442 0.992662 0.022912 -0.003107 -144707.000000 0 0 1
-28.255445 32.550351 28.128014 51.469221 -0.855914 0.992615 0.019384 -0.004964 -405148.000000 0 0 1
-28.275315 31.422251 27.193274 50.262566 -0.838064 0.999142 0.018427 -0.011464 705539.000000 0 0 1
-27.050615 31.325151 26.454664 49.120771 -0.858492 1.002065 -0.007140 0.002832 384283.000000 0 0 1
-26.949175 32.249551 25.204714 49.005808 -0.874695 1.030581 -0.009133 0.004582 -344636.000000 0 0 1
-26.713385 33.615051 25.544374 49.960902 -0.899305 1.034114 -0.013558 0.003724 172480.000000 0 0 1
-27.541665 34.522551 24.849034 50.673705 -0.897406 1.058278 -0.009355 0.015416 -163207.000000 0 0 1
-27.860295 -33.699717 25.656254 50.696256 0.879973 1.040165 0.003755 0.012111 -90813.400000 0 0 1
-28.601895 -33.972817 26.855024 51.898102 0.871020 1.026920 0.017804 -0.002459 338453.000000 0 0 1
-28.690755 -32.783717 27.598314 51.571295 0.851880 1.006113 0.023863 -0.001356 -126649.000000 0 0 1
-29.283865 -32.937917 29.018934 52.768833 0.844057 0.988521 0.039954 -0.013394 312817.000000 0 0 1
-30.646375 -33.351517 28.981634 53.772290 0.827642 1.001583 0.037122 -0.007594 -20157.200000 0 0 1
-30.946235 -33.500417 30.315694 54.763023 0.825010 0.984140 0.035600 -0.006507 315371.000000 0 0 1
-32.434515 -33.801017 30.651334 55.982237 0.806026 0.991400 0.046236 -0.009339 368674.000000 0 0 1
-32.627565 -34.301317 31.947764 57.112153 0.810401 0.977151 0.037763 -0.010611 1237930.000000 0 0 1
-34.027345 -34.508317 32.297454 58.239246 0.792416 0.982956 0.023887 -0.003937 1283540.000000 0 0 1
-34.357036 34.564951 33.731491 59.270189 -0.788415 0.965368 0.017633 -0.004228 -22432.900000 0 0 1
-33.877095 33.260851 34.021608 58.407291 -0.776220 0.949009 0.016590 -0.001250 -2940.500000 0 0 1
-34.548090 32.709151 -34.165968 58.572796 -0.758063 2.193591 0.019722 0.000564 226741.000000 0 0 1
-33.994525 31.328151 -33.703859 57.210409 -0.744602 2.200767 0.007957 0.005923 605929.000000 0 0 1
-32.774875 31.454951 -32.981749 56.137351 -0.764851 2.198786 0.016425 0.005215 -109898.000000 0 0 1
-32.341665 30.248851 -32.413709 54.878273 -0.751974 2.202657 0.005882 -0.001972 339184.000000 0 0 1
-31.509085 30.248551 -31.115699 53.628202 -0.764990 2.189785 0.006969 0.001412 228998.000000 0 0 1
-32.280405 30.463951 -29.944819 53.542218 -0.756456 2.164307 0.012381 -0.002013 -160647.000000 0 0 1
-32.601495 31.835851 -29.629679 54.353443 -0.773517 2.147340 0.005561 0.004327 604401.000000 0 0 1
-33.677895 32.095651 -28.513039 54.564868 -0.761347 2.120639 0.003644 0.004315 642755.000000 0 0 1
-33.317125 31.595951 -27.212349 53.374591 -0.758889 2.105792 -0.006088 -0.003342 -696610.000000 0 0 1
-34.404973 31.693051 -26.377799 53.702327 -0.744392 2.084246 -0.001730 0.001365 -767764.000000 0 0 1
-34.093238 31.253751 -24.934029 52.543807 -0.741973 2.065235 -0.006367 0.003779 -85452.700000 0 0 1
-33.512965 32.311651 -24.169329 52.453009 -0.767150 2.049671 0.000654 -0.007405 98698.600000 0 0 1
-33.222405 31.941251 -22.847829 51.439236 -0.765740 2.031045 -0.010371 -0.008483 433336.000000 0 0 1
-34.496190 31.852251 -21.929629 51.821440 -0.745570 2.007745 -0.009164 -0.009721 533728.000000 0 0 1
34.449123 33.026651 -21.630029 52.396182 0.764320 1.996341 -0.002827 -0.015041 -102371.000000 0 0 1
-34.487379 34.029851 -20.898929 52.765285 -0.778721 1.978033 -0.004379 -0.015641 -30999.900000 0 0 1
-34.284422 33.699751 -19.373129 51.830618 -0.776798 1.953875 -0.004132 -0.019130 57339.000000 0 0 1
-33.326115 32.702951 -19.100129 50.447279 -0.775961 1.959096 0.000937 -0.022274 -79134.700000 0 0 1
-33.058065 32.555851 -17.724329 49.667605 -0.777744 1.935700 0.007075 -0.016640 162890.000000 0 0 1
-31.916425 31.565651 -17.377529 48.135507 -0.779873 1.940150 0.001944 -0.007367 189396.000000 0 0 1
-31.900605 31.312551 -16.021029 47.484712 -0.776096 1.914943 0.005527 -0.005124 159885.000000 0 0 1
-30.726995 30.576551 -15.687229 46.099489 -0.782944 1.918022 0.000420 0.002238 186880.000000 0 0 1
-30.446415 30.476951 -14.158029 45.346208 -0.785899 1.888326 -0.002188 0.003132 -440999.000000 0 0 1
-31.386105 29.699251 -13.471129 45.261512 -0.757790 1.873004 0.005991 0.003717 86716.700000 0 0 1
-31.027715 29.481851 -12.117529 44.482954 -0.759856 1.846691 0.016727 0.004963 214915.000000 0 0 1
-31.989295 28.416451 -11.474229 44.299748 -0.726320 1.832797 0.015660 0.003285 26052.100000 0 0 1
-31.474475 27.813451 -10.370829 43.264128 -0.723727 1.812863 0.025060 0.010745 485890.000000 0 0 1
-32.466055 27.056951 -9.628729 43.345539 -0.694773 1.794804 0.012529 0.016459 132934.000000 0 0 1
-31.831875 26.195251 -8.513529 42.094414 -0.688564 1.774450 0.012868 0.015409 217545.000000 0 0 1
-31.387055 26.819551 -7.278429 41.921487 -0.707088 1.745301 0.016383 0.013873 165542.000000 0 0 1
-30.337765 27.735651 -7.476129 41.779647 -0.740621 1.750707 0.032169 0.009239 -814917.000000 0 0 1
-30.003465 28.276351 -6.050829 41.669803 -0.755772 1.716520 0.032931 0.004157 -455340.000000 0 0 1
-29.371205 27.295051 -5.276829 40.441717 -0.748776 1.701649 0.041136 -0.003939 237515.000000 0 0 1
-29.177165 27.683551 -3.944429 40.413420 -0.759136 1.668554 0.034129 -0.006013 255241.000000 0 0 1
-28.497185 26.511951 -3.106429 39.046422 -0.749325 1.650438 0.026350 -0.007799 350119.000000 0 0 1
-29.408945 25.475251 -2.803129 39.009384 -0.713848 1.642716 0.029073 0.002853 296241.000000 0 0 1
-28.734745 24.472951 -2.049429 37.799618 -0.705471 1.625041 0.000990 0.001048 -89389.200000 0 0 1
-29.603025 23.321351 -1.588329 37.719323 -0.667259 1.612918 -0.002161 0.001930 -648481.000000 0 0 1
-29.894165 22.426451 -2.644729 37.464669 -0.643626 1.641448 0.006500 0.011532 243165.000000 0 0 1
-30.834995 21.445451 -2.228729 37.625411 -0.607693 1.630066 0.028299 0.019105 60897.700000 0 0 1
-31.127785 20.494151 -3.391329 37.422592 -0.582249 1.661543 0.008406 0.017075 656693.000000 0 0 1
-29.962785 19.720551 -3.766229 36.067342 -0.582096 1.675409 -0.004133 0.011898 850424.000000 0 0 1
-30.123885 19.162151 -5.031929 36.054914 -0.566550 1.710816 0.000019 0.008941 -249736.000000 0 0 1
-29.006515 18.204951 -5.446429 34.676531 -0.560478 1.728513 -0.005853 0.004629 -273295.000000 0 0 1
-28.882875 16.921551 -4.722729 33.806265 -0.529963 1.710955 -0.007886 0.003186 -59641.000000 0 0 1
-28.092205 16.012951 -5.428229 32.787990 -0.518079 1.737117 -0.026423 -0.001291 -359687.000000 0 0 1
-27.701805 14.714651 -4.686929 31.715584 -0.488280 1.719120 -0.024689 0.004762 -488693.000000 0 0 1
-28.800465 13.938951 -4.288429 32.282376 -0.450753 1.704031 0.003219 -0.002657 -117097.000000 0 0 1
-28.475825 12.798851 -3.515429 31.417216 -0.422408 1.682926 -0.001775 -0.007010 -547909.000000 0 0 1
-29.724465 12.129551 -2.958829 32.240107 -0.387441 1.662700 0.016373 -0.019969 -1213490.000000 0 0 1
-30.527415 11.633751 -3.918929 32.903271 -0.364101 1.690184 0.008061 -0.012838 114163.000000 0 0 1
-31.436235 10.612151 -3.436529 33.356624 -0.325565 1.674003 0.012508 -0.013580 1335240.000000 0 0 1
-32.608005 10.145351 -4.419329 34.434585 -0.301637 1.699491 0.001784 -0.008168 947920.000000 0 0 1
-32.119465 9.298151 -5.439329 33.877750 -0.281784 1.732052 -0.005845 -0.010791 678921.000000 0 0 1
-33.201115 8.853651 -6.241629 34.923619 -0.260603 1.750484 -0.002487 -0.003131 139940.000000 0 0 1
-32.697505 7.899851 -7.301229 34.421541 -0.237061 1.784532 -0.012615 -0.008026 -583729.000000 0 0 1
-32.200475 6.716551 -6.750729 33.579086 -0.205637 1.773215 -0.018604 -0.003963 259771.000000 0 0 1
-31.899195 5.811751 -7.808629 33.351309 -0.180215 1.807123 -0.027155 0.006752 -678540.000000 0 0 1
-30.900915 4.698651 -7.409929 32.122437 -0.150900 1.803570 -0.022452 0.006125 -1055650.000000 0 0 1
-29.676355 5.272651 -7.177529 30.983929 -0.175837 1.804573 -0.017513 -0.002145 -732234.000000 0 0 1
-28.670675 4.323851 -6.830829 29.788648 -0.149683 1.802165 -0.022526 -0.001463 213737.000000 0 0 1
-27.260415 4.907451 -6.625429 28.479987 -0.178113 1.805582 -0.001493 -0.003909 -15118.400000 0 0 1
-26.751965 5.342151 -7.864929 28.391255 -0.197099 1.851487 0.006199 -0.001067 1425230.000000 0 0 1
-25.307245 5.511351 -7.808929 27.052006 -0.214430 1.863627 0.026850 -0.000762 1475690.000000 0 0 1
-24.568325 5.907451 -9.107129 26.859642 -0.235970 1.916718 0.030606 -0.000992 -215947.000000 0 0 1
-24.468725 4.891151 -10.088029 26.914870 -0.197294 1.954991 0.031671 -0.007435 578271.000000 0 0 1
-23.473525 5.162951 -11.076229 26.464038 -0.216501 2.002632 0.028336 -0.016113 -102049.000000 0 0 1
-23.546925 4.296751 -12.325329 26.922732 -0.180490 2.046320 0.035525 -0.017379 96041.100000 0 0 1
-24.613925 4.781151 -13.125829 28.301804 -0.191857 2.053054 0.039862 -0.012023 143925.000000 0 0 1
-25.108205 3.737251 -13.935129 28.958191 -0.147761 2.072837 0.034376 -0.008624 -335784.000000 0 0 1
-26.054535 4.397951 -14.929729 30.349260 -0.167222 2.085102 0.020125 -0.001188 -887204.000000 0 0 1
-25.458025 5.301151 -15.830229 30.443545 -0.205297 2.117631 0.020881 0.002259 -456813.000000 0 0 1
-26.233905 6.230851 -16.505929 31.614664 -0.233191 2.120104 0.047526 0.002920 -846485.000000 0 0 1
-27.071355 5.719951 -17.700929 32.846598 -0.208229 2.139923 -0.003558 0.022531 957835.000000 0 0 1
-28.193025 4.913451 -17.225129 33.402002 -0.172546 2.112611 -0.007292 0.007152 699428.000000 0 0 1
-28.876995 4.313451 -18.326829 34.472589 -0.148277 2.131326 -0.003784 0.017199 136672.000000 0 0 1
-30.224495 3.669851 -17.936229 35.336896 -0.120828 2.103168 -0.007583 0.012181 -310905.000000 0 0 1
-30.289375 2.513151 -17.096429 34.871909 -0.082782 2.083189 0.000999 0.002463 -133221.000000 0 0 1
-29.767465 1.350351 -17.650629 34.633367 -0.045332 2.105565 0.017528 -0.001409 -379011.000000 0 0 1
-29.982565 0.089451 -16.795329 34.366340 -0.002983 2.081412 0.019387 -0.001457 -873295.000000 0 0 1
-29.409345 -1.062349 -17.352229 34.163402 0.036107 2.103563 0.023897 0.002164 186876.000000 0 0 1
-29.390955 -2.173449 -16.464729 33.758546 0.073815 2.080273 0.017123 -0.008057 82506.000000 0 0 1
-29.064175 -3.384949 -17.325529 34.005266 0.115942 2.105395 0.020876 -0.006840 -297465.000000 0 0 1
-30.215845 -3.711649 -18.043429 35.388402 0.122226 2.105828 0.017659 -0.008865 -139614.000000 0 0 1
-30.025115 -4.852549 -18.854229 35.784588 0.160231 2.125723 0.022005 -0.005471 -373933.000000 0 0 1
-31.135125 -5.093749 -19.847629 37.272921 0.162165 2.132341 0.028273 -0.004647 -637135.000000 0 0 1
-30.887835 -6.291349 -20.599929 37.656294 0.200935 2.149634 0.037399 -0.002105 150052.000000 0 0 1
-31.851815 -6.464049 -21.640829 39.046735 0.200222 2.158233 0.038237 -0.000861 -391344.000000 0 0 1
-31.687945 -7.686449 -22.531229 39.634122 0.237971 2.175454 0.042140 -0.000083 -141417.000000 0 0 1
-30.514085 -7.567949 -23.300929 39.132040 0.243109 2.208614 0.036841 -0.009387 -82808.400000 0 0 1
-30.486675 -8.432749 -24.410029 39.954951 0.269857 2.228042 0.033369 0.003862 -497599.000000 0 0 1
-29.108565 -8.430849 -25.050329 39.318021 0.281920 2.261553 0.034278 0.002796 -633246.000000 0 0 1
-28.834685 -7.231149 -25.765939 39.339702 0.245712 2.284926 0.048037 -0.008390 12946.600000 0 0 1
-28.833755 -7.222649 -27.222609 40.306606 0.245442 2.312287 0.047905 -0.004265 88678.800000 0 0 1
-30.220975 -7.289749 -27.921609 41.785931 0.236693 2.302591 0.038805 -0.003077 293301.000000 0 0 1
-30.924625 -8.521649 -27.754699 42.417853 0.268889 2.284075 0.026236 0.001811 -111939.000000 0 0 1
-32.101985 -8.630349 -28.541329 43.813558 0.262632 2.280260 0.021990 0.001767 45299.700000 0 0 1
-32.919655 -9.772449 -28.036799 44.331327 0.288571 2.255492 0.007076 0.004664 -1549540.000000 0 0 1
-32.275155 -10.946149 -28.280639 44.286548 0.326977 2.263452 0.002341 0.008916 -249249.000000 0 0 1
-33.077345 -12.106949 -27.968629 44.977029 0.350874 2.241890 -0.010024 0.008958 76165.900000 0 0 1
-34.315770 -12.369049 -28.870359 46.519491 0.345952 2.240314 -0.024993 0.007880 -318441.000000 0 0 1
34.394792 -11.397149 -28.556189 46.134072 -0.319976 2.238243 -0.029435 0.002759 -258639.000000 0 0 1
33.364520 -11.247749 -29.554429 45.969200 -0.325152 2.269098 -0.032444 -0.002065 430595.000000 0 0 1
32.319000 -10.172949 -29.211709 44.736233 -0.304949 2.282304 -0.028961 0.000298 -355976.000000 0 0 1
31.351160 -10.607249 -28.295949 43.543882 -0.326247 2.278152 -0.037070 -0.000331 151290.000000 0 0 1
30.482330 -9.513749 -27.899569 42.403653 -0.302527 2.288892 -0.029255 -0.001644 404192.000000 0 0 1
29.453280 -9.852749 -26.839779 41.048095 -0.322819 2.283474 -0.028289 0.002724 -364789.000000 0 0 1
30.074460 -10.030649 -25.586889 40.740348 -0.321925 2.249838 -0.034834 0.003731 191883.000000 0 0 1
29.108380 -10.339049 -24.585029 39.479328 -0.341292 2.243025 -0.023448 0.009638 15971.800000 0 0 1
29.589610 -10.455849 -23.089029 38.961174 -0.339667 2.205099 -0.024564 0.008702 229941.000000 0 0 1
30.387480 -11.608349 -22.773329 39.708654 -0.364903 2.181581 -0.026820 0.010306 265519.000000 0 0 1
30.651260 -11.663049 -21.391029 39.154854 -0.363591 2.148759 -0.009423 0.010050 -495947.000000 0 0 1
31.589150 -12.789049 -21.030329 40.046334 -0.384685 2.123688 -0.002902 0.013232 -12597.700000 0 0 1
32.903420 -12.672249 -21.568829 41.333223 -0.367626 2.119789 -0.000630 0.014272 274249.000000 0 0 1
33.760600 -13.626749 -20.933829 41.996328 -0.383631 2.092627 0.010128 0.018499 -77649.200000 0 0 1
-34.549797 -13.616449 -21.662029 42.992321 0.375419 2.098856 -0.000829 0.011494 -566395.000000 0 0 1
-33.714985 -12.472649 -21.516029 41.895187 0.354330 2.110134 0.006830 0.014131 414749.000000 0 0 1
-34.047155 -11.273549 -22.283129 42.223684 0.319753 2.126734 0.008532 0.014901 -712914.000000 0 0 1
-33.738245 -11.293549 -23.788029 42.798175 0.323016 2.160144 -0.002085 0.010213 399179.000000 0 0 1
-34.540690 -12.155449 -24.600929 44.113716 0.338381 2.162373 -0.007396 0.011768 137446.000000 0 0 1
33.757417 -11.872149 -24.752929 43.511132 -0.338180 2.175949 0.001071 0.013545 -260532.000000 0 0 1
33.003650 -12.848049 -25.704629 43.761184 -0.371241 2.198619 -0.020448 0.009496 -284154.000000 0 0 1
33.019700 -14.266249 -25.416509 44.043449 -0.407829 2.185943 -0.008763 0.002599 192302.000000 0 0 1
32.493460 -14.586849 -24.155329 43.035811 -0.421952 2.166733 -0.012875 -0.001558 -568924.000000 0 0 1
-28.210005 8.091851 -20.418729 35.752020 -0.279343 2.178667 -0.016125 0.004970 -681109.000000 0 0 1
-27.081155 7.508651 -20.949329 35.052007 -0.270471 2.211381 -0.013629 0.006682 -982756.000000 0 0 1
-26.116245 8.473351 -21.311529 34.756830 -0.313732 2.230852 -0.005572 0.002041 -32027.500000 0 0 1
-24.755025 7.776651 -21.548429 33.728658 -0.304382 2.263833 -0.004114 0.007714 -260481.000000 0 0 1
-24.274125 7.253351 -20.294229 32.460745 -0.290365 2.246175 0.009021 0.007375 847325.000000 0 0 1
-23.061225 6.477751 -20.414529 31.472756 -0.273837 2.276594 0.004203 0.003560 1324540.000000 0 0 1
-21.737625 7.221651 -20.077129 30.459279 -0.320747 2.290480 0.008005 0.004170 246328.000000 0 0 1
-21.390925 8.232851 -20.978029 31.071357 -0.367401 2.311973 0.008737 0.001372 170293.000000 0 0 1
-20.132625 8.810451 -20.655329 30.159398 -0.412512 2.325224 0.012736 0.002460 109036.000000 0 0 1
-19.535625 9.799151 -21.637129 30.754339 -0.464930 2.351173 0.000249 -0.001156 -273752.000000 0 0 1
-18.992825 9.170151 -22.768429 31.035793 -0.449811 2.394428 0.006760 -0.001147 19105.600000 0 0 1
-18.283825 10.038251 -23.641329 31.527404 -0.502093 2.418656 0.007043 -0.001762 -52160.800000 0 0 1
-17.427325 9.209351 -24.582529 31.509118 -0.486142 2.465737 0.011644 -0.000245 -73836.400000 0 0 1
-18.265025 8.425551 -25.440319 32.431634 -0.432206 2.472571 0.007434 -0.000710 39030.500000 0 0 1
-17.507325 7.756451 -26.424959 32.633532 -0.417051 2.514520 0.001904 0.004665 -1234150.000000 0 0 1
-18.216425 6.626251 -27.123969 33.338492 -0.348873 2.521102 -0.006270 0.008879 -301757.000000 0 0 1
-18.548825 5.551151 -26.324499 32.678027 -0.290789 2.507436 0.002843 0.007247 277662.000000 0 0 1
-19.444625 4.650751 -26.968119 33.570856 -0.234769 2.503644 -0.005369 0.009739 -594051.000000 0 0 1
-19.758525 3.365051 -26.110489 32.916265 -0.168690 2.486908 -0.005951 0.013992 -336036.000000 0 0 1
-18.797825 2.366051 -25.886479 32.079062 -0.125210 2.509781 -0.003600 0.019810 189649.000000 0 0 1
-17.641325 2.800851 -25.183679 30.875213 -0.157452 2.524666 -0.005875 0.017272 109681.000000 0 0 1
-16.654825 1.741951 -24.637229 29.789438 -0.104212 2.544628 -0.005313 0.016687 18997.100000 0 0 1
-17.065625 1.069551 -23.468529 29.037069 -0.062591 2.511931 -0.005418 0.019204 64633.100000 0 0 1
-18.061425 0.083451 -23.694229 29.793263 -0.004620 2.490279 -0.004570 0.023615 3086.940000 0 0 1
-18.632125 -0.531549 -22.409229 29.148108 0.028521 2.447768 0.008501 0.016205 178358.000000 0 0 1
-17.863525 -1.570549 -21.791229 28.221088 0.087694 2.453032 0.001626 0.013347 388342.000000 0 0 1
-18.629825 -2.124149 -20.700429 27.930094 0.113528 2.405580 0.010137 0.002551 13151.100000 0 0 1
-18.184725 -3.491049 -20.144829 27.362123 0.189669 2.398279 0.008341 -0.010107 -175933.000000 0 0 1
-18.228125 -4.484849 -21.152529 28.280875 0.241248 2.415756 0.001358 -0.012817 283686.000000 0 0 1
-18.346225 -5.761949 -20.563529 28.153912 0.304312 2.389699 0.010999 -0.005828 -230903.000000 0 0 1
-18.330225 -6.894849 -21.608929 29.163023 0.359775 2.405310 -0.006712 -0.001165 -3899.920000 0 0 1
-17.038325 -7.070049 -22.162829 28.835414 0.393327 2.447442 -0.003970 -0.005116 237957.000000 0 0 1
-17.126825 -7.817749 -23.402529 30.035374 0.428215 2.464130 -0.012948 0.005282 -303591.000000 0 0 1
-15.744625 -7.945949 -24.069129 29.838805 0.467382 2.509239 -0.015651 0.005795 -828980.000000 0 0 1
-15.726025 -8.453249 -25.360419 31.014773 0.493221 2.528180 -0.017949 0.007075 8460.040000 0 0 1
-14.442225 -8.531549 -25.945489 30.895527 0.533580 2.567677 -0.011561 0.006977 221405.000000 0 0 1
-13.410225 -9.576649 -25.408339 30.284155 0.620147 2.566235 -0.005407 0.004987 -516212.000000 0 0 1
-12.797925 -9.003249 -24.302429 28.904211 0.613066 2.569541 -0.014962 0.002040 -387006.000000 0 0 1
-11.863125 -9.879549 -23.723029 28.304087 0.694420 2.564676 -0.015277 -0.000450 -248528.000000 0 0 1
-10.966425 -9.165749 -22.708629 26.831982 0.696193 2.579848 -0.017467 0.001708 -428314.000000 0 0 1
-11.643525 -8.771849 -21.538729 26.008342 0.645653 2.546590 -0.023254 0.000900 220483.000000 0 0 1
-10.811025 -8.010849 -20.668429 24.662439 0.637709 2.564501 -0.024120 0.002203 -349623.000000 0 1 0
-11.456025 -7.771949 -19.208629 23.677312 0.596093 2.517113 -0.015668 -0.003227 181880.000000 0 1 0
-12.449125 -6.770849 -19.144129 23.818539 0.498134 2.504366 -0.009504 -0.003624 -251926.000000 0 1 0
-13.716825 -7.299749 -19.450529 24.894993 0.489055 2.467547 -0.005228 -0.010441 -333727.000000 0 1 0
-14.845325 -6.234249 -19.260629 25.104210 0.397583 2.445303 0.000007 -0.005161 73636.900000 0 0 1
-15.234725 -5.866349 -17.916729 24.238813 0.367565 2.402641 0.002612 -0.011151 343734.000000 0 1 0
-14.605325 -4.672649 -17.515129 23.279367 0.309637 2.422477 0.003869 -0.006255 -646651.000000 0 1 0
-14.706925 -4.277049 -16.024329 22.166775 0.283012 2.378784 0.006507 -0.008100 823542.000000 0 1 0
-16.016125 -4.051149 -15.461829 22.627334 0.247746 2.323104 0.011467 -0.014238 697514.000000 0 1 0
-16.619625 -2.804049 -15.770829 23.082324 0.167145 2.322991 -0.006993 -0.013747 384232.000000 0 1 0
-17.917725 -2.488749 -14.979229 23.486508 0.138016 2.262409 -0.001977 -0.014489 183567.000000 0 1 0
-17.553925 -2.566449 -13.647629 22.382688 0.145175 2.226529 0.006989 -0.012687 997478.000000 0 1 0
-18.514325 -1.974549 -12.723129 22.551210 0.106248 2.170246 -0.003428 -0.020706 514055.000000 0 1 0
-17.896325 -0.780449 -11.907529 21.509923 0.043582 2.157457 -0.006924 -0.016363 -1697.050000 0 1 0
-17.611225 0.386151 -12.642829 21.682839 -0.021923 2.193311 0.003440 -0.020864 89369.100000 0 1 0
-16.503925 1.078351 -12.150429 20.522556 -0.065246 2.204400 -0.004343 -0.014260 -853113.000000 0 1 0
-16.131025 2.151351 -13.183529 20.943823 -0.132585 2.251669 0.008388 -0.012009 -103906.000000 0 1 0
-15.603225 1.594751 -14.379429 21.278436 -0.101853 2.312812 0.019732 -0.012084 1670450.000000 0 1 0
-14.181725 1.268651 -14.319929 20.193840 -0.089219 2.359051 0.009448 -0.009180 842316.000000 0 1 0
-13.659325 0.248651 -15.307729 20.517445 -0.018202 2.412957 0.008057 -0.009066 -220127.000000 0 1 0
-13.503625 0.760351 -16.597629 21.410449 -0.056248 2.457846 0.004513 -0.005260 399415.000000 0 1 0
-12.593125 -0.079149 -17.327329 21.420303 0.006285 2.513110 -0.016986 -0.001222 212541.000000 0 1 0
-11.966525 0.461951 -18.621329 22.139671 -0.038584 2.570081 -0.017049 0.004650 -39869.200000 0 1 0
-10.933525 1.409051 -18.412129 21.460053 -0.128168 2.602105 -0.017332 0.002719 -315562.000000 0 1 0
-10.554125 2.071751 -19.601129 22.358130 -0.193833 2.639732 -0.015996 0.014995 449420.000000 0 1 0
-9.141825 2.691551 -19.438229 21.648606 -0.286331 2.685766 -0.022520 0.016088 -48779.300000 0 1 0
-8.064425 1.791151 -19.663029 21.327866 -0.218558 2.743858 -0.027114 0.021744 14347.100000 0 1 0
-6.789725 2.358651 -19.456129 20.741373 -0.334344 2.787711 -0.018659 0.021696 363568.000000 0 1 0
-6.293525 3.437751 -20.463529 21.683694 -0.499949 2.804526 -0.014421 0.029871 -839179.000000 0 1 0
-6.170525 2.942651 -21.779729 22.827421 -0.444988 2.837449 -0.017484 0.030928 125381.000000 0 1 0
-5.792225 3.962451 -22.673629 23.734876 -0.599974 2.841427 -0.012639 0.018065 -312233.000000 0 1 0
-5.376425 3.455151 -24.073129 24.907018 -0.571190 2.882099 -0.005427 0.010169 1227780.000000 0 1 0
-4.044425 2.858951 -24.077229 24.581374 -0.615333 2.938715 0.001488 0.006370 1086460.000000 0 1 0
-3.751525 2.188151 -25.262179 25.632784 -0.528027 2.971339 0.008666 -0.002864 -145162.000000 0 0 1
-2.395325 1.447751 -25.135499 25.290845 -0.543654 3.030699 0.001060 -0.006304 -492908.000000 0 0 1
-1.339325 2.388551 -25.197569 25.345935 -1.059755 3.033339 0.010365 -0.005797 1132150.000000 0 0 1
-0.034925 1.739151 -25.097219 25.157429 -1.550717 3.072393 0.011329 -0.010267 1335230.000000 0 0 1
0.442475 1.021451 -23.792429 23.818455 1.162016 3.094840 0.004344 -0.014324 -899418.000000 0 1 0
0.008175 -0.331249 -23.709629 23.711944 -1.546123 3.127618 0.007942 -0.017985 -146617.000000 0 1 0
0.600075 -1.049249 -22.692929 22.725097 -1.051288 3.088379 0.010114 -0.017142 -1067540.000000 0 1 0
0.221875 -2.511249 -22.692829 22.832435 -1.482673 3.030953 0.013986 -0.022846 542765.000000 0 1 0
-1.060825 -2.808049 -22.123929 22.326637 1.209590 3.006737 0.007739 -0.014512 1065850.000000 0 1 0
-2.265325 -2.663549 -22.894629 23.160100 0.866017 2.990038 0.013785 -0.011304 630535.000000 0 1 0
-2.973425 -1.300749 -22.824629 23.054216 0.412375 3.000347 0.008416 -0.006229 -1536110.000000 0 1 0
-3.627025 -1.081649 -21.596629 21.925776 0.289822 2.968101 -0.000335 -0.000349 27287.900000 0 1 0
-4.486525 0.047051 -21.593929 22.055133 -0.010487 2.936728 -0.014801 0.006560 226319.000000 0 1 0
-5.832025 -0.166849 -22.305429 23.055856 0.028601 2.885755 -0.008511 0.011681 -1005070.000000 0 1 0
-6.520425 -1.275049 -21.853629 22.841252 0.193110 2.846453 -0.006893 0.022753 -1151380.000000 0 1 0
-7.889825 -1.151349 -22.023329 23.422253 0.144905 2.794230 -0.016772 0.025469 -839744.000000 0 1 0
-8.658225 -2.413749 -21.658529 23.449582 0.271878 2.748219 -0.024811 0.019138 -192868.000000 0 1 0
-8.568925 -3.469849 -22.627729 24.443413 0.384753 2.753728 -0.010510 0.017546 -272972.000000 0 1 0
-9.128525 -4.696449 -22.216829 24.473947 0.475165 2.708744 -0.021456 0.022522 -449622.000000 0 1 0
-9.746225 -5.433249 -23.430829 25.952126 0.508562 2.697145 -0.027341 0.022060 -92707.800000 0 0 1
-11.055925 -4.959549 -23.598429 26.527654 0.421679 2.667218 -0.023433 0.026248 -748748.000000 0 0 1
-11.826525 -5.691549 -24.499429 27.793568 0.448538 2.649780 -0.028635 0.013740 1081030.000000 0 0 1
-13.368425 -5.393949 -24.264729 28.223865 0.383506 2.605525 -0.033514 0.007176 880642.000000 0 0 1
-13.676825 -4.054249 -24.511929 28.360662 0.288180 2.614540 -0.027336 0.011394 -150996.000000 0 0 1
-15.070825 -3.832049 -24.513729 29.029937 0.248993 2.576295 -0.020754 0.007835 215016.000000 0 0 1
-15.477725 -2.435749 -25.094029 29.583832 0.156091 2.583439 -0.013638 0.009350 -191370.000000 0 0 1
-15.317725 -2.359649 -26.472779 30.675865 0.152845 2.611943 -0.017866 0.009011 94332.500000 0 0 1
-15.739325 -1.076649 -26.905449 31.189561 0.068299 2.611268 -0.019980 0.008507 948140.000000 0 0 1
-17.227225 -1.044049 -27.459209 32.432630 0.060531 2.580462 -0.018648 0.013269 787324.000000 0 0 1
-17.463625 -1.644349 -28.704639 33.639833 0.093882 2.593065 -0.010896 0.001142 -24478.500000 0 0 1
-16.860025 -1.094649 -29.884029 34.329490 0.064835 2.627026 -0.005136 -0.015216 -181357.000000 0 0 1
-16.990325 -2.008749 -31.119899 35.512735 0.117683 2.638929 0.003209 -0.021890 84264.700000 0 0 1
-18.316925 -2.322249 -31.499139 36.511619 0.126109 2.611411 -0.002809 -0.022497 -154698.000000 0 0 1
-18.501925 -3.179349 -32.589389 37.609809 0.170177 2.618970 -0.003332 -0.024062 -200956.000000 0 0 1
-19.949825 -3.759649 -32.581139 38.388294 0.186271 2.584368 -0.003868 -0.028249 761804.000000 0 0 1
-20.997325 -2.814249 -32.849019 39.087923 0.133235 2.568795 -0.006624 -0.023004 502460.000000 0 0 1
-21.379925 -1.933549 -31.772999 38.345316 0.090192 2.547402 -0.010591 -0.019657 -72456.400000 0 0 1
-22.639125 -1.110149 -32.195029 39.373624 0.048997 2.528166 -0.000662 -0.020274 370221.000000 0 0 1
-22.250725 0.046051 -32.890559 39.710021 -0.002070 2.546807 0.003446 -0.018167 416014.000000 0 0 1
-23.349225 0.924851 -33.050179 40.476610 -0.039589 2.526163 0.011300 -0.019638 51141.200000 0 0 1
-22.955125 2.211551 -33.869469 40.975232 -0.096046 2.543807 0.008010 -0.012762 35073.000000 0 0 1
-22.143925 3.209951 -33.228489 40.059826 -0.143956 2.548957 0.008194 -0.011525 519866.000000 0 0 1
-22.730625 3.942851 -32.192099 39.605033 -0.171751 2.519788 0.005770 -0.010472 -184605.000000 0 0 1
-23.802325 5.041251 -32.607289 40.684152 -0.208712 2.500552 -0.005338 -0.014739 252260.000000 0 0 1
-25.030325 4.438951 -32.946879 41.613920 -0.175518 2.484428 -0.005191 -0.013628 -308830.000000 0 0 1
-25.504045 4.954951 -34.108757 42.876744 -0.191891 2.490640 -0.002733 -0.012358 -175687.000000 0 0 1
-26.931465 4.448251 -34.483434 43.979518 -0.163691 2.472008 -0.003067 -0.006862 252872.000000 0 0 1
-26.984915 3.114651 34.452794 43.873474 -0.114913 0.667654 -0.006069 -0.006513 138898.000000 0 0 1
-28.248365 2.809951 33.920813 44.232200 -0.099147 0.696830 0.001844 -0.001935 -135884.000000 0 0 1
-28.294955 1.296451 33.555593 43.911993 -0.045787 0.701065 0.009396 0.016147 -61927.000000 0 0 1
-28.254995 0.484651 -34.592528 44.667915 -0.017151 2.456623 0.008288 0.011167 265610.000000 0 0 1
-28.173415 -0.828349 34.279000 44.378794 0.029393 0.688156 0.005079 0.013283 -531649.000000 0 0 1
-28.204455 -1.800949 -33.809389 44.065967 0.063767 2.445331 -0.014588 0.003782 383028.000000 0 0 1
-27.034955 -1.809549 -32.984239 42.686336 0.066834 2.453899 -0.008475 -0.003289 675666.000000 0 0 1
-26.677535 -0.634649 -32.251539 41.859950 0.023785 2.450363 -0.003819 -0.005977 -474298.000000 0 0 1
-26.704075 -0.751449 -30.687099 40.686243 0.028132 2.425289 0.003174 -0.011212 -103468.000000 0 0 1
-25.587635 -1.476949 -30.211239 39.618524 0.057657 2.438047 0.004093 -0.012875 420387.000000 0 0 1
-25.388625 -1.081849 -28.857729 38.451544 0.042586 2.419609 0.007147 -0.017545 -746524.000000 0 0 1
-24.250225 -1.783549 -28.162729 37.207442 0.073416 2.429370 0.005424 -0.011262 -850087.000000 0 0 1
-24.517525 -3.154849 -27.854529 37.241602 0.127974 2.415751 0.003332 -0.015536 473633.000000 0 0 1
-23.457625 -3.663049 -27.049749 35.991208 0.154905 2.421228 0.004341 -0.006701 51578.000000 0 0 1
-23.841725 -4.952749 -26.352489 35.880513 0.204821 2.395654 0.015464 -0.012901 473366.000000 0 0 1
-24.941225 -4.836249 -25.440589 35.953826 0.191529 2.356879 0.034113 -0.012463 367521.000000 0 0 1
-25.070225 -5.998949 -24.627629 35.651419 0.234870 2.333377 0.031957 -0.012310 -89287.800000 0 0 1
-26.340105 -5.873249 -23.774329 35.965468 0.219388 2.292990 0.037516 -0.011241 -186544.000000 0 0 1
-26.557045 -6.876649 -22.767529 35.650040 0.253374 2.263525 0.030692 -0.013050 -562185.000000 0 0 1
-27.526825 -6.474449 -21.873929 35.750711 0.231006 2.229189 0.029576 -0.006934 -593096.000000 0 0 1
-27.795295 -7.641749 -20.921229 35.618430 0.268301 2.198603 0.022390 -0.005635 -159015.000000 0 0 1
-26.802305 -7.810049 -19.936929 34.305124 0.283543 2.190956 0.004624 -0.005519 125128.000000 0 0 1
-27.167795 -8.842149 -19.024329 34.324886 0.314652 2.158250 0.013418 0.002132 -42724.300000 0 0 1
-27.990215 -8.291349 -17.843529 34.213888 0.287988 2.119438 0.022816 -0.010483 13227.900000 0 0 1
-27.185245 -7.482449 -16.994229 32.921549 0.268589 2.113209 0.006867 -0.018467 691695.000000 0 0 1
-27.921675 -6.826149 -15.928929 32.862548 0.239772 2.076832 0.005356 -0.015503 43087.500000 0 0 1
-26.969815 -6.052049 -15.028529 31.461960 0.220744 2.068800 0.002644 -0.019028 -47457.500000 0 0 1
-26.696195 -4.807549 -15.671729 31.327344 0.178174 2.094692 0.008743 -0.015936 440022.000000 0 0 1
-25.851735 -3.968549 -14.831129 30.066992 0.152323 2.086641 0.013388 -0.021859 -1410.750000 0 0 1
-13.895025 21.906151 -5.077629 26.433568 -1.005539 1.764088 0.011541 0.003249 -28217.600000 0 0 1
-13.791525 21.282651 -6.300729 26.131525 -0.995816 1.814312 0.028541 -0.001886 609615.000000 0 0 1
-14.656225 20.102951 -6.214429 25.642791 -0.940833 1.815580 0.026868 -0.005033 656300.000000 0 0 1
-14.982425 19.411351 -7.560929 25.660111 -0.913465 1.869893 0.034443 -0.005580 -150850.000000 0 0 1
-13.801925 18.874551 -8.136629 24.757758 -0.939407 1.905670 0.039597 -0.006356 -23470.000000 0 1 0
-13.959825 17.961351 -9.195429 24.536560 -0.910104 1.954939 0.026970 -0.002251 -415551.000000 0 1 0
-14.304125 16.522651 -8.688429 23.517968 -0.857242 1.949200 0.027440 0.001949 -160340.000000 0 1 0
-15.604825 16.423051 -8.152229 24.076670 -0.810940 1.916219 0.029992 0.005808 17730.000000 0 1 0
-15.824425 15.257251 -7.315229 23.166975 -0.767152 1.892055 0.031865 0.002271 -989379.000000 0 1 0
-17.223125 15.300951 -6.773029 24.013102 -0.726367 1.856732 0.043688 -0.005970 -766924.000000 0 1 0
-18.231025 15.145351 -7.742729 24.933949 -0.693209 1.886546 0.034591 0.002156 -263512.000000 0 1 0
-19.558225 15.361751 -7.349429 25.933023 -0.665798 1.858134 0.019642 -0.000259 -474174.000000 0 0 1
-20.494625 14.901151 -8.422529 26.702303 -0.628668 1.891699 0.011190 0.014465 -678688.000000 0 0 1
-20.712525 13.499451 -8.369929 26.101716 -0.577607 1.897229 0.018557 0.008492 214438.000000 0 0 1
-21.575225 13.021851 -9.408729 26.899501 -0.543030 1.928125 0.017680 0.007366 186945.000000 0 0 1
-22.240725 11.695651 -9.009129 26.694616 -0.484126 1.915044 0.020374 0.006089 151384.000000 0 0 1
-21.319925 10.612051 -8.773729 25.379779 -0.461848 1.923778 0.027334 0.005491 -10901.100000 0 0 1
-21.852425 9.645351 -7.925529 25.166949 -0.415667 1.891167 0.028332 -0.003206 -382065.000000 0 0 1
-20.938125 8.499551 -7.439929 23.790755 -0.385614 1.888855 0.032326 0.008995 -444295.000000 0 1 0
-20.662825 7.533751 -8.468429 23.567436 -0.349625 1.938344 0.014848 0.008181 86347.300000 0 1 0
-19.778225 6.641051 -7.846029 22.289951 -0.323947 1.930502 0.026458 0.005395 -345104.000000 0 1 0
-19.447225 5.480051 -8.775429 22.028021 -0.274669 1.980542 0.008052 -0.002480 -249989.000000 0 1 0
-20.413725 4.414451 -8.860829 22.687482 -0.212970 1.972036 0.006856 0.003671 541328.000000 0 1 0
-19.986625 3.268451 -9.576129 22.402014 -0.162097 2.012486 -0.017002 -0.003063 -821912.000000 0 1 0
-21.010225 2.143451 -9.542829 23.175192 -0.101668 1.995191 -0.014187 0.001443 -215515.000000 0 1 0
-20.829125 1.369051 -8.375829 22.491805 -0.065633 1.952384 -0.000350 -0.001960 103765.000000 0 1 0
-21.719225 0.303951 -8.164929 23.205241 -0.013994 1.930351 0.004377 0.002443 -839492.000000 0 1 0
-21.653925 -0.904949 -9.075729 23.496388 0.041767 1.967370 0.000633 -0.008112 37252.400000 0 1 0
-20.463425 -1.656649 -8.865529 22.362778 0.080780 1.978434 -0.004859 -0.004240 365241.000000 0 1 0
-20.514525 -3.027749 -9.324929 22.736915 0.146533 1.993385 -0.013640 -0.009027 123832.000000 0 1 0
-21.467325 -4.000149 -8.520229 23.440169 0.184224 1.942806 -0.013731 -0.004238 338791.000000 0 1 0
-21.065825 -4.230249 -7.181829 22.654860 0.198175 1.893372 -0.020863 0.004594 96699.600000 0 1 0
-21.996725 -4.996749 -6.434429 23.456882 0.223368 1.848667 -0.022302 0.001775 -733641.000000 0 1 0
-22.007625 -6.558549 -6.695929 23.920401 0.289632 1.854513 -0.021944 -0.001892 170135.000000 0 1 0
-20.898025 -7.258549 -6.135829 22.957839 0.334296 1.841350 -0.023034 -0.002676 657694.000000 0 1 0
-21.143125 -8.655049 -6.264029 23.689231 0.388545 1.838404 -0.017015 -0.002200 -312891.000000 0 1 0
-20.149325 -9.663449 -5.655529 23.051303 0.447188 1.818672 -0.011293 0.002031 958969.000000 0 1 0
-18.837025 -9.651149 -6.287729 22.079713 0.473479 1.859567 -0.016555 0.001929 971153.000000 0 1 0
-17.956625 -10.455349 -5.568829 21.512010 0.527270 1.832649 -0.001186 -0.000663 -609947.000000 0 1 0
-17.516425 -11.751949 -6.372329 22.034973 0.590935 1.864179 0.008204 0.005907 -834280.000000 0 1 0
-16.415725 -11.662349 -7.219629 21.391808 0.617697 1.915051 0.005119 0.002885 -77343.900000 0 1 0
-16.628325 -11.011949 -8.459229 21.663859 0.584932 1.971946 0.001760 -0.000319 -411228.000000 0 1 0
-15.544025 -11.255649 -9.530229 21.427357 0.626727 2.031713 0.007087 -0.002957 233565.000000 0 1 0
-15.667925 -12.572749 -9.972729 22.427956 0.676234 2.031587 0.014026 -0.007221 -192736.000000 0 1 0
-14.613525 -12.914649 -10.811129 22.298515 0.723762 2.076972 0.013987 -0.004063 -365840.000000 0 1 0
-14.636825 -14.331449 -11.406429 23.446400 0.774857 2.078864 0.019022 -0.006042 428687.000000 0 1 0
-15.500025 -14.366349 -12.562529 24.585766 0.747458 2.107106 0.013770 -0.004582 307968.000000 0 1 0
-15.489225 -15.601949 -13.271729 25.680259 0.789024 2.113913 0.002219 0.004199 -327678.000000 0 0 1
-16.096725 -15.571349 -14.640829 26.756781 0.768810 2.149790 0.018149 0.008641 -267574.000000 0 0 1
-16.130125 -16.793549 -15.415129 27.925444 0.805546 2.155569 0.008978 0.015099 140687.000000 0 0 1
-16.479925 -16.600449 -16.765029 28.778968 0.789041 2.192652 0.013270 0.013329 -373793.000000 0 0 1
-16.931125 -17.815249 -17.531629 30.189470 0.810838 2.190409 0.008049 0.008450 -318412.000000 0 0 1
-18.218125 -18.157749 -17.078229 30.875068 0.783738 2.156925 -0.005628 0.010448 -623748.000000 0 0 1
-19.083725 -18.351449 -18.194429 32.124780 0.765839 2.172888 0.008121 0.009319 753298.000000 0 0 1
-20.564325 -18.097549 -17.706829 32.618162 0.721681 2.144625 0.015007 0.003373 408676.000000 0 0 1
-20.892125 -16.781849 -17.310529 31.902441 0.676727 2.144335 -0.002127 0.010468 126848.000000 0 0 1
-20.648125 -16.625449 -15.886029 30.904960 0.677891 2.110671 -0.003918 0.009433 -295232.000000 0 0 1
-20.472125 -15.145449 -15.449729 29.785679 0.636946 2.116122 -0.000272 0.004468 -425054.000000 0 0 1
-21.628925 -14.369749 -15.446029 30.213902 0.586415 2.107403 0.008777 0.011917 -74471.200000 0 0 1
-21.399925 -13.155949 -14.719329 29.115192 0.551206 2.100821 0.010761 0.007767 -1085540.000000 0 0 1
-22.680725 -12.482049 -14.333529 29.591669 0.503102 2.076447 0.008910 0.001011 -1413660.000000 0 0 1
-23.400425 -13.149349 -13.380629 29.992107 0.511955 2.033242 0.019737 0.006593 49673.300000 0 0 1
-24.507625 -12.367049 -12.972629 30.362093 0.467337 2.012261 0.028042 -0.002970 -74009.100000 0 0 1
-25.134295 -12.815149 -11.623529 30.513395 0.471510 1.961600 0.027933 -0.009022 -513249.000000 0 0 1
-26.124715 -11.960549 -11.162529 30.824625 0.429342 1.941349 0.025097 -0.010637 -242004.000000 0 0 1
-26.761175 -12.530649 -10.020329 31.202318 0.437918 1.897730 0.017235 -0.006456 161684.000000 0 0 1
-27.679765 -11.510449 -9.306729 31.389091 0.394089 1.871818 0.023713 -0.005410 423702.000000 0 0 1
-26.890065 -10.566649 -8.549929 30.130233 0.374420 1.858515 0.019956 -0.008052 200671.000000 0 0 1
-27.717405 -9.720249 -7.810929 30.393229 0.337290 1.830709 0.022635 -0.001728 -109016.000000 0 0 1
-26.854005 -8.599249 -7.194829 29.100691 0.309904 1.820626 0.011198 -0.005009 169213.000000 0 0 1
-26.156845 -8.924649 -5.999029 28.281058 0.328811 1.784542 0.004979 -0.008907 41959.300000 0 0 1
-25.345345 -7.927549 -5.436729 27.107021 0.303141 1.772731 0.003420 -0.001313 -288911.000000 0 0 1
-26.066945 -6.646449 -4.963629 27.355046 0.249657 1.753259 0.006390 -0.003956 -21962.700000 0 0 1
-26.987935 -6.828349 -3.867729 28.105770 0.247814 1.708848 0.008550 0.000238 606819.000000 0 0 1
-26.462565 -6.730949 -2.602129 27.428892 0.249075 1.665807 0.026236 -0.000802 -313335.000000 0 0 1
-25.995415 -5.361749 -1.946829 26.613908 0.203405 1.644013 0.016890 0.009570 -393091.000000 0 0 1
-27.053275 -4.524849 -1.592229 27.475246 0.165723 1.628780 0.009926 0.015980 26450.000000 0 0 1
-26.605505 -3.419149 -0.751129 26.834822 0.127812 1.598791 0.006162 0.005730 -1168630.000000 0 0 1
-27.649475 -2.668049 -0.023829 27.777915 0.096198 1.571654 0.005070 0.001549 -273658.000000 0 0 1
-28.446795 -3.351849 1.013671 28.661517 0.117288 1.535422 0.008208 0.001514 1271920.000000 0 0 1
-27.636325 -3.632249 2.189571 27.959863 0.130681 1.492405 -0.000446 0.001759 58241.200000 0 0 1
-28.452145 -3.926349 3.419871 28.924666 0.137132 1.452285 -0.004634 0.003740 -767836.000000 0 0 1
-28.995535 -5.211149 3.376571 29.652966 0.177824 1.456679 0.003164 0.005401 -680073.000000 0 0 1
-29.755375 -5.373649 4.485071 30.567537 0.178668 1.423538 0.004266 0.004559 -977430.000000 0 0 1
-30.669855 -6.607849 4.506171 31.695572 0.212207 1.428143 -0.003198 0.005469 -329942.000000 0 0 1
-29.991245 -7.854049 4.588371 31.340294 0.256126 1.423863 -0.001834 0.006705 313512.000000 0 0 1
-30.817325 -8.976549 4.303571 32.385285 0.283440 1.437515 0.007004 0.006617 -38213.300000 0 0 1
-30.045165 -10.281449 4.534571 32.077757 0.329709 1.428959 0.002047 0.005157 -52902.900000 0 0 1
-29.907325 -10.609849 5.921471 32.281277 0.340907 1.386318 0.006352 0.006637 854313.000000 0 0 1
-28.834175 -11.523949 6.219971 31.668582 0.380216 1.373103 0.004760 0.009162 136969.000000 0 0 1
-28.956305 -12.095449 7.669771 32.304688 0.395683 1.331088 0.007189 0.000013 -234171.000000 0 0 1
-29.097575 -11.040049 8.581071 32.282911 0.362635 1.301754 0.039487 0.002696 484206.000000 0 0 1
-28.863555 -11.490349 9.916071 32.610756 0.378860 1.261830 0.016504 0.001400 -310854.000000 0 0 1
-28.774775 -10.335449 10.952771 32.477260 0.344833 1.226808 0.013334 0.000568 -855359.000000 0 0 1
-27.785505 -9.385849 10.808171 31.256120 0.325762 1.217712 0.032550 0.005960 -358291.000000 0 0 1
-27.861105 -8.378349 11.796771 31.394295 0.292116 1.185578 0.021865 0.003054 316698.000000 0 0 1
-26.753315 -7.266049 11.744171 30.107489 0.265197 1.170084 0.023825 0.007533 436805.000000 0 0 1
-27.059035 -6.323549 10.668871 29.765810 0.229574 1.204214 0.016291 0.002156 1072100.000000 0 0 1
-26.057565 -5.271849 10.749271 28.676400 0.199621 1.186564 0.019959 -0.002216 411954.000000 0 0 1
-26.137835 -4.232249 9.551871 28.148474 0.160527 1.224582 0.019752 -0.009393 -64045.700000 0 0 1
-25.723645 -4.674849 8.277271 27.423956 0.179772 1.264189 0.012835 -0.001910 360875.000000 0 0 1
-26.194615 -3.754449 7.338071 27.460900 0.142359 1.300291 0.001725 -0.013460 -222294.000000 0 0 1
-25.596225 -4.080349 5.924471 26.587880 0.158082 1.346084 0.016904 0.001692 -707072.000000 0 0 1
-24.260125 -3.683949 5.879271 25.232736 0.150701 1.335633 0.027546 -0.012158 -438403.000000 0 0 1
-23.684625 -4.119949 4.699571 24.495335 0.172227 1.377744 0.047434 -0.007772 -245595.000000 0 1 0
-22.215825 -3.630949 4.654371 22.986732 0.162007 1.366906 0.057896 -0.009580 10806.500000 0 1 0
-22.084925 -2.239649 4.538071 22.657318 0.101065 1.369141 0.044138 -0.009124 146080.000000 0 1 0
-20.733025 -1.875849 4.690271 21.339536 0.090231 1.349194 0.028529 -0.007531 -263793.000000 0 1 0
-20.501725 -0.362749 5.153971 21.142747 0.017692 1.324545 0.020233 -0.012823 -627095.000000 0 1 0
-20.545925 0.681551 4.186571 20.979203 -0.033160 1.369889 0.017295 -0.018833 122178.000000 0 1 0
-21.825525 0.966851 3.722971 22.161879 -0.044270 1.402006 0.023960 -0.022130 -818827.000000 0 1 0
-21.710525 2.040451 2.642671 21.965748 -0.093709 1.450195 0.025812 -0.004823 -280931.000000 0 1 0
-21.377225 3.328751 3.152971 21.863384 -0.154474 1.426079 0.022075 -0.006658 170370.000000 0 1 0
-21.494725 4.362551 2.193071 22.042337 -0.200239 1.471138 0.028746 0.002729 946983.000000 0 1 0
-20.221225 4.558051 1.246371 20.766011 -0.221704 1.510740 0.007936 0.007714 378332.000000 0 1 0
-20.417325 5.193951 -0.014929 21.067618 -0.249106 1.571505 0.011840 0.018569 251772.000000 0 1 0
-21.313825 4.664551 -0.960629 21.839414 -0.215454 1.614797 0.018944 0.006988 -346615.000000 0 1 0
-20.805725 3.430051 -1.739629 21.158208 -0.163391 1.653109 0.011992 0.009570 -517006.000000 0 1 0
-20.767125 2.303851 -0.861029 20.912260 -0.110486 1.611981 -0.004514 0.011069 501008.000000 0 1 0
-20.259525 1.195951 -1.562229 20.354833 -0.058963 1.647622 -0.013955 0.012211 -680236.000000 0 1 0
-19.504425 0.209751 -0.694429 19.517911 -0.010754 1.606383 -0.006589 0.005889 -382122.000000 0 1 0
-20.319125 -0.521849 0.227671 20.327101 0.025677 1.559596 0.002250 0.001043 852830.000000 0 1 0
-19.552625 -1.347149 1.101671 19.629917 0.068790 1.514645 0.001873 -0.000778 -343373.000000 0 1 0
-18.825925 -2.576449 0.527571 19.008732 0.136011 1.543039 -0.012632 -0.001560 18432.700000 0 1 0
-17.967925 -3.214749 1.479671 18.313120 0.177043 1.489910 -0.008289 -0.002337 690992.000000 0 1 0
-17.418725 -4.476649 1.092271 18.017920 0.251558 1.510138 -0.007007 0.000113 -440538.000000 0 1 0
-18.394225 -5.640449 0.846771 19.258224 0.297539 1.526813 -0.007343 -0.000408 -436998.000000 0 1 0
-19.124625 -5.953749 2.003971 20.129936 0.301803 1.471079 0.020293 -0.005579 518378.000000 0 1 0
-20.229025 -6.797849 1.759771 21.413104 0.324188 1.488522 0.012321 -0.004518 32974.000000 0 1 0
-20.958925 -7.349349 3.009971 22.413152 0.337258 1.436094 0.023220 -0.001793 240278.000000 0 1 0
-20.073325 -8.204949 3.679871 21.995477 0.388026 1.402705 0.020550 0.000757 989967.000000 0 1 0
-20.804925 -8.833749 4.767271 23.099933 0.401531 1.362927 0.033761 0.004292 480412.000000 0 1 0
-19.866425 -9.653849 5.669371 22.803803 0.452335 1.319546 0.021815 0.009128 -152799.000000 0 1 0
-19.328425 -10.819049 5.047071 22.718115 0.510297 1.346766 0.014665 0.008178 457035.000000 0 1 0
-18.327725 -11.334049 5.919171 22.347321 0.553846 1.302726 0.009059 0.006833 -182721.000000 0 1 0
-17.647625 -12.585849 5.384571 22.334634 0.619514 1.327311 -0.001161 0.005099 -488718.000000 0 1 0
-18.489825 -13.718949 5.333071 23.633130 0.638344 1.343175 0.010205 0.012510 600290.000000 0 1 0
-17.677725 -14.780649 4.853871 23.548452 0.696379 1.363185 -0.006264 0.017417 38900.000000 0 1 0
-18.435125 -16.143549 5.023071 25.013981 0.719224 1.368611 0.002385 0.021232 -166619.000000 0 0 1
-17.701125 -17.282249 4.705071 25.182209 0.773425 1.382851 -0.002783 0.012629 -201366.000000 0 0 1
-18.203925 -18.446649 5.396171 26.472257 0.792021 1.365515 0.006237 0.013972 56405.400000 0 0 1
-17.391925 -19.759749 5.285971 26.848989 0.849046 1.372624 -0.001886 0.011596 -595830.000000 0 0 1
-17.547825 -20.392749 3.969571 27.194629 0.860242 1.424304 0.000032 0.008564 343644.000000 0 0 1
-16.752525 -21.581949 3.833771 27.588501 0.910719 1.431383 -0.005675 0.006556 52906.600000 0 0 1
-15.224425 -21.354749 3.762171 26.494572 0.951446 1.428317 -0.014364 0.014544 -605795.000000 0 0 1
-14.655425 -22.593349 3.869371 27.206854 0.995363 1.428092 -0.016094 0.015892 -853245.000000 0 0 1
-13.269425 -22.494449 4.039871 26.427229 1.037838 1.417327 -0.016216 0.012606 -200926.000000 0 0 1
-12.484925 -23.832349 4.231571 27.235278 1.088240 1.414793 -0.007485 0.017103 -296724.000000 0 0 1
-12.369125 -24.677849 3.114171 27.779300 1.106170 1.458456 -0.005082 0.017369 51169.700000 0 0 1
-11.756125 -25.890909 3.490671 28.648393 1.144568 1.448648 -0.000842 0.014324 -398943.000000 0 0 1
17.881975 19.372951 -25.175359 36.453737 0.825398 2.333130 0.041866 -0.012540 -364796.000000 0 0 1
16.945475 19.544151 -26.195969 36.815102 0.856495 2.362505 0.034723 -0.013346 -314602.000000 0 0 1
17.591775 19.732451 -27.425739 38.092143 0.842689 2.374576 0.040055 -0.022718 -203552.000000 0 0 1
16.607875 20.007251 -28.586149 38.642975 0.877974 2.403495 0.039088 -0.018468 -4690.890000 0 0 1
16.071575 21.323451 -28.626599 39.146740 0.924929 2.390969 0.033768 -0.003958 379755.000000 0 0 1
15.208275 21.464751 -29.745819 39.709456 0.954373 2.417478 0.015487 0.001470 10759.400000 0 0 1
14.749375 22.894651 -30.077419 40.575365 0.998489 2.405761 0.009850 0.001421 349269.000000 0 0 1
13.782175 23.439051 -29.146699 39.860601 1.039247 2.390899 0.013436 0.004211 681160.000000 0 0 1
13.667375 24.793251 -29.412699 40.824126 1.066991 2.375281 0.014562 0.008584 177619.000000 0 0 1
12.804575 25.423551 -28.267409 40.116836 1.104233 2.352694 0.013860 0.017901 -35874.600000 0 0 1
11.450875 25.077151 -28.308839 39.514256 1.142446 2.369455 0.007150 0.010013 -313395.000000 0 0 1
10.761175 25.692451 -27.193059 38.927720 1.174150 2.344169 -0.001934 0.021267 -129570.000000 0 0 1
9.234575 25.605951 -27.074349 38.392219 1.224673 2.353507 -0.005479 0.023294 -51012.800000 0 0 1
8.690775 26.497851 -26.135049 38.219190 1.253871 2.323782 -0.012492 0.034158 3074.530000 0 0 1
8.410475 27.767851 -26.663869 39.404969 1.276695 2.314017 -0.008360 0.022478 -507840.000000 0 0 1
7.953875 28.846451 -25.606639 39.383776 1.301750 2.278621 -0.015919 0.028194 -563699.000000 0 0 1
8.942775 29.180351 -24.687529 39.254811 1.273418 2.250940 -0.012836 0.024554 325698.000000 0 0 1
8.286275 29.836251 -23.546929 38.901441 1.299898 2.220935 -0.000310 0.013725 125410.000000 0 0 1
9.247975 30.242151 -22.450229 38.783057 1.274029 2.188135 -0.000514 0.009748 -137089.000000 0 0 1
9.919275 31.516551 -22.630229 40.047625 1.265879 2.171330 -0.013818 -0.000680 -18737.700000 0 0 1
10.830775 31.697551 -21.608129 39.861657 1.241543 2.143704 -0.005956 -0.001167 -416247.000000 0 0 1
12.019375 32.618751 -22.007829 41.143564 1.217754 2.135190 -0.008691 0.012708 1350320.000000 0 0 1
13.160775 31.887651 -22.563329 41.220530 1.179370 2.150028 -0.010974 0.014622 1176480.000000 0 0 1
14.210875 32.755151 -22.954529 42.447135 1.161452 2.142160 0.001274 0.009284 644144.000000 0 0 1
15.508975 32.170851 -23.566529 42.788705 1.121586 2.154077 0.008922 0.014574 407939.000000 0 0 1
16.365975 31.447951 -22.733129 42.114296 1.090951 2.140991 -0.002445 0.022821 -419546.000000 0 0 1
17.567175 31.144051 -23.376229 42.720085 1.057221 2.149806 0.011714 0.024347 -181664.000000 0 0 1
18.601475 30.288951 -22.603129 42.122878 1.020049 2.137199 0.007818 0.024387 -86792.000000 0 0 1
19.227775 30.921951 -21.537229 42.305161 1.014490 2.104926 0.022415 0.022873 301348.000000 0 0 1
20.025175 29.917651 -20.837129 41.596387 0.980943 2.095476 0.016180 0.019887 538698.000000 0 0 1
20.701575 30.454351 -19.556029 41.694856 0.973785 2.058986 0.030996 0.016926 -60057.400000 0 0 1
21.776775 31.345451 -19.752329 42.975804 0.963613 2.048358 0.039073 0.004199 -84860.300000 0 0 1
22.463675 31.652551 -18.589229 43.035568 0.953593 2.017450 0.031531 0.002048 -692570.000000 0 0 1
23.618575 32.635651 -18.834129 44.470746 0.944338 2.008121 0.030840 0.002707 807824.000000 0 0 1
24.828275 32.030551 -19.334429 44.902334 0.911397 2.015941 0.025933 0.008407 726748.000000 0 0 1
25.991775 32.758651 -18.970829 45.919429 0.900073 1.996688 0.014727 0.007093 996939.000000 0 0 1
27.370475 32.136951 -19.369529 46.444646 0.865326 2.000988 0.019164 -0.002664 647958.000000 0 0 1
27.689175 30.987151 -18.617629 45.535811 0.841545 1.991997 0.026861 -0.001495 335481.000000 0 0 1
29.021675 30.597051 -18.965029 46.239696 0.811816 1.993411 0.016570 -0.002540 410751.000000 0 0 1
29.413075 29.467851 -18.053029 45.380558 0.786328 1.979929 0.015404 -0.014212 -396843.000000 0 0 1
29.626975 29.859151 -16.740429 45.272160 0.789301 1.949561 0.010360 -0.008398 6168.700000 0 0 1
30.094975 28.776651 -15.952429 44.590169 0.763009 1.936661 0.013355 -0.010771 -171462.000000 0 0 1
30.590775 29.254651 -14.561629 44.762386 0.763076 1.902135 0.018692 -0.006390 76371.500000 0 0 1
31.802275 29.968751 -14.411429 46.013042 0.755724 1.889360 0.000619 -0.002570 -109769.000000 0 0 1
31.823675 31.317051 -14.929929 47.078729 0.777375 1.893495 0.008673 -0.006886 593500.000000 0 0 1
33.254775 31.963151 -15.114129 48.538232 0.765596 1.887448 0.002475 -0.008810 1332420.000000 0 0 1
33.940675 32.062151 -13.843429 48.698988 0.756945 1.859036 -0.000394 -0.010464 -246213.000000 0 0 1
-34.370571 32.368651 -14.032729 49.254271 -0.755411 1.859702 0.002360 -0.016809 -43730.500000 0 0 1
-33.534271 32.530351 -12.743429 48.426915 -0.770203 1.837080 -0.002052 -0.005957 -264864.000000 0 0 1
-33.953171 33.689751 -12.071129 49.330815 -0.781504 1.818004 0.005679 -0.016385 529929.000000 0 0 1
-33.126071 33.988751 -10.944029 48.706710 -0.798251 1.797424 -0.008075 -0.003628 209284.000000 0 0 1
-33.846171 -34.453417 -10.099829 49.341745 0.794289 1.776945 -0.001401 -0.006296 97315.700000 0 0 1
-32.997971 -33.679817 -9.264429 48.052324 0.795624 1.764810 -0.001845 -0.001255 -44959.000000 0 0 1
-32.830571 -34.246717 -7.993629 48.110104 0.806507 1.737723 -0.013264 0.003711 -60075.700000 0 0 1
-32.303771 -33.352817 -6.914329 46.944137 0.801375 1.718623 0.000922 0.006266 -184855.000000 0 0 1
-33.236171 -32.346917 -6.606629 46.846704 0.771840 1.712295 0.001630 0.002580 194217.000000 0 0 1
-32.729471 -31.437217 -5.617829 45.728294 0.765262 1.693960 0.010920 0.002732 -80877.700000 0 0 1
-33.875271 -30.483817 -5.283929 45.877195 0.732751 1.686228 0.003454 0.005965 -233055.000000 0 0 1
-34.739571 -31.043517 -4.333029 46.790094 0.729272 1.663535 0.000962 0.010172 438367.000000 0 0 1
33.591475 -30.528417 -4.349029 45.599183 -0.737664 1.666317 -0.001052 0.017782 588043.000000 0 0 1
33.288175 -29.502517 -3.216629 44.596500 -0.725181 1.642986 -0.004650 0.022512 -318014.000000 0 0 1
33.899875 -28.217317 -3.236229 44.225464 -0.694171 1.644037 0.002001 0.007666 393968.000000 0 0 1
33.333075 -27.360217 -2.234529 43.181807 -0.687304 1.622566 -0.007560 0.011370 -15073.000000 0 0 1
33.566475 -25.859317 -2.570629 42.450214 -0.656424 1.631390 -0.001211 -0.002352 -264953.000000 0 0 1
33.029075 -25.582317 -3.819129 41.951883 -0.659022 1.661958 0.000649 -0.014058 251089.000000 0 0 1
33.009775 -24.197917 -4.043229 41.128240 -0.632567 1.669263 0.000456 -0.018235 -501454.000000 0 0 1
32.508375 -23.803717 -5.429129 40.655711 -0.632033 1.704736 0.004165 -0.025686 -823703.000000 0 0 1
33.481975 -24.055917 -6.399829 41.721548 -0.623017 1.724798 0.007812 -0.024445 77445.200000 0 0 1
32.966075 -23.791017 -7.660429 41.369756 -0.625130 1.757041 -0.010390 -0.026608 -318467.000000 0 0 1
34.084375 -23.704717 -8.714729 42.421748 -0.607680 1.777700 -0.006224 -0.022519 -38626.300000 0 0 1
34.508575 -24.977017 -9.140629 43.568844 -0.626516 1.782164 -0.000188 -0.008863 -30085.600000 0 0 1
-33.865371 -24.899817 -9.698529 43.138448 0.634000 1.797558 0.007531 -0.006588 -28897.600000 0 0 1
-33.389771 -26.244517 -10.300929 43.700808 0.666149 1.808750 0.003820 0.001109 -598879.000000 0 0 1
-32.711471 -27.063817 -9.422829 43.488852 0.691196 1.789201 0.015116 -0.005943 -248870.000000 0 0 1
-33.440471 -28.097017 -8.784529 44.551941 0.698783 1.769272 0.004271 -0.004968 388080.000000 0 0 1
-32.417471 -29.262017 -8.435729 44.478305 0.734284 1.761612 0.012775 -0.007613 237381.000000 0 0 1
-31.825371 -29.772217 -9.602329 44.625597 0.752079 1.787668 0.011535 -0.008351 224010.000000 0 0 1
-31.087471 -30.969617 -9.345229 44.865146 0.783499 1.780629 0.002352 -0.002724 -52828.700000 0 0 1
-30.753871 -31.879717 -10.530529 45.530308 0.803371 1.804196 -0.002638 0.000930 -59116.300000 0 0 1
-29.668971 -31.423217 -11.329129 44.676790 0.814105 1.827175 -0.015132 0.010306 425802.000000 0 0 1
-29.597871 -32.130817 -12.536129 45.448629 0.826409 1.850250 -0.012389 0.010882 -231605.000000 0 0 1
-29.709171 -31.203917 -13.797029 45.240218 0.809932 1.880706 -0.008882 0.014296 -30378.200000 0 0 1
-28.636571 -30.270017 -13.867729 43.916296 0.813120 1.892071 -0.016531 0.022161 522231.000000 0 0 1
-29.005471 -29.276717 -14.874329 43.814258 0.790052 1.917167 -0.015422 0.021287 -330898.000000 0 0 1
-27.829371 -28.367317 -15.161329 42.532863 0.794970 1.935274 -0.020227 0.018957 -241822.000000 0 0 1
-26.759771 -29.064717 -15.762529 42.535872 0.826664 1.950419 -0.015543 0.017238 71388.200000 0 0 1
-25.782071 -28.240717 -16.366229 41.594552 0.830878 1.975200 -0.002934 0.021244 650703.000000 0 0 1
-24.551871 -28.989117 -17.016229 41.625897 0.868085 1.991924 0.000429 0.019419 316590.000000 0 0 1
-24.683071 -29.712017 -18.244929 42.719262 0.877588 2.012067 -0.004254 0.024114 -210425.000000 0 0 1
-24.944171 -29.049217 -19.482929 42.961066 0.861281 2.041487 0.004940 0.021593 -502868.000000 0 0 1
-23.795171 -28.195717 -19.992629 41.963244 0.869838 2.067388 0.015569 0.019082 -256611.000000 0 0 1
-23.533871 -27.027717 -19.236629 40.674174 0.854389 2.063426 0.007057 0.017291 -116605.000000 0 0 1
-22.165271 -26.685917 -19.201229 39.650026 0.877674 2.076322 0.009538 0.007909 29151.500000 0 0 1
-21.932971 -25.445217 -18.284629 38.247117 0.859395 2.069247 0.002883 0.009278 -260817.000000 0 0 1
-22.100371 -25.719517 -16.917529 37.896210 0.860937 2.033554 0.013650 0.013211 103628.000000 0 0 1
-21.690471 -24.656217 -16.140629 36.591331 0.849302 2.027626 0.016785 0.013045 -75843.200000 0 0 1
-21.924571 -24.788217 -14.565129 36.156403 0.846625 1.985410 -0.001387 0.025633 -191182.000000 0 0 1
-23.282171 -24.613817 -14.237429 36.750563 0.813194 1.968614 -0.015999 0.033738 -143476.000000 0 0 1
-23.503671 -24.551717 -12.859629 36.339777 0.807204 1.932504 -0.024397 0.037363 82475.800000 0 0 1
-25.022171 -24.471617 -12.551029 37.181950 0.774275 1.915117 -0.024172 0.036259 -367889.000000 0 0 1
-25.633871 -25.696617 -12.828729 38.496594 0.786621 1.910538 -0.019354 0.033088 791561.000000 0 0 1
-27.007971 -25.903917 -12.475729 39.447271 0.764535 1.892584 -0.024253 0.031755 507025.000000 0 0 1
-28.118771 -25.068317 -13.140429 39.896825 0.728108 1.906422 -0.020414 0.023619 -1247580.000000 0 0 1
-28.288771 -23.707417 -12.736829 39.045140 0.697516 1.903085 -0.012812 0.026004 429857.000000 0 0 1
-28.846971 -23.546317 -11.397829 38.942102 0.684571 1.867832 -0.011849 0.020722 1089190.000000 0 0 1
-30.338771 -24.092517 -11.174429 40.320693 0.671143 1.851611 0.001927 0.014248 1642590.000000 0 0 1
-31.451771 -23.252517 -11.554329 40.784752 0.636622 1.858030 0.007064 0.007043 830387.000000 0 0 1
-31.649371 -23.201517 -12.933929 41.319240 0.632584 1.889172 0.000952 0.011951 -1276240.000000 0 0 1
-33.115771 -23.094917 -13.301729 42.508416 0.608978 1.889062 0.001092 0.002354 -555853.000000 0 0 1
-33.865171 -24.283617 -13.052229 43.668118 0.622089 1.874332 -0.001803 0.003138 -105641.000000 0 0 1
34.459075 -24.106117 -13.400229 44.137273 -0.610429 1.879269 -0.003257 0.001674 -519015.000000 0 0 1
33.496675 -25.257117 -13.151729 43.964954 -0.646068 1.874589 -0.009915 0.006892 -232829.000000 0 0 1
33.523475 -26.276617 -14.142429 44.880867 -0.664801 1.891369 -0.020148 0.009555 169089.000000 0 0 1
32.751975 -27.374917 -13.683029 44.825252 -0.696207 1.881000 -0.019223 0.003407 80874.700000 0 0 1
32.706575 -28.426717 -14.789829 45.787960 -0.715504 1.899701 -0.016174 0.003169 208819.000000 0 0 1
31.989075 -27.992717 -15.927029 45.393429 -0.718870 1.929292 -0.017670 -0.002265 -35432.300000 0 0 1
31.833175 -29.018617 -16.872129 46.261214 -0.739178 1.944122 -0.022627 0.003208 -103783.000000 0 0 1
30.925375 -28.638617 -18.062029 45.856145 -0.747025 1.975650 -0.011814 0.002343 433509.000000 0 0 1
29.539075 -28.906717 -17.832929 45.012982 -0.774579 1.978141 -0.016851 0.002238 357542.000000 0 0 1
28.813375 -28.331817 -18.899629 44.610519 -0.776971 2.008277 0.003761 0.008535 326126.000000 0 0 1
27.261175 -28.355917 -18.763329 43.580870 -0.805079 2.015888 0.003603 0.003041 385250.000000 0 0 1
26.946175 -27.616317 -17.594029 42.406452 -0.797680 1.998619 0.005006 -0.001723 551452.000000 0 0 1
25.561575 -27.735417 -17.234329 41.468899 -0.826163 1.999395 0.011858 -0.002999 533255.000000 0 0 1
25.266575 -26.767617 -16.057729 40.159131 -0.814237 1.982152 0.011376 -0.004645 -199247.000000 0 0 1
25.394375 -25.420217 -16.427629 39.508590 -0.785907 1.999617 0.016928 -0.012137 131913.000000 0 0 1
25.146675 -24.592117 -15.311729 38.361133 -0.774249 1.981383 0.009983 -0.007156 -156983.000000 0 0 1
24.932775 -23.075017 -15.578729 37.373740 -0.746720 2.000758 0.000524 -0.008621 461657.000000 0 0 1
23.674675 -22.760417 -16.170829 36.606318 -0.765712 2.028344 0.009297 -0.004241 437612.000000 0 0 1
23.656575 -21.371517 -16.351929 35.829609 -0.734694 2.044719 0.002243 -0.003937 -827364.000000 0 0 1
22.218975 -20.962317 -16.577529 34.755086 -0.756304 2.068013 -0.000784 -0.003757 -1041070.000000 0 0 1
21.459075 -20.990217 -15.398529 33.737157 -0.774353 2.044771 -0.003042 -0.012845 116136.000000 0 0 1
20.220475 -20.323217 -15.599729 32.638203 -0.787932 2.069126 -0.003111 -0.014278 193011.000000 0 0 1
20.196175 -19.051317 -14.810929 31.467472 -0.756236 2.060851 0.001268 -0.010948 -330830.000000 0 0 1
20.146175 -19.251917 -13.384829 30.913724 -0.762704 2.018585 -0.001978 -0.013749 257500.000000 0 0 1
19.992875 -18.012317 -12.714929 29.762863 -0.733332 2.012199 -0.017316 -0.012883 -709197.000000 0 0 1
19.040675 -18.242717 -11.555329 28.790096 -0.763999 1.983803 -0.022928 -0.009989 -1313240.000000 0 0 1
19.543375 -18.875517 -10.409529 29.096167 -0.768016 1.936667 -0.029989 -0.012059 417181.000000 0 0 1
18.508975 -18.993317 -9.411229 28.140708 -0.798312 1.911802 -0.022146 -0.016099 230513.000000 0 0 1
18.825875 -19.680717 -8.051329 28.400142 -0.807594 1.858234 -0.022135 -0.014522 -590332.000000 0 0 1
19.658775 -18.880117 -7.230129 28.199309 -0.765196 1.830086 -0.032465 -0.009967 208644.000000 0 0 1
20.307675 -19.669217 -6.257229 28.955702 -0.769429 1.788611 -0.032154 -0.001909 -105151.000000 0 0 1
21.630175 -19.076417 -5.726529 29.403525 -0.722745 1.766806 -0.036753 0.001774 305102.000000 0 0 1
22.648275 -19.008717 -6.748229 30.328440 -0.698250 1.795179 -0.042043 -0.002587 361121.000000 0 0 1
23.541375 -17.960717 -6.433929 30.301471 -0.651733 1.784756 -0.033952 -0.002244 -732485.000000 0 0 1
24.617175 -17.832217 -7.508329 31.310833 -0.626902 1.812956 -0.013962 -0.009121 -1067230.000000 0 0 1
25.507775 -18.863317 -7.519929 32.603997 -0.636755 1.803536 0.002115 -0.020508 -337510.000000 0 0 1
25.170575 -19.868717 -8.480729 33.169964 -0.668221 1.829342 0.006245 -0.025045 -334933.000000 0 0 1
26.041275 -21.117317 -8.182229 34.511418 -0.681362 1.810163 0.021398 -0.035026 -402542.000000 0 0 1
27.395475 -20.890117 -8.396929 35.460082 -0.651478 1.809867 0.008933 -0.020237 -757452.000000 0 0 1
28.184275 -21.973717 -8.007229 36.623944 -0.662205 1.791210 0.005826 -0.031525 -260747.000000 0 0 1
-28.874855 30.654251 3.953871 42.297441 -0.815280 1.477182 0.006519 -0.003088 -144803.000000 0 0 1
-27.959135 31.354051 3.178571 42.129480 -0.842573 1.495277 0.001335 -0.001206 -295895.000000 0 0 1
-26.871335 31.817351 3.942171 41.832442 -0.869475 1.476419 0.000444 -0.000036 -210038.000000 0 0 1
-26.144615 33.058951 3.413271 42.285761 -0.901661 1.489989 -0.001373 -0.005869 -166572.000000 0 0 1
-25.301335 32.804151 2.298371 41.491595 -0.913812 1.515374 0.005446 -0.000600 316059.000000 0 0 1
-24.668325 33.914051 1.661071 41.969612 -0.941931 1.531208 0.003843 -0.007352 -645096.000000 0 0 1
-23.439525 34.518551 2.296071 41.787722 -0.974275 1.515823 0.012754 -0.017560 -932558.000000 0 0 1
-22.259625 33.810751 2.035371 40.531476 -0.988567 1.520558 0.016095 -0.017680 -609137.000000 0 0 1
-21.121725 34.491251 2.534371 40.524027 -1.021324 1.508216 0.009248 -0.015704 1029110.000000 0 0 1
-19.769125 33.921151 1.950771 39.309901 -1.043123 1.521150 0.008117 -0.016054 778673.000000 0 0 1
-19.560125 34.435451 0.638371 39.608160 -1.054221 1.554678 0.001753 -0.015830 -324338.000000 0 0 1
-18.230025 34.165151 0.304671 38.725757 -1.080643 1.562929 0.002064 -0.015506 -435207.000000 0 0 1
-17.711525 -34.518817 -0.914929 38.808298 1.096726 1.594374 0.006683 -0.015677 -282223.000000 0 0 1
-17.666625 -33.112517 -0.793529 37.539022 1.080683 1.591937 0.008978 -0.011703 542176.000000 0 0 1
-16.948925 -32.418217 0.251971 36.582378 1.089059 1.563908 0.004856 -0.006246 -83346.300000 0 0 1
-16.973225 -30.889217 0.088671 35.245453 1.068347 1.568281 0.000598 0.000438 -497054.000000 0 0 1
-16.087725 -30.413817 -0.874829 34.417735 1.084249 1.596217 -0.009261 0.010751 -100263.000000 0 0 1
-16.050525 -29.007517 -0.813329 33.161980 1.065405 1.595325 -0.015720 0.016885 -246467.000000 0 0 1
-15.181025 -28.584317 -1.994429 32.426910 1.082582 1.632341 -0.018095 0.022946 -406401.000000 0 0 1
-15.768825 -28.803117 -3.216629 32.994274 1.069898 1.668442 -0.021031 0.018934 -146058.000000 0 0 1
-14.850225 -28.465217 -4.237129 32.384426 1.089942 1.702011 -0.014318 0.014389 93333.500000 0 0 1
-15.488525 -28.441817 -5.638729 32.872886 1.072133 1.743180 0.005323 0.011335 48946.400000 0 0 1
-16.308425 -27.308017 -5.815029 32.334302 1.032436 1.751621 0.012866 0.018936 -50613.900000 0 0 1
-17.001025 -27.267917 -7.088829 32.906316 1.013290 1.787923 0.023545 0.018405 291238.000000 0 0 1
-17.753825 -25.989017 -7.380729 32.328045 0.971484 1.801135 0.014623 0.017420 234179.000000 0 0 1
-16.922325 -24.817017 -7.278929 30.906832 0.972333 1.808542 0.037889 0.015411 553988.000000 0 0 1
-17.699325 -23.632817 -7.371029 30.432026 0.927980 1.815442 0.034763 0.006144 -4538.220000 0 0 1
-16.876625 -22.462817 -6.890329 28.928797 0.926455 1.811290 0.032602 0.003880 368933.000000 0 0 1
-15.763225 -22.206617 -7.725129 28.307079 0.953494 1.847207 0.042441 0.007387 342147.000000 0 0 1
-14.622925 -21.608217 -7.104529 27.041067 0.975859 1.836648 0.052304 -0.002578 519137.000000 0 0 1
-13.430425 -21.303117 -8.004829 26.424920 1.008292 1.878559 0.045614 -0.003926 -281157.000000 0 0 1
-13.698725 -20.426417 -9.107629 26.226752 0.980050 1.925449 0.039911 -0.002819 -1027100.000000 0 0 1
-12.632425 -20.264817 -9.957829 25.872753 1.013372 1.965871 0.036256 -0.004632 -640764.000000 0 0 1
-12.996225 -19.487617 -11.222129 25.973164 0.982635 2.017579 0.035239 -0.004325 -770285.000000 0 0 1
-13.876825 -20.126017 -12.057629 27.258196 0.967154 2.029012 0.036195 -0.001873 -778896.000000 0 0 1
-14.038625 -19.219117 -13.153329 27.193152 0.939924 2.075674 0.025287 0.004639 -447188.000000 0 0 1
-15.165225 -19.595217 -14.131529 28.524668 0.912158 2.089108 0.029904 0.011247 1024530.000000 0 0 1
-16.481125 -19.421017 -13.545529 28.849346 0.867102 2.059551 0.033323 0.006649 336267.000000 0 0 1
-17.469725 -19.718017 -14.461929 30.052269 0.845783 2.072849 0.017463 0.017815 -784547.000000 0 0 1
-18.875325 -19.676817 -13.843829 30.579513 0.806185 2.040605 0.009824 0.009891 164963.000000 0 0 1
-19.804025 -20.312517 -14.719629 31.960370 0.798073 2.049421 0.010361 0.004904 -754168.000000 0 0 1
-21.118225 -20.371617 -14.309429 32.645704 0.767405 2.024531 0.001210 0.011381 -418264.000000 0 0 1
-22.020525 -21.225517 -15.269329 34.184478 0.767017 2.033841 -0.001948 0.009514 123990.000000 0 0 1
-22.504125 -20.505717 -16.430729 34.596083 0.738968 2.065681 -0.011618 0.002463 378066.000000 0 0 1
-22.881425 -21.419817 -17.441429 35.868811 0.752418 2.078596 -0.009865 0.001380 37592.000000 0 0 1
-23.419225 -20.674617 -18.726629 36.422336 0.723234 2.110815 -0.018529 -0.000066 279815.000000 0 0 1
-22.332925 -20.411317 -19.592329 36.044983 0.740472 2.145460 -0.010416 -0.005858 509125.000000 0 0 1
-22.776825 -19.769817 -20.782929 36.627306 0.714840 2.174161 -0.012568 -0.013590 -194592.000000 0 0 1
-21.618625 -19.017517 -21.444929 35.901475 0.721476 2.210961 -0.014295 -0.008309 189155.000000 0 0 1
-20.540025 -19.822517 -21.903829 35.980586 0.767623 2.225303 -0.007051 -0.009317 -195205.000000 0 0 1
-19.714725 -19.091017 -22.752429 35.648427 0.769327 2.263013 -0.003401 -0.009113 -598340.000000 0 0 1
-18.350425 -19.720717 -23.020429 35.434234 0.821376 2.277942 0.009227 -0.011061 -450066.000000 0 0 1
-18.364025 -20.929217 -23.744829 36.593530 0.850589 2.276909 0.002887 -0.013392 281794.000000 0 0 1
-16.986925 -21.295417 -23.797829 36.171634 0.897472 2.288842 0.008634 -0.010284 467489.000000 0 0 1
-16.784125 -22.783817 -24.205929 37.238907 0.935882 2.278403 0.013706 -0.008345 -224550.000000 0 0 1
-16.926125 -22.988917 -25.617969 38.357064 0.936138 2.302155 0.015126 -0.009293 -27822.800000 0 0 1
-16.840625 -24.326817 -25.899549 39.321589 0.965280 2.289833 0.011852 -0.012268 -304217.000000 0 0 1
-16.811125 -24.439317 -27.464529 40.425172 0.968256 2.317730 0.010018 -0.009706 511139.000000 0 0 1
-15.585825 -24.077717 -28.127619 40.172346 0.996312 2.346437 -0.002797 -0.008381 679901.000000 0 0 1
-15.799925 -24.101217 -29.516699 41.252173 0.990519 2.368163 -0.001350 -0.010984 -218101.000000 0 0 1
-14.478225 -23.964417 -30.276999 41.238440 1.027327 2.395275 -0.013413 -0.010871 -352483.000000 0 0 1
-13.580825 -25.023317 -30.083519 41.420084 1.073554 2.383724 -0.013734 -0.014068 -1513470.000000 0 0 1
-12.473425 -24.774017 -30.816959 41.461105 1.104362 2.408747 -0.003595 -0.011864 -2027460.000000 0 0 1
-11.571525 -25.964517 -30.786809 41.903269 1.151552 2.396037 0.005845 -0.001950 -1792320.000000 0 0 1
-11.956825 -27.086517 -31.553389 43.269636 1.155091 2.387988 0.008843 0.010618 158672.000000 0 0 1
-11.285625 -28.320817 -31.269619 43.671765 1.191590 2.368873 0.014211 0.010760 -481346.000000 0 0 1
-9.837725 -28.336917 -31.748009 43.677200 1.236645 2.384562 0.022980 -0.002215 -471186.000000 0 0 1
-8.985925 -27.496717 -30.953799 42.366897 1.254937 2.390015 0.022449 -0.006076 236307.000000 0 0 1
-7.789325 -27.198417 -31.670449 42.466985 1.291873 2.412481 0.018250 -0.001187 377750.000000 0 0 1
-6.976425 -25.928517 -31.214289 41.173904 1.307957 2.431204 0.018426 -0.000963 -195258.000000 0 0 1
-7.617225 -24.667517 -31.305389 40.577529 1.271290 2.451985 0.024851 -0.001706 58020.300000 0 0 1
-8.352125 -24.298917 -30.161969 39.622465 1.239723 2.436010 0.021626 0.002135 -409937.000000 0 0 1
-8.835525 -22.878317 -30.194059 38.899423 1.202246 2.459426 0.023376 -0.007522 -438530.000000 0 0 1
-9.864425 -22.578317 -31.089179 39.668934 1.158891 2.471423 0.019366 -0.011055 -62043.500000 0 0 1
-10.243125 -21.183717 -30.981239 38.903838 1.120405 2.492040 0.014106 -0.012009 514622.000000 0 0 1
-11.006225 -20.691217 -32.290859 39.899411 1.081934 2.513767 0.008851 -0.006620 462044.000000 0 0 1
-11.715125 -19.483217 -32.078919 39.317896 1.029427 2.525056 0.012060 -0.005681 162882.000000 0 0 1
-12.075325 -18.909017 -33.316779 40.166804 1.002476 2.548938 0.009396 -0.003122 -941522.000000 0 0 1
-12.903525 -17.656517 -33.222999 39.774630 0.939692 2.559440 0.033460 0.002315 -614127.000000 0 0 1
-12.279825 -16.341717 -33.361019 39.125483 0.926374 2.591866 0.028163 0.006977 -430519.000000 0 0 1
-11.390425 -16.046817 -32.341989 37.858240 0.953507 2.594983 0.022114 0.012250 -150577.000000 0 0 1
-10.688125 -14.655717 -32.510859 37.228779 0.940688 2.632675 0.011023 0.008814 395049.000000 0 0 1
-9.828425 -14.484117 -33.657659 37.937127 0.974601 2.662028 0.015922 0.004257 78689.200000 0 0 1
-10.468225 -14.229917 34.453241 38.718214 0.936543 0.473789 0.013603 0.005430 -434024.000000 0 0 1
-10.965325 -12.819717 34.080739 38.027362 0.863205 0.459631 0.008378 0.002251 -350785.000000 0 0 1
-12.116225 -12.404317 -34.562138 38.667963 0.797147 2.676586 0.001322 0.005347 -788321.000000 0 0 1
-12.765025 -11.548417 33.854261 37.979242 0.735401 0.470397 0.003776 0.001025 -69088.600000 0 0 1
-13.941525 -10.788117 34.480304 38.725198 0.658567 0.472608 0.008049 0.000536 1250.170000 0 0 1
-13.507725 -9.764817 -33.937359 37.809451 0.625934 2.685066 0.001550 0.000881 55269.100000 0 0 1
-14.561125 -9.119517 -33.235569 37.413834 0.559528 2.664477 0.003310 -0.000929 222650.000000 0 0 1
-14.039925 -8.062517 -32.222279 36.061045 0.521275 2.675983 0.008399 -0.009623 -245362.000000 0 0 1
-13.589525 -6.856517 -32.821719 36.179445 0.467276 2.707358 0.001507 -0.016788 -198260.000000 0 0 1
-14.592325 -5.906217 -33.067089 36.623104 0.384593 2.697271 -0.004541 -0.022341 -291280.000000 0 0 1
-14.976625 -5.123217 -31.793079 35.515441 0.329603 2.679654 -0.007298 -0.020951 229408.000000 0 0 1
-15.769625 -5.949417 -30.872189 35.173409 0.360760 2.641867 0.000106 -0.021809 177602.000000 0 0 1
-16.093725 -5.316917 -29.634999 34.139578 0.319083 2.622066 -0.001243 -0.020759 5532.050000 0 0 1
-14.887425 -4.872117 -28.772869 32.760509 0.316278 2.643047 -0.009505 -0.009727 191213.000000 0 0 1
-14.312225 -3.705217 -29.340559 32.854784 0.253323 2.674848 -0.008734 -0.014772 -285535.000000 0 0 1
-13.144925 -3.289217 -28.668329 31.709322 0.245192 2.700060 -0.010955 -0.007264 -63991.800000 0 0 1
-12.856325 -1.889217 -29.312559 32.063692 0.145904 2.724321 -0.011177 -0.000458 -187570.000000 0 0 1
-12.596925 -1.935217 -30.674619 33.216861 0.152434 2.747813 -0.018169 -0.008287 25520.000000 0 0 1
-12.807225 -0.665217 -31.274989 33.802255 0.051894 2.752448 -0.016610 -0.012701 -142304.000000 0 0 1
-12.963925 -0.923217 -32.787389 35.269371 0.071094 2.764198 -0.020464 -0.013498 -288831.000000 0 0 1
-14.236925 -1.452217 -33.115159 36.075098 0.101652 2.733679 -0.025768 -0.018012 162987.000000 0 0 1
-14.245825 -1.896217 -34.416236 37.296333 0.132329 2.746025 -0.030514 -0.014001 -341111.000000 0 0 1
-15.623225 -2.029217 34.250687 37.700298 0.129162 0.431118 -0.024657 -0.014769 -259900.000000 0 0 1
-15.424425 -2.168217 32.845184 36.351343 0.139655 0.442817 -0.016222 -0.020533 -280557.000000 0 0 1
-16.626925 -2.087217 32.148454 36.253748 0.124879 0.480504 -0.005613 -0.012109 -532792.000000 0 0 1
-16.494625 -2.061217 30.602894 34.826117 0.124319 0.497593 -0.001904 -0.006667 16283.300000 0 0 1
-16.001825 -0.795217 30.147674 34.140490 0.049655 0.488479 -0.011054 0.006305 109971.000000 0 0 1
-16.181825 -0.581217 28.736124 32.984149 0.035902 0.513134 -0.012568 0.000129 -108505.000000 0 0 1
-15.829325 0.888783 28.293934 32.433072 -0.056089 0.510748 -0.010209 0.004343 105890.000000 0 0 1
-16.685025 1.901783 28.823904 33.359021 -0.113492 0.527534 -0.007644 0.004462 156986.000000 0 0 1
-17.954125 2.073783 28.233084 33.522503 -0.114995 0.569422 -0.003829 -0.000359 -52779.600000 0 0 1
-17.958625 2.739783 26.835874 32.406523 -0.151393 0.595085 0.005414 -0.000874 -678345.000000 0 0 1
-17.632825 4.110783 26.854464 32.387919 -0.229041 0.593210 0.001935 0.002236 149047.000000 0 0 1
-17.983625 4.643783 25.634774 31.656234 -0.252703 0.627009 0.003573 0.006559 -902112.000000 0 0 1
-17.887625 6.135783 25.746574 31.945282 -0.330442 0.633503 0.006966 0.001956 205897.000000 0 0 1
-16.631925 6.786783 25.698954 31.354706 -0.387433 0.610048 -0.001532 0.002952 -19104.100000 0 0 1
-15.968125 6.653783 24.447424 29.948796 -0.394812 0.615807 0.001109 0.005261 -71663.100000 0 0 1
-14.758925 7.594783 24.214784 29.357492 -0.475251 0.600904 0.002636 0.014190 171501.000000 0 0 1
-13.660325 7.374783 25.069114 29.486478 -0.495032 0.554450 -0.007345 0.008183 -433503.000000 0 0 1
-12.553925 7.963783 24.450604 28.615641 -0.565306 0.546307 0.004343 0.011267 -131020.000000 0 0 1
-11.329725 8.301783 25.352764 28.983528 -0.632365 0.505918 0.002979 0.026443 -9526.370000 0 0 1
-10.318825 8.854783 24.533094 28.049207 -0.709189 0.506094 -0.007156 0.014533 5499.140000 0 0 1
-9.084025 8.981783 25.215084 28.266454 -0.779739 0.468936 -0.004970 0.002312 103990.000000 0 0 1
-8.825125 10.383783 25.901444 29.267569 -0.866363 0.484328 0.000638 -0.011740 -677371.000000 0 0 1
-9.575325 10.636783 27.073264 30.623351 -0.837866 0.486291 0.000536 -0.011649 241283.000000 0 0 1
-9.685125 12.016783 27.415724 31.461510 -0.892428 0.512737 0.001564 -0.016313 -201094.000000 0 0 1
-10.399425 13.023783 26.453044 31.265484 -0.896974 0.562212 -0.007724 -0.018898 76272.600000 0 0 1
-11.797525 12.870783 26.302394 31.569837 -0.828878 0.586018 -0.002768 -0.019028 214568.000000 0 0 1
-12.194725 12.053783 25.176854 30.461106 -0.779586 0.597891 -0.003393 -0.005617 563889.000000 0 0 1
-13.735725 11.788783 25.051744 30.906883 -0.709268 0.625696 -0.004990 -0.003551 462602.000000 0 0 1
-14.484425 12.935783 24.703344 31.422735 -0.728980 0.666223 0.000832 -0.005595 464631.000000 0 0 1
-15.770925 12.644783 24.136584 31.483127 -0.675824 0.697187 0.020090 0.003895 605591.000000 0 0 1
-15.795925 12.078783 22.712684 30.187320 -0.652828 0.719111 0.016093 0.015473 -457096.000000 0 0 1
-15.323625 10.705783 22.663984 29.378282 -0.609816 0.689674 0.011912 0.011669 115740.000000 0 0 1
-15.220525 10.316783 21.271484 28.117191 -0.595685 0.712807 0.011645 0.014749 -49263.200000 0 0 1
-15.750825 8.889783 20.965584 27.688851 -0.513832 0.711804 0.009085 0.007978 558847.000000 0 0 1
-17.139725 8.782783 20.694884 28.269872 -0.473536 0.749474 0.018933 0.006363 -35192.600000 0 0 1
-17.598125 7.441783 20.672284 28.149911 -0.400068 0.746067 0.015593 0.010059 1220980.000000 0 0 1
-19.132125 7.327783 21.037684 29.365265 -0.365774 0.772148 0.024666 0.000012 1064260.000000 0 0 1
-19.366725 7.686783 22.380284 30.578322 -0.377837 0.749690 0.010222 -0.000312 1333550.000000 0 0 1
-20.795325 7.770783 22.652184 31.716747 -0.357612 0.775312 0.006732 0.003178 1218190.000000 0 0 1
-21.189525 8.423783 23.980684 33.091227 -0.378388 0.760221 0.007197 -0.001878 -592924.000000 0 0 1
-21.004825 9.829783 24.023684 33.391087 -0.437703 0.767766 0.006355 -0.002127 445281.000000 0 0 1
-19.684225 10.340783 23.895384 32.640311 -0.483708 0.749423 0.011023 -0.000287 693265.000000 0 0 1
-18.577525 9.998783 24.949544 32.673840 -0.493754 0.701936 0.010066 -0.006784 -25613.900000 0 0 1
-18.795725 10.608783 26.219114 33.959792 -0.513851 0.688715 0.011296 -0.003962 -192950.000000 0 0 1
-17.817525 10.247783 27.147184 34.050710 -0.521948 0.648058 0.009499 -0.002208 -119806.000000 0 0 1
-29.676145 -14.542249 21.209084 39.268000 0.455641 1.000227 -0.014910 0.008040 -39383.300000 0 0 1
-29.184955 -15.850249 21.421884 39.520743 0.497528 0.997932 -0.013912 0.012048 226203.000000 0 0 1
-29.939395 -16.896049 20.751384 40.155495 0.513787 1.027716 -0.020299 0.013377 140203.000000 0 0 1
-29.745785 -17.031449 19.170484 39.273266 0.520004 1.060850 -0.015845 0.001592 -87392.700000 0 0 1
-30.276465 -15.973249 18.418184 38.872079 0.485467 1.077178 -0.014769 -0.003945 50418.200000 0 0 1
-29.713985 -15.896849 17.114384 37.795937 0.491251 1.100882 -0.002256 -0.010067 -873378.000000 0 0 1
-29.990545 -14.486649 16.458184 37.150607 0.449988 1.111840 -0.007749 -0.011623 457924.000000 0 0 1
-31.243845 -14.368649 15.764884 37.830774 0.431046 1.140961 0.003871 -0.007643 347510.000000 0 0 1
-32.389135 -14.286249 16.554484 39.079457 0.415413 1.133368 0.000243 -0.006391 -1111520.000000 0 0 1
-32.696985 -13.001449 17.279384 39.200863 0.378465 1.114317 -0.001704 -0.007406 -648618.000000 0 0 1
-33.836505 -13.175649 18.110484 40.577043 0.371328 1.108144 -0.000532 -0.008507 205966.000000 0 0 1
-34.238130 -11.918849 18.633884 40.761871 0.334996 1.096019 0.001919 -0.004786 394174.000000 0 0 1
34.267733 -12.096849 19.657084 41.316004 -0.339354 1.074952 0.005127 0.000596 98849.000000 0 0 1
34.748749 -12.662549 20.837984 42.450410 -0.349448 1.057699 0.000633 -0.000213 -20592.300000 0 0 1
34.061899 -12.210949 21.977084 42.335711 -0.344221 1.024982 0.000003 -0.002884 -885473.000000 0 0 1
-34.830598 -12.679649 23.234484 43.746832 0.349125 1.010883 0.002698 -0.002875 342103.000000 0 0 1
-33.656095 -11.919849 23.422984 42.701894 0.340381 0.990199 -0.004820 0.000709 -232638.000000 0 0 1
-32.503005 -12.479049 22.863084 41.652042 0.366581 0.989741 -0.008034 -0.002173 -817690.000000 0 0 1
-31.243215 -11.603449 22.861284 40.415552 0.355603 0.969568 -0.005373 0.001300 -98717.400000 0 0 1
-31.312885 -10.481249 22.006984 39.681995 0.323004 0.982934 -0.002422 0.000156 -336658.000000 0 0 1
-30.093325 -9.808049 22.007984 38.550712 0.315065 0.963214 -0.003127 -0.000174 -667960.000000 0 0 1
-30.262955 -8.416649 21.335584 37.972274 0.271262 0.974148 -0.001088 0.004830 81398.300000 0 0 1
-30.455185 -8.464549 19.922484 37.364050 0.271092 1.008419 -0.002505 0.008253 418135.000000 0 0 1
-31.794075 -8.751149 19.541984 38.331905 0.268594 1.035833 -0.004456 0.000904 -166780.000000 0 0 1
-32.061495 -8.743749 18.035584 37.811042 0.266243 1.073567 -0.001466 0.003115 924638.000000 0 0 1
-33.437295 -9.113149 17.758184 38.941691 0.266082 1.097279 -0.005290 -0.000484 1162390.000000 0 0 1
-33.746535 -8.900749 16.392284 38.558513 0.257880 1.131694 0.002448 -0.000783 -287844.000000 0 0 1
34.417014 -8.798149 16.101184 39.002390 -0.250274 1.145242 0.006445 -0.001712 -359014.000000 0 0 1
33.786690 -10.023549 16.453584 38.893860 -0.288400 1.134001 0.007975 -0.003818 -310325.000000 0 0 1
32.412960 -9.815049 16.217484 37.549194 -0.294035 1.124198 -0.000119 0.000202 -473027.000000 0 0 1
31.573390 -11.076049 16.175684 37.164641 -0.337390 1.120487 0.002468 -0.003954 -312542.000000 0 0 1
31.637400 -11.728849 17.368584 37.949423 -0.355020 1.095415 -0.006211 -0.004152 -407193.000000 0 0 1
30.530910 -12.558649 17.388084 37.312218 -0.390246 1.086014 -0.010699 0.000635 -307810.000000 0 0 1
30.161220 -12.874649 18.892484 37.846819 -0.403446 1.048141 -0.006570 -0.001946 95093.700000 0 0 1
31.142190 -13.739549 19.411084 39.184198 -0.415501 1.052524 0.001898 0.002135 -69032.900000 0 0 1
30.971580 -13.935149 20.817084 39.834384 -0.422799 1.020909 0.000557 0.007307 -198403.000000 0 0 1
31.650270 -15.260549 21.263684 41.070284 -0.449275 1.026590 -0.004357 0.015492 142165.000000 0 0 1
31.686180 -15.270049 22.703584 41.864557 -0.449075 0.997612 -0.003872 0.011288 -13428.300000 0 0 1
32.220000 -16.495249 23.177584 42.981648 -0.473167 1.001258 -0.002191 0.020643 93251.300000 0 0 1
32.675280 -16.543249 24.638374 44.140712 -0.468669 0.978608 0.012629 0.011431 563744.000000 0 0 1
33.706087 -15.579449 24.908464 44.712986 -0.432965 0.979937 0.010136 0.010837 361104.000000 0 0 1
34.040110 -15.480149 26.296164 45.714903 -0.426807 0.957922 0.010756 0.009278 -13208.600000 0 0 1
-34.512855 -14.418949 26.512694 45.847205 0.395744 0.954173 0.009124 0.000966 -470604.000000 0 0 1
-33.234305 -14.872449 26.194284 44.853643 0.420775 0.947155 -0.006682 0.002827 -950707.000000 0 0 1
-32.328775 -13.886449 26.543394 44.074198 0.405708 0.924488 -0.004877 -0.000398 -788577.000000 0 0 1
-30.879305 -14.223149 26.207404 42.926186 0.431638 0.914076 -0.006704 0.004364 -1025780.000000 0 0 1
-30.525475 -14.354149 24.853254 41.899051 0.439553 0.935806 -0.013922 0.008104 1613670.000000 0 0 1
-29.102355 -14.704849 24.753754 40.938099 0.467863 0.921454 -0.008536 -0.001002 1695780.000000 0 0 1
-28.715675 -16.146049 25.098514 41.415218 0.512217 0.919747 -0.007243 -0.006874 -798198.000000 0 0 1
-28.718455 -16.563749 26.496844 42.440431 0.523158 0.896522 -0.001736 -0.010549 164996.000000 0 0 1
-28.849925 -17.962549 26.531064 43.114600 0.556886 0.907952 0.002134 -0.017313 -372319.000000 0 0 1
-28.601825 -18.441749 27.986754 44.061558 0.572693 0.882563 -0.005569 -0.011480 -217364.000000 0 0 1
-27.360145 -17.968649 28.467064 43.379991 0.581103 0.854991 0.001564 -0.011911 -107769.000000 0 0 1
-27.080375 -18.412649 29.771544 44.257397 0.597126 0.832957 0.001039 -0.015662 -332368.000000 0 0 1
-25.812875 -17.848949 30.409534 43.699305 0.604981 0.801150 0.002584 -0.014344 -573332.000000 0 0 1
-25.899495 -16.482849 30.756024 43.455738 0.566766 0.784481 0.008715 -0.021142 419346.000000 0 0 1
-24.601525 -15.899049 30.812734 42.513990 0.573743 0.760100 0.009351 -0.013083 -75877.100000 0 0 1
-24.659325 -14.443049 31.317144 42.396314 0.529841 0.739692 0.014074 -0.017145 -241174.000000 0 0 1
-24.347725 -14.242549 32.684504 43.173357 0.529290 0.712006 0.021638 -0.013436 356980.000000 0 0 1
-24.170425 -12.889949 33.021054 42.903965 0.489927 0.692503 0.026678 -0.009512 -792699.000000 0 0 1
-23.594225 -12.703949 34.443550 43.639843 0.493921 0.661180 0.023947 -0.003753 -77289.500000 0 0 1
-22.178725 -12.659449 34.512708 42.933489 0.518666 0.637032 0.014619 -0.003589 498999.000000 0 0 1
-21.468625 -13.882149 34.358038 42.826285 0.573999 0.639716 0.009478 -0.001807 -674208.000000 0 0 1
-21.503925 -14.860549 -33.733199 42.675325 0.604702 2.482358 0.007182 0.006048 -201521.000000 0 0 1
-20.490625 -14.594749 -32.754059 41.300130 0.618910 2.486635 -0.005481 0.006494 446541.000000 0 0 1
-20.540325 -15.580449 -31.745119 40.895084 0.648938 2.459504 0.001118 0.016823 1289420.000000 0 0 1
-19.235425 -15.488249 -30.807169 39.483782 0.677900 2.465860 -0.008530 0.016743 1342390.000000 0 0 1
-19.188325 -14.335549 -30.016799 38.401927 0.641641 2.468100 -0.009078 0.025888 121684.000000 0 0 1
-19.705325 -14.489949 -28.697979 37.707193 0.634047 2.435764 -0.013664 0.024287 -55842.800000 0 0 1
-19.402425 -13.372249 -27.678299 36.350507 0.603444 2.436310 -0.019158 0.019003 1650820.000000 0 0 1
-18.018125 -13.350549 -27.176019 35.233875 0.637685 2.451683 -0.014491 0.023017 1710810.000000 0 0 1
-17.920425 -12.191949 -26.332129 34.105223 0.597408 2.452912 -0.023094 0.016913 -415886.000000 0 0 1
-16.606425 -12.049349 -25.592329 32.801333 0.627691 2.465817 -0.013897 0.019815 -730146.000000 0 0 1
-16.533525 -12.990549 -24.537929 32.314420 0.665966 2.433109 0.000050 0.012942 397035.000000 0 0 1
-15.441725 -12.844449 -23.632929 31.015191 0.693833 2.437160 0.007281 0.008457 1315000.000000 0 0 1
-14.038525 -13.490549 -24.007729 30.910292 0.765495 2.460191 0.002543 0.010484 986176.000000 0 0 1
-13.322225 -12.713949 -24.971829 31.027704 0.762040 2.506175 -0.003664 0.005556 62166.400000 0 0 1
-12.590625 -13.503549 -25.872719 31.784701 0.820370 2.521800 0.001485 0.016448 53770.800000 0 0 1
-11.919725 -12.656149 -26.987249 32.102485 0.815354 2.569296 0.004833 0.024841 -493303.000000 0 0 1
-12.795825 -12.018649 -27.875319 32.942593 0.754089 2.579569 0.002001 0.018757 -516635.000000 0 0 1
-12.289125 -11.004749 -28.691109 33.095420 0.730316 2.619788 0.005122 0.001991 -241376.000000 0 0 1
-11.775625 -11.515849 -30.067579 34.283223 0.774245 2.640451 0.011079 0.008294 86805.000000 0 0 1
-11.271125 -10.378249 -30.723639 34.332030 0.744179 2.678997 0.003982 0.005620 -101703.000000 0 0 1
-10.800425 -10.652649 -31.996519 35.410526 0.778510 2.698868 0.010301 0.005009 -209807.000000 0 0 1
-10.271025 -9.377649 -32.724039 35.556954 0.739962 2.739713 0.012383 0.004896 168686.000000 0 0 1
-9.021725 -9.057149 -32.132639 34.582220 0.787358 2.762948 0.007522 0.006998 -259231.000000 0 0 1
-8.608825 -7.831549 -32.647779 34.660099 0.738155 2.799162 0.005682 0.010541 96743.900000 0 0 1
-7.074225 -7.558249 -32.604559 34.208611 0.818465 2.834147 0.017754 0.007230 246676.000000 0 0 1
-6.507825 -7.312149 -31.324779 32.818609 0.843533 2.838715 0.013308 0.001100 -88607.700000 0 0 1
-6.779425 -6.042849 -30.729149 32.043052 0.728016 2.854233 0.004903 -0.001208 -417437.000000 0 0 1
-6.098325 -4.764349 -31.252159 32.196056 0.663206 2.898852 0.018713 0.003299 446964.000000 0 0 1
-4.725025 -4.643149 -30.888119 31.590514 0.776658 2.930324 0.033257 0.000903 398924.000000 0 0 1
-4.150225 -3.385949 -31.087339 31.545390 0.684329 2.970972 0.037577 -0.006091 -804596.000000 0 0 1
-2.680125 -3.257549 -30.761669 31.049556 0.882341 3.005312 0.013757 -0.005754 -1194970.000000 0 0 1
-1.877825 -3.601149 -31.877559 32.135234 1.090135 3.014871 0.009860 -0.015706 2270720.000000 0 0 1
-0.408325 -3.514349 -31.679419 31.876370 1.455127 3.030372 -0.008393 -0.000572 2658490.000000 0 0 1
0.216975 -2.120249 -31.503359 31.575372 -1.468817 3.074042 -0.012444 -0.002840 -733019.000000 0 0 1
0.122975 -1.514849 -30.266549 30.304684 -1.489794 3.091420 -0.003240 -0.008899 -237538.000000 0 0 1
0.850075 -0.339149 -30.247099 30.260942 -0.379612 3.111343 -0.013622 0.003772 -175417.000000 0 0 1
0.871675 0.299351 -28.838429 28.853152 0.330802 3.109645 -0.008377 0.002134 9367.630000 0 0 1
-0.352925 0.938751 -28.550589 28.568198 -1.211191 3.106480 0.006239 -0.002881 -192238.000000 0 0 1
-0.168125 2.340251 -28.749039 28.844623 -1.499079 3.060161 0.010703 -0.007088 -54044.700000 0 0 1
-1.382325 3.299651 -28.598079 28.820976 -1.174078 3.017143 0.002789 -0.003231 325303.000000 0 0 1
-2.381025 3.197151 -29.605239 29.872416 -0.930674 3.007747 -0.008065 -0.003973 668048.000000 0 0 1
-3.612825 3.782551 -29.148829 29.614429 -0.808344 2.964034 0.014857 -0.009475 487017.000000 0 0 1
-4.623025 3.841851 -30.294399 30.884993 -0.693375 2.945717 0.018128 -0.008479 -387101.000000 0 0 1
-4.159625 4.749351 -31.245669 31.877118 -0.851496 2.942221 0.014944 0.000821 204412.000000 0 0 1
-5.108425 5.029651 -32.242179 33.029555 -0.777628 2.922806 0.019248 -0.003320 -198202.000000 0 0 1
-4.431525 5.824951 -33.428459 34.220320 -0.920430 2.926047 0.016038 0.005646 427249.000000 0 0 1
-3.882225 5.151151 -34.576550 35.173055 -0.924956 2.957162 0.028372 -0.001326 816782.000000 0 0 1
-2.796925 4.252251 -34.281546 34.657305 -0.988991 2.994203 0.025958 -0.000904 -17966.200000 0 0 1
-2.304725 3.610751 33.734313 34.005193 -1.002693 0.126305 0.022688 -0.003480 -379558.000000 0 0 1
-3.248125 2.669051 33.271437 33.535991 -0.687846 0.125690 0.034005 -0.008668 -211680.000000 0 0 1
-2.951925 1.887951 32.131824 32.322319 -0.569005 0.108622 0.046945 -0.016014 -293901.000000 0 0 1
-2.720825 2.717551 30.845744 31.084528 -0.784796 0.124029 0.046532 -0.013970 -77450.800000 0 0 1
-3.774225 3.614851 30.608444 31.051389 -0.763833 0.169109 0.033653 -0.013672 -105702.000000 0 0 1
-3.535425 4.253551 29.347724 29.864374 -0.877336 0.186279 0.030909 -0.021130 -102777.000000 0 0 1
-4.478725 5.418851 29.117274 29.953941 -0.880100 0.236908 0.021480 -0.015070 -57602.300000 0 0 1
-4.429525 6.044751 27.852914 28.843449 -0.938402 0.262831 0.022509 -0.005769 -842375.000000 0 0 1
-5.627825 6.696651 27.609094 28.961692 -0.871906 0.306826 0.011048 -0.004456 -655858.000000 0 0 1
-5.622725 7.374351 26.204604 27.797075 -0.919362 0.340131 0.011944 -0.005742 72074.400000 0 0 1
-4.686625 8.441651 26.130734 27.857516 -1.063986 0.353942 0.003759 -0.010752 162112.000000 0 0 1
-4.751825 9.044851 24.920004 26.933172 -1.087065 0.389094 0.007596 -0.009171 47221.100000 0 0 1
-4.102525 10.455351 25.035914 27.439790 -1.196872 0.421700 0.009381 -0.013467 -447008.000000 0 0 1
-4.277425 11.306351 23.969884 26.845582 -1.209118 0.467095 0.010805 -0.010073 105073.000000 0 0 1
-3.910925 12.690851 24.223684 27.624987 -1.271862 0.501472 0.011106 0.000639 -1006160.000000 0 0 1
-2.405925 13.050951 24.328064 27.712281 -1.388494 0.499379 0.012497 -0.002426 -123290.000000 0 0 1
-1.655525 12.563351 25.461934 28.440968 -1.439777 0.461792 0.018913 -0.008126 179017.000000 0 0 1
-2.014125 13.075851 26.724584 29.820094 -1.417964 0.459682 0.022600 -0.009010 -758924.000000 0 0 1
-1.053725 12.647051 27.842364 30.598292 -1.487670 0.427676 0.012434 -0.004973 1624760.000000 0 0 1
0.277175 13.263051 27.843574 30.842341 1.549901 0.444627 0.008036 -0.004307 1151580.000000 0 0 1
1.004675 12.734851 28.917864 31.613742 1.492068 0.415971 0.008957 -0.003120 137222.000000 0 0 1
2.538475 12.961451 28.940454 31.811837 1.377396 0.428142 0.011928 0.001836 322066.000000 0 0 1
2.954775 14.295051 28.927524 32.401865 1.366968 0.467332 0.012762 0.006247 -41751.100000 0 0 1
4.362875 14.389751 28.919214 32.594793 1.276413 0.479482 0.010227 0.005368 -170423.000000 0 0 1
4.906075 15.834851 29.163814 33.546090 1.270348 0.516879 0.012593 0.010213 -480189.000000 0 0 1
4.623275 16.394051 30.459304 34.898550 1.295925 0.509895 0.012407 0.019526 1937620.000000 0 0 1
3.296075 17.036751 30.580754 35.161023 1.379689 0.516132 0.010498 0.018205 1575610.000000 0 0 1
3.136475 18.311551 29.748634 35.073232 1.401159 0.558245 0.018915 0.019417 -406179.000000 0 0 1
3.738575 19.472051 30.299234 36.210238 1.381108 0.579459 0.026612 0.020058 193193.000000 0 0 1
4.907675 19.904751 29.625094 36.026804 1.329060 0.605343 0.019944 0.020530 620005.000000 0 0 1
5.941075 20.638151 30.553154 37.346016 1.290506 0.612679 0.023062 0.015971 439566.000000 0 0 1
5.600775 21.978451 30.744034 38.204929 1.321277 0.635603 0.024525 0.008486 -63760.700000 0 0 1
6.713075 22.624951 31.290414 39.192395 1.282360 0.646197 0.019080 0.001192 -212177.000000 0 0 1
6.813475 24.101951 30.921394 39.792714 1.295291 0.680812 0.019457 0.000050 -179307.000000 0 0 1
7.358375 24.238151 29.627904 38.980076 1.276052 0.707363 0.012029 0.005411 154510.000000 0 0 1
7.652875 25.545351 29.290734 39.611596 1.279725 0.738546 0.006684 0.005773 78236.500000 0 0 1
8.325175 25.618551 27.896604 38.779366 1.256595 0.767905 0.009620 0.006510 -267291.000000 0 0 1
7.408375 25.326351 26.872964 37.662505 1.286219 0.776286 0.004462 0.001972 -52735.500000 0 0 1
7.953775 25.178551 25.588424 36.769409 1.264822 0.801102 0.011184 -0.002068 -657381.000000 0 0 1
28.403640 2.217551 6.913971 29.317014 0.077915 1.332719 -0.014013 0.010607 -957.290000 0 0 1
28.579980 2.889051 8.155371 29.860877 0.100744 1.294170 -0.016478 0.009734 -309847.000000 0 0 1
27.532520 2.614751 9.015271 29.088687 0.094686 1.255684 -0.016087 0.010637 -897279.000000 0 0 1
27.566820 3.539851 10.274071 29.631346 0.127711 1.216714 -0.022251 0.011590 37533.900000 0 0 1
27.296670 4.911251 9.897071 29.447931 0.178017 1.228037 -0.022959 0.006453 332214.000000 0 0 1
28.511720 5.561751 9.577271 30.587177 0.192650 1.252326 -0.015510 0.002325 -88290.400000 0 0 1
28.498130 7.126151 9.453171 30.859162 0.245032 1.259458 -0.024334 0.002521 -71966.900000 0 0 1
27.609790 7.652751 8.474071 29.877667 0.270387 1.283223 0.000069 -0.000664 74010.500000 0 0 1
27.663460 9.028851 8.389871 30.284932 0.315481 1.290093 -0.000189 -0.004718 11714.400000 0 0 1
27.348030 9.578651 6.982271 29.806332 0.336898 1.334345 0.005618 -0.005700 -1170660.000000 0 0 1
25.998340 9.801251 6.873471 28.622069 0.360519 1.328280 0.003583 -0.001004 -1251010.000000 0 0 1
25.797530 10.432651 5.600271 28.385134 0.384298 1.372197 0.001860 -0.007771 263425.000000 0 0 1
24.291320 10.716951 5.383871 27.090724 0.415499 1.370729 -0.005788 0.000175 429092.000000 0 0 1
23.778820 11.832651 6.149171 27.262726 0.461736 1.343286 -0.013933 -0.001539 358862.000000 0 0 1
22.399920 12.093951 5.934371 26.138800 0.495064 1.341766 -0.007536 0.008162 382324.000000 0 0 1
21.875720 13.481151 6.367171 26.473184 0.552290 1.327901 0.002869 0.012973 -223915.000000 0 0 1
22.206720 14.465051 5.384671 27.043868 0.577346 1.370348 -0.001870 0.012428 554311.000000 0 0 1
21.889820 15.770551 5.886471 27.613856 0.624320 1.355977 0.003739 0.013560 -103193.000000 0 0 1
21.625820 16.852851 4.838971 27.840804 0.661987 1.396100 0.025303 0.000115 -211026.000000 0 0 1
20.391720 16.644951 4.175571 26.651680 0.684577 1.413476 0.025875 0.009002 369259.000000 0 0 1
20.121020 17.744351 3.253771 27.024146 0.722714 1.450101 0.024500 -0.004309 -919315.000000 0 0 1
18.697820 17.841151 2.751571 25.990119 0.761957 1.464728 0.014805 0.004026 -777468.000000 0 0 1
17.882320 18.362651 3.788371 25.909768 0.798650 1.424056 0.011542 -0.003647 -1211490.000000 0 0 1
16.543420 18.239251 3.509371 24.873093 0.834115 1.429233 0.012007 -0.013054 -1546900.000000 0 1 0
15.790620 19.377351 4.205771 25.347859 0.887035 1.404103 0.013141 -0.017642 -200116.000000 0 0 1
14.399620 19.095351 4.096471 24.264430 0.924683 1.401158 0.007820 -0.022501 472420.000000 0 1 0
13.651120 20.324651 4.362871 24.869242 0.979349 1.394451 0.000851 -0.020626 -79657.100000 0 1 0
12.189020 20.094051 3.953671 23.832218 1.025539 1.404130 -0.004321 -0.015725 -38569.100000 0 1 0
11.493420 19.546551 5.113471 23.244655 1.039245 1.348997 -0.006480 -0.014165 784082.000000 0 1 0
10.113620 19.286651 4.824571 22.305531 1.087832 1.352778 -0.003506 -0.010741 406232.000000 0 1 0
9.382620 18.784551 6.023871 21.844449 1.107560 1.291414 0.008792 -0.010946 -1251790.000000 0 1 0
9.085520 19.763751 6.974171 22.842758 1.139900 1.260530 0.003241 -0.009120 -279263.000000 0 1 0
8.639220 19.178751 8.160971 22.562404 1.147562 1.200699 0.010731 -0.003009 -58224.800000 0 1 0
7.500520 19.963051 8.921071 23.116374 1.211394 1.174591 0.002463 -0.003572 634947.000000 0 1 0
6.274720 20.233651 8.295771 22.750661 1.270087 1.197552 -0.001445 -0.007002 -116009.000000 0 1 0
6.272720 21.267451 7.314571 23.348543 1.283984 1.252154 -0.007802 -0.007325 -526648.000000 0 1 0
4.902520 21.351151 6.579071 22.873359 1.345095 1.279045 -0.008627 0.000911 1169510.000000 0 1 0
3.743320 21.763551 7.334471 23.269273 1.400463 1.250129 -0.015238 0.012903 351708.000000 0 1 0
3.800520 23.031751 7.985671 24.671370 1.407258 1.241178 -0.012140 0.010193 -970116.000000 0 1 0
3.733620 24.278551 7.029571 25.550007 1.418209 1.292071 -0.016054 0.013008 -693862.000000 0 0 1
2.606920 24.348351 6.167171 25.252173 1.464135 1.324078 -0.000380 0.008078 86247.700000 0 0 1
2.774720 25.166351 5.065271 25.820559 1.460985 1.373344 0.003806 0.009277 -515219.000000 0 0 1
1.497720 25.304151 4.230271 25.698997 1.511677 1.405435 -0.000572 0.003356 -774442.000000 0 0 1
0.583620 26.156951 4.835871 26.606623 1.548488 1.388026 0.002993 0.011722 -723744.000000 0 0 1
-0.391280 26.542851 3.922871 26.834027 -1.556056 1.424080 0.003286 0.009482 -47305.400000 0 0 1
-1.679680 27.164851 4.542071 27.593131 -1.509042 1.405435 -0.007099 0.010675 640873.000000 0 0 1
-2.623980 27.631651 3.579171 27.985780 -1.476117 1.442553 0.009470 0.004913 735308.000000 0 0 1
-3.805380 28.148351 4.221371 28.716382 -1.436421 1.423259 -0.001482 -0.000884 655790.000000 0 0 1
-4.764580 28.822251 3.185771 29.386605 -1.406969 1.462174 -0.007739 -0.006827 20414.200000 0 0 1
-4.243180 30.013151 2.674971 30.429415 -1.430350 1.482775 -0.003857 -0.008478 296393.000000 0 0 1
-4.852180 30.282051 1.414771 30.700942 -1.411914 1.524698 0.006686 -0.008676 105397.000000 0 0 1
-3.977380 31.300651 0.614371 31.558324 -1.444404 1.551327 0.001848 -0.006194 97797.000000 0 0 1
-4.004080 32.667551 1.000471 32.927231 -1.448834 1.540407 0.003189 0.004884 284720.000000 0 0 1
-3.251880 32.868151 2.222971 33.103349 -1.472180 1.503593 -0.005605 -0.009700 -581964.000000 0 0 1
-2.268280 34.017051 2.049871 34.154163 -1.504214 1.510742 0.004249 -0.001077 -771027.000000 0 0 1
-1.349580 33.907151 0.976371 33.948042 -1.531015 1.542032 -0.001954 0.005361 828520.000000 0 0 1
-0.402080 -34.508817 0.848371 34.521586 1.559145 1.546219 -0.006899 0.001741 1166870.000000 0 0 1
0.824420 -34.530117 1.816371 34.587684 -1.546925 1.518257 -0.010032 0.006317 -452685.000000 0 0 1
0.444020 -34.587017 3.169471 34.734773 -1.557959 1.479421 -0.005840 0.002869 6477.470000 0 0 1
1.441220 34.489651 4.078971 34.759908 1.529034 1.453178 -0.005948 0.003159 68104.700000 0 0 1
1.014520 -34.603617 5.506571 35.053700 -1.541486 1.413053 -0.006551 -0.001755 1407420.000000 0 0 1
-0.159080 34.196751 6.032771 34.725170 -1.566144 1.396181 -0.015732 -0.005963 1075070.000000 0 0 1
-0.536880 34.552651 7.350671 35.329964 -1.555260 1.361208 -0.016902 -0.012931 198460.000000 0 0 1
0.509720 34.231651 8.480371 35.270136 1.555907 1.327977 -0.005263 -0.009638 305065.000000 0 0 1
0.885320 32.883651 8.567071 33.992838 1.543880 1.316023 -0.011330 -0.011896 -385930.000000 0 0 1
1.980820 32.839651 9.447871 34.229061 1.510551 1.291147 -0.003795 -0.009605 -471187.000000 0 0 1
2.624620 31.481651 9.344371 32.943896 1.487619 1.283203 -0.009730 -0.005006 -212203.000000 0 0 1
1.819920 30.542651 10.060671 32.208427 1.511281 1.253118 -0.008609 0.000464 491001.000000 0 0 1
2.269220 29.196851 9.889071 30.909533 1.493231 1.245134 -0.005948 0.003175 147283.000000 0 0 1
1.884520 28.288151 11.117871 30.452881 1.504276 1.197073 -0.015854 0.005372 338654.000000 0 0 1
2.658520 28.792051 12.225371 31.392828 1.478722 1.170782 -0.002854 0.010070 274329.000000 0 0 1
2.718920 27.874551 13.335671 31.019724 1.473563 1.126404 -0.001822 0.006421 -455233.000000 0 0 1
1.416120 27.584051 14.109371 31.015474 1.519503 1.098521 -0.006286 0.007237 263551.000000 0 0 1
0.760520 28.639251 14.814171 32.252826 1.544247 1.093574 0.000666 0.005881 455099.000000 0 0 1
-0.019980 29.494251 13.954271 32.628714 -1.570119 1.128884 0.001426 0.003078 -642550.000000 0 0 1
-0.780780 30.584151 14.651371 33.921418 -1.545273 1.124175 -0.002626 0.004994 -209932.000000 0 0 1
-1.991080 30.084151 15.191971 33.761169 -1.504709 1.104049 -0.006828 0.011004 216271.000000 0 0 1
-2.680180 31.081351 15.963171 35.043639 -1.484778 1.097837 -0.007689 0.004917 -523087.000000 0 0 1
-4.026080 30.654751 16.537071 35.062770 -1.440208 1.079644 -0.011720 0.004093 -541825.000000 0 0 1
-4.885280 30.278651 15.469971 34.350876 -1.410831 1.103637 -0.003783 0.007892 -142630.000000 0 0 1
-6.072580 29.775451 16.043871 34.363637 -1.369610 1.085031 0.004796 0.008026 -709257.000000 0 0 1
-7.167580 29.582951 14.994471 33.931687 -1.333090 1.113079 -0.006038 0.010481 212783.000000 0 0 1
-8.434480 29.371551 15.632771 34.325093 -1.291156 1.097938 -0.011592 0.012214 534073.000000 0 0 1
-9.499880 29.146651 14.705571 34.000424 -1.255720 1.123520 0.001088 0.008756 671115.000000 0 0 1
-10.666080 28.489751 15.512171 34.147601 -1.212567 1.099246 -0.002776 0.013406 230744.000000 0 0 1
-11.428680 29.330151 16.429871 35.507931 -1.199239 1.089747 -0.001665 0.012642 700018.000000 0 0 1
-10.809980 29.577751 17.698671 36.123981 -1.220401 1.058773 0.004018 0.008344 -36073.100000 0 0 1
-11.435080 30.761551 18.532071 37.689147 -1.214893 1.056746 0.004287 0.009608 364900.000000 0 0 1
-12.682080 30.563051 19.173471 38.243395 -1.177470 1.045634 0.001127 0.014244 186165.000000 0 0 1
-13.376380 31.751251 19.454371 39.566932 -1.172075 1.056775 0.010092 0.007594 174368.000000 0 0 1
-14.472880 31.448851 20.495271 40.231215 -1.139489 1.036266 0.010976 0.012722 259392.000000 0 0 1
-13.872580 31.245751 21.756171 40.522542 -1.152957 1.004049 0.021712 0.008770 -57654.100000 0 0 1
-14.791780 30.646351 22.611971 40.857029 -1.121116 0.984306 0.020370 0.006475 -281854.000000 0 0 1
-14.312780 30.514351 24.070171 41.416838 -1.132213 0.950632 0.033389 -0.000978 -190646.000000 0 0 1
-13.208780 29.626751 24.237071 40.492615 -1.151408 0.929100 0.028239 0.001363 628964.000000 0 0 1
-12.836180 29.445151 25.614171 41.083698 -1.159700 0.897632 0.038246 0.002636 45555.500000 0 0 1
-12.241380 30.581551 26.472071 42.259357 -1.190043 0.893845 0.042274 -0.004023 -51243.200000 0 0 1
-13.214080 31.616451 26.697971 43.439539 -1.174913 0.908917 0.033783 -0.000239 971782.000000 0 0 1
-12.604380 32.801951 27.225971 44.453255 -1.203935 0.911624 0.033904 -0.000994 82788.500000 0 0 1
-13.683580 33.852451 27.641771 45.796248 -1.186664 0.922811 0.030862 -0.001707 226195.000000 0 0 1
-14.409380 33.535051 28.808871 46.499258 -1.164967 0.902620 0.006434 -0.002387 206390.000000 0 0 1
-13.732780 33.806251 30.029871 47.257222 -1.184939 0.882198 0.014585 0.013261 -445622.000000 0 0 1
-14.315580 33.120151 31.289471 47.758887 -1.162816 0.856409 0.002041 0.006683 341909.000000 0 0 1
-15.569880 33.636951 31.741871 48.799714 -1.137283 0.862617 -0.007821 0.018115 174401.000000 0 0 1
-16.053480 32.779851 32.718771 49.017863 -1.115393 0.839968 -0.013433 0.020140 392493.000000 0 0 1
-17.522580 33.036051 33.157971 49.978721 -1.083119 0.845387 -0.022099 0.012363 335938.000000 0 0 1
-17.685780 34.359751 33.694571 51.270883 -1.095439 0.853715 -0.013026 0.013827 -87523.600000 0 0 1
-19.069980 34.603451 33.845571 52.024856 -1.067109 0.862468 -0.017091 0.005137 56240.100000 0 0 1
-19.444780 -33.387317 34.144171 51.561971 1.043418 0.847050 -0.011197 0.004611 130710.000000 0 0 1
-19.021080 -32.912917 -33.858341 50.906275 1.046769 2.298439 0.001342 0.006763 86826.900000 0 0 1
-19.923980 -33.263917 -32.836241 50.810156 1.031137 2.273461 -0.004095 0.012593 14165.000000 0 0 1
-19.656780 -32.364417 -31.602441 49.320977 1.024984 2.266272 0.001617 0.004991 -21418.300000 0 0 1
-19.914380 -30.951717 -31.851941 48.673787 0.999074 2.284180 0.010436 0.002172 -51842.900000 0 0 1
-19.405680 -30.097917 -30.868041 47.278970 0.998120 2.282192 0.012797 0.002004 -401687.000000 0 0 1
-19.634480 -28.607717 -31.053541 46.564329 0.969300 2.300831 0.017473 0.000732 -751272.000000 0 0 1
-20.910280 -28.105517 -30.855941 46.682427 0.931151 2.292914 0.015236 -0.001370 -524559.000000 0 0 1
-20.829380 -26.703817 -30.837941 45.803226 0.908361 2.309419 0.021499 -0.001863 -115329.000000 0 0 1
-22.025680 -26.117117 -30.087141 45.524394 0.870180 2.292816 0.025886 -0.005336 -401338.000000 0 0 1
-22.057780 -26.410717 -28.686141 44.799178 0.874967 2.265721 0.026395 -0.008314 -23787.000000 0 0 1
-21.148280 -25.691317 -27.893041 43.420217 0.882087 2.268419 0.026636 -0.015364 -308522.000000 0 0 1
-21.086280 -26.003817 -26.341841 42.599558 0.889449 2.237450 0.025360 -0.008365 -91711.000000 0 0 1
-22.142080 -25.489217 -25.552341 42.342580 0.855555 2.218638 0.020115 -0.013952 78486.200000 0 0 1
-22.007080 -25.887517 -24.218241 41.725272 0.866242 2.190042 0.016835 -0.002121 -728189.000000 0 0 1
-23.291780 -25.678517 -23.373841 41.811837 0.834098 2.164005 0.014931 -0.006331 1387900.000000 0 0 1
-24.493880 -26.462417 -23.662841 43.129337 0.824011 2.151543 0.018951 -0.003811 1249760.000000 0 0 1
-24.334880 -27.862217 -23.641341 43.902193 0.852873 2.139453 0.021207 0.007175 -1071140.000000 0 0 1
-25.674380 -28.624917 -23.716141 45.177594 0.839683 2.123457 0.007603 0.010285 535847.000000 0 0 1
-26.440380 -28.580317 -22.493041 44.965155 0.824272 2.094664 0.000069 0.012892 477484.000000 0 0 1
-27.483880 -27.605217 -22.498341 44.984298 0.787601 2.094554 0.004049 0.009534 251603.000000 0 0 1
-27.940580 -27.251817 -21.035141 44.337509 0.772920 2.065115 -0.000608 0.015786 28304.400000 0 0 1
-28.406680 -28.388217 -20.290141 44.994668 0.785073 2.038621 -0.009207 0.019717 197197.000000 0 0 1
-28.860180 -27.948717 -19.023341 44.451415 0.769355 2.013029 -0.023073 0.027903 -401359.000000 0 0 1
-29.873280 -28.993517 -18.466241 45.541618 0.770454 1.988301 -0.018660 0.018787 729312.000000 0 0 1
-31.212880 -29.136017 -18.978141 46.726023 0.750997 1.989042 -0.019694 0.013482 1278370.000000 0 0 1
-32.114180 -28.071317 -18.753341 46.594068 0.718326 1.985024 -0.020081 0.016634 -372206.000000 0 0 1
-32.562880 -27.678317 -17.308741 46.108816 0.704492 1.955613 -0.015710 0.017691 -742614.000000 0 0 1
-31.676380 -26.856717 -16.583541 44.717895 0.703243 1.950718 -0.012149 0.017175 188661.000000 0 0 1
-32.186980 -26.400117 -15.349041 44.368468 0.686944 1.924042 -0.006592 0.015591 -102272.000000 0 0 1
-32.183180 -27.322617 -14.075341 44.501660 0.703897 1.892610 0.015464 0.017553 -351985.000000 0 0 1
-32.875780 -28.524517 -14.124441 45.759860 0.714649 1.884585 0.006447 0.010892 83945.500000 0 0 1
-32.775680 -29.205217 -12.872941 45.748252 0.727856 1.856035 0.002160 -0.002409 -226449.000000 0 0 1
-33.455180 -30.584717 -12.780041 47.095684 0.740605 1.845606 0.006994 0.001066 -161080.000000 0 0 1
-32.857080 -31.614717 -13.586741 47.578121 0.766131 1.860394 0.003121 -0.008651 -70042.600000 0 0 1
-33.591280 -32.775917 -13.635341 48.872869 0.773113 1.853545 -0.001783 -0.011372 -577783.000000 0 0 1
-32.966680 -33.719917 -14.685141 49.391175 0.796693 1.872684 -0.015517 0.012844 306679.000000 0 0 1
-31.585780 -33.965717 -14.428441 48.574802 0.821689 1.872383 -0.013596 0.008021 155454.000000 0 0 1
-31.123580 34.669751 -15.366741 49.059205 -0.839245 1.889387 -0.008103 -0.010723 -378017.000000 0 0 1
-29.651380 34.253451 -15.249241 47.802120 -0.857289 1.895479 -0.014104 -0.004710 -185611.000000 0 0 1
-29.161880 33.639651 -16.396541 47.443524 -0.856578 1.923676 0.000385 -0.007805 428374.000000 0 0 1
-27.784580 33.267251 -16.203441 46.273582 -0.874961 1.928545 -0.006307 -0.003179 574591.000000 0 0 1
8.847775 20.258551 -8.816329 23.799573 1.159022 1.950280 0.009891 -0.004775 598317.000000 0 1 0
7.521475 20.776251 -9.081829 23.889429 1.223451 1.960767 0.013659 0.009433 907964.000000 0 1 0
7.066575 20.736751 -10.396629 24.249520 1.242363 2.013889 0.021921 0.008186 253642.000000 0 1 0
6.972875 19.364351 -11.177229 23.420707 1.225163 2.068304 0.017264 0.007787 -32106.500000 0 1 0
8.281475 18.890451 -11.471229 23.601294 1.157635 2.078352 0.022089 0.011333 30791.000000 0 1 0
8.217575 17.718751 -12.241129 23.050551 1.136544 2.130642 0.013649 -0.002836 443214.000000 0 1 0
9.542375 17.207251 -12.893029 23.523958 1.064462 2.150864 0.021145 -0.003423 517205.000000 0 1 0
9.337975 16.124851 -13.730629 23.146031 1.045883 2.205846 0.020911 -0.015004 -153481.000000 0 1 0
10.513475 15.795551 -14.445529 23.847555 0.983534 2.221498 0.031738 -0.015182 -288262.000000 0 1 0
10.375775 14.681051 -15.533529 23.758798 0.955557 2.283393 0.032531 -0.013225 -655569.000000 0 1 0
10.299475 13.367051 -14.982929 22.566466 0.914296 2.296881 0.039030 -0.016933 -358207.000000 0 1 0
11.479275 12.809151 -14.479029 22.483113 0.840097 2.270506 0.044368 -0.016806 -824478.000000 0 1 0
12.330475 12.084851 -15.541929 23.230062 0.775338 2.303718 0.026326 -0.014764 -270250.000000 0 1 0
12.887875 12.949751 -16.559729 24.658021 0.787793 2.307130 0.013841 -0.012062 206796.000000 0 1 0
13.731575 12.229351 -17.431629 25.337223 0.727598 2.329505 0.004547 -0.011820 -317302.000000 0 0 1
14.435975 13.117351 -18.450629 26.849357 0.737578 2.328411 -0.001708 -0.014621 -55045.900000 0 0 1
15.490375 13.880051 -17.876929 27.426121 0.730625 2.280780 -0.009025 -0.010063 -299750.000000 0 0 1
16.068575 14.574551 -18.944229 28.801049 0.736681 2.288640 -0.007292 -0.013153 68781.600000 0 0 1
17.308775 15.414351 -18.477229 29.641253 0.727570 2.243831 0.007093 -0.004842 -93337.600000 0 0 1
17.125375 16.700451 -17.931729 29.895325 0.772837 2.214069 0.004149 -0.004030 -139108.000000 0 0 1
16.494575 17.665851 -18.749529 30.589183 0.819672 2.230581 0.009651 0.001563 -214948.000000 0 0 1
16.310075 19.131451 -18.174829 31.021853 0.864837 2.196752 0.009413 0.008993 606759.000000 0 0 1
17.542675 19.833451 -17.998329 32.016419 0.846611 2.167791 0.004875 0.014500 601934.000000 0 0 1
17.180175 21.219751 -17.826329 32.606966 0.890210 2.149218 -0.001562 0.022088 -67534.500000 0 0 1
18.305175 22.225451 -18.110329 34.015204 0.881822 2.132252 0.001915 0.016711 1332090.000000 0 0 1
19.481175 22.123351 -17.234329 34.146463 0.848820 2.099851 -0.001225 0.012167 1136670.000000 0 0 1
19.258875 23.103451 -16.208629 34.167139 0.875905 2.065070 -0.007195 0.012339 -79483.800000 0 0 1
20.553275 23.510651 -15.468029 34.848927 0.852413 2.030697 -0.013193 0.003641 -692990.000000 0 0 1
20.849475 22.580851 -14.413029 33.945999 0.825243 2.009302 0.000067 0.006294 339687.000000 0 0 1
21.724075 23.089951 -13.364129 34.404669 0.815868 1.969734 -0.005538 0.007313 1077540.000000 0 0 1
23.218975 23.277251 -13.769529 35.644791 0.786652 1.967411 0.005444 0.000200 -116349.000000 0 0 1
23.421975 24.169451 -14.854929 36.788860 0.801103 1.986451 0.006277 -0.001826 -376652.000000 0 0 1
24.773875 24.429851 -15.139729 37.944353 0.778406 1.981220 0.011713 -0.004640 -425649.000000 0 0 1
24.937675 24.819851 -16.654929 38.926845 0.783030 2.012911 0.008722 -0.008597 -390678.000000 0 0 1
25.407275 23.746551 -17.475029 38.920495 0.751625 2.036434 0.000404 -0.010150 345735.000000 0 0 1
25.575875 24.345351 -18.766329 39.987455 0.760754 2.059300 0.005083 -0.000291 -490042.000000 0 0 1
26.136175 23.328551 -19.841029 40.261487 0.728699 2.086106 -0.005808 -0.002647 314773.000000 0 0 1
27.542175 23.119951 -19.863429 41.081131 0.698330 2.075465 -0.008116 -0.002557 210373.000000 0 0 1
27.901975 22.316951 -20.993429 41.440205 0.674640 2.102028 -0.016525 0.002922 -830155.000000 0 0 1
29.346375 22.522651 -21.361929 42.717813 0.654593 2.094477 -0.001800 0.008840 -1200410.000000 0 0 1
29.627675 23.765051 -21.874429 43.829983 0.676034 2.093327 -0.003767 0.003745 -409568.000000 0 0 1
30.998075 24.025951 -21.760829 44.851540 0.659359 2.077359 -0.005926 0.014644 -313436.000000 0 0 1
31.421475 25.308051 -22.567329 46.228680 0.678048 2.080785 0.003191 0.013177 -239003.000000 0 0 1
31.521175 25.179251 -23.994029 46.939243 0.674011 2.107344 0.001918 0.017857 854066.000000 0 0 1
30.258175 25.077751 -24.687229 46.410236 0.692053 2.131680 -0.008241 0.019463 536099.000000 0 0 1
30.244275 25.521751 -26.166389 47.442132 0.700915 2.155010 -0.001783 0.015476 -319027.000000 0 0 1
30.245175 26.950451 -26.313419 48.306246 0.727857 2.146853 0.005541 0.011874 -300479.000000 0 0 1
29.135075 27.552951 -26.939129 48.308740 0.757496 2.162342 0.008545 0.017136 -24370.800000 0 0 1
28.960275 27.269551 -28.469179 48.916460 0.755339 2.191977 0.003381 0.020030 -312436.000000 0 0 1
28.331175 26.082751 -28.720019 48.039618 0.744101 2.211601 0.004521 0.014219 -228073.000000 0 0 1
28.324475 25.661451 -30.041579 48.613603 0.736110 2.236950 0.005757 0.009901 -17094.000000 0 0 1
27.600975 24.261451 -30.222049 47.579450 0.721095 2.259052 0.005003 0.011168 383036.000000 0 0 1
26.264375 24.228651 -29.764749 46.505754 0.745103 2.265324 0.002253 0.014519 -135506.000000 0 0 1
25.800475 22.918551 -29.987109 45.718171 0.726313 2.286187 0.003845 0.009123 824853.000000 0 0 1
24.364675 22.687051 -29.375439 44.398830 0.749758 2.293782 -0.005916 0.010201 757435.000000 0 0 1
24.381475 22.624351 -27.967699 43.456987 0.748035 2.269952 -0.004031 0.021654 -835376.000000 0 0 1
23.113975 22.618951 -27.427689 42.404609 0.774574 2.274189 -0.006030 0.013230 -1041370.000000 0 0 1
23.040375 22.843851 -25.880419 41.502970 0.781115 2.244110 -0.003790 0.022011 -326543.000000 0 0 1
23.368575 21.750351 -25.052029 40.580441 0.749548 2.236156 -0.009236 0.013607 207841.000000 0 0 1
23.592975 22.231051 -23.721429 40.169071 0.755686 2.202524 -0.003581 0.010390 -274100.000000 0 0 1
24.058875 21.128251 -22.746429 39.276360 0.720634 2.188467 0.008353 0.008430 457170.000000 0 0 1
25.385975 20.695851 -23.082029 40.069265 0.683969 2.184688 -0.018752 0.008526 619477.000000 0 0 1
25.576875 19.323951 -22.687029 39.272037 0.647027 2.186691 0.005641 0.001728 -166175.000000 0 0 1
26.870675 18.704151 -23.230029 40.143650 0.608091 2.187896 0.006195 0.004634 -567419.000000 0 0 1
27.984175 18.815651 -22.392629 40.479286 0.591939 2.156982 0.008374 -0.000739 -991976.000000 0 0 1
29.033175 18.147451 -23.010029 41.251868 0.558642 2.162521 -0.012748 0.006739 -794402.000000 0 0 1
30.348775 18.230651 -22.250429 41.814906 0.540937 2.131895 -0.012807 0.007316 -281452.000000 0 0 1
30.815675 19.535151 -21.954429 42.581978 0.564999 2.112481 -0.019595 0.008706 1026570.000000 0 0 1
32.133975 19.613251 -21.349229 43.278881 0.548001 2.086669 -0.028450 0.001596 1246920.000000 0 0 1
32.254975 20.710351 -20.279929 43.365626 0.570789 2.057426 -0.015805 -0.003926 -116061.000000 0 0 1
31.584075 20.381451 -19.029429 42.131657 0.573070 2.039428 -0.014818 -0.013468 530215.000000 0 0 1
31.877175 21.413551 -18.106629 42.456383 0.591515 2.011389 -0.016440 -0.006656 -380188.000000 0 0 1
31.137175 21.192751 -16.770429 41.229888 0.597604 1.989695 -0.009507 -0.019813 -66080.600000 0 0 1
31.609375 20.005251 -16.066629 40.712396 0.564253 1.976469 -0.002868 -0.027396 340406.000000 0 0 1
31.223775 20.025451 -14.735229 39.913278 0.570272 1.948924 0.007869 -0.027020 -632049.000000 0 0 1
31.675775 18.734251 -14.117329 39.416061 0.534100 1.937095 -0.001103 -0.024710 -861079.000000 0 0 1
33.042275 18.460751 -14.248429 40.442663 0.509499 1.930837 0.005005 -0.024171 -402996.000000 0 0 1
33.553175 17.410551 -13.502929 40.140652 0.478649 1.913878 0.008225 -0.015174 -128086.000000 0 0 1
33.637575 17.532151 -11.966729 39.775185 0.480469 1.876390 0.018301 -0.019864 -328137.000000 0 0 1
34.424475 18.670151 -11.622429 40.849723 0.496952 1.859299 0.011999 -0.022688 302337.000000 0 0 1
34.227575 18.948851 -10.262129 40.446225 0.505613 1.827323 0.012648 -0.020829 655502.000000 0 0 1
32.984275 19.893151 -9.964229 39.786753 0.542703 1.823932 0.004321 -0.017445 891949.000000 0 0 1
31.729975 19.428351 -10.394829 38.630358 0.549417 1.843239 0.013610 -0.026205 -771409.000000 0 0 1
30.689575 20.291751 -10.104129 38.153618 0.584204 1.838821 -0.003415 -0.011225 88583.600000 0 0 1
29.303175 19.754151 -10.567729 36.886033 0.593152 1.861365 -0.014391 -0.006257 380306.000000 0 0 1
29.274975 19.468051 -11.946629 37.131538 0.586852 1.898361 -0.009136 -0.013801 -615162.000000 0 0 1
27.954275 19.266251 -12.373829 36.135046 0.603445 1.920301 -0.010116 -0.011387 -155587.000000 0 0 1
27.805075 18.647651 -13.782129 36.205029 0.590760 1.961316 0.005322 -0.009966 -460618.000000 0 0 1
28.092275 17.269951 -13.809929 35.751101 0.551200 1.967391 0.005611 -0.008684 -64237.300000 0 0 1
27.921475 16.604951 -15.024229 35.791907 0.536515 2.003984 0.007091 -0.000659 -531731.000000 0 0 1
29.204875 16.399151 -15.844729 37.052831 0.511645 2.012660 -0.002018 -0.007618 -34515.900000 0 0 1
30.000175 15.458951 -15.107929 36.976197 0.475809 1.991700 -0.010054 -0.006003 -467396.000000 0 0 1
31.259675 15.319551 -15.677129 38.178898 0.455675 1.993933 -0.015280 -0.011870 -718566.000000 0 0 1
32.128575 14.127051 -15.242629 38.264300 0.414259 1.980515 -0.010861 0.000142 65408.200000 0 0 1
32.867175 14.407051 -14.040829 38.535168 0.413117 1.943746 -0.003833 0.000899 153392.000000 0 0 1
33.403975 13.199151 -13.536729 38.383410 0.376307 1.931221 -0.001263 0.009663 -274571.000000 0 0 1
34.283575 13.473251 -12.314629 38.839955 0.374452 1.893425 0.016923 0.002597 399086.000000 0 0 1
-34.300771 14.369151 -12.610829 39.268924 -0.396706 1.897730 -0.001020 -0.011507 356086.000000 0 0 1
-33.544271 14.669351 -11.439729 38.357208 -0.412254 1.873647 -0.002894 -0.015807 265034.000000 0 0 1
-32.076071 15.143251 -11.766129 37.371569 -0.441083 1.891086 -0.000869 -0.019622 906855.000000 0 0 1
-31.110871 14.229951 -12.237429 36.333627 -0.428986 1.914320 -0.024270 -0.006060 110762.000000 0 0 1
-30.828671 13.190651 -11.279529 35.378355 -0.404299 1.895287 -0.022063 -0.002854 -729769.000000 0 0 1
-29.779271 12.147851 -11.743529 34.238658 -0.387324 1.920895 -0.025374 -0.001293 11013.500000 0 0 1
-30.147971 11.507751 -12.947429 34.770165 -0.364640 1.952360 -0.036087 -0.001881 709009.000000 0 0 1
-29.200271 10.440951 -13.236329 33.717498 -0.343397 1.974216 -0.013547 -0.000993 319450.000000 0 0 1
-29.177971 9.704751 -14.635529 34.054880 -0.321095 2.015027 -0.006036 -0.001486 -1022730.000000 0 0 1
-30.376471 9.143651 -15.037329 35.106375 -0.292384 2.013447 -0.029975 -0.000008 -388772.000000 0 0 1
-30.087071 8.089951 -15.946129 34.999402 -0.262672 2.043855 -0.015427 -0.003036 -790325.000000 0 0 1
-31.268871 7.581851 -16.747129 36.272484 -0.237882 2.050711 -0.017682 -0.007069 -948105.000000 0 0 1
-32.168271 6.940651 -15.900929 36.548732 -0.212503 2.020902 -0.017056 -0.011934 -529540.000000 0 0 1
-32.975471 6.052751 -16.590329 37.406637 -0.181532 2.030311 -0.022071 -0.014731 -505749.000000 0 0 1
-33.837271 5.256751 -15.611829 37.634074 -0.154122 1.998555 -0.020625 -0.009639 -236023.000000 0 0 1
-34.761271 4.344451 -16.140029 38.570983 -0.124335 2.002534 -0.008423 -0.013501 894524.000000 0 0 1
33.885775 4.029851 -15.130129 37.328357 0.118369 1.988131 -0.010958 -0.012793 1235210.000000 0 0 1
32.822875 2.967351 -15.521329 36.428806 0.090160 2.010944 -0.000149 -0.014981 63203.500000 0 0 1
33.444975 1.688251 -15.586929 36.937364 0.050436 2.006427 -0.000846 -0.011856 250880.000000 0 0 1
32.597475 0.550751 -15.763029 36.212867 0.016894 2.021155 -0.000026 -0.006744 -94253.600000 0 0 1
32.040875 0.054251 -14.393929 35.125572 0.001693 1.993015 0.004373 -0.008214 -570860.000000 0 0 1
33.009575 -0.461649 -13.532729 35.678844 -0.013984 1.959828 -0.001949 -0.005330 -233766.000000 0 0 1
32.696575 -0.326849 -12.161529 34.886611 -0.009996 1.926875 0.003111 0.000909 -413076.000000 0 0 1
32.823575 1.118451 -11.615029 34.836000 0.034061 1.910725 0.006822 0.001898 -272322.000000 0 0 1
31.974175 2.114151 -12.135129 34.264834 0.066024 1.932809 0.003845 -0.006125 62693.100000 0 0 1
32.109075 3.315951 -11.446429 34.249218 0.102907 1.911563 -0.004863 0.002795 -495208.000000 0 0 1
31.181875 4.428851 -11.840529 33.647023 0.141089 1.930401 -0.001994 0.005303 -338634.000000 0 0 1
31.571575 4.947351 -13.081529 34.530668 0.155439 1.959337 -0.002040 -0.007630 237423.000000 0 0 1
30.614975 5.914351 -13.387229 33.933378 0.190834 1.976336 -0.001251 -0.008966 -237921.000000 0 0 1
30.801075 6.526651 -14.808329 34.793534 0.208808 2.010428 -0.012169 -0.006652 -152899.000000 0 0 1
30.331175 5.686651 -15.874929 34.703480 0.185334 2.045916 -0.006898 -0.003865 107444.000000 0 0 1
30.697475 6.140151 -17.188929 35.714082 0.197416 2.072925 -0.008461 -0.006911 -916643.000000 0 0 1
29.773275 7.243951 -17.821829 35.447712 0.238667 2.097589 0.003571 -0.004494 1469530.000000 0 0 1
28.489775 6.766051 -18.308129 34.534538 0.233171 2.129562 0.003565 0.000875 1148330.000000 0 0 1
27.602375 6.237351 -17.359629 33.198680 0.222239 2.121047 0.002052 0.007018 -1122650.000000 0 0 1
26.137975 6.069551 -17.837829 32.221442 0.228168 2.157479 0.005418 0.015712 159768.000000 0 0 1
25.995875 5.117151 -18.876729 32.531548 0.194360 2.189843 0.013698 0.006797 -289592.000000 0 0 1
24.780775 5.243351 -19.545929 31.994107 0.208514 2.228022 0.007944 0.008400 -455920.000000 0 0 1
24.514875 4.039451 -20.483729 32.200612 0.163308 2.260267 0.018129 0.033010 -12933.400000 0 0 1
24.164375 2.802851 -19.810829 31.372630 0.115475 2.254242 0.018012 0.016377 289821.000000 0 0 1
23.799575 1.755751 -20.673129 31.573417 0.073639 2.284666 0.006017 0.015816 -189698.000000 0 0 1
22.827575 0.680751 -20.077329 30.408234 0.029813 2.291961 0.001086 0.007633 555161.000000 0 0 1
21.602975 1.313951 -19.715529 29.276562 0.060748 2.309627 -0.000034 0.004877 -127467.000000 0 0 1
20.678075 0.426251 -19.186029 28.211135 0.020611 2.318678 -0.002031 0.002897 -104513.000000 0 0 1
19.296175 1.104851 -18.959129 27.074187 0.057195 2.346566 0.003785 0.001039 -623050.000000 0 0 1
18.600675 1.372651 -20.166729 27.469369 0.073662 2.395215 0.010038 -0.003770 595681.000000 0 0 1
17.522275 2.304551 -20.106929 26.769939 0.130771 2.420525 -0.002662 -0.004573 483303.000000 0 0 1
16.275175 2.027951 -19.262329 25.298838 0.123965 2.436254 0.001417 0.001243 -791209.000000 0 0 1
16.604675 2.094051 -17.848029 24.467374 0.125450 2.388332 -0.007065 0.000495 645337.000000 0 1 0
15.456575 1.922651 -17.000329 23.056744 0.123755 2.399899 -0.014348 -0.001278 748285.000000 0 1 0
14.627975 3.203151 -16.684229 22.418771 0.215572 2.410145 -0.005104 -0.002354 -15764.900000 0 1 0
14.114475 3.838451 -17.830229 23.062289 0.265530 2.454563 0.006538 0.006119 421265.000000 0 1 0
13.212275 4.879151 -17.469529 22.440026 0.353755 2.463066 0.023183 -0.006215 -106786.000000 0 1 0
-18.643025 -21.946249 -17.543329 33.718965 0.866601 2.117976 0.016807 0.000873 69039.400000 0 0 1
-18.594225 -22.723849 -18.758429 34.842462 0.885014 2.139308 0.020111 -0.007573 -257921.000000 0 0 1
-19.688425 -22.446849 -19.567229 35.698341 0.850771 2.150920 0.015152 -0.004045 -513284.000000 0 0 1
-19.690425 -23.103649 -20.992329 36.907578 0.864989 2.175819 0.015754 0.003684 -3397.080000 0 0 1
-19.546625 -24.489449 -20.969229 37.702947 0.897175 2.160566 0.013070 0.004558 222758.000000 0 0 1
-19.163925 -24.941849 -22.261729 38.534873 0.915658 2.186709 0.016634 0.004374 -404564.000000 0 0 1
-18.846925 -26.406359 -22.171429 39.294715 0.950917 2.170302 0.019643 0.007270 -271945.000000 0 0 1
-19.961425 -27.261359 -22.079929 40.362897 0.938769 2.149615 0.020656 0.007790 -85034.400000 0 0 1
-19.479325 -28.557269 -22.117829 41.038519 0.972175 2.139990 0.025900 0.008890 -464661.000000 0 0 1
-20.597225 -29.575859 -22.057129 42.255107 0.962477 2.119989 0.024553 0.013601 -85568.600000 0 0 1
-21.429425 -29.633299 -23.227829 43.323027 0.944699 2.136671 0.020673 0.016175 303051.000000 0 0 1
-20.907625 -30.352849 -24.314029 44.154232 0.967614 2.153953 0.017763 0.012351 -389478.000000 0 0 1
-21.481825 -29.912529 -25.696479 44.905870 0.947990 2.180019 0.012965 0.011372 192749.000000 0 0 1
-22.874325 -30.025029 -25.940079 45.799834 0.919759 2.172902 0.013594 0.011150 579701.000000 0 0 1
-23.319925 -29.253629 -27.053659 46.168108 0.897787 2.196887 0.013210 0.011365 -111656.000000 0 0 1
-22.827625 -29.621309 -28.532589 47.038612 0.914210 2.222546 0.012950 -0.001340 -447241.000000 0 0 1
-23.432125 -30.706609 -29.167679 48.401589 0.918966 2.217574 0.004937 0.005037 141137.000000 0 0 1
-23.020725 -30.766239 -30.542689 49.085345 0.928419 2.242393 0.013883 0.004325 -242418.000000 0 0 1
-23.504725 -32.039649 -31.256399 50.556638 0.937865 2.237304 -0.001134 0.010561 -377169.000000 0 0 1
-22.870525 -33.241749 -30.826289 50.777306 0.968165 2.223187 0.002715 0.008937 131710.000000 0 0 1
-23.554425 -34.442993 -31.259539 52.137218 0.970980 2.213751 -0.004450 0.008768 -383745.000000 0 0 1
-22.808625 33.772884 -31.028339 51.221079 -0.976804 2.221533 0.006741 0.004074 -567781.000000 0 0 1
-21.951325 33.451450 -32.056629 51.268779 -0.990065 2.246269 -0.003413 0.006738 -460888.000000 0 0 1
-21.426525 32.130520 -31.930499 50.110109 -0.982661 2.261665 -0.005472 0.013958 83221.200000 0 0 1
-20.387225 31.708690 -33.029149 50.119903 -0.999390 2.290288 -0.007421 0.016177 245657.000000 0 0 1
-20.845625 31.472960 -34.347938 51.037909 -0.985799 2.309038 -0.002197 0.011291 179782.000000 0 0 1
-20.118125 30.360170 34.383770 50.087149 -0.985581 0.814161 -0.008621 0.008885 346373.000000 0 0 1
-20.317325 30.001400 32.869044 48.920873 -0.975528 0.834050 -0.008832 0.005060 -186705.000000 0 0 1
-19.589825 30.919370 32.112864 48.692964 -1.006052 0.850647 -0.015252 0.009944 97650.000000 0 0 1
-19.646925 30.695390 30.732594 47.672854 -1.001440 0.870223 -0.004072 0.007409 -513110.000000 0 0 1
-19.112825 31.871570 29.994494 47.757374 -1.030610 0.891739 -0.013436 0.000949 -714274.000000 0 0 1
-20.003425 32.946370 30.080644 48.892182 -1.025135 0.908100 -0.012348 -0.002018 83589.400000 0 0 1
-19.422725 34.173932 29.577914 49.193017 -1.053975 0.925716 -0.022814 -0.008709 -274259.000000 0 0 1
-20.377725 -34.159254 29.561574 49.557976 1.032917 0.931657 -0.018651 -0.013002 -353017.000000 0 0 1
-20.759025 -33.665369 30.788854 50.122327 1.018240 0.909330 -0.022328 -0.005227 -238601.000000 0 0 1
-21.642425 -32.570619 30.775774 49.763320 0.984311 0.904037 -0.008602 -0.006943 -357580.000000 0 0 1
-20.993525 -31.174979 30.748814 48.560240 0.978140 0.885103 -0.008704 -0.009020 -194047.000000 0 0 1
-20.310725 -30.822649 29.513744 47.261214 0.988152 0.896329 0.016627 -0.007633 471955.000000 0 0 1
-20.613425 -29.467979 29.067774 46.240789 0.960393 0.891022 0.008883 -0.012951 -183589.000000 0 0 1
-22.006425 -29.193499 28.444924 46.321235 0.924860 0.909577 -0.003351 -0.010268 -161064.000000 0 0 1
-23.070125 -28.952819 29.336884 47.235041 0.897999 0.900672 -0.001576 -0.008889 -374703.000000 0 0 1
-24.045025 -29.909789 29.487774 48.397185 0.893671 0.915635 -0.007477 -0.006470 -979054.000000 0 0 1
-25.209435 -29.764639 28.498264 48.307353 0.868070 0.939816 -0.014632 -0.004273 -937753.000000 0 0 1
-24.904725 -30.110549 27.149204 47.581191 0.879742 0.963576 -0.010598 0.001792 240418.000000 0 0 1
-26.017435 -29.990169 26.268864 47.606411 0.856212 0.986284 -0.000650 0.006677 53699.500000 0 0 1
-25.704345 -30.303329 24.757814 46.818313 0.867328 1.013603 -0.004425 -0.000258 253490.000000 0 0 1
-24.912925 -29.239739 24.133284 45.365533 0.865129 1.009866 -0.031917 0.003540 814614.000000 0 0 1
-24.477725 -29.340729 22.794684 44.493089 0.875513 1.032913 -0.012639 0.003002 -314356.000000 0 0 1
-23.235525 -30.155559 22.442084 44.191566 0.914290 1.038125 -0.025594 0.007060 -629079.000000 0 0 1
-23.444825 -31.552119 22.558284 45.321873 0.931758 1.049811 -0.022273 -0.002479 341513.000000 0 0 1
-22.372425 -32.259629 21.953484 44.979601 0.964438 1.060912 -0.017883 0.012203 -112120.000000 0 0 1
-21.616025 -33.055479 23.022684 45.716093 0.991662 1.043034 -0.022343 0.004676 96492.900000 0 0 1
-20.725725 -32.241929 23.831184 45.133391 0.999486 1.014533 -0.008418 -0.001039 711207.000000 0 0 1
-19.692525 -33.095559 24.297444 45.535451 1.034047 1.007952 -0.001533 -0.001274 -54504.300000 0 0 1
-19.056625 -32.666619 25.648274 45.695699 1.042697 0.974860 0.006688 -0.003570 -782852.000000 0 0 1
-18.177425 -31.574969 25.513294 44.478372 1.048443 0.959889 0.013139 -0.004627 141106.000000 0 0 1
-17.822325 -30.976449 26.763324 44.648081 1.048698 0.928010 0.010485 0.003382 525270.000000 0 0 1
-16.723325 -31.708779 27.623994 45.257058 1.085467 0.914256 -0.003207 -0.011518 189672.000000 0 0 1
-17.296025 -32.820029 28.319674 46.672376 1.085786 0.918798 -0.008666 -0.013784 274751.000000 0 0 1
-16.586025 -33.187689 29.508254 47.405231 1.107337 0.898904 -0.003045 -0.012335 -248517.000000 0 0 1
-16.888525 -32.383859 30.833024 47.797614 1.090089 0.869676 0.001535 -0.005813 163108.000000 0 0 1
-16.271725 -31.095489 30.764034 46.670379 1.088697 0.851073 0.004641 -0.006077 238845.000000 0 0 1
-16.642525 -30.317399 31.893504 47.045870 1.068765 0.825862 0.016678 -0.001910 -56271.400000 0 0 1
-16.347725 -28.794369 31.881474 45.965119 1.054435 0.804320 0.017102 -0.008345 -261111.000000 0 0 1
-17.191925 -27.979289 31.092614 45.223374 1.019818 0.812709 0.019612 -0.007411 129512.000000 0 0 1
-17.296725 -28.166299 29.710344 44.443465 1.020079 0.838610 0.012051 -0.008546 -206732.000000 0 0 1
-15.992325 -27.805699 28.940244 43.202420 1.048853 0.836755 0.006033 -0.004356 250180.000000 0 0 1
-15.918225 -26.410099 28.761054 42.167303 1.028370 0.820207 0.001570 -0.001837 223904.000000 0 0 1
-14.763025 -26.026819 28.040194 41.007251 1.054826 0.817857 0.003494 0.001266 -85133.700000 0 0 1
-14.821425 -24.635549 27.431204 39.737336 1.029181 0.808875 0.001973 0.003315 -412783.000000 0 0 1
-15.749925 -24.512249 26.388174 39.309620 0.999688 0.834848 0.009574 0.000796 15115.800000 0 0 1
-15.544225 -23.311749 25.737284 38.045609 0.982703 0.827817 0.002279 0.003337 -18299.500000 0 0 1
-16.222925 -22.021949 26.276814 37.929151 0.935881 0.805450 0.013586 0.008672 -659500.000000 0 0 1
-15.890525 -20.908349 25.437724 36.561532 0.920920 0.801331 0.006939 0.012409 42460.600000 0 0 1
-16.562625 -19.726549 25.798314 36.455593 0.872365 0.784610 0.014271 0.011928 -270132.000000 0 0 1
-16.281925 -18.586449 24.861054 35.051807 0.851394 0.782340 0.010294 0.007344 530306.000000 0 0 1
-14.933425 -18.127249 24.751044 34.120646 0.881704 0.759184 0.014305 0.001405 169622.000000 0 0 1
-14.783825 -17.277849 23.678684 32.829341 0.863030 0.765168 0.012346 0.001683 -214565.000000 0 0 1
-13.394625 -16.646049 23.666284 31.884164 0.893212 0.734362 0.022367 -0.001891 487383.000000 0 0 1
-12.289825 -17.619449 23.584684 31.901757 0.961740 0.738779 0.005623 -0.000007 1961020.000000 0 0 1
-10.948625 -17.097249 23.743184 31.239832 1.001218 0.707438 0.004891 -0.004305 1093860.000000 0 0 1
-10.450525 -16.108949 22.630484 29.679126 0.995307 0.703620 0.002303 -0.001647 -648263.000000 0 0 1
-10.020625 -16.810449 21.472284 29.052764 1.033253 0.739094 0.010751 -0.002626 77190.200000 0 0 1
-8.619525 -17.054349 21.524684 28.782964 1.102826 0.726013 0.010314 -0.000804 -437002.000000 0 0 1
-8.173925 -18.394549 20.919084 29.030683 1.152637 0.766150 0.015773 -0.003193 -243080.000000 0 0 1
-8.191825 -18.526349 19.497284 28.115399 1.154472 0.804497 0.016843 -0.003426 -488420.000000 0 0 1
-7.472625 -19.582749 18.960284 28.263343 1.206259 0.835451 0.024094 -0.007016 -173041.000000 0 0 1
-7.441425 -19.629049 17.414784 27.275430 1.208434 0.878276 0.003290 -0.009528 121732.000000 0 0 1
-6.660425 -18.570649 16.888884 25.970457 1.226433 0.862802 0.010531 0.000698 -252220.000000 0 0 1
-6.620225 -18.466249 15.558984 25.038205 1.226566 0.900256 0.019043 0.001317 134619.000000 0 0 1
-5.786525 -17.267649 15.088584 23.649967 1.247450 0.878903 0.002317 0.003614 19882.800000 0 1 0
-6.302625 -16.076149 15.681284 23.325272 1.197164 0.833502 -0.003694 0.000537 -304480.000000 0 1 0
-5.448625 -14.999149 15.477584 22.231005 1.222356 0.800684 -0.004675 0.002380 -272698.000000 0 1 0
-5.693325 -13.789349 16.452784 22.209327 1.179237 0.736528 -0.009367 0.003302 29414.200000 0 1 0
-5.058325 -13.882149 17.708784 23.062995 1.221372 0.695327 -0.011314 0.003045 72515.400000 0 1 0
-5.775225 -14.737249 18.578884 24.407266 1.197310 0.705630 -0.001886 0.000883 360157.000000 0 1 0
-7.088225 -14.310249 19.266184 25.024228 1.110896 0.692110 0.007868 -0.001242 -39697.600000 0 0 1
-6.900325 -13.285749 20.190384 25.135179 1.091767 0.638028 0.004181 -0.007111 171909.000000 0 0 1
-8.121025 -12.906049 20.823284 25.809423 1.009153 0.632065 0.011727 -0.008265 772485.000000 0 0 1
-7.714225 -12.077049 22.065084 26.310308 1.002370 0.576000 0.016297 0.003688 278055.000000 0 0 1
-7.074325 -10.857549 21.664384 25.244365 0.993326 0.539069 0.005622 0.007767 109101.000000 0 0 1
-6.891725 -9.993049 22.814984 25.843382 0.967049 0.488970 0.010867 0.002958 327811.000000 0 0 1
-5.544425 -10.067949 23.606984 26.256312 1.067415 0.453093 0.016875 0.011405 377004.000000 0 0 1
-5.397825 -11.259249 24.339074 27.355031 1.123754 0.474004 0.009429 0.009491 -185297.000000 0 0 1
-4.109725 -11.334049 24.897574 27.662966 1.222941 0.450952 0.008033 0.008567 -362603.000000 0 0 1
-3.978225 -12.658649 25.642884 28.872568 1.266300 0.477514 0.006831 0.010889 208979.000000 0 0 1
-2.721125 -12.896649 26.302244 29.419995 1.362852 0.464544 0.001545 0.009442 677084.000000 0 0 1
-2.558825 -14.088149 27.025814 30.584606 1.391125 0.487213 -0.005328 0.008703 -194020.000000 0 0 1
-2.573925 -15.460349 26.311074 30.625481 1.405824 0.537242 -0.006442 -0.004582 -43227.200000 0 0 1
-1.541725 -15.580849 25.330664 29.778890 1.472167 0.553624 -0.005463 -0.000017 365083.000000 0 0 1
-1.704925 -16.815249 24.707944 29.935628 1.469750 0.599941 -0.007600 0.002713 446908.000000 0 0 1
-0.529725 -17.820349 25.046524 30.743679 1.541079 0.618604 -0.004143 -0.000763 593591.000000 0 0 1
-0.301925 -18.018949 26.456194 32.010996 1.554042 0.597984 -0.003399 -0.002466 -216765.000000 0 0 1
0.623575 -17.128249 27.010754 31.989789 -1.534406 0.565435 0.017505 0.001468 -650973.000000 0 0 1
1.044975 -17.627549 28.453484 33.487657 -1.511585 0.555436 0.010152 0.003150 -559518.000000 0 0 1
1.967475 -18.725049 28.407874 34.080870 -1.466109 0.585306 0.010991 0.004469 324231.000000 0 0 1
2.403275 -19.257649 29.690684 35.470685 -1.446642 0.578930 -0.005837 -0.005000 -38139.200000 0 0 1
3.514975 -18.418249 30.289544 35.623635 -1.382222 0.554307 0.026130 -0.002621 -569379.000000 0 0 1
3.007975 -17.119449 30.564744 35.161442 -1.396867 0.517075 0.003492 -0.007564 -71568.400000 0 0 1
4.051275 -16.323949 31.067804 35.328353 -1.327532 0.496193 0.009171 -0.022179 -121962.000000 0 0 1
3.507175 -15.012049 31.669064 35.222031 -1.341289 0.453026 0.003453 -0.014250 -98112.900000 0 0 1
2.915475 -15.327849 32.878164 36.392535 -1.382834 0.443089 -0.010420 -0.018421 136886.000000 0 0 1
1.854775 -14.397049 33.151964 36.190716 -1.442672 0.412715 -0.013990 -0.005841 579345.000000 0 0 1
1.007175 -14.789749 34.400862 37.458916 -1.502802 0.406874 -0.025846 -0.003110 130255.000000 0 0 1
1.821175 -14.956849 -33.769139 36.978084 -1.449631 2.721915 -0.013172 -0.002133 -156131.000000 0 0 1
1.051275 -15.406549 -32.681059 36.145795 -1.502666 2.700172 -0.028345 -0.010418 429198.000000 0 0 1
1.924275 -15.904449 -31.442409 35.288516 -1.450392 2.670361 -0.014089 -0.007164 327863.000000 0 0 1
1.298575 -16.811449 -30.553359 34.897261 -1.493706 2.637314 -0.021362 -0.003511 -508512.000000 0 0 1
1.668275 -16.584949 -29.246759 33.663282 -1.470544 2.623576 -0.006743 0.001469 -177727.000000 0 0 1
1.302175 -17.736849 -28.252369 33.383945 -1.497511 2.579771 -0.001592 -0.004938 -268821.000000 0 0 1
1.991675 -18.901449 -28.690389 34.414676 -1.465812 2.556511 0.010689 -0.004733 329867.000000 0 0 1
1.667875 -19.988349 -27.820269 34.296986 -1.487547 2.516926 0.016263 -0.012483 -734976.000000 0 0 1
2.437075 -21.311949 -28.142299 35.385413 -1.456938 2.490312 0.018747 -0.013592 846693.000000 0 0 1
3.814675 -21.398749 -27.739229 35.240928 -1.394383 2.476940 0.016840 -0.013366 833782.000000 0 0 1
3.994175 -21.339449 -26.328139 34.124718 -1.385764 2.452034 0.020870 -0.020833 -1150460.000000 0 0 1
5.302675 -21.997649 -25.830059 34.339581 -1.334253 2.422183 0.015523 -0.017210 -118526.000000 0 0 1
5.460575 -23.413349 -25.914549 35.349209 -1.341667 2.393667 0.016494 -0.017083 -11659.000000 0 0 1
5.633175 -23.852549 -27.268859 36.664252 -1.338879 2.409452 0.018168 -0.012109 -399545.000000 0 0 1
5.204675 -25.336329 -27.424389 37.697683 -1.368191 2.385441 0.017346 -0.001243 72162.500000 0 0 1
5.923975 -26.229169 -26.605269 37.827280 -1.348669 2.350875 0.020520 -0.005286 -400177.000000 0 0 1
5.311775 -27.486489 -26.634139 38.640644 -1.379899 2.331288 0.018297 -0.001910 -36748.000000 0 0 1
5.856875 -28.410029 -25.514159 38.631658 -1.367489 2.292210 0.015665 0.001622 481439.000000 0 0 1
7.217075 -28.772939 -25.748039 39.280143 -1.325038 2.285638 0.015668 0.002273 257834.000000 0 0 1
7.534975 -29.989689 -25.155859 39.861943 -1.324639 2.253734 0.023323 0.000902 391141.000000 0 0 1
8.986875 -30.485669 -25.450479 40.716910 -1.284126 2.246004 0.024817 0.001981 510397.000000 0 0 1
9.194075 -30.911499 -26.784699 41.922212 -1.281697 2.263882 0.027552 0.007859 -153827.000000 0 0 1
10.532975 -30.791729 -27.190319 42.407400 -1.241202 2.266817 -0.008615 0.004162 -236593.000000 0 0 1
10.723875 -30.873109 -28.683349 43.484305 -1.236481 2.291116 0.002726 -0.000592 -175054.000000 0 0 1
10.672975 -32.178069 -29.292889 44.804172 -1.250530 2.283390 0.014045 -0.007943 118913.000000 0 0 1
10.698775 -31.900319 -30.684749 45.537324 -1.247204 2.310186 0.012494 0.014211 14370.100000 0 0 1
-33.660365 -5.037949 -5.768729 34.520709 0.148567 1.738693 0.018591 0.004611 -176504.000000 0 0 1
-33.871995 -4.198749 -4.629529 34.443782 0.123330 1.705613 0.027477 -0.003329 331386.000000 0 0 1
-32.775225 -3.337149 -4.330029 33.228017 0.101470 1.701481 0.019835 -0.007963 26155.700000 0 0 1
-32.915835 -1.918349 -4.924629 33.337430 0.058215 1.719060 0.024375 0.012702 371144.000000 0 0 1
-33.816805 -1.055449 -4.191329 34.091898 0.031201 1.694050 0.017881 0.009889 738136.000000 0 0 1
-34.299241 -0.013449 -5.004329 34.662392 0.000392 1.715676 0.005146 0.004647 190109.000000 0 0 1
34.531822 1.064351 -4.184829 34.800752 0.030813 1.691339 0.013673 0.003819 375708.000000 0 0 1
-34.365629 2.031351 -3.499629 34.603038 -0.059041 1.672106 0.006437 0.011550 95241.300000 0 0 1
34.476842 2.798051 -2.646429 34.691286 0.080980 1.647156 0.007510 0.012198 -411244.000000 0 0 1
-34.573375 4.119351 -2.167329 34.885307 -0.118589 1.632964 -0.001255 0.003165 -169450.000000 0 0 1
-34.504248 5.164051 -3.147829 35.030264 -0.148562 1.660778 0.004442 0.002439 482926.000000 0 0 1
-33.354515 5.004251 -3.975129 33.961270 -0.148921 1.688114 -0.004108 0.001774 7049.540000 0 0 1
-32.306905 6.148451 -3.800129 33.105597 -0.188065 1.685838 -0.011123 -0.015116 -70478.500000 0 0 1
-31.745245 6.106651 -2.487729 32.422841 -0.190043 1.647599 -0.017415 -0.014015 196445.000000 0 0 1
-31.634475 7.420751 -2.069329 32.559019 -0.230412 1.634395 -0.011526 -0.021313 -395336.000000 0 0 1
-31.015685 7.567351 -0.689229 31.932939 -0.239309 1.592382 -0.009539 -0.021994 -323671.000000 0 0 1
-29.611775 7.413751 -0.726929 30.534397 -0.245322 1.594605 0.002631 -0.019693 694911.000000 0 0 1
-28.817285 7.835051 0.418271 29.866351 -0.265470 1.556791 -0.002003 -0.012982 207869.000000 0 0 1
-28.823165 9.265451 0.915671 30.289634 -0.311025 1.540561 0.002232 -0.014002 -968008.000000 0 0 1
-30.016775 9.734551 1.489971 31.590953 -0.313602 1.523614 0.014993 -0.021047 -15159.200000 0 0 1
-29.909615 11.106951 1.792971 31.955660 -0.355567 1.514659 0.014883 -0.009178 -325293.000000 0 0 1
-31.247835 11.835751 1.699871 33.457462 -0.362072 1.519968 0.018976 -0.015382 -572270.000000 0 0 1
-31.761635 11.971651 0.352371 33.944750 -0.360454 1.560415 0.022562 -0.008568 1119960.000000 0 0 1
-33.029645 12.633551 0.199971 35.363881 -0.365322 1.565142 0.027960 0.000931 1427280.000000 0 0 1
-34.300125 11.746151 0.463771 36.258596 -0.329935 1.558005 0.035991 -0.022339 90658.300000 0 0 1
-34.595152 10.880151 -0.583329 36.270409 -0.304705 1.586880 0.031435 -0.016701 1225890.000000 0 0 1
33.686939 10.471851 -0.393929 35.279239 0.301388 1.581963 0.032002 -0.025582 1300420.000000 0 0 1
33.220940 9.345751 -1.308329 34.535281 0.274233 1.608689 0.015140 -0.031248 -95826.600000 0 0 1
32.865100 9.874351 -2.560829 34.411851 0.291870 1.645282 0.025347 -0.023948 164061.000000 0 0 1
32.791630 8.861351 -3.552029 34.153059 0.263928 1.674988 0.019497 -0.027108 -44860.600000 0 0 1
32.164470 9.422851 -4.857529 33.866486 0.284984 1.714724 0.020033 -0.022158 1157820.000000 0 0 1
30.751100 9.727451 -4.749429 32.600775 0.306369 1.717001 0.024275 -0.021133 1260750.000000 0 0 1
30.352730 10.211451 -6.054829 32.591762 0.324531 1.757660 0.021979 -0.008877 -654447.000000 0 0 1
28.902380 10.673051 -6.066929 31.401739 0.353746 1.765223 0.009478 -0.003031 -853136.000000 0 0 1
28.002250 9.658551 -5.841029 30.191576 0.332143 1.765490 -0.001792 0.003847 247665.000000 0 0 1
26.629920 10.032851 -5.988529 29.080461 0.360305 1.778210 -0.021237 0.004022 650413.000000 0 0 1
25.689610 8.802451 -6.117029 27.836258 0.330109 1.792355 -0.018878 0.006979 -221665.000000 0 0 1
26.090100 7.949951 -7.200329 28.208860 0.295774 1.828903 -0.013526 0.012170 557661.000000 0 0 1
25.124710 6.919551 -7.475929 27.111266 0.268746 1.850166 -0.005747 0.001717 42910.300000 0 0 1
25.507230 5.937751 -8.635829 27.576316 0.228714 1.889316 -0.007614 -0.004596 346695.000000 0 0 1
26.508340 4.909251 -8.420729 28.243610 0.183122 1.873546 -0.008364 -0.000720 1069320.000000 0 0 1
26.521040 4.089151 -9.554429 28.484625 0.152981 1.912852 -0.003695 0.001025 -472607.000000 0 0 1
27.491100 2.896451 -9.447129 29.212981 0.104972 1.900104 -0.001552 0.007239 700961.000000 0 0 1
28.886590 3.277351 -9.510429 30.587978 0.112973 1.886958 0.012008 0.015922 1834580.000000 0 0 1
29.716040 2.936551 -8.379029 31.014102 0.098501 1.844364 0.017118 0.011141 304091.000000 0 0 1
30.122290 1.503151 -8.198629 31.254269 0.049860 1.836222 0.025363 0.006543 -1071900.000000 0 0 1
29.093340 0.810151 -7.548229 30.067500 0.027839 1.824554 0.023277 0.004667 90394.600000 0 0 1
29.291950 -0.522249 -7.191029 30.166239 -0.017827 1.811494 0.023976 0.003848 -558052.000000 0 0 1
28.944830 -1.551449 -8.309129 30.153802 -0.053549 1.849967 0.014112 0.010272 -601708.000000 0 0 1
29.843550 -1.653849 -9.354929 31.319122 -0.055361 1.874123 0.010587 0.008205 -151813.000000 0 0 1
29.471190 -2.803149 -10.092329 31.277209 -0.094830 1.899349 0.012430 0.005347 -179585.000000 0 0 1
30.415050 -3.042349 -11.270529 32.578459 -0.099696 1.924048 0.006013 0.001680 -729210.000000 0 0 1
31.679750 -3.499549 -10.909729 33.687915 -0.110020 1.900589 0.006185 0.010897 -457319.000000 0 0 1
32.440030 -3.906849 -12.060829 34.829335 -0.119856 1.924403 -0.007807 -0.004914 132329.000000 0 0 1
33.807524 -4.393449 -11.524929 35.987151 -0.129231 1.896791 -0.023715 0.006544 -403006.000000 0 0 1
33.807551 -5.572649 -10.790729 35.922761 -0.163365 1.875895 -0.023109 0.008236 -177797.000000 0 0 1
-34.573290 -6.044549 -10.455629 36.621976 0.173084 1.860326 -0.020988 0.016498 -162799.000000 0 0 1
-34.537735 -7.283149 -9.562429 36.569652 0.207830 1.835357 -0.014187 0.006092 -420377.000000 0 0 1
34.738524 -7.025649 -8.257629 36.391115 -0.199552 1.799703 -0.011630 0.008516 362530.000000 0 0 1
34.247720 -8.197949 -7.617029 36.029596 -0.234951 1.783814 -0.008944 0.005501 -669942.000000 0 0 1
33.757908 -8.034449 -6.182129 35.247233 -0.233655 1.747102 -0.004576 0.004728 -136745.000000 0 0 1
34.756720 -7.789049 -5.158829 35.990449 -0.220459 1.714631 0.003126 0.003932 732220.000000 0 0 1
34.652217 -8.626349 -4.014829 35.934787 -0.243981 1.682755 0.005963 0.002847 -330659.000000 0 0 1
-34.645336 -10.183749 -4.221429 36.356960 0.285891 1.687169 0.011850 0.003572 6538.430000 0 0 1
34.203989 -10.824749 -5.212729 36.252732 -0.306503 1.715085 -0.004807 0.006172 290107.000000 0 0 1
34.790021 -12.007849 -5.659129 37.236538 -0.332349 1.723365 0.000461 0.001771 -156962.000000 0 0 1
34.057839 -12.459449 -6.909929 36.917765 -0.350709 1.759078 0.000789 0.001829 -238995.000000 0 0 1
34.278812 -11.584149 -8.015229 37.060401 -0.325890 1.788794 0.013654 0.003484 362911.000000 0 0 1
33.806902 -12.203849 -9.222429 37.106519 -0.346429 1.821968 0.010328 0.002705 28077.000000 0 0 1
34.076565 -11.384449 -10.543129 37.442964 -0.322426 1.856235 -0.009378 -0.000386 -69584.900000 0 0 1
33.279820 -10.223449 -10.765929 36.441330 -0.298046 1.870704 -0.015787 0.000416 392055.000000 0 0 1
33.712996 -9.656849 -11.986629 37.060762 -0.278973 1.900150 -0.010286 -0.001682 304198.000000 0 0 1
32.776830 -8.558149 -12.661629 36.164615 -0.255402 1.928486 -0.011119 0.000800 65244.700000 0 0 1
33.306460 -8.181349 -13.882629 36.999759 -0.240870 1.955418 -0.010983 0.009926 181395.000000 0 0 1
32.512770 -7.237349 -14.578329 36.359141 -0.219029 1.983354 -0.007338 0.007336 -210667.000000 0 0 1
33.124410 -6.698749 -15.849029 37.326820 -0.199539 2.009318 -0.004547 -0.001751 -150309.000000 0 0 1
33.985172 -5.539549 -15.825729 37.896335 -0.161578 2.001605 0.001004 -0.005345 1003130.000000 0 0 1
33.238670 -4.286349 -15.980729 37.129041 -0.128249 2.015744 0.015301 -0.006344 778801.000000 0 0 1
34.185537 -3.042449 -16.017029 37.874169 -0.088764 2.007441 0.002128 -0.012781 496617.000000 0 0 1
-34.770113 -2.874849 -17.277029 38.932265 0.082494 2.030599 -0.001598 -0.017706 1053580.000000 0 0 1
-33.418545 -2.389349 -17.149529 37.637940 0.071376 2.043893 -0.006881 -0.007567 908298.000000 0 0 1
-33.289845 -0.859549 -16.939929 37.361930 0.025814 2.041373 -0.017750 -0.000440 -943713.000000 0 0 1
-33.678575 -0.057649 -18.008429 38.191010 0.001712 2.061828 -0.017615 -0.001312 12281.800000 0 0 1
-33.478755 1.276551 -17.653829 37.869702 -0.038112 2.055756 -0.009110 -0.007985 -458507.000000 0 0 1
-33.864695 2.164951 -18.817129 38.801919 -0.063843 2.077106 -0.012790 -0.004013 -671404.000000 0 0 1
-33.006325 2.150651 -19.915729 38.609313 -0.065067 2.112769 -0.000172 0.000733 -49708.700000 0 0 1
-33.120485 3.347851 -20.567129 39.130314 -0.100739 2.124224 -0.000313 0.004956 -287304.000000 0 0 1
-32.141025 3.566451 -21.723829 38.957539 -0.110511 2.162322 0.001214 0.018262 -359135.000000 0 0 1
-30.787665 3.767851 -21.404929 37.686178 -0.121776 2.174844 0.005043 0.023451 -58746.900000 0 0 1
-30.119505 4.231151 -22.582329 37.882038 -0.139565 2.209459 0.007531 0.024056 739344.000000 0 0 1
-28.611275 4.574351 -22.290729 36.556892 -0.158538 2.226547 0.000022 0.028051 847763.000000 0 0 1
-27.845275 3.484351 -21.828729 35.552686 -0.124486 2.231893 0.002821 0.039117 -336723.000000 0 0 1
-26.477125 3.784151 -21.923229 34.583029 -0.141960 2.257421 -0.009078 0.036449 22492.600000 0 0 1
-25.583675 2.790151 -21.116729 33.290023 -0.108631 2.257933 0.003245 0.036577 721.408000 0 0 1
-25.770825 2.864751 -19.709529 32.570044 -0.110708 2.220742 0.002120 0.034428 -58043.700000 0 0 1
-25.384965 1.740651 -18.956629 31.729798 -0.068463 2.211100 0.006491 0.028756 -572205.000000 0 0 1
-24.585125 2.066651 -17.713929 30.372400 -0.083864 2.193489 0.009604 0.013153 -214629.000000 0 0 1
-23.321725 2.588951 -18.032329 29.593419 -0.110558 2.226019 0.002925 0.013595 -33541.000000 0 0 1
-22.684725 3.308951 -16.968329 28.521397 -0.144845 2.207979 0.011332 0.003243 1006780.000000 0 0 1
-21.628425 4.437351 -17.368829 28.091904 -0.202355 2.237356 0.009565 -0.001324 531121.000000 0 0 1
-20.502625 3.939151 -18.000529 27.566168 -0.189816 2.282327 0.017355 -0.004982 12625.500000 0 0 1
-19.362425 4.825651 -17.961929 26.848116 -0.244252 2.303686 0.012707 -0.002401 934006.000000 0 0 1
-18.043625 4.098151 -18.341929 26.053668 -0.223336 2.351818 0.012689 -0.005594 25101.600000 0 0 1
-17.778425 2.999451 -17.462629 25.100050 -0.167139 2.340219 0.020044 -0.010133 93094.900000 0 0 1
-16.871225 2.084651 -18.073729 24.812168 -0.122939 2.386812 0.018632 -0.011231 -695764.000000 0 1 0
-16.917125 0.699451 -17.381529 24.265117 -0.041322 2.369307 0.016582 -0.013095 687549.000000 0 1 0
-17.970325 -0.189149 -17.818529 25.307476 0.010525 2.351925 0.016375 -0.016865 306995.000000 0 0 1
-19.257125 0.228651 -17.431429 25.975832 -0.011873 2.306438 0.005788 -0.016117 -873171.000000 0 0 1
-20.336725 -0.660149 -18.062229 27.207762 0.032450 2.296769 0.001181 -0.007352 -583459.000000 0 0 1
-20.325225 -1.972549 -17.605329 26.962072 0.096746 2.282291 -0.002755 -0.021181 329358.000000 0 0 1
-21.480325 -2.712649 -17.959129 28.129933 0.125620 2.263259 0.001771 -0.011847 -156625.000000 0 0 1
-21.645625 -4.012249 -17.177729 27.923209 0.183281 2.233407 -0.000479 -0.014695 -327208.000000 0 0 1
-21.954825 -3.616249 -15.868429 27.329446 0.163247 2.190305 0.008802 -0.025361 320770.000000 0 0 1
-22.143625 -4.808149 -15.112129 27.236646 0.213816 2.158974 0.016374 -0.030024 -111922.000000 0 0 1
-22.150625 -4.494049 -13.582329 26.369041 0.200169 2.111905 0.003141 -0.013110 -287459.000000 0 0 1
-23.238925 -3.658449 -13.299829 27.024384 0.156146 2.085345 0.002483 -0.026750 -3264.460000 0 0 1
-23.426825 -3.461349 -11.952129 26.526411 0.146690 2.038205 -0.006923 -0.021907 -214140.000000 0 0 1
-24.425125 -2.285349 -11.735029 27.194126 0.093294 2.016982 0.006792 -0.008392 -149513.000000 0 0 1
-24.654425 -1.884749 -10.397329 26.823449 0.076298 1.968846 0.004337 -0.010057 687974.000000 0 0 1
-25.415505 -0.667649 -10.365929 27.456259 0.026263 1.957938 0.009424 -0.016726 -231144.000000 0 0 1
-25.812205 -0.300949 -8.931929 27.315561 0.011659 1.903914 0.011683 -0.001585 -340542.000000 0 0 1
-24.818025 0.235451 -8.082929 26.102175 -0.009487 1.885637 0.007740 -0.004777 69134.800000 0 0 1
-25.371685 0.605451 -6.840629 26.284657 -0.023859 1.834079 0.012505 0.004364 166806.000000 0 0 1
-24.391925 1.259051 -5.785529 25.100270 -0.051572 1.803384 0.001371 0.013043 219817.000000 0 0 1
-23.923025 2.558651 -6.178329 24.840080 -0.106548 1.822159 0.011991 0.011447 -477853.000000 0 1 0
-22.747825 2.839451 -5.532629 23.582536 -0.124181 1.807611 0.007772 0.020687 -1038060.000000 0 1 0
-22.325025 4.298451 -5.637929 23.423699 -0.190212 1.813876 0.028766 0.011765 -222550.000000 0 1 0
-23.034025 5.222951 -4.847729 24.111118 -0.222979 1.773234 0.041948 0.010846 579482.000000 0 1 0
-22.354425 6.447251 -4.965129 23.789491 -0.280791 1.781053 0.039994 0.001342 43631.400000 0 1 0
-23.044825 7.567951 -4.134729 24.605565 -0.317305 1.739638 0.039001 0.003247 -113132.000000 0 1 0
-22.674025 7.575751 -2.742729 24.062959 -0.322455 1.685026 0.054711 0.007064 814224.000000 0 1 0
-21.363025 7.961651 -2.345129 22.918691 -0.356738 1.673300 0.059247 0.003576 363776.000000 0 1 0
-20.867025 9.436051 -2.546729 23.042518 -0.424681 1.681546 0.054947 0.003132 -240013.000000 0 1 0
-20.488925 9.747951 -3.887729 23.020275 -0.444074 1.740492 0.037842 -0.000059 471058.000000 0 1 0
-19.901225 11.059951 -3.861129 23.093064 -0.507241 1.738784 0.050457 0.001701 -245736.000000 0 1 0
-19.671225 11.647951 -5.240829 23.454172 -0.534614 1.796149 0.050313 -0.001156 489742.000000 0 1 0
-18.496425 11.153751 -5.924029 22.396831 -0.542639 1.838485 0.027076 0.008827 890701.000000 0 1 0
-18.361625 11.738551 -7.192129 22.949283 -0.568815 1.889560 0.023388 0.014550 249495.000000 0 1 0
-17.110325 11.356451 -8.051729 22.058163 -0.585959 1.944453 0.020030 0.012519 38815.700000 0 1 0
-17.042925 9.965951 -8.387729 21.450769 -0.529135 1.972538 0.023036 0.013328 293372.000000 0 1 0
-18.007925 9.475851 -9.314429 22.379359 -0.484391 2.000065 0.024712 0.013599 -202243.000000 0 1 0
-17.954125 10.051351 -10.762029 23.220714 -0.510363 2.052700 0.023526 0.019468 334549.000000 0 1 0
-16.850125 9.601151 -11.543729 22.569149 -0.517915 2.107706 0.014408 0.013735 129645.000000 0 1 0
-16.852025 10.333651 -12.770529 23.534263 -0.550068 2.144368 0.006683 0.015235 189377.000000 0 1 0
-15.770325 9.858351 -13.768129 23.139828 -0.558686 2.208058 0.004002 0.016791 -345694.000000 0 1 0
-15.782525 8.581651 -14.441229 23.049554 -0.498027 2.247889 -0.001791 0.007708 -68069.900000 0 1 0
-15.864525 7.393751 -13.641629 22.191096 -0.436125 2.232845 -0.000013 0.008767 -205842.000000 0 1 0
-15.838825 6.044851 -14.438429 22.268292 -0.364586 2.276258 0.008816 0.005980 -889004.000000 0 1 0
-14.739525 5.907651 -15.286529 22.041595 -0.381199 2.337175 0.018441 0.000285 67328.700000 0 1 0
-14.820625 4.729951 -16.061929 22.360879 -0.308929 2.372159 0.010868 -0.002373 -3070.950000 0 1 0
31.135630 -15.807649 28.985124 45.381126 -0.469791 0.877983 -0.003189 0.005377 133562.000000 0 0 1
30.200170 -14.748549 29.187284 44.513678 -0.454292 0.855697 -0.007194 0.007665 701345.000000 0 0 1
29.037400 -15.033949 29.974704 44.358461 -0.477742 0.828831 -0.001076 0.003272 675282.000000 0 0 1
29.291520 -15.102349 31.517914 45.601019 -0.476040 0.807694 0.006168 -0.002842 -275187.000000 0 0 1
29.984840 -13.986949 31.992324 46.024278 -0.436463 0.802212 -0.006799 -0.002742 -63071.100000 0 0 1
30.122110 -14.122749 33.402015 47.143273 -0.438418 0.783396 -0.007039 -0.009469 -455106.000000 0 0 1
30.542440 -12.760849 33.913499 47.389928 -0.395762 0.773275 -0.012671 -0.007320 -119226.000000 0 0 1
30.438490 -12.692349 -33.961579 47.339056 -0.395061 2.370876 -0.017309 -0.013828 61177.500000 0 0 1
30.677590 -11.308249 -33.675879 46.936722 -0.353162 2.370966 -0.007947 -0.006177 -350593.000000 0 0 1
30.239630 -10.771549 -32.287409 45.529532 -0.342193 2.359093 -0.011475 -0.005751 -125786.000000 0 0 1
28.868300 -10.938549 -32.028569 44.484377 -0.362196 2.374593 0.009541 -0.007861 -204114.000000 0 0 1
28.415310 -10.270649 -30.845979 43.178588 -0.346837 2.366536 0.001103 -0.005421 240014.000000 0 0 1
27.311940 -11.145549 -30.181699 42.203084 -0.387455 2.367641 0.019726 -0.003871 -21347.700000 0 0 1
26.838970 -10.740249 -28.943689 40.907461 -0.380656 2.356808 0.011019 -0.002277 -281330.000000 0 0 1
26.068860 -11.709449 -28.343929 40.250155 -0.422167 2.352084 0.033137 -0.001283 -1324420.000000 0 0 1
25.617010 -11.312449 -26.902419 38.832240 -0.415846 2.336141 0.028848 0.003704 -602452.000000 0 0 1
24.830740 -10.071249 -26.772739 37.878427 -0.385321 2.355771 0.021787 -0.000138 1298430.000000 0 0 1
23.616720 -9.956349 -27.541369 37.621873 -0.398971 2.392133 0.018613 -0.001176 342411.000000 0 0 1
22.570720 -11.060949 -27.376549 37.165272 -0.455662 2.398850 0.018180 0.011739 -1359420.000000 0 0 1
22.981920 -12.125149 -28.221919 38.362281 -0.485479 2.397449 0.012675 0.003813 -20225.700000 0 0 1
22.331620 -13.363449 -27.898709 38.152601 -0.539249 2.390934 0.011944 -0.001347 -34525.000000 0 0 1
23.076320 -14.544749 -28.503959 39.453034 -0.562394 2.378176 0.006572 0.009336 -13737.100000 0 0 1
22.955020 -14.590349 -29.963479 40.467534 -0.566190 2.404510 0.010170 0.000231 -179835.000000 0 0 1
23.805420 -15.538049 -30.494199 41.689629 -0.578278 2.391254 0.004257 0.002725 -521239.000000 0 0 1
23.870820 -15.593049 -32.012099 42.868796 -0.578640 2.413952 0.017992 -0.006398 383079.000000 0 0 1
22.692220 -16.242049 -32.516609 42.849397 -0.621221 2.432354 0.023469 -0.004033 644267.000000 0 0 1
22.818620 -16.706149 -33.843509 44.104058 -0.631965 2.445504 0.024436 -0.010562 -68985.800000 0 0 1
22.997520 -15.636249 34.330414 44.180941 -0.597115 0.680845 0.006819 -0.001764 273359.000000 0 0 1
22.100820 -14.517749 34.436245 43.417349 -0.581202 0.654841 0.020864 -0.009345 113690.000000 0 0 1
22.464420 -13.473449 33.487942 42.516188 -0.540249 0.663808 0.016411 -0.004951 -573226.000000 0 0 1
21.610220 -12.179149 33.511238 41.693361 -0.513212 0.637217 0.030604 -0.008616 -430115.000000 0 0 1
20.270220 -12.325449 33.146714 40.761540 -0.546323 0.621191 0.021264 -0.004751 -267559.000000 0 0 1
20.026320 -12.521149 31.777384 39.593368 -0.558768 0.639166 0.019685 0.006445 -315540.000000 0 0 1
18.506520 -12.741349 31.505394 38.696551 -0.602952 0.619506 0.029081 0.008196 511187.000000 0 0 1
17.713420 -11.587149 31.635564 38.063581 -0.579284 0.589670 0.018547 0.002244 632083.000000 0 0 1
16.522220 -11.943649 32.401614 38.281837 -0.625920 0.561614 0.010162 0.006164 1278090.000000 0 0 1
15.677720 -10.696349 32.896764 37.978940 -0.598723 0.523281 0.015849 0.004438 -739803.000000 0 0 1
14.756220 -10.310549 31.902234 36.630670 -0.609870 0.513733 0.014204 0.001081 374878.000000 0 0 1
13.884220 -9.225549 32.312164 36.358744 -0.586475 0.476285 0.026011 0.000813 752114.000000 0 0 1
12.848920 -9.477149 33.421333 37.039122 -0.635507 0.445663 0.024889 -0.002452 -1990130.000000 0 0 1
11.876320 -10.428449 33.116024 36.694285 -0.720576 0.445293 0.014452 0.000419 -652.503000 0 0 1
10.684120 -10.385849 33.876750 37.008789 -0.771243 0.414369 0.012967 -0.001910 375231.000000 0 0 1
9.704420 -9.291149 33.361618 35.965244 -0.763645 0.382841 0.012748 -0.002292 -823244.000000 0 0 1
10.282820 -8.020949 33.297704 35.760440 -0.662447 0.373291 0.020980 0.003909 558772.000000 0 0 1
9.254420 -7.264249 32.635324 34.691180 -0.665496 0.345995 0.012459 0.016956 678904.000000 0 0 1
9.632220 -5.779849 32.385934 34.278784 -0.540459 0.333872 0.000881 0.019147 -33267.100000 0 0 1
9.562920 -5.002849 33.595114 35.286111 -0.481996 0.310838 -0.011313 0.011314 97295.700000 0 0 1
10.220420 -3.776249 33.423380 35.154507 -0.353923 0.315128 -0.016445 0.010229 -141968.000000 0 0 1
9.952320 -3.003049 -34.593157 36.121371 -0.293056 2.849670 -0.018509 -0.000166 117951.000000 0 0 1
8.626120 -2.579849 -34.346395 35.506906 -0.290607 2.885219 -0.023444 0.006410 -150779.000000 0 0 1
8.514520 -1.779549 -33.195069 34.315834 -0.206036 2.885313 -0.020615 0.005946 -538380.000000 0 0 1
7.144620 -1.363349 -32.681299 33.480914 -0.188555 2.922602 -0.015524 0.011259 -847501.000000 0 0 1
6.471220 -0.544749 -33.540909 34.163811 -0.083982 2.950342 -0.007717 0.009379 -23099.600000 0 0 1
5.116120 -0.342749 -33.143969 33.538259 -0.066894 2.988103 -0.010157 0.009580 340341.000000 0 0 1
4.445020 0.730751 -33.995539 34.292694 0.162940 3.009852 0.003502 0.006654 -314306.000000 0 0 1
5.119720 1.975251 -33.971769 34.412123 0.368216 2.981443 -0.012675 0.003305 -28726.300000 0 0 1
4.591620 2.831251 34.363984 34.784801 0.552545 0.155706 0.006085 0.000341 302278.000000 0 0 1
5.415220 4.153651 34.345056 35.016572 0.654313 0.196157 -0.002769 0.000066 95146.800000 0 0 1
4.942320 5.050851 33.341840 34.082487 0.796258 0.208855 0.019872 -0.011114 299318.000000 0 0 1
5.862320 6.095451 33.127224 34.189681 0.804892 0.249951 0.015137 -0.013278 -24983.200000 0 0 1
5.205420 7.040751 32.078144 33.251705 0.934161 0.266469 0.011523 -0.008237 -75225.900000 0 0 1
4.121520 7.777151 32.607464 33.774513 1.083475 0.263647 0.013927 -0.003396 -285340.000000 0 0 1
3.837120 9.031351 32.004334 33.474859 1.169039 0.297505 0.008270 -0.003711 -17123.500000 0 0 1
3.705420 9.197551 30.525714 32.095861 1.187818 0.314085 0.007466 -0.008687 9211.690000 0 0 1
2.491720 8.645751 30.023074 31.342346 1.290199 0.291173 0.024429 -0.012714 154003.000000 0 0 1
2.362920 8.987451 28.684104 30.151874 1.313701 0.313303 0.020137 -0.012244 1216210.000000 0 0 1
1.041320 8.310851 28.075264 29.298038 1.446149 0.289929 0.009626 -0.008393 1167550.000000 0 0 1
-0.132780 8.951651 28.512114 29.884617 -1.555964 0.304245 0.007415 -0.005803 -646385.000000 0 0 1
-1.234880 8.489351 27.758554 29.053938 -1.426347 0.299736 0.014905 -0.004828 -133565.000000 0 0 1
-2.544480 8.586451 28.528234 29.900864 -1.282704 0.304176 0.018355 -0.005395 -670970.000000 0 0 1
-2.897580 9.944151 28.792084 30.598467 -1.287262 0.345327 0.013618 -0.006031 -37078.400000 0 0 1
-4.211680 10.010751 29.312214 31.259547 -1.172560 0.354833 0.012092 -0.001047 -229624.000000 0 0 1
-4.487780 11.333951 30.086564 32.462285 -1.193778 0.384953 0.007264 0.000479 -87803.900000 0 0 1
-4.563980 12.494651 29.331654 32.207020 -1.220579 0.425767 0.011775 -0.009046 -33392.300000 0 0 1
-5.683580 12.592851 28.488214 31.661670 -1.146834 0.451555 0.006218 -0.012432 -290376.000000 0 0 1
-5.813380 14.053151 28.002444 31.865708 -1.178561 0.497530 0.002105 -0.010083 -119150.000000 0 0 1
-4.849780 14.476451 27.075074 31.082916 -1.247536 0.513441 -0.001079 -0.001480 -398472.000000 0 0 1
-5.066180 15.787051 26.725594 31.450827 -1.260271 0.555270 -0.002748 0.004110 -474054.000000 0 0 1
-3.887780 16.359351 25.962254 30.931890 -1.337476 0.574735 0.013514 0.000590 -408239.000000 0 0 1
-3.895080 15.935751 24.571324 29.544370 -1.331073 0.588678 0.016570 0.005821 -74881.500000 0 0 1
-3.105580 16.814651 23.788484 29.296230 -1.388160 0.623229 0.034283 0.008165 53755.000000 0 0 1
-2.990180 16.583351 22.318584 27.965477 -1.392401 0.646700 0.024856 0.011451 -290220.000000 0 0 1
-2.157780 15.508651 21.981084 26.987818 -1.432550 0.618961 0.011386 0.007844 -104140.000000 0 0 1
-1.991080 15.439151 20.558784 25.787505 -1.442541 0.648090 0.002401 0.013142 -66023.400000 0 0 1
-1.129480 14.266451 20.111384 24.683499 -1.491791 0.618463 0.007569 0.004688 -428656.000000 0 1 0
-1.719080 12.999051 20.282884 24.152142 -1.439313 0.573888 0.005035 0.009476 -180143.000000 0 1 0
-0.928080 11.967151 19.698084 23.067045 -1.493399 0.547268 0.010381 0.005326 -640438.000000 0 1 0
-1.625380 10.650051 19.247684 22.057624 -1.419348 0.510277 -0.003637 -0.002745 17085.600000 0 1 0
-2.085180 9.709851 20.332984 22.628730 -1.359260 0.454348 0.003115 -0.010369 354575.000000 0 1 0
-2.960380 10.257051 21.308384 23.833132 -1.289813 0.464455 0.008123 -0.006323 -144894.000000 0 1 0
-4.462480 10.188551 20.912284 23.686366 -1.157975 0.488830 0.001860 0.000993 111861.000000 0 1 0
-5.019680 8.860751 20.976484 23.317868 -1.055368 0.451970 -0.004575 -0.005833 -612078.000000 0 1 0
-6.394580 8.976251 21.165184 23.862706 -0.951804 0.480083 -0.010799 0.006614 -491134.000000 0 1 0
-7.089280 7.595651 21.337384 23.732589 -0.819867 0.453144 -0.011337 0.005542 -136283.000000 0 1 0
-6.704780 6.909451 22.523584 24.495029 -0.800431 0.403948 -0.008609 0.002305 -57537.100000 0 1 0
-7.433780 5.730551 22.624984 24.494697 -0.656731 0.393250 -0.009096 0.007460 -26463.500000 0 1 0
-7.460180 5.097251 24.017184 25.660502 -0.599403 0.359823 -0.006532 0.009526 101827.000000 0 0 1
-8.383980 5.691751 24.925184 26.906355 -0.596413 0.386145 -0.011055 0.002877 214166.000000 0 0 1
-8.685480 4.886151 26.040344 27.882101 -0.512439 0.365501 -0.006560 0.015591 21558.200000 0 0 1
-9.538980 5.541851 27.159664 29.314699 -0.526309 0.385831 0.006030 0.011359 42180.600000 0 0 1
-8.888380 6.614551 27.762794 29.891944 -0.639766 0.379711 0.002371 0.004466 375108.000000 0 0 1
-9.810680 7.219151 28.683804 31.162898 -0.634381 0.401573 0.008030 0.001015 632989.000000 0 0 1
-9.161980 8.446951 29.363034 31.897972 -0.744814 0.401362 0.010958 -0.003570 406601.000000 0 0 1
-8.183280 8.028351 30.306024 32.401784 -0.775842 0.361635 0.010034 -0.007696 -122707.000000 0 0 1
-7.635880 9.054751 31.040094 33.223224 -0.870204 0.364537 0.013728 -0.008347 338071.000000 0 0 1
-6.560180 8.534051 32.084484 33.841987 -0.915430 0.323693 0.017415 -0.004504 -122960.000000 0 0 1
-5.293280 8.293851 31.568234 33.065997 -1.002749 0.302134 0.022292 -0.006899 -1443850.000000 0 0 1
-4.592180 7.666951 32.608754 33.811257 -1.031144 0.267500 0.022257 -0.007666 -118796.000000 0 0 1
-3.078980 7.581651 32.290234 33.310971 -1.185034 0.248195 0.011259 0.002608 154307.000000 0 0 1
-2.614580 8.907451 32.105954 33.421116 -1.285288 0.281468 -0.005461 0.007233 -377938.000000 0 0 1
-1.222880 8.951251 31.845884 33.102578 -1.435021 0.276428 0.000789 0.005239 203030.000000 0 0 1
-0.837580 10.334151 31.382844 33.051159 -1.489923 0.319084 0.001069 0.001690 -275877.000000 0 0 1
-0.809480 11.222651 32.496044 34.388894 -1.498792 0.333332 -0.000943 -0.003232 -55567.700000 0 0 1
-1.073780 12.555551 32.130314 34.513069 -1.485482 0.373761 0.009845 -0.005568 -37390.100000 0 0 1
-1.426380 13.524651 33.310463 35.979684 -1.465720 0.387615 0.000989 -0.009204 100492.000000 0 0 1
-0.223780 13.980451 33.929546 36.697646 -1.554791 0.390891 0.014232 0.002190 306898.000000 0 0 1
-0.494480 14.836651 -34.310588 37.384317 -1.537480 2.733250 0.016882 0.000070 -137778.000000 0 0 1
0.776220 15.352651 -33.616879 36.964861 1.520280 2.712703 0.009309 0.002245 207857.000000 0 0 1
1.573220 16.198351 -34.486540 38.133752 1.473978 2.700668 0.019130 0.001446 1144200.000000 0 0 1
2.700020 16.782451 -33.799739 37.833360 1.411280 2.675619 0.023147 -0.002444 516585.000000 0 0 1
3.497520 17.747151 34.642456 39.080606 1.376215 0.481209 0.027203 0.010943 -133611.000000 0 0 1
2.881120 19.000151 34.426003 39.426594 1.420306 0.509134 0.025897 0.012259 456595.000000 0 0 1
3.764420 19.901451 33.704513 39.322167 1.383852 0.541109 0.021616 0.016900 452118.000000 0 0 1
3.271920 21.358251 33.720080 40.049022 1.418786 0.569872 0.020576 0.012421 -89749.500000 0 0 1
3.520220 21.976251 -34.354366 40.933727 1.411963 2.566732 0.018471 0.001590 70190.300000 0 0 1
3.001920 23.268051 -34.279180 41.538848 1.442490 2.541409 0.011677 0.001411 -33398.900000 0 0 1
3.167920 23.904451 -32.874739 40.770173 1.439040 2.508739 0.007118 -0.005690 -31493.700000 0 0 1
2.653920 25.206951 -32.790859 41.444832 1.465898 2.483554 -0.000844 -0.006234 82948.800000 0 0 1
2.681820 25.541651 -31.459619 40.611276 1.466182 2.456961 0.000048 -0.008251 146088.000000 0 0 1
2.259920 26.984651 -31.163999 41.285269 1.487243 2.426215 0.000548 -0.006979 460248.000000 0 0 1
3.404920 27.822451 -31.238679 41.970672 1.449022 2.410279 -0.007087 -0.016709 297423.000000 0 0 1
2.981620 29.125951 -30.940079 42.596943 1.468782 2.383786 -0.009647 -0.013174 -782785.000000 0 0 1
4.014820 30.236051 -30.866359 43.394351 1.438786 2.362141 -0.007102 -0.011529 -706218.000000 0 0 1
4.901620 30.046651 -29.808739 42.607371 1.409087 2.345654 -0.012936 -0.010705 -336731.000000 0 0 1
5.635220 31.206551 -29.517609 43.323132 1.392143 2.320383 -0.002074 -0.012791 -1044400.000000 0 0 1
6.767620 31.111251 -28.489549 42.724291 1.356604 2.300734 -0.002218 -0.011412 -24455.200000 0 0 1
7.934120 30.555051 -29.086959 42.925664 1.316741 2.315307 0.000514 -0.015411 998539.000000 0 0 1
9.016820 31.483151 -29.422869 44.024960 1.291861 2.302748 0.010760 -0.015252 750935.000000 0 0 1
8.732120 32.698551 -30.404929 45.496207 1.309837 2.302712 0.012094 -0.007051 -1229350.000000 0 0 1
8.226620 33.816851 -29.689299 45.746160 1.332162 2.277067 0.003287 -0.009732 188125.000000 0 0 1
7.631820 -34.644117 -30.452649 46.752790 -1.353968 2.280165 0.006854 -0.004292 662752.000000 0 0 1
6.251020 34.593751 -31.143019 46.964779 1.392027 2.295768 0.008817 0.001752 56805.400000 0 0 1
6.272820 33.601951 -32.120439 46.905884 1.386240 2.325105 0.005443 0.002145 -403909.000000 0 0 1
5.064920 33.420751 -32.795839 47.097421 1.420391 2.341082 0.015416 0.000947 -440166.000000 0 0 1
5.186820 32.657751 -34.150222 47.535981 1.413288 2.372307 0.011574 -0.009450 299686.000000 0 0 1
6.055520 33.421551 34.322386 48.287634 1.391555 0.780175 0.014946 -0.008502 400410.000000 0 0 1
6.295620 32.791551 33.067714 46.993557 1.381115 0.790254 0.016984 -0.004393 9338.620000 0 0 1
5.376720 33.206251 31.877424 46.343656 1.410271 0.812275 0.003967 0.007198 306994.000000 0 0 1
5.738120 34.501251 31.288674 46.928067 1.405989 0.840974 0.005727 0.008163 534586.000000 0 0 1
4.820720 -34.622617 30.264154 46.237257 -1.432450 0.857222 -0.010836 0.000465 229582.000000 0 0 1
17.169175 -22.406649 29.752274 41.012635 -0.916974 0.759120 0.027380 -0.008672 316431.000000 0 0 1
16.064775 -21.463949 29.848534 40.121229 -0.928285 0.731821 0.018856 -0.005808 390082.000000 0 0 1
14.840875 -22.055149 30.151854 40.197207 -0.978492 0.722586 0.015034 -0.000474 -308344.000000 0 0 1
14.582475 -22.449749 31.643614 41.448258 -0.994730 0.702160 -0.000942 -0.004706 -802123.000000 0 0 1
15.170075 -23.665149 32.000704 42.593608 -1.000753 0.720762 0.012559 -0.011248 247904.000000 0 0 1
14.673075 -24.067649 33.285710 43.617534 -1.023304 0.702659 0.000438 -0.008924 -52193.800000 0 0 1
15.463675 -25.200759 33.971377 45.036184 -1.020423 0.716189 0.012715 -0.011657 -246974.000000 0 0 1
15.191775 -26.546259 33.646202 45.470438 -1.051012 0.737789 0.005129 -0.016803 -376816.000000 0 0 1
15.895675 -27.386609 34.517598 46.841898 -1.044900 0.742329 0.003407 -0.009260 -104504.000000 0 0 1
15.836375 -28.889089 34.310654 47.566702 -1.069353 0.765095 -0.003298 0.001374 72790.500000 0 0 1
16.461475 -29.380949 33.119384 47.234668 -1.060097 0.793764 -0.003908 -0.009604 568323.000000 0 0 1
15.794375 -30.589989 32.712334 47.490067 -1.094174 0.810930 -0.007271 -0.006485 279131.000000 0 0 1
16.559675 -31.209649 31.508194 47.339532 -1.082974 0.842527 0.005114 -0.009579 322755.000000 0 0 1
17.856675 -31.697089 31.805854 48.323686 -1.057759 0.852393 -0.002923 -0.011215 9216.890000 0 0 1
18.370975 -32.397969 30.739804 48.291372 -1.054964 0.880782 0.003316 -0.006440 -1220320.000000 0 0 1
19.807875 -32.837859 30.959204 49.286399 -1.028025 0.891624 -0.005292 -0.002940 -503965.000000 0 0 1
20.758375 -31.781909 31.152934 49.107078 -0.992209 0.883580 0.004694 -0.004077 -152538.000000 0 0 1
21.904475 -32.385649 31.658814 50.308217 -0.976110 0.890148 0.007364 0.000675 -627369.000000 0 0 1
23.124175 -31.456459 31.870714 50.398201 -0.936889 0.886177 0.005535 0.002063 471021.000000 0 0 1
23.954775 -31.347649 30.679264 49.977230 -0.918291 0.909849 0.006967 0.002046 -77525.400000 0 0 1
24.623775 -30.120789 30.701684 49.559919 -0.885475 0.902708 0.003046 0.000141 601831.000000 0 0 1
25.739375 -30.204539 29.545954 49.475175 -0.865044 0.930806 -0.005108 0.000053 1188320.000000 0 0 1
26.871875 -30.995079 29.941054 50.786408 -0.856531 0.940296 -0.013348 0.005218 590548.000000 0 0 1
27.861375 -31.055689 28.918084 50.763841 -0.839562 0.964705 -0.008390 -0.008106 268028.000000 0 0 1
28.978375 -32.045119 29.242564 52.170522 -0.835611 0.975784 -0.021698 -0.001387 -203581.000000 0 0 1
28.440075 -33.389399 29.183214 52.681588 -0.865276 0.983689 -0.011418 -0.001273 423408.000000 0 0 1
29.458575 -34.328367 29.413614 53.957437 -0.861595 0.994257 -0.009585 0.001102 -554878.000000 0 0 1
28.769175 33.849997 29.827214 53.508414 0.866359 0.979509 -0.015193 0.004263 -970937.000000 0 0 1
28.269375 33.736956 31.151824 53.923797 0.873348 0.954887 -0.010526 0.011011 150802.000000 0 0 1
27.219575 34.615284 31.520064 54.153832 0.904437 0.949553 -0.008873 0.014287 59683.800000 0 0 1
25.916375 34.401379 30.670254 52.875115 0.925153 0.952005 -0.005437 0.010937 -768993.000000 0 0 1
25.317875 33.137380 31.013844 51.970561 0.918378 0.931342 -0.002412 0.013581 530795.000000 0 0 1
23.890875 33.170070 30.892824 51.238599 0.946606 0.923639 0.000840 0.013000 972125.000000 0 0 1
23.183575 31.805600 30.938834 50.062818 0.940927 0.904600 -0.003394 0.013933 -40842.900000 0 0 1
23.223775 31.039190 29.782314 48.885184 0.928443 0.915707 -0.005009 0.008826 -157762.000000 0 0 1
22.413475 29.905230 29.853974 47.832483 0.927626 0.896771 -0.003218 0.001377 -350023.000000 0 0 1
21.967875 29.488890 28.426144 46.478251 0.930532 0.912714 -0.002444 -0.003485 234604.000000 0 0 1
20.875675 30.297200 27.965414 46.214484 0.967471 0.920877 0.002678 -0.008684 338586.000000 0 0 1
20.292675 29.771930 26.811704 44.911334 0.972523 0.931050 0.008156 -0.009929 -622447.000000 0 0 1
18.991875 30.384130 26.330684 44.465622 1.012155 0.937062 0.004990 -0.010348 -637750.000000 0 0 1
19.033275 31.746920 25.824854 45.133752 1.030721 0.961629 0.018239 -0.020313 220589.000000 0 0 1
17.766375 32.305980 25.465474 44.808602 1.067999 0.966338 0.024231 -0.021162 -24195.600000 0 0 1
17.917575 33.713816 24.817774 45.536609 1.082298 0.994399 0.027431 -0.019330 167806.000000 0 0 1
18.577375 33.762772 23.559484 45.167388 1.067775 1.022067 0.028738 -0.017408 -61162.000000 0 0 1
19.982375 33.713574 23.538984 45.716344 1.035754 1.029915 0.024910 -0.011706 -379822.000000 0 0 1
20.458275 34.030957 22.072784 45.429669 1.029519 1.063441 0.027992 -0.011479 -288852.000000 0 0 1
20.240875 -34.172177 21.616684 45.218488 -1.036043 1.072363 0.045854 -0.008845 152441.000000 0 0 1
20.610975 -34.061652 20.267684 44.674236 -1.026629 1.099909 0.046763 -0.011388 -197643.000000 0 0 1
20.251575 -32.701739 19.628584 43.183461 -1.016320 1.098941 0.033048 -0.009895 -383035.000000 0 0 1
20.995875 -31.632949 20.169484 42.991607 -0.984827 1.082469 0.029902 0.002330 -53624.700000 0 0 1
20.611975 -30.335179 19.747684 41.653902 -0.973979 1.076867 0.035741 -0.003889 -358150.000000 0 0 1
21.330075 -29.814609 18.489784 41.057948 -0.949794 1.103657 0.026579 -0.007836 -209107.000000 0 0 1
20.939375 -30.513179 17.286084 40.845075 -0.969365 1.133810 0.020913 -0.011940 414351.000000 0 0 1
21.585375 -29.842519 16.214684 40.242021 -0.944597 1.156081 0.011841 -0.006654 -210499.000000 0 0 1
21.224375 -30.400489 14.875784 39.949377 -0.961307 1.189239 0.003072 -0.010489 -452725.000000 0 0 1
21.819975 -31.616419 14.507084 41.062936 -0.966714 1.209712 0.022210 -0.003747 -70165.600000 0 0 1
21.903075 -31.897119 13.117984 40.856485 -0.969067 1.243932 0.011161 -0.008754 -66861.100000 0 0 1
20.585875 -32.072949 12.288384 40.043185 -1.000175 1.258885 0.010587 -0.004933 243747.000000 0 0 1
19.928175 -33.232999 12.777884 40.802434 -1.030634 1.252273 0.022836 -0.007291 -310287.000000 0 0 1
18.661075 -33.372619 12.178484 40.128330 -1.060938 1.262445 0.024344 -0.002230 234423.000000 0 0 1
17.693275 -34.338988 12.950784 40.742371 -1.095021 1.247314 0.035148 0.002194 199212.000000 0 0 1
17.183375 -33.760469 14.120284 40.427961 -1.099991 1.214004 0.036024 -0.003397 461208.000000 0 0 1
18.045675 -34.074127 15.232784 41.457571 -1.083750 1.194551 0.033834 -0.004880 -748878.000000 0 0 1
17.836275 -33.085439 16.430984 41.021411 -1.076362 1.158683 0.030912 -0.010631 542952.000000 0 0 1
16.473875 -32.879869 16.825184 40.442071 -1.106323 1.141719 0.037951 -0.014370 953990.000000 0 0 1
15.705175 -34.009149 17.294384 41.259792 -1.138179 1.138278 0.033372 -0.005444 -399358.000000 0 0 1
16.084275 -34.523455 18.698684 42.428924 -1.134804 1.114411 0.021049 -0.012482 -787011.000000 0 0 1
17.042275 34.009933 18.601784 42.345496 1.106272 1.115993 0.015528 -0.006658 -571668.000000 0 0 1
17.338275 33.384400 19.881584 42.548929 1.091787 1.084603 0.010662 -0.012904 152632.000000 0 0 1
18.163875 32.089460 19.818484 41.862060 1.055723 1.077623 0.007955 -0.012671 -248623.000000 0 0 1
17.387475 30.984960 19.558884 40.557884 1.059426 1.067579 0.007459 -0.011411 -738136.000000 0 0 1
18.195775 29.920820 19.133984 39.905526 1.024420 1.070732 0.002597 -0.014419 -82881.000000 0 0 1
17.471275 28.611750 18.686484 38.380495 1.022595 1.062288 0.005400 -0.008726 -427137.000000 0 0 1
17.145475 27.787600 19.778684 38.174787 1.017957 1.026158 0.004514 -0.013408 -76215.900000 0 0 1
16.747975 26.462660 19.370184 36.823512 1.006543 1.016873 -0.001769 -0.008757 -731303.000000 0 0 1
16.556575 25.544340 20.555484 36.730932 0.995722 0.976865 -0.005791 -0.004237 -541117.000000 0 0 1
15.431375 25.882640 21.286984 36.894093 1.033172 0.955776 -0.003454 -0.004729 -136231.000000 0 0 1
14.327175 24.989820 21.243784 35.791862 1.050225 0.935350 0.002822 -0.007685 76364.600000 0 0 1
13.076775 25.317510 22.056184 36.034062 1.094027 0.912092 0.004083 -0.013951 -352125.000000 0 0 1
12.448575 26.408690 21.414884 36.207502 1.130304 0.937942 0.011651 -0.019792 -109870.000000 0 0 1
11.128075 26.567460 21.915084 36.193023 1.174137 0.920395 0.001037 -0.018873 552873.000000 0 0 1
10.265875 27.702530 21.269284 36.403308 1.215910 0.946819 -0.005486 -0.022664 178229.000000 0 0 1
10.730475 28.987680 21.619884 37.720658 1.216264 0.960442 -0.003457 -0.019629 -190557.000000 0 0 1
10.466375 29.891000 20.657384 37.811961 1.233987 0.992834 -0.003214 -0.020208 -27613.200000 0 0 1
11.057775 31.312440 20.895984 39.235003 1.231324 1.009144 0.007682 -0.022227 64810.600000 0 0 1
10.355575 32.076260 21.895684 40.193847 1.258517 0.994703 0.001919 -0.019385 -167587.000000 0 0 1
10.635975 31.794150 23.275484 40.813479 1.247973 0.963939 0.005897 -0.014085 -397306.000000 0 0 1
9.929775 32.862250 24.144084 41.969807 1.277356 0.957859 -0.000884 -0.013290 -573887.000000 0 0 1
8.619575 32.539990 24.464094 41.612978 1.311852 0.942341 -0.007917 -0.013817 -839008.000000 0 0 1
8.191675 33.543622 25.399504 42.865055 1.331275 0.936581 -0.001792 -0.003130 810963.000000 0 0 1
6.755875 33.336730 26.085874 42.865513 1.370849 0.916562 -0.008111 0.001385 1137180.000000 0 0 1
5.667875 33.729589 25.290984 42.537558 1.404313 0.934082 -0.015788 0.003679 -8215.150000 0 0 1
5.278075 32.971350 24.175884 41.224281 1.412062 0.944130 -0.016756 -0.002874 -484913.000000 0 0 1
4.634375 31.561110 24.377634 40.147853 1.425000 0.918269 -0.020748 -0.010770 -43245.200000 0 0 1
5.571775 30.584650 24.809444 39.774037 1.390597 0.897253 -0.011798 -0.007049 -214094.000000 0 0 1
5.007075 29.314680 24.785844 38.713813 1.401625 0.875995 -0.022479 -0.008759 -1137150.000000 0 0 1
6.080675 28.266340 25.043904 38.251245 1.358905 0.856983 -0.012762 -0.007980 -514223.000000 0 0 1
6.994875 28.173310 23.950684 37.633747 1.327437 0.880955 -0.002413 -0.006975 1291960.000000 0 0 1
8.119475 29.105850 23.963884 38.566101 1.298749 0.900304 -0.007847 -0.001922 493884.000000 0 0 1
9.292175 28.748120 24.936194 39.174133 1.258169 0.880783 -0.009195 -0.006881 -580629.000000 0 0 1
9.049475 28.889000 26.336384 40.125708 1.267228 0.854830 -0.007238 0.000559 496267.000000 0 0 1
10.229375 28.725360 27.142694 40.822938 1.228689 0.843452 0.013965 0.001208 619373.000000 0 0 1
10.978775 30.094180 27.270324 42.069749 1.220986 0.865556 0.007716 -0.003522 -995.640000 0 0 1
10.239375 31.056460 28.035734 43.073784 1.252318 0.862057 0.013261 -0.005515 170827.000000 0 0 1
10.804675 32.334090 28.078764 44.166179 1.248304 0.881813 -0.002811 0.002777 -296102.000000 0 0 1
10.163375 33.294420 29.121474 45.385822 1.274523 0.874158 0.014965 0.005252 -182811.000000 0 0 1
10.510675 33.113550 30.519164 46.242846 1.263442 0.850010 0.027276 -0.009083 -45984.000000 0 0 1
10.167275 31.880070 31.144964 45.713468 1.262071 0.821248 0.026413 -0.005897 -91826.700000 0 0 1
10.165875 31.931000 32.712674 46.830042 1.262573 0.797441 0.047566 -0.016446 -73543.300000 0 0 1
9.829275 30.646930 33.222154 46.255383 1.260435 0.769537 0.051044 -0.019135 113070.000000 0 0 1
10.067075 30.530100 34.612724 47.238477 1.252281 0.748481 0.070562 -0.023667 -104458.000000 0 0 1
10.103875 29.094930 -34.253907 46.064448 1.236553 2.409247 0.047319 -0.018087 507366.000000 0 0 1
11.296475 28.405970 34.639369 46.199517 1.192292 0.723070 0.050449 -0.008700 414626.000000 0 0 1
11.259575 27.060530 -34.417223 45.206145 1.176498 2.436173 0.047410 -0.020603 100361.000000 0 0 1
12.635875 26.357180 -34.545318 45.252019 1.123757 2.439354 0.050416 -0.020027 -185051.000000 0 0 1
12.649875 24.973750 -34.275093 44.254825 1.101941 2.456711 0.032422 -0.023099 -314223.000000 0 0 1
12.434975 24.588070 -32.940869 42.945345 1.102574 2.445014 0.040787 -0.020452 -369463.000000 0 0 1
12.332175 23.084820 -32.823649 41.980750 1.080156 2.468462 0.021366 -0.024607 -1169960.000000 0 0 1
13.485075 22.403920 -33.155409 42.226343 1.028976 2.473788 0.007082 -0.014137 -827215.000000 0 0 1
13.394075 21.025420 -33.391879 41.671178 1.003584 2.500292 0.002276 -0.013261 475330.000000 0 0 1
14.741475 20.388820 -33.910499 42.224839 0.944789 2.503265 0.007098 -0.017532 1816130.000000 0 0 1
15.794875 20.466220 -32.898729 41.841016 0.913518 2.475560 0.000672 -0.018216 477068.000000 0 0 1
17.008175 19.905720 -33.319649 42.375874 0.863732 2.475575 -0.006060 -0.014891 -537001.000000 0 0 1
18.152175 20.124820 -32.347849 42.200630 0.836889 2.444209 -0.006274 -0.012942 -491435.000000 0 0 1
18.778275 21.373320 -32.594709 43.264968 0.849940 2.423975 -0.011370 -0.010200 -34192.200000 0 0 1
19.824875 21.789420 -31.732639 43.298555 0.832572 2.393342 -0.010311 -0.004605 109537.000000 0 0 1
19.462975 22.105920 -30.263459 42.229800 0.848893 2.369765 -0.005692 -0.004002 -164078.000000 0 0 1
18.688175 23.288420 -30.174729 42.451297 0.894553 2.361443 -0.007178 -0.003986 -215685.000000 0 0 1
18.450075 23.724520 -28.866009 41.671388 0.909814 2.336030 0.002880 0.012796 -166113.000000 0 0 1
19.571175 24.457650 -28.081939 42.069024 0.895929 2.301670 -0.004941 0.017743 69253.200000 0 0 1
20.085175 25.611790 -28.769759 43.440500 0.905754 2.294654 0.000606 0.015624 178697.000000 0 0 1
19.193675 26.740760 -28.788669 43.729313 0.948244 2.289405 0.000933 0.018336 86014.100000 0 0 1
19.901575 27.964780 -29.437909 45.218271 0.952284 2.279721 0.000672 0.018322 -165446.000000 0 0 1
20.080075 27.991360 -30.872829 46.258591 0.948510 2.301504 -0.009511 0.015233 169027.000000 0 0 1
20.795075 26.957880 -31.567679 46.429309 0.913745 2.318434 -0.004238 0.017746 1328050.000000 0 0 1
22.253475 26.533510 -31.086689 46.536292 0.872903 2.302327 0.002484 0.011191 746618.000000 0 0 1
23.244275 27.468400 -31.353819 47.727050 0.868502 2.287550 -0.001964 0.010351 -400971.000000 0 0 1
24.517875 27.004650 -30.979289 47.854923 0.833627 2.274910 0.007550 0.007724 -329860.000000 0 0 1
25.724075 27.861660 -31.319859 49.182656 0.825268 2.261146 -0.000026 0.011098 -523712.000000 0 0 1
25.786775 29.070530 -30.605929 49.464900 0.845187 2.237935 -0.001715 0.013173 -299351.000000 0 0 1
26.698975 30.018190 -31.082919 50.794437 0.843854 2.229302 0.007107 0.010940 -165867.000000 0 0 1
26.681575 31.421690 -30.382619 51.208716 0.866799 2.205960 -0.001344 0.014713 -114302.000000 0 0 1
27.298975 31.326070 -29.101909 50.729457 0.853983 2.181774 0.008743 0.011848 359412.000000 0 0 1
26.754575 32.284480 -28.206269 50.534033 0.878791 2.162967 0.003132 0.014867 -418954.000000 0 0 1
27.297975 32.071330 -26.754249 49.895285 0.865627 2.136735 0.016504 0.022538 8811.260000 0 0 1
26.949075 30.850430 -26.112389 48.578375 0.852794 2.138303 0.014217 0.028853 856355.000000 0 0 1
25.554275 30.529260 -25.983939 47.541790 0.873873 2.149035 0.020363 0.031561 575424.000000 0 0 1
25.075175 30.275160 -24.532529 46.337832 0.879070 2.128722 0.026130 0.035760 -79938.600000 0 0 1
24.927875 31.417210 -23.753829 46.612063 0.900064 2.105524 0.040037 0.019404 114591.000000 0 0 1
24.500675 31.269240 -22.429529 45.619428 0.906173 2.084798 0.044369 0.025507 86772.600000 0 0 1
2.873575 -26.504589 -19.493629 33.026538 -1.462800 2.202154 -0.008680 0.007944 -189415.000000 0 0 1
2.719575 -27.755059 -18.812429 33.639959 -1.473123 2.164251 -0.015617 0.012615 117704.000000 0 0 1
2.620175 -27.440659 -17.415429 32.606015 -1.475600 2.134259 -0.007121 0.011630 8476.850000 0 0 1
2.653875 -28.705049 -16.518029 33.224511 -1.478605 2.091123 -0.006948 0.018820 177685.000000 0 0 1
4.007175 -28.980159 -16.223229 33.452955 -1.433395 2.077110 0.007117 0.018955 10964.200000 0 0 1
4.053375 -29.982849 -15.229429 33.872357 -1.436421 2.037128 0.002657 0.010479 645052.000000 0 0 1
5.487975 -30.431669 -14.794029 34.279259 -1.392376 2.017033 0.012321 0.002341 204260.000000 0 0 1
6.192075 -29.561759 -13.994129 33.287760 -1.364319 2.004681 0.019728 0.008377 -966913.000000 0 0 1
7.490775 -29.990569 -13.721329 33.820419 -1.326033 1.988553 0.023223 0.003387 -582335.000000 0 0 1
7.762575 -30.936429 -12.567229 34.281998 -1.324952 1.946131 0.017895 -0.001754 -855224.000000 0 0 1
8.225275 -30.240669 -11.427329 33.357713 -1.305227 1.920447 0.013748 -0.002611 -19606.000000 0 0 1
8.369275 -31.118629 -10.291229 33.827846 -1.308066 1.879920 0.017773 -0.000901 562941.000000 0 0 1
9.616075 -32.059909 -10.288729 35.016633 -1.279394 1.869021 0.009078 -0.001372 -253945.000000 0 0 1
10.804475 -31.490369 -9.880429 34.727552 -1.240278 1.859294 0.003059 0.003715 -172954.000000 0 0 1
11.912175 -32.391389 -9.804929 35.878107 -1.218390 1.847602 -0.001561 0.001976 347050.000000 0 0 1
13.104975 -31.900609 -8.980929 35.637708 -1.181009 1.825549 -0.004895 0.003019 -511580.000000 0 0 1
13.858475 -30.909889 -9.660229 35.224971 -1.149315 1.848600 -0.019246 -0.001116 740268.000000 0 0 1
14.927875 -30.434599 -8.823229 35.027926 -1.114785 1.825430 -0.014460 0.002511 609583.000000 0 0 1
15.973675 -29.496619 -9.501529 34.863847 -1.074470 1.846820 -0.000712 -0.004247 89081.700000 0 0 1
15.658175 -28.130749 -9.587429 33.592205 -1.062884 1.860227 -0.010576 -0.006153 -55556.400000 0 0 1
15.020275 -27.793049 -10.794729 33.385451 -1.075328 1.900049 -0.015350 -0.004791 -564355.000000 0 0 1
14.715175 -26.299319 -10.786829 32.008533 -1.060668 1.914523 -0.018711 -0.003710 -1088270.000000 0 0 1
13.610675 -25.985119 -9.968629 30.981453 -1.088300 1.898385 -0.021781 0.000125 214384.000000 0 0 1
13.067075 -24.673849 -10.263729 29.747124 -1.083756 1.923070 -0.010094 0.000516 355441.000000 0 0 1
12.363475 -24.476249 -11.606329 29.776654 -1.103060 1.971188 -0.000947 -0.002107 -545375.000000 0 0 1
13.319675 -24.210649 -12.607329 30.372915 -1.067832 1.998832 -0.008440 -0.012958 241352.000000 0 0 1
12.665275 -24.041049 -13.887429 30.516256 -1.085925 2.043262 0.001984 -0.014009 418146.000000 0 0 1
13.557775 -23.413649 -15.016529 30.943631 -1.045920 2.077487 0.002532 -0.013910 277401.000000 0 0 1
14.474375 -24.316149 -15.582829 32.304909 -1.033871 2.074151 0.004154 -0.014700 239584.000000 0 0 1
15.049475 -23.812149 -16.795629 32.796315 -1.007173 2.108447 0.001588 -0.015316 -1054210.000000 0 0 1
15.805375 -24.842749 -17.640029 34.324082 -1.004172 2.110551 -0.001165 -0.014942 498109.000000 0 0 1
17.084875 -25.299489 -17.220329 35.049918 -0.976837 2.084388 0.012106 -0.010670 584107.000000 0 0 1
18.104975 -24.303449 -17.203729 34.848472 -0.930532 2.087104 0.002323 -0.011093 185109.000000 0 0 1
19.534575 -24.728149 -16.713029 35.670804 -0.902199 2.058428 0.001270 -0.003831 907068.000000 0 0 1
20.097775 -25.612479 -17.721529 37.067131 -0.905463 2.069278 0.007730 -0.001528 167211.000000 0 0 1
21.294275 -26.204139 -17.227729 37.906433 -0.888401 2.042585 0.024401 0.002638 291646.000000 0 0 1
21.975575 -27.259019 -18.098229 39.414792 -0.892301 2.047861 0.018547 -0.000292 -489300.000000 0 0 1
22.679975 -26.703029 -19.185229 39.943785 -0.866685 2.071800 0.026271 -0.001429 -208882.000000 0 0 1
23.105275 -27.694859 -20.077129 41.278929 -0.875499 2.078735 0.015360 -0.011088 -716206.000000 0 0 1
24.161375 -27.080389 -20.978629 41.919236 -0.842302 2.094919 0.011395 -0.000854 -1013670.000000 0 0 1
23.839575 -25.975859 -21.824529 41.465415 -0.828256 2.125076 0.016138 -0.004247 -125537.000000 0 0 1
23.989875 -24.760149 -21.103229 40.421842 -0.801197 2.120078 0.028799 -0.000333 -156881.000000 0 0 1
23.094075 -23.642549 -21.746729 39.562945 -0.797133 2.152770 0.050937 -0.001909 41550.400000 0 0 1
23.530575 -22.973449 -22.905529 40.076558 -0.773419 2.179183 0.037188 0.000327 6361.540000 0 0 1
23.069575 -23.659049 -24.095229 40.896649 -0.798012 2.200832 0.010865 -0.005608 128682.000000 0 0 1
22.132575 -22.772049 -24.915029 40.363049 -0.799638 2.236068 0.000163 -0.001522 -108264.000000 0 0 1
22.863475 -21.865249 -25.711209 40.766332 -0.763085 2.253248 -0.004356 0.008118 -389515.000000 0 0 1
22.070075 -21.033249 -26.469219 40.374562 -0.761348 2.285762 -0.009406 0.012227 -495131.000000 0 0 1
22.804975 -20.491949 -27.732559 41.341041 -0.732026 2.306116 -0.007696 0.011289 224254.000000 0 0 1
22.008275 -19.517849 -28.423119 40.904575 -0.725497 2.339027 -0.008812 0.009278 469366.000000 0 0 1
22.419275 -19.366449 -29.793319 42.015771 -0.712469 2.359015 0.004937 0.002552 23827.100000 0 0 1
21.471875 -18.323049 -30.427659 41.504433 -0.706436 2.393692 0.019196 0.003455 604732.000000 0 0 1
20.292175 -18.891549 -31.034049 41.614602 -0.749668 2.412455 0.017824 0.000793 817345.000000 0 0 1
19.472175 -17.892449 -31.593919 41.200498 -0.743145 2.444689 0.022784 -0.000388 553190.000000 0 0 1
18.177175 -18.415549 -32.317079 41.399706 -0.791912 2.466440 0.016567 0.000930 556660.000000 0 0 1
18.392675 -18.989049 -33.603359 42.755820 -0.801350 2.475006 0.024057 -0.000416 978598.000000 0 0 1
17.178675 -19.607349 -34.068319 42.897614 -0.851324 2.488449 0.015899 -0.004042 538965.000000 0 0 1
17.469175 -20.427549 33.940793 43.294737 -0.863304 0.669798 0.037920 -0.015475 -349317.000000 0 0 1
18.477075 -21.353049 34.140958 44.305304 -0.857479 0.691039 0.038898 -0.012185 -324655.000000 0 0 1
18.488075 -22.340249 33.117174 44.018664 -0.879470 0.719183 0.033589 -0.016875 118328.000000 0 0 1
19.257575 -23.659349 33.503085 45.310878 -0.887606 0.738610 0.024402 -0.007921 208870.000000 0 0 1
18.649775 -24.522849 34.479364 46.238628 -0.920605 0.729237 0.022707 -0.008997 158108.000000 0 0 1
18.842075 -24.089549 -33.484179 45.348874 -0.907024 2.401444 0.026281 -0.012931 -125023.000000 0 0 1
17.963275 -24.911649 -32.527069 44.735664 -0.946063 2.384877 0.010073 -0.008161 -440927.000000 0 0 1
18.228175 -26.309479 -32.576739 45.669453 -0.964894 2.365014 0.005536 -0.011639 299465.000000 0 0 1
19.197075 -26.682229 -31.603759 45.598975 -0.947122 2.336550 0.001575 -0.010254 98343.500000 0 0 1
19.377775 -28.209019 -31.708969 46.655177 -0.968892 2.318075 -0.000241 -0.010795 401020.000000 0 0 1
18.226375 -28.941259 -31.271309 46.343197 -1.008773 2.311458 -0.011411 -0.007471 506927.000000 0 0 1
18.490675 -30.313229 -31.174139 47.250649 -1.023066 2.291297 -0.011642 -0.003010 -196240.000000 0 0 1
17.309475 -31.107389 -30.545519 46.907529 -1.063020 2.279942 -0.006976 -0.002840 860386.000000 0 0 1
16.202075 -31.311979 -31.465279 47.254746 -1.093294 2.299449 -0.016307 -0.010082 602918.000000 0 0 1
16.421375 -32.220739 -32.539109 48.648033 -1.099457 2.303481 -0.011778 -0.004553 -1364960.000000 0 0 1
15.121375 -32.757659 -33.057149 48.933580 -1.138327 2.312509 -0.005633 -0.001311 -715078.000000 0 0 1
14.384275 -31.854969 -33.820209 48.635922 -1.146650 2.339738 -0.006064 0.000271 -913417.000000 0 0 1
13.105675 -32.266289 -34.179492 48.796616 -1.184980 2.346821 -0.013955 -0.001803 -472637.000000 0 0 1
12.310875 -31.079879 34.541967 48.069366 -1.193653 0.769030 -0.009696 0.004854 -48517.800000 0 0 1
12.051875 -30.027179 -33.846029 46.823421 -1.189113 2.378706 -0.006779 -0.000239 -90750.500000 0 0 1
11.291475 -29.055899 -34.539971 46.526898 -1.200145 2.407391 -0.000522 0.007790 -34830.600000 0 0 1
10.540975 -28.099779 -33.604179 45.054972 -1.211915 2.412604 0.000837 0.008157 704068.000000 0 0 1
9.461975 -28.783829 -32.917799 44.739459 -1.253199 2.397594 0.001322 0.009266 114997.000000 0 0 1
8.768075 -27.935309 -32.057859 43.416206 -1.266663 2.401468 0.018511 0.009806 -497773.000000 0 0 1
7.707775 -28.680179 -31.276459 43.129796 -1.308251 2.382078 0.006251 0.012764 385611.000000 0 0 1
6.616775 -29.327389 -31.978589 43.891999 -1.348894 2.387035 0.011265 0.016223 1095190.000000 0 0 1
7.041975 -30.609519 -32.459839 45.168276 -1.344673 2.372644 0.009827 0.016681 -53544.400000 0 0 1
5.868175 -31.308079 -33.164069 45.983548 -1.385513 2.376352 0.018686 0.005434 -152362.000000 0 0 1
4.867575 -31.832799 -32.342769 45.640717 -1.419061 2.358363 0.019485 0.006976 160539.000000 0 0 1
3.738275 -32.073129 -33.191769 46.307168 -1.454765 2.369961 0.016189 0.012712 2333.800000 0 0 1
2.541075 -32.675499 -32.468699 46.134170 -1.493186 2.351513 0.010974 0.009804 -86853.700000 0 0 1
1.878875 -31.780089 -31.556299 44.825263 -1.511744 2.351789 -0.001810 0.003639 77780.200000 0 0 1
0.597775 -32.225359 -31.192039 44.852808 -1.552249 2.339816 -0.014312 0.010401 243650.000000 0 0 1
-0.356325 -31.061039 -30.736239 43.699330 1.559325 2.350906 -0.004007 0.006421 285683.000000 0 0 1
-1.268525 -31.362749 -29.679299 43.198286 1.530371 2.328215 -0.008246 0.004225 208483.000000 0 0 1
-1.920125 -30.204989 -29.233179 42.078581 1.507312 2.338838 -0.004829 0.007188 -354381.000000 0 0 1
-2.479825 -30.300919 -27.834329 41.219474 1.489138 2.312129 -0.004424 0.002900 -169984.000000 0 0 1
-1.474425 -30.550519 -26.858609 40.704950 1.522572 2.291397 -0.010433 0.004093 182613.000000 0 0 1
-2.063325 -30.789519 -25.580069 40.082311 1.503882 2.262939 -0.013187 -0.001812 512807.000000 0 0 1
-1.018525 -30.995959 -24.420929 39.473644 1.537948 2.237838 -0.022656 -0.001843 196631.000000 0 0 1
-1.553525 -30.818189 -23.126429 38.561715 1.520430 2.213954 -0.005996 -0.007311 -150972.000000 0 0 1
-0.699625 -31.257369 -22.077629 38.274460 1.548417 2.185632 -0.017940 -0.004300 -159493.000000 0 0 1
-1.292925 -31.031779 -20.676829 37.311850 1.529156 2.158153 -0.035964 0.002577 -506791.000000 0 0 1
-1.606125 -29.720889 -20.182029 35.961440 1.516809 2.166647 -0.030002 -0.000083 -196310.000000 0 0 1
-0.486925 -28.908529 -19.944329 35.124299 1.553954 2.174653 -0.025468 -0.000959 -637799.000000 0 0 1
-0.830525 -27.522429 -19.511029 33.746912 1.540629 2.187265 -0.027925 -0.001120 -395328.000000 0 0 1
-1.349325 -27.445859 -18.212229 32.966363 1.521673 2.156096 -0.028405 0.000577 -141583.000000 0 0 1
-1.353025 -26.150169 -17.617929 31.560314 1.519102 2.163048 -0.026473 0.007962 119350.000000 0 0 1
-2.075325 -26.134769 -16.232829 30.835658 1.491554 2.125193 -0.027471 0.009374 -33791.600000 0 0 1
-2.090425 -24.861449 -15.631829 29.441732 1.486911 2.130507 -0.023855 0.017871 375940.000000 0 0 1
-2.944025 -24.879349 -14.468029 28.930488 1.453012 2.094506 -0.029288 0.016301 225538.000000 0 0 1
-2.704825 -23.713749 -13.439529 27.391219 1.457226 2.083633 -0.020268 0.019745 223798.000000 0 0 1
-1.503625 -23.809049 -12.675429 27.014777 1.507727 2.059185 -0.014858 0.018659 -66263.800000 0 0 1
-1.238025 -22.643049 -11.943029 25.629598 1.516175 2.055545 -0.008336 0.018812 574399.000000 0 0 1
-0.021825 -22.793449 -10.969229 25.295568 1.569839 2.019327 -0.001648 0.015031 579795.000000 0 0 1
0.371275 -21.548149 -10.504629 23.975149 -1.553568 2.024332 0.000734 0.016054 254575.000000 0 1 0
1.654975 -21.620149 -9.873629 23.825581 -1.494398 1.998094 0.006053 0.012958 753767.000000 0 1 0
2.129775 -20.199049 -9.364229 22.365739 -1.465745 2.002795 0.009623 0.014544 -503234.000000 0 1 0
2.681275 -19.477249 -10.480129 22.279711 -1.433994 2.060528 0.010332 0.019904 331562.000000 0 1 0
3.396175 -18.277849 -10.115729 21.164634 -1.387083 2.069121 0.007719 0.009829 -411193.000000 0 1 0
4.821475 -18.447049 -9.628229 21.359846 -1.315147 2.038416 0.018927 -0.005405 -963242.000000 0 1 0
4.933075 -19.109349 -8.372429 21.438283 -1.318162 1.972010 0.024684 -0.001438 -7214.660000 0 1 0
5.760775 -20.254449 -8.515129 22.714238 -1.293693 1.955064 0.025850 0.016456 -487870.000000 0 1 0
5.461175 -21.340049 -7.415829 23.242560 -1.320261 1.895536 0.030987 0.007654 -7962.610000 0 1 0
4.472075 -22.281649 -7.800129 24.027345 -1.372721 1.901423 0.021013 0.005185 184998.000000 0 1 0
4.374875 -23.242349 -6.756229 24.596604 -1.384745 1.849055 0.026861 -0.005185 270307.000000 0 1 0
3.306975 -24.351049 -6.994129 25.550489 -1.435818 1.848073 0.020238 -0.002037 307522.000000 0 0 1
3.632875 -25.097029 -8.150829 26.636340 -1.427042 1.881789 0.019796 0.002515 321205.000000 0 0 1
2.511275 -25.716829 -8.778529 27.289638 -1.473454 1.898300 0.005638 0.007943 452218.000000 0 0 1
2.921175 -26.245659 -10.148129 28.290500 -1.459951 1.937684 0.008383 0.007635 223914.000000 0 0 1
3.683875 -27.436469 -9.997029 29.432488 -1.437325 1.917351 0.003643 -0.001539 54220.300000 0 0 1
3.972275 -27.947809 -11.276829 30.397793 -1.429610 1.950855 0.014957 -0.003850 124722.000000 0 0 1
4.387075 -29.455259 -11.347729 31.868945 -1.422943 1.934860 0.017459 -0.002067 368323.000000 0 0 1
3.255475 -30.332289 -11.262929 32.519216 -1.463879 1.924470 0.007486 -0.001480 451044.000000 0 0 1
3.556175 -31.678299 -11.166529 33.776506 -1.459005 1.907736 0.003525 -0.004790 -244278.000000 0 0 1
2.375275 -32.545919 -11.626429 34.641775 -1.497943 1.913058 -0.003489 -0.008545 -135779.000000 0 0 1
2.114875 -32.430099 -12.986629 34.997664 -1.505675 1.950959 -0.006940 -0.005076 1214120.000000 0 0 1
1.124775 -33.498779 -13.268629 36.048437 -1.537232 1.947737 -0.011728 -0.007046 599879.000000 0 0 1
0.586875 -33.400959 -14.688929 36.492918 -1.553228 1.985058 -0.017956 -0.000377 -172289.000000 0 0 1
-0.228425 -32.285259 -15.068229 35.629224 1.563721 2.007459 -0.015348 -0.004523 194384.000000 0 0 1
-0.463125 -32.472969 -16.474029 36.415681 1.556535 2.040238 -0.023822 -0.006880 16598.200000 0 0 1
-1.710625 -31.712539 -17.000129 36.022434 1.516907 2.062277 -0.025574 -0.005373 438398.000000 0 0 1
-2.928625 -32.135889 -16.431629 36.211747 1.479915 2.041782 -0.022672 -0.010851 -1012400.000000 0 0 1
-4.044625 -31.706189 -17.103529 36.251511 1.443916 2.062130 -0.018484 -0.006896 -68701.600000 0 0 1
-5.344825 -31.811469 -16.247329 36.118034 1.404335 2.037382 -0.009776 -0.018560 11941.300000 0 0 1
-5.484625 -30.864089 -15.211829 34.843548 1.394930 2.022585 -0.019118 -0.017974 -684523.000000 0 0 1
-6.795125 -30.710469 -14.770129 34.748573 1.353041 2.009821 -0.004647 -0.012393 -641148.000000 0 0 1
-7.417425 -31.730219 -13.818729 35.394664 1.341155 1.971882 0.005917 -0.026412 -221888.000000 0 0 1
-7.714025 -32.962269 -14.470729 36.816020 1.340908 1.974748 0.005093 -0.027158 -169986.000000 0 0 1
-8.108225 -33.948399 -13.504229 37.424608 1.336349 1.939963 0.019585 -0.027124 146501.000000 0 0 1
-8.729825 34.320378 -14.114929 38.122558 -1.321716 1.950076 0.022583 -0.024979 91677.300000 0 0 1
-7.709425 33.472170 -14.653329 37.343560 -1.344421 1.974027 0.005367 -0.020107 399800.000000 0 0 1
-8.235425 32.303950 -15.209729 36.642916 -1.321178 1.998827 0.007881 -0.015586 -245413.000000 0 0 1
-7.000925 -22.157249 -3.543729 23.505630 1.264757 1.722134 -0.006329 0.021465 173254.000000 0 1 0
-6.601125 -20.937249 -4.126729 22.337706 1.265380 1.756606 -0.017548 0.011112 787917.000000 0 1 0
-5.528525 -21.160449 -5.089629 22.455144 1.315242 1.799441 -0.024425 0.017734 538700.000000 0 1 0
-5.509425 -20.169149 -6.210129 21.810869 1.304141 1.859517 -0.030810 0.015440 292926.000000 0 1 0
-6.511025 -20.390449 -7.222229 22.590361 1.261713 1.896213 -0.020990 0.011486 141572.000000 0 1 0
-6.752525 -19.224849 -7.983229 21.884317 1.233018 1.944206 -0.017315 0.000282 -101516.000000 0 1 0
-7.681725 -19.379949 -9.192629 22.783672 1.193419 1.986107 -0.010135 -0.004683 -103036.000000 0 1 0
-7.153925 -20.227049 -10.139629 23.730238 1.230846 2.012287 -0.007054 0.003855 -77858.200000 0 1 0
-8.106625 -20.562149 -11.155829 24.758268 1.195257 2.038222 0.009229 0.008133 335155.000000 0 1 0
-7.476825 -21.427849 -12.273729 25.801163 1.235075 2.066561 0.004910 0.009685 555676.000000 0 0 1
-6.617725 -20.669449 -13.155829 25.379051 1.260940 2.115744 0.005434 0.006609 98252.600000 0 0 1
-6.232425 -21.455049 -14.235029 26.491476 1.288089 2.138081 0.005364 0.008772 464381.000000 0 0 1
-5.060325 -20.869549 -15.104129 26.254136 1.332913 2.183773 -0.000350 0.015507 -448682.000000 0 0 1
-3.768325 -21.032949 -14.574329 25.864962 1.393514 2.169386 -0.001078 0.019827 39255.400000 0 0 1
-2.796925 -20.406749 -15.436329 25.739822 1.434586 2.213930 0.002611 0.022743 149519.000000 0 0 1
-2.799125 -18.845949 -15.536529 24.584316 1.423348 2.254888 0.016311 0.021852 -1026470.000000 0 1 0
-3.902525 -18.374449 -16.275429 24.854369 1.361517 2.284756 0.009089 0.018192 -357913.000000 0 1 0
-3.790825 -18.435349 -17.669029 25.815248 1.367995 2.324634 0.011786 0.013712 -608513.000000 0 0 1
-5.128325 -18.089049 -18.319429 26.250997 1.294541 2.343197 0.015853 0.013761 -209807.000000 0 0 1
-6.138325 -18.958549 -17.841829 26.747644 1.257672 2.301029 0.014474 0.016721 -488185.000000 0 0 1
-7.281125 -18.835149 -18.664129 27.497769 1.201920 2.316856 0.011581 0.011174 -218424.000000 0 0 1
-8.318725 -19.891549 -18.236929 28.239342 1.174696 2.272865 0.016892 0.018873 -169831.000000 0 0 1
-7.828625 -21.225949 -18.307929 29.103411 1.217452 2.251146 0.013784 0.018840 232230.000000 0 0 1
-8.741525 -22.143349 -17.759529 29.700892 1.194807 2.211732 0.027428 0.012608 32374.200000 0 0 1
-8.190725 -23.575549 -17.853429 30.686143 1.236418 2.191746 0.021886 0.008540 -474024.000000 0 0 1
-8.109225 -23.990549 -19.179929 31.767525 1.244836 2.219005 0.010792 0.003091 712330.000000 0 0 1
-7.261325 -25.154949 -19.411229 32.592853 1.289772 2.208768 -0.001276 0.001752 628736.000000 0 0 1
-5.730525 -24.881549 -19.411229 32.073762 1.344431 2.220821 -0.004969 0.007025 -388624.000000 0 0 1
-5.294725 -24.044449 -20.454529 32.008708 1.354050 2.264033 -0.011267 0.011111 10718.600000 0 0 1
-5.229825 -22.675149 -20.126229 30.766516 1.344119 2.283868 0.006485 0.012161 -182291.000000 0 0 1
-4.167825 -22.277149 -19.044829 29.603169 1.385845 2.269646 0.004544 0.024180 831994.000000 0 0 1
-2.853025 -22.696649 -19.444329 30.022650 1.445750 2.275299 -0.008614 0.017333 193645.000000 0 0 1
-1.878225 -22.314249 -18.537129 29.070235 1.486823 2.262262 -0.013361 0.019010 367113.000000 0 0 1
-0.456825 -22.940849 -18.687729 29.592608 1.550886 2.254282 -0.011236 0.014476 427887.000000 0 0 1
0.280575 -22.479649 -19.739429 29.917526 -1.558316 2.291342 -0.002828 0.008319 -760828.000000 0 0 1
1.566875 -23.014349 -19.862429 30.440621 -1.502819 2.281672 -0.002957 0.004673 320494.000000 0 0 1
2.537875 -22.326849 -20.886629 30.678661 -1.457613 2.319677 0.014609 0.005130 409098.000000 0 0 1
2.135475 -22.524049 -22.274829 31.749977 -1.476270 2.348395 0.012091 -0.007715 66353.700000 0 0 1
1.173275 -21.609349 -22.732429 31.386364 -1.516555 2.380782 0.008380 -0.002503 -486489.000000 0 0 1
0.929375 -21.741949 -24.275829 32.602023 -1.528077 2.410748 0.013741 -0.001528 -19692.800000 0 0 1
0.279675 -20.736349 -25.019129 32.496633 -1.557310 2.449479 0.010621 -0.003325 122008.000000 0 0 1
-1.063425 -20.449849 -24.671229 32.062388 1.518841 2.448816 0.008252 0.002456 104069.000000 0 0 1
-1.706725 -19.272549 -25.493979 32.004484 1.482469 2.492405 0.003052 0.005637 -118772.000000 0 0 1
-1.234325 -18.028949 -25.179009 30.992725 1.502439 2.519081 0.017684 -0.001642 -344262.000000 0 0 1
-1.709425 -16.987349 -25.972239 31.081334 1.470505 2.560060 -0.000520 -0.000574 -500696.000000 0 0 1
-1.197425 -15.567049 -25.716099 30.084623 1.494027 2.595946 0.005567 -0.002378 -174103.000000 0 0 1
0.151175 -15.334049 -26.045269 30.224360 -1.560938 2.609468 0.008433 -0.002125 -447387.000000 0 0 1
0.677975 -14.096149 -25.575389 29.210641 -1.522737 2.637370 0.007858 0.001193 429764.000000 0 0 1
0.177075 -12.781749 -26.251109 29.198034 -1.556944 2.688440 -0.001233 0.007179 -116554.000000 0 0 1
0.899875 -11.679349 -25.791759 28.327227 -1.493900 2.715272 0.002917 0.008869 -62333.600000 0 0 1
0.576575 -10.493049 -26.533969 28.539236 -1.515903 2.764493 -0.003238 0.006995 -1250430.000000 0 0 1
1.456775 -9.287249 -26.235829 27.869228 -1.415207 2.797526 0.004762 0.004751 1554820.000000 0 0 1
2.871675 -9.318149 -26.598459 28.329356 -1.271851 2.790219 0.002381 0.009923 1349650.000000 0 0 1
3.190475 -9.783349 -27.896999 29.734417 -1.255558 2.788205 -0.005887 0.014102 -1336750.000000 0 0 1
4.598075 -9.470349 -28.410619 30.298400 -1.118797 2.786728 -0.013224 0.020815 -428696.000000 0 0 1
4.780975 -8.064449 -28.608249 30.105231 -1.035654 2.824914 -0.020257 0.012301 1282010.000000 0 0 1
6.108575 -7.660549 -29.054159 30.661749 -0.897639 2.816341 -0.024696 0.008942 1192530.000000 0 0 1
7.344675 -7.683749 -28.126619 30.068105 -0.807957 2.780271 -0.011331 0.004869 181803.000000 0 0 1
7.907675 -8.987749 -27.762449 30.233500 -0.849238 2.734480 -0.004963 0.002919 674917.000000 0 0 1
8.480775 -9.820249 -28.784769 31.574099 -0.858459 2.718096 -0.001313 -0.003997 -249727.000000 0 0 1
8.962275 -11.206849 -28.389929 31.810437 -0.896230 2.673592 0.004267 -0.008469 -340228.000000 0 0 1
7.891775 -12.020249 -28.027429 31.500845 -0.989837 2.667562 0.005223 -0.000507 -279931.000000 0 0 1
8.235475 -13.286849 -27.479769 31.614887 -1.015930 2.624385 0.005115 0.002658 -43804.100000 0 0 1
8.966375 -14.277749 -28.393809 33.022089 -1.010045 2.605758 0.008277 -0.009253 587727.000000 0 0 1
8.026775 -14.951749 -29.222199 33.792319 -1.078109 2.615466 0.010344 -0.012688 -76847.900000 0 0 1
8.782975 -15.755849 -30.092779 35.085079 -1.062257 2.601593 0.010571 -0.014572 140700.000000 0 0 1
7.943375 -16.253949 -31.276829 36.132092 -1.116226 2.617193 0.003640 -0.019527 -226918.000000 0 0 1
7.433775 -15.232649 -32.122409 36.320018 -1.116782 2.656061 0.000890 -0.021325 127300.000000 0 0 1
6.914975 -15.861749 -33.284119 37.513258 -1.159685 2.662173 0.013001 -0.016564 -376659.000000 0 0 1
5.985375 -14.926849 -34.107435 37.708787 -1.189445 2.700992 0.012048 -0.011673 77983.600000 0 0 1
6.634875 -13.835749 34.599304 37.849192 -1.123646 0.417425 0.009778 -0.007392 -3968.220000 0 0 1
5.678275 -12.939549 34.041721 36.858018 -1.157269 0.393453 -0.002937 0.000605 -191656.000000 0 0 1
6.148075 -11.882149 33.132834 35.731904 -1.093309 0.383764 0.009863 0.000414 -395011.000000 0 0 1
6.468175 -12.388749 31.860964 34.791370 -1.089625 0.413371 0.013974 -0.003598 166468.000000 0 0 1
7.018675 -11.338449 31.057654 33.799409 -1.016512 0.405560 0.008559 0.002490 -112062.000000 0 0 1
7.501875 -11.848649 29.678414 32.824942 -1.006364 0.441429 -0.003650 0.010768 -325128.000000 0 0 1
6.557975 -12.505749 28.899544 32.164956 -1.087822 0.454503 0.009110 0.004497 -432560.000000 0 0 1
7.030175 -12.469249 27.605094 31.095767 -1.057419 0.478374 0.007412 0.010638 -522603.000000 0 0 1
6.143375 -13.158249 26.583594 30.291385 -1.133991 0.499972 0.009146 0.000242 -536048.000000 0 0 1
6.324675 -14.568449 26.567204 30.952504 -1.161214 0.538807 0.012825 0.002896 392542.000000 0 0 1
5.661875 -15.159549 25.403614 30.119966 -1.213354 0.567189 0.008889 0.001027 1507850.000000 0 0 1
4.103975 -15.381449 25.560784 30.112875 -1.310057 0.557024 0.002851 -0.002473 528174.000000 0 0 1
3.345075 -14.238549 25.594254 29.478664 -1.340050 0.519173 -0.005906 -0.003492 -443130.000000 0 0 1
1.990075 -14.531249 25.309924 29.252518 -1.434692 0.525203 -0.005254 -0.002020 441374.000000 0 0 1
0.996775 -13.356949 25.080984 28.433385 -1.496308 0.490502 -0.003638 0.000560 -70031.200000 0 0 1
1.212775 -12.591749 23.888384 27.031053 -1.474777 0.487005 -0.001344 0.003886 -430437.000000 0 0 1
0.342175 -11.529049 23.588784 26.257699 -1.541126 0.454782 0.005143 0.008884 776817.000000 0 0 1
-1.072325 -11.937049 23.034784 25.966214 1.481205 0.479759 -0.006489 0.015293 234758.000000 0 0 1
-0.989625 -12.739149 21.828084 25.292894 1.493268 0.529594 0.003053 0.009444 -475048.000000 0 0 1
-2.224225 -13.025049 21.219384 24.997226 1.401663 0.556953 0.013358 0.000687 -17577.900000 0 1 0
-2.102625 -13.937549 19.971984 24.444967 1.421065 0.614576 0.011388 0.004402 -274948.000000 0 1 0
-2.210925 -15.330949 20.236984 25.484538 1.427571 0.653290 0.003618 0.003504 -79487.300000 0 0 1
-1.858825 -16.126649 19.120584 25.082280 1.456039 0.703915 0.008936 0.014091 107811.000000 0 0 1
-2.558125 -17.497049 19.098584 26.027805 1.425622 0.746933 0.001629 0.008864 72194.300000 0 0 1
-2.121325 -18.273949 17.996984 25.735746 1.455229 0.796380 -0.009762 0.008978 -319941.000000 0 0 1
-2.874425 -19.442849 17.847884 26.548703 1.424020 0.833526 -0.001246 0.002566 272137.000000 0 0 1
-2.116025 -20.534349 16.936984 26.702031 1.468111 0.883699 -0.006756 0.004917 661915.000000 0 0 1
-1.050725 -21.153249 17.642484 27.564854 1.521165 0.876252 -0.011350 -0.002397 -185640.000000 0 0 1
-1.378325 -22.431549 18.126984 28.873200 1.509428 0.892055 -0.006867 -0.005579 149050.000000 0 0 1
-0.172725 -23.360949 18.472384 29.782423 1.563403 0.901742 -0.009557 -0.004862 434820.000000 0 0 1
0.602575 -23.772149 17.369984 29.448166 -1.545454 0.939924 0.017418 -0.008934 137457.000000 0 0 1
1.803475 -24.449049 17.811784 30.302939 -1.497165 0.942471 -0.002419 -0.000875 797890.000000 0 0 1
2.964175 -23.964149 16.904784 29.476066 -1.447729 0.960014 -0.002467 -0.016569 -175439.000000 0 0 1
3.286375 -22.640349 17.198684 28.621327 -1.426647 0.926164 -0.014410 -0.002124 458965.000000 0 0 1
4.405075 -22.148949 16.414884 27.918256 -1.374474 0.942259 -0.018183 -0.011374 638625.000000 0 0 1
4.813275 -20.736649 16.843684 27.145642 -1.342721 0.901425 -0.007267 -0.004934 -422358.000000 0 0 1
5.495975 -20.762649 18.100884 28.087992 -1.312026 0.870512 -0.009124 0.000616 405430.000000 0 0 1
6.179375 -19.570149 18.576884 27.681691 -1.264949 0.835119 0.005692 0.006818 859623.000000 0 0 1
7.321175 -19.003249 17.682684 26.970361 -1.203062 0.855774 0.010258 -0.001953 -457841.000000 0 0 1
6.837775 -18.314949 16.591084 25.640916 -1.213478 0.867081 0.007285 -0.002041 131688.000000 0 0 1
7.882775 -17.705749 15.838684 25.029894 -1.151933 0.885644 0.017654 0.001491 284956.000000 0 0 1
7.312775 -16.755349 14.770984 23.503199 -1.159272 0.891216 0.021514 0.002665 5669.480000 0 1 0
6.669575 -17.398949 13.711784 23.134815 -1.204741 0.936401 0.018179 -0.000998 -101286.000000 0 1 0
6.222775 -16.406949 12.818984 21.731020 -1.208281 0.939870 0.022996 -0.009469 37809.100000 0 1 0
6.614175 -16.693649 11.320684 21.226943 -1.193562 1.008280 0.029310 -0.001242 739164.000000 0 1 0
8.010975 -16.479649 11.110084 21.428684 -1.118320 1.025738 0.025562 0.004297 218122.000000 0 1 0
8.342375 -16.402049 9.739284 20.820088 -1.100278 1.084016 0.016751 -0.002862 148128.000000 0 1 0
9.867675 -16.262149 9.585084 21.300289 -1.025401 1.104033 0.013252 0.003423 -198951.000000 0 1 0
10.239675 -15.833649 8.316384 20.608678 -0.996742 1.155416 0.006975 -0.015132 -58525.400000 0 1 0
11.649075 -15.810449 8.133484 21.256170 -0.935799 1.178143 0.009808 -0.013260 502789.000000 0 1 0
12.311175 -17.125849 7.577684 22.411626 -0.947521 1.225884 -0.002800 -0.002078 -191721.000000 0 1 0
12.228775 -18.304849 8.388584 23.557987 -0.981828 1.206724 -0.019839 0.001385 117489.000000 0 1 0
12.957675 -19.296549 7.695984 24.484409 -0.979454 1.251054 -0.011244 0.001923 37616.300000 0 1 0
13.438275 -20.479549 8.609184 25.963767 -0.990089 1.232814 -0.004053 0.001884 120539.000000 0 0 1
12.395575 -21.368449 8.930684 26.268193 -1.045147 1.223900 0.003524 0.007094 166479.000000 0 0 1
12.993675 -22.505849 9.498884 27.669073 -1.047200 1.220365 0.003646 0.004774 56976.700000 0 0 1
11.900075 -23.383149 10.088784 28.109909 -1.100041 1.203702 0.014413 -0.002030 16394.900000 0 0 1
11.641675 -22.914549 11.427084 28.127982 -1.100732 1.152446 0.014588 -0.003006 -671118.000000 0 0 1
10.657475 -23.622049 12.127584 28.612257 -1.146973 1.133094 0.018948 0.003961 -433426.000000 0 0 1
10.807475 -25.084219 12.617684 30.086965 -1.163983 1.138041 0.026537 -0.005692 -646186.000000 0 0 1
11.985075 -25.255169 13.355284 30.981110 -1.127708 1.125109 0.022207 -0.005965 -176985.000000 0 0 1
11.919475 -26.539389 13.982784 32.278960 -1.148671 1.122772 0.024647 -0.016374 499455.000000 0 0 1
13.225575 -26.742829 14.829484 33.316787 -1.111521 1.109504 0.035218 -0.016979 417864.000000 0 0 1
13.316175 -26.051609 16.069184 33.380016 -1.098272 1.068544 0.035326 -0.013892 39498.700000 0 0 1
14.298275 -26.617599 16.907184 34.623548 -1.077854 1.060639 0.044751 -0.012625 -256908.000000 0 0 1
14.082075 -26.348479 18.413484 35.094209 -1.079966 1.018449 0.044597 -0.014573 -65315.400000 0 0 1
14.475375 -25.047349 18.769884 34.484992 -1.046770 0.995252 0.020563 -0.005276 -410934.000000 0 0 1
15.748175 -24.876949 19.314584 35.212508 -1.006434 0.990209 0.017429 -0.005648 -535939.000000 0 0 1
15.927175 -23.444949 19.855484 34.606080 -0.974069 0.959711 -0.002169 0.002092 -100577.000000 0 0 1
15.973775 -22.440749 18.870084 33.389051 -0.952181 0.970172 -0.011415 0.004178 -35097.200000 0 0 1
14.772275 -21.717849 18.802284 32.301872 -0.973489 0.949512 0.006133 0.003611 -737075.000000 0 0 1
14.829875 -20.600249 17.746584 30.971546 -0.946847 0.960639 -0.004371 0.005830 112319.000000 0 0 1
15.714875 -19.499249 17.971584 30.824597 -0.892455 0.948346 -0.016291 0.008339 120972.000000 0 0 1
17.051875 -19.798949 17.627884 31.519947 -0.859806 0.977302 -0.024830 0.010280 -786760.000000 0 0 1
17.887875 -18.568149 17.836184 31.350943 -0.804056 0.965604 -0.013125 0.017689 -776097.000000 0 0 1
18.257875 -18.244049 19.184384 32.159538 -0.785019 0.931616 -0.017279 0.018085 212918.000000 0 0 1
18.688575 -16.904149 19.344384 31.768196 -0.735306 0.916094 -0.007722 0.012221 -186993.000000 0 0 1
19.338575 -16.520549 20.730984 32.812843 -0.706973 0.886930 -0.002714 0.015437 614156.000000 0 0 1
20.475975 -17.352649 21.004784 34.081973 -0.703020 0.906758 0.002687 0.013081 202209.000000 0 0 1
20.921475 -17.108549 22.292284 35.033647 -0.685471 0.881090 0.002478 0.015464 -36772.200000 0 0 1
32.801980 -1.131349 -8.084429 33.802483 -0.034477 1.812304 0.020401 0.006998 -791873.000000 0 0 1
33.922921 -1.308049 -8.886129 35.091863 -0.038540 1.826809 -0.003709 0.010310 -613668.000000 0 0 1
34.787886 -2.279349 -8.389629 35.857751 -0.065428 1.806955 -0.007827 0.008897 459253.000000 0 0 1
-33.523605 -2.406449 -9.180229 34.841064 0.071661 1.837433 -0.012479 0.007590 316986.000000 0 0 1
-32.568455 -3.007849 -8.386529 33.765149 0.092093 1.821802 -0.002631 0.006695 -309371.000000 0 0 1
-31.365395 -3.330649 -9.061429 32.817537 0.105792 1.850546 0.011038 -0.002818 41429.400000 0 0 1
-30.471935 -4.289249 -8.250329 31.859134 0.139842 1.832744 0.020462 -0.002948 -155338.000000 0 0 1
-30.000575 -3.679749 -7.043729 31.035289 0.122046 1.799750 0.019733 -0.001265 639970.000000 0 0 1
-29.135775 -4.572949 -6.320229 30.162071 0.155683 1.781903 0.023147 -0.009005 261815.000000 0 0 1
-29.035355 -4.256349 -4.822929 29.739351 0.145555 1.733689 0.024969 -0.010745 -286067.000000 0 0 1
-28.446125 -2.971649 -4.762329 28.994698 0.104088 1.735792 0.018244 -0.007179 345613.000000 0 0 1
-28.832315 -2.265549 -3.579729 29.141887 0.078416 1.693945 0.014020 -0.008931 -549403.000000 0 0 1
-28.199295 -0.924049 -3.309529 28.407870 0.032757 1.687562 0.034338 -0.002676 -1055110.000000 0 0 1
-26.837505 -0.944149 -3.009829 27.022253 0.035166 1.682411 0.019867 0.007638 -239390.000000 0 0 1
-26.478295 0.390151 -2.735329 26.622065 -0.014734 1.673725 0.024999 0.004497 -619687.000000 0 0 1
-25.063725 0.424951 -2.159029 25.160133 -0.016953 1.656713 0.008624 0.008131 -672037.000000 0 0 1
-24.915525 -0.266849 -0.927229 24.934201 0.010710 1.607992 0.013063 0.005541 627288.000000 0 1 0
-23.595925 -0.296049 -0.398629 23.601149 0.012546 1.587687 -0.001119 0.002622 2936.200000 0 1 0
-23.511025 -1.289049 0.783271 23.559361 0.054773 1.537543 -0.003366 0.002899 -252809.000000 0 1 0
-23.625325 -2.588049 0.242771 23.767897 0.109110 1.560582 0.004195 0.003610 362807.000000 0 1 0
-22.874325 -3.453449 1.048471 23.157296 0.149843 1.525505 0.005301 0.000755 -319454.000000 0 1 0
-23.197825 -4.946849 0.838971 23.734243 0.210099 1.535440 0.008489 0.001650 58489.500000 0 1 0
-24.375725 -5.351649 1.547171 25.004197 0.216119 1.508880 0.011922 0.006706 735392.000000 0 0 1
-24.528525 -6.748249 1.441871 25.480707 0.268476 1.514179 0.015376 0.003994 465659.000000 0 0 1
-25.808245 -7.263449 2.178871 26.899269 0.274343 1.489706 0.010181 0.005459 409085.000000 0 0 1
-25.514505 -7.458349 3.541471 26.817139 0.284394 1.438349 0.009520 0.006812 130052.000000 0 0 1
-26.656475 -7.800249 4.299271 28.105076 0.284674 1.417222 0.009800 0.011445 -148283.000000 0 0 1
-26.492515 -7.713049 5.825571 28.200741 0.283309 1.362723 0.013168 0.015569 -609933.000000 0 0 1
-25.739225 -8.780449 6.273171 27.909795 0.328752 1.344094 0.018743 0.031493 -255859.000000 0 0 1
-25.683945 -9.014849 7.700371 28.288306 0.337558 1.295107 0.014444 0.017478 -198700.000000 0 0 1
-24.915025 -7.952149 8.450871 27.484766 0.308951 1.258258 0.024821 0.008418 40916.700000 0 0 1
-23.505225 -7.935149 8.221571 26.135348 0.325577 1.250786 0.026061 0.009807 504108.000000 0 0 1
-23.007025 -6.620649 8.382971 25.365930 0.280196 1.233983 0.023039 -0.001958 45360.800000 0 0 1
-21.584625 -6.524949 7.776771 23.852656 0.293562 1.238691 0.007170 0.002634 99472.500000 0 1 0
-20.597925 -7.071449 8.601171 23.414954 0.330701 1.194652 0.010917 -0.000460 -102459.000000 0 1 0
-19.284725 -6.957849 8.087471 22.039044 0.346260 1.195056 0.004980 -0.003993 342400.000000 0 1 0
-18.215525 -7.183849 9.199671 21.634394 0.375653 1.131576 -0.007612 0.007023 82141.700000 0 1 0
-18.223425 -6.134649 10.144671 21.740320 0.324719 1.085320 -0.002228 0.007558 562838.000000 0 1 0
-17.187625 -6.259449 11.127371 21.410594 0.349254 1.024281 -0.013314 0.009716 -53393.900000 0 1 0
-17.083425 -4.952149 11.957171 21.432245 0.282147 0.978936 -0.016230 0.007551 -227631.000000 0 1 0
-18.172825 -4.746549 12.833271 22.748058 0.255482 0.971395 -0.008165 0.009371 309157.000000 0 1 0
-18.268225 -3.364149 13.156571 22.762709 0.182113 0.954535 -0.001825 0.009947 487833.000000 0 1 0
-19.434825 -3.139349 14.179271 24.261486 0.160149 0.946612 0.001562 0.007485 321260.000000 0 1 0
-19.177125 -3.658149 15.480571 24.915703 0.188491 0.900373 -0.000606 0.014344 -146302.000000 0 1 0
-20.335225 -3.596049 16.246971 26.275788 0.175029 0.904187 0.008606 0.012283 -465552.000000 0 0 1
-20.300125 -4.742849 17.315071 27.099841 0.229519 0.877682 0.000871 0.026121 248345.000000 0 0 1
-21.353125 -4.810049 18.285971 28.521383 0.221564 0.874824 0.002316 0.019445 535960.000000 0 0 1
-21.064025 -5.773949 19.260071 29.120130 0.267543 0.848112 -0.003183 0.015184 504.604000 0 0 1
-21.971325 -5.544049 20.510571 30.564017 0.247171 0.835146 -0.005535 0.020124 -117493.000000 0 0 1
-21.750925 -4.198949 20.973871 30.506347 0.190701 0.812721 0.001608 0.017259 386322.000000 0 0 1
-22.482425 -3.991349 22.158171 31.817839 0.175701 0.800417 0.005494 0.002639 -210809.000000 0 0 1
-22.321325 -2.564349 22.728571 31.959434 0.114382 0.779636 0.005584 0.006559 275474.000000 0 0 1
-22.939625 -1.535249 21.918571 31.764873 0.066826 0.809272 0.015707 0.004132 196818.000000 0 0 1
-22.696125 -0.320949 22.533971 31.984324 0.014140 0.789033 0.011240 -0.004109 -123966.000000 0 0 1
-23.834925 0.690351 22.262271 32.621909 -0.028956 0.819710 0.005640 -0.003086 -98279.300000 0 0 1
-25.057025 0.287951 22.857171 33.917366 -0.011491 0.831311 0.002990 -0.001114 -126734.000000 0 0 1
-25.999155 1.235551 22.377371 34.325346 -0.047487 0.860683 0.000045 -0.001887 -206861.000000 0 0 1
-27.112535 1.588651 23.371671 35.830830 -0.058528 0.860210 0.000256 -0.004781 -256675.000000 0 0 1
-26.684715 2.212151 24.586671 36.352057 -0.082710 0.828002 -0.000997 0.000651 35327.500000 0 0 1
-27.760535 2.212451 25.464471 37.735680 -0.079530 0.830087 -0.000381 -0.002296 -478913.000000 0 0 1
-27.314925 3.022751 26.677971 38.300866 -0.110215 0.800237 0.001277 0.003564 -212780.000000 0 0 1
-26.303735 2.427451 27.437071 38.086374 -0.092025 0.766431 -0.009089 0.005336 18013.500000 0 0 1
-25.997115 3.275351 28.540371 38.744428 -0.125329 0.742720 -0.010559 0.004513 -574557.000000 0 0 1
-24.890525 2.791951 29.473871 38.678706 -0.111702 0.704373 -0.013059 0.010295 -418833.000000 0 0 1
-25.254305 1.929551 30.518371 39.659477 -0.076257 0.692723 -0.012304 0.010694 229574.000000 0 0 1
-24.126125 1.638351 31.320771 39.569494 -0.067804 0.657474 -0.009668 0.003997 -130370.000000 0 0 1
-24.421825 0.536951 32.322571 40.514966 -0.021983 0.647170 -0.007920 -0.000887 51763.200000 0 0 1
-24.576225 -0.719449 31.646071 40.074709 0.029266 0.660514 -0.011026 0.001575 -17969.900000 0 0 1
-25.030425 -1.674249 32.596071 41.131851 0.066789 0.655936 -0.011956 -0.004054 -492954.000000 0 0 1
-25.617155 -2.982349 31.940271 41.052576 0.115898 0.679267 -0.009555 -0.004731 1274050.000000 0 0 1
-26.961355 -2.820549 31.400971 41.483625 0.104235 0.712165 -0.005683 0.002785 1262010.000000 0 0 1
-27.025715 -2.098049 30.216971 40.593798 0.077476 0.731199 -0.008788 0.003749 -1424580.000000 0 0 1
-28.430715 -1.815849 29.720371 41.169204 0.063783 0.764241 -0.003085 -0.002093 -462390.000000 0 0 1
-29.138995 -1.059249 30.682471 42.327498 0.036336 0.759932 0.008280 0.007892 -363687.000000 0 0 1
-30.405205 -0.610549 30.255671 42.898193 0.020078 0.787964 0.009811 0.002689 295223.000000 0 0 1
-31.371595 -0.274649 31.427671 44.406654 0.008754 0.784524 0.018056 0.005035 -21427.500000 0 0 1
-31.491745 -1.425549 32.214471 45.072546 0.045236 0.774566 0.025053 0.003209 35901.900000 0 0 1
-32.198385 -1.126849 33.419571 46.420616 0.034983 0.767096 0.034341 0.000091 -17016.000000 0 0 1
-32.261545 -2.408449 34.287871 47.140917 0.074516 0.756346 0.035554 0.002041 30854.800000 0 0 1
-33.190145 -3.375049 33.832971 47.514699 0.101340 0.778379 0.031717 0.001325 75033.900000 0 0 1
-33.076305 -4.599449 34.522271 48.031074 0.138170 0.768795 0.022358 0.004519 -371498.000000 0 0 1
-34.293424 -5.427949 34.157071 48.705309 0.156977 0.793576 0.014914 0.008438 37171.300000 0 0 1
34.176715 -5.091949 -34.450141 48.793320 -0.147901 2.354690 0.010890 0.004253 423706.000000 0 0 1
33.069200 -5.504949 34.046671 47.781296 -0.164955 0.777667 -0.001265 0.001641 -363053.000000 0 0 1
31.740920 -4.980549 34.625471 47.235740 -0.155643 0.748022 0.003386 0.003270 -434897.000000 0 0 1
31.394800 -5.641649 -33.478741 46.241624 -0.177802 2.380374 -0.004143 0.005041 -37476.400000 0 0 1
31.014980 -7.008449 -33.566741 46.236062 -0.222237 2.383264 -0.006199 0.006151 -841472.000000 0 0 1
29.664740 -7.333249 -34.228341 45.884122 -0.242346 2.412792 -0.011815 0.002933 -711079.000000 0 0 1
28.572000 -7.161049 -33.387341 44.523638 -0.245573 2.418675 -0.007494 -0.004564 -1225240.000000 0 0 1
27.403220 -7.648249 -33.963041 44.304857 -0.272174 2.444288 0.007698 -0.008220 -536837.000000 0 0 1
26.193230 -7.136649 -33.128241 42.831034 -0.266005 2.455084 0.011592 -0.011384 67766.500000 0 0 1
24.970750 -7.731849 -33.553141 42.533906 -0.300274 2.479742 0.008255 -0.010632 135112.000000 0 0 1
23.977720 -7.385249 -32.593741 41.131800 -0.298784 2.485566 0.010538 -0.014110 237196.000000 0 0 1
22.629320 -8.106149 -32.909941 40.753650 -0.343974 2.510755 0.010352 -0.022314 12002.600000 0 0 1
22.561720 -9.507849 -32.805241 40.934268 -0.398830 2.500450 0.016224 -0.025323 125877.000000 0 0 1
22.578620 -10.087349 -31.503341 40.050084 -0.420161 2.476077 0.026344 -0.022091 -296498.000000 0 0 1
22.404020 -11.566549 -31.509441 40.355546 -0.476580 2.466735 0.030573 -0.013839 -150463.000000 0 0 1
21.161920 -11.893649 -32.094241 40.240851 -0.512033 2.494025 0.025676 -0.014397 207712.000000 0 0 1
20.839820 -13.249949 -31.977041 40.402852 -0.566328 2.483982 0.020116 -0.006565 -623357.000000 0 0 1
19.791220 -13.732749 -32.977441 40.838614 -0.606607 2.510709 0.020608 -0.002476 243025.000000 0 0 1
18.428620 -13.366349 -32.794541 39.921864 -0.627507 2.534777 0.017751 -0.001107 340414.000000 0 0 1
18.156920 -12.056649 -33.362541 39.850918 -0.586172 2.562910 0.019941 -0.007524 -363619.000000 0 0 1
16.829520 -11.500449 -32.791741 38.610768 -0.599464 2.585435 0.018171 -0.009462 262262.000000 0 0 1
15.719620 -12.088549 -33.459541 38.894477 -0.655557 2.606585 0.020776 -0.004120 167032.000000 0 0 1
14.559220 -11.939649 -32.656941 37.696179 -0.686862 2.618583 0.024759 -0.015628 -575050.000000 0 0 1
13.217820 -12.399849 -33.136141 37.768649 -0.753479 2.641098 0.013361 -0.010534 -1479670.000000 0 0 1
12.886020 -13.788949 -33.339841 38.310960 -0.819235 2.626492 0.011139 -0.004824 -118488.000000 0 0 1
11.601320 -13.909449 -33.879941 38.417624 -0.875629 2.650643 -0.007614 -0.013953 -245758.000000 0 0 1
10.368320 -13.775849 -32.977141 37.212470 -0.925605 2.659842 -0.019940 -0.005396 -706492.000000 0 0 1
10.078120 -12.451249 -32.621441 36.342269 -0.890346 2.685130 0.002831 -0.001626 -261040.000000 0 0 1
8.937920 -12.442749 -31.785541 35.284969 -0.947878 2.692460 0.000721 -0.012640 405016.000000 0 0 1
7.839120 -11.453349 -32.288141 35.144773 -0.970590 2.735619 -0.003865 -0.006729 239770.000000 0 0 1
8.330520 -10.094249 -32.338541 34.886569 -0.880833 2.757030 0.001890 -0.001048 738457.000000 0 0 1
7.290820 -9.209749 -32.743441 34.786614 -0.901173 2.797155 0.003597 0.001902 -7001.010000 0 0 1
7.821420 -7.804649 -32.996341 34.797208 -0.784325 2.818465 0.004499 0.011739 -48762.400000 0 0 1
8.108920 -7.009249 -31.888341 33.641499 -0.712788 2.817334 -0.012015 0.009408 23920.600000 0 0 1
8.670220 -5.767149 -32.233341 33.873604 -0.586964 2.829122 -0.010508 0.004132 -54134.900000 0 0 1
8.919220 -4.834149 -31.017841 32.634766 -0.496674 2.825489 -0.013105 0.006200 171626.000000 0 0 1
7.691420 -4.414049 -30.456941 31.721713 -0.521002 2.858260 -0.016288 0.012017 204795.000000 0 0 1
7.977920 -3.382549 -29.525541 30.770870 -0.401014 2.856121 -0.014199 0.011477 658052.000000 0 0 1
6.672620 -2.754049 -28.916541 29.803943 -0.391440 2.896956 -0.017108 0.012029 -306228.000000 0 0 1
5.949020 -1.977149 -29.867141 30.517963 -0.320864 2.934701 -0.015429 0.016010 335587.000000 0 0 1
4.705220 -1.591849 -29.290641 29.708833 -0.326228 2.973608 -0.015215 0.011406 1311640.000000 0 0 1
3.541620 -2.693049 -29.168141 29.505526 -0.650124 2.990222 -0.019711 0.007574 76119.500000 0 0 1
3.733720 -3.665249 -28.153341 28.635386 -0.776144 2.957846 -0.016830 0.000709 -370262.000000 0 0 1
2.863220 -4.763349 -28.341041 28.880827 -1.029573 2.947951 0.001033 0.000330 14215.200000 0 0 1
2.997820 -5.706749 -27.149141 27.903938 -1.087105 2.908472 -0.003704 -0.003015 9781.800000 0 0 1
2.674020 -5.194749 -25.876641 26.528030 -1.095415 2.919530 0.006967 -0.009753 -366228.000000 0 0 1
3.044720 -6.060449 -24.884041 25.791760 -1.105237 2.875500 0.013321 -0.013446 -229747.000000 0 0 1
2.762820 -5.561149 -23.443941 24.252380 -1.109706 2.882667 0.015474 -0.016568 -510608.000000 0 1 0
3.721220 -4.639349 -23.084441 23.838256 -0.894776 2.889441 0.017168 -0.017164 -496519.000000 0 1 0
3.408620 -3.941949 -21.890741 22.502493 -0.857827 2.907883 0.019071 -0.017106 170141.000000 0 1 0
4.468220 -2.836349 -21.578141 22.217697 -0.565603 2.901072 0.028482 -0.018418 267120.000000 0 1 0
5.750420 -3.262649 -21.198741 22.205829 -0.516086 2.839270 0.015671 -0.020267 -541740.000000 0 1 0
6.479820 -2.165749 -20.720041 21.817393 -0.322557 2.823082 0.022912 -0.013573 438645.000000 0 1 0
7.935920 -2.598949 -20.332441 21.980481 -0.316484 2.751891 0.003881 -0.008969 -274743.000000 0 1 0
8.723320 -2.790549 -21.515841 23.384074 -0.309608 2.739149 0.006039 -0.011177 268341.000000 0 1 0
10.010220 -3.333449 -21.285441 23.756818 -0.321455 2.681411 0.007938 -0.012220 254667.000000 0 1 0
11.062620 -2.424049 -20.632141 23.535990 -0.215711 2.639591 -0.001780 -0.002978 -1216440.000000 0 1 0
10.828020 -2.183749 -19.263941 22.206175 -0.199006 2.620958 0.003128 -0.006368 310836.000000 0 1 0
11.821720 -1.381449 -18.622841 22.101396 -0.116329 2.572907 -0.002086 -0.008412 33478.600000 0 1 0
11.891020 0.125151 -18.883641 22.316002 0.010524 2.579596 -0.011787 -0.005922 -352990.000000 0 1 0
12.377320 0.546251 -20.140841 23.646351 0.044105 2.590118 -0.010244 -0.002260 214357.000000 0 1 0
12.108220 1.926151 -20.222341 23.648724 0.157756 2.596566 -0.012168 -0.005936 -128580.000000 0 1 0
12.650820 2.687151 -21.419641 25.021292 0.209299 2.598388 0.004398 -0.014942 1035920.000000 0 0 1
14.089920 2.807551 -21.562441 25.910366 0.196684 2.553848 0.005969 -0.019095 1314120.000000 0 0 1
14.408020 3.647051 -22.634341 27.077767 0.247919 2.560569 0.013609 -0.014069 -36784.800000 0 0 1
15.828520 3.484251 -23.235541 28.329710 0.216669 2.532527 0.015953 -0.014874 153496.000000 0 0 1
16.024020 2.296351 -23.974441 28.927777 0.142338 2.547700 0.019398 -0.016268 89473.300000 0 0 1
16.429320 1.116351 -23.298741 28.530688 0.067844 2.526327 0.009369 -0.015880 -355657.000000 0 0 1
9.312975 27.395551 3.162971 29.107596 1.243107 1.461917 -0.012654 0.012904 65117.300000 0 0 1
9.168775 27.663951 4.552171 29.497168 1.250756 1.415851 -0.014281 0.008661 439881.000000 0 0 1
10.237975 28.463851 5.079671 30.672627 1.225521 1.404421 -0.008621 0.012897 286044.000000 0 0 1
9.960175 29.048551 6.452471 31.379258 1.240478 1.363690 -0.015298 0.005126 6998.090000 0 0 1
9.862875 27.922351 7.291771 30.497605 1.231251 1.329364 -0.019968 0.003752 33729.800000 0 0 1
9.707375 28.368251 8.612571 31.195628 1.241095 1.291080 -0.013630 0.005277 -328820.000000 0 0 1
9.627075 27.344451 9.821771 30.608280 1.232281 1.244131 -0.015809 0.001968 1365160.000000 0 0 1
10.896675 26.689651 10.184771 30.574574 1.183178 1.231194 0.007843 0.004066 1563500.000000 0 0 1
11.488575 25.784151 9.253571 29.705865 1.151635 1.254018 0.001686 -0.000298 -20182.300000 0 0 1
12.801575 25.118951 9.760471 29.834692 1.099468 1.237508 0.006830 -0.000774 295604.000000 0 0 1
13.821875 26.117751 9.760271 31.119834 1.084052 1.251777 0.016768 -0.001426 -735285.000000 0 0 1
14.940375 25.623951 10.401671 31.432411 1.042924 1.233516 0.027416 -0.000107 -780319.000000 0 0 1
15.876975 26.719951 10.929871 32.946870 1.034653 1.232646 0.017066 0.004435 -616758.000000 0 0 1
16.618175 27.436551 9.902971 33.570775 1.026200 1.271354 0.022331 -0.005330 701319.000000 0 0 1
18.019175 27.220651 9.998371 34.141206 0.986054 1.273587 0.026871 -0.009996 -4950.090000 0 0 1
18.782775 27.876651 11.091971 35.396782 0.977884 1.252066 0.032637 -0.006144 -1261900.000000 0 0 1
19.075775 29.263551 11.111771 36.656679 0.993114 1.262820 0.029625 -0.014148 520713.000000 0 0 1
17.942675 30.078651 11.445771 36.846581 1.032936 1.254937 0.029858 -0.004115 398898.000000 0 0 1
18.212375 31.594751 11.468971 38.228997 1.047883 1.266096 0.033066 0.000604 -661322.000000 0 0 1
18.288775 32.315351 10.224171 38.513568 1.055792 1.302106 0.032069 -0.009281 39821.800000 0 0 1
17.203975 32.306351 9.314271 37.768144 1.081468 1.321608 0.041378 -0.008955 -162793.000000 0 0 1
15.962075 33.110251 9.762171 38.031258 1.121580 1.311202 0.045344 -0.008568 -357954.000000 0 0 1
16.073575 34.494951 9.945271 39.334081 1.134742 1.315181 0.036132 -0.013443 277591.000000 0 0 1
14.791275 -34.415017 10.058371 38.785900 -1.164874 1.308467 0.030504 -0.004428 334784.000000 0 0 1
14.866875 -32.944617 10.564871 37.656185 -1.146888 1.286417 0.031319 0.003961 218081.000000 0 0 1
15.653075 -32.209017 9.603071 37.076388 -1.118424 1.308802 0.033561 -0.002724 467759.000000 0 0 1
15.670675 -30.763317 9.943971 35.928182 -1.099661 1.290361 0.029607 -0.009552 -235961.000000 0 0 1
16.210275 -29.894217 8.812671 35.129765 -1.073919 1.317227 0.023509 -0.017422 -261793.000000 0 0 1
15.488675 -29.897817 7.572571 34.512640 -1.092810 1.349582 0.019579 -0.025935 153478.000000 0 0 1
16.291375 -29.508517 6.475971 34.323457 -1.066349 1.380984 0.023171 -0.014497 563.976000 0 0 1
15.657575 -29.839217 5.103771 34.082063 -1.087560 1.420481 0.024495 0.000751 -36144.400000 0 0 1
15.884975 -31.152117 4.578071 35.266777 -1.099247 1.440616 0.014837 -0.005273 -22715.400000 0 0 1
15.827575 -31.040317 3.185371 34.987998 -1.099257 1.479628 0.024727 0.003392 -187349.000000 0 0 1
15.794675 -32.396317 2.388871 36.120629 -1.117162 1.504612 0.010708 0.001547 802006.000000 0 0 1
17.056575 -33.099417 2.525571 37.321263 -1.094973 1.503073 0.017412 0.007029 904120.000000 0 0 1
17.074375 -34.311217 1.722271 38.363526 -1.109045 1.525888 0.016793 0.008490 -237629.000000 0 0 1
18.501575 34.650551 1.475871 39.308360 1.080361 1.533242 0.016540 0.004773 266679.000000 0 0 1
19.127475 34.123451 2.656971 39.208797 1.059899 1.502980 0.018733 -0.014790 151067.000000 0 0 1
20.460575 33.741751 2.406371 39.533929 1.025693 1.509890 0.008230 -0.013204 -179484.000000 0 0 1
21.160975 33.075451 3.609971 39.431006 1.001640 1.479116 0.005237 -0.025444 -688949.000000 0 0 1
20.476475 32.000651 4.225271 38.225392 1.001571 1.460034 0.011944 -0.020174 396259.000000 0 0 1
21.270875 31.304051 5.257271 38.210374 0.973967 1.432771 0.006977 -0.020983 -11745.900000 0 0 1
20.511675 30.678651 6.402171 37.455257 0.981458 1.399024 0.015080 -0.021543 60886.800000 0 0 1
19.642975 29.589051 6.016171 36.021559 0.984740 1.402994 0.021105 -0.014465 593600.000000 0 0 1
18.589575 29.288051 6.921771 35.373340 1.005241 1.373848 0.015111 -0.021168 161455.000000 0 0 1
17.193275 29.648751 6.391071 34.864064 1.045288 1.386440 0.019652 -0.012240 -733919.000000 0 0 1
16.892375 31.021151 6.344671 35.887589 1.072152 1.393069 0.019080 -0.008498 99828.800000 0 0 1
17.173175 31.614751 5.096071 36.337039 1.073188 1.430088 0.010312 -0.009526 -402578.000000 0 0 1
17.098775 33.123751 5.126471 37.627539 1.094266 1.434129 0.018881 -0.007451 587723.000000 0 0 1
15.791475 33.642751 5.398871 37.554670 1.131938 1.426536 0.021571 -0.005068 186866.000000 0 0 1
15.744275 -34.445517 5.456571 38.264213 -1.142072 1.427706 0.016069 -0.006524 -1258120.000000 0 0 1
14.371475 -33.838317 5.573071 37.183735 -1.169171 1.420350 0.013793 -0.006700 -606303.000000 0 0 1
13.544575 -33.965317 4.406471 36.830901 -1.191345 1.450868 0.012875 0.004957 20882.600000 0 0 1
12.477575 -33.029117 4.494271 35.592287 -1.209595 1.444187 0.008494 -0.001684 -164829.000000 0 0 1
11.631875 -33.074517 3.196771 35.205732 -1.232619 1.479869 0.013215 0.004274 -1394900.000000 0 0 1
10.589875 -32.229917 3.307471 34.085956 -1.253336 1.473610 0.008188 -0.008827 -1370270.000000 0 0 1
10.057075 -32.037517 1.998671 33.638400 -1.266622 1.511345 0.010648 -0.005744 -658744.000000 0 0 1
9.104075 -30.837617 2.071171 32.220065 -1.283725 1.506470 0.016070 -0.010186 -150226.000000 0 0 1
8.611675 -30.205617 0.856071 31.420902 -1.293063 1.543548 0.020883 0.001238 -75693.000000 0 0 1
7.548975 -30.912117 0.298271 31.821926 -1.331277 1.561423 0.010798 -0.003146 -1076720.000000 0 0 1
7.930475 -31.377217 -1.131629 32.383681 -1.323235 1.605748 0.017989 -0.006304 602043.000000 0 0 1
9.084075 -32.241417 -1.102129 33.514834 -1.296164 1.603687 0.016447 -0.007630 447580.000000 0 0 1
9.069275 -33.175717 -2.152329 34.460303 -1.303945 1.633295 0.008715 0.004211 -366993.000000 0 0 1
10.321575 -34.058717 -2.205329 35.656621 -1.276542 1.632685 0.006706 0.007663 -277625.000000 0 0 1
10.389975 34.547051 -1.096729 36.092287 1.278653 1.601188 0.004747 0.009302 -187894.000000 0 0 1
11.496775 33.693751 -1.205729 35.621602 1.241970 1.604651 0.012560 0.010134 -568487.000000 0 0 1
11.755075 32.727151 -0.059929 34.774298 1.225963 1.572520 0.004686 0.005736 -1016310.000000 0 0 1
12.103975 33.282851 1.205771 35.435975 1.221996 1.536763 0.003575 0.006186 633832.000000 0 0 1
13.443375 33.790051 1.274271 36.388400 1.192145 1.535771 0.009990 0.005556 776856.000000 0 0 1
14.600075 32.729851 1.175471 35.857873 1.151209 1.538009 0.016785 0.003112 -786077.000000 0 0 1
14.912175 32.314551 -0.115929 35.589558 1.138446 1.574054 0.018709 0.008841 -230824.000000 0 0 1
15.813475 31.236151 -0.051429 35.010938 1.102157 1.572265 0.022893 0.011610 -118865.000000 0 0 1
16.464775 30.925951 -1.430329 35.064927 1.081571 1.611599 0.023734 0.011814 1215.740000 0 0 1
17.484775 31.798451 -1.875829 36.337000 1.068059 1.622442 0.014907 0.021184 183106.000000 0 0 1
17.096575 33.101251 -2.266529 37.324561 1.094041 1.631559 0.025929 0.017925 -199887.000000 0 0 1
18.339375 33.934251 -2.689129 38.666491 1.075324 1.640399 0.019533 0.017212 287200.000000 0 0 1
19.199375 34.185551 -1.579829 39.239824 1.059074 1.611068 0.009910 0.012615 304482.000000 0 0 1
20.218175 -34.441217 -2.048029 39.989579 -1.039965 1.622033 -0.003590 0.007738 -927439.000000 0 0 1
21.375475 -34.178117 -1.066529 40.326072 -1.011899 1.597247 -0.000973 0.005594 -196765.000000 0 0 1
22.258775 34.290351 -0.725029 40.887736 0.995035 1.588529 0.006018 0.007892 575199.000000 0 0 1
22.756675 33.388451 -1.748529 40.443940 0.972545 1.614043 0.010357 0.013099 292983.000000 0 0 1
23.803275 33.947451 -2.828329 41.557488 0.959279 1.638907 -0.007483 0.006741 18651.200000 0 0 1
23.140075 -34.586717 -3.664929 41.774822 -0.981149 1.658640 0.002053 0.005504 314498.000000 0 0 1
23.817075 -34.159817 -4.843029 41.923753 -0.961935 1.686575 -0.000431 -0.000001 23151.300000 0 0 1
22.891775 -33.634217 -6.010829 41.126925 -0.973203 1.717475 0.000026 -0.002993 87213.700000 0 0 1
22.300775 -32.359017 -5.915329 39.741938 -0.967378 1.720195 -0.002125 0.006013 -105884.000000 0 0 1
21.442975 -32.248117 -7.004729 39.354904 -0.983992 1.749738 -0.002198 0.004644 -777246.000000 0 0 1
20.437375 -31.123717 -7.000629 37.886421 -0.989761 1.756644 -0.003000 0.006297 -613131.000000 0 0 1
19.294175 -31.326917 -6.226929 37.315085 -1.018769 1.738455 -0.005826 0.015873 -356018.000000 0 0 1
18.481075 -30.142917 -6.242029 35.904157 -1.020789 1.745537 -0.004313 0.010754 417256.000000 0 0 1
17.352075 -30.220117 -5.187529 35.231526 -1.049571 1.718575 -0.007091 0.015509 153217.000000 0 0 1
16.104275 -30.714317 -5.603729 35.130026 -1.087879 1.730995 -0.011274 0.011016 -438552.000000 0 0 1
15.153475 -30.625417 -4.568629 34.473415 -1.111317 1.703713 -0.008100 0.012168 -408138.000000 0 0 1
13.892075 -31.370317 -4.959629 34.665321 -1.153911 1.714361 0.000038 0.007475 -743995.000000 0 0 1
14.220475 -32.746517 -5.042429 36.055268 -1.161109 1.711109 0.001415 0.018864 637318.000000 0 0 1
12.993875 -33.468417 -5.193429 36.275990 -1.200466 1.714454 0.008477 0.016305 296271.000000 0 0 1
13.062275 34.529451 -5.335329 37.301096 1.209141 1.714323 0.008827 0.016731 -317119.000000 0 0 1
13.312375 33.916951 -4.092929 36.665119 1.196773 1.682660 0.016291 0.014061 -16671.900000 0 0 1
13.718475 32.565651 -4.324429 35.600827 1.172101 1.692567 0.009954 0.018587 211179.000000 0 0 1
12.662175 31.521951 -4.854729 34.315193 1.188831 1.712747 0.018168 0.014414 278654.000000 0 0 1
11.730075 30.953651 -3.956529 33.337326 1.208562 1.689758 0.009770 0.012327 -49261.200000 0 0 1
12.307675 30.143951 -2.951729 32.693262 1.183158 1.661205 0.007196 0.010934 -699711.000000 0 0 1
11.355275 29.290351 -2.145629 31.487627 1.200956 1.638991 -0.003215 0.011834 128193.000000 0 0 1
10.462475 29.995951 -1.273829 31.793759 1.235194 1.610872 -0.003942 0.010479 -62491.500000 0 0 1
9.579675 29.143451 -0.616729 30.683730 1.253215 1.590897 -0.016162 0.017414 -277130.000000 0 0 1
8.379175 29.854451 0.031171 31.008060 1.297169 1.569791 -0.009284 0.026138 112186.000000 0 0 1
7.423375 28.948751 0.553671 29.890521 1.319774 1.552272 -0.010969 0.020785 -718574.000000 0 0 1
6.223675 29.616651 0.736971 30.272484 1.363669 1.546449 -0.002422 0.022546 -869573.000000 0 0 1
5.210375 28.810251 1.541571 29.318169 1.391879 1.518191 -0.000082 0.019578 1806.750000 0 0 1
4.623275 27.701551 0.815171 28.096532 1.405425 1.541779 0.000176 0.006902 225320.000000 0 0 1
3.524075 27.151651 1.521871 27.421659 1.441726 1.515269 0.004334 0.001515 437461.000000 0 0 1
2.743575 26.145651 0.590671 26.295840 1.466245 1.548332 0.012410 0.005714 -187651.000000 0 0 1
1.610975 25.559851 1.147671 25.636271 1.507852 1.526014 0.007488 -0.001978 -170731.000000 0 0 1
0.961675 24.681251 0.224171 24.700997 1.531852 1.561721 0.005309 -0.000473 -353925.000000 0 1 0
-0.383125 24.195051 0.725371 24.208954 -1.554963 1.540829 0.006020 0.007431 -288178.000000 0 1 0
-1.441925 25.137351 0.815771 25.191885 -1.513497 1.538408 0.013460 0.003882 -172543.000000 0 0 1
-2.649925 24.441751 1.016471 24.605986 -1.462800 1.529475 0.009459 0.010897 -492887.000000 0 1 0
-3.755825 25.443351 1.449271 25.759867 -1.424240 1.514506 0.005550 0.006246 -1447100.000000 0 0 1
-4.901225 24.692351 1.671271 25.229494 -1.374852 1.504505 0.005597 0.009381 -502402.000000 0 0 1
-6.002125 25.378851 2.255271 26.176284 -1.338562 1.484532 0.000822 0.004292 300088.000000 0 0 1
-6.875625 26.021751 1.150971 26.939386 -1.312474 1.528059 0.010119 0.003963 -1058330.000000 0 0 1
-6.388925 27.221251 0.588571 27.967147 -1.340265 1.549750 0.004120 -0.001446 -36425.800000 0 0 1
-6.787725 27.258051 -0.758129 28.100700 -1.326743 1.597779 -0.011615 0.006777 -56038.200000 0 0 1
-6.323925 28.511351 -1.566029 29.246224 -1.352526 1.624368 -0.007146 0.006871 -225516.000000 0 0 1
-7.130725 29.614551 -1.419129 30.493980 -1.334510 1.617351 -0.000922 -0.008150 -432485.000000 0 0 1
-6.964925 30.511651 -2.469229 31.393760 -1.346371 1.649531 -0.003959 -0.004783 -160995.000000 0 0 1
-7.313725 31.985051 -1.993929 32.871110 -1.346000 1.631493 0.002299 -0.007982 -869210.000000 0 0 1
-7.200325 33.057551 -2.962129 33.962046 -1.356334 1.658126 0.004112 0.000402 32938.800000 0 0 1
-5.951025 33.302751 -3.579629 34.019137 -1.393968 1.676215 0.002912 0.002681 110682.000000 0 0 1
-4.821225 33.714251 -2.605529 34.156753 -1.428757 1.647152 0.003348 -0.002120 -901583.000000 0 0 1
-4.943625 -34.414917 -2.353629 34.847748 1.428125 1.638388 0.006225 0.006887 201748.000000 0 0 1
-3.990525 -33.923317 -1.440329 34.187575 1.453701 1.612939 0.005258 0.009463 45027.700000 0 0 1
-4.108225 -32.361717 -1.561829 32.658805 1.444525 1.618637 0.019728 0.012805 410318.000000 0 0 1
-5.372625 -31.840817 -1.184929 32.312641 1.403637 1.607475 0.009080 0.007994 353.368000 0 0 1
-5.638025 -30.718417 -2.018929 31.296718 1.389278 1.635350 0.020501 0.018422 -123579.000000 0 0 1
-6.860925 -29.846817 -1.727129 30.673894 1.344850 1.627132 0.034054 0.021834 -159786.000000 0 0 1
-6.908325 -29.443117 -0.390229 30.245237 1.340332 1.583699 0.006336 0.025844 -216551.000000 0 0 1
-8.056525 -28.730517 0.015271 29.838741 1.297401 1.570285 -0.017151 0.023705 -173879.000000 0 0 1
-8.013525 -28.280217 1.492471 29.431526 1.294673 1.520065 -0.017280 0.022772 89984.000000 0 0 1
-7.049525 -27.259017 1.683671 28.206109 1.317728 1.511069 -0.011038 0.018469 -146836.000000 0 0 1
-6.966425 -26.841217 3.020771 27.894571 1.316857 1.462291 -0.006547 0.018597 -973495.000000 0 0 1
-8.033725 -25.985717 3.598371 27.436226 1.270958 1.439263 -0.013190 0.019457 -1084540.000000 0 0 1
-7.922425 -24.605017 3.246071 26.052038 1.259295 1.445872 -0.009444 0.011341 -492320.000000 0 0 1
-8.932225 -23.721317 3.676571 25.612550 1.210669 1.426753 -0.005036 0.006134 -594188.000000 0 0 1
-8.441125 -22.256817 3.934071 24.126654 1.208296 1.407006 -0.005563 0.017635 -93371.600000 0 1 0
-7.552125 -22.243117 5.006071 24.017735 1.243482 1.360825 -0.015419 0.010239 90895.700000 0 1 0
-6.736225 -21.042917 5.201071 22.698728 1.260986 1.339607 -0.020670 0.013251 83189.600000 0 1 0
-7.508025 -19.836717 5.739671 21.972929 1.208968 1.306515 -0.018686 -0.000544 -151888.000000 0 1 0
-7.965325 -20.027917 7.055971 22.679299 1.192265 1.254426 -0.017818 -0.003460 105750.000000 0 1 0
-8.415025 -18.777017 7.622471 21.942905 1.149477 1.216023 -0.029014 -0.014224 -323891.000000 0 1 0
-26.115845 29.274551 -5.869529 39.667217 -0.842363 1.719311 0.022571 0.007135 -127495.000000 0 0 1
-25.529765 30.201651 -5.022029 39.863886 -0.869031 1.697111 0.020372 0.003801 -69272.000000 0 0 1
-24.449625 29.583651 -4.332129 38.623101 -0.880130 1.683197 0.013086 0.006498 366508.000000 0 0 1
-23.596725 30.590651 -3.498329 38.792160 -0.913758 1.661100 0.011871 0.000114 -395242.000000 0 0 1
-24.173125 31.001051 -2.282629 39.377856 -0.908524 1.628796 0.011535 -0.007100 -123419.000000 0 0 1
-23.575725 32.062151 -1.527729 39.826252 -0.936761 1.609166 0.014031 -0.006893 628152.000000 0 0 1
-22.252825 31.686651 -0.765429 38.727484 -0.958543 1.590562 0.010191 -0.007021 540482.000000 0 0 1
-21.221725 31.159151 -1.581029 37.732665 -0.972885 1.612709 0.002673 -0.005569 -342624.000000 0 0 1
-20.107725 31.014551 -0.717429 36.969416 -0.995595 1.590204 0.003278 -0.004753 -884613.000000 0 0 1
-18.871225 30.654351 -1.503429 36.028776 -1.018976 1.612537 -0.003521 -0.003582 -1839260.000000 0 0 1
-17.720225 30.687751 -0.764629 35.444734 -1.047133 1.592370 -0.004480 -0.006588 -1136040.000000 0 0 1
-16.664525 30.181751 -1.558729 34.511942 -1.066312 1.615977 -0.003028 -0.007211 945081.000000 0 0 1
-15.212625 30.531051 -1.049029 34.127255 -1.108536 1.601540 -0.002671 -0.013215 877521.000000 0 0 1
-14.833525 29.833451 0.134571 33.317959 -1.109382 1.566757 -0.003024 -0.009637 749953.000000 0 0 1
-13.610025 30.318551 0.732971 33.241309 -1.148857 1.548745 -0.003257 -0.009003 886160.000000 0 0 1
-13.234525 29.484551 1.951371 32.377450 -1.148888 1.510490 -0.006988 -0.013865 -208582.000000 0 0 1
-14.167225 29.679451 3.002671 33.024175 -1.125440 1.479747 -0.021603 -0.008933 -325884.000000 0 0 1
-13.920725 28.952551 4.194471 32.398000 -1.122617 1.440965 -0.022799 -0.015814 -144589.000000 0 0 1
-12.692325 29.337851 5.045371 32.361403 -1.162484 1.414251 -0.006734 -0.015677 -162751.000000 0 0 1
-12.703425 30.562851 5.787071 33.599927 -1.176872 1.397699 -0.006460 -0.018133 -285637.000000 0 0 1
-12.672425 31.788151 4.989471 34.582825 -1.191452 1.426015 -0.001678 -0.018174 -237573.000000 0 0 1
-12.368025 33.047651 5.830071 35.764578 -1.212685 1.407053 -0.003180 -0.016653 117078.000000 0 0 1
-13.477625 33.473651 6.619371 36.687161 -1.188021 1.389375 -0.012593 -0.011194 333523.000000 0 0 1
-13.192425 34.642351 7.347171 37.790389 -1.206935 1.375131 0.005697 -0.013058 71751.400000 0 0 1
-14.397225 -34.438317 8.206471 38.218110 1.174820 1.354384 -0.000143 -0.009851 105310.000000 0 0 1
-14.671525 34.271351 9.334271 38.430558 -1.166304 1.325456 -0.009282 -0.012919 98441.900000 0 0 1
-15.798225 34.706351 10.074771 39.441295 -1.143629 1.312497 0.000177 -0.012313 -490618.000000 0 0 1
-16.085725 33.981851 11.453271 39.302598 -1.128685 1.275093 -0.006867 -0.006157 545363.000000 0 0 1
-15.195425 34.301051 12.554871 39.561192 -1.153777 1.247859 -0.010887 -0.002027 -455886.000000 0 0 1
-13.948725 33.723351 12.426671 38.551959 -1.178602 1.242601 -0.009615 -0.001264 -1294070.000000 0 0 1
-13.106325 33.808151 13.691271 38.758454 -1.200966 1.209758 0.010637 0.001596 -639328.000000 0 0 1
-13.587825 33.113251 14.827471 38.742358 -1.181405 1.178058 -0.002140 0.002745 -208466.000000 0 0 1
-13.290125 31.730651 14.900571 37.489848 -1.174153 1.162053 -0.009908 0.008755 -447753.000000 0 0 1
-14.075925 30.646151 14.128071 36.563926 -1.140232 1.174078 -0.015314 0.011092 -143343.000000 0 0 1
-13.774925 30.630051 12.699571 35.905818 -1.148176 1.209282 -0.016846 0.008864 -809635.000000 0 0 1
-14.846125 30.283051 11.953271 35.781997 -1.114983 1.230190 -0.019168 0.006956 -1156860.000000 0 0 1
-14.536525 30.233951 10.444271 35.135241 -1.122625 1.268976 -0.021757 0.002148 -144939.000000 0 0 1
-13.728725 29.126451 10.133571 33.756738 -1.130331 1.265900 -0.030560 0.002719 -28747.400000 0 0 1
-13.959325 28.704151 8.819171 33.114481 -1.118155 1.301219 -0.027858 0.002271 -313079.000000 0 0 1
-13.333625 27.336451 8.424471 31.560083 -1.116989 1.300586 -0.022572 0.002761 405934.000000 0 0 1
-11.987725 27.457251 7.982571 31.005284 -1.159145 1.310405 -0.006005 -0.000916 417924.000000 0 0 1
-11.383725 26.214651 7.649871 29.585768 -1.161117 1.309259 0.001681 -0.005469 -93479.900000 0 0 1
-10.187425 26.466251 6.730471 29.146961 -1.203356 1.337778 0.007677 -0.010849 -112933.000000 0 0 1
-10.639325 26.914251 5.457071 29.450837 -1.194344 1.384425 0.005793 -0.012632 820311.000000 0 0 1
-9.590425 26.583251 4.557871 28.625508 -1.224560 1.410892 0.019750 -0.003090 396475.000000 0 0 1
-9.920325 27.193251 3.173871 29.119740 -1.220991 1.461586 0.008629 -0.007451 -9634.250000 0 0 1
-9.426225 28.498251 3.074471 30.173771 -1.251359 1.468727 0.011643 -0.007382 84252.700000 0 0 1
-9.477225 28.848551 1.731671 30.414724 -1.253387 1.513830 0.010508 -0.012428 47971.700000 0 0 1
-9.098825 30.324751 1.381471 31.690498 -1.279297 1.527190 0.008020 -0.024902 1032510.000000 0 0 1
-10.128925 31.215551 1.889471 32.872114 -1.257032 1.513285 0.002472 -0.028821 841298.000000 0 0 1
-9.749625 32.571551 1.622971 34.038143 -1.279955 1.523097 0.005537 -0.022775 -304352.000000 0 0 1
-10.551725 33.601951 2.429471 35.303433 -1.266526 1.501925 -0.000185 -0.009277 527197.000000 0 0 1
-11.913925 33.782951 2.045271 35.880532 -1.231753 1.513763 -0.001433 -0.012148 288032.000000 0 0 1
-12.044725 34.717851 0.959671 36.760381 -1.236858 1.544687 -0.012335 -0.007729 693521.000000 0 0 1
-13.576925 -34.686317 0.618471 37.253940 1.197708 1.554194 -0.005112 -0.012264 879621.000000 0 0 1
-14.290625 33.850451 -0.109629 36.743531 -1.171326 1.573780 0.004656 -0.014889 37874.400000 0 0 1
-14.196625 33.987751 -1.556229 36.866425 -1.175127 1.613022 0.003529 -0.015727 -47477.300000 0 0 1
-12.831825 33.690551 -2.244629 36.121287 -1.206887 1.632978 0.003147 -0.012842 36337.800000 0 0 1
-12.546325 32.316451 -2.440429 34.752252 -1.200475 1.641078 0.002888 -0.012022 -812231.000000 0 0 1
-11.194025 32.135351 -2.678129 34.134431 -1.235601 1.649335 0.004795 -0.010616 -911921.000000 0 0 1
-10.780125 30.678251 -2.860529 32.642746 -1.232881 1.658540 0.003101 -0.016380 -284387.000000 0 0 1
-10.962225 30.058051 -4.096729 32.255853 -1.221085 1.698148 -0.003539 -0.010041 78603.200000 0 0 1
-9.790125 30.113451 -4.914929 32.044080 -1.256467 1.724784 -0.004089 0.001635 170600.000000 0 0 1
-9.958025 29.518851 -6.293229 31.782536 -1.245440 1.770123 0.001427 0.002754 -243478.000000 0 0 1
-10.169025 28.129451 -6.252529 30.557638 -1.223906 1.776866 0.007638 0.012152 -70221.700000 0 0 1
-10.438725 27.493851 -7.479629 30.345077 -1.207933 1.819849 0.002939 0.014202 -244371.000000 0 0 1
-11.050225 26.087451 -7.369129 29.273993 -1.170126 1.825263 0.014519 0.011717 -227423.000000 0 0 1
-10.290025 25.171151 -6.621429 27.987762 -1.182725 1.809644 0.011217 0.010435 -120167.000000 0 0 1
-10.887825 23.859351 -6.653329 27.056980 -1.142688 1.819245 0.025885 0.008403 -139095.000000 0 0 1
-10.336025 22.797151 -5.687729 25.668927 -1.145126 1.794231 0.020138 0.005740 -703612.000000 0 0 1
-8.980425 22.486151 -5.910129 24.923978 -1.190828 1.810203 0.025576 0.000150 -291311.000000 0 1 0
-8.661325 21.249251 -5.355229 23.563271 -1.183750 1.800070 0.033329 0.003406 -217243.000000 0 1 0
-8.652525 21.050551 -3.844429 23.081844 -1.180813 1.738133 0.023506 0.000358 1083470.000000 0 1 0
-9.926625 20.942451 -3.117529 23.384678 -1.128168 1.704509 0.030691 -0.001063 1172290.000000 0 1 0
-10.471925 19.617851 -3.114429 22.454865 -1.080479 1.709942 0.039710 -0.003814 634198.000000 0 1 0
-11.811625 19.672151 -2.287329 23.059486 -1.030065 1.670152 0.039783 -0.003122 397683.000000 0 1 0
-11.676325 19.528751 -0.851529 22.769142 -1.031919 1.608203 0.035518 -0.011054 128720.000000 0 1 0
-11.038325 18.325651 -0.403229 21.397119 -1.028656 1.589642 0.022330 -0.011213 -481754.000000 0 1 0
-10.650125 18.453351 1.075371 21.333255 -1.047357 1.520367 0.013532 -0.006641 280232.000000 0 1 0
-11.768525 18.486251 1.982771 22.003887 -1.003892 1.480564 0.019675 -0.011887 691394.000000 0 1 0
-11.379425 18.674051 3.322171 22.118959 -1.023515 1.420030 0.009566 -0.005352 -342762.000000 0 1 0
-12.587225 18.706751 4.275671 22.949121 -0.978511 1.383390 0.021041 -0.014023 -78794.300000 0 1 0
-13.151825 17.467151 4.431371 22.309391 -0.925412 1.370834 0.007081 -0.015604 -446340.000000 0 1 0
-14.472025 17.562951 4.874471 23.273531 -0.881586 1.359791 0.007484 -0.016730 -303069.000000 0 1 0
-15.142625 16.241351 5.363171 22.843910 -0.820393 1.333810 0.008889 -0.010183 -515548.000000 0 1 0
-14.565825 15.714651 6.532071 22.400480 -0.823319 1.274893 0.017555 -0.006254 104795.000000 0 1 0
-15.007525 16.310651 7.759871 23.483585 -0.826983 1.234029 0.000030 -0.003109 -1061230.000000 0 1 0
-13.977225 15.956851 8.878271 22.995818 -0.851435 1.174416 -0.005696 0.002835 736551.000000 0 1 0
-12.766625 16.694051 8.870871 22.811629 -0.917928 1.171386 -0.002383 -0.005788 -206363.000000 0 1 0
-11.922525 16.330751 7.809571 21.675550 -0.940176 1.202213 0.002033 -0.007430 -917465.000000 0 1 0
-10.775925 17.421051 7.698671 21.883399 -1.016843 1.211299 0.008594 -0.013459 699814.000000 0 1 0
-9.814325 17.350451 8.724971 21.759694 -1.056015 1.158222 0.014987 -0.014568 347441.000000 0 1 0
-8.922025 18.489651 8.783871 22.329938 -1.121213 1.166505 0.013555 -0.018005 211506.000000 0 1 0
-7.774525 18.390051 9.775171 22.230412 -1.170827 1.115509 0.022735 -0.020258 -1099970.000000 0 1 0
-6.819825 17.469151 9.360771 20.959611 -1.198600 1.107823 0.016607 -0.016071 -368534.000000 0 1 0
-5.546325 17.521851 9.979071 20.913127 -1.264237 1.073367 0.018852 -0.022392 1050570.000000 0 1 0
-4.570525 18.643651 9.398671 21.373125 -1.330386 1.115484 0.017140 -0.024378 -206453.000000 0 1 0
-4.982725 20.009051 9.587171 22.739911 -1.326737 1.135586 0.022534 -0.034504 -184345.000000 0 1 0
-4.552925 20.852951 8.539871 22.989217 -1.355835 1.190201 0.026426 -0.027105 1289960.000000 0 1 0
-3.117125 21.575751 8.648071 23.452477 -1.427316 1.193134 0.018906 -0.016909 2198120.000000 0 1 0
-2.003925 20.686351 8.407771 22.419444 -1.474226 1.186376 0.005272 -0.002771 -184690.000000 0 1 0
-0.810325 21.390251 8.410271 22.998525 -1.532932 1.196425 0.005984 -0.001066 -795228.000000 0 1 0
0.406275 20.603751 7.953971 22.089484 1.551080 1.202443 0.008250 -0.001877 -275326.000000 0 1 0
0.883275 19.772351 8.956971 21.724488 1.526154 1.145821 0.007960 -0.018154 1036290.000000 0 1 0
2.340575 19.628951 8.897571 21.678118 1.452116 1.147860 0.003125 -0.006332 1794790.000000 0 1 0
3.003375 19.356851 10.281771 22.122902 1.416866 1.087436 -0.007225 -0.014805 -691281.000000 0 1 0
3.188175 18.044551 10.784671 21.262160 1.395918 1.038836 -0.009131 -0.007337 416480.000000 0 1 0
3.972975 17.915951 11.987271 21.919410 1.352571 0.992164 -0.018158 -0.002514 1331570.000000 0 1 0
5.476975 18.417251 11.952971 22.628874 1.281742 1.014296 -0.004165 0.004408 1025090.000000 0 1 0
6.449975 17.603651 11.295171 21.887705 1.219587 1.028562 -0.010635 0.005144 200052.000000 0 1 0
7.444475 17.199351 12.208771 22.367208 1.162308 0.993413 -0.005458 0.013526 32935.400000 0 1 0
8.692575 16.569351 11.540871 21.983994 1.087649 1.018120 0.000238 0.012239 417198.000000 0 1 0
9.533175 17.426251 10.788971 22.604370 1.070214 1.073222 0.009013 -0.004849 -615818.000000 0 1 0
10.584175 16.761151 10.200271 22.293642 1.007558 1.095568 0.015795 -0.004582 -651795.000000 0 1 0
11.540875 17.719251 9.481871 23.174761 0.993495 1.149278 0.017847 0.008886 -257400.000000 0 1 0
12.680675 17.108651 8.884971 23.074839 0.932961 1.175534 0.023917 0.006643 6749.420000 0 1 0
13.439075 18.155351 8.339171 24.078357 0.933580 1.217135 0.028927 0.004053 281851.000000 0 1 0
14.657875 17.759051 7.445371 24.200635 0.880773 1.258072 0.021533 -0.005774 219934.000000 0 1 0
15.686375 17.033851 8.062371 24.519712 0.826557 1.235751 0.032163 0.000910 379352.000000 0 1 0
16.563775 16.443151 7.080771 24.390022 0.781744 1.276241 0.037335 -0.000251 -61682.400000 0 1 0
18.030075 16.373751 7.494771 25.482443 0.737292 1.272267 0.031617 0.007105 -422436.000000 0 0 1
18.322375 15.336151 8.455571 25.345683 0.696909 1.230666 0.031651 0.016538 470449.000000 0 0 1
19.517675 15.584951 9.196471 26.615887 0.673828 1.217997 0.035669 0.020979 215576.000000 0 0 1
19.805275 14.547151 10.256571 26.628289 0.633513 1.175398 0.030959 0.019479 -120310.000000 0 0 1
20.357475 13.375051 9.719471 26.225692 0.581287 1.191132 0.024191 0.014909 177121.000000 0 0 1
20.392275 12.403351 10.731571 26.169727 0.546455 1.148259 0.024716 0.010204 -292766.000000 0 0 1
21.165475 11.191151 10.198771 26.023722 0.486379 1.168097 0.019349 0.006203 -512630.000000 0 0 1
22.539975 11.499351 10.146871 27.262512 0.471755 1.189427 0.006437 0.000142 624151.000000 0 0 1
23.423775 10.723651 9.321371 27.396311 0.429330 1.223622 0.013582 -0.002765 255706.000000 0 0 1
23.645475 9.225151 9.544871 27.116719 0.371981 1.211098 0.022009 -0.013249 -977810.000000 0 0 1
22.457675 8.530251 9.350571 25.778780 0.363004 1.199607 0.029568 -0.011334 -56181.000000 0 0 1
22.561175 7.206651 9.842671 25.648014 0.309183 1.176932 0.027594 -0.010482 -114157.000000 0 0 1
23.549375 6.156651 9.271571 26.046870 0.255713 1.206858 0.028827 -0.009982 314554.000000 0 0 1
23.205875 5.857651 7.932171 25.213965 0.247256 1.250767 0.026817 -0.009048 520104.000000 0 0 1
24.375875 5.382651 7.292171 26.006383 0.217331 1.286586 0.014438 -0.002620 181396.000000 0 0 1
24.104475 4.951151 5.829171 25.288710 0.202586 1.338200 0.020178 -0.009661 -436273.000000 0 0 1
23.265975 3.831551 5.681571 24.254208 0.163220 1.334348 0.028605 -0.009096 339662.000000 0 1 0
23.058775 3.566151 4.285471 23.723191 0.153439 1.389154 0.024608 -0.003452 -604518.000000 0 1 0
22.107275 2.400651 4.024871 22.598547 0.108167 1.391738 0.023187 -0.007219 -577779.000000 0 1 0
22.549275 1.159651 4.479471 23.019128 0.051382 1.374949 0.012988 -0.007514 155917.000000 0 1 0
21.813375 0.128051 3.875771 22.155390 0.005870 1.394956 0.002564 -0.009371 -499815.000000 0 1 0
22.345075 -1.302249 4.094271 22.754368 -0.058213 1.389878 -0.005001 -0.010410 -888923.000000 0 1 0
22.087975 -1.713349 5.398071 22.802486 -0.077414 1.331796 -0.005443 -0.012992 658468.000000 0 1 0
22.324675 -3.070049 5.640071 23.229867 -0.136661 1.325551 -0.012648 -0.013307 -900088.000000 0 1 0
21.848175 -3.452949 7.035571 23.211309 -0.156746 1.262842 -0.004995 -0.011290 -432089.000000 0 1 0
22.065675 -4.810049 7.386971 23.761269 -0.214630 1.254675 -0.008544 -0.010001 646860.000000 0 1 0
21.470575 -4.990149 8.652871 23.680358 -0.228364 1.196731 -0.015176 -0.010615 -170895.000000 0 1 0
21.584875 -6.415849 9.195171 24.323263 -0.288921 1.183118 -0.005485 -0.014861 -232711.000000 0 1 0
20.819675 -7.284749 8.425771 23.611862 -0.336583 1.205908 0.033816 -0.016868 9590.480000 0 1 0
20.744275 -8.504449 9.098071 24.195567 -0.389068 1.185297 0.034692 -0.008080 145548.000000 0 1 0
-25.423165 -33.285817 4.962171 42.177080 0.918532 1.452872 -0.004678 -0.021647 -83866.400000 0 0 1
-25.980505 -34.359517 5.725171 43.455042 0.923379 1.438663 0.000956 -0.018807 199592.000000 0 0 1
-25.976515 -34.027517 7.096971 43.393759 0.918776 1.406510 -0.002089 -0.005380 -424112.000000 0 0 1
-26.587325 34.404251 8.031771 44.215922 -0.912867 1.388133 -0.005788 0.012833 -1139830.000000 0 0 1
-27.918195 34.219651 7.727071 44.834337 -0.886464 1.397584 0.006925 0.000727 -1149470.000000 0 0 1
-28.352125 32.926251 8.177571 44.213728 -0.859905 1.384770 0.009150 0.007177 -1234460.000000 0 0 1
-29.846455 32.737951 8.249871 45.062676 -0.831567 1.386682 0.031435 -0.000677 -974982.000000 0 0 1
-30.433125 32.884651 6.998071 45.349183 -0.824097 1.415862 0.016963 0.000525 -121231.000000 0 0 1
-31.838825 32.767251 7.086271 46.234390 -0.799768 1.416921 0.016203 0.000525 -83091.800000 0 0 1
-32.629905 32.832251 5.793471 46.650099 -0.788489 1.446285 0.016178 0.002555 -390968.000000 0 0 1
-32.557645 31.704851 5.000471 45.718733 -0.772128 1.461202 0.017823 -0.001704 -174514.000000 0 0 1
-33.407095 31.727851 3.919671 46.239100 -0.759623 1.485925 0.021564 -0.000012 -616954.000000 0 0 1
-33.119955 30.583151 2.934071 45.175982 -0.745597 1.505803 0.020766 0.000356 -47528.300000 0 0 1
-33.547635 29.313951 3.441171 44.683255 -0.718150 1.493707 0.029962 -0.004011 232915.000000 0 0 1
-33.021235 28.216051 2.760671 43.522050 -0.707090 1.507322 0.012801 0.002059 -331128.000000 0 0 1
-33.175785 26.927051 3.541771 42.874736 -0.681803 1.488095 0.020650 -0.000509 -946376.000000 0 0 1
-34.465331 26.427051 3.598271 43.579762 -0.654149 1.488135 0.025105 0.003776 -768569.000000 0 0 1
-34.498465 25.158951 4.254171 42.909380 -0.630106 1.471490 0.022896 0.006384 19207.200000 0 0 1
33.758721 24.543251 4.277071 41.956117 0.628631 1.468677 0.022643 0.004431 -358916.000000 0 0 1
33.246880 23.938151 3.115471 41.086449 0.624031 1.494896 0.013363 0.005604 111144.000000 0 0 1
33.579800 22.609151 3.017471 40.594111 0.592578 1.496395 0.005420 0.007695 -1100410.000000 0 0 1
32.805070 21.912151 1.854771 39.493736 0.588891 1.523815 -0.001823 0.010760 1217280.000000 0 0 1
31.404790 21.704351 2.168271 38.236646 0.604739 1.514059 0.004659 0.003474 1336470.000000 0 0 1
31.087940 20.831851 3.308871 37.568267 0.590372 1.482606 -0.007322 0.008856 -866260.000000 0 0 1
31.541070 19.316851 3.179671 37.122637 0.549513 1.485038 -0.002195 -0.001171 -496774.000000 0 0 1
31.094670 18.691851 2.004471 36.335681 0.541248 1.515603 -0.005465 -0.010463 235346.000000 0 0 1
31.257660 17.281451 1.842271 35.764282 0.505045 1.519262 -0.016045 -0.008221 -595226.000000 0 0 1
30.636410 16.396551 2.950571 34.873233 0.491408 1.486087 -0.012076 -0.013416 570986.000000 0 0 1
29.200330 16.443651 2.909071 33.638009 0.512870 1.484206 -0.007511 -0.011605 702848.000000 0 0 1
28.758560 15.582151 3.932371 32.944222 0.496546 1.451147 -0.008376 -0.019436 1049200.000000 0 0 1
27.181090 15.549051 4.115271 31.583542 0.519617 1.440127 -0.008311 -0.014076 1174550.000000 0 0 1
26.571010 14.989651 2.980871 30.652795 0.513631 1.473396 0.005420 -0.018250 -959537.000000 0 0 1
25.216170 15.274351 2.949371 29.628700 0.544627 1.471087 -0.003684 -0.013462 -943481.000000 0 0 1
24.497920 14.605351 1.783971 28.577035 0.537611 1.508329 0.007597 -0.013747 -688885.000000 0 0 1
24.811230 15.046351 0.451671 29.020576 0.545136 1.555232 0.020292 -0.016415 -311042.000000 0 0 1
25.973000 14.550651 -0.117229 29.771327 0.510657 1.574734 0.024608 -0.012819 -1403240.000000 0 0 1
26.444960 15.312251 -1.363529 30.588563 0.524853 1.615388 0.036284 -0.016801 -50780.500000 0 0 1
26.869570 16.651851 -1.237029 31.635237 0.554800 1.609909 0.033968 -0.018140 220338.000000 0 0 1
27.985510 16.812351 -0.392129 32.649620 0.540972 1.582807 0.029874 -0.019080 -900659.000000 0 0 1
28.691130 18.149451 -0.548929 33.954158 0.564032 1.586964 0.030175 -0.010793 -210961.000000 0 0 1
29.532490 18.254651 -1.691029 34.760032 0.553637 1.619464 -0.005950 0.000605 46662.900000 0 0 1
30.137090 19.508451 -1.701629 35.940498 0.574491 1.618160 -0.009128 0.011758 -423607.000000 0 0 1
29.523850 20.533351 -2.649829 36.059643 0.607688 1.644347 -0.002875 0.008244 -466215.000000 0 0 1
30.107830 21.818651 -2.641029 37.276132 0.627101 1.641706 -0.034382 0.023629 -51513.500000 0 0 1
29.412320 22.714351 -3.440129 37.321051 0.657604 1.663104 -0.013282 0.015804 -775725.000000 0 0 1
30.190310 24.056251 -3.494329 38.760397 0.672799 1.661071 -0.029316 0.024231 59545.900000 0 0 1
30.452570 24.717151 -2.276129 39.287115 0.681811 1.628765 -0.029038 0.028028 205603.000000 0 0 1
31.476820 24.113751 -1.508229 39.680448 0.653713 1.608815 -0.026357 0.033507 -566728.000000 0 0 1
31.869730 24.797751 -0.156929 40.381095 0.661242 1.574683 -0.013097 0.023220 200446.000000 0 0 1
32.418660 26.077651 -0.468229 41.608084 0.677420 1.582050 -0.003029 0.022381 49123.200000 0 0 1
33.220770 26.690751 0.504971 42.617728 0.676832 1.558947 0.012870 0.015764 -66317.700000 0 0 1
33.662030 28.101051 0.077471 43.849827 0.695603 1.569030 0.018388 0.015253 26126.700000 0 0 1
34.447616 28.105251 -1.094929 44.471815 0.684351 1.595420 0.002857 0.014414 410765.000000 0 0 1
33.644198 28.433951 -2.255729 44.107936 0.701664 1.621960 -0.005223 0.016669 552883.000000 0 0 1
34.240813 27.845851 -3.576029 44.278807 0.682760 1.651646 -0.009105 0.017749 870711.000000 0 0 1
-34.448919 28.671051 -4.280829 45.023136 -0.694115 1.666021 -0.008239 0.019805 854983.000000 0 0 1
-34.043035 28.081551 -5.548729 44.477974 -0.689731 1.695874 -0.007440 0.018934 27990.900000 0 0 1
34.611694 28.202751 -6.725229 45.150784 0.683720 1.720303 -0.018512 0.025347 388850.000000 0 0 1
33.432690 27.442751 -6.507829 43.740156 0.687317 1.720135 -0.020935 0.028916 -69213.300000 0 0 1
32.447930 27.625151 -7.494629 43.268772 0.705288 1.744885 -0.021999 0.022256 -295838.000000 0 0 1
31.276750 26.642251 -7.285829 41.726825 0.705551 1.746304 -0.021566 0.019966 -968408.000000 0 0 1
31.407650 25.218751 -7.376329 40.949190 0.676537 1.751919 -0.022638 0.019117 -483170.000000 0 0 1
32.472800 24.591051 -6.670129 41.275818 0.648145 1.733107 -0.025395 0.021851 69181.900000 0 0 1
32.599860 23.127751 -6.996229 40.578208 0.617036 1.744076 -0.024660 0.018016 431047.000000 0 0 1
31.498430 22.254151 -6.612429 39.129561 0.615086 1.740599 -0.031866 0.018439 755301.000000 0 0 1
31.785910 20.872651 -6.550529 38.586540 0.581045 1.741384 -0.012429 0.007786 -1011720.000000 0 0 1
30.656720 20.130651 -5.902029 37.147161 0.581034 1.730355 -0.016016 0.005322 -504530.000000 0 0 1
29.547670 20.061451 -6.788229 36.353909 0.596460 1.758625 -0.024740 0.002376 -179395.000000 0 0 1
28.541930 19.254451 -6.255629 34.992979 0.593476 1.750531 0.007990 -0.006706 -486693.000000 0 0 1
27.299820 18.948151 -7.070829 33.975127 0.606739 1.780447 0.002214 -0.008293 -203417.000000 0 0 1
27.319560 17.718151 -7.780929 33.478861 0.575357 1.805354 -0.002413 -0.010152 593087.000000 0 0 1
26.154970 17.681851 -8.629829 32.729257 0.594465 1.837625 0.002441 -0.005799 623593.000000 0 0 1
26.301950 16.607951 -9.772829 32.605595 0.563213 1.875204 -0.008257 -0.003001 -186225.000000 0 0 1
25.296070 16.703751 -10.794229 32.177972 0.583603 1.912883 -0.007468 0.005165 502689.000000 0 0 1
25.530950 15.697351 -11.750629 32.191824 0.551257 1.944450 -0.001998 0.002601 -658420.000000 0 0 1
24.774030 15.832051 -13.033429 32.160172 0.568645 1.988066 0.001518 0.008644 170755.000000 0 0 1
23.356020 15.627451 -13.013929 30.969069 0.589684 2.004488 0.002925 0.011606 693870.000000 0 0 1
22.830320 15.821451 -14.314029 31.247932 0.606014 2.046630 0.006497 0.010590 -256673.000000 0 0 1
22.623520 14.516151 -15.143129 30.852174 0.570476 2.083837 0.018830 0.003139 401503.000000 0 0 1
23.877520 13.861551 -15.418529 31.622928 0.525978 2.080106 0.025325 0.000963 926674.000000 0 0 1
24.522120 14.424251 -16.556729 32.916845 0.531708 2.097847 0.025192 -0.005849 -385058.000000 0 0 1
25.964150 13.932851 -16.766329 33.902378 0.492512 2.088110 0.041290 -0.005198 -194520.000000 0 0 1
25.995950 12.659251 -17.367929 33.729676 0.453169 2.111705 0.034741 -0.007009 215747.000000 0 0 1
27.313170 12.347651 -17.792929 34.857741 0.424580 2.106498 0.029941 -0.004813 279314.000000 0 0 1
27.295620 10.907751 -18.370029 34.662485 0.380175 2.129360 0.012187 -0.002481 -503923.000000 0 0 1
26.527610 10.743251 -19.505229 34.635033 0.384795 2.169007 0.028694 -0.006362 -433127.000000 0 0 1
26.493930 9.462851 -20.065829 34.555917 0.343048 2.190356 0.021257 0.005791 -36171.800000 0 0 1
27.751020 8.975551 -20.831529 35.841767 0.312813 2.191009 0.014429 -0.001797 -772358.000000 0 0 1
27.932080 9.702051 -22.046129 36.883095 0.334307 2.211463 0.015740 -0.004853 -105917.000000 0 0 1
28.712610 9.075551 -22.991029 37.886238 0.306145 2.222880 0.000051 -0.001160 520261.000000 0 0 1
30.216040 8.700651 -22.693929 38.777891 0.280364 2.195958 -0.001945 -0.000653 126773.000000 0 0 1
31.179040 9.702951 -22.692429 39.764634 0.301701 2.178116 -0.005765 -0.001892 -267574.000000 0 0 1
32.468660 9.139451 -22.765429 40.694081 0.274386 2.164492 -0.014316 0.004018 -414595.000000 0 0 1
33.550750 10.198351 -22.711129 41.778638 0.295093 2.145524 -0.004829 0.002368 -625022.000000 0 0 1
33.507180 10.908751 -21.469929 41.263662 0.314742 2.118011 -0.015918 0.003191 94090.000000 0 0 1
34.397419 11.985051 -21.392529 42.242919 0.335274 2.101821 -0.027058 0.011540 -258858.000000 0 0 1
34.227317 12.682351 -20.077729 41.658930 0.354849 2.073681 -0.039442 0.012525 -128291.000000 0 0 1
34.652106 11.842951 -18.987829 41.249989 0.329322 2.049142 -0.030711 0.003009 455993.000000 0 0 1
34.487782 12.540551 -17.761329 40.769319 0.348759 2.021561 -0.035521 -0.000168 -507145.000000 0 0 1
-34.531882 11.807251 -16.576329 40.082874 -0.329461 1.997148 -0.037763 -0.000693 -681705.000000 0 0 1
34.463009 10.633251 -16.177229 39.528063 0.299274 1.992438 -0.036252 -0.001243 226924.000000 0 0 1
-34.453471 9.909951 -15.210529 38.943665 -0.280073 1.972055 -0.027112 -0.002838 -60448.900000 0 0 1
34.461955 8.731251 -14.605829 38.434247 0.248138 1.960616 -0.019577 -0.006013 -918254.000000 0 0 1
33.322070 9.103151 -13.936729 37.248626 0.266680 1.954281 -0.015557 -0.000551 -581400.000000 0 0 1
33.351670 8.606851 -12.604529 36.678140 0.252553 1.921600 -0.010639 0.000780 107716.000000 0 0 1
32.115880 9.182951 -11.840029 35.439281 0.278501 1.911439 -0.002077 0.004929 207820.000000 0 0 1
32.136930 10.615351 -11.822129 35.850114 0.319033 1.906851 0.000090 0.003027 167950.000000 0 0 1
31.110680 11.187051 -11.023429 34.850259 0.345191 1.892632 -0.000929 0.006986 -68280.800000 0 0 1
31.173860 10.925751 -9.484829 34.367769 0.337101 1.850406 0.007993 0.009078 -126742.000000 0 0 1
32.284840 11.501951 -8.821129 35.389520 0.342245 1.822711 0.021029 0.000872 122158.000000 0 0 1
32.169140 12.890451 -8.573429 35.700434 0.381117 1.813316 0.027053 -0.004046 -346101.000000 0 0 1
32.040070 13.082251 -6.991029 35.307023 0.387649 1.770120 0.028461 -0.008268 -677315.000000 0 0 1
33.210210 12.747151 -6.306329 36.127243 0.366491 1.746254 0.038698 -0.008275 -284655.000000 0 0 1
33.099160 12.991051 -4.896629 35.892879 0.374015 1.707646 0.038721 -0.009434 285001.000000 0 0 1
34.448488 12.927751 -4.128829 37.025293 0.359014 1.682542 0.035998 -0.006092 509819.000000 0 0 1
-34.297889 14.001651 -4.310429 37.295727 -0.387587 1.686630 0.035153 -0.001561 -96500.500000 0 0 1
-33.139285 13.783651 -3.552429 36.066897 -0.394164 1.669452 0.031889 -0.009375 -222287.000000 0 0 1
-32.268955 15.024351 -3.296429 35.747490 -0.435749 1.663142 0.025521 0.001266 83570.900000 0 0 1
-32.965375 15.984451 -2.557429 36.725456 -0.451484 1.640489 0.022686 0.005424 65466.600000 0 0 1
-32.044745 16.932751 -2.087529 36.303465 -0.486116 1.628330 0.026070 0.013166 -52927.400000 0 0 1
-32.692575 17.982051 -1.152129 37.329426 -0.502870 1.601665 0.018520 0.015030 -60655.100000 0 0 1
-33.621335 18.712351 -1.919629 38.525722 -0.507867 1.620644 0.010857 0.019650 250229.000000 0 0 1
-34.402608 19.616251 -1.145129 39.618785 -0.518217 1.599704 -0.005648 0.021526 245714.000000 0 0 1
34.458303 20.623051 -1.997729 40.207908 0.539311 1.620502 -0.024135 0.030885 -38275.800000 0 0 1
-34.419880 21.686151 -2.456929 40.756028 -0.562221 1.631117 -0.012722 0.027846 346860.000000 0 0 1
34.549765 22.542451 -3.395429 41.392962 0.578105 1.652918 -0.025773 0.028807 4527.570000 0 0 1
-34.224900 23.663551 -3.868229 41.788403 -0.604940 1.663496 -0.004853 0.016498 322334.000000 0 0 1
-33.156495 23.245751 -4.732229 40.769009 -0.611458 1.687133 0.016832 0.011477 482678.000000 0 0 1
-32.305105 24.353051 -5.060729 40.771337 -0.645958 1.695242 0.018342 0.012543 281148.000000 0 0 1
-30.918505 23.943651 -5.598529 39.504379 -0.658942 1.712994 0.020571 0.003426 -151523.000000 0 0 1
-30.905905 23.118051 -6.691529 39.171365 -0.642229 1.742465 0.012818 0.003267 -747540.000000 0 0 1
-29.596405 23.221051 -7.136929 38.289688 -0.665274 1.758286 0.016491 0.001090 -820394.000000 0 0 1
-29.441645 22.384151 -8.425029 37.932069 -0.650053 1.794773 0.003106 -0.008497 -295344.000000 0 0 1
-30.268995 22.827051 -9.485529 39.080195 -0.646145 1.815965 0.014161 -0.010137 45154.300000 0 0 1
-29.837585 22.384151 -10.771829 38.824786 -0.643629 1.851932 0.008303 -0.009798 -336642.000000 0 0 1
-30.874125 22.470651 -11.887929 39.993307 -0.629151 1.872605 0.003527 -0.014480 -470499.000000 0 0 1
-31.372895 23.735851 -12.242129 41.200958 -0.647694 1.872484 0.013632 -0.007744 147340.000000 0 0 1
-31.711975 23.763951 -13.635929 41.908392 -0.643097 1.902204 0.013985 -0.012369 -679694.000000 0 0 1
-31.926845 25.236351 -14.076829 43.062211 -0.668886 1.903813 0.007257 0.002009 443314.000000 0 0 1
-30.799425 26.115151 -14.051229 42.755617 -0.703280 1.905660 0.005765 0.001673 877691.000000 0 0 1
-29.727405 25.769151 -14.966829 42.092443 -0.714194 1.934321 0.015954 -0.002747 519005.000000 0 0 1
-28.341795 26.350451 -14.575429 41.352712 -0.749004 1.931001 0.005790 0.003406 194509.000000 0 0 1
-27.645955 25.643651 -13.509029 40.054832 -0.747842 1.914805 0.009706 -0.011967 231892.000000 0 0 1
-28.226365 25.587951 -12.193029 40.001761 -0.736409 1.880538 0.019994 -0.005032 -417656.000000 0 0 1
-28.356565 26.992751 -11.538629 40.814745 -0.760763 1.857412 0.020943 0.006021 431559.000000 0 0 1
-27.192635 27.408751 -10.812029 40.094626 -0.789356 1.843839 0.013814 0.005919 319487.000000 0 0 1
-27.490375 28.644451 -10.207329 40.992864 -0.805954 1.822447 0.004935 0.009571 525658.000000 0 0 1
-26.236735 29.384451 -9.645129 40.556637 -0.841930 1.810916 0.006670 0.004778 440966.000000 0 0 1
-26.516935 30.772151 -9.398829 41.694258 -0.859538 1.798173 -0.001247 0.009881 -153019.000000 0 0 1
-25.425075 31.476051 -8.877529 41.424471 -0.891342 1.786778 0.003020 0.006592 -559502.000000 0 0 1
33.207920 -25.532559 34.367124 54.182808 -0.655469 0.883718 -0.011398 0.005437 -184773.000000 0 0 1
32.796900 -24.186249 34.371270 53.310369 -0.635424 0.870115 -0.008809 -0.000664 313877.000000 0 0 1
31.873730 -23.899749 -33.907439 52.314884 -0.643390 2.275937 -0.014429 0.001175 135008.000000 0 0 1
31.567960 -22.391349 -33.621639 51.267175 -0.616944 2.286054 -0.016793 0.000778 -416814.000000 0 0 1
30.818290 -21.847849 -34.615780 51.238147 -0.616691 2.312556 -0.023257 0.003368 -347439.000000 0 0 1
30.516150 -20.480149 -34.259878 50.243518 -0.591083 2.321121 -0.020837 0.008426 186991.000000 0 0 1
30.185990 -19.659449 33.825832 49.415330 -0.577273 0.816850 -0.010003 0.003398 114126.000000 0 0 1
31.363870 -19.345949 33.117414 49.545143 -0.552697 0.838702 -0.002134 -0.000359 454628.000000 0 0 1
31.035550 -18.903049 31.785274 48.278714 -0.547067 0.852145 -0.000020 0.002511 159354.000000 0 0 1
32.371020 -18.940249 30.999574 48.657883 -0.529391 0.880076 -0.004767 0.009359 16133.900000 0 0 1
33.211930 -17.877049 31.353694 49.047684 -0.493794 0.877275 -0.003738 -0.001774 54327.700000 0 0 1
34.242250 -17.799849 30.368844 49.108380 -0.479379 0.904085 0.000021 0.003049 309460.000000 0 0 1
-34.379505 -16.672949 30.650774 48.983748 0.451550 0.894725 -0.002362 -0.005547 -743775.000000 0 0 1
-33.461795 -16.382749 29.602314 47.585535 0.455290 0.899392 0.004526 0.001169 969659.000000 0 0 1
-32.346935 -15.539649 29.926824 46.727077 0.447850 0.875699 0.010992 -0.004668 1014550.000000 0 0 1
-31.392405 -16.082449 31.037144 46.983322 0.473442 0.849180 0.008767 -0.009401 -1090950.000000 0 0 1
-30.334085 -15.245849 31.418764 46.257230 0.465724 0.824099 0.005881 -0.004395 289585.000000 0 0 1
-29.365935 -15.883249 32.246244 46.416118 0.495809 0.802765 0.008992 -0.006064 29795.600000 0 0 1
-28.385595 -14.911649 32.898524 45.939222 0.483701 0.772552 0.015668 -0.008715 -392384.000000 0 0 1
-28.938095 -13.972849 33.752719 46.603647 0.449836 0.760849 0.016509 0.001704 484881.000000 0 0 1
-27.877535 -13.173549 34.278989 46.105840 0.441448 0.732530 0.022924 -0.001933 234221.000000 0 0 1
-28.083795 -12.674749 -33.559169 45.558387 0.423950 2.398854 0.021083 0.000593 -124261.000000 0 0 1
-28.107125 -13.717649 -32.579989 45.162374 0.454041 2.376613 0.029123 0.005758 153469.000000 0 0 1
-28.499645 -13.040449 -31.409759 44.371793 0.429127 2.357284 0.039389 0.012611 -240123.000000 0 0 1
-28.552325 -13.921349 -30.120049 43.775068 0.453657 2.329614 0.041281 0.014054 612224.000000 0 0 1
-29.618555 -14.892249 -30.179559 44.831280 0.465886 2.309298 0.032833 0.009207 413788.000000 0 0 1
-29.720635 -15.798149 -29.071239 44.475101 0.488572 2.283196 0.037095 0.007921 -262083.000000 0 0 1
-30.968805 -16.659949 -29.008729 45.586480 0.493552 2.260547 0.019770 0.006870 -442545.000000 0 0 1
-30.804605 -17.912549 -29.587879 46.316581 0.526697 2.263758 0.022742 0.009760 338188.000000 0 0 1
-32.023965 -18.583549 -29.859789 47.565635 0.525809 2.249468 0.011111 0.005034 -89560.100000 0 0 1
-31.693755 -19.986449 -30.424479 48.265942 0.562624 2.252801 0.017473 0.002978 217287.000000 0 0 1
-32.834905 -20.827349 -30.593889 49.476211 0.565263 2.237445 -0.015164 0.000679 263478.000000 0 0 1
-32.583705 -22.013049 -31.255549 50.231280 0.594151 2.242388 -0.010747 -0.002845 893698.000000 0 0 1
-33.946735 -22.804049 -31.410289 51.565606 0.591520 2.225763 -0.003568 0.001512 1106250.000000 0 0 1
-34.577512 -23.362249 -30.289939 51.564323 0.594195 2.198664 -0.019246 -0.004211 -120909.000000 0 0 1
34.115429 -24.359049 -30.525739 51.856017 -0.620073 2.200201 -0.016273 0.002415 -225667.000000 0 0 1
34.637010 -25.798429 -30.677539 52.975398 -0.640179 2.188409 -0.018574 0.003443 -206695.000000 0 0 1
-34.390335 -25.901519 -31.950819 53.613792 0.645522 2.209237 -0.007836 0.004945 -81167.500000 0 0 1
-33.643205 -27.098629 -32.091359 53.815019 0.678068 2.209714 0.000424 0.007089 -150738.000000 0 0 1
-33.838595 -27.748699 -33.450289 55.081418 0.686836 2.223439 0.003448 0.002574 -713589.000000 0 0 1
34.528519 -28.200889 -33.627009 55.841601 -0.684866 2.217032 0.008690 0.000530 -1026920.000000 0 0 1
34.344503 -29.323839 -34.452261 56.801326 -0.706704 2.222497 -0.000237 0.000780 14370.900000 0 0 1
-34.743454 -30.737019 -33.925909 57.470333 0.724289 2.202252 0.004829 -0.001679 502154.000000 0 0 1
34.358183 -31.203369 -32.704539 56.777829 -0.737315 2.184634 0.012783 -0.006272 315425.000000 0 0 1
-34.382875 -32.139439 -32.158019 57.002314 0.751686 2.170203 0.005926 -0.006606 288183.000000 0 0 1
-34.752281 -32.628869 -30.747389 56.725356 0.753895 2.143659 0.011101 -0.009467 -524658.000000 0 0 1
33.974765 -33.639689 -30.793709 56.869727 -0.780443 2.142991 0.022474 -0.006634 -380934.000000 0 0 1
33.400190 -33.860469 -29.531549 55.984073 -0.792241 2.126450 0.018687 -0.006663 -676732.000000 0 0 1
32.264590 34.659884 -29.446239 55.761925 0.821174 2.127123 0.019217 -0.009549 -1200770.000000 0 0 1
31.074670 -34.301959 -29.894329 55.099277 -0.834723 2.144271 0.026202 -0.011952 -1332740.000000 0 0 1
30.047680 34.326940 -29.580339 54.370933 0.851775 2.146049 0.025786 -0.008416 92494.500000 0 0 1
28.658900 34.755202 -30.148399 54.205005 0.881238 2.160593 0.007443 -0.001070 40309.700000 0 0 1
28.610810 34.573115 -31.546409 54.854851 0.879484 2.183509 0.009083 -0.004161 -446760.000000 0 0 1
27.402390 -34.503168 -32.094799 54.510877 -0.899602 2.200342 0.005443 0.005597 -477229.000000 0 0 1
27.173470 34.438405 -33.464729 55.175078 0.902771 2.222471 0.003738 0.002306 -129299.000000 0 0 1
26.917410 33.067600 -33.323469 54.115309 0.887570 2.234180 -0.004048 0.010889 53124.900000 0 0 1
26.629820 32.448060 -34.594371 54.394801 0.883566 2.260083 0.000448 0.008667 -207539.000000 0 0 1
26.714260 30.877030 34.596817 53.516188 0.857554 0.867843 -0.003788 0.008914 -1062200.000000 0 0 1
27.992580 30.280600 34.637363 53.853934 0.824642 0.872162 0.006556 0.007667 -331142.000000 0 0 1
27.818270 28.864900 34.612523 52.962868 0.803861 0.858565 0.000040 0.006819 495278.000000 0 0 1
29.160660 28.088440 -34.579922 53.245428 0.766671 2.277649 0.012918 0.005763 424035.000000 0 0 1
29.662290 28.122860 -33.277179 52.707849 0.758764 2.254091 0.014759 0.006947 -635636.000000 0 0 1
30.846570 27.385320 -33.164419 52.927737 0.726029 2.247977 0.025654 0.006931 -226327.000000 0 0 1
31.554090 27.677500 -31.816449 52.668691 0.720043 2.219415 0.025538 0.004254 -591268.000000 0 0 1
32.471970 28.735740 -31.797639 53.770451 0.724432 2.203539 0.016765 0.007826 -62180.300000 0 0 1
31.978050 30.070350 -31.828559 54.220649 0.754662 2.198168 0.014773 0.006636 -91401.900000 0 0 1
30.951660 30.472950 -30.735739 53.209882 0.777605 2.186621 0.011985 0.005896 150791.000000 0 0 1
31.475100 30.563590 -29.418059 52.822695 0.770707 2.161470 0.011555 0.006900 172630.000000 0 0 1
30.454260 30.725970 -28.431639 51.767802 0.789839 2.152221 0.014367 0.005473 236871.000000 0 0 1
31.056890 31.123940 -27.038069 51.616734 0.786476 2.122130 0.024663 0.002795 125517.000000 0 0 1
31.591790 32.438320 -27.018959 52.728645 0.798618 2.108791 0.023847 0.000017 115750.000000 0 0 1
31.720430 32.787870 -25.662769 52.343174 0.801944 2.083206 0.014311 0.000275 -3367.970000 0 0 1
32.126880 34.238044 -25.419899 53.390555 0.817199 2.067025 0.014300 -0.006150 269043.000000 0 0 1
30.954320 -34.483606 -25.495269 52.889486 -0.839279 2.073787 0.013129 -0.001193 343085.000000 0 0 1
31.208090 -33.072229 -25.303829 52.038456 -0.814390 2.078592 0.008458 -0.007768 -389734.000000 0 0 1
32.030590 -32.293139 -26.365909 52.573440 -0.789480 2.096135 -0.000111 -0.005513 130649.000000 0 0 1
33.329540 -32.762409 -26.622329 53.786449 -0.776817 2.088589 0.008767 -0.006514 -408899.000000 0 0 1
34.317064 -31.989149 -25.990199 53.632611 -0.750304 2.076699 0.012665 -0.007716 -537352.000000 0 0 1
-33.911775 -32.402819 -26.335809 53.791505 0.762648 2.082416 -0.008231 -0.001968 -621510.000000 0 0 1
-33.488915 -33.754999 -25.940369 54.164657 0.789355 2.070217 -0.002520 -0.002296 6786.070000 0 0 1
-33.291095 -34.021749 -24.535229 53.551413 0.796252 2.046723 -0.001311 -0.006522 961869.000000 0 0 1
-32.047395 -33.225189 -23.883529 51.974721 0.803440 2.048253 -0.002042 -0.000960 1097240.000000 0 0 1
-32.265625 -31.800949 -23.748329 51.150308 0.778145 2.053624 -0.023115 0.001993 -145895.000000 0 0 1
-31.922315 -31.389649 -22.421929 50.070821 0.776985 2.035104 -0.012844 0.000891 -339842.000000 0 0 1
-31.815965 -29.851919 -22.266229 48.981401 0.753560 2.042703 -0.013015 0.012182 512635.000000 0 0 1
-32.987525 -29.097599 -22.620729 49.462556 0.722825 2.045787 -0.027578 0.013986 104725.000000 0 0 1
-33.037005 -28.849519 -23.975729 49.985738 0.717837 2.071054 -0.023526 0.014673 -741300.000000 0 0 1
-34.222840 -28.064969 -24.480729 50.578171 0.686857 2.076037 -0.025650 0.015920 -624560.000000 0 0 1
-34.310608 -26.772699 -23.919229 49.660092 0.662615 2.073343 -0.031000 0.022547 -218096.000000 0 0 1
34.470276 -25.902359 -24.592929 49.638133 -0.644422 2.089143 -0.027153 0.018690 -486315.000000 0 0 1
-34.807253 -25.351109 -25.968429 50.285016 0.629486 2.113467 -0.031521 0.012174 -1013090.000000 0 0 1
-33.870405 -24.326749 -26.039109 49.163302 0.622857 2.128979 -0.034026 0.012609 -454126.000000 0 0 1
-33.835975 -23.645049 -27.281879 49.479920 0.609929 2.154805 -0.023076 -0.008396 214223.000000 0 0 1
-32.574635 -22.735849 -27.423529 48.270857 0.609357 2.175013 -0.011483 -0.022878 -54437.200000 0 0 1
-32.470635 -21.592549 -26.531569 47.164653 0.586839 2.168240 -0.026455 -0.002311 335052.000000 0 0 1
-33.391345 -20.483349 -26.711969 47.413909 0.550238 2.169265 -0.029207 -0.001182 736617.000000 0 0 1
-34.503410 -20.468649 -25.608499 47.594602 0.535431 2.138924 -0.025948 0.002838 -245863.000000 0 0 1
-34.022025 -20.073549 -24.302529 46.379505 0.533046 2.122329 -0.017099 -0.001095 299627.000000 0 0 1
-33.224345 -21.019549 -23.560529 45.834235 0.564085 2.110682 -0.033859 0.005253 -112909.000000 0 0 1
-33.970015 -22.196049 -22.934629 46.611412 0.578763 2.085227 -0.017799 0.011596 -281192.000000 0 0 1
34.723331 -21.854149 -21.993529 46.551357 -0.561742 2.062873 -0.021499 0.013733 -222791.000000 0 0 1
34.144018 -23.047949 -21.436429 46.438587 -0.593764 2.050603 -0.018326 0.018655 -19358.800000 0 0 1
33.179570 -22.676549 -20.301329 45.025034 -0.599531 2.038558 -0.017238 0.012635 557410.000000 0 0 1
31.986210 -22.023949 -20.769029 44.040033 -0.602997 2.061894 0.013711 0.008768 1428030.000000 0 0 1
30.833530 -22.317749 -19.903329 42.952660 -0.626531 2.052600 0.026946 0.000321 1448610.000000 0 0 1
29.517500 -21.699149 -20.441729 41.952356 -0.633915 2.079746 0.026768 0.007790 -541536.000000 0 0 1
29.097540 -22.319749 -21.633329 42.577446 -0.654335 2.103766 0.025774 0.006994 580733.000000 0 0 1
27.792400 -21.820549 -21.967229 41.606646 -0.665606 2.127010 0.043016 0.004709 630014.000000 0 0 1
27.650420 -20.532249 -22.714429 41.256081 -0.638726 2.153845 0.043546 0.008262 -488890.000000 0 0 1
28.059170 -19.400249 -21.994429 40.588688 -0.604934 2.143475 0.029088 0.014134 -30868.800000 0 0 1
28.153860 -18.309049 -22.885129 40.639762 -0.576601 2.168955 0.027090 0.012327 184385.000000 0 0 1
29.049410 -17.200349 -22.232729 40.422945 -0.534595 2.153164 0.025798 0.006962 -75280.800000 0 0 1
28.474900 -16.685349 -21.065229 39.153093 -0.530037 2.138885 0.016686 0.005034 563224.000000 0 0 1
29.476590 -16.209349 -20.167429 39.221646 -0.502771 2.110861 0.008663 0.004138 -33123.200000 0 0 1
30.356110 -17.184649 -19.458029 39.942715 -0.515121 2.079618 0.015062 0.000880 -667374.000000 0 0 1
31.428250 -17.673149 -20.234529 41.346236 -0.512263 2.082189 0.016788 -0.002451 108091.000000 0 0 1
32.289060 -18.484949 -19.379329 41.950389 -0.519941 2.050998 0.018420 -0.003780 -70724.300000 0 0 1
33.498210 -18.888349 -20.199829 43.438841 -0.513423 2.054451 0.000670 -0.002895 -668258.000000 0 0 1
34.351326 -17.812549 -20.537429 43.807379 -0.478370 2.058742 0.001897 0.002667 304789.000000 0 0 1
-34.236787 -18.382249 -21.296629 44.312651 0.492742 2.072134 -0.012052 0.008440 608388.000000 0 0 1
-33.164405 -17.375449 -21.795729 43.322486 0.482599 2.097983 -0.012905 0.011611 138106.000000 0 0 1
-32.505765 -16.701349 -20.756629 42.028532 0.474624 2.087331 -0.005459 0.005552 70038.900000 0 0 1
-31.622365 -15.683349 -21.187429 41.168538 0.460408 2.111397 -0.005521 0.007947 546683.000000 0 0 1
-30.318375 -15.412449 -20.341129 39.629648 0.470308 2.109799 -0.002067 0.013350 1526400.000000 0 0 1
-29.268735 -16.415849 -20.319429 39.230322 0.511148 2.115252 -0.005588 0.004505 1018760.000000 0 0 1
-29.649845 -17.662549 -19.695529 39.736542 0.537255 2.089383 -0.010289 0.001456 68914.500000 0 0 1
-28.507535 -18.730749 -19.706229 39.393603 0.581312 2.094671 -0.010197 -0.005079 119187.000000 0 0 1
-29.039705 -19.998349 -19.436929 40.262049 0.603071 2.074601 -0.009356 -0.003496 25000.500000 0 0 1
-28.093865 -21.019549 -19.295929 40.042722 0.642342 2.073599 -0.011265 -0.010071 -207129.000000 0 0 1
-28.799795 -22.360349 -18.980329 41.105550 0.660188 2.050759 -0.011065 -0.001709 44337.100000 0 0 1
-29.737825 -22.776949 -19.955229 42.442182 0.653616 2.060285 -0.012744 0.004213 60185.900000 0 0 1
-30.318205 -24.010749 -19.699729 43.402637 0.669818 2.041915 -0.011557 0.011592 -74642.500000 0 0 1
-31.321485 -24.371149 -20.829129 44.820095 0.661242 2.054123 -0.021181 0.016672 -192418.000000 0 0 1
-30.672825 -24.665649 -22.030129 45.105909 0.677268 2.081062 -0.018369 0.009751 -216996.000000 0 0 1
-31.432735 -25.342439 -22.976529 46.456183 0.678536 2.088154 -0.022298 0.015026 -346713.000000 0 0 1
-30.828645 -25.375679 -24.430929 46.810263 0.688680 2.119890 -0.020539 0.014482 1166380.000000 0 0 1
-29.536255 -26.019019 -24.588129 46.410729 0.722172 2.129154 -0.001260 -0.002484 781974.000000 0 0 1
-29.388225 -26.371199 -25.881409 47.211812 0.731343 2.151004 0.003696 0.003025 107130.000000 0 0 1
-27.920415 -26.717829 -26.241999 46.712252 0.763392 2.167332 0.016636 -0.008240 309599.000000 0 0 1
-27.171275 -25.567949 -26.619709 45.832380 0.755006 2.190514 0.025766 -0.013058 -340245.000000 0 0 1
-25.816495 -25.858889 -26.805329 45.317758 0.786219 2.203711 0.026185 -0.015968 163340.000000 0 0 1
-24.893425 -24.599049 -27.023759 44.216279 0.779450 2.228337 0.030444 -0.016886 46522.800000 0 0 1
-24.985525 -24.055949 -28.311279 44.771572 0.766446 2.255379 0.026959 -0.017182 -142654.000000 0 0 1
-24.130525 -22.965849 -28.430769 43.795217 0.760674 2.277296 0.040083 -0.017590 -115516.000000 0 0 1
-23.900825 -22.492049 -29.867359 44.375678 0.755041 2.309131 0.026947 -0.007051 7426.130000 0 0 1
-23.425925 -23.402249 -30.846619 45.254316 0.784893 2.320782 0.023887 -0.010626 280876.000000 0 0 1
-23.195325 -22.773449 -32.101389 45.685361 0.776221 2.349929 0.027741 -0.002128 66707.800000 0 0 1
-22.673525 -23.795849 -33.117479 46.659389 0.809545 2.359969 0.023862 -0.009994 280516.000000 0 0 1
-23.760125 -24.572949 -33.583089 47.918652 0.802214 2.347364 0.005185 -0.010153 363396.000000 0 0 1
-23.272225 -25.847459 -33.980579 48.624760 0.837778 2.344561 0.013307 -0.000401 171183.000000 0 0 1
-19.009825 -15.835449 -11.934229 27.469268 0.694550 2.020232 0.009865 0.010831 85844.600000 0 0 1
-19.491325 -14.895649 -11.017129 26.891806 0.652540 1.992903 0.005929 0.004818 34294.900000 0 0 1
-18.735825 -15.242149 -9.901729 26.103610 0.682936 1.959862 -0.005507 -0.001383 -110923.000000 0 0 1
-18.928925 -14.407049 -8.565429 25.283074 0.650575 1.916417 -0.000431 -0.009005 323296.000000 0 0 1
-20.148425 -14.748949 -7.892129 26.187329 0.631891 1.876928 0.020481 -0.015793 602907.000000 0 0 1
-20.280425 -14.236849 -6.608429 25.644782 0.612067 1.831428 -0.001010 -0.023903 66116.100000 0 0 1
-21.623425 -14.643749 -5.940129 26.782401 0.595271 1.794448 0.018976 -0.025794 -183131.000000 0 0 1
-21.671125 -15.961149 -5.379129 27.446875 0.634816 1.768056 0.019293 -0.022973 71090.800000 0 0 1
-20.868225 -16.195849 -4.259529 26.756904 0.659997 1.730670 0.014138 -0.019368 -435518.000000 0 0 1
-20.704525 -17.728549 -3.853829 27.528727 0.708120 1.711251 0.007536 -0.021687 -494144.000000 0 0 1
-21.839825 -18.286349 -3.277929 28.672519 0.697071 1.685370 0.019351 -0.021547 -436198.000000 0 0 1
-21.621025 -19.595349 -2.808629 29.314413 0.736290 1.666754 0.005925 -0.007306 -829012.000000 0 0 1
-22.855025 -20.320349 -2.340129 30.671566 0.726759 1.647167 -0.004953 -0.012908 -984094.000000 0 0 1
-23.161125 -21.345249 -3.243429 31.663499 0.744620 1.673411 -0.011932 -0.014780 15393.300000 0 0 1
-23.987825 -22.394749 -2.745329 32.931404 0.751065 1.654258 0.008230 -0.013205 -52582.700000 0 0 1
-24.037525 -23.618649 -3.711229 33.903044 0.776609 1.680482 -0.003195 -0.008590 -656622.000000 0 0 1
-22.926125 -24.472549 -3.603029 33.726765 0.818012 1.677831 -0.006132 -0.001822 -567564.000000 0 0 1
-22.778525 -25.202629 -4.800629 34.308596 0.835877 1.711182 -0.015494 -0.001304 -498109.000000 0 0 1
-21.524725 -24.954449 -5.615329 33.430080 0.859055 1.739569 -0.004653 0.007534 -572691.000000 0 0 1
-21.267725 -23.712149 -6.232229 32.456476 0.839690 1.764014 -0.008691 0.005655 17592.400000 0 0 1
-21.042225 -22.603449 -5.372129 31.345668 0.821153 1.743030 -0.003327 0.002790 -722616.000000 0 0 1
-21.113825 -21.221449 -6.034929 30.537909 0.787940 1.769727 0.005573 -0.002094 -698735.000000 0 0 1
-19.987425 -20.897249 -6.775529 29.700168 0.807648 1.800954 0.011520 -0.002390 -528060.000000 0 0 1
-20.045525 -19.568449 -7.244629 28.934960 0.773356 1.823865 0.008498 -0.003838 -545901.000000 0 0 1
-18.802325 -19.163049 -7.997529 28.012682 0.794899 1.860321 0.021511 -0.007976 -690258.000000 0 0 1
-18.663625 -19.861749 -9.211629 28.769325 0.816488 1.896726 0.001106 -0.004894 198603.000000 0 0 1
-17.339125 -19.904849 -9.736829 28.136348 0.854179 1.924163 0.031268 0.004949 395027.000000 0 0 1
-16.818825 -18.643649 -10.484929 27.210150 0.836811 1.966363 0.020678 0.005711 -306876.000000 0 0 1
-16.573225 -17.493149 -9.680929 25.969259 0.812395 1.952804 0.020666 -0.006050 -201179.000000 0 0 1
-15.299625 -17.543049 -9.091729 24.989930 0.853600 1.943157 0.021950 -0.014402 -653079.000000 0 1 0
-14.898525 -16.341649 -8.227829 23.594760 0.831560 1.926995 0.010862 -0.011504 -314741.000000 0 1 0
-15.669825 -16.328549 -7.081829 23.713229 0.805981 1.874068 -0.000016 -0.011381 -182522.000000 0 1 0
-15.891325 -15.103049 -6.515029 22.870984 0.759971 1.859657 -0.001476 -0.008393 -326773.000000 0 1 0
-16.713525 -15.468149 -5.237629 23.367462 0.746719 1.796859 0.000556 -0.009802 24957.500000 0 1 0
-17.233825 -14.342749 -4.574329 22.883261 0.694095 1.772051 0.001992 -0.002653 137978.000000 0 1 0
-17.425225 -14.617449 -3.192629 22.967393 0.697995 1.710255 -0.012454 -0.003309 -429881.000000 0 1 0
-18.175425 -13.472049 -2.518029 22.763626 0.637860 1.681639 -0.012363 -0.000923 -728966.000000 0 1 0
-19.486825 -13.402249 -3.002829 23.840587 0.602464 1.697086 -0.003544 -0.009698 121414.000000 0 1 0
-20.302425 -12.737049 -1.985129 24.049150 0.560299 1.653435 -0.000641 -0.001313 -937741.000000 0 1 0
-21.761525 -12.857049 -2.304329 25.380654 0.533639 1.661712 0.002463 -0.000079 -1351860.000000 0 0 1
-22.197025 -12.046049 -3.356829 25.477118 0.497212 1.702939 0.002445 -0.002743 -80135.000000 0 0 1
-23.489925 -12.416649 -3.751029 26.833188 0.486261 1.711046 0.007021 -0.002128 -601527.000000 0 0 1
-24.169925 -11.574949 -4.770329 27.219860 0.446625 1.746958 0.010622 -0.006636 -180057.000000 0 0 1
-23.570125 -11.814449 -6.044729 27.049413 0.464645 1.796169 0.010177 -0.014285 390962.000000 0 0 1
-24.296525 -11.203049 -7.078329 27.675480 0.432044 1.829432 0.021161 -0.015259 -600910.000000 0 0 1
-23.621425 -11.379649 -8.487029 27.558988 0.448942 1.883843 0.036091 -0.019235 -1101410.000000 0 0 1
-22.437725 -10.717749 -8.639029 26.324028 0.445622 1.905173 0.016193 -0.017550 -683060.000000 0 0 1
-21.698025 -11.221849 -9.763229 26.306935 0.477299 1.951019 0.009141 -0.010636 -274787.000000 0 0 1
-20.266625 -10.697249 -9.852429 24.944690 0.485660 1.976833 -0.005313 -0.001220 -561265.000000 0 1 0
-20.282425 -9.358049 -10.375029 24.629070 0.432283 2.005621 -0.008168 -0.003307 651367.000000 0 1 0
-19.114725 -8.705149 -9.903129 23.221204 0.427349 2.011382 -0.009975 0.000267 -71699.400000 0 1 0
-18.883425 -7.313049 -10.420829 22.774066 0.369487 2.046062 -0.033006 -0.006408 -175644.000000 0 1 0
-18.491825 -7.338049 -11.806629 23.134196 0.377768 2.106393 -0.007774 -0.011849 457850.000000 0 1 0
-18.530225 -6.056049 -12.421329 23.115674 0.315877 2.138094 0.002287 -0.022785 -505350.000000 0 1 0
-18.018125 -5.905549 -13.831929 23.470207 0.316723 2.201038 0.017432 -0.023924 -530547.000000 0 1 0
-18.799625 -6.509549 -14.825629 24.811276 0.333339 2.211221 0.007628 -0.026793 113466.000000 0 1 0
-18.242225 -6.289349 -16.082729 25.119492 0.332007 2.265619 0.005956 -0.029785 -316448.000000 0 0 1
-18.481825 -7.424049 -17.068229 26.230112 0.381966 2.279317 -0.000403 -0.022329 400445.000000 0 0 1
-19.828625 -7.342049 -17.538729 27.471568 0.354622 2.263256 -0.000353 -0.023012 696702.000000 0 0 1
-20.079825 -8.309849 -18.526329 28.556572 0.392381 2.276749 0.014027 -0.018901 -90737.900000 0 0 1
-21.503525 -8.134549 -19.097729 29.888053 0.361651 2.263962 -0.001283 -0.015072 -483063.000000 0 0 1
-21.533925 -6.917149 -19.879329 30.112200 0.310810 2.291848 -0.000897 -0.019447 266562.000000 0 0 1
-22.694625 -6.644249 -20.637329 31.386166 0.284808 2.288331 0.000962 -0.020926 382951.000000 0 0 1
-23.964025 -6.184349 -19.880029 31.744861 0.252558 2.247522 0.012189 -0.017342 40107.400000 0 0 1
-23.816525 -4.842949 -19.465429 31.138143 0.200609 2.246096 0.011576 -0.010033 839162.000000 0 0 1
-25.072995 -4.492249 -18.854629 31.691204 0.177286 2.207998 0.017816 -0.004377 344387.000000 0 0 1
-25.285175 -2.958349 -18.600829 31.529078 0.116470 2.201803 0.005364 -0.008523 -195186.000000 0 0 1
-25.496585 -2.092049 -19.715829 32.298087 0.081869 2.227404 0.015882 -0.002169 146775.000000 0 0 1
-26.752275 -2.367049 -20.312729 33.673344 0.088250 2.218339 0.023119 0.010462 -154512.000000 0 0 1
-27.080155 -1.139249 -21.299629 34.471827 0.042045 2.236846 0.023611 0.010211 -58617.300000 0 0 1
-26.377455 -0.976849 -22.528729 34.702565 0.037017 2.277322 0.027331 0.021060 105803.000000 0 0 1
-26.725115 -1.970749 -23.470429 35.622699 0.073608 2.290101 0.049039 0.013256 -266067.000000 0 0 1
-26.075305 -1.818749 -24.822629 36.047084 0.069637 2.330376 0.049672 0.009219 -844528.000000 0 0 1
-26.398725 -0.696849 -25.598569 36.778595 0.026391 2.340633 0.033330 0.015065 32068.000000 0 0 1
-26.120685 0.612851 -25.135949 36.255782 -0.023458 2.336847 0.017820 0.024460 501358.000000 0 0 1
-24.602125 0.870851 -24.813829 34.953527 -0.035383 2.360166 0.010697 0.023020 414596.000000 0 0 1
-23.810725 0.635051 -25.961819 35.233081 -0.026664 2.399209 0.005971 0.013288 282975.000000 0 0 1
-22.450625 0.482851 -25.526999 33.998403 -0.021504 2.420113 -0.002435 0.021646 652129.000000 0 0 1
-21.515625 0.002551 -26.666019 34.263664 -0.000119 2.462685 -0.006327 0.005029 -246637.000000 0 0 1
-21.414525 0.930351 -27.741849 35.057918 -0.043418 2.483753 -0.013501 0.009124 356482.000000 0 0 1
-20.672625 0.396251 -28.860549 35.502757 -0.019166 2.519928 -0.013428 0.004460 184506.000000 0 0 1
-20.392425 1.384951 -29.985819 36.289371 -0.067811 2.543298 -0.010773 0.012821 -707559.000000 0 0 1
-19.419825 2.351451 -29.754099 35.608501 -0.120498 2.560002 -0.003622 0.011910 -77665.400000 0 0 1
-19.290325 3.373351 -30.733339 36.442204 -0.173122 2.574274 -0.011469 0.008365 -264354.000000 0 0 1
-18.610725 2.903451 -32.040779 37.167198 -0.154762 2.610139 -0.017293 0.000432 -598207.000000 0 0 1
-17.323925 2.391551 -31.908279 36.386483 -0.137182 2.640226 -0.017148 0.007496 -411526.000000 0 0 1
-16.709225 1.905451 -33.100579 37.127850 -0.113545 2.671507 -0.033643 0.009497 -65264.000000 0 0 1
-15.177525 1.813851 -33.040129 36.404635 -0.118945 2.708281 -0.010317 -0.000640 -399107.000000 0 0 1
-14.582025 3.105551 -32.994709 36.206777 -0.209836 2.717191 -0.004350 0.000590 1462120.000000 0 0 1
-13.222025 2.978451 -33.521899 36.158136 -0.221566 2.757374 -0.023853 0.003218 1022630.000000 0 0 1
-12.608525 4.268051 -34.024269 36.535490 -0.326398 2.768669 -0.010751 0.006161 -412073.000000 0 0 1
-12.594025 5.170051 -32.948669 35.650437 -0.389539 2.749771 0.007848 -0.005183 454864.000000 0 0 1
-11.908125 6.364551 -33.311939 35.944349 -0.490843 2.756502 0.012891 -0.001813 -55920.200000 0 0 1
-11.597525 7.277851 -32.084329 34.883719 -0.560420 2.738241 0.010123 -0.003335 -237150.000000 0 0 1
-10.583325 6.904451 -31.161079 33.625750 -0.578053 2.756338 0.018410 -0.011655 232887.000000 0 0 1
-10.812925 5.820051 -30.281489 32.676611 -0.493777 2.756337 0.018419 -0.012416 -386467.000000 0 0 1
-9.493725 5.082951 -29.954179 31.831117 -0.491566 2.796471 0.016009 -0.015996 -537144.000000 0 0 1
-9.029525 4.263251 -30.957909 32.528445 -0.441117 2.829581 0.014010 -0.015871 47821.500000 0 0 1
-9.872225 3.219451 -31.462719 33.131984 -0.315237 2.822810 0.012808 -0.011153 -541162.000000 0 0 1
-9.419425 2.458751 -32.732289 34.149286 -0.255332 2.852510 0.010817 -0.014740 -496693.000000 0 0 1
-10.320625 1.457851 -33.168989 34.768124 -0.140328 2.837122 0.007403 -0.010653 92438.500000 0 0 1
-9.928025 0.698351 -34.325513 35.739253 -0.070226 2.859385 0.004845 -0.005186 -669630.000000 0 0 1
-10.394025 1.332251 33.667590 35.260704 -0.127480 0.301746 0.005363 -0.003399 317957.000000 0 0 1
-11.806825 1.185651 33.519771 35.558149 -0.100085 0.340239 -0.021337 0.001073 210162.000000 0 0 1
-12.129025 1.361951 32.160404 34.398543 -0.111820 0.362720 -0.024510 0.002428 968608.000000 0 0 1
-13.639425 0.959151 31.880394 34.688808 -0.070206 0.405159 -0.013488 0.005879 1613960.000000 0 0 1
-14.518525 2.022251 32.354314 35.520117 -0.138397 0.425402 -0.018468 0.020765 -263647.000000 0 0 1
-15.855425 1.767351 32.083454 35.831077 -0.111008 0.461448 -0.016544 0.019762 -559019.000000 0 0 1
-16.642625 3.028451 31.667034 35.901943 -0.180000 0.490617 -0.012062 0.022107 -381156.000000 0 0 1
-17.001425 3.916451 32.703364 37.066118 -0.226410 0.490074 -0.016438 0.014413 404733.000000 0 0 1
-16.046225 4.955351 32.875424 36.916532 -0.299526 0.472279 -0.011122 0.011749 -355184.000000 0 0 1
-16.360725 5.719551 34.229803 38.367513 -0.336310 0.468701 -0.013892 0.011424 -296463.000000 0 0 1
-17.566325 6.434151 34.184894 38.968976 -0.351102 0.500727 -0.016319 0.010355 -507917.000000 0 0 1
-18.548325 5.607251 -34.490577 39.561111 -0.293570 2.629723 -0.021247 0.009413 910673.000000 0 0 1
-19.988825 6.297051 -34.526552 40.389216 -0.305187 2.596050 -0.014977 0.006741 973174.000000 0 0 1
-20.164225 7.572151 -33.995969 40.244992 -0.359230 2.576848 -0.001108 0.002624 54753.400000 0 0 1
-19.721825 8.591651 34.462835 40.625778 -0.410850 0.558030 -0.010446 0.003860 -536125.000000 0 0 1
-19.565525 9.967051 -34.194036 40.637224 -0.471154 2.570750 -0.005787 0.007061 -170417.000000 0 0 1
-18.439725 10.096751 -33.341349 39.415903 -0.500964 2.579020 0.001440 0.005213 241839.000000 0 0 1
-18.324725 11.498351 -32.946289 39.414028 -0.560379 2.560572 0.012483 0.006515 377858.000000 0 0 1
-17.589325 12.500551 -33.965959 40.240956 -0.617864 2.575614 0.005919 -0.006537 -61777.700000 0 0 1
-18.302125 12.722351 34.150818 40.781177 -0.607450 0.578258 0.006348 -0.003365 -14844.200000 0 0 1
-17.510325 12.898351 33.010134 39.530342 -0.634879 0.582558 0.006160 -0.006503 -35995.500000 0 0 1
-18.353325 12.429351 31.791054 38.755702 -0.595277 0.608872 0.005117 -0.014089 -139494.000000 0 0 1
-18.492325 10.987751 31.703294 38.311821 -0.536128 0.596144 -0.004529 -0.004983 120787.000000 0 0 1
-17.334625 10.361451 31.202884 37.168116 -0.538750 0.574422 -0.015702 -0.003045 -5703.640000 0 0 1
-17.405925 8.831151 31.345994 36.925964 -0.469522 0.556919 -0.005978 0.004349 -9574.270000 0 0 1
-18.396625 8.235851 30.535834 36.588280 -0.420925 0.583427 -0.010164 -0.000362 236491.000000 0 0 1
-18.304925 6.845951 30.717994 36.407863 -0.357889 0.566623 -0.005234 -0.001653 -170849.000000 0 0 1
-18.790625 6.026651 29.494564 35.487145 -0.310362 0.589653 -0.012762 0.005557 633987.000000 0 0 1
-20.184325 6.167951 29.204434 36.032618 -0.296569 0.625791 0.000510 -0.001066 506652.000000 0 0 1
-20.652625 5.307551 28.187974 35.344913 -0.251548 0.647637 -0.012239 0.000503 597886.000000 0 0 1
-22.183025 5.392951 27.861664 36.020034 -0.238485 0.686444 -0.015373 0.002340 690095.000000 0 0 1
-22.514625 6.137951 26.688814 35.452441 -0.266153 0.718482 -0.004246 -0.000389 318479.000000 0 0 1
-23.923125 6.259451 26.648374 36.354264 -0.255912 0.748046 -0.007277 -0.004992 -204661.000000 0 0 1
-24.503725 7.019751 25.438374 36.011392 -0.279005 0.786400 -0.001019 -0.000130 -289190.000000 0 0 1
-24.527425 6.469851 24.101584 34.990569 -0.257906 0.810961 -0.001600 0.004847 456511.000000 0 0 1
-25.328815 5.321451 23.863784 35.204359 -0.207083 0.825942 -0.002424 0.004344 -389167.000000 0 0 1
-25.306125 4.921551 22.386184 34.143270 -0.192083 0.855747 -0.000174 0.014228 -477190.000000 0 0 1
-26.230875 5.578151 21.596384 34.432229 -0.209535 0.892825 -0.001653 0.013237 -342391.000000 0 0 1
-26.241705 5.014851 20.291484 33.548773 -0.188826 0.921237 0.004083 0.001720 -270891.000000 0 0 1
-27.192995 5.708651 19.294184 33.827699 -0.206926 0.963844 0.001197 -0.000624 -133173.000000 0 0 1
-28.526815 5.686751 19.726884 35.146384 -0.196768 0.974867 0.003217 0.005088 -537476.000000 0 0 1
-29.424875 5.930251 18.690384 35.359887 -0.198875 1.013874 0.002263 0.007778 -535355.000000 0 0 1
-30.898175 5.875651 19.100984 36.797664 -0.187918 1.025020 -0.002468 0.005042 -439996.000000 0 0 1
-31.218965 7.059351 19.810584 37.641964 -0.222384 1.016565 0.001717 0.004427 276627.000000 0 0 1
-32.384445 6.748951 20.579984 38.959420 -0.205460 1.014268 -0.006272 0.004858 136195.000000 0 0 1
-32.669395 7.749951 21.699784 39.977891 -0.232918 0.997035 -0.007408 0.008114 -293993.000000 0 0 1
-31.861595 7.877851 22.875484 40.006369 -0.242391 0.962103 0.001552 0.004007 470866.000000 0 0 1
-32.557895 8.754851 23.763784 41.247805 -0.262687 0.956820 -0.004273 0.008632 -14179.900000 0 0 1
-0.054125 33.535151 12.462271 35.775935 -1.569182 1.214994 -0.013393 -0.010048 -398759.000000 0 0 1
-0.604825 33.605951 13.737471 36.310383 -1.552801 1.182800 -0.006594 -0.001757 -69174.500000 0 0 1
-0.439125 -34.638817 14.279571 37.469276 1.558120 1.179810 -0.005409 -0.000038 10526.600000 0 0 1
-0.367625 -34.580517 15.809171 38.024692 1.560166 1.142017 -0.007773 0.002412 605369.000000 0 0 1
-1.640525 -34.711617 16.438871 38.442479 1.523570 1.128935 -0.004061 -0.000812 359198.000000 0 0 1
-1.457125 34.740851 17.841171 39.081420 -1.528878 1.096724 -0.009271 0.000659 -425035.000000 0 0 1
-2.739625 34.743051 18.659271 39.531678 -1.492105 1.079229 -0.006534 0.005152 -268430.000000 0 0 1
-3.451525 33.485151 18.658671 38.487848 -1.468083 1.064669 -0.005540 -0.002090 78401.900000 0 0 1
-4.406025 33.533251 19.712071 39.146619 -1.440152 1.043100 -0.001789 -0.004502 160961.000000 0 0 1
-5.588725 32.558051 19.357371 38.287967 -1.400799 1.040750 0.000580 -0.002461 48713.200000 0 0 1
-6.486325 33.132351 18.441271 38.469541 -1.377471 1.070856 0.006085 -0.002167 -274792.000000 0 0 1
-7.595325 32.307751 18.198171 37.850406 -1.339896 1.069239 0.014766 -0.002737 -27788.000000 0 0 1
-8.627525 32.855451 17.183571 38.068228 -1.314003 1.102475 0.007962 -0.001888 53601.700000 0 0 1
-9.474025 33.835651 17.737871 39.360393 -1.297786 1.103300 0.015400 -0.000620 329699.000000 0 0 1
-10.332025 34.436451 16.741871 39.659932 -1.279310 1.134996 0.005070 -0.005306 27255.500000 0 0 1
-11.408525 -34.100217 17.111571 39.821918 1.247943 1.126633 0.010429 -0.000796 -296387.000000 0 0 1
-12.414625 -34.551217 18.025971 40.900430 1.225851 1.114387 0.018164 -0.001421 -81238.400000 0 0 1
-13.425025 -33.610017 17.961271 40.403859 1.190777 1.110132 0.024075 0.001433 -256298.000000 0 0 1
-14.691025 -33.868817 18.820571 41.438351 1.161527 1.099342 0.026490 -0.000963 288801.000000 0 0 1
-14.391825 -33.780617 20.201171 41.908735 1.168047 1.067829 0.026926 0.001525 -109352.000000 0 0 1
-15.398625 -34.330117 20.987271 43.082945 1.149152 1.061989 0.029688 0.002342 -321493.000000 0 0 1
-15.056525 -33.900617 22.447371 43.357067 1.152829 1.026598 0.029391 -0.003123 -78574.200000 0 0 1
-15.277325 -32.537317 22.639971 42.481078 1.131818 1.008722 0.018966 -0.000477 56649.900000 0 0 1
-14.912425 -32.055117 23.933971 42.693629 1.135364 0.975688 0.027330 -0.005259 169436.000000 0 0 1
-14.805225 -30.496617 23.871071 41.461626 1.118839 0.957289 0.022979 -0.005798 92805.900000 0 0 1
-14.462825 -29.963217 25.141271 41.701933 1.121096 0.923690 0.021824 -0.018238 -81736.600000 0 0 1
-14.142925 -28.551517 25.075171 40.545970 1.110878 0.904043 0.012059 0.006915 -488116.000000 0 0 1
-15.261625 -27.580517 24.763971 40.085614 1.065386 0.904884 0.010902 0.007628 -50891.000000 0 0 1
-16.423825 -27.693817 25.570871 41.116408 1.035503 0.899612 0.022458 -0.001892 849617.000000 0 0 1
-17.554925 -26.957817 25.072671 40.786495 0.993578 0.908753 0.019248 0.004478 75493.400000 0 0 1
-18.635625 -26.841217 26.181471 41.871314 0.963912 0.895301 0.017256 0.001396 -181743.000000 0 0 1
-19.423825 -27.982817 26.539171 43.181601 0.964018 0.908925 0.019468 -0.004799 612678.000000 0 0 1
-20.233625 -28.528017 25.485671 43.275476 0.953886 0.941078 0.009393 -0.004199 164307.000000 0 0 1
-21.589125 -27.790917 25.171571 43.267001 0.910337 0.949890 0.003264 0.002461 138290.000000 0 0 1
-21.488125 -26.471917 24.649071 42.072303 0.888942 0.944838 0.012608 0.002029 627025.000000 0 0 1
-22.700325 -26.105017 23.984071 42.095277 0.855046 0.964586 0.004774 0.005514 119246.000000 0 0 1
-23.051125 -24.586817 23.917371 41.326827 0.817624 0.953617 0.010835 0.013960 -288160.000000 0 0 1
-23.254525 -24.019117 25.175971 41.851170 0.801570 0.925344 0.008257 0.008362 -125487.000000 0 0 1
-23.942625 -22.850017 24.987671 41.469945 0.762052 0.924105 -0.001681 0.013245 -156230.000000 0 0 1
-24.539525 -22.120817 26.217671 42.176832 0.733608 0.899996 0.000295 0.012412 382095.000000 0 0 1
-25.752275 -22.631717 26.772471 43.498730 0.720992 0.907805 -0.006624 0.005747 612122.000000 0 0 1
-26.066855 -21.904217 27.963071 44.059154 0.698841 0.883213 -0.008278 -0.002442 -572544.000000 0 0 1
-27.445115 -22.218217 28.623071 45.455074 0.680538 0.889629 -0.013008 0.003511 51418.000000 0 0 1
-28.628945 -21.690917 28.092871 45.599581 0.648384 0.907043 -0.014903 0.000611 223924.000000 0 0 1
-29.009145 -22.246517 26.832471 45.347762 0.654217 0.937625 -0.018192 0.005570 -1441220.000000 0 0 1
-30.371525 -22.904917 26.875871 46.576574 0.646157 0.955714 -0.021517 0.003172 -763251.000000 0 0 1
-30.855055 -23.488117 25.655371 46.496496 0.650656 0.986311 -0.021285 -0.002221 275744.000000 0 0 1
-30.357945 -24.807717 25.396971 46.712245 0.685125 0.995969 -0.029632 -0.006822 -374926.000000 0 0 1
-30.554685 -25.248217 23.912171 46.290962 0.690590 1.027965 -0.023861 -0.003967 335085.000000 0 0 1
-31.901965 -25.425917 23.479471 47.069079 0.672910 1.048548 -0.006945 0.000168 274764.000000 0 0 1
-32.025025 -26.105217 22.251071 46.927548 0.683911 1.076789 0.002301 0.000222 274853.000000 0 0 1
-33.401745 -26.790517 21.957871 48.120230 0.676001 1.096949 0.005837 0.003236 277061.000000 0 0 1
-33.721705 -27.908717 22.794171 49.352043 0.691356 1.090695 0.004733 0.015823 851682.000000 0 0 1
-32.878005 -29.108117 22.651571 49.409912 0.724655 1.094555 -0.007238 0.008051 138337.000000 0 0 1
-33.359845 -30.155617 21.593371 49.885010 0.734993 1.123130 0.005214 0.012416 -182833.000000 0 0 1
-33.290765 -29.779417 20.231071 49.034529 0.729782 1.145503 -0.010052 0.007992 441322.000000 0 0 1
-33.707245 -30.888517 19.443271 49.682187 0.741789 1.168695 -0.002572 0.008827 -412072.000000 0 0 1
-33.916375 -30.488317 17.939971 49.007148 0.732222 1.196016 -0.003220 0.009585 -362014.000000 0 0 1
-32.781575 -30.215117 17.127271 47.759066 0.744681 1.204009 0.003382 0.001404 93644.700000 0 0 1
-32.975175 -29.621617 15.807171 47.060270 0.731875 1.228244 0.006433 0.000340 -68800.000000 0 0 1
-33.769755 -30.489317 14.750671 47.828623 0.734392 1.257279 0.003066 -0.008160 633331.000000 0 0 1
-33.029445 -31.587117 14.247871 47.871621 0.763081 1.268591 0.024018 -0.010714 407312.000000 0 0 1
-33.915315 -32.400717 13.451871 48.795573 0.762563 1.291501 0.019321 -0.012925 669108.000000 0 0 1
-33.957695 -32.052817 11.914571 48.191962 0.756549 1.320974 0.031923 -0.019334 -46689.300000 0 0 1
34.785660 -31.037417 11.647271 48.052288 -0.728515 1.325970 0.018123 -0.018936 -102079.000000 0 0 1
-34.801199 -30.632417 10.295071 47.491651 0.721774 1.352285 0.005824 -0.019874 -856768.000000 0 0 1
33.635685 -29.911517 9.831271 46.072900 -0.726860 1.355758 0.022070 -0.017078 -989785.000000 0 0 1
33.391770 -28.685117 10.525571 45.261837 -0.709723 1.336099 0.012796 -0.016176 12831.300000 0 0 1
32.304450 -27.945017 10.023571 43.874520 -0.713168 1.340301 0.011176 -0.017224 -398588.000000 0 0 1
32.571510 -27.203817 8.740771 43.328421 -0.695841 1.367669 0.011042 -0.019241 -195124.000000 0 0 1
33.376860 -26.072517 8.957571 43.290057 -0.663144 1.362371 0.004696 -0.017668 -13418.600000 0 0 1
33.723219 -25.346517 7.785371 42.898875 -0.644527 1.388303 0.001972 -0.021538 -110883.000000 0 0 1
34.462220 -24.009217 8.017071 42.759333 -0.608496 1.382187 0.003231 -0.017989 -398298.000000 0 0 1
33.738329 -22.926217 8.617771 41.691153 -0.596855 1.362590 -0.000798 -0.009721 -8723.330000 0 0 1
34.297339 -21.629517 8.437071 41.416514 -0.562650 1.365648 0.002611 -0.005754 -201775.000000 0 0 1
33.316420 -20.561417 9.008071 40.173388 -0.552939 1.344644 0.004625 -0.003137 -88454.600000 0 0 1
33.390450 -20.443617 10.411371 40.512471 -0.549385 1.310888 -0.002536 -0.002476 22752.300000 0 0 1
32.565690 -19.328217 10.812971 39.383048 -0.535637 1.292665 0.016725 0.005341 145621.000000 0 0 1
32.622120 -19.069217 12.312071 39.741979 -0.528981 1.255813 0.013667 -0.002027 -343763.000000 0 0 1
33.770248 -18.377017 12.713071 40.494032 -0.498362 1.251447 -0.014986 -0.001836 -120432.000000 0 0 1
33.952557 -18.489517 14.113871 41.156284 -0.498664 1.220758 -0.017043 0.007676 -300361.000000 0 0 1
-34.523539 -17.695417 14.656171 41.470543 0.473646 1.209581 -0.020758 0.005491 -425169.000000 0 0 1
-33.295715 -18.025217 14.066071 40.390190 0.496191 1.215088 -0.020484 -0.000412 -435034.000000 0 0 1
-32.232765 -17.513917 14.838171 39.570946 0.497729 1.186425 -0.017107 0.000045 -370486.000000 0 0 1
-30.872995 -17.753017 14.171771 38.329500 0.521860 1.192072 0.001304 -0.005843 -393708.000000 0 0 1
-30.348125 -19.083217 14.031271 38.497460 0.561335 1.197730 0.000656 -0.012287 219814.000000 0 0 1
-29.361505 -19.067917 13.019971 37.352418 0.575967 1.214750 0.001030 -0.017059 -284834.000000 0 0 1
-28.629305 -20.383417 12.877371 37.429233 0.618719 1.219574 0.003673 -0.015940 34965.900000 0 0 1
-29.374385 -21.370817 12.183271 38.314468 0.628966 1.247197 -0.002223 -0.013994 -3369.420000 0 0 1
-28.458035 -22.111817 11.414871 37.803327 0.660557 1.264055 0.002598 -0.014226 -69977.600000 0 0 1
-29.097995 -22.804117 10.178771 38.344862 0.664723 1.302122 -0.002259 -0.007738 253870.000000 0 0 1
-29.813965 -24.011517 10.353271 39.656219 0.678012 1.306660 0.002219 -0.008596 -381131.000000 0 0 1
-31.170895 -23.763117 10.637371 40.613595 0.651358 1.305789 -0.000419 -0.007942 -447897.000000 0 0 1
-31.924695 -25.130217 10.571271 41.981731 0.666870 1.316250 0.015010 -0.016122 -44481.200000 0 0 1
-32.055405 -25.690817 9.269771 42.112893 0.675625 1.348862 0.012385 -0.017766 -301825.000000 0 0 1
-32.673955 -26.919717 9.297671 43.344033 0.689139 1.354608 0.024910 -0.019488 -233831.000000 0 0 1
-32.569435 -27.783917 8.039571 43.558568 0.706272 1.385163 0.020729 -0.013711 -3597.830000 0 0 1
-31.250975 -28.232317 7.812971 42.833745 0.734694 1.387367 0.016145 -0.016718 -44675.100000 0 0 1
-31.239565 -28.980017 6.651171 43.127600 0.747894 1.415958 0.005838 -0.011685 -1302310.000000 0 0 1
-29.876135 -29.285217 6.126171 42.281644 0.775410 1.425395 0.008351 -0.005086 -870358.000000 0 0 1
-29.330115 -28.151617 5.409371 41.012565 0.764899 1.438515 0.008729 0.001252 -476787.000000 0 0 1
-28.136055 -28.410117 4.745471 40.265269 0.790245 1.452667 0.011677 -0.002436 -482002.000000 0 0 1
-27.501935 -27.185417 4.065571 38.883573 0.779610 1.466047 0.005935 0.004085 167263.000000 0 0 1
-28.203685 -26.844417 2.863771 39.041923 0.760711 1.497379 -0.002278 0.008898 30314.100000 0 0 1
-27.585635 -25.750517 2.225471 37.802237 0.751005 1.511891 0.004349 0.002827 -194254.000000 0 0 1
-28.134205 -25.256617 0.878071 37.818001 0.731554 1.547576 0.007770 0.007244 -252574.000000 0 0 1
-27.630905 -26.033117 -0.204829 37.963562 0.755633 1.576192 0.003922 0.002123 -59136.300000 0 0 1
-27.676795 -25.322517 -1.419829 37.539989 0.741006 1.608627 0.004616 -0.002517 615959.000000 0 0 1
-29.056305 -25.024417 -2.110729 38.405019 0.710983 1.625784 0.005142 -0.001088 836017.000000 0 0 1
-29.841295 -23.968417 -1.552329 38.306627 0.676687 1.611331 -0.000197 0.001617 318927.000000 0 0 1
-31.097325 -23.851117 -2.199429 39.252477 0.654282 1.626859 -0.002758 -0.000682 177910.000000 0 0 1
-31.856105 -22.566017 -1.869729 39.083660 0.616324 1.618654 -0.003455 -0.007422 -254752.000000 0 0 1
-32.043415 -22.402917 -0.503929 39.101472 0.610150 1.583684 -0.000665 -0.007094 121161.000000 0 0 1
-32.898775 -21.286817 -0.402929 39.186992 0.574291 1.581079 -0.002937 -0.006504 -422591.000000 0 0 1
-32.947905 -20.745617 1.011171 38.948268 0.561935 1.544832 -0.000176 -0.007195 -316805.000000 0 0 1
-33.548685 -21.658417 1.909771 39.978101 0.573263 1.523008 -0.000851 -0.008574 280331.000000 0 0 1
-33.485375 -21.148817 3.205771 39.734365 0.563320 1.490028 -0.003079 -0.006452 -1335190.000000 0 0 1
-34.339081 -22.077217 4.090771 41.028166 0.571381 1.470924 0.001740 -0.005503 139655.000000 0 0 1
33.963834 -22.105317 3.705571 40.692977 -0.576972 1.479608 -0.002857 0.000001 -208597.000000 0 0 1
33.288970 -21.021717 4.264571 39.601196 -0.563254 1.462899 0.006275 0.001680 -1373260.000000 0 0 1
31.929790 -20.775317 3.591571 38.262576 -0.576836 1.476792 -0.002085 0.010292 -207944.000000 0 0 1
30.965440 -21.733717 3.976171 38.039754 -0.611980 1.466078 -0.006511 0.008557 172883.000000 0 0 1
29.765150 -21.426617 3.247771 36.818638 -0.623928 1.482472 -0.009579 0.011554 838204.000000 0 0 1
28.614060 -22.474117 3.208271 36.525928 -0.665789 1.482848 -0.007626 0.020164 248162.000000 0 0 1
28.678310 -23.592117 2.372671 37.211061 -0.688398 1.506991 -0.024142 0.011999 413170.000000 0 0 1
27.485960 -24.354617 2.610271 36.816286 -0.725068 1.499837 -0.023145 0.012906 585243.000000 0 0 1
27.160970 -25.405917 1.527471 37.222468 -0.752024 1.529749 -0.023943 0.013674 -48174.700000 0 0 1
26.850150 -24.852517 0.269971 36.587581 -0.746780 1.563417 -0.024214 0.007567 -10862.600000 0 0 1
26.089030 -25.746917 -0.495729 36.657700 -0.778798 1.584320 -0.016344 0.001189 -284214.000000 0 0 1
25.354010 -25.065117 -1.684329 35.692056 -0.779668 1.618004 -0.007983 -0.005813 -40645.700000 0 0 1
26.257820 -24.498317 -2.629429 36.007701 -0.750746 1.643885 -0.018281 -0.016122 215689.000000 0 0 1
26.733950 -25.394317 -3.641729 37.051824 -0.759705 1.669243 -0.009846 -0.017115 -786865.000000 0 0 1
25.713310 -26.043417 -4.598629 36.886058 -0.791776 1.695793 -0.009527 -0.018950 114303.000000 0 0 1
25.130170 -25.188617 -5.613229 36.020830 -0.786560 1.727267 0.002289 -0.030395 1179450.000000 0 0 1
23.976820 -24.443117 -5.167629 34.627421 -0.795028 1.720591 0.007753 -0.028444 260934.000000 0 0 1
23.239420 -23.547617 -6.155229 33.651861 -0.791985 1.754741 -0.000378 -0.032418 -205693.000000 0 0 1
22.654420 -24.229917 -7.226729 33.949039 -0.818989 1.785308 0.002001 -0.022465 -486679.000000 0 0 1
21.718920 -23.491417 -7.943929 32.964590 -0.824584 1.814176 0.000482 -0.022668 -707355.000000 0 0 1
21.983920 -22.170317 -8.688029 32.408295 -0.789620 1.842196 -0.009758 -0.022179 -735284.000000 0 0 1
22.498320 -22.261917 -10.020429 33.199042 -0.780117 1.877407 -0.000223 -0.023386 211212.000000 0 0 1
22.340320 -20.989417 -10.581829 32.428701 -0.754231 1.903194 -0.018185 -0.019466 28788.800000 0 0 1
23.169520 -20.902717 -11.931629 33.408293 -0.734010 1.936007 -0.023186 -0.010354 2073570.000000 0 0 1
24.612670 -21.048217 -11.762629 34.455339 -0.707493 1.919189 -0.017953 -0.015721 1269690.000000 0 0 1
25.326270 -20.464917 -12.825729 34.996173 -0.679631 1.946029 -0.020345 -0.015066 -292302.000000 0 0 1
26.816000 -20.804717 -12.809729 36.277035 -0.659830 1.931688 -0.023140 -0.005766 -523111.000000 0 0 1
27.248550 -22.129617 -13.173829 37.493375 -0.682099 1.929824 -0.018456 -0.007977 337816.000000 0 0 1
27.387330 -23.052917 -12.074129 37.779458 -0.699677 1.896098 -0.019019 -0.006213 -457677.000000 0 0 1
27.722060 -24.442017 -12.507429 39.017440 -0.722601 1.897117 -0.022190 -0.013737 -49431.300000 0 0 1
29.015050 -24.568317 -13.114029 40.217572 -0.702601 1.902947 -0.033275 -0.013875 740126.000000 0 0 1
29.382910 -25.845817 -13.539429 41.408668 -0.721441 1.903893 -0.014171 -0.008518 -216218.000000 0 0 1
-3.185325 -8.976649 -27.856119 29.439597 1.229811 2.812119 -0.009046 0.004221 220004.000000 0 0 1
-3.328525 -7.649249 -27.304889 28.550780 1.160365 2.845083 0.001996 0.011062 -582593.000000 0 0 1
-4.429425 -7.039049 -27.889659 29.103283 1.009136 2.851787 0.008289 0.002015 -432022.000000 0 0 1
-4.633125 -5.659549 -27.273499 28.237211 0.884793 2.879581 0.003937 0.005129 -129694.000000 0 0 1
-5.119225 -5.683749 -25.971919 27.074934 0.837607 2.855170 0.000929 0.006896 44966.500000 0 0 1
-5.002925 -4.449049 -25.291189 26.162330 0.726866 2.882811 0.004641 0.006991 180187.000000 0 0 1
-5.664725 -4.459549 -23.888829 24.953012 0.666917 2.848492 -0.011543 0.009749 -82959.700000 0 1 0
-4.908225 -5.216849 -22.990829 24.080789 0.815870 2.839572 -0.012997 -0.000041 326363.000000 0 1 0
-5.483925 -5.105049 -21.711029 22.967449 0.749633 2.809296 -0.012754 0.001245 171245.000000 0 1 0
-4.832225 -6.158649 -20.721929 22.151246 0.905501 2.780396 -0.020973 -0.004892 -527149.000000 0 1 0
-5.249225 -7.440349 -21.027529 22.914409 0.956383 2.732936 -0.026338 0.004373 656397.000000 0 1 0
-4.389225 -8.442949 -20.468029 22.571860 1.091380 2.706412 -0.018947 0.001738 -376765.000000 0 1 0
-5.165725 -9.776649 -20.580429 23.362826 1.084708 2.648567 -0.013132 0.010299 1290700.000000 0 1 0
-6.259725 -10.057049 -19.679229 22.969554 1.014053 2.599736 -0.012936 0.009618 48443.000000 0 1 0
-7.337625 -9.201449 -19.634329 22.891358 0.897617 2.601611 -0.017899 -0.000925 -1620440.000000 0 1 0
-8.187725 -9.581049 -18.427229 22.324831 0.863652 2.541732 -0.025389 0.001202 -653187.000000 0 1 0
-9.008625 -10.735449 -18.594529 23.284366 0.872637 2.495736 -0.000957 0.001808 26168.600000 0 1 0
-9.558125 -11.088349 -17.323029 22.680312 0.859378 2.439963 -0.010156 -0.005091 -54818.600000 0 1 0
-10.581525 -12.236049 -17.489729 23.823941 0.857782 2.395172 0.012818 -0.000532 541485.000000 0 1 0
-11.781325 -11.984449 -18.231529 24.795469 0.793945 2.396871 0.016407 0.000349 741990.000000 0 1 0
-11.554725 -12.001849 -19.658629 25.768541 0.804377 2.438572 0.010361 -0.005500 -690031.000000 0 0 1
-12.868025 -11.828849 -20.474929 26.920818 0.743346 2.434973 0.001853 0.005133 611964.000000 0 0 1
-13.751425 -12.945449 -20.576529 27.929910 0.755217 2.399003 0.003153 0.008206 325469.000000 0 0 1
-14.343925 -13.482349 -19.395829 27.635486 0.754445 2.348781 0.014232 0.007720 170092.000000 0 0 1
-15.493325 -14.523849 -19.716729 28.978176 0.753112 2.319104 0.014161 0.010628 678296.000000 0 0 1
-14.908625 -15.706949 -20.183229 29.603008 0.811468 2.321012 0.013970 0.014072 204199.000000 0 0 1
-15.814125 -16.464849 -20.989529 31.011903 0.805555 2.314233 0.008679 0.004907 -18373.600000 0 0 1
-15.237325 -17.818749 -21.477129 31.795455 0.863332 2.312409 0.016753 -0.004095 -26129.800000 0 0 1
-15.423825 -18.822249 -20.497929 31.817236 0.884310 2.270825 0.021905 0.004801 92306.500000 0 0 1
-14.849425 -20.032749 -20.996529 32.598630 0.932914 2.270632 0.023860 -0.002942 262261.000000 0 0 1
-15.495525 -21.355049 -20.387929 33.343921 0.943086 2.228680 0.027755 -0.006815 263537.000000 0 0 1
-15.010025 -22.516249 -21.038529 34.276843 0.982819 2.231639 0.031114 -0.006323 -30264.100000 0 0 1
-15.571325 -23.613049 -20.378729 34.861653 0.987815 2.195134 0.035504 0.001837 26041.300000 0 0 1
-15.157625 -25.030449 -20.880629 35.948263 1.026293 2.190572 0.029831 0.005488 -91757.100000 0 0 1
-15.701225 -25.423959 -22.115629 37.175357 1.017553 2.207938 0.008035 -0.002529 227077.000000 0 0 1
-14.921925 -26.541179 -22.542229 37.884695 1.058621 2.208089 0.006870 0.002139 188644.000000 0 0 1
-15.186825 -27.072109 -23.992829 39.232570 1.059565 2.228819 0.002600 -0.000648 -106431.000000 0 0 1
-16.401625 -27.770469 -24.221829 40.334963 1.037307 2.214944 0.012422 -0.001761 217571.000000 0 0 1
-16.277025 -29.138889 -24.130529 41.186148 1.061373 2.196773 0.011420 0.015607 -540350.000000 0 0 1
-17.291125 -29.757679 -25.081349 42.586107 1.044416 2.200563 0.020247 0.011651 -746392.000000 0 0 1
-16.961425 -29.660509 -26.473009 43.223326 1.051331 2.229978 0.008989 0.012873 181418.000000 0 0 1
-17.277825 -28.379329 -27.076149 42.860557 1.023919 2.254575 0.025738 -0.003750 -178950.000000 0 0 1
-16.349725 -27.935009 -28.227319 42.947174 1.041273 2.287969 0.012907 -0.003087 -465159.000000 0 0 1
-16.443125 -28.654589 -29.419269 44.237486 1.049835 2.298331 0.017587 0.003590 -135885.000000 0 0 1
-15.403725 -28.224969 -30.238789 44.139641 1.071223 2.325497 0.001965 0.008752 -449859.000000 0 0 1
-15.607525 -28.432299 -31.718769 45.365965 1.068770 2.345040 0.010712 0.005598 -184434.000000 0 0 1
-15.563525 -29.759609 -32.075429 46.440185 1.088938 2.333229 0.010756 0.009668 -47478.600000 0 0 1
-16.307725 -30.087949 -33.198879 47.680102 1.074114 2.341003 0.014413 0.009109 -481543.000000 0 0 1
-16.137925 -31.463699 -33.856469 48.955668 1.096877 2.334462 0.003455 0.008683 -293009.000000 0 0 1
-14.906025 -31.715989 -34.468855 49.154811 1.131448 2.347918 0.019511 0.011119 -252734.000000 0 0 1
-15.032125 -32.970939 34.214332 49.836413 1.143030 0.814087 0.000998 0.017387 895724.000000 0 0 1
-13.736325 -33.333759 33.370750 49.126704 1.179916 0.824016 0.000481 0.014359 867773.000000 0 0 1
-12.877625 -34.154270 34.128145 49.970768 1.210236 0.818986 0.006470 0.016620 -303765.000000 0 0 1
-11.798025 -34.623742 33.347694 49.498137 1.242386 0.831570 0.009460 0.018084 177893.000000 0 0 1
-10.886025 33.905207 34.156154 49.342796 -1.260121 0.806233 0.019370 0.013491 213564.000000 0 0 1
-10.059625 34.520178 -34.205629 49.627249 -1.287236 2.331251 0.023515 0.010110 104743.000000 0 0 1
-9.295725 33.606137 -33.384269 48.273102 -1.300936 2.334458 0.018119 0.007729 315707.000000 0 0 1
-8.438725 34.383983 -32.372349 47.973319 -1.330127 2.311489 0.017993 0.004868 51512.800000 0 0 1
-9.226925 -34.538429 -31.344709 47.545031 1.309743 2.290635 0.023475 0.007927 52640.900000 0 0 1
-8.565325 -33.395479 -30.860779 46.271054 1.319727 2.300913 0.012294 0.011296 -208196.000000 0 0 1
-9.290925 -32.607989 -29.746499 45.104949 1.293224 2.290943 0.030576 0.016051 -2449.330000 0 0 1
-9.256925 -33.106779 -28.389509 44.583782 1.298151 2.261095 0.034964 0.016182 15511.400000 0 0 1
-10.040825 -34.299906 -28.219219 45.537084 1.286017 2.239154 0.031928 0.009775 238052.000000 0 0 1
-10.463225 -34.612052 -26.736799 44.970319 1.277231 2.207494 0.022317 0.008318 758653.000000 0 0 1
-9.354925 34.547571 -25.900859 44.180355 -1.306354 2.197222 0.033010 -0.000735 476497.000000 0 0 1
-9.827325 34.469019 -24.559829 43.449681 -1.293059 2.171530 0.027187 -0.005805 444638.000000 0 0 1
-8.665925 34.632818 -23.531729 42.758305 -1.325608 2.153571 0.036903 -0.011272 399997.000000 0 0 1
-7.923425 33.433380 -23.438929 41.592727 -1.338098 2.169454 0.025758 -0.009804 -218122.000000 0 0 1
-6.986925 33.349720 -22.409929 40.782666 -1.364278 2.152558 0.031937 -0.011130 -419279.000000 0 0 1
-6.067225 32.158120 -22.433729 39.676543 -1.384320 2.171733 0.016739 -0.011962 223124.000000 0 0 1
-5.102025 32.030020 -23.512929 40.060088 -1.412835 2.198072 0.006706 -0.013691 657365.000000 0 0 1
-4.196525 30.969920 -23.271829 38.965687 -1.436113 2.210851 0.005427 -0.010007 -300530.000000 0 0 1
-2.729225 31.341250 -23.496229 39.265703 -1.483935 2.212287 0.000490 -0.010345 -710950.000000 0 0 1
-2.252625 31.422550 -24.842829 40.120034 -1.499231 2.238536 0.002308 -0.005832 88226.700000 0 0 1
-2.838225 32.530230 -25.555379 41.465031 -1.483768 2.234847 -0.005263 -0.010959 -550461.000000 0 0 1
-2.375525 32.703360 -26.981609 42.463633 -1.498285 2.259329 -0.007137 0.000011 -25859.800000 0 0 1
-1.282125 33.570031 -27.219779 43.237798 -1.532622 2.251753 -0.010338 -0.000108 153879.000000 0 0 1
-1.625525 -34.563421 -26.964509 43.867495 1.523801 2.232778 -0.015250 -0.001570 755132.000000 0 0 1
-0.440225 -33.597689 -27.393259 43.351921 1.557694 2.254774 -0.022158 0.003035 612504.000000 0 0 1
0.702175 -33.542529 -26.591549 42.810101 -1.549866 2.241007 -0.017093 0.010405 -464199.000000 0 0 1
1.528775 -32.501539 -27.004549 42.283955 -1.523794 2.263536 -0.011032 0.010095 247674.000000 0 0 1
2.680075 -32.093049 -26.024989 41.405876 -1.487480 2.250463 -0.010941 0.012165 -6954.510000 0 0 1
2.243875 -31.585759 -24.784629 40.211602 -1.499875 2.234902 -0.012740 0.009725 113343.000000 0 0 1
3.300975 -30.851659 -24.238929 39.373175 -1.464207 2.233969 -0.011645 0.007232 -352900.000000 0 0 1
2.896875 -30.055209 -22.988229 37.949520 -1.474708 2.221515 -0.012030 0.005526 -267965.000000 0 0 1
2.783975 -30.940799 -21.883929 37.999867 -1.481061 2.184495 -0.005184 0.007665 387018.000000 0 0 1
2.856175 -30.197729 -20.637029 36.687157 -1.476494 2.168219 -0.008788 0.009873 -598689.000000 0 0 1
2.661475 -31.094039 -19.354429 36.722154 -1.485410 2.125922 -0.005906 0.013533 781253.000000 0 0 1
1.388675 -31.811609 -19.329329 37.249561 -1.527171 2.116377 -0.018102 0.009171 1094610.000000 0 0 1
1.401375 -33.156569 -19.809629 38.648975 -1.528556 2.108951 -0.010860 0.011147 -767379.000000 0 0 1
1.888575 -34.213008 -18.766429 39.067575 -1.515652 2.071859 -0.015330 -0.006069 400261.000000 0 0 1
3.296775 -34.283306 -18.553829 39.121073 -1.474928 2.064927 -0.016122 0.005367 431083.000000 0 0 1
3.740075 34.336028 -17.556329 38.745008 1.462298 2.041064 0.005911 -0.002771 105821.000000 0 0 1
4.634375 33.208800 -18.161329 38.133131 1.432139 2.067194 0.015328 -0.004754 368753.000000 0 0 1
5.926975 33.745093 -18.444229 38.910794 1.396930 2.064639 0.020987 -0.008681 -231757.000000 0 0 1
6.760875 32.756900 -18.986929 38.460725 1.367259 2.087102 0.021665 -0.020244 -81905.600000 0 0 1
8.071675 33.393040 -19.511529 39.508819 1.333628 2.087311 0.011558 -0.013938 21068.200000 0 0 1
8.921175 33.706786 -18.422529 39.435065 1.312059 2.056874 0.006086 -0.012968 -36536.700000 0 0 1
10.038875 34.506546 -18.791629 40.553743 1.287684 2.052597 0.001470 0.000236 380241.000000 0 0 1
11.081475 34.721282 -17.656929 40.498564 1.261860 2.021933 -0.011971 -0.001669 298129.000000 0 0 1
11.890775 33.560948 -17.371429 39.616844 1.230292 2.024710 -0.008230 -0.010941 -286763.000000 0 0 1
12.618275 33.769026 -16.249229 39.542451 1.213197 1.994272 -0.008764 -0.012935 -363465.000000 0 0 1
13.597775 32.620970 -15.829829 38.724807 1.175856 1.991910 -0.000685 -0.010551 439411.000000 0 0 1
13.060175 31.531500 -15.173629 37.350270 1.178113 1.989145 -0.002753 -0.005352 -463114.000000 0 0 1
14.111675 30.595300 -15.088929 36.917307 1.138637 1.991850 -0.007056 -0.001734 206163.000000 0 0 1
13.956875 29.369790 -14.151429 35.463247 1.127175 1.981271 -0.012277 0.000731 -443582.000000 0 0 1
14.083575 29.717780 -12.783429 35.283276 1.128237 1.941540 0.000463 -0.003285 380093.000000 0 0 1
12.887975 29.634230 -11.984929 34.466302 1.160569 1.925944 0.011589 -0.000868 439492.000000 0 0 1
12.332675 28.242930 -11.658329 32.949577 1.159088 1.932452 0.007743 -0.004081 -549035.000000 0 0 1
11.584775 27.598300 -12.696729 32.512768 1.173369 1.971987 -0.008548 -0.002304 87917.800000 0 0 1
11.155875 26.233070 -12.412629 31.091813 1.168706 1.981468 0.007029 -0.003913 -16197.600000 0 0 1
10.337575 26.019190 -11.122429 30.125938 1.192615 1.948942 0.013243 -0.007618 -1722960.000000 0 0 1
9.200175 26.766740 -11.223929 30.447958 1.239730 1.948328 0.010804 -0.006592 -1231710.000000 0 0 1
8.718675 27.148340 -9.983329 30.211165 1.260051 1.907578 -0.003637 -0.000101 -329198.000000 0 0 1
7.558675 28.146220 -10.060529 30.831113 1.308436 1.903195 -0.003231 -0.004089 -123680.000000 0 0 1
7.953675 29.334810 -10.707129 32.224752 1.306028 1.909499 -0.001674 -0.004905 136860.000000 0 0 1
6.932975 30.315750 -10.586929 32.851087 1.345970 1.898923 -0.009420 -0.001858 -253526.000000 0 0 1
7.316575 31.644790 -11.206229 34.358472 1.343580 1.903031 -0.000545 -0.004054 117306.000000 0 0 1
8.256875 32.394740 -10.388129 35.007262 1.321227 1.872076 -0.003065 0.001528 359893.000000 0 0 1
8.706875 33.626382 -11.004129 36.436714 1.317431 1.877593 0.000945 -0.002581 786812.000000 0 0 1
9.879375 33.426210 -12.041729 36.877050 1.283420 1.903434 -0.007943 -0.014973 354577.000000 0 0 1
11.183775 33.268110 -11.499929 36.933621 1.246494 1.887428 -0.010530 0.001780 -335097.000000 0 0 1
12.056775 33.606422 -12.560429 37.848670 1.226335 1.909070 -0.002205 -0.004830 874312.000000 0 0 1
13.535275 33.411700 -12.019429 38.000158 1.185896 1.892622 0.002283 -0.004358 1135480.000000 0 0 1
14.010975 34.411114 -11.098329 38.776347 1.184129 1.861069 0.006799 -0.003162 -917568.000000 0 0 1
15.365275 34.289969 -10.836129 39.106462 1.149525 1.851564 0.004302 -0.010003 -525248.000000 0 0 1
15.864575 -34.065405 -9.898829 38.860305 -1.134956 1.828363 0.006018 -0.010257 -188725.000000 0 0 1
15.741175 -34.412885 -8.540029 38.793856 -1.141788 1.792753 0.001822 0.003557 377833.000000 0 0 1
16.579975 -33.559839 -7.764329 38.228826 -1.111926 1.775321 -0.002287 0.008198 -438162.000000 0 0 1
16.921575 -34.065819 -6.373529 38.567364 -1.109767 1.736815 -0.000712 0.012002 -102654.000000 0 0 1
17.740375 34.330325 -6.402129 39.169878 1.093835 1.734978 -0.007785 0.004535 -103955.000000 0 0 1
19.133075 34.550573 -6.561329 40.035830 1.065063 1.735425 -0.011778 0.009018 -282249.000000 0 0 1
19.873575 33.441730 -7.359529 39.591299 1.034597 1.757771 -0.006711 0.011368 111110.000000 0 0 1
20.141875 32.152950 -6.750529 38.536696 1.011163 1.746876 -0.000101 0.030461 -45882.700000 0 0 1
20.934175 32.131610 -5.562529 38.750765 0.993358 1.714840 -0.002399 0.023928 -584435.000000 0 0 1
21.263775 30.844590 -4.846929 37.776045 0.967231 1.699458 -0.001387 0.024984 -154783.000000 0 0 1
22.042575 30.050090 -5.746329 37.708133 0.937921 1.723782 -0.000484 0.026260 -40396.800000 0 0 1
22.431575 28.852730 -5.096129 36.900218 0.909957 1.709345 0.008667 0.029069 97838.700000 0 0 1
23.475475 28.119870 -6.006229 37.120073 0.875172 1.733316 0.010952 0.027979 -949327.000000 0 0 1
24.658875 28.825000 -6.179429 38.433398 0.863136 1.732280 0.007768 0.019293 -381463.000000 0 0 1
25.592675 28.152730 -7.057529 38.695864 0.832995 1.754207 -0.000336 0.016777 216234.000000 0 0 1
26.436575 27.159550 -6.290229 38.420055 0.798887 1.735259 0.002340 0.023687 -1101770.000000 0 0 1
27.483675 27.783870 -5.562429 39.474504 0.790830 1.712179 0.001977 0.013593 276923.000000 0 0 1
28.280375 26.835010 -4.876629 39.289679 0.759180 1.695237 -0.006772 0.021095 95692.900000 0 0 1
29.217475 27.480900 -3.831229 40.293163 0.754779 1.666024 -0.014233 0.018122 -79787.400000 0 0 1
28.565475 27.790700 -2.615829 39.939353 0.771651 1.636338 -0.017033 0.016452 -177964.000000 0 0 1
29.425775 28.173620 -1.582529 40.769271 0.763663 1.609623 -0.020470 0.019483 -341356.000000 0 0 1
29.312375 29.706860 -1.274329 41.753284 0.792082 1.601322 -0.006485 0.014067 -415917.000000 0 0 1
29.878775 30.621090 -2.169029 42.838032 0.797667 1.621451 -0.014723 0.016715 42400.300000 0 0 1
29.581175 31.982330 -1.865629 43.604999 0.824381 1.613594 -0.001853 0.012701 -1660.240000 0 0 1
32.131610 23.055151 19.718984 44.190708 0.622389 1.108254 -0.004055 0.015188 95594.400000 0 0 1
32.367980 22.823151 21.120784 44.885074 0.614151 1.080880 -0.008962 0.017496 127808.000000 0 0 1
33.183440 23.839451 21.663484 46.246802 0.622978 1.083281 -0.001303 0.017307 -424977.000000 0 0 1
32.996940 24.115451 23.193084 46.992257 0.631125 1.054628 0.000078 0.015496 277088.000000 0 0 1
31.735620 24.737551 23.446684 46.570839 0.662108 1.043194 -0.013268 0.017665 495282.000000 0 0 1
31.538250 25.011051 24.821534 47.289771 0.670482 1.018220 -0.006509 0.006902 -957211.000000 0 0 1
30.107820 25.341851 25.151854 46.704454 0.699658 1.002102 -0.012822 0.001418 -932860.000000 0 0 1
29.942600 26.716151 25.103484 47.333888 0.728514 1.011784 -0.011446 -0.002049 646806.000000 0 0 1
28.670300 27.100451 25.631264 47.046597 0.757257 0.994639 -0.000699 -0.006303 316318.000000 0 0 1
28.621220 28.658551 25.943204 48.099237 0.786050 1.001110 0.002158 -0.013688 -276170.000000 0 0 1
28.563930 29.486651 24.790864 47.957769 0.801292 1.027534 -0.003546 -0.019812 252492.000000 0 0 1
28.288800 30.828051 25.107004 48.795354 0.828325 1.030329 -0.004718 -0.017620 -175547.000000 0 0 1
28.422850 31.739351 23.859084 48.831350 0.840468 1.060310 -0.000026 -0.018529 972214.000000 0 0 1
29.798200 31.977251 23.469184 49.611288 0.820657 1.078034 -0.003101 -0.022950 890600.000000 0 0 1
29.972580 32.634351 22.273484 49.592989 0.827888 1.105010 -0.003533 -0.012075 234884.000000 0 0 1
31.471650 32.791451 21.870884 50.438870 0.805933 1.122299 -0.003537 -0.018340 539843.000000 0 0 1
32.100210 33.807351 22.635884 51.824162 0.811294 1.118778 -0.000800 0.000667 72123.000000 0 0 1
33.482550 33.872451 22.344584 52.608978 0.791187 1.132133 0.004862 0.004724 -80310.800000 0 0 1
34.145099 -34.433817 23.015684 53.677717 -0.789608 1.127660 0.001362 0.012924 -584075.000000 0 0 1
33.566340 -33.163717 22.744184 52.381573 -0.779365 1.121644 -0.006018 0.008647 340454.000000 0 0 1
33.969354 -32.170117 23.685584 52.438920 -0.758201 1.102149 0.000325 0.003436 -137448.000000 0 0 1
32.987480 -30.943717 23.717584 51.070650 -0.753441 1.087831 -0.003333 0.002501 1178320.000000 0 0 1
31.621710 -31.192817 24.092384 50.530856 -0.778570 1.073802 -0.009062 0.000153 1457770.000000 0 0 1
30.705470 -31.398917 22.991384 49.571379 -0.796564 1.088513 -0.006692 0.004613 144522.000000 0 0 1
29.953270 -32.730917 23.065884 50.005463 -0.829681 1.091373 -0.012876 0.000540 -45826.000000 0 0 1
28.957190 -32.743917 24.069084 49.899938 -0.846693 1.067464 -0.004047 -0.005430 484100.000000 0 0 1
28.269590 -34.012417 24.223484 50.426099 -0.877345 1.069713 -0.003592 -0.011378 291236.000000 0 0 1
27.285270 -34.125917 25.411544 50.545136 -0.896332 1.044020 0.000378 -0.003585 -72385.200000 0 0 1
26.835450 34.099551 25.600184 50.381447 0.904049 1.037787 0.002989 -0.022201 -168472.000000 0 0 1
26.183140 34.062251 26.834044 50.654316 0.915444 1.012492 0.000071 -0.010735 -1021070.000000 0 0 1
25.856460 32.598851 27.320514 49.776020 0.900233 0.989786 0.000549 -0.001342 1033270.000000 0 0 1
24.971030 31.761751 26.478984 48.306291 0.904528 0.990648 -0.003036 -0.006911 -13219.000000 0 0 1
23.694420 32.286251 26.358434 47.943661 0.937688 0.988696 -0.000019 -0.007522 -1432580.000000 0 0 1
23.019420 31.718451 25.102514 46.541273 0.943002 1.001119 0.002535 -0.015387 -199188.000000 0 0 1
23.264020 32.450851 23.872684 46.520720 0.948818 1.031931 0.002890 -0.023333 318404.000000 0 0 1
24.598620 32.326351 23.402384 46.880238 0.920326 1.048127 -0.001718 -0.024455 -102985.000000 0 0 1
24.987700 33.308051 22.256684 47.214102 0.927167 1.079920 0.009383 -0.019092 230316.000000 0 0 1
26.309200 33.219951 21.738184 47.626545 0.900971 1.096818 0.005191 -0.010850 358160.000000 0 0 1
26.439180 34.196951 20.721484 47.935807 0.912647 1.123781 -0.007048 -0.006982 -144995.000000 0 0 1
27.850630 34.599951 20.224884 48.804305 0.893055 1.143504 -0.002173 -0.017876 19320.700000 0 0 1
28.458180 33.704851 19.315784 48.155836 0.869600 1.158068 -0.001601 -0.017642 -263413.000000 0 0 1
29.577180 34.253251 18.689584 48.963204 0.858525 1.179154 0.003133 -0.014168 -111714.000000 0 0 1
30.565780 33.299951 17.952084 48.635697 0.828183 1.192742 -0.012001 -0.003239 20212.700000 0 0 1
31.366510 32.519051 18.769284 48.924766 0.803437 1.177066 -0.006084 -0.012241 -180523.000000 0 0 1
32.157200 31.594851 18.038084 48.556077 0.776578 1.190183 -0.005036 -0.006872 236090.000000 0 0 1
33.168100 30.845951 18.937884 49.094185 0.749138 1.174780 0.018704 -0.016243 -251468.000000 0 0 1
34.152245 31.682251 19.461884 50.486690 0.747898 1.175062 0.031760 -0.016383 -483334.000000 0 0 1
-34.548617 30.911551 20.121784 50.537285 -0.729894 1.161289 0.029425 -0.014118 14287.800000 0 0 1
-33.448945 31.764151 20.835484 50.615320 -0.759569 1.146539 0.023905 -0.001552 2214.130000 0 0 1
-32.477955 32.217151 19.888384 49.882966 -0.781367 1.160696 0.029572 -0.002383 -66968.800000 0 0 1
-31.370755 32.798351 20.535584 49.815323 -0.807642 1.145891 0.025165 0.004938 -221390.000000 0 0 1
-31.511035 34.167051 21.283684 51.120719 -0.825816 1.141378 0.011138 0.012297 -801070.000000 0 0 1
-32.079545 34.023851 22.518584 51.901891 -0.814803 1.122015 0.016875 0.012623 83942.600000 0 0 1
-31.809675 -34.272217 23.248484 52.220038 0.822646 1.109396 0.010592 0.015118 -139634.000000 0 0 1
-31.897875 -34.361017 24.822854 53.050241 0.822556 1.083869 0.012187 0.008424 -1060190.000000 0 0 1
-33.143655 -34.686317 25.285764 54.231101 0.808137 1.085739 0.019586 0.007627 -1161630.000000 0 0 1
-33.027695 34.396751 26.591224 54.599069 -0.805700 1.062114 0.025755 0.010139 -93828.300000 0 0 1
-34.376645 34.211051 27.290994 55.650230 -0.782984 1.058245 0.006533 0.006631 -288441.000000 0 0 1
-34.359204 33.637151 28.579444 55.935655 -0.774780 1.034525 0.021949 -0.003691 -594339.000000 0 0 1
34.070490 33.548651 29.239254 56.046804 0.777681 1.021962 0.017083 -0.009489 -372088.000000 0 0 1
34.074969 32.438451 30.345104 55.983765 0.760799 0.997941 0.021118 -0.001697 -167847.000000 0 0 1
34.073536 31.101951 29.922464 54.988100 0.739836 0.995406 0.024830 -0.004429 264528.000000 0 0 1
-34.645634 30.625451 28.960584 54.561467 -0.723884 1.011266 0.026455 -0.008701 -116387.000000 0 0 1
34.810712 29.175851 28.455974 53.598120 0.697562 1.011118 0.037336 -0.014895 5922.220000 0 0 1
33.658403 28.990251 27.627944 52.312772 0.711022 1.014399 0.029613 -0.014497 293121.000000 0 0 1
33.399260 27.669451 27.221984 51.206889 0.691846 1.010299 0.036774 -0.009059 -105204.000000 0 0 1
32.943360 26.598551 28.209764 50.877684 0.679238 0.983079 0.027275 -0.013619 60205.200000 0 0 1
33.981426 26.370651 29.194054 51.985011 0.659954 0.974495 0.018101 -0.013306 586912.000000 0 0 1
33.896354 25.155951 29.919474 51.739343 0.638454 0.954186 0.020150 -0.015820 -115100.000000 0 0 1
34.426553 23.967651 29.081844 51.043016 0.608169 0.964593 0.018599 -0.008877 346140.000000 0 0 1
33.449510 23.626651 28.089964 49.660190 0.614967 0.969583 0.002740 0.000339 614539.000000 0 0 1
33.931612 22.563851 27.250664 49.021224 0.586834 0.981357 -0.003446 0.004041 83352.500000 0 0 1
34.021675 21.113651 27.696124 48.686096 0.555425 0.965663 0.000168 -0.004441 -190954.000000 0 0 1
32.737620 20.520051 27.577064 47.469135 0.559895 0.950904 -0.000772 0.004198 360233.000000 0 0 1
32.545750 19.298651 28.317434 47.260352 0.535234 0.928320 0.003366 -0.000751 -533843.000000 0 0 1
32.320990 19.434851 29.843714 48.093733 0.541380 0.901375 0.003883 -0.030258 -183522.000000 0 0 1
31.211510 20.134651 30.370514 47.978440 0.572925 0.885370 0.005764 -0.025613 281213.000000 0 0 1
31.275150 21.505151 30.022634 48.393854 0.602363 0.901568 0.010359 -0.018013 18438.300000 0 0 1
29.932740 22.159751 30.538914 48.162732 0.637276 0.883981 0.014380 -0.017241 888886.000000 0 0 1
28.725500 21.684951 29.936424 46.814324 0.646631 0.876986 0.016630 -0.019470 409316.000000 0 0 1
28.334970 22.242551 28.675244 46.042059 0.665519 0.898473 0.008222 -0.009342 -133232.000000 0 0 1
27.944400 23.753751 28.751654 46.602444 0.704515 0.905927 0.002624 -0.002337 -966852.000000 0 0 1
28.999890 24.625551 28.498124 47.534771 0.704006 0.927893 -0.003259 -0.002206 -624134.000000 0 0 1
28.956070 25.902751 29.057894 48.515644 0.729798 0.928621 -0.001811 0.003549 -85366.300000 0 0 1
29.310890 25.976851 30.588664 49.694984 0.725168 0.907740 0.002178 -0.004386 644151.000000 0 0 1
30.677560 25.674651 30.909024 50.553617 0.696851 0.912954 0.019822 -0.001162 517647.000000 0 0 1
30.996200 25.619951 32.305764 51.583027 0.690722 0.894015 0.023469 -0.003841 133666.000000 0 0 1
30.252860 24.608351 33.233604 51.237476 0.682872 0.865028 0.022954 -0.009815 94496.600000 0 0 1
30.893460 24.559451 34.484298 52.409344 0.671668 0.852663 0.018503 -0.016239 131016.000000 0 0 1
30.188370 23.671551 -34.013219 51.269670 0.664988 2.296174 0.012321 -0.021554 -264824.000000 0 0 1
30.930600 23.226651 -32.735929 50.673666 0.644095 2.273148 0.005404 -0.020494 -244542.000000 0 0 1
31.088600 24.253951 -31.773829 50.639228 0.662523 2.249077 0.010365 -0.011374 489434.000000 0 0 1
31.697840 23.747951 -30.579329 50.038122 0.642987 2.228272 0.004231 -0.012243 -280248.000000 0 0 1
32.291570 24.634551 -29.494709 50.195064 0.651693 2.198888 0.015124 0.006837 -279298.000000 0 0 1
32.665070 23.756951 -28.439059 49.398174 0.628807 2.184269 0.002416 0.004589 296684.000000 0 0 1
33.701363 24.353551 -27.639409 49.928091 0.625752 2.157458 0.008879 0.015768 263961.000000 0 0 1
34.298359 23.374251 -26.651509 49.325815 0.598200 2.141608 -0.000128 0.018261 -507987.000000 0 0 1
-34.562722 22.395151 -27.230439 49.372273 -0.574938 2.154997 -0.012003 0.017681 27352.000000 0 0 1
34.758353 21.074951 -26.765319 48.669076 0.545059 2.153095 -0.017340 0.024748 -255124.000000 0 0 1
-33.821545 20.021351 -27.068359 47.722610 -0.534494 2.173901 -0.007274 0.027189 -210080.000000 0 0 1
-32.584995 20.336951 -26.474479 46.650526 -0.557966 2.174271 -0.009882 0.020488 -619576.000000 0 0 1
-31.676525 19.331151 -26.769269 45.756851 -0.547935 2.195717 -0.008349 0.002670 208014.000000 0 0 1
-30.356395 19.474651 -25.920809 44.414650 -0.570400 2.193963 0.007514 -0.002650 351684.000000 0 0 1
-30.471955 19.205151 -24.531729 43.579624 -0.562370 2.168708 0.006848 -0.014043 506220.000000 0 0 1
-29.303805 19.718051 -23.875629 42.632854 -0.592294 2.165217 0.026720 -0.011819 713900.000000 0 0 1
-29.724265 20.170651 -22.468929 42.370271 -0.596213 2.129750 0.020911 -0.011401 39283.400000 0 0 1
-30.144825 19.187451 -21.606429 41.757712 -0.566833 2.114634 -0.007267 -0.006699 -178205.000000 0 0 1
-30.609575 19.808851 -20.399829 41.779058 -0.574366 2.080913 -0.010358 -0.002475 -171885.000000 0 0 1
-31.505515 18.798151 -19.585829 41.588132 -0.537962 2.061161 -0.019215 0.000697 854972.000000 0 0 1
-32.308135 19.319151 -18.490329 41.939689 -0.538922 2.027374 -0.027534 -0.005223 1374000.000000 0 0 1
-33.395745 20.218351 -18.821629 43.339488 -0.544393 2.020039 -0.022841 -0.002618 -95045.700000 0 0 1
-34.412945 20.263051 -17.683529 43.675499 -0.532159 1.987649 -0.015005 -0.013742 -795499.000000 0 0 1
-33.978685 20.968051 -16.549129 43.221336 -0.552894 1.963722 -0.005103 -0.024902 -105298.000000 0 0 1
-34.828469 20.643051 -15.519229 43.359017 -0.535039 1.936840 -0.002647 -0.023191 -1044010.000000 0 0 1
-34.677081 21.518851 -14.234729 43.222546 -0.555393 1.906396 0.010274 -0.026791 -279577.000000 0 0 1
34.812610 22.932651 -14.441429 44.117788 0.582499 1.904281 0.008857 -0.018753 436421.000000 0 0 1
33.479750 23.354051 -14.682329 43.380597 0.609085 1.916070 0.005181 -0.008748 10331.500000 0 0 1
33.346950 24.874851 -14.943029 44.204880 0.640898 1.915630 0.001362 -0.009902 -96746.100000 0 0 1
33.648505 25.688451 -13.822829 44.533011 0.652044 1.886405 0.006601 -0.006047 60327.800000 0 0 1
33.584900 27.115251 -13.936729 45.358734 0.679215 1.883104 -0.003083 -0.002902 -154006.000000 0 0 1
34.803092 27.793451 -14.602629 46.871825 0.673881 1.887614 0.018059 0.007560 75244.400000 0 0 1
-34.597874 27.619751 -16.000129 47.073004 -0.673708 1.917607 0.024809 0.002722 975418.000000 0 0 1
-33.278455 28.130951 -16.305529 46.526082 -0.701771 1.928858 0.020700 0.001126 674235.000000 0 0 1
-32.961785 27.987951 -17.788929 46.757360 -0.703973 1.961081 0.020215 0.000827 -159221.000000 0 0 1
-32.862515 26.699951 -18.391229 46.163510 -0.682301 1.980561 0.018354 -0.005703 48718.300000 0 0 1
-31.542105 26.219851 -18.313229 44.919476 -0.693516 1.990719 0.015341 -0.004081 -164034.000000 0 0 1
-31.268235 24.848251 -18.937329 44.201364 -0.671489 2.013554 0.010033 -0.002725 -427236.000000 0 0 1
-31.268185 24.999051 -20.347629 44.907438 -0.674439 2.041038 0.000738 0.001656 154461.000000 0 0 1
-30.552925 23.938751 -20.904529 44.085648 -0.664610 2.064829 0.002439 0.001457 -218607.000000 0 0 1
-30.352695 24.019051 -22.440729 44.741337 -0.669433 2.096204 -0.003637 0.011512 874492.000000 0 0 1
-31.575345 23.797851 -23.177729 45.831728 -0.645855 2.101005 -0.002529 0.013020 1073980.000000 0 0 1
-31.256665 23.722151 -24.564329 46.293907 -0.649203 2.130125 0.005045 0.015313 -2358.360000 0 0 1
-32.084795 24.596851 -25.504329 47.800732 -0.654053 2.133595 -0.005404 0.021649 -400590.000000 0 0 1
-31.705745 25.919651 -25.360909 48.169060 -0.685325 2.125272 -0.006182 0.022100 -18754.100000 0 0 1
-32.368645 26.704751 -26.322619 49.535373 -0.689811 2.131037 0.003232 0.017604 48636.200000 0 0 1
-31.796445 28.237251 -26.395189 50.050597 -0.726181 2.126299 -0.003621 0.014996 512085.000000 0 0 1
-30.551915 28.283851 -27.062009 49.656300 -0.746868 2.147169 -0.021739 0.006766 -428993.000000 0 0 1
-30.150285 29.618051 -27.195219 50.257821 -0.776493 2.142558 -0.015222 0.004846 -271123.000000 0 0 1
-28.781045 29.832851 -27.829339 49.928145 -0.803341 2.162033 -0.008778 0.009184 586274.000000 0 0 1
-27.707515 29.234151 -27.009519 48.495939 -0.812202 2.161498 -0.019107 0.007383 1301020.000000 0 0 1
-26.410075 29.286651 -27.609999 48.140545 -0.836999 2.181604 -0.010198 0.010998 952459.000000 0 0 1
-25.611565 30.609251 -27.325039 48.368753 -0.874059 2.171147 -0.009714 0.005406 -570397.000000 0 0 1
-25.095595 30.684551 -26.026599 47.420612 -0.885261 2.151779 -0.009107 -0.003451 143910.000000 0 0 1
-26.092125 30.975951 -25.009929 47.600474 -0.870769 2.123997 -0.012152 -0.003988 60764.200000 0 0 1
-25.593735 31.364251 -23.610529 46.863767 -0.886365 2.098802 -0.015520 -0.006279 21090.700000 0 0 1
-25.244905 32.739251 -23.401029 47.505494 -0.913934 2.085867 0.001349 -0.004431 436070.000000 0 0 1
-23.957725 33.115251 -23.896229 47.345773 -0.944495 2.099851 0.007724 0.005788 264369.000000 0 0 1
-23.986525 34.642751 -23.948929 48.466739 -0.965192 2.087632 0.004136 0.014042 -149914.000000 0 0 1
-24.014025 -34.117917 -22.784529 47.537779 0.957489 2.070645 0.001549 0.008348 214252.000000 0 0 1
-24.062425 -32.740917 -23.081029 46.730096 0.937007 2.087391 0.008385 0.013774 -134131.000000 0 0 1
16.153175 7.940151 -24.959429 30.772457 0.456868 2.516820 0.018722 -0.014254 245257.000000 0 0 1
14.740275 7.727851 -24.946329 29.988576 0.482873 2.553249 0.004299 -0.009496 546147.000000 0 0 1
14.415475 6.409551 -25.329289 29.840595 0.418379 2.584545 0.011622 -0.007594 -165821.000000 0 0 1
12.893675 6.194951 -25.386739 29.139505 0.447897 2.628466 -0.003296 -0.005528 -180746.000000 0 0 1
12.427775 6.133651 -24.060529 27.766532 0.458469 2.619004 0.000029 -0.026889 660580.000000 0 0 1
11.096175 5.594651 -24.025929 27.049408 0.466999 2.664261 0.006558 -0.018050 1224210.000000 0 0 1
10.219375 5.923551 -22.739029 25.623964 0.525314 2.662498 0.020725 -0.027641 572874.000000 0 0 1
10.726975 5.120951 -21.619729 24.671944 0.445397 2.638899 0.009321 -0.028920 256426.000000 0 1 0
10.255075 5.456651 -20.300629 23.389252 0.488991 2.621850 0.013547 -0.020290 -559878.000000 0 1 0
11.029875 6.653751 -19.733929 23.566045 0.542804 2.563284 0.023550 -0.027350 -394947.000000 0 1 0
10.875475 6.944451 -18.356829 22.438238 0.568278 2.528904 0.025814 -0.018208 -551968.000000 0 1 0
11.255875 8.294651 -18.080529 22.856104 0.635076 2.483335 0.029116 -0.012420 -755446.000000 0 1 0
12.720475 8.622751 -17.926829 23.612147 0.595715 2.432911 0.026257 -0.007041 -988471.000000 0 1 0
13.228875 8.360451 -16.648329 22.848788 0.563607 2.387117 0.031205 -0.004108 -399831.000000 0 1 0
14.620075 8.236551 -16.601529 23.605044 0.513052 2.350831 0.019221 0.000830 -522958.000000 0 1 0
15.157675 8.233351 -15.154229 22.960702 0.497592 2.291625 0.029445 -0.002623 -668701.000000 0 1 0
16.548975 8.009551 -15.124129 23.806737 0.450758 2.259177 0.029779 -0.001566 237730.000000 0 1 0
17.180975 8.476151 -13.941129 23.693588 0.458310 2.199866 0.046808 0.002717 75783.100000 0 1 0
17.329975 10.018751 -13.803329 24.315330 0.524174 2.174481 0.031824 0.000046 -1446490.000000 0 1 0
16.095175 10.525851 -13.467129 23.477899 0.579165 2.181701 0.033758 0.000292 -521967.000000 0 1 0
16.189875 11.936551 -13.474429 24.210608 0.635314 2.161025 0.017789 0.006290 -32751.300000 0 1 0
14.884775 12.669051 -13.089829 23.524562 0.705156 2.160882 0.019713 -0.003051 -325561.000000 0 1 0
14.456875 12.697751 -11.775329 22.558645 0.720707 2.119976 0.042617 -0.001882 -72711.500000 0 1 0
15.213875 13.536251 -10.939929 23.116534 0.727112 2.063774 0.053498 -0.001527 -419053.000000 0 1 0
15.000075 15.079851 -11.036129 23.962477 0.788050 2.049421 0.056605 0.002243 -191038.000000 0 1 0
13.758375 15.562451 -10.605129 23.322768 0.846850 2.042844 0.065382 -0.001068 -156139.000000 0 1 0
13.786875 16.948951 -10.561329 24.266984 0.887917 2.021072 0.042911 0.000506 -105476.000000 0 1 0
12.489475 17.429951 -9.892829 23.614789 0.949047 2.003058 0.029023 0.003619 -30325.800000 0 1 0
12.500475 17.089251 -8.535229 22.828809 0.939253 1.953985 0.035518 -0.000102 643500.000000 0 1 0
11.302875 17.523951 -7.881629 22.292688 0.997947 1.932162 0.034735 0.004517 485111.000000 0 1 0
11.340475 17.255251 -6.352729 21.603408 0.989363 1.869270 0.016210 0.002579 -421352.000000 0 1 0
12.293475 18.002251 -5.704929 22.533459 0.971649 1.826758 -0.003478 -0.002545 -467009.000000 0 1 0
12.874175 17.348651 -4.604829 22.089014 0.932380 1.780804 -0.006085 -0.013125 -12952.500000 0 1 0
13.941775 18.284951 -3.950729 23.330683 0.919360 1.740952 -0.021275 -0.017076 -90761.600000 0 1 0
15.018175 18.538251 -4.831729 24.342513 0.889916 1.770613 -0.031683 -0.019597 108638.000000 0 1 0
15.648775 19.728951 -4.369129 25.557875 0.900223 1.742591 -0.022966 -0.020011 -832849.000000 0 0 1
17.004775 20.037751 -4.962729 26.745140 0.867094 1.757434 -0.030275 -0.017840 -102620.000000 0 0 1
18.159375 19.302851 -4.541629 26.888461 0.815912 1.740516 -0.016243 -0.026186 645120.000000 0 0 1
18.516875 18.236151 -5.355329 26.535098 0.777760 1.774013 -0.016664 -0.017039 -253206.000000 0 0 1
19.554475 17.289551 -4.683329 26.518666 0.724002 1.748332 0.005669 -0.025203 1217120.000000 0 0 1
20.912875 17.695251 -4.969129 27.841740 0.702250 1.750235 0.011398 -0.030623 1123860.000000 0 0 1
21.896475 16.905251 -4.338029 28.001100 0.657467 1.726346 0.018125 -0.030140 146075.000000 0 0 1
23.352775 17.326951 -4.632129 29.445406 0.638339 1.728765 0.034603 -0.027255 150068.000000 0 0 1
23.747475 18.448151 -3.834329 30.314665 0.660463 1.697620 0.044031 -0.028536 455892.000000 0 0 1
25.161375 18.574151 -3.774229 31.501408 0.635907 1.690896 0.034282 -0.021725 498829.000000 0 0 1
25.718275 19.976051 -3.259329 32.727596 0.660387 1.670551 0.041285 -0.013615 -17001.400000 0 0 1
25.525075 20.949651 -4.220229 33.290054 0.687265 1.697910 0.032256 -0.012193 162389.000000 0 0 1
25.660675 22.226451 -3.595229 34.138117 0.713806 1.676306 0.035106 -0.006293 -424347.000000 0 0 1
25.432675 23.377951 -4.596429 34.849343 0.743327 1.703076 0.011983 0.005080 715735.000000 0 0 1
26.660675 23.763851 -5.254429 36.098770 0.728013 1.716872 0.009702 0.014056 992412.000000 0 0 1
27.083475 22.892151 -6.270729 36.012321 0.701727 1.745816 0.022432 0.010494 -99220.000000 0 0 1
28.204275 23.474051 -7.166529 37.388118 0.694120 1.763669 0.000683 0.017580 -61715.100000 0 0 1
27.745475 24.440351 -8.104629 37.852703 0.722149 1.786577 -0.004998 0.020285 -413209.000000 0 0 1
28.689775 25.063751 -8.914229 39.124906 0.718044 1.800655 -0.014045 0.025435 -805207.000000 0 0 1
29.452675 24.221851 -9.964129 39.413729 0.688250 1.826378 -0.023544 0.015206 -219147.000000 0 0 1
28.830475 24.166551 -11.182829 39.246326 0.697621 1.859740 -0.017536 0.008025 -106065.000000 0 0 1
29.515175 23.187051 -11.958129 39.392661 0.665897 1.879226 -0.024591 -0.003727 8388.980000 0 0 1
28.811775 22.769251 -13.223329 39.030931 0.668783 1.916428 -0.012094 -0.000708 -153887.000000 0 0 1
28.887175 23.847851 -14.104029 40.026398 0.690128 1.930897 -0.010248 0.000631 55940.600000 0 0 1
28.482775 23.498951 -15.417629 40.014653 0.689814 1.966329 -0.010756 -0.007103 -251867.000000 0 0 1
28.525975 24.793651 -16.279329 41.151828 0.715513 1.977509 -0.005625 -0.010815 215661.000000 0 0 1
29.867575 25.046951 -16.708729 42.409945 0.697838 1.975756 -0.009857 -0.006430 639008.000000 0 0 1
29.923675 25.160751 -18.136529 43.097835 0.699147 2.005148 -0.002585 -0.006773 554365.000000 0 0 1
31.362575 25.633451 -18.519029 44.538066 0.685217 1.999621 -0.014141 -0.007401 492371.000000 0 0 1
32.316375 24.615851 -18.421329 44.605309 0.650956 1.996526 -0.012024 -0.003612 -627305.000000 0 0 1
33.615475 25.103851 -18.641629 45.909844 0.641446 1.988922 0.003483 -0.004022 249901.000000 0 0 1
34.734975 24.012351 -18.574929 46.131762 0.604864 1.985206 -0.003585 -0.013540 -57275.900000 0 0 1
34.544475 23.076651 -19.605729 45.937318 0.588944 2.011740 -0.008098 -0.007676 309806.000000 0 0 1
-34.443471 23.378751 -20.827329 46.547785 -0.596326 2.034697 -0.009951 0.003613 -279732.000000 0 0 1
-34.636471 22.378551 -21.999529 46.738249 -0.573627 2.060876 -0.011959 0.012977 -112583.000000 0 0 1
-34.078071 21.071551 -21.835629 45.630252 -0.553790 2.069781 -0.018345 0.007337 392910.000000 0 0 1
-33.900871 20.469251 -23.095529 45.843895 -0.543207 2.098773 -0.024451 0.009794 -21967.200000 0 0 1
-33.398371 19.041251 -23.131529 44.867450 -0.518163 2.112449 -0.027170 0.005491 -568905.000000 0 0 1
-34.387871 18.140851 -22.709729 45.026081 -0.485433 2.099447 -0.033584 0.017872 -197040.000000 0 0 1
-34.140371 16.762851 -22.879529 44.385031 -0.456420 2.112362 -0.039937 0.011250 -746682.000000 0 0 1
34.287875 15.929751 -22.573629 44.033897 0.434919 2.109055 -0.045983 0.014813 492306.000000 0 0 1
33.276875 16.091051 -23.623929 43.867554 0.450402 2.139486 -0.024161 0.015377 1534450.000000 0 0 1
32.103175 15.267451 -23.584329 42.660631 0.443917 2.156560 -0.017134 0.014897 545073.000000 0 0 1
32.352775 13.849951 -24.053829 42.627572 0.404486 2.170356 -0.031845 0.010045 -671878.000000 0 0 1
32.472475 13.871351 -25.466539 43.536428 0.403709 2.195612 -0.034229 0.012698 142594.000000 0 0 1
32.856675 12.607151 -25.906959 43.699792 0.366377 2.205376 -0.016331 0.011900 -369543.000000 0 0 1
32.847575 12.371551 -27.475809 44.575088 0.360203 2.234951 -0.009582 0.015355 -690080.000000 0 0 1
31.573175 12.142651 -27.985229 43.903102 0.367150 2.261957 -0.011933 0.015168 -482007.000000 0 0 1
31.062475 13.298751 -28.668009 44.312401 0.404518 2.274377 -0.008250 0.016996 -311842.000000 0 0 1
31.512975 13.521451 -30.156259 45.665054 0.405318 2.292120 -0.004996 0.007357 432775.000000 0 0 1
32.915175 13.805951 -30.265229 46.797405 0.397152 2.274084 -0.008625 0.013217 293045.000000 0 0 1
33.209775 13.825151 -31.620439 47.894427 0.394477 2.291896 -0.007379 0.002192 -425654.000000 0 0 1
34.682975 14.250651 -31.886579 49.221374 0.389853 2.275515 0.001155 0.005563 517943.000000 0 0 1
-33.903171 13.434051 -31.452249 48.157478 -0.377267 2.282484 -0.002054 0.009470 578178.000000 0 0 1
-33.875471 13.174851 -30.039539 47.153983 -0.370918 2.261464 -0.011848 0.013711 -1432630.000000 0 0 1
-32.799271 12.126351 -29.741799 45.906592 -0.354128 2.275590 -0.014435 0.009008 -318.077000 0 0 1
-33.235071 10.807351 -30.025309 46.074808 -0.314394 2.280573 -0.014067 0.001199 1346230.000000 0 0 1
-32.105371 9.907851 -29.956369 45.014491 -0.299332 2.298937 -0.010330 -0.000381 974563.000000 0 0 1
-32.639571 8.527751 -30.474769 45.461804 -0.255558 2.305460 -0.001834 -0.003252 -294808.000000 0 0 1
-32.852371 8.522651 -31.880039 46.564479 -0.253827 2.324910 0.004025 -0.007161 107037.000000 0 0 1
-33.076471 7.217051 -32.458579 46.900939 -0.214826 2.335145 0.001762 -0.008146 -1046270.000000 0 0 1
-34.306671 6.435151 -32.063919 47.396769 -0.185423 2.313796 0.012484 0.007609 -784215.000000 0 0 1
-34.039471 5.867551 -30.829679 46.298843 -0.170697 2.299475 0.019226 0.004418 227478.000000 0 0 1
34.463775 5.215751 -30.369929 46.230817 0.150200 2.287522 0.014239 0.011885 -204695.000000 0 0 1
34.514275 4.443651 -29.038339 45.323353 0.128044 2.266196 0.013414 0.010579 -131510.000000 0 0 1
-34.479171 3.200751 -29.191469 45.290174 -0.092566 2.271222 0.039686 0.015209 192064.000000 0 0 1
34.763975 2.252451 -28.292949 44.878708 0.064702 2.252905 0.043774 0.011207 -647960.000000 0 0 1
-33.920171 1.116651 -28.121769 44.075603 -0.032908 2.262740 0.056185 0.008589 -428265.000000 0 0 1
-32.691971 1.474151 -27.539059 42.770759 -0.045062 2.270349 0.058143 0.003636 -125147.000000 0 0 1
-31.833171 0.343251 -27.502019 42.069343 -0.010782 2.283300 0.057490 0.003312 269977.000000 0 0 1
-30.665071 0.580251 -26.525759 40.549959 -0.018920 2.283855 0.054679 0.001786 320905.000000 0 0 1
-31.205971 0.522151 -25.191859 40.108790 -0.016731 2.249890 0.041125 0.013708 1553850.000000 0 0 1
-30.096771 0.614851 -24.246929 38.653683 -0.020426 2.248860 0.042218 0.019932 980167.000000 0 0 1
-30.547571 0.287251 -22.807729 38.123865 -0.009403 2.212116 0.033183 0.024049 -288459.000000 0 0 1
-30.766471 -1.136949 -22.671829 38.234542 0.036937 2.205535 0.045326 0.011004 192115.000000 0 0 1
-31.028971 -1.562749 -21.348029 37.695856 0.050322 2.172834 0.026690 0.007873 -1034030.000000 0 0 1
-32.439871 -1.385749 -20.847429 38.586018 0.042691 2.141572 0.011540 0.008866 -873116.000000 0 0 1
-33.304571 -2.484449 -21.124329 39.517138 0.074460 2.134785 0.016123 0.000109 816211.000000 0 0 1
-34.601471 -2.264749 -20.548129 40.306531 0.065359 2.105745 0.006962 0.002197 832402.000000 0 0 1
34.246975 -3.549849 -20.158929 39.897858 -0.103286 2.100484 0.003088 -0.005908 -104907.000000 0 0 1
33.788275 -4.396749 -21.203029 40.131625 -0.129399 2.127437 0.013528 0.000969 -82357.700000 0 0 1
34.772075 -4.916849 -22.082429 41.483807 -0.140471 2.132129 0.001873 0.003818 -884438.000000 0 0 1
34.258775 -5.703649 -23.308329 41.826707 -0.164974 2.161878 -0.000268 0.000682 -740911.000000 0 0 1
33.936975 -7.025849 -22.849729 41.511335 -0.204142 2.153694 -0.000479 0.003944 277759.000000 0 0 1
33.419575 -7.919349 -23.826429 41.800511 -0.232676 2.177306 -0.002103 0.006277 428542.000000 0 0 1
31.977675 -7.641749 -24.369029 40.924535 -0.234572 2.208638 -0.006673 0.001576 122176.000000 0 0 1
31.926375 -6.554149 -25.249259 41.228332 -0.202476 2.229921 -0.008675 -0.001587 -821786.000000 0 0 1
30.600075 -6.387849 -25.613149 40.412901 -0.205797 2.257235 -0.020275 0.001446 -671071.000000 0 0 1
30.165375 -5.162349 -26.402829 40.419167 -0.169493 2.282633 -0.013560 -0.012156 -43332.700000 0 0 1
30.456675 -5.313149 -27.762909 41.552589 -0.172711 2.302501 -0.014409 -0.003432 21193.400000 0 0 1
30.000375 -4.227949 -28.461569 41.568725 -0.140008 2.324971 -0.006541 -0.007069 -227451.000000 0 0 1
29.907075 -4.457149 -29.980889 42.581134 -0.147944 2.351935 -0.002185 -0.003057 -112281.000000 0 0 1
29.310875 -3.390149 -30.634749 42.533614 -0.115150 2.374956 -0.012320 -0.005427 -287826.000000 0 0 1
28.838675 -3.795849 -31.865249 43.144776 -0.130871 2.401737 -0.007176 -0.006238 -784454.000000 0 0 1
28.301875 -2.629949 -32.670799 43.304663 -0.092659 2.425598 -0.004820 -0.006116 -207598.000000 0 0 1
27.189175 -1.909649 -32.163579 42.159148 -0.070120 2.438597 -0.020140 -0.003819 1111440.000000 0 0 1
25.900875 -2.553849 -32.073409 41.304733 -0.098283 2.459899 -0.009933 -0.006722 761328.000000 0 0 1
25.164075 -2.797849 -33.446509 41.949107 -0.110729 2.493624 0.010494 -0.015898 -941229.000000 0 0 1
25.748875 -3.812949 -34.229945 43.002700 -0.147014 2.491446 0.011415 -0.020728 -8971.440000 0 0 1
25.141175 -3.945649 33.791919 42.302962 -0.155670 0.645486 0.018007 -0.017996 -237833.000000 0 0 1
25.696075 -5.055849 32.877624 42.033177 -0.194274 0.672635 0.003921 -0.020883 547369.000000 0 0 1
26.946175 -5.037149 32.171534 42.266734 -0.184801 0.705704 0.001452 -0.014191 476612.000000 0 0 1
27.086375 -4.156749 31.062314 41.422429 -0.152275 0.722899 0.011100 -0.012010 -591847.000000 0 0 1
27.611675 -2.770949 31.478594 41.964087 -0.100019 0.722535 -0.000025 -0.012917 -374273.000000 0 0 1
28.904475 -2.703049 32.045844 43.240158 -0.093245 0.736070 -0.002872 -0.010992 -101952.000000 0 0 1
29.131875 -1.394049 32.491504 43.661279 -0.047817 0.731502 -0.007073 -0.005670 -599793.000000 0 0 1
30.513775 -1.363649 33.116124 45.051389 -0.044660 0.745020 -0.009554 -0.003497 -784493.000000 0 0 1
31.522775 -1.778949 32.248494 45.131091 -0.056374 0.774813 -0.006756 0.000855 -1558180.000000 0 0 1
32.776775 -1.538549 32.773234 46.376384 -0.046906 0.786002 0.008408 0.005889 -566322.000000 0 0 1
33.879175 -2.265349 31.942394 46.618095 -0.066766 0.815928 0.011360 0.010418 182389.000000 0 0 1
34.138775 -1.719549 30.662564 45.919556 -0.050327 0.839621 0.007500 0.009724 -440264.000000 0 0 1
-34.429671 -2.354749 30.085674 45.783128 0.068287 0.853785 0.009253 0.008422 -303186.000000 0 0 1
-34.110371 -1.700349 28.719054 44.622782 0.049807 0.871609 0.007739 0.007214 246770.000000 0 0 1
34.735875 -2.004649 27.584984 44.401925 -0.057647 0.900451 0.004085 -0.004998 258818.000000 0 0 1
-34.379071 -1.212149 26.521114 43.436843 0.035244 0.914020 -0.004394 -0.004460 153248.000000 0 0 1
-25.549615 15.400451 12.569171 32.371914 -0.542451 1.172038 0.012457 -0.000885 50277.900000 0 0 1
-26.728415 14.682251 12.932671 33.124473 -0.502315 1.169702 -0.001351 -0.001730 278905.000000 0 0 1
-27.546675 15.649851 13.559771 34.461639 -0.516649 1.166389 0.004659 -0.002076 -1248640.000000 0 0 1
-28.738725 14.952651 14.124271 35.341069 -0.479752 1.159655 0.014790 -0.005458 -1484610.000000 0 0 1
-29.635145 15.777851 14.780371 36.682991 -0.489233 1.156089 0.016371 -0.015013 -593920.000000 0 0 1
-30.645615 14.988451 15.394871 37.427389 -0.454881 1.146888 0.021221 -0.011232 -451942.000000 0 0 1
-31.678005 15.913751 16.023771 38.903788 -0.465534 1.146278 0.012536 -0.018010 -491650.000000 0 0 1
-31.266805 16.491151 17.246271 39.331985 -0.485353 1.116890 0.004573 -0.006282 764582.000000 0 0 1
-32.358765 16.477151 18.199971 40.618040 -0.470982 1.106184 0.001696 -0.012615 791609.000000 0 0 1
-31.776585 16.808851 19.593071 40.941144 -0.486554 1.071775 -0.002153 0.001093 758799.000000 0 0 1
-31.045535 15.720551 20.236271 40.255033 -0.468731 1.044075 -0.006561 0.006734 290367.000000 0 0 1
-30.027895 16.078951 21.158971 40.098744 -0.491617 1.014939 -0.008802 0.007279 26555.200000 0 0 1
-30.328935 16.521051 22.607171 41.278004 -0.498787 0.991206 -0.012301 0.006630 -290754.000000 0 0 1
-31.016485 17.778451 22.569671 42.278668 -0.520476 1.007671 -0.007008 0.008837 142908.000000 0 0 1
-31.111465 18.550151 23.756271 43.317339 -0.537656 0.990318 -0.012776 0.004851 -1083320.000000 0 0 1
-31.765435 17.830551 25.045971 44.207150 -0.511492 0.968472 -0.037942 0.010783 1204370.000000 0 0 1
-33.086705 17.266551 24.853871 44.839478 -0.480980 0.983292 -0.014430 0.017739 666653.000000 0 0 1
-34.044895 18.233551 24.569671 45.773202 -0.491700 1.004192 -0.016312 0.017296 -1259290.000000 0 0 1
34.249339 17.636851 24.118671 45.450919 0.475540 1.011425 -0.025679 0.008777 224532.000000 0 0 1
33.616064 17.128651 25.284771 45.417509 0.471249 0.980366 -0.011798 0.015811 -646888.000000 0 0 1
32.364490 16.581251 25.015371 44.138044 0.473462 0.968237 -0.008078 0.013635 -347911.000000 0 0 1
31.976920 15.757651 26.298371 44.299338 0.457857 0.935207 -0.016454 0.007618 -415574.000000 0 0 1
31.644940 16.380451 27.478971 44.997948 0.477654 0.913888 0.001606 0.000906 -14309.200000 0 0 1
31.577680 15.565651 28.611671 45.365925 0.457977 0.888359 -0.001964 0.004046 145899.000000 0 0 1
30.578330 14.355951 28.706071 44.330194 0.438936 0.866430 0.002340 0.019689 108903.000000 0 0 1
31.023080 13.262851 27.909971 43.786998 0.403999 0.879673 -0.005861 0.008317 -229706.000000 0 0 1
30.059170 12.268551 27.824571 42.758366 0.387510 0.862238 -0.005663 0.013210 -521769.000000 0 0 1
30.643480 10.929551 27.273271 42.453613 0.342603 0.873138 -0.001154 0.013169 373661.000000 0 0 1
31.459990 10.215651 28.223271 43.481531 0.313978 0.864413 -0.000619 0.006576 182874.000000 0 0 1
31.762230 8.926951 27.791471 43.138099 0.273987 0.870762 -0.008941 0.005823 -372508.000000 0 0 1
32.843170 8.249051 28.625771 44.341352 0.246075 0.869017 0.004781 -0.002564 -411352.000000 0 0 1
34.090570 8.903551 28.723171 45.458341 0.255467 0.886850 0.013471 -0.001387 -625973.000000 0 0 1
-34.737795 7.955151 29.271871 46.117690 -0.225124 0.883149 0.011081 -0.001546 -1443170.000000 0 0 1
-33.401695 8.532451 29.644371 45.467183 -0.250101 0.860584 0.005534 -0.002868 -589519.000000 0 0 1
-32.647555 8.987751 28.509071 44.265220 -0.268642 0.871014 -0.001777 -0.001608 125298.000000 0 0 1
-31.376065 9.507451 28.815071 43.648109 -0.294222 0.849754 0.004143 -0.003229 9833.350000 0 0 1
-30.787245 10.283851 27.615871 42.617466 -0.322377 0.865848 -0.001693 0.000556 -271641.000000 0 0 1
-30.223355 9.392051 26.659071 41.380768 -0.301294 0.870770 -0.002534 0.003108 115606.000000 0 0 1
-29.547855 10.110151 25.645771 40.410351 -0.329675 0.883262 -0.009051 0.006761 -316298.000000 0 0 1
-28.881725 9.056351 24.750171 39.099137 -0.303857 0.885360 -0.004750 0.007498 803371.000000 0 0 1
-27.814525 9.628451 23.928571 37.933250 -0.333255 0.888203 -0.017090 0.006208 929702.000000 0 0 1
-27.218215 8.755951 23.000971 36.695267 -0.311239 0.893344 -0.010292 0.012856 -21181.700000 0 0 1
-26.309355 9.391851 21.941971 35.522375 -0.342877 0.904989 -0.022390 0.017412 -292762.000000 0 0 1
-25.044025 9.686851 22.524271 35.048268 -0.369069 0.872826 -0.009628 0.003709 820277.000000 0 0 1
-24.055225 10.349351 21.710871 34.016538 -0.406295 0.878580 -0.010380 0.005404 1139570.000000 0 0 1
-23.372425 9.537551 20.563071 32.558794 -0.387443 0.887223 -0.009550 0.007925 -104981.000000 0 0 1
-24.287925 9.482851 19.479771 32.546725 -0.372233 0.929148 -0.011830 0.010398 500016.000000 0 0 1
-23.755825 8.759451 18.393571 31.295218 -0.353261 0.942529 -0.007932 0.004696 -121864.000000 0 0 1
-23.606325 7.204951 18.583271 30.895111 -0.296232 0.925424 -0.005435 0.006491 -657842.000000 0 0 1
-22.393625 6.841851 19.192571 30.276066 -0.296519 0.884186 0.010418 -0.001354 214667.000000 0 0 1
-22.446325 5.574451 19.790071 30.439431 -0.243421 0.863020 0.015655 -0.003662 -346086.000000 0 0 1
-22.468325 4.366651 18.806171 29.623730 -0.191954 0.883002 0.015512 -0.004116 -947426.000000 0 0 1
-23.761625 4.141651 18.321771 30.289527 -0.172566 0.921171 0.015515 0.002999 59.553000 0 0 1
-23.863225 3.055551 17.408771 29.696047 -0.127351 0.944396 0.023594 -0.001182 -175009.000000 0 0 1
-23.773025 1.615651 17.945571 29.829693 -0.067857 0.925293 0.016889 0.004559 246975.000000 0 0 1
-22.464825 1.233751 18.372471 29.047172 -0.054864 0.886014 0.006767 0.005616 774712.000000 0 0 1
-22.439725 -0.101149 18.799571 29.274142 0.004508 0.873444 0.010929 0.003423 -800199.000000 0 0 1
-21.040325 -0.678049 18.916571 28.301797 0.032215 0.838757 0.020771 0.009321 -669383.000000 0 0 1
-20.295625 -0.223749 20.035971 28.520214 0.011024 0.791866 0.014013 0.008899 -200698.000000 0 0 1
-19.265125 -1.137649 20.278471 27.993851 0.058984 0.760647 0.001111 0.010756 -36385.000000 0 0 1
-18.250625 -0.833449 21.414171 28.148653 0.045635 0.706324 0.005531 0.009149 683213.000000 0 0 1
-18.872125 -0.946449 22.708871 29.542270 0.050109 0.694005 0.007076 0.008319 567089.000000 0 0 1
-17.884325 -0.867249 23.753271 29.745909 0.048454 0.645932 0.006048 0.006606 10592.300000 0 0 1
-18.459925 -0.864449 25.159871 31.217547 0.046794 0.633513 0.011172 0.010071 -397216.000000 0 0 1
-19.160325 0.205851 25.692871 32.051273 -0.010743 0.640800 0.013806 -0.001103 874345.000000 0 0 1
-20.584925 -0.002449 25.485371 32.760392 0.000119 0.679428 -0.000638 -0.001728 857844.000000 0 0 1
-21.366125 1.277251 25.887471 33.590234 -0.059708 0.690882 0.004652 -0.003150 -557296.000000 0 0 1
-20.972425 2.378351 25.114171 32.805804 -0.112921 0.698915 0.001992 0.002032 43613.500000 0 0 1
-22.082825 3.107451 24.687171 33.268061 -0.139800 0.734646 -0.002458 -0.000948 -918177.000000 0 0 1
-21.673525 4.210651 23.704571 32.394104 -0.191886 0.749902 0.001530 0.006412 -245119.000000 0 0 1
-21.084225 3.903751 22.482371 31.068326 -0.183077 0.761730 0.005681 0.003586 329529.000000 0 0 1
-19.792925 3.347351 22.595071 30.224194 -0.167533 0.726382 0.000041 0.004912 -764767.000000 0 0 1
-19.242925 2.571751 21.383671 28.881923 -0.132859 0.737157 0.003424 0.002453 -178023.000000 0 0 1
-18.740625 3.369751 20.353171 27.871452 -0.177909 0.752106 0.012876 0.002949 188383.000000 0 0 1
-18.562425 2.583051 19.177171 26.814170 -0.138267 0.773903 0.014948 -0.006961 -128951.000000 0 0 1
-18.356725 3.555351 18.018771 25.967018 -0.191312 0.803891 0.018845 -0.007909 54566.400000 0 0 1
-16.985525 3.884651 17.884471 24.969039 -0.224837 0.772360 0.015324 -0.014359 234491.000000 0 1 0
-16.779725 4.724351 16.798071 24.208550 -0.274447 0.803919 0.020654 -0.011816 -917497.000000 0 1 0
-15.321225 5.046551 16.501971 23.076453 -0.318191 0.774029 0.025381 -0.007977 -320437.000000 0 1 0
-14.635325 5.954151 17.413371 23.513191 -0.386384 0.736865 0.011082 -0.009536 4934.140000 0 1 0
-15.077125 7.212351 17.504471 24.202154 -0.446189 0.762284 0.007583 -0.013968 -825738.000000 0 1 0
-14.614925 8.281551 16.376971 23.460293 -0.515537 0.798095 -0.000369 -0.006572 27752.200000 0 1 0
-14.992725 8.136251 15.015071 22.725157 -0.497206 0.849013 -0.011710 0.000540 790128.000000 0 1 0
-16.400025 8.260951 14.733671 23.543263 -0.466616 0.894623 0.006582 -0.009301 941923.000000 0 1 0
-16.838425 7.710151 13.365671 22.839006 -0.429396 0.945654 -0.004103 -0.008322 -251805.000000 0 1 0
-16.750625 6.294751 13.528271 22.432598 -0.359465 0.923461 0.002047 -0.014284 374483.000000 0 1 0
-17.459125 5.563851 12.514371 22.189795 -0.308504 0.971611 0.010691 -0.013416 58139.200000 0 1 0
-17.215925 4.059251 12.627671 21.733009 -0.231555 0.950795 0.007374 -0.008956 -261671.000000 0 1 0
-17.952425 3.370351 13.619071 22.784379 -0.185578 0.930121 0.012216 -0.009198 11936.200000 0 1 0
-17.475625 2.147551 13.897971 22.431297 -0.122275 0.902589 0.007413 -0.009781 -990879.000000 0 1 0
-18.347625 1.389151 14.874771 23.660598 -0.075569 0.890951 0.016704 -0.004538 148.900000 0 1 0
-19.606725 1.116451 14.297171 24.291547 -0.056881 0.941513 0.027341 0.000941 -41940.700000 0 1 0
-20.677725 0.866651 15.152971 25.650184 -0.041888 0.938802 0.020358 0.004862 40824.200000 0 0 1
-21.978125 0.502551 14.393871 26.276874 -0.022862 0.991091 0.020305 0.001646 37632.900000 0 0 1
-21.858325 -0.734649 13.680971 25.797191 0.033597 1.011809 0.022959 0.003111 458146.000000 0 0 1
-23.152625 -1.199949 13.365971 26.760664 0.051781 1.047817 0.030490 -0.002903 -16671.200000 0 0 1
-23.069825 -2.432149 12.466971 26.335481 0.105038 1.077660 0.033534 -0.005944 -237940.000000 0 0 1
-22.742125 -3.629749 13.115271 26.502635 0.158270 1.053115 0.037921 -0.000518 244055.000000 0 0 1
-22.511325 -4.680749 12.171571 26.015694 0.205007 1.083934 0.033436 0.003442 -23768.700000 0 0 1
-22.253925 -6.134849 12.741271 26.366903 0.268994 1.066456 0.023871 0.002657 -599150.000000 0 0 1
-23.416425 -6.622849 13.308671 27.736471 0.275630 1.070340 0.028306 0.000096 -266496.000000 0 0 1
-23.447925 -8.028049 13.491571 28.218385 0.329868 1.072292 0.034481 -0.001258 -73557.100000 0 0 1
-24.329525 -8.473949 14.682171 29.652989 0.335159 1.052809 0.028452 0.004181 -369105.000000 0 0 1
-25.701855 -8.281849 14.599371 30.697166 0.311722 1.075158 0.027694 -0.002362 -526427.000000 0 0 1
-26.376425 -8.576649 15.793871 31.917410 0.314380 1.053151 0.018485 0.006226 -367710.000000 0 0 1
-27.842495 -8.047649 15.911271 33.062634 0.281373 1.068720 0.010802 -0.000391 508370.000000 0 0 1
-28.780145 -8.497049 14.946871 33.524701 0.287084 1.108677 0.011476 -0.001979 448117.000000 0 0 1
-28.984355 -9.910249 14.805071 34.021993 0.329456 1.120578 0.010762 -0.005800 -1084490.000000 0 0 1
-29.404395 -10.760749 16.024671 35.173886 0.350819 1.097768 0.003611 0.000014 -227388.000000 0 0 1
-28.405295 -10.806349 17.050571 34.847668 0.363526 1.059522 0.012872 0.001481 428618.000000 0 0 1
-28.867735 -11.402749 18.251871 36.006939 0.376188 1.039213 0.007906 0.008333 -504855.000000 0 0 1
-27.758255 -11.406149 19.292371 35.676555 0.389876 0.999459 0.004845 0.014987 -122797.000000 0 0 1
-26.719345 -12.226149 18.785671 34.875544 0.429137 1.001964 0.005142 0.015227 -36719.700000 0 0 1
-25.544785 -12.201949 19.574671 34.417893 0.445624 0.965829 -0.003248 0.017078 809069.000000 0 0 1
-24.369125 -13.127049 19.091071 33.625030 0.494107 0.967010 0.011837 0.020837 460715.000000 0 0 1
-23.766125 -12.743249 17.892771 32.363102 0.492182 0.984985 0.013549 0.016201 -255793.000000 0 0 1
-22.979125 -13.767949 17.370171 31.926783 0.539794 0.995525 0.013131 0.003230 -514733.000000 0 0 1
-22.794625 -13.460049 15.867271 30.863217 0.533399 1.030820 0.011161 -0.004449 -141506.000000 0 0 1
-21.838225 -12.394949 15.640971 29.583489 0.516240 1.013721 0.022496 -0.009542 395309.000000 0 0 1
-21.503325 -12.336749 14.260671 28.599915 0.520867 1.048783 0.034888 -0.002495 -62628.500000 0 0 1
-20.342625 -11.405549 13.896771 27.148282 0.511000 1.033420 0.020737 -0.003221 -402416.000000 0 0 1
-20.618725 -9.992549 14.018671 26.860864 0.451280 1.021720 0.011997 -0.002228 577189.000000 0 0 1
-19.448225 -9.214749 13.775771 25.552239 0.442476 1.001402 0.007527 0.000693 241614.000000 0 0 1
-18.792625 -9.161449 12.344871 24.279431 0.453600 1.037413 0.005937 0.012297 -376965.000000 0 1 0
-18.005325 -10.280749 12.084171 23.998182 0.518811 1.043099 -0.009184 0.002215 133264.000000 0 1 0
-17.767725 -10.456549 10.668271 23.213002 0.531931 1.093272 -0.008886 0.010455 -412592.000000 0 1 0
-17.079625 -11.765949 10.152571 23.091684 0.603229 1.115572 -0.024923 0.007705 2040600.000000 0 1 0
-15.636725 -12.011049 10.130471 22.167519 0.655004 1.096181 -0.022425 0.005462 1837900.000000 0 1 0
-15.034625 -11.897349 11.389471 22.300379 0.669432 1.034763 -0.014288 0.000822 -662692.000000 0 1 0
-13.527325 -12.225549 11.311771 21.457137 0.734892 1.015518 -0.017994 0.003386 -69610.100000 0 1 0
-13.336025 -13.598849 11.067871 22.028982 0.795156 1.044397 -0.011370 -0.002630 -44520.600000 0 1 0
-11.963425 -13.905449 10.934871 21.355478 0.860329 1.033238 -0.016788 -0.002307 314242.000000 0 1 0
-11.556825 -15.440449 10.946271 22.176305 0.928270 1.054570 -0.021525 -0.002259 -61553.500000 0 1 0
-12.043425 -16.050549 9.807971 22.335185 0.927075 1.116170 -0.015479 0.002029 -16018.600000 0 1 0
-11.830425 -17.431549 9.819971 23.243272 0.974524 1.134609 -0.011707 -0.000326 79475.900000 0 1 0
-12.349525 -18.230349 8.542671 23.618502 0.975389 1.200712 -0.012675 0.007742 -352766.000000 0 1 0
-11.565625 -18.028449 7.443071 22.675713 1.000405 1.236357 -0.019604 0.000553 -618145.000000 0 1 0
-12.092925 -18.693749 6.355771 23.153637 0.996606 1.292722 -0.018784 0.000594 -232202.000000 0 1 0
-11.207625 -18.514549 5.116571 22.239125 1.026458 1.338646 -0.013264 0.000183 -213712.000000 0 1 0
-11.678225 -19.070349 3.908971 22.701084 1.021326 1.397741 -0.008457 -0.004676 729123.000000 0 1 0
-10.662125 -19.003049 2.873071 21.978428 1.059490 1.439699 -0.005939 -0.009567 580956.000000 0 1 0
-10.902325 -19.955849 1.652671 22.799735 1.070781 1.498246 -0.006262 0.001841 -263740.000000 0 1 0
-10.660225 -21.300849 1.944071 23.898660 1.106781 1.489360 -0.016802 0.003221 119126.000000 0 1 0
-11.121625 -22.217549 0.851471 24.860310 1.106686 1.536539 -0.014649 0.008202 984535.000000 0 1 0
-10.123325 -22.228549 -0.426229 24.428912 1.143444 1.588245 -0.006509 0.008715 709686.000000 0 1 0
-10.259925 -21.145549 -1.337929 23.541248 1.119055 1.627660 -0.001275 -0.003833 -569469.000000 0 1 0
-11.321925 -21.212249 -2.232329 24.148059 1.080519 1.663372 0.016674 0.004300 260833.000000 0 1 0
-12.503425 -20.188649 -1.962529 23.827897 1.016285 1.653252 0.022902 0.000560 750498.000000 0 1 0
-13.167425 -20.466249 -0.729429 24.347084 0.999094 1.600760 0.001007 0.007022 -897867.000000 0 1 0
-14.109525 -19.530749 -0.489229 24.099133 0.945177 1.591098 0.004948 0.010825 -897407.000000 0 1 0
25.482175 -20.714549 -4.436929 33.137895 -0.682560 1.705093 0.004518 0.005574 118779.000000 0 0 1
24.323275 -20.674249 -3.605529 32.125474 -0.704481 1.683266 0.005316 -0.004923 331680.000000 0 0 1
24.424675 -21.621549 -2.617029 32.724684 -0.724597 1.650853 -0.001175 -0.008964 -573186.000000 0 0 1
23.159775 -22.018549 -1.863929 32.010403 -0.760143 1.629058 -0.001381 -0.009754 -261778.000000 0 0 1
22.227875 -22.702749 -2.708329 31.887744 -0.795967 1.655832 0.004998 -0.013676 -295862.000000 0 0 1
21.096575 -23.015249 -1.947729 31.281956 -0.828866 1.633100 0.015713 -0.020444 -13539.300000 0 0 1
19.996675 -23.786249 -2.767529 31.197946 -0.871737 1.659622 0.011785 -0.016145 502138.000000 0 0 1
19.421375 -22.919749 -3.737229 30.273281 -0.867834 1.694562 0.005723 -0.019693 -486068.000000 0 0 1
18.405975 -23.472249 -4.531229 30.170489 -0.905789 1.721554 0.005688 -0.016900 -176279.000000 0 0 1
17.532275 -22.338749 -5.101929 28.851863 -0.905370 1.748563 -0.006188 -0.009587 -931487.000000 0 0 1
16.641175 -21.743449 -4.213129 27.703009 -0.917548 1.723471 0.000139 -0.002959 -208070.000000 0 0 1
17.112875 -20.879749 -3.208029 27.186501 -0.884223 1.689073 -0.008664 -0.005039 -1134180.000000 0 0 1
16.041775 -20.417749 -2.243429 26.062539 -0.904850 1.656982 0.016363 0.001357 -590086.000000 0 0 1
15.580475 -21.526849 -1.484329 26.615026 -0.944295 1.626596 0.012836 -0.007796 79226.900000 0 0 1
14.617275 -20.959949 -0.627129 25.561249 -0.961824 1.595333 0.010081 0.007509 -374630.000000 0 0 1
14.188575 -21.722849 0.644971 25.954071 -0.992200 1.545943 0.009273 0.002692 349876.000000 0 0 1
13.359675 -22.906449 0.436171 26.521247 -1.042801 1.554349 0.006685 0.002915 398962.000000 0 0 1
12.417475 -22.964449 1.493171 26.149362 -1.075101 1.513664 0.002294 0.000757 12965.700000 0 0 1
11.442775 -24.169549 1.358071 26.775894 -1.128623 1.520055 0.002251 0.001610 -382629.000000 0 0 1
11.948975 -25.468829 1.518771 28.173496 -1.132123 1.516862 0.013346 0.001551 -394.515000 0 0 1
11.092375 -26.565079 1.206871 28.813204 -1.175249 1.528898 0.021890 -0.007049 -122747.000000 0 0 1
11.634175 -27.822369 1.875971 30.215186 -1.174734 1.508669 0.018615 -0.000069 52597.400000 0 0 1
11.422975 -27.785959 3.290971 30.222084 -1.180753 1.461687 0.023386 -0.004124 131117.000000 0 0 1
11.955175 -28.942439 3.908071 31.557312 -1.179076 1.446637 0.024659 -0.007739 -23700.500000 0 0 1
11.325475 -29.245849 5.304171 31.807550 -1.201329 1.403255 0.026836 -0.007192 112170.000000 0 0 1
11.977775 -30.254849 6.098771 33.106162 -1.193833 1.385520 0.023204 -0.010417 62910.100000 0 0 1
11.375775 -30.432049 7.392971 33.319271 -1.213070 1.347051 0.018412 -0.015152 -68706.700000 0 0 1
12.134875 -31.412849 8.294271 34.681655 -1.202153 1.329301 0.020735 -0.008980 196923.000000 0 0 1
11.466175 -31.768049 9.518671 35.089702 -1.224414 1.296087 0.014821 -0.003104 109360.000000 0 0 1
10.889175 -33.087189 9.417771 36.083661 -1.252856 1.306740 0.008844 -0.001179 171019.000000 0 0 1
10.511775 -33.526929 10.867671 36.778508 -1.266971 1.270828 0.002858 0.006983 -204266.000000 0 0 1
11.608875 -33.895019 11.687371 37.685977 -1.240823 1.255472 0.010457 0.008979 95865.600000 0 0 1
11.334075 -34.176626 13.084071 38.310519 -1.250577 1.222255 0.008578 0.014660 322769.000000 0 0 1
10.280875 34.182147 13.364171 38.114520 1.278636 1.212550 0.005701 0.011560 493250.000000 0 0 1
10.723075 32.848200 13.039871 36.932734 1.255260 1.209945 0.013175 0.011570 171284.000000 0 0 1
9.709075 31.917610 13.387171 35.947411 1.275498 1.189192 -0.001383 0.013907 238118.000000 0 0 1
9.631175 30.799750 12.329871 34.545765 1.267727 1.205834 0.004086 0.011348 -193910.000000 0 0 1
9.295175 31.074660 10.997471 34.248783 1.280143 1.243900 -0.006036 0.012623 169897.000000 0 0 1
10.152875 31.958950 10.225871 35.057436 1.263195 1.274804 -0.004570 0.007067 230834.000000 0 0 1
9.886275 32.114840 8.727971 34.717126 1.272161 1.316667 -0.000694 0.005408 517532.000000 0 0 1
8.675175 32.848350 8.480071 35.016916 1.312594 1.326194 -0.005571 0.003011 409738.000000 0 0 1
8.433175 32.956340 7.116471 34.754611 1.320283 1.364574 -0.001469 0.001868 -130987.000000 0 0 1
8.962275 34.270834 6.522671 36.018852 1.315011 1.388701 0.005400 0.003404 -4712.910000 0 0 1
8.303975 -34.084829 7.005971 35.774504 -1.331825 1.373685 0.003620 -0.003926 -124219.000000 0 0 1
8.776975 -32.956559 6.356371 34.692557 -1.310518 1.386535 0.012344 -0.006166 575163.000000 0 0 1
7.779875 -31.678859 6.415571 33.245091 -1.329977 1.376600 0.008217 -0.007206 663422.000000 0 0 1
7.677875 -31.128049 7.714671 32.976072 -1.328969 1.334660 0.019901 -0.006359 -143077.000000 0 0 1
7.067275 -29.859919 7.768271 31.652917 -1.338392 1.322843 0.019672 -0.001957 -575935.000000 0 0 1
7.926075 -28.676819 7.418071 30.662850 -1.301135 1.326448 0.030925 -0.006613 -859541.000000 0 0 1
8.628075 -28.152769 8.478371 30.641554 -1.273411 1.290443 0.028084 -0.009717 -210135.000000 0 0 1
9.514775 -27.059429 8.185971 29.828740 -1.232674 1.292797 0.034571 -0.011972 239226.000000 0 0 1
9.049175 -25.753319 7.476171 28.302193 -1.232894 1.303468 0.021576 -0.000463 -367155.000000 0 0 1
8.723875 -26.056939 6.098071 28.147051 -1.247726 1.352414 0.016320 0.001177 -234708.000000 0 0 1
8.074175 -24.985249 5.444071 26.815907 -1.258232 1.366359 0.019264 0.004353 269503.000000 0 0 1
7.679475 -25.351129 3.969571 26.784539 -1.276659 1.422045 0.024459 -0.001719 37585.500000 0 0 1
6.800175 -26.438159 3.835571 27.566832 -1.319043 1.431206 0.013719 -0.004474 -512652.000000 0 0 1
7.353875 -27.756579 3.973471 28.987853 -1.311805 1.433290 0.017678 -0.002983 401791.000000 0 0 1
6.338975 -28.896439 3.568871 29.798047 -1.354848 1.450739 0.014429 -0.003601 695064.000000 0 0 1
5.283175 -29.095449 4.503571 29.912192 -1.391173 1.419662 0.003810 0.000094 621674.000000 0 0 1
4.284775 -30.086539 4.149671 30.672119 -1.429333 1.435089 0.005809 0.002911 761360.000000 0 0 1
4.684175 -31.609229 4.272671 32.238805 -1.423677 1.437873 0.007046 0.002234 -132585.000000 0 0 1
5.745975 -32.056019 3.447171 32.748856 -1.393432 1.465340 0.005740 0.005107 165140.000000 0 0 1
5.840975 -33.453379 3.607171 34.150508 -1.397938 1.464973 0.003390 0.000988 99116.200000 0 0 1
6.957775 -34.098990 2.744771 34.909676 -1.369513 1.492090 0.004106 0.001422 46101.400000 0 0 1
6.601775 -34.409503 1.433671 35.066404 -1.381241 1.529900 0.000260 0.002758 -296572.000000 0 0 1
7.557575 34.200739 0.924771 35.038018 1.353314 1.544400 -0.002558 0.004313 -807205.000000 0 0 1
7.289275 33.586963 -0.462529 34.371959 1.357084 1.584253 0.002585 0.009562 333836.000000 0 0 1
6.099575 32.828060 -0.611129 33.395506 1.387088 1.589097 -0.003405 0.013882 404226.000000 0 0 1
4.858675 33.523007 -0.489029 33.876804 1.426863 1.585232 0.000282 0.009140 -444292.000000 0 0 1
3.735275 32.591930 -0.062129 32.805336 1.456687 1.572690 0.003041 0.010536 -411581.000000 0 0 1
3.603975 31.518720 -1.011829 31.740229 1.456947 1.602680 0.005473 0.014461 -193441.000000 0 0 1
2.604575 30.574610 -0.745929 30.694413 1.485814 1.595100 0.006144 0.004898 -157938.000000 0 0 1
2.552675 29.479870 -1.816629 29.645894 1.484421 1.632112 0.007534 0.007207 60229.800000 0 0 1
2.195775 30.038410 -3.061129 30.273718 1.497827 1.672084 0.011999 0.002037 11935.200000 0 0 1
1.990975 29.053320 -4.088529 29.407065 1.502375 1.710280 0.007150 -0.011225 148.233000 0 0 1
1.578075 29.836140 -5.390429 30.360209 1.517954 1.749292 0.009904 -0.016006 883242.000000 0 0 1
0.244575 30.392310 -5.524829 30.891359 1.562749 1.750611 0.013818 -0.008445 1062630.000000 0 0 1
0.030575 31.242470 -6.618729 31.935880 1.569818 1.779560 0.006589 -0.011150 -248715.000000 0 0 1
0.104775 30.524760 -7.985729 31.552240 1.567364 1.826675 0.003938 -0.013230 -877024.000000 0 0 1
-1.031725 29.747840 -8.301929 30.901788 -1.536128 1.842793 -0.000538 -0.004852 64538.700000 0 0 1
-1.281825 29.501220 -9.699029 31.081123 -1.527374 1.888152 -0.002868 -0.004238 126742.000000 0 0 1
-1.581925 30.757340 -10.532129 32.549074 -1.519409 1.900304 -0.008783 -0.012248 -108005.000000 0 0 1
-0.376325 31.426650 -10.879229 33.258587 -1.558822 1.904040 -0.009395 -0.020104 161413.000000 0 0 1
-0.596225 32.665360 -11.547229 34.651403 -1.552546 1.910534 -0.016051 -0.016462 91790.000000 0 0 1
-0.810425 33.843032 -10.554829 35.460006 -1.546854 1.873031 -0.012602 -0.018729 103053.000000 0 0 1
0.368475 34.081545 -9.802929 35.465263 1.559985 1.850852 -0.022729 -0.019134 145424.000000 0 0 1
0.080375 -34.513392 -8.718229 35.597587 -1.568468 1.818224 -0.014113 -0.013273 247699.000000 0 0 1
1.255875 -34.191732 -7.717729 35.074422 -1.534082 1.792650 -0.004141 -0.014911 978730.000000 0 0 1
2.254775 -33.333979 -8.294029 34.424251 -1.503257 1.814126 -0.002621 -0.011936 -130661.000000 0 0 1
3.187775 -32.931069 -7.346229 33.890770 -1.474296 1.789293 0.003682 -0.009483 -799389.000000 0 0 1
4.541475 -32.374879 -7.887029 33.629793 -1.431428 1.807526 0.005101 -0.010591 884321.000000 0 0 1
5.336275 -33.396669 -8.557329 34.886117 -1.412351 1.818618 0.010065 -0.007798 350715.000000 0 0 1
5.974075 -34.244507 -7.642529 35.591910 -1.398081 1.787208 0.017434 0.000981 -1656110.000000 0 0 1
6.359475 33.896775 -8.250829 35.461394 1.385339 1.805619 0.014873 -0.000319 173962.000000 0 0 1
5.340175 32.931860 -8.565829 34.444133 1.410037 1.822121 0.001650 -0.000770 -549885.000000 0 0 1
4.396975 33.392900 -9.479829 34.989803 1.439876 1.845157 0.009980 -0.007989 -455863.000000 0 0 1
3.377875 32.243260 -9.733729 33.849422 1.466415 1.862474 -0.005312 -0.010818 -132987.000000 0 0 1
3.880675 31.111430 -10.428029 33.041255 1.446703 1.891892 0.004797 -0.015124 -405418.000000 0 0 1
2.981175 30.032240 -10.484729 31.949216 1.471855 1.905160 -0.002728 -0.015493 78364.700000 0 0 1
3.608075 28.984290 -11.446929 31.370997 1.446950 1.944310 -0.000064 -0.014220 165791.000000 0 0 1
3.477575 29.315330 -12.777529 32.167489 1.452722 1.979281 0.005205 -0.007493 322876.000000 0 0 1
4.495975 28.775060 -13.632529 32.156861 1.415804 2.008586 0.009099 -0.020540 374625.000000 0 0 1
4.386875 29.410840 -15.028929 33.318327 1.422730 2.038761 0.019807 -0.017542 398320.000000 0 0 1
3.287675 28.945050 -15.828429 33.153641 1.457698 2.068520 0.011512 -0.006010 215971.000000 0 0 1
3.354075 29.318460 -17.204829 34.158865 1.456890 2.098639 0.040461 -0.009690 -106324.000000 0 0 1
2.515075 28.557000 -18.249729 33.983532 1.482951 2.137693 0.030546 -0.002179 -286137.000000 0 0 1
2.944875 27.279030 -18.512229 33.098646 1.463259 2.164343 0.038562 0.008804 -2715.670000 0 0 1
2.253175 26.767310 -19.640329 33.276241 1.486818 2.202129 0.023180 0.010762 64498.400000 0 0 1
3.068775 25.621400 -20.230429 32.789385 1.451590 2.235697 0.024501 0.017388 251775.000000 0 0 1
2.893175 24.456970 -19.433129 31.371330 1.453047 2.238845 0.025382 0.015391 278932.000000 0 0 1
3.947575 23.571320 -19.807629 31.040822 1.404863 2.262844 0.025410 0.013261 454261.000000 0 0 1
4.264875 22.538020 -18.701929 29.595838 1.383777 2.254812 0.029026 0.009251 -513247.000000 0 0 1
3.342175 21.541220 -18.574529 28.639264 1.416871 2.276499 0.035336 0.010011 -769503.000000 0 0 1
3.986475 20.517520 -17.823129 27.468610 1.378891 2.276874 0.025010 0.006300 169854.000000 0 0 1
3.131775 19.284920 -17.498529 26.228127 1.409807 2.301195 0.014856 0.003585 -581350.000000 0 0 1
2.236175 19.406320 -16.470529 25.551596 1.456073 2.271295 0.013080 -0.000740 -1235450.000000 0 0 1
1.457175 18.317420 -16.183729 24.486002 1.491412 2.292864 0.000764 0.007004 -516480.000000 0 1 0
2.036775 17.257220 -15.280629 23.139959 1.453315 2.292090 -0.001389 0.006651 34188.000000 0 1 0
3.084875 16.402620 -15.755229 22.951898 1.384896 2.327386 0.006314 -0.007526 -85786.800000 0 1 0
2.728275 15.351820 -16.639829 22.803635 1.394916 2.388680 0.013007 -0.012243 -215657.000000 0 1 0
2.540375 15.579820 -18.141229 24.047629 1.409163 2.425517 -0.005881 -0.003409 -527015.000000 0 1 0
3.755775 15.860520 -18.773729 24.861915 1.338279 2.426633 0.009746 -0.000066 -499250.000000 0 1 0
3.514175 16.471420 -20.049129 26.184436 1.360598 2.442908 -0.004164 0.014525 87894.300000 0 0 1
3.977075 15.615720 -21.301129 26.709660 1.321414 2.493947 0.003922 0.011530 355678.000000 0 0 1
3.203675 14.450520 -21.590129 26.176606 1.352625 2.540622 0.005056 0.010458 134140.000000 0 0 1
2.022375 14.759520 -22.312929 26.829093 1.434623 2.552903 0.001430 0.014119 245243.000000 0 0 1
1.212875 13.554220 -22.876329 26.617933 1.481551 2.604956 0.001127 0.015364 80582.700000 0 0 1
0.683175 12.794620 -21.842329 25.323040 1.517452 2.611080 -0.002612 0.012083 -50268.700000 0 0 1
-0.145325 11.765220 -22.360329 25.267090 -1.558445 2.657201 -0.004275 0.006930 -213865.000000 0 0 1
-0.707125 10.877620 -21.284129 23.913109 -1.505880 2.668276 -0.006587 0.003851 -1081690.000000 0 1 0
-1.726525 11.464820 -20.493229 23.545603 -1.421326 2.626736 -0.009488 0.005370 -121624.000000 0 1 0
-2.249325 10.672220 -19.479829 22.325310 -1.363072 2.631183 -0.009751 0.007470 -351482.000000 0 1 0
-3.274925 9.686220 -20.029129 22.488086 -1.244761 2.669580 -0.005064 0.004250 -1475540.000000 0 1 0
-2.747225 8.564420 -20.671129 22.543117 -1.260393 2.731189 -0.006451 0.000171 -761998.000000 0 1 0
-3.606925 7.913520 -21.580629 23.267085 -1.143136 2.758512 -0.013186 0.019707 -64235.500000 0 1 0
-2.961425 6.684320 -22.270729 23.440041 -1.153745 2.824400 -0.013048 0.016283 274496.000000 0 1 0
-2.699025 5.604920 -21.436529 22.320946 -1.122021 2.859149 -0.008666 0.013571 -217220.000000 0 1 0
-2.153525 4.522820 -22.181929 22.740526 -1.126413 2.919488 0.000790 0.008868 -431894.000000 0 1 0
-1.549125 3.394520 -21.336129 21.659939 -1.142666 2.968462 0.003634 0.008872 85489.300000 0 1 0
-0.201125 3.596120 -20.958829 21.266054 -1.514926 2.971407 0.006642 -0.002903 -108363.000000 0 1 0
0.162375 2.529320 -20.076529 20.235880 1.506687 3.016014 0.009911 -0.001176 460806.000000 0 1 0
1.689175 2.217920 -20.053129 20.245998 0.919911 3.003452 0.011061 -0.009564 343567.000000 0 1 0
2.185775 1.868420 -21.292729 21.486016 0.707279 3.007358 0.014647 -0.009955 532017.000000 0 1 0
3.625375 1.833720 -21.215429 21.600933 0.468278 2.952384 0.013859 -0.007674 1222170.000000 0 1 0
4.342275 1.144520 -22.428929 22.874049 0.257715 2.943992 0.012309 -0.002440 72879.700000 0 1 0
5.708475 0.909220 -22.186429 22.927080 0.157949 2.886720 0.002262 -0.005843 -107253.000000 0 1 0
6.303775 0.263920 -23.301229 24.140308 0.041843 2.877162 -0.002508 -0.007437 -280994.000000 0 1 0
7.832775 0.263120 -23.434429 24.710201 0.033580 2.818855 -0.011893 -0.006525 -251906.000000 0 1 0
8.279075 1.604420 -23.587329 25.049537 0.191419 2.798228 -0.006098 -0.016955 31888.000000 0 0 1
9.688375 1.497320 -23.697429 25.645169 0.153335 2.749340 -0.007751 -0.006755 -195947.000000 0 0 1
13.389075 -21.883449 22.443184 34.085908 -1.021720 0.852065 0.019994 0.007806 -683555.000000 0 0 1
12.298475 -22.728049 22.669084 34.375922 -1.074801 0.850714 0.011931 0.014264 242150.000000 0 0 1
10.982575 -22.239649 22.426984 33.439326 -1.112098 0.835675 0.016162 0.008364 653187.000000 0 0 1
10.610575 -21.854449 20.971184 32.093485 -1.118807 0.858676 0.012536 0.003433 -791555.000000 0 0 1
11.135175 -20.626249 20.508784 31.145537 -1.075776 0.851996 0.005494 0.003813 64813.300000 0 0 1
10.819875 -20.418649 19.150584 30.012260 -1.083515 0.878779 0.015892 -0.002359 12891.000000 0 0 1
11.200075 -18.995849 18.720184 28.926272 -1.038054 0.866931 0.016187 -0.000660 121602.000000 0 0 1
10.331075 -18.033749 19.322384 28.377838 -1.050561 0.821810 0.021067 0.000207 131853.000000 0 0 1
10.513675 -16.773049 18.693884 27.227446 -1.010890 0.814018 0.021217 -0.001694 326687.000000 0 0 1
9.510575 -15.638849 19.161684 26.498957 -1.024415 0.762501 0.022791 0.001980 1080170.000000 0 0 1
8.233275 -15.708249 18.511984 25.636486 -1.088026 0.763970 0.016875 0.000920 -365990.000000 0 0 1
7.531975 -14.580249 18.834784 24.981260 -1.093967 0.716732 0.007368 0.002920 -685604.000000 0 1 0
6.038575 -14.818349 18.580984 24.521436 -1.183836 0.710947 0.002002 0.009217 -637280.000000 0 1 0
5.779575 -14.907649 17.203884 23.486487 -1.200945 0.748807 -0.004042 0.007720 -754648.000000 0 1 0
4.419675 -14.983349 16.916784 23.026329 -1.283958 0.745614 -0.008800 0.010418 -690107.000000 0 1 0
3.772875 -16.368749 17.024284 23.916454 -1.344260 0.778706 -0.025029 0.015787 675605.000000 0 1 0
2.414475 -16.406849 16.529884 23.414769 -1.424682 0.787019 -0.023965 0.017426 731252.000000 0 1 0
1.816775 -17.706749 16.558084 24.310487 -1.468551 0.821521 -0.019527 0.009324 -352702.000000 0 1 0
0.355275 -17.569249 16.187784 23.892448 -1.550578 0.826401 -0.000438 0.011040 -852713.000000 0 1 0
0.039275 -17.201949 14.836784 22.716486 -1.568513 0.859088 0.001256 -0.003584 -597306.000000 0 1 0
-1.341025 -17.378349 14.666884 22.779878 1.493783 0.871274 0.000241 0.001780 -406860.000000 0 1 0
-1.630625 -17.955549 13.273084 22.388288 1.480230 0.936193 -0.004612 -0.003126 767192.000000 0 1 0
-2.961825 -18.490149 13.112784 22.860514 1.411962 0.959903 -0.016353 0.005088 771014.000000 0 1 0
-2.877625 -19.768949 12.509284 23.570622 1.426249 1.011352 -0.010148 0.001080 224853.000000 0 1 0
-4.195525 -20.568349 12.384584 24.372881 1.369577 1.037784 -0.011660 0.009435 294294.000000 0 1 0
-4.810725 -20.913849 13.634984 25.425281 1.344703 1.004777 -0.009769 0.003331 891729.000000 0 0 1
-6.141925 -21.395349 13.327184 25.944133 1.291245 1.031319 -0.005114 -0.002202 905648.000000 0 0 1
-6.752725 -22.125949 14.545384 27.326271 1.274580 1.009498 0.009134 -0.001913 -1266420.000000 0 0 1
-8.113225 -22.213849 14.422484 27.699955 1.220616 1.023163 0.003566 -0.005757 -1481740.000000 0 0 1
-8.622425 -23.066749 15.430384 29.060589 1.213075 1.011048 0.009137 -0.005739 648727.000000 0 0 1
-10.067825 -22.594249 15.804284 29.353647 1.151614 1.002248 0.009310 -0.003443 522575.000000 0 0 1
-10.039525 -21.310049 16.352184 28.675846 1.130521 0.963995 -0.002119 -0.005173 -630456.000000 0 0 1
-11.162625 -20.596649 15.944684 28.338297 1.074144 0.973202 -0.003494 0.001200 -349978.000000 0 0 1
-11.289225 -19.369249 16.891984 28.070510 1.043088 0.925081 -0.005290 -0.001542 -167284.000000 0 0 1
-11.517625 -19.865949 18.196884 29.299116 1.045387 0.900686 -0.002273 0.000877 -214770.000000 0 0 1
-11.655325 -18.803749 19.088784 29.220014 1.015916 0.858891 -0.005073 -0.007360 -187632.000000 0 0 1
-12.040925 -19.225849 20.509184 30.581755 1.011271 0.835732 0.013400 0.003215 301339.000000 0 0 1
-13.315425 -19.856949 20.514284 31.502933 0.980098 0.861650 0.032401 0.010488 279033.000000 0 0 1
-13.789625 -20.343149 21.786184 32.842583 0.975091 0.845507 0.013414 0.014366 822439.000000 0 0 1
-15.265125 -20.875649 21.809984 33.830344 0.939410 0.870183 0.013032 0.013064 281203.000000 0 0 1
-15.381325 -22.019549 20.985584 34.085780 0.961057 0.907561 0.010838 0.011428 46326.800000 0 0 1
-16.648125 -22.531249 20.605084 34.776238 0.934443 0.936632 0.007081 0.016999 -15060.600000 0 0 1
-17.421525 -23.216349 21.729884 36.258740 0.927040 0.928169 0.005026 0.012444 -648859.000000 0 0 1
-18.146325 -22.337149 22.559184 36.567118 0.888550 0.905966 0.010689 0.014214 -192524.000000 0 0 1
-18.922325 -23.113249 23.441184 37.970591 0.884769 0.905425 0.014477 0.011800 -275659.000000 0 0 1
-19.484025 -22.125849 24.428394 38.287424 0.848803 0.878864 0.009685 0.016267 -510901.000000 0 0 1
-20.432325 -21.206649 23.952884 37.959749 0.803992 0.887945 0.011976 0.027521 56116.100000 0 0 1
-20.551125 -20.129149 24.861644 38.021477 0.775026 0.858089 0.012955 0.024301 366268.000000 0 0 1
-21.587225 -19.040449 24.415104 37.744460 0.722794 0.867346 0.007895 0.019972 180341.000000 0 0 1
-21.205025 -18.415649 23.221884 36.442353 0.715112 0.879908 0.013363 0.025260 -459344.000000 0 0 1
-22.179225 -17.587349 22.677684 36.269963 0.670437 0.895348 0.001516 0.029241 -507571.000000 0 0 1
-21.774525 -17.079349 21.292984 34.917406 0.665139 0.914975 0.007603 0.029152 229285.000000 0 0 1
-20.968425 -15.898149 21.278284 33.840676 0.648725 0.890815 0.009768 0.024876 -162307.000000 0 0 1
-20.569725 -15.660149 19.906084 32.628301 0.650707 0.914627 0.013235 0.024123 258843.000000 0 0 1
-19.791825 -14.354849 19.661284 31.374259 0.627499 0.893525 0.010115 0.010068 120827.000000 0 0 1
-19.456125 -14.341449 18.281584 30.305680 0.635205 0.923240 0.005915 0.004331 311894.000000 0 0 1
-18.529925 -13.267249 17.966484 29.020210 0.621377 0.903197 0.014426 -0.007900 -6225.180000 0 0 1
-18.144825 -13.372749 16.506784 27.938128 0.635129 0.938705 0.006790 -0.018231 95214.100000 0 0 1
-17.709825 -12.142749 15.903184 26.720694 0.601030 0.933327 0.002347 -0.009059 454595.000000 0 0 1
-16.380025 -11.775549 16.280284 25.923279 0.623296 0.891793 0.002924 -0.014560 -63469.600000 0 0 1
-15.924225 -10.473049 15.575984 24.614568 0.581755 0.885638 0.001957 -0.007832 192862.000000 0 1 0
-16.596225 -9.241149 15.929984 24.791085 0.508066 0.872950 0.000374 0.001210 219260.000000 0 1 0
-16.168725 -8.221849 15.088884 23.594510 0.470427 0.876938 -0.012876 0.011719 -637421.000000 0 1 0
-16.521925 -6.761649 15.610984 23.714905 0.388458 0.852268 -0.003544 0.015678 300316.000000 0 1 0
-15.865125 -6.259749 16.773184 23.921253 0.375808 0.793740 0.003612 0.009511 675987.000000 0 1 0
-14.451525 -6.067849 16.659184 22.873430 0.397523 0.754929 0.002568 0.006709 1032100.000000 0 1 0
-13.650025 -5.998749 18.056384 23.416686 0.414061 0.690244 0.004400 0.008426 479353.000000 0 1 0
-13.713825 -7.210549 18.855384 24.404641 0.484064 0.687847 0.010983 -0.002382 133358.000000 0 1 0
-13.055525 -8.377149 18.321684 24.006405 0.570487 0.702546 0.004279 -0.003935 -43802.500000 0 1 0
-12.977625 -9.529849 19.354984 25.176421 0.633396 0.693874 0.010387 -0.010699 4308.870000 0 0 1
-14.176425 -10.203649 19.651284 26.291794 0.623866 0.726611 0.006056 -0.009558 -347733.000000 0 0 1
-14.925325 -9.606149 20.693784 27.263091 0.571873 0.708959 0.009080 -0.007731 -888855.000000 0 0 1
-16.331125 -10.225949 20.874984 28.408461 0.559435 0.745401 0.001334 -0.002135 358808.000000 0 0 1
-17.206825 -10.146549 19.751484 28.091785 0.532798 0.791041 0.006268 0.003384 199138.000000 0 0 1
-17.590025 -8.869249 19.329684 27.599080 0.467018 0.794875 0.000181 0.003863 -1074970.000000 0 0 1
-18.682625 -8.865649 18.249484 27.580498 0.443073 0.847738 0.002551 -0.001240 269599.000000 0 0 1
-19.920825 -9.320149 18.808184 28.938767 0.437606 0.863303 -0.001388 0.005807 253592.000000 0 0 1
-20.909225 -9.409649 17.792184 29.022388 0.422874 0.910881 0.008365 0.009751 -1853260.000000 0 0 1
-22.257925 -9.692249 18.256084 30.374982 0.410690 0.926015 0.005356 0.015717 -2096300.000000 0 0 1
-22.804625 -8.591649 18.922584 30.853388 0.360304 0.910556 0.005812 0.020690 114170.000000 0 0 1
-24.197625 -8.761249 19.046084 32.016212 0.347387 0.933669 0.003436 0.021436 -236908.000000 0 0 1
-25.034925 -7.732749 19.803784 32.844067 0.299582 0.923585 0.011606 0.016747 -224301.000000 0 0 1
-24.894925 -7.729049 21.168884 33.580011 0.301032 0.888726 0.009363 0.014314 271658.000000 0 0 1
-25.546655 -6.587449 21.696284 34.157793 0.252362 0.882557 0.011390 0.003814 -604381.000000 0 0 1
-25.575765 -6.429349 23.224984 35.140520 0.246281 0.848756 0.009041 0.001433 552128.000000 0 0 1
-24.418225 -6.016849 23.970584 34.742497 0.241595 0.809376 0.002070 -0.001350 1129690.000000 0 0 1
-23.319425 -6.944949 24.011784 34.184699 0.289454 0.792014 0.003684 0.004541 88682.400000 0 0 1
-22.246425 -6.663949 25.051204 34.159544 0.291045 0.747547 0.007984 0.003686 -416036.000000 0 0 1
-21.704925 -5.364649 24.905254 33.468715 0.242307 0.731557 0.004504 0.000533 -82361.800000 0 0 1
-20.805825 -5.224349 25.977884 33.690156 0.246014 0.690257 0.006942 -0.001720 -208723.000000 0 0 1
-20.196125 -3.782349 25.982954 33.125572 0.185136 0.669104 0.002999 -0.007822 -62269.500000 0 0 1
-19.247025 -3.519449 27.011234 33.353280 0.180859 0.626896 0.003429 -0.004605 -100338.000000 0 0 1
-19.644725 -3.549849 28.374374 34.693252 0.178773 0.613107 0.000416 -0.009491 -96195.500000 0 0 1
-20.634125 -2.474949 28.881404 35.581287 0.119374 0.623736 0.004497 -0.016936 390789.000000 0 0 1
-21.944325 -2.517049 28.354624 35.942644 0.114202 0.661803 0.012577 -0.016728 -588291.000000 0 0 1
-22.777225 -1.703849 29.110634 37.001812 0.074666 0.665294 0.005010 -0.002307 -435384.000000 0 0 1
-24.010225 -1.334949 28.293644 37.132241 0.055542 0.704447 0.001449 -0.004249 -1475220.000000 0 0 1
-23.659125 -0.474349 27.230054 36.075685 0.020047 0.715442 0.000440 -0.009689 -464171.000000 0 0 1
-24.685225 0.004351 26.419844 36.157551 -0.000176 0.751469 -0.006162 -0.002458 -563048.000000 0 0 1
-25.534375 -1.131949 25.667204 36.222797 0.044301 0.783295 -0.007560 -0.000181 142812.000000 0 0 1
-26.310865 -1.930549 26.543874 37.424135 0.073243 0.782332 -0.012283 -0.002660 -113146.000000 0 0 1
-26.645865 -3.216549 26.079704 37.423245 0.120133 0.799751 -0.016303 0.000178 337867.000000 0 0 1
-25.538415 -4.288849 26.350504 36.945283 0.166385 0.776700 -0.004293 -0.010603 476676.000000 0 0 1
-25.480285 -4.589949 27.679684 37.900890 0.178226 0.752010 -0.002151 -0.008537 -129495.000000 0 0 1
-24.373425 -5.403349 27.983344 37.501034 0.218162 0.728458 0.001427 -0.009575 -126443.000000 0 0 1
-24.244625 -5.641349 29.514394 38.609923 0.228617 0.700647 -0.010229 -0.010025 95587.900000 0 0 1
-25.315695 -6.351649 30.128414 39.861626 0.245823 0.713883 -0.003046 -0.009640 139206.000000 0 0 1
-24.968425 -6.876249 31.409694 40.709629 0.268736 0.689515 0.007808 -0.004014 -238191.000000 0 0 1
-26.149325 -7.501149 32.178184 42.136563 0.279357 0.701827 0.000173 -0.005008 77868.700000 0 0 1
-26.680555 -8.623749 31.402174 42.098903 0.312623 0.728890 0.002473 -0.006361 -371931.000000 0 0 1
-27.973325 -9.019549 31.696984 43.226820 0.311909 0.747676 0.011478 -0.005492 -627150.000000 0 0 1
-28.657685 -9.882749 30.639004 43.100814 0.332084 0.780064 0.007362 -0.017536 30200.100000 0 0 1
-28.251775 -11.237849 30.684484 43.197102 0.378587 0.780820 0.004678 -0.011792 687239.000000 0 0 1
-29.289425 -11.989949 30.080524 43.663111 0.388550 0.810794 0.003951 -0.009047 253673.000000 0 0 1
-28.677095 -13.225849 29.389134 43.139542 0.432128 0.821317 0.003215 -0.009533 38972.500000 0 0 1
-27.857265 -12.806649 28.302994 41.726454 0.430911 0.825352 0.002019 -0.003354 -145010.000000 0 0 1
-27.000955 -13.872749 27.948834 41.263083 0.474617 0.826665 -0.001086 -0.001762 -251951.000000 0 0 1
-25.648905 -13.277949 27.482884 39.868273 0.477692 0.810216 0.002568 0.002117 -835769.000000 0 0 1
-24.868225 -12.651849 28.441044 39.842074 0.470628 0.775824 0.003524 -0.007157 -521579.000000 0 0 1
-25.180985 -11.419949 29.084734 40.130026 0.425773 0.760107 0.005181 -0.005347 -1148900.000000 0 0 1
-25.135185 -10.113549 28.219644 39.120451 0.382545 0.765043 -0.002012 0.001351 -343914.000000 0 0 1
-23.873525 -9.613649 27.853574 37.923463 0.382824 0.745914 -0.000368 0.003983 -205483.000000 0 0 1
-23.264025 -10.327249 26.775124 36.942850 0.417782 0.760094 -0.004341 0.002269 -309683.000000 0 0 1
-23.924225 -10.131749 25.357574 36.304648 0.400594 0.797544 -0.005702 0.015377 658871.000000 0 0 1
-25.138045 -10.903349 25.188444 37.219109 0.409249 0.827442 -0.002625 0.007330 437181.000000 0 0 1
-25.510565 -10.840049 23.835084 36.556898 0.401806 0.860578 -0.006845 0.015690 -927639.000000 0 0 1
-26.754935 -11.678649 23.559884 37.513804 0.411575 0.891774 0.000228 0.010015 2628580.000000 0 0 1
-28.095575 -11.257649 24.129784 38.708429 0.381102 0.897747 -0.002226 0.005632 2708710.000000 0 0 1
-28.132035 -10.962949 25.536324 39.543666 0.371592 0.868758 -0.001383 0.002847 -461881.000000 0 0 1
-29.578435 -10.629749 26.039044 40.815526 0.345002 0.878938 -0.003119 -0.000574 273950.000000 0 0 1
-30.164495 -9.405149 25.567264 40.645277 0.302243 0.890486 0.001513 -0.006599 556200.000000 0 0 1
-31.546315 -9.145949 25.809924 41.772845 0.282185 0.904774 0.007657 -0.001350 167001.000000 0 0 1
-32.035145 -9.200149 27.251794 43.052916 0.279663 0.885395 0.004037 -0.002329 -1121320.000000 0 0 1
-32.260055 -10.501649 27.818214 43.873099 0.314712 0.884003 0.006156 -0.015298 -87842.700000 0 0 1
-32.894965 -10.399749 29.040774 45.095455 0.306207 0.871101 0.004025 -0.014224 -942668.000000 0 0 1
-33.390595 -11.807049 29.534834 46.115558 0.339882 0.875709 0.006313 -0.006984 -102952.000000 0 0 1
-34.576010 -12.269549 28.944844 46.731641 0.340995 0.902838 0.005379 -0.002768 -407097.000000 0 0 1
33.919020 -11.722549 29.490574 46.450102 -0.332753 0.882934 0.000388 0.000152 -686437.000000 0 0 1
32.675630 -12.387949 28.864454 45.324549 -0.362377 0.880405 -0.001682 0.004923 -126294.000000 0 0 1
32.456680 -11.943149 27.522174 44.198925 -0.352595 0.898622 0.007137 0.007813 49205.100000 0 0 1
31.331700 -12.576749 26.929204 43.186017 -0.381718 0.897504 0.003384 0.017862 153090.000000 0 0 1
31.282190 -12.221349 25.469084 42.149864 -0.372447 0.921971 0.013420 0.010946 172898.000000 0 0 1
30.779740 -10.881649 25.290994 41.296938 -0.339819 0.911680 0.011798 0.000697 334219.000000 0 0 1
31.200670 -10.350049 24.002584 40.702940 -0.320303 0.940107 0.009629 -0.001505 -28128.600000 0 0 1
30.847260 -8.861949 23.748284 39.925788 -0.279751 0.933766 0.001865 0.012671 -892240.000000 0 0 1
29.493920 -8.661249 23.581584 38.742737 -0.285632 0.916412 0.003361 0.009424 -1106550.000000 0 0 1
29.215980 -7.232449 23.436384 38.146375 -0.242673 0.909196 0.005306 0.014041 -334097.000000 0 0 1
27.736420 -6.825049 23.461284 36.963795 -0.241275 0.883163 0.004190 0.016629 174973.000000 0 0 1
26.876560 -7.299149 22.412884 35.748628 -0.265184 0.893154 -0.002356 0.015468 593861.000000 0 0 1
26.340640 -8.620249 22.634684 35.783612 -0.316275 0.885964 -0.012851 0.006763 -351288.000000 0 0 1
13.975875 -17.602149 26.609374 34.831300 -0.899733 0.701384 0.000907 0.014993 -294567.000000 0 0 1
13.418075 -18.888349 26.595564 35.272347 -0.953132 0.716657 -0.007485 0.016653 -284133.000000 0 0 1
14.335575 -19.934649 26.539094 36.155531 -0.947347 0.746565 -0.001805 0.015325 -698045.000000 0 0 1
13.659475 -21.367649 26.480744 36.665889 -1.002009 0.763793 -0.015985 0.008370 1019510.000000 0 0 1
12.769075 -21.807049 27.547854 37.382896 -1.041071 0.742308 -0.022967 0.006781 -202080.000000 0 0 1
11.543275 -21.196549 27.573294 36.644609 -1.072122 0.719020 -0.008960 0.008291 -1574690.000000 0 0 1
10.753375 -21.388249 28.869794 37.504096 -1.104935 0.692304 -0.014010 0.011299 265307.000000 0 0 1
11.505175 -20.950749 30.038634 38.387790 -1.068603 0.672118 -0.017195 0.005789 480072.000000 0 0 1
10.817675 -19.931649 30.754014 38.211282 -1.073545 0.635388 -0.012855 0.009903 -85555.400000 0 0 1
10.750575 -18.461349 30.189794 36.984049 -1.043472 0.615833 -0.019304 0.013898 149916.000000 0 0 1
11.741075 -17.505949 30.541934 37.109578 -0.980013 0.604088 -0.031829 0.021721 -284940.000000 0 0 1
11.618575 -16.317149 29.841414 35.940932 -0.952031 0.591168 -0.017917 0.016176 67093.100000 0 0 1
12.382575 -15.155649 30.483584 36.225277 -0.885759 0.570742 -0.019441 0.011527 306524.000000 0 0 1
11.957875 -13.963749 29.794334 35.009704 -0.862627 0.552851 -0.005432 0.009891 437195.000000 0 0 1
12.601475 -12.836949 30.392034 35.316570 -0.794655 0.534428 -0.001331 0.012679 25161.700000 0 0 1
12.074975 -11.475249 29.775134 34.118103 -0.759938 0.510075 0.005014 0.005088 25720.000000 0 0 1
12.464175 -10.997349 28.542944 33.030243 -0.722959 0.527346 0.009849 0.007864 1029310.000000 0 0 1
13.902075 -10.958349 28.340564 33.414677 -0.667537 0.558318 0.014152 0.011693 1115620.000000 0 0 1
14.318875 -9.984949 27.168904 32.293633 -0.608930 0.571097 0.011367 0.010858 92299.200000 0 0 1
14.370975 -8.557149 27.406304 32.106934 -0.537065 0.547949 0.008203 0.009867 582478.000000 0 0 1
15.588575 -8.155949 28.064674 33.123241 -0.482035 0.559952 0.010833 0.005707 277405.000000 0 0 1
15.990075 -6.736749 28.041104 32.975290 -0.398739 0.554114 0.002339 0.002972 -218490.000000 0 0 1
17.318975 -6.422449 28.387664 33.868188 -0.355112 0.576857 -0.002723 0.004239 -287975.000000 0 0 1
17.678775 -5.245949 27.742664 33.312377 -0.288461 0.586643 -0.007257 0.007837 352530.000000 0 0 1
19.204975 -5.023349 27.526524 33.937805 -0.255833 0.624788 -0.001219 0.005016 -613861.000000 0 0 1
19.679575 -5.903249 26.475784 33.512701 -0.291428 0.659951 -0.001954 0.010900 638578.000000 0 0 1
21.089575 -5.860649 26.266184 34.191077 -0.271054 0.694744 -0.001098 0.013172 300260.000000 0 0 1
22.009875 -6.334149 27.378604 35.695153 -0.280215 0.696625 0.006466 0.003440 -1233420.000000 0 0 1
22.117275 -5.244449 28.309364 36.305622 -0.232820 0.676527 0.006757 0.004918 -481723.000000 0 0 1
22.957975 -5.450749 29.409104 37.705101 -0.233107 0.676168 0.007595 -0.007020 -513568.000000 0 0 1
23.525275 -4.135249 29.840654 38.223075 -0.174001 0.675015 0.010646 -0.009258 -177394.000000 0 0 1
24.464775 -3.537849 28.943844 38.062944 -0.143614 0.706836 0.011998 -0.003407 375582.000000 0 0 1
24.637775 -2.128249 29.273214 38.320627 -0.086168 0.701458 0.013160 -0.008032 -815754.000000 0 0 1
25.488075 -1.282349 28.363934 38.154936 -0.050269 0.732674 0.013151 -0.001732 -55693.200000 0 0 1
26.856275 -1.659449 28.397304 39.120584 -0.061712 0.758467 0.011577 -0.005070 40314.900000 0 0 1
27.660275 -0.872349 27.566944 39.061339 -0.031528 0.787337 0.006513 0.010232 633300.000000 0 0 1
29.204775 -1.000249 27.766664 40.310135 -0.034236 0.810928 -0.006736 0.003571 555452.000000 0 0 1
29.571675 -0.245649 28.889724 41.341994 -0.008307 0.797080 -0.017957 0.006945 -510675.000000 0 0 1
30.939775 -0.095449 29.131344 42.496046 -0.003085 0.815496 -0.015745 0.000475 -329396.000000 0 0 1
31.278875 0.973151 30.130794 43.441682 0.031102 0.804333 -0.005123 -0.002871 -272561.000000 0 0 1
31.390775 2.293051 29.582474 43.194462 0.072919 0.816375 -0.013386 -0.002184 76059.200000 0 0 1
31.382075 3.364751 30.518854 43.903947 0.106811 0.802199 -0.012682 -0.000467 -150249.000000 0 0 1
31.850375 4.718151 29.891454 43.934114 0.147065 0.822529 -0.008335 -0.001551 128149.000000 0 0 1
32.000975 5.785051 30.755294 44.759550 0.178846 0.813275 -0.004976 -0.000763 431236.000000 0 0 1
30.708975 6.272151 31.080254 44.140267 0.201474 0.789607 -0.006080 -0.001387 98164.000000 0 0 1
30.738775 7.256451 32.257644 45.145143 0.231824 0.774842 0.002341 -0.002530 -279128.000000 0 0 1
31.027875 6.653951 33.497454 46.141993 0.211251 0.758360 -0.008959 0.003048 138006.000000 0 0 1
30.714275 7.583751 34.521113 46.825070 0.242071 0.741827 0.005544 -0.003612 -80313.200000 0 0 1
30.875175 7.036751 -33.361529 45.997651 0.224082 2.382248 0.014292 0.002375 209219.000000 0 0 1
29.791475 6.228551 -32.891739 44.812870 0.206103 2.394960 0.008098 0.003657 162812.000000 0 0 1
29.862075 4.818951 -33.172489 44.892982 0.159994 2.402268 0.002188 0.003112 -286844.000000 0 0 1
30.808075 3.958151 -32.315049 44.822615 0.127778 2.375974 0.003970 0.000981 -64868.300000 0 0 1
30.685975 2.603051 -32.635289 44.871672 0.084626 2.385180 0.003552 -0.004309 111443.000000 0 0 1
31.475275 1.823251 -31.756699 44.749358 0.057862 2.359808 0.007587 0.002279 -7160.520000 0 0 1
31.144675 0.317751 -31.721999 44.456461 0.010202 2.365352 0.003608 0.003732 -470605.000000 0 0 1
31.745275 -0.273849 -32.870779 45.698201 -0.008626 2.373592 0.002798 -0.000640 131715.000000 0 0 1
32.086875 -1.653649 -32.767469 45.891275 -0.051491 2.366025 0.002756 -0.000574 333937.000000 0 0 1
33.062975 -2.094449 -31.636119 45.808198 -0.063263 2.333144 0.011955 -0.002963 -148885.000000 0 0 1
32.487775 -1.938849 -30.372059 44.516026 -0.059609 2.321663 0.023582 -0.002871 -634682.000000 0 0 1
33.420175 -1.989049 -29.362329 44.531009 -0.059446 2.290774 0.038443 -0.006600 -198599.000000 0 0 1
32.669175 -1.604249 -28.049239 43.088379 -0.049066 2.279658 0.031859 -0.001022 232659.000000 0 0 1
32.287675 -0.245749 -28.024079 42.753986 -0.007611 2.285605 0.021821 0.003046 90932.300000 0 0 1
31.634575 0.012951 -26.815679 41.470798 0.000409 2.273936 0.008069 0.010128 -107501.000000 0 0 1
30.984075 1.435551 -26.652569 40.895392 0.046299 2.280654 -0.001304 0.009973 120214.000000 0 0 1
29.855675 1.618051 -27.477399 40.607719 0.054143 2.314006 -0.011313 0.005013 200017.000000 0 0 1
29.311075 2.925751 -27.377109 40.214490 0.099488 2.319620 -0.009194 0.012246 48743.600000 0 0 1
28.845975 3.354551 -28.782829 40.887584 0.115772 2.351741 -0.008349 0.010219 -322955.000000 0 0 1
28.181475 4.586051 -28.706079 40.487854 0.161319 2.358882 -0.007239 0.009931 -150364.000000 0 0 1
27.392375 4.787451 -29.845289 40.792195 0.173026 2.391524 -0.002753 0.005411 -394928.000000 0 0 1
26.272575 5.799351 -29.491029 39.919938 0.217254 2.402017 0.000776 -0.003231 -413164.000000 0 0 1
25.224675 5.123451 -28.813939 38.636473 0.200387 2.412487 0.000588 0.000519 48988.600000 0 0 1
24.505275 6.106451 -28.061529 37.752439 0.244215 2.408792 0.006092 -0.002816 -539892.000000 0 0 1
23.142475 5.536751 -27.660669 36.487564 0.234832 2.431168 0.006715 0.000566 -564899.000000 0 0 1
22.260275 5.278151 -28.738159 36.732281 0.232811 2.469255 0.020609 -0.003891 296982.000000 0 0 1
21.150775 4.539551 -28.245569 35.577731 0.211421 2.488012 0.024541 -0.006159 323217.000000 0 0 1
20.126275 4.164051 -29.369309 35.846374 0.204018 2.531004 0.003689 0.003318 301270.000000 0 0 1
20.589275 3.065151 -30.144469 36.633351 0.147786 2.537239 0.001800 0.007786 29417.600000 0 0 1
19.572975 2.653051 -30.995769 36.754288 0.134726 2.574235 0.000153 0.009475 -352497.000000 0 0 1
19.721875 3.183051 -32.471049 38.124181 0.160017 2.590051 0.000317 0.013755 222504.000000 0 0 1
20.833275 2.667551 -33.199169 39.285188 0.127350 2.577513 0.018849 0.014265 109156.000000 0 0 1
20.942375 3.321751 -34.433757 40.438851 0.157303 2.589639 0.018781 0.012717 -504453.000000 0 0 1
22.283275 3.085951 34.202483 40.937480 0.137612 0.581789 0.016595 0.011729 -487363.000000 0 0 1
22.493175 1.729651 33.781152 40.621433 0.076746 0.588798 0.019622 0.003035 385637.000000 0 0 1
23.876175 1.538651 33.489741 41.158254 0.064354 0.620338 0.014125 0.001304 147462.000000 0 0 1
24.413175 0.105151 33.292416 41.284369 0.004307 0.632729 0.008852 0.005362 -159361.000000 0 0 1
23.845575 -0.721849 32.215004 40.086643 -0.030263 0.637419 0.013677 0.006316 1066430.000000 0 0 1
22.415275 -0.825649 32.159104 39.208854 -0.036818 0.609036 0.014850 -0.000060 286417.000000 0 0 1
21.767375 -1.750449 33.176564 39.718598 -0.080243 0.582136 0.011641 -0.007229 -648648.000000 0 0 1
22.066475 -3.112149 32.984274 39.806747 -0.140111 0.594176 0.002088 -0.011850 460930.000000 0 0 1
21.095075 -3.965949 33.623319 39.890582 -0.185834 0.568167 0.002478 -0.012556 404860.000000 0 0 1
21.093275 -5.391949 33.058704 39.583800 -0.250265 0.582377 -0.000997 -0.008843 64616.400000 0 0 1
22.270675 -6.139949 33.290909 40.521186 -0.269014 0.606640 0.005247 -0.004050 -72079.800000 0 0 1
22.142075 -7.457749 32.815774 40.283551 -0.324879 0.618723 0.005508 -0.007754 -80962.100000 0 0 1
23.510175 -8.145249 32.541104 40.963360 -0.333514 0.652785 0.002891 -0.008962 468934.000000 0 0 1
24.145675 -7.618249 31.361654 40.306385 -0.305626 0.679190 -0.001044 -0.006688 -65421.500000 0 0 1
25.361375 -8.283749 31.085554 40.965003 -0.315704 0.709279 -0.006303 -0.002132 57782.900000 0 0 1
25.851875 -7.953049 29.650534 40.133833 -0.298450 0.739521 -0.012240 -0.002598 68012.900000 0 0 1
25.022275 -8.410349 28.570624 38.898956 -0.324251 0.745892 -0.016317 0.003885 -80372.300000 0 0 1
25.510975 -8.161249 27.285744 38.235162 -0.309622 0.776130 -0.009366 0.008870 -186438.000000 0 0 1
24.919075 -9.176549 26.322224 37.390223 -0.352843 0.789801 -0.013800 0.010108 268888.000000 0 0 1
23.566875 -9.084249 25.913074 36.185751 -0.367915 0.772579 -0.015412 0.004124 72299.700000 0 0 1
23.205575 -10.090149 24.970144 35.550216 -0.410155 0.792046 -0.010600 0.005422 -1108450.000000 0 0 1
21.827475 -9.781649 24.471764 34.219680 -0.421302 0.773976 -0.015587 0.017506 -962901.000000 0 0 1
20.807075 -10.025249 25.420594 34.345983 -0.448997 0.737528 -0.014468 0.013646 429388.000000 0 0 1
19.531975 -9.613849 24.920774 33.090317 -0.457397 0.718014 -0.008495 0.010558 675537.000000 0 0 1
18.439875 -9.335349 25.979124 33.197780 -0.468642 0.672035 0.001593 0.001600 -132873.000000 0 0 1
17.753675 -10.464449 26.455884 33.535227 -0.532607 0.661782 0.002992 0.006656 -87740.100000 0 0 1
18.488975 -11.316349 27.338774 34.889977 -0.549239 0.670404 0.002399 0.013260 -460690.000000 0 0 1
17.652775 -12.339349 28.085864 35.393442 -0.610057 0.654203 0.014716 0.008683 -303036.000000 0 0 1
16.978675 -13.203249 27.201584 34.677476 -0.660956 0.669042 0.011487 0.006261 -254826.000000 0 0 1
16.117875 -14.104049 27.842324 35.126985 -0.718862 0.655703 0.011432 0.008086 -212482.000000 0 0 1
16.715475 -15.248649 28.746154 36.582369 -0.739541 0.666820 0.021202 0.011677 -458168.000000 0 0 1
15.755375 -16.184049 29.088914 36.828252 -0.798819 0.660227 0.014134 0.008247 -367149.000000 0 0 1
16.356475 -17.144149 29.883364 38.137534 -0.808906 0.670408 0.016343 0.006799 -195086.000000 0 0 1
16.721175 -18.471249 29.185934 38.374516 -0.835086 0.706629 0.014846 0.012572 -839892.000000 0 0 1
17.943175 -18.393949 28.550694 38.411417 -0.797803 0.732826 0.018784 0.010750 -559633.000000 0 0 1
18.246475 -19.463749 27.739364 38.486928 -0.817667 0.765916 0.011561 0.010273 -42731.300000 0 0 1
19.307375 -19.133349 26.671874 38.082130 -0.780871 0.794870 0.005373 0.006142 268993.000000 0 0 1
20.639375 -18.880449 27.087254 38.938085 -0.740920 0.801473 0.012480 -0.003761 189696.000000 0 0 1
21.425275 -18.263149 26.098764 38.389197 -0.705892 0.823243 -0.000937 0.002067 53811.500000 0 0 1
22.873975 -17.994749 26.550314 39.394782 -0.666573 0.831247 0.002962 -0.003961 308330.000000 0 0 1
23.686275 -19.213549 26.579514 40.455786 -0.681514 0.853962 0.005269 -0.011856 532143.000000 0 0 1
24.995875 -18.952549 27.020294 41.401559 -0.648746 0.859733 0.003344 -0.012093 -89475.900000 0 0 1
25.867975 -20.201149 27.308784 42.696700 -0.663006 0.876819 -0.013094 -0.011200 -236273.000000 0 0 1
25.473275 -20.883249 28.483974 43.546924 -0.686704 0.857806 -0.008346 -0.006055 15649.900000 0 0 1
26.096075 -22.127849 28.550884 44.562313 -0.703296 0.875392 -0.004469 -0.012301 -420714.000000 0 0 1
25.406975 -23.168849 29.443114 45.268166 -0.739356 0.862665 0.004863 -0.011883 -338841.000000 0 0 1
25.465375 -22.807849 30.801074 46.015100 -0.730402 0.837437 0.008126 -0.010372 76940.900000 0 0 1
24.852875 -23.849549 31.531364 46.697893 -0.764800 0.829533 0.016483 -0.009585 -730710.000000 0 0 1
24.726075 -23.605449 33.026344 47.532466 -0.762216 0.802632 0.013885 -0.007229 -48802.300000 0 0 1
24.151775 -24.681349 33.722011 48.266460 -0.796242 0.797269 0.009410 -0.010632 -109732.000000 0 0 1
23.956075 -24.561249 -34.163160 48.417661 -0.797871 2.354056 0.025494 -0.004998 -690773.000000 0 0 1
23.503975 -25.910369 -33.544319 48.466538 -0.834058 2.335209 0.016387 -0.003737 950574.000000 0 0 1
22.189175 -26.430239 -33.825629 48.322770 -0.872408 2.346185 0.020490 -0.005673 588913.000000 0 0 1
22.000375 -26.774919 34.130675 48.639652 -0.882976 0.793009 0.022606 -0.011519 -405333.000000 0 0 1
20.688775 -27.521349 33.855637 48.287205 -0.926185 0.793814 0.023796 -0.016287 134126.000000 0 0 1
20.837575 -28.870659 34.184161 49.358649 -0.945618 0.805755 0.017098 -0.005120 744722.000000 0 0 1
19.556475 -29.520779 34.143032 49.190230 -0.985708 0.803625 0.004213 -0.002054 421385.000000 0 0 1
19.585475 -31.049249 34.395887 50.306299 -1.008046 0.817935 -0.002698 -0.002298 -147690.000000 0 0 1
19.948575 -31.620999 -33.654279 50.303515 -1.007991 2.303692 -0.013851 -0.003749 -29793.800000 0 0 1
20.897975 -32.642689 -33.736069 51.384753 -1.001339 2.287017 -0.018010 0.003814 -278261.000000 0 0 1
21.306875 -33.062729 -32.289079 50.889208 -0.998341 2.258155 -0.017326 0.006882 -223816.000000 0 0 1
22.205175 -34.191156 -32.242889 51.977964 -0.994813 2.239945 -0.026954 0.009511 628379.000000 0 0 1
22.653975 -34.426903 -30.909529 51.515174 -0.988796 2.214308 -0.019554 0.002347 1085390.000000 0 0 1
24.051875 -33.761259 -30.564739 51.502607 -0.951790 2.206147 -0.009829 -0.000922 512867.000000 0 0 1
24.605375 -33.941809 -29.287879 51.139522 -0.943535 2.180599 -0.003640 -0.004655 285416.000000 0 0 1
25.715475 -33.030149 -29.214049 51.046420 -0.909275 2.180109 -0.006006 0.006389 39296.200000 0 0 1
26.101375 -32.791599 -27.737899 50.258947 -0.898513 2.155437 -0.002536 0.003901 345627.000000 0 0 1
26.813075 -33.946569 -27.205479 51.102334 -0.902268 2.132197 0.002105 0.003685 -660050.000000 0 0 1
27.598275 -33.524329 -26.215219 50.722609 -0.882050 2.113946 0.003603 0.000687 -643492.000000 0 0 1
-25.552055 -30.845817 9.228471 41.103974 0.878989 1.344351 0.014781 -0.009227 -166062.000000 0 0 1
-25.443165 -32.145317 9.778671 42.146156 0.901257 1.336644 0.007418 -0.011318 42514.600000 0 0 1
-24.528425 -32.292617 10.834671 41.974360 0.921200 1.309714 -0.001291 -0.010390 13302.100000 0 0 1
-24.796025 -33.610917 11.611671 43.351673 0.935190 1.299637 -0.014544 -0.002644 144332.000000 0 0 1
-24.717925 -34.689017 10.663771 43.909222 0.951692 1.325484 -0.012950 -0.004357 -5059.720000 0 0 1
-24.947925 33.617551 11.360771 43.377481 -0.932364 1.305801 -0.019597 -0.004419 -135552.000000 0 0 1
-24.762825 32.271651 10.654271 42.049620 -0.916299 1.314630 -0.013399 0.002705 -862581.000000 0 0 1
-25.836365 32.060851 9.832871 42.333218 -0.892496 1.336382 -0.010179 0.001561 -759337.000000 0 0 1
-25.707865 30.808651 9.160471 41.158007 -0.875407 1.346348 -0.008967 0.001894 -77649.300000 0 0 1
-24.683825 30.774251 7.972871 40.248136 -0.894780 1.371384 -0.011006 0.004434 -435319.000000 0 0 1
-23.428725 30.274051 8.278471 39.165756 -0.912181 1.357820 -0.011671 0.001873 -450456.000000 0 0 1
-22.691425 30.307451 7.016371 38.505478 -0.928123 1.387555 -0.017155 0.005973 696130.000000 0 0 1
-21.315825 29.570951 7.059771 37.130122 -0.946222 1.379496 0.023673 0.007205 290587.000000 0 0 1
-21.416225 28.160051 7.223471 36.108472 -0.920598 1.369388 0.010289 0.005161 272507.000000 0 0 1
-21.961425 27.410651 6.114671 35.651609 -0.895324 1.398432 0.006892 0.004485 -247133.000000 0 0 1
-22.263225 25.936151 6.412571 34.777237 -0.861454 1.385345 0.002988 0.004831 -454632.000000 0 0 1
-23.304325 25.597451 7.304971 35.379142 -0.832256 1.362824 0.000130 0.005225 357342.000000 0 0 1
-23.567925 24.201551 7.454071 34.593719 -0.798662 1.353618 0.002254 -0.008283 -144345.000000 0 0 1
-24.164325 23.410151 6.240171 34.218263 -0.769547 1.387406 -0.002145 -0.017247 -857790.000000 0 0 1
-25.511035 23.699951 5.989371 35.332325 -0.748612 1.400458 0.000681 -0.013829 -227728.000000 0 0 1
-25.993345 22.985251 4.841171 35.034451 -0.724059 1.432170 0.004083 -0.016077 39419.100000 0 0 1
-25.756395 23.697851 3.498171 35.174099 -0.743797 1.471179 0.003914 -0.019836 -300183.000000 0 0 1
-24.387825 23.986651 3.303471 34.366239 -0.777105 1.474522 0.000156 -0.015870 225018.000000 0 0 1
-24.186925 24.470651 1.961371 34.462547 -0.791229 1.513852 0.008073 -0.007794 29733.000000 0 0 1
-22.903825 25.318851 1.910071 34.194705 -0.835437 1.514909 0.014923 -0.000778 30496.000000 0 0 1
-22.406725 25.787751 0.670771 34.168983 -0.855437 1.551164 0.006954 -0.004096 847186.000000 0 0 1
-21.137025 26.440251 0.926171 33.863233 -0.896405 1.543443 0.004171 -0.001175 832883.000000 0 0 1
-20.511225 27.258251 -0.267629 34.114429 -0.925711 1.578641 0.003243 -0.003381 332812.000000 0 0 1
-20.249025 26.499451 -1.457729 33.382165 -0.918313 1.614478 0.000093 -0.006461 35692.200000 0 0 1
-19.138825 25.636251 -1.424029 32.024052 -0.929505 1.615278 0.006556 -0.003460 -431358.000000 0 0 1
-19.041125 24.665651 -2.606029 31.268997 -0.913382 1.654235 0.000994 -0.014561 -72495.200000 0 0 1
-19.973725 23.595151 -2.555129 31.019503 -0.868327 1.653261 -0.006528 -0.013225 173100.000000 0 0 1
-19.641925 22.681851 -3.601029 30.219845 -0.857101 1.690241 -0.006196 -0.007759 -293217.000000 0 0 1
-20.846125 22.121051 -4.365229 30.707606 -0.815062 1.713434 -0.016420 -0.008612 -425017.000000 0 0 1
-21.331025 23.006951 -5.352629 31.827395 -0.823179 1.739776 -0.014616 -0.001982 174685.000000 0 0 1
-22.466425 22.473251 -6.035129 32.345171 -0.785550 1.758481 -0.008083 0.002976 447507.000000 0 0 1
-22.847925 23.348051 -7.276429 33.467979 -0.796224 1.789961 -0.006932 0.006273 -276960.000000 0 0 1
-21.983725 23.157651 -8.353329 33.005138 -0.811398 1.826671 -0.023060 0.009696 -121671.000000 0 0 1
-22.282025 23.992751 -9.449029 34.079685 -0.822350 1.851740 -0.016069 0.005465 -277769.000000 0 0 1
-21.435625 23.495751 -10.645729 33.539051 -0.831217 1.893796 -0.020625 0.011571 -237940.000000 0 0 1
-21.808625 22.313951 -11.349529 33.201512 -0.796850 1.919668 -0.027798 0.005248 448843.000000 0 0 1
-20.731025 21.734251 -12.108229 32.384600 -0.809018 1.953994 -0.019657 0.005108 518614.000000 0 0 1
-21.146925 21.486951 -13.623629 33.082999 -0.793373 1.995226 -0.003251 -0.001007 248050.000000 0 0 1
-22.311925 20.688051 -13.726829 33.380283 -0.747652 1.994595 -0.015571 0.006676 92809.300000 0 0 1
-22.722125 20.493451 -15.041129 34.095632 -0.733873 2.027671 -0.003562 -0.005178 -353026.000000 0 0 1
-23.855325 19.492751 -15.112329 34.313647 -0.685095 2.026860 -0.004758 -0.005628 -297219.000000 0 0 1
-23.516425 18.369451 -15.965229 33.842984 -0.663130 2.062064 -0.007941 -0.000825 705296.000000 0 0 1
-24.520725 17.321851 -15.886329 33.965982 -0.615020 2.057498 0.021358 -0.000645 651304.000000 0 0 1
-24.308825 16.204251 -16.956529 33.778997 -0.587956 2.096688 0.030232 -0.001095 -50513.800000 0 0 1
-23.219925 15.375151 -16.635029 32.438933 -0.584871 2.109252 0.032105 0.009025 -160438.000000 0 0 1
-23.089125 14.382151 -17.647529 32.425133 -0.557086 2.146297 0.033532 -0.004176 -51424.400000 0 0 1
-22.371325 13.104651 -17.218129 31.123497 -0.529897 2.157021 0.025690 0.003590 -539603.000000 0 0 1
-21.012525 13.210851 -16.952229 30.057127 -0.561265 2.170018 0.016423 0.007830 -728673.000000 0 0 1
-20.303125 12.026651 -17.137529 29.164227 -0.534779 2.198913 0.019597 0.003533 -211798.000000 0 0 1
-18.979725 12.073551 -16.323029 27.792839 -0.566562 2.198528 0.014468 0.010123 -247968.000000 0 0 1
-18.285325 13.197851 -16.814729 28.129549 -0.625190 2.211501 0.012749 0.013446 -275484.000000 0 0 1
-17.332025 13.637151 -15.882429 27.177611 -0.666651 2.194929 0.018215 0.021574 -92197.100000 0 0 1
-16.386225 14.791951 -16.286529 27.432849 -0.734308 2.206429 0.011015 0.023316 -256084.000000 0 0 1
-15.459225 14.466751 -17.276829 27.326971 -0.752246 2.255220 0.022243 0.009976 -226226.000000 0 0 1
-14.792825 15.610951 -17.783629 27.906754 -0.812300 2.261723 0.021746 0.013147 -80450.800000 0 0 1
-13.907725 15.305651 -19.008029 28.089018 -0.833214 2.314077 0.018175 0.012794 -765249.000000 0 0 1
-12.867725 14.472651 -18.673229 26.902146 -0.844033 2.337988 0.016562 0.011903 -667186.000000 0 0 1
-11.966125 14.483251 -19.797429 27.292690 -0.880280 2.382375 0.019763 0.006188 350803.000000 0 0 1
-10.958925 13.324151 -19.744229 26.219566 -0.882494 2.423458 0.014450 0.000669 -233842.000000 0 0 1
-11.509325 12.118951 -20.121729 26.157552 -0.811193 2.448465 0.014815 0.008266 -291614.000000 0 0 1
-10.638225 11.073951 -19.863529 25.107051 -0.805464 2.483489 -0.002983 0.015755 -268259.000000 0 0 1
-11.073525 9.869451 -20.730629 25.490940 -0.727968 2.520520 -0.006131 0.011090 19528.000000 0 0 1
-10.964925 10.166551 -22.092429 26.677027 -0.747635 2.546585 0.006099 0.000565 -139612.000000 0 0 1
-11.512625 9.205051 -23.006629 27.323588 -0.674473 2.571788 0.000275 0.019035 -103649.000000 0 0 1
-11.127825 9.252851 -24.492129 28.448341 -0.693659 2.607898 0.006032 0.000833 621519.000000 0 0 1
-9.828325 8.689051 -24.839629 28.090973 -0.723951 2.655696 0.004129 0.009812 927342.000000 0 0 1
-9.631325 8.356451 -26.205339 29.142966 -0.714642 2.688733 -0.006802 0.001760 -252542.000000 0 0 1
-9.696825 9.493951 -27.252399 30.444323 -0.774827 2.679576 0.003738 0.005329 13036.900000 0 0 1
-8.523225 10.274351 -27.418179 30.495314 -0.878287 2.688494 -0.010900 0.005751 319100.000000 0 0 1
-8.155625 11.370751 -26.568839 30.028510 -0.948589 2.656833 -0.009091 0.003909 -492351.000000 0 0 1
-6.657925 11.661151 -26.652369 29.843914 -1.052012 2.674894 -0.001202 0.004747 -499497.000000 0 0 1
-6.154525 12.278851 -27.814149 31.020562 -1.106165 2.682908 -0.018927 0.007099 -287396.000000 0 0 1
-4.791925 12.569451 -27.711559 30.803963 -1.206570 2.689672 -0.006919 0.005702 -417039.000000 0 0 1
-4.202225 13.019251 -29.093229 32.149270 -1.258583 2.702040 -0.008857 0.008678 -278585.000000 0 0 1
-2.806925 13.160951 -29.037319 32.003990 -1.360668 2.707621 -0.002079 0.005409 -347437.000000 0 0 1
-2.270025 13.336351 -30.309849 33.191840 -1.402199 2.721796 -0.004538 0.010478 -1314840.000000 0 0 1
-0.770425 13.337351 -30.337369 33.148672 -1.513096 2.726778 -0.000700 0.015420 -1317660.000000 0 0 1
-0.427025 11.981551 -30.122239 32.420506 -1.535171 2.762797 -0.004022 0.022348 -464451.000000 0 0 1
0.966075 11.829551 -30.178129 32.428245 1.489311 2.766879 0.005240 0.020374 -378330.000000 0 0 1
1.476675 10.972351 -31.320939 33.220088 1.437019 2.801822 0.003956 0.028193 -393048.000000 0 0 1
1.509075 11.613951 -32.556209 34.598669 1.441584 2.796272 0.011727 0.011534 193379.000000 0 0 1
1.614375 10.722051 -33.629499 35.334286 1.421353 2.829694 0.010093 0.011719 -138168.000000 0 0 1
1.766975 11.394051 34.309501 36.195144 1.416943 0.324208 0.013641 0.004607 -129907.000000 0 0 1
3.015375 12.032551 34.126510 36.311065 1.325252 0.348641 0.006394 0.002651 -142076.000000 0 0 1
2.964375 12.777951 32.936814 35.452747 1.342837 0.379002 0.015355 0.006185 404283.000000 0 0 1
4.375975 13.233651 32.450374 35.317212 1.251444 0.405701 0.012895 0.009684 530407.000000 0 0 1
5.114875 12.118751 31.944994 34.547195 1.171416 0.390610 0.004408 0.005799 -533974.000000 0 0 1
6.399775 12.455251 31.538684 34.507666 1.096153 0.417855 0.019615 0.010616 -453828.000000 0 0 1
7.253075 11.238351 31.109304 33.862906 0.997672 0.406061 0.007056 0.009703 -79756.000000 0 0 1
6.793775 10.710051 29.861464 32.443298 1.005511 0.401643 0.005363 0.001164 312782.000000 0 0 1
7.676575 9.733451 29.311384 31.824945 0.902996 0.400107 0.001640 -0.001126 100314.000000 0 0 1
7.007275 8.870251 28.224614 30.404146 0.902198 0.380942 -0.003221 -0.000980 348103.000000 0 0 1
6.237175 7.793051 28.793764 30.474823 0.895842 0.333697 -0.000234 -0.007760 47790.000000 0 0 1
5.562675 7.055751 27.804324 29.219983 0.903176 0.312553 0.009396 -0.000831 -219564.000000 0 0 1
4.827275 5.854151 28.417654 29.413207 0.881240 0.260921 0.017764 -0.015769 5825.000000 0 0 1
5.684775 4.781051 28.809484 29.751663 0.699262 0.252336 0.013927 -0.014093 57610.100000 0 0 1
5.186575 4.158251 29.963634 30.692197 0.675797 0.218322 0.009338 -0.015853 -402814.000000 0 0 1
6.070075 3.110251 30.678134 31.427176 0.473511 0.218767 0.022684 -0.011354 -173731.000000 0 0 1
6.191175 1.860051 30.080914 30.767707 0.291857 0.211686 0.024567 -0.006762 -292243.000000 0 0 1
7.276875 1.769051 29.184134 30.129655 0.238480 0.251186 0.027681 -0.006090 -601787.000000 0 0 1
7.393275 0.522551 28.318374 29.272237 0.070562 0.255986 0.014553 -0.010423 -248156.000000 0 0 1
7.689175 -0.658149 29.030534 30.038783 -0.085386 0.259824 -0.012271 0.000018 -113353.000000 0 0 1
7.718775 -1.814549 28.186354 29.280413 -0.230890 0.274226 0.002253 0.008063 -150886.000000 0 0 1
8.251775 -3.040449 28.935684 30.242518 -0.353025 0.295048 -0.005444 0.021068 579920.000000 0 0 1
9.598875 -2.895849 29.395384 31.058218 -0.293003 0.328706 -0.016847 0.010875 509770.000000 0 0 1
10.412975 -3.953349 28.919954 30.990688 -0.362846 0.367629 -0.016900 0.020979 1515500.000000 0 0 1
11.974675 -3.895049 29.277684 31.870786 -0.314480 0.406179 -0.014548 0.011560 2063100.000000 0 0 1
12.728275 -5.060449 28.849584 31.936118 -0.378414 0.443273 -0.012237 0.011731 328206.000000 0 0 1
12.672775 -6.149749 29.720014 32.889175 -0.451796 0.442600 0.003986 0.009799 -548613.000000 0 0 1
11.915475 -7.351149 29.134724 32.324140 -0.552783 0.447965 0.004054 0.012459 536257.000000 0 0 1
10.522275 -7.098849 28.911864 31.575430 -0.593509 0.413688 0.001853 0.013224 385315.000000 0 0 1
9.878675 -8.280449 28.457064 31.240335 -0.697612 0.425318 0.010621 0.004926 1380430.000000 0 0 1
8.308075 -8.115049 28.344494 30.631494 -0.773645 0.388870 0.014925 0.007665 1174740.000000 0 0 1
7.701075 -7.688049 29.521824 31.463482 -0.784552 0.353148 0.010274 0.019811 383359.000000 0 0 1
6.277575 -7.701349 29.420964 31.053371 -0.886900 0.325684 0.005178 0.028670 748229.000000 0 0 1
5.456375 -7.180549 30.636564 31.936364 -0.921000 0.286282 0.002360 0.022866 160260.000000 0 0 1
5.702675 -7.934749 31.810724 33.277663 -0.947632 0.298025 -0.004680 0.021002 324474.000000 0 0 1
5.049675 -7.437649 32.987064 34.190119 -0.974349 0.266066 -0.016583 0.018708 -80645.300000 0 0 1
5.532075 -6.086449 33.577266 34.569951 -0.833077 0.240224 -0.007848 0.021515 81798.300000 0 0 1
5.380475 -5.040249 32.659074 33.480871 -0.752761 0.222020 0.005082 0.015797 -1431.560000 0 0 1
6.050175 -3.869349 33.136414 33.905728 -0.568989 0.213430 0.004165 0.013533 91632.800000 0 0 1
6.181875 -2.591949 32.294594 32.982944 -0.397017 0.204660 0.000313 0.014148 479167.000000 0 0 1
4.948975 -1.867649 32.250844 32.681759 -0.360856 0.162569 0.005695 0.014547 202187.000000 0 0 1
5.064975 -0.625649 31.565294 31.975196 -0.122902 0.160293 0.007014 0.006731 1233520.000000 0 0 1
3.672275 0.142751 31.474294 31.688123 0.038853 0.116237 0.014759 0.005926 1235190.000000 0 0 1
3.006375 0.477951 32.653904 32.795490 0.157660 0.092955 0.012422 0.000488 -1312370.000000 0 0 1
1.696675 0.838251 32.446434 32.501576 0.458881 0.058259 0.026697 -0.005528 -577333.000000 0 0 1
0.780175 0.837351 33.711599 33.731020 0.820732 0.033936 0.022761 -0.008064 228479.000000 0 0 1
1.270775 1.727451 -34.607568 34.673948 0.936552 3.079705 0.007499 -0.004558 263452.000000 0 0 1
0.315475 1.955151 -33.574619 33.632977 1.410820 3.082675 0.001302 0.000891 149462.000000 0 0 1
0.764375 3.075851 -32.587359 32.741122 1.327222 3.044639 0.001536 0.009370 -354565.000000 0 0 1
1.889875 2.722051 -31.850649 32.022570 0.963917 3.037924 -0.009741 0.006967 -469773.000000 0 0 1
2.228675 3.805251 -31.051779 31.363353 1.040970 3.000519 -0.010016 0.015239 -498132.000000 0 0 1
3.388875 3.562251 -30.092899 30.491911 0.810335 2.979639 -0.016692 0.013138 -313814.000000 0 0 1
3.002775 2.771851 -28.964719 29.251577 0.745430 3.001431 -0.014645 -0.000777 -129713.000000 0 0 1
3.975675 2.888051 -27.975699 28.403988 0.628245 2.967716 -0.012774 -0.001261 -272576.000000 0 0 1
3.596975 2.018351 -26.764469 27.080413 0.511344 2.988690 -0.015914 -0.002832 -163944.000000 0 0 1
3.719675 0.585551 -26.972099 27.233673 0.156139 3.002883 -0.003524 -0.007804 -298143.000000 0 0 1
3.314975 -0.135749 -25.871669 26.083534 -0.040927 3.014050 0.010424 -0.010663 -246377.000000 0 0 1
3.825675 -1.619449 -25.795659 26.128039 -0.400439 2.981916 0.012903 -0.007907 355802.000000 0 0 1
5.215875 -1.751949 -25.556419 26.142020 -0.324048 2.929532 0.002605 -0.007852 43707.600000 0 0 1
5.541875 -3.141649 -25.480419 26.264692 -0.515720 2.896602 0.005769 -0.011408 300183.000000 0 0 1
6.979975 -3.437849 -24.993529 26.176618 -0.457654 2.839795 0.006210 -0.006599 793882.000000 0 0 1
8.056675 -3.298949 -25.911429 27.334872 -0.388641 2.817455 -0.015193 0.003458 449856.000000 0 0 1
9.314375 -3.425049 -25.244089 27.124759 -0.352370 2.767025 -0.013854 0.004336 539043.000000 0 0 1
-28.450375 -4.469949 18.116684 34.023794 0.155840 1.009279 0.017668 0.002656 28319.100000 0 0 1
-29.857185 -4.568249 18.177384 35.252485 0.151826 1.029049 0.000631 0.006564 -246072.000000 0 0 1
-30.274405 -5.382549 19.206784 36.254820 0.175953 1.012465 -0.006276 0.002109 -662904.000000 0 0 1
-31.729925 -5.076649 19.510684 37.592916 0.158651 1.025117 -0.010001 0.000547 -686833.000000 0 0 1
-32.599825 -5.312049 18.432484 37.824898 0.161528 1.061789 -0.016235 0.005738 -256671.000000 0 0 1
-33.938105 -5.091549 18.826184 39.142612 0.148914 1.069043 -0.024327 0.007979 -789187.000000 0 0 1
34.818372 -5.214149 17.644584 39.380677 -0.148648 1.106211 -0.014237 0.007993 -1287440.000000 0 0 1
33.493040 -5.252849 18.051084 38.408564 -0.155567 1.081533 -0.009651 0.004707 -1078160.000000 0 0 1
32.598550 -5.179249 16.967684 37.113237 -0.157563 1.095967 -0.009210 0.005519 378134.000000 0 0 1
31.143260 -5.462749 17.457584 36.118022 -0.173641 1.066321 -0.000161 0.004823 177233.000000 0 0 1
30.647440 -4.522049 18.398484 36.030802 -0.146494 1.034877 0.001654 -0.002095 47714.900000 0 0 1
29.594320 -5.206149 19.051984 35.579571 -0.174135 1.005726 -0.000334 -0.009781 -33026.900000 0 0 1
29.148560 -4.544049 20.404184 35.869453 -0.154648 0.965695 0.005538 -0.005828 68924.400000 0 0 1
28.379160 -3.332849 20.408884 35.114202 -0.116905 0.950576 0.017592 -0.006216 546085.000000 0 0 1
29.062180 -2.262549 19.770584 35.222229 -0.077695 0.974829 0.010094 -0.002759 -343351.000000 0 0 1
28.223510 -1.001749 19.898284 34.547239 -0.035479 0.957002 0.035018 0.003942 -283362.000000 0 0 1
28.866000 0.210851 19.688984 34.942045 0.007304 0.972210 0.012778 0.000948 75150.200000 0 0 1
27.933060 1.277551 19.905284 34.323582 0.045704 0.952153 0.030647 0.007150 567167.000000 0 0 1
28.361750 2.598451 19.185484 34.339825 0.091363 0.977985 0.001009 0.014265 -124679.000000 0 0 1
28.132440 2.556251 17.775884 33.375899 0.090616 1.009131 0.001892 0.015189 62005.800000 0 0 1
27.965150 3.843351 17.223384 33.067596 0.136578 1.022945 -0.008137 0.024058 165511.000000 0 0 1
27.639760 3.824951 15.700084 32.016859 0.137512 1.058283 -0.011912 0.022716 -164433.000000 0 0 1
27.554200 5.102751 15.074084 31.819806 0.183115 1.077272 -0.025712 0.025902 231276.000000 0 0 1
26.942320 4.958051 13.807284 30.677548 0.181989 1.103944 -0.019673 0.028685 -171697.000000 0 0 1
26.537230 6.277351 13.110784 30.257600 0.232279 1.122639 -0.020774 0.024444 -241284.000000 0 0 1
25.426570 6.883851 13.713784 29.697908 0.264396 1.090800 -0.012486 0.020519 -329352.000000 0 0 1
24.985170 8.077251 13.107684 29.348119 0.312677 1.107804 -0.001268 0.004369 -116317.000000 0 0 1
23.723920 8.591551 13.890584 28.802560 0.347455 1.067553 0.001440 -0.001295 1065420.000000 0 0 1
22.458520 7.933251 13.815184 27.535085 0.339558 1.045199 0.011498 0.002873 988639.000000 0 0 1
22.431120 6.558551 14.201784 27.347037 0.284457 1.024745 0.011778 0.006532 -1632360.000000 0 0 1
21.216520 5.747851 13.822884 25.966337 0.264563 1.009436 0.031818 0.002617 -774400.000000 0 0 1
20.776420 5.747851 12.491484 24.914546 0.269902 1.045611 0.036222 -0.001125 261020.000000 0 1 0
19.684220 4.901151 12.289084 23.717323 0.244027 1.026112 0.040554 0.000024 -390190.000000 0 1 0
19.403320 4.931951 10.757584 22.727485 0.248910 1.077730 0.045455 -0.005142 -614827.000000 0 1 0
20.484020 4.295351 10.181284 23.274528 0.206698 1.118043 0.045204 -0.005449 139511.000000 0 1 0
20.188420 4.012151 8.858684 22.408613 0.196179 1.164375 0.054508 -0.009639 -280551.000000 0 1 0
21.238620 3.156151 8.152284 22.967368 0.147525 1.207935 0.043427 -0.006353 -1003900.000000 0 1 0
21.328620 1.769951 8.513184 23.032956 0.082795 1.192208 0.030291 -0.008001 1072830.000000 0 1 0
22.214020 1.110051 7.575584 23.496476 0.049929 1.242518 0.019288 -0.005414 1986170.000000 0 1 0
23.806620 1.273851 7.739484 25.065464 0.053457 1.256896 0.021463 -0.001412 1629830.000000 0 0 1
24.515720 0.623651 8.797084 26.053755 0.025433 1.226376 -0.004250 0.014066 647378.000000 0 0 1
24.379120 1.239851 10.095484 26.415857 0.050813 1.178647 0.001445 0.012926 -761186.000000 0 0 1
24.950690 0.465351 11.284284 27.387745 0.018649 1.146127 -0.015674 0.014164 -378454.000000 0 0 1
26.357110 0.461451 11.320184 28.688966 0.017506 1.165182 -0.014715 0.010611 122459.000000 0 0 1
26.960490 -0.169049 12.431784 29.689154 -0.006270 1.138748 -0.010824 0.008406 -448870.000000 0 0 1
28.462800 0.091151 12.455384 31.068889 0.003202 1.158302 -0.018268 0.010163 -545221.000000 0 0 1
28.783240 1.375151 12.866484 31.558079 0.047740 1.150854 -0.014067 0.013996 -463059.000000 0 0 1
30.174360 1.466351 12.919484 32.856586 0.048558 1.166678 -0.019644 0.021036 -480177.000000 0 0 1
30.724140 2.848051 13.336684 33.614749 0.092433 1.162822 -0.022733 0.022206 -655005.000000 0 0 1
30.478090 3.815651 12.363584 33.110895 0.124545 1.188126 -0.019862 0.011244 248090.000000 0 0 1
31.051350 5.101551 12.557184 33.880600 0.162839 1.191109 -0.018254 0.008723 465037.000000 0 0 1
32.574780 5.238451 12.238284 35.189960 0.159448 1.215597 -0.017865 0.011461 510252.000000 0 0 1
33.382810 4.304751 12.986684 36.077650 0.128243 1.202566 -0.020759 0.014455 -454919.000000 0 0 1
34.710628 4.500551 12.606784 37.202334 0.128940 1.225080 -0.016012 0.015523 -263610.000000 0 0 1
-33.975325 3.500451 13.330484 36.664393 -0.102667 1.198687 -0.006106 0.022006 -224000.000000 0 0 1
-33.938365 2.144651 12.871584 36.360553 -0.063109 1.208953 -0.002577 0.023675 138656.000000 0 0 1
34.608301 1.301951 13.066984 37.015883 0.037602 1.210010 -0.003562 0.033056 -140785.000000 0 0 1
34.157426 0.903651 14.542784 37.135413 0.026449 1.168410 -0.015373 0.028049 334188.000000 0 0 1
-34.556105 0.051351 15.238184 37.766775 -0.001486 1.155478 -0.015658 0.022629 791766.000000 0 0 1
34.697266 -0.177149 16.570484 38.451431 -0.005106 1.125256 -0.022000 0.014378 74535.400000 0 0 1
-34.026675 -1.091449 17.472284 38.265998 0.032065 1.096626 -0.027906 0.014546 821394.000000 0 0 1
-32.790505 -0.493249 17.877784 37.350712 0.015041 1.071684 -0.026305 0.012145 842788.000000 0 0 1
-31.915285 -1.393849 18.593484 36.962764 0.043646 1.043692 -0.018257 0.006548 538646.000000 0 0 1
-31.992285 -1.264549 20.113984 37.811080 0.039506 1.009883 -0.024394 0.002893 -96721.400000 0 0 1
-33.130345 -1.903149 20.637784 39.078893 0.057381 1.014428 -0.024252 -0.007074 -62839.800000 0 0 1
-33.123935 -1.551949 22.016784 39.803799 0.046819 0.984676 -0.016782 -0.004475 342982.000000 0 0 1
-33.796845 -2.659249 22.879784 40.899668 0.078522 0.977120 -0.019851 0.007075 112717.000000 0 0 1
-33.056185 -3.862049 22.732584 40.303811 0.116306 0.971537 -0.008435 -0.002119 77895.100000 0 0 1
-33.486925 -5.026449 23.455384 41.192164 0.148990 0.965004 -0.005570 0.000114 -421178.000000 0 0 1
-33.454595 -4.868749 25.001054 42.047204 0.144518 0.934035 -0.002000 -0.004481 226530.000000 0 0 1
-32.188235 -4.477349 25.502214 41.309709 0.138212 0.905437 0.000321 -0.009120 -455091.000000 0 0 1
-32.191935 -4.382649 26.936594 42.203180 0.135309 0.878561 0.005774 -0.014034 -80000.300000 0 0 1
-30.921865 -3.723549 27.512434 41.556715 0.119841 0.847252 0.005697 -0.010700 -122755.000000 0 0 1
-30.819805 -2.280949 27.366974 41.279709 0.073874 0.846025 0.006639 -0.006848 -124077.000000 0 0 1
-30.596955 -1.895949 26.020544 40.209912 0.061886 0.866999 0.013228 -0.008206 -529520.000000 0 0 1
-30.553105 -0.346749 25.795514 39.987761 0.011349 0.869662 0.005895 -0.005116 -1062950.000000 0 0 1
-31.763705 0.284351 25.725834 40.875816 -0.008952 0.890060 0.012537 -0.010801 -1121510.000000 0 0 1
-31.585705 1.615851 25.409444 40.569787 -0.051113 0.893980 0.000078 -0.007337 -15561.500000 0 0 1
-32.914255 2.277051 24.979364 41.382385 -0.069071 0.922759 0.001720 -0.004977 104497.000000 0 0 1
-33.500715 1.644251 23.829984 41.144497 -0.049042 0.953076 -0.008805 0.000770 142610.000000 0 0 1
-34.714475 2.204751 23.363784 41.902531 -0.063426 0.979335 -0.015299 0.006239 175366.000000 0 0 1
-34.549577 3.629051 22.708084 41.503017 -0.104655 0.991849 -0.025170 0.012217 -302879.000000 0 0 1
-33.863465 3.595351 21.442284 40.242172 -0.105776 1.008854 -0.012328 -0.006532 -38339.700000 0 0 1
-34.555809 3.034951 20.342984 40.213827 -0.087603 1.040406 -0.030923 0.003128 -222781.000000 0 0 1
-33.624385 2.364951 19.312584 38.848014 -0.070219 1.050506 -0.025786 0.004892 -12791.100000 0 0 1
-32.690835 3.164251 18.609884 37.749583 -0.096493 1.055282 -0.018017 0.008665 110286.000000 0 0 1
-32.381765 2.496151 17.404584 36.847375 -0.076933 1.078850 -0.014530 0.012741 -443199.000000 0 0 1
-31.438075 3.349451 16.550884 35.686176 -0.106141 1.088528 -0.009669 0.012001 -223042.000000 0 0 1
-32.038845 4.492551 15.949284 36.070075 -0.139314 1.112774 -0.006255 0.006703 -367626.000000 0 0 1
-31.127685 5.349951 15.356584 35.119502 -0.170208 1.118239 0.000501 0.001542 -695647.000000 0 0 1
-31.767565 6.638051 14.764084 35.654174 -0.205993 1.143852 0.010131 -0.007647 -362265.000000 0 0 1
-30.927885 7.336451 13.903884 34.694028 -0.232907 1.158453 0.011460 -0.005850 -356388.000000 0 0 1
-31.452305 8.581251 13.642984 35.341426 -0.266351 1.174468 0.012358 -0.009463 320659.000000 0 0 1
-30.543265 9.303651 12.576684 34.316497 -0.295677 1.195562 0.017463 -0.007240 313130.000000 0 0 1
-31.023625 10.595951 12.324484 35.023313 -0.329122 1.211203 0.017291 -0.002942 217776.000000 0 0 1
-30.308435 11.235551 11.251684 34.226295 -0.355002 1.235823 0.000252 -0.001586 4781.290000 0 0 1
-30.356355 12.821151 11.254884 34.821870 -0.399628 1.241673 0.010626 -0.007038 -11517.000000 0 0 1
-29.907555 13.465351 10.079184 34.312789 -0.423047 1.272655 0.004765 -0.002274 86735.400000 0 0 1
-30.037445 14.850451 10.212384 35.029656 -0.459156 1.274965 0.013455 0.000328 -36877.900000 0 0 1
-29.181905 15.599151 9.159584 34.333877 -0.490903 1.300746 0.012202 -0.006104 492737.000000 0 0 1
-27.765525 15.480151 9.286184 33.117861 -0.508607 1.286588 0.015439 -0.002135 818652.000000 0 0 1
-27.072195 16.525351 8.627584 32.869837 -0.548044 1.305208 0.009816 -0.008841 -441431.000000 0 0 1
-25.606865 16.735951 8.970284 31.878984 -0.578883 1.285559 0.009791 -0.007566 -548337.000000 0 0 1
-25.198335 17.423251 10.174084 32.280610 -0.604961 1.250154 0.006875 -0.006486 249154.000000 0 0 1
-25.533025 18.801551 10.312784 33.343474 -0.634716 1.256351 0.002637 -0.006758 -253836.000000 0 0 1
-25.393005 19.323751 11.813784 34.026131 -0.650496 1.216215 0.012754 0.006808 -25047.600000 0 0 1
-24.086325 19.500151 12.336284 33.355522 -0.680564 1.191957 -0.002143 0.018000 148951.000000 0 0 1
-23.916225 19.940251 13.676884 34.009655 -0.694987 1.156936 0.006942 0.009197 -263211.000000 0 0 1
-24.370525 18.965151 14.746384 34.220685 -0.661306 1.125284 0.010782 0.015459 -21764.200000 0 0 1
-23.639325 17.762951 14.847784 33.087714 -0.644406 1.105441 0.007594 0.017071 109343.000000 0 0 1
-24.212825 17.056351 15.898584 33.614655 -0.613696 1.078142 0.010912 0.020394 168177.000000 0 0 1
-23.347325 15.786751 16.287584 32.551567 -0.594553 1.046779 0.006847 0.022972 1093220.000000 0 0 1
-22.093925 16.227651 16.860384 32.183082 -0.633497 1.019385 0.013620 0.023202 507156.000000 0 0 1
-21.275625 15.155251 17.314084 31.338656 -0.618953 0.985456 0.004729 0.011322 -143418.000000 0 0 1
-21.803925 14.104351 18.430584 31.843843 -0.574173 0.953564 0.007266 0.011992 -283657.000000 0 0 1
-21.715725 14.577651 19.729384 32.761704 -0.591200 0.924531 0.015856 0.008810 -102853.000000 0 0 1
-22.528425 13.833151 20.572384 33.497896 -0.550673 0.909501 0.012120 0.005745 -943891.000000 0 0 1
-22.271025 14.112951 22.030384 34.358577 -0.564825 0.874748 0.010885 0.002019 -179595.000000 0 0 1
-20.937825 13.837151 22.416684 33.650661 -0.583978 0.841750 0.010373 0.000270 -94018.800000 0 0 1
-20.187025 15.013051 22.337484 33.643289 -0.639456 0.844707 0.020178 0.011267 -1235950.000000 0 0 1
-18.728725 14.808451 22.808984 33.019769 -0.669033 0.808246 0.036633 0.002248 176788.000000 0 0 1
-17.737325 14.334651 21.938684 31.644917 -0.679699 0.804770 0.026048 -0.000220 -349072.000000 0 0 1
-17.403325 15.242751 20.889684 31.170436 -0.719313 0.836350 0.027258 0.009953 -1272610.000000 0 0 1
-16.180725 14.780951 20.038384 29.695610 -0.740219 0.830112 0.025368 0.006969 1765410.000000 0 0 1
-14.914925 14.707051 20.750784 29.484698 -0.778381 0.790090 0.029831 0.012356 1120680.000000 0 0 1
-14.360125 15.872751 21.320684 30.211405 -0.835389 0.787363 0.016518 0.004040 -739778.000000 0 0 1
-13.173625 15.522051 22.245684 30.155413 -0.867055 0.741137 -0.000477 0.007841 -446253.000000 0 0 1
-12.103525 14.918551 21.584884 28.895773 -0.889199 0.727272 0.004019 0.021050 -524587.000000 0 0 1
-11.095525 14.707051 22.571284 29.135389 -0.924462 0.684550 0.002647 0.024664 240313.000000 0 0 1
-9.955925 13.812751 22.020984 27.835881 -0.946261 0.658190 0.001417 0.022324 -620358.000000 0 0 1
-9.615525 12.833051 23.014884 28.050498 -0.927757 0.608545 0.003556 0.017035 931098.000000 0 0 1
-8.439025 12.055051 22.676984 27.033073 -0.960043 0.575609 -0.003615 0.026040 2111870.000000 0 0 1
-7.019825 12.686751 23.022884 27.208175 -1.065408 0.562030 -0.010577 0.030022 -34309.200000 0 0 1
-6.788125 13.516351 21.888484 26.605942 -1.105378 0.604667 -0.020833 0.028832 -458707.000000 0 0 1
-6.097425 14.716851 22.141884 27.276864 -1.178010 0.623661 -0.014708 0.035367 51156.100000 0 0 1
-6.978625 15.930651 22.692384 28.590753 -1.157914 0.653934 -0.001889 0.009062 130584.000000 0 0 1
-7.772925 16.612151 21.764384 28.461735 -1.133152 0.700237 -0.028756 0.015353 -609188.000000 0 0 1
-7.208725 17.705851 21.146884 28.507080 -1.184152 0.735028 -0.012936 0.033247 -302829.000000 0 0 1
-8.167925 18.286251 19.999784 28.303593 -1.150715 0.786091 -0.014325 0.037400 1935020.000000 0 0 1
-9.356425 19.034951 20.320084 29.373081 -1.113940 0.806828 -0.015541 0.029430 305609.000000 0 0 1
-10.366725 18.317651 20.956884 29.701790 -1.055796 0.787560 -0.007693 0.021367 -112749.000000 0 0 1
-11.715825 19.103751 21.168084 30.826963 -1.020674 0.813892 -0.006999 0.015367 699770.000000 0 0 1
-12.514125 19.028251 20.011484 30.317275 -0.989055 0.849886 0.000263 0.014863 -422421.000000 0 0 1
-13.740625 19.689651 20.158984 31.350786 -0.961508 0.872369 -0.003927 0.004443 -52811.400000 0 0 1
-14.608725 19.586451 18.871984 30.873868 -0.929951 0.913144 0.017356 0.007550 -141327.000000 0 0 1
-15.191425 18.361351 18.480484 30.157038 -0.879594 0.911187 0.017982 0.012472 -27285.200000 0 0 1
-15.936425 18.529951 17.334284 29.963414 -0.860505 0.953889 0.021204 0.008001 -1363610.000000 0 0 1
-16.704725 17.289751 16.749284 29.300544 -0.802606 0.962296 0.018743 0.007025 633408.000000 0 0 1
-17.831725 16.818151 17.476584 30.104014 -0.756155 0.951405 0.018147 0.015502 36050.400000 0 0 1
-18.906025 17.736651 17.446284 31.247391 -0.753496 0.978428 0.021820 0.016259 -1092980.000000 0 0 1
33.003560 -10.240849 11.985471 36.575422 -0.300875 1.236937 0.005999 -0.001565 -623314.000000 0 0 1
31.633600 -10.454949 11.782471 35.338608 -0.319200 1.230871 -0.017431 0.003967 -146733.000000 0 0 1
31.115920 -11.631549 12.436071 35.470400 -0.357730 1.212580 0.007876 -0.002840 -139671.000000 0 0 1
29.622540 -11.810149 12.112571 34.112884 -0.379375 1.207804 -0.015162 -0.001279 -962803.000000 0 0 1
28.853540 -10.750949 12.669371 33.295985 -0.356669 1.180451 -0.017037 -0.005719 -1502.900000 0 0 1
27.504720 -11.151749 12.774771 32.312009 -0.385195 1.164340 -0.018692 -0.002036 63317.200000 0 0 1
27.030560 -12.218049 13.795971 32.714839 -0.424523 1.135473 -0.024840 -0.004125 -934413.000000 0 0 1
27.330710 -11.847049 15.162271 33.424762 -0.409023 1.099969 -0.025440 -0.007417 162591.000000 0 0 1
26.808520 -12.653249 16.202771 33.783594 -0.440986 1.070592 -0.020811 -0.005047 -401373.000000 0 0 1
25.407770 -12.251249 16.692971 32.776564 -0.449294 1.036430 -0.019866 -0.006468 -355165.000000 0 0 1
25.259580 -10.910949 17.160371 32.427974 -0.407745 1.013158 -0.031214 -0.013342 58723.000000 0 0 1
24.733220 -10.063049 16.107671 31.184198 -0.386409 1.027999 -0.018462 -0.011372 -67545.300000 0 0 1
24.186720 -8.670149 16.466971 30.517701 -0.344198 1.000849 -0.001439 -0.012334 -204447.000000 0 0 1
25.229330 -7.821949 16.833871 31.322216 -0.300637 1.003396 -0.019817 -0.016103 -486584.000000 0 0 1
24.777540 -6.525449 17.046971 30.775107 -0.257514 0.983730 -0.010939 -0.013769 74147.600000 0 0 1
25.942450 -5.515249 16.882471 31.439569 -0.209477 1.003941 -0.008216 -0.011522 224913.000000 0 0 1
26.319950 -5.295049 15.547871 31.024404 -0.198530 1.045869 -0.004847 -0.009551 646698.000000 0 0 1
27.551650 -4.563649 15.619871 31.998448 -0.164149 1.060834 -0.002573 -0.011075 373411.000000 0 0 1
28.151760 -3.845649 14.391571 31.850085 -0.135764 1.101954 -0.007923 0.001512 -237246.000000 0 0 1
28.431790 -4.591349 13.214571 31.687096 -0.160104 1.140618 -0.021951 0.007348 373169.000000 0 0 1
28.789360 -3.718749 12.158571 31.472007 -0.128460 1.174147 -0.018236 0.008296 -153952.000000 0 0 1
29.021420 -4.432249 10.768071 31.270418 -0.151552 1.219246 -0.008068 0.002394 -1275810.000000 0 0 1
30.272120 -4.984249 10.702671 32.492940 -0.163184 1.235145 -0.000678 0.005298 -896027.000000 0 0 1
30.308140 -5.673049 9.479071 32.258637 -0.185038 1.272548 0.005058 0.000859 799745.000000 0 0 1
31.633790 -6.474949 9.165971 33.565409 -0.201896 1.294205 0.004150 0.002528 864598.000000 0 0 1
32.819120 -5.715649 9.093471 34.531935 -0.172427 1.304319 0.006592 0.008669 291749.000000 0 0 1
33.931956 -6.513349 8.695471 35.628817 -0.189646 1.324249 0.018824 -0.006429 897137.000000 0 0 1
-34.428674 -5.712149 8.389371 35.893506 0.164415 1.334885 0.012026 0.001924 503943.000000 0 0 1
-34.464303 -5.184649 7.108171 35.569578 0.149316 1.369603 0.022543 -0.001991 686772.000000 0 0 1
-33.389895 -4.222949 7.066071 34.389646 0.125806 1.363851 0.011749 0.016336 455019.000000 0 0 1
-33.317625 -3.344349 5.741271 33.973681 0.100043 1.400990 0.021218 0.002488 -360476.000000 0 0 1
-32.854595 -4.011749 4.603271 33.417191 0.121505 1.432605 0.016344 -0.001488 131178.000000 0 0 1
-32.872685 -3.138549 3.473971 33.204403 0.095187 1.465981 0.008000 0.003212 22921.500000 0 0 1
-32.122605 -3.751449 2.239671 32.418379 0.116259 1.501655 0.004031 0.005067 67983.000000 0 0 1
-32.798775 -4.819049 1.595871 33.189301 0.145884 1.522694 0.010531 0.011097 -10732.300000 0 0 1
-33.893425 -4.490049 0.770371 34.198221 0.131709 1.548268 0.009878 0.006818 -267124.000000 0 0 1
-33.555675 -4.663349 -0.710229 33.885610 0.138089 1.591757 0.018778 0.007285 -697875.000000 0 0 1
-33.621895 -6.080649 -1.091329 34.184750 0.178920 1.602726 0.018221 0.000573 227972.000000 0 0 1
-32.919795 -6.407449 -2.299829 33.616328 0.192235 1.639264 0.019387 -0.000670 -887739.000000 0 0 1
-31.405355 -6.337849 -2.182829 32.112761 0.199133 1.638823 0.013692 -0.002334 -1312580.000000 0 0 1
-30.989735 -7.273549 -1.238329 31.855952 0.230536 1.609679 0.007875 -0.000170 -449273.000000 0 0 1
-29.776955 -6.756249 -0.747229 30.542959 0.223118 1.595264 0.015673 -0.011289 -469606.000000 0 0 1
-29.179335 -7.679549 0.331871 30.174811 0.257349 1.559798 0.008229 -0.003116 -343651.000000 0 0 1
-28.642655 -8.841449 -0.237129 29.977144 0.299402 1.578707 0.019079 0.000972 315094.000000 0 0 1
-28.514225 -9.875649 0.793871 30.186416 0.333412 1.544494 0.016639 0.007912 -212321.000000 0 0 1
-28.106595 -11.244249 0.221371 30.273137 0.380556 1.563484 0.023274 0.007562 -769498.000000 0 0 1
-26.839805 -11.075949 -0.350629 29.037471 0.391380 1.582872 0.020052 0.003347 198824.000000 0 0 1
-26.199305 -12.363049 -0.668629 28.977502 0.440903 1.593872 0.016522 0.004797 272704.000000 0 0 1
-26.715845 -13.206649 -1.909029 29.862959 0.459107 1.634766 0.016012 0.000951 -1007100.000000 0 0 1
-27.926775 -13.831549 -1.667829 31.208944 0.459864 1.624263 0.020253 0.000918 -260887.000000 0 0 1
-28.105595 -14.904449 -2.556729 31.915575 0.487594 1.650991 0.011316 -0.002800 -115943.000000 0 0 1
-28.971345 -16.046349 -1.900029 33.172794 0.505809 1.628104 0.018348 -0.002110 51512.800000 0 0 1
-28.345635 -16.786049 -0.882529 32.954898 0.534658 1.597579 0.008637 0.002787 -185382.000000 0 0 1
-29.243815 -17.435849 -0.033529 34.047183 0.537638 1.571781 0.013009 0.004273 -478281.000000 0 0 1
-29.448795 -18.949349 -0.243929 35.019550 0.571769 1.577762 0.006697 0.005218 -1330180.000000 0 0 1
-28.390425 -19.721149 0.087571 34.568014 0.607120 1.568263 0.014949 0.000945 -922893.000000 0 0 1
-28.633035 -21.136749 -0.008329 35.589506 0.635903 1.571030 0.010608 0.003407 -34124.300000 0 0 1
-29.441295 -21.767749 1.165771 36.633097 0.636657 1.538968 0.011641 0.005847 -286720.000000 0 0 1
-28.727425 -21.984649 2.371171 36.252065 0.653212 1.505342 0.013940 0.003519 451256.000000 0 0 1
-29.609405 -22.468549 3.393271 37.323811 0.649129 1.479756 0.012012 0.001367 478804.000000 0 0 1
-28.824085 -22.654349 4.718271 36.963624 0.666116 1.442801 0.009462 0.005609 -24255.100000 0 0 1
-28.373015 -21.423849 5.268071 35.941089 0.646743 1.423691 0.003803 0.007362 82913.700000 0 0 1
-27.812865 -21.493049 6.560271 35.756730 0.657918 1.386282 0.003559 0.005270 101778.000000 0 0 1
-27.631275 -20.209349 7.344771 35.012152 0.631487 1.359449 0.004124 0.010148 168809.000000 0 0 1
-26.826755 -20.418949 8.488371 34.765798 0.650593 1.324144 -0.006756 -0.001553 66427.500000 0 0 1
-26.341085 -19.258949 9.126771 33.883002 0.631319 1.298067 0.008602 -0.004549 254050.000000 0 0 1
-25.160935 -19.451949 10.112071 33.372218 0.658123 1.262948 0.016472 -0.006067 -117521.000000 0 0 1
-25.561615 -20.067249 11.319071 34.412382 0.665561 1.235632 0.022848 -0.011554 240406.000000 0 0 1
-24.552625 -20.374849 12.292671 34.191748 0.692675 1.203041 0.027193 -0.013794 68296.500000 0 0 1
-23.983125 -19.183449 13.086271 33.383312 0.674663 1.167991 0.025494 -0.016285 -870695.000000 0 0 1
-23.121825 -18.368849 12.344171 32.006436 0.671340 1.174854 0.022608 -0.010633 -211438.000000 0 0 1
-22.802525 -17.162749 13.038071 31.376845 0.645207 1.142269 0.023798 -0.007845 304128.000000 0 0 1
-21.971825 -17.244249 14.348071 31.400515 0.665425 1.096247 0.019621 -0.006295 -714905.000000 0 0 1
-22.783125 -17.680949 15.376471 32.682145 0.659969 1.080956 0.024241 -0.014015 -512652.000000 0 0 1
-22.053525 -17.933649 16.523571 32.878597 0.682730 1.044235 0.023490 -0.005073 -243220.000000 0 0 1
-22.989125 -18.535549 17.583271 34.369141 0.678555 1.033750 0.021975 0.017737 -151130.000000 0 0 1
-23.795225 -17.589549 18.194771 34.736935 0.636556 1.019505 0.020155 0.009463 -345072.000000 0 0 1
-24.825325 -18.284749 18.893671 36.160747 0.634828 1.021026 0.014867 0.018549 316316.000000 0 0 1
-25.761125 -17.252749 19.615471 36.688685 0.590114 1.006707 0.009175 0.021849 481383.000000 0 0 1
-25.069485 -16.598849 20.714271 36.511394 0.584844 0.967528 0.005873 0.022661 291613.000000 0 0 1
-25.943295 -15.755949 21.410471 37.144485 0.545786 0.956467 -0.001813 0.017764 -400181.000000 0 0 1
-25.264095 -15.200949 22.630471 37.168287 0.541655 0.916167 -0.007253 0.018247 114559.000000 0 0 1
-24.207525 -14.329749 22.256071 35.870304 0.534483 0.901468 -0.006507 0.017414 -137121.000000 0 0 1
-23.438525 -13.860949 23.312171 35.846167 0.534053 0.862765 -0.010646 0.018195 -231268.000000 0 0 1
-22.226625 -13.000849 22.891971 34.454133 0.529259 0.844081 -0.007054 0.021570 -166897.000000 0 0 1
-22.566325 -11.862649 22.122771 33.754681 0.483979 0.856086 -0.008628 0.021615 782040.000000 0 0 1
-21.399525 -11.147149 21.664171 32.427379 0.480232 0.839167 -0.007983 0.017545 635288.000000 0 0 1
-21.419525 -9.742849 22.350171 32.453803 0.426887 0.811134 -0.002281 0.018064 -44064.100000 0 0 1
-21.024125 -9.743649 23.698971 33.145041 0.433983 0.774161 -0.005504 0.014083 -997517.000000 0 0 1
-19.721625 -9.353949 23.900871 32.368048 0.442876 0.740088 -0.008843 0.024136 -1082790.000000 0 0 1
-19.179625 -9.695749 25.303771 33.198590 0.468057 0.704101 -0.004241 0.002813 108755.000000 0 0 1
-19.039025 -11.079749 25.648671 33.809757 0.527041 0.709608 0.002383 0.010265 245076.000000 0 0 1
-18.313825 -11.321249 26.873371 34.434648 0.553680 0.675464 0.002990 0.005033 -324999.000000 0 0 1
-18.462425 -12.707049 27.604471 35.557518 0.602807 0.681969 -0.000645 -0.007191 146050.000000 0 0 1
-19.640325 -12.900249 28.355971 36.826891 0.581158 0.691986 0.007935 -0.004290 -909581.000000 0 0 1
-20.745625 -13.321649 27.639271 37.037503 0.570832 0.728384 -0.001543 0.001995 -670678.000000 0 0 1
-21.902125 -13.690249 28.595471 38.533453 0.558646 0.734606 -0.002774 -0.000245 -458393.000000 0 0 1
-21.830825 -14.893049 29.329371 39.479106 0.598681 0.733391 -0.000827 -0.001589 555867.000000 0 0 1
-20.837725 -14.815249 30.408571 39.728876 0.618058 0.699130 0.003519 -0.001811 687202.000000 0 0 1
-21.024225 -15.876249 31.544371 41.098913 0.646783 0.695828 0.004814 -0.009861 -969473.000000 0 0 1
-20.851825 -17.220749 31.157071 41.256707 0.690313 0.714837 0.013615 -0.007213 38569.600000 0 0 1
-21.024025 -18.142449 32.207171 42.525992 0.711958 0.711547 0.015799 -0.007730 571517.000000 0 0 1
-22.528925 -18.377149 32.612271 43.690185 0.684249 0.728094 0.015152 -0.007728 678874.000000 0 0 1
-23.148025 -17.363749 33.364071 44.164376 0.643577 0.714452 0.015094 -0.003702 -470081.000000 0 0 1
-24.411725 -17.750449 33.826371 45.334690 0.628702 0.728539 0.013432 -0.006942 -413237.000000 0 0 1
-25.140335 -16.666549 34.637471 45.929998 0.585419 0.716459 0.011875 -0.006972 -67033.000000 0 0 1
-24.650625 -16.478749 -33.316041 44.600012 0.589265 2.414329 0.018495 -0.002804 240219.000000 0 0 1
-25.268235 -15.333149 -32.741441 44.108856 0.545416 2.407274 0.034434 0.003776 -92733.700000 0 0 1
-24.542625 -14.739349 -31.496041 42.562771 0.540832 2.403852 0.036084 0.013612 -68383.100000 0 0 1
-24.779825 -15.485349 -30.309541 42.101117 0.558540 2.374487 0.036279 0.019066 184445.000000 0 0 1
-24.133625 -15.010549 -29.110841 40.684021 0.556422 2.368186 0.036117 0.028935 -24256.300000 0 0 1
-24.461425 -15.901749 -27.827141 40.318442 0.576428 2.332540 0.026397 0.021613 1379160.000000 0 0 1
-25.832765 -15.861849 -27.311441 40.802510 0.550665 2.304139 0.025336 0.021700 1710480.000000 0 0 1
-26.246875 -14.711049 -26.568041 40.139435 0.510859 2.294139 0.034795 0.022099 69605.900000 0 0 1
-25.507185 -14.481649 -25.188041 38.662282 0.516367 2.280341 0.015032 0.019842 194185.000000 0 0 1
-24.182025 -13.901549 -25.233241 37.613028 0.521737 2.306170 0.002630 0.019795 1488340.000000 0 0 1
-23.385325 -14.278249 -24.098141 36.489207 0.548151 2.292172 -0.009781 0.019486 120787.000000 0 0 1
-22.881525 -15.730849 -24.219141 36.845496 0.602281 2.288048 -0.013559 0.016286 -1390380.000000 0 0 1
-21.912525 -15.882249 -25.229141 36.998840 0.627179 2.321140 -0.004778 0.021759 88134.600000 0 0 1
-21.584625 -17.255949 -25.302441 37.468351 0.674409 2.312170 0.005796 0.015910 65142.500000 0 0 1
-20.593625 -17.553649 -26.476341 37.857953 0.705876 2.345298 0.002459 0.020378 2768.000000 0 0 1
-21.140525 -17.604349 -27.759541 39.082311 0.694382 2.360698 0.010728 0.015441 -62233.300000 0 0 1
-21.953825 -18.702649 -28.045741 40.228387 0.705601 2.342229 0.016909 0.003242 -299346.000000 0 0 1
-22.688925 -18.692649 -29.411241 41.583934 0.689125 2.356431 0.018349 0.010596 -202643.000000 0 0 1
-21.930525 -19.042449 -30.536341 42.142982 0.715027 2.381234 0.016055 0.008971 150274.000000 0 0 1
-22.696125 -18.825649 -31.713641 43.304436 0.692451 2.392551 0.013116 0.010577 -158057.000000 0 0 1
-21.951425 -19.203149 -33.007241 44.046611 0.718718 2.417908 0.015276 0.000808 239276.000000 0 0 1
-20.729325 -18.550449 -33.345441 43.425137 0.729984 2.446327 0.013146 0.005007 1007660.000000 0 0 1
-19.509425 -19.152149 -32.895341 42.772958 0.776157 2.448179 0.007176 0.000828 634135.000000 0 0 1
-18.987925 -20.318849 -33.811041 43.778801 0.819245 2.453274 0.009667 -0.004027 -533139.000000 0 0 1
-18.656325 -19.888949 34.222671 43.758656 0.817366 0.672803 0.000048 -0.004714 101913.000000 0 0 1
-18.213925 -20.944649 33.370771 43.405458 0.855020 0.693810 0.006108 -0.007463 -212818.000000 0 0 1
-19.328825 -21.711349 32.620871 43.693333 0.843387 0.727879 0.014349 -0.004534 180903.000000 0 0 1
-20.233325 -22.403849 33.478971 45.079501 0.836261 0.733755 0.016899 -0.004622 799441.000000 0 0 1
-21.483125 -22.775449 32.873671 45.397401 0.814589 0.761023 0.020161 -0.003622 438974.000000 0 0 1
-21.566325 -24.027249 32.028971 45.478237 0.839321 0.789402 0.017228 -0.002590 -553059.000000 0 0 1
-21.137825 -25.169189 32.702971 46.365721 0.872237 0.787913 0.012802 0.001955 97389.000000 0 0 1
-21.135725 -26.198959 31.775671 46.290362 0.891960 0.814211 0.012177 0.000323 -797.114000 0 0 1
-20.552525 -27.572199 32.252071 47.146883 0.930241 0.817460 0.009056 0.000156 -350431.000000 0 0 1
-21.218625 -28.032139 33.361571 48.466744 0.922869 0.811599 0.003013 -0.004044 -40309.500000 0 0 1
-20.651025 -29.199609 33.995671 49.343567 0.955230 0.810745 0.002992 -0.012508 -400242.000000 0 0 1
-21.738525 -30.000599 -34.507041 50.629392 0.943748 2.320691 0.004284 -0.006348 -725693.000000 0 0 1
-22.564725 -30.710459 33.941671 51.032697 0.937122 0.843173 0.000880 -0.001756 405444.000000 0 0 1
-23.715925 -29.959569 33.541771 50.843596 0.901200 0.850370 0.000636 -0.000785 13762.700000 0 0 1
-24.862825 -29.661549 34.581771 51.902471 0.873183 0.841582 -0.011050 -0.001375 -688978.000000 0 0 1
-25.763635 -28.711409 34.072171 51.468658 0.839458 0.847314 -0.001444 0.000270 -217545.000000 0 0 1
-26.693705 -28.457939 -34.223941 51.900735 0.817376 2.290832 -0.010559 0.007411 -255274.000000 0 0 1
-27.858415 -27.469969 -34.482441 52.151023 0.778378 2.293218 -0.008575 0.007223 227984.000000 0 0 1
-28.846655 -28.094119 34.038871 52.726215 0.772183 0.869017 -0.003372 0.011659 -279236.000000 0 0 1
-29.913945 -27.256169 33.682771 52.652369 0.738943 0.876662 -0.001324 0.016011 -57416.300000 0 0 1
